#              Generated by Buildcell
#
# at 01:38:46 (GMT+0.0) 24th November 2020
# in /lustre/scratch/uccabz1/launch_tmp
# on node-c12c-035
# by uccabz1
#
# compiler GCC version 4.9.2
# options -cpp -iprefix /lustre/shared/ucl/apps/gcc/4.9.2/bin/../lib/gcc/x86_64-unknown-linux-gnu/4.9.2/ -mtune=corei7 -march=x86-64 -g -Og
#
# seed  2084504583   478091906 -2085614068 -1842884023  1463726769 -1236807568   190218560   412067944 -1196544645  -875313402 -1402419257  -156616012
#
#      Author: C. J. Pickard (cjp20@cam.ac.uk)
#                Space group: P-1
#

%BLOCK LATTICE_ABC
      5.22935      5.83539      6.05139
     86.16470     64.49497     74.08801
%ENDBLOCK LATTICE_ABC

%BLOCK POSITIONS_FRAC
  Li   0.5328766  -0.0612985  -0.2565260 SPIN=   0.00000
  Li  -0.5328766   0.0612985   0.2565260 SPIN=   0.00000
   O  -0.2013696  -0.2128236  -0.0647528 SPIN=   0.00000
   O   0.3544937  -0.3564053  -0.1627188 SPIN=   0.00000
   O   0.1982871  -0.4517270  -0.4689289 SPIN=   0.00000
   O   0.1838249  -0.0293903  -0.3984766 SPIN=   0.00000
   P   0.1165527  -0.2571849  -0.2640651 SPIN=   0.00000
   O   0.2013696   0.2128236   0.0647528 SPIN=   0.00000
   O  -0.3544937   0.3564053   0.1627188 SPIN=   0.00000
   O  -0.1982871   0.4517270   0.4689289 SPIN=   0.00000
   O  -0.1838249   0.0293903   0.3984766 SPIN=   0.00000
   P  -0.1165527   0.2571849   0.2640651 SPIN=   0.00000
  Fe  -0.0971725   0.3006083  -0.2177473 SPIN=   4.00000
  Fe   0.0971725  -0.3006083   0.2177473 SPIN=   4.00000
%ENDBLOCK POSITIONS_FRAC

# Note: total spin =   8.00

KPOINTS_MP_SPACING 0.07

%BLOCK SPECIES_POT
QC5
%ENDBLOCK SPECIES_POT

%BLOCK HUBBARD_U
Fe d:4.0
%ENDBLOCK HUBBARD_U

SNAP_TO_SYMMETRY
SYMMETRY_GENERATE

