#              Generated by Buildcell
#
# at 03:18:14 (GMT+0.0) 24th November 2020
# in /lustre/scratch/uccabz1/launch_tmp
# on node-c12n-026
# by uccabz1
#
# compiler GCC version 4.9.2
# options -cpp -iprefix /lustre/shared/ucl/apps/gcc/4.9.2/bin/../lib/gcc/x86_64-unknown-linux-gnu/4.9.2/ -mtune=corei7 -march=x86-64 -g -Og
#
# seed   198922920  2070301846  1759104809 -1009267420 -1822052877  1802143824  1092539786 -1345476285  1089714578  -856797461  1879824952 -1197689845
#
#      Author: C. J. Pickard (cjp20@cam.ac.uk)
#                Space group: P2/m
#

%BLOCK LATTICE_ABC
      4.90672      5.70800      5.98476
    107.34085     90.00000     90.00000
%ENDBLOCK LATTICE_ABC

%BLOCK POSITIONS_FRAC
  Li  -0.0000000  -0.4146769   0.2859267 SPIN=   0.00000
  Li   0.0000000   0.4146769  -0.2859267 SPIN=   0.00000
   O   0.2500449  -0.2753715   0.5825794 SPIN=   0.00000
   O   0.2512342  -0.1624746   0.1929027 SPIN=   0.00000
   O   0.2500449   0.2753715  -0.5825794 SPIN=   0.00000
   O   0.2512342   0.1624746  -0.1929027 SPIN=   0.00000
   O  -0.2500449   0.2753715  -0.5825794 SPIN=   0.00000
   O  -0.2512342   0.1624746  -0.1929027 SPIN=   0.00000
   O  -0.2500449  -0.2753715   0.5825794 SPIN=   0.00000
   O  -0.2512342  -0.1624746   0.1929027 SPIN=   0.00000
   P  -0.5000000  -0.3100758  -0.1977142 SPIN=   0.00000
   P   0.5000000   0.3100758   0.1977142 SPIN=   0.00000
  Fe  -0.0000000  -0.0000000  -0.0000000 SPIN=   6.06188
  Fe  -0.5000000   0.0000000   0.5000000 SPIN=   1.93812
%ENDBLOCK POSITIONS_FRAC

# Note: total spin =   8.00

KPOINTS_MP_SPACING 0.07

%BLOCK SPECIES_POT
QC5
%ENDBLOCK SPECIES_POT

%BLOCK HUBBARD_U
Fe d:4.0
%ENDBLOCK HUBBARD_U

SNAP_TO_SYMMETRY
SYMMETRY_GENERATE

