#              Generated by Buildcell
#
# at 03:29:19 (GMT+0.0) 24th November 2020
# in /scratch/scratch/uccabz1/launch_tmp
# on node-a14b-028
# by uccabz1
#
# compiler GCC version 4.9.2
# options -cpp -iprefix /scratch/UCL/applications/gcc/4.9.2/bin/../lib/gcc/x86_64-unknown-linux-gnu/4.9.2/ -mtune=corei7 -march=x86-64 -g -O2
#
# seed   345962869  1510643823  -434376723 -1506692668   229605835 -1438389130   855552918   700120102   485539436   936369155  1257534512 -2112688844
#
#      Author: C. J. Pickard (cjp20@cam.ac.uk)
#                Space group: Pmc21
#

%BLOCK LATTICE_ABC
      4.17306      4.96189      7.72713
     90.00000     90.00000     90.00000
%ENDBLOCK LATTICE_ABC

%BLOCK POSITIONS_FRAC
  Li  -0.2262818  -0.0000000   0.0054619 SPIN=   0.00000
  Li   0.2262818   0.0000000  -0.4945381 SPIN=   0.00000
   O  -0.6230356   0.2518385  -0.0385277 SPIN=   0.00000
   O  -0.1033043   0.2482020  -0.2236233 SPIN=   0.00000
   O   0.6230356  -0.2518385   0.4614723 SPIN=   0.00000
   O   0.1033043  -0.2482020   0.2763767 SPIN=   0.00000
   O   0.6230356   0.2518385   0.4614723 SPIN=   0.00000
   O   0.1033043   0.2482020   0.2763767 SPIN=   0.00000
   O  -0.6230356  -0.2518385  -0.0385277 SPIN=   0.00000
   O  -0.1033043  -0.2482020  -0.2236233 SPIN=   0.00000
   P   0.0026111  -0.5000000  -0.0039981 SPIN=   0.00000
   P  -0.0026111   0.5000000   0.4960019 SPIN=   0.00000
  Fe   0.4983860   0.5000000  -0.2538648 SPIN=   4.00000
  Fe  -0.4983860   0.5000000   0.2461352 SPIN=   4.00000
%ENDBLOCK POSITIONS_FRAC

# Note: total spin =   8.00

KPOINTS_MP_SPACING 0.07

%BLOCK SPECIES_POT
QC5
%ENDBLOCK SPECIES_POT

%BLOCK HUBBARD_U
Fe d:4.0
%ENDBLOCK HUBBARD_U

SNAP_TO_SYMMETRY
SYMMETRY_GENERATE

