#              Generated by Buildcell
#
# at 23:17:52 (GMT+0.0) 23rd November 2020
# in /lustre/scratch/uccabz1/launch_tmp
# on node-c12o-027
# by uccabz1
#
# compiler GCC version 4.9.2
# options -cpp -iprefix /lustre/shared/ucl/apps/gcc/4.9.2/bin/../lib/gcc/x86_64-unknown-linux-gnu/4.9.2/ -mtune=corei7 -march=x86-64 -g -Og
#
# seed  2034464023   506965214  2023285280   685345836   623984552  -773482425  -886060412 -1136059996 -2023080190  1901053549   258667976  1429810676
#
#      Author: C. J. Pickard (cjp20@cam.ac.uk)
#                Space group: C2
#

%BLOCK LATTICE_ABC
      4.88515      5.06418      7.63560
     82.93251     75.22079     61.16271
%ENDBLOCK LATTICE_ABC

%BLOCK POSITIONS_FRAC
  Li   0.1862242   0.5653766  -0.2627573 SPIN=   0.00000
  Li  -0.7516008   0.5653766   0.2627573 SPIN=   0.00000
   O   0.1530560   0.1316227   0.3639252 SPIN=   0.00000
   O  -0.2778238   0.1098155   0.2337306 SPIN=   0.00000
   O  -0.3846794   0.6019542   0.3353889 SPIN=   0.00000
   O   0.0349070   0.3643549   0.0541443 SPIN=   0.00000
   P  -0.1023569   0.2936050   0.2507602 SPIN=   0.00000
   O  -0.2846787   0.1316227  -0.3639252 SPIN=   0.00000
   O   0.1680083   0.1098155  -0.2337306 SPIN=   0.00000
   O  -0.2172748   0.6019542  -0.3353889 SPIN=   0.00000
   O  -0.3992619   0.3643549  -0.0541443 SPIN=   0.00000
   P  -0.1912481   0.2936050  -0.2507602 SPIN=   0.00000
  Fe  -0.4970531   0.9941061   0.0000000 SPIN=   4.09445
  Fe   0.5258179  -0.0516357  -0.5000000 SPIN=   3.90555
%ENDBLOCK POSITIONS_FRAC

# Note: total spin =   8.00

KPOINTS_MP_SPACING 0.07

%BLOCK SPECIES_POT
QC5
%ENDBLOCK SPECIES_POT

%BLOCK HUBBARD_U
Fe d:4.0
%ENDBLOCK HUBBARD_U

SNAP_TO_SYMMETRY
SYMMETRY_GENERATE

