#              Generated by Buildcell
#
# at 00:44:39 (GMT+0.0) 24th November 2020
# in /lustre/scratch/uccabz1/launch_tmp
# on node-c12n-026
# by uccabz1
#
# compiler GCC version 4.9.2
# options -cpp -iprefix /lustre/shared/ucl/apps/gcc/4.9.2/bin/../lib/gcc/x86_64-unknown-linux-gnu/4.9.2/ -mtune=corei7 -march=x86-64 -g -Og
#
# seed   500712450   354256002  -702057668 -1962795480  1263802287 -1013742709  -538575812 -1443858381 -1817724040  1448770908   630125842  1019898936
#
#      Author: C. J. Pickard (cjp20@cam.ac.uk)
#                Space group: P-1
#

%BLOCK LATTICE_ABC
      4.03556      4.77072      8.74075
    103.28189     97.49436     97.74001
%ENDBLOCK LATTICE_ABC

%BLOCK POSITIONS_FRAC
  Li   0.1978612   0.7529751   0.4538432 SPIN=   0.00000
  Li  -0.1978612  -0.7529751  -0.4538432 SPIN=   0.00000
   O  -0.1711929  -0.5662765   0.2281499 SPIN=   0.00000
   O  -0.0661279   0.0004445   0.3242441 SPIN=   0.00000
   O  -0.1841399  -0.2268021   0.0345007 SPIN=   0.00000
   O  -0.6500798  -0.2651231   0.1957208 SPIN=   0.00000
   P  -0.2672471  -0.2805187   0.1973849 SPIN=   0.00000
   O   0.1711929   0.5662765  -0.2281499 SPIN=   0.00000
   O   0.0661279  -0.0004445  -0.3242441 SPIN=   0.00000
   O   0.1841399   0.2268021  -0.0345007 SPIN=   0.00000
   O   0.6500798   0.2651231  -0.1957208 SPIN=   0.00000
   P   0.2672471   0.2805187  -0.1973849 SPIN=   0.00000
  Fe   0.3324449   0.1723931   0.1947601 SPIN=   4.00000
  Fe  -0.3324449  -0.1723931  -0.1947601 SPIN=   4.00000
%ENDBLOCK POSITIONS_FRAC

# Note: total spin =   8.00

KPOINTS_MP_SPACING 0.07

%BLOCK SPECIES_POT
QC5
%ENDBLOCK SPECIES_POT

%BLOCK HUBBARD_U
Fe d:4.0
%ENDBLOCK HUBBARD_U

SNAP_TO_SYMMETRY
SYMMETRY_GENERATE

