#              Generated by Buildcell
#
# at 21:43:21 (GMT+0.0) 23rd November 2020
# in /lustre/scratch/uccabz1/launch_tmp
# on node-c12f-026
# by uccabz1
#
# compiler GCC version 4.9.2
# options -cpp -iprefix /lustre/shared/ucl/apps/gcc/4.9.2/bin/../lib/gcc/x86_64-unknown-linux-gnu/4.9.2/ -mtune=corei7 -march=x86-64 -g -Og
#
# seed -1446143842   143350708  1084661994  -649298722  -466714802  1970498890  -593178413  1988295100 -1190769757  1611849129  -586719319  -151392263
#
#      Author: C. J. Pickard (cjp20@cam.ac.uk)
#                Space group: Ima2
#

%BLOCK LATTICE_ABC
      5.74029      6.07397      6.07397
     66.20088     61.80123     61.80123
%ENDBLOCK LATTICE_ABC

%BLOCK POSITIONS_FRAC
  Li  -0.0000000   0.0017086  -0.0017086 SPIN=   0.00000
  Li   0.5000000  -0.4982914   0.4982914 SPIN=   0.00000
   O  -0.5984088   0.0274590  -0.2329918 SPIN=   0.00000
   O  -0.2497173  -0.2278677   0.0167591 SPIN=   0.00000
   O   0.5984088   0.2329918  -0.0274590 SPIN=   0.00000
   O   0.2497173  -0.0167591   0.2278677 SPIN=   0.00000
   O   0.3039417   0.5274590   0.2670082 SPIN=   0.00000
   O  -0.0391742   0.2721323   0.5167591 SPIN=   0.00000
   O  -0.3039417  -0.2670082  -0.5274590 SPIN=   0.00000
   O   0.0391742  -0.5167591  -0.2721323 SPIN=   0.00000
   P  -0.3556096   0.4851660   0.0148340 SPIN=   0.00000
   P   0.3556096  -0.0148340  -0.4851660 SPIN=   0.00000
  Fe  -0.1616084  -0.1193556  -0.3806444 SPIN=   4.00000
  Fe   0.1616084   0.3806444   0.1193556 SPIN=   4.00000
%ENDBLOCK POSITIONS_FRAC

# Note: total spin =   8.00

KPOINTS_MP_SPACING 0.07

%BLOCK SPECIES_POT
QC5
%ENDBLOCK SPECIES_POT

%BLOCK HUBBARD_U
Fe d:4.0
%ENDBLOCK HUBBARD_U

SNAP_TO_SYMMETRY
SYMMETRY_GENERATE

