#              Generated by Buildcell
#
# at 05:07:32 (GMT+0.0) 24th November 2020
# in /lustre/scratch/uccabz1/launch_tmp
# on node-c12l-030
# by uccabz1
#
# compiler GCC version 4.9.2
# options -cpp -iprefix /lustre/shared/ucl/apps/gcc/4.9.2/bin/../lib/gcc/x86_64-unknown-linux-gnu/4.9.2/ -mtune=corei7 -march=x86-64 -g -Og
#
# seed   434049373 -1628385790 -1891200184  -469560875  1987044603  1491536238   372771852 -1702256010  -865301886   890062284  -835625881   610829578
#
#      Author: C. J. Pickard (cjp20@cam.ac.uk)
#                Space group: Cc
#

%BLOCK LATTICE_ABC
      5.34533      5.87123      6.33103
     62.37471     78.84993     65.35169
%ENDBLOCK LATTICE_ABC

%BLOCK POSITIONS_FRAC
  Li  -0.0550684   0.0120190   0.1791175 SPIN=   0.00000
  Li   0.4449316  -0.8088635   0.8208825 SPIN=   0.00000
   O  -0.0916660   0.2092847  -0.1970839 SPIN=   0.00000
   O   0.1191020  -0.3244577  -0.0591418 SPIN=   0.00000
   O  -0.0194686  -0.0209929  -0.4807284 SPIN=   0.00000
   O   0.3918392  -0.0395136  -0.3300080 SPIN=   0.00000
   P   0.0931936  -0.0303860  -0.2637783 SPIN=   0.00000
   O  -0.5916660   1.0122008  -0.8029161 SPIN=   0.00000
   O  -0.3808980   0.6164004  -0.9408582 SPIN=   0.00000
   O  -0.5194686   0.4982787  -0.5192716 SPIN=   0.00000
   O  -0.1081608   0.6304784  -0.6699920 SPIN=   0.00000
   P  -0.4068064   0.7058357  -0.7362217 SPIN=   0.00000
  Fe  -0.2244998   0.6319152  -0.2789567 SPIN=   4.00000
  Fe   0.2755002  -0.6470415   0.2789567 SPIN=   4.00000
%ENDBLOCK POSITIONS_FRAC

# Note: total spin =   8.00

KPOINTS_MP_SPACING 0.07

%BLOCK SPECIES_POT
QC5
%ENDBLOCK SPECIES_POT

%BLOCK HUBBARD_U
Fe d:4.0
%ENDBLOCK HUBBARD_U

SNAP_TO_SYMMETRY
SYMMETRY_GENERATE

