#              Generated by Buildcell
#
# at 04:00:59 (GMT+0.0) 24th November 2020
# in /lustre/scratch/uccabz1/launch_tmp
# on node-c12g-024
# by uccabz1
#
# compiler GCC version 4.9.2
# options -cpp -iprefix /lustre/shared/ucl/apps/gcc/4.9.2/bin/../lib/gcc/x86_64-unknown-linux-gnu/4.9.2/ -mtune=corei7 -march=x86-64 -g -Og
#
# seed  2051892009  -178252633  1358966606   785452365  1237148645  1105494814  1426460594  1781321120  -221816293 -1038785360 -1348240957  -912440268
#
#      Author: C. J. Pickard (cjp20@cam.ac.uk)
#                Space group: P-1
#

%BLOCK LATTICE_ABC
      4.81288      5.67767      6.46911
     66.52157     86.11856     80.68403
%ENDBLOCK LATTICE_ABC

%BLOCK POSITIONS_FRAC
  Li  -0.2347139  -0.2780268  -0.1115670 SPIN=   0.00000
  Li   0.2347139   0.2780268   0.1115670 SPIN=   0.00000
   O   0.2578585  -0.1937675  -0.0504955 SPIN=   0.00000
   O   0.3065952  -0.1222376   0.3170742 SPIN=   0.00000
   O   0.1519523  -0.5290947   0.3477502 SPIN=   0.00000
   O   0.6507429  -0.4588093   0.2396354 SPIN=   0.00000
   P   0.3409644  -0.3205053   0.1997436 SPIN=   0.00000
   O  -0.2578585   0.1937675   0.0504955 SPIN=   0.00000
   O  -0.3065952   0.1222376  -0.3170742 SPIN=   0.00000
   O  -0.1519523   0.5290947  -0.3477502 SPIN=   0.00000
   O  -0.6507429   0.4588093  -0.2396354 SPIN=   0.00000
   P  -0.3409644   0.3205053  -0.1997436 SPIN=   0.00000
  Fe  -0.2045107  -0.1503151   0.3422471 SPIN=   4.00000
  Fe   0.2045107   0.1503151  -0.3422471 SPIN=   4.00000
%ENDBLOCK POSITIONS_FRAC

# Note: total spin =   8.00

KPOINTS_MP_SPACING 0.07

%BLOCK SPECIES_POT
QC5
%ENDBLOCK SPECIES_POT

%BLOCK HUBBARD_U
Fe d:4.0
%ENDBLOCK HUBBARD_U

SNAP_TO_SYMMETRY
SYMMETRY_GENERATE

