#              Generated by Buildcell
#
# at 02:25:00 (GMT+0.0) 24th November 2020
# in /scratch/scratch/uccabz1/launch_tmp
# on node-a14e-012
# by uccabz1
#
# compiler GCC version 4.9.2
# options -cpp -iprefix /scratch/UCL/applications/gcc/4.9.2/bin/../lib/gcc/x86_64-unknown-linux-gnu/4.9.2/ -mtune=corei7 -march=x86-64 -g -O2
#
# seed -1465949479  1674368543   778256873  -714455449 -1636101575 -1367012017  -849897213   403186387  -872437797  1972274444  1593799377  1091173498
#
#      Author: C. J. Pickard (cjp20@cam.ac.uk)
#                Space group: Pmn21
#

%BLOCK LATTICE_ABC
      5.17073      5.38645      5.74468
     90.00000     90.00000     90.00000
%ENDBLOCK LATTICE_ABC

%BLOCK POSITIONS_FRAC
  Li   0.0996128  -0.0000000  -0.0196663 SPIN=   0.00000
  Li  -0.4003872   0.5000000   0.0196663 SPIN=   0.00000
   O  -0.6187032  -0.2684049  -0.2018625 SPIN=   0.00000
   O  -0.1291954  -0.2707092  -0.3038516 SPIN=   0.00000
   O  -0.1187032  -0.2315951   0.2018625 SPIN=   0.00000
   O   0.3708046  -0.2292908   0.3038516 SPIN=   0.00000
   O  -0.1187032   0.2315951   0.2018625 SPIN=   0.00000
   O   0.3708046   0.2292908   0.3038516 SPIN=   0.00000
   O  -0.6187032   0.2684049  -0.2018625 SPIN=   0.00000
   O  -0.1291954   0.2707092  -0.3038516 SPIN=   0.00000
   P  -0.4020842  -0.0000000   0.1147189 SPIN=   0.00000
   P   0.0979158   0.5000000  -0.1147189 SPIN=   0.00000
  Fe   0.0932829   0.5000000   0.3859071 SPIN=   4.00000
  Fe  -0.4067171  -0.0000000  -0.3859071 SPIN=   4.00000
%ENDBLOCK POSITIONS_FRAC

# Note: total spin =   8.00

KPOINTS_MP_SPACING 0.07

%BLOCK SPECIES_POT
QC5
%ENDBLOCK SPECIES_POT

%BLOCK HUBBARD_U
Fe d:4.0
%ENDBLOCK HUBBARD_U

SNAP_TO_SYMMETRY
SYMMETRY_GENERATE

