#              Generated by Buildcell
#
# at 04:34:05 (GMT+0.0) 24th November 2020
# in /lustre/scratch/uccabz1/launch_tmp
# on node-c12c-021
# by uccabz1
#
# compiler GCC version 4.9.2
# options -cpp -iprefix /lustre/shared/ucl/apps/gcc/4.9.2/bin/../lib/gcc/x86_64-unknown-linux-gnu/4.9.2/ -mtune=corei7 -march=x86-64 -g -Og
#
# seed  -707820737  1471966201   249836276  1879430231  1863780377 -2104930263   169723877   126947288  -205206137 -2125477539    67277727  1111271505
#
#      Author: C. J. Pickard (cjp20@cam.ac.uk)
#                Space group: Cc
#

%BLOCK LATTICE_ABC
      5.62615      5.66846      6.44804
     73.35950     64.13397     60.24661
%ENDBLOCK LATTICE_ABC

%BLOCK POSITIONS_FRAC
  Li   0.0722080   0.1760725  -0.0614348 SPIN=   0.00000
  Li  -0.1868457   0.6760725   0.4385652 SPIN=   0.00000
   O  -0.5881788  -0.0291359   0.0998022 SPIN=   0.00000
   O  -0.2712418   0.0951965   0.2067277 SPIN=   0.00000
   O  -0.0584125  -0.3652178   0.0859074 SPIN=   0.00000
   O  -0.1369514   0.0398361  -0.2070077 SPIN=   0.00000
   P  -0.2794775  -0.0616945   0.0462131 SPIN=   0.00000
   O   0.5175125  -0.5291359  -0.4001978 SPIN=   0.00000
   O  -0.0306824  -0.4048035  -0.2932723 SPIN=   0.00000
   O   0.3377229  -0.8652178  -0.4140926 SPIN=   0.00000
   O   0.3041231  -0.4601639  -0.7070077 SPIN=   0.00000
   P   0.2949589  -0.5616945  -0.4537869 SPIN=   0.00000
  Fe   0.1416946   0.0115198   0.4480687 SPIN=   4.00000
  Fe   0.3987169  -0.4884802  -0.0519313 SPIN=   4.00000
%ENDBLOCK POSITIONS_FRAC

# Note: total spin =   8.00

KPOINTS_MP_SPACING 0.07

%BLOCK SPECIES_POT
QC5
%ENDBLOCK SPECIES_POT

%BLOCK HUBBARD_U
Fe d:4.0
%ENDBLOCK HUBBARD_U

SNAP_TO_SYMMETRY
SYMMETRY_GENERATE

