#              Generated by Buildcell
#
# at 22:20:10 (GMT+0.0) 23rd November 2020
# in /lustre/scratch/uccabz1/launch_tmp
# on node-c12f-029
# by uccabz1
#
# compiler GCC version 4.9.2
# options -cpp -iprefix /lustre/shared/ucl/apps/gcc/4.9.2/bin/../lib/gcc/x86_64-unknown-linux-gnu/4.9.2/ -mtune=corei7 -march=x86-64 -g -Og
#
# seed -1490873277 -1983324489 -1816555903   714528257  -666094484  1877748969  -346658019   947677266 -1133295504 -2098932127 -1729387805   930749246
#
#      Author: C. J. Pickard (cjp20@cam.ac.uk)
#                Space group: C2/c
#

%BLOCK LATTICE_ABC
      5.67822      5.75362      5.75362
    111.20737    103.32274    103.32274
%ENDBLOCK LATTICE_ABC

%BLOCK POSITIONS_FRAC
  Li   0.2500000  -0.0504028   0.0504028 SPIN=   0.00000
  Li  -0.2500000   0.0504028  -0.0504028 SPIN=   0.00000
   O   0.1875085  -0.2967922  -0.3478826 SPIN=   0.00000
   O   0.3699524  -0.3630074   0.0720357 SPIN=   0.00000
   O   0.3124915   0.3478826   0.2967922 SPIN=   0.00000
   O   0.1300476  -0.0720357   0.3630074 SPIN=   0.00000
   O  -0.1875085   0.2967922   0.3478826 SPIN=   0.00000
   O  -0.3699524   0.3630074  -0.0720357 SPIN=   0.00000
   O  -0.3124915  -0.3478826  -0.2967922 SPIN=   0.00000
   O  -0.1300476   0.0720357  -0.3630074 SPIN=   0.00000
   P   0.2500000   0.6648268   0.3351732 SPIN=   0.00000
   P  -0.2500000  -0.6648268  -0.3351732 SPIN=   0.00000
  Fe   0.2500000  -0.6438971  -0.3561029 SPIN=   4.00000
  Fe  -0.2500000   0.6438971   0.3561029 SPIN=   4.00000
%ENDBLOCK POSITIONS_FRAC

# Note: total spin =   8.00

KPOINTS_MP_SPACING 0.07

%BLOCK SPECIES_POT
QC5
%ENDBLOCK SPECIES_POT

%BLOCK HUBBARD_U
Fe d:4.0
%ENDBLOCK HUBBARD_U

SNAP_TO_SYMMETRY
SYMMETRY_GENERATE

