#              Generated by Buildcell
#
# at 03:13:24 (GMT+0.0) 24th November 2020
# in /scratch/scratch/uccabz1/launch_tmp
# on node-k10c-005
# by uccabz1
#
# compiler GCC version 4.9.2
# options -cpp -iprefix /scratch/UCL/applications/gcc/4.9.2/bin/../lib/gcc/x86_64-unknown-linux-gnu/4.9.2/ -mtune=corei7 -march=x86-64 -g -O2
#
# seed   812092717   293581724 -1689432167  -276683702   813668217  1427613810    40961959 -1118168446  -718065950 -1022579125  1339916965  -601883290
#
#      Author: C. J. Pickard (cjp20@cam.ac.uk)
#                Space group: Pc
#

%BLOCK LATTICE_ABC
      4.15468      4.47690      8.60406
     90.00000     91.22219     90.00000
%ENDBLOCK LATTICE_ABC

%BLOCK POSITIONS_FRAC
  Li   0.2073697  -0.2077923  -0.1694368 SPIN=   0.00000
  Li   0.2073697   0.2077923   0.3305632 SPIN=   0.00000
   O  -0.5995466   0.3577223  -0.1776372 SPIN=   0.00000
   O  -0.0717830   0.3690056  -0.0102487 SPIN=   0.00000
   O  -0.5722726   0.2032717   0.1134137 SPIN=   0.00000
   O  -0.3141326  -0.1244534  -0.0842070 SPIN=   0.00000
   P  -0.3997325   0.2058654  -0.0475415 SPIN=   0.00000
   O  -0.5995466  -0.3577223   0.3223628 SPIN=   0.00000
   O  -0.0717830  -0.3690056   0.4897513 SPIN=   0.00000
   O  -0.5722726  -0.2032717   0.6134137 SPIN=   0.00000
   O  -0.3141326   0.1244534   0.4157930 SPIN=   0.00000
   P  -0.3997325  -0.2058654   0.4524585 SPIN=   0.00000
  Fe  -0.2286193   0.2945860  -0.3599126 SPIN=   4.00000
  Fe  -0.2286193  -0.2945860   0.1400874 SPIN=   4.00000
%ENDBLOCK POSITIONS_FRAC

# Note: total spin =   8.00

KPOINTS_MP_SPACING 0.07

%BLOCK SPECIES_POT
QC5
%ENDBLOCK SPECIES_POT

%BLOCK HUBBARD_U
Fe d:4.0
%ENDBLOCK HUBBARD_U

SNAP_TO_SYMMETRY
SYMMETRY_GENERATE

