#              Generated by Buildcell
#
# at 01:34:45 (GMT+0.0) 24th November 2020
# in /lustre/scratch/uccabz1/launch_tmp
# on node-c12f-026
# by uccabz1
#
# compiler GCC version 4.9.2
# options -cpp -iprefix /lustre/shared/ucl/apps/gcc/4.9.2/bin/../lib/gcc/x86_64-unknown-linux-gnu/4.9.2/ -mtune=corei7 -march=x86-64 -g -Og
#
# seed -2087765877  1159667812   235538800   433214546   736379235  -851422233  1271461826  1333446810  -795940994 -1187528739  -263260009 -1554678441
#
#      Author: C. J. Pickard (cjp20@cam.ac.uk)
#                Space group: P21
#

%BLOCK LATTICE_ABC
      5.01212      5.30987      6.05476
     90.00000     96.81807     90.00000
%ENDBLOCK LATTICE_ABC

%BLOCK POSITIONS_FRAC
  Li  -0.3182572   0.3721282  -0.4662885 SPIN=   0.00000
  Li   0.3182572  -0.1278718   0.4662885 SPIN=   0.00000
   O  -0.2048094  -0.2113155  -0.5765169 SPIN=   0.00000
   O  -0.3234280   0.0638084  -0.2469957 SPIN=   0.00000
   O  -0.2526576  -0.3922258  -0.1844759 SPIN=   0.00000
   O   0.1401615  -0.1155778  -0.2351519 SPIN=   0.00000
   P  -0.1590151  -0.1657867  -0.3240415 SPIN=   0.00000
   O   0.2048094   0.2886845   0.5765169 SPIN=   0.00000
   O   0.3234280   0.5638084   0.2469957 SPIN=   0.00000
   O   0.2526576   0.1077742   0.1844759 SPIN=   0.00000
   O  -0.1401615   0.3844222   0.2351519 SPIN=   0.00000
   P   0.1590151   0.3342133   0.3240415 SPIN=   0.00000
  Fe   0.2317152   0.4842936  -0.1202139 SPIN=   4.00000
  Fe  -0.2317152  -0.0157064   0.1202139 SPIN=   4.00000
%ENDBLOCK POSITIONS_FRAC

# Note: total spin =   8.00

KPOINTS_MP_SPACING 0.07

%BLOCK SPECIES_POT
QC5
%ENDBLOCK SPECIES_POT

%BLOCK HUBBARD_U
Fe d:4.0
%ENDBLOCK HUBBARD_U

SNAP_TO_SYMMETRY
SYMMETRY_GENERATE

