#              Generated by Buildcell
#
# at 02:03:12 (GMT+0.0) 24th November 2020
# in /lustre/scratch/uccabz1/launch_tmp
# on node-c12e-025
# by uccabz1
#
# compiler GCC version 4.9.2
# options -cpp -iprefix /lustre/shared/ucl/apps/gcc/4.9.2/bin/../lib/gcc/x86_64-unknown-linux-gnu/4.9.2/ -mtune=corei7 -march=x86-64 -g -Og
#
# seed  -148122300 -1768840675   -60820543   351440318   876158614   539897246  -958077538  1372370962 -1575264444 -1395230823  -903636241  -649921300
#
#      Author: C. J. Pickard (cjp20@cam.ac.uk)
#                Space group: P21
#

%BLOCK LATTICE_ABC
      4.62038      5.41196      6.46799
     90.00000     98.39749     90.00000
%ENDBLOCK LATTICE_ABC

%BLOCK POSITIONS_FRAC
  Li  -0.3826977  -0.0414192   0.0834915 SPIN=   0.00000
  Li   0.3826977   0.4585808  -0.0834915 SPIN=   0.00000
   O   0.1299676  -0.2464533   0.1290945 SPIN=   0.00000
   O  -0.1329042   0.0208844   0.3788008 SPIN=   0.00000
   O   0.3754340  -0.1115256   0.4989559 SPIN=   0.00000
   O   0.2763662   0.2064547   0.2161733 SPIN=   0.00000
   P   0.1618459  -0.0412216   0.2952926 SPIN=   0.00000
   O  -0.1299676   0.2535467  -0.1290945 SPIN=   0.00000
   O   0.1329042   0.5208844  -0.3788008 SPIN=   0.00000
   O  -0.3754340   0.3884744  -0.4989559 SPIN=   0.00000
   O  -0.2763662   0.7064547  -0.2161733 SPIN=   0.00000
   P  -0.1618459   0.4587784  -0.2952926 SPIN=   0.00000
  Fe   0.0423791  -0.0413951  -0.2824001 SPIN=   4.00000
  Fe  -0.0423791   0.4586049   0.2824001 SPIN=   4.00000
%ENDBLOCK POSITIONS_FRAC

# Note: total spin =   8.00

KPOINTS_MP_SPACING 0.07

%BLOCK SPECIES_POT
QC5
%ENDBLOCK SPECIES_POT

%BLOCK HUBBARD_U
Fe d:4.0
%ENDBLOCK HUBBARD_U

SNAP_TO_SYMMETRY
SYMMETRY_GENERATE

