#              Generated by Buildcell
#
# at 02:46:02 (GMT+0.0) 24th November 2020
# in /lustre/scratch/uccabz1/launch_tmp
# on node-c12o-027
# by uccabz1
#
# compiler GCC version 4.9.2
# options -cpp -iprefix /lustre/shared/ucl/apps/gcc/4.9.2/bin/../lib/gcc/x86_64-unknown-linux-gnu/4.9.2/ -mtune=corei7 -march=x86-64 -g -Og
#
# seed  -637165912  1685620581 -1620471535 -1492206853 -2073807768   798508359  1721412054 -1046292033 -2010190487  1186502324  -351301165  -836018271
#
#      Author: C. J. Pickard (cjp20@cam.ac.uk)
#                Space group: P-1
#

%BLOCK LATTICE_ABC
      3.92125      5.45120      7.85579
    103.46204     90.57961    101.07820
%ENDBLOCK LATTICE_ABC

%BLOCK POSITIONS_FRAC
  Li  -0.0977760  -0.3524259   0.1928956 SPIN=   0.00000
  Li   0.0977760   0.3524259  -0.1928956 SPIN=   0.00000
   O  -0.4755931  -0.5206647  -0.3391022 SPIN=   0.00000
   O  -0.3178204  -0.0208413  -0.2523839 SPIN=   0.00000
   O   0.0358226  -0.2619211  -0.1170776 SPIN=   0.00000
   O   0.0836835  -0.2648939  -0.4351753 SPIN=   0.00000
   P  -0.1818536  -0.2805566  -0.2905269 SPIN=   0.00000
   O   0.4755931   0.5206647   0.3391022 SPIN=   0.00000
   O   0.3178204   0.0208413   0.2523839 SPIN=   0.00000
   O  -0.0358226   0.2619211   0.1170776 SPIN=   0.00000
   O  -0.0836835   0.2648939   0.4351753 SPIN=   0.00000
   P   0.1818536   0.2805566   0.2905269 SPIN=   0.00000
  Fe   0.5000000  -0.0000000   0.5000000 SPIN=   4.46989
  Fe   0.5000000   0.0000000   0.0000000 SPIN=   3.53011
%ENDBLOCK POSITIONS_FRAC

# Note: total spin =   8.00

KPOINTS_MP_SPACING 0.07

%BLOCK SPECIES_POT
QC5
%ENDBLOCK SPECIES_POT

%BLOCK HUBBARD_U
Fe d:4.0
%ENDBLOCK HUBBARD_U

SNAP_TO_SYMMETRY
SYMMETRY_GENERATE

