#              Generated by Buildcell
#
# at 23:00:36 (GMT+0.0) 23rd November 2020
# in /lustre/scratch/uccabz1/launch_tmp
# on node-c12p-022
# by uccabz1
#
# compiler GCC version 4.9.2
# options -cpp -iprefix /lustre/shared/ucl/apps/gcc/4.9.2/bin/../lib/gcc/x86_64-unknown-linux-gnu/4.9.2/ -mtune=corei7 -march=x86-64 -g -Og
#
# seed -1074527192  1307611809  2008236492   111913112  -350529944  -455182446   178820813  1177502260  -428310262  1887126364 -1485128055 -2006154453
#
#      Author: C. J. Pickard (cjp20@cam.ac.uk)
#                Space group: Pba2
#

%BLOCK LATTICE_ABC
      5.26891      5.51058      5.51064
     90.00000     90.00000     90.00000
%ENDBLOCK LATTICE_ABC

%BLOCK POSITIONS_FRAC
  Li   0.3825142   0.5000000   0.0000000 SPIN=   0.00000
  Li   0.3825142  -0.0000000   0.5000000 SPIN=   0.00000
   O  -0.6510381  -0.3428413  -0.3428307 SPIN=   0.00000
   O  -0.2588081  -0.6136423  -0.2517070 SPIN=   0.00000
   O  -0.6510381   0.3428413   0.3428307 SPIN=   0.00000
   O  -0.2588081   0.6136423   0.2517070 SPIN=   0.00000
   O  -0.6510381   0.1571587  -0.1571693 SPIN=   0.00000
   O  -0.2588081  -0.1136423  -0.2482930 SPIN=   0.00000
   O  -0.6510381  -0.1571587   0.1571693 SPIN=   0.00000
   O  -0.2588081   0.1136423   0.2482930 SPIN=   0.00000
   P  -0.1183497  -0.5000000  -0.0000000 SPIN=   0.00000
   P  -0.1183497   0.0000000  -0.5000000 SPIN=   0.00000
  Fe   0.0262271   0.0000000   0.0000000 SPIN=   4.00000
  Fe   0.0262271  -0.5000000  -0.5000000 SPIN=   4.00000
%ENDBLOCK POSITIONS_FRAC

# Note: total spin =   8.00

KPOINTS_MP_SPACING 0.07

%BLOCK SPECIES_POT
QC5
%ENDBLOCK SPECIES_POT

%BLOCK HUBBARD_U
Fe d:4.0
%ENDBLOCK HUBBARD_U

SNAP_TO_SYMMETRY
SYMMETRY_GENERATE

