#              Generated by Buildcell
#
# at 03:09:19 (GMT+0.0) 24th November 2020
# in /lustre/scratch/uccabz1/launch_tmp
# on node-c12f-020
# by uccabz1
#
# compiler GCC version 4.9.2
# options -cpp -iprefix /lustre/shared/ucl/apps/gcc/4.9.2/bin/../lib/gcc/x86_64-unknown-linux-gnu/4.9.2/ -mtune=corei7 -march=x86-64 -g -Og
#
# seed  -376358257 -1333793255  1925116752   718646011  -895784429 -1799136186  -313579830  1505113069     1951048  -694198834  1933907073   -35273092
#
#      Author: C. J. Pickard (cjp20@cam.ac.uk)
#                Space group: Cc
#

%BLOCK LATTICE_ABC
      4.68509      4.68509      7.52539
     98.31936     98.31936     96.98834
%ENDBLOCK LATTICE_ABC

%BLOCK POSITIONS_FRAC
  Li   0.1562960  -0.1096024  -0.1914571 SPIN=   0.00000
  Li  -0.1096024   0.1562960   0.3085429 SPIN=   0.00000
   O   0.0187514  -0.0941438   0.0651325 SPIN=   0.00000
   O   0.3665444   0.0981915   0.3719453 SPIN=   0.00000
   O   0.4404319  -0.3612050   0.1895138 SPIN=   0.00000
   O   0.5601821   0.1117715   0.0795809 SPIN=   0.00000
   P   0.3315496  -0.0610497   0.1694668 SPIN=   0.00000
   O  -0.0941438   0.0187514  -0.4348675 SPIN=   0.00000
   O   0.0981915   0.3665444  -0.1280547 SPIN=   0.00000
   O  -0.3612050   0.4404319  -0.3104862 SPIN=   0.00000
   O   0.1117715   0.5601821  -0.4204191 SPIN=   0.00000
   P  -0.0610497   0.3315496  -0.3305332 SPIN=   0.00000
  Fe  -0.3476830   0.4962840  -0.0273231 SPIN=   4.00000
  Fe   0.4962840  -0.3476830   0.4726769 SPIN=   4.00000
%ENDBLOCK POSITIONS_FRAC

# Note: total spin =   8.00

KPOINTS_MP_SPACING 0.07

%BLOCK SPECIES_POT
QC5
%ENDBLOCK SPECIES_POT

%BLOCK HUBBARD_U
Fe d:4.0
%ENDBLOCK HUBBARD_U

SNAP_TO_SYMMETRY
SYMMETRY_GENERATE

