#              Generated by Buildcell
#
# at 02:16:46 (GMT+0.0) 24th November 2020
# in /lustre/scratch/uccabz1/launch_tmp
# on node-c12h-023
# by uccabz1
#
# compiler GCC version 4.9.2
# options -cpp -iprefix /lustre/shared/ucl/apps/gcc/4.9.2/bin/../lib/gcc/x86_64-unknown-linux-gnu/4.9.2/ -mtune=corei7 -march=x86-64 -g -Og
#
# seed  1837131000   -95502006 -2075364891 -1222164076 -1801072515 -1469264279  1321192396  2137177840    30610469  1258453159  -279039681 -1499931911
#
#      Author: C. J. Pickard (cjp20@cam.ac.uk)
#                Space group: P-1
#

%BLOCK LATTICE_ABC
      4.20824      5.24524      7.83652
     94.90500     97.86483    109.42475
%ENDBLOCK LATTICE_ABC

%BLOCK POSITIONS_FRAC
  Li   0.7304162  -0.1021898   0.2548940 SPIN=   0.00000
  Li  -0.7304162   0.1021898  -0.2548940 SPIN=   0.00000
   O   0.7195943   0.2950303   0.2422791 SPIN=   0.00000
   O   0.2163074   0.1133619   0.4098136 SPIN=   0.00000
   O   0.3347660   0.5706507   0.3190704 SPIN=   0.00000
   P   0.3568452   0.2826887   0.2629822 SPIN=   0.00000
   O  -0.7195943  -0.2950303  -0.2422791 SPIN=   0.00000
   O  -0.2163074  -0.1133619  -0.4098136 SPIN=   0.00000
   O  -0.3347660  -0.5706507  -0.3190704 SPIN=   0.00000
   P  -0.3568452  -0.2826887  -0.2629822 SPIN=   0.00000
   O   0.5000000  -0.5000000   0.0000000 SPIN=   0.00000
   O   0.0000000   0.0000000   0.0000000 SPIN=   0.00000
  Fe   0.0000000  -0.5000000   0.0000000 SPIN=   4.60927
  Fe  -0.0000000   0.5000000   0.5000000 SPIN=   3.39073
%ENDBLOCK POSITIONS_FRAC

# Note: total spin =   8.00

KPOINTS_MP_SPACING 0.07

%BLOCK SPECIES_POT
QC5
%ENDBLOCK SPECIES_POT

%BLOCK HUBBARD_U
Fe d:4.0
%ENDBLOCK HUBBARD_U

SNAP_TO_SYMMETRY
SYMMETRY_GENERATE

