#              Generated by Buildcell
#
# at 02:24:49 (GMT+0.0) 24th November 2020
# in /lustre/scratch/uccabz1/launch_tmp
# on node-c12m-024
# by uccabz1
#
# compiler GCC version 4.9.2
# options -cpp -iprefix /lustre/shared/ucl/apps/gcc/4.9.2/bin/../lib/gcc/x86_64-unknown-linux-gnu/4.9.2/ -mtune=corei7 -march=x86-64 -g -Og
#
# seed  1139038523   450880875  -997315384   997785207 -1527885631  1880135679   517168334  1040692683  1916062361 -1625748167  -854764097  1090302451
#
#      Author: C. J. Pickard (cjp20@cam.ac.uk)
#                Space group: Fdd2
#

%BLOCK LATTICE_ABC
      5.52419      5.52419      6.38551
    108.64692    108.64692    105.11897
%ENDBLOCK LATTICE_ABC

%BLOCK POSITIONS_FRAC
  Li   0.1747178   0.1747178   0.3494356 SPIN=   0.00000
  Li   0.9247178   0.4247178   0.8494356 SPIN=   0.00000
   O  -0.2326757  -0.6307022  -0.7016188 SPIN=   0.00000
   O  -0.0380972  -0.2586440  -0.8388814 SPIN=   0.00000
   O  -0.4689431  -0.0709166  -0.7016188 SPIN=   0.00000
   O  -0.8007842  -0.5802374  -0.8388814 SPIN=   0.00000
   O   0.1192978   0.0173243  -0.2016188 SPIN=   0.00000
   O   0.4913560   0.2119028  -0.3388814 SPIN=   0.00000
   O  -0.3209166  -0.2189431  -0.2016188 SPIN=   0.00000
   O  -0.8302374  -0.5507842  -0.3388814 SPIN=   0.00000
   P   0.1722020  -0.3277980  -0.6555960 SPIN=   0.00000
   P   0.4222020   0.4222020   0.8444040 SPIN=   0.00000
  Fe  -0.5074182  -0.0074182  -0.0148363 SPIN=   4.00000
  Fe  -0.2574182  -0.2574182  -0.5148363 SPIN=   4.00000
%ENDBLOCK POSITIONS_FRAC

# Note: total spin =   8.00

KPOINTS_MP_SPACING 0.07

%BLOCK SPECIES_POT
QC5
%ENDBLOCK SPECIES_POT

%BLOCK HUBBARD_U
Fe d:4.0
%ENDBLOCK HUBBARD_U

SNAP_TO_SYMMETRY
SYMMETRY_GENERATE

