#              Generated by Buildcell
#
# at 00:07:06 (GMT+0.0) 24th November 2020
# in /lustre/scratch/uccabz1/launch_tmp
# on node-c12b-030
# by uccabz1
#
# compiler GCC version 4.9.2
# options -cpp -iprefix /lustre/shared/ucl/apps/gcc/4.9.2/bin/../lib/gcc/x86_64-unknown-linux-gnu/4.9.2/ -mtune=corei7 -march=x86-64 -g -Og
#
# seed  -378882600   190152009   703690838  -981964849   592329776  1605740601   517354616  1576064151  1767653254 -1553736785   676729770  -273004579
#
#      Author: C. J. Pickard (cjp20@cam.ac.uk)
#                Space group: P21
#

%BLOCK LATTICE_ABC
      3.89409      6.35853      6.78266
    107.69225     90.00000     90.00000
%ENDBLOCK LATTICE_ABC

%BLOCK POSITIONS_FRAC
  Li  -0.3642290  -0.0867216   0.1251121 SPIN=   0.00000
  Li   0.1357710   0.0867216  -0.1251121 SPIN=   0.00000
   O  -0.4913037   0.4682973   0.3468472 SPIN=   0.00000
   O   0.0315791   0.4947938   0.1176597 SPIN=   0.00000
   O   0.0318397   0.2028436   0.2886939 SPIN=   0.00000
   O  -0.3731007   0.1754397  -0.0049145 SPIN=   0.00000
   P  -0.2177836   0.3405357   0.1933132 SPIN=   0.00000
   O   0.0086963  -0.4682973  -0.3468472 SPIN=   0.00000
   O   0.5315791  -0.4947938  -0.1176597 SPIN=   0.00000
   O   0.5318397  -0.2028436  -0.2886939 SPIN=   0.00000
   O   0.1268993  -0.1754397   0.0049145 SPIN=   0.00000
   P   0.2822164  -0.3405357  -0.1933132 SPIN=   0.00000
  Fe  -0.3562675   0.2773842  -0.4165322 SPIN=   4.00000
  Fe   0.1437325  -0.2773842   0.4165322 SPIN=   4.00000
%ENDBLOCK POSITIONS_FRAC

# Note: total spin =   8.00

KPOINTS_MP_SPACING 0.07

%BLOCK SPECIES_POT
QC5
%ENDBLOCK SPECIES_POT

%BLOCK HUBBARD_U
Fe d:4.0
%ENDBLOCK HUBBARD_U

SNAP_TO_SYMMETRY
SYMMETRY_GENERATE

