#              Generated by Buildcell
#
# at 02:55:29 (GMT+0.0) 24th November 2020
# in /lustre/scratch/uccabz1/launch_tmp
# on node-c12l-030
# by uccabz1
#
# compiler GCC version 4.9.2
# options -cpp -iprefix /lustre/shared/ucl/apps/gcc/4.9.2/bin/../lib/gcc/x86_64-unknown-linux-gnu/4.9.2/ -mtune=corei7 -march=x86-64 -g -Og
#
# seed  -854691444  -657568050  1904808623  1426991330  -808071760  1872372289  1568376289  -631483605  1803998110   610802928  1397422171 -1140421768
#
#      Author: C. J. Pickard (cjp20@cam.ac.uk)
#                Space group: Cm
#

%BLOCK LATTICE_ABC
      5.69486      5.92225      6.12975
    114.99596    113.67757     97.48600
%ENDBLOCK LATTICE_ABC

%BLOCK POSITIONS_FRAC
  Li  -0.7941135  -0.4079030  -0.5000031 SPIN=   0.00000
  Li  -0.2941103   0.0921001   0.5000031 SPIN=   0.00000
   O  -0.1761519  -0.6008432  -0.5665707 SPIN=   0.00000
   O  -0.4707926  -0.3449300  -0.7331911 SPIN=   0.00000
   O  -0.3630123  -0.2988965  -0.2804776 SPIN=   0.00000
   O   0.0109237  -0.0870274  -0.3263844 SPIN=   0.00000
   O   0.3904189  -0.0342724   0.5665707 SPIN=   0.00000
   O   0.2623985   0.3882611   0.7331911 SPIN=   0.00000
   O  -0.0825348  -0.0184190   0.2804776 SPIN=   0.00000
   O   0.3373081   0.2393570   0.3263844 SPIN=   0.00000
   P   0.0668452   0.1954830   0.0000000 SPIN=   0.00000
   P  -0.4329043  -0.3042789   0.0000000 SPIN=   0.00000
  Fe   0.0679954  -0.2834014   0.0000000 SPIN=   5.89786
  Fe   0.5678024   0.2167659  -0.0000000 SPIN=   2.10214
%ENDBLOCK POSITIONS_FRAC

# Note: total spin =   8.00

KPOINTS_MP_SPACING 0.07

%BLOCK SPECIES_POT
QC5
%ENDBLOCK SPECIES_POT

%BLOCK HUBBARD_U
Fe d:4.0
%ENDBLOCK HUBBARD_U

SNAP_TO_SYMMETRY
SYMMETRY_GENERATE

