#              Generated by Buildcell
#
# at 01:44:16 (GMT+0.0) 24th November 2020
# in /scratch/scratch/uccabz1/launch_tmp
# on node-a14f-030
# by uccabz1
#
# compiler GCC version 4.9.2
# options -cpp -iprefix /scratch/UCL/applications/gcc/4.9.2/bin/../lib/gcc/x86_64-unknown-linux-gnu/4.9.2/ -mtune=corei7 -march=x86-64 -g -O2
#
# seed  1005124081  1401278911   -44345653 -1861224483   910423763  1612703405   870309423   724190301  2058497545  -814878208  1809791559 -2110351012
#
#      Author: C. J. Pickard (cjp20@cam.ac.uk)
#                Space group: C2
#

%BLOCK LATTICE_ABC
      4.25554      6.47721      6.47721
     73.38944     73.50338     73.50338
%ENDBLOCK LATTICE_ABC

%BLOCK POSITIONS_FRAC
  Li  -0.5000000  -0.2477922   0.2477922 SPIN=   0.00000
  Li  -0.5000000   0.1377330  -0.1377330 SPIN=   0.00000
   O  -0.1355877   0.6734407  -0.0710626 SPIN=   0.00000
   O   0.4008430   0.3916548   0.0279714 SPIN=   0.00000
   O  -0.0924999   0.4644660   0.3305649 SPIN=   0.00000
   P   0.0057974   0.4559122   0.0795197 SPIN=   0.00000
   O   0.1355877   0.0710626  -0.6734407 SPIN=   0.00000
   O  -0.4008430  -0.0279714  -0.3916548 SPIN=   0.00000
   O   0.0924999  -0.3305649  -0.4644660 SPIN=   0.00000
   P  -0.0057974  -0.0795197  -0.4559122 SPIN=   0.00000
   O   0.0000000   0.2928838  -0.2928838 SPIN=   0.00000
   O   0.0000000  -0.0256205   0.0256205 SPIN=   0.00000
  Fe  -0.4889251  -0.3409431  -0.2299679 SPIN=   4.00000
  Fe   0.4889251   0.2299679   0.3409431 SPIN=   4.00000
%ENDBLOCK POSITIONS_FRAC

# Note: total spin =   8.00

KPOINTS_MP_SPACING 0.07

%BLOCK SPECIES_POT
QC5
%ENDBLOCK SPECIES_POT

%BLOCK HUBBARD_U
Fe d:4.0
%ENDBLOCK HUBBARD_U

SNAP_TO_SYMMETRY
SYMMETRY_GENERATE

