#              Generated by Buildcell
#
# at 23:21:05 (GMT+0.0) 23rd November 2020
# in /lustre/scratch/uccabz1/launch_tmp
# on node-c12c-026
# by uccabz1
#
# compiler GCC version 4.9.2
# options -cpp -iprefix /lustre/shared/ucl/apps/gcc/4.9.2/bin/../lib/gcc/x86_64-unknown-linux-gnu/4.9.2/ -mtune=corei7 -march=x86-64 -g -Og
#
# seed  -285910776  -989980493 -1074687891  -535426177  1251431935  -494638620  1657697492   565563932  2094957434   498073971  1700305067 -1216090743
#
#      Author: C. J. Pickard (cjp20@cam.ac.uk)
#                Space group: P21
#

%BLOCK LATTICE_ABC
      3.86228      5.42164      7.80083
    101.62134     90.00000     90.00000
%ENDBLOCK LATTICE_ABC

%BLOCK POSITIONS_FRAC
  Li   0.4670869   0.2087715  -0.0156807 SPIN=   0.00000
  Li  -0.0329131  -0.2087715   0.0156807 SPIN=   0.00000
   O  -0.1121546   0.4068227  -0.0870811 SPIN=   0.00000
   O  -0.2167971   0.2361369  -0.4187710 SPIN=   0.00000
   O   0.2851423   0.5150824  -0.3303765 SPIN=   0.00000
   O   0.2903687   0.0769955  -0.2728984 SPIN=   0.00000
   P   0.0550853   0.3112457  -0.2671028 SPIN=   0.00000
   O  -0.6121546  -0.4068227   0.0870811 SPIN=   0.00000
   O  -0.7167971  -0.2361369   0.4187710 SPIN=   0.00000
   O  -0.2148577  -0.5150824   0.3303765 SPIN=   0.00000
   O  -0.2096313  -0.0769955   0.2728984 SPIN=   0.00000
   P  -0.4449147  -0.3112457   0.2671028 SPIN=   0.00000
  Fe   0.1448491   0.2116111   0.3674821 SPIN=   4.00000
  Fe  -0.3551509  -0.2116111  -0.3674821 SPIN=   4.00000
%ENDBLOCK POSITIONS_FRAC

# Note: total spin =   8.00

KPOINTS_MP_SPACING 0.07

%BLOCK SPECIES_POT
QC5
%ENDBLOCK SPECIES_POT

%BLOCK HUBBARD_U
Fe d:4.0
%ENDBLOCK HUBBARD_U

SNAP_TO_SYMMETRY
SYMMETRY_GENERATE

