#              Generated by Buildcell
#
# at 02:00:50 (GMT+0.0) 24th November 2020
# in /lustre/scratch/uccabz1/launch_tmp
# on node-c12h-025
# by uccabz1
#
# compiler GCC version 4.9.2
# options -cpp -iprefix /lustre/shared/ucl/apps/gcc/4.9.2/bin/../lib/gcc/x86_64-unknown-linux-gnu/4.9.2/ -mtune=corei7 -march=x86-64 -g -Og
#
# seed  1702130552  1379279006  1727604784 -1359928569  2061729026  -623724435  -121810312 -2088119098  1644018049   143602248  -656365020  -279150223
#
#      Author: C. J. Pickard (cjp20@cam.ac.uk)
#                Space group: P21
#

%BLOCK LATTICE_ABC
      4.63821      5.80743      6.26731
     90.00000    108.59909     90.00000
%ENDBLOCK LATTICE_ABC

%BLOCK POSITIONS_FRAC
  Li   0.4352264   0.0083518  -0.0702888 SPIN=   0.00000
  Li  -0.4352264  -0.4916482   0.0702888 SPIN=   0.00000
   O  -0.0525454   0.4053595   0.3399718 SPIN=   0.00000
   O   0.3476980   0.1097331   0.3003058 SPIN=   0.00000
   O  -0.1734621  -0.0277087   0.2512756 SPIN=   0.00000
   O  -0.0784988   0.2256761  -0.0427101 SPIN=   0.00000
   P   0.0063715   0.1909162   0.2160051 SPIN=   0.00000
   O   0.0525454  -0.0946405  -0.3399718 SPIN=   0.00000
   O  -0.3476980  -0.3902669  -0.3003058 SPIN=   0.00000
   O   0.1734621  -0.5277087  -0.2512756 SPIN=   0.00000
   O   0.0784988  -0.2743239   0.0427101 SPIN=   0.00000
   P  -0.0063715  -0.3090838  -0.2160051 SPIN=   0.00000
  Fe   0.2048662  -0.2575978   0.3952859 SPIN=   4.00000
  Fe  -0.2048662   0.2424022  -0.3952859 SPIN=   4.00000
%ENDBLOCK POSITIONS_FRAC

# Note: total spin =   8.00

KPOINTS_MP_SPACING 0.07

%BLOCK SPECIES_POT
QC5
%ENDBLOCK SPECIES_POT

%BLOCK HUBBARD_U
Fe d:4.0
%ENDBLOCK HUBBARD_U

SNAP_TO_SYMMETRY
SYMMETRY_GENERATE

