#              Generated by Buildcell
#
# at 03:11:17 (GMT+0.0) 24th November 2020
# in /lustre/scratch/uccabz1/launch_tmp
# on node-c12f-022
# by uccabz1
#
# compiler GCC version 4.9.2
# options -cpp -iprefix /lustre/shared/ucl/apps/gcc/4.9.2/bin/../lib/gcc/x86_64-unknown-linux-gnu/4.9.2/ -mtune=corei7 -march=x86-64 -g -Og
#
# seed  -989577596  1841746557  -665232782 -1256902413   234767431 -2000387604  1256064144   691032719 -1284918344  -961744947  1899185803  1469351221
#
#      Author: C. J. Pickard (cjp20@cam.ac.uk)
#                Space group: Pnn2
#

%BLOCK LATTICE_ABC
      4.60325      5.25048      6.61998
     90.00000     90.00000     90.00000
%ENDBLOCK LATTICE_ABC

%BLOCK POSITIONS_FRAC
  Li  -0.0000000  -0.0000000   0.3474736 SPIN=   0.00000
  Li  -0.5000000   0.5000000  -0.1525264 SPIN=   0.00000
   O  -0.2165324   0.6761844   0.1403756 SPIN=   0.00000
   O  -0.2834694   0.1988135   0.0481379 SPIN=   0.00000
   O   0.2165324  -0.6761844   0.1403756 SPIN=   0.00000
   O   0.2834694  -0.1988135   0.0481379 SPIN=   0.00000
   O   0.2834676  -0.1761844  -0.3596244 SPIN=   0.00000
   O   0.2165306   0.3011865  -0.4518621 SPIN=   0.00000
   O  -0.2834676   0.1761844  -0.3596244 SPIN=   0.00000
   O  -0.2165306  -0.3011865  -0.4518621 SPIN=   0.00000
   P   0.5000000  -0.0000000   0.1306527 SPIN=   0.00000
   P  -0.0000000   0.5000000  -0.3693473 SPIN=   0.00000
  Fe  -0.0000000  -0.0000000  -0.1525264 SPIN=   4.00000
  Fe  -0.5000000   0.5000000   0.3474736 SPIN=   4.00000
%ENDBLOCK POSITIONS_FRAC

# Note: total spin =   8.00

KPOINTS_MP_SPACING 0.07

%BLOCK SPECIES_POT
QC5
%ENDBLOCK SPECIES_POT

%BLOCK HUBBARD_U
Fe d:4.0
%ENDBLOCK HUBBARD_U

SNAP_TO_SYMMETRY
SYMMETRY_GENERATE

