#              Generated by Buildcell
#
# at 00:18:57 (GMT+0.0) 24th November 2020
# in /lustre/scratch/uccabz1/launch_tmp
# on node-c12e-029
# by uccabz1
#
# compiler GCC version 4.9.2
# options -cpp -iprefix /lustre/shared/ucl/apps/gcc/4.9.2/bin/../lib/gcc/x86_64-unknown-linux-gnu/4.9.2/ -mtune=corei7 -march=x86-64 -g -Og
#
# seed  1417645442  -665897779  2045805035   398815259   320466944    92961992  1350086117   441457596 -1286006763  2007373705 -1763978782   -84499821
#
#      Author: C. J. Pickard (cjp20@cam.ac.uk)
#                Space group: Pcc2
#

%BLOCK LATTICE_ABC
      4.19033      4.86895      7.84217
     90.00000     90.00000     90.00000
%ENDBLOCK LATTICE_ABC

%BLOCK POSITIONS_FRAC
  Li   0.0000000   0.0000000   0.0638520 SPIN=   0.00000
  Li  -0.0000000   0.0000000  -0.4361480 SPIN=   0.00000
   O   0.3837950   0.2346164   0.1607424 SPIN=   0.00000
   O   0.1209871   0.2652457  -0.1387150 SPIN=   0.00000
   O  -0.3837950  -0.2346164   0.1607424 SPIN=   0.00000
   O  -0.1209871  -0.2652457  -0.1387150 SPIN=   0.00000
   O   0.3837950  -0.2346164  -0.3392576 SPIN=   0.00000
   O   0.1209871  -0.2652457  -0.6387150 SPIN=   0.00000
   O  -0.3837950   0.2346164  -0.3392576 SPIN=   0.00000
   O  -0.1209871   0.2652457  -0.6387150 SPIN=   0.00000
   P   0.0000000  -0.5000000   0.2093006 SPIN=   0.00000
   P   0.0000000   0.5000000  -0.2906994 SPIN=   0.00000
  Fe  -0.5000000  -0.5000000  -0.0409259 SPIN=   4.00000
  Fe   0.5000000  -0.5000000   0.4590741 SPIN=   4.00000
%ENDBLOCK POSITIONS_FRAC

# Note: total spin =   8.00

KPOINTS_MP_SPACING 0.07

%BLOCK SPECIES_POT
QC5
%ENDBLOCK SPECIES_POT

%BLOCK HUBBARD_U
Fe d:4.0
%ENDBLOCK HUBBARD_U

SNAP_TO_SYMMETRY
SYMMETRY_GENERATE

