#              Generated by Buildcell
#
# at 04:42:48 (GMT+0.0) 24th November 2020
# in /lustre/scratch/uccabz1/launch_tmp
# on node-c12c-030
# by uccabz1
#
# compiler GCC version 4.9.2
# options -cpp -iprefix /lustre/shared/ucl/apps/gcc/4.9.2/bin/../lib/gcc/x86_64-unknown-linux-gnu/4.9.2/ -mtune=corei7 -march=x86-64 -g -Og
#
# seed   719751032  -802342355   557813896   -39948715 -1905467230   215469299  -801447283  1271304115 -1797451521   456854367   -12245991    99525790
#
#      Author: C. J. Pickard (cjp20@cam.ac.uk)
#                Space group: C2
#

%BLOCK LATTICE_ABC
      4.91241      4.91241      7.26994
     86.68495     86.68495     66.09051
%ENDBLOCK LATTICE_ABC

%BLOCK POSITIONS_FRAC
  Li   0.3753803  -0.0614904  -0.1211893 SPIN=   0.00000
  Li   0.0614904  -0.3753803   0.1211893 SPIN=   0.00000
   O   0.0740831   0.1923242   0.1146775 SPIN=   0.00000
   O  -0.4942146   0.3223727   0.1450942 SPIN=   0.00000
   O  -0.1686509  -0.0238094   0.3783460 SPIN=   0.00000
   O  -0.2617729   0.5168723   0.3739143 SPIN=   0.00000
   P  -0.1979522   0.2518922   0.2470694 SPIN=   0.00000
   O  -0.1923242  -0.0740831  -0.1146775 SPIN=   0.00000
   O  -0.3223727   0.4942146  -0.1450942 SPIN=   0.00000
   O   0.0238094   0.1686509  -0.3783460 SPIN=   0.00000
   O  -0.5168723   0.2617729  -0.3739143 SPIN=   0.00000
   P  -0.2518922   0.1979522  -0.2470694 SPIN=   0.00000
  Fe   0.4121872  -0.0382920   0.3264857 SPIN=   4.00000
  Fe   0.0382920  -0.4121872  -0.3264857 SPIN=   4.00000
%ENDBLOCK POSITIONS_FRAC

# Note: total spin =   8.00

KPOINTS_MP_SPACING 0.07

%BLOCK SPECIES_POT
QC5
%ENDBLOCK SPECIES_POT

%BLOCK HUBBARD_U
Fe d:4.0
%ENDBLOCK HUBBARD_U

SNAP_TO_SYMMETRY
SYMMETRY_GENERATE

