#              Generated by Buildcell
#
# at 00:31:08 (GMT+0.0) 24th November 2020
# in /lustre/scratch/uccabz1/launch_tmp
# on node-c12n-022
# by uccabz1
#
# compiler GCC version 4.9.2
# options -cpp -iprefix /lustre/shared/ucl/apps/gcc/4.9.2/bin/../lib/gcc/x86_64-unknown-linux-gnu/4.9.2/ -mtune=corei7 -march=x86-64 -g -Og
#
# seed -1739086507  -266724237   363631690  -644176331 -2032629859  -476852250 -1919313852  2037019357  1162613068   343943335 -1949873441  -206596581
#
#      Author: C. J. Pickard (cjp20@cam.ac.uk)
#                Space group: Cm
#

%BLOCK LATTICE_ABC
      5.04514      6.12484      6.12484
     77.94495     66.99362     66.99362
%ENDBLOCK LATTICE_ABC

%BLOCK POSITIONS_FRAC
  Li   1.1966378  -0.4549982  -0.4549982 SPIN=   0.00000
  Li   0.1843068   0.0420954   0.0420954 SPIN=   0.00000
   O  -0.3897774   0.2824672  -0.3845285 SPIN=   0.00000
   O   0.1758307   0.0363538  -0.6101194 SPIN=   0.00000
   O   0.0653782   0.2369041  -0.2580699 SPIN=   0.00000
   P  -0.0789616   0.1167551  -0.3635338 SPIN=   0.00000
   O  -0.3897774  -0.3845285   0.2824672 SPIN=   0.00000
   O   0.1758307  -0.6101194   0.0363538 SPIN=   0.00000
   O   0.0653782  -0.2580699   0.2369041 SPIN=   0.00000
   P  -0.0789616  -0.3635338   0.1167551 SPIN=   0.00000
   O  -0.3413762   0.1011423   0.1011423 SPIN=   0.00000
   O  -0.0782072  -0.1994690  -0.1994690 SPIN=   0.00000
  Fe  -0.4305891  -0.0296698   0.4701765 SPIN=   4.00000
  Fe  -0.4305891   0.4701765  -0.0296698 SPIN=   4.00000
%ENDBLOCK POSITIONS_FRAC

# Note: total spin =   8.00

KPOINTS_MP_SPACING 0.07

%BLOCK SPECIES_POT
QC5
%ENDBLOCK SPECIES_POT

%BLOCK HUBBARD_U
Fe d:4.0
%ENDBLOCK HUBBARD_U

SNAP_TO_SYMMETRY
SYMMETRY_GENERATE

