#              Generated by Buildcell
#
# at 00:44:22 (GMT+0.0) 24th November 2020
# in /lustre/scratch/uccabz1/launch_tmp
# on node-c12g-024
# by uccabz1
#
# compiler GCC version 4.9.2
# options -cpp -iprefix /lustre/shared/ucl/apps/gcc/4.9.2/bin/../lib/gcc/x86_64-unknown-linux-gnu/4.9.2/ -mtune=corei7 -march=x86-64 -g -Og
#
# seed -2144256944  1526796608  2115386313  -582510060 -1595647317  1658414473 -1366733807   811104938   304318943  1948747499   749403091  -320189280
#
#      Author: C. J. Pickard (cjp20@cam.ac.uk)
#                Space group: Cc
#

%BLOCK LATTICE_ABC
      5.41121      5.66651      5.66651
     80.51320     74.13354     74.13354
%ENDBLOCK LATTICE_ABC

%BLOCK POSITIONS_FRAC
  Li  -0.1421454   0.4123573   0.1953537 SPIN=   0.00000
  Li   0.3578546   0.1953537   0.4123573 SPIN=   0.00000
   O   0.3959325   0.5155279  -0.4704074 SPIN=   0.00000
   O   0.0257203   0.6760135  -0.0912891 SPIN=   0.00000
   O   0.1072703   0.2418718  -0.1693613 SPIN=   0.00000
   O   0.4410439   0.3745552  -0.0236383 SPIN=   0.00000
   P   0.2530048   0.4544613  -0.2017273 SPIN=   0.00000
   O  -0.1040675  -0.4704074   0.5155279 SPIN=   0.00000
   O  -0.4742797  -0.0912891   0.6760135 SPIN=   0.00000
   O  -0.3927297  -0.1693613   0.2418718 SPIN=   0.00000
   O  -0.0589561  -0.0236383   0.3745552 SPIN=   0.00000
   P  -0.2469952  -0.2017273   0.4544613 SPIN=   0.00000
  Fe  -0.2262742   0.1428854  -0.2388415 SPIN=   4.00000
  Fe   0.2737258  -0.2388415   0.1428854 SPIN=   4.00000
%ENDBLOCK POSITIONS_FRAC

# Note: total spin =   8.00

KPOINTS_MP_SPACING 0.07

%BLOCK SPECIES_POT
QC5
%ENDBLOCK SPECIES_POT

%BLOCK HUBBARD_U
Fe d:4.0
%ENDBLOCK HUBBARD_U

SNAP_TO_SYMMETRY
SYMMETRY_GENERATE

