#              Generated by Buildcell
#
# at 03:48:46 (GMT+0.0) 24th November 2020
# in /lustre/scratch/uccabz1/launch_tmp
# on node-c12c-022
# by uccabz1
#
# compiler GCC version 4.9.2
# options -cpp -iprefix /lustre/shared/ucl/apps/gcc/4.9.2/bin/../lib/gcc/x86_64-unknown-linux-gnu/4.9.2/ -mtune=corei7 -march=x86-64 -g -Og
#
# seed -1238366463  1682063039 -1757921322 -1207752491 -2126078668   399839635 -1384422833 -1074275766  2113446095   549919525 -1265655945 -1694403952
#
#      Author: C. J. Pickard (cjp20@cam.ac.uk)
#                Space group: I222
#

%BLOCK LATTICE_ABC
      4.89968      5.99126      6.68454
    116.62460    111.49952     90.00000
%ENDBLOCK LATTICE_ABC

%BLOCK POSITIONS_FRAC
  Li  -0.0000000  -0.5000000  -0.0000000 SPIN=   0.00000
  Li   0.0000000   0.0000000  -0.0000000 SPIN=   0.00000
   O   0.0832218   0.1478968   0.6363833 SPIN=   0.00000
   O   0.2165519   0.6415866   0.8475510 SPIN=   0.00000
   O  -0.4468385   0.4884865   0.6363833 SPIN=   0.00000
   O  -0.3690010   0.2059643   0.8475510 SPIN=   0.00000
   O  -0.0832218  -0.4884865  -0.6363833 SPIN=   0.00000
   O  -0.2165519  -0.2059643  -0.8475510 SPIN=   0.00000
   O   0.4468385  -0.1478968  -0.6363833 SPIN=   0.00000
   O   0.3690010  -0.6415866  -0.8475510 SPIN=   0.00000
   P  -0.3316083  -0.3316083  -0.6632166 SPIN=   0.00000
   P   0.3316083   0.3316083   0.6632166 SPIN=   0.00000
  Fe  -0.3014058   0.1985942   0.3971885 SPIN=   4.00000
  Fe   0.3014058  -0.1985942  -0.3971885 SPIN=   4.00000
%ENDBLOCK POSITIONS_FRAC

# Note: total spin =   8.00

KPOINTS_MP_SPACING 0.07

%BLOCK SPECIES_POT
QC5
%ENDBLOCK SPECIES_POT

%BLOCK HUBBARD_U
Fe d:4.0
%ENDBLOCK HUBBARD_U

SNAP_TO_SYMMETRY
SYMMETRY_GENERATE

