#              Generated by Buildcell
#
# at 00:41:41 (GMT+0.0) 24th November 2020
# in /lustre/scratch/uccabz1/launch_tmp
# on node-c12a-033
# by uccabz1
#
# compiler GCC version 4.9.2
# options -cpp -iprefix /lustre/shared/ucl/apps/gcc/4.9.2/bin/../lib/gcc/x86_64-unknown-linux-gnu/4.9.2/ -mtune=corei7 -march=x86-64 -g -Og
#
# seed  -778720088  1708160482  -391954802   869699828  -689239108   143821314   879439652    22515810  2128709189  -328670893   264829705 -2021917470
#
#      Author: C. J. Pickard (cjp20@cam.ac.uk)
#                Space group: P21
#

%BLOCK LATTICE_ABC
      5.00436      5.90759      5.94473
     90.00000    114.44043     90.00000
%ENDBLOCK LATTICE_ABC

%BLOCK POSITIONS_FRAC
  Li  -0.4608760  -0.0462534  -0.4196558 SPIN=   0.00000
  Li   0.4608760   0.4537466   0.4196558 SPIN=   0.00000
   O   0.1153467   0.2783646   0.4589296 SPIN=   0.00000
   O  -0.1622017   0.1703933  -0.0041336 SPIN=   0.00000
   O  -0.4015790   0.0926664   0.2771983 SPIN=   0.00000
   O  -0.3468909   0.4932668   0.1649685 SPIN=   0.00000
   P  -0.1838500   0.2624897   0.2360372 SPIN=   0.00000
   O  -0.1153467  -0.2216354  -0.4589296 SPIN=   0.00000
   O   0.1622017  -0.3296067   0.0041336 SPIN=   0.00000
   O   0.4015790  -0.4073336  -0.2771983 SPIN=   0.00000
   O   0.3468909  -0.0067332  -0.1649685 SPIN=   0.00000
   P   0.1838500  -0.2375103  -0.2360372 SPIN=   0.00000
  Fe  -0.1161154  -0.2105014   0.1626823 SPIN=   4.00000
  Fe   0.1161154   0.2894986  -0.1626823 SPIN=   4.00000
%ENDBLOCK POSITIONS_FRAC

# Note: total spin =   8.00

KPOINTS_MP_SPACING 0.07

%BLOCK SPECIES_POT
QC5
%ENDBLOCK SPECIES_POT

%BLOCK HUBBARD_U
Fe d:4.0
%ENDBLOCK HUBBARD_U

SNAP_TO_SYMMETRY
SYMMETRY_GENERATE

