#              Generated by Buildcell
#
# at 22:05:24 (GMT+0.0) 23rd November 2020
# in /lustre/scratch/uccabz1/launch_tmp
# on node-c12k-027
# by uccabz1
#
# compiler GCC version 4.9.2
# options -cpp -iprefix /lustre/shared/ucl/apps/gcc/4.9.2/bin/../lib/gcc/x86_64-unknown-linux-gnu/4.9.2/ -mtune=corei7 -march=x86-64 -g -Og
#
# seed  -852982342  -417798254   -19844223 -1863961986  -827187613   551857959  -381693672   955367105  1805769735   543504457 -1226889690 -1025023945
#
#      Author: C. J. Pickard (cjp20@cam.ac.uk)
#                Space group: Cc
#

%BLOCK LATTICE_ABC
      5.12477      5.12477      7.02834
     68.85898     68.85898     86.76370
%ENDBLOCK LATTICE_ABC

%BLOCK POSITIONS_FRAC
  Li  -0.1614790   0.0701560   0.2861307 SPIN=   0.00000
  Li   0.5701560   0.3385210  -0.2138693 SPIN=   0.00000
   O   0.7846988   0.0136867  -0.3019556 SPIN=   0.00000
   O   0.3024481   0.0969114  -0.3478026 SPIN=   0.00000
   O   0.5723441  -0.2732957  -0.4578117 SPIN=   0.00000
   O   0.3514194  -0.3440555  -0.0597002 SPIN=   0.00000
   P   0.5159556  -0.1217791  -0.2896181 SPIN=   0.00000
   O  -0.4863133   0.2846988   0.1980444 SPIN=   0.00000
   O  -0.4030886  -0.1975519   0.1521974 SPIN=   0.00000
   O  -0.7732957   0.0723441   0.0421883 SPIN=   0.00000
   O  -0.8440555  -0.1485806   0.4402998 SPIN=   0.00000
   P  -0.6217791   0.0159556   0.2103819 SPIN=   0.00000
  Fe  -0.0667937  -0.2916778  -0.0825071 SPIN=   4.00000
  Fe  -0.7916778  -0.5667937   0.4174929 SPIN=   4.00000
%ENDBLOCK POSITIONS_FRAC

# Note: total spin =   8.00

KPOINTS_MP_SPACING 0.07

%BLOCK SPECIES_POT
QC5
%ENDBLOCK SPECIES_POT

%BLOCK HUBBARD_U
Fe d:4.0
%ENDBLOCK HUBBARD_U

SNAP_TO_SYMMETRY
SYMMETRY_GENERATE

