#              Generated by Buildcell
#
# at 01:52:02 (GMT+0.0) 24th November 2020
# in /lustre/scratch/uccabz1/launch_tmp
# on node-c12b-026
# by uccabz1
#
# compiler GCC version 4.9.2
# options -cpp -iprefix /lustre/shared/ucl/apps/gcc/4.9.2/bin/../lib/gcc/x86_64-unknown-linux-gnu/4.9.2/ -mtune=corei7 -march=x86-64 -g -Og
#
# seed -2093121278 -1023024854 -1731440116  -870968248 -1224985696   228254500 -1317770218  -724681209   567713223  1776696804  1924271713  -618583879
#
#      Author: C. J. Pickard (cjp20@cam.ac.uk)
#                Space group: C2
#

%BLOCK LATTICE_ABC
      5.51040      5.51040      5.87175
     93.32559     93.32559    115.47832
%ENDBLOCK LATTICE_ABC

%BLOCK POSITIONS_FRAC
  Li  -0.1017327  -0.4012152  -0.2590524 SPIN=   0.00000
  Li   0.4012152   0.1017327   0.2590524 SPIN=   0.00000
   O   0.0090395   0.3032333  -0.1232630 SPIN=   0.00000
   O   0.5118947   0.5612171  -0.2021608 SPIN=   0.00000
   O   0.2591028   0.0864073  -0.3627466 SPIN=   0.00000
   P   0.2199113   0.3471048  -0.2962925 SPIN=   0.00000
   O  -0.3032333  -0.0090395   0.1232630 SPIN=   0.00000
   O  -0.5612171  -0.5118947   0.2021608 SPIN=   0.00000
   O  -0.0864073  -0.2591028   0.3627466 SPIN=   0.00000
   P  -0.3471048  -0.2199113   0.2962925 SPIN=   0.00000
   O  -0.2423528   0.2423528  -0.5000000 SPIN=   0.00000
   O   0.0821063  -0.0821063   0.0000000 SPIN=   0.00000
  Fe   0.0508759   0.4490469   0.2433791 SPIN=   4.00000
  Fe  -0.4490469  -0.0508759  -0.2433791 SPIN=   4.00000
%ENDBLOCK POSITIONS_FRAC

# Note: total spin =   8.00

KPOINTS_MP_SPACING 0.07

%BLOCK SPECIES_POT
QC5
%ENDBLOCK SPECIES_POT

%BLOCK HUBBARD_U
Fe d:4.0
%ENDBLOCK HUBBARD_U

SNAP_TO_SYMMETRY
SYMMETRY_GENERATE

