#              Generated by Buildcell
#
# at 04:08:51 (GMT+0.0) 24th November 2020
# in /lustre/scratch/uccabz1/launch_tmp
# on node-c12i-020
# by uccabz1
#
# compiler GCC version 4.9.2
# options -cpp -iprefix /lustre/shared/ucl/apps/gcc/4.9.2/bin/../lib/gcc/x86_64-unknown-linux-gnu/4.9.2/ -mtune=corei7 -march=x86-64 -g -Og
#
# seed  2005276030 -1610642238 -1697082121  -481381978   943756795 -1876876368   284489078 -2040301823   736198903  1281656396   769963069  1370375801
#
#      Author: C. J. Pickard (cjp20@cam.ac.uk)
#                Space group: Cm
#

%BLOCK LATTICE_ABC
      4.12249      6.30304      6.30304
    102.33035     90.13992     90.13992
%ENDBLOCK LATTICE_ABC

%BLOCK POSITIONS_FRAC
  Li  -0.0798838   0.4484797   0.4484797 SPIN=   0.00000
  Li   0.4277255   0.1625474   0.1625474 SPIN=   0.00000
   O   0.2413656   0.0954460  -0.1548806 SPIN=   0.00000
   O   0.7616922   0.2926866  -0.2436694 SPIN=   0.00000
   O   0.3070729   0.2453809  -0.5056925 SPIN=   0.00000
   P   0.3809496   0.2775641  -0.2558757 SPIN=   0.00000
   O   0.2413656  -0.1548806   0.0954460 SPIN=   0.00000
   O   0.7616922  -0.2436694   0.2926866 SPIN=   0.00000
   O   0.3070729  -0.5056925   0.2453809 SPIN=   0.00000
   P   0.3809496  -0.2558757   0.2775641 SPIN=   0.00000
   O   0.3841302  -0.3208215  -0.3208215 SPIN=   0.00000
   O  -0.0728925   0.1836691   0.1836691 SPIN=   0.00000
  Fe  -0.1209126  -0.4189462  -0.0239497 SPIN=   4.00000
  Fe  -0.1209126  -0.0239497  -0.4189462 SPIN=   4.00000
%ENDBLOCK POSITIONS_FRAC

# Note: total spin =   8.00

KPOINTS_MP_SPACING 0.07

%BLOCK SPECIES_POT
QC5
%ENDBLOCK SPECIES_POT

%BLOCK HUBBARD_U
Fe d:4.0
%ENDBLOCK HUBBARD_U

SNAP_TO_SYMMETRY
SYMMETRY_GENERATE

