#              Generated by Buildcell
#
# at 01:37:42 (GMT+0.0) 24th November 2020
# in /lustre/scratch/uccabz1/launch_tmp
# on node-c12o-023
# by uccabz1
#
# compiler GCC version 4.9.2
# options -cpp -iprefix /lustre/shared/ucl/apps/gcc/4.9.2/bin/../lib/gcc/x86_64-unknown-linux-gnu/4.9.2/ -mtune=corei7 -march=x86-64 -g -Og
#
# seed  -468091250 -2087002179  -357578250   367695355   174696715  -678933700   482925289    57965245   126313293   532939050 -2041050439  -278124468
#
#      Author: C. J. Pickard (cjp20@cam.ac.uk)
#                Space group: F222
#

%BLOCK LATTICE_ABC
      5.62396      5.62396      6.40509
    115.34369    115.34369     91.43259
%ENDBLOCK LATTICE_ABC

%BLOCK POSITIONS_FRAC
  Li  -0.4842973   0.0157027   0.0314054 SPIN=   0.00000
  Li  -0.0157027   0.4842973  -0.0314054 SPIN=   0.00000
   O   0.1111799  -0.3945582  -0.2471443 SPIN=   0.00000
   O  -0.3547052  -0.4123306  -0.2548129 SPIN=   0.00000
   O   0.3945582  -0.1111799   0.2471443 SPIN=   0.00000
   O   0.4123306   0.3547052   0.2548129 SPIN=   0.00000
   O  -0.3583243   0.1474139  -0.2471443 SPIN=   0.00000
   O   0.0998923   0.1575178  -0.2548129 SPIN=   0.00000
   O  -0.1474139   0.3583243   0.2471443 SPIN=   0.00000
   O  -0.1575178  -0.0998923   0.2548129 SPIN=   0.00000
   P   0.2500000  -0.2500000   0.5000000 SPIN=   0.00000
   P  -0.5000000  -0.5000000   0.0000000 SPIN=   0.00000
  Fe  -0.1936514  -0.1936514  -0.3873028 SPIN=   4.00000
  Fe   0.1936514   0.1936514   0.3873028 SPIN=   4.00000
%ENDBLOCK POSITIONS_FRAC

# Note: total spin =   8.00

KPOINTS_MP_SPACING 0.07

%BLOCK SPECIES_POT
QC5
%ENDBLOCK SPECIES_POT

%BLOCK HUBBARD_U
Fe d:4.0
%ENDBLOCK HUBBARD_U

SNAP_TO_SYMMETRY
SYMMETRY_GENERATE

