#              Generated by Buildcell
#
# at 05:49:16 (GMT+0.0) 24th November 2020
# in /scratch/scratch/uccabz1/launch_tmp
# on node-a14e-019
# by uccabz1
#
# compiler GCC version 4.9.2
# options -cpp -iprefix /scratch/UCL/applications/gcc/4.9.2/bin/../lib/gcc/x86_64-unknown-linux-gnu/4.9.2/ -mtune=corei7 -march=x86-64 -g -O2
#
# seed -1911057382 -1599682933  1159522836  1019480379  1696406437 -1793461463   699186652 -1330582034  1358873811 -1918792778 -1738968413  -882185921
#
#      Author: C. J. Pickard (cjp20@cam.ac.uk)
#                Space group: P-1
#

%BLOCK LATTICE_ABC
      5.61269      5.92568      6.00658
    116.52156    110.49426     95.20223
%ENDBLOCK LATTICE_ABC

%BLOCK POSITIONS_FRAC
  Li   0.4440194   0.2452162   0.5010271 SPIN=   0.00000
  Li  -0.4440194  -0.2452162  -0.5010271 SPIN=   0.00000
   O   0.3214099   0.4833120  -0.2019114 SPIN=   0.00000
   O   0.1823484   0.6967317   0.1977038 SPIN=   0.00000
   O   0.5416160   0.9718282   0.1992497 SPIN=   0.00000
   O   0.0722486   0.8355595  -0.1547453 SPIN=   0.00000
   P   0.2791975   0.7338721  -0.0031580 SPIN=   0.00000
   O  -0.3214099  -0.4833120   0.2019114 SPIN=   0.00000
   O  -0.1823484  -0.6967317  -0.1977038 SPIN=   0.00000
   O  -0.5416160  -0.9718282  -0.1992497 SPIN=   0.00000
   O  -0.0722486  -0.8355595   0.1547453 SPIN=   0.00000
   P  -0.2791975  -0.7338721   0.0031580 SPIN=   0.00000
  Fe   0.1778387   0.2111346  -0.0998559 SPIN=   4.00000
  Fe  -0.1778387  -0.2111346   0.0998559 SPIN=   4.00000
%ENDBLOCK POSITIONS_FRAC

# Note: total spin =   8.00

KPOINTS_MP_SPACING 0.07

%BLOCK SPECIES_POT
QC5
%ENDBLOCK SPECIES_POT

%BLOCK HUBBARD_U
Fe d:4.0
%ENDBLOCK HUBBARD_U

SNAP_TO_SYMMETRY
SYMMETRY_GENERATE

