#              Generated by Buildcell
#
# at 23:33:59 (GMT+0.0) 23rd November 2020
# in /lustre/scratch/uccabz1/launch_tmp
# on node-c12o-026
# by uccabz1
#
# compiler GCC version 4.9.2
# options -cpp -iprefix /lustre/shared/ucl/apps/gcc/4.9.2/bin/../lib/gcc/x86_64-unknown-linux-gnu/4.9.2/ -mtune=corei7 -march=x86-64 -g -Og
#
# seed   769454669   616524906  1685382382  -419155856 -1678091753  1195758194   -75207195    53820680  -539623027  -318011726  1197922417  1782842043
#
#      Author: C. J. Pickard (cjp20@cam.ac.uk)
#                Space group: Imm2
#

%BLOCK LATTICE_ABC
      5.13702      5.64009      6.71164
    114.84544    112.50070     90.00000
%ENDBLOCK LATTICE_ABC

%BLOCK POSITIONS_FRAC
  Li  -0.4897559   0.0102441   0.0204882 SPIN=   0.00000
  Li   0.3724165   0.3724165   0.7448331 SPIN=   0.00000
   O  -0.2766426   0.2358644  -0.0739554 SPIN=   0.00000
   O  -0.5205623   0.0053000  -0.5443267 SPIN=   0.00000
   O   0.2026873  -0.3098198  -0.0739554 SPIN=   0.00000
   O  -0.0237644  -0.5496267  -0.5443267 SPIN=   0.00000
   O  -0.2766426  -0.3098198  -0.0739554 SPIN=   0.00000
   O  -0.5205623  -0.5496267  -0.5443267 SPIN=   0.00000
   O   0.2026873   0.2358644  -0.0739554 SPIN=   0.00000
   O  -0.0237644   0.0053000  -0.5443267 SPIN=   0.00000
   P  -0.1912437   0.3087563   0.6175126 SPIN=   0.00000
   P   0.0765178   0.0765178   0.1530356 SPIN=   0.00000
  Fe  -0.1784462  -0.1784462  -0.3568924 SPIN=   1.55295
  Fe   0.0640588  -0.4359412  -0.8718824 SPIN=   6.44705
%ENDBLOCK POSITIONS_FRAC

# Note: total spin =   8.00

KPOINTS_MP_SPACING 0.07

%BLOCK SPECIES_POT
QC5
%ENDBLOCK SPECIES_POT

%BLOCK HUBBARD_U
Fe d:4.0
%ENDBLOCK HUBBARD_U

SNAP_TO_SYMMETRY
SYMMETRY_GENERATE

