#              Generated by Buildcell
#
# at 01:12:12 (GMT+0.0) 24th November 2020
# in /scratch/scratch/uccabz1/launch_tmp
# on node-a14f-013
# by uccabz1
#
# compiler GCC version 4.9.2
# options -cpp -iprefix /scratch/UCL/applications/gcc/4.9.2/bin/../lib/gcc/x86_64-unknown-linux-gnu/4.9.2/ -mtune=corei7 -march=x86-64 -g -O2
#
# seed  1395401001  1345931777 -1591973703 -1032776114   864164867 -1950970947 -1502621361    92950674  -440562397  -578729414  1722625874   959268734
#
#      Author: C. J. Pickard (cjp20@cam.ac.uk)
#                Space group: P-1
#

%BLOCK LATTICE_ABC
      4.66831      5.23282      7.55580
     97.85722    103.02513    113.17215
%ENDBLOCK LATTICE_ABC

%BLOCK POSITIONS_FRAC
  Li  -0.7077574  -0.7204953  -0.3837459 SPIN=   0.00000
  Li   0.7077574   0.7204953   0.3837459 SPIN=   0.00000
   O  -0.2970996  -0.1709264  -0.3378854 SPIN=   0.00000
   O  -0.4969829   0.1249197  -0.1350061 SPIN=   0.00000
   O   0.0983446   0.2883672  -0.0713060 SPIN=   0.00000
   O  -0.2284994   0.3346603  -0.3666954 SPIN=   0.00000
   P  -0.2345455   0.1297203  -0.2352289 SPIN=   0.00000
   O   0.2970996   0.1709264   0.3378854 SPIN=   0.00000
   O   0.4969829  -0.1249197   0.1350061 SPIN=   0.00000
   O  -0.0983446  -0.2883672   0.0713060 SPIN=   0.00000
   O   0.2284994  -0.3346603   0.3666954 SPIN=   0.00000
   P   0.2345455  -0.1297203   0.2352289 SPIN=   0.00000
  Fe   0.0702139  -0.2583284  -0.1805284 SPIN=   4.00000
  Fe  -0.0702139   0.2583284   0.1805284 SPIN=   4.00000
%ENDBLOCK POSITIONS_FRAC

# Note: total spin =   8.00

KPOINTS_MP_SPACING 0.07

%BLOCK SPECIES_POT
QC5
%ENDBLOCK SPECIES_POT

%BLOCK HUBBARD_U
Fe d:4.0
%ENDBLOCK HUBBARD_U

SNAP_TO_SYMMETRY
SYMMETRY_GENERATE

