#              Generated by Buildcell
#
# at 03:58:01 (GMT+0.0) 24th November 2020
# in /lustre/scratch/uccabz1/launch_tmp
# on node-c12n-028
# by uccabz1
#
# compiler GCC version 4.9.2
# options -cpp -iprefix /lustre/shared/ucl/apps/gcc/4.9.2/bin/../lib/gcc/x86_64-unknown-linux-gnu/4.9.2/ -mtune=corei7 -march=x86-64 -g -Og
#
# seed -1543693586  1877689582  1498016889 -1432813256 -1302577297   269108199   -59106864 -1921000401  1388844864  1994401181  1107169853 -1836849166
#
#      Author: C. J. Pickard (cjp20@cam.ac.uk)
#                Space group: P2
#

%BLOCK LATTICE_ABC
      4.12771      5.23755      7.45540
     96.93504     90.00000     90.00000
%ENDBLOCK LATTICE_ABC

%BLOCK POSITIONS_FRAC
  Li  -0.1395004   1.0000000   0.5000000 SPIN=   0.00000
  Li   0.0086644  -0.0000000   0.0000000 SPIN=   0.00000
   O   0.0938551  -0.1296477  -0.2760570 SPIN=   0.00000
   O  -0.0426610   0.3567000  -0.2085094 SPIN=   0.00000
   O   0.4573436   0.1971280  -0.0780243 SPIN=   0.00000
   O   0.4253395   0.2192257  -0.4112408 SPIN=   0.00000
   O   0.0938551   0.1296477   0.2760570 SPIN=   0.00000
   O  -0.0426610  -0.3567000   0.2085094 SPIN=   0.00000
   O   0.4573436  -0.1971280   0.0780243 SPIN=   0.00000
   O   0.4253395  -0.2192257   0.4112408 SPIN=   0.00000
   P   0.0084278   0.5000000   0.0000000 SPIN=   0.00000
   P   0.0084292   0.5000000   0.5000000 SPIN=   0.00000
  Fe  -0.4915884   0.3888962   0.2412231 SPIN=   4.00000
  Fe  -0.4915884  -0.3888962  -0.2412231 SPIN=   4.00000
%ENDBLOCK POSITIONS_FRAC

# Note: total spin =   8.00

KPOINTS_MP_SPACING 0.07

%BLOCK SPECIES_POT
QC5
%ENDBLOCK SPECIES_POT

%BLOCK HUBBARD_U
Fe d:4.0
%ENDBLOCK HUBBARD_U

SNAP_TO_SYMMETRY
SYMMETRY_GENERATE

