#              Generated by Buildcell
#
# at 01:19:01 (GMT+0.0) 24th November 2020
# in /lustre/scratch/uccabz1/launch_tmp
# on node-c12c-022
# by uccabz1
#
# compiler GCC version 4.9.2
# options -cpp -iprefix /lustre/shared/ucl/apps/gcc/4.9.2/bin/../lib/gcc/x86_64-unknown-linux-gnu/4.9.2/ -mtune=corei7 -march=x86-64 -g -Og
#
# seed  1758283199  -588329707  -628846906  1831838266   505334149   756179129  1818962039   178780043  1892211845 -1077356105   864087985  1292039747
#
#      Author: C. J. Pickard (cjp20@cam.ac.uk)
#                Space group: I-4
#

%BLOCK LATTICE_ABC
      5.45646      5.45646      6.61562
    114.35520    114.35520     90.00000
%ENDBLOCK LATTICE_ABC

%BLOCK POSITIONS_FRAC
  Li   0.0000018  -0.4999982   0.0000036 SPIN=   0.00000
  Li   0.4999982  -0.0000018  -0.0000036 SPIN=   0.00000
   O   0.5997474  -0.4398653  -0.2707740 SPIN=   0.00000
   O   0.1591701  -0.3468178  -0.2150147 SPIN=   0.00000
   O   0.1294787   0.1690913   0.7292260 SPIN=   0.00000
   O   0.6258151   0.1318031   0.7849853 SPIN=   0.00000
   O  -0.1690913  -0.5997474  -0.7292260 SPIN=   0.00000
   O  -0.1318031  -0.1591701  -0.7849853 SPIN=   0.00000
   O   0.4398653  -0.1294787   0.2707740 SPIN=   0.00000
   O   0.3468178  -0.6258151   0.2150147 SPIN=   0.00000
   P   0.2500000  -0.2500000   0.5000000 SPIN=   0.00000
   P  -0.2500000   0.2500000  -0.5000000 SPIN=   0.00000
  Fe  -0.1790208  -0.1790208  -0.3580417 SPIN=   4.00000
  Fe   0.1790208   0.1790208   0.3580417 SPIN=   4.00000
%ENDBLOCK POSITIONS_FRAC

# Note: total spin =   8.00

KPOINTS_MP_SPACING 0.07

%BLOCK SPECIES_POT
QC5
%ENDBLOCK SPECIES_POT

%BLOCK HUBBARD_U
Fe d:4.0
%ENDBLOCK HUBBARD_U

SNAP_TO_SYMMETRY
SYMMETRY_GENERATE

