#              Generated by Buildcell
#
# at 01:05:49 (GMT+0.0) 24th November 2020
# in /lustre/scratch/uccabz1/launch_tmp
# on node-c12a-034
# by uccabz1
#
# compiler GCC version 4.9.2
# options -cpp -iprefix /lustre/shared/ucl/apps/gcc/4.9.2/bin/../lib/gcc/x86_64-unknown-linux-gnu/4.9.2/ -mtune=corei7 -march=x86-64 -g -Og
#
# seed   471504453  -443182372  1266868817  -979895433 -2042065521   861440093  -565780134   278646602    87279570  1240679722  -960584637  -874113833
#
#      Author: C. J. Pickard (cjp20@cam.ac.uk)
#                Space group: Pc
#

%BLOCK LATTICE_ABC
      4.94398      5.48734      6.29189
     90.00000     90.00000    110.38915
%ENDBLOCK LATTICE_ABC

%BLOCK POSITIONS_FRAC
  Li  -0.3492671  -0.4940484  -0.1409193 SPIN=   0.00000
  Li   0.1507329  -0.4940484   0.1409193 SPIN=   0.00000
   O  -0.4098038  -0.3636982   0.2246069 SPIN=   0.00000
   O   0.0580936  -0.0528027   0.0477567 SPIN=   0.00000
   O  -0.1125111   0.0906791   0.3775894 SPIN=   0.00000
   O   0.0932420  -0.2663677   0.3932849 SPIN=   0.00000
   P  -0.1074318  -0.1609260   0.2604452 SPIN=   0.00000
   O   0.0901962  -0.3636982  -0.2246069 SPIN=   0.00000
   O   0.5580936  -0.0528027  -0.0477567 SPIN=   0.00000
   O   0.3874889   0.0906791  -0.3775894 SPIN=   0.00000
   O   0.5932420  -0.2663677  -0.3932849 SPIN=   0.00000
   P   0.3925682  -0.1609260  -0.2604452 SPIN=   0.00000
  Fe  -0.0013638   0.1137079  -0.2643273 SPIN=   4.00000
  Fe   0.4986362   0.1137079   0.2643273 SPIN=   4.00000
%ENDBLOCK POSITIONS_FRAC

# Note: total spin =   8.00

KPOINTS_MP_SPACING 0.07

%BLOCK SPECIES_POT
QC5
%ENDBLOCK SPECIES_POT

%BLOCK HUBBARD_U
Fe d:4.0
%ENDBLOCK HUBBARD_U

SNAP_TO_SYMMETRY
SYMMETRY_GENERATE

