#              Generated by Buildcell
#
# at 03:06:31 (GMT+0.0) 24th November 2020
# in /lustre/scratch/uccabz1/launch_tmp
# on node-c12i-032
# by uccabz1
#
# compiler GCC version 4.9.2
# options -cpp -iprefix /lustre/shared/ucl/apps/gcc/4.9.2/bin/../lib/gcc/x86_64-unknown-linux-gnu/4.9.2/ -mtune=corei7 -march=x86-64 -g -Og
#
# seed  -948627119 -1807503559 -1064172451 -1615403014  1786296443   780490248 -1027287429 -1707378784  1695390458  -292316359   600460046   -84967445
#
#      Author: C. J. Pickard (cjp20@cam.ac.uk)
#                Space group: P21/m
#

%BLOCK LATTICE_ABC
      4.15577      5.83760      6.78964
     90.00000    103.74148     90.00000
%ENDBLOCK LATTICE_ABC

%BLOCK POSITIONS_FRAC
  Li  -0.2269682   0.2500000   0.4175882 SPIN=   0.00000
  Li   0.2269682  -0.2500000  -0.4175882 SPIN=   0.00000
   O  -0.3622986   0.5391032  -0.2948529 SPIN=   0.00000
   O  -0.2142202   0.4607303   0.0929151 SPIN=   0.00000
   O   0.3622986   0.0391032   0.2948529 SPIN=   0.00000
   O   0.2142202  -0.0392697  -0.0929151 SPIN=   0.00000
   O   0.3622986  -0.5391032   0.2948529 SPIN=   0.00000
   O   0.2142202  -0.4607303  -0.0929151 SPIN=   0.00000
   O  -0.3622986  -0.0391032  -0.2948529 SPIN=   0.00000
   O  -0.2142202   0.0392697   0.0929151 SPIN=   0.00000
   P   0.1718073   0.2500000   0.1606427 SPIN=   0.00000
   P  -0.1718073  -0.2500000  -0.1606427 SPIN=   0.00000
  Fe   0.4247838   0.2500000  -0.1952308 SPIN=   4.00000
  Fe  -0.4247838  -0.2500000   0.1952308 SPIN=   4.00000
%ENDBLOCK POSITIONS_FRAC

# Note: total spin =   8.00

KPOINTS_MP_SPACING 0.07

%BLOCK SPECIES_POT
QC5
%ENDBLOCK SPECIES_POT

%BLOCK HUBBARD_U
Fe d:4.0
%ENDBLOCK HUBBARD_U

SNAP_TO_SYMMETRY
SYMMETRY_GENERATE

