#              Generated by Buildcell
#
# at 05:05:06 (GMT+0.0) 24th November 2020
# in /lustre/scratch/uccabz1/launch_tmp
# on node-c12p-031
# by uccabz1
#
# compiler GCC version 4.9.2
# options -cpp -iprefix /lustre/shared/ucl/apps/gcc/4.9.2/bin/../lib/gcc/x86_64-unknown-linux-gnu/4.9.2/ -mtune=corei7 -march=x86-64 -g -Og
#
# seed -1104660223   106991996  1629991182 -1468684134  -476728046 -1579904823  -211071372  1735421511 -2050185116  1928730161  -923390078 -1685285650
#
#      Author: C. J. Pickard (cjp20@cam.ac.uk)
#                Space group: Fdd2
#

%BLOCK LATTICE_ABC
      5.40539      5.40539      6.56502
    110.50476    110.50476     98.57674
%ENDBLOCK LATTICE_ABC

%BLOCK POSITIONS_FRAC
  Li   0.3135205  -0.1864795  -0.3729589 SPIN=   0.00000
  Li  -0.4364795  -0.4364795   0.1270411 SPIN=   0.00000
   O   0.3394051   0.1380500  -0.0651941 SPIN=   0.00000
   O   0.1923015   0.3761628   0.2726837 SPIN=   0.00000
   O  -0.4045993  -0.2032441  -0.0651941 SPIN=   0.00000
   O   0.0803822  -0.1034791   0.2726837 SPIN=   0.00000
   O  -0.1119500  -0.4105949  -0.5651941 SPIN=   0.00000
   O   0.1261628  -0.5576985  -0.2273163 SPIN=   0.00000
   O  -0.4532441  -0.1545993  -0.5651941 SPIN=   0.00000
   O  -0.3534791   0.3303822  -0.2273163 SPIN=   0.00000
   P   0.3210006   0.3210006  -0.3579988 SPIN=   0.00000
   P   0.0710006  -0.4289994   0.1420012 SPIN=   0.00000
  Fe  -0.0143304  -0.0143304  -0.0286608 SPIN=   4.00000
  Fe  -0.2643304   0.2356696   0.4713392 SPIN=   4.00000
%ENDBLOCK POSITIONS_FRAC

# Note: total spin =   8.00

KPOINTS_MP_SPACING 0.07

%BLOCK SPECIES_POT
QC5
%ENDBLOCK SPECIES_POT

%BLOCK HUBBARD_U
Fe d:4.0
%ENDBLOCK HUBBARD_U

SNAP_TO_SYMMETRY
SYMMETRY_GENERATE

