#              Generated by Buildcell
#
# at 01:11:54 (GMT+0.0) 24th November 2020
# in /lustre/scratch/uccabz1/launch_tmp
# on node-c12p-031
# by uccabz1
#
# compiler GCC version 4.9.2
# options -cpp -iprefix /lustre/shared/ucl/apps/gcc/4.9.2/bin/../lib/gcc/x86_64-unknown-linux-gnu/4.9.2/ -mtune=corei7 -march=x86-64 -g -Og
#
# seed   -56852955  -238003247   854999827  -232457626 -1796004080  -667451512  -218549515  -514716433 -1629283301  1911635825   131770995   252144127
#
#      Author: C. J. Pickard (cjp20@cam.ac.uk)
#                Space group: P-1
#

%BLOCK LATTICE_ABC
      4.99993      5.50834      6.67427
     96.17328    108.25637    109.39660
%ENDBLOCK LATTICE_ABC

%BLOCK POSITIONS_FRAC
  Li  -0.7361187  -0.4199560  -0.2880218 SPIN=   0.00000
  Li   0.7361187   0.4199560   0.2880218 SPIN=   0.00000
   O  -0.0233658   0.2253509   0.4781112 SPIN=   0.00000
   O   0.4657787   0.1947084   0.4384637 SPIN=   0.00000
   O  -0.0346322  -0.0901241   0.1540989 SPIN=   0.00000
   P   0.1358671   0.1871160   0.3210031 SPIN=   0.00000
   O   0.0233658  -0.2253509  -0.4781112 SPIN=   0.00000
   O  -0.4657787  -0.1947084  -0.4384637 SPIN=   0.00000
   O   0.0346322   0.0901241  -0.1540989 SPIN=   0.00000
   P  -0.1358671  -0.1871160  -0.3210031 SPIN=   0.00000
   O   0.5000000   0.0000000  -0.0000000 SPIN=   0.00000
   O   0.5000000   0.5000000  -0.0000000 SPIN=   0.00000
  Fe   0.3438580  -0.2103728   0.2111593 SPIN=   4.00000
  Fe  -0.3438580   0.2103728  -0.2111593 SPIN=   4.00000
%ENDBLOCK POSITIONS_FRAC

# Note: total spin =   8.00

KPOINTS_MP_SPACING 0.07

%BLOCK SPECIES_POT
QC5
%ENDBLOCK SPECIES_POT

%BLOCK HUBBARD_U
Fe d:4.0
%ENDBLOCK HUBBARD_U

SNAP_TO_SYMMETRY
SYMMETRY_GENERATE

