#              Generated by Buildcell
#
# at 00:51:53 (GMT+0.0) 24th November 2020
# in /scratch/scratch/uccabz1/launch_tmp
# on node-a14e-012
# by uccabz1
#
# compiler GCC version 4.9.2
# options -cpp -iprefix /scratch/UCL/applications/gcc/4.9.2/bin/../lib/gcc/x86_64-unknown-linux-gnu/4.9.2/ -mtune=corei7 -march=x86-64 -g -O2
#
# seed -2145546473  1112295019   194122564   386158461  -736878241    60068562  1206973681 -1325063248  1839731386   658155435   204881202  1895550720
#
#      Author: C. J. Pickard (cjp20@cam.ac.uk)
#                Space group: Cc
#

%BLOCK LATTICE_ABC
      4.24374      4.24374      9.04543
     84.59084     84.59084     81.85774
%ENDBLOCK LATTICE_ABC

%BLOCK POSITIONS_FRAC
  Li   0.0689221   0.3642631  -0.0115920 SPIN=   0.00000
  Li  -0.1357369  -0.4310779   0.4884080 SPIN=   0.00000
   O   0.1547903  -0.1377707  -0.3761559 SPIN=   0.00000
   O   0.4330825  -0.4400246  -0.1501782 SPIN=   0.00000
   O  -0.0181744  -0.6589626  -0.2384796 SPIN=   0.00000
   O   0.5035148  -0.6854854  -0.3943072 SPIN=   0.00000
   P   0.2650351  -0.4647273  -0.2956128 SPIN=   0.00000
   O   0.3622293  -0.3452097   0.1238441 SPIN=   0.00000
   O   0.0599754  -0.0669175   0.3498218 SPIN=   0.00000
   O  -0.1589626  -0.5181744   0.2615204 SPIN=   0.00000
   O  -0.1854854   0.0035148   0.1056928 SPIN=   0.00000
   P   0.0352727  -0.2349649   0.2043872 SPIN=   0.00000
  Fe  -0.3287247  -0.0395726  -0.2093684 SPIN=   4.00000
  Fe   0.4604274   0.1712753   0.2906316 SPIN=   4.00000
%ENDBLOCK POSITIONS_FRAC

# Note: total spin =   8.00

KPOINTS_MP_SPACING 0.07

%BLOCK SPECIES_POT
QC5
%ENDBLOCK SPECIES_POT

%BLOCK HUBBARD_U
Fe d:4.0
%ENDBLOCK HUBBARD_U

SNAP_TO_SYMMETRY
SYMMETRY_GENERATE

