#              Generated by Buildcell
#
# at 23:13:25 (GMT+0.0) 23rd November 2020
# in /lustre/scratch/uccabz1/launch_tmp
# on node-c12e-025
# by uccabz1
#
# compiler GCC version 4.9.2
# options -cpp -iprefix /lustre/shared/ucl/apps/gcc/4.9.2/bin/../lib/gcc/x86_64-unknown-linux-gnu/4.9.2/ -mtune=corei7 -march=x86-64 -g -Og
#
# seed  -761130243    -1998654   329383735   111514063 -2069624790  2005023429 -1701064881  1761395131 -1841286249  1178939715   861483296  -208588968
#
#      Author: C. J. Pickard (cjp20@cam.ac.uk)
#                Space group: P-1
#

%BLOCK LATTICE_ABC
      3.91786      4.58618      9.36163
    103.98839     99.88485     93.07449
%ENDBLOCK LATTICE_ABC

%BLOCK POSITIONS_FRAC
  Li  -0.6021220  -0.0674026  -0.1698373 SPIN=   0.00000
  Li   0.6021220   0.0674026   0.1698373 SPIN=   0.00000
   O   0.7041722  -0.4340977   0.4201826 SPIN=   0.00000
   O   0.5694412  -0.4108492   0.1417986 SPIN=   0.00000
   O   0.1004048  -0.6162384   0.2463896 SPIN=   0.00000
   O   0.2971269  -0.0628010   0.3304472 SPIN=   0.00000
   P   0.4316111  -0.3800689   0.2924578 SPIN=   0.00000
   O  -0.7041722   0.4340977  -0.4201826 SPIN=   0.00000
   O  -0.5694412   0.4108492  -0.1417986 SPIN=   0.00000
   O  -0.1004048   0.6162384  -0.2463896 SPIN=   0.00000
   O  -0.2971269   0.0628010  -0.3304472 SPIN=   0.00000
   P  -0.4316111   0.3800689  -0.2924578 SPIN=   0.00000
  Fe  -0.0000000  -0.5000000  -0.0000000 SPIN=   0.64438
  Fe   0.0000000   0.0000000  -0.5000000 SPIN=   7.35562
%ENDBLOCK POSITIONS_FRAC

# Note: total spin =   8.00

KPOINTS_MP_SPACING 0.07

%BLOCK SPECIES_POT
QC5
%ENDBLOCK SPECIES_POT

%BLOCK HUBBARD_U
Fe d:4.0
%ENDBLOCK HUBBARD_U

SNAP_TO_SYMMETRY
SYMMETRY_GENERATE

