#              Generated by Buildcell
#
# at 03:57:26 (GMT+0.0) 24th November 2020
# in /lustre/scratch/uccabz1/launch_tmp
# on node-c12p-023
# by uccabz1
#
# compiler GCC version 4.9.2
# options -cpp -iprefix /lustre/shared/ucl/apps/gcc/4.9.2/bin/../lib/gcc/x86_64-unknown-linux-gnu/4.9.2/ -mtune=corei7 -march=x86-64 -g -Og
#
# seed  1917810770  -221474588  -296970816  -546131272  1214724704  -263664676  -759055571  -772098988   458859109 -1923581953 -1888474315  1333637548
#
#      Author: C. J. Pickard (cjp20@cam.ac.uk)
#                Space group: P-1
#

%BLOCK LATTICE_ABC
      5.22792      5.87205      6.11304
     70.76179     89.72675     65.97447
%ENDBLOCK LATTICE_ABC

%BLOCK POSITIONS_FRAC
  Li  -0.4863247   0.0246737   0.2455147 SPIN=   0.00000
  Li   0.4863247  -0.0246737  -0.2455147 SPIN=   0.00000
   O   0.1249765   0.3091108   0.2790397 SPIN=   0.00000
   O  -0.2272349   0.1650132   0.5235751 SPIN=   0.00000
   O  -0.3976207   0.6358326   0.2605858 SPIN=   0.00000
   O  -0.2957625   0.2804691   0.0889311 SPIN=   0.00000
   P  -0.1828080   0.3447644   0.2852045 SPIN=   0.00000
   O  -0.1249765  -0.3091108  -0.2790397 SPIN=   0.00000
   O   0.2272349  -0.1650132  -0.5235751 SPIN=   0.00000
   O   0.3976207  -0.6358326  -0.2605858 SPIN=   0.00000
   O   0.2957625  -0.2804691  -0.0889311 SPIN=   0.00000
   P   0.1828080  -0.3447644  -0.2852045 SPIN=   0.00000
  Fe   0.1851775  -0.3515587   0.2483510 SPIN=   4.00000
  Fe  -0.1851775   0.3515587  -0.2483510 SPIN=   4.00000
%ENDBLOCK POSITIONS_FRAC

# Note: total spin =   8.00

KPOINTS_MP_SPACING 0.07

%BLOCK SPECIES_POT
QC5
%ENDBLOCK SPECIES_POT

%BLOCK HUBBARD_U
Fe d:4.0
%ENDBLOCK HUBBARD_U

SNAP_TO_SYMMETRY
SYMMETRY_GENERATE

