#              Generated by Buildcell
#
# at 00:53:31 (GMT+0.0) 24th November 2020
# in /lustre/scratch/uccabz1/launch_tmp
# on node-c12a-027
# by uccabz1
#
# compiler GCC version 4.9.2
# options -cpp -iprefix /lustre/shared/ucl/apps/gcc/4.9.2/bin/../lib/gcc/x86_64-unknown-linux-gnu/4.9.2/ -mtune=corei7 -march=x86-64 -g -Og
#
# seed  2104139127  1007628224   574380334 -1450617471  1007878874  1965418712  1932595471  1894422369 -1888108914 -1289116694  -408413794   513006456
#
#      Author: C. J. Pickard (cjp20@cam.ac.uk)
#                Space group: P-1
#

%BLOCK LATTICE_ABC
      4.99908      5.78730      6.65267
     67.29248     89.42471     66.19213
%ENDBLOCK LATTICE_ABC

%BLOCK POSITIONS_FRAC
  Li   0.8645487  -0.4728693   0.1987318 SPIN=   0.00000
  Li  -0.8645487   0.4728693  -0.1987318 SPIN=   0.00000
   O   0.5846625  -0.6237867  -0.1233050 SPIN=   0.00000
   O   0.6442468  -0.3184896  -0.5108419 SPIN=   0.00000
   O   0.2152275  -0.1065983  -0.3495714 SPIN=   0.00000
   O   0.7262903  -0.2212875  -0.1868109 SPIN=   0.00000
   P   0.5470137  -0.3327107  -0.2823677 SPIN=   0.00000
   O  -0.5846625   0.6237867   0.1233050 SPIN=   0.00000
   O  -0.6442468   0.3184896   0.5108419 SPIN=   0.00000
   O  -0.2152275   0.1065983   0.3495714 SPIN=   0.00000
   O  -0.7262903   0.2212875   0.1868109 SPIN=   0.00000
   P  -0.5470137   0.3327107   0.2823677 SPIN=   0.00000
  Fe  -0.2052607   0.1362289  -0.2955461 SPIN=   4.00000
  Fe   0.2052607  -0.1362289   0.2955461 SPIN=   4.00000
%ENDBLOCK POSITIONS_FRAC

# Note: total spin =   8.00

KPOINTS_MP_SPACING 0.07

%BLOCK SPECIES_POT
QC5
%ENDBLOCK SPECIES_POT

%BLOCK HUBBARD_U
Fe d:4.0
%ENDBLOCK HUBBARD_U

SNAP_TO_SYMMETRY
SYMMETRY_GENERATE

