#              Generated by Buildcell
#
# at 22:41:56 (GMT+0.0) 23rd November 2020
# in /scratch/scratch/uccabz1/launch_tmp
# on node-a14e-012
# by uccabz1
#
# compiler GCC version 4.9.2
# options -cpp -iprefix /scratch/UCL/applications/gcc/4.9.2/bin/../lib/gcc/x86_64-unknown-linux-gnu/4.9.2/ -mtune=corei7 -march=x86-64 -g -O2
#
# seed      -27430 -1866620316   932907218  2062042808  -288407582 -1797644470  -580523664  1821862077  -472309857  -541121685  1001967125  1215534006
#
#      Author: C. J. Pickard (cjp20@cam.ac.uk)
#                Space group: Fdd2
#

%BLOCK LATTICE_ABC
      5.39508      5.82338      6.34805
     78.64760     64.85317     62.40456
%ENDBLOCK LATTICE_ABC

%BLOCK POSITIONS_FRAC
  Li   0.4851711   0.0296578  -0.0000000 SPIN=   0.00000
  Li   0.2351711  -0.4703422  -0.5000000 SPIN=   0.00000
   O  -0.0043937  -0.1324027  -0.1741602 SPIN=   0.00000
   O  -0.3371499  -0.2916592   0.1985680 SPIN=   0.00000
   O   0.1367964  -0.1324027   0.1741602 SPIN=   0.00000
   O   0.6288091  -0.2916592  -0.1985680 SPIN=   0.00000
   O   0.0609566   0.3675973  -0.6741602 SPIN=   0.00000
   O   0.1802411   0.2083408  -0.3014320 SPIN=   0.00000
   O  -0.4285539   0.3675973   0.6741602 SPIN=   0.00000
   O  -0.3885819   0.2083408   0.3014320 SPIN=   0.00000
   P  -0.0471295   0.0942591   0.5000000 SPIN=   0.00000
   P   0.2028705  -0.4057409  -0.0000000 SPIN=   0.00000
  Fe  -0.4449306  -0.1101387   0.5000000 SPIN=   4.00000
  Fe  -0.1949306   0.3898613  -0.0000000 SPIN=   4.00000
%ENDBLOCK POSITIONS_FRAC

# Note: total spin =   8.00

KPOINTS_MP_SPACING 0.07

%BLOCK SPECIES_POT
QC5
%ENDBLOCK SPECIES_POT

%BLOCK HUBBARD_U
Fe d:4.0
%ENDBLOCK HUBBARD_U

SNAP_TO_SYMMETRY
SYMMETRY_GENERATE

