#              Generated by Buildcell
#
# at 02:31:55 (GMT+0.0) 24th November 2020
# in /lustre/scratch/uccabz1/launch_tmp
# on node-c12k-031
# by uccabz1
#
# compiler GCC version 4.9.2
# options -cpp -iprefix /lustre/shared/ucl/apps/gcc/4.9.2/bin/../lib/gcc/x86_64-unknown-linux-gnu/4.9.2/ -mtune=corei7 -march=x86-64 -g -Og
#
# seed  -852784043 -1273893327  1527611340  1230621167  1837707583  -390238559   -36641349   781370450 -1229321930  1093160884  2055941986   562282563
#
#      Author: C. J. Pickard (cjp20@cam.ac.uk)
#                Space group: P-1
#

%BLOCK LATTICE_ABC
      4.74884      5.62362      6.21847
     80.43428     77.87637     85.97766
%ENDBLOCK LATTICE_ABC

%BLOCK POSITIONS_FRAC
  Li  -0.3703245  -0.2555375  -0.4853098 SPIN=   0.00000
  Li   0.3703245   0.2555375   0.4853098 SPIN=   0.00000
   O  -0.2241148   0.5532033   0.2295536 SPIN=   0.00000
   O   0.2536609   0.2961322   0.1645735 SPIN=   0.00000
   O  -0.0784438   0.2153401   0.5296248 SPIN=   0.00000
   O  -0.2140626   0.1016678   0.1930765 SPIN=   0.00000
   P  -0.0759231   0.3032745   0.2755468 SPIN=   0.00000
   O   0.2241148  -0.5532033  -0.2295536 SPIN=   0.00000
   O  -0.2536609  -0.2961322  -0.1645735 SPIN=   0.00000
   O   0.0784438  -0.2153401  -0.5296248 SPIN=   0.00000
   O   0.2140626  -0.1016678  -0.1930765 SPIN=   0.00000
   P   0.0759231  -0.3032745  -0.2755468 SPIN=   0.00000
  Fe   0.2340614  -0.2592451   0.1363232 SPIN=   4.00000
  Fe  -0.2340614   0.2592451  -0.1363232 SPIN=   4.00000
%ENDBLOCK POSITIONS_FRAC

# Note: total spin =   8.00

KPOINTS_MP_SPACING 0.07

%BLOCK SPECIES_POT
QC5
%ENDBLOCK SPECIES_POT

%BLOCK HUBBARD_U
Fe d:4.0
%ENDBLOCK HUBBARD_U

SNAP_TO_SYMMETRY
SYMMETRY_GENERATE

