#              Generated by Buildcell
#
# at 23:08:53 (GMT+0.0) 23rd November 2020
# in /lustre/scratch/uccabz1/launch_tmp
# on node-c12f-026
# by uccabz1
#
# compiler GCC version 4.9.2
# options -cpp -iprefix /lustre/shared/ucl/apps/gcc/4.9.2/bin/../lib/gcc/x86_64-unknown-linux-gnu/4.9.2/ -mtune=corei7 -march=x86-64 -g -Og
#
# seed   801138556  -178368477  2048226245  -138879632  -313511616   -17364827   531394610 -1210629041  -570683769  1268021097  1878439140  2113853997
#
#      Author: C. J. Pickard (cjp20@cam.ac.uk)
#                Space group: C2
#

%BLOCK LATTICE_ABC
      4.58520      5.25861      7.77395
    106.56843     90.00000    115.84709
%ENDBLOCK LATTICE_ABC

%BLOCK POSITIONS_FRAC
  Li  -0.0254819   0.2795556   0.4441349 SPIN=   0.00000
  Li  -0.3050374  -0.2795556  -0.4441349 SPIN=   0.00000
   O   0.6335552  -0.1890096  -0.1518415 SPIN=   0.00000
   O   0.1461357  -0.2565626  -0.3612845 SPIN=   0.00000
   O   0.1160388  -0.6961186  -0.2910937 SPIN=   0.00000
   O   0.0693112  -0.2900462  -0.0481344 SPIN=   0.00000
   P   0.2601188  -0.3481387  -0.2078808 SPIN=   0.00000
   O  -0.1774352   0.1890096   0.1518415 SPIN=   0.00000
   O  -0.5973017   0.2565626   0.3612845 SPIN=   0.00000
   O  -0.1878426   0.6961186   0.2910937 SPIN=   0.00000
   O  -0.6406426   0.2900462   0.0481344 SPIN=   0.00000
   P  -0.3917425   0.3481387   0.2078808 SPIN=   0.00000
  Fe   0.2800356  -0.2674271   0.1989768 SPIN=   4.00000
  Fe  -0.4525373   0.2674271  -0.1989768 SPIN=   4.00000
%ENDBLOCK POSITIONS_FRAC

# Note: total spin =   8.00

KPOINTS_MP_SPACING 0.07

%BLOCK SPECIES_POT
QC5
%ENDBLOCK SPECIES_POT

%BLOCK HUBBARD_U
Fe d:4.0
%ENDBLOCK HUBBARD_U

SNAP_TO_SYMMETRY
SYMMETRY_GENERATE

