#              Generated by Buildcell
#
# at 01:16:50 (GMT+0.0) 24th November 2020
# in /lustre/scratch/uccabz1/launch_tmp
# on node-c12o-036
# by uccabz1
#
# compiler GCC version 4.9.2
# options -cpp -iprefix /lustre/shared/ucl/apps/gcc/4.9.2/bin/../lib/gcc/x86_64-unknown-linux-gnu/4.9.2/ -mtune=corei7 -march=x86-64 -g -Og
#
# seed  2132446431   909421947 -1450617471   -76420861 -1836134980  1997134860  -157778679   975644656  1442232281  1362108919 -1380069448   489878115
#
#      Author: C. J. Pickard (cjp20@cam.ac.uk)
#                Space group: Cc
#

%BLOCK LATTICE_ABC
      3.82359      5.19134      8.95869
     78.29272     77.67826     68.39128
%ENDBLOCK LATTICE_ABC

%BLOCK POSITIONS_FRAC
  Li  -0.0402222   0.3265067  -0.2830462 SPIN=   0.00000
  Li  -0.5032383  -0.1734933   0.2169538 SPIN=   0.00000
   O  -0.3903262   0.0474021  -0.0035349 SPIN=   0.00000
   O  -0.0588794   0.1010399   0.2073946 SPIN=   0.00000
   O  -0.0160105   0.3912135  -0.0464670 SPIN=   0.00000
   O  -0.6391271   0.4909385   0.1305653 SPIN=   0.00000
   P  -0.2864528   0.2492070   0.0686595 SPIN=   0.00000
   O   0.8464589  -0.4525979  -0.5035349 SPIN=   0.00000
   O   0.2504449  -0.3989601  -0.2926054 SPIN=   0.00000
   O   0.1712640  -0.1087865  -0.5464670 SPIN=   0.00000
   O   0.5176232  -0.0090615  -0.3694347 SPIN=   0.00000
   P   0.4685863  -0.2507930  -0.4313405 SPIN=   0.00000
  Fe  -0.3352980   0.2219523   0.4229330 SPIN=   4.00000
  Fe   0.1904127  -0.2780477  -0.0770670 SPIN=   4.00000
%ENDBLOCK POSITIONS_FRAC

# Note: total spin =   8.00

KPOINTS_MP_SPACING 0.07

%BLOCK SPECIES_POT
QC5
%ENDBLOCK SPECIES_POT

%BLOCK HUBBARD_U
Fe d:4.0
%ENDBLOCK HUBBARD_U

SNAP_TO_SYMMETRY
SYMMETRY_GENERATE

