#              Generated by Buildcell
#
# at 00:34:01 (GMT+0.0) 24th November 2020
# in /lustre/scratch/uccabz1/launch_tmp
# on node-c12l-031
# by uccabz1
#
# compiler GCC version 4.9.2
# options -cpp -iprefix /lustre/shared/ucl/apps/gcc/4.9.2/bin/../lib/gcc/x86_64-unknown-linux-gnu/4.9.2/ -mtune=corei7 -march=x86-64 -g -Og
#
# seed -1297976086   140486507  -651526387    -6207240 -1642926009  -712348596  1200459048  1387581062   657072280  1140368806  -488445853  1304080659
#
#      Author: C. J. Pickard (cjp20@cam.ac.uk)
#                Space group: P2
#

%BLOCK LATTICE_ABC
      3.87903      4.52446      9.24048
     99.39447     90.00000     90.00000
%ENDBLOCK LATTICE_ABC

%BLOCK POSITIONS_FRAC
  Li  -0.1214344  -0.0663550  -0.1895965 SPIN=   0.00000
  Li  -0.1214344   0.0663550   0.1895965 SPIN=   0.00000
   O  -0.5635069   0.6697287  -0.3399395 SPIN=   0.00000
   O  -0.1790433   0.4967212  -0.1392452 SPIN=   0.00000
   O  -0.6862732   0.1896800  -0.2279062 SPIN=   0.00000
   O  -0.1760199   0.2002602  -0.3930293 SPIN=   0.00000
   P  -0.4071948   0.4018113  -0.2798787 SPIN=   0.00000
   O  -0.5635069  -0.6697287   0.3399395 SPIN=   0.00000
   O  -0.1790433  -0.4967212   0.1392452 SPIN=   0.00000
   O  -0.6862732  -0.1896800   0.2279062 SPIN=   0.00000
   O  -0.1760199  -0.2002602   0.3930293 SPIN=   0.00000
   P  -0.4071948  -0.4018113   0.2798787 SPIN=   0.00000
  Fe   0.2913175   0.5000000   0.0000000 SPIN=   3.57783
  Fe   0.0844721  -0.5000000   0.5000000 SPIN=   4.42217
%ENDBLOCK POSITIONS_FRAC

# Note: total spin =   8.00

KPOINTS_MP_SPACING 0.07

%BLOCK SPECIES_POT
QC5
%ENDBLOCK SPECIES_POT

%BLOCK HUBBARD_U
Fe d:4.0
%ENDBLOCK HUBBARD_U

SNAP_TO_SYMMETRY
SYMMETRY_GENERATE

