#              Generated by Buildcell
#
# at 01:04:25 (GMT+0.0) 24th November 2020
# in /lustre/scratch/uccabz1/launch_tmp
# on node-c12h-032
# by uccabz1
#
# compiler GCC version 4.9.2
# options -cpp -iprefix /lustre/shared/ucl/apps/gcc/4.9.2/bin/../lib/gcc/x86_64-unknown-linux-gnu/4.9.2/ -mtune=corei7 -march=x86-64 -g -Og
#
# seed  1827570407  1515500399  -737965093 -1143411714  1906315726  -957728922   863093882   840771357 -1332153969  -394911091  -681407889  1560258452
#
#      Author: C. J. Pickard (cjp20@cam.ac.uk)
#                Space group: C2
#

%BLOCK LATTICE_ABC
      5.29322      5.29322      6.29160
     83.58616     83.58616     66.32580
%ENDBLOCK LATTICE_ABC

%BLOCK POSITIONS_FRAC
  Li  -0.4955378   0.4955378   0.0000000 SPIN=   0.00000
  Li   0.4073028  -0.4073028   0.5000000 SPIN=   0.00000
   O  -0.2311614  -0.3168150   0.4967984 SPIN=   0.00000
   O   0.1680383  -0.3071965   0.2197291 SPIN=   0.00000
   O  -0.2562653  -0.2987697   0.0850263 SPIN=   0.00000
   O  -0.2698845   0.1175933   0.2478313 SPIN=   0.00000
   P  -0.1532288  -0.2036845   0.2746584 SPIN=   0.00000
   O   0.3168150   0.2311614  -0.4967984 SPIN=   0.00000
   O   0.3071965  -0.1680383  -0.2197291 SPIN=   0.00000
   O   0.2987697   0.2562653  -0.0850263 SPIN=   0.00000
   O  -0.1175933   0.2698845  -0.2478313 SPIN=   0.00000
   P   0.2036845   0.1532288  -0.2746584 SPIN=   0.00000
  Fe  -0.1993322  -0.0920800  -0.2368424 SPIN=   4.00000
  Fe   0.0920800   0.1993322   0.2368424 SPIN=   4.00000
%ENDBLOCK POSITIONS_FRAC

# Note: total spin =   8.00

KPOINTS_MP_SPACING 0.07

%BLOCK SPECIES_POT
QC5
%ENDBLOCK SPECIES_POT

%BLOCK HUBBARD_U
Fe d:4.0
%ENDBLOCK HUBBARD_U

SNAP_TO_SYMMETRY
SYMMETRY_GENERATE

