#              Generated by Buildcell
#
# at 02:36:20 (GMT+0.0) 24th November 2020
# in /scratch/scratch/uccabz1/launch_tmp
# on node-a14a-024
# by uccabz1
#
# compiler GCC version 4.9.2
# options -cpp -iprefix /scratch/UCL/applications/gcc/4.9.2/bin/../lib/gcc/x86_64-unknown-linux-gnu/4.9.2/ -mtune=corei7 -march=x86-64 -g -O2
#
# seed -1956342648  -544992911   338949867 -1399762851  1519277567 -1852084023 -2072532821  1476911797  -304471991   232080104   712371089  -751234819
#
#      Author: C. J. Pickard (cjp20@cam.ac.uk)
#                Space group: Cm
#

%BLOCK LATTICE_ABC
      5.36971      5.82334      5.82334
     99.73109    106.97877    106.97877
%ENDBLOCK LATTICE_ABC

%BLOCK POSITIONS_FRAC
  Li  -0.2037988  -0.4599868  -0.0681191 SPIN=   0.00000
  Li  -0.2037988  -0.0681191  -0.4599868 SPIN=   0.00000
   O   0.3772782  -0.3354623   0.3636489 SPIN=   0.00000
   O   0.1768955  -0.3878597  -0.1136048 SPIN=   0.00000
   O   0.6866495  -0.1816435   0.1102098 SPIN=   0.00000
   P   0.4229279  -0.3869005   0.1141427 SPIN=   0.00000
   O   0.3772782   0.3636489  -0.3354623 SPIN=   0.00000
   O   0.1768955  -0.1136048  -0.3878597 SPIN=   0.00000
   O   0.6866495   0.1102098  -0.1816435 SPIN=   0.00000
   P   0.4229279   0.1141427  -0.3869005 SPIN=   0.00000
   O   0.0713483   0.2203372   0.2203372 SPIN=   0.00000
   O  -0.3659147   0.3745723   0.3745723 SPIN=   0.00000
  Fe   0.0719156   0.4989758   0.4989758 SPIN=   5.31821
  Fe   0.3190715   0.0714190   0.0714190 SPIN=   2.68179
%ENDBLOCK POSITIONS_FRAC

# Note: total spin =   8.00

KPOINTS_MP_SPACING 0.07

%BLOCK SPECIES_POT
QC5
%ENDBLOCK SPECIES_POT

%BLOCK HUBBARD_U
Fe d:4.0
%ENDBLOCK HUBBARD_U

SNAP_TO_SYMMETRY
SYMMETRY_GENERATE

