#              Generated by Buildcell
#
# at 04:24:36 (GMT+0.0) 24th November 2020
# in /lustre/scratch/uccabz1/launch_tmp
# on node-c12n-026
# by uccabz1
#
# compiler GCC version 4.9.2
# options -cpp -iprefix /lustre/shared/ucl/apps/gcc/4.9.2/bin/../lib/gcc/x86_64-unknown-linux-gnu/4.9.2/ -mtune=corei7 -march=x86-64 -g -Og
#
# seed   954809311   892936085  1114604378 -1549597703 -1919680722  1445773865   647701378  1923423709  -714131954  -998564690 -1695079953  1708987258
#
#      Author: C. J. Pickard (cjp20@cam.ac.uk)
#                Space group: Pc
#

%BLOCK LATTICE_ABC
      4.56413      5.22054      7.25983
     90.00000     90.00000    112.33849
%ENDBLOCK LATTICE_ABC

%BLOCK POSITIONS_FRAC
  Li   0.3677594  -0.0735667   0.1054523 SPIN=   0.00000
  Li   0.3677594   0.4264333  -0.1054523 SPIN=   0.00000
   O  -0.1880615  -0.5701188  -0.1861065 SPIN=   0.00000
   O   0.3354516  -0.3731711  -0.3735175 SPIN=   0.00000
   O  -0.1030232  -0.2299373  -0.4605376 SPIN=   0.00000
   O   0.1905854  -0.0566993  -0.1657712 SPIN=   0.00000
   P   0.0471532  -0.3185063  -0.2890636 SPIN=   0.00000
   O  -0.1880615  -0.0701188   0.1861065 SPIN=   0.00000
   O   0.3354516   0.1268289   0.3735175 SPIN=   0.00000
   O  -0.1030232   0.2700627   0.4605376 SPIN=   0.00000
   O   0.1905854   0.4433007   0.1657712 SPIN=   0.00000
   P   0.0471532   0.1814937   0.2890636 SPIN=   0.00000
  Fe  -0.2985115  -0.4629858   0.3029819 SPIN=   4.00000
  Fe  -0.2985115   0.0370142  -0.3029819 SPIN=   4.00000
%ENDBLOCK POSITIONS_FRAC

# Note: total spin =   8.00

KPOINTS_MP_SPACING 0.07

%BLOCK SPECIES_POT
QC5
%ENDBLOCK SPECIES_POT

%BLOCK HUBBARD_U
Fe d:4.0
%ENDBLOCK HUBBARD_U

SNAP_TO_SYMMETRY
SYMMETRY_GENERATE

