#              Generated by Buildcell
#
# at 21:51:32 (GMT+0.0) 23rd November 2020
# in /scratch/scratch/uccabz1/launch_tmp
# on node-a14e-012
# by uccabz1
#
# compiler GCC version 4.9.2
# options -cpp -iprefix /scratch/UCL/applications/gcc/4.9.2/bin/../lib/gcc/x86_64-unknown-linux-gnu/4.9.2/ -mtune=corei7 -march=x86-64 -g -O2
#
# seed  2065478049  -515768488   195784216 -1522927680 -1120354955 -1284456352  1670123956   366245328  -836634754  -252732461  -546897445  2037485542
#
#      Author: C. J. Pickard (cjp20@cam.ac.uk)
#                Space group: P21
#

%BLOCK LATTICE_ABC
      4.89481      5.61551      6.20954
    110.37663     90.00000     90.00000
%ENDBLOCK LATTICE_ABC

%BLOCK POSITIONS_FRAC
  Li   0.4406175  -0.3588310  -0.0844080 SPIN=   0.00000
  Li  -0.0593825   0.3588310   0.0844080 SPIN=   0.00000
   O   0.1997038  -0.2411862   0.2161859 SPIN=   0.00000
   O   0.0227469   0.2241080   0.3656623 SPIN=   0.00000
   O  -0.0843114  -0.0448850  -0.0338393 SPIN=   0.00000
   O  -0.3122034  -0.1326293   0.2918792 SPIN=   0.00000
   P  -0.0337366  -0.0598909   0.2112695 SPIN=   0.00000
   O   0.6997038   0.2411862  -0.2161859 SPIN=   0.00000
   O   0.5227469  -0.2241080  -0.3656623 SPIN=   0.00000
   O   0.4156886   0.0448850   0.0338393 SPIN=   0.00000
   O   0.1877966   0.1326293  -0.2918792 SPIN=   0.00000
   P   0.4662634   0.0598909  -0.2112695 SPIN=   0.00000
  Fe   0.4612289   0.2098474   0.3916026 SPIN=   4.00000
  Fe  -0.0387711  -0.2098474  -0.3916026 SPIN=   4.00000
%ENDBLOCK POSITIONS_FRAC

# Note: total spin =   8.00

KPOINTS_MP_SPACING 0.07

%BLOCK SPECIES_POT
QC5
%ENDBLOCK SPECIES_POT

%BLOCK HUBBARD_U
Fe d:4.0
%ENDBLOCK HUBBARD_U

SNAP_TO_SYMMETRY
SYMMETRY_GENERATE

