#              Generated by Buildcell
#
# at 00:31:18 (GMT+0.0) 24th November 2020
# in /lustre/scratch/uccabz1/launch_tmp
# on node-c12n-022
# by uccabz1
#
# compiler GCC version 4.9.2
# options -cpp -iprefix /lustre/shared/ucl/apps/gcc/4.9.2/bin/../lib/gcc/x86_64-unknown-linux-gnu/4.9.2/ -mtune=corei7 -march=x86-64 -g -Og
#
# seed  -371758474  1722508115  -433520163  1901097930  1839632140  1712700598 -1758319538 -1045914326   -57626494  -664368346  1220357543 -1099516695
#
#      Author: C. J. Pickard (cjp20@cam.ac.uk)
#                Space group: C2
#

%BLOCK LATTICE_ABC
      4.94181      4.94181      7.09007
     91.48981     91.48981    112.32241
%ENDBLOCK LATTICE_ABC

%BLOCK POSITIONS_FRAC
  Li   0.3305022   0.1363625   0.1188276 SPIN=   0.00000
  Li  -0.1363625  -0.3305022  -0.1188276 SPIN=   0.00000
   O  -0.2270355   0.2923989  -0.3266211 SPIN=   0.00000
   O  -0.7524089  -0.1084173  -0.3320464 SPIN=   0.00000
   O  -0.3395679  -0.2600197  -0.3930451 SPIN=   0.00000
   O  -0.3986272  -0.0871877  -0.0672607 SPIN=   0.00000
   P  -0.4182712  -0.0236123  -0.2797318 SPIN=   0.00000
   O  -0.2923989   0.2270355   0.3266211 SPIN=   0.00000
   O   0.1084173   0.7524089   0.3320464 SPIN=   0.00000
   O   0.2600197   0.3395679   0.3930451 SPIN=   0.00000
   O   0.0871877   0.3986272   0.0672607 SPIN=   0.00000
   P   0.0236123   0.4182712   0.2797318 SPIN=   0.00000
  Fe  -0.3024638  -0.2151477   0.3112231 SPIN=   4.00000
  Fe   0.2151477   0.3024638  -0.3112231 SPIN=   4.00000
%ENDBLOCK POSITIONS_FRAC

# Note: total spin =   8.00

KPOINTS_MP_SPACING 0.07

%BLOCK SPECIES_POT
QC5
%ENDBLOCK SPECIES_POT

%BLOCK HUBBARD_U
Fe d:4.0
%ENDBLOCK HUBBARD_U

SNAP_TO_SYMMETRY
SYMMETRY_GENERATE

