#              Generated by Buildcell
#
# at 03:15:33 (GMT+0.0) 24th November 2020
# in /lustre/scratch/uccabz1/launch_tmp
# on node-c12g-024
# by uccabz1
#
# compiler GCC version 4.9.2
# options -cpp -iprefix /lustre/shared/ucl/apps/gcc/4.9.2/bin/../lib/gcc/x86_64-unknown-linux-gnu/4.9.2/ -mtune=corei7 -march=x86-64 -g -Og
#
# seed  -533872887 -1888147129  1183464351   668888024 -1001689422   -18772282 -1876744613 -1313125490  1075506453   -34758371 -2037592019  2065852913
#
#      Author: C. J. Pickard (cjp20@cam.ac.uk)
#                Space group: Fdd2
#

%BLOCK LATTICE_ABC
      5.81978      5.81978      6.04589
    107.50150    107.50150    112.03489
%ENDBLOCK LATTICE_ABC

%BLOCK POSITIONS_FRAC
  Li   0.2930226  -0.2069774  -0.4139549 SPIN=   0.00000
  Li  -0.4569774  -0.4569774   0.0860451 SPIN=   0.00000
   O  -0.1683928   0.0860051  -0.1207631 SPIN=   0.00000
   O  -0.1013280   0.5129282   0.2501995 SPIN=   0.00000
   O   0.0476297  -0.2067682  -0.1207631 SPIN=   0.00000
   O   0.3515274  -0.2627287   0.2501995 SPIN=   0.00000
   O  -0.1639949   0.0816072  -0.6207631 SPIN=   0.00000
   O   0.2629282   0.1486720  -0.2498005 SPIN=   0.00000
   O  -0.4567682   0.2976297  -0.6207631 SPIN=   0.00000
   O  -0.5127287   0.6015274  -0.2498005 SPIN=   0.00000
   P  -0.1845698  -0.1845698  -0.3691397 SPIN=   0.00000
   P  -0.4345698   0.0654302   0.1308603 SPIN=   0.00000
  Fe   0.1059812   0.1059812   0.2119623 SPIN=   4.00000
  Fe  -0.1440188   0.3559812  -0.2880377 SPIN=   4.00000
%ENDBLOCK POSITIONS_FRAC

# Note: total spin =   8.00

KPOINTS_MP_SPACING 0.07

%BLOCK SPECIES_POT
QC5
%ENDBLOCK SPECIES_POT

%BLOCK HUBBARD_U
Fe d:4.0
%ENDBLOCK HUBBARD_U

SNAP_TO_SYMMETRY
SYMMETRY_GENERATE

