#              Generated by Buildcell
#
# at 05:55:54 (GMT+0.0) 24th November 2020
# in /lustre/scratch/uccabz1/launch_tmp
# on node-c12b-025
# by uccabz1
#
# compiler GCC version 4.9.2
# options -cpp -iprefix /lustre/shared/ucl/apps/gcc/4.9.2/bin/../lib/gcc/x86_64-unknown-linux-gnu/4.9.2/ -mtune=corei7 -march=x86-64 -g -Og
#
# seed  -870448822 -1688564788 -1411956531  1909348774  1448392316 -1348196338  -757796094    48823874  -265381635 -1565875650  1008256232  -891432817
#
#      Author: C. J. Pickard (cjp20@cam.ac.uk)
#                Space group: Pmc21
#

%BLOCK LATTICE_ABC
      5.27722      5.33152      5.68675
     90.00000     90.00000     90.00000
%ENDBLOCK LATTICE_ABC

%BLOCK POSITIONS_FRAC
  Li   0.0000000   0.2220136   0.0552873 SPIN=   0.00000
  Li   0.0000000  -0.2220136  -0.4447127 SPIN=   0.00000
   O   0.2340232   0.4938491  -0.2323366 SPIN=   0.00000
   O   0.2659316   0.0094608  -0.2725007 SPIN=   0.00000
   O  -0.2340232  -0.4938491   0.2676634 SPIN=   0.00000
   O  -0.2659316  -0.0094608   0.2274993 SPIN=   0.00000
   O   0.2340232  -0.4938491   0.2676634 SPIN=   0.00000
   O   0.2659316  -0.0094608   0.2274993 SPIN=   0.00000
   O  -0.2340232   0.4938491  -0.2323366 SPIN=   0.00000
   O  -0.2659316   0.0094608  -0.2725007 SPIN=   0.00000
   P  -0.0000000   0.2778067  -0.4119603 SPIN=   0.00000
   P   0.0000000  -0.2778067   0.0880397 SPIN=   0.00000
  Fe   0.5000000   0.2499254   0.4007565 SPIN=   4.00000
  Fe   0.5000000  -0.2499254  -0.0992435 SPIN=   4.00000
%ENDBLOCK POSITIONS_FRAC

# Note: total spin =   8.00

KPOINTS_MP_SPACING 0.07

%BLOCK SPECIES_POT
QC5
%ENDBLOCK SPECIES_POT

%BLOCK HUBBARD_U
Fe d:4.0
%ENDBLOCK HUBBARD_U

SNAP_TO_SYMMETRY
SYMMETRY_GENERATE

