#              Generated by Buildcell
#
# at 19:14:14 (GMT+0.0) 30th November 2020
# in /lustre/scratch/uccabz1/launch_tmp
# on node-c12e-021
# by uccabz1
#
# compiler GCC version 4.9.2
# options -cpp -iprefix /lustre/shared/ucl/apps/gcc/4.9.2/bin/../lib/gcc/x86_64-unknown-linux-gnu/4.9.2/ -mtune=corei7 -march=x86-64 -g -Og
#
# seed -1383697268  1856016284  -381859715  1778214411   -90360946 -1244346577   885217699   -53857732  -756266533   794047215 -1378744451   713903098
#
#      Author: C. J. Pickard (cjp20@cam.ac.uk)
#                Space group: C2
#

%BLOCK LATTICE_ABC
      4.76577      5.97685      5.97685
     78.14986     77.48901     77.48901
%ENDBLOCK LATTICE_ABC

%BLOCK POSITIONS_FRAC
  Li   0.2119318   0.0201240  -0.4471779 SPIN=   0.00000
  Li  -0.2119318   0.4471779  -0.0201240 SPIN=   0.00000
   O  -0.0226185  -0.2573977  -0.1712940 SPIN=   0.00000
   O  -0.3345239  -0.2251980  -0.4870271 SPIN=   0.00000
   O  -0.5887503  -0.1432797  -0.0981249 SPIN=   0.00000
   O  -0.2896472   0.1371323  -0.3590925 SPIN=   0.00000
   P  -0.2934157  -0.1263249  -0.2741025 SPIN=   0.00000
   O   0.0226185   0.1712940   0.2573977 SPIN=   0.00000
   O   0.3345239   0.4870271   0.2251980 SPIN=   0.00000
   O   0.5887503   0.0981249   0.1432797 SPIN=   0.00000
   O   0.2896472   0.3590925  -0.1371323 SPIN=   0.00000
   P   0.2934157   0.2741025   0.1263249 SPIN=   0.00000
  Fe   0.5000000   0.4740371  -0.4740371 SPIN=   1.31963
  Fe   0.0000000  -0.1175329   0.1175329 SPIN=   6.68037
%ENDBLOCK POSITIONS_FRAC

# Note: total spin =   8.00

KPOINTS_MP_SPACING 0.07

%BLOCK SPECIES_POT
QC5
%ENDBLOCK SPECIES_POT

%BLOCK HUBBARD_U
Fe d:4.0
%ENDBLOCK HUBBARD_U

SNAP_TO_SYMMETRY
SYMMETRY_GENERATE

