#              Generated by Buildcell
#
# at 00:06:03 (GMT+0.0) 24th November 2020
# in /lustre/scratch/uccabz1/launch_tmp
# on node-c12h-032
# by uccabz1
#
# compiler GCC version 4.9.2
# options -cpp -iprefix /lustre/shared/ucl/apps/gcc/4.9.2/bin/../lib/gcc/x86_64-unknown-linux-gnu/4.9.2/ -mtune=corei7 -march=x86-64 -g -Og
#
# seed -1160652199  -633662276   554858517   901109675  -192816109 -1006400537  -583065004   401724548  -463307645  1867661385    31576567  1711343918
#
#      Author: C. J. Pickard (cjp20@cam.ac.uk)
#                Space group: P21
#

%BLOCK LATTICE_ABC
      4.03205      5.71088      7.42461
     90.00000     90.00000    110.62996
%ENDBLOCK LATTICE_ABC

%BLOCK POSITIONS_FRAC
  Li   0.3442142   0.1830567   0.0100514 SPIN=   0.00000
  Li  -0.3442142  -0.1830567  -0.4899486 SPIN=   0.00000
   O   0.5219701   0.4183639   0.2969415 SPIN=   0.00000
   O   0.2691652  -0.0635164   0.3424833 SPIN=   0.00000
   O   0.4041250   0.2072571   0.6120742 SPIN=   0.00000
   O  -0.1111532   0.1880563   0.4167162 SPIN=   0.00000
   P   0.2798781   0.1998365   0.4106544 SPIN=   0.00000
   O  -0.5219701  -0.4183639  -0.2030585 SPIN=   0.00000
   O  -0.2691652   0.0635164  -0.1575167 SPIN=   0.00000
   O  -0.4041250  -0.2072571   0.1120742 SPIN=   0.00000
   O   0.1111532  -0.1880563  -0.0832838 SPIN=   0.00000
   P  -0.2798781  -0.1998365  -0.0893456 SPIN=   0.00000
  Fe  -0.0628356   0.3869594  -0.3156665 SPIN=   4.00000
  Fe   0.0628356  -0.3869594   0.1843335 SPIN=   4.00000
%ENDBLOCK POSITIONS_FRAC

# Note: total spin =   8.00

KPOINTS_MP_SPACING 0.07

%BLOCK SPECIES_POT
QC5
%ENDBLOCK SPECIES_POT

%BLOCK HUBBARD_U
Fe d:4.0
%ENDBLOCK HUBBARD_U

SNAP_TO_SYMMETRY
SYMMETRY_GENERATE

