#              Generated by Buildcell
#
# at 05:26:47 (GMT+0.0) 24th November 2020
# in /lustre/scratch/uccabz1/launch_tmp
# on node-c12a-027
# by uccabz1
#
# compiler GCC version 4.9.2
# options -cpp -iprefix /lustre/shared/ucl/apps/gcc/4.9.2/bin/../lib/gcc/x86_64-unknown-linux-gnu/4.9.2/ -mtune=corei7 -march=x86-64 -g -Og
#
# seed   528232822 -1434538842  -923545936   589611996  -652755510 -1302786901   -79965495   605054123 -1008656041  1717685110  1716527515  1756004704
#
#      Author: C. J. Pickard (cjp20@cam.ac.uk)
#                Space group: P-1
#

%BLOCK LATTICE_ABC
      4.57867      6.10210      6.67759
    109.71741     99.27642    107.63420
%ENDBLOCK LATTICE_ABC

%BLOCK POSITIONS_FRAC
  Li  -0.3321997   0.0146277   0.2918390 SPIN=   0.00000
  Li   0.3321997  -0.0146277  -0.2918390 SPIN=   0.00000
   O  -0.3079417  -0.3623362   0.1915030 SPIN=   0.00000
   O   0.2264060  -0.3396547   0.4177778 SPIN=   0.00000
   O   0.2084767  -0.2869509   0.0657205 SPIN=   0.00000
   O   0.1908167   0.0538636   0.3965746 SPIN=   0.00000
   P   0.0601277  -0.2372207   0.2653451 SPIN=   0.00000
   O   0.3079417   0.3623362  -0.1915030 SPIN=   0.00000
   O  -0.2264060   0.3396547  -0.4177778 SPIN=   0.00000
   O  -0.2084767   0.2869509  -0.0657205 SPIN=   0.00000
   O  -0.1908167  -0.0538636  -0.3965746 SPIN=   0.00000
   P  -0.0601277   0.2372207  -0.2653451 SPIN=   0.00000
  Fe  -0.2799770  -0.3568542  -0.1816628 SPIN=   4.00000
  Fe   0.2799770   0.3568542   0.1816628 SPIN=   4.00000
%ENDBLOCK POSITIONS_FRAC

# Note: total spin =   8.00

KPOINTS_MP_SPACING 0.07

%BLOCK SPECIES_POT
QC5
%ENDBLOCK SPECIES_POT

%BLOCK HUBBARD_U
Fe d:4.0
%ENDBLOCK HUBBARD_U

SNAP_TO_SYMMETRY
SYMMETRY_GENERATE

