#              Generated by Buildcell
#
# at 03:15:25 (GMT+0.0) 24th November 2020
# in /lustre/scratch/uccabz1/launch_tmp
# on node-c12d-032
# by uccabz1
#
# compiler GCC version 4.9.2
# options -cpp -iprefix /lustre/shared/ucl/apps/gcc/4.9.2/bin/../lib/gcc/x86_64-unknown-linux-gnu/4.9.2/ -mtune=corei7 -march=x86-64 -g -Og
#
# seed -1724182807 -1235661802   -47689477  1943240189 -1395383769  1459976480 -2129853999 -1406341996 -1004502481  1516108907   732874682  1766361508
#
#      Author: C. J. Pickard (cjp20@cam.ac.uk)
#                Space group: C2
#

%BLOCK LATTICE_ABC
      4.66966      6.24014      6.24014
     81.72839     69.75463     69.75463
%ENDBLOCK LATTICE_ABC

%BLOCK POSITIONS_FRAC
  Li   0.1364023   0.4521756   0.1416036 SPIN=   0.00000
  Li  -0.1364023  -0.1416036  -0.4521756 SPIN=   0.00000
   O  -0.1776740   0.2545688   0.0433671 SPIN=   0.00000
   O  -0.1497555   0.1992220   0.4571937 SPIN=   0.00000
   O  -0.6560498   0.4493624   0.3935784 SPIN=   0.00000
   P  -0.3607937   0.2311403   0.2985037 SPIN=   0.00000
   O   0.1776740  -0.0433671  -0.2545688 SPIN=   0.00000
   O   0.1497555  -0.4571937  -0.1992220 SPIN=   0.00000
   O   0.6560498  -0.3935784  -0.4493624 SPIN=   0.00000
   P   0.3607937  -0.2985037  -0.2311403 SPIN=   0.00000
   O  -0.5000000   0.1472901  -0.1472901 SPIN=   0.00000
   O   0.0000000  -0.1700852   0.1700852 SPIN=   0.00000
  Fe  -0.5000000  -0.1098907   0.1098907 SPIN=   4.29136
  Fe  -0.0000000   0.3103016  -0.3103016 SPIN=   3.70864
%ENDBLOCK POSITIONS_FRAC

# Note: total spin =   8.00

KPOINTS_MP_SPACING 0.07

%BLOCK SPECIES_POT
QC5
%ENDBLOCK SPECIES_POT

%BLOCK HUBBARD_U
Fe d:4.0
%ENDBLOCK HUBBARD_U

SNAP_TO_SYMMETRY
SYMMETRY_GENERATE

