#              Generated by Buildcell
#
# at 03:44:50 (GMT+0.0) 24th November 2020
# in /lustre/scratch/uccabz1/launch_tmp
# on node-c12i-027
# by uccabz1
#
# compiler GCC version 4.9.2
# options -cpp -iprefix /lustre/shared/ucl/apps/gcc/4.9.2/bin/../lib/gcc/x86_64-unknown-linux-gnu/4.9.2/ -mtune=corei7 -march=x86-64 -g -Og
#
# seed   -32328242   670093229 -1676863464   196809034  1358517035  -278213350  -733276980   736108129   160060626 -1694921049  -346067665  1294413411
#
#      Author: C. J. Pickard (cjp20@cam.ac.uk)
#                Space group: P2
#

%BLOCK LATTICE_ABC
      3.86332      6.30422      7.26323
    115.24705     90.00000     90.00000
%ENDBLOCK LATTICE_ABC

%BLOCK POSITIONS_FRAC
  Li  -0.1461091  -0.2443144  -0.0070683 SPIN=   0.00000
  Li  -0.1461091   0.2443144   0.0070683 SPIN=   0.00000
   O   0.1648656   0.1702406   0.7506256 SPIN=   0.00000
   O   0.1350342   0.5673193   0.7229148 SPIN=   0.00000
   O  -0.1386593   0.2201791   0.4523344 SPIN=   0.00000
   P  -0.0532432   0.3314475   0.6864153 SPIN=   0.00000
   O   0.1648656  -0.1702406  -0.7506256 SPIN=   0.00000
   O   0.1350342  -0.5673193  -0.7229148 SPIN=   0.00000
   O  -0.1386593  -0.2201791  -0.4523344 SPIN=   0.00000
   P  -0.0532432  -0.3314475  -0.6864153 SPIN=   0.00000
   O  -0.4914441  -0.5000000   0.0000000 SPIN=   0.00000
   O   0.2451211   0.0000000  -0.0000000 SPIN=   0.00000
  Fe   0.3628253  -0.1644434  -0.3312112 SPIN=   4.00000
  Fe   0.3628253   0.1644434   0.3312112 SPIN=   4.00000
%ENDBLOCK POSITIONS_FRAC

# Note: total spin =   8.00

KPOINTS_MP_SPACING 0.07

%BLOCK SPECIES_POT
QC5
%ENDBLOCK SPECIES_POT

%BLOCK HUBBARD_U
Fe d:4.0
%ENDBLOCK HUBBARD_U

SNAP_TO_SYMMETRY
SYMMETRY_GENERATE

