#              Generated by Buildcell
#
# at 00:13:11 (GMT+0.0) 24th November 2020
# in /lustre/scratch/uccabz1/launch_tmp
# on node-c12o-027
# by uccabz1
#
# compiler GCC version 4.9.2
# options -cpp -iprefix /lustre/shared/ucl/apps/gcc/4.9.2/bin/../lib/gcc/x86_64-unknown-linux-gnu/4.9.2/ -mtune=corei7 -march=x86-64 -g -Og
#
# seed -1695467867  -883107901 -1193435363 -1138179056  1477655332 -1516663735   158930238  -621894663 -1590911694  -563047724 -1665323458  1501221396
#
#      Author: C. J. Pickard (cjp20@cam.ac.uk)
#                Space group: P-1
#

%BLOCK LATTICE_ABC
      4.14005      5.29344      7.34003
     84.08151     89.99235     89.98780
%ENDBLOCK LATTICE_ABC

%BLOCK POSITIONS_FRAC
  Li  -0.5000000   0.0000000   0.0000000 SPIN=   0.00000
  Li  -0.5000000   0.0000000  -0.5000000 SPIN=   0.00000
   O   0.8245946   0.3414702   0.0862145 SPIN=   0.00000
   O   0.4993210   0.6772011   0.2447007 SPIN=   0.00000
   O   0.3047277   0.2337757   0.2768255 SPIN=   0.00000
   O   0.8109500   0.3438417   0.4378459 SPIN=   0.00000
   O  -0.8245946  -0.3414702  -0.0862145 SPIN=   0.00000
   O  -0.4993210  -0.6772011  -0.2447007 SPIN=   0.00000
   O  -0.3047277  -0.2337757  -0.2768255 SPIN=   0.00000
   O  -0.8109500  -0.3438417  -0.4378459 SPIN=   0.00000
   P   0.5000000   0.5000000   0.5000000 SPIN=   0.00000
   P   0.5000000  -0.5000000   0.0000000 SPIN=   0.00000
  Fe  -0.0003130  -0.3774067   0.2419886 SPIN=   4.00000
  Fe   0.0003130   0.3774067  -0.2419886 SPIN=   4.00000
%ENDBLOCK POSITIONS_FRAC

# Note: total spin =   8.00

KPOINTS_MP_SPACING 0.07

%BLOCK SPECIES_POT
QC5
%ENDBLOCK SPECIES_POT

%BLOCK HUBBARD_U
Fe d:4.0
%ENDBLOCK HUBBARD_U

SNAP_TO_SYMMETRY
SYMMETRY_GENERATE

