#              Generated by Buildcell
#
# at 22:18:44 (GMT+0.0) 23rd November 2020
# in /scratch/scratch/uccabz1/launch_tmp
# on node-a14a-004
# by uccabz1
#
# compiler GCC version 4.9.2
# options -cpp -iprefix /scratch/UCL/applications/gcc/4.9.2/bin/../lib/gcc/x86_64-unknown-linux-gnu/4.9.2/ -mtune=corei7 -march=x86-64 -g -O2
#
# seed   377588915 -1710465153  -850956145  -161802192  -677932527  -819067608  1492433751 -1051690264   632452059   878461894   532685464  1768200814
#
#      Author: C. J. Pickard (cjp20@cam.ac.uk)
#                Space group: P21
#

%BLOCK LATTICE_ABC
      4.34322      5.32312      6.92296
     91.50278     90.00000     90.00000
%ENDBLOCK LATTICE_ABC

%BLOCK POSITIONS_FRAC
  Li  -0.2654915  -0.2585903  -0.0250856 SPIN=   0.00000
  Li   0.2345085   0.2585903   0.0250856 SPIN=   0.00000
   O  -0.0754742  -0.1310068  -0.3370242 SPIN=   0.00000
   O   0.4417317   0.0184422  -0.1844895 SPIN=   0.00000
   O   0.1992672  -0.3652664  -0.0612022 SPIN=   0.00000
   O   0.4331063  -0.3740243  -0.3919760 SPIN=   0.00000
   P   0.2345110  -0.2105007  -0.2503936 SPIN=   0.00000
   O  -0.5754742   0.1310068   0.3370242 SPIN=   0.00000
   O  -0.0582683  -0.0184422   0.1844895 SPIN=   0.00000
   O  -0.3007328   0.3652664   0.0612022 SPIN=   0.00000
   O  -0.0668937   0.3740243   0.3919760 SPIN=   0.00000
   P  -0.2654890   0.2105007   0.2503936 SPIN=   0.00000
  Fe   0.2345192  -0.2580275   0.3357312 SPIN=   4.00000
  Fe  -0.2654808   0.2580275  -0.3357312 SPIN=   4.00000
%ENDBLOCK POSITIONS_FRAC

# Note: total spin =   8.00

KPOINTS_MP_SPACING 0.07

%BLOCK SPECIES_POT
QC5
%ENDBLOCK SPECIES_POT

%BLOCK HUBBARD_U
Fe d:4.0
%ENDBLOCK HUBBARD_U

SNAP_TO_SYMMETRY
SYMMETRY_GENERATE

