#              Generated by Buildcell
#
# at 04:20:33 (GMT+0.0) 24th November 2020
# in /scratch/scratch/uccabz1/launch_tmp
# on node-a14a-024
# by uccabz1
#
# compiler GCC version 4.9.2
# options -cpp -iprefix /scratch/UCL/applications/gcc/4.9.2/bin/../lib/gcc/x86_64-unknown-linux-gnu/4.9.2/ -mtune=corei7 -march=x86-64 -g -O2
#
# seed -1755253953 -1233361620  1237607339  1392117561 -1513960760  -582979387  1623102730  -513048010 -1771520880  -650177051  2086659539 -1659758323
#
#      Author: C. J. Pickard (cjp20@cam.ac.uk)
#                Space group: Pm
#

%BLOCK LATTICE_ABC
      4.26281      5.10173      7.90117
     90.00000     90.00000    111.38652
%ENDBLOCK LATTICE_ABC

%BLOCK POSITIONS_FRAC
  Li  -0.1743637   0.0101174  -0.5000000 SPIN=   0.00000
  Li  -0.0093137   0.1003140   0.0000000 SPIN=   0.00000
   O   0.1284415   0.2046193   0.2909670 SPIN=   0.00000
   O   0.5662028   0.0208975   0.1574140 SPIN=   0.00000
   O   0.6905463   0.5331644   0.1565394 SPIN=   0.00000
   P   0.5039082   0.2593216   0.2624354 SPIN=   0.00000
   O   0.1284415   0.2046193  -0.2909670 SPIN=   0.00000
   O   0.5662028   0.0208975  -0.1574140 SPIN=   0.00000
   O   0.6905463   0.5331644  -0.1565394 SPIN=   0.00000
   P   0.5039082   0.2593216  -0.2624354 SPIN=   0.00000
   O   0.1974837  -0.4517928  -0.0000000 SPIN=   0.00000
   O   0.3903249  -0.3951476   0.5000000 SPIN=   0.00000
  Fe   0.1805523  -0.3388894  -0.2536393 SPIN=   4.00000
  Fe   0.1805523  -0.3388894   0.2536393 SPIN=   4.00000
%ENDBLOCK POSITIONS_FRAC

# Note: total spin =   8.00

KPOINTS_MP_SPACING 0.07

%BLOCK SPECIES_POT
QC5
%ENDBLOCK SPECIES_POT

%BLOCK HUBBARD_U
Fe d:4.0
%ENDBLOCK HUBBARD_U

SNAP_TO_SYMMETRY
SYMMETRY_GENERATE

