#              Generated by Buildcell
#
# at 05:11:37 (GMT+0.0) 24th November 2020
# in /lustre/scratch/uccabz1/launch_tmp
# on node-c12a-035
# by uccabz1
#
# compiler GCC version 4.9.2
# options -cpp -iprefix /lustre/shared/ucl/apps/gcc/4.9.2/bin/../lib/gcc/x86_64-unknown-linux-gnu/4.9.2/ -mtune=corei7 -march=x86-64 -g -Og
#
# seed  -788832991 -2078737502 -1660935730  1789811683   548075114 -1679895740 -1394992686   691828484   174806046 -1037863692 -1351925484  1816240077
#
#      Author: C. J. Pickard (cjp20@cam.ac.uk)
#                Space group: P-1
#

%BLOCK LATTICE_ABC
      4.61752      5.75437      6.17197
     77.41132     89.37001     88.57335
%ENDBLOCK LATTICE_ABC

%BLOCK POSITIONS_FRAC
  Li   0.4066533  -0.4403026  -0.2493963 SPIN=   0.00000
  Li  -0.4066533   0.4403026   0.2493963 SPIN=   0.00000
   O  -0.0427167   0.5957199  -0.3128053 SPIN=   0.00000
   O  -0.3079942   0.2204100  -0.3687534 SPIN=   0.00000
   O   0.1934247   0.1713132  -0.2279058 SPIN=   0.00000
   O  -0.2076080   0.2667488   0.0173390 SPIN=   0.00000
   P  -0.0900143   0.3280199  -0.2249748 SPIN=   0.00000
   O   0.0427167  -0.5957199   0.3128053 SPIN=   0.00000
   O   0.3079942  -0.2204100   0.3687534 SPIN=   0.00000
   O  -0.1934247  -0.1713132   0.2279058 SPIN=   0.00000
   O   0.2076080  -0.2667488  -0.0173390 SPIN=   0.00000
   P   0.0900143  -0.3280199   0.2249748 SPIN=   0.00000
  Fe   0.5000000   0.0000000   0.0000000 SPIN=   1.44581
  Fe  -1.0000000   0.0000000   0.5000000 SPIN=   6.55419
%ENDBLOCK POSITIONS_FRAC

# Note: total spin =   8.00

KPOINTS_MP_SPACING 0.07

%BLOCK SPECIES_POT
QC5
%ENDBLOCK SPECIES_POT

%BLOCK HUBBARD_U
Fe d:4.0
%ENDBLOCK HUBBARD_U

SNAP_TO_SYMMETRY
SYMMETRY_GENERATE

