#              Generated by Buildcell
#
# at 23:24:16 (GMT+0.0) 23rd November 2020
# in /lustre/scratch/uccabz1/launch_tmp
# on node-c12a-034
# by uccabz1
#
# compiler GCC version 4.9.2
# options -cpp -iprefix /lustre/shared/ucl/apps/gcc/4.9.2/bin/../lib/gcc/x86_64-unknown-linux-gnu/4.9.2/ -mtune=corei7 -march=x86-64 -g -Og
#
# seed  1474163158 -1119767822  -732265927  -523294240   423331498   835464460 -1549992240   170411948  1239680108   648013290  1308327874   856549973
#
#      Author: C. J. Pickard (cjp20@cam.ac.uk)
#                Space group: P-1
#

%BLOCK LATTICE_ABC
      4.36725      6.06328      7.16378
     65.16887     88.00070     69.62405
%ENDBLOCK LATTICE_ABC

%BLOCK POSITIONS_FRAC
  Li   0.7614896   0.1639750   0.2664580 SPIN=   0.00000
  Li  -0.7614896  -0.1639750  -0.2664580 SPIN=   0.00000
   O  -0.1104937   0.1971227  -0.4689491 SPIN=   0.00000
   O  -0.2808990  -0.1163211  -0.1432113 SPIN=   0.00000
   O  -0.5708040   0.3593757  -0.2657323 SPIN=   0.00000
   P  -0.3951919   0.1480661  -0.3466462 SPIN=   0.00000
   O   0.1104937  -0.1971227   0.4689491 SPIN=   0.00000
   O   0.2808990   0.1163211   0.1432113 SPIN=   0.00000
   O   0.5708040  -0.3593757   0.2657323 SPIN=   0.00000
   P   0.3951919  -0.1480661   0.3466462 SPIN=   0.00000
   O  -0.5000000  -0.5000000   0.0000000 SPIN=   0.00000
   O  -0.5000000  -0.0000000  -0.5000000 SPIN=   0.00000
  Fe   0.0458636  -0.3771950   0.2053507 SPIN=   4.00000
  Fe  -0.0458636   0.3771950  -0.2053507 SPIN=   4.00000
%ENDBLOCK POSITIONS_FRAC

# Note: total spin =   8.00

KPOINTS_MP_SPACING 0.07

%BLOCK SPECIES_POT
QC5
%ENDBLOCK SPECIES_POT

%BLOCK HUBBARD_U
Fe d:4.0
%ENDBLOCK HUBBARD_U

SNAP_TO_SYMMETRY
SYMMETRY_GENERATE

