#              Generated by Buildcell
#
# at 23:10:32 (GMT+0.0) 23rd November 2020
# in /lustre/scratch/uccabz1/launch_tmp
# on node-c12m-036
# by uccabz1
#
# compiler GCC version 4.9.2
# options -cpp -iprefix /lustre/shared/ucl/apps/gcc/4.9.2/bin/../lib/gcc/x86_64-unknown-linux-gnu/4.9.2/ -mtune=corei7 -march=x86-64 -g -Og
#
# seed -1719666960 -1140995127   231690778  1122314015  1445022388  1010531556  1795246487 -2090611016  -212537058 -1780806832   997723184 -1580386947
#
#      Author: C. J. Pickard (cjp20@cam.ac.uk)
#                Space group: Cmc21
#

%BLOCK LATTICE_ABC
      4.01784      4.01784      9.92898
     90.00000     90.00000     93.40854
%ENDBLOCK LATTICE_ABC

%BLOCK POSITIONS_FRAC
  Li   0.1525180   0.1525180   0.2313167 SPIN=   0.00000
  Li  -0.1525180  -0.1525180  -0.2686833 SPIN=   0.00000
   O   0.7646793   0.3373471  -0.3926498 SPIN=   0.00000
   O   0.8524079   0.4300759  -0.1358252 SPIN=   0.00000
   O  -0.7646793  -0.3373471   0.1073502 SPIN=   0.00000
   O  -0.8524079  -0.4300759   0.3641748 SPIN=   0.00000
   O   0.6626529   0.2353207   0.1073502 SPIN=   0.00000
   O   0.5699241   0.1475921   0.3641748 SPIN=   0.00000
   O  -0.6626529  -0.2353207  -0.3926498 SPIN=   0.00000
   O  -0.5699241  -0.1475921  -0.1358252 SPIN=   0.00000
   P  -0.2989063  -0.2989063   0.1282286 SPIN=   0.00000
   P   0.2989063   0.2989063  -0.3717714 SPIN=   0.00000
  Fe   0.3474828   0.3474828  -0.0839806 SPIN=   4.00000
  Fe  -0.3474828  -0.3474828   0.4160194 SPIN=   4.00000
%ENDBLOCK POSITIONS_FRAC

# Note: total spin =   8.00

KPOINTS_MP_SPACING 0.07

%BLOCK SPECIES_POT
QC5
%ENDBLOCK SPECIES_POT

%BLOCK HUBBARD_U
Fe d:4.0
%ENDBLOCK HUBBARD_U

SNAP_TO_SYMMETRY
SYMMETRY_GENERATE

