#              Generated by Buildcell
#
# at 05:07:09 (GMT+0.0) 24th November 2020
# in /lustre/scratch/uccabz1/launch_tmp
# on node-c12c-023
# by uccabz1
#
# compiler GCC version 4.9.2
# options -cpp -iprefix /lustre/shared/ucl/apps/gcc/4.9.2/bin/../lib/gcc/x86_64-unknown-linux-gnu/4.9.2/ -mtune=corei7 -march=x86-64 -g -Og
#
# seed -1790849621  1877114050  -401421866 -1448336652  -553526091  1268129268  -720771560  1126883768 -1829214906  1946374194 -1651636716  -995224075
#
#      Author: C. J. Pickard (cjp20@cam.ac.uk)
#                Space group: P-1
#

%BLOCK LATTICE_ABC
      4.76630      5.72144      6.23323
     81.68446     72.16756     85.42994
%ENDBLOCK LATTICE_ABC

%BLOCK POSITIONS_FRAC
  Li  -0.0835013   0.2605117   0.4552595 SPIN=   0.00000
  Li   0.0835013  -0.2605117  -0.4552595 SPIN=   0.00000
   O  -0.8324792  -0.2530975  -0.1197273 SPIN=   0.00000
   O  -0.4241615  -0.2107504  -0.5091464 SPIN=   0.00000
   O  -0.3163023  -0.0922387  -0.1777958 SPIN=   0.00000
   O  -0.3591238  -0.5211486  -0.1990782 SPIN=   0.00000
   P  -0.5001618  -0.2714176  -0.2438062 SPIN=   0.00000
   O   0.8324792   0.2530975   0.1197273 SPIN=   0.00000
   O   0.4241615   0.2107504   0.5091464 SPIN=   0.00000
   O   0.3163023   0.0922387   0.1777958 SPIN=   0.00000
   O   0.3591238   0.5211486   0.1990782 SPIN=   0.00000
   P   0.5001618   0.2714176   0.2438062 SPIN=   0.00000
  Fe  -0.2782398  -0.2531967   0.1374930 SPIN=   4.00000
  Fe   0.2782398   0.2531967  -0.1374930 SPIN=   4.00000
%ENDBLOCK POSITIONS_FRAC

# Note: total spin =   8.00

KPOINTS_MP_SPACING 0.07

%BLOCK SPECIES_POT
QC5
%ENDBLOCK SPECIES_POT

%BLOCK HUBBARD_U
Fe d:4.0
%ENDBLOCK HUBBARD_U

SNAP_TO_SYMMETRY
SYMMETRY_GENERATE

