#              Generated by Buildcell
#
# at 23:36:59 (GMT+0.0) 23rd November 2020
# in /scratch/scratch/uccabz1/launch_tmp
# on node-a14f-010
# by uccabz1
#
# compiler GCC version 4.9.2
# options -cpp -iprefix /scratch/UCL/applications/gcc/4.9.2/bin/../lib/gcc/x86_64-unknown-linux-gnu/4.9.2/ -mtune=corei7 -march=x86-64 -g -O2
#
# seed   733866762  -586546462  -225393939 -1072301095  1994343140  2108933093  -704541457 -1128231079 -1546177254  -841650280  -475144816  1709840554
#
#      Author: C. J. Pickard (cjp20@cam.ac.uk)
#                Space group: Pma2
#

%BLOCK LATTICE_ABC
      3.87853      4.56167      9.04336
     90.00000     90.00000     90.00000
%ENDBLOCK LATTICE_ABC

%BLOCK POSITIONS_FRAC
  Li   0.4935381   0.0004859  -0.2500000 SPIN=   0.00000
  Li   0.4935381  -0.0004859   0.2500000 SPIN=   0.00000
   O   0.0461947  -0.1657496  -0.3868412 SPIN=   0.00000
   O  -0.2605515  -0.6720673  -0.3873422 SPIN=   0.00000
   O   0.0461947   0.1657496   0.3868412 SPIN=   0.00000
   O  -0.2605515   0.6720673   0.3873422 SPIN=   0.00000
   O   0.0461947   0.1657496   0.1131588 SPIN=   0.00000
   O  -0.2605515   0.6720673   0.1126578 SPIN=   0.00000
   O   0.0461947  -0.1657496  -0.1131588 SPIN=   0.00000
   O  -0.2605515  -0.6720673  -0.1126578 SPIN=   0.00000
   P  -0.1433337   0.4992127   0.2500000 SPIN=   0.00000
   P  -0.1433337  -0.4992127  -0.2500000 SPIN=   0.00000
  Fe   0.3086418   0.5000000  -0.0000000 SPIN=   4.00000
  Fe   0.3086418  -0.5000000  -0.5000000 SPIN=   4.00000
%ENDBLOCK POSITIONS_FRAC

# Note: total spin =   8.00

KPOINTS_MP_SPACING 0.07

%BLOCK SPECIES_POT
QC5
%ENDBLOCK SPECIES_POT

%BLOCK HUBBARD_U
Fe d:4.0
%ENDBLOCK HUBBARD_U

SNAP_TO_SYMMETRY
SYMMETRY_GENERATE

