#              Generated by Buildcell
#
# at 00:24:53 (GMT+0.0) 24th November 2020
# in /lustre/scratch/uccabz1/launch_tmp
# on node-c12g-024
# by uccabz1
#
# compiler GCC version 4.9.2
# options -cpp -iprefix /lustre/shared/ucl/apps/gcc/4.9.2/bin/../lib/gcc/x86_64-unknown-linux-gnu/4.9.2/ -mtune=corei7 -march=x86-64 -g -Og
#
# seed -1423632714   457542223   263528227 -2033476989  1430279039  1960945294  -850857852  -504393903  -217514937  -934435602 -1295918680 -1392029490
#
#      Author: C. J. Pickard (cjp20@cam.ac.uk)
#                Space group: P21
#

%BLOCK LATTICE_ABC
      5.01546      5.53740      6.18695
     90.00000     90.00000    111.38309
%ENDBLOCK LATTICE_ABC

%BLOCK POSITIONS_FRAC
  Li   0.0351908  -0.4450059  -0.4807846 SPIN=   0.00000
  Li  -0.0351908   0.4450059   0.0192154 SPIN=   0.00000
   O  -0.6460894  -0.3513832   0.2777229 SPIN=   0.00000
   O  -0.2358050  -0.0084496   0.4920861 SPIN=   0.00000
   O  -0.1113165  -0.2970541   0.2401615 SPIN=   0.00000
   O  -0.2735886   0.0478387   0.0930288 SPIN=   0.00000
   P  -0.3337295  -0.1605029   0.2736986 SPIN=   0.00000
   O   0.6460894   0.3513832  -0.2222771 SPIN=   0.00000
   O   0.2358050   0.0084496  -0.0079139 SPIN=   0.00000
   O   0.1113165   0.2970541  -0.2598385 SPIN=   0.00000
   O   0.2735886  -0.0478387  -0.4069712 SPIN=   0.00000
   P   0.3337295   0.1605029  -0.2263014 SPIN=   0.00000
  Fe  -0.3302425  -0.1647648  -0.1955277 SPIN=   4.00000
  Fe   0.3302425   0.1647648   0.3044723 SPIN=   4.00000
%ENDBLOCK POSITIONS_FRAC

# Note: total spin =   8.00

KPOINTS_MP_SPACING 0.07

%BLOCK SPECIES_POT
QC5
%ENDBLOCK SPECIES_POT

%BLOCK HUBBARD_U
Fe d:4.0
%ENDBLOCK HUBBARD_U

SNAP_TO_SYMMETRY
SYMMETRY_GENERATE

