#              Generated by Buildcell
#
# at 01:05:08 (GMT+0.0) 24th November 2020
# in /lustre/scratch/uccabz1/launch_tmp
# on node-c12l-030
# by uccabz1
#
# compiler GCC version 4.9.2
# options -cpp -iprefix /lustre/shared/ucl/apps/gcc/4.9.2/bin/../lib/gcc/x86_64-unknown-linux-gnu/4.9.2/ -mtune=corei7 -march=x86-64 -g -Og
#
# seed  -273445845   209532955  1257924910  -402925865 -1973315563  -859677391  -660703249   226707586  1900695449  1144209479  1353742479 -1652551571
#
#      Author: C. J. Pickard (cjp20@cam.ac.uk)
#                Space group: Cc
#

%BLOCK LATTICE_ABC
      5.38644      5.38644      5.73147
     94.59281     94.59281    103.97467
%ENDBLOCK LATTICE_ABC

%BLOCK POSITIONS_FRAC
  Li   0.4598801   0.3419008  -0.2804988 SPIN=   0.00000
  Li   0.3419008   0.4598801   0.2195012 SPIN=   0.00000
   O  -0.0352609  -0.4919199   0.3157677 SPIN=   0.00000
   O   0.0003782  -0.5332641  -0.1343499 SPIN=   0.00000
   O  -0.3664986  -0.3870918   0.0083062 SPIN=   0.00000
   O   0.0767283  -0.0951054   0.0832029 SPIN=   0.00000
   P  -0.0768559  -0.3796476   0.0815885 SPIN=   0.00000
   O  -0.4919199  -0.0352609  -0.1842323 SPIN=   0.00000
   O  -0.5332641   0.0003782  -0.6343499 SPIN=   0.00000
   O  -0.3870918  -0.3664986  -0.4916938 SPIN=   0.00000
   O  -0.0951054   0.0767283  -0.4167971 SPIN=   0.00000
   P  -0.3796476  -0.0768559  -0.4184115 SPIN=   0.00000
  Fe  -0.2508049   0.0826248   0.1315763 SPIN=   4.00000
  Fe   0.0826248  -0.2508049  -0.3684237 SPIN=   4.00000
%ENDBLOCK POSITIONS_FRAC

# Note: total spin =   8.00

KPOINTS_MP_SPACING 0.07

%BLOCK SPECIES_POT
QC5
%ENDBLOCK SPECIES_POT

%BLOCK HUBBARD_U
Fe d:4.0
%ENDBLOCK HUBBARD_U

SNAP_TO_SYMMETRY
SYMMETRY_GENERATE

