#              Generated by Buildcell
#
# at 03:17:27 (GMT+0.0) 24th November 2020
# in /lustre/scratch/uccabz1/launch_tmp
# on node-c12n-028
# by uccabz1
#
# compiler GCC version 4.9.2
# options -cpp -iprefix /lustre/shared/ucl/apps/gcc/4.9.2/bin/../lib/gcc/x86_64-unknown-linux-gnu/4.9.2/ -mtune=corei7 -march=x86-64 -g -Og
#
# seed -1137645260 -1075033233  -999038194 -1010111294  1043515767   204031230  2097222523 -1289804162  -438642128  1476540077  1452402286  2134579072
#
#      Author: C. J. Pickard (cjp20@cam.ac.uk)
#                Space group: P-1
#

%BLOCK LATTICE_ABC
      4.18912      6.31856      6.54557
    106.19542    105.11291     90.51995
%ENDBLOCK LATTICE_ABC

%BLOCK POSITIONS_FRAC
  Li   0.0377606   0.3247026  -0.2877861 SPIN=   0.00000
  Li  -0.0377606  -0.3247026   0.2877861 SPIN=   0.00000
   O  -0.4537589   0.1960453  -0.2248547 SPIN=   0.00000
   O  -0.2204670   0.0684914   0.1258217 SPIN=   0.00000
   O   0.1271701   0.3394593   0.0501863 SPIN=   0.00000
   P  -0.2457475   0.2635708   0.0182328 SPIN=   0.00000
   O   0.4537589  -0.1960453   0.2248547 SPIN=   0.00000
   O   0.2204670  -0.0684914  -0.1258217 SPIN=   0.00000
   O  -0.1271701  -0.3394593  -0.0501863 SPIN=   0.00000
   P   0.2457475  -0.2635708  -0.0182328 SPIN=   0.00000
   O  -0.5000000  -0.5000000  -0.5000000 SPIN=   0.00000
   O   0.0000000   0.0000000  -0.5000000 SPIN=   0.00000
  Fe   0.3634520   0.1719337   0.2893836 SPIN=   4.00000
  Fe  -0.3634520  -0.1719337  -0.2893836 SPIN=   4.00000
%ENDBLOCK POSITIONS_FRAC

# Note: total spin =   8.00

KPOINTS_MP_SPACING 0.07

%BLOCK SPECIES_POT
QC5
%ENDBLOCK SPECIES_POT

%BLOCK HUBBARD_U
Fe d:4.0
%ENDBLOCK HUBBARD_U

SNAP_TO_SYMMETRY
SYMMETRY_GENERATE

