#              Generated by Buildcell
#
# at 00:21:40 (GMT+0.0) 24th November 2020
# in /lustre/scratch/uccabz1/launch_tmp
# on node-c12e-025
# by uccabz1
#
# compiler GCC version 4.9.2
# options -cpp -iprefix /lustre/shared/ucl/apps/gcc/4.9.2/bin/../lib/gcc/x86_64-unknown-linux-gnu/4.9.2/ -mtune=corei7 -march=x86-64 -g -Og
#
# seed   775870663  2056595474  -935300590   566236496   785266787  1646207409   258945771   -42008136  -347401816  1284512771  1410060969    86424022
#
#      Author: C. J. Pickard (cjp20@cam.ac.uk)
#                Space group: P-1
#

%BLOCK LATTICE_ABC
      4.45293      6.06844      6.30850
     96.87882    103.64404    101.24941
%ENDBLOCK LATTICE_ABC

%BLOCK POSITIONS_FRAC
  Li   0.3131366  -0.3285107  -0.4508233 SPIN=   0.00000
  Li  -0.3131366   0.3285107   0.4508233 SPIN=   0.00000
   O  -0.1569200  -0.3147281  -0.4619152 SPIN=   0.00000
   O   0.1699803  -0.1118065  -0.0649033 SPIN=   0.00000
   O  -0.4000213  -0.2859898  -0.1263481 SPIN=   0.00000
   P  -0.1034143  -0.3152482  -0.2121047 SPIN=   0.00000
   O   0.1569200   0.3147281   0.4619152 SPIN=   0.00000
   O  -0.1699803   0.1118065   0.0649033 SPIN=   0.00000
   O   0.4000213   0.2859898   0.1263481 SPIN=   0.00000
   P   0.1034143   0.3152482   0.2121047 SPIN=   0.00000
   O   0.5000000   0.0000000   0.5000000 SPIN=   0.00000
   O   0.0000000  -0.5000000  -0.0000000 SPIN=   0.00000
  Fe   0.2589999   0.1738054  -0.2141582 SPIN=   4.00000
  Fe  -0.2589999  -0.1738054   0.2141582 SPIN=   4.00000
%ENDBLOCK POSITIONS_FRAC

# Note: total spin =   8.00

KPOINTS_MP_SPACING 0.07

%BLOCK SPECIES_POT
QC5
%ENDBLOCK SPECIES_POT

%BLOCK HUBBARD_U
Fe d:4.0
%ENDBLOCK HUBBARD_U

SNAP_TO_SYMMETRY
SYMMETRY_GENERATE

