#              Generated by Buildcell
#
# at 02:55:37 (GMT+0.0) 24th November 2020
# in /lustre/scratch/uccabz1/launch_tmp
# on node-c12i-035
# by uccabz1
#
# compiler GCC version 4.9.2
# options -cpp -iprefix /lustre/shared/ucl/apps/gcc/4.9.2/bin/../lib/gcc/x86_64-unknown-linux-gnu/4.9.2/ -mtune=corei7 -march=x86-64 -g -Og
#
# seed -1508306167  1306997507  1408103368  -221743029  1359187210  -878214437  2080954556  -231612454  1315383048  -134901628   971196737   617001973
#
#      Author: C. J. Pickard (cjp20@cam.ac.uk)
#                Space group: P2
#

%BLOCK LATTICE_ABC
      3.88130      6.04894      6.81497
     90.08760     90.00000     90.00000
%ENDBLOCK LATTICE_ABC

%BLOCK POSITIONS_FRAC
  Li  -0.4588561  -0.0000000   0.5000000 SPIN=   0.00000
  Li  -0.4616402  -0.5000000   0.5000000 SPIN=   0.00000
   O  -0.2292280   0.2465362  -0.0838172 SPIN=   0.00000
   O  -0.0876321   0.2535791  -0.4563578 SPIN=   0.00000
   O   0.2967719   0.4552487  -0.2293947 SPIN=   0.00000
   O   0.2958725   0.0412329  -0.2290230 SPIN=   0.00000
   P   0.0557477   0.2465564  -0.2405751 SPIN=   0.00000
   O  -0.2292280  -0.2465362   0.0838172 SPIN=   0.00000
   O  -0.0876321  -0.2535791   0.4563578 SPIN=   0.00000
   O   0.2967719  -0.4552487   0.2293947 SPIN=   0.00000
   O   0.2958725  -0.0412329   0.2290230 SPIN=   0.00000
   P   0.0557477  -0.2465564   0.2405751 SPIN=   0.00000
  Fe   0.0337088  -0.2512123  -0.1803767 SPIN=   4.00000
  Fe   0.0337088   0.2512123   0.1803767 SPIN=   4.00000
%ENDBLOCK POSITIONS_FRAC

# Note: total spin =   8.00

KPOINTS_MP_SPACING 0.07

%BLOCK SPECIES_POT
QC5
%ENDBLOCK SPECIES_POT

%BLOCK HUBBARD_U
Fe d:4.0
%ENDBLOCK HUBBARD_U

SNAP_TO_SYMMETRY
SYMMETRY_GENERATE

