#              Generated by Buildcell
#
# at 23:06:33 (GMT+0.0) 23rd November 2020
# in /lustre/scratch/uccabz1/launch_tmp
# on node-c12a-033
# by uccabz1
#
# compiler GCC version 4.9.2
# options -cpp -iprefix /lustre/shared/ucl/apps/gcc/4.9.2/bin/../lib/gcc/x86_64-unknown-linux-gnu/4.9.2/ -mtune=corei7 -march=x86-64 -g -Og
#
# seed  1920680444   870374967 -1228491894  1452212589    54043098  -210382888  1783118325 -1452669371   580209251 -1050819255 -1410828249 -1204932045
#
#      Author: C. J. Pickard (cjp20@cam.ac.uk)
#                Space group: P-1
#

%BLOCK LATTICE_ABC
      4.50498      4.93060      7.94023
     91.52919     99.51641    112.43196
%ENDBLOCK LATTICE_ABC

%BLOCK POSITIONS_FRAC
  Li   0.2673527  -0.3951660  -0.2314528 SPIN=   0.00000
  Li  -0.2673527   0.3951660   0.2314528 SPIN=   0.00000
   O  -0.3899173   0.0011684  -0.3467149 SPIN=   0.00000
   O  -0.3075740   0.5461871  -0.2781227 SPIN=   0.00000
   O  -0.8053480   0.1523692  -0.2184565 SPIN=   0.00000
   P  -0.4362296   0.2227251  -0.2243853 SPIN=   0.00000
   O   0.3899173  -0.0011684   0.3467149 SPIN=   0.00000
   O   0.3075740  -0.5461871   0.2781227 SPIN=   0.00000
   O   0.8053480  -0.1523692   0.2184565 SPIN=   0.00000
   P   0.4362296  -0.2227251   0.2243853 SPIN=   0.00000
   O   0.0000000   0.5000000   0.5000000 SPIN=   0.00000
   O   0.0000000  -0.5000000  -0.0000000 SPIN=   0.00000
  Fe   0.0000000  -0.0000000   0.0000000 SPIN=   3.57833
  Fe  -1.0000000  -1.0000000  -0.5000000 SPIN=   4.42167
%ENDBLOCK POSITIONS_FRAC

# Note: total spin =   8.00

KPOINTS_MP_SPACING 0.07

%BLOCK SPECIES_POT
QC5
%ENDBLOCK SPECIES_POT

%BLOCK HUBBARD_U
Fe d:4.0
%ENDBLOCK HUBBARD_U

SNAP_TO_SYMMETRY
SYMMETRY_GENERATE

