#              Generated by Buildcell
#
# at 04:16:27 (GMT+0.0) 24th November 2020
# in /scratch/scratch/uccabz1/launch_tmp
# on node-k10e-028
# by uccabz1
#
# compiler GCC version 4.9.2
# options -cpp -iprefix /scratch/UCL/applications/gcc/4.9.2/bin/../lib/gcc/x86_64-unknown-linux-gnu/4.9.2/ -mtune=corei7 -march=x86-64 -g -O2
#
# seed  -871663445  1371412663  1681148864 -1347110069    93155354   883053415   -81635213 -2040231016  -577512523   699851253  -492503602  -856494059
#
#      Author: C. J. Pickard (cjp20@cam.ac.uk)
#                Space group: Cm
#

%BLOCK LATTICE_ABC
      4.96655      6.23149      6.39817
    115.52887    108.53290     98.29713
%ENDBLOCK LATTICE_ABC

%BLOCK POSITIONS_FRAC
  Li  -0.2396327   0.1207630   0.0000000 SPIN=   0.00000
  Li  -0.1497559  -0.3861786  -0.0000000 SPIN=   0.00000
   O  -0.5453844  -0.7963628  -0.7573696 SPIN=   0.00000
   O  -0.6849860  -0.4117600  -0.7616943 SPIN=   0.00000
   O  -0.3455268  -0.3541405  -0.3498370 SPIN=   0.00000
   O  -0.1599334  -0.4170132  -0.6861524 SPIN=   0.00000
   P  -0.4366568  -0.5099567  -0.6456378 SPIN=   0.00000
   O   0.2119853  -0.0389931   0.7573696 SPIN=   0.00000
   O   0.0767083   0.3499342   0.7616943 SPIN=   0.00000
   O   0.0043103  -0.0043034   0.3498370 SPIN=   0.00000
   O   0.5262190   0.2691392   0.6861524 SPIN=   0.00000
   P   0.2089810   0.1356812   0.6456378 SPIN=   0.00000
  Fe  -0.4334532  -0.0405269   0.3751536 SPIN=   4.00000
  Fe  -0.8086067  -0.4156805  -0.3751536 SPIN=   4.00000
%ENDBLOCK POSITIONS_FRAC

# Note: total spin =   8.00

KPOINTS_MP_SPACING 0.07

%BLOCK SPECIES_POT
QC5
%ENDBLOCK SPECIES_POT

%BLOCK HUBBARD_U
Fe d:4.0
%ENDBLOCK HUBBARD_U

SNAP_TO_SYMMETRY
SYMMETRY_GENERATE

