#              Generated by Buildcell
#
# at 03:30:00 (GMT+0.0) 24th November 2020
# in /scratch/scratch/uccabz1/launch_tmp
# on node-a14a-017
# by uccabz1
#
# compiler GCC version 4.9.2
# options -cpp -iprefix /scratch/UCL/applications/gcc/4.9.2/bin/../lib/gcc/x86_64-unknown-linux-gnu/4.9.2/ -mtune=corei7 -march=x86-64 -g -O2
#
# seed -1300493934    35857312  2061679563   549613268 -1104302431 -1611999612   333811861   267973277  1927819679  1775179679  -671461530   229486598
#
#      Author: C. J. Pickard (cjp20@cam.ac.uk)
#                Space group: P21/c
#

%BLOCK LATTICE_ABC
      5.35127      5.53231      5.67679
    107.81765     90.00000     90.00000
%ENDBLOCK LATTICE_ABC

%BLOCK POSITIONS_FRAC
  Li  -0.0000000  -0.5000000  -0.0000000 SPIN=   0.00000
  Li  -0.5000000   0.0000000  -0.0000000 SPIN=   0.00000
   O  -0.3199184  -0.3799537  -0.1520938 SPIN=   0.00000
   O   0.0964984  -0.2904754  -0.3455900 SPIN=   0.00000
   O   0.1800816  -0.1200463   0.1520938 SPIN=   0.00000
   O   0.5964984  -0.2095246   0.3455900 SPIN=   0.00000
   O   0.3199184   0.3799537   0.1520938 SPIN=   0.00000
   O  -0.0964984   0.2904754   0.3455900 SPIN=   0.00000
   O  -0.1800816   0.1200463  -0.1520938 SPIN=   0.00000
   O  -0.5964984   0.2095246  -0.3455900 SPIN=   0.00000
   P  -0.0000000   0.0000000   0.0000000 SPIN=   0.00000
   P  -0.5000000  -0.5000000  -0.0000000 SPIN=   0.00000
  Fe  -0.0000000   0.0000000   0.5000000 SPIN=   4.00000
  Fe   0.5000000  -0.5000000  -0.5000000 SPIN=   4.00000
%ENDBLOCK POSITIONS_FRAC

# Note: total spin =   8.00

KPOINTS_MP_SPACING 0.07

%BLOCK SPECIES_POT
QC5
%ENDBLOCK SPECIES_POT

%BLOCK HUBBARD_U
Fe d:4.0
%ENDBLOCK HUBBARD_U

SNAP_TO_SYMMETRY
SYMMETRY_GENERATE

