#              Generated by Buildcell
#
# at 05:49:21 (GMT+0.0) 24th November 2020
# in /scratch/scratch/uccabz1/launch_tmp
# on node-k10e-034
# by uccabz1
#
# compiler GCC version 4.9.2
# options -cpp -iprefix /scratch/UCL/applications/gcc/4.9.2/bin/../lib/gcc/x86_64-unknown-linux-gnu/4.9.2/ -mtune=corei7 -march=x86-64 -g -O2
#
# seed   116103806   925443576  1882634909   357201169    86645529  -154981292  1205063636  -956675695    -3961057  2017453448  -859932448   129370757
#
#      Author: C. J. Pickard (cjp20@cam.ac.uk)
#                Space group: C2221
#

%BLOCK LATTICE_ABC
      5.01525      5.01525      6.50463
     90.00000     90.00000    102.05712
%ENDBLOCK LATTICE_ABC

%BLOCK POSITIONS_FRAC
  Li   0.2552773  -0.2552773  -0.0000000 SPIN=   0.00000
  Li  -0.2552773   0.2552773   0.5000000 SPIN=   0.00000
   O   0.2769811   0.2562678  -0.5607005 SPIN=   0.00000
   O   0.4172081  -0.0266462  -0.2600185 SPIN=   0.00000
   O  -0.2769811  -0.2562678  -0.0607005 SPIN=   0.00000
   O  -0.4172081   0.0266462   0.2399815 SPIN=   0.00000
   O   0.2562678   0.2769811   0.0607005 SPIN=   0.00000
   O  -0.0266462   0.4172081  -0.2399815 SPIN=   0.00000
   O  -0.2562678  -0.2769811   0.5607005 SPIN=   0.00000
   O   0.0266462  -0.4172081   0.2600185 SPIN=   0.00000
   P   0.1879200   0.1879200  -0.2500000 SPIN=   0.00000
   P  -0.1879200  -0.1879200   0.2500000 SPIN=   0.00000
  Fe  -0.3254031   0.3254031  -0.0000000 SPIN=   4.00000
  Fe   0.3254031  -0.3254031   0.5000000 SPIN=   4.00000
%ENDBLOCK POSITIONS_FRAC

# Note: total spin =   8.00

KPOINTS_MP_SPACING 0.07

%BLOCK SPECIES_POT
QC5
%ENDBLOCK SPECIES_POT

%BLOCK HUBBARD_U
Fe d:4.0
%ENDBLOCK HUBBARD_U

SNAP_TO_SYMMETRY
SYMMETRY_GENERATE

