#              Generated by Buildcell
#
# at 22:50:02 (GMT+0.0) 23rd November 2020
# in /lustre/scratch/uccabz1/launch_tmp
# on node-c12n-028
# by uccabz1
#
# compiler GCC version 4.9.2
# options -cpp -iprefix /lustre/shared/ucl/apps/gcc/4.9.2/bin/../lib/gcc/x86_64-unknown-linux-gnu/4.9.2/ -mtune=corei7 -march=x86-64 -g -Og
#
# seed  1671596806   162651699  1255660451  -938766831  1121465524   635058565  1692595885 -1446284642  -743029762  -806709264  1769836375   933827866
#
#      Author: C. J. Pickard (cjp20@cam.ac.uk)
#                Space group: P21/c
#

%BLOCK LATTICE_ABC
      5.27939      5.61892      5.61973
     90.00000     90.00000    106.30692
%ENDBLOCK LATTICE_ABC

%BLOCK POSITIONS_FRAC
  Li   0.0000000   0.0000000  -0.0000000 SPIN=   0.00000
  Li   0.0000000   0.5000000   0.5000000 SPIN=   0.00000
   O   0.0041984  -0.1547626   0.3438806 SPIN=   0.00000
   O   0.3992461  -0.3437371   0.3135441 SPIN=   0.00000
   O  -0.0041984  -0.3452374  -0.1561194 SPIN=   0.00000
   O  -0.3992461  -0.1562629  -0.1864559 SPIN=   0.00000
   O  -0.0041984   0.1547626  -0.3438806 SPIN=   0.00000
   O  -0.3992461   0.3437371  -0.3135441 SPIN=   0.00000
   O   0.0041984   0.3452374   0.1561194 SPIN=   0.00000
   O   0.3992461   0.1562629   0.1864559 SPIN=   0.00000
   P   0.5000000   0.5000000  -0.5000000 SPIN=   0.00000
   P  -0.5000000   0.0000000   0.0000000 SPIN=   0.00000
  Fe  -0.5000000  -0.5000000  -0.0000000 SPIN=   4.00000
  Fe  -0.5000000   0.0000000  -0.5000000 SPIN=   4.00000
%ENDBLOCK POSITIONS_FRAC

# Note: total spin =   8.00

KPOINTS_MP_SPACING 0.07

%BLOCK SPECIES_POT
QC5
%ENDBLOCK SPECIES_POT

%BLOCK HUBBARD_U
Fe d:4.0
%ENDBLOCK HUBBARD_U

SNAP_TO_SYMMETRY
SYMMETRY_GENERATE

