#              Generated by Buildcell
#
# at 05:49:15 (GMT+0.0) 24th November 2020
# in /lustre/scratch/uccabz1/launch_tmp
# on node-c12l-025
# by uccabz1
#
# compiler GCC version 4.9.2
# options -cpp -iprefix /lustre/shared/ucl/apps/gcc/4.9.2/bin/../lib/gcc/x86_64-unknown-linux-gnu/4.9.2/ -mtune=corei7 -march=x86-64 -g -Og
#
# seed  -866882410 -1064238730  1847348698  -382010340 -1109032563 -1842884023 -1501283811  -851498767 -1589951724   117433435   593931019   850402335
#
#      Author: C. J. Pickard (cjp20@cam.ac.uk)
#                Space group: P-1
#

%BLOCK LATTICE_ABC
      4.05558      6.43951      6.92454
    116.73939     90.35401     96.81222
%ENDBLOCK LATTICE_ABC

%BLOCK POSITIONS_FRAC
  Li   0.1245188   0.1104815  -0.2171539 SPIN=   0.00000
  Li  -0.1245188  -0.1104815   0.2171539 SPIN=   0.00000
   O   0.3819740   0.8607599   0.3142764 SPIN=   0.00000
   O  -0.1319448   0.7694701   0.4992427 SPIN=   0.00000
   O   0.1872951   0.4468126   0.2826386 SPIN=   0.00000
   P   0.2303425   0.7199500   0.4296738 SPIN=   0.00000
   O  -0.3819740  -0.8607599  -0.3142764 SPIN=   0.00000
   O   0.1319448  -0.7694701  -0.4992427 SPIN=   0.00000
   O  -0.1872951  -0.4468126  -0.2826386 SPIN=   0.00000
   P  -0.2303425  -0.7199500  -0.4296738 SPIN=   0.00000
   O  -0.5000000  -0.0000000   0.0000000 SPIN=   0.00000
   O   0.5000000  -0.5000000   0.0000000 SPIN=   0.00000
  Fe  -0.3280369   0.3691990   0.2052106 SPIN=   4.00000
  Fe   0.3280369  -0.3691990  -0.2052106 SPIN=   4.00000
%ENDBLOCK POSITIONS_FRAC

# Note: total spin =   8.00

KPOINTS_MP_SPACING 0.07

%BLOCK SPECIES_POT
QC5
%ENDBLOCK SPECIES_POT

%BLOCK HUBBARD_U
Fe d:4.0
%ENDBLOCK HUBBARD_U

SNAP_TO_SYMMETRY
SYMMETRY_GENERATE

