#              Generated by Buildcell
#
# at 03:30:59 (GMT+0.0) 24th November 2020
# in /lustre/scratch/uccabz1/launch_tmp
# on node-c12f-031
# by uccabz1
#
# compiler GCC version 4.9.2
# options -cpp -iprefix /lustre/shared/ucl/apps/gcc/4.9.2/bin/../lib/gcc/x86_64-unknown-linux-gnu/4.9.2/ -mtune=corei7 -march=x86-64 -g -Og
#
# seed    59459764  -182381525   573153724  1722508115  1010725829  -350775202  -646762004  -149133646  1752698375   619119397  -426859306   465271556
#
#      Author: C. J. Pickard (cjp20@cam.ac.uk)
#                Space group: P2
#

%BLOCK LATTICE_ABC
      4.16973      5.25217      7.30629
     90.59390     90.00000     90.00000
%ENDBLOCK LATTICE_ABC

%BLOCK POSITIONS_FRAC
  Li  -0.1988992   0.4929051   0.2335627 SPIN=   0.00000
  Li  -0.1988992  -0.4929051  -0.2335627 SPIN=   0.00000
   O  -0.6340850  -0.1241678  -0.2367649 SPIN=   0.00000
   O  -0.1125856   0.0976329  -0.3466863 SPIN=   0.00000
   O  -0.6161371   0.3453228  -0.3448480 SPIN=   0.00000
   O  -0.3569484   0.2309943  -0.0476127 SPIN=   0.00000
   O  -0.6340850   0.1241678   0.2367649 SPIN=   0.00000
   O  -0.1125856  -0.0976329   0.3466863 SPIN=   0.00000
   O  -0.6161371  -0.3453228   0.3448480 SPIN=   0.00000
   O  -0.3569484  -0.2309943   0.0476127 SPIN=   0.00000
   P   0.3095819   0.5000000   0.0000000 SPIN=   0.00000
   P   0.2336406   0.5000000  -0.5000000 SPIN=   0.00000
  Fe   0.0595035   0.0000000   0.0000000 SPIN=   2.07877
  Fe   0.4827641   0.0000000  -0.5000000 SPIN=   5.92123
%ENDBLOCK POSITIONS_FRAC

# Note: total spin =   8.00

KPOINTS_MP_SPACING 0.07

%BLOCK SPECIES_POT
QC5
%ENDBLOCK SPECIES_POT

%BLOCK HUBBARD_U
Fe d:4.0
%ENDBLOCK HUBBARD_U

SNAP_TO_SYMMETRY
SYMMETRY_GENERATE

