#              Generated by Buildcell
#
# at 02:30:07 (GMT+0.0) 24th November 2020
# in /lustre/scratch/uccabz1/launch_tmp
# on node-c12c-022
# by uccabz1
#
# compiler GCC version 4.9.2
# options -cpp -iprefix /lustre/shared/ucl/apps/gcc/4.9.2/bin/../lib/gcc/x86_64-unknown-linux-gnu/4.9.2/ -mtune=corei7 -march=x86-64 -g -Og
#
# seed   108727175  -311981824  -644667018  1433643715 -2031749488  1352770449  1369324527   624743618  1111021920 -1724361442 -1254289716 -1424252711
#
#      Author: C. J. Pickard (cjp20@cam.ac.uk)
#                Space group: P21
#

%BLOCK LATTICE_ABC
      4.82179      5.59167      6.25379
    108.39270     90.00000     90.00000
%ENDBLOCK LATTICE_ABC

%BLOCK POSITIONS_FRAC
  Li   0.1152258   0.2509964  -0.4296708 SPIN=   0.00000
  Li  -0.3847742  -0.2509964   0.4296708 SPIN=   0.00000
   O  -0.6840938  -0.2591407  -0.2184173 SPIN=   0.00000
   O  -0.3366169  -0.3096848   0.0819251 SPIN=   0.00000
   O  -0.2817934  -0.5848672  -0.3114513 SPIN=   0.00000
   O  -0.1706848  -0.1251593  -0.2116834 SPIN=   0.00000
   P  -0.3827798  -0.3141918  -0.1683079 SPIN=   0.00000
   O  -0.1840938   0.2591407   0.2184173 SPIN=   0.00000
   O   0.1633831   0.3096848  -0.0819251 SPIN=   0.00000
   O   0.2182066   0.5848672   0.3114513 SPIN=   0.00000
   O   0.3293152   0.1251593   0.2116834 SPIN=   0.00000
   P   0.1172202   0.3141918   0.1683079 SPIN=   0.00000
  Fe  -0.3846194   0.2161385  -0.0891611 SPIN=   4.00000
  Fe   0.1153806  -0.2161385   0.0891611 SPIN=   4.00000
%ENDBLOCK POSITIONS_FRAC

# Note: total spin =   8.00

KPOINTS_MP_SPACING 0.07

%BLOCK SPECIES_POT
QC5
%ENDBLOCK SPECIES_POT

%BLOCK HUBBARD_U
Fe d:4.0
%ENDBLOCK HUBBARD_U

SNAP_TO_SYMMETRY
SYMMETRY_GENERATE

