#              Generated by Buildcell
#
# at 04:40:11 (GMT+0.0) 24th November 2020
# in /lustre/scratch/uccabz1/launch_tmp
# on node-c12e-031
# by uccabz1
#
# compiler GCC version 4.9.2
# options -cpp -iprefix /lustre/shared/ucl/apps/gcc/4.9.2/bin/../lib/gcc/x86_64-unknown-linux-gnu/4.9.2/ -mtune=corei7 -march=x86-64 -g -Og
#
# seed  -730525587   815433530 -1588635166   898404698  -206074059  -369368143  1833951581 -1311101308 -1168748317  1169269239   687384734 -1452773154
#
#      Author: C. J. Pickard (cjp20@cam.ac.uk)
#                Space group: Pba2
#

%BLOCK LATTICE_ABC
      5.27481      5.49889      5.51617
     90.00000     90.00000     90.00000
%ENDBLOCK LATTICE_ABC

%BLOCK POSITIONS_FRAC
  Li  -0.4929296  -0.0000000  -0.5000000 SPIN=   0.00000
  Li  -0.4929296   0.5000000  -0.0000000 SPIN=   0.00000
   O  -0.5282123   0.3430262  -0.3424326 SPIN=   0.00000
   O  -0.1334908   0.0721839  -0.2620144 SPIN=   0.00000
   O  -0.5282123  -0.3430262   0.3424326 SPIN=   0.00000
   O  -0.1334908  -0.0721839   0.2620144 SPIN=   0.00000
   O  -0.5282123  -0.1569738  -0.1575674 SPIN=   0.00000
   O  -0.1334908  -0.4278161  -0.2379856 SPIN=   0.00000
   O  -0.5282123   0.1569738   0.1575674 SPIN=   0.00000
   O  -0.1334908   0.4278161   0.2379856 SPIN=   0.00000
   P   0.0060579  -0.0000000  -0.5000000 SPIN=   0.00000
   P   0.0060579   0.5000000   0.0000000 SPIN=   0.00000
  Fe   0.1496624  -0.0000000   0.0000000 SPIN=   4.00000
  Fe   0.1496624   0.5000000  -0.5000000 SPIN=   4.00000
%ENDBLOCK POSITIONS_FRAC

# Note: total spin =   8.00

KPOINTS_MP_SPACING 0.07

%BLOCK SPECIES_POT
QC5
%ENDBLOCK SPECIES_POT

%BLOCK HUBBARD_U
Fe d:4.0
%ENDBLOCK HUBBARD_U

SNAP_TO_SYMMETRY
SYMMETRY_GENERATE

