#              Generated by Buildcell
#
# at 23:30:21 (GMT+0.0) 23rd November 2020
# in /lustre/scratch/uccabz1/launch_tmp
# on node-c12e-032
# by uccabz1
#
# compiler GCC version 4.9.2
# options -cpp -iprefix /lustre/shared/ucl/apps/gcc/4.9.2/bin/../lib/gcc/x86_64-unknown-linux-gnu/4.9.2/ -mtune=corei7 -march=x86-64 -g -Og
#
# seed -1787625988  -606792242 -1482712806  1695966362  1893546425  1638745130  1601312154  1936023174   203283318  1023112359  -390824737  -134447627
#
#      Author: C. J. Pickard (cjp20@cam.ac.uk)
#                Space group: Pc
#

%BLOCK LATTICE_ABC
      4.63447      5.08135      6.79455
     90.54732     90.00000     90.00000
%ENDBLOCK LATTICE_ABC

%BLOCK POSITIONS_FRAC
  Li  -0.0550886   0.4069463  -0.4889525 SPIN=   0.00000
  Li   0.0550886  -0.0930537   0.0110475 SPIN=   0.00000
   O   0.1143091  -0.1905123   0.6353893 SPIN=   0.00000
   O   0.1494672  -0.3079363   0.2631679 SPIN=   0.00000
   O  -0.2551717  -0.0282973   0.3758137 SPIN=   0.00000
   O   0.2463766   0.1551163   0.3740594 SPIN=   0.00000
   P   0.0685929  -0.0951775   0.4235472 SPIN=   0.00000
   O  -0.1143091   0.3094877   0.1353893 SPIN=   0.00000
   O  -0.1494672   0.1920637  -0.2368321 SPIN=   0.00000
   O   0.2551717   0.4717027  -0.1241863 SPIN=   0.00000
   O  -0.2463766   0.6551163  -0.1259406 SPIN=   0.00000
   P  -0.0685929   0.4048225  -0.0764528 SPIN=   0.00000
  Fe  -0.4419688  -0.0947179  -0.3304823 SPIN=   4.00000
  Fe   0.4419688   0.4052821   0.1695177 SPIN=   4.00000
%ENDBLOCK POSITIONS_FRAC

# Note: total spin =   8.00

KPOINTS_MP_SPACING 0.07

%BLOCK SPECIES_POT
QC5
%ENDBLOCK SPECIES_POT

%BLOCK HUBBARD_U
Fe d:4.0
%ENDBLOCK HUBBARD_U

SNAP_TO_SYMMETRY
SYMMETRY_GENERATE

