#              Generated by Buildcell
#
# at 23:10:06 (GMT+0.0) 23rd November 2020
# in /lustre/scratch/uccabz1/launch_tmp
# on node-c12l-027
# by uccabz1
#
# compiler GCC version 4.9.2
# options -cpp -iprefix /lustre/shared/ucl/apps/gcc/4.9.2/bin/../lib/gcc/x86_64-unknown-linux-gnu/4.9.2/ -mtune=corei7 -march=x86-64 -g -Og
#
# seed  1582124215  1552613787 -1926682668   864426205  1494156062  1662540358  1924557812 -1827218055  -539276047   690880045  -968941390  1498293824
#
#      Author: C. J. Pickard (cjp20@cam.ac.uk)
#                Space group: P21/m
#

%BLOCK LATTICE_ABC
      4.43673      6.04611      6.41020
     90.00000     90.00000    111.48930
%ENDBLOCK LATTICE_ABC

%BLOCK POSITIONS_FRAC
  Li   0.1232780   0.3988237   0.2500000 SPIN=   0.00000
  Li  -0.1232780  -0.3988237  -0.2500000 SPIN=   0.00000
   O   0.1384835  -0.2944655   0.4415518 SPIN=   0.00000
   O   0.2968511   0.1639859   0.4404326 SPIN=   0.00000
   O  -0.1384835   0.2944655  -0.0584482 SPIN=   0.00000
   O  -0.2968511  -0.1639859  -0.0595674 SPIN=   0.00000
   O  -0.1384835   0.2944655  -0.4415518 SPIN=   0.00000
   O  -0.2968511  -0.1639859  -0.4404326 SPIN=   0.00000
   O   0.1384835  -0.2944655   0.0584482 SPIN=   0.00000
   O   0.2968511   0.1639859   0.0595674 SPIN=   0.00000
   P  -0.4936893  -0.1403449  -0.2500000 SPIN=   0.00000
   P   0.4936893   0.1403449   0.2500000 SPIN=   0.00000
  Fe   0.1660317   0.1813732  -0.2500000 SPIN=   4.00000
  Fe  -0.1660317  -0.1813732   0.2500000 SPIN=   4.00000
%ENDBLOCK POSITIONS_FRAC

# Note: total spin =   8.00

KPOINTS_MP_SPACING 0.07

%BLOCK SPECIES_POT
QC5
%ENDBLOCK SPECIES_POT

%BLOCK HUBBARD_U
Fe d:4.0
%ENDBLOCK HUBBARD_U

SNAP_TO_SYMMETRY
SYMMETRY_GENERATE

