#              Generated by Buildcell
#
# at 21:50:35 (GMT+0.0) 23rd November 2020
# in /lustre/scratch/uccabz1/launch_tmp
# on node-c12m-036
# by uccabz1
#
# compiler GCC version 4.9.2
# options -cpp -iprefix /lustre/shared/ucl/apps/gcc/4.9.2/bin/../lib/gcc/x86_64-unknown-linux-gnu/4.9.2/ -mtune=corei7 -march=x86-64 -g -Og
#
# seed  -790359087   951539657 -1331193448 -1846929722  -485122464   427825119  -838825457  1364156468 -1583884761   869957900 -1691280552  1286946634
#
#      Author: C. J. Pickard (cjp20@cam.ac.uk)
#                Space group: C2
#

%BLOCK LATTICE_ABC
      5.13815      5.13815      6.07304
     92.22672     92.22672     91.82939
%ENDBLOCK LATTICE_ABC

%BLOCK POSITIONS_FRAC
  Li   0.4959553  -0.4959553   0.0000000 SPIN=   0.00000
  Li  -0.2205173   0.2205173   0.5000000 SPIN=   0.00000
   O   0.1448889  -0.0728507  -0.2791045 SPIN=   0.00000
   O   0.5920415   0.1702185  -0.2009023 SPIN=   0.00000
   O   0.3733836   0.2064831  -0.5673468 SPIN=   0.00000
   O   0.1887773   0.4289565  -0.2369311 SPIN=   0.00000
   P   0.3135900   0.1724685  -0.3178437 SPIN=   0.00000
   O   0.0728507  -0.1448889   0.2791045 SPIN=   0.00000
   O  -0.1702185  -0.5920415   0.2009023 SPIN=   0.00000
   O  -0.2064831  -0.3733836   0.5673468 SPIN=   0.00000
   O  -0.4289565  -0.1887773   0.2369311 SPIN=   0.00000
   P  -0.1724685  -0.3135900   0.3178437 SPIN=   0.00000
  Fe  -0.0565847   0.0565847   0.0000000 SPIN=   4.37639
  Fe   0.3335930  -0.3335930  -0.5000000 SPIN=   3.62361
%ENDBLOCK POSITIONS_FRAC

# Note: total spin =   8.00

KPOINTS_MP_SPACING 0.07

%BLOCK SPECIES_POT
QC5
%ENDBLOCK SPECIES_POT

%BLOCK HUBBARD_U
Fe d:4.0
%ENDBLOCK HUBBARD_U

SNAP_TO_SYMMETRY
SYMMETRY_GENERATE

