#              Generated by Buildcell
#
# at 23:54:26 (GMT+0.0) 23rd November 2020
# in /lustre/scratch/uccabz1/launch_tmp
# on node-c12n-022
# by uccabz1
#
# compiler GCC version 4.9.2
# options -cpp -iprefix /lustre/shared/ucl/apps/gcc/4.9.2/bin/../lib/gcc/x86_64-unknown-linux-gnu/4.9.2/ -mtune=corei7 -march=x86-64 -g -Og
#
# seed -1363672144   -68510586  1100465849  1881989587  1263213685  1821336700   816014132  -667028176   -50981069  1939517380  1888649507   646941589
#
#      Author: C. J. Pickard (cjp20@cam.ac.uk)
#                Space group: P-1
#

%BLOCK LATTICE_ABC
      4.03641      5.84870      7.26136
     93.02472     97.84157    108.70386
%ENDBLOCK LATTICE_ABC

%BLOCK POSITIONS_FRAC
  Li  -0.0000000  -0.0000000  -0.0000000 SPIN=   0.00000
  Li   0.0000000  -0.0000000   0.5000000 SPIN=   0.00000
   O   0.2079305  -0.2878267   0.0166175 SPIN=   0.00000
   O   0.4441102   0.0451170   0.2986251 SPIN=   0.00000
   O   0.2601024  -0.3845577   0.3623759 SPIN=   0.00000
   O   0.8131567  -0.2093198   0.2252661 SPIN=   0.00000
   P   0.4239363  -0.2133381   0.2145820 SPIN=   0.00000
   O  -0.2079305   0.2878267  -0.0166175 SPIN=   0.00000
   O  -0.4441102  -0.0451170  -0.2986251 SPIN=   0.00000
   O  -0.2601024   0.3845577  -0.3623759 SPIN=   0.00000
   O  -0.8131567   0.2093198  -0.2252661 SPIN=   0.00000
   P  -0.4239363   0.2133381  -0.2145820 SPIN=   0.00000
  Fe   0.7183593   0.4017795   0.2493310 SPIN=   4.00000
  Fe  -0.7183593  -0.4017795  -0.2493310 SPIN=   4.00000
%ENDBLOCK POSITIONS_FRAC

# Note: total spin =   8.00

KPOINTS_MP_SPACING 0.07

%BLOCK SPECIES_POT
QC5
%ENDBLOCK SPECIES_POT

%BLOCK HUBBARD_U
Fe d:4.0
%ENDBLOCK HUBBARD_U

SNAP_TO_SYMMETRY
SYMMETRY_GENERATE

