#              Generated by Buildcell
#
# at 03:05:54 (GMT+0.0) 24th November 2020
# in /scratch/scratch/uccabz1/launch_tmp
# on node-a14a-004
# by uccabz1
#
# compiler GCC version 4.9.2
# options -cpp -iprefix /scratch/UCL/applications/gcc/4.9.2/bin/../lib/gcc/x86_64-unknown-linux-gnu/4.9.2/ -mtune=corei7 -march=x86-64 -g -O2
#
# seed  -586393679 -1188092211 -1100006087  1901357353  -940918578   962812313 -1331106134  -384296258   582334395   800802862  1840936307  1791015395
#
#      Author: C. J. Pickard (cjp20@cam.ac.uk)
#                Space group: C2
#

%BLOCK LATTICE_ABC
      4.25790      4.25790      9.27816
     96.54324     96.54324    104.50885
%ENDBLOCK LATTICE_ABC

%BLOCK POSITIONS_FRAC
  Li   0.3800283  -0.4159820   0.2569524 SPIN=   0.00000
  Li  -0.5840180  -0.3800283  -0.2569524 SPIN=   0.00000
   O  -0.2232342   0.2280928   0.2693731 SPIN=   0.00000
   O   0.2153190   0.0676503   0.1249488 SPIN=   0.00000
   O   0.2132157  -0.0423343   0.3805836 SPIN=   0.00000
   P  -0.0226485  -0.0208882   0.2408384 SPIN=   0.00000
   O  -0.2280928   0.2232342  -0.2693731 SPIN=   0.00000
   O  -0.0676503  -0.2153190  -0.1249488 SPIN=   0.00000
   O   0.0423343  -0.2132157  -0.3805836 SPIN=   0.00000
   P   0.0208882   0.0226485  -0.2408384 SPIN=   0.00000
   O   0.4427893  -0.4427893   0.5000000 SPIN=   0.00000
   O   0.3995396  -0.3995396   0.0000000 SPIN=   0.00000
  Fe  -0.2386968   0.2386968  -0.5000000 SPIN=   3.90251
  Fe  -0.2638925   0.2638925   0.0000000 SPIN=   4.09749
%ENDBLOCK POSITIONS_FRAC

# Note: total spin =   8.00

KPOINTS_MP_SPACING 0.07

%BLOCK SPECIES_POT
QC5
%ENDBLOCK SPECIES_POT

%BLOCK HUBBARD_U
Fe d:4.0
%ENDBLOCK HUBBARD_U

SNAP_TO_SYMMETRY
SYMMETRY_GENERATE

