#              Generated by Buildcell
#
# at 01:13:56 (GMT+0.0) 24th November 2020
# in /scratch/scratch/uccabz1/launch_tmp
# on node-a14c-005
# by uccabz1
#
# compiler GCC version 4.9.2
# options -cpp -iprefix /scratch/UCL/applications/gcc/4.9.2/bin/../lib/gcc/x86_64-unknown-linux-gnu/4.9.2/ -mtune=corei7 -march=x86-64 -g -O2
#
# seed   839066373  -853516230  1659945430  -933569612 -1810053795   903105337  1923218923   212496957   419257123  -164969576 -1183776247  -120679505
#
#      Author: C. J. Pickard (cjp20@cam.ac.uk)
#                Space group: P2
#

%BLOCK LATTICE_ABC
      4.06143      4.96743      8.28202
    106.74917     90.00000     90.00000
%ENDBLOCK LATTICE_ABC

%BLOCK POSITIONS_FRAC
  Li   0.2773049   0.5000000   0.5000000 SPIN=   0.00000
  Li  -0.1500993  -0.0000000   0.5000000 SPIN=   0.00000
   O  -0.0275654  -0.6209142  -0.3110823 SPIN=   0.00000
   O  -0.5493062  -0.3305912  -0.1891987 SPIN=   0.00000
   O  -0.0473713  -0.2596872  -0.0135477 SPIN=   0.00000
   O  -0.0632515  -0.0858611  -0.2688256 SPIN=   0.00000
   P  -0.1629081  -0.3372452  -0.2026725 SPIN=   0.00000
   O  -0.0275654   0.6209142   0.3110823 SPIN=   0.00000
   O  -0.5493062   0.3305912   0.1891987 SPIN=   0.00000
   O  -0.0473713   0.2596872   0.0135477 SPIN=   0.00000
   O  -0.0632515   0.0858611   0.2688256 SPIN=   0.00000
   P  -0.1629081   0.3372452   0.2026725 SPIN=   0.00000
  Fe   0.3521840   0.1636684  -0.1824460 SPIN=   4.00000
  Fe   0.3521840  -0.1636684   0.1824460 SPIN=   4.00000
%ENDBLOCK POSITIONS_FRAC

# Note: total spin =   8.00

KPOINTS_MP_SPACING 0.07

%BLOCK SPECIES_POT
QC5
%ENDBLOCK SPECIES_POT

%BLOCK HUBBARD_U
Fe d:4.0
%ENDBLOCK HUBBARD_U

SNAP_TO_SYMMETRY
SYMMETRY_GENERATE

