#              Generated by Buildcell
#
# at 00:38:42 (GMT+0.0) 24th November 2020
# in /lustre/scratch/uccabz1/launch_tmp
# on node-c12h-025
# by uccabz1
#
# compiler GCC version 4.9.2
# options -cpp -iprefix /lustre/shared/ucl/apps/gcc/4.9.2/bin/../lib/gcc/x86_64-unknown-linux-gnu/4.9.2/ -mtune=corei7 -march=x86-64 -g -Og
#
# seed  1943734083 -1441684027  1539179313 -1621224685 -1782189227  1938073702   -30382435 -1629056749  -120233360  1423716713  -889744742  -360164328
#
#      Author: C. J. Pickard (cjp20@cam.ac.uk)
#                Space group: Cm
#

%BLOCK LATTICE_ABC
      5.07000      6.16698      6.16698
     85.66411     66.00500     66.00500
%ENDBLOCK LATTICE_ABC

%BLOCK POSITIONS_FRAC
  Li  -0.0894780  -0.2515559   0.3701274 SPIN=   0.00000
  Li  -0.0894780   0.3701274  -0.2515559 SPIN=   0.00000
   O   0.4438344  -0.1727506   0.4165084 SPIN=   0.00000
   O   0.2893845  -0.2195705   0.0749763 SPIN=   0.00000
   O   0.8577733  -0.3751592  -0.0096888 SPIN=   0.00000
   P   0.5258715  -0.3316376   0.1977821 SPIN=   0.00000
   O   0.4438344   0.4165084  -0.1727506 SPIN=   0.00000
   O   0.2893845   0.0749763  -0.2195705 SPIN=   0.00000
   O   0.8577733  -0.0096888  -0.3751592 SPIN=   0.00000
   P   0.5258715   0.1977821  -0.3316376 SPIN=   0.00000
   O   1.2079613  -0.4667129  -0.4667129 SPIN=   0.00000
   O  -1.1405281   0.4050252   0.4050252 SPIN=   0.00000
  Fe   0.2072165  -0.2305971  -0.2305971 SPIN=   4.47312
  Fe  -0.6800174   0.1737912   0.1737912 SPIN=   3.52688
%ENDBLOCK POSITIONS_FRAC

# Note: total spin =   8.00

KPOINTS_MP_SPACING 0.07

%BLOCK SPECIES_POT
QC5
%ENDBLOCK SPECIES_POT

%BLOCK HUBBARD_U
Fe d:4.0
%ENDBLOCK HUBBARD_U

SNAP_TO_SYMMETRY
SYMMETRY_GENERATE

