#              Generated by Buildcell
#
# at 21:21:38 (GMT+0.0) 23rd November 2020
# in /lustre/scratch/uccabz1/launch_tmp
# on node-c12f-026
# by uccabz1
#
# compiler GCC version 4.9.2
# options -cpp -iprefix /lustre/shared/ucl/apps/gcc/4.9.2/bin/../lib/gcc/x86_64-unknown-linux-gnu/4.9.2/ -mtune=corei7 -march=x86-64 -g -Og
#
# seed   -83163886  -619671025  -524011360  1789883332  1076849055  -920234100 -2134320657  1029261859   874385889  1966034573 -1314230376   954809311
#
#      Author: C. J. Pickard (cjp20@cam.ac.uk)
#                Space group: Fdd2
#

%BLOCK LATTICE_ABC
      5.67463      5.67463      6.20531
    110.91770    110.91770    102.66027
%ENDBLOCK LATTICE_ABC

%BLOCK POSITIONS_FRAC
  Li  -0.1249595   0.3750405  -0.2499190 SPIN=   0.00000
  Li  -0.3749595  -0.3749595   0.2500810 SPIN=   0.00000
   O  -0.3259465  -0.2987232  -0.0428809 SPIN=   0.00000
   O   0.0508502  -0.1470648   0.4263857 SPIN=   0.00000
   O   0.2830656   0.2558423  -0.0428809 SPIN=   0.00000
   O   0.3755355   0.5734505   0.4263857 SPIN=   0.00000
   O  -0.4941577   0.0330656  -0.5428809 SPIN=   0.00000
   O  -0.1765495   0.1255355  -0.0736143 SPIN=   0.00000
   O  -0.0487232  -0.5759465  -0.5428809 SPIN=   0.00000
   O   0.1029352  -0.1991498  -0.0736143 SPIN=   0.00000
   P  -0.1111635  -0.1111635  -0.2223269 SPIN=   0.00000
   P   0.1388365  -0.3611635   0.2776731 SPIN=   0.00000
  Fe   0.1706186   0.1706186   0.3412372 SPIN=   4.00000
  Fe   0.4206186  -0.0793814  -0.1587628 SPIN=   4.00000
%ENDBLOCK POSITIONS_FRAC

# Note: total spin =   8.00

KPOINTS_MP_SPACING 0.07

%BLOCK SPECIES_POT
QC5
%ENDBLOCK SPECIES_POT

%BLOCK HUBBARD_U
Fe d:4.0
%ENDBLOCK HUBBARD_U

SNAP_TO_SYMMETRY
SYMMETRY_GENERATE

