#              Generated by Buildcell
#
# at 04:17:38 (GMT+0.0) 24th November 2020
# in /lustre/scratch/uccabz1/launch_tmp
# on node-c12g-028
# by uccabz1
#
# compiler GCC version 4.9.2
# options -cpp -iprefix /lustre/shared/ucl/apps/gcc/4.9.2/bin/../lib/gcc/x86_64-unknown-linux-gnu/4.9.2/ -mtune=corei7 -march=x86-64 -g -Og
#
# seed  1926759068 -1465948980  -544906022  -708679394   535092815  -913216346  -733726715 -1580728214  -305476706  -582787756  1761457478  -202532352
#
#      Author: C. J. Pickard (cjp20@cam.ac.uk)
#                Space group: Cc
#

%BLOCK LATTICE_ABC
      5.20162      5.89382      6.37516
    111.56537     90.00000    116.18544
%ENDBLOCK LATTICE_ABC

%BLOCK POSITIONS_FRAC
  Li   0.4594421   0.4740106   0.1189006 SPIN=   0.00000
  Li   0.0145685  -0.5259894  -0.3810994 SPIN=   0.00000
   O   0.1689848  -0.8695402  -0.2910047 SPIN=   0.00000
   O   0.3989698  -0.5272565  -0.4856082 SPIN=   0.00000
   O   0.6949657  -0.4551817  -0.1415164 SPIN=   0.00000
   O   0.5867247  -0.8600091  -0.5126198 SPIN=   0.00000
   P   0.4482548  -0.6903436  -0.3559652 SPIN=   0.00000
   O  -0.0385251   0.1304598   0.2089953 SPIN=   0.00000
   O   0.0737737   0.4727435   0.0143918 SPIN=   0.00000
   O  -0.1501474   0.5448183   0.3584836 SPIN=   0.00000
   O  -0.4467338   0.1399909  -0.0126198 SPIN=   0.00000
   P  -0.1385983   0.3096564   0.1440348 SPIN=   0.00000
  Fe  -0.2786339  -0.1123882  -0.3112110 SPIN=   4.00000
  Fe   0.1662457  -0.1123882   0.1887890 SPIN=   4.00000
%ENDBLOCK POSITIONS_FRAC

# Note: total spin =   8.00

KPOINTS_MP_SPACING 0.07

%BLOCK SPECIES_POT
QC5
%ENDBLOCK SPECIES_POT

%BLOCK HUBBARD_U
Fe d:4.0
%ENDBLOCK HUBBARD_U

SNAP_TO_SYMMETRY
SYMMETRY_GENERATE

