#              Generated by Buildcell
#
# at 22:46:07 (GMT+0.0) 23rd November 2020
# in /scratch/scratch/uccabz1/launch_tmp
# on node-a14a-017
# by uccabz1
#
# compiler GCC version 4.9.2
# options -cpp -iprefix /scratch/UCL/applications/gcc/4.9.2/bin/../lib/gcc/x86_64-unknown-linux-gnu/4.9.2/ -mtune=corei7 -march=x86-64 -g -O2
#
# seed -1574660179  -958300240  -231800974  1883187771 -1102116215   484699440  -406921930  -175102281  -986469765 -1327424971   987835925 -1642295320
#
#      Author: C. J. Pickard (cjp20@cam.ac.uk)
#                Space group: Pnc2
#

%BLOCK LATTICE_ABC
      5.30155      5.33270      5.65939
     90.00000     90.00000     90.00000
%ENDBLOCK LATTICE_ABC

%BLOCK POSITIONS_FRAC
  Li   0.5000000  -0.5000000   0.1243207 SPIN=   0.00000
  Li   0.5000000  -0.0000000  -0.3756793 SPIN=   0.00000
   O  -0.3011846  -0.2330127  -0.1305675 SPIN=   0.00000
   O   0.1568928  -0.2309159  -0.2936770 SPIN=   0.00000
   O   0.3011846   0.2330127  -0.1305675 SPIN=   0.00000
   O  -0.1568928   0.2309159  -0.2936770 SPIN=   0.00000
   O  -0.3011846  -0.2669873   0.3694325 SPIN=   0.00000
   O   0.1568928  -0.2690841   0.2063230 SPIN=   0.00000
   O   0.3011846   0.2669873   0.3694325 SPIN=   0.00000
   O  -0.1568928   0.2690841   0.2063230 SPIN=   0.00000
   P   0.5000000  -0.0000000   0.1520921 SPIN=   0.00000
   P   0.5000000   0.5000000  -0.3479079 SPIN=   0.00000
  Fe  -0.0000000  -0.0000000  -0.0312019 SPIN=   4.00000
  Fe   0.0000000   0.5000000   0.4687981 SPIN=   4.00000
%ENDBLOCK POSITIONS_FRAC

# Note: total spin =   8.00

KPOINTS_MP_SPACING 0.07

%BLOCK SPECIES_POT
QC5
%ENDBLOCK SPECIES_POT

%BLOCK HUBBARD_U
Fe d:4.0
%ENDBLOCK HUBBARD_U

SNAP_TO_SYMMETRY
SYMMETRY_GENERATE

