#              Generated by Buildcell
#
# at 22:40:25 (GMT+0.0) 23rd November 2020
# in /scratch/scratch/uccabz1/launch_tmp
# on node-a14c-007
# by uccabz1
#
# compiler GCC version 4.9.2
# options -cpp -iprefix /scratch/UCL/applications/gcc/4.9.2/bin/../lib/gcc/x86_64-unknown-linux-gnu/4.9.2/ -mtune=corei7 -march=x86-64 -g -O2
#
# seed  1631959072   378098665   635411540  1741476119  -232451226  -374195143   773308542  -163355119 -1690976619 -1732367326  1001709077 -1760309505
#
#      Author: C. J. Pickard (cjp20@cam.ac.uk)
#                Space group: C2221
#

%BLOCK LATTICE_ABC
      4.36366      5.22401      7.72484
     90.00000     90.00000    114.68657
%ENDBLOCK LATTICE_ABC

%BLOCK POSITIONS_FRAC
  Li  -0.3874868   0.0000000  -0.2500000 SPIN=   0.00000
  Li   0.3874868  -0.0000000   0.2500000 SPIN=   0.00000
   O  -0.3496400  -0.4469585   0.3363380 SPIN=   0.00000
   O  -0.2116902   0.0703213   0.4226049 SPIN=   0.00000
   O   0.3496400   0.4469585  -0.1636620 SPIN=   0.00000
   O   0.2116902  -0.0703213  -0.0773951 SPIN=   0.00000
   O   0.0973185   0.4469585   0.1636620 SPIN=   0.00000
   O  -0.2820114  -0.0703213   0.0773951 SPIN=   0.00000
   O  -0.0973185  -0.4469585  -0.3363380 SPIN=   0.00000
   O   0.2820114   0.0703213  -0.4226049 SPIN=   0.00000
   P   0.0819921   0.1639843   0.0000000 SPIN=   0.00000
   P  -0.0819921  -0.1639843  -0.5000000 SPIN=   0.00000
  Fe  -0.2217313  -0.4434626   0.0000000 SPIN=   4.00000
  Fe   0.2217313   0.4434626  -0.5000000 SPIN=   4.00000
%ENDBLOCK POSITIONS_FRAC

# Note: total spin =   8.00

KPOINTS_MP_SPACING 0.07

%BLOCK SPECIES_POT
QC5
%ENDBLOCK SPECIES_POT

%BLOCK HUBBARD_U
Fe d:4.0
%ENDBLOCK HUBBARD_U

SNAP_TO_SYMMETRY
SYMMETRY_GENERATE

