#              Generated by Buildcell
#
# at 04:04:20 (GMT+0.0) 24th November 2020
# in /lustre/scratch/uccabz1/launch_tmp
# on node-c12e-024
# by uccabz1
#
# compiler GCC version 4.9.2
# options -cpp -iprefix /lustre/shared/ucl/apps/gcc/4.9.2/bin/../lib/gcc/x86_64-unknown-linux-gnu/4.9.2/ -mtune=corei7 -march=x86-64 -g -Og
#
# seed  -942354273  1584950571  1792544727   438904177  1530818472  1937021584  -227573113  1017409972  -114503208   884957012  -772526295  -786260030
#
#      Author: C. J. Pickard (cjp20@cam.ac.uk)
#                Space group: P-1
#

%BLOCK LATTICE_ABC
      4.19738      6.10828      6.55038
     97.64867    104.94131     93.57549
%ENDBLOCK LATTICE_ABC

%BLOCK POSITIONS_FRAC
  Li  -0.3700539  -0.3566770   0.2604549 SPIN=   0.00000
  Li   0.3700539   0.3566770  -0.2604549 SPIN=   0.00000
   O   0.1740508   0.1450749  -0.0432822 SPIN=   0.00000
   O  -0.1515783   0.3878941  -0.3060500 SPIN=   0.00000
   O  -0.4431019   0.0432180  -0.2564850 SPIN=   0.00000
   O  -0.2933622   0.3670217   0.0400043 SPIN=   0.00000
   O  -0.1740508  -0.1450749   0.0432822 SPIN=   0.00000
   O   0.1515783  -0.3878941   0.3060500 SPIN=   0.00000
   O   0.4431019  -0.0432180   0.2564850 SPIN=   0.00000
   O   0.2933622  -0.3670217  -0.0400043 SPIN=   0.00000
   P  -0.0000000   0.5000000  -0.0000000 SPIN=   0.00000
   P   0.5000000   0.0000000   0.5000000 SPIN=   0.00000
  Fe  -0.0848000   0.1563105   0.2540574 SPIN=   4.00000
  Fe   0.0848000  -0.1563105  -0.2540574 SPIN=   4.00000
%ENDBLOCK POSITIONS_FRAC

# Note: total spin =   8.00

KPOINTS_MP_SPACING 0.07

%BLOCK SPECIES_POT
QC5
%ENDBLOCK SPECIES_POT

%BLOCK HUBBARD_U
Fe d:4.0
%ENDBLOCK HUBBARD_U

SNAP_TO_SYMMETRY
SYMMETRY_GENERATE

