#              Generated by Buildcell
#
# at 05:15:16 (GMT+0.0) 24th November 2020
# in /lustre/scratch/uccabz1/launch_tmp
# on node-c12c-026
# by uccabz1
#
# compiler GCC version 4.9.2
# options -cpp -iprefix /lustre/shared/ucl/apps/gcc/4.9.2/bin/../lib/gcc/x86_64-unknown-linux-gnu/4.9.2/ -mtune=corei7 -march=x86-64 -g -Og
#
# seed   -86229851  -490590968  1700643901  -990514053   413126034   905397679 -1410901325  1337806007 -1421347231 -2126768348 -1416684446   169406114
#
#      Author: C. J. Pickard (cjp20@cam.ac.uk)
#                Space group: Pm
#

%BLOCK LATTICE_ABC
      3.96498      4.23051      9.75612
     90.00000     90.00000    102.12081
%ENDBLOCK LATTICE_ABC

%BLOCK POSITIONS_FRAC
  Li  -0.0131912   0.2517864  -0.2028660 SPIN=   0.00000
  Li  -0.0131912   0.2517864   0.2028660 SPIN=   0.00000
   O   0.3289576  -0.0420656   0.1491378 SPIN=   0.00000
   O   0.1143523  -0.3444093   0.3747994 SPIN=   0.00000
   O   0.5816749  -0.5154862   0.2459388 SPIN=   0.00000
   O   0.7020298   0.0166446   0.3684002 SPIN=   0.00000
   P   0.4294697  -0.2089758   0.2783473 SPIN=   0.00000
   O   0.3289576  -0.0420656  -0.1491378 SPIN=   0.00000
   O   0.1143523  -0.3444093  -0.3747994 SPIN=   0.00000
   O   0.5816749  -0.5154862  -0.2459388 SPIN=   0.00000
   O   0.7020298   0.0166446  -0.3684002 SPIN=   0.00000
   P   0.4294697  -0.2089758  -0.2783473 SPIN=   0.00000
  Fe  -0.4694061   0.3728163   0.5000000 SPIN=   3.80048
  Fe  -0.4184036  -0.3283544   0.0000000 SPIN=   4.19952
%ENDBLOCK POSITIONS_FRAC

# Note: total spin =   8.00

KPOINTS_MP_SPACING 0.07

%BLOCK SPECIES_POT
QC5
%ENDBLOCK SPECIES_POT

%BLOCK HUBBARD_U
Fe d:4.0
%ENDBLOCK HUBBARD_U

SNAP_TO_SYMMETRY
SYMMETRY_GENERATE

