#              Generated by Buildcell
#
# at 21:27:27 (GMT+0.0) 23rd November 2020
# in /lustre/scratch/uccabz1/launch_tmp
# on node-c12l-023
# by uccabz1
#
# compiler GCC version 4.9.2
# options -cpp -iprefix /lustre/shared/ucl/apps/gcc/4.9.2/bin/../lib/gcc/x86_64-unknown-linux-gnu/4.9.2/ -mtune=corei7 -march=x86-64 -g -Og
#
# seed   955926689  -803978953 -1255819817  -917256931   131204221  -678747096   447706648 -1846048111   -42459342  1969872793  1830957385  1163158260
#
#      Author: C. J. Pickard (cjp20@cam.ac.uk)
#                Space group: Pc
#

%BLOCK LATTICE_ABC
      4.28191      4.31749      8.76010
     90.00000     90.00000     98.89757
%ENDBLOCK LATTICE_ABC

%BLOCK POSITIONS_FRAC
  Li   0.2606384   0.3471887   0.4381013 SPIN=   0.00000
  Li  -0.2393616  -0.1528113  -0.4381013 SPIN=   0.00000
   O   0.0060122   0.3960575  -0.0617417 SPIN=   0.00000
   O  -0.5168349   0.3417396  -0.2168073 SPIN=   0.00000
   O  -0.0157340   0.3484884  -0.3573328 SPIN=   0.00000
   O  -0.2275271  -0.1184968  -0.1979280 SPIN=   0.00000
   P  -0.1786234   0.2458992  -0.2005166 SPIN=   0.00000
   O   0.5060122  -0.1039425   0.0617417 SPIN=   0.00000
   O  -0.0168349  -0.1582604   0.2168073 SPIN=   0.00000
   O   0.4842660  -0.1515116   0.3573328 SPIN=   0.00000
   O   0.2724729  -0.6184968   0.1979280 SPIN=   0.00000
   P   0.3213766  -0.2541008   0.2005166 SPIN=   0.00000
  Fe  -0.2450008   0.3110293   0.1537983 SPIN=   4.00000
  Fe   0.2549992  -0.1889707  -0.1537983 SPIN=   4.00000
%ENDBLOCK POSITIONS_FRAC

# Note: total spin =   8.00

KPOINTS_MP_SPACING 0.07

%BLOCK SPECIES_POT
QC5
%ENDBLOCK SPECIES_POT

%BLOCK HUBBARD_U
Fe d:4.0
%ENDBLOCK HUBBARD_U

SNAP_TO_SYMMETRY
SYMMETRY_GENERATE

