#              Generated by Buildcell
#
# at 01:58:37 (GMT+0.0) 24th November 2020
# in /lustre/scratch/uccabz1/launch_tmp
# on node-c12a-027
# by uccabz1
#
# compiler GCC version 4.9.2
# options -cpp -iprefix /lustre/shared/ucl/apps/gcc/4.9.2/bin/../lib/gcc/x86_64-unknown-linux-gnu/4.9.2/ -mtune=corei7 -march=x86-64 -g -Og
#
# seed  -359528331 -1523198797 -1518325383  -754376487   465428942  1229762506  1679327284  1865860756    69656468   201438169   239876088  -996024971
#
#      Author: C. J. Pickard (cjp20@cam.ac.uk)
#                Space group: P-1
#

%BLOCK LATTICE_ABC
      4.37748      5.83933      6.49635
     81.78443     76.81127     88.95209
%ENDBLOCK LATTICE_ABC

%BLOCK POSITIONS_FRAC
  Li   0.2564482   0.1643909  -0.4057040 SPIN=   0.00000
  Li  -0.2564482  -0.1643909   0.4057040 SPIN=   0.00000
   O   0.4904004  -0.5757030   0.2390717 SPIN=   0.00000
   O   0.4819337  -0.1265506   0.1693211 SPIN=   0.00000
   O   0.0049104  -0.3438968   0.1655653 SPIN=   0.00000
   O   0.1609973  -0.3349384   0.5120183 SPIN=   0.00000
   P   0.2940623  -0.3574195   0.2726062 SPIN=   0.00000
   O  -0.4904004   0.5757030  -0.2390717 SPIN=   0.00000
   O  -0.4819337   0.1265506  -0.1693211 SPIN=   0.00000
   O  -0.0049104   0.3438968  -0.1655653 SPIN=   0.00000
   O  -0.1609973   0.3349384  -0.5120183 SPIN=   0.00000
   P  -0.2940623   0.3574195  -0.2726062 SPIN=   0.00000
  Fe  -0.2143159  -0.2346400  -0.0967287 SPIN=   4.00000
  Fe   0.2143159   0.2346400   0.0967287 SPIN=   4.00000
%ENDBLOCK POSITIONS_FRAC

# Note: total spin =   8.00

KPOINTS_MP_SPACING 0.07

%BLOCK SPECIES_POT
QC5
%ENDBLOCK SPECIES_POT

%BLOCK HUBBARD_U
Fe d:4.0
%ENDBLOCK HUBBARD_U

SNAP_TO_SYMMETRY
SYMMETRY_GENERATE

