#              Generated by Buildcell
#
# at 04:07:13 (GMT+0.0) 24th November 2020
# in /lustre/scratch/uccabz1/launch_tmp
# on node-c12a-027
# by uccabz1
#
# compiler GCC version 4.9.2
# options -cpp -iprefix /lustre/shared/ucl/apps/gcc/4.9.2/bin/../lib/gcc/x86_64-unknown-linux-gnu/4.9.2/ -mtune=corei7 -march=x86-64 -g -Og
#
# seed  -666094484  -564564647 -1507644897  -996817124  1855207990   363075207  2082098968   193059942 -2014837067  1697212238  -742960394   464080686
#
#      Author: C. J. Pickard (cjp20@cam.ac.uk)
#                Space group: Pc
#

%BLOCK LATTICE_ABC
      4.26125      6.20280      6.27554
     90.00000    105.29203     90.00000
%ENDBLOCK LATTICE_ABC

%BLOCK POSITIONS_FRAC
  Li  -0.3574955   0.1654432   0.4326240 SPIN=   0.00000
  Li   0.1425045  -0.1654432  -0.0673760 SPIN=   0.00000
   O   0.0661173   0.3042577   0.3781925 SPIN=   0.00000
   O  -0.1218633  -0.0476116   0.1567048 SPIN=   0.00000
   O  -0.2002329   0.2985852  -0.0449129 SPIN=   0.00000
   O   0.3624824   0.1508385   0.1015291 SPIN=   0.00000
   P   0.0326921   0.1830159   0.1595945 SPIN=   0.00000
   O  -0.4338827  -0.3042577  -0.1218075 SPIN=   0.00000
   O  -0.6218633   0.0476116  -0.3432952 SPIN=   0.00000
   O  -0.7002329  -0.2985852  -0.5449129 SPIN=   0.00000
   O  -0.1375176  -0.1508385  -0.3984709 SPIN=   0.00000
   P  -0.4673079  -0.1830159  -0.3404055 SPIN=   0.00000
  Fe   0.2936075   0.3337039  -0.1887453 SPIN=   4.00000
  Fe  -0.2063925  -0.3337039   0.3112547 SPIN=   4.00000
%ENDBLOCK POSITIONS_FRAC

# Note: total spin =   8.00

KPOINTS_MP_SPACING 0.07

%BLOCK SPECIES_POT
QC5
%ENDBLOCK SPECIES_POT

%BLOCK HUBBARD_U
Fe d:4.0
%ENDBLOCK HUBBARD_U

SNAP_TO_SYMMETRY
SYMMETRY_GENERATE

