#              Generated by Buildcell
#
# at 03:24:52 (GMT+0.0) 24th November 2020
# in /scratch/scratch/uccabz1/launch_tmp
# on node-a14c-005
# by uccabz1
#
# compiler GCC version 4.9.2
# options -cpp -iprefix /scratch/UCL/applications/gcc/4.9.2/bin/../lib/gcc/x86_64-unknown-linux-gnu/4.9.2/ -mtune=corei7 -march=x86-64 -g -O2
#
# seed -1264747321 -1875202497  2120301925  1398692180  -990934185  1424749173  1612703405  2001933607  -729915625  2047970276  -548777539  -986621784
#
#      Author: C. J. Pickard (cjp20@cam.ac.uk)
#                Space group: I-4
#

%BLOCK LATTICE_ABC
      5.75602      5.75602      6.31562
    117.10979    117.10979     90.00000
%ENDBLOCK LATTICE_ABC

%BLOCK POSITIONS_FRAC
  Li  -0.4693174   0.0306826  -0.9386347 SPIN=   0.00000
  Li  -0.0306826   0.4693174  -0.0613653 SPIN=   0.00000
   O   0.0421192   0.0464278  -0.2468524 SPIN=   0.00000
   O   0.1314924  -0.3926836  -0.2387184 SPIN=   0.00000
   O  -0.2889717  -0.2932802  -0.2468524 SPIN=   0.00000
   O  -0.3702109   0.1539651  -0.2387184 SPIN=   0.00000
   O  -0.0464278   0.2889717   0.2468524 SPIN=   0.00000
   O   0.3926836   0.3702109   0.2387184 SPIN=   0.00000
   O   0.2932802  -0.0421192   0.2468524 SPIN=   0.00000
   O  -0.1539651  -0.1314924   0.2387184 SPIN=   0.00000
   P   0.2500000  -0.2500000  -0.5000000 SPIN=   0.00000
   P  -0.0000000  -0.0000000  -0.0000000 SPIN=   0.00000
  Fe   0.2971072   0.2971072   0.5942144 SPIN=   4.00000
  Fe  -0.2971072  -0.2971072  -0.5942144 SPIN=   4.00000
%ENDBLOCK POSITIONS_FRAC

# Note: total spin =   8.00

KPOINTS_MP_SPACING 0.07

%BLOCK SPECIES_POT
QC5
%ENDBLOCK SPECIES_POT

%BLOCK HUBBARD_U
Fe d:4.0
%ENDBLOCK HUBBARD_U

SNAP_TO_SYMMETRY
SYMMETRY_GENERATE

