#              Generated by Buildcell
#
# at 00:46:00 (GMT+0.0) 24th November 2020
# in /lustre/scratch/uccabz1/launch_tmp
# on node-c12h-023
# by uccabz1
#
# compiler GCC version 4.9.2
# options -cpp -iprefix /lustre/shared/ucl/apps/gcc/4.9.2/bin/../lib/gcc/x86_64-unknown-linux-gnu/4.9.2/ -mtune=corei7 -march=x86-64 -g -Og
#
# seed  2145670265  1852877684 -2115601405  -220054183   252618609   707416348   530098464   138782808  1614512121  2016766952   729569278   106991996
#
#      Author: C. J. Pickard (cjp20@cam.ac.uk)
#                Space group: Pm
#

%BLOCK LATTICE_ABC
      4.45391      4.75562      7.80183
     90.00000     90.00000    104.48301
%ENDBLOCK LATTICE_ABC

%BLOCK POSITIONS_FRAC
  Li   0.1371837  -0.1878614   0.0000000 SPIN=   0.00000
  Li   0.0996686  -0.1961342  -0.5000000 SPIN=   0.00000
   O  -0.0306708   0.2051224  -0.3439187 SPIN=   0.00000
   O  -0.5859052  -0.1149251  -0.2865257 SPIN=   0.00000
   O  -0.1436244  -0.3366069  -0.2525589 SPIN=   0.00000
   P  -0.2335841  -0.0385132  -0.2344652 SPIN=   0.00000
   O  -0.0306708   0.2051224   0.3439187 SPIN=   0.00000
   O  -0.5859052  -0.1149251   0.2865257 SPIN=   0.00000
   O  -0.1436244  -0.3366069   0.2525589 SPIN=   0.00000
   P  -0.2335841  -0.0385132   0.2344652 SPIN=   0.00000
   O  -0.4952952  -0.4674769  -0.5000000 SPIN=   0.00000
   O   0.2103325   0.3751817   0.0000000 SPIN=   0.00000
  Fe   0.4125849   0.3782599  -0.2493446 SPIN=   4.00000
  Fe   0.4125849   0.3782599   0.2493446 SPIN=   4.00000
%ENDBLOCK POSITIONS_FRAC

# Note: total spin =   8.00

KPOINTS_MP_SPACING 0.07

%BLOCK SPECIES_POT
QC5
%ENDBLOCK SPECIES_POT

%BLOCK HUBBARD_U
Fe d:4.0
%ENDBLOCK HUBBARD_U

SNAP_TO_SYMMETRY
SYMMETRY_GENERATE

