#              Generated by Buildcell
#
# at 22:54:09 (GMT+0.0) 23rd November 2020
# in /lustre/scratch/uccabz1/launch_tmp
# on node-c12e-029
# by uccabz1
#
# compiler GCC version 4.9.2
# options -cpp -iprefix /lustre/shared/ucl/apps/gcc/4.9.2/bin/../lib/gcc/x86_64-unknown-linux-gnu/4.9.2/ -mtune=corei7 -march=x86-64 -g -Og
#
# seed   983049901  1743672708   260534555  -842624720  1141675765  2054790645  -714455449  2043203706 -1867537503   511235552  -760828078   913335946
#
#      Author: C. J. Pickard (cjp20@cam.ac.uk)
#                Space group: C2
#

%BLOCK LATTICE_ABC
      5.37167      5.37167      6.39102
    102.76127    102.76127    109.94488
%ENDBLOCK LATTICE_ABC

%BLOCK POSITIONS_FRAC
  Li  -0.1779284   0.1779284  -0.0000000 SPIN=   0.00000
  Li  -0.4886731   0.4886731   0.5000000 SPIN=   0.00000
   O   0.0393245   0.0178957  -0.1919744 SPIN=   0.00000
   O  -0.1204450  -0.3587091  -0.5847199 SPIN=   0.00000
   O   0.3047892  -0.2913563  -0.2918113 SPIN=   0.00000
   O  -0.1644010  -0.5113460  -0.2466608 SPIN=   0.00000
   O  -0.0178957  -0.0393245   0.1919744 SPIN=   0.00000
   O   0.3587091   0.1204450   0.5847199 SPIN=   0.00000
   O   0.2913563  -0.3047892   0.2918113 SPIN=   0.00000
   O   0.5113460   0.1644010   0.2466608 SPIN=   0.00000
   P  -0.4813129   0.4813129  -0.0000000 SPIN=   0.00000
   P   0.2078710  -0.2078710   0.5000000 SPIN=   0.00000
  Fe   0.1950376  -0.1950376   0.0000000 SPIN=   5.52736
  Fe  -0.1142270   0.1142270   0.5000000 SPIN=   2.47264
%ENDBLOCK POSITIONS_FRAC

# Note: total spin =   8.00

KPOINTS_MP_SPACING 0.07

%BLOCK SPECIES_POT
QC5
%ENDBLOCK SPECIES_POT

%BLOCK HUBBARD_U
Fe d:4.0
%ENDBLOCK HUBBARD_U

SNAP_TO_SYMMETRY
SYMMETRY_GENERATE

