#              Generated by Buildcell
#
# at 05:55:13 (GMT+0.0) 24th November 2020
# in /lustre/scratch/uccabz1/launch_tmp
# on node-c12g-020
# by uccabz1
#
# compiler GCC version 4.9.2
# options -cpp -iprefix /lustre/shared/ucl/apps/gcc/4.9.2/bin/../lib/gcc/x86_64-unknown-linux-gnu/4.9.2/ -mtune=corei7 -march=x86-64 -g -Og
#
# seed -2088048969 -1827734862  1039131734 -1298729164 -1655197927   749904018  -821929554 -1831343615   804938747    13042556  1264202945  -844825249
#
#      Author: C. J. Pickard (cjp20@cam.ac.uk)
#                Space group: C2
#

%BLOCK LATTICE_ABC
      4.51203      6.15084      6.15084
     88.71047     75.59679     75.59679
%ENDBLOCK LATTICE_ABC

%BLOCK POSITIONS_FRAC
  Li   0.2203248  -0.2222831  -0.1293354 SPIN=   0.00000
  Li  -0.2203248   0.1293354   0.2222831 SPIN=   0.00000
   O  -0.1399807   0.6508472  -0.2584392 SPIN=   0.00000
   O  -0.5411587   0.4738506   0.0200566 SPIN=   0.00000
   O   0.0290283   0.3005360  -0.0314747 SPIN=   0.00000
   P  -0.2118932   0.5337672  -0.0348649 SPIN=   0.00000
   O   0.1399807   0.2584392  -0.6508472 SPIN=   0.00000
   O   0.5411587  -0.0200566  -0.4738506 SPIN=   0.00000
   O  -0.0290283   0.0314747  -0.3005360 SPIN=   0.00000
   P   0.2118932   0.0348649  -0.5337672 SPIN=   0.00000
   O  -0.5000000  -0.3988743   0.3988743 SPIN=   0.00000
   O  -0.5000000  -0.0872602   0.0872602 SPIN=   0.00000
  Fe  -0.0000000  -0.3887992   0.3887992 SPIN=   4.32865
  Fe   0.5000000   0.2289416  -0.2289416 SPIN=   3.67135
%ENDBLOCK POSITIONS_FRAC

# Note: total spin =   8.00

KPOINTS_MP_SPACING 0.07

%BLOCK SPECIES_POT
QC5
%ENDBLOCK SPECIES_POT

%BLOCK HUBBARD_U
Fe d:4.0
%ENDBLOCK HUBBARD_U

SNAP_TO_SYMMETRY
SYMMETRY_GENERATE

