#              Generated by Buildcell
#
# at 23:27:08 (GMT+0.0) 23rd November 2020
# in /lustre/scratch/uccabz1/launch_tmp
# on node-c12e-025
# by uccabz1
#
# compiler GCC version 4.9.2
# options -cpp -iprefix /lustre/shared/ucl/apps/gcc/4.9.2/bin/../lib/gcc/x86_64-unknown-linux-gnu/4.9.2/ -mtune=corei7 -march=x86-64 -g -Og
#
# seed -1339011279  1768867087  2027530397   629608485  -657414208   781545400   936699228   591535205  1081581827   870251911  1293522398 -1739650706
#
#      Author: C. J. Pickard (cjp20@cam.ac.uk)
#                Space group: P-1
#

%BLOCK LATTICE_ABC
      4.18135      6.14582      6.59550
     90.42571     90.30368    109.25411
%ENDBLOCK LATTICE_ABC

%BLOCK POSITIONS_FRAC
  Li   0.5000000  -0.0000000  -0.5000000 SPIN=   0.00000
  Li   0.5000000   0.0000000   0.0000000 SPIN=   0.00000
   O   0.3588543  -0.2259128  -0.2523043 SPIN=   0.00000
   O  -0.2413305  -0.4044371  -0.0991212 SPIN=   0.00000
   O  -0.0452317   0.0091284  -0.1844317 SPIN=   0.00000
   O  -0.1862938  -0.2867318  -0.4634373 SPIN=   0.00000
   P  -0.0097378  -0.2276361  -0.2524766 SPIN=   0.00000
   O  -0.3588543   0.2259128   0.2523043 SPIN=   0.00000
   O   0.2413305   0.4044371   0.0991212 SPIN=   0.00000
   O   0.0452317  -0.0091284   0.1844317 SPIN=   0.00000
   O   0.1862938   0.2867318   0.4634373 SPIN=   0.00000
   P   0.0097378   0.2276361   0.2524766 SPIN=   0.00000
  Fe   0.1814499   0.3659852  -0.2243791 SPIN=   4.00000
  Fe  -0.1814499  -0.3659852   0.2243791 SPIN=   4.00000
%ENDBLOCK POSITIONS_FRAC

# Note: total spin =   8.00

KPOINTS_MP_SPACING 0.07

%BLOCK SPECIES_POT
QC5
%ENDBLOCK SPECIES_POT

%BLOCK HUBBARD_U
Fe d:4.0
%ENDBLOCK HUBBARD_U

SNAP_TO_SYMMETRY
SYMMETRY_GENERATE

