#              Generated by Buildcell
#
# at 23:03:15 (GMT+0.0) 23rd November 2020
# in /scratch/scratch/uccabz1/launch_tmp
# on node-a14f-014
# by uccabz1
#
# compiler GCC version 4.9.2
# options -cpp -iprefix /scratch/UCL/applications/gcc/4.9.2/bin/../lib/gcc/x86_64-unknown-linux-gnu/4.9.2/ -mtune=corei7 -march=x86-64 -g -O2
#
# seed  1983832387   894235053   193861114 -1208334317  -731476718   751507683  1770828785  1823155339  1792679713  1183973597   167055496 -1920509459
#
#      Author: C. J. Pickard (cjp20@cam.ac.uk)
#                Space group: C2221
#

%BLOCK LATTICE_ABC
      4.92688      4.92688      6.60497
     90.00000     90.00000     93.67570
%ENDBLOCK LATTICE_ABC

%BLOCK POSITIONS_FRAC
  Li  -0.2636040  -0.2636040   0.2500000 SPIN=   0.00000
  Li   0.2636040   0.2636040  -0.2500000 SPIN=   0.00000
   O   0.0129493   0.3554702  -0.4964221 SPIN=   0.00000
   O  -0.3163539   0.3203886  -0.1889718 SPIN=   0.00000
   O  -0.0129493  -0.3554702   0.0035779 SPIN=   0.00000
   O   0.3163539  -0.3203886   0.3110282 SPIN=   0.00000
   O   0.3554702   0.0129493  -0.0035779 SPIN=   0.00000
   O   0.3203886  -0.3163539  -0.3110282 SPIN=   0.00000
   O  -0.3554702  -0.0129493   0.4964221 SPIN=   0.00000
   O  -0.3203886   0.3163539   0.1889718 SPIN=   0.00000
   P   0.2978139  -0.2978139   0.0000000 SPIN=   0.00000
   P  -0.2978139   0.2978139  -0.5000000 SPIN=   0.00000
  Fe   0.2270513   0.2270513   0.2500000 SPIN=   4.00000
  Fe  -0.2270513  -0.2270513  -0.2500000 SPIN=   4.00000
%ENDBLOCK POSITIONS_FRAC

# Note: total spin =   8.00

KPOINTS_MP_SPACING 0.07

%BLOCK SPECIES_POT
QC5
%ENDBLOCK SPECIES_POT

%BLOCK HUBBARD_U
Fe d:4.0
%ENDBLOCK HUBBARD_U

SNAP_TO_SYMMETRY
SYMMETRY_GENERATE

