#              Generated by Buildcell
#
# at 04:15:38 (GMT+0.0) 24th November 2020
# in /lustre/scratch/uccabz1/launch_tmp
# on node-c12e-032
# by uccabz1
#
# compiler GCC version 4.9.2
# options -cpp -iprefix /lustre/shared/ucl/apps/gcc/4.9.2/bin/../lib/gcc/x86_64-unknown-linux-gnu/4.9.2/ -mtune=corei7 -march=x86-64 -g -Og
#
# seed   773825051  -674123239  1629433860  1151197028 -1510313248  -860986225 -1942402398   382014081 -1786498956  1177092700  1319926202  1427549831
#
#      Author: C. J. Pickard (cjp20@cam.ac.uk)
#                Space group: C2
#

%BLOCK LATTICE_ABC
      4.54550      4.54550      8.07606
     79.01641     79.01641     82.37214
%ENDBLOCK LATTICE_ABC

%BLOCK POSITIONS_FRAC
  Li  -0.4353131  -0.1154415   0.4727488 SPIN=   0.00000
  Li   0.1154415   0.4353131  -0.4727488 SPIN=   0.00000
   O  -0.4377568  -0.7752178   0.1804665 SPIN=   0.00000
   O  -0.2161531  -0.4959361   0.3735440 SPIN=   0.00000
   O  -0.2459417  -0.2464511   0.0766363 SPIN=   0.00000
   O  -0.7196364  -0.3007063   0.2919629 SPIN=   0.00000
   P  -0.4103375  -0.4698345   0.2287038 SPIN=   0.00000
   O   0.7752178   0.4377568  -0.1804665 SPIN=   0.00000
   O   0.4959361   0.2161531  -0.3735440 SPIN=   0.00000
   O   0.2464511   0.2459417  -0.0766363 SPIN=   0.00000
   O   0.3007063   0.7196364  -0.2919629 SPIN=   0.00000
   P   0.4698345   0.4103375  -0.2287038 SPIN=   0.00000
  Fe   0.1240810   0.1343626   0.1869176 SPIN=   4.00000
  Fe  -0.1343626  -0.1240810  -0.1869176 SPIN=   4.00000
%ENDBLOCK POSITIONS_FRAC

# Note: total spin =   8.00

KPOINTS_MP_SPACING 0.07

%BLOCK SPECIES_POT
QC5
%ENDBLOCK SPECIES_POT

%BLOCK HUBBARD_U
Fe d:4.0
%ENDBLOCK HUBBARD_U

SNAP_TO_SYMMETRY
SYMMETRY_GENERATE

