#              Generated by Buildcell
#
# at 03:20:38 (GMT+0.0) 24th November 2020
# in /lustre/scratch/uccabz1/launch_tmp
# on node-c12p-022
# by uccabz1
#
# compiler GCC version 4.9.2
# options -cpp -iprefix /lustre/shared/ucl/apps/gcc/4.9.2/bin/../lib/gcc/x86_64-unknown-linux-gnu/4.9.2/ -mtune=corei7 -march=x86-64 -g -Og
#
# seed -1473954682 -1783556433   192013063  1491935309  1885204504  1060732522   409297180   815457400  -171069042 -1812408575  1290176971 -1313323913
#
#      Author: C. J. Pickard (cjp20@cam.ac.uk)
#                Space group: Pnc2
#

%BLOCK LATTICE_ABC
      4.33166      4.65887      7.92840
     90.00000     90.00000     90.00000
%ENDBLOCK LATTICE_ABC

%BLOCK POSITIONS_FRAC
  Li  -0.0000000  -0.5000000   0.1325233 SPIN=   0.00000
  Li   0.0000000  -0.0000000  -0.3674767 SPIN=   0.00000
   O  -0.4012003  -0.2462766  -0.3863421 SPIN=   0.00000
   O  -0.2504454   0.1188825  -0.1527704 SPIN=   0.00000
   O   0.4012003   0.2462766  -0.3863421 SPIN=   0.00000
   O   0.2504454  -0.1188825  -0.1527704 SPIN=   0.00000
   O  -0.4012003  -0.2537234   0.1136579 SPIN=   0.00000
   O  -0.2504454  -0.6188825   0.3472296 SPIN=   0.00000
   O   0.4012003   0.2537234   0.1136579 SPIN=   0.00000
   O   0.2504454   0.6188825   0.3472296 SPIN=   0.00000
   P   0.0000000   0.0000000  -0.0310938 SPIN=   0.00000
   P   0.0000000  -0.5000000   0.4689062 SPIN=   0.00000
  Fe  -0.5000000  -0.5000000  -0.1767709 SPIN=   4.00000
  Fe   0.5000000   0.0000000   0.3232291 SPIN=   4.00000
%ENDBLOCK POSITIONS_FRAC

# Note: total spin =   8.00

KPOINTS_MP_SPACING 0.07

%BLOCK SPECIES_POT
QC5
%ENDBLOCK SPECIES_POT

%BLOCK HUBBARD_U
Fe d:4.0
%ENDBLOCK HUBBARD_U

SNAP_TO_SYMMETRY
SYMMETRY_GENERATE

