#              Generated by Buildcell
#
# at 23:10:03 (GMT+0.0) 23rd November 2020
# in /lustre/scratch/uccabz1/launch_tmp
# on node-c12m-032
# by uccabz1
#
# compiler GCC version 4.9.2
# options -cpp -iprefix /lustre/shared/ucl/apps/gcc/4.9.2/bin/../lib/gcc/x86_64-unknown-linux-gnu/4.9.2/ -mtune=corei7 -march=x86-64 -g -Og
#
# seed -1415938700  -499283063   742382557  1269259018  1387740149  1507508953  -933757487  1093392826  -267826750  1004989055  -899689968 -1131988212
#
#      Author: C. J. Pickard (cjp20@cam.ac.uk)
#                Space group: P2
#

%BLOCK LATTICE_ABC
      4.17909      4.28980      8.92488
     90.14144     90.00000     90.00000
%ENDBLOCK LATTICE_ABC

%BLOCK POSITIONS_FRAC
  Li  -0.0635929  -0.5000000   0.0000000 SPIN=   0.00000
  Li   0.4356340  -0.0000000  -0.0000000 SPIN=   0.00000
   O   0.2958159   0.1021313  -0.2406772 SPIN=   0.00000
   O  -0.0305016  -0.2543275  -0.4200942 SPIN=   0.00000
   O  -0.2267652  -0.1809809  -0.1613505 SPIN=   0.00000
   P  -0.0386727  -0.0081713  -0.2892308 SPIN=   0.00000
   O   0.2958159  -0.1021313   0.2406772 SPIN=   0.00000
   O  -0.0305016   0.2543275   0.4200942 SPIN=   0.00000
   O  -0.2267652   0.1809809   0.1613505 SPIN=   0.00000
   P  -0.0386727   0.0081713   0.2892308 SPIN=   0.00000
   O   0.4700417   0.0000000   0.5000000 SPIN=   0.00000
   O   0.4337649   0.5000000  -0.0000000 SPIN=   0.00000
  Fe   0.4613150  -0.4564683  -0.2893432 SPIN=   4.00000
  Fe   0.4613150   0.4564683   0.2893432 SPIN=   4.00000
%ENDBLOCK POSITIONS_FRAC

# Note: total spin =   8.00

KPOINTS_MP_SPACING 0.07

%BLOCK SPECIES_POT
QC5
%ENDBLOCK SPECIES_POT

%BLOCK HUBBARD_U
Fe d:4.0
%ENDBLOCK HUBBARD_U

SNAP_TO_SYMMETRY
SYMMETRY_GENERATE

