#              Generated by Buildcell
#
# at 02:09:19 (GMT+0.0) 24th November 2020
# in /scratch/scratch/uccabz1/launch_tmp
# on node-a14e-002
# by uccabz1
#
# compiler GCC version 4.9.2
# options -cpp -iprefix /scratch/UCL/applications/gcc/4.9.2/bin/../lib/gcc/x86_64-unknown-linux-gnu/4.9.2/ -mtune=corei7 -march=x86-64 -g -O2
#
# seed  -475592413   938309375   -82433257 -1544935979   486674857 -1379508169  2000490499  1544399193   773693245  1567759051    14013385  1772681823
#
#      Author: C. J. Pickard (cjp20@cam.ac.uk)
#                Space group: Cm
#

%BLOCK LATTICE_ABC
      5.26165      6.20927      6.20927
    105.95302    110.14428    110.14428
%ENDBLOCK LATTICE_ABC

%BLOCK POSITIONS_FRAC
  Li  -0.6293688  -0.4708322  -0.4708322 SPIN=   0.00000
  Li  -0.3649377   0.0064756   0.0064756 SPIN=   0.00000
   O  -0.1722159  -0.2468235   0.0012132 SPIN=   0.00000
   O   0.0075226  -0.5161823  -0.2473691 SPIN=   0.00000
   O  -0.0962858  -0.6144310   0.0827362 SPIN=   0.00000
   O  -0.5387864  -0.7227438  -0.3282842 SPIN=   0.00000
   P  -0.2024639  -0.5125643  -0.1187396 SPIN=   0.00000
   O   0.8277841   1.0012132   0.7531765 SPIN=   0.00000
   O   1.0075226   0.7526309   0.4838177 SPIN=   0.00000
   O   0.9037142   1.0827362   0.3855690 SPIN=   0.00000
   O   0.4612136   0.6717158   0.2772562 SPIN=   0.00000
   P   0.7975361   0.8812604   0.4874357 SPIN=   0.00000
  Fe   0.2611471   0.3348146  -0.0560431 SPIN=   4.00000
  Fe   0.2611471  -0.0560431   0.3348146 SPIN=   4.00000
%ENDBLOCK POSITIONS_FRAC

# Note: total spin =   8.00

KPOINTS_MP_SPACING 0.07

%BLOCK SPECIES_POT
QC5
%ENDBLOCK SPECIES_POT

%BLOCK HUBBARD_U
Fe d:4.0
%ENDBLOCK HUBBARD_U

SNAP_TO_SYMMETRY
SYMMETRY_GENERATE

