#              Generated by Buildcell
#
# at 03:10:47 (GMT+0.0) 24th November 2020
# in /lustre/scratch/uccabz1/launch_tmp
# on node-c12i-033
# by uccabz1
#
# compiler GCC version 4.9.2
# options -cpp -iprefix /lustre/shared/ucl/apps/gcc/4.9.2/bin/../lib/gcc/x86_64-unknown-linux-gnu/4.9.2/ -mtune=corei7 -march=x86-64 -g -Og
#
# seed  1481080755 -1521223941   168470450   465006532  1410120712 -1735361447 -1126005207 -1826351048  -964690053    -3078638  1095373078 -1451907444
#
#      Author: C. J. Pickard (cjp20@cam.ac.uk)
#                Space group: Pc
#

%BLOCK LATTICE_ABC
      4.11514      5.16783      7.55717
     90.00000     95.39992     90.00000
%ENDBLOCK LATTICE_ABC

%BLOCK POSITIONS_FRAC
  Li   0.0213956   0.2164094   0.4338014 SPIN=   0.00000
  Li   0.0213956  -0.2164094  -0.0661986 SPIN=   0.00000
   O  -0.0098641  -0.0287659   0.1795333 SPIN=   0.00000
   O  -0.1511434  -0.4025820   0.3890405 SPIN=   0.00000
   O  -0.4951863  -0.0101383   0.3755840 SPIN=   0.00000
   O  -0.5248717  -0.3116519   0.1151270 SPIN=   0.00000
   P  -0.2827797  -0.1812468   0.2585135 SPIN=   0.00000
   O  -0.0098641   0.0287659  -0.3204667 SPIN=   0.00000
   O  -0.1511434   0.4025820  -0.1109595 SPIN=   0.00000
   O  -0.4951863   0.0101383  -0.1244160 SPIN=   0.00000
   O  -0.5248717   0.3116519  -0.3848730 SPIN=   0.00000
   P  -0.2827797   0.1812468  -0.2414865 SPIN=   0.00000
  Fe   0.4602088  -0.2836219  -0.4084800 SPIN=   4.00000
  Fe   0.4602088   0.2836219   0.0915200 SPIN=   4.00000
%ENDBLOCK POSITIONS_FRAC

# Note: total spin =   8.00

KPOINTS_MP_SPACING 0.07

%BLOCK SPECIES_POT
QC5
%ENDBLOCK SPECIES_POT

%BLOCK HUBBARD_U
Fe d:4.0
%ENDBLOCK HUBBARD_U

SNAP_TO_SYMMETRY
SYMMETRY_GENERATE

