#              Generated by Buildcell
#
# at 03:56:36 (GMT+0.0) 24th November 2020
# in /scratch/scratch/uccabz1/launch_tmp
# on node-a14e-019
# by uccabz1
#
# compiler GCC version 4.9.2
# options -cpp -iprefix /scratch/UCL/applications/gcc/4.9.2/bin/../lib/gcc/x86_64-unknown-linux-gnu/4.9.2/ -mtune=corei7 -march=x86-64 -g -O2
#
# seed  2145454378  -270468554  -990669717  -464591206  -279489709  -897408154   691577814 -1536190265 -1742615626  1928645156  1135451304 -1105147634
#
#      Author: C. J. Pickard (cjp20@cam.ac.uk)
#                Space group: Aea2
#

%BLOCK LATTICE_ABC
      4.55774      6.07574      6.23297
     90.00000     90.00000    112.02906
%ENDBLOCK LATTICE_ABC

%BLOCK POSITIONS_FRAC
  Li   0.4866339  -0.0267323   0.0000000 SPIN=   0.00000
  Li  -0.0133661  -0.0267323   0.5000000 SPIN=   0.00000
   O   0.4696260   0.6711462  -0.1741772 SPIN=   0.00000
   O   0.3449532   0.2173348  -0.1746163 SPIN=   0.00000
   O   0.2015202   0.6711462   0.1741772 SPIN=   0.00000
   O  -0.1276184   0.2173348   0.1746163 SPIN=   0.00000
   O  -0.2984798   0.6711462   0.3258228 SPIN=   0.00000
   O  -0.6276184   0.2173348   0.3253837 SPIN=   0.00000
   O  -0.0303740   0.6711462  -0.3258228 SPIN=   0.00000
   O  -0.1550468   0.2173348  -0.3253837 SPIN=   0.00000
   P   0.1220151   0.2440302   0.0000000 SPIN=   0.00000
   P  -0.3779849   0.2440302   0.5000000 SPIN=   0.00000
  Fe  -0.2231768  -0.4463536   0.0000000 SPIN=   4.00000
  Fe   0.2768232  -0.4463536   0.5000000 SPIN=   4.00000
%ENDBLOCK POSITIONS_FRAC

# Note: total spin =   8.00

KPOINTS_MP_SPACING 0.07

%BLOCK SPECIES_POT
QC5
%ENDBLOCK SPECIES_POT

%BLOCK HUBBARD_U
Fe d:4.0
%ENDBLOCK HUBBARD_U

SNAP_TO_SYMMETRY
SYMMETRY_GENERATE

