#              Generated by Buildcell
#
# at 00:14:29 (GMT+0.0) 24th November 2020
# in /lustre/scratch/uccabz1/launch_tmp
# on node-c12l-030
# by uccabz1
#
# compiler GCC version 4.9.2
# options -cpp -iprefix /lustre/shared/ucl/apps/gcc/4.9.2/bin/../lib/gcc/x86_64-unknown-linux-gnu/4.9.2/ -mtune=corei7 -march=x86-64 -g -Og
#
# seed  1830573513 -1808499356 -1227469077  -140800852 -1637159520  1255183477  1767330828  -523294240  1680155362  1195194721   536176162   111364660
#
#      Author: C. J. Pickard (cjp20@cam.ac.uk)
#                Space group: C2/m
#

%BLOCK LATTICE_ABC
      4.92437      5.85204      6.27659
    101.60881     90.00000    114.88133
%ENDBLOCK LATTICE_ABC

%BLOCK POSITIONS_FRAC
  Li   0.2204852   0.4409704   0.3522344 SPIN=   0.00000
  Li  -0.2204852  -0.4409704  -0.3522344 SPIN=   0.00000
   O  -0.1391022   0.2228447   0.1097254 SPIN=   0.00000
   O  -0.1319736   0.2366818   0.5260939 SPIN=   0.00000
   O  -0.3619468  -0.2228447  -0.1097254 SPIN=   0.00000
   O  -0.3686554  -0.2366818  -0.5260939 SPIN=   0.00000
   O   0.1391022  -0.2228447  -0.1097254 SPIN=   0.00000
   O   0.1319736  -0.2366818  -0.5260939 SPIN=   0.00000
   O   0.3619468   0.2228447   0.1097254 SPIN=   0.00000
   O   0.3686554   0.2366818   0.5260939 SPIN=   0.00000
   P  -0.4067665   0.1864671   0.2836231 SPIN=   0.00000
   P   0.4067665  -0.1864671  -0.2836231 SPIN=   0.00000
  Fe  -0.1214099  -0.2428199   0.1862950 SPIN=   4.00000
  Fe   0.1214099   0.2428199  -0.1862950 SPIN=   4.00000
%ENDBLOCK POSITIONS_FRAC

# Note: total spin =   8.00

KPOINTS_MP_SPACING 0.07

%BLOCK SPECIES_POT
QC5
%ENDBLOCK SPECIES_POT

%BLOCK HUBBARD_U
Fe d:4.0
%ENDBLOCK HUBBARD_U

SNAP_TO_SYMMETRY
SYMMETRY_GENERATE

