#              Generated by Buildcell
#
# at 19:41:25 (GMT+0.0) 30th November 2020
# in /lustre/scratch/uccabz1/launch_tmp
# on node-c12k-024
# by uccabz1
#
# compiler GCC version 4.9.2
# options -cpp -iprefix /lustre/shared/ucl/apps/gcc/4.9.2/bin/../lib/gcc/x86_64-unknown-linux-gnu/4.9.2/ -mtune=corei7 -march=x86-64 -g -Og
#
# seed -1460442112 -1933072888  2074053086  1370426274  -651868731  -116692179   262455199 -2060133186 -1579858198  1198880223 -1312489893  1670438506
#
#      Author: C. J. Pickard (cjp20@cam.ac.uk)
#                Space group: P2
#

%BLOCK LATTICE_ABC
      3.87463      5.90759      7.21925
    104.47653     90.00000     90.00000
%ENDBLOCK LATTICE_ABC

%BLOCK POSITIONS_FRAC
  Li  -0.4850976   0.2373392  -0.0402699 SPIN=   0.00000
  Li  -0.4850976  -0.2373392   0.0402699 SPIN=   0.00000
   O   0.0222141  -0.1462187   0.1539282 SPIN=   0.00000
   O  -0.2842713  -0.2666143   0.4348422 SPIN=   0.00000
   O  -0.1146390  -0.5773726   0.1518550 SPIN=   0.00000
   P  -0.0030140  -0.3282074   0.2728929 SPIN=   0.00000
   O   0.0222141   0.1462187  -0.1539282 SPIN=   0.00000
   O  -0.2842713   0.2666143  -0.4348422 SPIN=   0.00000
   O  -0.1146390   0.5773726  -0.1518550 SPIN=   0.00000
   P  -0.0030140   0.3282074  -0.2728929 SPIN=   0.00000
   O   0.2164139   0.0000000  -0.5000000 SPIN=   0.00000
   O   0.2243822  -0.5000000   0.5000000 SPIN=   0.00000
  Fe   0.0207915   0.1959016   0.3188729 SPIN=   4.00000
  Fe   0.0207915  -0.1959016  -0.3188729 SPIN=   4.00000
%ENDBLOCK POSITIONS_FRAC

# Note: total spin =   8.00

KPOINTS_MP_SPACING 0.07

%BLOCK SPECIES_POT
QC5
%ENDBLOCK SPECIES_POT

%BLOCK HUBBARD_U
Fe d:4.0
%ENDBLOCK HUBBARD_U

SNAP_TO_SYMMETRY
SYMMETRY_GENERATE

