#              Generated by Buildcell
#
# at 01:19:51 (GMT+0.0) 24th November 2020
# in /lustre/scratch/uccabz1/launch_tmp
# on node-c12e-029
# by uccabz1
#
# compiler GCC version 4.9.2
# options -cpp -iprefix /lustre/shared/ucl/apps/gcc/4.9.2/bin/../lib/gcc/x86_64-unknown-linux-gnu/4.9.2/ -mtune=corei7 -march=x86-64 -g -Og
#
# seed   812092717  -189968450  -841485787   152317325   372468921   484730228   690664418  1177434185 -2083408394   993451380  -761342133   439109090
#
#      Author: C. J. Pickard (cjp20@cam.ac.uk)
#                Space group: P-1
#

%BLOCK LATTICE_ABC
      3.92035      4.84508      8.50172
     92.00209     91.94043     97.18499
%ENDBLOCK LATTICE_ABC

%BLOCK POSITIONS_FRAC
  Li   0.4924853  -0.4731167   0.1831750 SPIN=   0.00000
  Li  -0.4924853   0.4731167  -0.1831750 SPIN=   0.00000
   O   0.1364540   0.1900100  -0.3500037 SPIN=   0.00000
   O   0.0883371  -0.2748589  -0.2041908 SPIN=   0.00000
   O   0.4527173  -0.2278058  -0.4355264 SPIN=   0.00000
   O   0.6443901   0.0432364  -0.1850908 SPIN=   0.00000
   P   0.3238485  -0.0523461  -0.2954189 SPIN=   0.00000
   O  -0.1364540  -0.1900100   0.3500037 SPIN=   0.00000
   O  -0.0883371   0.2748589   0.2041908 SPIN=   0.00000
   O  -0.4527173   0.2278058   0.4355264 SPIN=   0.00000
   O  -0.6443901  -0.0432364   0.1850908 SPIN=   0.00000
   P  -0.3238485   0.0523461   0.2954189 SPIN=   0.00000
  Fe  -0.0000000   0.0000000  -0.0000000 SPIN=   1.78858
  Fe   0.0000000   0.5000000   0.5000000 SPIN=   6.21142
%ENDBLOCK POSITIONS_FRAC

# Note: total spin =   8.00

KPOINTS_MP_SPACING 0.07

%BLOCK SPECIES_POT
QC5
%ENDBLOCK SPECIES_POT

%BLOCK HUBBARD_U
Fe d:4.0
%ENDBLOCK HUBBARD_U

SNAP_TO_SYMMETRY
SYMMETRY_GENERATE

