#              Generated by Buildcell
#
# at 01:48:05 (GMT+0.0) 24th November 2020
# in /scratch/scratch/uccabz1/launch_tmp
# on node-k10h-028
# by uccabz1
#
# compiler GCC version 4.9.2
# options -cpp -iprefix /scratch/UCL/applications/gcc/4.9.2/bin/../lib/gcc/x86_64-unknown-linux-gnu/4.9.2/ -mtune=corei7 -march=x86-64 -g -O2
#
# seed -1126897742  -503294677 -1354679358  -659514554 -1539022650  1311226472 -1710465153  1408547325 -1637935075  -554202179 -1783667122 -1397238124
#
#      Author: C. J. Pickard (cjp20@cam.ac.uk)
#                Space group: C2/c
#

%BLOCK LATTICE_ABC
      5.67985      5.75859      5.80133
    102.83471    119.30965     90.00000
%ENDBLOCK LATTICE_ABC

%BLOCK POSITIONS_FRAC
  Li  -0.1068867  -0.2500000  -0.0000000 SPIN=   0.00000
  Li   0.1068867   0.2500000  -0.0000000 SPIN=   0.00000
   O  -0.3447805   0.0308088  -0.0840585 SPIN=   0.00000
   O  -0.1158425  -0.1493651  -0.3651087 SPIN=   0.00000
   O  -0.2607221  -0.5308088  -0.9159415 SPIN=   0.00000
   O   0.2492662  -0.3506349  -0.6348913 SPIN=   0.00000
   O   0.3447805  -0.0308088   0.0840585 SPIN=   0.00000
   O   0.1158425   0.1493651   0.3651087 SPIN=   0.00000
   O   0.2607221   0.5308088   0.9159415 SPIN=   0.00000
   O  -0.2492662   0.3506349   0.6348913 SPIN=   0.00000
   P  -0.0000000  -0.0000000   0.5000000 SPIN=   0.00000
   P  -0.5000000  -0.5000000  -0.5000000 SPIN=   0.00000
  Fe   0.5000000  -0.0000000   0.5000000 SPIN=   4.00000
  Fe   0.0000000   0.5000000   0.5000000 SPIN=   4.00000
%ENDBLOCK POSITIONS_FRAC

# Note: total spin =   8.00

KPOINTS_MP_SPACING 0.07

%BLOCK SPECIES_POT
QC5
%ENDBLOCK SPECIES_POT

%BLOCK HUBBARD_U
Fe d:4.0
%ENDBLOCK HUBBARD_U

SNAP_TO_SYMMETRY
SYMMETRY_GENERATE

