#              Generated by Buildcell
#
# at 22:35:49 (GMT+0.0) 23rd November 2020
# in /lustre/scratch/uccabz1/launch_tmp
# on node-c12l-030
# by uccabz1
#
# compiler GCC version 4.9.2
# options -cpp -iprefix /lustre/shared/ucl/apps/gcc/4.9.2/bin/../lib/gcc/x86_64-unknown-linux-gnu/4.9.2/ -mtune=corei7 -march=x86-64 -g -Og
#
# seed -1337441663  1026783757     5759428 -1898935831  -284678052  1674575198 -1358565189    43728863    48136763  -283160820  -241502066 -1291207768
#
#      Author: C. J. Pickard (cjp20@cam.ac.uk)
#                Space group: P21
#

%BLOCK LATTICE_ABC
      3.91978      5.02510      8.14500
     90.00000     94.21744     90.00000
%ENDBLOCK LATTICE_ABC

%BLOCK POSITIONS_FRAC
  Li   0.2695528  -0.2518734   0.4725505 SPIN=   0.00000
  Li  -0.2695528   0.2481266  -0.4725505 SPIN=   0.00000
   O  -0.6964120  -0.1563999  -0.0896454 SPIN=   0.00000
   O  -0.3222876  -0.2935023  -0.3261040 SPIN=   0.00000
   O  -0.7200313   0.0848338  -0.3723811 SPIN=   0.00000
   O  -0.1995406   0.1361385  -0.1775129 SPIN=   0.00000
   P  -0.4924839  -0.0602307  -0.2325760 SPIN=   0.00000
   O   0.6964120   0.3436001   0.0896454 SPIN=   0.00000
   O   0.3222876   0.2064977   0.3261040 SPIN=   0.00000
   O   0.7200313   0.5848338   0.3723811 SPIN=   0.00000
   O   0.1995406   0.6361385   0.1775129 SPIN=   0.00000
   P   0.4924839   0.4397693   0.2325760 SPIN=   0.00000
  Fe  -0.2175918  -0.0602353   0.1446510 SPIN=   4.00000
  Fe   0.2175918   0.4397647  -0.1446510 SPIN=   4.00000
%ENDBLOCK POSITIONS_FRAC

# Note: total spin =   8.00

KPOINTS_MP_SPACING 0.07

%BLOCK SPECIES_POT
QC5
%ENDBLOCK SPECIES_POT

%BLOCK HUBBARD_U
Fe d:4.0
%ENDBLOCK HUBBARD_U

SNAP_TO_SYMMETRY
SYMMETRY_GENERATE

