#              Generated by Buildcell
#
# at 01:12:29 (GMT+0.0) 24th November 2020
# in /lustre/scratch/uccabz1/launch_tmp
# on node-c12i-035
# by uccabz1
#
# compiler GCC version 4.9.2
# options -cpp -iprefix /lustre/shared/ucl/apps/gcc/4.9.2/bin/../lib/gcc/x86_64-unknown-linux-gnu/4.9.2/ -mtune=corei7 -march=x86-64 -g -Og
#
# seed -2104094014   206827204  1852644353 -1952241016  1788222403 -2135507473 -1705446426   771368094 -1710658082   161263953  -417601353  1126541282
#
#      Author: C. J. Pickard (cjp20@cam.ac.uk)
#                Space group: P21/m
#

%BLOCK LATTICE_ABC
      4.25804      5.54311      6.79122
     90.00000     93.45699     90.00000
%ENDBLOCK LATTICE_ABC

%BLOCK POSITIONS_FRAC
  Li   0.2706366   0.2500000   0.1611844 SPIN=   0.00000
  Li  -0.2706366  -0.2500000  -0.1611844 SPIN=   0.00000
   O   0.2213259  -0.4986921   0.3905845 SPIN=   0.00000
   O  -0.2195559  -0.4783978   0.1094455 SPIN=   0.00000
   O  -0.2213259   0.0013079  -0.3905845 SPIN=   0.00000
   O   0.2195559   0.0216022  -0.1094455 SPIN=   0.00000
   O  -0.2213259   0.4986921  -0.3905845 SPIN=   0.00000
   O   0.2195559   0.4783978  -0.1094455 SPIN=   0.00000
   O   0.2213259  -0.0013079   0.3905845 SPIN=   0.00000
   O  -0.2195559  -0.0216022   0.1094455 SPIN=   0.00000
   P   0.2527385  -0.2500000   0.0795533 SPIN=   0.00000
   P  -0.2527385   0.2500000  -0.0795533 SPIN=   0.00000
  Fe  -0.2276186  -0.2500000   0.3557301 SPIN=   4.00000
  Fe   0.2276186   0.2500000  -0.3557301 SPIN=   4.00000
%ENDBLOCK POSITIONS_FRAC

# Note: total spin =   8.00

KPOINTS_MP_SPACING 0.07

%BLOCK SPECIES_POT
QC5
%ENDBLOCK SPECIES_POT

%BLOCK HUBBARD_U
Fe d:4.0
%ENDBLOCK HUBBARD_U

SNAP_TO_SYMMETRY
SYMMETRY_GENERATE

