#              Generated by Buildcell
#
# at 04:26:21 (GMT+0.0) 24th November 2020
# in /scratch/scratch/uccabz1/launch_tmp
# on node-a14a-024
# by uccabz1
#
# compiler GCC version 4.9.2
# options -cpp -iprefix /scratch/UCL/applications/gcc/4.9.2/bin/../lib/gcc/x86_64-unknown-linux-gnu/4.9.2/ -mtune=corei7 -march=x86-64 -g -O2
#
# seed  1134933940   845743149 -1903815317   620041660   273185378    52410203 -1493321931   814402369   420511161    18314822  1908913669   737857138
#
#      Author: C. J. Pickard (cjp20@cam.ac.uk)
#                Space group: P2
#

%BLOCK LATTICE_ABC
      3.90454      4.79496      8.60728
     96.83814     90.00000     90.00000
%ENDBLOCK LATTICE_ABC

%BLOCK POSITIONS_FRAC
  Li  -0.2986286   0.4436883  -0.1774939 SPIN=   0.00000
  Li  -0.2986286  -0.4436883   0.1774939 SPIN=   0.00000
   O   0.1571580  -0.2952006  -0.2542801 SPIN=   0.00000
   O  -0.3642523  -0.2102935  -0.4301955 SPIN=   0.00000
   O  -0.3642986   0.0136198  -0.1564819 SPIN=   0.00000
   O   0.0397122   0.1864248  -0.3497941 SPIN=   0.00000
   P  -0.1154377  -0.0849133  -0.2959916 SPIN=   0.00000
   O   0.1571580   0.2952006   0.2542801 SPIN=   0.00000
   O  -0.3642523   0.2102935   0.4301955 SPIN=   0.00000
   O  -0.3642986  -0.0136198   0.1564819 SPIN=   0.00000
   O   0.0397122  -0.1864248   0.3497941 SPIN=   0.00000
   P  -0.1154377   0.0849133   0.2959916 SPIN=   0.00000
  Fe   0.2468446  -0.5000000  -0.5000000 SPIN=   3.79084
  Fe   0.2259598   0.0000000   0.0000000 SPIN=   4.20916
%ENDBLOCK POSITIONS_FRAC

# Note: total spin =   8.00

KPOINTS_MP_SPACING 0.07

%BLOCK SPECIES_POT
QC5
%ENDBLOCK SPECIES_POT

%BLOCK HUBBARD_U
Fe d:4.0
%ENDBLOCK HUBBARD_U

SNAP_TO_SYMMETRY
SYMMETRY_GENERATE

