#              Generated by Buildcell
#
# at 02:41:13 (GMT+0.0) 24th November 2020
# in /lustre/scratch/uccabz1/launch_tmp
# on node-c12c-035
# by uccabz1
#
# compiler GCC version 4.9.2
# options -cpp -iprefix /lustre/shared/ucl/apps/gcc/4.9.2/bin/../lib/gcc/x86_64-unknown-linux-gnu/4.9.2/ -mtune=corei7 -march=x86-64 -g -Og
#
# seed  2147451921 -1516333577  -983863842 -1650308814 -1032777294   659531246  2089870080  1534959300  -584009405  -928951104   172309081   588085581
#
#      Author: C. J. Pickard (cjp20@cam.ac.uk)
#                Space group: C2
#

%BLOCK LATTICE_ABC
      4.91550      4.91550      7.24935
     78.55959     78.55959     70.31936
%ENDBLOCK LATTICE_ABC

%BLOCK POSITIONS_FRAC
  Li   0.1951509   0.1365878   0.3148733 SPIN=   0.00000
  Li  -0.1365878  -0.1951509  -0.3148733 SPIN=   0.00000
   O   0.4115521  -0.0175870  -0.2307457 SPIN=   0.00000
   O  -0.1548925   0.1350181  -0.1661118 SPIN=   0.00000
   O   0.0897804   0.4588515  -0.0954005 SPIN=   0.00000
   O   0.0884318   0.4183095  -0.4341516 SPIN=   0.00000
   P   0.1246029   0.2364745  -0.2339471 SPIN=   0.00000
   O   0.0175870  -0.4115521   0.2307457 SPIN=   0.00000
   O  -0.1350181   0.1548925   0.1661118 SPIN=   0.00000
   O  -0.4588515  -0.0897804   0.0954005 SPIN=   0.00000
   O  -0.4183095  -0.0884318   0.4341516 SPIN=   0.00000
   P  -0.2364745  -0.1246029   0.2339471 SPIN=   0.00000
  Fe  -0.4678703   0.4678703   0.5000000 SPIN=   4.54534
  Fe   0.3135432  -0.3135432   0.0000000 SPIN=   3.45466
%ENDBLOCK POSITIONS_FRAC

# Note: total spin =   8.00

KPOINTS_MP_SPACING 0.07

%BLOCK SPECIES_POT
QC5
%ENDBLOCK SPECIES_POT

%BLOCK HUBBARD_U
Fe d:4.0
%ENDBLOCK HUBBARD_U

SNAP_TO_SYMMETRY
SYMMETRY_GENERATE

