#              Generated by Buildcell
#
# at 04:40:28 (GMT+0.0) 24th November 2020
# in /lustre/scratch/uccabz1/launch_tmp
# on node-c12p-031
# by uccabz1
#
# compiler GCC version 4.9.2
# options -cpp -iprefix /lustre/shared/ucl/apps/gcc/4.9.2/bin/../lib/gcc/x86_64-unknown-linux-gnu/4.9.2/ -mtune=corei7 -march=x86-64 -g -Og
#
# seed  1269459595 -1454840050 -1541076669 -1933416763  1521566570  1077194927  1312150642  -863742051  -798424135   287567296 -1370769964   932853986
#
#      Author: C. J. Pickard (cjp20@cam.ac.uk)
#                Space group: P21/m
#

%BLOCK LATTICE_ABC
      5.24428      5.33418      5.73093
     93.60199     90.00000     90.00000
%ENDBLOCK LATTICE_ABC

%BLOCK POSITIONS_FRAC
  Li   0.2500000   0.2181484   0.0175611 SPIN=   0.00000
  Li  -0.2500000  -0.2181484  -0.0175611 SPIN=   0.00000
   O  -0.0145061   0.0189488  -0.2530095 SPIN=   0.00000
   O  -0.0010614  -0.4629464  -0.2106270 SPIN=   0.00000
   O   0.4854939  -0.0189488   0.2530095 SPIN=   0.00000
   O   0.4989386   0.4629464   0.2106270 SPIN=   0.00000
   O   0.0145061  -0.0189488   0.2530095 SPIN=   0.00000
   O   0.0010614   0.4629464   0.2106270 SPIN=   0.00000
   O  -0.4854939   0.0189488  -0.2530095 SPIN=   0.00000
   O  -0.4989386  -0.4629464  -0.2106270 SPIN=   0.00000
   P   0.2500000  -0.2724334   0.1013063 SPIN=   0.00000
   P  -0.2500000   0.2724334  -0.1013063 SPIN=   0.00000
  Fe  -0.2500000   0.2428355   0.3969642 SPIN=   4.00000
  Fe   0.2500000  -0.2428355  -0.3969642 SPIN=   4.00000
%ENDBLOCK POSITIONS_FRAC

# Note: total spin =   8.00

KPOINTS_MP_SPACING 0.07

%BLOCK SPECIES_POT
QC5
%ENDBLOCK SPECIES_POT

%BLOCK HUBBARD_U
Fe d:4.0
%ENDBLOCK HUBBARD_U

SNAP_TO_SYMMETRY
SYMMETRY_GENERATE

