#              Generated by Buildcell
#
# at 00:34:37 (GMT+0.0) 24th November 2020
# in /scratch/scratch/uccabz1/launch_tmp
# on node-k10h-028
# by uccabz1
#
# compiler GCC version 4.9.2
# options -cpp -iprefix /scratch/UCL/applications/gcc/4.9.2/bin/../lib/gcc/x86_64-unknown-linux-gnu/4.9.2/ -mtune=corei7 -march=x86-64 -g -O2
#
# seed   -87925830  1190620078  1691398183   178318308  -396526098 -2019709225   878243523  2042187331 -1190170526 -1880454279  2135550576 -1648997042
#
#      Author: C. J. Pickard (cjp20@cam.ac.uk)
#                Space group: P21
#

%BLOCK LATTICE_ABC
      5.05256      5.79040      5.92406
     90.00000     90.00000    112.60619
%ENDBLOCK LATTICE_ABC

%BLOCK POSITIONS_FRAC
  Li  -0.0482663   0.4263407  -0.3183818 SPIN=   0.00000
  Li   0.0482663  -0.4263407   0.1816182 SPIN=   0.00000
   O   0.1005714   0.2418597   0.2741329 SPIN=   0.00000
   O   0.5960219   0.2061876   0.2390032 SPIN=   0.00000
   O   0.2973768   0.1434506  -0.1033558 SPIN=   0.00000
   O   0.5259556   0.5721795   0.0636947 SPIN=   0.00000
   P   0.3668269   0.2916264   0.1260172 SPIN=   0.00000
   O  -0.1005714  -0.2418597  -0.2258671 SPIN=   0.00000
   O  -0.5960219  -0.2061876  -0.2609968 SPIN=   0.00000
   O  -0.2973768  -0.1434506  -0.6033558 SPIN=   0.00000
   O  -0.5259556  -0.5721795  -0.4363053 SPIN=   0.00000
   P  -0.3668269  -0.2916264  -0.3739828 SPIN=   0.00000
  Fe  -0.2661967  -0.0367727   0.0522995 SPIN=   4.00000
  Fe   0.2661967   0.0367727  -0.4477005 SPIN=   4.00000
%ENDBLOCK POSITIONS_FRAC

# Note: total spin =   8.00

KPOINTS_MP_SPACING 0.07

%BLOCK SPECIES_POT
QC5
%ENDBLOCK SPECIES_POT

%BLOCK HUBBARD_U
Fe d:4.0
%ENDBLOCK HUBBARD_U

SNAP_TO_SYMMETRY
SYMMETRY_GENERATE

