#              Generated by Buildcell
#
# at 05:56:56 (GMT+0.0) 24th November 2020
# in /lustre/scratch/uccabz1/launch_tmp
# on node-c12b-020
# by uccabz1
#
# compiler GCC version 4.9.2
# options -cpp -iprefix /lustre/shared/ucl/apps/gcc/4.9.2/bin/../lib/gcc/x86_64-unknown-linux-gnu/4.9.2/ -mtune=corei7 -march=x86-64 -g -Og
#
# seed  1638819820 -2120809841 -1034206240  -701408272   272648228   -35078426  -346802737  -564501140  -326633966   359595472  1253342403   273939032
#
#      Author: C. J. Pickard (cjp20@cam.ac.uk)
#                Space group: C2
#

%BLOCK LATTICE_ABC
      4.82361      6.22555      6.29174
    111.63454    112.54001     90.00000
%ENDBLOCK LATTICE_ABC

%BLOCK POSITIONS_FRAC
  Li   0.1047618  -0.2236742  -0.2372566 SPIN=   0.00000
  Li   0.3420183   0.2236742   0.2372566 SPIN=   0.00000
   O   0.7294482  -0.4107485   0.3810856 SPIN=   0.00000
   O   0.3946643  -0.1006041   0.2925046 SPIN=   0.00000
   O   0.1429659  -0.4750551   0.2366606 SPIN=   0.00000
   O   0.4720650  -0.1839716   0.6697649 SPIN=   0.00000
   P   0.4509151  -0.2976040   0.3975053 SPIN=   0.00000
   O   0.3483626   0.4107485  -0.3810856 SPIN=   0.00000
   O   0.1021597   0.1006041  -0.2925046 SPIN=   0.00000
   O  -0.0936947   0.4750551  -0.2366606 SPIN=   0.00000
   O  -0.1976999   0.1839716  -0.6697649 SPIN=   0.00000
   P   0.0534098   0.2976040  -0.3975053 SPIN=   0.00000
  Fe  -0.3580446   0.1681763  -0.2202175 SPIN=   4.00000
  Fe  -0.1378272  -0.1681763   0.2202175 SPIN=   4.00000
%ENDBLOCK POSITIONS_FRAC

# Note: total spin =   8.00

KPOINTS_MP_SPACING 0.07

%BLOCK SPECIES_POT
QC5
%ENDBLOCK SPECIES_POT

%BLOCK HUBBARD_U
Fe d:4.0
%ENDBLOCK HUBBARD_U

SNAP_TO_SYMMETRY
SYMMETRY_GENERATE

