#              Generated by Buildcell
#
# at 00:25:13 (GMT+0.0) 24th November 2020
# in /lustre/scratch/uccabz1/launch_tmp
# on node-c12i-035
# by uccabz1
#
# compiler GCC version 4.9.2
# options -cpp -iprefix /lustre/shared/ucl/apps/gcc/4.9.2/bin/../lib/gcc/x86_64-unknown-linux-gnu/4.9.2/ -mtune=corei7 -march=x86-64 -g -Og
#
# seed  -361674037 -1298283059  1685867598  1478390270  1394591753  1725907334  1610142291  -193496893 -1042570021  1919539400 -2143405794 -1137631750
#
#      Author: C. J. Pickard (cjp20@cam.ac.uk)
#                Space group: Pnc2
#

%BLOCK LATTICE_ABC
      3.88467      5.31232      7.75322
     90.00000     90.00000     90.00000
%ENDBLOCK LATTICE_ABC

%BLOCK POSITIONS_FRAC
  Li   0.0000000  -0.0000000   0.0996967 SPIN=   0.00000
  Li  -0.0000000   0.5000000  -0.4003033 SPIN=   0.00000
   O   0.5588930   0.2281273   0.1475487 SPIN=   0.00000
   O   0.1427807   0.2209080  -0.1147432 SPIN=   0.00000
   O  -0.5588930  -0.2281273   0.1475487 SPIN=   0.00000
   O  -0.1427807  -0.2209080  -0.1147432 SPIN=   0.00000
   O   0.5588930   0.2718727  -0.3524513 SPIN=   0.00000
   O   0.1427807   0.2790920  -0.6147432 SPIN=   0.00000
   O  -0.5588930  -0.2718727  -0.3524513 SPIN=   0.00000
   O  -0.1427807  -0.2790920  -0.6147432 SPIN=   0.00000
   P  -0.5000000  -0.5000000   0.3215706 SPIN=   0.00000
   P   0.5000000  -0.0000000  -0.1784294 SPIN=   0.00000
  Fe  -0.5000000   0.5000000  -0.0465513 SPIN=   4.00000
  Fe   0.5000000  -0.0000000   0.4534487 SPIN=   4.00000
%ENDBLOCK POSITIONS_FRAC

# Note: total spin =   8.00

KPOINTS_MP_SPACING 0.07

%BLOCK SPECIES_POT
QC5
%ENDBLOCK SPECIES_POT

%BLOCK HUBBARD_U
Fe d:4.0
%ENDBLOCK HUBBARD_U

SNAP_TO_SYMMETRY
SYMMETRY_GENERATE

