#              Generated by Buildcell
#
# at 23:34:40 (GMT+0.0) 23rd November 2020
# in /lustre/scratch/uccabz1/launch_tmp
# on node-c12d-031
# by uccabz1
#
# compiler GCC version 4.9.2
# options -cpp -iprefix /lustre/shared/ucl/apps/gcc/4.9.2/bin/../lib/gcc/x86_64-unknown-linux-gnu/4.9.2/ -mtune=corei7 -march=x86-64 -g -Og
#
# seed    91007030 -1756655552  2061470791  -577662062  1340103251  1869010727 -1938625053   884903409  2037915559  -242814479  1992934606   151560211
#
#      Author: C. J. Pickard (cjp20@cam.ac.uk)
#                Space group: P-1
#

%BLOCK LATTICE_ABC
      4.56660      6.06037      6.07665
     91.95344     95.29340    106.77995
%ENDBLOCK LATTICE_ABC

%BLOCK POSITIONS_FRAC
  Li  -0.0000000  -0.5000000  -0.5000000 SPIN=   0.00000
  Li   0.0000000   0.5000000   0.0000000 SPIN=   0.00000
   O   0.5920196   0.2094179   0.4730569 SPIN=   0.00000
   O   0.6286184   0.2069864   0.0488928 SPIN=   0.00000
   O   0.1132227   0.1044167   0.1804155 SPIN=   0.00000
   O   0.4495592   0.5138429   0.2321472 SPIN=   0.00000
   P   0.4536813   0.2590551   0.2463590 SPIN=   0.00000
   O  -0.5920196  -0.2094179  -0.4730569 SPIN=   0.00000
   O  -0.6286184  -0.2069864  -0.0488928 SPIN=   0.00000
   O  -0.1132227  -0.1044167  -0.1804155 SPIN=   0.00000
   O  -0.4495592  -0.5138429  -0.2321472 SPIN=   0.00000
   P  -0.4536813  -0.2590551  -0.2463590 SPIN=   0.00000
  Fe  -0.3108605  -0.1327344   0.2463250 SPIN=   4.00000
  Fe   0.3108605   0.1327344  -0.2463250 SPIN=   4.00000
%ENDBLOCK POSITIONS_FRAC

# Note: total spin =   8.00

KPOINTS_MP_SPACING 0.07

%BLOCK SPECIES_POT
QC5
%ENDBLOCK SPECIES_POT

%BLOCK HUBBARD_U
Fe d:4.0
%ENDBLOCK HUBBARD_U

SNAP_TO_SYMMETRY
SYMMETRY_GENERATE

