#              Generated by Buildcell
#
# at 00:35:24 (GMT+0.0) 24th November 2020
# in /lustre/scratch/uccabz1/launch_tmp
# on node-c12i-035
# by uccabz1
#
# compiler GCC version 4.9.2
# options -cpp -iprefix /lustre/shared/ucl/apps/gcc/4.9.2/bin/../lib/gcc/x86_64-unknown-linux-gnu/4.9.2/ -mtune=corei7 -march=x86-64 -g -Og
#
# seed   142751129 -1783295160   789744073  -728165401  2030670927  1909640229  -356321477 -1659187673 -1202595647 -1852983862 -1746008892   672244612
#
#      Author: C. J. Pickard (cjp20@cam.ac.uk)
#                Space group: Pmn21
#

%BLOCK LATTICE_ABC
      4.36103      5.60650      6.54393
     90.00000     90.00000     90.00000
%ENDBLOCK LATTICE_ABC

%BLOCK POSITIONS_FRAC
  Li  -0.1996378   0.0000000   0.4470946 SPIN=   0.00000
  Li   0.1996378  -0.5000000  -0.0529054 SPIN=   0.00000
   O   0.0778284   0.2183329   0.2500975 SPIN=   0.00000
   O   0.4353907   0.2175021   0.5676548 SPIN=   0.00000
   O  -0.0778284   0.2816671  -0.2499025 SPIN=   0.00000
   O  -0.4353907   0.2824979   0.0676548 SPIN=   0.00000
   O  -0.0778284  -0.2816671  -0.2499025 SPIN=   0.00000
   O  -0.4353907  -0.2824979   0.0676548 SPIN=   0.00000
   O   0.0778284  -0.2183329   0.2500975 SPIN=   0.00000
   O   0.4353907  -0.2175021   0.5676548 SPIN=   0.00000
   P   0.3027298   0.0000000   0.2172247 SPIN=   0.00000
   P  -0.3027298  -0.5000000  -0.2827753 SPIN=   0.00000
  Fe  -0.1940065   0.0000000  -0.0579788 SPIN=   4.00000
  Fe   0.1940065  -0.5000000   0.4420212 SPIN=   4.00000
%ENDBLOCK POSITIONS_FRAC

# Note: total spin =   8.00

KPOINTS_MP_SPACING 0.07

%BLOCK SPECIES_POT
QC5
%ENDBLOCK SPECIES_POT

%BLOCK HUBBARD_U
Fe d:4.0
%ENDBLOCK HUBBARD_U

SNAP_TO_SYMMETRY
SYMMETRY_GENERATE

