#              Generated by Buildcell
#
# at 01:47:49 (GMT+0.0) 24th November 2020
# in /lustre/scratch/uccabz1/launch_tmp
# on node-c12l-027
# by uccabz1
#
# compiler GCC version 4.9.2
# options -cpp -iprefix /lustre/shared/ucl/apps/gcc/4.9.2/bin/../lib/gcc/x86_64-unknown-linux-gnu/4.9.2/ -mtune=corei7 -march=x86-64 -g -Og
#
# seed  2029739491  1441598411  -647659220  -323312681  -847318582  1694437697   346136909   186060074 -1153115329   234599883  -436169202  1748001224
#
#      Author: C. J. Pickard (cjp20@cam.ac.uk)
#                Space group: Pnn2
#

%BLOCK LATTICE_ABC
      4.56029      5.30010      6.61977
     90.00000     90.00000     90.00000
%ENDBLOCK LATTICE_ABC

%BLOCK POSITIONS_FRAC
  Li   0.0000000   0.0000000  -0.0666327 SPIN=   0.00000
  Li  -0.5000000  -0.5000000   0.4333673 SPIN=   0.00000
   O  -0.2018274  -0.3037943  -0.2503976 SPIN=   0.00000
   O   0.3137274  -0.1692013  -0.3779982 SPIN=   0.00000
   O   0.2018274   0.3037943  -0.2503976 SPIN=   0.00000
   O  -0.3137274   0.1692013  -0.3779982 SPIN=   0.00000
   O  -0.7018274  -0.1962057   0.2496024 SPIN=   0.00000
   O  -0.1862726  -0.3307987   0.1220018 SPIN=   0.00000
   O   0.7018274   0.1962057   0.2496024 SPIN=   0.00000
   O   0.1862726   0.3307987   0.1220018 SPIN=   0.00000
   P   0.5000000   0.0000000   0.1490489 SPIN=   0.00000
   P  -0.0000000  -0.5000000  -0.3509511 SPIN=   0.00000
  Fe   0.0000000   0.0000000   0.4333673 SPIN=   4.00000
  Fe  -0.5000000  -0.5000000  -0.0666327 SPIN=   4.00000
%ENDBLOCK POSITIONS_FRAC

# Note: total spin =   8.00

KPOINTS_MP_SPACING 0.07

%BLOCK SPECIES_POT
QC5
%ENDBLOCK SPECIES_POT

%BLOCK HUBBARD_U
Fe d:4.0
%ENDBLOCK HUBBARD_U

SNAP_TO_SYMMETRY
SYMMETRY_GENERATE

