#              Generated by Buildcell
#
# at 05:28:44 (GMT+0.0) 24th November 2020
# in /lustre/scratch/uccabz1/launch_tmp
# on node-c12k-030
# by uccabz1
#
# compiler GCC version 4.9.2
# options -cpp -iprefix /lustre/shared/ucl/apps/gcc/4.9.2/bin/../lib/gcc/x86_64-unknown-linux-gnu/4.9.2/ -mtune=corei7 -march=x86-64 -g -Og
#
# seed   671020910   426570365  2031307119 -1585358491 -2147472766  1400332664  -259485100 -1992414123   -95843921  -159026154 -1202165319  -617079313
#
#      Author: C. J. Pickard (cjp20@cam.ac.uk)
#                Space group: Fdd2
#

%BLOCK LATTICE_ABC
      5.35094      5.35094      6.67340
    111.46905    111.46905     94.99643
%ENDBLOCK LATTICE_ABC

%BLOCK POSITIONS_FRAC
  Li   0.1526985   0.1526985   0.3053970 SPIN=   0.00000
  Li   0.4026985  -0.0973015  -0.1946030 SPIN=   0.00000
   O   0.4702603  -0.4900619  -0.3586580 SPIN=   0.00000
   O   0.0004262  -0.3546050  -0.4381051 SPIN=   0.00000
   O   0.1710817   0.1314039  -0.3586580 SPIN=   0.00000
   O   0.5614686  -0.0835001  -0.4381051 SPIN=   0.00000
   O   0.3814039  -0.0789183   0.1413420 SPIN=   0.00000
   O   0.1664999   0.3114686   0.0618949 SPIN=   0.00000
   O  -0.2400619   0.2202603   0.1413420 SPIN=   0.00000
   O  -0.1046050  -0.2495738   0.0618949 SPIN=   0.00000
   P  -0.0862122  -0.0862122  -0.1724245 SPIN=   0.00000
   P   0.1637878  -0.3362122   0.3275755 SPIN=   0.00000
  Fe  -0.1752934   0.3247066  -0.3505868 SPIN=   4.00000
  Fe  -0.4252934  -0.4252934   0.1494132 SPIN=   4.00000
%ENDBLOCK POSITIONS_FRAC

# Note: total spin =   8.00

KPOINTS_MP_SPACING 0.07

%BLOCK SPECIES_POT
QC5
%ENDBLOCK SPECIES_POT

%BLOCK HUBBARD_U
Fe d:4.0
%ENDBLOCK HUBBARD_U

SNAP_TO_SYMMETRY
SYMMETRY_GENERATE

