#              Generated by Buildcell
#
# at 03:23:01 (GMT+0.0) 24th November 2020
# in /lustre/scratch/uccabz1/launch_tmp
# on node-c12c-023
# by uccabz1
#
# compiler GCC version 4.9.2
# options -cpp -iprefix /lustre/shared/ucl/apps/gcc/4.9.2/bin/../lib/gcc/x86_64-unknown-linux-gnu/4.9.2/ -mtune=corei7 -march=x86-64 -g -Og
#
# seed -2111297116 -1428740857   449620303  -979568585  1637583418  -211360933  1962063898 -1049291974 -1520280634  1498063402   839870718 -2014911459
#
#      Author: C. J. Pickard (cjp20@cam.ac.uk)
#                Space group: P21
#

%BLOCK LATTICE_ABC
      3.99075      6.26904      6.39584
     90.00000     90.70870     90.00000
%ENDBLOCK LATTICE_ABC

%BLOCK POSITIONS_FRAC
  Li  -0.0528302   0.1990166  -0.4497804 SPIN=   0.00000
  Li   0.0528302  -0.3009834   0.4497804 SPIN=   0.00000
   O  -0.6234659   0.0057417   0.5433772 SPIN=   0.00000
   O  -0.1057330  -0.0201052   0.3023739 SPIN=   0.00000
   O  -0.6106270  -0.2287978   0.2086704 SPIN=   0.00000
   O  -0.6205175   0.1689418   0.1725934 SPIN=   0.00000
   P  -0.4987269  -0.0150485   0.3177695 SPIN=   0.00000
   O   0.6234659   0.5057417  -0.5433772 SPIN=   0.00000
   O   0.1057330   0.4798948  -0.3023739 SPIN=   0.00000
   O   0.6106270   0.2712022  -0.2086704 SPIN=   0.00000
   O   0.6205175   0.6689418  -0.1725934 SPIN=   0.00000
   P   0.4987269   0.4849515  -0.3177695 SPIN=   0.00000
  Fe  -0.2469488   0.3842677   0.0871573 SPIN=   4.00000
  Fe   0.2469488  -0.1157323  -0.0871573 SPIN=   4.00000
%ENDBLOCK POSITIONS_FRAC

# Note: total spin =   8.00

KPOINTS_MP_SPACING 0.07

%BLOCK SPECIES_POT
QC5
%ENDBLOCK SPECIES_POT

%BLOCK HUBBARD_U
Fe d:4.0
%ENDBLOCK HUBBARD_U

SNAP_TO_SYMMETRY
SYMMETRY_GENERATE

