#              Generated by Buildcell
#
# at 04:00:03 (GMT+0.0) 24th November 2020
# in /lustre/scratch/uccabz1/launch_tmp
# on node-c12a-033
# by uccabz1
#
# compiler GCC version 4.9.2
# options -cpp -iprefix /lustre/shared/ucl/apps/gcc/4.9.2/bin/../lib/gcc/x86_64-unknown-linux-gnu/4.9.2/ -mtune=corei7 -march=x86-64 -g -Og
#
# seed -1817097122  2025695171  1818636551  1925248315  2118381780 -1012550832  -841988936     7367390  1687380219  1152157562  1591491798 -1462247086
#
#      Author: C. J. Pickard (cjp20@cam.ac.uk)
#                Space group: P-1
#

%BLOCK LATTICE_ABC
      3.83569      4.58262      9.21897
     90.34380     97.62773     94.90462
%ENDBLOCK LATTICE_ABC

%BLOCK POSITIONS_FRAC
  Li   0.5000000   0.0000000  -0.5000000 SPIN=   0.00000
  Li  -0.5000000   0.0000000   0.0000000 SPIN=   0.00000
   O   0.3802043  -0.1251411  -0.2944995 SPIN=   0.00000
   O  -0.0792127   0.0264046  -0.1313562 SPIN=   0.00000
   O   0.0980932   0.3708645  -0.3187779 SPIN=   0.00000
   P   0.0458740   0.0341565  -0.2871238 SPIN=   0.00000
   O  -0.3802043   0.1251411   0.2944995 SPIN=   0.00000
   O   0.0792127  -0.0264046   0.1313562 SPIN=   0.00000
   O  -0.0980932  -0.3708645   0.3187779 SPIN=   0.00000
   P  -0.0458740  -0.0341565   0.2871238 SPIN=   0.00000
   O   0.0000000  -0.5000000   0.0000000 SPIN=   0.00000
   O   0.5000000   0.5000000  -0.5000000 SPIN=   0.00000
  Fe  -0.3615516  -0.4965830  -0.2393658 SPIN=   4.00000
  Fe   0.3615516   0.4965830   0.2393658 SPIN=   4.00000
%ENDBLOCK POSITIONS_FRAC

# Note: total spin =   8.00

KPOINTS_MP_SPACING 0.07

%BLOCK SPECIES_POT
QC5
%ENDBLOCK SPECIES_POT

%BLOCK HUBBARD_U
Fe d:4.0
%ENDBLOCK HUBBARD_U

SNAP_TO_SYMMETRY
SYMMETRY_GENERATE

