#              Generated by Buildcell
#
# at 03:29:02 (GMT+0.0) 24th November 2020
# in /lustre/scratch/uccabz1/launch_tmp
# on node-c12b-026
# by uccabz1
#
# compiler GCC version 4.9.2
# options -cpp -iprefix /lustre/shared/ucl/apps/gcc/4.9.2/bin/../lib/gcc/x86_64-unknown-linux-gnu/4.9.2/ -mtune=corei7 -march=x86-64 -g -Og
#
# seed  1921071702  -643224226  -465383439  -194088625   916520600 -1941179905   810798515 -1596793966  2146323591  1248806111 -2001207958   846518678
#
#      Author: C. J. Pickard (cjp20@cam.ac.uk)
#                Space group: P2/c
#

%BLOCK LATTICE_ABC
      4.19863      5.12084      7.83964
    108.33435     90.00000     90.00000
%ENDBLOCK LATTICE_ABC

%BLOCK POSITIONS_FRAC
  Li   0.4991483   0.0000000   0.2500000 SPIN=   0.00000
  Li  -0.4991483  -0.0000000  -0.2500000 SPIN=   0.00000
   O  -0.0955828   0.2145500  -0.1142047 SPIN=   0.00000
   O  -0.3587322   0.2488031  -0.4063548 SPIN=   0.00000
   O  -0.0955828  -0.2145500  -0.3857953 SPIN=   0.00000
   O  -0.3587322  -0.2488031  -0.0936452 SPIN=   0.00000
   O   0.0955828  -0.2145500   0.1142047 SPIN=   0.00000
   O   0.3587322  -0.2488031   0.4063548 SPIN=   0.00000
   O   0.0955828   0.2145500   0.3857953 SPIN=   0.00000
   O   0.3587322   0.2488031   0.0936452 SPIN=   0.00000
   P  -0.5000000   0.5000000  -0.0000000 SPIN=   0.00000
   P  -0.5000000  -0.5000000  -0.5000000 SPIN=   0.00000
  Fe   0.0006385  -0.5000000  -0.2500000 SPIN=   4.00000
  Fe  -0.0006385  -0.5000000   0.2500000 SPIN=   4.00000
%ENDBLOCK POSITIONS_FRAC

# Note: total spin =   8.00

KPOINTS_MP_SPACING 0.07

%BLOCK SPECIES_POT
QC5
%ENDBLOCK SPECIES_POT

%BLOCK HUBBARD_U
Fe d:4.0
%ENDBLOCK HUBBARD_U

SNAP_TO_SYMMETRY
SYMMETRY_GENERATE

