#              Generated by Buildcell
#
# at 22:56:42 (GMT+0.0) 23rd November 2020
# in /lustre/scratch/uccabz1/launch_tmp
# on node-c12n-026
# by uccabz1
#
# compiler GCC version 4.9.2
# options -cpp -iprefix /lustre/shared/ucl/apps/gcc/4.9.2/bin/../lib/gcc/x86_64-unknown-linux-gnu/4.9.2/ -mtune=corei7 -march=x86-64 -g -Og
#
# seed -1096346425 -1296517111   375425855 -1988348916  -725725904   307374077   215081158  -752733295   444036050  -257783569  1195705791  1777730374
#
#      Author: C. J. Pickard (cjp20@cam.ac.uk)
#                Space group: C2
#

%BLOCK LATTICE_ABC
      4.52887      5.60098      7.49108
    110.92497     90.00000    113.84681
%ENDBLOCK LATTICE_ABC

%BLOCK POSITIONS_FRAC
  Li  -0.1793744  -0.4169384  -0.1022276 SPIN=   0.00000
  Li   0.2375639   0.4169384   0.1022276 SPIN=   0.00000
   O   0.0030450   0.3228897  -0.4480042 SPIN=   0.00000
   O   0.4719170   0.2285651  -0.3338059 SPIN=   0.00000
   O   0.3792247   0.6303403  -0.1114791 SPIN=   0.00000
   O  -0.0290731   0.1331351  -0.1774652 SPIN=   0.00000
   P   0.1926798   0.3261132  -0.2762248 SPIN=   0.00000
   O  -0.3198447  -0.3228897   0.4480042 SPIN=   0.00000
   O   0.2433519  -0.2285651   0.3338059 SPIN=   0.00000
   O  -0.2511156  -0.6303403   0.1114791 SPIN=   0.00000
   O  -0.1622083  -0.1331351   0.1774652 SPIN=   0.00000
   P  -0.1334333  -0.3261132   0.2762248 SPIN=   0.00000
  Fe   0.4684891   0.8819471  -0.2821882 SPIN=   4.00000
  Fe  -0.4134580  -0.8819471   0.2821882 SPIN=   4.00000
%ENDBLOCK POSITIONS_FRAC

# Note: total spin =   8.00

KPOINTS_MP_SPACING 0.07

%BLOCK SPECIES_POT
QC5
%ENDBLOCK SPECIES_POT

%BLOCK HUBBARD_U
Fe d:4.0
%ENDBLOCK HUBBARD_U

SNAP_TO_SYMMETRY
SYMMETRY_GENERATE

