#              Generated by Buildcell
#
# at 04:52:45 (GMT+0.0) 24th November 2020
# in /scratch/scratch/uccabz1/launch_tmp
# on node-k10a-022
# by uccabz1
#
# compiler GCC version 4.9.2
# options -cpp -iprefix /scratch/UCL/applications/gcc/4.9.2/bin/../lib/gcc/x86_64-unknown-linux-gnu/4.9.2/ -mtune=corei7 -march=x86-64 -g -O2
#
# seed   -38222024  1900874514   362458705   -26546186    18399406   896868989  -148465944 -1582318777  1204244034 -1585762272  1238788686  1301004979
#
#      Author: C. J. Pickard (cjp20@cam.ac.uk)
#                Space group: Imm2
#

%BLOCK LATTICE_ABC
      5.25360      5.82075      6.53806
    116.43250    113.68892     90.00000
%ENDBLOCK LATTICE_ABC

%BLOCK POSITIONS_FRAC
  Li   0.2278979   0.0000000  -0.0000000 SPIN=   0.00000
  Li   0.3961589  -0.5000000  -0.0000000 SPIN=   0.00000
   O  -0.2084256  -0.0968523   0.2362462 SPIN=   0.00000
   O   0.3107804  -0.0948874   0.2941731 SPIN=   0.00000
   O  -0.4446717   0.0968523  -0.2362462 SPIN=   0.00000
   O   0.0166074   0.0948874  -0.2941731 SPIN=   0.00000
   O  -0.2084256   0.3330985   0.2362462 SPIN=   0.00000
   O   0.3107804   0.3890604   0.2941731 SPIN=   0.00000
   O  -0.4446717  -0.3330985  -0.2362462 SPIN=   0.00000
   O   0.0166074  -0.3890604  -0.2941731 SPIN=   0.00000
   P   0.0889874   0.1951096   0.3902192 SPIN=   0.00000
   P  -0.3012318  -0.1951096  -0.3902192 SPIN=   0.00000
  Fe  -0.3005302   0.3055894   0.6111787 SPIN=   4.00000
  Fe   0.0882911  -0.3055894  -0.6111787 SPIN=   4.00000
%ENDBLOCK POSITIONS_FRAC

# Note: total spin =   8.00

KPOINTS_MP_SPACING 0.07

%BLOCK SPECIES_POT
QC5
%ENDBLOCK SPECIES_POT

%BLOCK HUBBARD_U
Fe d:4.0
%ENDBLOCK HUBBARD_U

SNAP_TO_SYMMETRY
SYMMETRY_GENERATE

