#              Generated by Buildcell
#
# at 03:06:59 (GMT+0.0) 24th November 2020
# in /scratch/scratch/uccabz1/launch_tmp
# on node-k10h-028
# by uccabz1
#
# compiler GCC version 4.9.2
# options -cpp -iprefix /scratch/UCL/applications/gcc/4.9.2/bin/../lib/gcc/x86_64-unknown-linux-gnu/4.9.2/ -mtune=corei7 -march=x86-64 -g -O2
#
# seed   866230550   648145358  1742812951   -38508722  1276690181  -289875152  -814969303  -467665737 -1768502256 -2131470015 -1592321459  1700392720
#
#      Author: C. J. Pickard (cjp20@cam.ac.uk)
#                Space group: Pcc2
#

%BLOCK LATTICE_ABC
      3.92500      5.19838      7.84174
     90.00000     90.00000     90.00000
%ENDBLOCK LATTICE_ABC

%BLOCK POSITIONS_FRAC
  Li   0.5000000   0.0000000   0.1027164 SPIN=   0.00000
  Li  -0.5000000   0.0000000  -0.3972836 SPIN=   0.00000
   O   0.2972308   0.1949649   0.3160997 SPIN=   0.00000
   O   0.2156356   0.3193442  -0.0021798 SPIN=   0.00000
   O  -0.2972308  -0.1949649   0.3160997 SPIN=   0.00000
   O  -0.2156356  -0.3193442  -0.0021798 SPIN=   0.00000
   O  -0.2972308   0.1949649  -0.1839003 SPIN=   0.00000
   O  -0.2156356   0.3193442  -0.5021798 SPIN=   0.00000
   O   0.2972308  -0.1949649  -0.1839003 SPIN=   0.00000
   O   0.2156356  -0.3193442  -0.5021798 SPIN=   0.00000
   P   0.0000000   0.0000000  -0.1319169 SPIN=   0.00000
   P  -0.0000000   0.0000000   0.3680831 SPIN=   0.00000
  Fe  -0.0000000  -0.5000000  -0.2871130 SPIN=   4.00000
  Fe   0.0000000  -0.5000000   0.2128870 SPIN=   4.00000
%ENDBLOCK POSITIONS_FRAC

# Note: total spin =   8.00

KPOINTS_MP_SPACING 0.07

%BLOCK SPECIES_POT
QC5
%ENDBLOCK SPECIES_POT

%BLOCK HUBBARD_U
Fe d:4.0
%ENDBLOCK HUBBARD_U

SNAP_TO_SYMMETRY
SYMMETRY_GENERATE

