#              Generated by Buildcell
#
# at 05:16:09 (GMT+0.0) 24th November 2020
# in /lustre/scratch/uccabz1/launch_tmp
# on node-c12f-020
# by uccabz1
#
# compiler GCC version 4.9.2
# options -cpp -iprefix /lustre/shared/ucl/apps/gcc/4.9.2/bin/../lib/gcc/x86_64-unknown-linux-gnu/4.9.2/ -mtune=corei7 -march=x86-64 -g -Og
#
# seed -1550374829  1658633407   148023077  -528308434  1668689425  1382077286 -1627456532  1290825810  -788263667 -1636749432   649226135   731429960
#
#      Author: C. J. Pickard (cjp20@cam.ac.uk)
#                Space group: Cc
#

%BLOCK LATTICE_ABC
      4.66648      5.97947      6.32459
     85.33982     68.35126     77.27753
%ENDBLOCK LATTICE_ABC

%BLOCK POSITIONS_FRAC
  Li  -0.1325729  -0.3632575   0.1370847 SPIN=   0.00000
  Li   0.0045118   0.1367425  -0.1370847 SPIN=   0.00000
   O   0.5947415   0.2263497   0.3197553 SPIN=   0.00000
   O   0.2927272   0.6411600   0.2906207 SPIN=   0.00000
   O   0.6522256   0.4380228  -0.0645411 SPIN=   0.00000
   O   0.1465264   0.3131084   0.1595203 SPIN=   0.00000
   P   0.4275308   0.3940857   0.1837766 SPIN=   0.00000
   O  -0.0855032  -0.2736503  -0.3197553 SPIN=   0.00000
   O  -0.4166521   0.1411600  -0.2906207 SPIN=   0.00000
   O  -0.4123155  -0.0619772   0.0645411 SPIN=   0.00000
   O  -0.6939533  -0.1868916  -0.1595203 SPIN=   0.00000
   P  -0.3886926  -0.1059143  -0.1837766 SPIN=   0.00000
  Fe   0.1516589  -0.0014818   0.3331374 SPIN=   4.00000
  Fe   0.4847963   0.4985182  -0.3331374 SPIN=   4.00000
%ENDBLOCK POSITIONS_FRAC

# Note: total spin =   8.00

KPOINTS_MP_SPACING 0.07

%BLOCK SPECIES_POT
QC5
%ENDBLOCK SPECIES_POT

%BLOCK HUBBARD_U
Fe d:4.0
%ENDBLOCK HUBBARD_U

SNAP_TO_SYMMETRY
SYMMETRY_GENERATE

