#              Generated by Buildcell
#
# at 02:03:10 (GMT+0.0) 24th November 2020
# in /lustre/scratch/uccabz1/launch_tmp
# on node-c12h-026
# by uccabz1
#
# compiler GCC version 4.9.2
# options -cpp -iprefix /lustre/shared/ucl/apps/gcc/4.9.2/bin/../lib/gcc/x86_64-unknown-linux-gnu/4.9.2/ -mtune=corei7 -march=x86-64 -g -Og
#
# seed  1359431428  -256360025 -1493238285  1789470399 -1796729243  -489161325   292102092  1797000435  1239144125   319031980 -1606245646   372139356
#
#      Author: C. J. Pickard (cjp20@cam.ac.uk)
#                Space group: P2
#

%BLOCK LATTICE_ABC
      4.21962      4.24447      8.93507
     91.06097     90.00000     90.00000
%ENDBLOCK LATTICE_ABC

%BLOCK POSITIONS_FRAC
  Li  -0.3333045  -0.0000000   0.0000000 SPIN=   0.00000
  Li   0.1684793   0.5000000   0.0000000 SPIN=   0.00000
   O   0.0081198   0.2239040   0.4141102 SPIN=   0.00000
   O   0.0716275   0.1024910   0.1296281 SPIN=   0.00000
   O   0.5219236  -0.0106373   0.2968846 SPIN=   0.00000
   P   0.1493849   0.0009539   0.2940145 SPIN=   0.00000
   O   0.0081198  -0.2239040  -0.4141102 SPIN=   0.00000
   O   0.0716275  -0.1024910  -0.1296281 SPIN=   0.00000
   O   0.5219236   0.0106373  -0.2968846 SPIN=   0.00000
   P   0.1493849  -0.0009539  -0.2940145 SPIN=   0.00000
   O   0.4906027   0.5000000  -0.5000000 SPIN=   0.00000
   O  -0.3316735   0.5000000   0.0000000 SPIN=   0.00000
  Fe  -0.3287771  -0.4882840   0.2825567 SPIN=   4.00000
  Fe  -0.3287771   0.4882840  -0.2825567 SPIN=   4.00000
%ENDBLOCK POSITIONS_FRAC

# Note: total spin =   8.00

KPOINTS_MP_SPACING 0.07

%BLOCK SPECIES_POT
QC5
%ENDBLOCK SPECIES_POT

%BLOCK HUBBARD_U
Fe d:4.0
%ENDBLOCK HUBBARD_U

SNAP_TO_SYMMETRY
SYMMETRY_GENERATE

