#              Generated by Buildcell
#
# at 03:51:46 (GMT+0.0) 24th November 2020
# in /lustre/scratch/uccabz1/launch_tmp
# on node-c12m-036
# by uccabz1
#
# compiler GCC version 4.9.2
# options -cpp -iprefix /lustre/shared/ucl/apps/gcc/4.9.2/bin/../lib/gcc/x86_64-unknown-linux-gnu/4.9.2/ -mtune=corei7 -march=x86-64 -g -Og
#
# seed -1161852097   696657089  1491347227  -742166391 -1881435473   671394445 -1436331486  -560642023  1608459292  1529283821   440867808   -65610399
#
#      Author: C. J. Pickard (cjp20@cam.ac.uk)
#                Space group: C2
#

%BLOCK LATTICE_ABC
      5.76532      5.76532      6.18428
    111.04508    117.18127     97.16918
%ENDBLOCK LATTICE_ABC

%BLOCK POSITIONS_FRAC
  Li   0.4852930   0.3995739   0.4170210 SPIN=   0.00000
  Li  -0.0174471   0.0682721  -0.4170210 SPIN=   0.00000
   O   0.5673725  -0.0267287   0.2674956 SPIN=   0.00000
   O   0.2284694  -0.4262646   0.2006939 SPIN=   0.00000
   O   0.6659588  -0.4613899   0.2365465 SPIN=   0.00000
   O   0.6814496  -0.1556156   0.6544144 SPIN=   0.00000
   O  -0.2942243   0.2998769  -0.2674956 SPIN=   0.00000
   O  -0.6269585   0.0277755  -0.2006939 SPIN=   0.00000
   O  -0.6979364   0.4294123  -0.2365465 SPIN=   0.00000
   O  -0.8100300   0.0270351  -0.6544144 SPIN=   0.00000
   P  -0.3290651  -0.3290651   0.0000000 SPIN=   0.00000
   P   0.4336284  -0.0663716   0.5000000 SPIN=   0.00000
  Fe   0.1497767  -0.2831202  -0.0856361 SPIN=   4.00000
  Fe  -0.1974841   0.2354128   0.0856361 SPIN=   4.00000
%ENDBLOCK POSITIONS_FRAC

# Note: total spin =   8.00

KPOINTS_MP_SPACING 0.07

%BLOCK SPECIES_POT
QC5
%ENDBLOCK SPECIES_POT

%BLOCK HUBBARD_U
Fe d:4.0
%ENDBLOCK HUBBARD_U

SNAP_TO_SYMMETRY
SYMMETRY_GENERATE

