#              Generated by Buildcell
#
# at 23:17:13 (GMT+0.0) 23rd November 2020
# in /lustre/scratch/uccabz1/launch_tmp
# on node-c12n-022
# by uccabz1
#
# compiler GCC version 4.9.2
# options -cpp -iprefix /lustre/shared/ucl/apps/gcc/4.9.2/bin/../lib/gcc/x86_64-unknown-linux-gnu/4.9.2/ -mtune=corei7 -march=x86-64 -g -Og
#
# seed   811421420  1241319476 -1498811301  -797708482   286334320 -1259761401   193918393  -249502654   100198820  1342791366   102174753  1151599429
#
#      Author: C. J. Pickard (cjp20@cam.ac.uk)
#                Space group: P2
#

%BLOCK LATTICE_ABC
      3.87419      5.32095      7.76169
     90.31187     90.00000     90.00000
%ENDBLOCK LATTICE_ABC

%BLOCK POSITIONS_FRAC
  Li  -0.2659787   0.2499664  -0.0931257 SPIN=   0.00000
  Li  -0.2659787  -0.2499664   0.0931257 SPIN=   0.00000
   O   0.0791478   0.0071232   0.2865473 SPIN=   0.00000
   O   0.2782836  -0.4305697   0.1747634 SPIN=   0.00000
   O   0.6010829  -0.2347131   0.4148282 SPIN=   0.00000
   P   0.2289871  -0.2508328   0.3344391 SPIN=   0.00000
   O   0.0791478  -0.0071232  -0.2865473 SPIN=   0.00000
   O   0.2782836   0.4305697  -0.1747634 SPIN=   0.00000
   O   0.6010829   0.2347131  -0.4148282 SPIN=   0.00000
   P   0.2289871   0.2508328  -0.3344391 SPIN=   0.00000
   O   0.0957827   0.5000000  -0.5000000 SPIN=   0.00000
   O   0.3556935  -0.0000000   0.0000000 SPIN=   0.00000
  Fe  -0.4979983   0.7502303  -0.3161832 SPIN=   4.00000
  Fe  -0.4979983  -0.7502303   0.3161832 SPIN=   4.00000
%ENDBLOCK POSITIONS_FRAC

# Note: total spin =   8.00

KPOINTS_MP_SPACING 0.07

%BLOCK SPECIES_POT
QC5
%ENDBLOCK SPECIES_POT

%BLOCK HUBBARD_U
Fe d:4.0
%ENDBLOCK HUBBARD_U

SNAP_TO_SYMMETRY
SYMMETRY_GENERATE

