#              Generated by Buildcell
#
# at 22:17:58 (GMT+0.0) 23rd November 2020
# in /lustre/scratch/uccabz1/launch_tmp
# on node-c12e-029
# by uccabz1
#
# compiler GCC version 4.9.2
# options -cpp -iprefix /lustre/shared/ucl/apps/gcc/4.9.2/bin/../lib/gcc/x86_64-unknown-linux-gnu/4.9.2/ -mtune=corei7 -march=x86-64 -g -Og
#
# seed  1642058603  -213697967 -1004178709 -1184463189  1854807363 -1489077719 -2129286531  -951657100 -1855047215 -1146141679  -385146813  1725250516
#
#      Author: C. J. Pickard (cjp20@cam.ac.uk)
#                Space group: Cm
#

%BLOCK LATTICE_ABC
      4.68106      6.00614      6.00614
     80.82074     77.66032     77.66032
%ENDBLOCK LATTICE_ABC

%BLOCK POSITIONS_FRAC
  Li  -0.3682732  -0.0204723  -0.0204723 SPIN=   0.00000
  Li  -0.3720164   0.4678774   0.4678774 SPIN=   0.00000
   O   0.1969548  -0.4329695   0.2553685 SPIN=   0.00000
   O   0.7402590  -0.3725352   0.0982159 SPIN=   0.00000
   O   0.5567738  -0.6586288  -0.0604045 SPIN=   0.00000
   P   0.4482451  -0.4241788   0.0440288 SPIN=   0.00000
   O   0.1969548   0.2553685  -0.4329695 SPIN=   0.00000
   O   0.7402590   0.0982159  -0.3725352 SPIN=   0.00000
   O   0.5567738  -0.0604045  -0.6586288 SPIN=   0.00000
   P   0.4482451   0.0440288  -0.4241788 SPIN=   0.00000
   O  -0.0713026   0.2191656   0.2191656 SPIN=   0.00000
   O   0.1602594  -0.1008461  -0.1008461 SPIN=   0.00000
  Fe   0.0462813  -0.1179431   0.3792901 SPIN=   4.00000
  Fe   0.0462813   0.3792901  -0.1179431 SPIN=   4.00000
%ENDBLOCK POSITIONS_FRAC

# Note: total spin =   8.00

KPOINTS_MP_SPACING 0.07

%BLOCK SPECIES_POT
QC5
%ENDBLOCK SPECIES_POT

%BLOCK HUBBARD_U
Fe d:4.0
%ENDBLOCK HUBBARD_U

SNAP_TO_SYMMETRY
SYMMETRY_GENERATE

