#              Generated by Buildcell
#
# at 04:35:35 (GMT+0.0) 24th November 2020
# in /lustre/scratch/uccabz1/launch_tmp
# on node-c12a-034
# by uccabz1
#
# compiler GCC version 4.9.2
# options -cpp -iprefix /lustre/shared/ucl/apps/gcc/4.9.2/bin/../lib/gcc/x86_64-unknown-linux-gnu/4.9.2/ -mtune=corei7 -march=x86-64 -g -Og
#
# seed  1067521376  -592414244  1086612300 -1825994891   799480200 -1089414799 -1764079532  -312376264  2107290644  1840630468 -1122307596  -460731157
#
#      Author: C. J. Pickard (cjp20@cam.ac.uk)
#                Space group: C2221
#

%BLOCK LATTICE_ABC
      5.26178      5.71822      5.93294
     90.00000    116.32346     90.00000
%ENDBLOCK LATTICE_ABC

%BLOCK POSITIONS_FRAC
  Li   0.2500490  -0.0000000  -0.4999020 SPIN=   0.00000
  Li  -0.2500490  -0.5000000   0.4999020 SPIN=   0.00000
   O  -0.0417443  -0.1723057   0.6284878 SPIN=   0.00000
   O  -0.1613288  -0.0849406   0.1623698 SPIN=   0.00000
   O   0.0417443   0.3276943  -0.6284878 SPIN=   0.00000
   O   0.1613288   0.4150594  -0.1623698 SPIN=   0.00000
   O  -0.6702320  -0.3276943  -0.6284878 SPIN=   0.00000
   O  -0.3236986  -0.4150594  -0.1623698 SPIN=   0.00000
   O   0.6702320   0.1723057   0.6284878 SPIN=   0.00000
   O   0.3236986   0.0849406   0.1623698 SPIN=   0.00000
   P  -0.3011997  -0.0000000   0.3976007 SPIN=   0.00000
   P   0.3011997  -0.5000000  -0.3976007 SPIN=   0.00000
  Fe  -0.2499830   0.2500000   0.0000000 SPIN=   4.00000
  Fe   0.2499830  -0.2500000  -0.0000000 SPIN=   4.00000
%ENDBLOCK POSITIONS_FRAC

# Note: total spin =   8.00

KPOINTS_MP_SPACING 0.07

%BLOCK SPECIES_POT
QC5
%ENDBLOCK SPECIES_POT

%BLOCK HUBBARD_U
Fe d:4.0
%ENDBLOCK HUBBARD_U

SNAP_TO_SYMMETRY
SYMMETRY_GENERATE

