#              Generated by Buildcell
#
# at 04:49:52 (GMT+0.0) 24th November 2020
# in /lustre/scratch/uccabz1/launch_tmp
# on node-c12g-032
# by uccabz1
#
# compiler GCC version 4.9.2
# options -cpp -iprefix /lustre/shared/ucl/apps/gcc/4.9.2/bin/../lib/gcc/x86_64-unknown-linux-gnu/4.9.2/ -mtune=corei7 -march=x86-64 -g -Og
#
# seed   -56135998 -1490398100  1514759630 -1063139567 -1542266789 -1219294523     4015096  1250914697  1037603489  -487444380 -1657954836  -737360525
#
#      Author: C. J. Pickard (cjp20@cam.ac.uk)
#                Space group: Cm
#

%BLOCK LATTICE_ABC
      5.41288      6.13246      6.13246
    104.80156    110.81056    110.81056
%ENDBLOCK LATTICE_ABC

%BLOCK POSITIONS_FRAC
  Li  -0.2968190   0.1977404   0.1977404 SPIN=   0.00000
  Li   0.4570625   0.7151850   0.7151850 SPIN=   0.00000
   O  -0.5077904  -0.6114326  -0.1258949 SPIN=   0.00000
   O  -0.1783590  -0.1155148   0.1701689 SPIN=   0.00000
   O  -0.0154847  -0.4058307   0.3148595 SPIN=   0.00000
   O   0.0249342  -0.3392331  -0.0599693 SPIN=   0.00000
   P  -0.1849139  -0.3806247   0.0625152 SPIN=   0.00000
   O  -0.5077904  -0.1258949  -0.6114326 SPIN=   0.00000
   O  -0.1783590   0.1701689  -0.1155148 SPIN=   0.00000
   O  -0.0154847   0.3148595  -0.4058307 SPIN=   0.00000
   O   0.0249342  -0.0599693  -0.3392331 SPIN=   0.00000
   P  -0.1849139   0.0625152  -0.3806247 SPIN=   0.00000
  Fe   0.2808935   0.4956162   0.1020122 SPIN=   4.00000
  Fe   0.2808935   0.1020122   0.4956162 SPIN=   4.00000
%ENDBLOCK POSITIONS_FRAC

# Note: total spin =   8.00

KPOINTS_MP_SPACING 0.07

%BLOCK SPECIES_POT
QC5
%ENDBLOCK SPECIES_POT

%BLOCK HUBBARD_U
Fe d:4.0
%ENDBLOCK HUBBARD_U

SNAP_TO_SYMMETRY
SYMMETRY_GENERATE

