#              Generated by Buildcell
#
# at 03:35:24 (GMT+0.0) 24th November 2020
# in /lustre/scratch/uccabz1/launch_tmp
# on node-c12i-033
# by uccabz1
#
# compiler GCC version 4.9.2
# options -cpp -iprefix /lustre/shared/ucl/apps/gcc/4.9.2/bin/../lib/gcc/x86_64-unknown-linux-gnu/4.9.2/ -mtune=corei7 -march=x86-64 -g -Og
#
# seed   890929652  -924840119   675329164  1634241741 -1799176154  1788211720  -880377935  1847330514   185935576 -1427368342   433631249 -1699785898
#
#      Author: C. J. Pickard (cjp20@cam.ac.uk)
#                Space group: P21
#

%BLOCK LATTICE_ABC
      3.91529      4.45518      9.48333
     90.00000     90.00000    104.70800
%ENDBLOCK LATTICE_ABC

%BLOCK POSITIONS_FRAC
  Li  -0.4174379  -0.2758440  -0.2865184 SPIN=   0.00000
  Li   0.4174379   0.2758440   0.2134816 SPIN=   0.00000
   O  -0.6733835   0.3560560  -0.0165219 SPIN=   0.00000
   O  -0.7104175   0.1236495  -0.2690058 SPIN=   0.00000
   O  -0.1313550   0.4306543  -0.1830478 SPIN=   0.00000
   O  -0.3965333  -0.0944692  -0.0800563 SPIN=   0.00000
   P  -0.4873692   0.2085484  -0.1300608 SPIN=   0.00000
   O   0.6733835  -0.3560560   0.4834781 SPIN=   0.00000
   O   0.7104175  -0.1236495   0.2309942 SPIN=   0.00000
   O   0.1313550  -0.4306543   0.3169522 SPIN=   0.00000
   O   0.3965333   0.0944692   0.4199437 SPIN=   0.00000
   P   0.4873692  -0.2085484   0.3699392 SPIN=   0.00000
  Fe   0.0373488  -0.3089108   0.0047350 SPIN=   4.00000
  Fe  -0.0373488   0.3089108  -0.4952650 SPIN=   4.00000
%ENDBLOCK POSITIONS_FRAC

# Note: total spin =   8.00

KPOINTS_MP_SPACING 0.07

%BLOCK SPECIES_POT
QC5
%ENDBLOCK SPECIES_POT

%BLOCK HUBBARD_U
Fe d:4.0
%ENDBLOCK HUBBARD_U

SNAP_TO_SYMMETRY
SYMMETRY_GENERATE

