#              Generated by Buildcell
#
# at 01:47:43 (GMT+0.0) 24th November 2020
# in /lustre/scratch/uccabz1/launch_tmp
# on node-c12f-022
# by uccabz1
#
# compiler GCC version 4.9.2
# options -cpp -iprefix /lustre/shared/ucl/apps/gcc/4.9.2/bin/../lib/gcc/x86_64-unknown-linux-gnu/4.9.2/ -mtune=corei7 -march=x86-64 -g -Og
#
# seed    15661295  1261358233  1598311823  2067843967 -1217714917   813609446  1489115173  1784735171  -557431472   -13943047 -1808310669  1700573416
#
#      Author: C. J. Pickard (cjp20@cam.ac.uk)
#                Space group: C2
#

%BLOCK LATTICE_ABC
      4.28635      6.31818      6.31818
     92.95364    103.99345    103.99345
%ENDBLOCK LATTICE_ABC

%BLOCK POSITIONS_FRAC
  Li   0.3492127  -0.1840624  -0.4934985 SPIN=   0.00000
  Li  -0.3492127   0.4934985   0.1840624 SPIN=   0.00000
   O  -0.0713817  -0.3843602  -0.3405180 SPIN=   0.00000
   O   0.2423250  -0.6322963  -0.1061234 SPIN=   0.00000
   O   0.5367843  -0.2428436  -0.0973222 SPIN=   0.00000
   O   0.0694915  -0.3392818   0.0832717 SPIN=   0.00000
   P   0.1786854  -0.3981661  -0.1248296 SPIN=   0.00000
   O   0.0713817   0.3405180   0.3843602 SPIN=   0.00000
   O  -0.2423250   0.1061234   0.6322963 SPIN=   0.00000
   O  -0.5367843   0.0973222   0.2428436 SPIN=   0.00000
   O  -0.0694915  -0.0832717   0.3392818 SPIN=   0.00000
   P  -0.1786854   0.1248296   0.3981661 SPIN=   0.00000
  Fe   0.5000000   0.3481979  -0.3481979 SPIN=   4.67952
  Fe  -0.0000000  -0.0096176   0.0096176 SPIN=   3.32048
%ENDBLOCK POSITIONS_FRAC

# Note: total spin =   8.00

KPOINTS_MP_SPACING 0.07

%BLOCK SPECIES_POT
QC5
%ENDBLOCK SPECIES_POT

%BLOCK HUBBARD_U
Fe d:4.0
%ENDBLOCK HUBBARD_U

SNAP_TO_SYMMETRY
SYMMETRY_GENERATE

