#              Generated by Buildcell
#
# at 01:18:25 (GMT+0.0) 24th November 2020
# in /lustre/scratch/uccabz1/launch_tmp
# on node-c12e-033
# by uccabz1
#
# compiler GCC version 4.9.2
# options -cpp -iprefix /lustre/shared/ucl/apps/gcc/4.9.2/bin/../lib/gcc/x86_64-unknown-linux-gnu/4.9.2/ -mtune=corei7 -march=x86-64 -g -Og
#
# seed  -425117275   562090168   833632763 -1280098770  1116387181   852818782  1626813252   789077435   393320057   877773900  1515231090   591727444
#
#      Author: C. J. Pickard (cjp20@cam.ac.uk)
#                Space group: P-1
#

%BLOCK LATTICE_ABC
      4.18148      5.20629      7.87056
    100.60456     91.56410    107.49524
%ENDBLOCK LATTICE_ABC

%BLOCK POSITIONS_FRAC
  Li   0.3785064  -0.3542043  -0.3042404 SPIN=   0.00000
  Li  -0.3785064   0.3542043   0.3042404 SPIN=   0.00000
   O  -0.0728829   0.6431899  -0.1908261 SPIN=   0.00000
   O  -0.5101202   0.2141048  -0.3817483 SPIN=   0.00000
   O  -0.0254362   0.1500170  -0.2281900 SPIN=   0.00000
   O  -0.4788703   0.2658225  -0.0584740 SPIN=   0.00000
   P  -0.2636780   0.3349641  -0.2116877 SPIN=   0.00000
   O   0.0728829  -0.6431899   0.1908261 SPIN=   0.00000
   O   0.5101202  -0.2141048   0.3817483 SPIN=   0.00000
   O   0.0254362  -0.1500170   0.2281900 SPIN=   0.00000
   O   0.4788703  -0.2658225   0.0584740 SPIN=   0.00000
   P   0.2636780  -0.3349641   0.2116877 SPIN=   0.00000
  Fe   0.0000000  -0.0000000   0.0000000 SPIN=   4.86682
  Fe   0.0000000   0.0000000   0.5000000 SPIN=   3.13318
%ENDBLOCK POSITIONS_FRAC

# Note: total spin =   8.00

KPOINTS_MP_SPACING 0.07

%BLOCK SPECIES_POT
QC5
%ENDBLOCK SPECIES_POT

%BLOCK HUBBARD_U
Fe d:4.0
%ENDBLOCK HUBBARD_U

SNAP_TO_SYMMETRY
SYMMETRY_GENERATE

