#              Generated by Buildcell
#
# at 03:45:23 (GMT+0.0) 24th November 2020
# in /lustre/scratch/uccabz1/launch_tmp
# on node-c12p-031
# by uccabz1
#
# compiler GCC version 4.9.2
# options -cpp -iprefix /lustre/shared/ucl/apps/gcc/4.9.2/bin/../lib/gcc/x86_64-unknown-linux-gnu/4.9.2/ -mtune=corei7 -march=x86-64 -g -Og
#
# seed  -922124379   516763509 -1885534614 -1698923668  -754376487  -352393987  1169496340  1696341320   877013241 -1844865456  -890507549   341037163
#
#      Author: C. J. Pickard (cjp20@cam.ac.uk)
#                Space group: Cc
#

%BLOCK LATTICE_ABC
      4.75227      4.75227      7.58396
     80.64636     80.64636     72.50255
%ENDBLOCK LATTICE_ABC

%BLOCK POSITIONS_FRAC
  Li   0.2560692   0.4376919   0.0359723 SPIN=   0.00000
  Li   0.4376919   0.2560692  -0.4640277 SPIN=   0.00000
   O  -0.6142242  -0.5078748  -0.2432838 SPIN=   0.00000
   O  -0.4802688  -0.1760085  -0.5332535 SPIN=   0.00000
   O  -0.4217681  -0.0519068  -0.2399030 SPIN=   0.00000
   O  -0.0726375  -0.5077644  -0.3604996 SPIN=   0.00000
   P  -0.4049483  -0.3237005  -0.3390518 SPIN=   0.00000
   O  -0.5078748  -0.6142242   0.2567162 SPIN=   0.00000
   O  -0.1760085  -0.4802688  -0.0332535 SPIN=   0.00000
   O  -0.0519068  -0.4217681   0.2600970 SPIN=   0.00000
   O  -0.5077644  -0.0726375   0.1395004 SPIN=   0.00000
   P  -0.3237005  -0.4049483   0.1609482 SPIN=   0.00000
  Fe  -0.0893503   0.0922902  -0.1626562 SPIN=   4.00000
  Fe   0.0922902  -0.0893503   0.3373438 SPIN=   4.00000
%ENDBLOCK POSITIONS_FRAC

# Note: total spin =   8.00

KPOINTS_MP_SPACING 0.07

%BLOCK SPECIES_POT
QC5
%ENDBLOCK SPECIES_POT

%BLOCK HUBBARD_U
Fe d:4.0
%ENDBLOCK HUBBARD_U

SNAP_TO_SYMMETRY
SYMMETRY_GENERATE

