#              Generated by Buildcell
#
# at 03:12:33 (GMT+0.0) 24th November 2020
# in /lustre/scratch/uccabz1/launch_tmp
# on node-c12o-027
# by uccabz1
#
# compiler GCC version 4.9.2
# options -cpp -iprefix /lustre/shared/ucl/apps/gcc/4.9.2/bin/../lib/gcc/x86_64-unknown-linux-gnu/4.9.2/ -mtune=corei7 -march=x86-64 -g -Og
#
# seed   545872357   636745843 -2046261271 -1406947803   570556595   204546461   629414970   702883730  -438635388  -861563314  -421031857   855460137
#
#      Author: C. J. Pickard (cjp20@cam.ac.uk)
#                Space group: I41
#

%BLOCK LATTICE_ABC
      5.32889      5.32889      6.77826
    113.14674    113.14674     90.00000
%ENDBLOCK LATTICE_ABC

%BLOCK POSITIONS_FRAC
  Li   0.2160532   0.2160532   0.4321064 SPIN=   0.00000
  Li  -0.0339468   0.4660532  -0.0678936 SPIN=   0.00000
   O  -0.4199793   0.1365690  -0.3301202 SPIN=   0.00000
   O  -0.4414951   0.3837932  -0.5975886 SPIN=   0.00000
   O   0.0898591   0.5333108   0.6698798 SPIN=   0.00000
   O  -0.1560936   0.0186182   0.4024114 SPIN=   0.00000
   O  -0.1134310   0.3398591   0.1698798 SPIN=   0.00000
   O   0.1337932   0.0939064  -0.0975886 SPIN=   0.00000
   O   0.2833108  -0.1699793   0.1698798 SPIN=   0.00000
   O  -0.2313818  -0.1914951  -0.0975886 SPIN=   0.00000
   P   0.2035759  -0.2964241   0.4071517 SPIN=   0.00000
   P   0.4535759   0.4535759   0.9071517 SPIN=   0.00000
  Fe  -0.2060991  -0.2060991  -0.4121983 SPIN=   4.00000
  Fe  -0.4560991   0.0439009  -0.9121983 SPIN=   4.00000
%ENDBLOCK POSITIONS_FRAC

# Note: total spin =   8.00

KPOINTS_MP_SPACING 0.07

%BLOCK SPECIES_POT
QC5
%ENDBLOCK SPECIES_POT

%BLOCK HUBBARD_U
Fe d:4.0
%ENDBLOCK HUBBARD_U

SNAP_TO_SYMMETRY
SYMMETRY_GENERATE

