#              Generated by Buildcell
#
# at 03:52:35 (GMT+0.0) 24th November 2020
# in /lustre/scratch/uccabz1/launch_tmp
# on node-c12b-020
# by uccabz1
#
# compiler GCC version 4.9.2
# options -cpp -iprefix /lustre/shared/ucl/apps/gcc/4.9.2/bin/../lib/gcc/x86_64-unknown-linux-gnu/4.9.2/ -mtune=corei7 -march=x86-64 -g -Og
#
# seed   180857376  -840946189  -435342885 -2022735837  -931443767   408662083 -1382410203  2050341768 -1466946110 -1198997453   243890949  -103754752
#
#      Author: C. J. Pickard (cjp20@cam.ac.uk)
#                Space group: C2
#

%BLOCK LATTICE_ABC
      4.05769      5.63339      8.07094
     70.00948     75.44103     68.89085
%ENDBLOCK LATTICE_ABC

%BLOCK POSITIONS_FRAC
  Li  -0.4081413  -0.4955998  -0.1723182 SPIN=   0.00000
  Li  -0.0760593   0.4955998   0.1723182 SPIN=   0.00000
   O  -0.1290987  -0.1513173   0.2249870 SPIN=   0.00000
   O  -0.6028746   0.2582561   0.0620647 SPIN=   0.00000
   O  -0.7968791  -0.0049704   0.3617748 SPIN=   0.00000
   O  -0.4110534   0.2741682   0.3287683 SPIN=   0.00000
   P  -0.4651553   0.0830962   0.2443607 SPIN=   0.00000
   O  -0.0554290   0.1513173  -0.2249870 SPIN=   0.00000
   O  -0.2825538  -0.2582561  -0.0620647 SPIN=   0.00000
   O  -0.4400747   0.0049704  -0.3617748 SPIN=   0.00000
   O   0.1918830  -0.2741682  -0.3287683 SPIN=   0.00000
   P  -0.1376984  -0.0830962  -0.2443607 SPIN=   0.00000
  Fe   0.2564769  -0.5000000  -0.5000000 SPIN=   6.15318
  Fe   0.2193642  -0.0000000  -0.0000000 SPIN=   1.84682
%ENDBLOCK POSITIONS_FRAC

# Note: total spin =   8.00

KPOINTS_MP_SPACING 0.07

%BLOCK SPECIES_POT
QC5
%ENDBLOCK SPECIES_POT

%BLOCK HUBBARD_U
Fe d:4.0
%ENDBLOCK HUBBARD_U

SNAP_TO_SYMMETRY
SYMMETRY_GENERATE

