#              Generated by Buildcell
#
# at 01:38:17 (GMT+0.0) 24th November 2020
# in /lustre/scratch/uccabz1/launch_tmp
# on node-c12i-020
# by uccabz1
#
# compiler GCC version 4.9.2
# options -cpp -iprefix /lustre/shared/ucl/apps/gcc/4.9.2/bin/../lib/gcc/x86_64-unknown-linux-gnu/4.9.2/ -mtune=corei7 -march=x86-64 -g -Og
#
# seed  1896913532 -1413682104 -1913335112  -447129682   683398921 -1634375390 -1798337170  1592572621  2122706924   802604324 -1024151504  -515768618
#
#      Author: C. J. Pickard (cjp20@cam.ac.uk)
#                Space group: C2
#

%BLOCK LATTICE_ABC
      3.90178      3.90178     10.94042
     92.24124     92.24124    105.70636
%ENDBLOCK LATTICE_ABC

%BLOCK POSITIONS_FRAC
  Li   0.4242677  -0.3689381   0.2046310 SPIN=   0.00000
  Li   0.3689381  -0.4242677  -0.2046310 SPIN=   0.00000
   O  -0.0611616   0.0680617   0.1726579 SPIN=   0.00000
   O  -0.1433437  -0.3264374   0.3609893 SPIN=   0.00000
   O   0.4561666   0.0657214   0.3292447 SPIN=   0.00000
   P   0.0490087   0.0407845   0.3076503 SPIN=   0.00000
   O  -0.0680617   0.0611616  -0.1726579 SPIN=   0.00000
   O   0.3264374   0.1433437  -0.3609893 SPIN=   0.00000
   O  -0.0657214  -0.4561666  -0.3292447 SPIN=   0.00000
   P  -0.0407845  -0.0490087  -0.3076503 SPIN=   0.00000
   O   0.3591863  -0.3591863   0.5000000 SPIN=   0.00000
   O   0.2816195  -0.2816195   0.0000000 SPIN=   0.00000
  Fe  -0.2120002   0.2120002   0.0000000 SPIN=   5.74957
  Fe  -0.3037198   0.3037198  -0.5000000 SPIN=   2.25043
%ENDBLOCK POSITIONS_FRAC

# Note: total spin =   8.00

KPOINTS_MP_SPACING 0.07

%BLOCK SPECIES_POT
QC5
%ENDBLOCK SPECIES_POT

%BLOCK HUBBARD_U
Fe d:4.0
%ENDBLOCK HUBBARD_U

SNAP_TO_SYMMETRY
SYMMETRY_GENERATE

