#              Generated by Buildcell
#
# at 02:53:57 (GMT+0.0) 24th November 2020
# in /lustre/scratch/uccabz1/launch_tmp
# on node-c12c-023
# by uccabz1
#
# compiler GCC version 4.9.2
# options -cpp -iprefix /lustre/shared/ucl/apps/gcc/4.9.2/bin/../lib/gcc/x86_64-unknown-linux-gnu/4.9.2/ -mtune=corei7 -march=x86-64 -g -Og
#
# seed  2055949600  1800822767  1211197859   462418988  -880491080  1833431705 -1084403252   698551494    67801131  -783321714  1380084688   601440008
#
#      Author: C. J. Pickard (cjp20@cam.ac.uk)
#                Space group: Pm
#

%BLOCK LATTICE_ABC
      4.24506      5.24853      7.79634
     90.00000     90.00000    112.91284
%ENDBLOCK LATTICE_ABC

%BLOCK POSITIONS_FRAC
  Li  -0.4215197   0.4569061   0.0000000 SPIN=   0.00000
  Li  -0.3691198   0.3892190   0.5000000 SPIN=   0.00000
   O   0.5943293  -0.3869504   0.2872554 SPIN=   0.00000
   O   0.3221738  -0.0646388   0.1569757 SPIN=   0.00000
   O  -0.0159467  -0.5686181   0.1556520 SPIN=   0.00000
   P   0.2649916  -0.3349921   0.2619693 SPIN=   0.00000
   O   0.5943293  -0.3869504  -0.2872554 SPIN=   0.00000
   O   0.3221738  -0.0646388  -0.1569757 SPIN=   0.00000
   O  -0.0159467  -0.5686181  -0.1556520 SPIN=   0.00000
   P   0.2649916  -0.3349921  -0.2619693 SPIN=   0.00000
   O   0.1294154   0.3782903  -0.5000000 SPIN=   0.00000
   O  -0.1985817  -0.1071981   0.0000000 SPIN=   0.00000
  Fe  -0.0551815   0.0515147   0.2509174 SPIN=   4.00000
  Fe  -0.0551815   0.0515147  -0.2509174 SPIN=   4.00000
%ENDBLOCK POSITIONS_FRAC

# Note: total spin =   8.00

KPOINTS_MP_SPACING 0.07

%BLOCK SPECIES_POT
QC5
%ENDBLOCK SPECIES_POT

%BLOCK HUBBARD_U
Fe d:4.0
%ENDBLOCK HUBBARD_U

SNAP_TO_SYMMETRY
SYMMETRY_GENERATE

