#              Generated by Buildcell
#
# at 02:55:01 (GMT+0.0) 24th November 2020
# in /lustre/scratch/uccabz1/launch_tmp
# on node-c12e-020
# by uccabz1
#
# compiler GCC version 4.9.2
# options -cpp -iprefix /lustre/shared/ucl/apps/gcc/4.9.2/bin/../lib/gcc/x86_64-unknown-linux-gnu/4.9.2/ -mtune=corei7 -march=x86-64 -g -Og
#
# seed -1753422889  1882828075 -1034142413 -1814904077 -1702051332 -1765051864  -875814200   570240924  1278693632 -1881151464  2140820566 -1197084704
#
#      Author: C. J. Pickard (cjp20@cam.ac.uk)
#                Space group: P21
#

%BLOCK LATTICE_ABC
      4.64247      4.89518      7.18757
     90.00000     90.00000    101.61135
%ENDBLOCK LATTICE_ABC

%BLOCK POSITIONS_FRAC
  Li  -0.2616618   0.0806607  -0.3591429 SPIN=   0.00000
  Li   0.2616618  -0.0806607   0.1408571 SPIN=   0.00000
   O   0.2956249  -0.3685213  -0.1030953 SPIN=   0.00000
   O   0.1494990   0.1152013  -0.1295432 SPIN=   0.00000
   O   0.2973997  -0.1007777  -0.4153289 SPIN=   0.00000
   O  -0.1838430  -0.3045721  -0.2640452 SPIN=   0.00000
   P   0.1441562  -0.1771727  -0.2217777 SPIN=   0.00000
   O  -0.2956249   0.3685213   0.3969047 SPIN=   0.00000
   O  -0.1494990  -0.1152013   0.3704568 SPIN=   0.00000
   O  -0.2973997   0.1007777   0.0846711 SPIN=   0.00000
   O   0.1838430   0.3045721   0.2359548 SPIN=   0.00000
   P  -0.1441562   0.1771727   0.2782223 SPIN=   0.00000
  Fe   0.3274514  -0.4979601   0.4869174 SPIN=   4.00000
  Fe  -0.3274514   0.4979601  -0.0130826 SPIN=   4.00000
%ENDBLOCK POSITIONS_FRAC

# Note: total spin =   8.00

KPOINTS_MP_SPACING 0.07

%BLOCK SPECIES_POT
QC5
%ENDBLOCK SPECIES_POT

%BLOCK HUBBARD_U
Fe d:4.0
%ENDBLOCK HUBBARD_U

SNAP_TO_SYMMETRY
SYMMETRY_GENERATE

