#              Generated by Buildcell
#
# at 23:36:36 (GMT+0.0) 23rd November 2020
# in /scratch/scratch/uccabz1/launch_tmp
# on node-a14c-005
# by uccabz1
#
# compiler GCC version 4.9.2
# options -cpp -iprefix /scratch/UCL/applications/gcc/4.9.2/bin/../lib/gcc/x86_64-unknown-linux-gnu/4.9.2/ -mtune=corei7 -march=x86-64 -g -O2
#
# seed -1224278335   -58530198   966526530  -410549462  -787927053  -722968463  1538551865  1624895301 -1286428469   580678216 -1872258971   971303781
#
#      Author: C. J. Pickard (cjp20@cam.ac.uk)
#                Space group: P21
#

%BLOCK LATTICE_ABC
      5.06810      5.53816      5.89997
     90.00000     90.00000    104.94323
%ENDBLOCK LATTICE_ABC

%BLOCK POSITIONS_FRAC
  Li   0.0263674   0.0973023  -0.3553342 SPIN=   0.00000
  Li  -0.0263674  -0.0973023   0.1446658 SPIN=   0.00000
   O  -0.1193551   0.1928969  -0.0426869 SPIN=   0.00000
   O  -0.2102553   0.4267605  -0.4043265 SPIN=   0.00000
   O  -0.6050916   0.2064634  -0.1727287 SPIN=   0.00000
   O  -0.2846588   0.5962767  -0.0228480 SPIN=   0.00000
   P  -0.2947259   0.3497765  -0.1527406 SPIN=   0.00000
   O   0.1193551  -0.1928969   0.4573131 SPIN=   0.00000
   O   0.2102553  -0.4267605   0.0956735 SPIN=   0.00000
   O   0.6050916  -0.2064634   0.3272713 SPIN=   0.00000
   O   0.2846588  -0.5962767   0.4771520 SPIN=   0.00000
   P   0.2947259  -0.3497765   0.3472594 SPIN=   0.00000
  Fe  -0.4291001   0.2507792   0.3138233 SPIN=   4.00000
  Fe   0.4291001  -0.2507792  -0.1861767 SPIN=   4.00000
%ENDBLOCK POSITIONS_FRAC

# Note: total spin =   8.00

KPOINTS_MP_SPACING 0.07

%BLOCK SPECIES_POT
QC5
%ENDBLOCK SPECIES_POT

%BLOCK HUBBARD_U
Fe d:4.0
%ENDBLOCK HUBBARD_U

SNAP_TO_SYMMETRY
SYMMETRY_GENERATE

