#              Generated by Buildcell
#
# at 03:55:50 (GMT+0.0) 24th November 2020
# in /lustre/scratch/uccabz1/launch_tmp
# on node-c12e-025
# by uccabz1
#
# compiler GCC version 4.9.2
# options -cpp -iprefix /lustre/shared/ucl/apps/gcc/4.9.2/bin/../lib/gcc/x86_64-unknown-linux-gnu/4.9.2/ -mtune=corei7 -march=x86-64 -g -Og
#
# seed  1337436705 -1598105797  -714462443  1559602848 -1624484483   998595934 -1359795640 -1437277913   367527260  1553064336  2073297863   209374292
#
#      Author: C. J. Pickard (cjp20@cam.ac.uk)
#                Space group: P-1
#

%BLOCK LATTICE_ABC
      4.86035      5.88201      5.90785
     98.32602    106.26716     91.64363
%ENDBLOCK LATTICE_ABC

%BLOCK POSITIONS_FRAC
  Li   0.4203661   0.1360082  -0.2061918 SPIN=   0.00000
  Li  -0.4203661  -0.1360082   0.2061918 SPIN=   0.00000
   O  -0.3613800   0.2308627  -0.7388633 SPIN=   0.00000
   O   0.0848907   0.3472369  -0.3703976 SPIN=   0.00000
   O  -0.3961545   0.4115585  -0.3205265 SPIN=   0.00000
   O  -0.2456986   0.0089063  -0.3807833 SPIN=   0.00000
   P  -0.2367931   0.2458003  -0.4670345 SPIN=   0.00000
   O   0.3613800  -0.2308627   0.7388633 SPIN=   0.00000
   O  -0.0848907  -0.3472369   0.3703976 SPIN=   0.00000
   O   0.3961545  -0.4115585   0.3205265 SPIN=   0.00000
   O   0.2456986  -0.0089063   0.3807833 SPIN=   0.00000
   P   0.2367931  -0.2458003   0.4670345 SPIN=   0.00000
  Fe  -0.1223672  -0.2862048  -0.2276670 SPIN=   4.00000
  Fe   0.1223672   0.2862048   0.2276670 SPIN=   4.00000
%ENDBLOCK POSITIONS_FRAC

# Note: total spin =   8.00

KPOINTS_MP_SPACING 0.07

%BLOCK SPECIES_POT
QC5
%ENDBLOCK SPECIES_POT

%BLOCK HUBBARD_U
Fe d:4.0
%ENDBLOCK HUBBARD_U

SNAP_TO_SYMMETRY
SYMMETRY_GENERATE

