#              Generated by Buildcell
#
# at 01:00:44 (GMT+0.0) 24th November 2020
# in /scratch/scratch/uccabz1/launch_tmp
# on node-k10i-019
# by uccabz1
#
# compiler GCC version 4.9.2
# options -cpp -iprefix /scratch/UCL/applications/gcc/4.9.2/bin/../lib/gcc/x86_64-unknown-linux-gnu/4.9.2/ -mtune=corei7 -march=x86-64 -g -O2
#
# seed  -556234213  1685784088  1415729720 -1117093030  1490449800  1309649073  -118211025  -916314415 -1305179710  2077107062  -899205594  -800340958
#
#      Author: C. J. Pickard (cjp20@cam.ac.uk)
#                Space group: P21
#

%BLOCK LATTICE_ABC
      4.08445      6.42189      6.47889
    109.69398     90.00000     90.00000
%ENDBLOCK LATTICE_ABC

%BLOCK POSITIONS_FRAC
  Li  -0.2423874   0.4015658  -0.3889565 SPIN=   0.00000
  Li   0.2576126  -0.4015658   0.3889565 SPIN=   0.00000
   O   0.3077874  -0.2880405   0.1218861 SPIN=   0.00000
   O   0.2930191  -0.1471057  -0.2097456 SPIN=   0.00000
   O   0.2681001  -0.5498768  -0.2825479 SPIN=   0.00000
   O  -0.2130983  -0.3129098  -0.1112854 SPIN=   0.00000
   P   0.1671610  -0.3224062  -0.1074136 SPIN=   0.00000
   O  -0.1922126   0.2880405  -0.1218861 SPIN=   0.00000
   O  -0.2069809   0.1471057   0.2097456 SPIN=   0.00000
   O  -0.2318999   0.5498768   0.2825479 SPIN=   0.00000
   O  -0.7130983   0.3129098   0.1112854 SPIN=   0.00000
   P  -0.3328390   0.3224062   0.1074136 SPIN=   0.00000
  Fe   0.2624788   0.0552918   0.2694847 SPIN=   4.00000
  Fe  -0.2375212  -0.0552918  -0.2694847 SPIN=   4.00000
%ENDBLOCK POSITIONS_FRAC

# Note: total spin =   8.00

KPOINTS_MP_SPACING 0.07

%BLOCK SPECIES_POT
QC5
%ENDBLOCK SPECIES_POT

%BLOCK HUBBARD_U
Fe d:4.0
%ENDBLOCK HUBBARD_U

SNAP_TO_SYMMETRY
SYMMETRY_GENERATE

