#              Generated by Buildcell
#
# at 04:07:11 (GMT+0.0) 24th November 2020
# in /lustre/scratch/uccabz1/launch_tmp
# on node-c12a-034
# by uccabz1
#
# compiler GCC version 4.9.2
# options -cpp -iprefix /lustre/shared/ucl/apps/gcc/4.9.2/bin/../lib/gcc/x86_64-unknown-linux-gnu/4.9.2/ -mtune=corei7 -march=x86-64 -g -Og
#
# seed  1490447973   934113862  2020703120   835894025  1089657751  -864980391 -2063504015 -1160876696  1436999447 -1659212585   307260530  -384721411
#
#      Author: C. J. Pickard (cjp20@cam.ac.uk)
#                Space group: Pc
#

%BLOCK LATTICE_ABC
      3.89050      5.73784      7.27209
     90.00000     90.00000     99.72980
%ENDBLOCK LATTICE_ABC

%BLOCK POSITIONS_FRAC
  Li  -0.4788975   0.3769016  -0.4409800 SPIN=   0.00000
  Li  -0.4788975  -0.1230984   0.4409800 SPIN=   0.00000
   O   0.0940423   0.0408534  -0.0758954 SPIN=   0.00000
   O  -0.0005402   0.2338866  -0.3909763 SPIN=   0.00000
   O  -0.4630930  -0.0796189  -0.2742357 SPIN=   0.00000
   O  -0.3598106   0.3166390  -0.1205147 SPIN=   0.00000
   P  -0.1697280   0.1255300  -0.2068575 SPIN=   0.00000
   O   0.0940423  -0.4591466   0.0758954 SPIN=   0.00000
   O  -0.0005402  -0.2661134   0.3909763 SPIN=   0.00000
   O  -0.4630930  -0.5796189   0.2742357 SPIN=   0.00000
   O  -0.3598106  -0.1833610   0.1205147 SPIN=   0.00000
   P  -0.1697280  -0.3744700   0.2068575 SPIN=   0.00000
  Fe   0.0942256  -0.3030153  -0.1807420 SPIN=   4.00000
  Fe   0.0942256   0.1969847   0.1807420 SPIN=   4.00000
%ENDBLOCK POSITIONS_FRAC

# Note: total spin =   8.00

KPOINTS_MP_SPACING 0.07

%BLOCK SPECIES_POT
QC5
%ENDBLOCK SPECIES_POT

%BLOCK HUBBARD_U
Fe d:4.0
%ENDBLOCK HUBBARD_U

SNAP_TO_SYMMETRY
SYMMETRY_GENERATE

