#              Generated by Buildcell
#
# at 00:59:08 (GMT+0.0) 24th November 2020
# in /lustre/scratch/uccabz1/launch_tmp
# on node-c12g-028
# by uccabz1
#
# compiler GCC version 4.9.2
# options -cpp -iprefix /lustre/shared/ucl/apps/gcc/4.9.2/bin/../lib/gcc/x86_64-unknown-linux-gnu/4.9.2/ -mtune=corei7 -march=x86-64 -g -Og
#
# seed -1155080448  -314908470 -1813764736 -1549160395 -1151893817  1207992361  1561123054  -973712310  1858301133   186358585 -2096320900 -1246536060
#
#      Author: C. J. Pickard (cjp20@cam.ac.uk)
#                Space group: Cc
#

%BLOCK LATTICE_ABC
      5.65086      5.71243      5.72890
     94.73036     90.00000    119.64412
%ENDBLOCK LATTICE_ABC

%BLOCK POSITIONS_FRAC
  Li  -0.4110860  -0.2916056   0.4133865 SPIN=   0.00000
  Li   0.1194805  -0.2916056  -0.0866135 SPIN=   0.00000
   O   0.7417102   0.3603406  -0.1825368 SPIN=   0.00000
   O   0.2575098   0.1377733  -0.0178294 SPIN=   0.00000
   O   0.5464301   0.6347255   0.0451695 SPIN=   0.00000
   O   0.3530222   0.4154055  -0.3581864 SPIN=   0.00000
   P   0.4874512   0.3859729  -0.1339435 SPIN=   0.00000
   O  -0.3813696   0.3603406   0.3174632 SPIN=   0.00000
   O  -0.1197365   0.1377733   0.4821706 SPIN=   0.00000
   O   0.0882954   0.6347255   0.5451695 SPIN=   0.00000
   O   0.0623833   0.4154055   0.1418136 SPIN=   0.00000
   P  -0.1014782   0.3859729   0.3660565 SPIN=   0.00000
  Fe  -0.2113280   0.0479088  -0.0628080 SPIN=   4.00000
  Fe   0.2592367   0.0479088   0.4371920 SPIN=   4.00000
%ENDBLOCK POSITIONS_FRAC

# Note: total spin =   8.00

KPOINTS_MP_SPACING 0.07

%BLOCK SPECIES_POT
QC5
%ENDBLOCK SPECIES_POT

%BLOCK HUBBARD_U
Fe d:4.0
%ENDBLOCK HUBBARD_U

SNAP_TO_SYMMETRY
SYMMETRY_GENERATE

