#              Generated by Buildcell
#
# at 04:43:21 (GMT+0.0) 24th November 2020
# in /scratch/scratch/uccabz1/launch_tmp
# on node-a14e-019
# by uccabz1
#
# compiler GCC version 4.9.2
# options -cpp -iprefix /scratch/UCL/applications/gcc/4.9.2/bin/../lib/gcc/x86_64-unknown-linux-gnu/4.9.2/ -mtune=corei7 -march=x86-64 -g -O2
#
# seed -1529068815   762249542   589380633  -780498849   746930121  1244103387    12452918  1725072410  1565522743  2063001541 -1960597430 -1578796596
#
#      Author: C. J. Pickard (cjp20@cam.ac.uk)
#                Space group: P-1
#

%BLOCK LATTICE_ABC
      4.01108      5.46135      7.79710
     75.98404     88.63481     75.08617
%ENDBLOCK LATTICE_ABC

%BLOCK POSITIONS_FRAC
  Li   0.1301034  -0.3949466   0.2826398 SPIN=   0.00000
  Li  -0.1301034   0.3949466  -0.2826398 SPIN=   0.00000
   O  -0.2655702   0.3076719  -0.0112399 SPIN=   0.00000
   O   0.2654426   0.2537972   0.1921289 SPIN=   0.00000
   O  -0.3131756   0.4621512   0.2805360 SPIN=   0.00000
   O  -0.1512703  -0.0174152   0.2959085 SPIN=   0.00000
   P  -0.1245141   0.2513653   0.1799116 SPIN=   0.00000
   O   0.2655702  -0.3076719   0.0112399 SPIN=   0.00000
   O  -0.2654426  -0.2537972  -0.1921289 SPIN=   0.00000
   O   0.3131756  -0.4621512  -0.2805360 SPIN=   0.00000
   O   0.1512703   0.0174152  -0.2959085 SPIN=   0.00000
   P   0.1245141  -0.2513653  -0.1799116 SPIN=   0.00000
  Fe   0.5000000   0.0000000   0.0000000 SPIN=   5.03821
  Fe  -0.5000000  -0.0000000   0.5000000 SPIN=   2.96179
%ENDBLOCK POSITIONS_FRAC

# Note: total spin =   8.00

KPOINTS_MP_SPACING 0.07

%BLOCK SPECIES_POT
QC5
%ENDBLOCK SPECIES_POT

%BLOCK HUBBARD_U
Fe d:4.0
%ENDBLOCK HUBBARD_U

SNAP_TO_SYMMETRY
SYMMETRY_GENERATE

