#              Generated by Buildcell
#
# at 03:43:34 (GMT+0.0) 24th November 2020
# in /scratch/scratch/uccabz1/launch_tmp
# on node-a14b-028
# by uccabz1
#
# compiler GCC version 4.9.2
# options -cpp -iprefix /scratch/UCL/applications/gcc/4.9.2/bin/../lib/gcc/x86_64-unknown-linux-gnu/4.9.2/ -mtune=corei7 -march=x86-64 -g -O2
#
# seed -1466986731 -1556969534  1709764399  1765284959   283296070   -15921325 -1223263883  1065201432  -902985220 -1769822389   585089814 -2138608625
#
#      Author: C. J. Pickard (cjp20@cam.ac.uk)
#                Space group: C2
#

%BLOCK LATTICE_ABC
      4.62801      4.66496      8.62636
     85.87312     81.65811     60.26161
%ENDBLOCK LATTICE_ABC

%BLOCK POSITIONS_FRAC
  Li   0.3167166   0.3084981  -0.2584773 SPIN=   0.00000
  Li  -0.6252146   0.3084981   0.2584773 SPIN=   0.00000
   O  -0.2395821   0.2770728  -0.1248836 SPIN=   0.00000
   O  -0.2255223  -0.1906511  -0.2776588 SPIN=   0.00000
   O   0.1242238   0.0531878  -0.3930477 SPIN=   0.00000
   P  -0.0236898  -0.0276111  -0.2306819 SPIN=   0.00000
   O  -0.0374907   0.2770728   0.1248836 SPIN=   0.00000
   O   0.4161734  -0.1906511   0.2776588 SPIN=   0.00000
   O  -0.1774116   0.0531878   0.3930477 SPIN=   0.00000
   P   0.0513008  -0.0276111   0.2306819 SPIN=   0.00000
   O   0.1332849  -0.2665698   0.0000000 SPIN=   0.00000
   O   0.2378932   0.5242135  -0.5000000 SPIN=   0.00000
  Fe  -0.3347536  -0.3304928   0.5000000 SPIN=   2.12631
  Fe  -0.3549423   0.7098847   0.0000000 SPIN=   5.87369
%ENDBLOCK POSITIONS_FRAC

# Note: total spin =   8.00

KPOINTS_MP_SPACING 0.07

%BLOCK SPECIES_POT
QC5
%ENDBLOCK SPECIES_POT

%BLOCK HUBBARD_U
Fe d:4.0
%ENDBLOCK HUBBARD_U

SNAP_TO_SYMMETRY
SYMMETRY_GENERATE

