#              Generated by Buildcell
#
# at 03:02:29 (GMT+0.0) 24th November 2020
# in /lustre/scratch/uccabz1/launch_tmp
# on node-c12c-023
# by uccabz1
#
# compiler GCC version 4.9.2
# options -cpp -iprefix /lustre/shared/ucl/apps/gcc/4.9.2/bin/../lib/gcc/x86_64-unknown-linux-gnu/4.9.2/ -mtune=corei7 -march=x86-64 -g -Og
#
# seed   382014057   272253016  -154295267 -1829728761 -1441041272  -915840841  1121784083 -1081364916   846333875 -2054354552 -1903597213  1524821437
#
#      Author: C. J. Pickard (cjp20@cam.ac.uk)
#                Space group: P222
#

%BLOCK LATTICE_ABC
      4.49822      4.82850      7.36660
     90.00000     90.00000     90.00000
%ENDBLOCK LATTICE_ABC

%BLOCK POSITIONS_FRAC
  Li   0.0000000   0.5000000   0.0000000 SPIN=   0.00000
  Li  -0.5000000   0.0000000   0.5000000 SPIN=   0.00000
   O  -0.2850909   0.2768023   0.3214239 SPIN=   0.00000
   O  -0.2051646  -0.2072935   0.1754077 SPIN=   0.00000
   O   0.2850909   0.2768023  -0.3214239 SPIN=   0.00000
   O   0.2051646  -0.2072935  -0.1754077 SPIN=   0.00000
   O   0.2850909  -0.2768023   0.3214239 SPIN=   0.00000
   O   0.2051646   0.2072935   0.1754077 SPIN=   0.00000
   O  -0.2850909  -0.2768023  -0.3214239 SPIN=   0.00000
   O  -0.2051646   0.2072935  -0.1754077 SPIN=   0.00000
   P  -0.5000000   0.5000000  -0.2500000 SPIN=   0.00000
   P  -0.5000000   0.5000000   0.2500000 SPIN=   0.00000
  Fe   0.0000000   0.5000000   0.5000000 SPIN=   3.72004
  Fe  -0.5000000   0.0000000   0.0000000 SPIN=   4.27996
%ENDBLOCK POSITIONS_FRAC

# Note: total spin =   8.00

KPOINTS_MP_SPACING 0.07

%BLOCK SPECIES_POT
QC5
%ENDBLOCK SPECIES_POT

%BLOCK HUBBARD_U
Fe d:4.0
%ENDBLOCK HUBBARD_U

SNAP_TO_SYMMETRY
SYMMETRY_GENERATE

