#              Generated by Buildcell
#
# at 04:33:00 (GMT+0.0) 24th November 2020
# in /scratch/scratch/uccabz1/launch_tmp
# on node-a14f-013
# by uccabz1
#
# compiler GCC version 4.9.2
# options -cpp -iprefix /scratch/UCL/applications/gcc/4.9.2/bin/../lib/gcc/x86_64-unknown-linux-gnu/4.9.2/ -mtune=corei7 -march=x86-64 -g -O2
#
# seed  1787210243    69817096   347569270 -1920140804  -698452295  1831596444   906851583 -1601141832  1464332913  -264894827  -252590073 -1445474053
#
#      Author: C. J. Pickard (cjp20@cam.ac.uk)
#                Space group: P-1
#

%BLOCK LATTICE_ABC
      4.27955      5.78624      7.43375
     69.54215     76.96299     69.05147
%ENDBLOCK LATTICE_ABC

%BLOCK POSITIONS_FRAC
  Li  -0.6506527   0.3078276   0.4835515 SPIN=   0.00000
  Li   0.6506527  -0.3078276  -0.4835515 SPIN=   0.00000
   O   0.8200291  -0.5850950   0.3237856 SPIN=   0.00000
   O   0.6313186  -0.0870039   0.1630622 SPIN=   0.00000
   O   0.7076731  -0.3714968  -0.0358124 SPIN=   0.00000
   O   0.2213341  -0.3323890   0.2241479 SPIN=   0.00000
   P   0.6026550  -0.3566965   0.1777015 SPIN=   0.00000
   O  -0.8200291   0.5850950  -0.3237856 SPIN=   0.00000
   O  -0.6313186   0.0870039  -0.1630622 SPIN=   0.00000
   O  -0.7076731   0.3714968   0.0358124 SPIN=   0.00000
   O  -0.2213341   0.3323890  -0.2241479 SPIN=   0.00000
   P  -0.6026550   0.3566965  -0.1777015 SPIN=   0.00000
  Fe   0.0567519   0.0954802   0.2162489 SPIN=   4.00000
  Fe  -0.0567519  -0.0954802  -0.2162489 SPIN=   4.00000
%ENDBLOCK POSITIONS_FRAC

# Note: total spin =   8.00

KPOINTS_MP_SPACING 0.07

%BLOCK SPECIES_POT
QC5
%ENDBLOCK SPECIES_POT

%BLOCK HUBBARD_U
Fe d:4.0
%ENDBLOCK HUBBARD_U

SNAP_TO_SYMMETRY
SYMMETRY_GENERATE

