#              Generated by Buildcell
#
# at 05:49:15 (GMT+0.0) 24th November 2020
# in /lustre/scratch/uccabz1/launch_tmp
# on node-c12d-022
# by uccabz1
#
# compiler GCC version 4.9.2
# options -cpp -iprefix /lustre/shared/ucl/apps/gcc/4.9.2/bin/../lib/gcc/x86_64-unknown-linux-gnu/4.9.2/ -mtune=corei7 -march=x86-64 -g -Og
#
# seed -1919483922 -1568021859  1627072837 -1142532511 -1782440293  1270100938   216413384   888191583  -589542795  1214562234  1538884996 -1147548246
#
#      Author: C. J. Pickard (cjp20@cam.ac.uk)
#                Space group: P21
#

%BLOCK LATTICE_ABC
      5.22453      5.23705      6.22783
    110.12189     90.00000     90.00000
%ENDBLOCK LATTICE_ABC

%BLOCK POSITIONS_FRAC
  Li   0.0247116  -0.0949025   0.3851586 SPIN=   0.00000
  Li  -0.4752884   0.0949025  -0.3851586 SPIN=   0.00000
   O  -0.0474928  -0.1316117  -0.2956065 SPIN=   0.00000
   O   0.2024562  -0.5016849  -0.1912849 SPIN=   0.00000
   O   0.3512244  -0.3810646  -0.5205999 SPIN=   0.00000
   O   0.4076614  -0.0484780  -0.1235522 SPIN=   0.00000
   P   0.2158838  -0.2560062  -0.2815660 SPIN=   0.00000
   O  -0.5474928   0.1316117   0.2956065 SPIN=   0.00000
   O  -0.2975438   0.5016849   0.1912849 SPIN=   0.00000
   O  -0.1487756   0.3810646   0.5205999 SPIN=   0.00000
   O  -0.0923386   0.0484780   0.1235522 SPIN=   0.00000
   P  -0.2841162   0.2560062   0.2815660 SPIN=   0.00000
  Fe  -0.2822485  -0.2917877  -0.1015319 SPIN=   4.00000
  Fe   0.2177515   0.2917877   0.1015319 SPIN=   4.00000
%ENDBLOCK POSITIONS_FRAC

# Note: total spin =   8.00

KPOINTS_MP_SPACING 0.07

%BLOCK SPECIES_POT
QC5
%ENDBLOCK SPECIES_POT

%BLOCK HUBBARD_U
Fe d:4.0
%ENDBLOCK HUBBARD_U

SNAP_TO_SYMMETRY
SYMMETRY_GENERATE

