#              Generated by Buildcell
#
# at 21:28:00 (GMT+0.0) 23rd November 2020
# in /lustre/scratch/uccabz1/launch_tmp
# on node-c12h-025
# by uccabz1
#
# compiler GCC version 4.9.2
# options -cpp -iprefix /lustre/shared/ucl/apps/gcc/4.9.2/bin/../lib/gcc/x86_64-unknown-linux-gnu/4.9.2/ -mtune=corei7 -march=x86-64 -g -Og
#
# seed  -163512839 -1239208539 -1310409464  1180422596 -1556181712  2058437838 -1136100836  1121803801  -155480430   773817321  1504088294  1298487234
#
#      Author: C. J. Pickard (cjp20@cam.ac.uk)
#                Space group: Cm
#

%BLOCK LATTICE_ABC
      3.90042      6.80498      6.80498
     70.70647     73.65022     73.65022
%ENDBLOCK LATTICE_ABC

%BLOCK POSITIONS_FRAC
  Li  -0.3702815   0.4238311  -0.1421299 SPIN=   0.00000
  Li  -0.3702815  -0.1421299   0.4238311 SPIN=   0.00000
   O  -0.0952389   0.2469877  -0.3643518 SPIN=   0.00000
   O   0.2585005   0.2280880  -0.0849732 SPIN=   0.00000
   O   0.5309414  -0.0086277  -0.3214772 SPIN=   0.00000
   P   0.2809696   0.2163034  -0.3153790 SPIN=   0.00000
   O  -0.0952389  -0.3643518   0.2469877 SPIN=   0.00000
   O   0.2585005  -0.0849732   0.2280880 SPIN=   0.00000
   O   0.5309414  -0.3214772  -0.0086277 SPIN=   0.00000
   P   0.2809696  -0.3153790   0.2163034 SPIN=   0.00000
   O  -0.3212282   0.1668806   0.1668806 SPIN=   0.00000
   O   0.4284182   0.4038748   0.4038748 SPIN=   0.00000
  Fe  -0.0528352  -0.1474717  -0.1474717 SPIN=   6.67198
  Fe  -0.0062679   0.3032055   0.3032055 SPIN=   1.32802
%ENDBLOCK POSITIONS_FRAC

# Note: total spin =   8.00

KPOINTS_MP_SPACING 0.07

%BLOCK SPECIES_POT
QC5
%ENDBLOCK SPECIES_POT

%BLOCK HUBBARD_U
Fe d:4.0
%ENDBLOCK HUBBARD_U

SNAP_TO_SYMMETRY
SYMMETRY_GENERATE

