#              Generated by Buildcell
#
# at 02:02:19 (GMT+0.0) 24th November 2020
# in /lustre/scratch/uccabz1/launch_tmp
# on node-c12n-022
# by uccabz1
#
# compiler GCC version 4.9.2
# options -cpp -iprefix /lustre/shared/ucl/apps/gcc/4.9.2/bin/../lib/gcc/x86_64-unknown-linux-gnu/4.9.2/ -mtune=corei7 -march=x86-64 -g -Og
#
# seed   477070223     8455089  1342227388 -1927887386    38955862  -748199587  1589958802  -408241262  -608470620   255136019 -2056620452  -493470349
#
#      Author: C. J. Pickard (cjp20@cam.ac.uk)
#                Space group: Pnc2
#

%BLOCK LATTICE_ABC
      5.29426      5.34961      5.64927
     90.00000     90.00000     90.00000
%ENDBLOCK LATTICE_ABC

%BLOCK POSITIONS_FRAC
  Li  -0.5000000  -0.0000000  -0.0639256 SPIN=   0.00000
  Li   0.5000000   0.5000000   0.4360744 SPIN=   0.00000
   O  -0.6483551   0.1808131   0.2644399 SPIN=   0.00000
   O  -0.2336213   0.3915722   0.1208928 SPIN=   0.00000
   O   0.6483551  -0.1808131   0.2644399 SPIN=   0.00000
   O   0.2336213  -0.3915722   0.1208928 SPIN=   0.00000
   O  -0.6483551   0.3191869  -0.2355601 SPIN=   0.00000
   O  -0.2336213   0.1084278  -0.3791072 SPIN=   0.00000
   O   0.6483551  -0.3191869  -0.2355601 SPIN=   0.00000
   O   0.2336213  -0.1084278  -0.3791072 SPIN=   0.00000
   P   0.5000000  -0.0000000   0.4632936 SPIN=   0.00000
   P  -0.5000000   0.5000000  -0.0367064 SPIN=   0.00000
  Fe  -0.0000000  -0.0000000   0.2807422 SPIN=   4.00000
  Fe   0.0000000   0.5000000  -0.2192578 SPIN=   4.00000
%ENDBLOCK POSITIONS_FRAC

# Note: total spin =   8.00

KPOINTS_MP_SPACING 0.07

%BLOCK SPECIES_POT
QC5
%ENDBLOCK SPECIES_POT

%BLOCK HUBBARD_U
Fe d:4.0
%ENDBLOCK HUBBARD_U

SNAP_TO_SYMMETRY
SYMMETRY_GENERATE

