#              Generated by Buildcell
#
# at 01:51:17 (GMT+0.0) 24th November 2020
# in /lustre/scratch/uccabz1/launch_tmp
# on node-c12m-024
# by uccabz1
#
# compiler GCC version 4.9.2
# options -cpp -iprefix /lustre/shared/ucl/apps/gcc/4.9.2/bin/../lib/gcc/x86_64-unknown-linux-gnu/4.9.2/ -mtune=corei7 -march=x86-64 -g -Og
#
# seed  1817537373 -1866706348  1166761815 -2134566137   -73291251  -644994551   690495134  -506605035 -1367533034  1758686386  -434016096  1021765148
#
#      Author: C. J. Pickard (cjp20@cam.ac.uk)
#                Space group: Cmc21
#

%BLOCK LATTICE_ABC
      5.45226      5.45226      5.66509
     90.00000     90.00000    108.17992
%ENDBLOCK LATTICE_ABC

%BLOCK POSITIONS_FRAC
  Li   0.0624609  -0.0624609  -0.3834973 SPIN=   0.00000
  Li  -0.0624609   0.0624609   0.1165027 SPIN=   0.00000
   O   0.5502679   0.0623908  -0.0312621 SPIN=   0.00000
   O   0.3048058   0.3069208  -0.2851017 SPIN=   0.00000
   O  -0.5502679  -0.0623908   0.4687379 SPIN=   0.00000
   O  -0.3048058  -0.3069208   0.2148983 SPIN=   0.00000
   O   0.0623908   0.5502679   0.4687379 SPIN=   0.00000
   O   0.3069208   0.3048058   0.2148983 SPIN=   0.00000
   O  -0.0623908  -0.5502679  -0.0312621 SPIN=   0.00000
   O  -0.3069208  -0.3048058  -0.2851017 SPIN=   0.00000
   P   0.3643672  -0.3643672  -0.3208987 SPIN=   0.00000
   P  -0.3643672   0.3643672   0.1791013 SPIN=   0.00000
  Fe   0.3106785  -0.3106785   0.1787486 SPIN=   4.00000
  Fe  -0.3106785   0.3106785  -0.3212514 SPIN=   4.00000
%ENDBLOCK POSITIONS_FRAC

# Note: total spin =   8.00

KPOINTS_MP_SPACING 0.07

%BLOCK SPECIES_POT
QC5
%ENDBLOCK SPECIES_POT

%BLOCK HUBBARD_U
Fe d:4.0
%ENDBLOCK HUBBARD_U

SNAP_TO_SYMMETRY
SYMMETRY_GENERATE

