#              Generated by Buildcell
#
# at 03:42:23 (GMT+0.0) 24th November 2020
# in /scratch/scratch/uccabz1/launch_tmp
# on node-a14a-024
# by uccabz1
#
# compiler GCC version 4.9.2
# options -cpp -iprefix /scratch/UCL/applications/gcc/4.9.2/bin/../lib/gcc/x86_64-unknown-linux-gnu/4.9.2/ -mtune=corei7 -march=x86-64 -g -O2
#
# seed -1481307243 -1001694280 -1873946073 -1320002049  1168244756   290274589   616625543   698207433 -2008648217  -239347065   528218531  1087360256
#
#      Author: C. J. Pickard (cjp20@cam.ac.uk)
#                Space group: P21
#

%BLOCK LATTICE_ABC
      4.41302      4.50219      8.14837
     90.00000     90.00000     98.77309
%ENDBLOCK LATTICE_ABC

%BLOCK POSITIONS_FRAC
  Li  -0.4146073  -0.0730337   0.3068262 SPIN=   0.00000
  Li   0.4146073   0.0730337  -0.1931738 SPIN=   0.00000
   O  -0.2048863   0.1983970   0.1146956 SPIN=   0.00000
   O   0.3516389   0.4537610   0.1770012 SPIN=   0.00000
   O   0.1344744   0.0111201   0.3413544 SPIN=   0.00000
   O   0.2665226  -0.0554169   0.0460695 SPIN=   0.00000
   P   0.1202663   0.1519903   0.1653873 SPIN=   0.00000
   O   0.2048863  -0.1983970  -0.3853044 SPIN=   0.00000
   O  -0.3516389  -0.4537610  -0.3229988 SPIN=   0.00000
   O  -0.1344744  -0.0111201  -0.1586456 SPIN=   0.00000
   O  -0.2665226   0.0554169  -0.4539305 SPIN=   0.00000
   P  -0.1202663  -0.1519903  -0.3346127 SPIN=   0.00000
  Fe   0.1257628   0.3876053   0.4920274 SPIN=   4.00000
  Fe  -0.1257628  -0.3876053  -0.0079726 SPIN=   4.00000
%ENDBLOCK POSITIONS_FRAC

# Note: total spin =   8.00

KPOINTS_MP_SPACING 0.07

%BLOCK SPECIES_POT
QC5
%ENDBLOCK SPECIES_POT

%BLOCK HUBBARD_U
Fe d:4.0
%ENDBLOCK HUBBARD_U

SNAP_TO_SYMMETRY
SYMMETRY_GENERATE

