#              Generated by Buildcell
#
# at 03:02:45 (GMT+0.0) 24th November 2020
# in /lustre/scratch/uccabz1/launch_tmp
# on node-c12d-024
# by uccabz1
#
# compiler GCC version 4.9.2
# options -cpp -iprefix /lustre/shared/ucl/apps/gcc/4.9.2/bin/../lib/gcc/x86_64-unknown-linux-gnu/4.9.2/ -mtune=corei7 -march=x86-64 -g -Og
#
# seed  1381705592  -890525485 -1367662025   386391331  1358851749   336629142  -983454666 -1811890742 -1892424638  1555412867  -588041689 -1265209082
#
#      Author: C. J. Pickard (cjp20@cam.ac.uk)
#                Space group: P21/m
#

%BLOCK LATTICE_ABC
      4.27605      6.15845      6.30780
     90.00000     90.00000    105.58695
%ENDBLOCK LATTICE_ABC

%BLOCK POSITIONS_FRAC
  Li   0.5000000  -0.0000000   0.0000000 SPIN=   0.00000
  Li  -0.5000000   0.0000000  -0.5000000 SPIN=   0.00000
   O   0.2609461   0.6288997   0.0547729 SPIN=   0.00000
   O   0.1707454   0.1946286   0.0462032 SPIN=   0.00000
   O  -0.2609461  -0.6288997  -0.4452271 SPIN=   0.00000
   O  -0.1707454  -0.1946286  -0.4537968 SPIN=   0.00000
   O  -0.2609461  -0.6288997  -0.0547729 SPIN=   0.00000
   O  -0.1707454  -0.1946286  -0.0462032 SPIN=   0.00000
   O   0.2609461   0.6288997   0.4452271 SPIN=   0.00000
   O   0.1707454   0.1946286   0.4537968 SPIN=   0.00000
   P   0.0107044  -0.2238738  -0.2500000 SPIN=   0.00000
   P  -0.0107044   0.2238738   0.2500000 SPIN=   0.00000
  Fe  -0.1326637  -0.3409012   0.2500000 SPIN=   4.00000
  Fe   0.1326637   0.3409012  -0.2500000 SPIN=   4.00000
%ENDBLOCK POSITIONS_FRAC

# Note: total spin =   8.00

KPOINTS_MP_SPACING 0.07

%BLOCK SPECIES_POT
QC5
%ENDBLOCK SPECIES_POT

%BLOCK HUBBARD_U
Fe d:4.0
%ENDBLOCK HUBBARD_U

SNAP_TO_SYMMETRY
SYMMETRY_GENERATE

