#              Generated by Buildcell
#
# at 01:53:39 (GMT+0.0) 24th November 2020
# in /lustre/scratch/uccabz1/launch_tmp
# on node-c12h-025
# by uccabz1
#
# compiler GCC version 4.9.2
# options -cpp -iprefix /lustre/shared/ucl/apps/gcc/4.9.2/bin/../lib/gcc/x86_64-unknown-linux-gnu/4.9.2/ -mtune=corei7 -march=x86-64 -g -Og
#
# seed  1441271133   424505164  1807810852    89914966 -1406098257  2133571511  1010867582  -143680230 -1337273293  -789240771  1307780452  -439933435
#
#      Author: C. J. Pickard (cjp20@cam.ac.uk)
#                Space group: P-1
#

%BLOCK LATTICE_ABC
      3.92065      5.41264      7.87707
     78.90617     77.42611     89.55830
%ENDBLOCK LATTICE_ABC

%BLOCK POSITIONS_FRAC
  Li   0.5000000  -0.5000000  -0.5000000 SPIN=   0.00000
  Li  -0.0000000   0.0000000  -0.5000000 SPIN=   0.00000
   O   0.6355025  -0.2877627  -0.3241777 SPIN=   0.00000
   O   0.3240173   0.1388708  -0.3420191 SPIN=   0.00000
   O   0.0506592  -0.2222262  -0.1106732 SPIN=   0.00000
   P   0.4178343  -0.1060047  -0.2198227 SPIN=   0.00000
   O  -0.6355025   0.2877627   0.3241777 SPIN=   0.00000
   O  -0.3240173  -0.1388708   0.3420191 SPIN=   0.00000
   O  -0.0506592   0.2222262   0.1106732 SPIN=   0.00000
   P  -0.4178343   0.1060047   0.2198227 SPIN=   0.00000
   O   0.5000000  -0.0000000   0.0000000 SPIN=   0.00000
   O   0.5000000  -0.5000000   0.0000000 SPIN=   0.00000
  Fe  -0.1512977   0.2913825  -0.1547136 SPIN=   4.00000
  Fe   0.1512977  -0.2913825   0.1547136 SPIN=   4.00000
%ENDBLOCK POSITIONS_FRAC

# Note: total spin =   8.00

KPOINTS_MP_SPACING 0.07

%BLOCK SPECIES_POT
QC5
%ENDBLOCK SPECIES_POT

%BLOCK HUBBARD_U
Fe d:4.0
%ENDBLOCK HUBBARD_U

SNAP_TO_SYMMETRY
SYMMETRY_GENERATE

