#              Generated by Buildcell
#
# at 23:58:22 (GMT+0.0) 23rd November 2020
# in /lustre/scratch/uccabz1/launch_tmp
# on node-c12b-026
# by uccabz1
#
# compiler GCC version 4.9.2
# options -cpp -iprefix /lustre/shared/ucl/apps/gcc/4.9.2/bin/../lib/gcc/x86_64-unknown-linux-gnu/4.9.2/ -mtune=corei7 -march=x86-64 -g -Og
#
# seed -1203696251 -1796454674  -783009818  -797060881  -952813448    71027007   612184734 -1168668245   943927731  -430364069   110883595 -1164869384
#
#      Author: C. J. Pickard (cjp20@cam.ac.uk)
#                Space group: Cm
#

%BLOCK LATTICE_ABC
      4.26851      6.43372      6.43372
     92.36469    107.01161    107.01161
%ENDBLOCK LATTICE_ABC

%BLOCK POSITIONS_FRAC
  Li  -0.3916556   0.2168945  -0.1283277 SPIN=   0.00000
  Li  -0.3916556  -0.1283277   0.2168945 SPIN=   0.00000
   O   0.1509074  -0.0581108   0.2072729 SPIN=   0.00000
   O  -0.0122794   0.0511031   0.5451253 SPIN=   0.00000
   O   0.4308920  -0.1348044   0.6004587 SPIN=   0.00000
   O   0.5697284   0.2524800   0.5178364 SPIN=   0.00000
   P   0.2810446   0.0257528   0.4544003 SPIN=   0.00000
   O   0.1509074   0.2072729  -0.0581108 SPIN=   0.00000
   O  -0.0122794   0.5451253   0.0511031 SPIN=   0.00000
   O   0.4308920   0.6004587  -0.1348044 SPIN=   0.00000
   O   0.5697284   0.5178364   0.2524800 SPIN=   0.00000
   P   0.2810446   0.4544003   0.0257528 SPIN=   0.00000
  Fe   1.0367449   0.3968259   0.3968259 SPIN=   6.93574
  Fe  -0.1047877  -0.1972445  -0.1972445 SPIN=   1.06426
%ENDBLOCK POSITIONS_FRAC

# Note: total spin =   8.00

KPOINTS_MP_SPACING 0.07

%BLOCK SPECIES_POT
QC5
%ENDBLOCK SPECIES_POT

%BLOCK HUBBARD_U
Fe d:4.0
%ENDBLOCK HUBBARD_U

SNAP_TO_SYMMETRY
SYMMETRY_GENERATE

