#              Generated by Buildcell
#
# at 22:52:08 (GMT+0.0) 23rd November 2020
# in /scratch/scratch/uccabz1/launch_tmp
# on node-a14a-001
# by uccabz1
#
# compiler GCC version 4.9.2
# options -cpp -iprefix /scratch/UCL/applications/gcc/4.9.2/bin/../lib/gcc/x86_64-unknown-linux-gnu/4.9.2/ -mtune=corei7 -march=x86-64 -g -O2
#
# seed   -20865882  1577936871 -1391183217 -1268966841 -1734961621  -959130430  1242485324  1045418469  -818693649   616579033  -224046652  1084758687
#
#      Author: C. J. Pickard (cjp20@cam.ac.uk)
#                Space group: C2
#

%BLOCK LATTICE_ABC
      3.87406      6.51458      6.51458
     95.40156     98.16224     98.16224
%ENDBLOCK LATTICE_ABC

%BLOCK POSITIONS_FRAC
  Li  -0.5000000  -0.3838807   0.3838807 SPIN=   0.00000
  Li   0.5000000  -0.0709225   0.0709225 SPIN=   0.00000
   O  -0.0549340  -0.4320678  -0.2842000 SPIN=   0.00000
   O   0.5287487  -0.1783620  -0.2785671 SPIN=   0.00000
   O   0.4851292  -0.3957034   0.0103814 SPIN=   0.00000
   P   0.3499989  -0.3965814  -0.2291309 SPIN=   0.00000
   O   0.0549340   0.2842000   0.4320678 SPIN=   0.00000
   O  -0.5287487   0.2785671   0.1783620 SPIN=   0.00000
   O  -0.4851292  -0.0103814   0.3957034 SPIN=   0.00000
   P  -0.3499989   0.2291309   0.3965814 SPIN=   0.00000
   O  -0.0000000   0.1042682  -0.1042682 SPIN=   0.00000
   O  -0.5000000   0.2629136  -0.2629136 SPIN=   0.00000
  Fe  -0.1408214   0.4010430   0.0037806 SPIN=   4.00000
  Fe   0.1408214  -0.0037806  -0.4010430 SPIN=   4.00000
%ENDBLOCK POSITIONS_FRAC

# Note: total spin =   8.00

KPOINTS_MP_SPACING 0.07

%BLOCK SPECIES_POT
QC5
%ENDBLOCK SPECIES_POT

%BLOCK HUBBARD_U
Fe d:4.0
%ENDBLOCK HUBBARD_U

SNAP_TO_SYMMETRY
SYMMETRY_GENERATE

