#              Generated by Buildcell
#
# at 04:09:33 (GMT+0.0) 24th November 2020
# in /lustre/scratch/uccabz1/launch_tmp
# on node-c12b-025
# by uccabz1
#
# compiler GCC version 4.9.2
# options -cpp -iprefix /lustre/shared/ucl/apps/gcc/4.9.2/bin/../lib/gcc/x86_64-unknown-linux-gnu/4.9.2/ -mtune=corei7 -march=x86-64 -g -Og
#
# seed   791583250 -1170294134  -139788740  1845084297   674569239 -1517829092 -1836445719   772628508  1104439418  1715521545  -426024047  -102643103
#
#      Author: C. J. Pickard (cjp20@cam.ac.uk)
#                Space group: P-1
#

%BLOCK LATTICE_ABC
      3.91970      5.01276      8.54774
    105.62811     96.32422     93.61864
%ENDBLOCK LATTICE_ABC

%BLOCK POSITIONS_FRAC
  Li   0.2227900   0.2588071   0.4817359 SPIN=   0.00000
  Li  -0.2227900  -0.2588071  -0.4817359 SPIN=   0.00000
   O  -0.2016496  -0.0923275  -0.1324182 SPIN=   0.00000
   O  -0.6752297  -0.3214168  -0.3781929 SPIN=   0.00000
   O  -0.2961913  -0.6251979  -0.2711190 SPIN=   0.00000
   O  -0.7370038  -0.3946806  -0.1038176 SPIN=   0.00000
   P  -0.4658922  -0.3446664  -0.2152623 SPIN=   0.00000
   O   0.2016496   0.0923275   0.1324182 SPIN=   0.00000
   O   0.6752297   0.3214168   0.3781929 SPIN=   0.00000
   O   0.2961913   0.6251979   0.2711190 SPIN=   0.00000
   O   0.7370038   0.3946806   0.1038176 SPIN=   0.00000
   P   0.4658922   0.3446664   0.2152623 SPIN=   0.00000
  Fe  -0.2240727  -0.1709042   0.1480629 SPIN=   4.00000
  Fe   0.2240727   0.1709042  -0.1480629 SPIN=   4.00000
%ENDBLOCK POSITIONS_FRAC

# Note: total spin =   8.00

KPOINTS_MP_SPACING 0.07

%BLOCK SPECIES_POT
QC5
%ENDBLOCK SPECIES_POT

%BLOCK HUBBARD_U
Fe d:4.0
%ENDBLOCK HUBBARD_U

SNAP_TO_SYMMETRY
SYMMETRY_GENERATE

