#              Generated by Buildcell
#
# at 02:27:39 (GMT+0.0) 24th November 2020
# in /scratch/scratch/uccabz1/launch_tmp
# on node-k10e-028
# by uccabz1
#
# compiler GCC version 4.9.2
# options -cpp -iprefix /scratch/UCL/applications/gcc/4.9.2/bin/../lib/gcc/x86_64-unknown-linux-gnu/4.9.2/ -mtune=corei7 -march=x86-64 -g -O2
#
# seed  1613198873   -58541360  1062939993   476813558   936369155  -326307342  1206057267    34636881 -2101877152   721374064 -1630390184  -492267938
#
#      Author: C. J. Pickard (cjp20@cam.ac.uk)
#                Space group: Imm2
#

%BLOCK LATTICE_ABC
      5.61580      5.63416      6.43365
    115.96784    115.87696     90.00000
%ENDBLOCK LATTICE_ABC

%BLOCK POSITIONS_FRAC
  Li  -0.3538515  -0.2499828  -0.4999655 SPIN=   0.00000
  Li   0.1461140   0.2499828   0.4999655 SPIN=   0.00000
   O   0.5978651   0.6193061   0.7554273 SPIN=   0.00000
   O   0.2956318   0.3448469   0.2447437 SPIN=   0.00000
   O  -0.1575622  -0.6193061  -0.7554273 SPIN=   0.00000
   O   0.0508881  -0.3448469  -0.2447437 SPIN=   0.00000
   O   0.5978651   0.1361212   0.7554273 SPIN=   0.00000
   O   0.2956318  -0.1001032   0.2447437 SPIN=   0.00000
   O  -0.1575622  -0.1361212  -0.7554273 SPIN=   0.00000
   O   0.0508881   0.1001032  -0.2447437 SPIN=   0.00000
   P   0.0298531  -0.0000000   0.0000000 SPIN=   0.00000
   P  -0.4711089  -0.5000000  -1.0000000 SPIN=   0.00000
  Fe   0.0262560   0.5000000   1.0000000 SPIN=   1.35911
  Fe  -0.4727459   0.0000000  -0.0000000 SPIN=   6.64089
%ENDBLOCK POSITIONS_FRAC

# Note: total spin =   8.00

KPOINTS_MP_SPACING 0.07

%BLOCK SPECIES_POT
QC5
%ENDBLOCK SPECIES_POT

%BLOCK HUBBARD_U
Fe d:4.0
%ENDBLOCK HUBBARD_U

SNAP_TO_SYMMETRY
SYMMETRY_GENERATE

