#              Generated by Buildcell
#
# at 05:23:18 (GMT+0.0) 24th November 2020
# in /scratch/scratch/uccabz1/launch_tmp
# on node-a14a-010
# by uccabz1
#
# compiler GCC version 4.9.2
# options -cpp -iprefix /scratch/UCL/applications/gcc/4.9.2/bin/../lib/gcc/x86_64-unknown-linux-gnu/4.9.2/ -mtune=corei7 -march=x86-64 -g -O2
#
# seed    15792162 -1211167298     9053893   473137449 -1198847717  1282120657   627017905  1364873268  -737849211  -328529289  1693287191  1572853369
#
#      Author: C. J. Pickard (cjp20@cam.ac.uk)
#                Space group: Cc
#

%BLOCK LATTICE_ABC
      4.62301      4.62301      7.80350
     82.32969     82.32969     76.80021
%ENDBLOCK LATTICE_ABC

%BLOCK POSITIONS_FRAC
  Li  -0.4371759  -0.4875094  -0.3861280 SPIN=   0.00000
  Li  -0.4875094  -0.4371759   0.1138720 SPIN=   0.00000
   O  -0.0602511   0.0670397   0.0388149 SPIN=   0.00000
   O   0.4492122   0.0511745  -0.1501537 SPIN=   0.00000
   O   0.1823359   0.5286123  -0.0407610 SPIN=   0.00000
   O   0.4145311   0.1057377   0.1673879 SPIN=   0.00000
   P   0.2321098   0.1807205   0.0076155 SPIN=   0.00000
   O   0.0670397  -0.0602511  -0.4611851 SPIN=   0.00000
   O   0.0511745   0.4492122  -0.6501537 SPIN=   0.00000
   O   0.5286123   0.1823359  -0.5407610 SPIN=   0.00000
   O   0.1057377   0.4145311  -0.3326121 SPIN=   0.00000
   P   0.1807205   0.2321098  -0.4923845 SPIN=   0.00000
  Fe  -0.1152252  -0.0649448   0.3070403 SPIN=   4.00000
  Fe  -0.0649448  -0.1152252  -0.1929597 SPIN=   4.00000
%ENDBLOCK POSITIONS_FRAC

# Note: total spin =   8.00

KPOINTS_MP_SPACING 0.07

%BLOCK SPECIES_POT
QC5
%ENDBLOCK SPECIES_POT

%BLOCK HUBBARD_U
Fe d:4.0
%ENDBLOCK HUBBARD_U

SNAP_TO_SYMMETRY
SYMMETRY_GENERATE

