#              Generated by Buildcell
#
# at 04:19:41 (GMT+0.0) 24th November 2020
# in /lustre/scratch/uccabz1/launch_tmp
# on node-c12c-026
# by uccabz1
#
# compiler GCC version 4.9.2
# options -cpp -iprefix /lustre/shared/ucl/apps/gcc/4.9.2/bin/../lib/gcc/x86_64-unknown-linux-gnu/4.9.2/ -mtune=corei7 -march=x86-64 -g -Og
#
# seed  -265032780  1047992989 -1556483259  1071723220  1772189419  -794136683   405502194  1922122527  1788533317 -1171155412 -1992794593  -835215541
#
#      Author: C. J. Pickard (cjp20@cam.ac.uk)
#                Space group: Pmc21
#

%BLOCK LATTICE_ABC
      4.18407      4.95007      7.72519
     90.00000     90.00000     90.00000
%ENDBLOCK LATTICE_ABC

%BLOCK POSITIONS_FRAC
  Li  -0.2738253   0.5000000  -0.0580072 SPIN=   0.00000
  Li   0.2738253   0.5000000   0.4419928 SPIN=   0.00000
   O  -0.3916633   0.2509859  -0.2703510 SPIN=   0.00000
   O   0.1277182   0.2488334  -0.0860381 SPIN=   0.00000
   O   0.3916633  -0.2509859   0.2296490 SPIN=   0.00000
   O  -0.1277182  -0.2488334   0.4139619 SPIN=   0.00000
   O   0.3916633   0.2509859   0.2296490 SPIN=   0.00000
   O  -0.1277182   0.2488334   0.4139619 SPIN=   0.00000
   O  -0.3916633  -0.2509859  -0.2703510 SPIN=   0.00000
   O   0.1277182  -0.2488334  -0.0860381 SPIN=   0.00000
   P   0.4968670   0.0000000  -0.0669160 SPIN=   0.00000
   P  -0.4968670   0.0000000   0.4330840 SPIN=   0.00000
  Fe   0.0016345  -0.0000000  -0.3167917 SPIN=   4.00000
  Fe  -0.0016345   0.0000000   0.1832083 SPIN=   4.00000
%ENDBLOCK POSITIONS_FRAC

# Note: total spin =   8.00

KPOINTS_MP_SPACING 0.07

%BLOCK SPECIES_POT
QC5
%ENDBLOCK SPECIES_POT

%BLOCK HUBBARD_U
Fe d:4.0
%ENDBLOCK HUBBARD_U

SNAP_TO_SYMMETRY
SYMMETRY_GENERATE

