#              Generated by Buildcell
#
# at 05:23:41 (GMT+0.0) 24th November 2020
# in /lustre/scratch/uccabz1/launch_tmp
# on node-c12p-022
# by uccabz1
#
# compiler GCC version 4.9.2
# options -cpp -iprefix /lustre/shared/ucl/apps/gcc/4.9.2/bin/../lib/gcc/x86_64-unknown-linux-gnu/4.9.2/ -mtune=corei7 -march=x86-64 -g -Og
#
# seed    85702967    30494385  1480749099   391840729  -414478977  1727575052 -1916152421 -1261372330  1712210351 -1581485421   -66176597  -370066163
#
#      Author: C. J. Pickard (cjp20@cam.ac.uk)
#                Space group: Pc
#

%BLOCK LATTICE_ABC
      4.99240      5.72503      5.79074
     90.00000    104.82421     90.00000
%ENDBLOCK LATTICE_ABC

%BLOCK POSITIONS_FRAC
  Li  -0.4942191   0.3020177   0.4894649 SPIN=   0.00000
  Li  -0.4942191  -0.3020177  -0.0105351 SPIN=   0.00000
   O  -0.4501975   0.3485992  -0.1110139 SPIN=   0.00000
   O  -0.0971337   0.0174571   0.0536234 SPIN=   0.00000
   O  -0.1283698   0.3479897   0.3196290 SPIN=   0.00000
   O  -0.5170487   0.0590398   0.2117270 SPIN=   0.00000
   P  -0.3088640   0.1999578   0.1073716 SPIN=   0.00000
   O  -0.4501975  -0.3485992  -0.6110139 SPIN=   0.00000
   O  -0.0971337  -0.0174571  -0.4463766 SPIN=   0.00000
   O  -0.1283698  -0.3479897  -0.1803710 SPIN=   0.00000
   O  -0.5170487  -0.0590398  -0.2882730 SPIN=   0.00000
   P  -0.3088640  -0.1999578  -0.3926284 SPIN=   0.00000
  Fe   0.1173564  -0.2278647   0.3635133 SPIN=   4.00000
  Fe   0.1173564   0.2278647  -0.1364867 SPIN=   4.00000
%ENDBLOCK POSITIONS_FRAC

# Note: total spin =   8.00

KPOINTS_MP_SPACING 0.07

%BLOCK SPECIES_POT
QC5
%ENDBLOCK SPECIES_POT

%BLOCK HUBBARD_U
Fe d:4.0
%ENDBLOCK HUBBARD_U

SNAP_TO_SYMMETRY
SYMMETRY_GENERATE

