#              Generated by Buildcell
#
# at 23:21:14 (GMT+0.0) 23rd November 2020
# in /lustre/scratch/uccabz1/launch_tmp
# on node-c12i-020
# by uccabz1
#
# compiler GCC version 4.9.2
# options -cpp -iprefix /lustre/shared/ucl/apps/gcc/4.9.2/bin/../lib/gcc/x86_64-unknown-linux-gnu/4.9.2/ -mtune=corei7 -march=x86-64 -g -Og
#
# seed  1129256779   287856741  -524195602  1554368013   104695572 -2068025150  2064280292  1685338974 -1134019848  -358395831  -940395531  -960701002
#
#      Author: C. J. Pickard (cjp20@cam.ac.uk)
#                Space group: Cm
#

%BLOCK LATTICE_ABC
      5.68601      5.71269      6.28056
    114.93738    114.79344     94.20147
%ENDBLOCK LATTICE_ABC

%BLOCK POSITIONS_FRAC
  Li   0.0863142   0.2117323   0.0000000 SPIN=   0.00000
  Li   0.4770213   0.6468945   0.0000000 SPIN=   0.00000
   O  -0.0378105   0.3638614  -0.2691423 SPIN=   0.00000
   O  -0.1501815  -0.1338462  -0.6335052 SPIN=   0.00000
   O  -0.4623705   0.1257043  -0.7506208 SPIN=   0.00000
   O  -0.0003289   0.2438026  -0.6965868 SPIN=   0.00000
   O   0.2313318   0.6330037   0.2691423 SPIN=   0.00000
   O   0.4833237   0.4996590   0.6335052 SPIN=   0.00000
   O   0.2882503   0.8763251   0.7506208 SPIN=   0.00000
   O   0.6962580   0.9403895   0.6965868 SPIN=   0.00000
   P  -0.0503352  -0.3512285  -0.0000000 SPIN=   0.00000
   P  -0.4616119  -0.8840256   0.0000000 SPIN=   0.00000
  Fe   0.3962982   0.0787839   0.4923443 SPIN=   4.00000
  Fe  -0.0960461  -0.4135604  -0.4923443 SPIN=   4.00000
%ENDBLOCK POSITIONS_FRAC

# Note: total spin =   8.00

KPOINTS_MP_SPACING 0.07

%BLOCK SPECIES_POT
QC5
%ENDBLOCK SPECIES_POT

%BLOCK HUBBARD_U
Fe d:4.0
%ENDBLOCK HUBBARD_U

SNAP_TO_SYMMETRY
SYMMETRY_GENERATE

