#              Generated by Buildcell
#
# at 00:46:34 (GMT+0.0) 24th November 2020
# in /lustre/scratch/uccabz1/launch_tmp
# on node-c12c-035
# by uccabz1
#
# compiler GCC version 4.9.2
# options -cpp -iprefix /lustre/shared/ucl/apps/gcc/4.9.2/bin/../lib/gcc/x86_64-unknown-linux-gnu/4.9.2/ -mtune=corei7 -march=x86-64 -g -Og
#
# seed   979145589 -1886095235 -1076152669 -1975517252  -239236973  1649650446 -2052846217   325267894   769037888  1059049410  -838904710 -1483536492
#
#      Author: C. J. Pickard (cjp20@cam.ac.uk)
#                Space group: Cc
#

%BLOCK LATTICE_ABC
      5.87001      5.91319      5.99863
    106.34465    106.03707    115.60695
%ENDBLOCK LATTICE_ABC

%BLOCK POSITIONS_FRAC
  Li  -0.2213867  -0.1125581   0.2535245 SPIN=   0.00000
  Li   0.5250888   0.1339175  -0.2535245 SPIN=   0.00000
   O  -0.0576710  -0.5109952  -0.6424901 SPIN=   0.00000
   O   0.2007042  -0.0170215  -0.6247371 SPIN=   0.00000
   O   0.3613695  -0.3323203  -0.7577895 SPIN=   0.00000
   O  -0.1097753  -0.4502906  -1.0599657 SPIN=   0.00000
   P   0.0878734  -0.3388660  -0.7677972 SPIN=   0.00000
   O  -0.4151809  -0.3685052  -0.3575099 SPIN=   0.00000
   O  -0.1745586   0.1077156  -0.3752629 SPIN=   0.00000
   O   0.1191590  -0.0745308  -0.2422105 SPIN=   0.00000
   O  -0.0498096   0.1096751   0.0599657 SPIN=   0.00000
   P  -0.1443293  -0.0710688  -0.2322028 SPIN=   0.00000
  Fe   0.3877718   0.2799697   0.2487838 SPIN=   4.00000
  Fe  -0.8610121  -0.4688142  -0.2487838 SPIN=   4.00000
%ENDBLOCK POSITIONS_FRAC

# Note: total spin =   8.00

KPOINTS_MP_SPACING 0.07

%BLOCK SPECIES_POT
QC5
%ENDBLOCK SPECIES_POT

%BLOCK HUBBARD_U
Fe d:4.0
%ENDBLOCK HUBBARD_U

SNAP_TO_SYMMETRY
SYMMETRY_GENERATE

