#              Generated by Buildcell
#
# at 21:54:22 (GMT+0.0) 23rd November 2020
# in /lustre/scratch/uccabz1/launch_tmp
# on node-c12i-020
# by uccabz1
#
# compiler GCC version 4.9.2
# options -cpp -iprefix /lustre/shared/ucl/apps/gcc/4.9.2/bin/../lib/gcc/x86_64-unknown-linux-gnu/4.9.2/ -mtune=corei7 -march=x86-64 -g -Og
#
# seed  -804118287  -148796851 -1888095131  -799893279  -294127098   491181550  -933569612  1389330673  1048155373 -1120279506  1469117372 -1289056153
#
#      Author: C. J. Pickard (cjp20@cam.ac.uk)
#                Space group: Pnc2
#

%BLOCK LATTICE_ABC
      5.31679      5.31733      5.65949
     90.00000     90.00000     90.00000
%ENDBLOCK LATTICE_ABC

%BLOCK POSITIONS_FRAC
  Li   0.0000000   0.5000000  -0.1342501 SPIN=   0.00000
  Li   0.5000000  -0.5000000   0.3657499 SPIN=   0.00000
   O   0.3088163   0.1517388   0.4044792 SPIN=   0.00000
   O   0.2265098  -0.2863587   0.5924616 SPIN=   0.00000
   O  -0.3088163  -0.1517388   0.4044792 SPIN=   0.00000
   O  -0.2265098   0.2863587   0.5924616 SPIN=   0.00000
   O   0.1911837   0.1517388  -0.0955208 SPIN=   0.00000
   O   0.2734902  -0.2863587   0.0924616 SPIN=   0.00000
   O  -0.1911837  -0.1517388  -0.0955208 SPIN=   0.00000
   O  -0.2734902   0.2863587   0.0924616 SPIN=   0.00000
   P   0.0000000  -0.5000000   0.3929201 SPIN=   0.00000
   P  -0.5000000   0.5000000  -0.1070799 SPIN=   0.00000
  Fe   0.0000000  -0.0000000   0.2099900 SPIN=   4.00000
  Fe  -0.5000000   0.0000000  -0.2900100 SPIN=   4.00000
%ENDBLOCK POSITIONS_FRAC

# Note: total spin =   8.00

KPOINTS_MP_SPACING 0.07

%BLOCK SPECIES_POT
QC5
%ENDBLOCK SPECIES_POT

%BLOCK HUBBARD_U
Fe d:4.0
%ENDBLOCK HUBBARD_U

SNAP_TO_SYMMETRY
SYMMETRY_GENERATE

