#              Generated by Buildcell
#
# at 04:12:21 (GMT+0.0) 24th November 2020
# in /lustre/scratch/uccabz1/launch_tmp
# on node-c12b-020
# by uccabz1
#
# compiler GCC version 4.9.2
# options -cpp -iprefix /lustre/shared/ucl/apps/gcc/4.9.2/bin/../lib/gcc/x86_64-unknown-linux-gnu/4.9.2/ -mtune=corei7 -march=x86-64 -g -Og
#
# seed  1716616487  1312160072   872543841  -154932103   679051510    52785772  -875983268  1879976853 -1004671515  -340116744  1335260656   -43536527
#
#      Author: C. J. Pickard (cjp20@cam.ac.uk)
#                Space group: P21212
#

%BLOCK LATTICE_ABC
      5.23562      5.32368      5.74036
     90.00000     90.00000     90.00000
%ENDBLOCK LATTICE_ABC

%BLOCK POSITIONS_FRAC
  Li  -0.0000000  -0.0000000  -0.0246286 SPIN=   0.00000
  Li  -0.5000000  -0.5000000   0.0246286 SPIN=   0.00000
   O   0.2736119   0.2105063   0.1690351 SPIN=   0.00000
   O   0.2291194   0.2621065  -0.2791913 SPIN=   0.00000
   O  -0.2736119  -0.2105063   0.1690351 SPIN=   0.00000
   O  -0.2291194  -0.2621065  -0.2791913 SPIN=   0.00000
   O  -0.2263881   0.2894937  -0.1690351 SPIN=   0.00000
   O  -0.2708806   0.2378935   0.2791913 SPIN=   0.00000
   O   0.2263881  -0.2894937  -0.1690351 SPIN=   0.00000
   O   0.2708806  -0.2378935   0.2791913 SPIN=   0.00000
   P   0.0000000  -0.5000000  -0.1038269 SPIN=   0.00000
   P   0.5000000  -0.0000000   0.1038269 SPIN=   0.00000
  Fe   0.5000000  -0.0000000  -0.3961160 SPIN=   4.00000
  Fe   0.0000000  -0.5000000   0.3961160 SPIN=   4.00000
%ENDBLOCK POSITIONS_FRAC

# Note: total spin =   8.00

KPOINTS_MP_SPACING 0.07

%BLOCK SPECIES_POT
QC5
%ENDBLOCK SPECIES_POT

%BLOCK HUBBARD_U
Fe d:4.0
%ENDBLOCK HUBBARD_U

SNAP_TO_SYMMETRY
SYMMETRY_GENERATE

