#              Generated by Buildcell
#
# at 19:58:03 (GMT+0.0) 30th November 2020
# in /scratch/scratch/mmm0366/launch_tmp
# on node-k98g-020
# by mmm0366
#
# compiler GCC version 4.9.2
# options -cpp -iprefix /scratch/UCL/applications/gcc/4.9.2/bin/../lib/gcc/x86_64-unknown-linux-gnu/4.9.2/ -mtune=corei7 -march=x86-64 -g -O2
#
# seed  1669581086  1681843738  -439717961  -613162116   -14673718   257902326  1975867982 -2112473833  1548245401 -1779742224   799541348  -199187824
#
#      Author: C. J. Pickard (cjp20@cam.ac.uk)
#                Space group: C2
#

%BLOCK LATTICE_ABC
      5.05774      5.05774      6.46199
     94.84102     94.84102    102.36217
%ENDBLOCK LATTICE_ABC

%BLOCK POSITIONS_FRAC
  Li   0.4318797  -0.4318797   0.5000000 SPIN=   0.00000
  Li   0.0185880  -0.0185880  -0.5000000 SPIN=   0.00000
   O   0.7446828  -0.0537121  -0.1751528 SPIN=   0.00000
   O   0.4385550  -0.0133028  -0.5094063 SPIN=   0.00000
   O   0.2221974  -0.0986118  -0.1855224 SPIN=   0.00000
   O   0.5229769   0.3570819  -0.2131034 SPIN=   0.00000
   P   0.4965665   0.0461045  -0.2650229 SPIN=   0.00000
   O   0.0537121  -0.7446828   0.1751528 SPIN=   0.00000
   O   0.0133028  -0.4385550   0.5094063 SPIN=   0.00000
   O   0.0986118  -0.2221974   0.1855224 SPIN=   0.00000
   O  -0.3570819  -0.5229769   0.2131034 SPIN=   0.00000
   P  -0.0461045  -0.4965665   0.2650229 SPIN=   0.00000
  Fe  -0.0484120  -0.4988740  -0.1788062 SPIN=   4.00000
  Fe   0.4988740   0.0484120   0.1788062 SPIN=   4.00000
%ENDBLOCK POSITIONS_FRAC

# Note: total spin =   8.00

KPOINTS_MP_SPACING 0.07

%BLOCK SPECIES_POT
QC5
%ENDBLOCK SPECIES_POT

%BLOCK HUBBARD_U
Fe d:4.0
%ENDBLOCK HUBBARD_U

SNAP_TO_SYMMETRY
SYMMETRY_GENERATE

