#              Generated by Buildcell
#
# at 21:15:22 (GMT+0.0) 23rd November 2020
# in /lustre/scratch/uccabz1/launch_tmp
# on node-c12e-025
# by uccabz1
#
# compiler GCC version 4.9.2
# options -cpp -iprefix /lustre/shared/ucl/apps/gcc/4.9.2/bin/../lib/gcc/x86_64-unknown-linux-gnu/4.9.2/ -mtune=corei7 -march=x86-64 -g -Og
#
# seed  1783696687   522450414   825159669 -1388417971   372771342 -1656161922  1773166102   924441616 -1866445284 -1709282274  1263513375  -844926432
#
#      Author: C. J. Pickard (cjp20@cam.ac.uk)
#                Space group: Amm2
#

%BLOCK LATTICE_ABC
      3.79751      3.79751     11.11339
     90.00000     90.00000     93.31110
%ENDBLOCK LATTICE_ABC

%BLOCK POSITIONS_FRAC
  Li   0.4570847  -0.4570847   0.2944740 SPIN=   0.00000
  Li   0.4570847  -0.4570847  -0.2944740 SPIN=   0.00000
   O   0.5007414   0.0254945   0.3888777 SPIN=   0.00000
   O   0.4436060   0.0826069   0.1568299 SPIN=   0.00000
   O  -0.0254945  -0.5007414  -0.3888777 SPIN=   0.00000
   O  -0.0826069  -0.4436060  -0.1568299 SPIN=   0.00000
   O  -0.0254945  -0.5007414   0.3888777 SPIN=   0.00000
   O  -0.0826069  -0.4436060   0.1568299 SPIN=   0.00000
   O   0.5007414   0.0254945  -0.3888777 SPIN=   0.00000
   O   0.4436060   0.0826069  -0.1568299 SPIN=   0.00000
   P  -0.0681586   0.0681586  -0.1730993 SPIN=   0.00000
   P  -0.0681586   0.0681586   0.1730993 SPIN=   0.00000
  Fe   0.3677031  -0.3677031  -0.0000000 SPIN=   5.48698
  Fe  -0.0435625   0.0435625   0.5000000 SPIN=   2.51302
%ENDBLOCK POSITIONS_FRAC

# Note: total spin =   8.00

KPOINTS_MP_SPACING 0.07

%BLOCK SPECIES_POT
QC5
%ENDBLOCK SPECIES_POT

%BLOCK HUBBARD_U
Fe d:4.0
%ENDBLOCK HUBBARD_U

SNAP_TO_SYMMETRY
SYMMETRY_GENERATE

