#              Generated by Buildcell
#
# at 02:45:28 (GMT+0.0) 24th November 2020
# in /lustre/scratch/uccabz1/launch_tmp
# on node-c12p-022
# by uccabz1
#
# compiler GCC version 4.9.2
# options -cpp -iprefix /lustre/shared/ucl/apps/gcc/4.9.2/bin/../lib/gcc/x86_64-unknown-linux-gnu/4.9.2/ -mtune=corei7 -march=x86-64 -g -Og
#
# seed -1565869653   470030607    -2230825 -1686291395  1280889374  1428980349  -139151664  1157047137  1945824644 -1185603094  1508406988 -1435546598
#
#      Author: C. J. Pickard (cjp20@cam.ac.uk)
#                Space group: I41
#

%BLOCK LATTICE_ABC
      5.37048      5.37048      6.72275
    113.54227    113.54227     90.00000
%ENDBLOCK LATTICE_ABC

%BLOCK POSITIONS_FRAC
  Li   0.4635125  -0.0364875  -0.0729749 SPIN=   0.00000
  Li   0.2135125   0.2135125   0.4270251 SPIN=   0.00000
   O  -0.1425033   0.3123738   0.2081962 SPIN=   0.00000
   O  -0.4323697   0.4223936   0.4529681 SPIN=   0.00000
   O  -0.6493005  -0.1041776   0.2081962 SPIN=   0.00000
   O  -0.1146622   0.0305745   0.4529681 SPIN=   0.00000
   O  -0.4376262   0.1006995  -0.2918038 SPIN=   0.00000
   O  -0.3276064   0.6353378  -0.0470319 SPIN=   0.00000
   O   0.1458224   0.6074967  -0.2918038 SPIN=   0.00000
   O   0.2805745   0.3176303  -0.0470319 SPIN=   0.00000
   P  -0.0279055  -0.0279055  -0.0558111 SPIN=   0.00000
   P   0.2220945  -0.2779055   0.4441889 SPIN=   0.00000
  Fe  -0.1143271   0.3856729  -0.2286541 SPIN=   4.00000
  Fe  -0.3643271  -0.3643271   0.2713459 SPIN=   4.00000
%ENDBLOCK POSITIONS_FRAC

# Note: total spin =   8.00

KPOINTS_MP_SPACING 0.07

%BLOCK SPECIES_POT
QC5
%ENDBLOCK SPECIES_POT

%BLOCK HUBBARD_U
Fe d:4.0
%ENDBLOCK HUBBARD_U

SNAP_TO_SYMMETRY
SYMMETRY_GENERATE

