#              Generated by Buildcell
#
# at 21:27:26 (GMT+0.0) 23rd November 2020
# in /scratch/scratch/uccabz1/launch_tmp
# on node-k10e-034
# by uccabz1
#
# compiler GCC version 4.9.2
# options -cpp -iprefix /scratch/UCL/applications/gcc/4.9.2/bin/../lib/gcc/x86_64-unknown-linux-gnu/4.9.2/ -mtune=corei7 -march=x86-64 -g -O2
#
# seed  1194538638   880770274  -374851899  -225393939 -1981614676 -1691042908  1699529971   123436261 -2127969630   900460644  -812674096   138373045
#
#      Author: C. J. Pickard (cjp20@cam.ac.uk)
#                Space group: Iba2
#

%BLOCK LATTICE_ABC
      5.50234      5.50282      6.56224
    114.78908    114.78680     90.00000
%ENDBLOCK LATTICE_ABC

%BLOCK POSITIONS_FRAC
  Li   0.1929732   0.1929732   0.3859464 SPIN=   0.00000
  Li  -0.3070268  -0.3070268   0.3859464 SPIN=   0.00000
   O   0.2650598   0.6504029   0.0996325 SPIN=   0.00000
   O   0.1973215   0.1973053  -0.2901019 SPIN=   0.00000
   O  -0.1654273   0.4492295   0.0996325 SPIN=   0.00000
   O  -0.4874235   0.5125928  -0.2901019 SPIN=   0.00000
   O   0.3345727   0.1504029   0.0996325 SPIN=   0.00000
   O   0.0125765  -0.3026947  -0.2901019 SPIN=   0.00000
   O  -0.2349402  -0.0507705   0.0996325 SPIN=   0.00000
   O  -0.3026785   0.0125928  -0.2901019 SPIN=   0.00000
   P  -0.0566458  -0.0566458  -0.1132915 SPIN=   0.00000
   P   0.4433542   0.4433542  -0.1132915 SPIN=   0.00000
  Fe  -0.1302319   0.3697681  -0.2604638 SPIN=   4.00000
  Fe   0.3697681  -0.1302319  -0.2604638 SPIN=   4.00000
%ENDBLOCK POSITIONS_FRAC

# Note: total spin =   8.00

KPOINTS_MP_SPACING 0.07

%BLOCK SPECIES_POT
QC5
%ENDBLOCK SPECIES_POT

%BLOCK HUBBARD_U
Fe d:4.0
%ENDBLOCK HUBBARD_U

SNAP_TO_SYMMETRY
SYMMETRY_GENERATE

