#              Generated by Buildcell
#
# at 01:06:16 (GMT+0.0) 24th November 2020
# in /scratch/scratch/uccabz1/launch_tmp
# on node-k10h-026
# by uccabz1
#
# compiler GCC version 4.9.2
# options -cpp -iprefix /scratch/UCL/applications/gcc/4.9.2/bin/../lib/gcc/x86_64-unknown-linux-gnu/4.9.2/ -mtune=corei7 -march=x86-64 -g -O2
#
# seed   -80814514   231092255  -212938821  -466361435 -2047198963   553074446 -2027926023  1503354625 -2108511763    57960584  1758658514  -344899626
#
#      Author: C. J. Pickard (cjp20@cam.ac.uk)
#                Space group: P-1
#

%BLOCK LATTICE_ABC
      4.98363      5.91625      6.41444
     63.67641     71.60725     86.99901
%ENDBLOCK LATTICE_ABC

%BLOCK POSITIONS_FRAC
  Li   0.0586936  -0.2174496  -0.0679138 SPIN=   0.00000
  Li  -0.0586936   0.2174496   0.0679138 SPIN=   0.00000
   O  -0.1495832   0.3390918  -0.2627618 SPIN=   0.00000
   O  -0.6236680   0.1303707  -0.2178106 SPIN=   0.00000
   O  -0.2772071   0.3642562  -0.6346592 SPIN=   0.00000
   P  -0.2950774   0.2003822  -0.3583760 SPIN=   0.00000
   O   0.1495832  -0.3390918   0.2627618 SPIN=   0.00000
   O   0.6236680  -0.1303707   0.2178106 SPIN=   0.00000
   O   0.2772071  -0.3642562   0.6346592 SPIN=   0.00000
   P   0.2950774  -0.2003822   0.3583760 SPIN=   0.00000
   O   0.0000000  -0.0000000  -0.5000000 SPIN=   0.00000
   O   0.5000000  -0.5000000   0.0000000 SPIN=   0.00000
  Fe  -0.3037213  -0.3037168  -0.3824807 SPIN=   4.00000
  Fe   0.3037213   0.3037168   0.3824807 SPIN=   4.00000
%ENDBLOCK POSITIONS_FRAC

# Note: total spin =   8.00

KPOINTS_MP_SPACING 0.07

%BLOCK SPECIES_POT
QC5
%ENDBLOCK SPECIES_POT

%BLOCK HUBBARD_U
Fe d:4.0
%ENDBLOCK HUBBARD_U

SNAP_TO_SYMMETRY
SYMMETRY_GENERATE

