#              Generated by Buildcell
#
# at 23:21:24 (GMT+0.0) 23rd November 2020
# in /lustre/scratch/uccabz1/launch_tmp
# on node-c12a-027
# by uccabz1
#
# compiler GCC version 4.9.2
# options -cpp -iprefix /lustre/shared/ucl/apps/gcc/4.9.2/bin/../lib/gcc/x86_64-unknown-linux-gnu/4.9.2/ -mtune=corei7 -march=x86-64 -g -Og
#
# seed  -546819640  -339374736 -2011683434    37230488  -261337015  -640828254   295078719  -554994734  1000461385  2037113529  1291513382  1372351209
#
#      Author: C. J. Pickard (cjp20@cam.ac.uk)
#                Space group: Cm
#

%BLOCK LATTICE_ABC
      5.00301      6.31203      6.31203
    100.65912    111.61082    111.61082
%ENDBLOCK LATTICE_ABC

%BLOCK POSITIONS_FRAC
  Li  -0.1465645  -0.2521363  -0.2521363 SPIN=   0.00000
  Li   0.1127041   0.4834276   0.4834276 SPIN=   0.00000
   O  -0.0344656  -0.4294304   0.1681800 SPIN=   0.00000
   O   0.3951831   0.0119534   0.2646863 SPIN=   0.00000
   O   0.5917407  -0.2775484   0.3773048 SPIN=   0.00000
   O   0.2970420  -0.3407747  -0.0658004 SPIN=   0.00000
   O  -0.0344656   0.1681800  -0.4294304 SPIN=   0.00000
   O   0.3951831   0.2646863   0.0119534 SPIN=   0.00000
   O   0.5917407   0.3773048  -0.2775484 SPIN=   0.00000
   O   0.2970420  -0.0658004  -0.3407747 SPIN=   0.00000
   P   0.4813008   0.3422125   0.3422125 SPIN=   0.00000
   P   0.4841399  -0.1113048  -0.1113048 SPIN=   0.00000
  Fe  -0.0178446   0.3167886  -0.0864625 SPIN=   4.00000
  Fe  -0.0178446  -0.0864625   0.3167886 SPIN=   4.00000
%ENDBLOCK POSITIONS_FRAC

# Note: total spin =   8.00

KPOINTS_MP_SPACING 0.07

%BLOCK SPECIES_POT
QC5
%ENDBLOCK SPECIES_POT

%BLOCK HUBBARD_U
Fe d:4.0
%ENDBLOCK HUBBARD_U

SNAP_TO_SYMMETRY
SYMMETRY_GENERATE

