#              Generated by Buildcell
#
# at 23:00:07 (GMT+0.0) 23rd November 2020
# in /lustre/scratch/uccabz1/launch_tmp
# on node-c12h-025
# by uccabz1
#
# compiler GCC version 4.9.2
# options -cpp -iprefix /lustre/shared/ucl/apps/gcc/4.9.2/bin/../lib/gcc/x86_64-unknown-linux-gnu/4.9.2/ -mtune=corei7 -march=x86-64 -g -Og
#
# seed   488452288  1517537979 -1367267254  1569606995 -2050737133  -291319639  -190811401 -1048487009  1970498890  1396690417  1078809268  1424904749
#
#      Author: C. J. Pickard (cjp20@cam.ac.uk)
#                Space group: P21
#

%BLOCK LATTICE_ABC
      4.66847      5.37860      6.76815
     90.00000    109.70015     90.00000
%ENDBLOCK LATTICE_ABC

%BLOCK POSITIONS_FRAC
  Li   0.3281284  -0.0827565   0.4340043 SPIN=   0.00000
  Li  -0.3281284   0.4172435  -0.4340043 SPIN=   0.00000
   O   0.4800889   0.5014028  -0.1233970 SPIN=   0.00000
   O  -0.0036424   0.2390985  -0.1636136 SPIN=   0.00000
   O   0.0909253   0.3749401  -0.4847825 SPIN=   0.00000
   O   0.4233093   0.0478963  -0.2565739 SPIN=   0.00000
   P   0.2621181   0.2991792  -0.2499670 SPIN=   0.00000
   O  -0.4800889   0.0014028   0.1233970 SPIN=   0.00000
   O   0.0036424  -0.2609015   0.1636136 SPIN=   0.00000
   O  -0.0909253  -0.1250599   0.4847825 SPIN=   0.00000
   O  -0.4233093  -0.4521037   0.2565739 SPIN=   0.00000
   P  -0.2621181  -0.2008208   0.2499670 SPIN=   0.00000
  Fe  -0.1872675   0.2992564   0.1279115 SPIN=   4.00000
  Fe   0.1872675  -0.2007436  -0.1279115 SPIN=   4.00000
%ENDBLOCK POSITIONS_FRAC

# Note: total spin =   8.00

KPOINTS_MP_SPACING 0.07

%BLOCK SPECIES_POT
QC5
%ENDBLOCK SPECIES_POT

%BLOCK HUBBARD_U
Fe d:4.0
%ENDBLOCK HUBBARD_U

SNAP_TO_SYMMETRY
SYMMETRY_GENERATE

