#              Generated by Buildcell
#
# at 03:02:27 (GMT+0.0) 24th November 2020
# in /scratch/scratch/uccabz1/launch_tmp
# on node-k10e-028
# by uccabz1
#
# compiler GCC version 4.9.2
# options -cpp -iprefix /scratch/UCL/applications/gcc/4.9.2/bin/../lib/gcc/x86_64-unknown-linux-gnu/4.9.2/ -mtune=corei7 -march=x86-64 -g -O2
#
# seed  1765708088  1814247542  2143803579 -2083420870 -1031581240  1923585790 -1063267809 -1800924166  1597632011  -942698256  -820722859  1513613391
#
#      Author: C. J. Pickard (cjp20@cam.ac.uk)
#                Space group: Pc
#

%BLOCK LATTICE_ABC
      4.01246      5.73682      7.35448
     90.00000     90.00000    109.07035
%ENDBLOCK LATTICE_ABC

%BLOCK POSITIONS_FRAC
  Li   0.4588872  -0.3134996  -0.0818893 SPIN=   0.00000
  Li   0.4588872   0.1865004   0.0818893 SPIN=   0.00000
   O  -0.1538295   0.2273875  -0.1150034 SPIN=   0.00000
   O  -0.5934063   0.4077095  -0.2745363 SPIN=   0.00000
   O   0.0290974   0.6715536  -0.2468720 SPIN=   0.00000
   O  -0.1315906   0.3119104  -0.4605067 SPIN=   0.00000
   P  -0.2083580   0.3941081  -0.2679499 SPIN=   0.00000
   O  -0.1538295  -0.2726125   0.1150034 SPIN=   0.00000
   O  -0.5934063  -0.0922905   0.2745363 SPIN=   0.00000
   O   0.0290974   0.1715536   0.2468720 SPIN=   0.00000
   O  -0.1315906  -0.1880896   0.4605067 SPIN=   0.00000
   P  -0.2083580  -0.1058919   0.2679499 SPIN=   0.00000
  Fe   0.1226656  -0.4642443   0.3243949 SPIN=   4.00000
  Fe   0.1226656   0.0357557  -0.3243949 SPIN=   4.00000
%ENDBLOCK POSITIONS_FRAC

# Note: total spin =   8.00

KPOINTS_MP_SPACING 0.07

%BLOCK SPECIES_POT
QC5
%ENDBLOCK SPECIES_POT

%BLOCK HUBBARD_U
Fe d:4.0
%ENDBLOCK HUBBARD_U

SNAP_TO_SYMMETRY
SYMMETRY_GENERATE

