#              Generated by Buildcell
#
# at 00:04:16 (GMT+0.0) 24th November 2020
# in /scratch/scratch/uccabz1/launch_tmp
# on node-k10f-020
# by uccabz1
#
# compiler GCC version 4.9.2
# options -cpp -iprefix /scratch/UCL/applications/gcc/4.9.2/bin/../lib/gcc/x86_64-unknown-linux-gnu/4.9.2/ -mtune=corei7 -march=x86-64 -g -O2
#
# seed  -841113889  -720683184  -654085905  -573505938 -1737796968 -1802169933 -1236186869  2030375148  1773318150   471255105  -564767438   806445933
#
#      Author: C. J. Pickard (cjp20@cam.ac.uk)
#                Space group: P-1
#

%BLOCK LATTICE_ABC
      4.49715      5.12840      7.70786
     83.72018     88.23625     64.90687
%ENDBLOCK LATTICE_ABC

%BLOCK POSITIONS_FRAC
  Li  -0.5000000   0.0000000  -0.5000000 SPIN=   0.00000
  Li   0.5000000   0.0000000  -0.0000000 SPIN=   0.00000
   O  -0.0629103  -0.2724794  -0.1134041 SPIN=   0.00000
   O  -0.1696313   0.1164192  -0.3788439 SPIN=   0.00000
   O   0.3786796  -0.1036840  -0.2360215 SPIN=   0.00000
   P   0.0814676  -0.1735832  -0.2773720 SPIN=   0.00000
   O   0.0629103   0.2724794   0.1134041 SPIN=   0.00000
   O   0.1696313  -0.1164192   0.3788439 SPIN=   0.00000
   O  -0.3786796   0.1036840   0.2360215 SPIN=   0.00000
   P  -0.0814676   0.1735832   0.2773720 SPIN=   0.00000
   O  -0.5000000   0.5000000   0.0000000 SPIN=   0.00000
   O   1.0000000  -0.5000000   0.5000000 SPIN=   0.00000
  Fe  -0.1924662   0.4202993  -0.2141526 SPIN=   4.00000
  Fe   0.1924662  -0.4202993   0.2141526 SPIN=   4.00000
%ENDBLOCK POSITIONS_FRAC

# Note: total spin =   8.00

KPOINTS_MP_SPACING 0.07

%BLOCK SPECIES_POT
QC5
%ENDBLOCK SPECIES_POT

%BLOCK HUBBARD_U
Fe d:4.0
%ENDBLOCK HUBBARD_U

SNAP_TO_SYMMETRY
SYMMETRY_GENERATE

