#              Generated by Buildcell
#
# at 05:04:36 (GMT+0.0) 24th November 2020
# in /lustre/scratch/uccabz1/launch_tmp
# on node-c12l-025
# by uccabz1
#
# compiler GCC version 4.9.2
# options -cpp -iprefix /lustre/shared/ucl/apps/gcc/4.9.2/bin/../lib/gcc/x86_64-unknown-linux-gnu/4.9.2/ -mtune=corei7 -march=x86-64 -g -Og
#
# seed    94083979  2100258912 -1434848825   272496665  1109205809 -1074501562 -1245032688  -178442264 -1489722895  1611595723  -430190122  1991173330
#
#      Author: C. J. Pickard (cjp20@cam.ac.uk)
#                Space group: P2/m
#

%BLOCK LATTICE_ABC
      3.81174      4.90244      8.57111
     90.00000     92.61518     90.00000
%ENDBLOCK LATTICE_ABC

%BLOCK POSITIONS_FRAC
  Li   0.2622445   0.5000000  -0.3610458 SPIN=   0.00000
  Li  -0.2622445   0.5000000   0.3610458 SPIN=   0.00000
   O   0.6757729  -0.2527271   0.1599027 SPIN=   0.00000
   O   0.2683394  -0.2502309   0.3947741 SPIN=   0.00000
   O  -0.6757729  -0.2527271  -0.1599027 SPIN=   0.00000
   O  -0.2683394  -0.2502309  -0.3947741 SPIN=   0.00000
   O  -0.6757729   0.2527271  -0.1599027 SPIN=   0.00000
   O  -0.2683394   0.2502309  -0.3947741 SPIN=   0.00000
   O   0.6757729   0.2527271   0.1599027 SPIN=   0.00000
   O   0.2683394   0.2502309   0.3947741 SPIN=   0.00000
   P   0.0000000   0.0000000  -0.5000000 SPIN=   0.00000
   P   0.0000000   0.5000000   0.0000000 SPIN=   0.00000
  Fe  -0.2536404   0.0000000  -0.1948920 SPIN=   4.00000
  Fe   0.2536404   0.0000000   0.1948920 SPIN=   4.00000
%ENDBLOCK POSITIONS_FRAC

# Note: total spin =   8.00

KPOINTS_MP_SPACING 0.07

%BLOCK SPECIES_POT
QC5
%ENDBLOCK SPECIES_POT

%BLOCK HUBBARD_U
Fe d:4.0
%ENDBLOCK HUBBARD_U

SNAP_TO_SYMMETRY
SYMMETRY_GENERATE

