#              Generated by Buildcell
#
# at 01:12:41 (GMT+0.0) 24th November 2020
# in /scratch/scratch/uccabz1/launch_tmp
# on node-a14a-024
# by uccabz1
#
# compiler GCC version 4.9.2
# options -cpp -iprefix /scratch/UCL/applications/gcc/4.9.2/bin/../lib/gcc/x86_64-unknown-linux-gnu/4.9.2/ -mtune=corei7 -march=x86-64 -g -O2
#
# seed  1045335798  -903122940   951554311 -1768462027  -125546417 -1156213221  1856649653 -1480283490   334279616 -1642455950 -1974766160 -1627186636
#
#      Author: C. J. Pickard (cjp20@cam.ac.uk)
#                Space group: C2
#

%BLOCK LATTICE_ABC
      5.18453      5.18453      6.35403
     98.70017     98.70017    104.76596
%ENDBLOCK LATTICE_ABC

%BLOCK POSITIONS_FRAC
  Li  -0.5266966  -0.4733034  -0.5000000 SPIN=   0.00000
  Li  -0.0601500   0.0601500   0.0000000 SPIN=   0.00000
   O  -0.6973749   0.2450826  -0.0923829 SPIN=   0.00000
   O  -0.7013201   0.1032542  -0.5031831 SPIN=   0.00000
   O  -0.2604024   0.3396354  -0.2557701 SPIN=   0.00000
   O  -0.4995997  -0.1397045  -0.2392964 SPIN=   0.00000
   P  -0.5475982   0.1395520  -0.2626657 SPIN=   0.00000
   O  -0.2450826   0.6973749   0.0923829 SPIN=   0.00000
   O  -0.1032542   0.7013201   0.5031831 SPIN=   0.00000
   O  -0.3396354   0.2604024   0.2557701 SPIN=   0.00000
   O   0.1397045   0.4995997   0.2392964 SPIN=   0.00000
   P  -0.1395520   0.5475982   0.2626657 SPIN=   0.00000
  Fe   0.3392767  -0.3392767   0.0000000 SPIN=   3.01987
  Fe  -0.1239107  -0.8760893  -0.5000000 SPIN=   4.98013
%ENDBLOCK POSITIONS_FRAC

# Note: total spin =   8.00

KPOINTS_MP_SPACING 0.07

%BLOCK SPECIES_POT
QC5
%ENDBLOCK SPECIES_POT

%BLOCK HUBBARD_U
Fe d:4.0
%ENDBLOCK HUBBARD_U

SNAP_TO_SYMMETRY
SYMMETRY_GENERATE

