#              Generated by Buildcell
#
# at 22:47:41 (GMT+0.0) 23rd November 2020
# in /lustre/scratch/uccabz1/launch_tmp
# on node-c12c-022
# by uccabz1
#
# compiler GCC version 4.9.2
# options -cpp -iprefix /lustre/shared/ucl/apps/gcc/4.9.2/bin/../lib/gcc/x86_64-unknown-linux-gnu/4.9.2/ -mtune=corei7 -march=x86-64 -g -Og
#
# seed  -679741286   968704521   630147555  -936981321   234073115  1115672858  1392095831  -284086356 -1209405158  1250742561 -1483465707   -61792687
#
#      Author: C. J. Pickard (cjp20@cam.ac.uk)
#                Space group: P2
#

%BLOCK LATTICE_ABC
      4.70780      5.24532      6.65578
    103.22218     90.00000     90.00000
%ENDBLOCK LATTICE_ABC

%BLOCK POSITIONS_FRAC
  Li   0.0046905   0.4135567  -0.3000246 SPIN=   0.00000
  Li   0.0046905  -0.4135567   0.3000246 SPIN=   0.00000
   O  -0.4335967  -0.6348754  -0.2485763 SPIN=   0.00000
   O  -0.2329024  -0.1816411  -0.2732357 SPIN=   0.00000
   O  -0.7337577  -0.2826555  -0.3702246 SPIN=   0.00000
   P  -0.4951792  -0.3410548  -0.2214800 SPIN=   0.00000
   O  -0.4335967   0.6348754   0.2485763 SPIN=   0.00000
   O  -0.2329024   0.1816411   0.2732357 SPIN=   0.00000
   O  -0.7337577   0.2826555   0.3702246 SPIN=   0.00000
   P  -0.4951792   0.3410548   0.2214800 SPIN=   0.00000
   O   0.4206308   0.0000000  -0.0000000 SPIN=   0.00000
   O   0.1759450   0.5000000  -0.0000000 SPIN=   0.00000
  Fe  -0.4952938  -0.0000000  -0.5000000 SPIN=   4.74012
  Fe  -0.0247198   0.0000000   0.0000000 SPIN=   3.25988
%ENDBLOCK POSITIONS_FRAC

# Note: total spin =   8.00

KPOINTS_MP_SPACING 0.07

%BLOCK SPECIES_POT
QC5
%ENDBLOCK SPECIES_POT

%BLOCK HUBBARD_U
Fe d:4.0
%ENDBLOCK HUBBARD_U

SNAP_TO_SYMMETRY
SYMMETRY_GENERATE

