#              Generated by Buildcell
#
# at 21:12:07 (GMT+0.0) 23rd November 2020
# in /lustre/scratch/uccabz1/launch_tmp
# on node-c12j-029
# by uccabz1
#
# compiler GCC version 4.9.2
# options -cpp -iprefix /lustre/shared/ucl/apps/gcc/4.9.2/bin/../lib/gcc/x86_64-unknown-linux-gnu/4.9.2/ -mtune=corei7 -march=x86-64 -g -Og
#
# seed   915667183   656273854  1870771906   755350710  1578074426  1702471860 -1979268818 -1446255623 -1223876795   812154290 -1470035507 -1099423611
#
#      Author: C. J. Pickard (cjp20@cam.ac.uk)
#                Space group: Cm
#

%BLOCK LATTICE_ABC
      5.65555      5.83186      6.22997
    115.45942    114.48983     94.82474
%ENDBLOCK LATTICE_ABC

%BLOCK POSITIONS_FRAC
  Li  -0.0271368  -0.1269752  -0.0000000 SPIN=   0.00000
  Li   0.8163127   0.3575460  -0.0000000 SPIN=   0.00000
   O  -0.0622248   0.0853336  -0.2600793 SPIN=   0.00000
   O  -0.5630393  -0.0471478  -0.6424749 SPIN=   0.00000
   O  -0.3308029  -0.3915286  -0.6920925 SPIN=   0.00000
   O  -0.4688877  -0.2348534  -0.3325839 SPIN=   0.00000
   P  -0.3419133  -0.1357120  -0.4682407 SPIN=   0.00000
   O   0.1978545   0.3454130   0.2600793 SPIN=   0.00000
   O   0.0794356   0.5953271   0.6424749 SPIN=   0.00000
   O   0.3612896   0.3005639   0.6920925 SPIN=   0.00000
   O  -0.1363037   0.0977306   0.3325839 SPIN=   0.00000
   P   0.1263274   0.3325288   0.4682407 SPIN=   0.00000
  Fe   0.1939493  -0.0846489  -0.4006821 SPIN=   4.00000
  Fe   0.5946314   0.3160331   0.4006821 SPIN=   4.00000
%ENDBLOCK POSITIONS_FRAC

# Note: total spin =   8.00

KPOINTS_MP_SPACING 0.07

%BLOCK SPECIES_POT
QC5
%ENDBLOCK SPECIES_POT

%BLOCK HUBBARD_U
Fe d:4.0
%ENDBLOCK HUBBARD_U

SNAP_TO_SYMMETRY
SYMMETRY_GENERATE

