#              Generated by Buildcell
#
# at 21:50:42 (GMT+0.0) 23rd November 2020
# in /lustre/scratch/uccabz1/launch_tmp
# on node-c12c-025
# by uccabz1
#
# compiler GCC version 4.9.2
# options -cpp -iprefix /lustre/shared/ucl/apps/gcc/4.9.2/bin/../lib/gcc/x86_64-unknown-linux-gnu/4.9.2/ -mtune=corei7 -march=x86-64 -g -Og
#
# seed   390929552  1012740986    13672803  -149803163   913399435   813624765   548752048   332974463 -1378931179  -557007886   185509228 -2131081402
#
#      Author: C. J. Pickard (cjp20@cam.ac.uk)
#                Space group: Cc
#

%BLOCK LATTICE_ABC
      4.34888      6.61605      6.70918
    114.73893    102.16023    103.30294
%ENDBLOCK LATTICE_ABC

%BLOCK POSITIONS_FRAC
  Li   0.3084228   0.3446939  -0.2164476 SPIN=   0.00000
  Li   0.0248704  -0.4388585   0.2164476 SPIN=   0.00000
   O  -0.1224470  -0.6013907  -0.1501902 SPIN=   0.00000
   O  -0.0901324  -0.5439028  -0.5062947 SPIN=   0.00000
   O  -0.4793048  -0.4017026  -0.3110484 SPIN=   0.00000
   O   0.1434487  -0.1864432  -0.1057460 SPIN=   0.00000
   P  -0.1330173  -0.4393928  -0.2601115 SPIN=   0.00000
   O  -0.4722569  -0.4512006   0.1501902 SPIN=   0.00000
   O  -0.0838376  -0.0376080   0.5062947 SPIN=   0.00000
   O  -0.6682564  -0.0906542   0.3110484 SPIN=   0.00000
   O  -0.2508053  -0.0806972   0.1057460 SPIN=   0.00000
   P  -0.3729058  -0.1792813   0.2601115 SPIN=   0.00000
  Fe   0.4196813   0.2151609   0.2798686 SPIN=   4.00000
  Fe  -0.3601873  -0.0647077  -0.2798686 SPIN=   4.00000
%ENDBLOCK POSITIONS_FRAC

# Note: total spin =   8.00

KPOINTS_MP_SPACING 0.07

%BLOCK SPECIES_POT
QC5
%ENDBLOCK SPECIES_POT

%BLOCK HUBBARD_U
Fe d:4.0
%ENDBLOCK HUBBARD_U

SNAP_TO_SYMMETRY
SYMMETRY_GENERATE

