#              Generated by Buildcell
#
# at 04:58:04 (GMT+0.0) 24th November 2020
# in /scratch/scratch/uccabz1/launch_tmp
# on node-a14a-024
# by uccabz1
#
# compiler GCC version 4.9.2
# options -cpp -iprefix /scratch/UCL/applications/gcc/4.9.2/bin/../lib/gcc/x86_64-unknown-linux-gnu/4.9.2/ -mtune=corei7 -march=x86-64 -g -O2
#
# seed   -89868738  -508774099   858279535  -270211735   588311849  1504710055  1810671510   604627830 -2033029529 -1732614431  1331992557    -7866045
#
#      Author: C. J. Pickard (cjp20@cam.ac.uk)
#                Space group: P21
#

%BLOCK LATTICE_ABC
      3.91976      4.78625      8.52841
     90.00000     90.23091     90.00000
%ENDBLOCK LATTICE_ABC

%BLOCK POSITIONS_FRAC
  Li   0.2663076   0.4925493  -0.0241105 SPIN=   0.00000
  Li  -0.2663076  -0.0074507   0.0241105 SPIN=   0.00000
   O   0.9887769  -0.6138812  -0.4380830 SPIN=   0.00000
   O   0.5112285  -0.6707958  -0.2301385 SPIN=   0.00000
   O   0.9467051  -0.3050004  -0.1884004 SPIN=   0.00000
   O   0.5125447  -0.2467157  -0.4021421 SPIN=   0.00000
   P   0.7503878  -0.4648334  -0.3222930 SPIN=   0.00000
   O  -0.9887769  -0.1138812   0.4380830 SPIN=   0.00000
   O  -0.5112285  -0.1707958   0.2301385 SPIN=   0.00000
   O  -0.9467051   0.1949996   0.1884004 SPIN=   0.00000
   O  -0.5125447   0.2532843   0.4021421 SPIN=   0.00000
   P  -0.7503878   0.0351666   0.3222930 SPIN=   0.00000
  Fe  -0.1538922  -0.4648327   0.3109730 SPIN=   4.00000
  Fe   0.1538922   0.0351673  -0.3109730 SPIN=   4.00000
%ENDBLOCK POSITIONS_FRAC

# Note: total spin =   8.00

KPOINTS_MP_SPACING 0.07

%BLOCK SPECIES_POT
QC5
%ENDBLOCK SPECIES_POT

%BLOCK HUBBARD_U
Fe d:4.0
%ENDBLOCK HUBBARD_U

SNAP_TO_SYMMETRY
SYMMETRY_GENERATE

