#              Generated by Buildcell
#
# at 04:31:54 (GMT+0.0) 24th November 2020
# in /lustre/scratch/uccabz1/launch_tmp
# on node-c12b-030
# by uccabz1
#
# compiler GCC version 4.9.2
# options -cpp -iprefix /lustre/shared/ucl/apps/gcc/4.9.2/bin/../lib/gcc/x86_64-unknown-linux-gnu/4.9.2/ -mtune=corei7 -march=x86-64 -g -Og
#
# seed  -105720821 -1564715392  1537935656  -767460683  1771472788  2146402409 -1834025390 -1529481329 -1748907958 -2071882818  -200476562 -1051503323
#
#      Author: C. J. Pickard (cjp20@cam.ac.uk)
#                Space group: P-1
#

%BLOCK LATTICE_ABC
      4.27970      5.99557      6.32314
     81.52044     86.68855     86.64474
%ENDBLOCK LATTICE_ABC

%BLOCK POSITIONS_FRAC
  Li  -0.2697626  -0.3955194  -0.3760052 SPIN=   0.00000
  Li   0.2697626   0.3955194   0.3760052 SPIN=   0.00000
   O   0.2432441  -0.3450829  -0.4029470 SPIN=   0.00000
   O   0.3263186  -0.2182308  -0.0355440 SPIN=   0.00000
   O   0.3304841   0.0701473  -0.3577370 SPIN=   0.00000
   O  -0.1740926  -0.1008310  -0.2172829 SPIN=   0.00000
   P   0.1805805  -0.1584040  -0.2609156 SPIN=   0.00000
   O  -0.2432441   0.3450829   0.4029470 SPIN=   0.00000
   O  -0.3263186   0.2182308   0.0355440 SPIN=   0.00000
   O  -0.3304841  -0.0701473   0.3577370 SPIN=   0.00000
   O   0.1740926   0.1008310   0.2172829 SPIN=   0.00000
   P  -0.1805805   0.1584040   0.2609156 SPIN=   0.00000
  Fe  -0.2401628  -0.2589051   0.1057560 SPIN=   4.00000
  Fe   0.2401628   0.2589051  -0.1057560 SPIN=   4.00000
%ENDBLOCK POSITIONS_FRAC

# Note: total spin =   8.00

KPOINTS_MP_SPACING 0.07

%BLOCK SPECIES_POT
QC5
%ENDBLOCK SPECIES_POT

%BLOCK HUBBARD_U
Fe d:4.0
%ENDBLOCK HUBBARD_U

SNAP_TO_SYMMETRY
SYMMETRY_GENERATE

