#              Generated by Buildcell
#
# at 04:33:52 (GMT+0.0) 24th November 2020
# in /scratch/scratch/uccabz1/launch_tmp
# on node-a14e-019
# by uccabz1
#
# compiler GCC version 4.9.2
# options -cpp -iprefix /scratch/UCL/applications/gcc/4.9.2/bin/../lib/gcc/x86_64-unknown-linux-gnu/4.9.2/ -mtune=corei7 -march=x86-64 -g -O2
#
# seed  -487739506   748847297  2113959352  -437174327  1428011299   -36526011   721344513  1471614965   672208681   -48331351  1008678596  1744804178
#
#      Author: C. J. Pickard (cjp20@cam.ac.uk)
#                Space group: P2
#

%BLOCK LATTICE_ABC
      4.66232      5.35886      6.59511
    103.82989     90.00000     90.00000
%ENDBLOCK LATTICE_ABC

%BLOCK POSITIONS_FRAC
  Li   0.2627517   0.4128266   0.2026647 SPIN=   0.00000
  Li   0.2627517  -0.4128266  -0.2026647 SPIN=   0.00000
   O  -0.3597879   0.2681242  -0.5091666 SPIN=   0.00000
   O  -0.4890410   0.2368484  -0.1328416 SPIN=   0.00000
   O   0.0121971   0.1554818  -0.2515170 SPIN=   0.00000
   O  -0.1847399   0.6026705  -0.1826581 SPIN=   0.00000
   P  -0.2600710   0.3166293  -0.2808116 SPIN=   0.00000
   O  -0.3597879  -0.2681242   0.5091666 SPIN=   0.00000
   O  -0.4890410  -0.2368484   0.1328416 SPIN=   0.00000
   O   0.0121971  -0.1554818   0.2515170 SPIN=   0.00000
   O  -0.1847399  -0.6026705   0.1826581 SPIN=   0.00000
   P  -0.2600710  -0.3166293   0.2808116 SPIN=   0.00000
  Fe   0.2895806  -0.0000000   0.5000000 SPIN=   3.56813
  Fe  -0.2321204  -0.0000000   0.0000000 SPIN=   4.43187
%ENDBLOCK POSITIONS_FRAC

# Note: total spin =   8.00

KPOINTS_MP_SPACING 0.07

%BLOCK SPECIES_POT
QC5
%ENDBLOCK SPECIES_POT

%BLOCK HUBBARD_U
Fe d:4.0
%ENDBLOCK HUBBARD_U

SNAP_TO_SYMMETRY
SYMMETRY_GENERATE

