#              Generated by Buildcell
#
# at 05:49:16 (GMT+0.0) 24th November 2020
# in /lustre/scratch/uccabz1/launch_tmp
# on node-c12a-033
# by uccabz1
#
# compiler GCC version 4.9.2
# options -cpp -iprefix /lustre/shared/ucl/apps/gcc/4.9.2/bin/../lib/gcc/x86_64-unknown-linux-gnu/4.9.2/ -mtune=corei7 -march=x86-64 -g -Og
#
# seed  -905748089   585424125  -789341218  -247907360  1207380149  -724277373   868731970  1792890924  2012237477 -1436341209   694639617   480038902
#
#      Author: C. J. Pickard (cjp20@cam.ac.uk)
#                Space group: P-1
#

%BLOCK LATTICE_ABC
      3.81229      5.62626      7.69381
     76.02988     88.07991     88.10367
%ENDBLOCK LATTICE_ABC

%BLOCK POSITIONS_FRAC
  Li   0.4944655   0.4369389  -0.2429772 SPIN=   0.00000
  Li  -0.4944655  -0.4369389   0.2429772 SPIN=   0.00000
   O  -0.1238773  -0.1139313   0.2726954 SPIN=   0.00000
   O  -0.5556146   0.1873065   0.3847177 SPIN=   0.00000
   O  -0.0450419   0.3572279   0.1945221 SPIN=   0.00000
   O  -0.5370584   0.1852427   0.0594022 SPIN=   0.00000
   O   0.1238773   0.1139313  -0.2726954 SPIN=   0.00000
   O   0.5556146  -0.1873065  -0.3847177 SPIN=   0.00000
   O   0.0450419  -0.3572279  -0.1945221 SPIN=   0.00000
   O   0.5370584  -0.1852427  -0.0594022 SPIN=   0.00000
   P  -0.0000000   0.5000000  -0.5000000 SPIN=   0.00000
   P   0.0000000   0.5000000  -0.0000000 SPIN=   0.00000
  Fe  -1.0000000  -0.0000000   0.5000000 SPIN=   7.38455
  Fe  -0.0000000   0.0000000   0.0000000 SPIN=   0.61545
%ENDBLOCK POSITIONS_FRAC

# Note: total spin =   8.00

KPOINTS_MP_SPACING 0.07

%BLOCK SPECIES_POT
QC5
%ENDBLOCK SPECIES_POT

%BLOCK HUBBARD_U
Fe d:4.0
%ENDBLOCK HUBBARD_U

SNAP_TO_SYMMETRY
SYMMETRY_GENERATE

