#              Generated by Buildcell
#
# at 00:56:50 (GMT+0.0) 24th November 2020
# in /scratch/scratch/uccabz1/launch_tmp
# on node-a14c-005
# by uccabz1
#
# compiler GCC version 4.9.2
# options -cpp -iprefix /scratch/UCL/applications/gcc/4.9.2/bin/../lib/gcc/x86_64-unknown-linux-gnu/4.9.2/ -mtune=corei7 -march=x86-64 -g -O2
#
# seed    71481784  -172900234  1066724981  1789470399 -1852839584  1278539452 -1542454654  1217557842 -1710790714 -1590925932  -407092473   729908037
#
#      Author: C. J. Pickard (cjp20@cam.ac.uk)
#                Space group: P21212
#

%BLOCK LATTICE_ABC
      4.50047      5.36559      6.62590
     90.00000     90.00000     90.00000
%ENDBLOCK LATTICE_ABC

%BLOCK POSITIONS_FRAC
  Li  -0.0000000  -0.0000000  -0.1369930 SPIN=   0.00000
  Li  -0.5000000  -0.5000000   0.1369930 SPIN=   0.00000
   O   0.4011747  -0.2169704  -0.1502316 SPIN=   0.00000
   O  -0.0880926  -0.2813028  -0.3517184 SPIN=   0.00000
   O  -0.4011747   0.2169704  -0.1502316 SPIN=   0.00000
   O   0.0880926   0.2813028  -0.3517184 SPIN=   0.00000
   O   0.0988253   0.2830296   0.1502316 SPIN=   0.00000
   O   0.5880926   0.2186972   0.3517184 SPIN=   0.00000
   O  -0.0988253  -0.2830296   0.1502316 SPIN=   0.00000
   O  -0.5880926  -0.2186972   0.3517184 SPIN=   0.00000
   P  -0.0000000  -0.5000000  -0.0946838 SPIN=   0.00000
   P  -0.5000000  -0.0000000   0.0946838 SPIN=   0.00000
  Fe  -0.0000000  -0.0000000   0.3634900 SPIN=   4.00000
  Fe   0.5000000  -0.5000000  -0.3634900 SPIN=   4.00000
%ENDBLOCK POSITIONS_FRAC

# Note: total spin =   8.00

KPOINTS_MP_SPACING 0.07

%BLOCK SPECIES_POT
QC5
%ENDBLOCK SPECIES_POT

%BLOCK HUBBARD_U
Fe d:4.0
%ENDBLOCK HUBBARD_U

SNAP_TO_SYMMETRY
SYMMETRY_GENERATE

