#              Generated by Buildcell
#
# at 02:24:51 (GMT+0.0) 24th November 2020
# in /lustre/scratch/uccabz1/launch_tmp
# on node-c12l-030
# by uccabz1
#
# compiler GCC version 4.9.2
# options -cpp -iprefix /lustre/shared/ucl/apps/gcc/4.9.2/bin/../lib/gcc/x86_64-unknown-linux-gnu/4.9.2/ -mtune=corei7 -march=x86-64 -g -Og
#
# seed  -655405726  1906089643  -731035221  -103556706  1333350618  1018030726 -1653569389  1619225968  -120472155   383812151 -1700182188 -1110264517
#
#      Author: C. J. Pickard (cjp20@cam.ac.uk)
#                Space group: Cm
#

%BLOCK LATTICE_ABC
      5.73320      5.73320      5.85700
    110.32253    110.32253     99.60005
%ENDBLOCK LATTICE_ABC

%BLOCK POSITIONS_FRAC
  Li  -0.3725579   0.0005288   0.0767866 SPIN=   0.00000
  Li   0.0005288  -0.3725579   0.0767866 SPIN=   0.00000
   O  -0.0506935  -0.6523963  -0.5834617 SPIN=   0.00000
   O   0.0746247  -0.2063173  -0.1732096 SPIN=   0.00000
   O   0.4175021  -0.3055503  -0.3178587 SPIN=   0.00000
   P   0.1121148  -0.3581197  -0.4320482 SPIN=   0.00000
   O  -0.6523963  -0.0506935  -0.5834617 SPIN=   0.00000
   O  -0.2063173   0.0746247  -0.1732096 SPIN=   0.00000
   O  -0.3055503   0.4175021  -0.3178587 SPIN=   0.00000
   P  -0.3581197   0.1121148  -0.4320482 SPIN=   0.00000
   O   0.4830420   0.4830420  -0.0044670 SPIN=   0.00000
   O   0.2378439   0.2378439   0.1970555 SPIN=   0.00000
  Fe   0.1682946   0.1682946  -0.3717210 SPIN=   7.58554
  Fe  -0.4294767  -0.4294767   0.4012388 SPIN=   0.41446
%ENDBLOCK POSITIONS_FRAC

# Note: total spin =   8.00

KPOINTS_MP_SPACING 0.07

%BLOCK SPECIES_POT
QC5
%ENDBLOCK SPECIES_POT

%BLOCK HUBBARD_U
Fe d:4.0
%ENDBLOCK HUBBARD_U

SNAP_TO_SYMMETRY
SYMMETRY_GENERATE

