#              Generated by Buildcell
#
# at 01:35:10 (GMT+0.0) 24th November 2020
# in /scratch/scratch/uccabz1/launch_tmp
# on node-a14f-010
# by uccabz1
#
# compiler GCC version 4.9.2
# options -cpp -iprefix /scratch/UCL/applications/gcc/4.9.2/bin/../lib/gcc/x86_64-unknown-linux-gnu/4.9.2/ -mtune=corei7 -march=x86-64 -g -O2
#
# seed   755940778  1104270114  -571141769  -458756252  -313718698  1380530968   932638457  -762773715  -176301934  1903160344  1210356986   -79285515
#
#      Author: C. J. Pickard (cjp20@cam.ac.uk)
#                Space group: P-1
#

%BLOCK LATTICE_ABC
      4.93517      5.68688      6.52830
     99.58138    105.37293    109.38306
%ENDBLOCK LATTICE_ABC

%BLOCK POSITIONS_FRAC
  Li   0.0728579   0.0405710   0.2440869 SPIN=   0.00000
  Li  -0.0728579  -0.0405710  -0.2440869 SPIN=   0.00000
   O  -0.1074755  -0.4165661  -0.3708538 SPIN=   0.00000
   O   0.4791701  -0.2768305  -0.2744279 SPIN=   0.00000
   O   0.2858632  -0.1656491   0.0247144 SPIN=   0.00000
   O   0.1939349  -0.6291573  -0.1334496 SPIN=   0.00000
   P   0.1955927  -0.3774551  -0.1975638 SPIN=   0.00000
   O   0.1074755   0.4165661   0.3708538 SPIN=   0.00000
   O  -0.4791701   0.2768305   0.2744279 SPIN=   0.00000
   O  -0.2858632   0.1656491  -0.0247144 SPIN=   0.00000
   O  -0.1939349   0.6291573   0.1334496 SPIN=   0.00000
   P  -0.1955927   0.3774551   0.1975638 SPIN=   0.00000
  Fe  -0.4287320   0.3496392  -0.2583301 SPIN=   4.00000
  Fe   0.4287320  -0.3496392   0.2583301 SPIN=   4.00000
%ENDBLOCK POSITIONS_FRAC

# Note: total spin =   8.00

KPOINTS_MP_SPACING 0.07

%BLOCK SPECIES_POT
QC5
%ENDBLOCK SPECIES_POT

%BLOCK HUBBARD_U
Fe d:4.0
%ENDBLOCK HUBBARD_U

SNAP_TO_SYMMETRY
SYMMETRY_GENERATE

