#              Generated by Buildcell
#
# at 03:05:52 (GMT+0.0) 24th November 2020
# in /lustre/scratch/uccabz1/launch_tmp
# on node-c12p-023
# by uccabz1
#
# compiler GCC version 4.9.2
# options -cpp -iprefix /lustre/shared/ucl/apps/gcc/4.9.2/bin/../lib/gcc/x86_64-unknown-linux-gnu/4.9.2/ -mtune=corei7 -march=x86-64 -g -Og
#
# seed -1841713457   532508168 -1429467254  -600873546 -1557136481   890719437 -1629859374  -288053029   234790158  -258103946   817884593  -315468485
#
#      Author: C. J. Pickard (cjp20@cam.ac.uk)
#                Space group: P21
#

%BLOCK LATTICE_ABC
      3.91999      6.27030      6.64088
     90.00000    101.41599     90.00000
%ENDBLOCK LATTICE_ABC

%BLOCK POSITIONS_FRAC
  Li   0.4861499  -0.0464384  -0.0113698 SPIN=   0.00000
  Li  -0.4861499   0.4535616   0.0113698 SPIN=   0.00000
   O   0.4131053  -0.2736836   0.4439747 SPIN=   0.00000
   O  -0.1539863  -0.4819625   0.2957501 SPIN=   0.00000
   O  -0.1639712  -0.0888787   0.2710987 SPIN=   0.00000
   O   0.1681159  -0.3002348   0.0540284 SPIN=   0.00000
   P   0.0855146  -0.2856898   0.2731739 SPIN=   0.00000
   O  -0.4131053   0.2263164  -0.4439747 SPIN=   0.00000
   O   0.1539863   0.0180375  -0.2957501 SPIN=   0.00000
   O   0.1639712   0.4111213  -0.2710987 SPIN=   0.00000
   O  -0.1681159   0.1997652  -0.0540284 SPIN=   0.00000
   P  -0.0855146   0.2143102  -0.2731739 SPIN=   0.00000
  Fe  -0.1229709  -0.3052456  -0.3365914 SPIN=   4.00000
  Fe   0.1229709   0.1947544   0.3365914 SPIN=   4.00000
%ENDBLOCK POSITIONS_FRAC

# Note: total spin =   8.00

KPOINTS_MP_SPACING 0.07

%BLOCK SPECIES_POT
QC5
%ENDBLOCK SPECIES_POT

%BLOCK HUBBARD_U
Fe d:4.0
%ENDBLOCK HUBBARD_U

SNAP_TO_SYMMETRY
SYMMETRY_GENERATE

