#              Generated by Buildcell
#
# at 19:34:15 (GMT+0.0) 30th November 2020
# in /lustre/scratch/uccabz1/launch_tmp
# on node-c12f-021
# by uccabz1
#
# compiler GCC version 4.9.2
# options -cpp -iprefix /lustre/shared/ucl/apps/gcc/4.9.2/bin/../lib/gcc/x86_64-unknown-linux-gnu/4.9.2/ -mtune=corei7 -march=x86-64 -g -Og
#
# seed -1582049120  1755495782  1437696283  1164244100 -1579670450  -708490988 -1787625988  -427872712  1096365168   725565767   444348100   813465364
#
#      Author: C. J. Pickard (cjp20@cam.ac.uk)
#                Space group: Cc
#

%BLOCK LATTICE_ABC
      4.92542      5.89492      6.59731
    112.32090    107.04567    100.33567
%ENDBLOCK LATTICE_ABC

%BLOCK POSITIONS_FRAC
  Li   0.3159178   0.4099956   0.2608159 SPIN=   0.00000
  Li  -0.4448981   0.1491797  -0.2608159 SPIN=   0.00000
   O  -0.3173841   0.2885877   0.1081549 SPIN=   0.00000
   O  -0.3397178   0.7431543   0.3560861 SPIN=   0.00000
   O   0.1451414   0.6635367   0.4681787 SPIN=   0.00000
   O  -0.0589272   0.6980438   0.0897771 SPIN=   0.00000
   P  -0.1510330   0.5830151   0.2457449 SPIN=   0.00000
   O   0.0744610  -0.8195672  -0.1081549 SPIN=   0.00000
   O  -0.1958039  -0.6129318  -0.3560861 SPIN=   0.00000
   O   0.1769628  -0.8046420  -0.4681787 SPIN=   0.00000
   O   0.3512956  -0.3917333  -0.0897771 SPIN=   0.00000
   P   0.1032221  -0.6627298  -0.2457449 SPIN=   0.00000
  Fe  -0.2657662   0.0426165   0.2647130 SPIN=   4.00000
  Fe  -0.0304792  -0.2220964  -0.2647130 SPIN=   4.00000
%ENDBLOCK POSITIONS_FRAC

# Note: total spin =   8.00

KPOINTS_MP_SPACING 0.07

%BLOCK SPECIES_POT
QC5
%ENDBLOCK SPECIES_POT

%BLOCK HUBBARD_U
Fe d:4.0
%ENDBLOCK HUBBARD_U

SNAP_TO_SYMMETRY
SYMMETRY_GENERATE

