#              Generated by Buildcell
#
# at 01:12:14 (GMT+0.0) 24th November 2020
# in /lustre/scratch/uccabz1/launch_tmp
# on node-c12l-025
# by uccabz1
#
# compiler GCC version 4.9.2
# options -cpp -iprefix /lustre/shared/ucl/apps/gcc/4.9.2/bin/../lib/gcc/x86_64-unknown-linux-gnu/4.9.2/ -mtune=corei7 -march=x86-64 -g -Og
#
# seed  -498294032  -293843337  1873569135 -2008153586  1941944987   701106425 -1609635821 -1919392107 -1652948606   271374395 -1717380363  2044090625
#
#      Author: C. J. Pickard (cjp20@cam.ac.uk)
#                Space group: P-1
#

%BLOCK LATTICE_ABC
      4.05291      5.28639      7.93139
     78.54756     75.78332     79.87897
%ENDBLOCK LATTICE_ABC

%BLOCK POSITIONS_FRAC
  Li  -0.5000000   0.0000000   0.0000000 SPIN=   0.00000
  Li  -0.0000000   0.5000000   0.0000000 SPIN=   0.00000
   O   0.4066681   0.7480334  -0.4769709 SPIN=   0.00000
   O   0.8498638   0.6650308  -0.2779941 SPIN=   0.00000
   O   0.2506962   0.8382922  -0.1545837 SPIN=   0.00000
   O   0.3891555   0.3770580  -0.2096036 SPIN=   0.00000
   P   0.4695034   0.6586403  -0.2894588 SPIN=   0.00000
   O  -0.4066681  -0.7480334   0.4769709 SPIN=   0.00000
   O  -0.8498638  -0.6650308   0.2779941 SPIN=   0.00000
   O  -0.2506962  -0.8382922   0.1545837 SPIN=   0.00000
   O  -0.3891555  -0.3770580   0.2096036 SPIN=   0.00000
   P  -0.4695034  -0.6586403   0.2894588 SPIN=   0.00000
  Fe   0.1317109   0.1853022  -0.3407627 SPIN=   4.00000
  Fe  -0.1317109  -0.1853022   0.3407627 SPIN=   4.00000
%ENDBLOCK POSITIONS_FRAC

# Note: total spin =   8.00

KPOINTS_MP_SPACING 0.07

%BLOCK SPECIES_POT
QC5
%ENDBLOCK SPECIES_POT

%BLOCK HUBBARD_U
Fe d:4.0
%ENDBLOCK HUBBARD_U

SNAP_TO_SYMMETRY
SYMMETRY_GENERATE

