#              Generated by Buildcell
#
# at 00:52:34 (GMT+0.0) 24th November 2020
# in /lustre/scratch/uccabz1/launch_tmp
# on node-c12k-029
# by uccabz1
#
# compiler GCC version 4.9.2
# options -cpp -iprefix /lustre/shared/ucl/apps/gcc/4.9.2/bin/../lib/gcc/x86_64-unknown-linux-gnu/4.9.2/ -mtune=corei7 -march=x86-64 -g -Og
#
# seed -1067869461   886887712 -1953845279   870342123 -1536840833 -2046996867  -856106226  -846728681 -1161051677  -984371330 -1638794131 -1229064728
#
#      Author: C. J. Pickard (cjp20@cam.ac.uk)
#                Space group: Imm2
#

%BLOCK LATTICE_ABC
      4.83449      5.95511      6.75239
    116.16533    110.97641     90.00000
%ENDBLOCK LATTICE_ABC

%BLOCK POSITIONS_FRAC
  Li  -0.2012311   0.2499945   0.0000000 SPIN=   0.00000
  Li  -0.2012311  -0.2499945  -0.0000000 SPIN=   0.00000
   O  -0.4434094   0.4027273   0.2196611 SPIN=   0.00000
   O   0.1376148   0.4671891   0.3485811 SPIN=   0.00000
   O  -0.6630706  -0.4027273  -0.2196611 SPIN=   0.00000
   O  -0.2109663  -0.4671891  -0.3485811 SPIN=   0.00000
   O  -0.4434094  -0.1830661   0.2196611 SPIN=   0.00000
   O   0.1376148  -0.1186080   0.3485811 SPIN=   0.00000
   O  -0.6630706   0.1830661  -0.2196611 SPIN=   0.00000
   O  -0.2109663   0.1186080  -0.3485811 SPIN=   0.00000
   P   0.1018684   0.3288795   0.6577591 SPIN=   0.00000
   P   0.4441093  -0.3288795  -0.6577591 SPIN=   0.00000
  Fe   0.0889150  -0.1821598  -0.3643196 SPIN=   4.00000
  Fe   0.4532346   0.1821598   0.3643196 SPIN=   4.00000
%ENDBLOCK POSITIONS_FRAC

# Note: total spin =   8.00

KPOINTS_MP_SPACING 0.07

%BLOCK SPECIES_POT
QC5
%ENDBLOCK SPECIES_POT

%BLOCK HUBBARD_U
Fe d:4.0
%ENDBLOCK HUBBARD_U

SNAP_TO_SYMMETRY
SYMMETRY_GENERATE

