#              Generated by Buildcell
#
# at 00:40:24 (GMT+0.0) 24th November 2020
# in /scratch/scratch/uccabz1/launch_tmp
# on node-a14f-014
# by uccabz1
#
# compiler GCC version 4.9.2
# options -cpp -iprefix /scratch/UCL/applications/gcc/4.9.2/bin/../lib/gcc/x86_64-unknown-linux-gnu/4.9.2/ -mtune=corei7 -march=x86-64 -g -O2
#
# seed   -57829281 -1847703484   211529760 -1947018689  -693051433  1952346016   181781761 -1226824133 -2052139613 -1626589431 -1914835403 -1980739048
#
#      Author: C. J. Pickard (cjp20@cam.ac.uk)
#                Space group: I222
#

%BLOCK LATTICE_ABC
      4.90267      5.96231      6.69751
    116.43067    111.46957     90.00000
%ENDBLOCK LATTICE_ABC

%BLOCK POSITIONS_FRAC
  Li   0.0000000   0.0000000  -0.0000000 SPIN=   0.00000
  Li   0.0000000  -0.5000000   0.0000000 SPIN=   0.00000
   O  -0.0235298   0.0414406  -0.3719829 SPIN=   0.00000
   O  -0.3466428   0.1817145  -0.1202995 SPIN=   0.00000
   O  -0.3484531  -0.4134235  -0.3719829 SPIN=   0.00000
   O   0.2263434  -0.3020140  -0.1202995 SPIN=   0.00000
   O   0.3484531  -0.0414406   0.3719829 SPIN=   0.00000
   O  -0.2263434  -0.1817145   0.1202995 SPIN=   0.00000
   O   0.0235298   0.4134235   0.3719829 SPIN=   0.00000
   O   0.3466428   0.3020140   0.1202995 SPIN=   0.00000
   P   0.3319736   0.3319736  -0.3360528 SPIN=   0.00000
   P  -0.3319736  -0.3319736   0.3360528 SPIN=   0.00000
  Fe   0.3008845  -0.1991155  -0.3982311 SPIN=   4.00000
  Fe  -0.3008845   0.1991155   0.3982311 SPIN=   4.00000
%ENDBLOCK POSITIONS_FRAC

# Note: total spin =   8.00

KPOINTS_MP_SPACING 0.07

%BLOCK SPECIES_POT
QC5
%ENDBLOCK SPECIES_POT

%BLOCK HUBBARD_U
Fe d:4.0
%ENDBLOCK HUBBARD_U

SNAP_TO_SYMMETRY
SYMMETRY_GENERATE

