#              Generated by Buildcell
#
# at 00:54:39 (GMT+0.0) 24th November 2020
# in /lustre/scratch/uccabz1/launch_tmp
# on node-c12m-024
# by uccabz1
#
# compiler GCC version 4.9.2
# options -cpp -iprefix /lustre/shared/ucl/apps/gcc/4.9.2/bin/../lib/gcc/x86_64-unknown-linux-gnu/4.9.2/ -mtune=corei7 -march=x86-64 -g -Og
#
# seed   129795579   802077138 -1875968440   381215105  1182576047 -2046118743  -272692500   -34717059   226437362 -1881890677  -306056972  -638932237
#
#      Author: C. J. Pickard (cjp20@cam.ac.uk)
#                Space group: Cm
#

%BLOCK LATTICE_ABC
      5.40424      6.11359      6.24583
    117.23308    113.36901     94.21563
%ENDBLOCK LATTICE_ABC

%BLOCK POSITIONS_FRAC
  Li  -0.3462016  -0.3081615   0.0000000 SPIN=   0.00000
  Li  -0.2267660   0.2078466   0.0000000 SPIN=   0.00000
   O   0.0814295  -0.0189058   0.2543271 SPIN=   0.00000
   O   0.4653870   0.2861509   0.2775298 SPIN=   0.00000
   O   0.5533975   0.2985949   0.7029996 SPIN=   0.00000
   O   0.5660225  -0.0887717   0.3219257 SPIN=   0.00000
   P   0.4004789   0.1094550   0.3812206 SPIN=   0.00000
   O  -0.1728976  -0.2732329  -0.2543271 SPIN=   0.00000
   O   0.1878573   0.0086211  -0.2775298 SPIN=   0.00000
   O  -0.1496021  -0.4044047  -0.7029996 SPIN=   0.00000
   O   0.2440967  -0.4106974  -0.3219257 SPIN=   0.00000
   P   0.0192584  -0.2717656  -0.3812206 SPIN=   0.00000
  Fe  -0.5935648  -0.3486937  -0.5971978 SPIN=   4.00000
  Fe   0.0036330   0.2485040   0.5971978 SPIN=   4.00000
%ENDBLOCK POSITIONS_FRAC

# Note: total spin =   8.00

KPOINTS_MP_SPACING 0.07

%BLOCK SPECIES_POT
QC5
%ENDBLOCK SPECIES_POT

%BLOCK HUBBARD_U
Fe d:4.0
%ENDBLOCK HUBBARD_U

SNAP_TO_SYMMETRY
SYMMETRY_GENERATE

