#              Generated by Buildcell
#
# at 03:01:13 (GMT+0.0) 24th November 2020
# in /scratch/scratch/uccabz1/launch_tmp
# on node-a14e-012
# by uccabz1
#
# compiler GCC version 4.9.2
# options -cpp -iprefix /scratch/UCL/applications/gcc/4.9.2/bin/../lib/gcc/x86_64-unknown-linux-gnu/4.9.2/ -mtune=corei7 -march=x86-64 -g -O2
#
# seed  -641983346  1340871975   192451656  -299659346 -1352685925 -1740707485  -727303583 -1719896323  1407952581  1739280246  -180061355   974143446
#
#      Author: C. J. Pickard (cjp20@cam.ac.uk)
#                Space group: C2221
#

%BLOCK LATTICE_ABC
      4.81199      5.99443      6.04620
     90.00000    113.44915     90.00000
%ENDBLOCK LATTICE_ABC

%BLOCK POSITIONS_FRAC
  Li  -0.0148582  -0.0000000  -0.0297164 SPIN=   0.00000
  Li   0.0148582   0.5000000   0.0297164 SPIN=   0.00000
   O  -0.1714312   0.1674253   0.2055836 SPIN=   0.00000
   O  -0.6503119   0.2824269   0.2761560 SPIN=   0.00000
   O   0.1714312  -0.3325747  -0.2055836 SPIN=   0.00000
   O   0.6503119  -0.2175731  -0.2761560 SPIN=   0.00000
   O   0.6229852   0.3325747  -0.2055836 SPIN=   0.00000
   O   0.0735322   0.2175731  -0.2761560 SPIN=   0.00000
   O  -0.6229852  -0.1674253   0.2055836 SPIN=   0.00000
   O  -0.0735322  -0.2824269   0.2761560 SPIN=   0.00000
   P  -0.3586133   0.0000000   0.2827733 SPIN=   0.00000
   P   0.3586133  -0.5000000  -0.2827733 SPIN=   0.00000
  Fe   0.2822266  -0.0000000  -0.4355468 SPIN=   4.00000
  Fe  -0.2822266   0.5000000   0.4355468 SPIN=   4.00000
%ENDBLOCK POSITIONS_FRAC

# Note: total spin =   8.00

KPOINTS_MP_SPACING 0.07

%BLOCK SPECIES_POT
QC5
%ENDBLOCK SPECIES_POT

%BLOCK HUBBARD_U
Fe d:4.0
%ENDBLOCK HUBBARD_U

SNAP_TO_SYMMETRY
SYMMETRY_GENERATE

