#              Generated by Buildcell
#
# at 01:17:17 (GMT+0.0) 24th November 2020
# in /lustre/scratch/uccabz1/launch_tmp
# on node-c12a-034
# by uccabz1
#
# compiler GCC version 4.9.2
# options -cpp -iprefix /lustre/shared/ucl/apps/gcc/4.9.2/bin/../lib/gcc/x86_64-unknown-linux-gnu/4.9.2/ -mtune=corei7 -march=x86-64 -g -Og
#
# seed  2005135812  -354315559   871976795  1620320560   461981152   387014250   770107047   -22679641  -940015005   533489653 -1048624963  -707927606
#
#      Author: C. J. Pickard (cjp20@cam.ac.uk)
#                Space group: P-1
#

%BLOCK LATTICE_ABC
      3.92281      5.83554      7.08799
     90.31450     92.86832     99.09734
%ENDBLOCK LATTICE_ABC

%BLOCK POSITIONS_FRAC
  Li   0.0000000  -0.5000000   0.0000000 SPIN=   0.00000
  Li  -0.0000000   0.5000000  -0.5000000 SPIN=   0.00000
   O   0.5754166   0.5898861  -0.1624807 SPIN=   0.00000
   O   0.0331828   0.2777069  -0.2327582 SPIN=   0.00000
   O   0.5152421   0.3006415  -0.4466209 SPIN=   0.00000
   P   0.4378361   0.3418423  -0.2345533 SPIN=   0.00000
   O  -0.5754166  -0.5898861   0.1624807 SPIN=   0.00000
   O  -0.0331828  -0.2777069   0.2327582 SPIN=   0.00000
   O  -0.5152421  -0.3006415   0.4466209 SPIN=   0.00000
   P  -0.4378361  -0.3418423   0.2345533 SPIN=   0.00000
   O   0.0000000  -0.0000000   0.5000000 SPIN=   0.00000
   O   0.5000000   0.0000000   0.0000000 SPIN=   0.00000
  Fe  -0.2472151  -0.0692224  -0.2458483 SPIN=   4.00000
  Fe   0.2472151   0.0692224   0.2458483 SPIN=   4.00000
%ENDBLOCK POSITIONS_FRAC

# Note: total spin =   8.00

KPOINTS_MP_SPACING 0.07

%BLOCK SPECIES_POT
QC5
%ENDBLOCK SPECIES_POT

%BLOCK HUBBARD_U
Fe d:4.0
%ENDBLOCK HUBBARD_U

SNAP_TO_SYMMETRY
SYMMETRY_GENERATE

