#              Generated by Buildcell
#
# at 21:33:30 (GMT+0.0) 23rd November 2020
# in /scratch/scratch/uccabz1/launch_tmp
# on node-a14f-014
# by uccabz1
#
# compiler GCC version 4.9.2
# options -cpp -iprefix /scratch/UCL/applications/gcc/4.9.2/bin/../lib/gcc/x86_64-unknown-linux-gnu/4.9.2/ -mtune=corei7 -march=x86-64 -g -O2
#
# seed   240178740   864114529  1427503762 -1702791084 -1457221952   601985320 -1228539954  -956211186 -1594698683 -1887068111 -1597793850  -385310389
#
#      Author: C. J. Pickard (cjp20@cam.ac.uk)
#                Space group: P21
#

%BLOCK LATTICE_ABC
      4.44137      5.77347      6.69668
     90.00000     90.00000    111.28809
%ENDBLOCK LATTICE_ABC

%BLOCK POSITIONS_FRAC
  Li   0.3920959   0.2642996   0.4412298 SPIN=   0.00000
  Li  -0.3920959  -0.2642996  -0.0587702 SPIN=   0.00000
   O   0.0533700  -0.0786859  -0.1996584 SPIN=   0.00000
   O   0.4106401   0.2195234   0.0696113 SPIN=   0.00000
   O   0.6677941   0.1682207  -0.2458562 SPIN=   0.00000
   O   0.2856299   0.3978187  -0.2467715 SPIN=   0.00000
   P   0.3375213   0.1657294  -0.1590860 SPIN=   0.00000
   O  -0.0533700   0.0786859   0.3003416 SPIN=   0.00000
   O  -0.4106401  -0.2195234   0.5696113 SPIN=   0.00000
   O  -0.6677941  -0.1682207   0.2541438 SPIN=   0.00000
   O  -0.2856299  -0.3978187   0.2532285 SPIN=   0.00000
   P  -0.3375213  -0.1657294   0.3409140 SPIN=   0.00000
  Fe   0.0872494  -0.3202712  -0.4217574 SPIN=   4.00000
  Fe  -0.0872494   0.3202712   0.0782426 SPIN=   4.00000
%ENDBLOCK POSITIONS_FRAC

# Note: total spin =   8.00

KPOINTS_MP_SPACING 0.07

%BLOCK SPECIES_POT
QC5
%ENDBLOCK SPECIES_POT

%BLOCK HUBBARD_U
Fe d:4.0
%ENDBLOCK HUBBARD_U

SNAP_TO_SYMMETRY
SYMMETRY_GENERATE

