#              Generated by Buildcell
#
# at 03:51:31 (GMT+0.0) 24th November 2020
# in /lustre/scratch/uccabz1/launch_tmp
# on node-c12g-020
# by uccabz1
#
# compiler GCC version 4.9.2
# options -cpp -iprefix /lustre/shared/ucl/apps/gcc/4.9.2/bin/../lib/gcc/x86_64-unknown-linux-gnu/4.9.2/ -mtune=corei7 -march=x86-64 -g -Og
#
# seed -1514913633  1205209853   819357264 -1804397702   831939503  -282206334  1110697982  -949175208 -1531183946  1540618904  1456504967  -192741635
#
#      Author: C. J. Pickard (cjp20@cam.ac.uk)
#                Space group: Pm
#

%BLOCK LATTICE_ABC
      3.90062      4.49272      9.29446
     90.00000     90.00000    100.78996
%ENDBLOCK LATTICE_ABC

%BLOCK POSITIONS_FRAC
  Li  -0.4968274   0.2963097   0.2191835 SPIN=   0.00000
  Li  -0.4968274   0.2963097  -0.2191835 SPIN=   0.00000
   O   0.3111141  -0.3343722   0.1324300 SPIN=   0.00000
   O  -0.1522195  -0.0643093   0.2498229 SPIN=   0.00000
   O  -0.0623086  -0.5501741   0.3533741 SPIN=   0.00000
   P   0.1373306  -0.2606835   0.2731870 SPIN=   0.00000
   O   0.3111141  -0.3343722  -0.1324300 SPIN=   0.00000
   O  -0.1522195  -0.0643093  -0.2498229 SPIN=   0.00000
   O  -0.0623086  -0.5501741  -0.3533741 SPIN=   0.00000
   P   0.1373306  -0.2606835  -0.2731870 SPIN=   0.00000
   O   0.4961630  -0.2703284  -0.5000000 SPIN=   0.00000
   O  -0.2727811   0.3655545  -0.0000000 SPIN=   0.00000
  Fe  -0.1529787  -0.1473337   0.0000000 SPIN=   3.34087
  Fe  -0.0770228   0.0930198  -0.5000000 SPIN=   4.65913
%ENDBLOCK POSITIONS_FRAC

# Note: total spin =   8.00

KPOINTS_MP_SPACING 0.07

%BLOCK SPECIES_POT
QC5
%ENDBLOCK SPECIES_POT

%BLOCK HUBBARD_U
Fe d:4.0
%ENDBLOCK HUBBARD_U

SNAP_TO_SYMMETRY
SYMMETRY_GENERATE

