#              Generated by Buildcell
#
# at 03:36:54 (GMT+0.0) 24th November 2020
# in /scratch/scratch/uccabz1/launch_tmp
# on node-k10e-034
# by uccabz1
#
# compiler GCC version 4.9.2
# options -cpp -iprefix /scratch/UCL/applications/gcc/4.9.2/bin/../lib/gcc/x86_64-unknown-linux-gnu/4.9.2/ -mtune=corei7 -march=x86-64 -g -O2
#
# seed -1435498053   160979816  1569377443  1310787781   202130052   911997885  1270264196  1764376108   484615051  -751636294  1526356509 -2074467490
#
#      Author: C. J. Pickard (cjp20@cam.ac.uk)
#                Space group: C2
#

%BLOCK LATTICE_ABC
      5.34887      5.47469      5.47469
     86.39427     89.99996     89.99996
%ENDBLOCK LATTICE_ABC

%BLOCK POSITIONS_FRAC
  Li   0.2500004   0.2290850  -0.4039304 SPIN=   0.00000
  Li  -0.2500004   0.4039304  -0.2290850 SPIN=   0.00000
   O  -0.4367246  -0.2555012  -0.3548800 SPIN=   0.00000
   O  -0.1868207  -0.2369890   0.0504671 SPIN=   0.00000
   O   0.0130858  -0.0788911  -0.3343170 SPIN=   0.00000
   P  -0.2499998  -0.1096837  -0.2077342 SPIN=   0.00000
   O   0.4367246   0.3548800   0.2555012 SPIN=   0.00000
   O   0.1868207  -0.0504671   0.2369890 SPIN=   0.00000
   O  -0.0130858   0.3343170   0.0788911 SPIN=   0.00000
   P   0.2499998   0.2077342   0.1096837 SPIN=   0.00000
   O   0.0000000  -0.4866326   0.4866326 SPIN=   0.00000
   O  -0.5000000   0.1189594  -0.1189594 SPIN=   0.00000
  Fe   0.2499998  -0.2902706  -0.0669029 SPIN=   4.00000
  Fe  -0.2499998   0.0669029   0.2902706 SPIN=   4.00000
%ENDBLOCK POSITIONS_FRAC

# Note: total spin =   8.00

KPOINTS_MP_SPACING 0.07

%BLOCK SPECIES_POT
QC5
%ENDBLOCK SPECIES_POT

%BLOCK HUBBARD_U
Fe d:4.0
%ENDBLOCK HUBBARD_U

SNAP_TO_SYMMETRY
SYMMETRY_GENERATE

