#              Generated by Buildcell
#
# at 04:12:10 (GMT+0.0) 24th November 2020
# in /lustre/scratch/uccabz1/launch_tmp
# on node-c12e-029
# by uccabz1
#
# compiler GCC version 4.9.2
# options -cpp -iprefix /lustre/shared/ucl/apps/gcc/4.9.2/bin/../lib/gcc/x86_64-unknown-linux-gnu/4.9.2/ -mtune=corei7 -march=x86-64 -g -Og
#
# seed   937858564 -1117442866  2048587512 -1144367237   357043818   518808223  -491718137  1264257244 -1232756552 -1971262116    78322510 -1629612132
#
#      Author: C. J. Pickard (cjp20@cam.ac.uk)
#                Space group: P-1
#

%BLOCK LATTICE_ABC
      4.15445      4.20547      9.58918
     87.78630     78.20070     77.33057
%ENDBLOCK LATTICE_ABC

%BLOCK POSITIONS_FRAC
  Li   0.0068844   0.4083323  -0.2076881 SPIN=   0.00000
  Li  -0.0068844  -0.4083323   0.2076881 SPIN=   0.00000
   O  -0.4720692   0.5423408   0.3342587 SPIN=   0.00000
   O  -0.7829967   0.0953200   0.2889061 SPIN=   0.00000
   O  -0.2121723   0.0790047   0.1467339 SPIN=   0.00000
   P  -0.4380701   0.1822367   0.2974996 SPIN=   0.00000
   O   0.4720692  -0.5423408  -0.3342587 SPIN=   0.00000
   O   0.7829967  -0.0953200  -0.2889061 SPIN=   0.00000
   O   0.2121723  -0.0790047  -0.1467339 SPIN=   0.00000
   P   0.4380701  -0.1822367  -0.2974996 SPIN=   0.00000
   O  -1.0000000   0.5000000   0.5000000 SPIN=   0.00000
   O  -0.5000000  -0.5000000   0.0000000 SPIN=   0.00000
  Fe   0.5000000   0.0000000   0.0000000 SPIN=   1.23743
  Fe  -1.0000000   0.0000000   0.5000000 SPIN=   6.76257
%ENDBLOCK POSITIONS_FRAC

# Note: total spin =   8.00

KPOINTS_MP_SPACING 0.07

%BLOCK SPECIES_POT
QC5
%ENDBLOCK SPECIES_POT

%BLOCK HUBBARD_U
Fe d:4.0
%ENDBLOCK HUBBARD_U

SNAP_TO_SYMMETRY
SYMMETRY_GENERATE

