#              Generated by Buildcell
#
# at 04:09:19 (GMT+0.0) 24th November 2020
# in /lustre/scratch/uccabz1/launch_tmp
# on node-c12h-032
# by uccabz1
#
# compiler GCC version 4.9.2
# options -cpp -iprefix /lustre/shared/ucl/apps/gcc/4.9.2/bin/../lib/gcc/x86_64-unknown-linux-gnu/4.9.2/ -mtune=corei7 -march=x86-64 -g -Og
#
# seed -1454726702  -714417696 -2042740267  2115148312  1166069297 -1812968846  1772113883   329400760   324406330  -799951592   554478452  -735156819
#
#      Author: C. J. Pickard (cjp20@cam.ac.uk)
#                Space group: Imm2
#

%BLOCK LATTICE_ABC
      5.12106      5.93707      6.56216
    116.89595    112.96669     90.00000
%ENDBLOCK LATTICE_ABC

%BLOCK POSITIONS_FRAC
  Li  -0.4743117   0.0256883   0.0513766 SPIN=   0.00000
  Li  -0.4743132  -0.4743132   0.0513735 SPIN=   0.00000
   O  -0.5452042  -0.5758085  -0.6080946 SPIN=   0.00000
   O  -0.2993179  -0.2913126  -0.1163209 SPIN=   0.00000
   O  -0.0628904  -0.0322862  -0.6080946 SPIN=   0.00000
   O   0.1829970   0.1749917  -0.1163209 SPIN=   0.00000
   O  -0.0628904  -0.5758085  -0.6080946 SPIN=   0.00000
   O   0.1829970  -0.2913126  -0.1163209 SPIN=   0.00000
   O  -0.5452042  -0.0322862  -0.6080946 SPIN=   0.00000
   O  -0.2993179   0.1749917  -0.1163209 SPIN=   0.00000
   P   0.1926537   0.1926537   0.3853074 SPIN=   0.00000
   P  -0.1598256  -0.1598256  -0.3196512 SPIN=   0.00000
  Fe   0.2170971  -0.2829029   0.4341943 SPIN=   3.36640
  Fe  -0.1657341   0.3342659  -0.3314681 SPIN=   4.63360
%ENDBLOCK POSITIONS_FRAC

# Note: total spin =   8.00

KPOINTS_MP_SPACING 0.07

%BLOCK SPECIES_POT
QC5
%ENDBLOCK SPECIES_POT

%BLOCK HUBBARD_U
Fe d:4.0
%ENDBLOCK HUBBARD_U

SNAP_TO_SYMMETRY
SYMMETRY_GENERATE

