#              Generated by Buildcell
#
# at 03:59:37 (GMT+0.0) 24th November 2020
# in /lustre/scratch/uccabz1/launch_tmp
# on node-c12n-028
# by uccabz1
#
# compiler GCC version 4.9.2
# options -cpp -iprefix /lustre/shared/ucl/apps/gcc/4.9.2/bin/../lib/gcc/x86_64-unknown-linux-gnu/4.9.2/ -mtune=corei7 -march=x86-64 -g -Og
#
# seed  1799798753 -1654812494   690063745   208511561  1028296092    77673029   429015195  1232172261 -1188457139 -1152519310 -2032075383   735920181
#
#      Author: C. J. Pickard (cjp20@cam.ac.uk)
#                Space group: P-1
#

%BLOCK LATTICE_ABC
      4.52585      6.43012      6.55893
     62.11339     78.66909     71.82188
%ENDBLOCK LATTICE_ABC

%BLOCK POSITIONS_FRAC
  Li   0.0116730  -0.2501529  -0.2141757 SPIN=   0.00000
  Li  -0.0116730   0.2501529   0.2141757 SPIN=   0.00000
   O  -0.4954201   0.6808352  -0.3065763 SPIN=   0.00000
   O   0.0385777   0.3908762  -0.1493342 SPIN=   0.00000
   O  -0.4217005   0.2219967  -0.0261160 SPIN=   0.00000
   O  -0.1983136   0.3427340  -0.4342095 SPIN=   0.00000
   P  -0.2804217   0.4227952  -0.2356074 SPIN=   0.00000
   O   0.4954201  -0.6808352   0.3065763 SPIN=   0.00000
   O  -0.0385777  -0.3908762   0.1493342 SPIN=   0.00000
   O   0.4217005  -0.2219967   0.0261160 SPIN=   0.00000
   O   0.1983136  -0.3427340   0.4342095 SPIN=   0.00000
   P   0.2804217  -0.4227952   0.2356074 SPIN=   0.00000
  Fe  -0.3491350  -0.1789471   0.3117003 SPIN=   4.00000
  Fe   0.3491350   0.1789471  -0.3117003 SPIN=   4.00000
%ENDBLOCK POSITIONS_FRAC

# Note: total spin =   8.00

KPOINTS_MP_SPACING 0.07

%BLOCK SPECIES_POT
QC5
%ENDBLOCK SPECIES_POT

%BLOCK HUBBARD_U
Fe d:4.0
%ENDBLOCK HUBBARD_U

SNAP_TO_SYMMETRY
SYMMETRY_GENERATE

