#              Generated by Buildcell
#
# at 01:27:52 (GMT+0.0) 24th November 2020
# in /lustre/scratch/uccabz1/launch_tmp
# on node-c12k-029
# by uccabz1
#
# compiler GCC version 4.9.2
# options -cpp -iprefix /lustre/shared/ucl/apps/gcc/4.9.2/bin/../lib/gcc/x86_64-unknown-linux-gnu/4.9.2/ -mtune=corei7 -march=x86-64 -g -Og
#
# seed     1124180  -244317068  -634482849  -932029891   764643114   414668934 -2131492375  1566977323 -1037253763 -1131681639   353013623   725553285
#
#      Author: C. J. Pickard (cjp20@cam.ac.uk)
#                Space group: Cc
#

%BLOCK LATTICE_ABC
      4.36743      6.23644      6.30013
     87.83315     69.71964     83.73756
%ENDBLOCK LATTICE_ABC

%BLOCK POSITIONS_FRAC
  Li   0.4305995   0.3792836   0.0268028 SPIN=   0.00000
  Li   0.4574024  -0.1207164  -0.0268028 SPIN=   0.00000
   O  -0.0185451  -0.1239548   0.2148331 SPIN=   0.00000
   O  -0.0953729   0.2948407   0.2312740 SPIN=   0.00000
   O  -0.5608255   0.1033757   0.2298995 SPIN=   0.00000
   O  -0.3943384   0.0847183   0.5731674 SPIN=   0.00000
   P  -0.2555266   0.0783072   0.3101828 SPIN=   0.00000
   O   0.1962880  -0.6239548  -0.2148331 SPIN=   0.00000
   O   0.1359011  -0.2051593  -0.2312740 SPIN=   0.00000
   O  -0.3309260  -0.3966243  -0.2298995 SPIN=   0.00000
   O   0.1788290  -0.4152817  -0.5731674 SPIN=   0.00000
   P   0.0546562  -0.4216928  -0.3101828 SPIN=   0.00000
  Fe  -0.2829855  -0.3832493   0.3700376 SPIN=   4.00000
  Fe   0.0870521   0.1167507  -0.3700376 SPIN=   4.00000
%ENDBLOCK POSITIONS_FRAC

# Note: total spin =   8.00

KPOINTS_MP_SPACING 0.07

%BLOCK SPECIES_POT
QC5
%ENDBLOCK SPECIES_POT

%BLOCK HUBBARD_U
Fe d:4.0
%ENDBLOCK HUBBARD_U

SNAP_TO_SYMMETRY
SYMMETRY_GENERATE

