#              Generated by Buildcell
#
# at 02:26:02 (GMT+0.0) 24th November 2020
# in /lustre/scratch/uccabz1/launch_tmp
# on node-c12p-023
# by uccabz1
#
# compiler GCC version 4.9.2
# options -cpp -iprefix /lustre/shared/ucl/apps/gcc/4.9.2/bin/../lib/gcc/x86_64-unknown-linux-gnu/4.9.2/ -mtune=corei7 -march=x86-64 -g -Og
#
# seed -1168062367  -499002089 -1498827951  -843087162  1138784708  -636759036 -1806157288   -93042339   727535615  -376567559 -1247393630  -276392098
#
#      Author: C. J. Pickard (cjp20@cam.ac.uk)
#                Space group: I-4
#

%BLOCK LATTICE_ABC
      4.62505      4.62505      8.16347
    106.45589    106.45589     90.00000
%ENDBLOCK LATTICE_ABC

%BLOCK POSITIONS_FRAC
  Li  -0.2220133  -0.2220133  -0.4440267 SPIN=   0.00000
  Li   0.2220133   0.2220133   0.4440267 SPIN=   0.00000
   O   0.1704081  -0.4238878  -0.3432180 SPIN=   0.00000
   O   0.6877825  -0.4348045  -0.1138299 SPIN=   0.00000
   O   0.4863739   0.0806697  -0.3432180 SPIN=   0.00000
   O   0.1983875   0.3209746  -0.1138299 SPIN=   0.00000
   O  -0.0806697  -0.1704081   0.3432180 SPIN=   0.00000
   O  -0.3209746  -0.6877825   0.1138299 SPIN=   0.00000
   O   0.4238878  -0.4863739   0.3432180 SPIN=   0.00000
   O   0.4348045  -0.1983875   0.1138299 SPIN=   0.00000
   P  -0.1254705   0.3745295  -0.2509410 SPIN=   0.00000
   P  -0.3745295   0.1254705   0.2509410 SPIN=   0.00000
  Fe   0.0673937  -0.4326063   0.1347874 SPIN=   4.00000
  Fe   0.4326063  -0.0673937  -0.1347874 SPIN=   4.00000
%ENDBLOCK POSITIONS_FRAC

# Note: total spin =   8.00

KPOINTS_MP_SPACING 0.07

%BLOCK SPECIES_POT
QC5
%ENDBLOCK SPECIES_POT

%BLOCK HUBBARD_U
Fe d:4.0
%ENDBLOCK HUBBARD_U

SNAP_TO_SYMMETRY
SYMMETRY_GENERATE

