#              Generated by Buildcell
#
# at 01:39:36 (GMT+0.0) 24th November 2020
# in /lustre/scratch/uccabz1/launch_tmp
# on node-c12a-034
# by uccabz1
#
# compiler GCC version 4.9.2
# options -cpp -iprefix /lustre/shared/ucl/apps/gcc/4.9.2/bin/../lib/gcc/x86_64-unknown-linux-gnu/4.9.2/ -mtune=corei7 -march=x86-64 -g -Og
#
# seed -1893669323   293831547   553636572  2127348193    13568203 -1230237844  1455566752  1402283527   233886787  1186840031   529767281 -1465438687
#
#      Author: C. J. Pickard (cjp20@cam.ac.uk)
#                Space group: P-1
#

%BLOCK LATTICE_ABC
      4.45446      5.09827      7.79399
     71.37076     89.63736     73.36442
%ENDBLOCK LATTICE_ABC

%BLOCK POSITIONS_FRAC
  Li  -0.3988049   0.1871676   0.3106017 SPIN=   0.00000
  Li   0.3988049  -0.1871676  -0.3106017 SPIN=   0.00000
   O   0.7011799  -0.1841674   0.1181639 SPIN=   0.00000
   O   0.5275641  -0.2547943   0.4445951 SPIN=   0.00000
   O   0.1213340   0.0065893   0.1844503 SPIN=   0.00000
   P   0.4445113  -0.2406846   0.2453515 SPIN=   0.00000
   O  -0.7011799   0.1841674  -0.1181639 SPIN=   0.00000
   O  -0.5275641   0.2547943  -0.4445951 SPIN=   0.00000
   O  -0.1213340  -0.0065893  -0.1844503 SPIN=   0.00000
   P  -0.4445113   0.2406846  -0.2453515 SPIN=   0.00000
   O   0.0000000   0.0000000  -0.5000000 SPIN=   0.00000
   O   0.5000000   0.5000000  -0.0000000 SPIN=   0.00000
  Fe   0.0000000   0.5000000  -0.0000000 SPIN=   3.19638
  Fe   0.0000000   0.5000000   0.5000000 SPIN=   4.80362
%ENDBLOCK POSITIONS_FRAC

# Note: total spin =   8.00

KPOINTS_MP_SPACING 0.07

%BLOCK SPECIES_POT
QC5
%ENDBLOCK SPECIES_POT

%BLOCK HUBBARD_U
Fe d:4.0
%ENDBLOCK HUBBARD_U

SNAP_TO_SYMMETRY
SYMMETRY_GENERATE

