#              Generated by Buildcell
#
# at 05:20:38 (GMT+0.0) 24th November 2020
# in /lustre/scratch/uccabz1/launch_tmp
# on node-c12f-031
# by uccabz1
#
# compiler GCC version 4.9.2
# options -cpp -iprefix /lustre/shared/ucl/apps/gcc/4.9.2/bin/../lib/gcc/x86_64-unknown-linux-gnu/4.9.2/ -mtune=corei7 -march=x86-64 -g -Og
#
# seed  -769308021   568484065    82845945  1824777087 -1344571785 -1762094661   842903772  1771874114 -1793959657  -280385236  -611361176  -538387954
#
#      Author: C. J. Pickard (cjp20@cam.ac.uk)
#                Space group: P2
#

%BLOCK LATTICE_ABC
      3.87422      4.59016      8.99761
     90.53959     90.00000     90.00000
%ENDBLOCK LATTICE_ABC

%BLOCK POSITIONS_FRAC
  Li  -0.4581071   0.4717033  -0.1668235 SPIN=   0.00000
  Li  -0.4581071  -0.4717033   0.1668235 SPIN=   0.00000
   O   0.3983676   0.2398461   0.4411274 SPIN=   0.00000
   O   0.0039216   0.3095848   0.2106698 SPIN=   0.00000
   O   0.5061500  -0.0191461   0.1873604 SPIN=   0.00000
   O  -0.0000451  -0.1691095   0.3419227 SPIN=   0.00000
   P   0.2335372   0.0951955   0.3035868 SPIN=   0.00000
   O   0.3983676  -0.2398461  -0.4411274 SPIN=   0.00000
   O   0.0039216  -0.3095848  -0.2106698 SPIN=   0.00000
   O   0.5061500   0.0191461  -0.1873604 SPIN=   0.00000
   O  -0.0000451   0.1691095  -0.3419227 SPIN=   0.00000
   P   0.2335372  -0.0951955  -0.3035868 SPIN=   0.00000
  Fe  -0.1022875  -0.5000000  -0.5000000 SPIN=   3.48187
  Fe   0.0410659  -0.0000000   0.0000000 SPIN=   4.51813
%ENDBLOCK POSITIONS_FRAC

# Note: total spin =   8.00

KPOINTS_MP_SPACING 0.07

%BLOCK SPECIES_POT
QC5
%ENDBLOCK SPECIES_POT

%BLOCK HUBBARD_U
Fe d:4.0
%ENDBLOCK HUBBARD_U

SNAP_TO_SYMMETRY
SYMMETRY_GENERATE

