#              Generated by Buildcell
#
# at 23:16:44 (GMT+0.0) 23rd November 2020
# in /scratch/scratch/uccabz1/launch_tmp
# on node-a14f-030
# by uccabz1
#
# compiler GCC version 4.9.2
# options -cpp -iprefix /scratch/UCL/applications/gcc/4.9.2/bin/../lib/gcc/x86_64-unknown-linux-gnu/4.9.2/ -mtune=corei7 -march=x86-64 -g -O2
#
# seed   104899640 -2090953071  -174514305 -1578493049  -398288945  1396575055   616245511  1861387480 -1920143478    50456679     2277382  1497538693
#
#      Author: C. J. Pickard (cjp20@cam.ac.uk)
#                Space group: C2/m
#

%BLOCK LATTICE_ABC
      4.92188      5.97285      6.25104
    107.14890    113.18396     90.00000
%ENDBLOCK LATTICE_ABC

%BLOCK POSITIONS_FRAC
  Li   0.0000000   0.5000000   0.0000000 SPIN=   0.00000
  Li   0.0000000   0.0000000   0.0000000 SPIN=   0.00000
   O  -0.3824857   0.0820948  -0.2655932 SPIN=   0.00000
   O  -0.3365179  -0.3164129  -0.1737435 SPIN=   0.00000
   O  -0.1168926  -0.0820948   0.2655932 SPIN=   0.00000
   O  -0.1627744   0.3164129   0.1737435 SPIN=   0.00000
   O   0.3824857  -0.0820948   0.2655932 SPIN=   0.00000
   O   0.3365179   0.3164129   0.1737435 SPIN=   0.00000
   O   0.1168926   0.0820948  -0.2655932 SPIN=   0.00000
   O   0.1627744  -0.3164129  -0.1737435 SPIN=   0.00000
   P   0.3413931   0.2900392  -0.3172138 SPIN=   0.00000
   P  -0.3413931  -0.2900392   0.3172138 SPIN=   0.00000
  Fe   0.2935784  -0.2126643  -0.4128431 SPIN=   4.00000
  Fe  -0.2935784   0.2126643   0.4128431 SPIN=   4.00000
%ENDBLOCK POSITIONS_FRAC

# Note: total spin =   8.00

KPOINTS_MP_SPACING 0.07

%BLOCK SPECIES_POT
QC5
%ENDBLOCK SPECIES_POT

%BLOCK HUBBARD_U
Fe d:4.0
%ENDBLOCK HUBBARD_U

SNAP_TO_SYMMETRY
SYMMETRY_GENERATE

