#              Generated by Buildcell
#
# at 02:28:54 (GMT+0.0) 24th November 2020
# in /lustre/scratch/uccabz1/launch_tmp
# on node-c12e-033
# by uccabz1
#
# compiler GCC version 4.9.2
# options -cpp -iprefix /lustre/shared/ucl/apps/gcc/4.9.2/bin/../lib/gcc/x86_64-unknown-linux-gnu/4.9.2/ -mtune=corei7 -march=x86-64 -g -Og
#
# seed  1905921632  -493090759  -896782841 -1128438083  -568001780  -486422337 -1303326254  1313684639  -991558940  -720958962  1898788279  -493430019
#
#      Author: C. J. Pickard (cjp20@cam.ac.uk)
#                Space group: P-1
#

%BLOCK LATTICE_ABC
      4.63799      5.99134      6.19678
     79.43091     72.05136     80.65376
%ENDBLOCK LATTICE_ABC

%BLOCK POSITIONS_FRAC
  Li  -0.3350771   0.3980209  -0.2191091 SPIN=   0.00000
  Li   0.3350771  -0.3980209   0.2191091 SPIN=   0.00000
   O  -0.0219726  -0.1442372   0.1727551 SPIN=   0.00000
   O  -0.2057945  -0.5219275   0.4205096 SPIN=   0.00000
   O  -0.2645163  -0.1847666   0.6139918 SPIN=   0.00000
   P  -0.2618282  -0.2534475   0.3802028 SPIN=   0.00000
   O   0.0219726   0.1442372  -0.1727551 SPIN=   0.00000
   O   0.2057945   0.5219275  -0.4205096 SPIN=   0.00000
   O   0.2645163   0.1847666  -0.6139918 SPIN=   0.00000
   P   0.2618282   0.2534475  -0.3802028 SPIN=   0.00000
   O   0.0000000   0.5000000  -0.0000000 SPIN=   0.00000
   O  -0.5000000  -0.0000000   0.0000000 SPIN=   0.00000
  Fe  -0.0870669   0.2006028   0.2345100 SPIN=   4.00000
  Fe   0.0870669  -0.2006028  -0.2345100 SPIN=   4.00000
%ENDBLOCK POSITIONS_FRAC

# Note: total spin =   8.00

KPOINTS_MP_SPACING 0.07

%BLOCK SPECIES_POT
QC5
%ENDBLOCK SPECIES_POT

%BLOCK HUBBARD_U
Fe d:4.0
%ENDBLOCK HUBBARD_U

SNAP_TO_SYMMETRY
SYMMETRY_GENERATE

