#              Generated by Buildcell
#
# at 00:29:56 (GMT+0.0) 24th November 2020
# in /lustre/scratch/uccabz1/launch_tmp
# on node-c12b-026
# by uccabz1
#
# compiler GCC version 4.9.2
# options -cpp -iprefix /lustre/shared/ucl/apps/gcc/4.9.2/bin/../lib/gcc/x86_64-unknown-linux-gnu/4.9.2/ -mtune=corei7 -march=x86-64 -g -Og
#
# seed  -683278579  1908617209 -2057375715 -1276704538  -980695400 -1889317042 -1944109688  -468278915  2085988029 -1522863226   758178761 -1457206049
#
#      Author: C. J. Pickard (cjp20@cam.ac.uk)
#                Space group: C2
#

%BLOCK LATTICE_ABC
      4.01904      5.33470      7.75145
     94.42067    105.02523     90.00000
%ENDBLOCK LATTICE_ABC

%BLOCK POSITIONS_FRAC
  Li   0.2101461   0.2886975   0.4643047 SPIN=   0.00000
  Li  -0.2541586  -0.2886975  -0.4643047 SPIN=   0.00000
   O   0.4571018  -0.5323604  -0.2785011 SPIN=   0.00000
   O   0.4317360  -0.0469857  -0.2890370 SPIN=   0.00000
   O  -0.0176004  -0.2632489  -0.1869197 SPIN=   0.00000
   O   0.5863063  -0.2301961   0.0086979 SPIN=   0.00000
   P   0.3719415  -0.2818146  -0.1890390 SPIN=   0.00000
   O  -0.2643970   0.5323604   0.2785011 SPIN=   0.00000
   O  -0.2792269   0.0469857   0.2890370 SPIN=   0.00000
   O  -0.8306807   0.2632489   0.1869197 SPIN=   0.00000
   O  -0.4223916   0.2301961  -0.0086979 SPIN=   0.00000
   P  -0.4390195   0.2818146   0.1890390 SPIN=   0.00000
  Fe  -0.1172536   0.2291306  -0.1913368 SPIN=   4.00000
  Fe   0.0740832  -0.2291306   0.1913368 SPIN=   4.00000
%ENDBLOCK POSITIONS_FRAC

# Note: total spin =   8.00

KPOINTS_MP_SPACING 0.07

%BLOCK SPECIES_POT
QC5
%ENDBLOCK SPECIES_POT

%BLOCK HUBBARD_U
Fe d:4.0
%ENDBLOCK HUBBARD_U

SNAP_TO_SYMMETRY
SYMMETRY_GENERATE

