#              Generated by Buildcell
#
# at 02:47:58 (GMT+0.0) 24th November 2020
# in /scratch/scratch/uccabz1/launch_tmp
# on node-a14f-014
# by uccabz1
#
# compiler GCC version 4.9.2
# options -cpp -iprefix /scratch/UCL/applications/gcc/4.9.2/bin/../lib/gcc/x86_64-unknown-linux-gnu/4.9.2/ -mtune=corei7 -march=x86-64 -g -O2
#
# seed  -944913460 -1869302756  1282197074  1045818502 -1874913261  1746503654    17193123  -112635043   886335697 -1541741405 -2085997124 -1262662693
#
#      Author: C. J. Pickard (cjp20@cam.ac.uk)
#                Space group: P21/m
#

%BLOCK LATTICE_ABC
      5.26395      5.32154      5.71205
     90.00000     90.56924     90.00000
%ENDBLOCK LATTICE_ABC

%BLOCK POSITIONS_FRAC
  Li  -0.2060887  -0.2500000   0.0251327 SPIN=   0.00000
  Li   0.2060887   0.2500000  -0.0251327 SPIN=   0.00000
   O   0.4776073   0.0179251  -0.2150783 SPIN=   0.00000
   O  -0.0149304   0.0175765  -0.2491687 SPIN=   0.00000
   O  -0.4776073  -0.4820749   0.2150783 SPIN=   0.00000
   O   0.0149304  -0.4824235   0.2491687 SPIN=   0.00000
   O  -0.4776073  -0.0179251   0.2150783 SPIN=   0.00000
   O   0.0149304  -0.0175765   0.2491687 SPIN=   0.00000
   O   0.4776073   0.4820749  -0.2150783 SPIN=   0.00000
   O  -0.0149304   0.4824235  -0.2491687 SPIN=   0.00000
   P  -0.2950584   0.2500000  -0.1228216 SPIN=   0.00000
   P   0.2950584  -0.2500000   0.1228216 SPIN=   0.00000
  Fe   0.2416336  -0.2500000  -0.3776694 SPIN=   4.00000
  Fe  -0.2416336   0.2500000   0.3776694 SPIN=   4.00000
%ENDBLOCK POSITIONS_FRAC

# Note: total spin =   8.00

KPOINTS_MP_SPACING 0.07

%BLOCK SPECIES_POT
QC5
%ENDBLOCK SPECIES_POT

%BLOCK HUBBARD_U
Fe d:4.0
%ENDBLOCK HUBBARD_U

SNAP_TO_SYMMETRY
SYMMETRY_GENERATE

