#              Generated by Buildcell
#
# at 02:23:38 (GMT+0.0) 24th November 2020
# in /scratch/scratch/uccabz1/launch_tmp
# on node-a14a-024
# by uccabz1
#
# compiler GCC version 4.9.2
# options -cpp -iprefix /scratch/UCL/applications/gcc/4.9.2/bin/../lib/gcc/x86_64-unknown-linux-gnu/4.9.2/ -mtune=corei7 -march=x86-64 -g -O2
#
# seed -1881153313  1169993356 -1974005692   -90360946  1410139637   252295826 -1115648023  -850540318 -1819604970  2136629138 -1551580117  1514647026
#
#      Author: C. J. Pickard (cjp20@cam.ac.uk)
#                Space group: Pnc2
#

%BLOCK LATTICE_ABC
      4.21028      4.63584      8.19749
     90.00000     90.00000     90.00000
%ENDBLOCK LATTICE_ABC

%BLOCK POSITIONS_FRAC
  Li   0.0000000  -0.5000000   0.0076494 SPIN=   0.00000
  Li   0.0000000   0.0000000  -0.4923506 SPIN=   0.00000
   O  -0.3852671   0.2454661   0.4181307 SPIN=   0.00000
   O   0.1077245   0.2521701   0.2275492 SPIN=   0.00000
   O   0.3852671  -0.2454661   0.4181307 SPIN=   0.00000
   O  -0.1077245  -0.2521701   0.2275492 SPIN=   0.00000
   O  -0.3852671   0.2545339  -0.0818693 SPIN=   0.00000
   O   0.1077245   0.2478299  -0.2724508 SPIN=   0.00000
   O   0.3852671  -0.2545339  -0.0818693 SPIN=   0.00000
   O  -0.1077245  -0.2478299  -0.2724508 SPIN=   0.00000
   P   0.0000000  -0.0000000  -0.1586958 SPIN=   0.00000
   P   0.0000000   0.5000000   0.3413042 SPIN=   0.00000
  Fe   0.5000000  -0.5000000  -0.3611277 SPIN=   4.00000
  Fe   0.5000000   0.0000000   0.1388723 SPIN=   4.00000
%ENDBLOCK POSITIONS_FRAC

# Note: total spin =   8.00

KPOINTS_MP_SPACING 0.07

%BLOCK SPECIES_POT
QC5
%ENDBLOCK SPECIES_POT

%BLOCK HUBBARD_U
Fe d:4.0
%ENDBLOCK HUBBARD_U

SNAP_TO_SYMMETRY
SYMMETRY_GENERATE

