#              Generated by Buildcell
#
# at 02:01:31 (GMT+0.0) 24th November 2020
# in /lustre/scratch/uccabz1/launch_tmp
# on node-c12i-033
# by uccabz1
#
# compiler GCC version 4.9.2
# options -cpp -iprefix /lustre/shared/ucl/apps/gcc/4.9.2/bin/../lib/gcc/x86_64-unknown-linux-gnu/4.9.2/ -mtune=corei7 -march=x86-64 -g -Og
#
# seed -1662798564 -1761853505 -1297517261 -1679058621  -981919036   215928089   135593144  -490866824 -1544133611   163405916 -1860783719  1617470096
#
#      Author: C. J. Pickard (cjp20@cam.ac.uk)
#                Space group: Imm2
#

%BLOCK LATTICE_ABC
      5.61865      5.64794      6.42560
    116.07120    115.92592     90.00000
%ENDBLOCK LATTICE_ABC

%BLOCK POSITIONS_FRAC
  Li  -0.2500135   0.3356728   0.4999730 SPIN=   0.00000
  Li   0.2500135  -0.1643002   0.5000270 SPIN=   0.00000
   O   0.3603658   0.3997140   0.2460467 SPIN=   0.00000
   O   0.4015118  -0.0542227   0.2551492 SPIN=   0.00000
   O  -0.3603658   0.1536673  -0.2460467 SPIN=   0.00000
   O  -0.4015118  -0.3093719  -0.2551492 SPIN=   0.00000
   O  -0.1143191   0.3997140   0.2460467 SPIN=   0.00000
   O  -0.1463626  -0.0542227   0.2551492 SPIN=   0.00000
   O   0.1143191   0.1536673  -0.2460467 SPIN=   0.00000
   O   0.1463626  -0.3093719  -0.2551492 SPIN=   0.00000
   P  -0.5000000  -0.0491377  -1.0000000 SPIN=   0.00000
   P  -0.0000000   0.4508479  -0.0000000 SPIN=   0.00000
  Fe   0.0000000  -0.0460562   0.0000000 SPIN=   6.11022
  Fe   0.5000000   0.4539459   1.0000000 SPIN=   1.88978
%ENDBLOCK POSITIONS_FRAC

# Note: total spin =   8.00

KPOINTS_MP_SPACING 0.07

%BLOCK SPECIES_POT
QC5
%ENDBLOCK SPECIES_POT

%BLOCK HUBBARD_U
Fe d:4.0
%ENDBLOCK HUBBARD_U

SNAP_TO_SYMMETRY
SYMMETRY_GENERATE

