#              Generated by Buildcell
#
# at 03:12:30 (GMT+0.0) 24th November 2020
# in /lustre/scratch/uccabz1/launch_tmp
# on node-c12a-033
# by uccabz1
#
# compiler GCC version 4.9.2
# options -cpp -iprefix /lustre/shared/ucl/apps/gcc/4.9.2/bin/../lib/gcc/x86_64-unknown-linux-gnu/4.9.2/ -mtune=corei7 -march=x86-64 -g -Og
#
# seed  1115128192 -1259256853  -429318057 -1524159906  1520087665 -1282902418  1463087765   254815029    66433465  -129809513 -1084689314  1875679865
#
#      Author: C. J. Pickard (cjp20@cam.ac.uk)
#                Space group: P21
#

%BLOCK LATTICE_ABC
      4.02887      4.56866      8.87618
     90.00000     90.00000    101.67453
%ENDBLOCK LATTICE_ABC

%BLOCK POSITIONS_FRAC
  Li  -0.0808698  -0.4522391  -0.0001473 SPIN=   0.00000
  Li   0.0808698   0.4522391   0.4998527 SPIN=   0.00000
   O   0.2586786   0.6375169  -0.1830570 SPIN=   0.00000
   O   0.7001230   0.2943894  -0.1866207 SPIN=   0.00000
   O   0.1596119   0.1182547  -0.0523557 SPIN=   0.00000
   O   0.1627616   0.1444278  -0.3341884 SPIN=   0.00000
   P   0.3151541   0.3148704  -0.1904488 SPIN=   0.00000
   O  -0.2586786  -0.6375169   0.3169430 SPIN=   0.00000
   O  -0.7001230  -0.2943894   0.3133793 SPIN=   0.00000
   O  -0.1596119  -0.1182547   0.4476443 SPIN=   0.00000
   O  -0.1627616  -0.1444278   0.1658116 SPIN=   0.00000
   P  -0.3151541  -0.3148704   0.3095512 SPIN=   0.00000
  Fe  -0.3211999  -0.1193953  -0.2993662 SPIN=   4.00000
  Fe   0.3211999   0.1193953   0.2006338 SPIN=   4.00000
%ENDBLOCK POSITIONS_FRAC

# Note: total spin =   8.00

KPOINTS_MP_SPACING 0.07

%BLOCK SPECIES_POT
QC5
%ENDBLOCK SPECIES_POT

%BLOCK HUBBARD_U
Fe d:4.0
%ENDBLOCK HUBBARD_U

SNAP_TO_SYMMETRY
SYMMETRY_GENERATE

