#              Generated by Buildcell
#
# at 03:31:21 (GMT+0.0) 24th November 2020
# in /lustre/scratch/uccabz1/launch_tmp
# on node-c12e-025
# by uccabz1
#
# compiler GCC version 4.9.2
# options -cpp -iprefix /lustre/shared/ucl/apps/gcc/4.9.2/bin/../lib/gcc/x86_64-unknown-linux-gnu/4.9.2/ -mtune=corei7 -march=x86-64 -g -Og
#
# seed   -93877114   602595947 -1277813389 -1617680857  -427411159   805683731  -284431932  -506269972 -1097580264  -753174096 -1522673022  1212871986
#
#      Author: C. J. Pickard (cjp20@cam.ac.uk)
#                Space group: Pcc2
#

%BLOCK LATTICE_ABC
      3.81195      4.36342      9.61936
     90.00000     90.00000     90.00000
%ENDBLOCK LATTICE_ABC

%BLOCK POSITIONS_FRAC
  Li   0.5000000   0.5000000   0.1505187 SPIN=   0.00000
  Li   0.5000000   0.5000000  -0.3494813 SPIN=   0.00000
   O  -0.1480160   0.2505454   0.0221578 SPIN=   0.00000
   O   0.1480189   0.2505461  -0.2211221 SPIN=   0.00000
   O   0.1480160  -0.2505454   0.0221578 SPIN=   0.00000
   O  -0.1480189  -0.2505461  -0.2211221 SPIN=   0.00000
   O   0.1480160   0.2505454   0.5221578 SPIN=   0.00000
   O  -0.1480189   0.2505461   0.2788779 SPIN=   0.00000
   O  -0.1480160  -0.2505454   0.5221578 SPIN=   0.00000
   O   0.1480189  -0.2505461   0.2788779 SPIN=   0.00000
   P   0.0000000  -0.0000000   0.1312543 SPIN=   0.00000
   P   0.0000000  -0.0000000  -0.3687457 SPIN=   0.00000
  Fe   0.5000000   0.0000000  -0.0994842 SPIN=   4.00000
  Fe   0.5000000  -0.0000000   0.4005158 SPIN=   4.00000
%ENDBLOCK POSITIONS_FRAC

# Note: total spin =   8.00

KPOINTS_MP_SPACING 0.07

%BLOCK SPECIES_POT
QC5
%ENDBLOCK SPECIES_POT

%BLOCK HUBBARD_U
Fe d:4.0
%ENDBLOCK HUBBARD_U

SNAP_TO_SYMMETRY
SYMMETRY_GENERATE

