#              Generated by Buildcell
#
# at 04:49:46 (GMT+0.0) 24th November 2020
# in /scratch/scratch/uccabz1/launch_tmp
# on node-a14b-028
# by uccabz1
#
# compiler GCC version 4.9.2
# options -cpp -iprefix /scratch/UCL/applications/gcc/4.9.2/bin/../lib/gcc/x86_64-unknown-linux-gnu/4.9.2/ -mtune=corei7 -march=x86-64 -g -O2
#
# seed   823574245  -548103778  1738786311  1339672085 -1780598353 -1066650988   723390095  1929411955   597664827   872598571   141079769 -2073751162
#
#      Author: C. J. Pickard (cjp20@cam.ac.uk)
#                Space group: P21
#

%BLOCK LATTICE_ABC
      4.60978      5.55935      6.24663
     90.00000     91.86506     90.00000
%ENDBLOCK LATTICE_ABC

%BLOCK POSITIONS_FRAC
  Li  -0.2694521  -0.4654484  -0.3816529 SPIN=   0.00000
  Li   0.2694521   0.0345516   0.3816529 SPIN=   0.00000
   O   0.0507078  -0.2774955   0.1607917 SPIN=   0.00000
   O  -0.4569881  -0.3418055   0.3203185 SPIN=   0.00000
   O  -0.1830840   0.0251750   0.4210537 SPIN=   0.00000
   O  -0.3925163  -0.0171921   0.0479894 SPIN=   0.00000
   P  -0.2314355  -0.1578667   0.2312151 SPIN=   0.00000
   O  -0.0507078   0.2225045  -0.1607917 SPIN=   0.00000
   O   0.4569881   0.1581945  -0.3203185 SPIN=   0.00000
   O   0.1830840   0.5251750  -0.4210537 SPIN=   0.00000
   O   0.3925163   0.4828079  -0.0479894 SPIN=   0.00000
   P   0.2314355   0.3421333  -0.2312151 SPIN=   0.00000
  Fe   0.2437285  -0.1577345  -0.1196671 SPIN=   4.00000
  Fe  -0.2437285   0.3422655   0.1196671 SPIN=   4.00000
%ENDBLOCK POSITIONS_FRAC

# Note: total spin =   8.00

KPOINTS_MP_SPACING 0.07

%BLOCK SPECIES_POT
QC5
%ENDBLOCK SPECIES_POT

%BLOCK HUBBARD_U
Fe d:4.0
%ENDBLOCK HUBBARD_U

SNAP_TO_SYMMETRY
SYMMETRY_GENERATE

