#              Generated by Buildcell
#
# at 04:56:52 (GMT+0.0) 24th November 2020
# in /lustre/scratch/uccabz1/launch_tmp
# on node-c12c-022
# by uccabz1
#
# compiler GCC version 4.9.2
# options -cpp -iprefix /lustre/shared/ucl/apps/gcc/4.9.2/bin/../lib/gcc/x86_64-unknown-linux-gnu/4.9.2/ -mtune=corei7 -march=x86-64 -g -Og
#
# seed -1685536872  1750019561    23909596 -1591767915  1371958683 -2097114246  -287003052   937513536   733098849 -1336223712 -1118048938  -658409416
#
#      Author: C. J. Pickard (cjp20@cam.ac.uk)
#                Space group: P21/m
#

%BLOCK LATTICE_ABC
      5.09387      5.56257      5.67857
     90.00000     96.07127     90.00000
%ENDBLOCK LATTICE_ABC

%BLOCK POSITIONS_FRAC
  Li   0.0629545  -0.2500000  -0.1422487 SPIN=   0.00000
  Li  -0.0629545   0.2500000   0.1422487 SPIN=   0.00000
   O  -0.2386775   0.0296253   0.4440177 SPIN=   0.00000
   O  -0.6613884   0.0285364   0.1447774 SPIN=   0.00000
   O   0.2386775  -0.4703747  -0.4440177 SPIN=   0.00000
   O   0.6613884  -0.4714636  -0.1447774 SPIN=   0.00000
   O   0.2386775  -0.0296253  -0.4440177 SPIN=   0.00000
   O   0.6613884  -0.0285364  -0.1447774 SPIN=   0.00000
   O  -0.2386775   0.4703747   0.4440177 SPIN=   0.00000
   O  -0.6613884   0.4714636   0.1447774 SPIN=   0.00000
   P  -0.4541593  -0.2500000  -0.2810926 SPIN=   0.00000
   P   0.4541593   0.2500000   0.2810926 SPIN=   0.00000
  Fe  -0.3910771  -0.2500000   0.2268881 SPIN=   4.00000
  Fe   0.3910771   0.2500000  -0.2268881 SPIN=   4.00000
%ENDBLOCK POSITIONS_FRAC

# Note: total spin =   8.00

KPOINTS_MP_SPACING 0.07

%BLOCK SPECIES_POT
QC5
%ENDBLOCK SPECIES_POT

%BLOCK HUBBARD_U
Fe d:4.0
%ENDBLOCK HUBBARD_U

SNAP_TO_SYMMETRY
SYMMETRY_GENERATE

