#              Generated by Buildcell
#
# at 23:51:21 (GMT+0.0) 23rd November 2020
# in /scratch/scratch/uccabz1/launch_tmp
# on node-a14a-001
# by uccabz1
#
# compiler GCC version 4.9.2
# options -cpp -iprefix /scratch/UCL/applications/gcc/4.9.2/bin/../lib/gcc/x86_64-unknown-linux-gnu/4.9.2/ -mtune=corei7 -march=x86-64 -g -O2
#
# seed -1546586199   613339745 -1915386413  1008386446  1656447317  1653713407   324293711 -1135216304   414019118 -1699292975  1536793569  -821946176
#
#      Author: C. J. Pickard (cjp20@cam.ac.uk)
#                Space group: P-1
#

%BLOCK LATTICE_ABC
      4.48102      5.10580      8.10472
     90.73150    105.75790    115.00138
%ENDBLOCK LATTICE_ABC

%BLOCK POSITIONS_FRAC
  Li  -0.1167446   0.2070054   0.0645786 SPIN=   0.00000
  Li   0.1167446  -0.2070054  -0.0645786 SPIN=   0.00000
   O  -0.1408848  -0.3688558  -0.3295194 SPIN=   0.00000
   O  -0.4345706  -0.2547069  -0.1212676 SPIN=   0.00000
   O  -0.0649143   0.1528905  -0.2441103 SPIN=   0.00000
   O  -0.6377123  -0.2207726  -0.4366174 SPIN=   0.00000
   O   0.1408848   0.3688558   0.3295194 SPIN=   0.00000
   O   0.4345706   0.2547069   0.1212676 SPIN=   0.00000
   O   0.0649143  -0.1528905   0.2441103 SPIN=   0.00000
   O   0.6377123   0.2207726   0.4366174 SPIN=   0.00000
   P   0.5000000   0.5000000   0.0000000 SPIN=   0.00000
   P  -1.0000000  -0.5000000  -0.5000000 SPIN=   0.00000
  Fe   0.5551381   0.7661604   0.3282731 SPIN=   4.00000
  Fe  -0.5551381  -0.7661604  -0.3282731 SPIN=   4.00000
%ENDBLOCK POSITIONS_FRAC

# Note: total spin =   8.00

KPOINTS_MP_SPACING 0.07

%BLOCK SPECIES_POT
QC5
%ENDBLOCK SPECIES_POT

%BLOCK HUBBARD_U
Fe d:4.0
%ENDBLOCK HUBBARD_U

SNAP_TO_SYMMETRY
SYMMETRY_GENERATE

