#              Generated by Buildcell
#
# at 23:55:15 (GMT+0.0) 23rd November 2020
# in /scratch/scratch/uccabz1/launch_tmp
# on node-k10i-025
# by uccabz1
#
# compiler GCC version 4.9.2
# options -cpp -iprefix /scratch/UCL/applications/gcc/4.9.2/bin/../lib/gcc/x86_64-unknown-linux-gnu/4.9.2/ -mtune=corei7 -march=x86-64 -g -O2
#
# seed    40348480  1821994060   731866436 -2007195312  1231939690 -1582337765   399194518 -1834260843  1839950856  1516607173   461654325  -888035600
#
#      Author: C. J. Pickard (cjp20@cam.ac.uk)
#                Space group: Pc
#

%BLOCK LATTICE_ABC
      4.08307      6.26651      6.46104
     90.00000     90.00000    104.56965
%ENDBLOCK LATTICE_ABC

%BLOCK POSITIONS_FRAC
  Li   0.0153252   0.4609933   0.3668049 SPIN=   0.00000
  Li  -0.4846748  -0.0390067  -0.3668049 SPIN=   0.00000
   O  -0.0050098  -0.1482216  -0.3228923 SPIN=   0.00000
   O  -0.1185060  -0.3929208   0.0069386 SPIN=   0.00000
   O  -0.6078405  -0.3555819  -0.2017997 SPIN=   0.00000
   O  -0.2186366  -0.5722974  -0.3416422 SPIN=   0.00000
   P  -0.2248967  -0.3580127  -0.2220979 SPIN=   0.00000
   O   0.4949902   0.3517784   0.3228923 SPIN=   0.00000
   O   0.3814940   0.1070792  -0.0069386 SPIN=   0.00000
   O  -0.1078405   0.1444181   0.2017997 SPIN=   0.00000
   O   0.2813634  -0.0722974   0.3416422 SPIN=   0.00000
   P   0.2751033   0.1419873   0.2220979 SPIN=   0.00000
  Fe  -0.3572792  -0.1825312   0.1611686 SPIN=   4.00000
  Fe   0.1427208   0.3174688  -0.1611686 SPIN=   4.00000
%ENDBLOCK POSITIONS_FRAC

# Note: total spin =   8.00

KPOINTS_MP_SPACING 0.07

%BLOCK SPECIES_POT
QC5
%ENDBLOCK SPECIES_POT

%BLOCK HUBBARD_U
Fe d:4.0
%ENDBLOCK HUBBARD_U

SNAP_TO_SYMMETRY
SYMMETRY_GENERATE

