#              Generated by Buildcell
#
# at 05:53:41 (GMT+0.0) 24th November 2020
# in /lustre/scratch/uccabz1/launch_tmp
# on node-c12n-028
# by uccabz1
#
# compiler GCC version 4.9.2
# options -cpp -iprefix /lustre/shared/ucl/apps/gcc/4.9.2/bin/../lib/gcc/x86_64-unknown-linux-gnu/4.9.2/ -mtune=corei7 -march=x86-64 -g -Og
#
# seed -1917758988  1049042009 -1790246848  -918936362  -480964196 -1987462353    99849710  -554335904   315109149  -897224377  2039886989  -588124532
#
#      Author: C. J. Pickard (cjp20@cam.ac.uk)
#                Space group: C2
#

%BLOCK LATTICE_ABC
      5.50771      5.50771      5.92814
     95.39498     95.39498    115.33661
%ENDBLOCK LATTICE_ABC

%BLOCK POSITIONS_FRAC
  Li   0.0117442   0.3787421  -0.2963899 SPIN=   0.00000
  Li  -0.3787421  -0.0117442   0.2963899 SPIN=   0.00000
   O   0.5497901   0.5361297   0.3056574 SPIN=   0.00000
   O   0.1657254   0.2347688  -0.0288913 SPIN=   0.00000
   O   0.2559589   0.0183759   0.2945262 SPIN=   0.00000
   O   0.0424636   0.3353885   0.3531283 SPIN=   0.00000
   P   0.2667710   0.2953812   0.2365147 SPIN=   0.00000
   O  -0.5361297  -0.5497901  -0.3056574 SPIN=   0.00000
   O  -0.2347688  -0.1657254   0.0288913 SPIN=   0.00000
   O  -0.0183759  -0.2559589  -0.2945262 SPIN=   0.00000
   O  -0.3353885  -0.0424636  -0.3531283 SPIN=   0.00000
   P  -0.2953812  -0.2667710  -0.2365147 SPIN=   0.00000
  Fe  -0.0512550  -0.3773542   0.2129616 SPIN=   4.00000
  Fe   0.3773542   0.0512550  -0.2129616 SPIN=   4.00000
%ENDBLOCK POSITIONS_FRAC

# Note: total spin =   8.00

KPOINTS_MP_SPACING 0.07

%BLOCK SPECIES_POT
QC5
%ENDBLOCK SPECIES_POT

%BLOCK HUBBARD_U
Fe d:4.0
%ENDBLOCK HUBBARD_U

SNAP_TO_SYMMETRY
SYMMETRY_GENERATE

