#              Generated by Buildcell
#
# at 03:26:17 (GMT+0.0) 24th November 2020
# in /lustre/scratch/uccabz1/launch_tmp
# on node-c12g-032
# by uccabz1
#
# compiler GCC version 4.9.2
# options -cpp -iprefix /lustre/shared/ucl/apps/gcc/4.9.2/bin/../lib/gcc/x86_64-unknown-linux-gnu/4.9.2/ -mtune=corei7 -march=x86-64 -g -Og
#
# seed  -720138354  -677438842  1689802023 -2037473469 -2142451788     8939863 -1134710164   -70917894 -1017661223  -415230722 -1570493794  1042224619
#
#      Author: C. J. Pickard (cjp20@cam.ac.uk)
#                Space group: Cm
#

%BLOCK LATTICE_ABC
      5.73487      5.73487      5.87293
    111.92658    111.92658     95.38015
%ENDBLOCK LATTICE_ABC

%BLOCK POSITIONS_FRAC
  Li   0.4149700  -0.2059755   0.1448615 SPIN=   0.00000
  Li  -0.2059755   0.4149700   0.1448615 SPIN=   0.00000
   O  -0.3954973  -0.0542106  -0.0362992 SPIN=   0.00000
   O  -0.7660292  -0.1904595  -0.5215244 SPIN=   0.00000
   O  -0.4603548   0.2502488  -0.2766549 SPIN=   0.00000
   P  -0.4746585  -0.0362503  -0.3086540 SPIN=   0.00000
   O  -0.0542106  -0.3954973  -0.0362992 SPIN=   0.00000
   O  -0.1904595  -0.7660292  -0.5215244 SPIN=   0.00000
   O   0.2502488  -0.4603548  -0.2766549 SPIN=   0.00000
   P  -0.0362503  -0.4746585  -0.3086540 SPIN=   0.00000
   O   0.6841199   0.6841199   0.4549906 SPIN=   0.00000
   O   0.1059847   0.1059847   0.0647383 SPIN=   0.00000
  Fe   0.4070905   0.4070905   0.4427929 SPIN=   0.13444
  Fe   0.0090330   0.0090330  -0.3474688 SPIN=   7.86556
%ENDBLOCK POSITIONS_FRAC

# Note: total spin =   8.00

KPOINTS_MP_SPACING 0.07

%BLOCK SPECIES_POT
QC5
%ENDBLOCK SPECIES_POT

%BLOCK HUBBARD_U
Fe d:4.0
%ENDBLOCK HUBBARD_U

SNAP_TO_SYMMETRY
SYMMETRY_GENERATE

