#              Generated by Buildcell
#
# at 23:08:08 (GMT+0.0) 23rd November 2020
# in /lustre/scratch/uccabz1/launch_tmp
# on node-c12l-025
# by uccabz1
#
# compiler GCC version 4.9.2
# options -cpp -iprefix /lustre/shared/ucl/apps/gcc/4.9.2/bin/../lib/gcc/x86_64-unknown-linux-gnu/4.9.2/ -mtune=corei7 -march=x86-64 -g -Og
#
# seed -1737924693 -2140163476   626619580 -1824076512  1549515305 -1748200726  1837055020   768191911  1976897467 -2081208624 -1818248027 -1930719790
#
#      Author: C. J. Pickard (cjp20@cam.ac.uk)
#                Space group: P21/m
#

%BLOCK LATTICE_ABC
      4.95890      5.28675      6.10315
     90.35243     90.00000     90.00000
%ENDBLOCK LATTICE_ABC

%BLOCK POSITIONS_FRAC
  Li   0.2500000  -0.2401059   0.4868064 SPIN=   0.00000
  Li  -0.2500000   0.2401059  -0.4868064 SPIN=   0.00000
   O  -0.4993333  -0.0043420  -0.2944372 SPIN=   0.00000
   O  -0.4991290  -0.4957805  -0.2976571 SPIN=   0.00000
   O   0.0006667   0.0043420   0.2944372 SPIN=   0.00000
   O   0.0008710   0.4957805   0.2976571 SPIN=   0.00000
   O   0.4993333   0.0043420   0.2944372 SPIN=   0.00000
   O   0.4991290   0.4957805   0.2976571 SPIN=   0.00000
   O  -0.0006667  -0.0043420  -0.2944372 SPIN=   0.00000
   O  -0.0008710  -0.4957805  -0.2976571 SPIN=   0.00000
   P  -0.2500000  -0.2395815  -0.3423479 SPIN=   0.00000
   P   0.2500000   0.2395815   0.3423479 SPIN=   0.00000
  Fe  -0.2500000  -0.2526435   0.1276619 SPIN=   4.00000
  Fe   0.2500000   0.2526435  -0.1276619 SPIN=   4.00000
%ENDBLOCK POSITIONS_FRAC

# Note: total spin =   8.00

KPOINTS_MP_SPACING 0.07

%BLOCK SPECIES_POT
QC5
%ENDBLOCK SPECIES_POT

%BLOCK HUBBARD_U
Fe d:4.0
%ENDBLOCK HUBBARD_U

SNAP_TO_SYMMETRY
SYMMETRY_GENERATE

