#              Generated by Buildcell
#
# at 19:19:15 (GMT+0.0) 30th November 2020
# in /lustre/scratch/uccabz1/launch_tmp
# on node-c12b-032
# by uccabz1
#
# compiler GCC version 4.9.2
# options -cpp -iprefix /lustre/shared/ucl/apps/gcc/4.9.2/bin/../lib/gcc/x86_64-unknown-linux-gnu/4.9.2/ -mtune=corei7 -march=x86-64 -g -Og
#
# seed   939779607  2017440585  1818718787  -195533209  -797536376  -128788959 -1515415417  1621031859  2026780954 -2102160502  1597819922  -135331927
#
#      Author: C. J. Pickard (cjp20@cam.ac.uk)
#                Space group: Pc
#

%BLOCK LATTICE_ABC
      4.83311      5.48222      6.25782
    105.21023     90.00000     90.00000
%ENDBLOCK LATTICE_ABC

%BLOCK POSITIONS_FRAC
  Li   0.2796116   0.0049618  -0.0603328 SPIN=   0.00000
  Li  -0.2796116   0.0049618   0.4396672 SPIN=   0.00000
   O   0.1828014  -0.0191897   0.2617468 SPIN=   0.00000
   O   0.3732947  -0.4693088   0.2352851 SPIN=   0.00000
   O   0.3589960  -0.1612619   0.6024885 SPIN=   0.00000
   O  -0.0836337  -0.3416026   0.4194418 SPIN=   0.00000
   P   0.2030902  -0.2367727   0.3739265 SPIN=   0.00000
   O  -0.1828014  -0.0191897  -0.2382532 SPIN=   0.00000
   O  -0.3732947  -0.4693088  -0.2647149 SPIN=   0.00000
   O  -0.3589960  -0.1612619   0.1024885 SPIN=   0.00000
   O   0.0836337  -0.3416026  -0.0805582 SPIN=   0.00000
   P  -0.2030902  -0.2367727  -0.1260735 SPIN=   0.00000
  Fe   0.2295070   0.4063985  -0.3690128 SPIN=   4.00000
  Fe  -0.2295070   0.4063985   0.1309872 SPIN=   4.00000
%ENDBLOCK POSITIONS_FRAC

# Note: total spin =   8.00

KPOINTS_MP_SPACING 0.07

%BLOCK SPECIES_POT
QC5
%ENDBLOCK SPECIES_POT

%BLOCK HUBBARD_U
Fe d:4.0
%ENDBLOCK HUBBARD_U

SNAP_TO_SYMMETRY
SYMMETRY_GENERATE

