#              Generated by Buildcell
#
# at 00:06:33 (GMT+0.0) 24th November 2020
# in /lustre/scratch/uccabz1/launch_tmp
# on node-c12p-022
# by uccabz1
#
# compiler GCC version 4.9.2
# options -cpp -iprefix /lustre/shared/ucl/apps/gcc/4.9.2/bin/../lib/gcc/x86_64-unknown-linux-gnu/4.9.2/ -mtune=corei7 -march=x86-64 -g -Og
#
# seed  1524290576   320125368  1367674335  2051086657  -961193685   234164077  -746863848   883854577  -257638477   407735305 -1083645316  -169943413
#
#      Author: C. J. Pickard (cjp20@cam.ac.uk)
#                Space group: Cm
#

%BLOCK LATTICE_ABC
      3.86997      6.43931      6.43931
     86.39769     88.18977     88.18977
%ENDBLOCK LATTICE_ABC

%BLOCK POSITIONS_FRAC
  Li  -0.3456234  -0.3324652  -0.3324652 SPIN=   0.00000
  Li  -0.0521877  -0.0161830  -0.0161830 SPIN=   0.00000
   O  -0.2384317  -0.0466415   0.2940250 SPIN=   0.00000
   O  -0.7575895  -0.2690905   0.4280279 SPIN=   0.00000
   O  -0.6377654  -0.2283406   0.0488615 SPIN=   0.00000
   O  -0.2330291  -0.4461041   0.2740664 SPIN=   0.00000
   P  -0.4517920  -0.2391903   0.2631419 SPIN=   0.00000
   O  -0.2384317   0.2940250  -0.0466415 SPIN=   0.00000
   O  -0.7575895   0.4280279  -0.2690905 SPIN=   0.00000
   O  -0.6377654   0.0488615  -0.2283406 SPIN=   0.00000
   O  -0.2330291   0.2740664  -0.4461041 SPIN=   0.00000
   P  -0.4517920   0.2631419  -0.2391903 SPIN=   0.00000
  Fe   0.1427231   0.4832550   0.0494023 SPIN=   4.00000
  Fe   0.1427231   0.0494023   0.4832550 SPIN=   4.00000
%ENDBLOCK POSITIONS_FRAC

# Note: total spin =   8.00

KPOINTS_MP_SPACING 0.07

%BLOCK SPECIES_POT
QC5
%ENDBLOCK SPECIES_POT

%BLOCK HUBBARD_U
Fe d:4.0
%ENDBLOCK HUBBARD_U

SNAP_TO_SYMMETRY
SYMMETRY_GENERATE

