#              Generated by Buildcell
#
# at 00:52:42 (GMT+0.0) 24th November 2020
# in /scratch/scratch/uccabz1/launch_tmp
# on node-k10e-028
# by uccabz1
#
# compiler GCC version 4.9.2
# options -cpp -iprefix /scratch/UCL/applications/gcc/4.9.2/bin/../lib/gcc/x86_64-unknown-linux-gnu/4.9.2/ -mtune=corei7 -march=x86-64 -g -O2
#
# seed  1010942801 -1764891902   883961079   937161182  1788687897  1410290800   515818192 -1645807210  1010324886 -1780705740  1999612612   111962062
#
#      Author: C. J. Pickard (cjp20@cam.ac.uk)
#                Space group: Ima2
#

%BLOCK LATTICE_ABC
      5.54754      5.69643      6.43748
    116.25983    115.52328     90.00000
%ENDBLOCK LATTICE_ABC

%BLOCK POSITIONS_FRAC
  Li  -0.3864599   0.3809387   0.5000000 SPIN=   0.00000
  Li   0.1135401  -0.3809387  -0.5000000 SPIN=   0.00000
   O   0.4819908  -0.0648112   0.2320221 SPIN=   0.00000
   O   0.1674728   0.2643618   0.1754022 SPIN=   0.00000
   O   0.2499687   0.0648112  -0.2320221 SPIN=   0.00000
   O  -0.0079293  -0.2643618  -0.1754022 SPIN=   0.00000
   O  -0.0180092  -0.2031667  -0.7679779 SPIN=   0.00000
   O  -0.3325272  -0.5889596  -0.8245978 SPIN=   0.00000
   O  -0.2500313   0.2031667   0.7679779 SPIN=   0.00000
   O  -0.5079293   0.5889596   0.8245978 SPIN=   0.00000
   P   0.2528864  -0.0000000   0.0000000 SPIN=   0.00000
   P  -0.2471136  -0.5000000  -1.0000000 SPIN=   0.00000
  Fe  -0.2471137  -0.0000000  -0.0000000 SPIN=   4.00000
  Fe   0.2528863   0.5000000   1.0000000 SPIN=   4.00000
%ENDBLOCK POSITIONS_FRAC

# Note: total spin =   8.00

KPOINTS_MP_SPACING 0.07

%BLOCK SPECIES_POT
QC5
%ENDBLOCK SPECIES_POT

%BLOCK HUBBARD_U
Fe d:4.0
%ENDBLOCK HUBBARD_U

SNAP_TO_SYMMETRY
SYMMETRY_GENERATE

