#              Generated by Buildcell
#
# at 03:33:04 (GMT+0.0) 24th November 2020
# in /scratch/scratch/uccabz1/launch_tmp
# on node-a14e-012
# by uccabz1
#
# compiler GCC version 4.9.2
# options -cpp -iprefix /scratch/UCL/applications/gcc/4.9.2/bin/../lib/gcc/x86_64-unknown-linux-gnu/4.9.2/ -mtune=corei7 -march=x86-64 -g -O2
#
# seed  1270010015 -2029954161 -1977002006  1790315630 -1744140623  1993149478   507414892 -2052428295  1973919602  1209375260 -1380842292 -1241193747
#
#      Author: C. J. Pickard (cjp20@cam.ac.uk)
#                Space group: P-1
#

%BLOCK LATTICE_ABC
      4.91086      5.65501      6.18677
     80.49647     70.94285     89.35325
%ENDBLOCK LATTICE_ABC

%BLOCK POSITIONS_FRAC
  Li   0.4025523  -0.2655852   0.0844680 SPIN=   0.00000
  Li  -0.4025523   0.2655852  -0.0844680 SPIN=   0.00000
   O  -0.1874569  -0.3996594   0.1370271 SPIN=   0.00000
   O   0.0684586  -0.0333279   0.2057226 SPIN=   0.00000
   O  -0.4609178  -0.0381520   0.3014311 SPIN=   0.00000
   O  -0.2421509  -0.3209492   0.5483631 SPIN=   0.00000
   P  -0.2049874  -0.2102090   0.2925107 SPIN=   0.00000
   O   0.1874569   0.3996594  -0.1370271 SPIN=   0.00000
   O  -0.0684586   0.0333279  -0.2057226 SPIN=   0.00000
   O   0.4609178   0.0381520  -0.3014311 SPIN=   0.00000
   O   0.2421509   0.3209492  -0.5483631 SPIN=   0.00000
   P   0.2049874   0.2102090  -0.2925107 SPIN=   0.00000
  Fe   0.1486182  -0.2789753  -0.3476953 SPIN=   4.00000
  Fe  -0.1486182   0.2789753   0.3476953 SPIN=   4.00000
%ENDBLOCK POSITIONS_FRAC

# Note: total spin =   8.00

KPOINTS_MP_SPACING 0.07

%BLOCK SPECIES_POT
QC5
%ENDBLOCK SPECIES_POT

%BLOCK HUBBARD_U
Fe d:4.0
%ENDBLOCK HUBBARD_U

SNAP_TO_SYMMETRY
SYMMETRY_GENERATE

