#              Generated by Buildcell
#
# at 00:43:43 (GMT+0.0) 24th November 2020
# in /lustre/scratch/uccabz1/launch_tmp
# on node-c12d-024
# by uccabz1
#
# compiler GCC version 4.9.2
# options -cpp -iprefix /lustre/shared/ucl/apps/gcc/4.9.2/bin/../lib/gcc/x86_64-unknown-linux-gnu/4.9.2/ -mtune=corei7 -march=x86-64 -g -Og
#
# seed -1294265303     7903334  1229127229  1453818897 -2025827729  1562929057 -1326250629   959965197  1088604198  1906907785  1486571362   354187661
#
#      Author: C. J. Pickard (cjp20@cam.ac.uk)
#                Space group: P-1
#

%BLOCK LATTICE_ABC
      5.03250      5.93094      6.08434
    108.60798     97.95229    106.23016
%ENDBLOCK LATTICE_ABC

%BLOCK POSITIONS_FRAC
  Li  -0.5000000  -0.5000000   0.0000000 SPIN=   0.00000
  Li  -0.5000000  -0.5000000  -0.5000000 SPIN=   0.00000
   O   0.1529893  -0.3534438  -0.0739741 SPIN=   0.00000
   O   0.4860872  -0.2042860   0.3493945 SPIN=   0.00000
   O   0.3678887   0.1175896   0.2188490 SPIN=   0.00000
   O  -0.0097710  -0.1888455   0.3126275 SPIN=   0.00000
   P   0.2411133  -0.1680659   0.1883534 SPIN=   0.00000
   O  -0.1529893   0.3534438   0.0739741 SPIN=   0.00000
   O  -0.4860872   0.2042860  -0.3493945 SPIN=   0.00000
   O  -0.3678887  -0.1175896  -0.2188490 SPIN=   0.00000
   O   0.0097710   0.1888455  -0.3126275 SPIN=   0.00000
   P  -0.2411133   0.1680659  -0.1883534 SPIN=   0.00000
  Fe   0.1667099  -0.1154296  -0.2669449 SPIN=   4.00000
  Fe  -0.1667099   0.1154296   0.2669449 SPIN=   4.00000
%ENDBLOCK POSITIONS_FRAC

# Note: total spin =   8.00

KPOINTS_MP_SPACING 0.07

%BLOCK SPECIES_POT
QC5
%ENDBLOCK SPECIES_POT

%BLOCK HUBBARD_U
Fe d:4.0
%ENDBLOCK HUBBARD_U

SNAP_TO_SYMMETRY
SYMMETRY_GENERATE

