#              Generated by Buildcell
#
# at 00:26:23 (GMT+0.0) 24th November 2020
# in /lustre/scratch/uccabz1/launch_tmp
# on node-c12h-025
# by uccabz1
#
# compiler GCC version 4.9.2
# options -cpp -iprefix /lustre/shared/ucl/apps/gcc/4.9.2/bin/../lib/gcc/x86_64-unknown-linux-gnu/4.9.2/ -mtune=corei7 -march=x86-64 -g -Og
#
# seed  1344127442  -841007238  1942021491  -574484962   510999524   769364281  -415941040  1359754918  2121808595  -628382382 -2119067887  1119279913
#
#      Author: C. J. Pickard (cjp20@cam.ac.uk)
#                Space group: Pmn21
#

%BLOCK LATTICE_ABC
      4.84129      5.07171      6.51636
     90.00000     90.00000     90.00000
%ENDBLOCK LATTICE_ABC

%BLOCK POSITIONS_FRAC
  Li   0.2063749  -0.0000000  -0.3102188 SPIN=   0.00000
  Li  -0.2936251   0.5000000   0.3102188 SPIN=   0.00000
   O   0.0525049  -0.2566223   0.3629654 SPIN=   0.00000
   O   0.0832825  -0.2558401  -0.0350774 SPIN=   0.00000
   O  -0.4474951  -0.2433777  -0.3629654 SPIN=   0.00000
   O  -0.4167175  -0.2441599   0.0350774 SPIN=   0.00000
   O  -0.4474951   0.2433777  -0.3629654 SPIN=   0.00000
   O  -0.4167175   0.2441599   0.0350774 SPIN=   0.00000
   O   0.0525049   0.2566223   0.3629654 SPIN=   0.00000
   O   0.0832825   0.2558401  -0.0350774 SPIN=   0.00000
   P  -0.2048512  -0.0000000   0.4164331 SPIN=   0.00000
   P   0.2951488   0.5000000  -0.4164331 SPIN=   0.00000
  Fe   0.2961662  -0.0000000   0.1868571 SPIN=   4.00000
  Fe  -0.2038338   0.5000000  -0.1868571 SPIN=   4.00000
%ENDBLOCK POSITIONS_FRAC

# Note: total spin =   8.00

KPOINTS_MP_SPACING 0.07

%BLOCK SPECIES_POT
QC5
%ENDBLOCK SPECIES_POT

%BLOCK HUBBARD_U
Fe d:4.0
%ENDBLOCK HUBBARD_U

SNAP_TO_SYMMETRY
SYMMETRY_GENERATE

