#              Generated by Buildcell
#
# at 04:53:58 (GMT+0.0) 24th November 2020
# in /lustre/scratch/uccabz1/launch_tmp
# on node-c12c-030
# by uccabz1
#
# compiler GCC version 4.9.2
# options -cpp -iprefix /lustre/shared/ucl/apps/gcc/4.9.2/bin/../lib/gcc/x86_64-unknown-linux-gnu/4.9.2/ -mtune=corei7 -march=x86-64 -g -Og
#
# seed  -538735229  1879003346 -1417683052  1322375552   557717552 -1553223773  1596040373 -1113825923    69763019   211051605   861009629    38736966
#
#      Author: C. J. Pickard (cjp20@cam.ac.uk)
#                Space group: Cmc21
#

%BLOCK LATTICE_ABC
      4.90707      4.90707      7.65770
     90.00000     90.00000    119.80589
%ENDBLOCK LATTICE_ABC

%BLOCK POSITIONS_FRAC
  Li  -0.1354119   0.1354119  -0.1368210 SPIN=   0.00000
  Li   0.1354119  -0.1354119   0.3631790 SPIN=   0.00000
   O   0.4541092   0.0459133   0.1527434 SPIN=   0.00000
   O   0.3159547   0.1841158  -0.1499661 SPIN=   0.00000
   O  -0.4541092  -0.0459133  -0.3472566 SPIN=   0.00000
   O  -0.3159547  -0.1841158  -0.6499661 SPIN=   0.00000
   O   0.0459133   0.4541092  -0.3472566 SPIN=   0.00000
   O   0.1841158   0.3159547  -0.6499661 SPIN=   0.00000
   O  -0.0459133  -0.4541092   0.1527434 SPIN=   0.00000
   O  -0.1841158  -0.3159547  -0.1499661 SPIN=   0.00000
   P  -0.1816939   0.1816939   0.2470580 SPIN=   0.00000
   P   0.1816939  -0.1816939  -0.2529420 SPIN=   0.00000
  Fe   0.5374693   0.4625307  -0.3699122 SPIN=   4.00000
  Fe  -0.5374693  -0.4625307   0.1300878 SPIN=   4.00000
%ENDBLOCK POSITIONS_FRAC

# Note: total spin =   8.00

KPOINTS_MP_SPACING 0.07

%BLOCK SPECIES_POT
QC5
%ENDBLOCK SPECIES_POT

%BLOCK HUBBARD_U
Fe d:4.0
%ENDBLOCK HUBBARD_U

SNAP_TO_SYMMETRY
SYMMETRY_GENERATE

