#              Generated by Buildcell
#
# at 05:49:33 (GMT+0.0) 24th November 2020
# in /scratch/scratch/uccabz1/launch_tmp
# on node-k10i-019
# by uccabz1
#
# compiler GCC version 4.9.2
# options -cpp -iprefix /scratch/UCL/applications/gcc/4.9.2/bin/../lib/gcc/x86_64-unknown-linux-gnu/4.9.2/ -mtune=corei7 -march=x86-64 -g -O2
#
# seed -1353337989  -854287370  -358920898   981557185  1100551914  -816761065 -2067599385   492473834  -358270630  -934916463 -2124187790  1326721396
#
#      Author: C. J. Pickard (cjp20@cam.ac.uk)
#                Space group: P2
#

%BLOCK LATTICE_ABC
      4.70924      5.52545      6.40527
    106.26355     90.00000     90.00000
%ENDBLOCK LATTICE_ABC

%BLOCK POSITIONS_FRAC
  Li   0.3898722  -0.4067575  -0.2107735 SPIN=   0.00000
  Li   0.3898722   0.4067575   0.2107735 SPIN=   0.00000
   O  -0.1709556   0.5806910  -0.1664216 SPIN=   0.00000
   O  -0.3015079   0.1049899  -0.2702683 SPIN=   0.00000
   O  -0.0199031   0.2618552  -0.5306333 SPIN=   0.00000
   O   0.2041992   0.2347148  -0.1833297 SPIN=   0.00000
   P  -0.0740486   0.3100263  -0.2799764 SPIN=   0.00000
   O  -0.1709556  -0.5806910   0.1664216 SPIN=   0.00000
   O  -0.3015079  -0.1049899   0.2702683 SPIN=   0.00000
   O  -0.0199031  -0.2618552   0.5306333 SPIN=   0.00000
   O   0.2041992  -0.2347148   0.1833297 SPIN=   0.00000
   P  -0.0740486  -0.3100263   0.2799764 SPIN=   0.00000
  Fe  -0.1111855  -0.0000000  -0.0000000 SPIN=   7.34948
  Fe   0.3756300   0.0000000  -0.5000000 SPIN=   0.65052
%ENDBLOCK POSITIONS_FRAC

# Note: total spin =   8.00

KPOINTS_MP_SPACING 0.07

%BLOCK SPECIES_POT
QC5
%ENDBLOCK SPECIES_POT

%BLOCK HUBBARD_U
Fe d:4.0
%ENDBLOCK HUBBARD_U

SNAP_TO_SYMMETRY
SYMMETRY_GENERATE

