#              Generated by Buildcell
#
# at 03:31:16 (GMT+0.0) 24th November 2020
# in /lustre/scratch/uccabz1/launch_tmp
# on node-c12e-025
# by uccabz1
#
# compiler GCC version 4.9.2
# options -cpp -iprefix /lustre/shared/ucl/apps/gcc/4.9.2/bin/../lib/gcc/x86_64-unknown-linux-gnu/4.9.2/ -mtune=corei7 -march=x86-64 -g -Og
#
# seed   946088276 -1460902274  1278834475  -126789742 -1679035875  1955313999   653714331 -1335970461 -2015884948  -644066437 -1151808491 -1630053970
#
#      Author: C. J. Pickard (cjp20@cam.ac.uk)
#                Space group: Imm2
#

%BLOCK LATTICE_ABC
      5.34838      5.64650      6.57204
    115.44121    114.01051     90.00000
%ENDBLOCK LATTICE_ABC

%BLOCK POSITIONS_FRAC
  Li  -0.5000000  -0.3427288  -1.0000000 SPIN=   0.00000
  Li   0.0000000   0.1573124   0.0000000 SPIN=   0.00000
   O  -0.3549829   0.3659463  -0.2422541 SPIN=   0.00000
   O  -0.6000860   0.1471027  -0.7318522 SPIN=   0.00000
   O   0.3549829  -0.3917996   0.2422541 SPIN=   0.00000
   O   0.6000860  -0.1210451   0.7318522 SPIN=   0.00000
   O  -0.1127288  -0.3917996  -0.7577459 SPIN=   0.00000
   O   0.1317662  -0.1210451  -0.2681478 SPIN=   0.00000
   O   0.1127288   0.3659463   0.7577459 SPIN=   0.00000
   O  -0.1317662   0.1471027   0.2681478 SPIN=   0.00000
   P   0.0000000  -0.3698225   0.0000000 SPIN=   0.00000
   P   0.5000000   0.1301744   1.0000000 SPIN=   0.00000
  Fe   0.2499748   0.0625837   0.4999497 SPIN=   4.00000
  Fe  -0.2499748  -0.4373660  -0.4999497 SPIN=   4.00000
%ENDBLOCK POSITIONS_FRAC

# Note: total spin =   8.00

KPOINTS_MP_SPACING 0.07

%BLOCK SPECIES_POT
QC5
%ENDBLOCK SPECIES_POT

%BLOCK HUBBARD_U
Fe d:4.0
%ENDBLOCK HUBBARD_U

SNAP_TO_SYMMETRY
SYMMETRY_GENERATE

