#              Generated by Buildcell
#
# at 04:18:41 (GMT+0.0) 24th November 2020
# in /scratch/scratch/uccabz1/launch_tmp
# on node-a14f-014
# by uccabz1
#
# compiler GCC version 4.9.2
# options -cpp -iprefix /scratch/UCL/applications/gcc/4.9.2/bin/../lib/gcc/x86_64-unknown-linux-gnu/4.9.2/ -mtune=corei7 -march=x86-64 -g -O2
#
# seed -2119679552  1136748658 -1008252755 -1027321377  1394332288  -377148150  -550357314   785275165   708867846 -2069947471   643753836  1938073702
#
#      Author: C. J. Pickard (cjp20@cam.ac.uk)
#                Space group: P-1
#

%BLOCK LATTICE_ABC
      4.98301      5.29193      7.16949
     75.26436     75.84158     62.21934
%ENDBLOCK LATTICE_ABC

%BLOCK POSITIONS_FRAC
  Li   0.0000000  -0.0000000   0.0000000 SPIN=   0.00000
  Li  -1.0000000   0.0000000   0.5000000 SPIN=   0.00000
   O   0.8493913  -0.4595294  -0.3331686 SPIN=   0.00000
   O   0.7732459  -0.0058404  -0.2101744 SPIN=   0.00000
   O   0.3185807  -0.0237677  -0.2753296 SPIN=   0.00000
   P   0.6399510  -0.2247107  -0.2061355 SPIN=   0.00000
   O  -0.8493913   0.4595294   0.3331686 SPIN=   0.00000
   O  -0.7732459   0.0058404   0.2101744 SPIN=   0.00000
   O  -0.3185807   0.0237677   0.2753296 SPIN=   0.00000
   P  -0.6399510   0.2247107   0.2061355 SPIN=   0.00000
   O   0.5000000  -0.5000000   0.0000000 SPIN=   0.00000
   O   0.0000000  -0.5000000  -0.0000000 SPIN=   0.00000
  Fe  -0.6184043   0.3913153  -0.2199727 SPIN=   4.00000
  Fe   0.6184043  -0.3913153   0.2199727 SPIN=   4.00000
%ENDBLOCK POSITIONS_FRAC

# Note: total spin =   8.00

KPOINTS_MP_SPACING 0.07

%BLOCK SPECIES_POT
QC5
%ENDBLOCK SPECIES_POT

%BLOCK HUBBARD_U
Fe d:4.0
%ENDBLOCK HUBBARD_U

SNAP_TO_SYMMETRY
SYMMETRY_GENERATE

