#              Generated by Buildcell
#
# at 23:17:36 (GMT+0.0) 23rd November 2020
# in /lustre/scratch/uccabz1/launch_tmp
# on node-c12c-025
# by uccabz1
#
# compiler GCC version 4.9.2
# options -cpp -iprefix /lustre/shared/ucl/apps/gcc/4.9.2/bin/../lib/gcc/x86_64-unknown-linux-gnu/4.9.2/ -mtune=corei7 -march=x86-64 -g -Og
#
# seed -1141042167   134904236   674216003 -2017556640   879504140 -1340436125 -1991392155   200402708  2035436725  -280632452  1053997786  1605266070
#
#      Author: C. J. Pickard (cjp20@cam.ac.uk)
#                Space group: Pc
#

%BLOCK LATTICE_ABC
      4.31473      4.81863      7.86113
     90.00000     90.00000    101.77833
%ENDBLOCK LATTICE_ABC

%BLOCK POSITIONS_FRAC
  Li  -0.1549997  -0.1660394  -0.0591653 SPIN=   0.00000
  Li   0.3450003   0.3339606   0.0591653 SPIN=   0.00000
   O   0.0840298  -0.7879225   0.3290194 SPIN=   0.00000
   O  -0.3630834  -0.5129701   0.2680869 SPIN=   0.00000
   O   0.0560821  -0.3079766   0.4725496 SPIN=   0.00000
   O   0.1851751  -0.3161963   0.1622290 SPIN=   0.00000
   P  -0.0021751  -0.4956463   0.3073720 SPIN=   0.00000
   O   0.5840298  -0.2879225  -0.3290194 SPIN=   0.00000
   O   0.1369166  -0.0129701  -0.2680869 SPIN=   0.00000
   O   0.5560821   0.1920234  -0.4725496 SPIN=   0.00000
   O   0.6851751   0.1838037  -0.1622290 SPIN=   0.00000
   P   0.4978249   0.0043537  -0.3073720 SPIN=   0.00000
  Fe  -0.4110821  -0.0973211   0.3319495 SPIN=   4.00000
  Fe   0.0889179   0.4026789  -0.3319495 SPIN=   4.00000
%ENDBLOCK POSITIONS_FRAC

# Note: total spin =   8.00

KPOINTS_MP_SPACING 0.07

%BLOCK SPECIES_POT
QC5
%ENDBLOCK SPECIES_POT

%BLOCK HUBBARD_U
Fe d:4.0
%ENDBLOCK HUBBARD_U

SNAP_TO_SYMMETRY
SYMMETRY_GENERATE

