#              Generated by Buildcell
#
# at 05:23:24 (GMT+0.0) 24th November 2020
# in /lustre/scratch/uccabz1/launch_tmp
# on node-c12o-022
# by uccabz1
#
# compiler GCC version 4.9.2
# options -cpp -iprefix /lustre/shared/ucl/apps/gcc/4.9.2/bin/../lib/gcc/x86_64-unknown-linux-gnu/4.9.2/ -mtune=corei7 -march=x86-64 -g -Og
#
# seed  -623575220  -395995961 -1020388191 -2041449014  -422855152  -715281462   228617709 -1950416402  -302926606 -1693004089  -181211222  -247570188
#
#      Author: C. J. Pickard (cjp20@cam.ac.uk)
#                Space group: P-1
#

%BLOCK LATTICE_ABC
      5.37094      5.58467      6.07991
     77.10657     83.97043     64.16258
%ENDBLOCK LATTICE_ABC

%BLOCK POSITIONS_FRAC
  Li  -0.5000000   0.0000000   0.5000000 SPIN=   0.00000
  Li   0.5000000  -0.0000000   0.0000000 SPIN=   0.00000
   O   0.4434033  -0.3116307  -0.1643330 SPIN=   0.00000
   O   0.2259213  -0.1556081  -0.5625140 SPIN=   0.00000
   O   0.2830073  -0.6040488  -0.3401239 SPIN=   0.00000
   P   0.2283305  -0.3117089  -0.3124656 SPIN=   0.00000
   O  -0.4434033   0.3116307   0.1643330 SPIN=   0.00000
   O  -0.2259213   0.1556081   0.5625140 SPIN=   0.00000
   O  -0.2830073   0.6040488   0.3401239 SPIN=   0.00000
   P  -0.2283305   0.3117089   0.3124656 SPIN=   0.00000
   O  -0.0000000   0.5000000   0.0000000 SPIN=   0.00000
   O   0.0000000   0.0000000   0.0000000 SPIN=   0.00000
  Fe  -0.1665076   0.3736785  -0.2242561 SPIN=   4.00000
  Fe   0.1665076  -0.3736785   0.2242561 SPIN=   4.00000
%ENDBLOCK POSITIONS_FRAC

# Note: total spin =   8.00

KPOINTS_MP_SPACING 0.07

%BLOCK SPECIES_POT
QC5
%ENDBLOCK SPECIES_POT

%BLOCK HUBBARD_U
Fe d:4.0
%ENDBLOCK HUBBARD_U

SNAP_TO_SYMMETRY
SYMMETRY_GENERATE

