#              Generated by Buildcell
#
# at 23:18:36 (GMT+0.0) 23rd November 2020
# in /lustre/scratch/uccabz1/launch_tmp
# on node-c12c-036
# by uccabz1
#
# compiler GCC version 4.9.2
# options -cpp -iprefix /lustre/shared/ucl/apps/gcc/4.9.2/bin/../lib/gcc/x86_64-unknown-linux-gnu/4.9.2/ -mtune=corei7 -march=x86-64 -g -Og
#
# seed  -279177496  1208287718  -843465720  -442621586  -421070087   183759436  -721373052 -1933199537  -264392139   956924644  -575953553  1400849336
#
#      Author: C. J. Pickard (cjp20@cam.ac.uk)
#                Space group: C2/c
#

%BLOCK LATTICE_ABC
      3.94783      6.62364      7.19869
     64.63258     74.08538     72.66184
%ENDBLOCK LATTICE_ABC

%BLOCK POSITIONS_FRAC
  Li  -0.5000000   0.0000000   0.0000000 SPIN=   0.00000
  Li  -0.5000000  -0.5000000   0.5000000 SPIN=   0.00000
   O  -0.2670666  -0.6443023   0.2725317 SPIN=   0.00000
   O   0.0005267  -0.2812306   0.0501940 SPIN=   0.00000
   O  -0.6388372   0.1443023   0.2274683 SPIN=   0.00000
   O  -0.2305099  -0.2187694   0.4498060 SPIN=   0.00000
   O   0.2670666   0.6443023  -0.2725317 SPIN=   0.00000
   O  -0.0005267   0.2812306  -0.0501940 SPIN=   0.00000
   O   0.6388372  -0.1443023  -0.2274683 SPIN=   0.00000
   O   0.2305099   0.2187694  -0.4498060 SPIN=   0.00000
   P   0.0006860  -0.2500000   0.2500000 SPIN=   0.00000
   P  -0.0006860   0.2500000  -0.2500000 SPIN=   0.00000
  Fe  -0.0000000  -0.0000000  -0.5000000 SPIN=   4.00000
  Fe   0.5000000   0.5000000   0.0000000 SPIN=   4.00000
%ENDBLOCK POSITIONS_FRAC

# Note: total spin =   8.00

KPOINTS_MP_SPACING 0.07

%BLOCK SPECIES_POT
QC5
%ENDBLOCK SPECIES_POT

%BLOCK HUBBARD_U
Fe d:4.0
%ENDBLOCK HUBBARD_U

SNAP_TO_SYMMETRY
SYMMETRY_GENERATE

