#              Generated by Buildcell
#
# at 02:35:23 (GMT+0.0) 24th November 2020
# in /lustre/scratch/uccabz1/launch_tmp
# on node-c12l-031
# by uccabz1
#
# compiler GCC version 4.9.2
# options -cpp -iprefix /lustre/shared/ucl/apps/gcc/4.9.2/bin/../lib/gcc/x86_64-unknown-linux-gnu/4.9.2/ -mtune=corei7 -march=x86-64 -g -Og
#
# seed   -53857732  -388171399   784473412 -1312204319 -1492349922  -908764842  -809772475  2121200030 -1384681937   362733740  1951926557   366385592
#
#      Author: C. J. Pickard (cjp20@cam.ac.uk)
#                Space group: Cc
#

%BLOCK LATTICE_ABC
      5.10189      5.10189      6.42717
     93.16945     93.16945    106.16310
%ENDBLOCK LATTICE_ABC

%BLOCK POSITIONS_FRAC
  Li  -0.1713804  -0.1511297  -0.0595588 SPIN=   0.00000
  Li  -0.1511297  -0.1713804   0.4404412 SPIN=   0.00000
   O   0.6022425   0.2884832   0.0519396 SPIN=   0.00000
   O   0.2354723  -0.1533704  -0.1007286 SPIN=   0.00000
   O   0.5639964  -0.1914748   0.1850325 SPIN=   0.00000
   O   0.2009759   0.0373417   0.2609515 SPIN=   0.00000
   P   0.4090478   0.0113552   0.0986847 SPIN=   0.00000
   O   0.2884832   0.6022425  -0.4480604 SPIN=   0.00000
   O  -0.1533704   0.2354723  -0.6007286 SPIN=   0.00000
   O  -0.1914748   0.5639964  -0.3149675 SPIN=   0.00000
   O   0.0373417   0.2009759  -0.2390485 SPIN=   0.00000
   P   0.0113552   0.4090478  -0.4013153 SPIN=   0.00000
  Fe   0.4498779   0.1685710  -0.3228576 SPIN=   4.00000
  Fe   0.1685710   0.4498779   0.1771424 SPIN=   4.00000
%ENDBLOCK POSITIONS_FRAC

# Note: total spin =   8.00

KPOINTS_MP_SPACING 0.07

%BLOCK SPECIES_POT
QC5
%ENDBLOCK SPECIES_POT

%BLOCK HUBBARD_U
Fe d:4.0
%ENDBLOCK HUBBARD_U

SNAP_TO_SYMMETRY
SYMMETRY_GENERATE

