#              Generated by Buildcell
#
# at 01:05:17 (GMT+0.0) 24th November 2020
# in /lustre/scratch/uccabz1/launch_tmp
# on node-c12h-026
# by uccabz1
#
# compiler GCC version 4.9.2
# options -cpp -iprefix /lustre/shared/ucl/apps/gcc/4.9.2/bin/../lib/gcc/x86_64-unknown-linux-gnu/4.9.2/ -mtune=corei7 -march=x86-64 -g -Og
#
# seed   868197672  1957282953  1657623264   336283002 -1782383446 -1793201587  -474405323  -441446320 -1897253953  -973378806  1111512997   494869712
#
#      Author: C. J. Pickard (cjp20@cam.ac.uk)
#                Space group: Cc
#

%BLOCK LATTICE_ABC
      4.99136      5.38012      6.78814
     86.39446     82.20842     62.36285
%ENDBLOCK LATTICE_ABC

%BLOCK POSITIONS_FRAC
  Li  -0.2575010  -0.0113542  -0.2119876 SPIN=   0.00000
  Li  -0.2688552   0.0113542   0.2880124 SPIN=   0.00000
   O   0.4031602   0.0048034  -0.4324896 SPIN=   0.00000
   O   0.1279558   0.3857065  -0.6907722 SPIN=   0.00000
   O  -0.1787577   0.2248019  -0.4519802 SPIN=   0.00000
   O   0.0351845   0.5187032  -0.3317487 SPIN=   0.00000
   P   0.1124652   0.2714400  -0.4726801 SPIN=   0.00000
   O   0.4079636  -0.0048034   0.0675104 SPIN=   0.00000
   O   0.5136623  -0.3857065  -0.1907722 SPIN=   0.00000
   O   0.0460442  -0.2248019   0.0480198 SPIN=   0.00000
   O   0.5538877  -0.5187032   0.1682513 SPIN=   0.00000
   P   0.3839051  -0.2714400   0.0273199 SPIN=   0.00000
  Fe   0.0249267   0.3515606  -0.0161012 SPIN=   4.00000
  Fe   0.3764873  -0.3515606   0.4838988 SPIN=   4.00000
%ENDBLOCK POSITIONS_FRAC

# Note: total spin =   8.00

KPOINTS_MP_SPACING 0.07

%BLOCK SPECIES_POT
QC5
%ENDBLOCK SPECIES_POT

%BLOCK HUBBARD_U
Fe d:4.0
%ENDBLOCK HUBBARD_U

SNAP_TO_SYMMETRY
SYMMETRY_GENERATE

