#              Generated by Buildcell
#
# at 04:50:36 (GMT+0.0) 24th November 2020
# in /lustre/scratch/uccabz1/launch_tmp
# on node-c12k-030
# by uccabz1
#
# compiler GCC version 4.9.2
# options -cpp -iprefix /lustre/shared/ucl/apps/gcc/4.9.2/bin/../lib/gcc/x86_64-unknown-linux-gnu/4.9.2/ -mtune=corei7 -march=x86-64 -g -Og
#
# seed  -781352629 -1898281934   416950899  -749743774  1878391530  -691150270  -677122327   778052571 -1185488968  1179657676  1271182709  1708771066
#
#      Author: C. J. Pickard (cjp20@cam.ac.uk)
#                Space group: Pc
#

%BLOCK LATTICE_ABC
      5.20862      5.83741      5.85592
     90.00000     90.00000    116.02104
%ENDBLOCK LATTICE_ABC

%BLOCK POSITIONS_FRAC
  Li   0.2123704   0.2450784   0.3009738 SPIN=   0.00000
  Li  -0.2876296   0.2450784  -0.3009738 SPIN=   0.00000
   O   0.1788477  -0.4530480   0.1337279 SPIN=   0.00000
   O  -0.0184240  -0.4168918   0.5327303 SPIN=   0.00000
   O  -0.1150718  -0.1977106   0.2066904 SPIN=   0.00000
   O  -0.3601657  -0.6744313   0.2276703 SPIN=   0.00000
   P  -0.0683117  -0.4392731   0.2671109 SPIN=   0.00000
   O   0.6788477  -0.4530480  -0.1337279 SPIN=   0.00000
   O   0.4815760  -0.4168918  -0.5327303 SPIN=   0.00000
   O   0.3849282  -0.1977106  -0.2066904 SPIN=   0.00000
   O   0.1398343  -0.6744313  -0.2276703 SPIN=   0.00000
   P   0.4316883  -0.4392731  -0.2671109 SPIN=   0.00000
  Fe   0.0301841  -0.1232317  -0.2444934 SPIN=   4.00000
  Fe  -0.4698159  -0.1232317   0.2444934 SPIN=   4.00000
%ENDBLOCK POSITIONS_FRAC

# Note: total spin =   8.00

KPOINTS_MP_SPACING 0.07

%BLOCK SPECIES_POT
QC5
%ENDBLOCK SPECIES_POT

%BLOCK HUBBARD_U
Fe d:4.0
%ENDBLOCK HUBBARD_U

SNAP_TO_SYMMETRY
SYMMETRY_GENERATE

