#              Generated by Buildcell
#
# at 23:02:28 (GMT+0.0) 23rd November 2020
# in /lustre/scratch/uccabz1/launch_tmp
# on node-c12c-025
# by uccabz1
#
# compiler GCC version 4.9.2
# options -cpp -iprefix /lustre/shared/ucl/apps/gcc/4.9.2/bin/../lib/gcc/x86_64-unknown-linux-gnu/4.9.2/ -mtune=corei7 -march=x86-64 -g -Og
#
# seed -1076707076  1098935945  1847703170  -709768047  1179306250 -1067386033  1219171928  1076248485   646136241   -78067281  1758003727 -1899689487
#
#      Author: C. J. Pickard (cjp20@cam.ac.uk)
#                Space group: P-1
#

%BLOCK LATTICE_ABC
      5.32685      5.63550      5.65037
     90.37005    106.87416     99.15807
%ENDBLOCK LATTICE_ABC

%BLOCK POSITIONS_FRAC
  Li  -0.5000000   0.0000000  -0.5000000 SPIN=   0.00000
  Li  -0.5000000  -0.5000000   0.0000000 SPIN=   0.00000
   O  -0.2208706  -0.2205763  -0.5900837 SPIN=   0.00000
   O  -0.3137314  -0.6034202  -0.3545695 SPIN=   0.00000
   O   0.0857825  -0.3016127  -0.1590851 SPIN=   0.00000
   O  -0.3658280  -0.2050948  -0.1926821 SPIN=   0.00000
   O   0.2208706   0.2205763   0.5900837 SPIN=   0.00000
   O   0.3137314   0.6034202   0.3545695 SPIN=   0.00000
   O  -0.0857825   0.3016127   0.1590851 SPIN=   0.00000
   O   0.3658280   0.2050948   0.1926821 SPIN=   0.00000
   P   0.0000000  -0.5000000   0.0000000 SPIN=   0.00000
   P   1.0000000  -0.0000000   0.5000000 SPIN=   0.00000
  Fe   1.0000000   0.5000000   0.5000000 SPIN=   1.64876
  Fe   0.0000000   0.0000000  -0.0000000 SPIN=   6.35124
%ENDBLOCK POSITIONS_FRAC

# Note: total spin =   8.00

KPOINTS_MP_SPACING 0.07

%BLOCK SPECIES_POT
QC5
%ENDBLOCK SPECIES_POT

%BLOCK HUBBARD_U
Fe d:4.0
%ENDBLOCK HUBBARD_U

SNAP_TO_SYMMETRY
SYMMETRY_GENERATE

