#              Generated by Buildcell
#
# at 05:23:17 (GMT+0.0) 24th November 2020
# in /lustre/scratch/uccabz1/launch_tmp
# on node-c12b-020
# by uccabz1
#
# compiler GCC version 4.9.2
# options -cpp -iprefix /lustre/shared/ucl/apps/gcc/4.9.2/bin/../lib/gcc/x86_64-unknown-linux-gnu/4.9.2/ -mtune=corei7 -march=x86-64 -g -Og
#
# seed -1493122174  1555510279  -277693712   523465640   441248864 -1555458035  1745476366   554521501  1964751339   969119533 -1736093964  1128844979
#
#      Author: C. J. Pickard (cjp20@cam.ac.uk)
#                Space group: P-1
#

%BLOCK LATTICE_ABC
      3.92587      5.11642      8.21355
     96.76432     93.06421    101.56791
%ENDBLOCK LATTICE_ABC

%BLOCK POSITIONS_FRAC
  Li   0.4870390   0.0622699  -0.3151297 SPIN=   0.00000
  Li  -0.4870390  -0.0622699   0.3151297 SPIN=   0.00000
   O  -0.8190789  -0.6452258  -0.2922251 SPIN=   0.00000
   O  -0.2407791  -0.5174504  -0.1046037 SPIN=   0.00000
   O  -0.2869705  -0.2845765  -0.3492174 SPIN=   0.00000
   O  -0.6307200  -0.1860060  -0.1096077 SPIN=   0.00000
   P  -0.5132842  -0.4183056  -0.2168522 SPIN=   0.00000
   O   0.8190789   0.6452258   0.2922251 SPIN=   0.00000
   O   0.2407791   0.5174504   0.1046037 SPIN=   0.00000
   O   0.2869705   0.2845765   0.3492174 SPIN=   0.00000
   O   0.6307200   0.1860060   0.1096077 SPIN=   0.00000
   P   0.5132842   0.4183056   0.2168522 SPIN=   0.00000
  Fe   0.0000000  -0.0000000   0.0000000 SPIN=   5.89204
  Fe  -0.0000000   0.5000000  -0.5000000 SPIN=   2.10796
%ENDBLOCK POSITIONS_FRAC

# Note: total spin =   8.00

KPOINTS_MP_SPACING 0.07

%BLOCK SPECIES_POT
QC5
%ENDBLOCK SPECIES_POT

%BLOCK HUBBARD_U
Fe d:4.0
%ENDBLOCK HUBBARD_U

SNAP_TO_SYMMETRY
SYMMETRY_GENERATE

