#              Generated by Buildcell
#
# at 21:34:32 (GMT+0.0) 23rd November 2020
# in /lustre/scratch/uccabz1/launch_tmp
# on node-c12l-030
# by uccabz1
#
# compiler GCC version 4.9.2
# options -cpp -iprefix /lustre/shared/ucl/apps/gcc/4.9.2/bin/../lib/gcc/x86_64-unknown-linux-gnu/4.9.2/ -mtune=corei7 -march=x86-64 -g -Og
#
# seed  1781430647   251165979  -424494516 -1666201437  -419937603   392964118  -619240425  -316761361 -1589111677   261607923 -1956507917 -1536369650
#
#      Author: C. J. Pickard (cjp20@cam.ac.uk)
#                Space group: C2
#

%BLOCK LATTICE_ABC
      4.43601      4.43601      8.39709
     85.43751     85.43751     76.73306
%ENDBLOCK LATTICE_ABC

%BLOCK POSITIONS_FRAC
  Li  -0.2821652   0.0037108   0.2262369 SPIN=   0.00000
  Li  -0.0037108   0.2821652  -0.2262369 SPIN=   0.00000
   O   0.1859617  -0.0255962   0.2661198 SPIN=   0.00000
   O   0.4460180   0.4254115   0.3134231 SPIN=   0.00000
   O  -0.0028675   0.5374788   0.1447452 SPIN=   0.00000
   P   0.1361733   0.3223170   0.2915295 SPIN=   0.00000
   O   0.0255962  -0.1859617  -0.2661198 SPIN=   0.00000
   O  -0.4254115  -0.4460180  -0.3134231 SPIN=   0.00000
   O  -0.5374788   0.0028675  -0.1447452 SPIN=   0.00000
   P  -0.3223170  -0.1361733  -0.2915295 SPIN=   0.00000
   O  -0.0504230   0.0504230   0.0000000 SPIN=   0.00000
   O  -0.1601156   0.1601156  -0.5000000 SPIN=   0.00000
  Fe   0.3830041  -0.3830041   0.0000000 SPIN=   4.25108
  Fe   0.2322632  -0.2322632  -0.5000000 SPIN=   3.74892
%ENDBLOCK POSITIONS_FRAC

# Note: total spin =   8.00

KPOINTS_MP_SPACING 0.07

%BLOCK SPECIES_POT
QC5
%ENDBLOCK SPECIES_POT

%BLOCK HUBBARD_U
Fe d:4.0
%ENDBLOCK HUBBARD_U

SNAP_TO_SYMMETRY
SYMMETRY_GENERATE

