#              Generated by Buildcell
#
# at 01:54:26 (GMT+0.0) 24th November 2020
# in /scratch/scratch/uccabz1/launch_tmp
# on node-a14c-007
# by uccabz1
#
# compiler GCC version 4.9.2
# options -cpp -iprefix /scratch/UCL/applications/gcc/4.9.2/bin/../lib/gcc/x86_64-unknown-linux-gnu/4.9.2/ -mtune=corei7 -march=x86-64 -g -O2
#
# seed  1956135184  -141065065   -91504073    82043904 -1497936880 -2028005590 -1183431874  1105554276  1565597275   928816413   998658633  1670495846
#
#      Author: C. J. Pickard (cjp20@cam.ac.uk)
#                Space group: P21
#

%BLOCK LATTICE_ABC
      4.30749      5.02112      7.62104
     90.00000     90.00000    103.90640
%ENDBLOCK LATTICE_ABC

%BLOCK POSITIONS_FRAC
  Li  -0.4120820  -0.1861692  -0.3009004 SPIN=   0.00000
  Li   0.4120820   0.1861692   0.1990996 SPIN=   0.00000
   O  -0.4172096  -0.3617639   0.2057153 SPIN=   0.00000
   O  -0.0826225   0.1368921   0.1569218 SPIN=   0.00000
   O  -0.2987501   0.0049023   0.4530002 SPIN=   0.00000
   O   0.1474693  -0.1858018   0.3374226 SPIN=   0.00000
   P  -0.1726642  -0.1162991   0.2844497 SPIN=   0.00000
   O   0.4172096   0.3617639  -0.2942847 SPIN=   0.00000
   O   0.0826225  -0.1368921  -0.3430782 SPIN=   0.00000
   O   0.2987501  -0.0049023  -0.0469998 SPIN=   0.00000
   O  -0.1474693   0.1858018  -0.1625774 SPIN=   0.00000
   P   0.1726642   0.1162991  -0.2155503 SPIN=   0.00000
  Fe  -0.0263786   0.4059155   0.4973919 SPIN=   4.00000
  Fe   0.0263786  -0.4059155  -0.0026081 SPIN=   4.00000
%ENDBLOCK POSITIONS_FRAC

# Note: total spin =   8.00

KPOINTS_MP_SPACING 0.07

%BLOCK SPECIES_POT
QC5
%ENDBLOCK SPECIES_POT

%BLOCK HUBBARD_U
Fe d:4.0
%ENDBLOCK HUBBARD_U

SNAP_TO_SYMMETRY
SYMMETRY_GENERATE

