#              Generated by Buildcell
#
# at 03:23:21 (GMT+0.0) 24th November 2020
# in /lustre/scratch/uccabz1/launch_tmp
# on node-c12f-022
# by uccabz1
#
# compiler GCC version 4.9.2
# options -cpp -iprefix /lustre/shared/ucl/apps/gcc/4.9.2/bin/../lib/gcc/x86_64-unknown-linux-gnu/4.9.2/ -mtune=corei7 -march=x86-64 -g -Og
#
# seed -2131007830 -2073497396  1396274192  -621381660   586087044  1172507640  -971965969   207945276 -1542335242  -274459534 -1328288665   211320749
#
#      Author: C. J. Pickard (cjp20@cam.ac.uk)
#                Space group: C2
#

%BLOCK LATTICE_ABC
      4.71174      4.71174      7.51144
     80.61751     80.61751     79.00212
%ENDBLOCK LATTICE_ABC

%BLOCK POSITIONS_FRAC
  Li   0.4492976  -0.1856245  -0.1935801 SPIN=   0.00000
  Li   0.1856245  -0.4492976   0.1935801 SPIN=   0.00000
   O   0.5525151   0.2902388  -0.3191798 SPIN=   0.00000
   O   0.0555851   0.1049379  -0.2478796 SPIN=   0.00000
   O   0.0846727   0.5745328  -0.1519848 SPIN=   0.00000
   O   0.1107586   0.5398385  -0.4836029 SPIN=   0.00000
   P   0.2185420   0.3746639  -0.3038067 SPIN=   0.00000
   O  -0.2902388  -0.5525151   0.3191798 SPIN=   0.00000
   O  -0.1049379  -0.0555851   0.2478796 SPIN=   0.00000
   O  -0.5745328  -0.0846727   0.1519848 SPIN=   0.00000
   O  -0.5398385  -0.1107586   0.4836029 SPIN=   0.00000
   P  -0.3746639  -0.2185420   0.3038067 SPIN=   0.00000
  Fe  -0.0069112   0.0069112   0.5000000 SPIN=   3.79176
  Fe  -0.1963207   0.1963207   0.0000000 SPIN=   4.20824
%ENDBLOCK POSITIONS_FRAC

# Note: total spin =   8.00

KPOINTS_MP_SPACING 0.07

%BLOCK SPECIES_POT
QC5
%ENDBLOCK SPECIES_POT

%BLOCK HUBBARD_U
Fe d:4.0
%ENDBLOCK HUBBARD_U

SNAP_TO_SYMMETRY
SYMMETRY_GENERATE

