#              Generated by Buildcell
#
# at 03:43:27 (GMT+0.0) 24th November 2020
# in /lustre/scratch/uccabz1/launch_tmp
# on node-c12h-027
# by uccabz1
#
# compiler GCC version 4.9.2
# options -cpp -iprefix /lustre/shared/ucl/apps/gcc/4.9.2/bin/../lib/gcc/x86_64-unknown-linux-gnu/4.9.2/ -mtune=corei7 -march=x86-64 -g -Og
#
# seed  -532144736 -2120477284 -1709477780 -1814548474   560764723   308227286  1544874368 -1998515175  1409512684  1059589857   382691434    43574045
#
#      Author: C. J. Pickard (cjp20@cam.ac.uk)
#                Space group: Cc
#

%BLOCK LATTICE_ABC
      4.56605      5.03656      7.80669
     90.95603     90.00000    116.95496
%ENDBLOCK LATTICE_ABC

%BLOCK POSITIONS_FRAC
  Li  -0.1994077   0.4858069  -0.1864437 SPIN=   0.00000
  Li  -0.3147855   0.4858069   0.3135563 SPIN=   0.00000
   O   0.1448584  -0.4900913  -0.6225117 SPIN=   0.00000
   O   0.6012984   0.0462844  -0.5573930 SPIN=   0.00000
   O   0.2031607  -0.2160520  -0.3300628 SPIN=   0.00000
   O   0.6238506  -0.3839333  -0.4123575 SPIN=   0.00000
   P   0.3827851  -0.2746001  -0.4873332 SPIN=   0.00000
   O   0.3650503  -0.4900913  -0.1225117 SPIN=   0.00000
   O   0.4449859   0.0462844  -0.0573930 SPIN=   0.00000
   O   0.5807873  -0.2160520   0.1699372 SPIN=   0.00000
   O  -0.0077839  -0.3839333   0.0876425 SPIN=   0.00000
   P   0.3426148  -0.2746001   0.0126668 SPIN=   0.00000
  Fe   0.0294983   0.0984063   0.0716050 SPIN=   4.00000
  Fe   0.0689079   0.0984063  -0.4283950 SPIN=   4.00000
%ENDBLOCK POSITIONS_FRAC

# Note: total spin =   8.00

KPOINTS_MP_SPACING 0.07

%BLOCK SPECIES_POT
QC5
%ENDBLOCK SPECIES_POT

%BLOCK HUBBARD_U
Fe d:4.0
%ENDBLOCK HUBBARD_U

SNAP_TO_SYMMETRY
SYMMETRY_GENERATE

