#              Generated by Buildcell
#
# at 05:21:01 (GMT+0.0) 24th November 2020
# in /lustre/scratch/uccabz1/launch_tmp
# on node-c12b-020
# by uccabz1
#
# compiler GCC version 4.9.2
# options -cpp -iprefix /lustre/shared/ucl/apps/gcc/4.9.2/bin/../lib/gcc/x86_64-unknown-linux-gnu/4.9.2/ -mtune=corei7 -march=x86-64 -g -Og
#
# seed  1033515526   633537414 -1508288174  -652743779  1452572631   538817538   788601655   156763947   826049210  1210284468 -1294528764  -145985044
#
#      Author: C. J. Pickard (cjp20@cam.ac.uk)
#                Space group: P21
#

%BLOCK LATTICE_ABC
      4.20439      4.89375      7.77673
     90.00000     90.00000     90.57747
%ENDBLOCK LATTICE_ABC

%BLOCK POSITIONS_FRAC
  Li   0.4886362  -0.1737748  -0.2946446 SPIN=   0.00000
  Li  -0.4886362   0.1737748   0.2053554 SPIN=   0.00000
   O  -0.7576049   0.3477863  -0.5698982 SPIN=   0.00000
   O  -0.2372105   0.5736744  -0.4556327 SPIN=   0.00000
   O  -0.5343425   0.2607503  -0.2634531 SPIN=   0.00000
   O  -0.2460929   0.0716541  -0.5181807 SPIN=   0.00000
   P  -0.4581872   0.3124400  -0.4588633 SPIN=   0.00000
   O   0.7576049  -0.3477863  -0.0698982 SPIN=   0.00000
   O   0.2372105  -0.5736744   0.0443673 SPIN=   0.00000
   O   0.5343425  -0.2607503   0.2365469 SPIN=   0.00000
   O   0.2460929  -0.0716541  -0.0181807 SPIN=   0.00000
   P   0.4581872  -0.3124400   0.0411367 SPIN=   0.00000
  Fe  -0.0049788   0.3221561  -0.1829028 SPIN=   4.00000
  Fe   0.0049788  -0.3221561   0.3170972 SPIN=   4.00000
%ENDBLOCK POSITIONS_FRAC

# Note: total spin =   8.00

KPOINTS_MP_SPACING 0.07

%BLOCK SPECIES_POT
QC5
%ENDBLOCK SPECIES_POT

%BLOCK HUBBARD_U
Fe d:4.0
%ENDBLOCK HUBBARD_U

SNAP_TO_SYMMETRY
SYMMETRY_GENERATE

