#              Generated by Buildcell
#
# at 03:47:02 (GMT+0.0) 24th November 2020
# in /lustre/scratch/uccabz1/launch_tmp
# on node-c12m-024
# by uccabz1
#
# compiler GCC version 4.9.2
# options -cpp -iprefix /lustre/shared/ucl/apps/gcc/4.9.2/bin/../lib/gcc/x86_64-unknown-linux-gnu/4.9.2/ -mtune=corei7 -march=x86-64 -g -Og
#
# seed  1598654244  -419140228 -1739881560  1688344507 -1049422745  -562710676  -232353871 -1411492656   113501816  -871294920  1280608782  1949044449
#
#      Author: C. J. Pickard (cjp20@cam.ac.uk)
#                Space group: P-1
#

%BLOCK LATTICE_ABC
      4.33002      6.29650      6.30406
     94.07281    105.62189    102.58808
%ENDBLOCK LATTICE_ABC

%BLOCK POSITIONS_FRAC
  Li  -0.3289652  -0.1707107   0.4364174 SPIN=   0.00000
  Li   0.3289652   0.1707107  -0.4364174 SPIN=   0.00000
   O  -0.2401739  -0.3573428  -0.0236235 SPIN=   0.00000
   O   0.1383110  -0.3543401   0.3745081 SPIN=   0.00000
   O   0.3846776  -0.1577191   0.1110103 SPIN=   0.00000
   O  -0.0117095  -0.0069685   0.2653473 SPIN=   0.00000
   P   0.0504414  -0.2239505   0.1718581 SPIN=   0.00000
   O   0.2401739   0.3573428   0.0236235 SPIN=   0.00000
   O  -0.1383110   0.3543401  -0.3745081 SPIN=   0.00000
   O  -0.3846776   0.1577191  -0.1110103 SPIN=   0.00000
   O   0.0117095   0.0069685  -0.2653473 SPIN=   0.00000
   P  -0.0504414   0.2239505  -0.1718581 SPIN=   0.00000
  Fe  -0.2588846   0.3338629   0.2082112 SPIN=   4.00000
  Fe   0.2588846  -0.3338629  -0.2082112 SPIN=   4.00000
%ENDBLOCK POSITIONS_FRAC

# Note: total spin =   8.00

KPOINTS_MP_SPACING 0.07

%BLOCK SPECIES_POT
QC5
%ENDBLOCK SPECIES_POT

%BLOCK HUBBARD_U
Fe d:4.0
%ENDBLOCK HUBBARD_U

SNAP_TO_SYMMETRY
SYMMETRY_GENERATE

