#              Generated by Buildcell
#
# at 21:25:49 (GMT+0.0) 23rd November 2020
# in /lustre/scratch/uccabz1/launch_tmp
# on node-c12c-025
# by uccabz1
#
# compiler GCC version 4.9.2
# options -cpp -iprefix /lustre/shared/ucl/apps/gcc/4.9.2/bin/../lib/gcc/x86_64-unknown-linux-gnu/4.9.2/ -mtune=corei7 -march=x86-64 -g -Og
#
# seed   902408472 -2134100322 -1965934306  1745900575  2141955202  -470592067 -1573942406 -1241214187  1021641820  2090824815 -1159877556  -377565306
#
#      Author: C. J. Pickard (cjp20@cam.ac.uk)
#                Space group: P21
#

%BLOCK LATTICE_ABC
      4.81382      5.71437      6.22549
    110.88415     90.00000     90.00000
%ENDBLOCK LATTICE_ABC

%BLOCK POSITIONS_FRAC
  Li  -0.4087401  -0.3459024  -0.0520804 SPIN=   0.00000
  Li   0.0912599   0.3459024   0.0520804 SPIN=   0.00000
   O  -0.2043499  -0.1603149   0.2627387 SPIN=   0.00000
   O   0.3073505  -0.2771142   0.3115546 SPIN=   0.00000
   O   0.1514234  -0.2987387  -0.0730549 SPIN=   0.00000
   O   0.2079999   0.1194542   0.2406697 SPIN=   0.00000
   P   0.0996603  -0.1512760   0.1902422 SPIN=   0.00000
   O  -0.7043499   0.1603149  -0.2627387 SPIN=   0.00000
   O  -0.1926495   0.2771142  -0.3115546 SPIN=   0.00000
   O  -0.3485766   0.2987387   0.0730549 SPIN=   0.00000
   O  -0.2920001  -0.1194542  -0.2406697 SPIN=   0.00000
   P  -0.4003397   0.1512760  -0.1902422 SPIN=   0.00000
  Fe   0.1131746  -0.2064908  -0.3694188 SPIN=   4.00000
  Fe  -0.3868254   0.2064908   0.3694188 SPIN=   4.00000
%ENDBLOCK POSITIONS_FRAC

# Note: total spin =   8.00

KPOINTS_MP_SPACING 0.07

%BLOCK SPECIES_POT
QC5
%ENDBLOCK SPECIES_POT

%BLOCK HUBBARD_U
Fe d:4.0
%ENDBLOCK HUBBARD_U

SNAP_TO_SYMMETRY
SYMMETRY_GENERATE

