#              Generated by Buildcell
#
# at 01:01:17 (GMT+0.0) 24th November 2020
# in /lustre/scratch/uccabz1/launch_tmp
# on node-c12e-032
# by uccabz1
#
# compiler GCC version 4.9.2
# options -cpp -iprefix /lustre/shared/ucl/apps/gcc/4.9.2/bin/../lib/gcc/x86_64-unknown-linux-gnu/4.9.2/ -mtune=corei7 -march=x86-64 -g -Og
#
# seed -1156652817  1012064065  2024360719  1507465756  1443929962  1660635151    91716710   734320441  -132772130   495462261 -2144500512  1418536279
#
#      Author: C. J. Pickard (cjp20@cam.ac.uk)
#                Space group: P21
#

%BLOCK LATTICE_ABC
      4.82595      5.44218      6.22683
     90.00000    101.94242     90.00000
%ENDBLOCK LATTICE_ABC

%BLOCK POSITIONS_FRAC
  Li  -0.1960136   0.3340386  -0.0963414 SPIN=   0.00000
  Li   0.1960136  -0.1659614   0.0963414 SPIN=   0.00000
   O   0.4803390  -0.4384586  -0.3693879 SPIN=   0.00000
   O   0.3338663  -0.5503921  -0.0027735 SPIN=   0.00000
   O   0.0544851  -0.2367867  -0.2408261 SPIN=   0.00000
   O   0.0213720  -0.6778064  -0.3581938 SPIN=   0.00000
   P   0.2338697  -0.4762527  -0.2508976 SPIN=   0.00000
   O  -0.4803390   0.0615414   0.3693879 SPIN=   0.00000
   O  -0.3338663  -0.0503921   0.0027735 SPIN=   0.00000
   O  -0.0544851   0.2632133   0.2408261 SPIN=   0.00000
   O  -0.0213720  -0.1778064   0.3581938 SPIN=   0.00000
   P  -0.2338697   0.0237473   0.2508976 SPIN=   0.00000
  Fe  -0.2792238  -0.4798250   0.3886513 SPIN=   4.00000
  Fe   0.2792238   0.0201750  -0.3886513 SPIN=   4.00000
%ENDBLOCK POSITIONS_FRAC

# Note: total spin =   8.00

KPOINTS_MP_SPACING 0.07

%BLOCK SPECIES_POT
QC5
%ENDBLOCK SPECIES_POT

%BLOCK HUBBARD_U
Fe d:4.0
%ENDBLOCK HUBBARD_U

SNAP_TO_SYMMETRY
SYMMETRY_GENERATE

