#              Generated by Buildcell
#
# at 01:52:49 (GMT+0.0) 24th November 2020
# in /scratch/scratch/uccabz1/launch_tmp
# on node-k10e-028
# by uccabz1
#
# compiler GCC version 4.9.2
# options -cpp -iprefix /scratch/UCL/applications/gcc/4.9.2/bin/../lib/gcc/x86_64-unknown-linux-gnu/4.9.2/ -mtune=corei7 -march=x86-64 -g -O2
#
# seed -1974005692   661680244  -157865694 -1928692536  1950309410   555544776   562930455 -1661007111   664361987  -605724758 -1135272057   -11178617
#
#      Author: C. J. Pickard (cjp20@cam.ac.uk)
#                Space group: P-1
#

%BLOCK LATTICE_ABC
      3.92036      4.78592      8.81481
     82.55430     77.34311     87.81115
%ENDBLOCK LATTICE_ABC

%BLOCK POSITIONS_FRAC
  Li  -0.2518312  -0.2503209   0.0093946 SPIN=   0.00000
  Li   0.2518312   0.2503209  -0.0093946 SPIN=   0.00000
   O   0.2083122  -0.1213652  -0.1846737 SPIN=   0.00000
   O   0.7468065  -0.4561145  -0.1882435 SPIN=   0.00000
   O   0.3374132  -0.5325170  -0.3553794 SPIN=   0.00000
   O   0.7241598  -0.1098598  -0.4246630 SPIN=   0.00000
   P   0.4910159  -0.2928859  -0.2843354 SPIN=   0.00000
   O  -0.2083122   0.1213652   0.1846737 SPIN=   0.00000
   O  -0.7468065   0.4561145   0.1882435 SPIN=   0.00000
   O  -0.3374132   0.5325170   0.3553794 SPIN=   0.00000
   O  -0.7241598   0.1098598   0.4246630 SPIN=   0.00000
   P  -0.4910159   0.2928859   0.2843354 SPIN=   0.00000
  Fe  -0.0953727   0.2014611  -0.3149466 SPIN=   4.00000
  Fe   0.0953727  -0.2014611   0.3149466 SPIN=   4.00000
%ENDBLOCK POSITIONS_FRAC

# Note: total spin =   8.00

KPOINTS_MP_SPACING 0.07

%BLOCK SPECIES_POT
QC5
%ENDBLOCK SPECIES_POT

%BLOCK HUBBARD_U
Fe d:4.0
%ENDBLOCK HUBBARD_U

SNAP_TO_SYMMETRY
SYMMETRY_GENERATE

