#              Generated by Buildcell
#
# at 03:09:59 (GMT+0.0) 24th November 2020
# in /scratch/scratch/uccabz1/launch_tmp
# on node-a14a-009
# by uccabz1
#
# compiler GCC version 4.9.2
# options -cpp -iprefix /scratch/UCL/applications/gcc/4.9.2/bin/../lib/gcc/x86_64-unknown-linux-gnu/4.9.2/ -mtune=corei7 -march=x86-64 -g -O2
#
# seed  1119938243  -392407028  -954876595  1847117427  -784416621 -1662131875   780911635   378938961   -29345118 -1235462988  1234689834 -1568896035
#
#      Author: C. J. Pickard (cjp20@cam.ac.uk)
#                Space group: Cmc21
#

%BLOCK LATTICE_ABC
      4.06891      4.06891      9.70557
     90.00000     90.00000     95.29619
%ENDBLOCK LATTICE_ABC

%BLOCK POSITIONS_FRAC
  Li  -0.1153766   0.1153766   0.0820343 SPIN=   0.00000
  Li   0.1153766  -0.1153766  -0.4179657 SPIN=   0.00000
   O  -0.2971048  -0.1534350   0.4428986 SPIN=   0.00000
   O  -0.0493347  -0.4405763   0.2329757 SPIN=   0.00000
   O   0.2971048   0.1534350  -0.0571014 SPIN=   0.00000
   O   0.0493347   0.4405763  -0.2670243 SPIN=   0.00000
   O  -0.1534350  -0.2971048  -0.0571014 SPIN=   0.00000
   O  -0.4405763  -0.0493347  -0.2670243 SPIN=   0.00000
   O   0.1534350   0.2971048   0.4428986 SPIN=   0.00000
   O   0.4405763   0.0493347   0.2329757 SPIN=   0.00000
   P  -0.1497538   0.1497538  -0.1947492 SPIN=   0.00000
   P   0.1497538  -0.1497538   0.3052508 SPIN=   0.00000
  Fe   0.3423906  -0.3423906  -0.1073010 SPIN=   4.00000
  Fe  -0.3423906   0.3423906   0.3926990 SPIN=   4.00000
%ENDBLOCK POSITIONS_FRAC

# Note: total spin =   8.00

KPOINTS_MP_SPACING 0.07

%BLOCK SPECIES_POT
QC5
%ENDBLOCK SPECIES_POT

%BLOCK HUBBARD_U
Fe d:4.0
%ENDBLOCK HUBBARD_U

SNAP_TO_SYMMETRY
SYMMETRY_GENERATE

