#              Generated by Buildcell
#
# at 04:48:54 (GMT+0.0) 24th November 2020
# in /lustre/scratch/uccabz1/launch_tmp
# on node-c12k-030
# by uccabz1
#
# compiler GCC version 4.9.2
# options -cpp -iprefix /lustre/shared/ucl/apps/gcc/4.9.2/bin/../lib/gcc/x86_64-unknown-linux-gnu/4.9.2/ -mtune=corei7 -march=x86-64 -g -Og
#
# seed   999100647  1400239979 -1831165517  1452714621   270483621   937128392 -1529290460 -1702160698    47604778  -422214412  1410521589  1487714358
#
#      Author: C. J. Pickard (cjp20@cam.ac.uk)
#                Space group: Cm
#

%BLOCK LATTICE_ABC
      5.69065      5.69065      6.29643
    114.49275    115.43813     93.78589
%ENDBLOCK LATTICE_ABC

%BLOCK POSITIONS_FRAC
  Li  -0.0759081  -0.0793935  -0.1553016 SPIN=   0.00000
  Li   0.3084094  -0.4401895  -0.1317801 SPIN=   0.00000
   O  -0.7194477  -0.3877323  -0.7527967 SPIN=   0.00000
   O  -0.3334349  -0.5380969  -0.4788333 SPIN=   0.00000
   O  -0.4784690  -0.1717863  -0.2307915 SPIN=   0.00000
   P  -0.5902989  -0.4359113  -0.5098000 SPIN=   0.00000
   O  -0.3650644  -0.0333490  -0.7527967 SPIN=   0.00000
   O   0.0592636  -0.1453984  -0.4788333 SPIN=   0.00000
   O  -0.0590052   0.2476775  -0.2307915 SPIN=   0.00000
   P  -0.0738887   0.0804989  -0.5098000 SPIN=   0.00000
   O  -0.4429390   0.3012559  -0.1416830 SPIN=   0.00000
   O   0.0824594   0.1840508   0.2665102 SPIN=   0.00000
  Fe   0.4022333   0.0428059   0.4450393 SPIN=   6.56257
  Fe  -0.1697660   0.4370277   0.2672617 SPIN=   1.43743
%ENDBLOCK POSITIONS_FRAC

# Note: total spin =   8.00

KPOINTS_MP_SPACING 0.07

%BLOCK SPECIES_POT
QC5
%ENDBLOCK SPECIES_POT

%BLOCK HUBBARD_U
Fe d:4.0
%ENDBLOCK HUBBARD_U

SNAP_TO_SYMMETRY
SYMMETRY_GENERATE

