#              Generated by Buildcell
#
# at 04:56:02 (GMT+0.0) 24th November 2020
# in /lustre/scratch/uccabz1/launch_tmp
# on node-c12h-026
# by uccabz1
#
# compiler GCC version 4.9.2
# options -cpp -iprefix /lustre/shared/ucl/apps/gcc/4.9.2/bin/../lib/gcc/x86_64-unknown-linux-gnu/4.9.2/ -mtune=corei7 -march=x86-64 -g -Og
#
# seed  1401278911 -1732060150  1024161408  1174533984 -2067353457  1425750689   739401083  1981213183  2076090397  2070468070   247589527 -1121755728
#
#      Author: C. J. Pickard (cjp20@cam.ac.uk)
#                Space group: P-1
#

%BLOCK LATTICE_ABC
      3.99701      5.84430      7.71325
    108.81137     91.94731    108.37841
%ENDBLOCK LATTICE_ABC

%BLOCK POSITIONS_FRAC
  Li  -0.1763070  -0.3503233   0.4162337 SPIN=   0.00000
  Li   0.1763070   0.3503233  -0.4162337 SPIN=   0.00000
   O   0.2174150   0.6314330   0.2428253 SPIN=   0.00000
   O   0.5996750   0.3351043   0.1687179 SPIN=   0.00000
   O   0.0406603   0.1926387   0.2934445 SPIN=   0.00000
   O   0.0128378   0.1972314  -0.0302198 SPIN=   0.00000
   P   0.2152178   0.3529928   0.1702918 SPIN=   0.00000
   O  -0.2174150  -0.6314330  -0.2428253 SPIN=   0.00000
   O  -0.5996750  -0.3351043  -0.1687179 SPIN=   0.00000
   O  -0.0406603  -0.1926387  -0.2934445 SPIN=   0.00000
   O  -0.0128378  -0.1972314   0.0302198 SPIN=   0.00000
   P  -0.2152178  -0.3529928  -0.1702918 SPIN=   0.00000
  Fe   0.4922822   0.0008944   0.2495364 SPIN=   4.00000
  Fe  -0.4922822  -0.0008944  -0.2495364 SPIN=   4.00000
%ENDBLOCK POSITIONS_FRAC

# Note: total spin =   8.00

KPOINTS_MP_SPACING 0.07

%BLOCK SPECIES_POT
QC5
%ENDBLOCK SPECIES_POT

%BLOCK HUBBARD_U
Fe d:4.0
%ENDBLOCK HUBBARD_U

SNAP_TO_SYMMETRY
SYMMETRY_GENERATE

