#              Generated by Buildcell
#
# at 00:53:20 (GMT+0.0) 24th November 2020
# in /lustre/scratch/uccabz1/launch_tmp
# on node-c12k-031
# by uccabz1
#
# compiler GCC version 4.9.2
# options -cpp -iprefix /lustre/shared/ucl/apps/gcc/4.9.2/bin/../lib/gcc/x86_64-unknown-linux-gnu/4.9.2/ -mtune=corei7 -march=x86-64 -g -Og
#
# seed  1323060005   268927608 -2146306963  1898869509 -1222507524  2034318434 -1923253212  1533903585   165123834 -1364939759 -1814727205  1609575592
#
#      Author: C. J. Pickard (cjp20@cam.ac.uk)
#                Space group: P-1
#

%BLOCK LATTICE_ABC
      3.91977      5.53215      7.69222
     77.12983     79.76592     86.73436
%ENDBLOCK LATTICE_ABC

%BLOCK POSITIONS_FRAC
  Li  -0.3449867   0.2397285   0.0129781 SPIN=   0.00000
  Li   0.3449867  -0.2397285  -0.0129781 SPIN=   0.00000
   O  -0.2256802  -0.1020182  -0.2149663 SPIN=   0.00000
   O   0.1868290  -0.4850370  -0.1565360 SPIN=   0.00000
   O  -0.2287053  -0.4793691  -0.3641568 SPIN=   0.00000
   O   0.2757644  -0.1936060  -0.4601250 SPIN=   0.00000
   P  -0.0068435  -0.3022343  -0.2963766 SPIN=   0.00000
   O   0.2256802   0.1020182   0.2149663 SPIN=   0.00000
   O  -0.1868290   0.4850370   0.1565360 SPIN=   0.00000
   O   0.2287053   0.4793691   0.3641568 SPIN=   0.00000
   O  -0.2757644   0.1936060   0.4601250 SPIN=   0.00000
   P   0.0068435   0.3022343   0.2963766 SPIN=   0.00000
  Fe  -0.2229488  -0.2169541   0.3572042 SPIN=   4.00000
  Fe   0.2229488   0.2169541  -0.3572042 SPIN=   4.00000
%ENDBLOCK POSITIONS_FRAC

# Note: total spin =   8.00

KPOINTS_MP_SPACING 0.07

%BLOCK SPECIES_POT
QC5
%ENDBLOCK SPECIES_POT

%BLOCK HUBBARD_U
Fe d:4.0
%ENDBLOCK HUBBARD_U

SNAP_TO_SYMMETRY
SYMMETRY_GENERATE

