#              Generated by Buildcell
#
# at 01:25:25 (GMT+0.0) 24th November 2020
# in /lustre/scratch/uccabz1/launch_tmp
# on node-c12e-025
# by uccabz1
#
# compiler GCC version 4.9.2
# options -cpp -iprefix /lustre/shared/ucl/apps/gcc/4.9.2/bin/../lib/gcc/x86_64-unknown-linux-gnu/4.9.2/ -mtune=corei7 -march=x86-64 -g -Og
#
# seed   183383299    91363689  1868804367  1491665650  1157405828 -1559838863 -1842440828 -1702792421  -724690819 -1574171067  -349259997  1315101735
#
#      Author: C. J. Pickard (cjp20@cam.ac.uk)
#                Space group: Cc
#

%BLOCK LATTICE_ABC
      5.60222      5.73910      6.11036
    108.29142     90.00000    119.21411
%ENDBLOCK LATTICE_ABC

%BLOCK POSITIONS_FRAC
  Li  -0.2494363  -0.0619012   0.1039586 SPIN=   0.00000
  Li   0.1875351  -0.0619012  -0.3960414 SPIN=   0.00000
   O  -0.0044537  -0.7407734  -0.0313653 SPIN=   0.00000
   O   0.0270833  -0.2490748   0.1402881 SPIN=   0.00000
   O  -0.1508831  -0.5727692   0.3640452 SPIN=   0.00000
   O   0.3542197  -0.3338345   0.3366640 SPIN=   0.00000
   P   0.0567601  -0.4866559   0.1915451 SPIN=   0.00000
   O   0.2636802  -0.7407734  -0.5313653 SPIN=   0.00000
   O   0.7238419  -0.2490748  -0.3597119 SPIN=   0.00000
   O   0.5781139  -0.5727692  -0.1359548 SPIN=   0.00000
   O   0.3119458  -0.3338345  -0.1633360 SPIN=   0.00000
   P   0.4565841  -0.4866559  -0.3084549 SPIN=   0.00000
  Fe  -0.1260029   0.3109255  -0.3295049 SPIN=   4.00000
  Fe   0.4369285   0.3109255   0.1704951 SPIN=   4.00000
%ENDBLOCK POSITIONS_FRAC

# Note: total spin =   8.00

KPOINTS_MP_SPACING 0.07

%BLOCK SPECIES_POT
QC5
%ENDBLOCK SPECIES_POT

%BLOCK HUBBARD_U
Fe d:4.0
%ENDBLOCK HUBBARD_U

SNAP_TO_SYMMETRY
SYMMETRY_GENERATE

