#              Generated by Buildcell
#
# at 04:56:43 (GMT+0.0) 24th November 2020
# in /lustre/scratch/uccabz1/launch_tmp
# on node-c12g-036
# by uccabz1
#
# compiler GCC version 4.9.2
# options -cpp -iprefix /lustre/shared/ucl/apps/gcc/4.9.2/bin/../lib/gcc/x86_64-unknown-linux-gnu/4.9.2/ -mtune=corei7 -march=x86-64 -g -Og
#
# seed  1097993977  1718763991 -1482558613  1933325950  2098596002  1337833607   -67919501   316308839 -1145347536  1256385105 -1627684513 -1767127684
#
#      Author: C. J. Pickard (cjp20@cam.ac.uk)
#                Space group: P-1
#

%BLOCK LATTICE_ABC
      4.69584      5.76678      6.62988
    105.63672     91.80702    110.80062
%ENDBLOCK LATTICE_ABC

%BLOCK POSITIONS_FRAC
  Li  -0.3158133  -0.0641590   0.3236271 SPIN=   0.00000
  Li   0.3158133   0.0641590  -0.3236271 SPIN=   0.00000
   O  -0.1873192   0.1097394  -0.1871143 SPIN=   0.00000
   O   0.0947189   0.2300343  -0.4972079 SPIN=   0.00000
   O  -0.3436961   0.3626045  -0.4119134 SPIN=   0.00000
   O   0.1513583   0.5830864  -0.1630012 SPIN=   0.00000
   P  -0.0747886   0.3131866  -0.3062186 SPIN=   0.00000
   O   0.1873192  -0.1097394   0.1871143 SPIN=   0.00000
   O  -0.0947189  -0.2300343   0.4972079 SPIN=   0.00000
   O   0.3436961  -0.3626045   0.4119134 SPIN=   0.00000
   O  -0.1513583  -0.5830864   0.1630012 SPIN=   0.00000
   P   0.0747886  -0.3131866   0.3062186 SPIN=   0.00000
  Fe   0.3381676   0.2954180   0.1934368 SPIN=   4.00000
  Fe  -0.3381676  -0.2954180  -0.1934368 SPIN=   4.00000
%ENDBLOCK POSITIONS_FRAC

# Note: total spin =   8.00

KPOINTS_MP_SPACING 0.07

%BLOCK SPECIES_POT
QC5
%ENDBLOCK SPECIES_POT

%BLOCK HUBBARD_U
Fe d:4.0
%ENDBLOCK HUBBARD_U

SNAP_TO_SYMMETRY
SYMMETRY_GENERATE

