#              Generated by Buildcell
#
# at 00:29:43 (GMT+0.0) 24th November 2020
# in /lustre/scratch/uccabz1/launch_tmp
# on node-c12i-020
# by uccabz1
#
# compiler GCC version 4.9.2
# options -cpp -iprefix /lustre/shared/ucl/apps/gcc/4.9.2/bin/../lib/gcc/x86_64-unknown-linux-gnu/4.9.2/ -mtune=corei7 -march=x86-64 -g -Og
#
# seed   566682433 -1142238423  1870793216  1775671055 -1831001415   524579145    34152123 -1019359900  -729573451 -1386749875  2046250715  1178627703
#
#      Author: C. J. Pickard (cjp20@cam.ac.uk)
#                Space group: P21/m
#

%BLOCK LATTICE_ABC
      3.96081      5.34174      7.56261
     90.00000     90.00000     90.53044
%ENDBLOCK LATTICE_ABC

%BLOCK POSITIONS_FRAC
  Li   0.0095435  -0.4033872   0.2500000 SPIN=   0.00000
  Li  -0.0095435   0.4033872  -0.2500000 SPIN=   0.00000
   O  -0.2865859   0.1667726  -0.0788647 SPIN=   0.00000
   O  -0.2150660  -0.3161168  -0.0854940 SPIN=   0.00000
   O   0.2865859  -0.1667726   0.4211353 SPIN=   0.00000
   O   0.2150660   0.3161168   0.4145060 SPIN=   0.00000
   O   0.2865859  -0.1667726   0.0788647 SPIN=   0.00000
   O   0.2150660   0.3161168   0.0854940 SPIN=   0.00000
   O  -0.2865859   0.1667726  -0.4211353 SPIN=   0.00000
   O  -0.2150660  -0.3161168  -0.4145060 SPIN=   0.00000
   P  -0.5000000  -0.5000000  -0.0000000 SPIN=   0.00000
   P  -0.5000000   0.5000000  -0.5000000 SPIN=   0.00000
  Fe  -0.4838273   0.0935961   0.2500000 SPIN=   4.00000
  Fe   0.4838273  -0.0935961  -0.2500000 SPIN=   4.00000
%ENDBLOCK POSITIONS_FRAC

# Note: total spin =   8.00

KPOINTS_MP_SPACING 0.07

%BLOCK SPECIES_POT
QC5
%ENDBLOCK SPECIES_POT

%BLOCK HUBBARD_U
Fe d:4.0
%ENDBLOCK HUBBARD_U

SNAP_TO_SYMMETRY
SYMMETRY_GENERATE

