#              Generated by Buildcell
#
# at 00:59:16 (GMT+0.0) 24th November 2020
# in /lustre/scratch/uccabz1/launch_tmp
# on node-c12e-020
# by uccabz1
#
# compiler GCC version 4.9.2
# options -cpp -iprefix /lustre/shared/ucl/apps/gcc/4.9.2/bin/../lib/gcc/x86_64-unknown-linux-gnu/4.9.2/ -mtune=corei7 -march=x86-64 -g -Og
#
# seed -1680949957 -1178600530  1843107896   121075047  -605343462   826893215   174113662  1104272417  1426351459   875328280  1400247559 -1142268345
#
#      Author: C. J. Pickard (cjp20@cam.ac.uk)
#                Space group: Pcc2
#

%BLOCK LATTICE_ABC
      4.19038      4.89157      7.80582
     90.00000     90.00000     90.00000
%ENDBLOCK LATTICE_ABC

%BLOCK POSITIONS_FRAC
  Li   0.5000000   0.0000000   0.1182689 SPIN=   0.00000
  Li   0.5000000   0.0000000  -0.3817311 SPIN=   0.00000
   O  -0.2172956  -0.2958039   0.2453121 SPIN=   0.00000
   O  -0.2828985   0.1755495   0.3946202 SPIN=   0.00000
   O   0.2172956   0.2958039   0.2453121 SPIN=   0.00000
   O   0.2828985  -0.1755495   0.3946202 SPIN=   0.00000
   O   0.2172956  -0.2958039  -0.2546879 SPIN=   0.00000
   O   0.2828985   0.1755495  -0.1053798 SPIN=   0.00000
   O  -0.2172956   0.2958039  -0.2546879 SPIN=   0.00000
   O  -0.2828985  -0.1755495  -0.1053798 SPIN=   0.00000
   P   0.0000000   0.0000000  -0.1664044 SPIN=   0.00000
   P   0.0000000  -0.0000000   0.3335956 SPIN=   0.00000
  Fe   0.0000000  -0.5000000   0.0248269 SPIN=   4.00000
  Fe   0.0000000  -0.5000000  -0.4751731 SPIN=   4.00000
%ENDBLOCK POSITIONS_FRAC

# Note: total spin =   8.00

KPOINTS_MP_SPACING 0.07

%BLOCK SPECIES_POT
QC5
%ENDBLOCK SPECIES_POT

%BLOCK HUBBARD_U
Fe d:4.0
%ENDBLOCK HUBBARD_U

SNAP_TO_SYMMETRY
SYMMETRY_GENERATE

