#              Generated by Buildcell
#
# at 05:50:48 (GMT+0.0) 24th November 2020
# in /lustre/scratch/uccabz1/launch_tmp
# on node-c12c-027
# by uccabz1
#
# compiler GCC version 4.9.2
# options -cpp -iprefix /lustre/shared/ucl/apps/gcc/4.9.2/bin/../lib/gcc/x86_64-unknown-linux-gnu/4.9.2/ -mtune=corei7 -march=x86-64 -g -Og
#
# seed  1288141699 -1260362685   744276349  -734018779   813497987   492883157  -756384682   396361527  -836634754 -1914162706 -1383535170  -742666071
#
#      Author: C. J. Pickard (cjp20@cam.ac.uk)
#                Space group: Imm2
#

%BLOCK LATTICE_ABC
      5.50978      5.68102      6.46426
    116.06673    115.22488     90.00000
%ENDBLOCK LATTICE_ABC

%BLOCK POSITIONS_FRAC
  Li  -0.0934520   0.0000000   0.0000000 SPIN=   0.00000
  Li   0.1909360   0.5000000   0.0000000 SPIN=   0.00000
   O   0.3064199   0.0995565  -0.2414816 SPIN=   0.00000
   O   0.1106807  -0.1557865  -0.7460675 SPIN=   0.00000
   O  -0.4520985  -0.0995565   0.2414816 SPIN=   0.00000
   O  -0.1432517   0.1557865   0.7460675 SPIN=   0.00000
   O   0.3064199  -0.3410382  -0.2414816 SPIN=   0.00000
   O   0.1106807  -0.5902811  -0.7460675 SPIN=   0.00000
   O  -0.4520985   0.3410382   0.2414816 SPIN=   0.00000
   O  -0.1432517   0.5902811   0.7460675 SPIN=   0.00000
   P  -0.0933386   0.2314649   0.4629299 SPIN=   0.00000
   P   0.4437315  -0.2314649  -0.4629299 SPIN=   0.00000
  Fe  -0.1332452  -0.3085105   0.3829790 SPIN=   4.00000
  Fe   0.4837758   0.3085105  -0.3829790 SPIN=   4.00000
%ENDBLOCK POSITIONS_FRAC

# Note: total spin =   8.00

KPOINTS_MP_SPACING 0.07

%BLOCK SPECIES_POT
QC5
%ENDBLOCK SPECIES_POT

%BLOCK HUBBARD_U
Fe d:4.0
%ENDBLOCK HUBBARD_U

SNAP_TO_SYMMETRY
SYMMETRY_GENERATE

