#              Generated by Buildcell
#
# at 23:36:55 (GMT+0.0) 23rd November 2020
# in /lustre/scratch/uccabz1/launch_tmp
# on node-c12h-025
# by uccabz1
#
# compiler GCC version 4.9.2
# options -cpp -iprefix /lustre/shared/ucl/apps/gcc/4.9.2/bin/../lib/gcc/x86_64-unknown-linux-gnu/4.9.2/ -mtune=corei7 -march=x86-64 -g -Og
#
# seed   833835850  1583022125  -916786023  -863253137  2039999155  -911283904  -108767061   699787899 -1824968852  1905553562  1830032536 -2052589567
#
#      Author: C. J. Pickard (cjp20@cam.ac.uk)
#                Space group: Aem2
#

%BLOCK LATTICE_ABC
      4.64231      5.90051      5.90051
     98.13600     90.00000     90.00000
%ENDBLOCK LATTICE_ABC

%BLOCK POSITIONS_FRAC
  Li  -0.4989612   0.1526943  -0.3473057 SPIN=   0.00000
  Li   0.4989612  -0.3473057   0.1526943 SPIN=   0.00000
   O  -0.2002054  -0.6097600   0.1786336 SPIN=   0.00000
   O  -0.3470404  -0.2789822   0.4961986 SPIN=   0.00000
   O   0.2002054   0.1786336  -0.6097600 SPIN=   0.00000
   O   0.3470404   0.4961986  -0.2789822 SPIN=   0.00000
   O  -0.2002054  -0.3213664  -0.1097600 SPIN=   0.00000
   O  -0.3470404  -0.0038014   0.2210178 SPIN=   0.00000
   O   0.2002054  -0.1097600  -0.3213664 SPIN=   0.00000
   O   0.3470404   0.2210178  -0.0038014 SPIN=   0.00000
   P   0.0010435  -0.0221275   0.4778725 SPIN=   0.00000
   P  -0.0010435   0.4778725  -0.0221275 SPIN=   0.00000
  Fe   0.0000000  -0.0052484  -0.0052484 SPIN=   4.00000
  Fe   0.0000000   0.4947516   0.4947516 SPIN=   4.00000
%ENDBLOCK POSITIONS_FRAC

# Note: total spin =   8.00

KPOINTS_MP_SPACING 0.07

%BLOCK SPECIES_POT
QC5
%ENDBLOCK SPECIES_POT

%BLOCK HUBBARD_U
Fe d:4.0
%ENDBLOCK HUBBARD_U

SNAP_TO_SYMMETRY
SYMMETRY_GENERATE

