#              Generated by Buildcell
#
# at 02:44:29 (GMT+0.0) 24th November 2020
# in /lustre/scratch/uccabz1/launch_tmp
# on node-c12i-035
# by uccabz1
#
# compiler GCC version 4.9.2
# options -cpp -iprefix /lustre/shared/ucl/apps/gcc/4.9.2/bin/../lib/gcc/x86_64-unknown-linux-gnu/4.9.2/ -mtune=corei7 -march=x86-64 -g -Og
#
# seed  -817870083   366588055  -843646595 -1898155563   584984291  1960139396  -379431497  -459597044   152944433 -1303040868   636065430 -1235858743
#
#      Author: C. J. Pickard (cjp20@cam.ac.uk)
#                Space group: P2
#

%BLOCK LATTICE_ABC
      3.93266      6.31179      6.44793
     91.45402     90.00000     90.00000
%ENDBLOCK LATTICE_ABC

%BLOCK POSITIONS_FRAC
  Li  -0.4828454   0.0000000  -0.5000000 SPIN=   0.00000
  Li  -0.4806174  -0.5000000   0.5000000 SPIN=   0.00000
   O  -0.1291741  -0.2495034   0.4943107 SPIN=   0.00000
   O  -0.2643263  -0.2523487   0.0998409 SPIN=   0.00000
   O   0.2392700  -0.0534371   0.2252414 SPIN=   0.00000
   O   0.2448453  -0.4502027   0.2250250 SPIN=   0.00000
   P   0.0171917  -0.2536198   0.2730958 SPIN=   0.00000
   O  -0.1291741   0.2495034  -0.4943107 SPIN=   0.00000
   O  -0.2643263   0.2523487  -0.0998409 SPIN=   0.00000
   O   0.2392700   0.0534371  -0.2252414 SPIN=   0.00000
   O   0.2448453   0.4502027  -0.2250250 SPIN=   0.00000
   P   0.0171917   0.2536198  -0.2730958 SPIN=   0.00000
  Fe   0.0215881   0.2509745   0.1730405 SPIN=   4.00000
  Fe   0.0215881  -0.2509745  -0.1730405 SPIN=   4.00000
%ENDBLOCK POSITIONS_FRAC

# Note: total spin =   8.00

KPOINTS_MP_SPACING 0.07

%BLOCK SPECIES_POT
QC5
%ENDBLOCK SPECIES_POT

%BLOCK HUBBARD_U
Fe d:4.0
%ENDBLOCK HUBBARD_U

SNAP_TO_SYMMETRY
SYMMETRY_GENERATE

