#              Generated by Buildcell
#
# at 03:13:22 (GMT+0.0) 24th November 2020
# in /lustre/scratch/uccabz1/launch_tmp
# on node-c12k-031
# by uccabz1
#
# compiler GCC version 4.9.2
# options -cpp -iprefix /lustre/shared/ucl/apps/gcc/4.9.2/bin/../lib/gcc/x86_64-unknown-linux-gnu/4.9.2/ -mtune=corei7 -march=x86-64 -g -Og
#
# seed   783444714  -291022577 -1602542685  1782361690  -504941657 -1225136446   582082811  1097993977   401986681   431458455  -951647593  -200001397
#
#      Author: C. J. Pickard (cjp20@cam.ac.uk)
#                Space group: Pc
#

%BLOCK LATTICE_ABC
      4.91650      5.34457      6.49533
     90.00000     90.00000    110.37145
%ENDBLOCK LATTICE_ABC

%BLOCK POSITIONS_FRAC
  Li  -0.0218079  -0.1963477  -0.1447010 SPIN=   0.00000
  Li  -0.0218079   0.3036523   0.1447010 SPIN=   0.00000
   O   0.4788584  -0.0366847   0.4445271 SPIN=   0.00000
   O   0.0423578  -0.2937058   0.2105405 SPIN=   0.00000
   O   0.0114814   0.0833868   0.4172637 SPIN=   0.00000
   O   0.3514894   0.1734601   0.1169118 SPIN=   0.00000
   P   0.2363133  -0.0170963   0.3030204 SPIN=   0.00000
   O   0.4788584   0.4633153  -0.4445271 SPIN=   0.00000
   O   0.0423578   0.2062942  -0.2105405 SPIN=   0.00000
   O   0.0114814   0.5833868  -0.4172637 SPIN=   0.00000
   O   0.3514894   0.6734601  -0.1169118 SPIN=   0.00000
   P   0.2363133   0.4829037  -0.3030204 SPIN=   0.00000
  Fe  -0.3782815  -0.3106874   0.2872817 SPIN=   4.00000
  Fe  -0.3782815   0.1893126  -0.2872817 SPIN=   4.00000
%ENDBLOCK POSITIONS_FRAC

# Note: total spin =   8.00

KPOINTS_MP_SPACING 0.07

%BLOCK SPECIES_POT
QC5
%ENDBLOCK SPECIES_POT

%BLOCK HUBBARD_U
Fe d:4.0
%ENDBLOCK HUBBARD_U

SNAP_TO_SYMMETRY
SYMMETRY_GENERATE

