#              Generated by Buildcell
#
# at 21:20:40 (GMT+0.0) 23rd November 2020
# in /lustre/scratch/uccabz1/launch_tmp
# on node-c12m-034
# by uccabz1
#
# compiler GCC version 4.9.2
# options -cpp -iprefix /lustre/shared/ucl/apps/gcc/4.9.2/bin/../lib/gcc/x86_64-unknown-linux-gnu/4.9.2/ -mtune=corei7 -march=x86-64 -g -Og
#
# seed    88237197  1378281174 -2075674559   766229068  1725171043  -297706639  1764095373 -1100395102   409772551   441623203   409357715   917588687
#
#      Author: C. J. Pickard (cjp20@cam.ac.uk)
#                Space group: P21
#

%BLOCK LATTICE_ABC
      4.66081      4.75527      7.51678
     90.00000     90.00000    106.17864
%ENDBLOCK LATTICE_ABC

%BLOCK POSITIONS_FRAC
  Li  -0.4323342  -0.2614342   0.2714960 SPIN=   0.00000
  Li   0.4323342   0.2614342  -0.2285040 SPIN=   0.00000
   O  -0.4573332  -0.3028380  -0.1357905 SPIN=   0.00000
   O  -0.5109632  -0.1477364  -0.4627650 SPIN=   0.00000
   O  -0.1273649   0.1804924  -0.2735350 SPIN=   0.00000
   O  -0.0569634  -0.2978914  -0.3742637 SPIN=   0.00000
   P  -0.2944357  -0.1523973  -0.3029678 SPIN=   0.00000
   O   0.4573332   0.3028380   0.3642095 SPIN=   0.00000
   O   0.5109632   0.1477364   0.0372350 SPIN=   0.00000
   O   0.1273649  -0.1804924   0.2264650 SPIN=   0.00000
   O   0.0569634   0.2978914   0.1257363 SPIN=   0.00000
   P   0.2944357   0.1523973   0.1970322 SPIN=   0.00000
  Fe   0.0438835  -0.3437317  -0.0335897 SPIN=   4.00000
  Fe  -0.0438835   0.3437317   0.4664103 SPIN=   4.00000
%ENDBLOCK POSITIONS_FRAC

# Note: total spin =   8.00

KPOINTS_MP_SPACING 0.07

%BLOCK SPECIES_POT
QC5
%ENDBLOCK SPECIES_POT

%BLOCK HUBBARD_U
Fe d:4.0
%ENDBLOCK HUBBARD_U

SNAP_TO_SYMMETRY
SYMMETRY_GENERATE

