#              Generated by Buildcell
#
# at 04:33:19 (GMT+0.0) 24th November 2020
# in /lustre/scratch/uccabz1/launch_tmp
# on node-c12n-028
# by uccabz1
#
# compiler GCC version 4.9.2
# options -cpp -iprefix /lustre/shared/ucl/apps/gcc/4.9.2/bin/../lib/gcc/x86_64-unknown-linux-gnu/4.9.2/ -mtune=corei7 -march=x86-64 -g -Og
#
# seed -1770147276  -639345244  1560814266   298461447  -735152279   264145642  1610000996  -999655516  -695842376 -1776467221 -1073225682   372958817
#
#      Author: C. J. Pickard (cjp20@cam.ac.uk)
#                Space group: C2/m
#

%BLOCK LATTICE_ABC
      5.70624      5.73579      5.82054
    103.47969    119.35252     90.00000
%ENDBLOCK LATTICE_ABC

%BLOCK POSITIONS_FRAC
  Li  -0.4476723   0.2751953  -0.8953446 SPIN=   0.00000
  Li   0.4476723  -0.2751953   0.8953446 SPIN=   0.00000
   O   0.3504227   0.1231394   0.2679835 SPIN=   0.00000
   O   0.4193797   0.5738763   0.2779350 SPIN=   0.00000
   O   0.0824392  -0.1231394  -0.2679835 SPIN=   0.00000
   O   0.1414448  -0.5738763  -0.2779350 SPIN=   0.00000
   O  -0.3504227  -0.1231394  -0.2679835 SPIN=   0.00000
   O  -0.4193797  -0.5738763  -0.2779350 SPIN=   0.00000
   O  -0.0824392   0.1231394   0.2679835 SPIN=   0.00000
   O  -0.1414448   0.5738763   0.2779350 SPIN=   0.00000
   P  -0.1570070  -0.3233036  -0.3140140 SPIN=   0.00000
   P   0.1570070   0.3233036   0.3140140 SPIN=   0.00000
  Fe   0.1365394  -0.1855302   0.2730788 SPIN=   4.00000
  Fe  -0.1365394   0.1855302  -0.2730788 SPIN=   4.00000
%ENDBLOCK POSITIONS_FRAC

# Note: total spin =   8.00

KPOINTS_MP_SPACING 0.07

%BLOCK SPECIES_POT
QC5
%ENDBLOCK SPECIES_POT

%BLOCK HUBBARD_U
Fe d:4.0
%ENDBLOCK HUBBARD_U

SNAP_TO_SYMMETRY
SYMMETRY_GENERATE

