#              Generated by Buildcell
#
# at 19:14:51 (GMT+0.0) 30th November 2020
# in /lustre/scratch/uccabz1/launch_tmp
# on node-c12b-031
# by uccabz1
#
# compiler GCC version 4.9.2
# options -cpp -iprefix /lustre/shared/ucl/apps/gcc/4.9.2/bin/../lib/gcc/x86_64-unknown-linux-gnu/4.9.2/ -mtune=corei7 -march=x86-64 -g -Og
#
# seed -1033199942 -1820387297   -37764608   920904825  1173531139  -722499807  1352162042  1853551826   245578260  1723137954 -1384450986  -999068811
#
#      Author: C. J. Pickard (cjp20@cam.ac.uk)
#                Space group: Cc
#

%BLOCK LATTICE_ABC
      4.34723      6.63475      6.63475
    119.91801     97.58116     97.58116
%ENDBLOCK LATTICE_ABC

%BLOCK POSITIONS_FRAC
  Li  -0.4770646   0.0273965   0.2107158 SPIN=   0.00000
  Li   0.0229354   0.2107158   0.0273965 SPIN=   0.00000
   O  -0.3953044  -0.4246894  -0.1042638 SPIN=   0.00000
   O   0.1525774  -0.4205864   0.1103177 SPIN=   0.00000
   O   0.1467193  -0.2508599  -0.1471188 SPIN=   0.00000
   O  -0.0135933  -0.0343161   0.2426858 SPIN=   0.00000
   P  -0.0468264  -0.2872476   0.0210651 SPIN=   0.00000
   O   0.1046956  -0.1042638  -0.4246894 SPIN=   0.00000
   O   0.6525774   0.1103177  -0.4205864 SPIN=   0.00000
   O   0.6467193  -0.1471188  -0.2508599 SPIN=   0.00000
   O   0.4864067   0.2426858  -0.0343161 SPIN=   0.00000
   P   0.4531736   0.0210651  -0.2872476 SPIN=   0.00000
  Fe  -0.3221320  -0.3609188   0.3568401 SPIN=   4.00000
  Fe   0.1778680   0.3568401  -0.3609188 SPIN=   4.00000
%ENDBLOCK POSITIONS_FRAC

# Note: total spin =   8.00

KPOINTS_MP_SPACING 0.07

%BLOCK SPECIES_POT
QC5
%ENDBLOCK SPECIES_POT

%BLOCK HUBBARD_U
Fe d:4.0
%ENDBLOCK HUBBARD_U

SNAP_TO_SYMMETRY
SYMMETRY_GENERATE

