#              Generated by Buildcell
#
# at 23:55:23 (GMT+0.0) 23rd November 2020
# in /lustre/scratch/uccabz1/launch_tmp
# on node-c12c-025
# by uccabz1
#
# compiler GCC version 4.9.2
# options -cpp -iprefix /lustre/shared/ucl/apps/gcc/4.9.2/bin/../lib/gcc/x86_64-unknown-linux-gnu/4.9.2/ -mtune=corei7 -march=x86-64 -g -Og
#
# seed -1839488639   879606696  -618262905  1075548546 -1204845676  1383037339  -845480249 -1107073926 -1262659943  1800596264  -202000492  1454294485
#
#      Author: C. J. Pickard (cjp20@cam.ac.uk)
#                Space group: C2
#

%BLOCK LATTICE_ABC
      4.15020      6.33539      6.33539
     91.59301    101.13300    101.13300
%ENDBLOCK LATTICE_ABC

%BLOCK POSITIONS_FRAC
  Li   0.3053169  -0.0656570  -0.3115786 SPIN=   0.00000
  Li  -0.3053169   0.3115786   0.0656570 SPIN=   0.00000
   O  -0.2966052   0.1857421   0.6573202 SPIN=   0.00000
   O  -0.1197598  -0.1087850   0.4369166 SPIN=   0.00000
   O  -0.5451544   0.0834701   0.2504688 SPIN=   0.00000
   O   0.0521337   0.2789552   0.3638139 SPIN=   0.00000
   P  -0.2277359   0.1158824   0.4386392 SPIN=   0.00000
   O   0.2966052  -0.6573202  -0.1857421 SPIN=   0.00000
   O   0.1197598  -0.4369166   0.1087850 SPIN=   0.00000
   O   0.5451544  -0.2504688  -0.0834701 SPIN=   0.00000
   O  -0.0521337  -0.3638139  -0.2789552 SPIN=   0.00000
   P   0.2277359  -0.4386392  -0.1158824 SPIN=   0.00000
  Fe  -0.5000000   0.4886104  -0.4886104 SPIN=   1.67608
  Fe   0.0000000  -0.1317995   0.1317995 SPIN=   6.32392
%ENDBLOCK POSITIONS_FRAC

# Note: total spin =   8.00

KPOINTS_MP_SPACING 0.07

%BLOCK SPECIES_POT
QC5
%ENDBLOCK SPECIES_POT

%BLOCK HUBBARD_U
Fe d:4.0
%ENDBLOCK HUBBARD_U

SNAP_TO_SYMMETRY
SYMMETRY_GENERATE

