#              Generated by Buildcell
#
# at 05:49:15 (GMT+0.0) 24th November 2020
# in /lustre/scratch/uccabz1/launch_tmp
# on node-c12f-026
# by uccabz1
#
# compiler GCC version 4.9.2
# options -cpp -iprefix /lustre/shared/ucl/apps/gcc/4.9.2/bin/../lib/gcc/x86_64-unknown-linux-gnu/4.9.2/ -mtune=corei7 -march=x86-64 -g -Og
#
# seed  2087527914  1022011387  1755095970 -1874573171  1384062636   480078927   232972915   600585840   679709384 -1624031814  -344386082  1771170170
#
#      Author: C. J. Pickard (cjp20@cam.ac.uk)
#                Space group: C2/m
#

%BLOCK LATTICE_ABC
      4.93460      5.94687      5.99772
     93.79495    114.29108     90.00000
%ENDBLOCK LATTICE_ABC

%BLOCK POSITIONS_FRAC
  Li  -0.4749376   0.2534029   0.0501249 SPIN=   0.00000
  Li   0.4749376  -0.2534029  -0.0501249 SPIN=   0.00000
   O   0.3867856   0.4689498   0.2735652 SPIN=   0.00000
   O   0.3651085   0.0309880   0.2302087 SPIN=   0.00000
   O   0.1132204  -0.4689498  -0.2735652 SPIN=   0.00000
   O   0.1348997  -0.0309880  -0.2302087 SPIN=   0.00000
   O  -0.3867856  -0.4689498  -0.2735652 SPIN=   0.00000
   O  -0.3651085  -0.0309880  -0.2302087 SPIN=   0.00000
   O  -0.1132204   0.4689498   0.2735652 SPIN=   0.00000
   O  -0.1348997   0.0309880   0.2302087 SPIN=   0.00000
   P  -0.1335661   0.2193888  -0.2671323 SPIN=   0.00000
   P   0.1335661  -0.2193888   0.2671323 SPIN=   0.00000
  Fe  -0.2250678  -0.2465910  -0.4501357 SPIN=   4.00000
  Fe   0.2250678   0.2465910   0.4501357 SPIN=   4.00000
%ENDBLOCK POSITIONS_FRAC

# Note: total spin =   8.00

KPOINTS_MP_SPACING 0.07

%BLOCK SPECIES_POT
QC5
%ENDBLOCK SPECIES_POT

%BLOCK HUBBARD_U
Fe d:4.0
%ENDBLOCK HUBBARD_U

SNAP_TO_SYMMETRY
SYMMETRY_GENERATE

