#              Generated by Buildcell
#
# at 22:09:08 (GMT+0.0) 23rd November 2020
# in /lustre/scratch/uccabz1/launch_tmp
# on node-c12a-033
# by uccabz1
#
# compiler GCC version 4.9.2
# options -cpp -iprefix /lustre/shared/ucl/apps/gcc/4.9.2/bin/../lib/gcc/x86_64-unknown-linux-gnu/4.9.2/ -mtune=corei7 -march=x86-64 -g -Og
#
# seed  2028145566 -1058274720  2038222014 -1410259699   105648715 -2061339535  -510779153  1632151454  -566425874   358687628  1670438506 -1917130050
#
#      Author: C. J. Pickard (cjp20@cam.ac.uk)
#                Space group: Cc
#

%BLOCK LATTICE_ABC
      4.42265      5.28254      7.54461
     89.25914     88.22996     65.25312
%ENDBLOCK LATTICE_ABC

%BLOCK POSITIONS_FRAC
  Li   0.1710698  -0.0714179   0.4913120 SPIN=   0.00000
  Li   0.0996518   0.0714179  -0.0086880 SPIN=   0.00000
   O  -0.4297978  -0.0063001  -0.4063030 SPIN=   0.00000
   O  -0.1669183   0.3456580  -0.4630201 SPIN=   0.00000
   O  -0.7644368   0.5300808  -0.3779063 SPIN=   0.00000
   O  -0.3368253   0.2755977  -0.1530717 SPIN=   0.00000
   P  -0.4237423   0.2705560  -0.3507443 SPIN=   0.00000
   O  -0.4360979   0.0063001   0.0936970 SPIN=   0.00000
   O   0.1787397  -0.3456580   0.0369799 SPIN=   0.00000
   O  -0.2343559  -0.5300808   0.1220937 SPIN=   0.00000
   O  -0.0612276  -0.2755977   0.3469283 SPIN=   0.00000
   P  -0.1531863  -0.2705560   0.1492557 SPIN=   0.00000
  Fe  -0.2057333  -0.3284242  -0.2231846 SPIN=   4.00000
  Fe   0.4658425   0.3284242   0.2768154 SPIN=   4.00000
%ENDBLOCK POSITIONS_FRAC

# Note: total spin =   8.00

KPOINTS_MP_SPACING 0.07

%BLOCK SPECIES_POT
QC5
%ENDBLOCK SPECIES_POT

%BLOCK HUBBARD_U
Fe d:4.0
%ENDBLOCK HUBBARD_U

SNAP_TO_SYMMETRY
SYMMETRY_GENERATE

