#              Generated by Buildcell
#
# at 04:00:38 (GMT+0.0) 24th November 2020
# in /scratch/scratch/uccabz1/launch_tmp
# on node-k10h-026
# by uccabz1
#
# compiler GCC version 4.9.2
# options -cpp -iprefix /scratch/UCL/applications/gcc/4.9.2/bin/../lib/gcc/x86_64-unknown-linux-gnu/4.9.2/ -mtune=corei7 -march=x86-64 -g -O2
#
# seed  -666152711  1036923556 -1833355514   988514951 -1806624781 -2085093115 -1744188685  -749746527  1606477358  -914082105   959312605  -919777325
#
#      Author: C. J. Pickard (cjp20@cam.ac.uk)
#                Space group: P21
#

%BLOCK LATTICE_ABC
      4.59257      5.39688      6.70265
     90.00000     90.00000    105.61173
%ENDBLOCK LATTICE_ABC

%BLOCK POSITIONS_FRAC
  Li   0.4304921  -0.2209228   0.4545940 SPIN=   0.00000
  Li  -0.4304921   0.2209228  -0.0454060 SPIN=   0.00000
   O  -0.2057032   0.1749130   0.2208495 SPIN=   0.00000
   O  -0.1705837   0.6150953   0.3900813 SPIN=   0.00000
   O  -0.6564956   0.3795176   0.2385549 SPIN=   0.00000
   O  -0.4802485   0.2113602   0.5514262 SPIN=   0.00000
   P  -0.3702736   0.3345738   0.3457136 SPIN=   0.00000
   O   0.2057032  -0.1749130  -0.2791505 SPIN=   0.00000
   O   0.1705837  -0.6150953  -0.1099187 SPIN=   0.00000
   O   0.6564956  -0.3795176  -0.2614451 SPIN=   0.00000
   O   0.4802485  -0.2113602   0.0514262 SPIN=   0.00000
   P   0.3702736  -0.3345738  -0.1542864 SPIN=   0.00000
  Fe   0.0616310   0.1951622  -0.3992454 SPIN=   4.00000
  Fe  -0.0616310  -0.1951622   0.1007546 SPIN=   4.00000
%ENDBLOCK POSITIONS_FRAC

# Note: total spin =   8.00

KPOINTS_MP_SPACING 0.07

%BLOCK SPECIES_POT
QC5
%ENDBLOCK SPECIES_POT

%BLOCK HUBBARD_U
Fe d:4.0
%ENDBLOCK HUBBARD_U

SNAP_TO_SYMMETRY
SYMMETRY_GENERATE

