#              Generated by Buildcell
#
# at 01:29:17 (GMT+0.0) 24th November 2020
# in /scratch/scratch/uccabz1/launch_tmp
# on node-a14e-019
# by uccabz1
#
# compiler GCC version 4.9.2
# options -cpp -iprefix /scratch/UCL/applications/gcc/4.9.2/bin/../lib/gcc/x86_64-unknown-linux-gnu/4.9.2/ -mtune=corei7 -march=x86-64 -g -O2
#
# seed  -864579041    96082909 -1656222068  1157543835  1567948236  1130430532   944858269 -1510986038   853705527  -302541481    56584983  1886788276
#
#      Author: C. J. Pickard (cjp20@cam.ac.uk)
#                Space group: P21
#

%BLOCK LATTICE_ABC
      4.06725      5.05344      7.82016
     95.47172     90.00000     90.00000
%ENDBLOCK LATTICE_ABC

%BLOCK POSITIONS_FRAC
  Li   0.1881402  -0.2245748   0.4880583 SPIN=   0.00000
  Li  -0.3118598   0.2245748  -0.4880583 SPIN=   0.00000
   O   0.5877447   0.1729535   0.0528590 SPIN=   0.00000
   O   0.2526098   0.0815567   0.3238800 SPIN=   0.00000
   O   0.5756657   0.4964123   0.3317162 SPIN=   0.00000
   O   0.0704950   0.4444169   0.1484942 SPIN=   0.00000
   P   0.3795822   0.2938503   0.2048689 SPIN=   0.00000
   O   0.0877447  -0.1729535  -0.0528590 SPIN=   0.00000
   O  -0.2473902  -0.0815567  -0.3238800 SPIN=   0.00000
   O   0.0756657  -0.4964123  -0.3317162 SPIN=   0.00000
   O  -0.4295050  -0.4444169  -0.1484942 SPIN=   0.00000
   P  -0.1204178  -0.2938503  -0.2048689 SPIN=   0.00000
  Fe  -0.3021105  -0.2141135   0.1509376 SPIN=   4.00000
  Fe   0.1978895   0.2141135  -0.1509376 SPIN=   4.00000
%ENDBLOCK POSITIONS_FRAC

# Note: total spin =   8.00

KPOINTS_MP_SPACING 0.07

%BLOCK SPECIES_POT
QC5
%ENDBLOCK SPECIES_POT

%BLOCK HUBBARD_U
Fe d:4.0
%ENDBLOCK HUBBARD_U

SNAP_TO_SYMMETRY
SYMMETRY_GENERATE

