#              Generated by Buildcell
#
# at 02:55:24 (GMT+0.0) 24th November 2020
# in /lustre/scratch/uccabz1/launch_tmp
# on node-c12k-030
# by uccabz1
#
# compiler GCC version 4.9.2
# options -cpp -iprefix /lustre/shared/ucl/apps/gcc/4.9.2/bin/../lib/gcc/x86_64-unknown-linux-gnu/4.9.2/ -mtune=corei7 -march=x86-64 -g -Og
#
# seed  1967922467   713118410  -504303856 -1693686806 -1225862817   153954689  1446112327  -695921177   357985819    13498606 -2075229943  -131811714
#
#      Author: C. J. Pickard (cjp20@cam.ac.uk)
#                Space group: Cm
#

%BLOCK LATTICE_ABC
      5.52386      5.77688      6.39489
    116.46673    115.18990     90.79618
%ENDBLOCK LATTICE_ABC

%BLOCK POSITIONS_FRAC
  Li   0.2478777   0.0961488   0.0000000 SPIN=   0.00000
  Li  -0.2552436  -0.1235421  -0.0000000 SPIN=   0.00000
   O  -0.5158346   0.0351046  -0.2624570 SPIN=   0.00000
   O  -0.5949792  -0.4788159  -0.5363015 SPIN=   0.00000
   O  -0.8638416  -0.3070910  -0.2994323 SPIN=   0.00000
   P  -0.7266632  -0.2384348  -0.4425244 SPIN=   0.00000
   O  -0.2533776   0.2975617   0.2624570 SPIN=   0.00000
   O  -0.0586777   0.0574856   0.5363015 SPIN=   0.00000
   O  -0.5644093  -0.0076588   0.2994323 SPIN=   0.00000
   P  -0.2841388   0.2040895   0.4425244 SPIN=   0.00000
   O   0.2503693   0.4614222   0.0000000 SPIN=   0.00000
   O  -0.2244646  -0.4871924  -0.0000000 SPIN=   0.00000
  Fe   0.2933661   0.2859540   0.5974094 SPIN=   4.00000
  Fe  -0.3040433  -0.3114554  -0.5974094 SPIN=   4.00000
%ENDBLOCK POSITIONS_FRAC

# Note: total spin =   8.00

KPOINTS_MP_SPACING 0.07

%BLOCK SPECIES_POT
QC5
%ENDBLOCK SPECIES_POT

%BLOCK HUBBARD_U
Fe d:4.0
%ENDBLOCK HUBBARD_U

SNAP_TO_SYMMETRY
SYMMETRY_GENERATE

