#              Generated by Buildcell
#
# at 22:18:00 (GMT+0.0) 23rd November 2020
# in /lustre/scratch/uccabz1/launch_tmp
# on node-c12i-026
# by uccabz1
#
# compiler GCC version 4.9.2
# options -cpp -iprefix /lustre/shared/ucl/apps/gcc/4.9.2/bin/../lib/gcc/x86_64-unknown-linux-gnu/4.9.2/ -mtune=corei7 -march=x86-64 -g -Og
#
# seed   397005768  1675437337 -1623422615  -555737675   599638920  1892451526 -1310781488  -577561652 -1514651591 -1383005660 -1538421262   463878425
#
#      Author: C. J. Pickard (cjp20@cam.ac.uk)
#                Space group: P-1
#

%BLOCK LATTICE_ABC
      4.25430      4.94658      8.45804
     88.25635     83.45973     64.82096
%ENDBLOCK LATTICE_ABC

%BLOCK POSITIONS_FRAC
  Li   0.3585695  -0.1114011  -0.2261468 SPIN=   0.00000
  Li  -0.3585695   0.1114011   0.2261468 SPIN=   0.00000
   O   0.2852388   0.3971424  -0.2315044 SPIN=   0.00000
   O   0.7636287   0.0030363  -0.0760097 SPIN=   0.00000
   O   0.9245235   0.0899633  -0.3565175 SPIN=   0.00000
   P   0.6734546   0.2543628  -0.2041457 SPIN=   0.00000
   O  -0.2852388  -0.3971424   0.2315044 SPIN=   0.00000
   O  -0.7636287  -0.0030363   0.0760097 SPIN=   0.00000
   O  -0.9245235  -0.0899633   0.3565175 SPIN=   0.00000
   P  -0.6734546  -0.2543628   0.2041457 SPIN=   0.00000
   O   0.5000000  -0.5000000  -0.5000000 SPIN=   0.00000
   O   0.5000000  -1.0000000  -0.5000000 SPIN=   0.00000
  Fe   0.0000000   0.5000000   0.5000000 SPIN=   2.28949
  Fe  -0.0000000   0.5000000  -0.0000000 SPIN=   5.71051
%ENDBLOCK POSITIONS_FRAC

# Note: total spin =   8.00

KPOINTS_MP_SPACING 0.07

%BLOCK SPECIES_POT
QC5
%ENDBLOCK SPECIES_POT

%BLOCK HUBBARD_U
Fe d:4.0
%ENDBLOCK HUBBARD_U

SNAP_TO_SYMMETRY
SYMMETRY_GENERATE

