#              Generated by Buildcell
#
# at 03:32:22 (GMT+0.0) 24th November 2020
# in /scratch/scratch/uccabz1/launch_tmp
# on node-a14f-030
# by uccabz1
#
# compiler GCC version 4.9.2
# options -cpp -iprefix /scratch/UCL/applications/gcc/4.9.2/bin/../lib/gcc/x86_64-unknown-linux-gnu/4.9.2/ -mtune=corei7 -march=x86-64 -g -O2
#
# seed   337779202  1073457263 -2111162529  1742345940 -1374689855 -1795524064 -1715132741   542776397  1130032925  2001933026  1260023828   381791603
#
#      Author: C. J. Pickard (cjp20@cam.ac.uk)
#                Space group: Pm
#

%BLOCK LATTICE_ABC
      4.20814      5.11720      7.88159
     90.00000     90.00000    109.48632
%ENDBLOCK LATTICE_ABC

%BLOCK POSITIONS_FRAC
  Li   0.0781310   0.2270576   0.5000000 SPIN=   0.00000
  Li   0.2546206   0.3309912   0.0000000 SPIN=   0.00000
   O  -0.0513784   0.1336108  -0.2061300 SPIN=   0.00000
   O  -0.4917152   0.3253049  -0.3416832 SPIN=   0.00000
   O  -0.6091557  -0.1809220  -0.3433974 SPIN=   0.00000
   P  -0.4274033   0.0867103  -0.2363028 SPIN=   0.00000
   O  -0.0513784   0.1336108   0.2061300 SPIN=   0.00000
   O  -0.4917152   0.3253049   0.3416832 SPIN=   0.00000
   O  -0.6091557  -0.1809220   0.3433974 SPIN=   0.00000
   P  -0.4274033   0.0867103   0.2363028 SPIN=   0.00000
   O   0.4343432  -0.2090032   0.0000000 SPIN=   0.00000
   O  -0.1841119  -0.4992976   0.0000000 SPIN=   0.00000
  Fe  -0.1030765  -0.3242868  -0.2484744 SPIN=   4.00000
  Fe  -0.1030765  -0.3242868   0.2484744 SPIN=   4.00000
%ENDBLOCK POSITIONS_FRAC

# Note: total spin =   8.00

KPOINTS_MP_SPACING 0.07

%BLOCK SPECIES_POT
QC5
%ENDBLOCK SPECIES_POT

%BLOCK HUBBARD_U
Fe d:4.0
%ENDBLOCK HUBBARD_U

SNAP_TO_SYMMETRY
SYMMETRY_GENERATE

