#              Generated by Buildcell
#
# at 03:41:19 (GMT+0.0) 24th November 2020
# in /lustre/scratch/uccabz1/launch_tmp
# on node-c12k-029
# by uccabz1
#
# compiler GCC version 4.9.2
# options -cpp -iprefix /lustre/shared/ucl/apps/gcc/4.9.2/bin/../lib/gcc/x86_64-unknown-linux-gnu/4.9.2/ -mtune=corei7 -march=x86-64 -g -Og
#
# seed  -248144760   649333741  1834427148 -1303957829  -691275147  1431118218  1601394976 -1179283707 -1043272270 -1469949856 -1626352817   347757239
#
#      Author: C. J. Pickard (cjp20@cam.ac.uk)
#                Space group: P21
#

%BLOCK LATTICE_ABC
      3.89397      6.08032      7.05185
     90.00000     90.00000    106.60615
%ENDBLOCK LATTICE_ABC

%BLOCK POSITIONS_FRAC
  Li  -0.2509238   0.1451810   0.0026160 SPIN=   0.00000
  Li   0.2509238  -0.1451810  -0.4973840 SPIN=   0.00000
   O   0.2948840  -0.4461207   0.0613393 SPIN=   0.00000
   O   0.4722454  -0.0505779   0.2314023 SPIN=   0.00000
   O   0.0463640  -0.1088261  -0.0361918 SPIN=   0.00000
   O  -0.1499522  -0.3117170   0.2713890 SPIN=   0.00000
   P   0.1690267  -0.2418270   0.1298683 SPIN=   0.00000
   O  -0.2948840   0.4461207  -0.4386607 SPIN=   0.00000
   O  -0.4722454   0.0505779  -0.2685977 SPIN=   0.00000
   O  -0.0463640   0.1088261  -0.5361918 SPIN=   0.00000
   O   0.1499522   0.3117170  -0.2286110 SPIN=   0.00000
   P  -0.1690267   0.2418270  -0.3701317 SPIN=   0.00000
  Fe   0.3490698   0.3723525   0.3307001 SPIN=   4.00000
  Fe  -0.3490698  -0.3723525  -0.1692999 SPIN=   4.00000
%ENDBLOCK POSITIONS_FRAC

# Note: total spin =   8.00

KPOINTS_MP_SPACING 0.07

%BLOCK SPECIES_POT
QC5
%ENDBLOCK SPECIES_POT

%BLOCK HUBBARD_U
Fe d:4.0
%ENDBLOCK HUBBARD_U

SNAP_TO_SYMMETRY
SYMMETRY_GENERATE

