#              Generated by Buildcell
#
# at 22:51:05 (GMT+0.0) 23rd November 2020
# in /lustre/scratch/uccabz1/launch_tmp
# on node-c12e-025
# by uccabz1
#
# compiler GCC version 4.9.2
# options -cpp -iprefix /lustre/shared/ucl/apps/gcc/4.9.2/bin/../lib/gcc/x86_64-unknown-linux-gnu/4.9.2/ -mtune=corei7 -march=x86-64 -g -Og
#
# seed  -441868717  1125334099  1901409174 -1212033720  -143626993 -1513034411    88349391  -930011571   786839060  -410134515  -794976810  -658982956
#
#      Author: C. J. Pickard (cjp20@cam.ac.uk)
#                Space group: Pc
#

%BLOCK LATTICE_ABC
      5.27407      5.79765      5.84767
     90.00000     90.00000    116.51365
%ENDBLOCK LATTICE_ABC

%BLOCK POSITIONS_FRAC
  Li  -0.2837165  -0.4636225   0.2879514 SPIN=   0.00000
  Li  -0.7837165  -0.4636225  -0.2879514 SPIN=   0.00000
   O  -0.2484237   0.2251934   0.1343290 SPIN=   0.00000
   O   0.2895127   0.4507323   0.2284815 SPIN=   0.00000
   O  -0.0447931   0.2017740   0.5334765 SPIN=   0.00000
   O   0.0387958  -0.0309494   0.2033841 SPIN=   0.00000
   P  -0.0045672   0.2095433   0.2665879 SPIN=   0.00000
   O   0.2515763   0.2251934  -0.1343290 SPIN=   0.00000
   O   0.7895127   0.4507323  -0.2284815 SPIN=   0.00000
   O   0.4552069   0.2017740  -0.5334765 SPIN=   0.00000
   O   0.5387958  -0.0309494  -0.2033841 SPIN=   0.00000
   P   0.4954328   0.2095433  -0.2665879 SPIN=   0.00000
  Fe   0.3942237  -0.0995269   0.2449841 SPIN=   4.00000
  Fe  -0.1057763  -0.0995269  -0.2449841 SPIN=   4.00000
%ENDBLOCK POSITIONS_FRAC

# Note: total spin =   8.00

KPOINTS_MP_SPACING 0.07

%BLOCK SPECIES_POT
QC5
%ENDBLOCK SPECIES_POT

%BLOCK HUBBARD_U
Fe d:4.0
%ENDBLOCK HUBBARD_U

SNAP_TO_SYMMETRY
SYMMETRY_GENERATE

