#              Generated by Buildcell
#
# at 00:37:45 (GMT+0.0) 24th November 2020
# in /lustre/scratch/uccabz1/launch_tmp
# on node-c12f-029
# by uccabz1
#
# compiler GCC version 4.9.2
# options -cpp -iprefix /lustre/shared/ucl/apps/gcc/4.9.2/bin/../lib/gcc/x86_64-unknown-linux-gnu/4.9.2/ -mtune=corei7 -march=x86-64 -g -Og
#
# seed   430738582  1337514508 -2068655531 -1727701066  2112742543 -1981470902 -1782653128  -969656318  1994937555  -786496459 -1850587066   882081017
#
#      Author: C. J. Pickard (cjp20@cam.ac.uk)
#                Space group: P-1
#

%BLOCK LATTICE_ABC
      4.10517      5.26108      7.72150
     90.05535     90.01229    106.37670
%ENDBLOCK LATTICE_ABC

%BLOCK POSITIONS_FRAC
  Li   0.0522297   0.0126205   0.2499838 SPIN=   0.00000
  Li  -0.0522297  -0.0126205  -0.2499838 SPIN=   0.00000
   O  -0.1474410   0.3613312  -0.2501065 SPIN=   0.00000
   O   0.3276949   0.2200588  -0.4127057 SPIN=   0.00000
   O   0.4817450   0.6477059  -0.2569300 SPIN=   0.00000
   O   0.3272078   0.2240955  -0.0883788 SPIN=   0.00000
   O   0.1474410  -0.3613312   0.2501065 SPIN=   0.00000
   O  -0.3276949  -0.2200588   0.4127057 SPIN=   0.00000
   O  -0.4817450  -0.6477059   0.2569300 SPIN=   0.00000
   O  -0.3272078  -0.2240955   0.0883788 SPIN=   0.00000
   P   0.5000000   0.0000000  -0.0000000 SPIN=   0.00000
   P   0.5000000   0.0000000  -0.5000000 SPIN=   0.00000
  Fe   0.0000000   0.5000000   0.5000000 SPIN=   1.52165
  Fe  -0.0000000  -0.5000000  -0.0000000 SPIN=   6.47835
%ENDBLOCK POSITIONS_FRAC

# Note: total spin =   8.00

KPOINTS_MP_SPACING 0.07

%BLOCK SPECIES_POT
QC5
%ENDBLOCK SPECIES_POT

%BLOCK HUBBARD_U
Fe d:4.0
%ENDBLOCK HUBBARD_U

SNAP_TO_SYMMETRY
SYMMETRY_GENERATE

