#              Generated by Buildcell
#
# at 05:30:18 (GMT+0.0) 24th November 2020
# in /lustre/scratch/uccabz1/launch_tmp
# on node-c12k-030
# by uccabz1
#
# compiler GCC version 4.9.2
# options -cpp -iprefix /lustre/shared/ucl/apps/gcc/4.9.2/bin/../lib/gcc/x86_64-unknown-linux-gnu/4.9.2/ -mtune=corei7 -march=x86-64 -g -Og
#
# seed  1026646708    77379973  -928180453  -174711379 -1706357287 -1445420019  1957184269 -1265852135 -1924819170 -2115528234  1545029937 -2084678599
#
#      Author: C. J. Pickard (cjp20@cam.ac.uk)
#                Space group: Fdd2
#

%BLOCK LATTICE_ABC
      5.56880      5.56880      6.32733
    109.63944    109.63944    103.66467
%ENDBLOCK LATTICE_ABC

%BLOCK POSITIONS_FRAC
  Li   0.0668741   0.0668741   0.1337482 SPIN=   0.00000
  Li   0.3168741  -0.1831259  -0.3662518 SPIN=   0.00000
   O  -0.2511120   0.0282594  -0.1872791 SPIN=   0.00000
   O  -0.5562197   0.2366553  -0.0148908 SPIN=   0.00000
   O   0.0638329  -0.2155385  -0.1872791 SPIN=   0.00000
   O   0.5413289  -0.2515461  -0.0148908 SPIN=   0.00000
   O   0.2782594   0.4988880   0.3127209 SPIN=   0.00000
   O   0.4866553   0.1937803   0.4851092 SPIN=   0.00000
   O   0.0344615  -0.1861671   0.3127209 SPIN=   0.00000
   O  -0.0015461   0.2913289   0.4851092 SPIN=   0.00000
   P  -0.4244910   0.0755090   0.1510180 SPIN=   0.00000
   P   0.3255090   0.3255090  -0.3489820 SPIN=   0.00000
  Fe  -0.3590669  -0.3590669   0.2818662 SPIN=   4.00000
  Fe  -0.1090669   0.3909331  -0.2181338 SPIN=   4.00000
%ENDBLOCK POSITIONS_FRAC

# Note: total spin =   8.00

KPOINTS_MP_SPACING 0.07

%BLOCK SPECIES_POT
QC5
%ENDBLOCK SPECIES_POT

%BLOCK HUBBARD_U
Fe d:4.0
%ENDBLOCK HUBBARD_U

SNAP_TO_SYMMETRY
SYMMETRY_GENERATE

