#              Generated by Buildcell
#
# at 19:29:14 (GMT+0.0) 30th November 2020
# in /scratch/scratch/mmm0366/launch_tmp
# on node-k98l-019
# by mmm0366
#
# compiler GCC version 4.9.2
# options -cpp -iprefix /scratch/UCL/applications/gcc/4.9.2/bin/../lib/gcc/x86_64-unknown-linux-gnu/4.9.2/ -mtune=corei7 -march=x86-64 -g -O2
#
# seed   203130502  1427956759 -1187960609  1655448264   263465545  1997002361   891094865 -1165304904 -1377286863   402555434    22240221  1228562910
#
#      Author: C. J. Pickard (cjp20@cam.ac.uk)
#                Space group: Cm
#

%BLOCK LATTICE_ABC
      4.29124      6.21128      6.21128
    104.33128     92.49309     92.49309
%ENDBLOCK LATTICE_ABC

%BLOCK POSITIONS_FRAC
  Li   0.1608382   0.0480619   0.4255890 SPIN=   0.00000
  Li   0.1608382   0.4255890   0.0480619 SPIN=   0.00000
   O  -0.2515150  -0.2370879   0.0136341 SPIN=   0.00000
   O  -0.3601376   0.0707194   0.3656518 SPIN=   0.00000
   O  -0.7116115  -0.2687593   0.2644756 SPIN=   0.00000
   P  -0.3629139  -0.1856067   0.2520767 SPIN=   0.00000
   O  -0.2515150   0.0136341  -0.2370879 SPIN=   0.00000
   O  -0.3601376   0.3656518   0.0707194 SPIN=   0.00000
   O  -0.7116115   0.2644756  -0.2687593 SPIN=   0.00000
   P  -0.3629139   0.2520767  -0.1856067 SPIN=   0.00000
   O   0.3139039  -0.3857957  -0.3857957 SPIN=   0.00000
   O   0.0556194   0.1216531   0.1216531 SPIN=   0.00000
  Fe  -0.3073018   0.4547225   0.4547225 SPIN=   1.18356
  Fe   0.2665793  -0.1146263  -0.1146263 SPIN=   6.81644
%ENDBLOCK POSITIONS_FRAC

# Note: total spin =   8.00

KPOINTS_MP_SPACING 0.07

%BLOCK SPECIES_POT
QC5
%ENDBLOCK SPECIES_POT

%BLOCK HUBBARD_U
Fe d:4.0
%ENDBLOCK HUBBARD_U

SNAP_TO_SYMMETRY
SYMMETRY_GENERATE

