#              Generated by Buildcell
#
# at 02:47:19 (GMT+0.0) 24th November 2020
# in /lustre/scratch/uccabz1/launch_tmp
# on node-c12g-028
# by uccabz1
#
# compiler GCC version 4.9.2
# options -cpp -iprefix /lustre/shared/ucl/apps/gcc/4.9.2/bin/../lib/gcc/x86_64-unknown-linux-gnu/4.9.2/ -mtune=corei7 -march=x86-64 -g -Og
#
# seed  -235745148  1898578551   810555538 -1650135640 -1010648711   746330010    39674780  1436683690  -877904491  -186286151  1570862597 -1151094481
#
#      Author: C. J. Pickard (cjp20@cam.ac.uk)
#                Space group: Cm
#

%BLOCK LATTICE_ABC
      4.28124      6.37749      6.37749
     92.04591    105.84469    105.84469
%ENDBLOCK LATTICE_ABC

%BLOCK POSITIONS_FRAC
  Li   0.3256983  -0.1648108   0.1976678 SPIN=   0.00000
  Li   0.3256983   0.1976678  -0.1648108 SPIN=   0.00000
   O  -0.6172595  -0.4465035  -0.1778443 SPIN=   0.00000
   O  -0.1752773  -0.1444543   0.1238426 SPIN=   0.00000
   O  -0.4577651  -0.4951658   0.2369997 SPIN=   0.00000
   O  -0.0316439  -0.4851358   0.0326218 SPIN=   0.00000
   P  -0.3328795  -0.3967630   0.0413143 SPIN=   0.00000
   O  -0.6172595  -0.1778443  -0.4465035 SPIN=   0.00000
   O  -0.1752773   0.1238426  -0.1444543 SPIN=   0.00000
   O  -0.4577651   0.2369997  -0.4951658 SPIN=   0.00000
   O  -0.0316439   0.0326218  -0.4851358 SPIN=   0.00000
   P  -0.3328795   0.0413143  -0.3967630 SPIN=   0.00000
  Fe  -0.0748136  -0.3289041  -0.3289041 SPIN=   4.53606
  Fe   0.0153070   0.2488590   0.2488590 SPIN=   3.46394
%ENDBLOCK POSITIONS_FRAC

# Note: total spin =   8.00

KPOINTS_MP_SPACING 0.07

%BLOCK SPECIES_POT
QC5
%ENDBLOCK SPECIES_POT

%BLOCK HUBBARD_U
Fe d:4.0
%ENDBLOCK HUBBARD_U

SNAP_TO_SYMMETRY
SYMMETRY_GENERATE

