#              Generated by Buildcell
#
# at 05:49:19 (GMT+0.0) 24th November 2020
# in /lustre/scratch/uccabz1/launch_tmp
# on node-c12p-031
# by uccabz1
#
# compiler GCC version 4.9.2
# options -cpp -iprefix /lustre/shared/ucl/apps/gcc/4.9.2/bin/../lib/gcc/x86_64-unknown-linux-gnu/4.9.2/ -mtune=corei7 -march=x86-64 -g -Og
#
# seed  -938509400 -1690675733   282522432 -1378130922  1219288783  -505269068   604362433 -1298313968   -59355600  1452985689  -414029072 -1920500153
#
#      Author: C. J. Pickard (cjp20@cam.ac.uk)
#                Space group: C2
#

%BLOCK LATTICE_ABC
      4.40327      4.40327      8.43140
     81.68554     81.68554     87.30895
%ENDBLOCK LATTICE_ABC

%BLOCK POSITIONS_FRAC
  Li   0.2557102  -0.2557102   0.0000000 SPIN=   0.00000
  Li  -0.2442976   0.2442976  -0.0000000 SPIN=   0.00000
   O   0.2177856  -0.1975031   0.2695185 SPIN=   0.00000
   O  -0.2260335   0.2105629   0.2508369 SPIN=   0.00000
   O  -0.2395228  -0.2448568   0.1121849 SPIN=   0.00000
   O  -0.3322361  -0.3038589   0.4150580 SPIN=   0.00000
   P  -0.1278946  -0.1393053   0.2641127 SPIN=   0.00000
   O   0.1975031  -0.2177856  -0.2695185 SPIN=   0.00000
   O  -0.2105629   0.2260335  -0.2508369 SPIN=   0.00000
   O   0.2448568   0.2395228  -0.1121849 SPIN=   0.00000
   O   0.3038589   0.3322361  -0.4150580 SPIN=   0.00000
   P   0.1393053   0.1278946  -0.2641127 SPIN=   0.00000
  Fe  -0.7098901   0.2786928   0.3426249 SPIN=   4.00000
  Fe   0.7213072  -0.2901099  -0.3426249 SPIN=   4.00000
%ENDBLOCK POSITIONS_FRAC

# Note: total spin =   8.00

KPOINTS_MP_SPACING 0.07

%BLOCK SPECIES_POT
QC5
%ENDBLOCK SPECIES_POT

%BLOCK HUBBARD_U
Fe d:4.0
%ENDBLOCK HUBBARD_U

SNAP_TO_SYMMETRY
SYMMETRY_GENERATE

