#              Generated by Buildcell
#
# at 02:16:31 (GMT+0.0) 24th November 2020
# in /lustre/scratch/uccabz1/launch_tmp
# on node-c12e-032
# by uccabz1
#
# compiler GCC version 4.9.2
# options -cpp -iprefix /lustre/shared/ucl/apps/gcc/4.9.2/bin/../lib/gcc/x86_64-unknown-linux-gnu/4.9.2/ -mtune=corei7 -march=x86-64 -g -Og
#
# seed   331167850   829117313   664591513   362450953 -1265619657  1754769514   835496578 -1231410902   -67919501   682516018  1809830419  1546161817
#
#      Author: C. J. Pickard (cjp20@cam.ac.uk)
#                Space group: Cm
#

%BLOCK LATTICE_ABC
      4.90200      6.14778      6.14778
     77.46993     68.67372     68.67372
%ENDBLOCK LATTICE_ABC

%BLOCK POSITIONS_FRAC
  Li  -0.1577690  -0.1659136  -0.1659136 SPIN=   0.00000
  Li  -1.2495822   0.3826652   0.3826652 SPIN=   0.00000
   O  -0.4267596  -0.2145055   0.2286258 SPIN=   0.00000
   O  -0.2783743   0.0407745   0.4254121 SPIN=   0.00000
   O  -0.8263705   0.1372228   0.4590788 SPIN=   0.00000
   P  -0.5219803  -0.0760663   0.4390098 SPIN=   0.00000
   O  -0.4267596   0.2286258  -0.2145055 SPIN=   0.00000
   O  -0.2783743   0.4254121   0.0407745 SPIN=   0.00000
   O  -0.8263705   0.4590788   0.1372228 SPIN=   0.00000
   P  -0.5219803   0.4390098  -0.0760663 SPIN=   0.00000
   O   0.3941448  -0.1486229  -0.1486229 SPIN=   0.00000
   O   0.8553682  -0.4275293  -0.4275293 SPIN=   0.00000
  Fe   0.1301904  -0.2355477   0.2643035 SPIN=   4.00000
  Fe   0.1301904   0.2643035  -0.2355477 SPIN=   4.00000
%ENDBLOCK POSITIONS_FRAC

# Note: total spin =   8.00

KPOINTS_MP_SPACING 0.07

%BLOCK SPECIES_POT
QC5
%ENDBLOCK SPECIES_POT

%BLOCK HUBBARD_U
Fe d:4.0
%ENDBLOCK HUBBARD_U

SNAP_TO_SYMMETRY
SYMMETRY_GENERATE

