#              Generated by Buildcell
#
# at 23:49:15 (GMT+0.0) 23rd November 2020
# in /lustre/scratch/uccabz1/launch_tmp
# on node-c12c-025
# by uccabz1
#
# compiler GCC version 4.9.2
# options -cpp -iprefix /lustre/shared/ucl/apps/gcc/4.9.2/bin/../lib/gcc/x86_64-unknown-linux-gnu/4.9.2/ -mtune=corei7 -march=x86-64 -g -Og
#
# seed  -467326020  1789725306     -951164  1392038423 -1842834915    67770933  1068199955  1275565311  1112867827     -545769 -2117762601  -258076622
#
#      Author: C. J. Pickard (cjp20@cam.ac.uk)
#                Space group: Pba2
#

%BLOCK LATTICE_ABC
      5.30428      5.49213      5.49228
     90.00000     90.00000     90.00000
%ENDBLOCK LATTICE_ABC

%BLOCK POSITIONS_FRAC
  Li  -0.4797927   0.5000000  -0.0000000 SPIN=   0.00000
  Li  -0.4797927  -0.0000000  -0.5000000 SPIN=   0.00000
   O   0.1643084   0.2446671   0.1137669 SPIN=   0.00000
   O   0.5553695   0.1573618  -0.1573540 SPIN=   0.00000
   O   0.1643084  -0.2446671  -0.1137669 SPIN=   0.00000
   O   0.5553695  -0.1573618   0.1573540 SPIN=   0.00000
   O   0.1643084   0.2553329   0.6137669 SPIN=   0.00000
   O   0.5553695   0.3426382   0.3426460 SPIN=   0.00000
   O   0.1643084  -0.2553329  -0.6137669 SPIN=   0.00000
   O   0.5553695  -0.3426382  -0.3426460 SPIN=   0.00000
   P   0.0215991   0.5000000  -0.0000000 SPIN=   0.00000
   P   0.0215991  -0.0000000   0.5000000 SPIN=   0.00000
  Fe  -0.1242800  -0.0000000  -0.0000000 SPIN=   4.00000
  Fe  -0.1242800   0.5000000   0.5000000 SPIN=   4.00000
%ENDBLOCK POSITIONS_FRAC

# Note: total spin =   8.00

KPOINTS_MP_SPACING 0.07

%BLOCK SPECIES_POT
QC5
%ENDBLOCK SPECIES_POT

%BLOCK HUBBARD_U
Fe d:4.0
%ENDBLOCK HUBBARD_U

SNAP_TO_SYMMETRY
SYMMETRY_GENERATE

