#              Generated by Buildcell
#
# at 00:06:59 (GMT+0.0) 24th November 2020
# in /lustre/scratch/uccabz1/launch_tmp
# on node-c12g-028
# by uccabz1
#
# compiler GCC version 4.9.2
# options -cpp -iprefix /lustre/shared/ucl/apps/gcc/4.9.2/bin/../lib/gcc/x86_64-unknown-linux-gnu/4.9.2/ -mtune=corei7 -march=x86-64 -g -Og
#
# seed   150919079 -1845669310  -826479158  1581978915 -1797043621 -1935009270 -1104311389  -134320712  -342929690 -1799552415 -1366162495 -1087108337
#
#      Author: C. J. Pickard (cjp20@cam.ac.uk)
#                Space group: P2
#

%BLOCK LATTICE_ABC
      3.88176      4.52417      9.12043
     92.64391     90.00000     90.00000
%ENDBLOCK LATTICE_ABC

%BLOCK POSITIONS_FRAC
  Li   0.2397826   0.0117971  -0.3344264 SPIN=   0.00000
  Li   0.2397826  -0.0117971   0.3344264 SPIN=   0.00000
   O  -0.2902784  -0.3116778   0.1503609 SPIN=   0.00000
   O  -0.2816178  -0.8165526   0.2749896 SPIN=   0.00000
   O   0.1097787  -0.7472980   0.0658252 SPIN=   0.00000
   O   0.2244483  -0.4761904   0.3064854 SPIN=   0.00000
   P  -0.0683596  -0.5719020   0.1980670 SPIN=   0.00000
   O  -0.2902784   0.3116778  -0.1503609 SPIN=   0.00000
   O  -0.2816178   0.8165526  -0.2749896 SPIN=   0.00000
   O   0.1097787   0.7472980  -0.0658252 SPIN=   0.00000
   O   0.2244483   0.4761904  -0.3064854 SPIN=   0.00000
   P  -0.0683596   0.5719020  -0.1980670 SPIN=   0.00000
  Fe  -0.4413760   0.0000000  -0.0000000 SPIN=   3.02984
  Fe  -0.2676292  -0.5000000   0.5000000 SPIN=   4.97016
%ENDBLOCK POSITIONS_FRAC

# Note: total spin =   8.00

KPOINTS_MP_SPACING 0.07

%BLOCK SPECIES_POT
QC5
%ENDBLOCK SPECIES_POT

%BLOCK HUBBARD_U
Fe d:4.0
%ENDBLOCK HUBBARD_U

SNAP_TO_SYMMETRY
SYMMETRY_GENERATE

