#              Generated by Buildcell
#
# at 05:52:15 (GMT+0.0) 24th November 2020
# in /lustre/scratch/uccabz1/launch_tmp
# on node-c12d-031
# by uccabz1
#
# compiler GCC version 4.9.2
# options -cpp -iprefix /lustre/shared/ucl/apps/gcc/4.9.2/bin/../lib/gcc/x86_64-unknown-linux-gnu/4.9.2/ -mtune=corei7 -march=x86-64 -g -Og
#
# seed   800900677  -836013983  1346267286  2102609274   999632088  1964041730 -1509461027   319059283   413502443   712789918  -794318996 -1793782747
#
#      Author: C. J. Pickard (cjp20@cam.ac.uk)
#                Space group: P-1
#

%BLOCK LATTICE_ABC
      4.54592      5.70262      7.06218
    107.75114    102.79552    104.28546
%ENDBLOCK LATTICE_ABC

%BLOCK POSITIONS_FRAC
  Li   0.1659727  -0.1842392  -0.4482612 SPIN=   0.00000
  Li  -0.1659727   0.1842392   0.4482612 SPIN=   0.00000
   O  -0.2345782  -0.1180508  -0.3518762 SPIN=   0.00000
   O   0.0489200   0.3849488  -0.1626543 SPIN=   0.00000
   O  -0.5416396   0.2085971  -0.2671249 SPIN=   0.00000
   O  -0.2086379   0.1330834   0.0272223 SPIN=   0.00000
   P  -0.2337164   0.1375331  -0.1947544 SPIN=   0.00000
   O   0.2345782   0.1180508   0.3518762 SPIN=   0.00000
   O  -0.0489200  -0.3849488   0.1626543 SPIN=   0.00000
   O   0.5416396  -0.2085971   0.2671249 SPIN=   0.00000
   O   0.2086379  -0.1330834  -0.0272223 SPIN=   0.00000
   P   0.2337164  -0.1375331   0.1947544 SPIN=   0.00000
  Fe   0.3018480   0.3723835   0.1855459 SPIN=   4.00000
  Fe  -0.3018480  -0.3723835  -0.1855459 SPIN=   4.00000
%ENDBLOCK POSITIONS_FRAC

# Note: total spin =   8.00

KPOINTS_MP_SPACING 0.07

%BLOCK SPECIES_POT
QC5
%ENDBLOCK SPECIES_POT

%BLOCK HUBBARD_U
Fe d:4.0
%ENDBLOCK HUBBARD_U

SNAP_TO_SYMMETRY
SYMMETRY_GENERATE

