#              Generated by Buildcell
#
# at 03:59:07 (GMT+0.0) 24th November 2020
# in /scratch/scratch/uccabz1/launch_tmp
# on node-a14f-014
# by uccabz1
#
# compiler GCC version 4.9.2
# options -cpp -iprefix /scratch/UCL/applications/gcc/4.9.2/bin/../lib/gcc/x86_64-unknown-linux-gnu/4.9.2/ -mtune=corei7 -march=x86-64 -g -O2
#
# seed -2061467241  1707253948   559194057 -1071474743   943992352 -1231309498 -1440746464  -824830879 -1322995803  -881060083   873098489   718137611
#
#      Author: C. J. Pickard (cjp20@cam.ac.uk)
#                Space group: P2
#

%BLOCK LATTICE_ABC
      3.86142      4.12661     10.17126
     90.00000     99.17754     90.00000
%ENDBLOCK LATTICE_ABC

%BLOCK POSITIONS_FRAC
  Li   0.0000000  -0.0041052   0.0000000 SPIN=   0.00000
  Li   0.5000000  -0.3010852  -0.5000000 SPIN=   0.00000
   O   0.1250834  -0.1146632  -0.1889752 SPIN=   0.00000
   O  -0.4618034   0.0292129  -0.3405230 SPIN=   0.00000
   O   0.0401544   0.4020670  -0.3365324 SPIN=   0.00000
   P  -0.0495385   0.0333056  -0.3219012 SPIN=   0.00000
   O  -0.1250834  -0.1146632   0.1889752 SPIN=   0.00000
   O   0.4618034   0.0292129   0.3405230 SPIN=   0.00000
   O  -0.0401544   0.4020670   0.3365324 SPIN=   0.00000
   P   0.0495385   0.0333056   0.3219012 SPIN=   0.00000
   O   1.0000000  -0.0811889  -0.5000000 SPIN=   0.00000
   O   0.0000000   0.4959904   0.0000000 SPIN=   0.00000
  Fe  -0.4766431   0.4943080   0.1911683 SPIN=   4.00000
  Fe   0.4766431   0.4943080  -0.1911683 SPIN=   4.00000
%ENDBLOCK POSITIONS_FRAC

# Note: total spin =   8.00

KPOINTS_MP_SPACING 0.07

%BLOCK SPECIES_POT
QC5
%ENDBLOCK SPECIES_POT

%BLOCK HUBBARD_U
Fe d:4.0
%ENDBLOCK HUBBARD_U

SNAP_TO_SYMMETRY
SYMMETRY_GENERATE

