#              Generated by Buildcell
#
# at 02:50:51 (GMT+0.0) 24th November 2020
# in /lustre/scratch/uccabz1/launch_tmp
# on node-c12h-023
# by uccabz1
#
# compiler GCC version 4.9.2
# options -cpp -iprefix /lustre/shared/ucl/apps/gcc/4.9.2/bin/../lib/gcc/x86_64-unknown-linux-gnu/4.9.2/ -mtune=corei7 -march=x86-64 -g -Og
#
# seed   836988894 -1077255891  1249092944  1405067760  -595056122   -39516975   627574953   906619977   670420246   334857367   461834723  -700209006
#
#      Author: C. J. Pickard (cjp20@cam.ac.uk)
#                Space group: P-1
#

%BLOCK LATTICE_ABC
      5.42928      5.43085      6.49683
     93.34849    112.18808    111.96063
%ENDBLOCK LATTICE_ABC

%BLOCK POSITIONS_FRAC
  Li  -0.0970027  -0.1928128   0.1806139 SPIN=   0.00000
  Li   0.0970027   0.1928128  -0.1806139 SPIN=   0.00000
   O   0.2676645   0.1829354   0.3978364 SPIN=   0.00000
   O   0.3527826   0.5027020   0.1249795 SPIN=   0.00000
   O  -0.1557755   0.1714428   0.0287787 SPIN=   0.00000
   O   0.1018448   0.5727560   0.3618440 SPIN=   0.00000
   P   0.1478704   0.3507073   0.2389587 SPIN=   0.00000
   O  -0.2676645  -0.1829354  -0.3978364 SPIN=   0.00000
   O  -0.3527826  -0.5027020  -0.1249795 SPIN=   0.00000
   O   0.1557755  -0.1714428  -0.0287787 SPIN=   0.00000
   O  -0.1018448  -0.5727560  -0.3618440 SPIN=   0.00000
   P  -0.1478704  -0.3507073  -0.2389587 SPIN=   0.00000
  Fe  -0.6208993  -0.2101661  -0.2983213 SPIN=   4.00000
  Fe   0.6208993   0.2101661   0.2983213 SPIN=   4.00000
%ENDBLOCK POSITIONS_FRAC

# Note: total spin =   8.00

KPOINTS_MP_SPACING 0.07

%BLOCK SPECIES_POT
QC5
%ENDBLOCK SPECIES_POT

%BLOCK HUBBARD_U
Fe d:4.0
%ENDBLOCK HUBBARD_U

SNAP_TO_SYMMETRY
SYMMETRY_GENERATE

