#              Generated by Buildcell
#
# at 03:12:19 (GMT+0.0) 24th November 2020
# in /lustre/scratch/uccabz1/launch_tmp
# on node-c12g-036
# by uccabz1
#
# compiler GCC version 4.9.2
# options -cpp -iprefix /lustre/shared/ucl/apps/gcc/4.9.2/bin/../lib/gcc/x86_64-unknown-linux-gnu/4.9.2/ -mtune=corei7 -march=x86-64 -g -Og
#
# seed -1417724834   405154315 -1062972907  1445225910  -928723722   829128802  -855987435  1859344276  1363964648 -1128079253  1365689831   807775550
#
#      Author: C. J. Pickard (cjp20@cam.ac.uk)
#                Space group: Pm
#

%BLOCK LATTICE_ABC
      4.08638      4.28106      9.24305
     90.00000     90.00000     98.31092
%ENDBLOCK LATTICE_ABC

%BLOCK POSITIONS_FRAC
  Li   0.1498800   0.3164583   0.5000000 SPIN=   0.00000
  Li  -0.7388113  -0.3637371   0.0000000 SPIN=   0.00000
   O   0.4148077   0.0361307  -0.3679706 SPIN=   0.00000
   O   0.1452075   0.4982018  -0.2601531 SPIN=   0.00000
   O   0.0675412  -0.0128267  -0.1314765 SPIN=   0.00000
   O   0.6248891   0.3192115  -0.1317659 SPIN=   0.00000
   P   0.3222055   0.2021988  -0.2294942 SPIN=   0.00000
   O   0.4148077   0.0361307   0.3679706 SPIN=   0.00000
   O   0.1452075   0.4982018   0.2601531 SPIN=   0.00000
   O   0.0675412  -0.0128267   0.1314765 SPIN=   0.00000
   O   0.6248891   0.3192115   0.1317659 SPIN=   0.00000
   P   0.3222055   0.2021988   0.2294942 SPIN=   0.00000
  Fe  -0.2434188  -0.2414772  -0.2903188 SPIN=   4.00000
  Fe  -0.2434188  -0.2414772   0.2903188 SPIN=   4.00000
%ENDBLOCK POSITIONS_FRAC

# Note: total spin =   8.00

KPOINTS_MP_SPACING 0.07

%BLOCK SPECIES_POT
QC5
%ENDBLOCK SPECIES_POT

%BLOCK HUBBARD_U
Fe d:4.0
%ENDBLOCK HUBBARD_U

SNAP_TO_SYMMETRY
SYMMETRY_GENERATE

