#              Generated by Buildcell
#
# at 00:22:50 (GMT+0.0) 24th November 2020
# in /lustre/scratch/uccabz1/launch_tmp
# on node-c12a-034
# by uccabz1
#
# compiler GCC version 4.9.2
# options -cpp -iprefix /lustre/shared/ucl/apps/gcc/4.9.2/bin/../lib/gcc/x86_64-unknown-linux-gnu/4.9.2/ -mtune=corei7 -march=x86-64 -g -Og
#
# seed -2013126909 -1974707500 -2129728168  -922488389   899127152 -1049326649  -660784594 -1575318636   327975543  1172939253  2000544876   527886908
#
#      Author: C. J. Pickard (cjp20@cam.ac.uk)
#                Space group: Pm
#

%BLOCK LATTICE_ABC
      3.86071      4.32241      9.98321
     90.00000     90.00000    106.17586
%ENDBLOCK LATTICE_ABC

%BLOCK POSITIONS_FRAC
  Li  -0.5335712  -0.2078853  -0.2030898 SPIN=   0.00000
  Li  -0.5335712  -0.2078853   0.2030898 SPIN=   0.00000
   O  -0.3436406   0.0506712   0.3773710 SPIN=   0.00000
   O   0.1885730   0.1454448   0.2088843 SPIN=   0.00000
   O  -0.1224857   0.5700232   0.2339683 SPIN=   0.00000
   P  -0.0172540   0.2973575   0.3149341 SPIN=   0.00000
   O  -0.3436406   0.0506712  -0.3773710 SPIN=   0.00000
   O   0.1885730   0.1454448  -0.2088843 SPIN=   0.00000
   O  -0.1224857   0.5700232  -0.2339683 SPIN=   0.00000
   P  -0.0172540   0.2973575  -0.3149341 SPIN=   0.00000
   O   0.6638443   0.4135718   0.0000000 SPIN=   0.00000
   O   0.2910115  -0.2060162   0.0000000 SPIN=   0.00000
  Fe   0.0913875   0.2019123   0.0000000 SPIN=   1.33627
  Fe  -0.1051413  -0.2257747  -0.5000000 SPIN=   6.66373
%ENDBLOCK POSITIONS_FRAC

# Note: total spin =   8.00

KPOINTS_MP_SPACING 0.07

%BLOCK SPECIES_POT
QC5
%ENDBLOCK SPECIES_POT

%BLOCK HUBBARD_U
Fe d:4.0
%ENDBLOCK HUBBARD_U

SNAP_TO_SYMMETRY
SYMMETRY_GENERATE

