#              Generated by Buildcell
#
# at 04:36:46 (GMT+0.0) 24th November 2020
# in /lustre/scratch/uccabz1/launch_tmp
# on node-c12e-032
# by uccabz1
#
# compiler GCC version 4.9.2
# options -cpp -iprefix /lustre/shared/ucl/apps/gcc/4.9.2/bin/../lib/gcc/x86_64-unknown-linux-gnu/4.9.2/ -mtune=corei7 -march=x86-64 -g -Og
#
# seed  1199110844  1248066447  -269552414  1943068370   907762585  1118916865  -550616213   882322167  2050360285  1234740788 -1342552142  1813812971
#
#      Author: C. J. Pickard (cjp20@cam.ac.uk)
#                Space group: C2
#

%BLOCK LATTICE_ABC
      4.18731      5.57479      7.63648
    103.35352     90.00000    112.05879
%ENDBLOCK LATTICE_ABC

%BLOCK POSITIONS_FRAC
  Li  -0.4414636  -0.3327709   0.4359341 SPIN=   0.00000
  Li  -0.1086927   0.3327709  -0.4359341 SPIN=   0.00000
   O  -0.7060972  -0.6366697  -0.2598362 SPIN=   0.00000
   O  -0.3684784  -0.1493913  -0.2832779 SPIN=   0.00000
   O  -0.4910059  -0.2287332   0.0193350 SPIN=   0.00000
   O  -0.0576367  -0.3791543  -0.1476848 SPIN=   0.00000
   P  -0.4176849  -0.3641933  -0.1725248 SPIN=   0.00000
   O  -0.0694275   0.6366697   0.2598362 SPIN=   0.00000
   O  -0.2190871   0.1493913   0.2832779 SPIN=   0.00000
   O  -0.2622727   0.2287332  -0.0193350 SPIN=   0.00000
   O   0.3215176   0.3791543   0.1476848 SPIN=   0.00000
   P  -0.0534916   0.3641933   0.1725248 SPIN=   0.00000
  Fe   0.2233599  -0.0203093  -0.2517178 SPIN=   4.00000
  Fe   0.2436692   0.0203093   0.2517178 SPIN=   4.00000
%ENDBLOCK POSITIONS_FRAC

# Note: total spin =   8.00

KPOINTS_MP_SPACING 0.07

%BLOCK SPECIES_POT
QC5
%ENDBLOCK SPECIES_POT

%BLOCK HUBBARD_U
Fe d:4.0
%ENDBLOCK HUBBARD_U

SNAP_TO_SYMMETRY
SYMMETRY_GENERATE

