#              Generated by Buildcell
#
# at 05:49:14 (GMT+0.0) 24th November 2020
# in /lustre/scratch/uccabz1/launch_tmp
# on node-c12l-025
# by uccabz1
#
# compiler GCC version 4.9.2
# options -cpp -iprefix /lustre/shared/ucl/apps/gcc/4.9.2/bin/../lib/gcc/x86_64-unknown-linux-gnu/4.9.2/ -mtune=corei7 -march=x86-64 -g -Og
#
# seed -1459012577 -1053988855 -1103419806  1861709065  1658982322 -1503284024 -1982290177  -196237617   -18972781   -84408993 -1316903411  -574629969
#
#      Author: C. J. Pickard (cjp20@cam.ac.uk)
#                Space group: I-4
#

%BLOCK LATTICE_ABC
      5.46841      5.46841      6.60152
    114.46759    114.46759     90.00000
%ENDBLOCK LATTICE_ABC

%BLOCK POSITIONS_FRAC
  Li  -0.4999983   0.0000017   0.0000034 SPIN=   0.00000
  Li  -0.0000017   0.4999983  -0.0000034 SPIN=   0.00000
   O   0.3459194   0.3457424   0.1561335 SPIN=   0.00000
   O   0.3073226  -0.0236096   0.2987402 SPIN=   0.00000
   O  -0.1897859  -0.1896089   0.1561335 SPIN=   0.00000
   O  -0.0085824   0.3223498   0.2987402 SPIN=   0.00000
   O  -0.3457424   0.1897859  -0.1561335 SPIN=   0.00000
   O   0.0236096   0.0085824  -0.2987402 SPIN=   0.00000
   O   0.1896089  -0.3459194  -0.1561335 SPIN=   0.00000
   O  -0.3223498  -0.3073226  -0.2987402 SPIN=   0.00000
   P   0.2500000  -0.2500000  -0.5000000 SPIN=   0.00000
   P  -0.2500000   0.2500000   0.5000000 SPIN=   0.00000
  Fe   0.3199530   0.3199530  -0.3600940 SPIN=   4.00000
  Fe  -0.3199530  -0.3199530   0.3600940 SPIN=   4.00000
%ENDBLOCK POSITIONS_FRAC

# Note: total spin =   8.00

KPOINTS_MP_SPACING 0.07

%BLOCK SPECIES_POT
QC5
%ENDBLOCK SPECIES_POT

%BLOCK HUBBARD_U
Fe d:4.0
%ENDBLOCK HUBBARD_U

SNAP_TO_SYMMETRY
SYMMETRY_GENERATE

