#              Generated by Buildcell
#
# at 23:51:47 (GMT+0.0) 23rd November 2020
# in /lustre/scratch/uccabz1/launch_tmp
# on node-c12o-026
# by uccabz1
#
# compiler GCC version 4.9.2
# options -cpp -iprefix /lustre/shared/ucl/apps/gcc/4.9.2/bin/../lib/gcc/x86_64-unknown-linux-gnu/4.9.2/ -mtune=corei7 -march=x86-64 -g -Og
#
# seed  -624580685  -471193657  1194856408 -1534435944 -1966427458 -1753526915 -1510532061  -589529268  1696425188    12994465 -1084151599  1833478138
#
#      Author: C. J. Pickard (cjp20@cam.ac.uk)
#                Space group: Iba2
#

%BLOCK LATTICE_ABC
      5.50461      5.50897      6.55750
    114.83781    114.81680     90.00000
%ENDBLOCK LATTICE_ABC

%BLOCK POSITIONS_FRAC
  Li  -0.2065554  -0.2065554  -0.4131107 SPIN=   0.00000
  Li   0.2934446   0.2934446   0.5868893 SPIN=   0.00000
   O   0.2066857   0.0790343  -0.0599420 SPIN=   0.00000
   O   0.1172693  -0.3828810  -0.4508780 SPIN=   0.00000
   O  -0.2666277  -0.1389763  -0.0599420 SPIN=   0.00000
   O  -0.5681472  -0.0679970  -0.4508780 SPIN=   0.00000
   O  -0.2933143   0.3610237   0.9400580 SPIN=   0.00000
   O  -0.3827307   0.4320030   0.5491220 SPIN=   0.00000
   O   0.2333723   0.5790343   0.9400580 SPIN=   0.00000
   O  -0.0681472   0.1171190   0.5491220 SPIN=   0.00000
   P   0.0428732   0.0428732   0.0857465 SPIN=   0.00000
   P  -0.4571268  -0.4571268  -0.9142535 SPIN=   0.00000
  Fe   0.1136651  -0.3863349  -0.7726697 SPIN=   4.00000
  Fe  -0.3863349   0.1136651   0.2273303 SPIN=   4.00000
%ENDBLOCK POSITIONS_FRAC

# Note: total spin =   8.00

KPOINTS_MP_SPACING 0.07

%BLOCK SPECIES_POT
QC5
%ENDBLOCK SPECIES_POT

%BLOCK HUBBARD_U
Fe d:4.0
%ENDBLOCK HUBBARD_U

SNAP_TO_SYMMETRY
SYMMETRY_GENERATE

