#              Generated by Buildcell
#
# at 00:00:45 (GMT+0.0) 24th November 2020
# in /lustre/scratch/uccabz1/launch_tmp
# on node-c12d-031
# by uccabz1
#
# compiler GCC version 4.9.2
# options -cpp -iprefix /lustre/shared/ucl/apps/gcc/4.9.2/bin/../lib/gcc/x86_64-unknown-linux-gnu/4.9.2/ -mtune=corei7 -march=x86-64 -g -Og
#
# seed  -422535461  -422759508 -1860501741  1319247653 -1195412156 -1334901035   347181454  1022727014  1290546315 -1603246902   -98326435 -1621712005
#
#      Author: C. J. Pickard (cjp20@cam.ac.uk)
#                Space group: P-1
#

%BLOCK LATTICE_ABC
      4.62037      6.03279      6.77693
    109.23723    100.73357    108.47574
%ENDBLOCK LATTICE_ABC

%BLOCK POSITIONS_FRAC
  Li  -0.1670374  -0.0180548  -0.2901323 SPIN=   0.00000
  Li   0.1670374   0.0180548   0.2901323 SPIN=   0.00000
   O  -0.8132873  -0.3477141   0.1882086 SPIN=   0.00000
   O  -0.2957839  -0.2669353   0.0741651 SPIN=   0.00000
   O  -0.2861301   0.0674690   0.4085926 SPIN=   0.00000
   O  -0.2970679  -0.3484302   0.4133035 SPIN=   0.00000
   P  -0.4423577  -0.2319646   0.2683341 SPIN=   0.00000
   O   0.8132873   0.3477141  -0.1882086 SPIN=   0.00000
   O   0.2957839   0.2669353  -0.0741651 SPIN=   0.00000
   O   0.2861301  -0.0674690  -0.4085926 SPIN=   0.00000
   O   0.2970679   0.3484302  -0.4133035 SPIN=   0.00000
   P   0.4423577   0.2319646  -0.2683341 SPIN=   0.00000
  Fe  -0.2194508   0.3636833   0.1821931 SPIN=   4.00000
  Fe   0.2194508  -0.3636833  -0.1821931 SPIN=   4.00000
%ENDBLOCK POSITIONS_FRAC

# Note: total spin =   8.00

KPOINTS_MP_SPACING 0.07

%BLOCK SPECIES_POT
QC5
%ENDBLOCK SPECIES_POT

%BLOCK HUBBARD_U
Fe d:4.0
%ENDBLOCK HUBBARD_U

SNAP_TO_SYMMETRY
SYMMETRY_GENERATE

