#              Generated by Buildcell
#
# at 23:24:37 (GMT+0.0) 23rd November 2020
# in /lustre/scratch/uccabz1/launch_tmp
# on node-c12d-032
# by uccabz1
#
# compiler GCC version 4.9.2
# options -cpp -iprefix /lustre/shared/ucl/apps/gcc/4.9.2/bin/../lib/gcc/x86_64-unknown-linux-gnu/4.9.2/ -mtune=corei7 -march=x86-64 -g -Og
#
# seed   637954954  1194319076 -1721516615 -1945895813  -157999511  1888436721 -1983975849  -528840651    86843303  -117985348 -1741828253  1960926264
#
#      Author: C. J. Pickard (cjp20@cam.ac.uk)
#                Space group: Pnc2
#

%BLOCK LATTICE_ABC
      4.01300      4.84247      8.23350
     90.00000     90.00000     90.00000
%ENDBLOCK LATTICE_ABC

%BLOCK POSITIONS_FRAC
  Li   0.0000000   0.0000000  -0.0080656 SPIN=   0.00000
  Li   0.0000000   0.5000000   0.4919344 SPIN=   0.00000
   O  -0.0653857   0.2510335   0.2719186 SPIN=   0.00000
   O  -0.4329211   0.2486559   0.5316861 SPIN=   0.00000
   O   0.0653857  -0.2510335   0.2719186 SPIN=   0.00000
   O   0.4329211  -0.2486559   0.5316861 SPIN=   0.00000
   O  -0.0653857   0.2489665  -0.2280814 SPIN=   0.00000
   O  -0.4329211   0.2513441   0.0316861 SPIN=   0.00000
   O   0.0653857  -0.2489665  -0.2280814 SPIN=   0.00000
   O   0.4329211  -0.2513441   0.0316861 SPIN=   0.00000
   P   0.0000000   0.5000000   0.1384334 SPIN=   0.00000
   P   0.0000000   0.0000000  -0.3615666 SPIN=   0.00000
  Fe   0.5000000  -0.0000000   0.3116720 SPIN=   4.00000
  Fe   0.5000000   0.5000000  -0.1883280 SPIN=   4.00000
%ENDBLOCK POSITIONS_FRAC

# Note: total spin =   8.00

KPOINTS_MP_SPACING 0.07

%BLOCK SPECIES_POT
QC5
%ENDBLOCK SPECIES_POT

%BLOCK HUBBARD_U
Fe d:4.0
%ENDBLOCK HUBBARD_U

SNAP_TO_SYMMETRY
SYMMETRY_GENERATE

