#              Generated by Buildcell
#
# at 05:57:25 (GMT+0.0) 24th November 2020
# in /lustre/scratch/uccabz1/launch_tmp
# on node-c12f-031
# by uccabz1
#
# compiler GCC version 4.9.2
# options -cpp -iprefix /lustre/shared/ucl/apps/gcc/4.9.2/bin/../lib/gcc/x86_64-unknown-linux-gnu/4.9.2/ -mtune=corei7 -march=x86-64 -g -Og
#
# seed -1905726707  1778201340 -1264235455 -1189047230  1461635805 -1408389959 -1034170705 -1936977355   740613083 -1024443227    67770933  -856899710
#
#      Author: C. J. Pickard (cjp20@cam.ac.uk)
#                Space group: Cmc21
#

%BLOCK LATTICE_ABC
      4.68714      4.68714      7.79711
     90.00000     90.00000    110.92504
%ENDBLOCK LATTICE_ABC

%BLOCK POSITIONS_FRAC
  Li  -0.1510120   0.1510120  -0.0858384 SPIN=   0.00000
  Li   0.1510120  -0.1510120   0.4141616 SPIN=   0.00000
   O   0.3085505   0.2267035  -0.1476378 SPIN=   0.00000
   O   0.5066478  -0.0185437   0.1025064 SPIN=   0.00000
   O  -0.3085505  -0.2267035   0.3523622 SPIN=   0.00000
   O  -0.5066478   0.0185437   0.6025064 SPIN=   0.00000
   O   0.2267035   0.3085505   0.3523622 SPIN=   0.00000
   O  -0.0185437   0.5066478   0.6025064 SPIN=   0.00000
   O  -0.2267035  -0.3085505  -0.1476378 SPIN=   0.00000
   O   0.0185437  -0.5066478   0.1025064 SPIN=   0.00000
   P  -0.1715743   0.1715743   0.2830016 SPIN=   0.00000
   P   0.1715743  -0.1715743  -0.2169984 SPIN=   0.00000
  Fe   0.4739334  -0.4739334   0.1350036 SPIN=   4.00000
  Fe  -0.4739334   0.4739334  -0.3649964 SPIN=   4.00000
%ENDBLOCK POSITIONS_FRAC

# Note: total spin =   8.00

KPOINTS_MP_SPACING 0.07

%BLOCK SPECIES_POT
QC5
%ENDBLOCK SPECIES_POT

%BLOCK HUBBARD_U
Fe d:4.0
%ENDBLOCK HUBBARD_U

SNAP_TO_SYMMETRY
SYMMETRY_GENERATE

