#              Generated by Buildcell
#
# at 00:24:09 (GMT+0.0) 24th November 2020
# in /scratch/scratch/uccabz1/launch_tmp
# on node-a14f-013
# by uccabz1
#
# compiler GCC version 4.9.2
# options -cpp -iprefix /scratch/UCL/applications/gcc/4.9.2/bin/../lib/gcc/x86_64-unknown-linux-gnu/4.9.2/ -mtune=corei7 -march=x86-64 -g -O2
#
# seed   647807384 -1417163480    90053117  2090830188   792265616  1891615200 -1436573996  1287536496  1585657198 -2072418362  -179072192  2115615880
#
#      Author: C. J. Pickard (cjp20@cam.ac.uk)
#                Space group: Aea2
#

%BLOCK LATTICE_ABC
      5.64214      5.64244      5.76354
    119.30735     90.00000     90.00000
%ENDBLOCK LATTICE_ABC

%BLOCK POSITIONS_FRAC
  Li  -0.5000000  -0.2399891  -0.4799781 SPIN=   0.00000
  Li   0.0000000   0.2600109   0.5200219 SPIN=   0.00000
   O   0.1567246  -0.3921137  -0.4742290 SPIN=   0.00000
   O   0.1720922  -0.3692730  -0.0131805 SPIN=   0.00000
   O  -0.1567246  -0.0821153  -0.4742290 SPIN=   0.00000
   O  -0.1720922   0.3560925  -0.0131805 SPIN=   0.00000
   O  -0.3432754  -0.5821153  -0.4742290 SPIN=   0.00000
   O  -0.3279078  -0.1439075  -0.0131805 SPIN=   0.00000
   O   0.3432754   0.1078863  -0.4742290 SPIN=   0.00000
   O   0.3279078   0.1307270  -0.0131805 SPIN=   0.00000
   P   0.0000000  -0.4031421  -0.8062843 SPIN=   0.00000
   P  -0.5000000   0.0968579   0.1937157 SPIN=   0.00000
  Fe   0.0000000  -0.0684921  -0.1369842 SPIN=   4.00000
  Fe  -0.5000000   0.4315079   0.8630158 SPIN=   4.00000
%ENDBLOCK POSITIONS_FRAC

# Note: total spin =   8.00

KPOINTS_MP_SPACING 0.07

%BLOCK SPECIES_POT
QC5
%ENDBLOCK SPECIES_POT

%BLOCK HUBBARD_U
Fe d:4.0
%ENDBLOCK HUBBARD_U

SNAP_TO_SYMMETRY
SYMMETRY_GENERATE

