#              Generated by Buildcell
#
# at 01:02:52 (GMT+0.0) 24th November 2020
# in /lustre/scratch/uccabz1/launch_tmp
# on node-c12i-035
# by uccabz1
#
# compiler GCC version 4.9.2
# options -cpp -iprefix /lustre/shared/ucl/apps/gcc/4.9.2/bin/../lib/gcc/x86_64-unknown-linux-gnu/4.9.2/ -mtune=corei7 -march=x86-64 -g -Og
#
# seed  1105416545  -125896090  1771345870   -35715317  -444466552 -1942225846   311030726 -1945715565   248016680  1479376428 -1933281883 -1392478058
#
#      Author: C. J. Pickard (cjp20@cam.ac.uk)
#                Space group: Pcc2
#

%BLOCK LATTICE_ABC
      4.04262      5.05671      7.82689
     90.00000     90.00000     90.00000
%ENDBLOCK LATTICE_ABC

%BLOCK POSITIONS_FRAC
  Li   0.0000000  -0.5000000  -0.1891858 SPIN=   0.00000
  Li   0.0000000   0.5000000   0.3108142 SPIN=   0.00000
   O  -0.2471835  -0.1438482  -0.3192704 SPIN=   0.00000
   O  -0.2369404   0.3045651  -0.4812198 SPIN=   0.00000
   O   0.2471835   0.1438482  -0.3192704 SPIN=   0.00000
   O   0.2369404  -0.3045651  -0.4812198 SPIN=   0.00000
   O  -0.2471835   0.1438482   0.1807296 SPIN=   0.00000
   O  -0.2369404  -0.3045651   0.0187802 SPIN=   0.00000
   O   0.2471835  -0.1438482   0.1807296 SPIN=   0.00000
   O   0.2369404   0.3045651   0.0187802 SPIN=   0.00000
   P  -0.5000000  -0.5000000   0.0842383 SPIN=   0.00000
   P  -0.5000000  -0.5000000  -0.4157617 SPIN=   0.00000
  Fe   0.5000000   0.0000000  -0.1027043 SPIN=   4.00000
  Fe  -0.5000000   0.0000000   0.3972957 SPIN=   4.00000
%ENDBLOCK POSITIONS_FRAC

# Note: total spin =   8.00

KPOINTS_MP_SPACING 0.07

%BLOCK SPECIES_POT
QC5
%ENDBLOCK SPECIES_POT

%BLOCK HUBBARD_U
Fe d:4.0
%ENDBLOCK HUBBARD_U

SNAP_TO_SYMMETRY
SYMMETRY_GENERATE

