#              Generated by Buildcell
#
# at 04:18:43 (GMT+0.0) 24th November 2020
# in /lustre/scratch/uccabz1/launch_tmp
# on node-c12g-028
# by uccabz1
#
# compiler GCC version 4.9.2
# options -cpp -iprefix /lustre/shared/ucl/apps/gcc/4.9.2/bin/../lib/gcc/x86_64-unknown-linux-gnu/4.9.2/ -mtune=corei7 -march=x86-64 -g -Og
#
# seed -1864827593 -1080261598   930106320 -1729477535  1088785046 -2071824743   690252576  -554583223  1651138934  1589368684   853044562 -1093718231
#
#      Author: C. J. Pickard (cjp20@cam.ac.uk)
#                Space group: Pm
#

%BLOCK LATTICE_ABC
      3.96882      4.23565      9.74078
     90.00000     90.00000    102.28237
%ENDBLOCK LATTICE_ABC

%BLOCK POSITIONS_FRAC
  Li  -0.2101162   0.2280034  -0.2971457 SPIN=   0.00000
  Li  -0.2101162   0.2280034   0.2971457 SPIN=   0.00000
   O   0.4467001  -0.4786283  -0.3510911 SPIN=   0.00000
   O   0.6622447  -0.1757932  -0.1252441 SPIN=   0.00000
   O   0.1951860  -0.0057359  -0.2541968 SPIN=   0.00000
   O   0.0743586  -0.5372794  -0.1313344 SPIN=   0.00000
   P   0.3468681  -0.3117121  -0.2216951 SPIN=   0.00000
   O   0.4467001  -0.4786283   0.3510911 SPIN=   0.00000
   O   0.6622447  -0.1757932   0.1252441 SPIN=   0.00000
   O   0.1951860  -0.0057359   0.2541968 SPIN=   0.00000
   O   0.0743586  -0.5372794   0.1313344 SPIN=   0.00000
   P   0.3468681  -0.3117121   0.2216951 SPIN=   0.00000
  Fe   0.1939330  -0.1909973  -0.5000000 SPIN=   5.39292
  Fe   0.3859707   0.2416583   0.0000000 SPIN=   2.60708
%ENDBLOCK POSITIONS_FRAC

# Note: total spin =   8.00

KPOINTS_MP_SPACING 0.07

%BLOCK SPECIES_POT
QC5
%ENDBLOCK SPECIES_POT

%BLOCK HUBBARD_U
Fe d:4.0
%ENDBLOCK HUBBARD_U

SNAP_TO_SYMMETRY
SYMMETRY_GENERATE

