#              Generated by Buildcell
#
# at 01:11:28 (GMT+0.0) 24th November 2020
# in /lustre/scratch/uccabz1/launch_tmp
# on node-c12i-025
# by uccabz1
#
# compiler GCC version 4.9.2
# options -cpp -iprefix /lustre/shared/ucl/apps/gcc/4.9.2/bin/../lib/gcc/x86_64-unknown-linux-gnu/4.9.2/ -mtune=corei7 -march=x86-64 -g -Og
#
# seed  -342373804  -552111761  1446914731  -997799310  1658714753  1780074797    57527597 -2000757790 -1500014645 -1626741664   869312767  -878474198
#
#      Author: C. J. Pickard (cjp20@cam.ac.uk)
#                Space group: Cm
#

%BLOCK LATTICE_ABC
      4.29167      6.45956      6.45956
     91.84713    108.16472    108.16472
%ENDBLOCK LATTICE_ABC

%BLOCK POSITIONS_FRAC
  Li   0.0587611   0.3856297  -0.2648269 SPIN=   0.00000
  Li   0.0587611  -0.2648269   0.3856297 SPIN=   0.00000
   O  -0.3952523  -0.5452586  -0.2795606 SPIN=   0.00000
   O  -0.0985492  -0.6137406   0.1163071 SPIN=   0.00000
   O   0.0429059  -0.2311730   0.0347641 SPIN=   0.00000
   O  -0.5488691  -0.4302938   0.0525066 SPIN=   0.00000
   P  -0.2612059  -0.4596232  -0.0320257 SPIN=   0.00000
   O  -0.3952523  -0.2795606  -0.5452586 SPIN=   0.00000
   O  -0.0985492   0.1163071  -0.6137406 SPIN=   0.00000
   O   0.0429059   0.0347641  -0.2311730 SPIN=   0.00000
   O  -0.5488691   0.0525066  -0.4302938 SPIN=   0.00000
   P  -0.2612059  -0.0320257  -0.4596232 SPIN=   0.00000
  Fe   0.3368683   0.3223639   0.3223639 SPIN=   3.17470
  Fe  -0.5432278  -0.0836388  -0.0836388 SPIN=   4.82530
%ENDBLOCK POSITIONS_FRAC

# Note: total spin =   8.00

KPOINTS_MP_SPACING 0.07

%BLOCK SPECIES_POT
QC5
%ENDBLOCK SPECIES_POT

%BLOCK HUBBARD_U
Fe d:4.0
%ENDBLOCK HUBBARD_U

SNAP_TO_SYMMETRY
SYMMETRY_GENERATE

