#              Generated by Buildcell
#
# at 04:35:48 (GMT+0.0) 24th November 2020
# in /lustre/scratch/uccabz1/launch_tmp
# on node-c12i-030
# by uccabz1
#
# compiler GCC version 4.9.2
# options -cpp -iprefix /lustre/shared/ucl/apps/gcc/4.9.2/bin/../lib/gcc/x86_64-unknown-linux-gnu/4.9.2/ -mtune=corei7 -march=x86-64 -g -Og
#
# seed -1915463146 -1746002350  -864182011   782934681    -9179921   137547270  1500647388  -946627022 -1284778959  1864799187  1558445415 -1798603944
#
#      Author: C. J. Pickard (cjp20@cam.ac.uk)
#                Space group: P-1
#

%BLOCK LATTICE_ABC
      5.01839      5.62498      6.16067
     78.15800     70.06055     85.79153
%ENDBLOCK LATTICE_ABC

%BLOCK POSITIONS_FRAC
  Li   0.0888973   0.2348863   0.0412068 SPIN=   0.00000
  Li  -0.0888973  -0.2348863  -0.0412068 SPIN=   0.00000
   O   0.3177433  -0.4368108  -0.2875642 SPIN=   0.00000
   O   0.4720104  -0.2856277   0.0227272 SPIN=   0.00000
   O   0.8051825  -0.2356403  -0.3850895 SPIN=   0.00000
   O   0.3648549   0.0192749  -0.2952275 SPIN=   0.00000
   P   0.4793024  -0.2424651  -0.2397142 SPIN=   0.00000
   O  -0.3177433   0.4368108   0.2875642 SPIN=   0.00000
   O  -0.4720104   0.2856277  -0.0227272 SPIN=   0.00000
   O  -0.8051825   0.2356403   0.3850895 SPIN=   0.00000
   O  -0.3648549  -0.0192749   0.2952275 SPIN=   0.00000
   P  -0.4793024   0.2424651   0.2397142 SPIN=   0.00000
  Fe   0.2820733  -0.2396739   0.3723696 SPIN=   4.00000
  Fe  -0.2820733   0.2396739  -0.3723696 SPIN=   4.00000
%ENDBLOCK POSITIONS_FRAC

# Note: total spin =   8.00

KPOINTS_MP_SPACING 0.07

%BLOCK SPECIES_POT
QC5
%ENDBLOCK SPECIES_POT

%BLOCK HUBBARD_U
Fe d:4.0
%ENDBLOCK HUBBARD_U

SNAP_TO_SYMMETRY
SYMMETRY_GENERATE

