#              Generated by Buildcell
#
# at 05:49:16 (GMT+0.0) 24th November 2020
# in /lustre/scratch/uccabz1/launch_tmp
# on node-c12i-033
# by uccabz1
#
# compiler GCC version 4.9.2
# options -cpp -iprefix /lustre/shared/ucl/apps/gcc/4.9.2/bin/../lib/gcc/x86_64-unknown-linux-gnu/4.9.2/ -mtune=corei7 -march=x86-64 -g -Og
#
# seed   697325266 -1215659027  1755244180   875464792   403173201  1992849744  1839057548  -619217333   844766589  -591449081   564239689  -290181934
#
#      Author: C. J. Pickard (cjp20@cam.ac.uk)
#                Space group: Cc
#

%BLOCK LATTICE_ABC
      3.82733      5.90616      7.48868
     89.20207     87.53665     71.09429
%ENDBLOCK LATTICE_ABC

%BLOCK POSITIONS_FRAC
  Li  -0.3898667  -0.2051811   0.3550460 SPIN=   0.00000
  Li  -0.0950478   0.2051811  -0.1449540 SPIN=   0.00000
   O   0.5933559   0.1494538  -0.5987849 SPIN=   0.00000
   O   0.1455765  -0.0358014  -0.4284367 SPIN=   0.00000
   O   0.4071897   0.2252850  -0.2617157 SPIN=   0.00000
   O  -0.0641705   0.4047848  -0.4898312 SPIN=   0.00000
   P   0.2837297   0.1865710  -0.4534295 SPIN=   0.00000
   O   0.2428096  -0.1494538  -0.0987849 SPIN=   0.00000
   O  -0.3902249   0.0358014   0.0715633 SPIN=   0.00000
   O   0.1324747  -0.2252850   0.2382843 SPIN=   0.00000
   O  -0.1593857  -0.4047848   0.0101688 SPIN=   0.00000
   P  -0.0296993  -0.1865710   0.0465705 SPIN=   0.00000
  Fe   0.1648165  -0.3569727  -0.3068587 SPIN=   4.00000
  Fe   0.3078437   0.3569727   0.1931413 SPIN=   4.00000
%ENDBLOCK POSITIONS_FRAC

# Note: total spin =   8.00

KPOINTS_MP_SPACING 0.07

%BLOCK SPECIES_POT
QC5
%ENDBLOCK SPECIES_POT

%BLOCK HUBBARD_U
Fe d:4.0
%ENDBLOCK HUBBARD_U

SNAP_TO_SYMMETRY
SYMMETRY_GENERATE

