#              Generated by Buildcell
#
# at 01:52:38 (GMT+0.0) 24th November 2020
# in /scratch/scratch/uccabz1/launch_tmp
# on node-a14e-012
# by uccabz1
#
# compiler GCC version 4.9.2
# options -cpp -iprefix /scratch/UCL/applications/gcc/4.9.2/bin/../lib/gcc/x86_64-unknown-linux-gnu/4.9.2/ -mtune=corei7 -march=x86-64 -g -O2
#
# seed   -10291143 -1942225846   449041890  2061007770   694333496  -194625982   439935708  2106704158   841609000  1815971895 -1776065372   612371148
#
#      Author: C. J. Pickard (cjp20@cam.ac.uk)
#                Space group: P2
#

%BLOCK LATTICE_ABC
      3.84075      4.78891      8.86746
     90.00000    101.18763     90.00000
%ENDBLOCK LATTICE_ABC

%BLOCK POSITIONS_FRAC
  Li  -0.0000000  -0.1985185  -0.5000000 SPIN=   0.00000
  Li   0.5000000   0.2934648   0.5000000 SPIN=   0.00000
   O  -0.5789863  -0.3205561   0.3593607 SPIN=   0.00000
   O  -0.5979942   0.1938536   0.2650308 SPIN=   0.00000
   O  -0.1194805  -0.1121831   0.2107353 SPIN=   0.00000
   P  -0.5166045  -0.1196975   0.2319253 SPIN=   0.00000
   O   0.5789863  -0.3205561  -0.3593607 SPIN=   0.00000
   O   0.5979942   0.1938536  -0.2650308 SPIN=   0.00000
   O   0.1194805  -0.1121831  -0.2107353 SPIN=   0.00000
   P   0.5166045  -0.1196975  -0.2319253 SPIN=   0.00000
   O  -0.5000000  -0.3629778  -0.0000000 SPIN=   0.00000
   O   0.5000000   0.1382880   0.0000000 SPIN=   0.00000
  Fe  -0.1358284   0.3810543   0.1978060 SPIN=   4.00000
  Fe   0.1358284   0.3810543  -0.1978060 SPIN=   4.00000
%ENDBLOCK POSITIONS_FRAC

# Note: total spin =   8.00

KPOINTS_MP_SPACING 0.07

%BLOCK SPECIES_POT
QC5
%ENDBLOCK SPECIES_POT

%BLOCK HUBBARD_U
Fe d:4.0
%ENDBLOCK HUBBARD_U

SNAP_TO_SYMMETRY
SYMMETRY_GENERATE

