#              Generated by Buildcell
#
# at 23:12:39 (GMT+0.0) 23rd November 2020
# in /lustre/scratch/uccabz1/launch_tmp
# on node-c12c-035
# by uccabz1
#
# compiler GCC version 4.9.2
# options -cpp -iprefix /lustre/shared/ucl/apps/gcc/4.9.2/bin/../lib/gcc/x86_64-unknown-linux-gnu/4.9.2/ -mtune=corei7 -march=x86-64 -g -Og
#
# seed   428719010 -1292767628  -818339159  -898863810  1583467943   814053592 -1817542702   437617962    77428445   837392886  1347160135 -1825707552
#
#      Author: C. J. Pickard (cjp20@cam.ac.uk)
#                Space group: Pc
#

%BLOCK LATTICE_ABC
      4.69438      5.82171      6.39546
    113.73497     90.00000     90.00000
%ENDBLOCK LATTICE_ABC

%BLOCK POSITIONS_FRAC
  Li  -0.2831358  -0.1997926  -0.2112209 SPIN=   0.00000
  Li   0.2831358   0.3002074   0.2887791 SPIN=   0.00000
   O  -0.3343351   0.0268883  -0.4749847 SPIN=   0.00000
   O  -0.0850370   0.4464854  -0.2248634 SPIN=   0.00000
   O  -0.1555738   0.3466113  -0.6350209 SPIN=   0.00000
   O  -0.5768080   0.4568872  -0.3725941 SPIN=   0.00000
   P  -0.2938178   0.3052776  -0.4287874 SPIN=   0.00000
   O   0.3343351  -0.4731117   0.0250153 SPIN=   0.00000
   O   0.0850370  -0.0535146   0.2751366 SPIN=   0.00000
   O   0.1555738  -0.1533887  -0.1350209 SPIN=   0.00000
   O   0.5768080  -0.0431128   0.1274059 SPIN=   0.00000
   P   0.2938178  -0.1947224   0.0712126 SPIN=   0.00000
  Fe   0.2123050   0.1671311  -0.2582390 SPIN=   4.00000
  Fe  -0.2123050  -0.3328689   0.2417610 SPIN=   4.00000
%ENDBLOCK POSITIONS_FRAC

# Note: total spin =   8.00

KPOINTS_MP_SPACING 0.07

%BLOCK SPECIES_POT
QC5
%ENDBLOCK SPECIES_POT

%BLOCK HUBBARD_U
Fe d:4.0
%ENDBLOCK HUBBARD_U

SNAP_TO_SYMMETRY
SYMMETRY_GENERATE

