#              Generated by Buildcell
#
# at 23:49:28 (GMT+0.0) 23rd November 2020
# in /scratch/scratch/uccabz1/launch_tmp
# on node-k10b-011
# by uccabz1
#
# compiler GCC version 4.9.2
# options -cpp -iprefix /scratch/UCL/applications/gcc/4.9.2/bin/../lib/gcc/x86_64-unknown-linux-gnu/4.9.2/ -mtune=corei7 -march=x86-64 -g -O2
#
# seed  1120286048   416046233  2120405590 -1211308971 -1461749610  1310523985  1486660717   338239232 -2036375044 -1597576770 -1778969002  -836451280
#
#      Author: C. J. Pickard (cjp20@cam.ac.uk)
#                Space group: Cc
#

%BLOCK LATTICE_ABC
      5.31759      5.84296      6.35155
    108.40462    105.07705    110.15536
%ENDBLOCK LATTICE_ABC

%BLOCK POSITIONS_FRAC
  Li  -0.3476082   0.4727793  -0.2345045 SPIN=   0.00000
  Li   0.3868964  -0.2927162   0.2345045 SPIN=   0.00000
   O   0.5982308  -0.2501751  -0.4091148 SPIN=   0.00000
   O   0.0938189  -0.4207027  -0.3802734 SPIN=   0.00000
   O   0.5468687  -0.1592429   0.0013628 SPIN=   0.00000
   O   0.4004992   0.0788584  -0.2358855 SPIN=   0.00000
   P   0.4197741  -0.1879889  -0.2638944 SPIN=   0.00000
   O   0.5073456   0.1589397   0.4091148 SPIN=   0.00000
   O  -0.0259077  -0.0404293   0.3802734 SPIN=   0.00000
   O   0.0455059  -0.1606057  -0.0013628 SPIN=   0.00000
   O   0.1363847   0.3147439   0.2358855 SPIN=   0.00000
   P   0.1836685   0.0759055   0.2638944 SPIN=   0.00000
  Fe   0.0028811   0.1005865  -0.2621935 SPIN=   4.00000
  Fe  -0.2349254   0.3627800   0.2621935 SPIN=   4.00000
%ENDBLOCK POSITIONS_FRAC

# Note: total spin =   8.00

KPOINTS_MP_SPACING 0.07

%BLOCK SPECIES_POT
QC5
%ENDBLOCK SPECIES_POT

%BLOCK HUBBARD_U
Fe d:4.0
%ENDBLOCK HUBBARD_U

SNAP_TO_SYMMETRY
SYMMETRY_GENERATE

