#              Generated by Buildcell
#
# at 23:30:36 (GMT+0.0) 23rd November 2020
# in /lustre/scratch/uccabz1/launch_tmp
# on node-c12e-033
# by uccabz1
#
# compiler GCC version 4.9.2
# options -cpp -iprefix /lustre/shared/ucl/apps/gcc/4.9.2/bin/../lib/gcc/x86_64-unknown-linux-gnu/4.9.2/ -mtune=corei7 -march=x86-64 -g -Og
#
# seed   277007765 -1369741563  -737172100 -1961773327  1273904674   569028949  -530719577   445961072  2005942491 -1999570575  1950486242  1711458538
#
#      Author: C. J. Pickard (cjp20@cam.ac.uk)
#                Space group: P-1
#

%BLOCK LATTICE_ABC
      4.15275      6.03515      6.95073
     68.19205     82.08612     84.45979
%ENDBLOCK LATTICE_ABC

%BLOCK POSITIONS_FRAC
  Li   0.4781708  -0.7185588   0.2568035 SPIN=   0.00000
  Li  -0.4781708   0.7185588  -0.2568035 SPIN=   0.00000
   O   0.3250451   0.3714584  -0.0396426 SPIN=   0.00000
   O  -0.1899588   0.1211454   0.0767343 SPIN=   0.00000
   O   0.2916580  -0.0377083   0.2679525 SPIN=   0.00000
   O  -0.0325868   0.3176164   0.3079920 SPIN=   0.00000
   O  -0.3250451  -0.3714584   0.0396426 SPIN=   0.00000
   O   0.1899588  -0.1211454  -0.0767343 SPIN=   0.00000
   O  -0.2916580   0.0377083  -0.2679525 SPIN=   0.00000
   O   0.0325868  -0.3176164  -0.3079920 SPIN=   0.00000
   P   1.0000000  -0.5000000   0.0000000 SPIN=   0.00000
   P   0.0000000   1.0000000  -0.5000000 SPIN=   0.00000
  Fe   0.2149047   0.2419320  -0.2638266 SPIN=   4.00000
  Fe  -0.2149047  -0.2419320   0.2638266 SPIN=   4.00000
%ENDBLOCK POSITIONS_FRAC

# Note: total spin =   8.00

KPOINTS_MP_SPACING 0.07

%BLOCK SPECIES_POT
QC5
%ENDBLOCK SPECIES_POT

%BLOCK HUBBARD_U
Fe d:4.0
%ENDBLOCK HUBBARD_U

SNAP_TO_SYMMETRY
SYMMETRY_GENERATE

