#              Generated by Buildcell
#
# at 21:08:55 (GMT+0.0) 23rd November 2020
# in /lustre/scratch/uccabz1/launch_tmp
# on node-c12l-023
# by uccabz1
#
# compiler GCC version 4.9.2
# options -cpp -iprefix /lustre/shared/ucl/apps/gcc/4.9.2/bin/../lib/gcc/x86_64-unknown-linux-gnu/4.9.2/ -mtune=corei7 -march=x86-64 -g -Og
#
# seed  -716522866   725558237  -166785415   786224113  2015957997   676095454  -569114448  -227509345  -869941507  1867864887  -659016645 -1340164899
#
#      Author: C. J. Pickard (cjp20@cam.ac.uk)
#                Space group: P-4
#

%BLOCK LATTICE_ABC
      5.29373      5.49768      5.49768
     90.00000     90.00000     90.00000
%ENDBLOCK LATTICE_ABC

%BLOCK POSITIONS_FRAC
  Li  -0.3335202   0.5000000   0.0000000 SPIN=   0.00000
  Li   0.3335202   0.0000000   0.5000000 SPIN=   0.00000
   O   0.3877879   0.2534381  -0.1134977 SPIN=   0.00000
   O  -0.0030844   0.3424270   0.1580772 SPIN=   0.00000
   O   0.3877879  -0.2534381   0.1134977 SPIN=   0.00000
   O  -0.0030844  -0.3424270  -0.1580772 SPIN=   0.00000
   O  -0.3877879  -0.1134977  -0.2534381 SPIN=   0.00000
   O   0.0030844   0.1580772  -0.3424270 SPIN=   0.00000
   O  -0.3877879   0.1134977   0.2534381 SPIN=   0.00000
   O   0.0030844  -0.1580772   0.3424270 SPIN=   0.00000
   P  -0.1694283   0.0000000  -0.5000000 SPIN=   0.00000
   P   0.1694283   0.5000000   0.0000000 SPIN=   0.00000
  Fe  -0.0000000   0.0000000   0.0000000 SPIN=   1.60382
  Fe   0.0000000  -0.5000000   0.5000000 SPIN=   6.39618
%ENDBLOCK POSITIONS_FRAC

# Note: total spin =   8.00

KPOINTS_MP_SPACING 0.07

%BLOCK SPECIES_POT
QC5
%ENDBLOCK SPECIES_POT

%BLOCK HUBBARD_U
Fe d:4.0
%ENDBLOCK HUBBARD_U

SNAP_TO_SYMMETRY
SYMMETRY_GENERATE

