#              Generated by Buildcell
#
# at 01:43:03 (GMT+0.0) 24th November 2020
# in /lustre/scratch/uccabz1/launch_tmp
# on node-c12n-028
# by uccabz1
#
# compiler GCC version 4.9.2
# options -cpp -iprefix /lustre/shared/ucl/apps/gcc/4.9.2/bin/../lib/gcc/x86_64-unknown-linux-gnu/4.9.2/ -mtune=corei7 -march=x86-64 -g -Og
#
# seed -1394074502  -665515954    12501294  2012840724    54783610  -144728805  -221139363   450880875  1199217459  -729803982   936679175 -1725810014
#
#      Author: C. J. Pickard (cjp20@cam.ac.uk)
#                Space group: C2/m
#

%BLOCK LATTICE_ABC
      3.84854      3.84854     10.98718
     82.57315     82.57315     88.26325
%ENDBLOCK LATTICE_ABC

%BLOCK POSITIONS_FRAC
  Li   0.0000000   0.0000000  -0.0000000 SPIN=   0.00000
  Li   0.5000000   0.5000000   0.5000000 SPIN=   0.00000
   O  -0.2841668   0.2090168   0.3380699 SPIN=   0.00000
   O  -0.0558784   0.4793668   0.1139888 SPIN=   0.00000
   O  -0.2090168   0.2841668  -0.3380699 SPIN=   0.00000
   O  -0.4793668   0.0558784  -0.1139888 SPIN=   0.00000
   O   0.2841668  -0.2090168  -0.3380699 SPIN=   0.00000
   O   0.0558784  -0.4793668  -0.1139888 SPIN=   0.00000
   O   0.2090168  -0.2841668   0.3380699 SPIN=   0.00000
   O   0.4793668  -0.0558784   0.1139888 SPIN=   0.00000
   P   0.5000000   0.5000000  -0.0000000 SPIN=   0.00000
   P   0.0000000   0.0000000   0.5000000 SPIN=   0.00000
  Fe  -0.2497370  -0.2497370  -0.2500096 SPIN=   4.00000
  Fe   0.2497370   0.2497370   0.2500096 SPIN=   4.00000
%ENDBLOCK POSITIONS_FRAC

# Note: total spin =   8.00

KPOINTS_MP_SPACING 0.07

%BLOCK SPECIES_POT
QC5
%ENDBLOCK SPECIES_POT

%BLOCK HUBBARD_U
Fe d:4.0
%ENDBLOCK HUBBARD_U

SNAP_TO_SYMMETRY
SYMMETRY_GENERATE

