#              Generated by Buildcell
#
# at 00:59:42 (GMT+0.0) 24th November 2020
# in /lustre/scratch/uccabz1/launch_tmp
# on node-c12g-032
# by uccabz1
#
# compiler GCC version 4.9.2
# options -cpp -iprefix /lustre/shared/ucl/apps/gcc/4.9.2/bin/../lib/gcc/x86_64-unknown-linux-gnu/4.9.2/ -mtune=corei7 -march=x86-64 -g -Og
#
# seed  1034429314  2106704158 -1444633452 -1547782429  1945406114  -394979872  1717437593  -407000537  -152780690  -211906145  1638597148    47441272
#
#      Author: C. J. Pickard (cjp20@cam.ac.uk)
#                Space group: P-1
#

%BLOCK LATTICE_ABC
      4.26253      6.26913      6.60234
    102.53862    100.57635    105.88772
%ENDBLOCK LATTICE_ABC

%BLOCK POSITIONS_FRAC
  Li   0.0959715  -0.0693633  -0.2675516 SPIN=   0.00000
  Li  -0.0959715   0.0693633   0.2675516 SPIN=   0.00000
   O   0.0705584   0.1960353  -0.0207029 SPIN=   0.00000
   O   0.6187660   0.5354437   0.1940707 SPIN=   0.00000
   O   0.4336909   0.2104699   0.3471314 SPIN=   0.00000
   P   0.4286157   0.2674779   0.1262336 SPIN=   0.00000
   O  -0.0705584  -0.1960353   0.0207029 SPIN=   0.00000
   O  -0.6187660  -0.5354437  -0.1940707 SPIN=   0.00000
   O  -0.4336909  -0.2104699  -0.3471314 SPIN=   0.00000
   P  -0.4286157  -0.2674779  -0.1262336 SPIN=   0.00000
   O   0.0000000   0.5000000  -0.5000000 SPIN=   0.00000
   O   0.5000000  -0.0000000   0.0000000 SPIN=   0.00000
  Fe  -0.2496860   0.3380463  -0.2971614 SPIN=   4.00000
  Fe   0.2496860  -0.3380463   0.2971614 SPIN=   4.00000
%ENDBLOCK POSITIONS_FRAC

# Note: total spin =   8.00

KPOINTS_MP_SPACING 0.07

%BLOCK SPECIES_POT
QC5
%ENDBLOCK SPECIES_POT

%BLOCK HUBBARD_U
Fe d:4.0
%ENDBLOCK HUBBARD_U

SNAP_TO_SYMMETRY
SYMMETRY_GENERATE

