#              Generated by Buildcell
#
# at 00:54:49 (GMT+0.0) 24th November 2020
# in /scratch/scratch/uccabz1/launch_tmp
# on node-a14e-019
# by uccabz1
#
# compiler GCC version 4.9.2
# options -cpp -iprefix /scratch/UCL/applications/gcc/4.9.2/bin/../lib/gcc/x86_64-unknown-linux-gnu/4.9.2/ -mtune=corei7 -march=x86-64 -g -O2
#
# seed   991747246   204885797   487453689   650928228  -479672580   498456650   719785161  -881979504  1736573971 -1318437358 -1674033179 -1900603374
#
#      Author: C. J. Pickard (cjp20@cam.ac.uk)
#                Space group: C2
#

%BLOCK LATTICE_ABC
      4.69025      4.69025      7.30397
     93.59895     93.59895     91.09024
%ENDBLOCK LATTICE_ABC

%BLOCK POSITIONS_FRAC
  Li   0.4597918  -0.4597918   0.0000000 SPIN=   0.00000
  Li   0.3091313  -0.3091313   0.5000000 SPIN=   0.00000
   O   0.4194188  -0.0969734  -0.1982620 SPIN=   0.00000
   O   0.5679501   0.4160811  -0.2754891 SPIN=   0.00000
   O   0.2393721   0.1331598  -0.4973656 SPIN=   0.00000
   O   0.0651711   0.3179957  -0.1961738 SPIN=   0.00000
   P   0.3250707   0.1786295  -0.2857122 SPIN=   0.00000
   O   0.0969734  -0.4194188   0.1982620 SPIN=   0.00000
   O  -0.4160811  -0.5679501   0.2754891 SPIN=   0.00000
   O  -0.1331598  -0.2393721   0.4973656 SPIN=   0.00000
   O  -0.3179957  -0.0651711   0.1961738 SPIN=   0.00000
   P  -0.1786295  -0.3250707   0.2857122 SPIN=   0.00000
  Fe  -0.2002410   0.2002410   0.5000000 SPIN=   7.12954
  Fe  -0.0280863   0.0280863   0.0000000 SPIN=   0.87046
%ENDBLOCK POSITIONS_FRAC

# Note: total spin =   8.00

KPOINTS_MP_SPACING 0.07

%BLOCK SPECIES_POT
QC5
%ENDBLOCK SPECIES_POT

%BLOCK HUBBARD_U
Fe d:4.0
%ENDBLOCK HUBBARD_U

SNAP_TO_SYMMETRY
SYMMETRY_GENERATE

