#              Generated by Buildcell
#
# at 23:45:41 (GMT+0.0) 23rd November 2020
# in /lustre/scratch/uccabz1/launch_tmp
# on node-c12c-030
# by uccabz1
#
# compiler GCC version 4.9.2
# options -cpp -iprefix /lustre/shared/ucl/apps/gcc/4.9.2/bin/../lib/gcc/x86_64-unknown-linux-gnu/4.9.2/ -mtune=corei7 -march=x86-64 -g -Og
#
# seed -1873904257   629409298 -1917321436 -1419467183 -1547631825   931005053  1716458684   168466327   481918934 -1452053968  1894541821  -558724021
#
#      Author: C. J. Pickard (cjp20@cam.ac.uk)
#                Space group: P-1
#

%BLOCK LATTICE_ABC
      4.19623      6.27828      6.70943
     71.98207     72.26248     86.44817
%ENDBLOCK LATTICE_ABC

%BLOCK POSITIONS_FRAC
  Li  -0.4685794  -0.2502120   0.4664288 SPIN=   0.00000
  Li   0.4685794   0.2502120  -0.4664288 SPIN=   0.00000
   O  -0.2817267  -0.3691947   0.1919522 SPIN=   0.00000
   O   0.3420091  -0.2813048  -0.0409126 SPIN=   0.00000
   O   0.1499159  -0.2002249   0.3137415 SPIN=   0.00000
   O   0.1980731  -0.5988157   0.3105142 SPIN=   0.00000
   P   0.0827657  -0.3655378   0.1951012 SPIN=   0.00000
   O   0.2817267   0.3691947  -0.1919522 SPIN=   0.00000
   O  -0.3420091   0.2813048   0.0409126 SPIN=   0.00000
   O  -0.1499159   0.2002249  -0.3137415 SPIN=   0.00000
   O  -0.1980731   0.5988157  -0.3105142 SPIN=   0.00000
   P  -0.0827657   0.3655378  -0.1951012 SPIN=   0.00000
  Fe  -0.1528905  -0.1489325  -0.1747819 SPIN=   4.00000
  Fe   0.1528905   0.1489325   0.1747819 SPIN=   4.00000
%ENDBLOCK POSITIONS_FRAC

# Note: total spin =   8.00

KPOINTS_MP_SPACING 0.07

%BLOCK SPECIES_POT
QC5
%ENDBLOCK SPECIES_POT

%BLOCK HUBBARD_U
Fe d:4.0
%ENDBLOCK HUBBARD_U

SNAP_TO_SYMMETRY
SYMMETRY_GENERATE

