#              Generated by Buildcell
#
# at 05:16:27 (GMT+0.0) 24th November 2020
# in /lustre/scratch/uccabz1/launch_tmp
# on node-c12i-033
# by uccabz1
#
# compiler GCC version 4.9.2
# options -cpp -iprefix /lustre/shared/ucl/apps/gcc/4.9.2/bin/../lib/gcc/x86_64-unknown-linux-gnu/4.9.2/ -mtune=corei7 -march=x86-64 -g -Og
#
# seed  -925567176 -1141142122   403410903  1783674191  1345818243   914051807  -985439945  -980074081   369668847  -782369345  -966283646 -1498365716
#
#      Author: C. J. Pickard (cjp20@cam.ac.uk)
#                Space group: P2
#

%BLOCK LATTICE_ABC
      4.66109      5.67791      6.31922
    106.92026     90.00000     90.00000
%ENDBLOCK LATTICE_ABC

%BLOCK POSITIONS_FRAC
  Li  -0.2108440   0.0915630  -0.2232624 SPIN=   0.00000
  Li  -0.2108440  -0.0915630   0.2232624 SPIN=   0.00000
   O   0.4016556   0.2595420   0.5352706 SPIN=   0.00000
   O   0.5964348   0.2270504   0.1425698 SPIN=   0.00000
   O   0.2325585  -0.0740367   0.1811084 SPIN=   0.00000
   O   0.0900424   0.3652155   0.2373482 SPIN=   0.00000
   P   0.3311452   0.1999243   0.2875482 SPIN=   0.00000
   O   0.4016556  -0.2595420  -0.5352706 SPIN=   0.00000
   O   0.5964348  -0.2270504  -0.1425698 SPIN=   0.00000
   O   0.2325585   0.0740367  -0.1811084 SPIN=   0.00000
   O   0.0900424  -0.3652155  -0.2373482 SPIN=   0.00000
   P   0.3311452  -0.1999243  -0.2875482 SPIN=   0.00000
  Fe  -0.1978160  -0.5000000  -0.5000000 SPIN=   3.75045
  Fe   0.2927124  -0.5000000  -0.0000000 SPIN=   4.24955
%ENDBLOCK POSITIONS_FRAC

# Note: total spin =   8.00

KPOINTS_MP_SPACING 0.07

%BLOCK SPECIES_POT
QC5
%ENDBLOCK SPECIES_POT

%BLOCK HUBBARD_U
Fe d:4.0
%ENDBLOCK HUBBARD_U

SNAP_TO_SYMMETRY
SYMMETRY_GENERATE

