#              Generated by Buildcell
#
# at 22:51:41 (GMT+0.0) 23rd November 2020
# in /scratch/scratch/uccabz1/launch_tmp
# on node-a14f-013
# by uccabz1
#
# compiler GCC version 4.9.2
# options -cpp -iprefix /scratch/UCL/applications/gcc/4.9.2/bin/../lib/gcc/x86_64-unknown-linux-gnu/4.9.2/ -mtune=corei7 -march=x86-64 -g -O2
#
# seed   687488359 -1441016495   801829349  -841050366  1646779052   971633048   229755970  -436300032  1892339498 -1734283570  1325676220  1751626315
#
#      Author: C. J. Pickard (cjp20@cam.ac.uk)
#                Space group: Cm
#

%BLOCK LATTICE_ABC
      5.69690      5.96500      6.11931
    115.52181    113.97181     96.97628
%ENDBLOCK LATTICE_ABC

%BLOCK POSITIONS_FRAC
  Li  -0.0146773   0.0829468   0.0000000 SPIN=   0.00000
  Li  -0.4811072   0.2818394   0.0000000 SPIN=   0.00000
   O   0.6766437   0.2493813   0.7219857 SPIN=   0.00000
   O   0.4498785   0.3711621   0.3457327 SPIN=   0.00000
   O   0.1934282  -0.0446901   0.2713257 SPIN=   0.00000
   P   0.4073884   0.2447825   0.5117393 SPIN=   0.00000
   O  -0.0453420  -0.4726044  -0.7219857 SPIN=   0.00000
   O   0.1041458   0.0254294  -0.3457327 SPIN=   0.00000
   O  -0.0778975  -0.3160158  -0.2713257 SPIN=   0.00000
   P  -0.1043508  -0.2669568  -0.5117393 SPIN=   0.00000
   O   0.3214098  -0.4374000   0.0000000 SPIN=   0.00000
   O  -0.3849878  -0.0967568  -0.0000000 SPIN=   0.00000
  Fe  -0.0571087   0.3015968   0.5765905 SPIN=   4.00000
  Fe  -0.6336992  -0.2749936  -0.5765905 SPIN=   4.00000
%ENDBLOCK POSITIONS_FRAC

# Note: total spin =   8.00

KPOINTS_MP_SPACING 0.07

%BLOCK SPECIES_POT
QC5
%ENDBLOCK SPECIES_POT

%BLOCK HUBBARD_U
Fe d:4.0
%ENDBLOCK HUBBARD_U

SNAP_TO_SYMMETRY
SYMMETRY_GENERATE

