#              Generated by Buildcell
#
# at 22:29:43 (GMT+0.0) 23rd November 2020
# in /lustre/scratch/uccabz1/launch_tmp
# on node-c12h-032
# by uccabz1
#
# compiler GCC version 4.9.2
# options -cpp -iprefix /lustre/shared/ucl/apps/gcc/4.9.2/bin/../lib/gcc/x86_64-unknown-linux-gnu/4.9.2/ -mtune=corei7 -march=x86-64 -g -Og
#
# seed  -924192307  -979642504  -175100946   811375545  -318704341   495102588   744281725  -660651241 -1809534005  -682246963  -793303010  1205252533
#
#      Author: C. J. Pickard (cjp20@cam.ac.uk)
#                Space group: P21
#

%BLOCK LATTICE_ABC
      4.55784      5.83060      6.20204
     90.00000     90.00000    103.88907
%ENDBLOCK LATTICE_ABC

%BLOCK POSITIONS_FRAC
  Li   0.4685818   0.4517157   0.0629960 SPIN=   0.00000
  Li  -0.4685818  -0.4517157  -0.4370040 SPIN=   0.00000
   O   0.1239535  -0.5855082   0.3599052 SPIN=   0.00000
   O  -0.2020027  -0.2939281   0.2529628 SPIN=   0.00000
   O   0.2391260  -0.1494656   0.4900356 SPIN=   0.00000
   O   0.3203228  -0.2346298   0.1017220 SPIN=   0.00000
   P   0.1229016  -0.3292803   0.3019309 SPIN=   0.00000
   O  -0.1239535   0.5855082  -0.1400948 SPIN=   0.00000
   O   0.2020027   0.2939281  -0.2470372 SPIN=   0.00000
   O  -0.2391260   0.1494656  -0.0099644 SPIN=   0.00000
   O  -0.3203228   0.2346298  -0.3982780 SPIN=   0.00000
   P  -0.1229016   0.3292803  -0.1980691 SPIN=   0.00000
  Fe   0.2297760  -0.0658596  -0.1810812 SPIN=   4.00000
  Fe  -0.2297760   0.0658596   0.3189188 SPIN=   4.00000
%ENDBLOCK POSITIONS_FRAC

# Note: total spin =   8.00

KPOINTS_MP_SPACING 0.07

%BLOCK SPECIES_POT
QC5
%ENDBLOCK SPECIES_POT

%BLOCK HUBBARD_U
Fe d:4.0
%ENDBLOCK HUBBARD_U

SNAP_TO_SYMMETRY
SYMMETRY_GENERATE

