#              Generated by Buildcell
#
# at 03:42:39 (GMT+0.0) 24th November 2020
# in /lustre/scratch/uccabz1/launch_tmp
# on node-c12l-030
# by uccabz1
#
# compiler GCC version 4.9.2
# options -cpp -iprefix /lustre/shared/ucl/apps/gcc/4.9.2/bin/../lib/gcc/x86_64-unknown-linux-gnu/4.9.2/ -mtune=corei7 -march=x86-64 -g -Og
#
# seed  1977996946   399156193  1474376625  -834075846    -6711694  -425210921 -2100383630    77929239   343318290   738818315   754240564   107360113
#
#      Author: C. J. Pickard (cjp20@cam.ac.uk)
#                Space group: Cm
#

%BLOCK LATTICE_ABC
      5.46437      5.93070      6.21220
    113.69195    110.96760     99.88786
%ENDBLOCK LATTICE_ABC

%BLOCK POSITIONS_FRAC
  Li  -0.2891319   0.1302716   0.0000000 SPIN=   0.00000
  Li  -0.3679241  -0.3815050  -0.0000000 SPIN=   0.00000
   O   0.4725065  -0.2591927   0.2718530 SPIN=   0.00000
   O   0.5910484  -0.3614665   0.6585316 SPIN=   0.00000
   O   0.3265406  -0.0650781   0.6420188 SPIN=   0.00000
   O   0.0899412  -0.5491733   0.3022143 SPIN=   0.00000
   P   0.3721616  -0.3089277   0.4562115 SPIN=   0.00000
   O   0.2006535   0.4689542  -0.2718530 SPIN=   0.00000
   O  -0.0674831  -0.0199981  -0.6585316 SPIN=   0.00000
   O  -0.3154782   0.2929031  -0.6420188 SPIN=   0.00000
   O  -0.2122731   0.1486124  -0.3022143 SPIN=   0.00000
   P  -0.0840500   0.2348607  -0.4562115 SPIN=   0.00000
  Fe   0.3309297   0.1309824   0.3820586 SPIN=   4.00000
  Fe  -0.0511288  -0.2510762  -0.3820586 SPIN=   4.00000
%ENDBLOCK POSITIONS_FRAC

# Note: total spin =   8.00

KPOINTS_MP_SPACING 0.07

%BLOCK SPECIES_POT
QC5
%ENDBLOCK SPECIES_POT

%BLOCK HUBBARD_U
Fe d:4.0
%ENDBLOCK HUBBARD_U

SNAP_TO_SYMMETRY
SYMMETRY_GENERATE

