#              Generated by Buildcell
#
# at 00:23:14 (GMT+0.0) 24th November 2020
# in /lustre/scratch/uccabz1/launch_tmp
# on node-c12o-026
# by uccabz1
#
# compiler GCC version 4.9.2
# options -cpp -iprefix /lustre/shared/ucl/apps/gcc/4.9.2/bin/../lib/gcc/x86_64-unknown-linux-gnu/4.9.2/ -mtune=corei7 -march=x86-64 -g -Og
#
# seed  -296941414  -739142631  -963550906 -1425753730   391800495   641618346  2032347615  1356733669 -2138361882   213562947  2071827716  -593298214
#
#      Author: C. J. Pickard (cjp20@cam.ac.uk)
#                Space group: Pnc2
#

%BLOCK LATTICE_ABC
      5.04857      5.60410      5.65516
     90.00000     90.00000     90.00000
%ENDBLOCK LATTICE_ABC

%BLOCK POSITIONS_FRAC
  Li  -0.5000000   0.0000000   0.2561998 SPIN=   0.00000
  Li  -0.5000000   0.5000000  -0.2438002 SPIN=   0.00000
   O   0.2640579  -0.1741674  -0.3436228 SPIN=   0.00000
   O   0.2950919   0.2510410  -0.5245724 SPIN=   0.00000
   O  -0.2640579   0.1741674  -0.3436228 SPIN=   0.00000
   O  -0.2950919  -0.2510410  -0.5245724 SPIN=   0.00000
   O   0.2640579   0.6741674   0.1563772 SPIN=   0.00000
   O   0.2950919   0.2489590  -0.0245724 SPIN=   0.00000
   O  -0.2640579  -0.6741674   0.1563772 SPIN=   0.00000
   O  -0.2950919  -0.2489590  -0.0245724 SPIN=   0.00000
   P   0.0000000   0.0000000   0.3912156 SPIN=   0.00000
   P   0.0000000   0.5000000  -0.1087844 SPIN=   0.00000
  Fe   0.0000000   0.0000000  -0.1117072 SPIN=   4.00000
  Fe  -0.0000000  -0.5000000   0.3882928 SPIN=   4.00000
%ENDBLOCK POSITIONS_FRAC

# Note: total spin =   8.00

KPOINTS_MP_SPACING 0.07

%BLOCK SPECIES_POT
QC5
%ENDBLOCK SPECIES_POT

%BLOCK HUBBARD_U
Fe d:4.0
%ENDBLOCK HUBBARD_U

SNAP_TO_SYMMETRY
SYMMETRY_GENERATE

