#              Generated by Buildcell
#
# at 03:25:03 (GMT+0.0) 24th November 2020
# in /lustre/scratch/uccabz1/launch_tmp
# on node-c12l-027
# by uccabz1
#
# compiler GCC version 4.9.2
# options -cpp -iprefix /lustre/shared/ucl/apps/gcc/4.9.2/bin/../lib/gcc/x86_64-unknown-linux-gnu/4.9.2/ -mtune=corei7 -march=x86-64 -g -Og
#
# seed    75285082  1037130097   -59811015    65741670  -335200436   447470757   663394715 -1208842385    43498116  1204301021 -1827171299  1088364794
#
#      Author: C. J. Pickard (cjp20@cam.ac.uk)
#                Space group: P-1
#

%BLOCK LATTICE_ABC
      4.37190      5.05632      7.84029
    108.11118     90.10384    103.03306
%ENDBLOCK LATTICE_ABC

%BLOCK POSITIONS_FRAC
  Li   0.4147464   0.6709301   0.1830782 SPIN=   0.00000
  Li  -0.4147464  -0.6709301  -0.1830782 SPIN=   0.00000
   O   0.8644479   0.0718174   0.2642166 SPIN=   0.00000
   O   0.7403480   0.5727117   0.3899194 SPIN=   0.00000
   O   0.5000623   0.2566950   0.0894241 SPIN=   0.00000
   P   0.6153845   0.2474155   0.2771773 SPIN=   0.00000
   O  -0.8644479  -0.0718174  -0.2642166 SPIN=   0.00000
   O  -0.7403480  -0.5727117  -0.3899194 SPIN=   0.00000
   O  -0.5000623  -0.2566950  -0.0894241 SPIN=   0.00000
   P  -0.6153845  -0.2474155  -0.2771773 SPIN=   0.00000
   O  -0.5000000  -1.0000000  -0.5000000 SPIN=   0.00000
   O   0.0000000   0.5000000  -0.0000000 SPIN=   0.00000
  Fe  -0.0000000   0.0000000  -0.5000000 SPIN=   1.02700
  Fe  -0.0000000  -0.0000000  -0.0000000 SPIN=   6.97300
%ENDBLOCK POSITIONS_FRAC

# Note: total spin =   8.00

KPOINTS_MP_SPACING 0.07

%BLOCK SPECIES_POT
QC5
%ENDBLOCK SPECIES_POT

%BLOCK HUBBARD_U
Fe d:4.0
%ENDBLOCK HUBBARD_U

SNAP_TO_SYMMETRY
SYMMETRY_GENERATE

