#              Generated by Buildcell
#
# at 02:26:33 (GMT+0.0) 24th November 2020
# in /lustre/scratch/uccabz1/launch_tmp
# on node-c12o-027
# by uccabz1
#
# compiler GCC version 4.9.2
# options -cpp -iprefix /lustre/shared/ucl/apps/gcc/4.9.2/bin/../lib/gcc/x86_64-unknown-linux-gnu/4.9.2/ -mtune=corei7 -march=x86-64 -g -Og
#
# seed -1529850374   337091889  -208574514  1389770395 -1567437704 -1489334894 -1389060309   415387655  1623664479   197665867   573429931  2032719901
#
#      Author: C. J. Pickard (cjp20@cam.ac.uk)
#                Space group: Pc
#

%BLOCK LATTICE_ABC
      4.64407      5.69042      6.61677
     90.00000     90.00000    113.79138
%ENDBLOCK LATTICE_ABC

%BLOCK POSITIONS_FRAC
  Li   0.3409733   0.4655182  -0.3491772 SPIN=   0.00000
  Li  -0.1590267  -0.0344818   0.3491772 SPIN=   0.00000
   O   0.0150129   0.3887792  -0.0694484 SPIN=   0.00000
   O  -0.2245184   0.4376081  -0.4136144 SPIN=   0.00000
   O  -0.2796071   0.0047905  -0.3091491 SPIN=   0.00000
   O  -0.5851125   0.2158303  -0.1276641 SPIN=   0.00000
   P  -0.2571933   0.2679737  -0.2202148 SPIN=   0.00000
   O   0.5150129  -0.1112208   0.0694484 SPIN=   0.00000
   O   0.2754816  -0.0623919   0.4136144 SPIN=   0.00000
   O   0.2203929  -0.4952095   0.3091491 SPIN=   0.00000
   O  -0.0851125  -0.2841697   0.1276641 SPIN=   0.00000
   P   0.2428067  -0.2320263   0.2202148 SPIN=   0.00000
  Fe   0.0424181  -0.1348855  -0.1957629 SPIN=   4.00000
  Fe  -0.4575819   0.3651145   0.1957629 SPIN=   4.00000
%ENDBLOCK POSITIONS_FRAC

# Note: total spin =   8.00

KPOINTS_MP_SPACING 0.07

%BLOCK SPECIES_POT
QC5
%ENDBLOCK SPECIES_POT

%BLOCK HUBBARD_U
Fe d:4.0
%ENDBLOCK HUBBARD_U

SNAP_TO_SYMMETRY
SYMMETRY_GENERATE

