#              Generated by Buildcell
#
# at 03:00:55 (GMT+0.0) 24th November 2020
# in /scratch/scratch/uccabz1/launch_tmp
# on node-a14c-007
# by uccabz1
#
# compiler GCC version 4.9.2
# options -cpp -iprefix /scratch/UCL/applications/gcc/4.9.2/bin/../lib/gcc/x86_64-unknown-linux-gnu/4.9.2/ -mtune=corei7 -march=x86-64 -g -O2
#
# seed  1835107953  1835013271  -950298723  -983454666   483727452  1645599835  1356122195   129947613  -526260268 -1370071502   563220251  1467791139
#
#      Author: C. J. Pickard (cjp20@cam.ac.uk)
#                Space group: C2
#

%BLOCK LATTICE_ABC
      4.72143      6.10704      6.22838
    103.79154     90.00000    112.74041
%ENDBLOCK LATTICE_ABC

%BLOCK POSITIONS_FRAC
  Li   0.3945644   0.0960759  -0.2487499 SPIN=   0.00000
  Li   0.2984884  -0.0960759   0.2487499 SPIN=   0.00000
   O  -0.0552194   0.0593238  -0.1771807 SPIN=   0.00000
   O  -0.1031240  -0.3431916  -0.4632238 SPIN=   0.00000
   O  -0.4316898  -0.3748322  -0.1539223 SPIN=   0.00000
   O  -0.5381196  -0.2043370  -0.4581344 SPIN=   0.00000
   P  -0.2729832  -0.2009776  -0.3075889 SPIN=   0.00000
   O  -0.1145432  -0.0593238   0.1771807 SPIN=   0.00000
   O   0.2400675   0.3431916   0.4632238 SPIN=   0.00000
   O  -0.0568576   0.3748322   0.1539223 SPIN=   0.00000
   O  -0.3337826   0.2043370   0.4581344 SPIN=   0.00000
   P  -0.0720056   0.2009776   0.3075889 SPIN=   0.00000
  Fe   0.0961315  -0.4898535  -0.2475827 SPIN=   4.00000
  Fe  -0.4140150   0.4898535   0.2475827 SPIN=   4.00000
%ENDBLOCK POSITIONS_FRAC

# Note: total spin =   8.00

KPOINTS_MP_SPACING 0.07

%BLOCK SPECIES_POT
QC5
%ENDBLOCK SPECIES_POT

%BLOCK HUBBARD_U
Fe d:4.0
%ENDBLOCK HUBBARD_U

SNAP_TO_SYMMETRY
SYMMETRY_GENERATE

