#              Generated by Buildcell
#
# at 04:53:42 (GMT+0.0) 24th November 2020
# in /scratch/scratch/uccabz1/launch_tmp
# on node-k10c-005
# by uccabz1
#
# compiler GCC version 4.9.2
# options -cpp -iprefix /scratch/UCL/applications/gcc/4.9.2/bin/../lib/gcc/x86_64-unknown-linux-gnu/4.9.2/ -mtune=corei7 -march=x86-64 -g -O2
#
# seed  1368145550 -1527681283   105391613  1776439625 -1338718654 -2135843315  1527697176 -1570926444  1081623476 -1418455392  -998026990  1793262579
#
#      Author: C. J. Pickard (cjp20@cam.ac.uk)
#                Space group: P-1
#

%BLOCK LATTICE_ABC
      5.35939      5.70244      6.08855
    103.71330     91.27080    116.51123
%ENDBLOCK LATTICE_ABC

%BLOCK POSITIONS_FRAC
  Li  -1.0000000  -0.5000000   0.0000000 SPIN=   0.00000
  Li   1.0000000   0.5000000   0.5000000 SPIN=   0.00000
   O  -0.1950222  -0.3039635  -0.2798009 SPIN=   0.00000
   O  -0.0694952   0.1581297  -0.3652676 SPIN=   0.00000
   O  -0.5703347  -0.1546923  -0.3672609 SPIN=   0.00000
   O  -0.2425539   0.0849545   0.0036811 SPIN=   0.00000
   P  -0.2650775  -0.0655693  -0.2506145 SPIN=   0.00000
   O   0.1950222   0.3039635   0.2798009 SPIN=   0.00000
   O   0.0694952  -0.1581297   0.3652676 SPIN=   0.00000
   O   0.5703347   0.1546923   0.3672609 SPIN=   0.00000
   O   0.2425539  -0.0849545  -0.0036811 SPIN=   0.00000
   P   0.2650775   0.0655693   0.2506145 SPIN=   0.00000
  Fe   0.3375967   0.1735263  -0.2611288 SPIN=   4.00000
  Fe  -0.3375967  -0.1735263   0.2611288 SPIN=   4.00000
%ENDBLOCK POSITIONS_FRAC

# Note: total spin =   8.00

KPOINTS_MP_SPACING 0.07

%BLOCK SPECIES_POT
QC5
%ENDBLOCK SPECIES_POT

%BLOCK HUBBARD_U
Fe d:4.0
%ENDBLOCK HUBBARD_U

SNAP_TO_SYMMETRY
SYMMETRY_GENERATE

