#              Generated by Buildcell
#
# at 23:26:17 (GMT+0.0) 23rd November 2020
# in /scratch/scratch/uccabz1/launch_tmp
# on node-k10i-019
# by uccabz1
#
# compiler GCC version 4.9.2
# options -cpp -iprefix /scratch/UCL/applications/gcc/4.9.2/bin/../lib/gcc/x86_64-unknown-linux-gnu/4.9.2/ -mtune=corei7 -march=x86-64 -g -O2
#
# seed  -769935076  1269816359   264154373  1604416034 -1541310829  -546238870  -824791848 -1596028700  -309964694 -1160306053  -204230034  1361735592
#
#      Author: C. J. Pickard (cjp20@cam.ac.uk)
#                Space group: Pba2
#

%BLOCK LATTICE_ABC
      5.28643      5.50051      5.50243
     90.00000     90.00000     90.00000
%ENDBLOCK LATTICE_ABC

%BLOCK POSITIONS_FRAC
  Li  -0.3464336   0.5000000  -0.0000000 SPIN=   0.00000
  Li  -0.3464336  -0.0000000   0.5000000 SPIN=   0.00000
   O  -0.3864172   0.1574718   0.1575334 SPIN=   0.00000
   O   0.0043698   0.2386717   0.4321116 SPIN=   0.00000
   O  -0.3864172  -0.1574718  -0.1575334 SPIN=   0.00000
   O   0.0043698  -0.2386717  -0.4321116 SPIN=   0.00000
   O  -0.3864172   0.3425282  -0.3424666 SPIN=   0.00000
   O   0.0043698   0.2613283  -0.0678884 SPIN=   0.00000
   O  -0.3864172  -0.3425282   0.3424666 SPIN=   0.00000
   O   0.0043698  -0.2613283   0.0678884 SPIN=   0.00000
   P   0.1521850   0.5000000  -0.0000000 SPIN=   0.00000
   P   0.1521850  -0.0000000   0.5000000 SPIN=   0.00000
  Fe   0.2926682  -0.0000000  -0.0000000 SPIN=   4.00000
  Fe   0.2926682   0.5000000  -0.5000000 SPIN=   4.00000
%ENDBLOCK POSITIONS_FRAC

# Note: total spin =   8.00

KPOINTS_MP_SPACING 0.07

%BLOCK SPECIES_POT
QC5
%ENDBLOCK SPECIES_POT

%BLOCK HUBBARD_U
Fe d:4.0
%ENDBLOCK HUBBARD_U

SNAP_TO_SYMMETRY
SYMMETRY_GENERATE

