#              Generated by Buildcell
#
# at 04:42:35 (GMT+0.0) 24th November 2020
# in /lustre/scratch/uccabz1/launch_tmp
# on node-c12m-024
# by uccabz1
#
# compiler GCC version 4.9.2
# options -cpp -iprefix /lustre/shared/ucl/apps/gcc/4.9.2/bin/../lib/gcc/x86_64-unknown-linux-gnu/4.9.2/ -mtune=corei7 -march=x86-64 -g -Og
#
# seed  1357041222  -379040173  1013998761  1831491853 -1686865298    46459787 -1023688248   386001350  -211353408  -626492561  -228337892  1425449625
#
#      Author: C. J. Pickard (cjp20@cam.ac.uk)
#                Space group: P-1
#

%BLOCK LATTICE_ABC
      4.36917      6.01501      6.95732
    101.94245    104.91565    107.72975
%ENDBLOCK LATTICE_ABC

%BLOCK POSITIONS_FRAC
  Li   0.1363264  -0.1213722   0.3455223 SPIN=   0.00000
  Li  -0.1363264   0.1213722  -0.3455223 SPIN=   0.00000
   O  -0.4710432   0.1597687   0.3114664 SPIN=   0.00000
   O  -0.3497388  -0.2190238   0.3795946 SPIN=   0.00000
   O  -0.8063524  -0.2832189   0.0540929 SPIN=   0.00000
   O  -0.1935095  -0.0664349   0.0957131 SPIN=   0.00000
   O   0.4710432  -0.1597687  -0.3114664 SPIN=   0.00000
   O   0.3497388   0.2190238  -0.3795946 SPIN=   0.00000
   O   0.8063524   0.2832189  -0.0540929 SPIN=   0.00000
   O   0.1935095   0.0664349  -0.0957131 SPIN=   0.00000
   P  -0.0000000   0.5000000  -0.5000000 SPIN=   0.00000
   P   0.5000000  -0.0000000   0.0000000 SPIN=   0.00000
  Fe   0.2724656   0.3658964   0.1811973 SPIN=   4.00000
  Fe  -0.2724656  -0.3658964  -0.1811973 SPIN=   4.00000
%ENDBLOCK POSITIONS_FRAC

# Note: total spin =   8.00

KPOINTS_MP_SPACING 0.07

%BLOCK SPECIES_POT
QC5
%ENDBLOCK SPECIES_POT

%BLOCK HUBBARD_U
Fe d:4.0
%ENDBLOCK HUBBARD_U

SNAP_TO_SYMMETRY
SYMMETRY_GENERATE

