#              Generated by Buildcell
#
# at 01:16:52 (GMT+0.0) 24th November 2020
# in /lustre/scratch/uccabz1/launch_tmp
# on node-c12h-025
# by uccabz1
#
# compiler GCC version 4.9.2
# options -cpp -iprefix /lustre/shared/ucl/apps/gcc/4.9.2/bin/../lib/gcc/x86_64-unknown-linux-gnu/4.9.2/ -mtune=corei7 -march=x86-64 -g -Og
#
# seed -1429915803   446035516   418729051   856767247   552910125  1018041529  1941455373 -1996958983  -509889559 -1938325214  -938148525 -1121773095
#
#      Author: C. J. Pickard (cjp20@cam.ac.uk)
#                Space group: Cm
#

%BLOCK LATTICE_ABC
      4.76888      6.02127      6.02127
     97.00361    103.86081    103.86081
%ENDBLOCK LATTICE_ABC

%BLOCK POSITIONS_FRAC
  Li   0.4174954   0.2908830  -0.3250647 SPIN=   0.00000
  Li   0.4174954  -0.3250647   0.2908830 SPIN=   0.00000
   O  -0.0060595   0.5798900   0.0411214 SPIN=   0.00000
   O   0.2856755   0.2724911  -0.0087149 SPIN=   0.00000
   O  -0.2696335   0.1414165  -0.1323688 SPIN=   0.00000
   P   0.0029646   0.3582420  -0.1103860 SPIN=   0.00000
   O  -0.0060595   0.0411214   0.5798900 SPIN=   0.00000
   O   0.2856755  -0.0087149   0.2724911 SPIN=   0.00000
   O  -0.2696335  -0.1323688   0.1414165 SPIN=   0.00000
   P   0.0029646  -0.1103860   0.3582420 SPIN=   0.00000
   O   0.1662629   0.3632487   0.3632487 SPIN=   0.00000
   O   0.2725783  -0.3099510  -0.3099510 SPIN=   0.00000
  Fe  -0.3171873   0.2196317   0.2196317 SPIN=   0.09358
  Fe  -0.0699401  -0.1982730  -0.1982730 SPIN=   7.90642
%ENDBLOCK POSITIONS_FRAC

# Note: total spin =   8.00

KPOINTS_MP_SPACING 0.07

%BLOCK SPECIES_POT
QC5
%ENDBLOCK SPECIES_POT

%BLOCK HUBBARD_U
Fe d:4.0
%ENDBLOCK HUBBARD_U

SNAP_TO_SYMMETRY
SYMMETRY_GENERATE

