#              Generated by Buildcell
#
# at 05:15:17 (GMT+0.0) 24th November 2020
# in /lustre/scratch/uccabz1/launch_tmp
# on node-c12i-030
# by uccabz1
#
# compiler GCC version 4.9.2
# options -cpp -iprefix /lustre/shared/ucl/apps/gcc/4.9.2/bin/../lib/gcc/x86_64-unknown-linux-gnu/4.9.2/ -mtune=corei7 -march=x86-64 -g -Og
#
# seed -1201460217   353684169   215469299   846633961 -1583842700  2002541488 -2054252903  1762720534  1411706866  -201377393 -1360666307  1434163030
#
#      Author: C. J. Pickard (cjp20@cam.ac.uk)
#                Space group: Pc
#

%BLOCK LATTICE_ABC
      5.01363      5.82783      5.96254
     90.00000     90.00000    113.30729
%ENDBLOCK LATTICE_ABC

%BLOCK POSITIONS_FRAC
  Li   0.0633105   0.1858653  -0.1664424 SPIN=   0.00000
  Li  -0.4366895   0.1858653   0.1664424 SPIN=   0.00000
   O   0.1371193   0.1215954   0.2747913 SPIN=   0.00000
   O  -0.2394340  -0.1508066  -0.0174956 SPIN=   0.00000
   O  -0.1242154  -0.3612359   0.3052216 SPIN=   0.00000
   O  -0.4094946  -0.0978786   0.3664779 SPIN=   0.00000
   P  -0.1461950  -0.1088212   0.2360980 SPIN=   0.00000
   O   0.6371193   0.1215954  -0.2747913 SPIN=   0.00000
   O   0.2605660  -0.1508066   0.0174956 SPIN=   0.00000
   O   0.3757846  -0.3612359  -0.3052216 SPIN=   0.00000
   O   0.0905054  -0.0978786  -0.3664779 SPIN=   0.00000
   P   0.3538050  -0.1088212  -0.2360980 SPIN=   0.00000
  Fe  -0.2481825  -0.4222269  -0.2518639 SPIN=   4.00000
  Fe   0.2518175  -0.4222269   0.2518639 SPIN=   4.00000
%ENDBLOCK POSITIONS_FRAC

# Note: total spin =   8.00

KPOINTS_MP_SPACING 0.07

%BLOCK SPECIES_POT
QC5
%ENDBLOCK SPECIES_POT

%BLOCK HUBBARD_U
Fe d:4.0
%ENDBLOCK HUBBARD_U

SNAP_TO_SYMMETRY
SYMMETRY_GENERATE

