#              Generated by Buildcell
#
# at 00:32:28 (GMT+0.0) 24th November 2020
# in /lustre/scratch/uccabz1/launch_tmp
# on node-c12o-023
# by uccabz1
#
# compiler GCC version 4.9.2
# options -cpp -iprefix /lustre/shared/ucl/apps/gcc/4.9.2/bin/../lib/gcc/x86_64-unknown-linux-gnu/4.9.2/ -mtune=corei7 -march=x86-64 -g -Og
#
# seed   926889326 -1525020265  -840746760  -847327894   582117253  1140984776   -89701955   626897974  -330248017   768490334    92100356  1483156892
#
#      Author: C. J. Pickard (cjp20@cam.ac.uk)
#                Space group: Cc
#

%BLOCK LATTICE_ABC
      5.44009      5.44009      6.35241
    102.50647    102.50647    112.46699
%ENDBLOCK LATTICE_ABC

%BLOCK POSITIONS_FRAC
  Li   0.0035494   0.4902716   0.1725880 SPIN=   0.00000
  Li  -0.0097284  -0.4964506  -0.3274120 SPIN=   0.00000
   O   0.5999016   0.2803656   0.2846791 SPIN=   0.00000
   O   0.2868819   0.4056126  -0.0014323 SPIN=   0.00000
   O   0.3086846  -0.0445739  -0.1357543 SPIN=   0.00000
   O   0.0559532   0.0134482   0.1430895 SPIN=   0.00000
   P   0.3251074   0.1681511   0.0847666 SPIN=   0.00000
   O  -0.2196344   0.0999016  -0.2153209 SPIN=   0.00000
   O  -0.0943874  -0.2131181  -0.5014323 SPIN=   0.00000
   O  -0.5445739  -0.1913154  -0.6357543 SPIN=   0.00000
   O  -0.4865518  -0.4440468  -0.3569105 SPIN=   0.00000
   P  -0.3318489  -0.1748926  -0.4152334 SPIN=   0.00000
  Fe  -0.6828633  -0.8931120  -0.4126996 SPIN=   4.00000
  Fe  -0.3931120  -0.1828633   0.0873004 SPIN=   4.00000
%ENDBLOCK POSITIONS_FRAC

# Note: total spin =   8.00

KPOINTS_MP_SPACING 0.07

%BLOCK SPECIES_POT
QC5
%ENDBLOCK SPECIES_POT

%BLOCK HUBBARD_U
Fe d:4.0
%ENDBLOCK HUBBARD_U

SNAP_TO_SYMMETRY
SYMMETRY_GENERATE

