#              Generated by Buildcell
#
# at 04:38:33 (GMT+0.0) 24th November 2020
# in /lustre/scratch/uccabz1/launch_tmp
# on node-c12l-023
# by uccabz1
#
# compiler GCC version 4.9.2
# options -cpp -iprefix /lustre/shared/ucl/apps/gcc/4.9.2/bin/../lib/gcc/x86_64-unknown-linux-gnu/4.9.2/ -mtune=corei7 -march=x86-64 -g -Og
#
# seed  -242099515  -300945880  -717703713  1799969671   849762768  -650090685   826186036 -1971808693  -289828808   192272892 -1711835967   764746122
#
#      Author: C. J. Pickard (cjp20@cam.ac.uk)
#                Space group: Cc
#

%BLOCK LATTICE_ABC
      5.64812      5.64812      6.23305
     64.33159     64.33159     72.58405
%ENDBLOCK LATTICE_ABC

%BLOCK POSITIONS_FRAC
  Li   0.3906836  -0.3486610  -0.3644074 SPIN=   0.00000
  Li  -0.3486610   0.3906836   0.1355926 SPIN=   0.00000
   O  -0.0127731  -0.0212472  -0.5968600 SPIN=   0.00000
   O  -0.4884852   0.0299244  -0.5899162 SPIN=   0.00000
   O  -0.3850519  -0.2731815  -0.2043610 SPIN=   0.00000
   O  -0.4185839   0.2173318  -0.3271226 SPIN=   0.00000
   P  -0.3106238  -0.0095926  -0.4372637 SPIN=   0.00000
   O  -0.0212472  -0.0127731  -0.0968600 SPIN=   0.00000
   O   0.0299244  -0.4884852  -0.0899162 SPIN=   0.00000
   O  -0.2731815  -0.3850519   0.2956390 SPIN=   0.00000
   O   0.2173318  -0.4185839   0.1728774 SPIN=   0.00000
   P  -0.0095926  -0.3106238   0.0627363 SPIN=   0.00000
  Fe   0.0118186   0.3674248  -0.4400514 SPIN=   4.00000
  Fe   0.3674248   0.0118186   0.0599486 SPIN=   4.00000
%ENDBLOCK POSITIONS_FRAC

# Note: total spin =   8.00

KPOINTS_MP_SPACING 0.07

%BLOCK SPECIES_POT
QC5
%ENDBLOCK SPECIES_POT

%BLOCK HUBBARD_U
Fe d:4.0
%ENDBLOCK HUBBARD_U

SNAP_TO_SYMMETRY
SYMMETRY_GENERATE

