#              Generated by Buildcell
#
# at 04:57:35 (GMT+0.0) 24th November 2020
# in /lustre/scratch/uccabz1/launch_tmp
# on node-c12g-020
# by uccabz1
#
# compiler GCC version 4.9.2
# options -cpp -iprefix /lustre/shared/ucl/apps/gcc/4.9.2/bin/../lib/gcc/x86_64-unknown-linux-gnu/4.9.2/ -mtune=corei7 -march=x86-64 -g -Og
#
# seed  -397783968   702675328 -1076383291  1715897947   657341756 -1591571991   363826539  1500008041  2069520771 -1105739681  1512253124 -1225133448
#
#      Author: C. J. Pickard (cjp20@cam.ac.uk)
#                Space group: P21/m
#

%BLOCK LATTICE_ABC
      4.67860      5.90808      6.09418
     90.00000    108.22736     90.00000
%ENDBLOCK LATTICE_ABC

%BLOCK POSITIONS_FRAC
  Li  -0.4447485  -0.2500000  -0.0212642 SPIN=   0.00000
  Li   0.4447485   0.2500000   0.0212642 SPIN=   0.00000
   O   0.2610800   0.0409755   0.6195699 SPIN=   0.00000
   O   0.2026063   0.0411088   0.1813465 SPIN=   0.00000
   O  -0.2610800  -0.4590245  -0.6195699 SPIN=   0.00000
   O  -0.2026063  -0.4588912  -0.1813465 SPIN=   0.00000
   O  -0.2610800  -0.0409755  -0.6195699 SPIN=   0.00000
   O  -0.2026063  -0.0411088  -0.1813465 SPIN=   0.00000
   O   0.2610800   0.4590245   0.6195699 SPIN=   0.00000
   O   0.2026063   0.4588912   0.1813465 SPIN=   0.00000
   P  -0.0380495  -0.2500000  -0.2489728 SPIN=   0.00000
   P   0.0380495   0.2500000   0.2489728 SPIN=   0.00000
  Fe   0.2196042  -0.2500000   0.3822984 SPIN=   4.00000
  Fe  -0.2196042   0.2500000  -0.3822984 SPIN=   4.00000
%ENDBLOCK POSITIONS_FRAC

# Note: total spin =   8.00

KPOINTS_MP_SPACING 0.07

%BLOCK SPECIES_POT
QC5
%ENDBLOCK SPECIES_POT

%BLOCK HUBBARD_U
Fe d:4.0
%ENDBLOCK HUBBARD_U

SNAP_TO_SYMMETRY
SYMMETRY_GENERATE

