#              Generated by Buildcell
#
# at 03:51:27 (GMT+0.0) 24th November 2020
# in /lustre/scratch/uccabz1/launch_tmp
# on node-c12n-022
# by uccabz1
#
# compiler GCC version 4.9.2
# options -cpp -iprefix /lustre/shared/ucl/apps/gcc/4.9.2/bin/../lib/gcc/x86_64-unknown-linux-gnu/4.9.2/ -mtune=corei7 -march=x86-64 -g -Og
#
# seed -2116206257 -1729923101 -1802169933  -237242141  1607719693 -1497732084   617926496 -1570546120  -271808707  -937570357  2008090076    68923419
#
#      Author: C. J. Pickard (cjp20@cam.ac.uk)
#                Space group: P-1
#

%BLOCK LATTICE_ABC
      4.14632      6.12722      6.78446
    102.92940    106.38232     92.83387
%ENDBLOCK LATTICE_ABC

%BLOCK POSITIONS_FRAC
  Li   0.4406953   0.2677027   0.0388373 SPIN=   0.00000
  Li  -0.4406953  -0.2677027  -0.0388373 SPIN=   0.00000
   O   0.0792039   0.3576518   0.1984054 SPIN=   0.00000
   O   0.0611280  -0.0746963   0.1596449 SPIN=   0.00000
   O   0.2458176   0.1782276   0.5201781 SPIN=   0.00000
   O  -0.3627984   0.1326517   0.3023758 SPIN=   0.00000
   P   0.0053939   0.1594106   0.2900850 SPIN=   0.00000
   O  -0.0792039  -0.3576518  -0.1984054 SPIN=   0.00000
   O  -0.0611280   0.0746963  -0.1596449 SPIN=   0.00000
   O  -0.2458176  -0.1782276  -0.5201781 SPIN=   0.00000
   O   0.3627984  -0.1326517  -0.3023758 SPIN=   0.00000
   P  -0.0053939  -0.1594106  -0.2900850 SPIN=   0.00000
  Fe   0.2364131  -0.2977323   0.3496503 SPIN=   4.00000
  Fe  -0.2364131   0.2977323  -0.3496503 SPIN=   4.00000
%ENDBLOCK POSITIONS_FRAC

# Note: total spin =   8.00

KPOINTS_MP_SPACING 0.07

%BLOCK SPECIES_POT
QC5
%ENDBLOCK SPECIES_POT

%BLOCK HUBBARD_U
Fe d:4.0
%ENDBLOCK HUBBARD_U

SNAP_TO_SYMMETRY
SYMMETRY_GENERATE

