#              Generated by Buildcell
#
# at 00:10:42 (GMT+0.0) 24th November 2020
# in /lustre/scratch/uccabz1/launch_tmp
# on node-c12n-022
# by uccabz1
#
# compiler GCC version 4.9.2
# options -cpp -iprefix /lustre/shared/ucl/apps/gcc/4.9.2/bin/../lib/gcc/x86_64-unknown-linux-gnu/4.9.2/ -mtune=corei7 -march=x86-64 -g -Og
#
# seed  -140867197 -1442919745  1629268848  -568267508   321894713  -581566099 -1235277113  -880341147 -1400772956 -1371744459 -1203122645  -830793922
#
#      Author: C. J. Pickard (cjp20@cam.ac.uk)
#                Space group: P21
#

%BLOCK LATTICE_ABC
      4.19181      4.94652      7.86891
    101.29602     90.00000     90.00000
%ENDBLOCK LATTICE_ABC

%BLOCK POSITIONS_FRAC
  Li  -0.3781155   0.2744185   0.4873448 SPIN=   0.00000
  Li   0.1218845  -0.2744185  -0.4873448 SPIN=   0.00000
   O  -0.5732478  -0.3780817  -0.1084879 SPIN=   0.00000
   O  -0.0548044  -0.1034101  -0.1384549 SPIN=   0.00000
   O  -0.0748529  -0.5957143  -0.2785491 SPIN=   0.00000
   O  -0.4018730  -0.2533871  -0.3989136 SPIN=   0.00000
   P  -0.2934943  -0.3341320  -0.2265532 SPIN=   0.00000
   O  -0.0732478   0.3780817   0.1084879 SPIN=   0.00000
   O   0.4451956   0.1034101   0.1384549 SPIN=   0.00000
   O   0.4251471   0.5957143   0.2785491 SPIN=   0.00000
   O   0.0981270   0.2533871   0.3989136 SPIN=   0.00000
   P   0.2065057   0.3341320   0.2265532 SPIN=   0.00000
  Fe  -0.2130083  -0.2055762   0.1426888 SPIN=   4.00000
  Fe   0.2869917   0.2055762  -0.1426888 SPIN=   4.00000
%ENDBLOCK POSITIONS_FRAC

# Note: total spin =   8.00

KPOINTS_MP_SPACING 0.07

%BLOCK SPECIES_POT
QC5
%ENDBLOCK SPECIES_POT

%BLOCK HUBBARD_U
Fe d:4.0
%ENDBLOCK HUBBARD_U

SNAP_TO_SYMMETRY
SYMMETRY_GENERATE

