#              Generated by Buildcell
#
# at 03:06:18 (GMT+0.0) 24th November 2020
# in /lustre/scratch/uccabz1/launch_tmp
# on node-c12o-036
# by uccabz1
#
# compiler GCC version 4.9.2
# options -cpp -iprefix /lustre/shared/ucl/apps/gcc/4.9.2/bin/../lib/gcc/x86_64-unknown-linux-gnu/4.9.2/ -mtune=corei7 -march=x86-64 -g -Og
#
# seed  -770914702   583682233 -2095119266  -347186023  -210450810 -1920082967 -1373114992 -1580654681 -1335175975  -512935163  1105669740   144807544
#
#      Author: C. J. Pickard (cjp20@cam.ac.uk)
#                Space group: Cc
#

%BLOCK LATTICE_ABC
      4.70582      6.39154      6.50623
    112.51438    102.39115    107.42083
%ENDBLOCK LATTICE_ABC

%BLOCK POSITIONS_FRAC
  Li   0.0481943   0.0415333   0.3187800 SPIN=   0.00000
  Li  -0.2705856   0.2227534  -0.3187800 SPIN=   0.00000
   O   0.2039628  -0.4463833  -0.1269486 SPIN=   0.00000
   O   0.4936270  -0.1794968  -0.2991521 SPIN=   0.00000
   O   0.8195992  -0.2735636  -0.0247521 SPIN=   0.00000
   O   0.4482251  -0.6159365  -0.4386424 SPIN=   0.00000
   P   0.4755424  -0.3852391  -0.2198451 SPIN=   0.00000
   O  -0.6690885   0.1805653   0.1269486 SPIN=   0.00000
   O  -0.2072209   0.6196553   0.2991521 SPIN=   0.00000
   O  -0.1556487   0.2511885   0.0247521 SPIN=   0.00000
   O  -0.1131325   0.3227059   0.4386424 SPIN=   0.00000
   P  -0.3046125   0.3346061   0.2198451 SPIN=   0.00000
  Fe   0.0842199  -0.1206820  -0.2206733 SPIN=   4.00000
  Fe   0.3048932  -0.4000087   0.2206733 SPIN=   4.00000
%ENDBLOCK POSITIONS_FRAC

# Note: total spin =   8.00

KPOINTS_MP_SPACING 0.07

%BLOCK SPECIES_POT
QC5
%ENDBLOCK SPECIES_POT

%BLOCK HUBBARD_U
Fe d:4.0
%ENDBLOCK HUBBARD_U

SNAP_TO_SYMMETRY
SYMMETRY_GENERATE

