#              Generated by Buildcell
#
# at 04:01:49 (GMT+0.0) 24th November 2020
# in /lustre/scratch/uccabz1/launch_tmp
# on node-c12p-022
# by uccabz1
#
# compiler GCC version 4.9.2
# options -cpp -iprefix /lustre/shared/ucl/apps/gcc/4.9.2/bin/../lib/gcc/x86_64-unknown-linux-gnu/4.9.2/ -mtune=corei7 -march=x86-64 -g -Og
#
# seed   987560540   189572816  1871139690  1111802335  1431454066  -776418351  -864551956 -1385447347  1233358719 -1961268722  1844357336  1454586120
#
#      Author: C. J. Pickard (cjp20@cam.ac.uk)
#                Space group: C2
#

%BLOCK LATTICE_ABC
      5.64876      5.64876      6.28520
    101.56712    113.40843    109.56330
%ENDBLOCK LATTICE_ABC

%BLOCK POSITIONS_FRAC
  Li   0.2871021  -0.7128979  -0.0000000 SPIN=   0.00000
  Li   0.1547913   0.6547913   0.5000000 SPIN=   0.00000
   O  -0.0585148  -0.2827490   0.1710667 SPIN=   0.00000
   O   0.4087837  -0.3127957   0.2219446 SPIN=   0.00000
   O   0.1591798  -0.1721626  -0.1124204 SPIN=   0.00000
   O   0.4241621   0.1450686   0.3381467 SPIN=   0.00000
   P   0.2201107  -0.1588776   0.1577217 SPIN=   0.00000
   O  -0.4538156  -0.2295815  -0.1710667 SPIN=   0.00000
   O  -0.5347402   0.1868391  -0.2219446 SPIN=   0.00000
   O  -0.0597422   0.2716002   0.1124204 SPIN=   0.00000
   O  -0.1930781   0.0860154  -0.3381467 SPIN=   0.00000
   P  -0.3165994   0.0623890  -0.1577217 SPIN=   0.00000
  Fe  -0.3118315   0.5065380  -0.3039530 SPIN=   4.00000
  Fe  -0.1895089   0.9921216   0.3039530 SPIN=   4.00000
%ENDBLOCK POSITIONS_FRAC

# Note: total spin =   8.00

KPOINTS_MP_SPACING 0.07

%BLOCK SPECIES_POT
QC5
%ENDBLOCK SPECIES_POT

%BLOCK HUBBARD_U
Fe d:4.0
%ENDBLOCK HUBBARD_U

SNAP_TO_SYMMETRY
SYMMETRY_GENERATE

