#              Generated by Buildcell
#
# at 04:21:43 (GMT+0.0) 24th November 2020
# in /lustre/scratch/uccabz1/launch_tmp
# on node-c12f-022
# by uccabz1
#
# compiler GCC version 4.9.2
# options -cpp -iprefix /lustre/shared/ucl/apps/gcc/4.9.2/bin/../lib/gcc/x86_64-unknown-linux-gnu/4.9.2/ -mtune=corei7 -march=x86-64 -g -Og
#
# seed  2145454378  1057640520  1239886777  -598146307  -350289761 -1192804991  -335652618 -1737199814   194426330 -1540971218 -1042551894  1753981483
#
#      Author: C. J. Pickard (cjp20@cam.ac.uk)
#                Space group: P21
#

%BLOCK LATTICE_ABC
      4.76434      5.22404      6.43069
     90.00000     91.49082     90.00000
%ENDBLOCK LATTICE_ABC

%BLOCK POSITIONS_FRAC
  Li  -0.2422144  -0.4602663  -0.0017005 SPIN=   0.00000
  Li   0.2422144   0.0397337   0.0017005 SPIN=   0.00000
   O   0.1771996   0.7738281   0.2457294 SPIN=   0.00000
   O   0.3256246   0.4637168  -0.0475109 SPIN=   0.00000
   O   0.5460734   0.4124533   0.3018988 SPIN=   0.00000
   O   0.0402928   0.2954144   0.2441630 SPIN=   0.00000
   P   0.2644962   0.4994065   0.1899322 SPIN=   0.00000
   O  -0.1771996   0.2738281  -0.2457294 SPIN=   0.00000
   O  -0.3256246  -0.0362832   0.0475109 SPIN=   0.00000
   O  -0.5460734  -0.0875467  -0.3018988 SPIN=   0.00000
   O  -0.0402928  -0.2045856  -0.2441630 SPIN=   0.00000
   P  -0.2644962  -0.0005935  -0.1899322 SPIN=   0.00000
  Fe  -0.2518948   0.0378761   0.3652068 SPIN=   4.00000
  Fe   0.2518948  -0.4621239  -0.3652068 SPIN=   4.00000
%ENDBLOCK POSITIONS_FRAC

# Note: total spin =   8.00

KPOINTS_MP_SPACING 0.07

%BLOCK SPECIES_POT
QC5
%ENDBLOCK SPECIES_POT

%BLOCK HUBBARD_U
Fe d:4.0
%ENDBLOCK HUBBARD_U

SNAP_TO_SYMMETRY
SYMMETRY_GENERATE

