#              Generated by Buildcell
#
# at 00:27:35 (GMT+0.0) 24th November 2020
# in /lustre/scratch/uccabz1/launch_tmp
# on node-c12e-029
# by uccabz1
#
# compiler GCC version 4.9.2
# options -cpp -iprefix /lustre/shared/ucl/apps/gcc/4.9.2/bin/../lib/gcc/x86_64-unknown-linux-gnu/4.9.2/ -mtune=corei7 -march=x86-64 -g -Og
#
# seed  1585250824   675396098  2067685116  2016165974   777870314 -2002202477  -757680169  1186582527  -464238506   404374878 -1199182965  1052566990
#
#      Author: C. J. Pickard (cjp20@cam.ac.uk)
#                Space group: Cm
#

%BLOCK LATTICE_ABC
      4.85033      6.25874      6.25874
     97.57750    110.33765    110.33765
%ENDBLOCK LATTICE_ABC

%BLOCK POSITIONS_FRAC
  Li   0.1917159  -0.1765511   0.3894477 SPIN=   0.00000
  Li   0.1917159   0.3894477  -0.1765511 SPIN=   0.00000
   O  -0.4510230  -0.4410038   0.3002015 SPIN=   0.00000
   O  -0.2848434   0.0141843   0.3887834 SPIN=   0.00000
   O  -0.1716252  -0.1804057   0.0800309 SPIN=   0.00000
   O  -0.7456369  -0.2587357   0.0017878 SPIN=   0.00000
   P  -0.4192138  -0.2289430   0.1961718 SPIN=   0.00000
   O  -0.4510230   0.3002015  -0.4410038 SPIN=   0.00000
   O  -0.2848434   0.3887834   0.0141843 SPIN=   0.00000
   O  -0.1716252   0.0800309  -0.1804057 SPIN=   0.00000
   O  -0.7456369   0.0017878  -0.2587357 SPIN=   0.00000
   P  -0.4192138   0.1961718  -0.2289430 SPIN=   0.00000
  Fe  -0.1910169  -0.2650550  -0.2650550 SPIN=   3.70480
  Fe  -0.0185380   0.2503805   0.2503805 SPIN=   4.29520
%ENDBLOCK POSITIONS_FRAC

# Note: total spin =   8.00

KPOINTS_MP_SPACING 0.07

%BLOCK SPECIES_POT
QC5
%ENDBLOCK SPECIES_POT

%BLOCK HUBBARD_U
Fe d:4.0
%ENDBLOCK HUBBARD_U

SNAP_TO_SYMMETRY
SYMMETRY_GENERATE

