#              Generated by Buildcell
#
# at 22:49:14 (GMT+0.0) 23rd November 2020
# in /lustre/scratch/uccabz1/launch_tmp
# on node-c12c-025
# by uccabz1
#
# compiler GCC version 4.9.2
# options -cpp -iprefix /lustre/shared/ucl/apps/gcc/4.9.2/bin/../lib/gcc/x86_64-unknown-linux-gnu/4.9.2/ -mtune=corei7 -march=x86-64 -g -Og
#
# seed -1604825483 -1235509636   405071113  -893569609  -761177086  1859104372  1110988924  1103772439  1390134980 -1410990078 -1240618590 -1900932951
#
#      Author: C. J. Pickard (cjp20@cam.ac.uk)
#                Space group: Pm
#

%BLOCK LATTICE_ABC
      4.18588      4.23733      9.08923
     90.00000     90.00000     97.03971
%ENDBLOCK LATTICE_ABC

%BLOCK POSITIONS_FRAC
  Li  -0.0819559   0.0109352  -0.0000000 SPIN=   0.00000
  Li  -0.4669113  -0.0306804  -0.5000000 SPIN=   0.00000
   O   0.6726419  -0.0790587  -0.2431186 SPIN=   0.00000
   O   0.4171403   0.4050573  -0.1410730 SPIN=   0.00000
   O   0.1809222   0.1373290  -0.3641481 SPIN=   0.00000
   P   0.3602198   0.0698277  -0.2175066 SPIN=   0.00000
   O   0.6726419  -0.0790587   0.2431186 SPIN=   0.00000
   O   0.4171403   0.4050573   0.1410730 SPIN=   0.00000
   O   0.1809222   0.1373290   0.3641481 SPIN=   0.00000
   P   0.3602198   0.0698277   0.2175066 SPIN=   0.00000
   O  -0.0766881  -0.4905694   0.0000000 SPIN=   0.00000
   O   0.4076892  -0.0941420   0.0000000 SPIN=   0.00000
  Fe  -0.0843240  -0.4843165  -0.2816571 SPIN=   4.00000
  Fe  -0.0843240  -0.4843165   0.2816571 SPIN=   4.00000
%ENDBLOCK POSITIONS_FRAC

# Note: total spin =   8.00

KPOINTS_MP_SPACING 0.07

%BLOCK SPECIES_POT
QC5
%ENDBLOCK SPECIES_POT

%BLOCK HUBBARD_U
Fe d:4.0
%ENDBLOCK HUBBARD_U

SNAP_TO_SYMMETRY
SYMMETRY_GENERATE

