#              Generated by Buildcell
#
# at 22:00:05 (GMT+0.0) 23rd November 2020
# in /scratch/scratch/uccabz1/launch_tmp
# on node-a14a-001
# by uccabz1
#
# compiler GCC version 4.9.2
# options -cpp -iprefix /scratch/UCL/applications/gcc/4.9.2/bin/../lib/gcc/x86_64-unknown-linux-gnu/4.9.2/ -mtune=corei7 -march=x86-64 -g -O2
#
# seed -2110048620   742317982   128284755  -100644491   824328052   212018823  -300942118  -482091660 -2114076676  -248224016  -468710201 -1014539652
#
#      Author: C. J. Pickard (cjp20@cam.ac.uk)
#                Space group: Cm
#

%BLOCK LATTICE_ABC
      4.62076      6.18915      6.18915
     90.32079    107.54858    107.54858
%ENDBLOCK LATTICE_ABC

%BLOCK POSITIONS_FRAC
  Li   0.0038679   0.0689933   0.0689933 SPIN=   0.00000
  Li   0.0978125  -0.4411198  -0.4411198 SPIN=   0.00000
   O  -0.6474797   0.3113974  -0.0484793 SPIN=   0.00000
   O  -0.0319668   0.3960279   0.1162368 SPIN=   0.00000
   O  -0.2670636   0.4262558  -0.2930676 SPIN=   0.00000
   O  -0.2487997   0.7173529  -0.0023089 SPIN=   0.00000
   O  -0.6474797  -0.0484793   0.3113974 SPIN=   0.00000
   O  -0.0319668   0.1162368   0.3960279 SPIN=   0.00000
   O  -0.2670636  -0.2930676   0.4262558 SPIN=   0.00000
   O  -0.2487997  -0.0023089   0.7173529 SPIN=   0.00000
   P  -0.3583921   0.2403621   0.2403621 SPIN=   0.00000
   P  -0.2639875  -0.2700775  -0.2700775 SPIN=   0.00000
  Fe   0.3630697   0.1196761  -0.3251883 SPIN=   4.00000
  Fe   0.3630697  -0.3251883   0.1196761 SPIN=   4.00000
%ENDBLOCK POSITIONS_FRAC

# Note: total spin =   8.00

KPOINTS_MP_SPACING 0.07

%BLOCK SPECIES_POT
QC5
%ENDBLOCK SPECIES_POT

%BLOCK HUBBARD_U
Fe d:4.0
%ENDBLOCK HUBBARD_U

SNAP_TO_SYMMETRY
SYMMETRY_GENERATE

