#              Generated by Buildcell
#
# at 01:12:55 (GMT+0.0) 24th November 2020
# in /lustre/scratch/uccabz1/launch_tmp
# on node-c12i-027
# by uccabz1
#
# compiler GCC version 4.9.2
# options -cpp -iprefix /lustre/shared/ucl/apps/gcc/4.9.2/bin/../lib/gcc/x86_64-unknown-linux-gnu/4.9.2/ -mtune=corei7 -march=x86-64 -g -Og
#
# seed  -998740886 -1383392868   107213099   222750825   243990752  1143545810  -622761862  1487161502  1949939957  1127195300  -128434017 -2066617582
#
#      Author: C. J. Pickard (cjp20@cam.ac.uk)
#                Space group: Cm
#

%BLOCK LATTICE_ABC
      4.88514      6.02732      6.02732
     97.71495    105.84775    105.84775
%ENDBLOCK LATTICE_ABC

%BLOCK POSITIONS_FRAC
  Li  -0.1138126   0.0425493   0.0425493 SPIN=   0.00000
  Li  -0.0081811  -0.4845518  -0.4845518 SPIN=   0.00000
   O  -0.3718284   0.3574709   0.6270881 SPIN=   0.00000
   O  -0.4176121  -0.0771738   0.6535193 SPIN=   0.00000
   O  -0.7196291  -0.0050796   0.2857928 SPIN=   0.00000
   O  -0.1609034   0.1030659   0.3825241 SPIN=   0.00000
   O  -0.3718284   0.6270881   0.3574709 SPIN=   0.00000
   O  -0.4176121   0.6535193  -0.0771738 SPIN=   0.00000
   O  -0.7196291   0.2857928  -0.0050796 SPIN=   0.00000
   O  -0.1609034   0.3825241   0.1030659 SPIN=   0.00000
   P  -0.4045871  -0.3260336  -0.3260336 SPIN=   0.00000
   P   0.4849362   0.1880425   0.1880425 SPIN=   0.00000
  Fe   0.2707706  -0.3315517   0.0989600 SPIN=   4.00000
  Fe   0.2707706   0.0989600  -0.3315517 SPIN=   4.00000
%ENDBLOCK POSITIONS_FRAC

# Note: total spin =   8.00

KPOINTS_MP_SPACING 0.07

%BLOCK SPECIES_POT
QC5
%ENDBLOCK SPECIES_POT

%BLOCK HUBBARD_U
Fe d:4.0
%ENDBLOCK HUBBARD_U

SNAP_TO_SYMMETRY
SYMMETRY_GENERATE

