#              Generated by Buildcell
#
# at 22:48:10 (GMT+0.0) 23rd November 2020
# in /scratch/scratch/uccabz1/launch_tmp
# on node-a14a-009
# by uccabz1
#
# compiler GCC version 4.9.2
# options -cpp -iprefix /scratch/UCL/applications/gcc/4.9.2/bin/../lib/gcc/x86_64-unknown-linux-gnu/4.9.2/ -mtune=corei7 -march=x86-64 -g -O2
#
# seed  2053815320 -1748159111 -1482232513  -339974566   904695337  1389256221 -1316051863   771490819   617963400  -132213841 -1377323797   962556130
#
#      Author: C. J. Pickard (cjp20@cam.ac.uk)
#                Space group: P-1
#

%BLOCK LATTICE_ABC
      4.17478      4.19631      9.48276
     80.85520     77.38137     89.42341
%ENDBLOCK LATTICE_ABC

%BLOCK POSITIONS_FRAC
  Li  -0.5864618  -0.0650625   0.1663282 SPIN=   0.00000
  Li   0.5864618   0.0650625  -0.1663282 SPIN=   0.00000
   O   0.3165561   0.6655657  -0.2413691 SPIN=   0.00000
   O  -0.1354419   0.5363424  -0.3751680 SPIN=   0.00000
   O   0.3836267   0.2425276  -0.4175707 SPIN=   0.00000
   P   0.1462653   0.4033190  -0.2973555 SPIN=   0.00000
   O  -0.3165561  -0.6655657   0.2413691 SPIN=   0.00000
   O   0.1354419  -0.5363424   0.3751680 SPIN=   0.00000
   O  -0.3836267  -0.2425276   0.4175707 SPIN=   0.00000
   P  -0.1462653  -0.4033190   0.2973555 SPIN=   0.00000
   O   0.0000000  -0.0000000  -0.0000000 SPIN=   0.00000
   O   0.5000000  -0.5000000   0.0000000 SPIN=   0.00000
  Fe  -0.0000000   0.0000000   0.5000000 SPIN=   3.00156
  Fe   0.0000000   0.5000000  -0.0000000 SPIN=   4.99844
%ENDBLOCK POSITIONS_FRAC

# Note: total spin =   8.00

KPOINTS_MP_SPACING 0.07

%BLOCK SPECIES_POT
QC5
%ENDBLOCK SPECIES_POT

%BLOCK HUBBARD_U
Fe d:4.0
%ENDBLOCK HUBBARD_U

SNAP_TO_SYMMETRY
SYMMETRY_GENERATE

