#              Generated by Buildcell
#
# at 04:08:11 (GMT+0.0) 24th November 2020
# in /lustre/scratch/uccabz1/launch_tmp
# on node-c12a-035
# by uccabz1
#
# compiler GCC version 4.9.2
# options -cpp -iprefix /lustre/shared/ucl/apps/gcc/4.9.2/bin/../lib/gcc/x86_64-unknown-linux-gnu/4.9.2/ -mtune=corei7 -march=x86-64 -g -Og
#
# seed  2143326691   334191146   852839907   196691242  -270211735 -1528425686   268530352   533323671  1117914561 -1680764341  1802930383  -820493583
#
#      Author: C. J. Pickard (cjp20@cam.ac.uk)
#                Space group: P-1
#

%BLOCK LATTICE_ABC
      5.16199      5.67620      6.04318
     66.03900     85.58753     81.49132
%ENDBLOCK LATTICE_ABC

%BLOCK POSITIONS_FRAC
  Li   0.2561790   0.0909119   0.1159167 SPIN=   0.00000
  Li  -0.2561790  -0.0909119  -0.1159167 SPIN=   0.00000
   O  -0.4079046   0.2846200  -0.0028188 SPIN=   0.00000
   O   0.0380409   0.1802812  -0.1955044 SPIN=   0.00000
   O  -0.2828547   0.5345729  -0.4551008 SPIN=   0.00000
   P  -0.1876983   0.3951258  -0.1860333 SPIN=   0.00000
   O   0.4079046  -0.2846200   0.0028188 SPIN=   0.00000
   O  -0.0380409  -0.1802812   0.1955044 SPIN=   0.00000
   O   0.2828547  -0.5345729   0.4551008 SPIN=   0.00000
   P   0.1876983  -0.3951258   0.1860333 SPIN=   0.00000
   O  -0.0000000   0.0000000  -0.5000000 SPIN=   0.00000
   O  -0.5000000   0.0000000   0.5000000 SPIN=   0.00000
  Fe  -0.2988518   0.3224778   0.3104288 SPIN=   4.00000
  Fe   0.2988518  -0.3224778  -0.3104288 SPIN=   4.00000
%ENDBLOCK POSITIONS_FRAC

# Note: total spin =   8.00

KPOINTS_MP_SPACING 0.07

%BLOCK SPECIES_POT
QC5
%ENDBLOCK SPECIES_POT

%BLOCK HUBBARD_U
Fe d:4.0
%ENDBLOCK HUBBARD_U

SNAP_TO_SYMMETRY
SYMMETRY_GENERATE

