#              Generated by Buildcell
#
# at 00:32:09 (GMT+0.0) 24th November 2020
# in /lustre/scratch/uccabz1/launch_tmp
# on node-c12c-026
# by uccabz1
#
# compiler GCC version 4.9.2
# options -cpp -iprefix /lustre/shared/ucl/apps/gcc/4.9.2/bin/../lib/gcc/x86_64-unknown-linux-gnu/4.9.2/ -mtune=corei7 -march=x86-64 -g -Og
#
# seed -1754486988     6393394   249302716  1335025927   424900895     5490353 -2081455813  -165634888  1766027713  -365624897 -1072298247  -271450358
#
#      Author: C. J. Pickard (cjp20@cam.ac.uk)
#                Space group: P21/m
#

%BLOCK LATTICE_ABC
      5.08699      5.63753      5.79105
     90.00000     90.00000    105.54631
%ENDBLOCK LATTICE_ABC

%BLOCK POSITIONS_FRAC
  Li  -0.4898952   0.1487665  -0.2500000 SPIN=   0.00000
  Li   0.4898952  -0.1487665   0.2500000 SPIN=   0.00000
   O  -0.2451170  -0.0071814  -0.0270771 SPIN=   0.00000
   O  -0.2534352  -0.4653010   0.0367423 SPIN=   0.00000
   O   0.2451170   0.0071814  -0.5270771 SPIN=   0.00000
   O   0.2534352   0.4653010  -0.4632577 SPIN=   0.00000
   O   0.2451170   0.0071814   0.0270771 SPIN=   0.00000
   O   0.2534352   0.4653010  -0.0367423 SPIN=   0.00000
   O  -0.2451170  -0.0071814   0.5270771 SPIN=   0.00000
   O  -0.2534352  -0.4653010   0.4632577 SPIN=   0.00000
   P  -0.0579348  -0.3097298   0.2500000 SPIN=   0.00000
   P   0.0579348   0.3097298  -0.2500000 SPIN=   0.00000
  Fe  -0.1057526  -0.2411366  -0.2500000 SPIN=   4.00000
  Fe   0.1057526   0.2411366   0.2500000 SPIN=   4.00000
%ENDBLOCK POSITIONS_FRAC

# Note: total spin =   8.00

KPOINTS_MP_SPACING 0.07

%BLOCK SPECIES_POT
QC5
%ENDBLOCK SPECIES_POT

%BLOCK HUBBARD_U
Fe d:4.0
%ENDBLOCK HUBBARD_U

SNAP_TO_SYMMETRY
SYMMETRY_GENERATE

