#              Generated by Buildcell
#
# at 23:56:09 (GMT+0.0) 23rd November 2020
# in /lustre/scratch/uccabz1/launch_tmp
# on node-c12i-025
# by uccabz1
#
# compiler GCC version 4.9.2
# options -cpp -iprefix /lustre/shared/ucl/apps/gcc/4.9.2/bin/../lib/gcc/x86_64-unknown-linux-gnu/4.9.2/ -mtune=corei7 -march=x86-64 -g -Og
#
# seed   527475149   857430397  1645331721   554531697 -1652753265  1840509863  1332767007  1052589535  -565369134 -1033195627   505168975 -1801592789
#
#      Author: C. J. Pickard (cjp20@cam.ac.uk)
#                Space group: C2/c
#

%BLOCK LATTICE_ABC
      3.90316      3.90316     10.60493
     95.14480     95.14480     92.79750
%ENDBLOCK LATTICE_ABC

%BLOCK POSITIONS_FRAC
  Li   0.5561684   0.4438316   0.2500000 SPIN=   0.00000
  Li  -0.5561684  -0.4438316  -0.2500000 SPIN=   0.00000
   O  -0.0965172  -0.2033739  -0.1537153 SPIN=   0.00000
   O  -0.2090849  -0.4127532  -0.3940973 SPIN=   0.00000
   O   0.2033739   0.0965172  -0.3462847 SPIN=   0.00000
   O   0.4127532   0.2090849  -0.1059027 SPIN=   0.00000
   O   0.0965172   0.2033739   0.1537153 SPIN=   0.00000
   O   0.2090849   0.4127532   0.3940973 SPIN=   0.00000
   O  -0.2033739  -0.0965172   0.3462847 SPIN=   0.00000
   O  -0.4127532  -0.2090849   0.1059027 SPIN=   0.00000
   P  -0.0672293   0.0672293  -0.2500000 SPIN=   0.00000
   P   0.0672293  -0.0672293   0.2500000 SPIN=   0.00000
  Fe   0.0000000  -0.5000000   0.0000000 SPIN=   4.00000
  Fe   0.5000000   0.0000000  -0.5000000 SPIN=   4.00000
%ENDBLOCK POSITIONS_FRAC

# Note: total spin =   8.00

KPOINTS_MP_SPACING 0.07

%BLOCK SPECIES_POT
QC5
%ENDBLOCK SPECIES_POT

%BLOCK HUBBARD_U
Fe d:4.0
%ENDBLOCK HUBBARD_U

SNAP_TO_SYMMETRY
SYMMETRY_GENERATE

