#              Generated by Buildcell
#
# at 23:25:58 (GMT+0.0) 23rd November 2020
# in /lustre/scratch/uccabz1/launch_tmp
# on node-c12l-030
# by uccabz1
#
# compiler GCC version 4.9.2
# options -cpp -iprefix /lustre/shared/ucl/apps/gcc/4.9.2/bin/../lib/gcc/x86_64-unknown-linux-gnu/4.9.2/ -mtune=corei7 -march=x86-64 -g -Og
#
# seed -2086052447 -1586706173  1230718180 -1202263823 -1036615052  -194961826  -945553048    26244767 -1030085639 -1887989794  1576035028    68509580
#
#      Author: C. J. Pickard (cjp20@cam.ac.uk)
#                Space group: Pc
#

%BLOCK LATTICE_ABC
      4.61873      5.58747      6.73506
     90.00000     90.00000    112.99541
%ENDBLOCK LATTICE_ABC

%BLOCK POSITIONS_FRAC
  Li   0.3075660   0.4831952   0.1400007 SPIN=   0.00000
  Li   0.3075660  -0.0168048  -0.1400007 SPIN=   0.00000
   O   0.0411338   0.0568528  -0.4679278 SPIN=   0.00000
   O  -0.4028076   0.2096761  -0.3684914 SPIN=   0.00000
   O  -0.2464959  -0.0514704  -0.1278220 SPIN=   0.00000
   O   0.1204369   0.4068745  -0.1993488 SPIN=   0.00000
   P  -0.1103905   0.1531984  -0.2992432 SPIN=   0.00000
   O   0.0411338  -0.4431472   0.4679278 SPIN=   0.00000
   O  -0.4028076  -0.2903239   0.3684914 SPIN=   0.00000
   O  -0.2464959  -0.5514704   0.1278220 SPIN=   0.00000
   O   0.1204369  -0.0931255   0.1993488 SPIN=   0.00000
   P  -0.1103905  -0.3468016   0.2992432 SPIN=   0.00000
  Fe  -0.3779539   0.0840508   0.3027968 SPIN=   4.00000
  Fe  -0.3779539  -0.4159492  -0.3027968 SPIN=   4.00000
%ENDBLOCK POSITIONS_FRAC

# Note: total spin =   8.00

KPOINTS_MP_SPACING 0.07

%BLOCK SPECIES_POT
QC5
%ENDBLOCK SPECIES_POT

%BLOCK HUBBARD_U
Fe d:4.0
%ENDBLOCK HUBBARD_U

SNAP_TO_SYMMETRY
SYMMETRY_GENERATE

