#              Generated by Buildcell
#
# at 02:52:11 (GMT+0.0) 24th November 2020
# in /lustre/scratch/uccabz1/launch_tmp
# on node-c12g-036
# by uccabz1
#
# compiler GCC version 4.9.2
# options -cpp -iprefix /lustre/shared/ucl/apps/gcc/4.9.2/bin/../lib/gcc/x86_64-unknown-linux-gnu/4.9.2/ -mtune=corei7 -march=x86-64 -g -Og
#
# seed  1887841472  -235119590 -1974574187 -1796004080  1438474406 -1779900176 -2016436669   171062773  -967140023   733007921  -294763594   833629209
#
#      Author: C. J. Pickard (cjp20@cam.ac.uk)
#                Space group: Cm
#

%BLOCK LATTICE_ABC
      4.72493      5.85082      5.85082
     97.48043     92.55843     92.55843
%ENDBLOCK LATTICE_ABC

%BLOCK POSITIONS_FRAC
  Li   0.1550320   0.1913446   0.1913446 SPIN=   0.00000
  Li   0.1955717  -0.1941924  -0.1941924 SPIN=   0.00000
   O  -0.0594136   0.3274256  -0.1536492 SPIN=   0.00000
   O   0.4559778   0.2181423  -0.0600548 SPIN=   0.00000
   O   0.3137670   0.2547937  -0.4645266 SPIN=   0.00000
   P   0.2544580   0.3540672  -0.2091587 SPIN=   0.00000
   O  -0.0594136  -0.1536492   0.3274256 SPIN=   0.00000
   O   0.4559778  -0.0600548   0.2181423 SPIN=   0.00000
   O   0.3137670  -0.4645266   0.2547937 SPIN=   0.00000
   P   0.2544580  -0.2091587   0.3540672 SPIN=   0.00000
   O  -0.2298842  -0.1198900  -0.1198900 SPIN=   0.00000
   O  -0.2102670   0.3853975   0.3853975 SPIN=   0.00000
  Fe  -0.2998803   0.1003546  -0.4182294 SPIN=   4.00000
  Fe  -0.2998803  -0.4182294   0.1003546 SPIN=   4.00000
%ENDBLOCK POSITIONS_FRAC

# Note: total spin =   8.00

KPOINTS_MP_SPACING 0.07

%BLOCK SPECIES_POT
QC5
%ENDBLOCK SPECIES_POT

%BLOCK HUBBARD_U
Fe d:4.0
%ENDBLOCK HUBBARD_U

SNAP_TO_SYMMETRY
SYMMETRY_GENERATE

