#              Generated by Buildcell
#
# at 23:45:32 (GMT+0.0) 23rd November 2020
# in /lustre/scratch/uccabz1/launch_tmp
# on node-c12l-023
# by uccabz1
#
# compiler GCC version 4.9.2
# options -cpp -iprefix /lustre/shared/ucl/apps/gcc/4.9.2/bin/../lib/gcc/x86_64-unknown-linux-gnu/4.9.2/ -mtune=corei7 -march=x86-64 -g -Og
#
# seed -1614943011 -1523579919  -307512289   688945066  1896341361  2114689869   796648534 -1025180120  1105315515   271301726  1898243589    23863936
#
#      Author: C. J. Pickard (cjp20@cam.ac.uk)
#                Space group: Cm
#

%BLOCK LATTICE_ABC
      4.48045      6.05180      6.05180
    101.30747     93.85679     93.85679
%ENDBLOCK LATTICE_ABC

%BLOCK POSITIONS_FRAC
  Li   0.4251828  -0.3808036  -0.3808036 SPIN=   0.00000
  Li   0.3296756   0.2222473   0.2222473 SPIN=   0.00000
   O   0.1311977   0.0332780   0.7593644 SPIN=   0.00000
   O  -0.0505290   0.1003172   0.3628218 SPIN=   0.00000
   O   0.4408090  -0.0545322   0.4092182 SPIN=   0.00000
   O  -0.0309082  -0.2964902   0.4227714 SPIN=   0.00000
   P   0.1212858  -0.0525481   0.5021876 SPIN=   0.00000
   O   0.1311977   0.7593644   0.0332780 SPIN=   0.00000
   O  -0.0505290   0.3628218   0.1003172 SPIN=   0.00000
   O   0.4408090   0.4092182  -0.0545322 SPIN=   0.00000
   O  -0.0309082   0.4227714  -0.2964902 SPIN=   0.00000
   P   0.1212858   0.5021876  -0.0525481 SPIN=   0.00000
  Fe  -0.3360505  -0.2533011   0.1590199 SPIN=   4.00000
  Fe  -0.3360505   0.1590199  -0.2533011 SPIN=   4.00000
%ENDBLOCK POSITIONS_FRAC

# Note: total spin =   8.00

KPOINTS_MP_SPACING 0.07

%BLOCK SPECIES_POT
QC5
%ENDBLOCK SPECIES_POT

%BLOCK HUBBARD_U
Fe d:4.0
%ENDBLOCK HUBBARD_U

SNAP_TO_SYMMETRY
SYMMETRY_GENERATE

