#              Generated by Buildcell
#
# at 22:42:36 (GMT+0.0) 23rd November 2020
# in /scratch/scratch/uccabz1/launch_tmp
# on node-k10b-011
# by uccabz1
#
# compiler GCC version 4.9.2
# options -cpp -iprefix /scratch/UCL/applications/gcc/4.9.2/bin/../lib/gcc/x86_64-unknown-linux-gnu/4.9.2/ -mtune=corei7 -march=x86-64 -g -O2
#
# seed -1606153079   407162710  -731221682  1596128642 -1145267211 -2092594511 -1939231907  -735485942   355583670   181665289 -1271113212 -1781960396
#
#      Author: C. J. Pickard (cjp20@cam.ac.uk)
#                Space group: Pc
#

%BLOCK LATTICE_ABC
      4.85040      5.62563      5.86369
     90.00000     90.00000     90.00225
%ENDBLOCK LATTICE_ABC

%BLOCK POSITIONS_FRAC
  Li  -0.4385446  -0.2533822   0.4050619 SPIN=   0.00000
  Li   0.0614554   0.2466178  -0.4050619 SPIN=   0.00000
   O  -0.4996559  -0.5290044   0.0624428 SPIN=   0.00000
   O  -0.1669143  -0.3951589  -0.2601607 SPIN=   0.00000
   O  -0.4974761  -0.7181344  -0.3417721 SPIN=   0.00000
   O  -0.6701158  -0.3016426  -0.2933229 SPIN=   0.00000
   P  -0.4632265  -0.4861002  -0.1947972 SPIN=   0.00000
   O   0.0003441  -0.0290044  -0.0624428 SPIN=   0.00000
   O   0.3330857   0.1048411   0.2601607 SPIN=   0.00000
   O   0.0025239  -0.2181344   0.3417721 SPIN=   0.00000
   O  -0.1701158   0.1983574   0.2933229 SPIN=   0.00000
   P   0.0367735   0.0138998   0.1947972 SPIN=   0.00000
  Fe   0.0614210  -0.4854165   0.0965901 SPIN=   4.00000
  Fe  -0.4385790   0.0145835  -0.0965901 SPIN=   4.00000
%ENDBLOCK POSITIONS_FRAC

# Note: total spin =   8.00

KPOINTS_MP_SPACING 0.07

%BLOCK SPECIES_POT
QC5
%ENDBLOCK SPECIES_POT

%BLOCK HUBBARD_U
Fe d:4.0
%ENDBLOCK HUBBARD_U

SNAP_TO_SYMMETRY
SYMMETRY_GENERATE

