#              Generated by Buildcell
#
# at 19:47:10 (GMT+0.0) 30th November 2020
# in /scratch/scratch/mmm0366/launch_tmp
# on node-k98f-022
# by mmm0366
#
# compiler GCC version 4.9.2
# options -cpp -iprefix /scratch/UCL/applications/gcc/4.9.2/bin/../lib/gcc/x86_64-unknown-linux-gnu/4.9.2/ -mtune=corei7 -march=x86-64 -g -O2
#
# seed   133783274   488876192   582305845  1069365634 -1361792215  1507570249  1066743400  -857770583 -1060896967   554851892 -1017188753  -637248868
#
#      Author: C. J. Pickard (cjp20@cam.ac.uk)
#                Space group: C2
#

%BLOCK LATTICE_ABC
      5.42468      5.42468      6.00993
     99.14025     99.14025    109.73445
%ENDBLOCK LATTICE_ABC

%BLOCK POSITIONS_FRAC
  Li   0.2254280  -0.2254280   0.0000000 SPIN=   0.00000
  Li   0.1734333  -0.1734333   0.5000000 SPIN=   0.00000
   O  -0.1615056  -0.4828926   0.2611745 SPIN=   0.00000
   O  -0.4835721  -0.2221521   0.2816374 SPIN=   0.00000
   O  -0.0053985   0.0334969   0.2990843 SPIN=   0.00000
   O  -0.3024032  -0.2773515  -0.0734540 SPIN=   0.00000
   O   0.4828926   0.1615056  -0.2611745 SPIN=   0.00000
   O   0.2221521   0.4835721  -0.2816374 SPIN=   0.00000
   O  -0.0334969   0.0053985  -0.2990843 SPIN=   0.00000
   O   0.2773515   0.3024032   0.0734540 SPIN=   0.00000
   P  -0.1300631   0.1300631   0.5000000 SPIN=   0.00000
   P  -0.4710749   0.4710749   0.0000000 SPIN=   0.00000
  Fe  -0.1476249   0.1476249  -0.0000000 SPIN=   4.79660
  Fe  -0.4535181   0.4535181  -0.5000000 SPIN=   3.20340
%ENDBLOCK POSITIONS_FRAC

# Note: total spin =   8.00

KPOINTS_MP_SPACING 0.07

%BLOCK SPECIES_POT
QC5
%ENDBLOCK SPECIES_POT

%BLOCK HUBBARD_U
Fe d:4.0
%ENDBLOCK HUBBARD_U

SNAP_TO_SYMMETRY
SYMMETRY_GENERATE

