#              Generated by Buildcell
#
# at 23:42:45 (GMT+0.0) 23rd November 2020
# in /lustre/scratch/uccabz1/launch_tmp
# on node-c12d-032
# by uccabz1
#
# compiler GCC version 4.9.2
# options -cpp -iprefix /lustre/shared/ucl/apps/gcc/4.9.2/bin/../lib/gcc/x86_64-unknown-linux-gnu/4.9.2/ -mtune=corei7 -march=x86-64 -g -Og
#
# seed  1614310566  -861255260  1980348150 -1413483479  1993809454   491595452   284778913  1347906633 -1661790440  -900648481  1408352072  1013536283
#
#      Author: C. J. Pickard (cjp20@cam.ac.uk)
#                Space group: P-1
#

%BLOCK LATTICE_ABC
      4.15513      5.43421      7.79944
     79.28159     86.75374     67.63316
%ENDBLOCK LATTICE_ABC

%BLOCK POSITIONS_FRAC
  Li  -0.2006200  -0.1375658   0.1949134 SPIN=   0.00000
  Li   0.2006200   0.1375658  -0.1949134 SPIN=   0.00000
   O  -0.4114809   0.2343270   0.3010530 SPIN=   0.00000
   O  -0.7865010  -0.0433060   0.2680314 SPIN=   0.00000
   O  -0.9684016   0.2679606   0.4803182 SPIN=   0.00000
   O  -1.0265022   0.4568899   0.1602109 SPIN=   0.00000
   P  -0.7803234   0.2319429   0.3006534 SPIN=   0.00000
   O   0.4114809  -0.2343270  -0.3010530 SPIN=   0.00000
   O   0.7865010   0.0433060  -0.2680314 SPIN=   0.00000
   O   0.9684016  -0.2679606  -0.4803182 SPIN=   0.00000
   O   1.0265022  -0.4568899  -0.1602109 SPIN=   0.00000
   P   0.7803234  -0.2319429  -0.3006534 SPIN=   0.00000
  Fe  -0.5000000  -0.5000000   0.5000000 SPIN=   0.84405
  Fe  -0.5000000   0.5000000   0.0000000 SPIN=   7.15595
%ENDBLOCK POSITIONS_FRAC

# Note: total spin =   8.00

KPOINTS_MP_SPACING 0.07

%BLOCK SPECIES_POT
QC5
%ENDBLOCK SPECIES_POT

%BLOCK HUBBARD_U
Fe d:4.0
%ENDBLOCK HUBBARD_U

SNAP_TO_SYMMETRY
SYMMETRY_GENERATE

