#              Generated by Buildcell
#
# at 21:26:17 (GMT+0.0) 23rd November 2020
# in /lustre/scratch/uccabz1/launch_tmp
# on node-c12a-027
# by uccabz1
#
# compiler GCC version 4.9.2
# options -cpp -iprefix /lustre/shared/ucl/apps/gcc/4.9.2/bin/../lib/gcc/x86_64-unknown-linux-gnu/4.9.2/ -mtune=corei7 -march=x86-64 -g -Og
#
# seed -1086173103  1192996604 -2070967230   231708587  -974780753  -141748788  -973853017  1179606000  1200113803   539100721  -117918897  1201636106
#
#      Author: C. J. Pickard (cjp20@cam.ac.uk)
#                Space group: I-4
#

%BLOCK LATTICE_ABC
      5.46841      5.46841      6.60152
    114.46759    114.46759     90.00000
%ENDBLOCK LATTICE_ABC

%BLOCK POSITIONS_FRAC
  Li   0.0000040  -0.4999960   0.0000080 SPIN=   0.00000
  Li   0.4999960  -0.0000040  -0.0000080 SPIN=   0.00000
   O   0.4193236   0.0469929   0.3047108 SPIN=   0.00000
   O   0.0092339  -0.1716940   0.3196624 SPIN=   0.00000
   O  -0.1146128   0.2577180   0.3047108 SPIN=   0.00000
   O   0.3104285   0.4913565   0.3196624 SPIN=   0.00000
   O  -0.0469929   0.1146128  -0.3047108 SPIN=   0.00000
   O   0.1716940  -0.3104285  -0.3196624 SPIN=   0.00000
   O  -0.2577180  -0.4193236  -0.3047108 SPIN=   0.00000
   O  -0.4913565  -0.0092339  -0.3196624 SPIN=   0.00000
   P   0.2500000  -0.2500000  -0.5000000 SPIN=   0.00000
   P  -0.2500000   0.2500000  -0.5000000 SPIN=   0.00000
  Fe  -0.3199575  -0.3199575   0.3600849 SPIN=   4.00000
  Fe   0.3199575   0.3199575  -0.3600849 SPIN=   4.00000
%ENDBLOCK POSITIONS_FRAC

# Note: total spin =   8.00

KPOINTS_MP_SPACING 0.07

%BLOCK SPECIES_POT
QC5
%ENDBLOCK SPECIES_POT

%BLOCK HUBBARD_U
Fe d:4.0
%ENDBLOCK HUBBARD_U

SNAP_TO_SYMMETRY
SYMMETRY_GENERATE

