#              Generated by Buildcell
#
# at 23:03:09 (GMT+0.0) 23rd November 2020
# in /lustre/scratch/uccabz1/launch_tmp
# on node-c12e-033
# by uccabz1
#
# compiler GCC version 4.9.2
# options -cpp -iprefix /lustre/shared/ucl/apps/gcc/4.9.2/bin/../lib/gcc/x86_64-unknown-linux-gnu/4.9.2/ -mtune=corei7 -march=x86-64 -g -Og
#
# seed -1532641517 -1630894927  -186693822   733866762 -1549676986 -1294302667 -2131959069  -788302509 -1002573549   763414439 -1641879747   448924671
#
#      Author: C. J. Pickard (cjp20@cam.ac.uk)
#                Space group: P21/m
#

%BLOCK LATTICE_ABC
      5.10419      5.89797      5.98041
    117.28843     90.00000     90.00000
%ENDBLOCK LATTICE_ABC

%BLOCK POSITIONS_FRAC
  Li  -0.2500000  -0.3576352   0.1124088 SPIN=   0.00000
  Li   0.2500000   0.3576352  -0.1124088 SPIN=   0.00000
   O   0.5038837   0.3472660   0.1771224 SPIN=   0.00000
   O   0.4919526  -0.0389548   0.2745938 SPIN=   0.00000
   O   0.0038837  -0.3472660  -0.1771224 SPIN=   0.00000
   O  -0.0080474   0.0389548  -0.2745938 SPIN=   0.00000
   O  -0.5038837  -0.3472660  -0.1771224 SPIN=   0.00000
   O  -0.4919526   0.0389548  -0.2745938 SPIN=   0.00000
   O  -0.0038837   0.3472660   0.1771224 SPIN=   0.00000
   O   0.0080474  -0.0389548   0.2745938 SPIN=   0.00000
   P  -0.2500000  -0.1796851  -0.2426082 SPIN=   0.00000
   P   0.2500000   0.1796851   0.2426082 SPIN=   0.00000
  Fe  -0.2500000  -0.7470091  -0.4968969 SPIN=   4.00000
  Fe   0.2500000   0.7470091   0.4968969 SPIN=   4.00000
%ENDBLOCK POSITIONS_FRAC

# Note: total spin =   8.00

KPOINTS_MP_SPACING 0.07

%BLOCK SPECIES_POT
QC5
%ENDBLOCK SPECIES_POT

%BLOCK HUBBARD_U
Fe d:4.0
%ENDBLOCK HUBBARD_U

SNAP_TO_SYMMETRY
SYMMETRY_GENERATE

