#              Generated by Buildcell
#
# at 00:37:58 (GMT+0.0) 24th November 2020
# in /lustre/scratch/uccabz1/launch_tmp
# on node-c12l-025
# by uccabz1
#
# compiler GCC version 4.9.2
# options -cpp -iprefix /lustre/shared/ucl/apps/gcc/4.9.2/bin/../lib/gcc/x86_64-unknown-linux-gnu/4.9.2/ -mtune=corei7 -march=x86-64 -g -Og
#
# seed -1351426728 -1781241363    44294662 -1411254689 -1265365692 -1149333866   995757021  1553135935  -932944273 -1619231873  -216267528  -437428873
#
#      Author: C. J. Pickard (cjp20@cam.ac.uk)
#                Space group: P-1
#

%BLOCK LATTICE_ABC
      3.86775      4.88822      8.85026
     96.60994     98.81065    101.78913
%ENDBLOCK LATTICE_ABC

%BLOCK POSITIONS_FRAC
  Li  -0.5000000   0.0000000   0.0000000 SPIN=   0.00000
  Li   0.5000000   0.5000000   0.5000000 SPIN=   0.00000
   O   0.5733656   0.6635450   0.1539963 SPIN=   0.00000
   O   0.0210904   0.2557745   0.0330807 SPIN=   0.00000
   O   0.4897674   0.1590089   0.2293075 SPIN=   0.00000
   O   0.0894810   0.4701971   0.3100017 SPIN=   0.00000
   P   0.3059247   0.4028293   0.1816423 SPIN=   0.00000
   O  -0.5733656  -0.6635450  -0.1539963 SPIN=   0.00000
   O  -0.0210904  -0.2557745  -0.0330807 SPIN=   0.00000
   O  -0.4897674  -0.1590089  -0.2293075 SPIN=   0.00000
   O  -0.0894810  -0.4701971  -0.3100017 SPIN=   0.00000
   P  -0.3059247  -0.4028293  -0.1816423 SPIN=   0.00000
  Fe   0.0608917  -0.1130173   0.2918757 SPIN=   4.00000
  Fe  -0.0608917   0.1130173  -0.2918757 SPIN=   4.00000
%ENDBLOCK POSITIONS_FRAC

# Note: total spin =   8.00

KPOINTS_MP_SPACING 0.07

%BLOCK SPECIES_POT
QC5
%ENDBLOCK SPECIES_POT

%BLOCK HUBBARD_U
Fe d:4.0
%ENDBLOCK HUBBARD_U

SNAP_TO_SYMMETRY
SYMMETRY_GENERATE

