#              Generated by Buildcell
#
# at 05:49:17 (GMT+0.0) 24th November 2020
# in /lustre/scratch/uccabz1/launch_tmp
# on node-c12o-036
# by uccabz1
#
# compiler GCC version 4.9.2
# options -cpp -iprefix /lustre/shared/ucl/apps/gcc/4.9.2/bin/../lib/gcc/x86_64-unknown-linux-gnu/4.9.2/ -mtune=corei7 -march=x86-64 -g -Og
#
# seed -1630407905   791796149 -1860428911 -1960029966 -1784904300  -702262710   827763043  -802879469   494213183  -913029084 -1072103178  -427219833
#
#      Author: C. J. Pickard (cjp20@cam.ac.uk)
#                Space group: C2
#

%BLOCK LATTICE_ABC
      4.77650      4.77650      7.69858
     97.49169     97.49169    110.63612
%ENDBLOCK LATTICE_ABC

%BLOCK POSITIONS_FRAC
  Li  -0.0331373  -0.0840055   0.2871001 SPIN=   0.00000
  Li   0.0840055   0.0331373  -0.2871001 SPIN=   0.00000
   O   0.0668288   0.4598963  -0.3143720 SPIN=   0.00000
   O  -0.2730734   0.0524193  -0.1586485 SPIN=   0.00000
   O  -0.2319718   0.5847334  -0.0762587 SPIN=   0.00000
   O  -0.5201161   0.2796046  -0.3775889 SPIN=   0.00000
   O  -0.4598963  -0.0668288   0.3143720 SPIN=   0.00000
   O  -0.0524193   0.2730734   0.1586485 SPIN=   0.00000
   O  -0.5847334   0.2319718   0.0762587 SPIN=   0.00000
   O  -0.2796046   0.5201161   0.3775889 SPIN=   0.00000
   P  -0.2911813   0.2911813   0.0000000 SPIN=   0.00000
   P  -0.2485736   0.2485736  -0.5000000 SPIN=   0.00000
  Fe   0.3884012  -0.3884012  -0.5000000 SPIN=   3.86806
  Fe   0.3234609  -0.3234609   0.0000000 SPIN=   4.13194
%ENDBLOCK POSITIONS_FRAC

# Note: total spin =   8.00

KPOINTS_MP_SPACING 0.07

%BLOCK SPECIES_POT
QC5
%ENDBLOCK SPECIES_POT

%BLOCK HUBBARD_U
Fe d:4.0
%ENDBLOCK HUBBARD_U

SNAP_TO_SYMMETRY
SYMMETRY_GENERATE

