#              Generated by Buildcell
#
# at 21:13:54 (GMT+0.0) 23rd November 2020
# in /lustre/scratch/uccabz1/launch_tmp
# on node-c12a-033
# by uccabz1
#
# compiler GCC version 4.9.2
# options -cpp -iprefix /lustre/shared/ucl/apps/gcc/4.9.2/bin/../lib/gcc/x86_64-unknown-linux-gnu/4.9.2/ -mtune=corei7 -march=x86-64 -g -Og
#
# seed -1120027226 -1770528417  1369539109 -1624998624   408519659   136023706  -496919214  2096561122   709700520   166495433  -489574812 -1473637310
#
#      Author: C. J. Pickard (cjp20@cam.ac.uk)
#                Space group: Pc
#

%BLOCK LATTICE_ABC
      3.89864      4.83164      8.53311
     95.48807     90.00000     90.00000
%ENDBLOCK LATTICE_ABC

%BLOCK POSITIONS_FRAC
  Li  -0.4409093  -0.2346340  -0.4860145 SPIN=   0.00000
  Li   0.4409093   0.2653660   0.0139855 SPIN=   0.00000
   O  -0.0850246   0.2312945  -0.1311471 SPIN=   0.00000
   O  -0.1067923   0.1062469  -0.4339510 SPIN=   0.00000
   O  -0.6069748  -0.0109559  -0.2753777 SPIN=   0.00000
   O  -0.4830539   0.4875932  -0.3113944 SPIN=   0.00000
   P  -0.3098443   0.2083743  -0.2798941 SPIN=   0.00000
   O   0.0850246  -0.2687055   0.3688529 SPIN=   0.00000
   O   0.1067923  -0.3937531   0.0660490 SPIN=   0.00000
   O   0.6069748  -0.5109559   0.2246223 SPIN=   0.00000
   O   0.4830539  -0.0124068   0.1886056 SPIN=   0.00000
   P   0.3098443  -0.2916257   0.2201059 SPIN=   0.00000
  Fe  -0.0032314  -0.2641770  -0.1563588 SPIN=   4.00000
  Fe   0.0032314   0.2358230   0.3436412 SPIN=   4.00000
%ENDBLOCK POSITIONS_FRAC

# Note: total spin =   8.00

KPOINTS_MP_SPACING 0.07

%BLOCK SPECIES_POT
QC5
%ENDBLOCK SPECIES_POT

%BLOCK HUBBARD_U
Fe d:4.0
%ENDBLOCK HUBBARD_U

SNAP_TO_SYMMETRY
SYMMETRY_GENERATE

