#              Generated by Buildcell
#
# at 03:28:57 (GMT+0.0) 24th November 2020
# in /lustre/scratch/uccabz1/launch_tmp
# on node-c12e-031
# by uccabz1
#
# compiler GCC version 4.9.2
# options -cpp -iprefix /lustre/shared/ucl/apps/gcc/4.9.2/bin/../lib/gcc/x86_64-unknown-linux-gnu/4.9.2/ -mtune=corei7 -march=x86-64 -g -Og
#
# seed -1973806351   -74696996   134401001 -1632142770   333654524 -1161000220  -450696120 -1726349429  -474837708  -478918810  1880160957  -927515265
#
#      Author: C. J. Pickard (cjp20@cam.ac.uk)
#                Space group: Aem2
#

%BLOCK LATTICE_ABC
      4.37035      6.13833      6.13833
    103.67908     90.00000     90.00000
%ENDBLOCK LATTICE_ABC

%BLOCK POSITIONS_FRAC
  Li  -0.0000024  -0.0545398  -0.4454602 SPIN=   0.00000
  Li   0.0000024   0.4454602   0.0545398 SPIN=   0.00000
   O   0.2493372  -0.1018274   0.2494306 SPIN=   0.00000
   O   0.2494111  -0.0067024  -0.1411125 SPIN=   0.00000
   O  -0.2493372  -0.2494306   0.1018274 SPIN=   0.00000
   O  -0.2494111   0.1411125   0.0067024 SPIN=   0.00000
   O   0.2493372  -0.7494306  -0.3981726 SPIN=   0.00000
   O   0.2494111  -0.3588875  -0.4932976 SPIN=   0.00000
   O  -0.2493372  -0.6018274  -0.2505694 SPIN=   0.00000
   O  -0.2494111  -0.5067024  -0.6411125 SPIN=   0.00000
   P   0.5000000   0.7188609   0.2811391 SPIN=   0.00000
   P  -0.5000000   0.2188609  -0.2188609 SPIN=   0.00000
  Fe   0.4996241  -0.3045000  -0.1955000 SPIN=   4.00000
  Fe  -0.4996241   0.1955000   0.3045000 SPIN=   4.00000
%ENDBLOCK POSITIONS_FRAC

# Note: total spin =   8.00

KPOINTS_MP_SPACING 0.07

%BLOCK SPECIES_POT
QC5
%ENDBLOCK SPECIES_POT

%BLOCK HUBBARD_U
Fe d:4.0
%ENDBLOCK HUBBARD_U

SNAP_TO_SYMMETRY
SYMMETRY_GENERATE

