#              Generated by Buildcell
#
# at 02:02:23 (GMT+0.0) 24th November 2020
# in /lustre/scratch/uccabz1/launch_tmp
# on node-c12c-030
# by uccabz1
#
# compiler GCC version 4.9.2
# options -cpp -iprefix /lustre/shared/ucl/apps/gcc/4.9.2/bin/../lib/gcc/x86_64-unknown-linux-gnu/4.9.2/ -mtune=corei7 -march=x86-64 -g -Og
#
# seed  1786598879 -1549597703 -1836313299 -1578431161  1382897657  1475587851  1475053262 -1195643320  1441906205 -1078553211  -785884302  1571306760
#
#      Author: C. J. Pickard (cjp20@cam.ac.uk)
#                Space group: Cm
#

%BLOCK LATTICE_ABC
      4.84131      6.25066      6.25066
     88.44202     67.54869     67.54869
%ENDBLOCK LATTICE_ABC

%BLOCK POSITIONS_FRAC
  Li  -0.5580007   0.4797917  -0.1389065 SPIN=   0.00000
  Li  -0.5580007  -0.1389065   0.4797917 SPIN=   0.00000
   O   0.0162442  -0.1870693   0.5312263 SPIN=   0.00000
   O   0.4128716  -0.2422963   0.0964844 SPIN=   0.00000
   O   0.1199345  -0.5025706   0.2148332 SPIN=   0.00000
   O  -0.1890766  -0.0806555   0.2012367 SPIN=   0.00000
   P   0.0827733  -0.2475940   0.2746316 SPIN=   0.00000
   O   0.0162442   0.5312263  -0.1870693 SPIN=   0.00000
   O   0.4128716   0.0964844  -0.2422963 SPIN=   0.00000
   O   0.1199345   0.2148332  -0.5025706 SPIN=   0.00000
   O  -0.1890766   0.2012367  -0.0806555 SPIN=   0.00000
   P   0.0827733   0.2746316  -0.2475940 SPIN=   0.00000
  Fe  -0.2535264  -0.1078691  -0.1078691 SPIN=   1.32066
  Fe  -0.1568653   0.2952170   0.2952170 SPIN=   6.67934
%ENDBLOCK POSITIONS_FRAC

# Note: total spin =   8.00

KPOINTS_MP_SPACING 0.07

%BLOCK SPECIES_POT
QC5
%ENDBLOCK SPECIES_POT

%BLOCK HUBBARD_U
Fe d:4.0
%ENDBLOCK HUBBARD_U

SNAP_TO_SYMMETRY
SYMMETRY_GENERATE

