#              Generated by Buildcell
#
# at 00:38:03 (GMT+0.0) 24th November 2020
# in /scratch/scratch/uccabz1/launch_tmp
# on node-k10h-028
# by uccabz1
#
# compiler GCC version 4.9.2
# options -cpp -iprefix /scratch/UCL/applications/gcc/4.9.2/bin/../lib/gcc/x86_64-unknown-linux-gnu/4.9.2/ -mtune=corei7 -march=x86-64 -g -O2
#
# seed   698622944 -1699444225 -2051142188 -1918138759  1773947389 -1758033663 -1735249268  1866613263 -2003592120  1275034794 -1035355131 -1404413663
#
#      Author: C. J. Pickard (cjp20@cam.ac.uk)
#                Space group: P-1
#

%BLOCK LATTICE_ABC
      4.82866      5.38006      6.27079
     91.51463     90.19319    100.72197
%ENDBLOCK LATTICE_ABC

%BLOCK POSITIONS_FRAC
  Li  -0.5000000   0.5000000  -0.0000000 SPIN=   0.00000
  Li   0.5000000  -0.5000000  -0.5000000 SPIN=   0.00000
   O   0.2917955  -0.1417888  -0.0817538 SPIN=   0.00000
   O   0.1998720  -0.2609228  -0.4833147 SPIN=   0.00000
   O   0.1735879  -0.6060759  -0.2278874 SPIN=   0.00000
   O  -0.2023890  -0.3421223  -0.2278697 SPIN=   0.00000
   P   0.1213379  -0.3273465  -0.2456483 SPIN=   0.00000
   O  -0.2917955   0.1417888   0.0817538 SPIN=   0.00000
   O  -0.1998720   0.2609228   0.4833147 SPIN=   0.00000
   O  -0.1735879   0.6060759   0.2278874 SPIN=   0.00000
   O   0.2023890   0.3421223   0.2278697 SPIN=   0.00000
   P  -0.1213379   0.3273465   0.2456483 SPIN=   0.00000
  Fe  -0.2424489   0.0394344  -0.2433425 SPIN=   4.00000
  Fe   0.2424489  -0.0394344   0.2433425 SPIN=   4.00000
%ENDBLOCK POSITIONS_FRAC

# Note: total spin =   8.00

KPOINTS_MP_SPACING 0.07

%BLOCK SPECIES_POT
QC5
%ENDBLOCK SPECIES_POT

%BLOCK HUBBARD_U
Fe d:4.0
%ENDBLOCK HUBBARD_U

SNAP_TO_SYMMETRY
SYMMETRY_GENERATE

