#              Generated by Buildcell
#
# at 04:25:22 (GMT+0.0) 24th November 2020
# in /scratch/scratch/uccabz1/launch_tmp
# on node-a14a-001
# by uccabz1
#
# compiler GCC version 4.9.2
# options -cpp -iprefix /scratch/UCL/applications/gcc/4.9.2/bin/../lib/gcc/x86_64-unknown-linux-gnu/4.9.2/ -mtune=corei7 -march=x86-64 -g -O2
#
# seed  1388863806  1125094598  1812601521  2055261247   430942661   171761551  -733090020  1304266975  -972683893   133578537  1057093144   979783258
#
#      Author: C. J. Pickard (cjp20@cam.ac.uk)
#                Space group: I-4
#

%BLOCK LATTICE_ABC
      5.47224      5.47224      6.59704
    114.50357    114.50357     90.00000
%ENDBLOCK LATTICE_ABC

%BLOCK POSITIONS_FRAC
  Li   0.2500010   0.2500010  -0.4999981 SPIN=   0.00000
  Li  -0.2500010  -0.2500010   0.4999981 SPIN=   0.00000
   O   0.3737374   0.3359069   0.2314645 SPIN=   0.00000
   O   0.4050567  -0.1393956   0.2280832 SPIN=   0.00000
   O  -0.1422729  -0.1044424   0.2314645 SPIN=   0.00000
   O  -0.1769735   0.3674788   0.2280832 SPIN=   0.00000
   O  -0.3359069   0.1422729  -0.2314645 SPIN=   0.00000
   O   0.1393956   0.1769735  -0.2280832 SPIN=   0.00000
   O   0.1044424  -0.3737374  -0.2314645 SPIN=   0.00000
   O  -0.3674788  -0.4050567  -0.2280832 SPIN=   0.00000
   P   0.0000000  -0.0000000  -0.0000000 SPIN=   0.00000
   P   0.5000000  -0.5000000  -0.0000000 SPIN=   0.00000
  Fe   0.4301751  -0.0698249  -0.1396497 SPIN=   4.00000
  Fe   0.0698249  -0.4301751   0.1396497 SPIN=   4.00000
%ENDBLOCK POSITIONS_FRAC

# Note: total spin =   8.00

KPOINTS_MP_SPACING 0.07

%BLOCK SPECIES_POT
QC5
%ENDBLOCK SPECIES_POT

%BLOCK HUBBARD_U
Fe d:4.0
%ENDBLOCK HUBBARD_U

SNAP_TO_SYMMETRY
SYMMETRY_GENERATE

