#              Generated by Buildcell
#
# at 04:34:08 (GMT+0.0) 24th November 2020
# in /lustre/scratch/uccabz1/launch_tmp
# on node-c12g-024
# by uccabz1
#
# compiler GCC version 4.9.2
# options -cpp -iprefix /lustre/shared/ucl/apps/gcc/4.9.2/bin/../lib/gcc/x86_64-unknown-linux-gnu/4.9.2/ -mtune=corei7 -march=x86-64 -g -Og
#
# seed -1168633924   465741718  1581540159  -442641189    75013452   539816529   217245428  1779804764 -1500720664 -2066299343  -280348649  -416717048
#
#      Author: C. J. Pickard (cjp20@cam.ac.uk)
#                Space group: P-1
#

%BLOCK LATTICE_ABC
      3.89177      5.28750      7.78851
     90.00267     90.00096     93.32701
%ENDBLOCK LATTICE_ABC

%BLOCK POSITIONS_FRAC
  Li   0.5000000   0.0000000  -0.5000000 SPIN=   0.00000
  Li  -0.5000000   0.0000000   0.0000000 SPIN=   0.00000
   O   0.4389574  -0.3901145   0.2529588 SPIN=   0.00000
   O   0.3528021   0.0934505   0.2500017 SPIN=   0.00000
   O  -0.0631363  -0.1900449   0.0919454 SPIN=   0.00000
   O  -0.0625193  -0.1948635   0.4134744 SPIN=   0.00000
   O  -0.4389574   0.3901145  -0.2529588 SPIN=   0.00000
   O  -0.3528021  -0.0934505  -0.2500017 SPIN=   0.00000
   O   0.0631363   0.1900449  -0.0919454 SPIN=   0.00000
   O   0.0625193   0.1948635  -0.4134744 SPIN=   0.00000
   P  -0.5000000  -0.5000000   0.5000000 SPIN=   0.00000
   P  -0.5000000  -0.5000000   0.0000000 SPIN=   0.00000
  Fe   0.0099906  -0.3697222  -0.2499996 SPIN=   4.00000
  Fe  -0.0099906   0.3697222   0.2499996 SPIN=   4.00000
%ENDBLOCK POSITIONS_FRAC

# Note: total spin =   8.00

KPOINTS_MP_SPACING 0.07

%BLOCK SPECIES_POT
QC5
%ENDBLOCK SPECIES_POT

%BLOCK HUBBARD_U
Fe d:4.0
%ENDBLOCK HUBBARD_U

SNAP_TO_SYMMETRY
SYMMETRY_GENERATE

