#              Generated by Buildcell
#
# at 01:37:19 (GMT+0.0) 24th November 2020
# in /lustre/scratch/uccabz1/launch_tmp
# on node-c12g-020
# by uccabz1
#
# compiler GCC version 4.9.2
# options -cpp -iprefix /lustre/shared/ucl/apps/gcc/4.9.2/bin/../lib/gcc/x86_64-unknown-linux-gnu/4.9.2/ -mtune=corei7 -march=x86-64 -g -Og
#
# seed    66389832   291870893 -1605654501 -1796937331   464909255 -1303811044  1974141838  1335058635 -1738422123   493592244 -2110743569   -16571646
#
#      Author: C. J. Pickard (cjp20@cam.ac.uk)
#                Space group: P-1
#

%BLOCK LATTICE_ABC
      4.75101      4.92559      7.00380
     97.17773     93.08549     99.33772
%ENDBLOCK LATTICE_ABC

%BLOCK POSITIONS_FRAC
  Li   0.1952229   0.2863236  -0.0079789 SPIN=   0.00000
  Li  -0.1952229  -0.2863236   0.0079789 SPIN=   0.00000
   O  -0.0325748   0.4652965  -0.2131668 SPIN=   0.00000
   O  -0.0812614  -0.0694754  -0.3003906 SPIN=   0.00000
   O  -0.4769220   0.1179966  -0.1451536 SPIN=   0.00000
   P  -0.2356858   0.1909172  -0.2848106 SPIN=   0.00000
   O   0.0325748  -0.4652965   0.2131668 SPIN=   0.00000
   O   0.0812614   0.0694754   0.3003906 SPIN=   0.00000
   O   0.4769220  -0.1179966   0.1451536 SPIN=   0.00000
   P   0.2356858  -0.1909172   0.2848106 SPIN=   0.00000
   O  -0.5000000  -0.0000000  -0.5000000 SPIN=   0.00000
   O  -0.5000000   0.5000000  -0.5000000 SPIN=   0.00000
  Fe   0.2857857  -0.2526909  -0.3144900 SPIN=   4.00000
  Fe  -0.2857857   0.2526909   0.3144900 SPIN=   4.00000
%ENDBLOCK POSITIONS_FRAC

# Note: total spin =   8.00

KPOINTS_MP_SPACING 0.07

%BLOCK SPECIES_POT
QC5
%ENDBLOCK SPECIES_POT

%BLOCK HUBBARD_U
Fe d:4.0
%ENDBLOCK HUBBARD_U

SNAP_TO_SYMMETRY
SYMMETRY_GENERATE

