#              Generated by Buildcell
#
# at 03:19:58 (GMT+0.0) 24th November 2020
# in /lustre/scratch/uccabz1/launch_tmp
# on node-c12i-025
# by uccabz1
#
# compiler GCC version 4.9.2
# options -cpp -iprefix /lustre/shared/ucl/apps/gcc/4.9.2/bin/../lib/gcc/x86_64-unknown-linux-gnu/4.9.2/ -mtune=corei7 -march=x86-64 -g -Og
#
# seed  -236311921 -1353774043  -552029723   725394954  2143825373  1028875722 -1994714653  -649839024  -211529568   205517361 -1630841783 -2056503942
#
#      Author: C. J. Pickard (cjp20@cam.ac.uk)
#                Space group: Pmc21
#

%BLOCK LATTICE_ABC
      4.92380      5.69562      5.70530
     90.00000     90.00000     90.00000
%ENDBLOCK LATTICE_ABC

%BLOCK POSITIONS_FRAC
  Li   0.0000000   0.0404847   0.3899313 SPIN=   0.00000
  Li   0.0000000  -0.4595153  -0.3899313 SPIN=   0.00000
   O  -0.2499999   0.5576459  -0.0656058 SPIN=   0.00000
   O  -0.2499999   0.3820707   0.3546885 SPIN=   0.00000
   O   0.2499999   0.0576459   0.0656058 SPIN=   0.00000
   O   0.2499999  -0.1179293  -0.3546885 SPIN=   0.00000
   O  -0.2499999   0.0576459   0.0656058 SPIN=   0.00000
   O  -0.2499999  -0.1179293  -0.3546885 SPIN=   0.00000
   O   0.2499999   0.5576459  -0.0656058 SPIN=   0.00000
   O   0.2499999   0.3820707   0.3546885 SPIN=   0.00000
   P  -0.5000000   0.1841596   0.2648179 SPIN=   0.00000
   P   0.5000000  -0.3158404  -0.2648179 SPIN=   0.00000
  Fe  -0.5000000   0.1841594  -0.2353501 SPIN=   4.00000
  Fe   0.5000000  -0.3158406   0.2353501 SPIN=   4.00000
%ENDBLOCK POSITIONS_FRAC

# Note: total spin =   8.00

KPOINTS_MP_SPACING 0.07

%BLOCK SPECIES_POT
QC5
%ENDBLOCK SPECIES_POT

%BLOCK HUBBARD_U
Fe d:4.0
%ENDBLOCK HUBBARD_U

SNAP_TO_SYMMETRY
SYMMETRY_GENERATE

