#              Generated by Buildcell
#
# at 23:37:13 (GMT+0.0) 23rd November 2020
# in /lustre/scratch/uccabz1/launch_tmp
# on node-c12o-022
# by uccabz1
#
# compiler GCC version 4.9.2
# options -cpp -iprefix /lustre/shared/ucl/apps/gcc/4.9.2/bin/../lib/gcc/x86_64-unknown-linux-gnu/4.9.2/ -mtune=corei7 -march=x86-64 -g -Og
#
# seed -1431898670  -116645264  1468255621 -1699398581    52408328  2100566941  1226035306   855602342   232317831 -1880830847 -1140953272    86561054
#
#      Author: C. J. Pickard (cjp20@cam.ac.uk)
#                Space group: P-1
#

%BLOCK LATTICE_ABC
      4.97502      5.33142      6.47020
     77.93393     72.46014     87.25815
%ENDBLOCK LATTICE_ABC

%BLOCK POSITIONS_FRAC
  Li   0.2254956  -0.1570545  -0.4244712 SPIN=   0.00000
  Li  -0.2254956   0.1570545   0.4244712 SPIN=   0.00000
   O   0.1807662   0.0826641   0.2301822 SPIN=   0.00000
   O   0.3272846   0.2358253   0.5371321 SPIN=   0.00000
   O   0.6407541   0.3439398   0.1526588 SPIN=   0.00000
   O   0.1751943   0.5601114   0.2554556 SPIN=   0.00000
   P   0.3211619   0.2967662   0.2900137 SPIN=   0.00000
   O  -0.1807662  -0.0826641  -0.2301822 SPIN=   0.00000
   O  -0.3272846  -0.2358253  -0.5371321 SPIN=   0.00000
   O  -0.6407541  -0.3439398  -0.1526588 SPIN=   0.00000
   O  -0.1751943  -0.5601114  -0.2554556 SPIN=   0.00000
   P  -0.3211619  -0.2967662  -0.2900137 SPIN=   0.00000
  Fe   0.2856933   0.2680741  -0.1356871 SPIN=   4.00000
  Fe  -0.2856933  -0.2680741   0.1356871 SPIN=   4.00000
%ENDBLOCK POSITIONS_FRAC

# Note: total spin =   8.00

KPOINTS_MP_SPACING 0.07

%BLOCK SPECIES_POT
QC5
%ENDBLOCK SPECIES_POT

%BLOCK HUBBARD_U
Fe d:4.0
%ENDBLOCK HUBBARD_U

SNAP_TO_SYMMETRY
SYMMETRY_GENERATE

