#              Generated by Buildcell
#
# at 03:20:09 (GMT+0.0) 24th November 2020
# in /scratch/scratch/uccabz1/launch_tmp
# on node-a14f-014
# by uccabz1
#
# compiler GCC version 4.9.2
# options -cpp -iprefix /scratch/UCL/applications/gcc/4.9.2/bin/../lib/gcc/x86_64-unknown-linux-gnu/4.9.2/ -mtune=corei7 -march=x86-64 -g -O2
#
# seed   595553244 -1170539011 -1071334455  -420637511  1842169051   -88473204  -305044502   320552803    -2977015  -700884170  -260086160   540816170
#
#      Author: C. J. Pickard (cjp20@cam.ac.uk)
#                Space group: Pc
#

%BLOCK LATTICE_ABC
      5.12255      5.29090      6.12998
    105.62601     90.00000     90.00000
%ENDBLOCK LATTICE_ABC

%BLOCK POSITIONS_FRAC
  Li  -0.2272229  -0.0432055   0.1967429 SPIN=   0.00000
  Li   0.2272229  -0.0432055  -0.3032571 SPIN=   0.00000
   O  -0.3461077  -0.5412120   0.2100477 SPIN=   0.00000
   O  -0.4014018  -0.2084032   0.6051773 SPIN=   0.00000
   O  -0.1074260  -0.5870529   0.5714082 SPIN=   0.00000
   O   0.0238339  -0.2267067   0.3999189 SPIN=   0.00000
   P  -0.2124077  -0.3969131   0.4334894 SPIN=   0.00000
   O   0.3461077  -0.5412120  -0.2899523 SPIN=   0.00000
   O   0.4014018  -0.2084032   0.1051773 SPIN=   0.00000
   O   0.1074260  -0.5870529   0.0714082 SPIN=   0.00000
   O  -0.0238339  -0.2267067  -0.1000811 SPIN=   0.00000
   P   0.2124077  -0.3969131  -0.0665106 SPIN=   0.00000
  Fe  -0.2741834   0.3477261  -0.1382004 SPIN=   4.00000
  Fe   0.2741834   0.3477261   0.3617996 SPIN=   4.00000
%ENDBLOCK POSITIONS_FRAC

# Note: total spin =   8.00

KPOINTS_MP_SPACING 0.07

%BLOCK SPECIES_POT
QC5
%ENDBLOCK SPECIES_POT

%BLOCK HUBBARD_U
Fe d:4.0
%ENDBLOCK HUBBARD_U

SNAP_TO_SYMMETRY
SYMMETRY_GENERATE

