#              Generated by Buildcell
#
# at 23:15:57 (GMT+0.0) 23rd November 2020
# in /lustre/scratch/uccabz1/launch_tmp
# on node-c12g-024
# by uccabz1
#
# compiler GCC version 4.9.2
# options -cpp -iprefix /lustre/shared/ucl/apps/gcc/4.9.2/bin/../lib/gcc/x86_64-unknown-linux-gnu/4.9.2/ -mtune=corei7 -march=x86-64 -g -Og
#
# seed  1685067825    41835072 -2106166492  -108534015 -2086654700  -763096645  1528383311 -1652618890 -1175322322   578740656   395632500 -1395596974
#
#      Author: C. J. Pickard (cjp20@cam.ac.uk)
#                Space group: P-1
#

%BLOCK LATTICE_ABC
      4.59242      4.72756      7.49272
    100.29276     91.40526     90.30290
%ENDBLOCK LATTICE_ABC

%BLOCK POSITIONS_FRAC
  Li  -0.0000000   0.0000000  -0.0000000 SPIN=   0.00000
  Li  -0.5000000   0.5000000   0.5000000 SPIN=   0.00000
   O   0.3368667  -0.2010588   0.3453392 SPIN=   0.00000
   O   0.2240959   0.2858417   0.2446474 SPIN=   0.00000
   O   0.7325094   0.1871498   0.3277368 SPIN=   0.00000
   P   0.4445962   0.0318993   0.2427005 SPIN=   0.00000
   O  -0.3368667   0.2010588  -0.3453392 SPIN=   0.00000
   O  -0.2240959  -0.2858417  -0.2446474 SPIN=   0.00000
   O  -0.7325094  -0.1871498  -0.3277368 SPIN=   0.00000
   P  -0.4445962  -0.0318993  -0.2427005 SPIN=   0.00000
   O   0.0000000   0.5000000   0.0000000 SPIN=   0.00000
   O   0.5000000  -0.0000000  -0.0000000 SPIN=   0.00000
  Fe   0.0000000   0.0000000   0.5000000 SPIN=   3.30831
  Fe   0.5000000  -0.5000000   0.0000000 SPIN=   4.69169
%ENDBLOCK POSITIONS_FRAC

# Note: total spin =   8.00

KPOINTS_MP_SPACING 0.07

%BLOCK SPECIES_POT
QC5
%ENDBLOCK SPECIES_POT

%BLOCK HUBBARD_U
Fe d:4.0
%ENDBLOCK HUBBARD_U

SNAP_TO_SYMMETRY
SYMMETRY_GENERATE

