#              Generated by Buildcell
#
# at 02:56:19 (GMT+0.0) 24th November 2020
# in /scratch/scratch/uccabz1/launch_tmp
# on node-k10c-017
# by uccabz1
#
# compiler GCC version 4.9.2
# options -cpp -iprefix /scratch/UCL/applications/gcc/4.9.2/bin/../lib/gcc/x86_64-unknown-linux-gnu/4.9.2/ -mtune=corei7 -march=x86-64 -g -O2
#
# seed   209820204  -293742580 -1659966439   802375604  -720523340  1942792780  1320670749  -335517749  -937726389 -1979909196   298826441  1766945803
#
#      Author: C. J. Pickard (cjp20@cam.ac.uk)
#                Space group: C2
#

%BLOCK LATTICE_ABC
      4.33285      4.33285      9.32136
     96.30747    102.36038    107.64604
%ENDBLOCK LATTICE_ABC

%BLOCK POSITIONS_FRAC
  Li  -0.4865194  -0.1548238  -0.1131791 SPIN=   0.00000
  Li  -0.0416446  -0.3733403   0.1131791 SPIN=   0.00000
   O   0.0519643  -0.0509696  -0.1280823 SPIN=   0.00000
   O  -0.4506146  -0.6013252  -0.2065058 SPIN=   0.00000
   O  -0.4888420  -0.1424627  -0.3368512 SPIN=   0.00000
   O  -0.0931500  -0.4372171  -0.3824908 SPIN=   0.00000
   O   0.0771128   0.1800466   0.1280823 SPIN=   0.00000
   O  -0.3948194  -0.2441088   0.2065058 SPIN=   0.00000
   O   0.1943885  -0.1519908   0.3368512 SPIN=   0.00000
   O  -0.0547263   0.2893408   0.3824908 SPIN=   0.00000
   P   0.3004347   0.3004347  -0.0000000 SPIN=   0.00000
   P   0.3246056  -0.1753944  -0.5000000 SPIN=   0.00000
  Fe   0.0049806   0.1419663  -0.3254262 SPIN=   4.00000
  Fe   0.4673925   0.3304068   0.3254262 SPIN=   4.00000
%ENDBLOCK POSITIONS_FRAC

# Note: total spin =   8.00

KPOINTS_MP_SPACING 0.07

%BLOCK SPECIES_POT
QC5
%ENDBLOCK SPECIES_POT

%BLOCK HUBBARD_U
Fe d:4.0
%ENDBLOCK HUBBARD_U

SNAP_TO_SYMMETRY
SYMMETRY_GENERATE

