#              Generated by Buildcell
#
# at 01:26:31 (GMT+0.0) 24th November 2020
# in /lustre/scratch/uccabz1/launch_tmp
# on node-c12g-024
# by uccabz1
#
# compiler GCC version 4.9.2
# options -cpp -iprefix /lustre/shared/ucl/apps/gcc/4.9.2/bin/../lib/gcc/x86_64-unknown-linux-gnu/4.9.2/ -mtune=corei7 -march=x86-64 -g -Og
#
# seed -1699867966  1469653269  1599871333  1854636523   123906511  -561535103   792861639  -982386441   497631626   726572789   326519609 -1591680250
#
#      Author: C. J. Pickard (cjp20@cam.ac.uk)
#                Space group: Pmm2
#

%BLOCK LATTICE_ABC
      4.46340      4.91141      7.29875
     90.00000     90.00000     90.00000
%ENDBLOCK LATTICE_ABC

%BLOCK POSITIONS_FRAC
  Li   0.3523381   0.0000000   0.0000000 SPIN=   0.00000
  Li  -0.1286324  -0.5000000  -0.5000000 SPIN=   0.00000
   O   0.1328669  -0.2499934   0.3305990 SPIN=   0.00000
   O  -0.3862294  -0.2499786   0.1695450 SPIN=   0.00000
   O   0.1328669   0.2499934  -0.3305990 SPIN=   0.00000
   O  -0.3862294   0.2499786  -0.1695450 SPIN=   0.00000
   O   0.1328669  -0.2499934  -0.3305990 SPIN=   0.00000
   O  -0.3862294  -0.2499786  -0.1695450 SPIN=   0.00000
   O   0.1328669   0.2499934   0.3305990 SPIN=   0.00000
   O  -0.3862294   0.2499786   0.1695450 SPIN=   0.00000
   P  -0.1070823   0.0000000  -0.2500000 SPIN=   0.00000
   P  -0.1070823   0.0000000   0.2500000 SPIN=   0.00000
  Fe  -0.1290174  -0.5000000  -0.0000000 SPIN=   3.93961
  Fe   0.3904350   0.0000000  -0.5000000 SPIN=   4.06039
%ENDBLOCK POSITIONS_FRAC

# Note: total spin =   8.00

KPOINTS_MP_SPACING 0.07

%BLOCK SPECIES_POT
QC5
%ENDBLOCK SPECIES_POT

%BLOCK HUBBARD_U
Fe d:4.0
%ENDBLOCK HUBBARD_U

SNAP_TO_SYMMETRY
SYMMETRY_GENERATE

