#              Generated by Buildcell
#
# at 05:49:19 (GMT+0.0) 24th November 2020
# in /scratch/scratch/uccabz1/launch_tmp
# on node-a14e-002
# by uccabz1
#
# compiler GCC version 4.9.2
# options -cpp -iprefix /scratch/UCL/applications/gcc/4.9.2/bin/../lib/gcc/x86_64-unknown-linux-gnu/4.9.2/ -mtune=corei7 -march=x86-64 -g -O2
#
# seed -1547631825  2070970600  -591468207  1600822914   657599379  -493507274 -1546099336  1388572728 -1321051785  1970929807  2027433335 -1196298868
#
#      Author: C. J. Pickard (cjp20@cam.ac.uk)
#                Space group: P21
#

%BLOCK LATTICE_ABC
      3.89481      5.84658      7.27764
     90.00000     90.00000    105.09917
%ENDBLOCK LATTICE_ABC

%BLOCK POSITIONS_FRAC
  Li  -0.3806192  -0.2059822   0.2167656 SPIN=   0.00000
  Li   0.3806192   0.2059822  -0.2832344 SPIN=   0.00000
   O  -0.1498026   0.0565612  -0.0936905 SPIN=   0.00000
   O   0.1248676  -0.2286189   0.0955261 SPIN=   0.00000
   O  -0.3155940  -0.3989014  -0.1446989 SPIN=   0.00000
   O   0.2900163  -0.1565410  -0.2360139 SPIN=   0.00000
   P  -0.0163605  -0.1688805  -0.0963319 SPIN=   0.00000
   O   0.1498026  -0.0565612   0.4063095 SPIN=   0.00000
   O  -0.1248676   0.2286189   0.5955261 SPIN=   0.00000
   O   0.3155940   0.3989014   0.3553011 SPIN=   0.00000
   O  -0.2900163   0.1565410   0.2639861 SPIN=   0.00000
   P   0.0163605   0.1688805   0.4036681 SPIN=   0.00000
  Fe  -0.0440860   0.3763446   0.0525879 SPIN=   4.00000
  Fe   0.0440860  -0.3763446  -0.4474121 SPIN=   4.00000
%ENDBLOCK POSITIONS_FRAC

# Note: total spin =   8.00

KPOINTS_MP_SPACING 0.07

%BLOCK SPECIES_POT
QC5
%ENDBLOCK SPECIES_POT

%BLOCK HUBBARD_U
Fe d:4.0
%ENDBLOCK HUBBARD_U

SNAP_TO_SYMMETRY
SYMMETRY_GENERATE

