#              Generated by Buildcell
#
# at 04:50:56 (GMT+0.0) 24th November 2020
# in /lustre/scratch/uccabz1/launch_tmp
# on node-c12n-022
# by uccabz1
#
# compiler GCC version 4.9.2
# options -cpp -iprefix /lustre/shared/ucl/apps/gcc/4.9.2/bin/../lib/gcc/x86_64-unknown-linux-gnu/4.9.2/ -mtune=corei7 -march=x86-64 -g -Og
#
# seed -1418213815  1288721159  1411564637  -675407528   479254294  1667046191  -585281918 -1459854031  -461064617  -681262041 -2011940602  1153914435
#
#      Author: C. J. Pickard (cjp20@cam.ac.uk)
#                Space group: C2
#

%BLOCK LATTICE_ABC
      5.66758      5.66758      5.67501
     77.87828     77.87828     64.99396
%ENDBLOCK LATTICE_ABC

%BLOCK POSITIONS_FRAC
  Li  -0.1729302   0.1729302  -0.5000000 SPIN=   0.00000
  Li   0.1309079  -0.1309079   0.0000000 SPIN=   0.00000
   O   0.0776788   0.2482473  -0.3272996 SPIN=   0.00000
   O   0.2629409   0.4951848  -0.1278038 SPIN=   0.00000
   O   0.5577360   0.0520424  -0.2309196 SPIN=   0.00000
   P   0.3176413   0.3044815  -0.3164870 SPIN=   0.00000
   O  -0.2482473  -0.0776788   0.3272996 SPIN=   0.00000
   O  -0.4951848  -0.2629409   0.1278038 SPIN=   0.00000
   O  -0.0520424  -0.5577360   0.2309196 SPIN=   0.00000
   P  -0.3044815  -0.3176413   0.3164870 SPIN=   0.00000
   O  -0.2957204   0.2957204   0.0000000 SPIN=   0.00000
   O   0.1733950  -0.1733950   0.5000000 SPIN=   0.00000
  Fe  -0.2260437  -0.3705539  -0.1888564 SPIN=   4.00000
  Fe   0.3705539   0.2260437   0.1888564 SPIN=   4.00000
%ENDBLOCK POSITIONS_FRAC

# Note: total spin =   8.00

KPOINTS_MP_SPACING 0.07

%BLOCK SPECIES_POT
QC5
%ENDBLOCK SPECIES_POT

%BLOCK HUBBARD_U
Fe d:4.0
%ENDBLOCK HUBBARD_U

SNAP_TO_SYMMETRY
SYMMETRY_GENERATE

