#              Generated by Buildcell
#
# at 04:15:27 (GMT+0.0) 24th November 2020
# in /lustre/scratch/uccabz1/launch_tmp
# on node-c12a-028
# by uccabz1
#
# compiler GCC version 4.9.2
# options -cpp -iprefix /lustre/shared/ucl/apps/gcc/4.9.2/bin/../lib/gcc/x86_64-unknown-linux-gnu/4.9.2/ -mtune=corei7 -march=x86-64 -g -Og
#
# seed -1460219724  -462735309  -857443174 -1233757491 -1465139605 -2030624566  1111871269  1221717169  -715701309    37526231 -1140318650   423363068
#
#      Author: C. J. Pickard (cjp20@cam.ac.uk)
#                Space group: C2
#

%BLOCK LATTICE_ABC
      4.49342      6.16076      6.16076
     99.69870    101.41158    101.41158
%ENDBLOCK LATTICE_ABC

%BLOCK POSITIONS_FRAC
  Li   0.5000000   0.0205292  -0.0205292 SPIN=   0.00000
  Li   0.0000000  -0.4812446   0.4812446 SPIN=   0.00000
   O  -0.5317643  -0.3053240  -0.3748047 SPIN=   0.00000
   O  -0.3052907  -0.2494107   0.0582667 SPIN=   0.00000
   O  -0.2381162  -0.5808891  -0.1980323 SPIN=   0.00000
   O   0.0623587  -0.1915695  -0.1952821 SPIN=   0.00000
   P  -0.2643112  -0.3287338  -0.1881808 SPIN=   0.00000
   O   0.5317643   0.3748047   0.3053240 SPIN=   0.00000
   O   0.3052907  -0.0582667   0.2494107 SPIN=   0.00000
   O   0.2381162   0.1980323   0.5808891 SPIN=   0.00000
   O  -0.0623587   0.1952821   0.1915695 SPIN=   0.00000
   P   0.2643112   0.1881808   0.3287338 SPIN=   0.00000
  Fe  -0.2466527  -0.0125185  -0.4887227 SPIN=   4.00000
  Fe   0.2466527   0.4887227   0.0125185 SPIN=   4.00000
%ENDBLOCK POSITIONS_FRAC

# Note: total spin =   8.00

KPOINTS_MP_SPACING 0.07

%BLOCK SPECIES_POT
QC5
%ENDBLOCK SPECIES_POT

%BLOCK HUBBARD_U
Fe d:4.0
%ENDBLOCK HUBBARD_U

SNAP_TO_SYMMETRY
SYMMETRY_GENERATE

