#              Generated by Buildcell
#
# at 02:08:58 (GMT+0.0) 24th November 2020
# in /lustre/scratch/uccabz1/launch_tmp
# on node-c12i-027
# by uccabz1
#
# compiler GCC version 4.9.2
# options -cpp -iprefix /lustre/shared/ucl/apps/gcc/4.9.2/bin/../lib/gcc/x86_64-unknown-linux-gnu/4.9.2/ -mtune=corei7 -march=x86-64 -g -Og
#
# seed  -547645938 -1019689971  -354579135  -381990034  2090830188   955951521 -1828373694  1181016237   244443937   510648360  -315440355  1026427134
#
#      Author: C. J. Pickard (cjp20@cam.ac.uk)
#                Space group: P21/m
#

%BLOCK LATTICE_ABC
      3.87107      5.66253      7.33625
     90.00000     90.00000     95.75734
%ENDBLOCK LATTICE_ABC

%BLOCK POSITIONS_FRAC
  Li   0.5168265   0.0826601  -0.2500000 SPIN=   0.00000
  Li  -0.5168265  -0.0826601   0.2500000 SPIN=   0.00000
   O  -0.2525696  -0.3937247   0.0817627 SPIN=   0.00000
   O   0.3022446  -0.1688516  -0.0588736 SPIN=   0.00000
   O   0.2525696   0.3937247  -0.4182373 SPIN=   0.00000
   O  -0.3022446   0.1688516  -0.5588736 SPIN=   0.00000
   O   0.2525696   0.3937247  -0.0817627 SPIN=   0.00000
   O  -0.3022446   0.1688516   0.0588736 SPIN=   0.00000
   O  -0.2525696  -0.3937247   0.4182373 SPIN=   0.00000
   O   0.3022446  -0.1688516   0.5588736 SPIN=   0.00000
   P  -0.0000000  -0.0000000  -0.0000000 SPIN=   0.00000
   P  -0.0000000  -0.0000000  -0.5000000 SPIN=   0.00000
  Fe   0.0480883   0.3902920   0.2500000 SPIN=   4.00000
  Fe  -0.0480883  -0.3902920  -0.2500000 SPIN=   4.00000
%ENDBLOCK POSITIONS_FRAC

# Note: total spin =   8.00

KPOINTS_MP_SPACING 0.07

%BLOCK SPECIES_POT
QC5
%ENDBLOCK SPECIES_POT

%BLOCK HUBBARD_U
Fe d:4.0
%ENDBLOCK HUBBARD_U

SNAP_TO_SYMMETRY
SYMMETRY_GENERATE

