#              Generated by Buildcell
#
# at 21:20:57 (GMT+0.0) 23rd November 2020
# in /lustre/scratch/uccabz1/launch_tmp
# on node-c12p-022
# by uccabz1
#
# compiler GCC version 4.9.2
# options -cpp -iprefix /lustre/shared/ucl/apps/gcc/4.9.2/bin/../lib/gcc/x86_64-unknown-linux-gnu/4.9.2/ -mtune=corei7 -march=x86-64 -g -Og
#
# seed   899426044  -118504168  1152557048 -2095250677  1775672396   715978530 -1259614369  1027584497 -1336645400 -1320712218 -1424750630   150395053
#
#      Author: C. J. Pickard (cjp20@cam.ac.uk)
#                Space group: Pm
#

%BLOCK LATTICE_ABC
      3.93862      4.32022      9.61351
     90.00000     90.00000    102.01000
%ENDBLOCK LATTICE_ABC

%BLOCK POSITIONS_FRAC
  Li  -0.0995747   0.2678668  -0.2957589 SPIN=   0.00000
  Li  -0.0995747   0.2678668   0.2957589 SPIN=   0.00000
   O   0.6189612   0.0239627   0.1283080 SPIN=   0.00000
   O   0.4879230  -0.4933882   0.2742378 SPIN=   0.00000
   O   0.2215969  -0.0494456   0.3466642 SPIN=   0.00000
   O   0.0149427  -0.3501127   0.1294116 SPIN=   0.00000
   P   0.3471428  -0.2059708   0.2137266 SPIN=   0.00000
   O   0.6189612   0.0239627  -0.1283080 SPIN=   0.00000
   O   0.4879230  -0.4933882  -0.2742378 SPIN=   0.00000
   O   0.2215969  -0.0494456  -0.3466642 SPIN=   0.00000
   O   0.0149427  -0.3501127  -0.1294116 SPIN=   0.00000
   P   0.3471428  -0.2059708  -0.2137266 SPIN=   0.00000
  Fe   0.4969871  -0.3084996  -0.5000000 SPIN=   4.44029
  Fe   0.3501798   0.2850534   0.0000000 SPIN=   3.55971
%ENDBLOCK POSITIONS_FRAC

# Note: total spin =   8.00

KPOINTS_MP_SPACING 0.07

%BLOCK SPECIES_POT
QC5
%ENDBLOCK SPECIES_POT

%BLOCK HUBBARD_U
Fe d:4.0
%ENDBLOCK HUBBARD_U

SNAP_TO_SYMMETRY
SYMMETRY_GENERATE

