#              Generated by Buildcell
#
# at 21:58:22 (GMT+0.0) 23rd November 2020
# in /scratch/scratch/uccabz1/launch_tmp
# on node-a14a-017
# by uccabz1
#
# compiler GCC version 4.9.2
# options -cpp -iprefix /scratch/UCL/applications/gcc/4.9.2/bin/../lib/gcc/x86_64-unknown-linux-gnu/4.9.2/ -mtune=corei7 -march=x86-64 -g -O2
#
# seed -1325119421   540472503  1175034469   204214951   500605990 -1503983230  -365913230   688116202 -1996544300 -2130020501   460023504 -2013073833
#
#      Author: C. J. Pickard (cjp20@cam.ac.uk)
#                Space group: P21
#

%BLOCK LATTICE_ABC
      4.64039      5.48357      6.28871
     90.00000     90.00000     90.95257
%ENDBLOCK LATTICE_ABC

%BLOCK POSITIONS_FRAC
  Li   0.2909989   0.1547927  -0.3013912 SPIN=   0.00000
  Li  -0.2909989  -0.1547927   0.1986088 SPIN=   0.00000
   O  -0.0907717   0.4132150   0.0488069 SPIN=   0.00000
   O  -0.0033610  -0.0233022  -0.0954920 SPIN=   0.00000
   O  -0.5011473   0.0910547  -0.0050260 SPIN=   0.00000
   O  -0.2610343   0.2766696  -0.3243288 SPIN=   0.00000
   P  -0.2080672   0.2023556  -0.0891237 SPIN=   0.00000
   O   0.0907717  -0.4132150   0.5488069 SPIN=   0.00000
   O   0.0033610   0.0233022   0.4045080 SPIN=   0.00000
   O   0.5011473  -0.0910547   0.4949740 SPIN=   0.00000
   O   0.2610343  -0.2766696   0.1756712 SPIN=   0.00000
   P   0.2080672  -0.2023556   0.4108763 SPIN=   0.00000
  Fe  -0.3036195  -0.3428561  -0.3013711 SPIN=   4.00000
  Fe   0.3036195   0.3428561   0.1986289 SPIN=   4.00000
%ENDBLOCK POSITIONS_FRAC

# Note: total spin =   8.00

KPOINTS_MP_SPACING 0.07

%BLOCK SPECIES_POT
QC5
%ENDBLOCK SPECIES_POT

%BLOCK HUBBARD_U
Fe d:4.0
%ENDBLOCK HUBBARD_U

SNAP_TO_SYMMETRY
SYMMETRY_GENERATE

