#              Generated by Buildcell
#
# at 05:28:01 (GMT+0.0) 24th November 2020
# in /lustre/scratch/uccabz1/launch_tmp
# on node-c12h-023
# by uccabz1
#
# compiler GCC version 4.9.2
# options -cpp -iprefix /lustre/shared/ucl/apps/gcc/4.9.2/bin/../lib/gcc/x86_64-unknown-linux-gnu/4.9.2/ -mtune=corei7 -march=x86-64 -g -Og
#
# seed -1260372708 -1922753547  1863288211  -896430130  1497687648   764912897    88373338  -393107923  1439578219   941707037  -304444050  1191515398
#
#      Author: C. J. Pickard (cjp20@cam.ac.uk)
#                Space group: Cc
#

%BLOCK LATTICE_ABC
      4.26106      5.78785      7.26886
     83.96793     72.95613     68.99034
%ENDBLOCK LATTICE_ABC

%BLOCK POSITIONS_FRAC
  Li  -0.0105618  -0.1653146   0.0482467 SPIN=   0.00000
  Li  -0.4623152   0.3346854  -0.0482467 SPIN=   0.00000
   O   0.0424545   0.0110102   0.4311774 SPIN=   0.00000
   O   0.7170730  -0.2068333   0.3340471 SPIN=   0.00000
   O   0.3554331  -0.4145738   0.2575526 SPIN=   0.00000
   O   0.4140642  -0.0326198   0.0766047 SPIN=   0.00000
   P   0.3645388  -0.1500964   0.2808299 SPIN=   0.00000
   O  -0.0263682   0.5110102  -0.4311774 SPIN=   0.00000
   O   0.5511201   0.2931667  -0.3340471 SPIN=   0.00000
   O   0.1129857   0.0854262  -0.2575526 SPIN=   0.00000
   O  -0.0093311   0.4673802  -0.0766047 SPIN=   0.00000
   P   0.1453687   0.3499036  -0.2808299 SPIN=   0.00000
  Fe  -0.3429954  -0.1383623  -0.3125014 SPIN=   4.00000
  Fe  -0.1554968   0.3616377   0.3125014 SPIN=   4.00000
%ENDBLOCK POSITIONS_FRAC

# Note: total spin =   8.00

KPOINTS_MP_SPACING 0.07

%BLOCK SPECIES_POT
QC5
%ENDBLOCK SPECIES_POT

%BLOCK HUBBARD_U
Fe d:4.0
%ENDBLOCK HUBBARD_U

SNAP_TO_SYMMETRY
SYMMETRY_GENERATE

