#              Generated by Buildcell
#
# at 23:02:23 (GMT+0.0) 23rd November 2020
# in /scratch/scratch/uccabz1/launch_tmp
# on node-a14a-004
# by uccabz1
#
# compiler GCC version 4.9.2
# options -cpp -iprefix /scratch/UCL/applications/gcc/4.9.2/bin/../lib/gcc/x86_64-unknown-linux-gnu/4.9.2/ -mtune=corei7 -march=x86-64 -g -O2
#
# seed   990751800  1056475196   457813539  -548933293  -826935348   785058447  1464054864  -937362990 -1451841493 -1345440382 -1137184245   625283869
#
#      Author: C. J. Pickard (cjp20@cam.ac.uk)
#                Space group: P-1
#

%BLOCK LATTICE_ABC
      4.41933      6.07151      6.24108
     79.43784     77.61512     82.26974
%ENDBLOCK LATTICE_ABC

%BLOCK POSITIONS_FRAC
  Li  -0.0712942  -0.2907453  -0.3897474 SPIN=   0.00000
  Li   0.0712942   0.2907453   0.3897474 SPIN=   0.00000
   O   0.6508164  -0.0857614  -0.1600417 SPIN=   0.00000
   O   0.1623104   0.0501267  -0.3358253 SPIN=   0.00000
   O   0.3969781  -0.3413312  -0.3483606 SPIN=   0.00000
   O   0.1149406  -0.2304246   0.0150211 SPIN=   0.00000
   P   0.3457233  -0.1492561  -0.2021616 SPIN=   0.00000
   O  -0.6508164   0.0857614   0.1600417 SPIN=   0.00000
   O  -0.1623104  -0.0501267   0.3358253 SPIN=   0.00000
   O  -0.3969781   0.3413312   0.3483606 SPIN=   0.00000
   O  -0.1149406   0.2304246  -0.0150211 SPIN=   0.00000
   P  -0.3457233   0.1492561   0.2021616 SPIN=   0.00000
  Fe   0.4427458   0.3097864  -0.2075150 SPIN=   4.00000
  Fe  -0.4427458  -0.3097864   0.2075150 SPIN=   4.00000
%ENDBLOCK POSITIONS_FRAC

# Note: total spin =   8.00

KPOINTS_MP_SPACING 0.07

%BLOCK SPECIES_POT
QC5
%ENDBLOCK SPECIES_POT

%BLOCK HUBBARD_U
Fe d:4.0
%ENDBLOCK HUBBARD_U

SNAP_TO_SYMMETRY
SYMMETRY_GENERATE

