#              Generated by Buildcell
#
# at 00:36:19 (GMT+0.0) 24th November 2020
# in /lustre/scratch/uccabz1/launch_tmp
# on node-c12i-025
# by uccabz1
#
# compiler GCC version 4.9.2
# options -cpp -iprefix /lustre/shared/ucl/apps/gcc/4.9.2/bin/../lib/gcc/x86_64-unknown-linux-gnu/4.9.2/ -mtune=corei7 -march=x86-64 -g -Og
#
# seed   571027955   785851002  -223897972   620376750  -690869445  -866957034  -445023166  -189978745   618633039  1608538116  1197302574 -1442828768
#
#      Author: C. J. Pickard (cjp20@cam.ac.uk)
#                Space group: Pm
#

%BLOCK LATTICE_ABC
      3.90770      4.52252      9.14275
     90.00000     90.00000     98.01116
%ENDBLOCK LATTICE_ABC

%BLOCK POSITIONS_FRAC
  Li   0.3721411  -0.4660024   0.5000000 SPIN=   0.00000
  Li   0.2659986   0.2456179   0.0000000 SPIN=   0.00000
   O   0.2026262  -0.0530301  -0.3662008 SPIN=   0.00000
   O   0.2925555   0.4344884  -0.2122470 SPIN=   0.00000
   O   0.5991264   0.0170674  -0.1371438 SPIN=   0.00000
   O   0.7804527   0.3024673  -0.3654946 SPIN=   0.00000
   P   0.4582027   0.1645949  -0.2765031 SPIN=   0.00000
   O   0.2026262  -0.0530301   0.3662008 SPIN=   0.00000
   O   0.2925555   0.4344884   0.2122470 SPIN=   0.00000
   O   0.5991264   0.0170674   0.1371438 SPIN=   0.00000
   O   0.7804527   0.3024673   0.3654946 SPIN=   0.00000
   P   0.4582027   0.1645949   0.2765031 SPIN=   0.00000
  Fe  -0.1039341  -0.2997480  -0.2117788 SPIN=   4.00000
  Fe  -0.1039341  -0.2997480   0.2117788 SPIN=   4.00000
%ENDBLOCK POSITIONS_FRAC

# Note: total spin =   8.00

KPOINTS_MP_SPACING 0.07

%BLOCK SPECIES_POT
QC5
%ENDBLOCK SPECIES_POT

%BLOCK HUBBARD_U
Fe d:4.0
%ENDBLOCK HUBBARD_U

SNAP_TO_SYMMETRY
SYMMETRY_GENERATE

