#              Generated by Buildcell
#
# at 05:49:18 (GMT+0.0) 24th November 2020
# in /lustre/scratch/uccabz1/launch_tmp
# on node-c12k-030
# by uccabz1
#
# compiler GCC version 4.9.2
# options -cpp -iprefix /lustre/shared/ucl/apps/gcc/4.9.2/bin/../lib/gcc/x86_64-unknown-linux-gnu/4.9.2/ -mtune=corei7 -march=x86-64 -g -Og
#
# seed -1883675227  -912190385  -492964104   163976893  -714820826   524463612   926641979  -664064615  1373803147 -1620250929  1100659530   547468067
#
#      Author: C. J. Pickard (cjp20@cam.ac.uk)
#                Space group: P-1
#

%BLOCK LATTICE_ABC
      4.64086      4.76452      7.90757
     91.96567     94.69138    112.99203
%ENDBLOCK LATTICE_ABC

%BLOCK POSITIONS_FRAC
  Li  -0.3098886   0.3674611   0.2425192 SPIN=   0.00000
  Li   0.3098886  -0.3674611  -0.2425192 SPIN=   0.00000
   O  -0.1618207   0.5743511  -0.2320097 SPIN=   0.00000
   O  -0.7395724   0.1743155  -0.2633303 SPIN=   0.00000
   O  -0.3207280   0.0028834  -0.3299022 SPIN=   0.00000
   P  -0.3829062   0.2415831  -0.2119546 SPIN=   0.00000
   O   0.1618207  -0.5743511   0.2320097 SPIN=   0.00000
   O   0.7395724  -0.1743155   0.2633303 SPIN=   0.00000
   O   0.3207280  -0.0028834   0.3299022 SPIN=   0.00000
   P   0.3829062  -0.2415831   0.2119546 SPIN=   0.00000
   O  -0.5000000   0.5000000   0.0000000 SPIN=   0.00000
   O  -0.5000000  -0.5000000  -0.5000000 SPIN=   0.00000
  Fe   0.0000000   0.0000000   0.0000000 SPIN=   2.97236
  Fe   0.0000000   0.0000000   0.5000000 SPIN=   5.02764
%ENDBLOCK POSITIONS_FRAC

# Note: total spin =   8.00

KPOINTS_MP_SPACING 0.07

%BLOCK SPECIES_POT
QC5
%ENDBLOCK SPECIES_POT

%BLOCK HUBBARD_U
Fe d:4.0
%ENDBLOCK HUBBARD_U

SNAP_TO_SYMMETRY
SYMMETRY_GENERATE

