#              Generated by Buildcell
#
# at 04:02:12 (GMT+0.0) 24th November 2020
# in /scratch/scratch/uccabz1/launch_tmp
# on node-a14c-007
# by uccabz1
#
# compiler GCC version 4.9.2
# options -cpp -iprefix /scratch/UCL/applications/gcc/4.9.2/bin/../lib/gcc/x86_64-unknown-linux-gnu/4.9.2/ -mtune=corei7 -march=x86-64 -g -O2
#
# seed -1080261598 -2123106077  -301996793   136882373   632714275   348125413   281365308   929587579   940433041 -1761208901  1370197549   876248787
#
#      Author: C. J. Pickard (cjp20@cam.ac.uk)
#                Space group: Cc
#

%BLOCK LATTICE_ABC
      5.66937      5.66937      5.76237
     80.37546     80.37546     61.73179
%ENDBLOCK LATTICE_ABC

%BLOCK POSITIONS_FRAC
  Li  -0.2762305   0.2625076   0.1637409 SPIN=   0.00000
  Li   0.2625076  -0.2762305  -0.3362591 SPIN=   0.00000
   O   0.0848972   0.0237495   0.3800561 SPIN=   0.00000
   O   0.5744132  -0.0627554   0.3992328 SPIN=   0.00000
   O   0.4991562  -0.3142947   0.1327747 SPIN=   0.00000
   O   0.3475348   0.1801282   0.0326155 SPIN=   0.00000
   P   0.3606321  -0.0370868   0.2414289 SPIN=   0.00000
   O   0.0237495   0.0848972  -0.1199439 SPIN=   0.00000
   O  -0.0627554   0.5744132  -0.1007672 SPIN=   0.00000
   O  -0.3142947   0.4991562  -0.3672253 SPIN=   0.00000
   O   0.1801282   0.3475348  -0.4673845 SPIN=   0.00000
   P  -0.0370868   0.3606321  -0.2585711 SPIN=   0.00000
  Fe  -0.4030590   0.0533334  -0.2811201 SPIN=   4.00000
  Fe   0.0533334  -0.4030590   0.2188799 SPIN=   4.00000
%ENDBLOCK POSITIONS_FRAC

# Note: total spin =   8.00

KPOINTS_MP_SPACING 0.07

%BLOCK SPECIES_POT
QC5
%ENDBLOCK SPECIES_POT

%BLOCK HUBBARD_U
Fe d:4.0
%ENDBLOCK HUBBARD_U

SNAP_TO_SYMMETRY
SYMMETRY_GENERATE

