#              Generated by Buildcell
#
# at 19:19:31 (GMT+0.0) 30th November 2020
# in /lustre/scratch/uccabz1/launch_tmp
# on node-c12i-023
# by uccabz1
#
# compiler GCC version 4.9.2
# options -cpp -iprefix /lustre/shared/ucl/apps/gcc/4.9.2/bin/../lib/gcc/x86_64-unknown-linux-gnu/4.9.2/ -mtune=corei7 -march=x86-64 -g -Og
#
# seed  1843224198  1146401486  -548971557  1780607420  1476479776 -2087417582  -881069144 -1349347502   711461385 -1715866985 -1355422196 -1324154696
#
#      Author: C. J. Pickard (cjp20@cam.ac.uk)
#                Space group: Cm
#

%BLOCK LATTICE_ABC
      3.88786      6.47694      6.47694
     87.67837     82.12770     82.12770
%ENDBLOCK LATTICE_ABC

%BLOCK POSITIONS_FRAC
  Li   0.3551457   0.0740215   0.4121572 SPIN=   0.00000
  Li   0.3551457   0.4121572   0.0740215 SPIN=   0.00000
   O  -0.0979061   0.2482414  -0.4353307 SPIN=   0.00000
   O  -0.1623664   0.2394355  -0.0305931 SPIN=   0.00000
   O   0.4162239   0.1166933  -0.2256123 SPIN=   0.00000
   O   0.1872984   0.4973549  -0.2298992 SPIN=   0.00000
   P   0.0772279   0.2766025  -0.2412671 SPIN=   0.00000
   O  -0.0979061  -0.4353307   0.2482414 SPIN=   0.00000
   O  -0.1623664  -0.0305931   0.2394355 SPIN=   0.00000
   O   0.4162239  -0.2256123   0.1166933 SPIN=   0.00000
   O   0.1872984  -0.2298992   0.4973549 SPIN=   0.00000
   P   0.0772279  -0.2412671   0.2766025 SPIN=   0.00000
  Fe  -0.2126090  -0.0867034  -0.0867034 SPIN=   2.25965
  Fe  -0.4189066  -0.4752108  -0.4752108 SPIN=   5.74035
%ENDBLOCK POSITIONS_FRAC

# Note: total spin =   8.00

KPOINTS_MP_SPACING 0.07

%BLOCK SPECIES_POT
QC5
%ENDBLOCK SPECIES_POT

%BLOCK HUBBARD_U
Fe d:4.0
%ENDBLOCK HUBBARD_U

SNAP_TO_SYMMETRY
SYMMETRY_GENERATE

