#              Generated by Buildcell
#
# at 04:10:10 (GMT+0.0) 24th November 2020
# in /lustre/scratch/uccabz1/launch_tmp
# on node-c12o-023
# by uccabz1
#
# compiler GCC version 4.9.2
# options -cpp -iprefix /lustre/shared/ucl/apps/gcc/4.9.2/bin/../lib/gcc/x86_64-unknown-linux-gnu/4.9.2/ -mtune=corei7 -march=x86-64 -g -Og
#
# seed   854771042  1761134256   598973505 -1057690199 -1608124627  1979346272  -828214756 -2118104643  -141580681  1352899027  -245387678 -1378343592
#
#      Author: C. J. Pickard (cjp20@cam.ac.uk)
#                Space group: Cc
#

%BLOCK LATTICE_ABC
      4.74831      4.74831      7.82816
    104.41391    104.43189    100.29593
%ENDBLOCK LATTICE_ABC

%BLOCK POSITIONS_FRAC
  Li  -0.1283808  -0.2713912   0.3448966 SPIN=   0.00000
  Li   0.1162878   0.4732774  -0.1551034 SPIN=   0.00000
   O  -0.1515492   0.2676613   0.3004122 SPIN=   0.00000
   O  -0.0074419   0.1100259   0.5990331 SPIN=   0.00000
   O  -0.1335981   0.5982515   0.6239121 SPIN=   0.00000
   O  -0.5406224   0.1200791   0.4628036 SPIN=   0.00000
   P  -0.2092027   0.2718502   0.4856993 SPIN=   0.00000
   O  -0.4672490  -0.5480386  -0.1995878 SPIN=   0.00000
   O  -0.0109928  -0.3935250   0.0990331 SPIN=   0.00000
   O  -0.4743394  -0.2424899   0.1239121 SPIN=   0.00000
   O  -0.1572754   0.0034260  -0.0371964 SPIN=   0.00000
   P  -0.2861509  -0.3050980  -0.0143007 SPIN=   0.00000
  Fe   0.2817650   0.1344665   0.1635391 SPIN=   4.00000
  Fe  -0.4709275  -0.1182259  -0.3364609 SPIN=   4.00000
%ENDBLOCK POSITIONS_FRAC

# Note: total spin =   8.00

KPOINTS_MP_SPACING 0.07

%BLOCK SPECIES_POT
QC5
%ENDBLOCK SPECIES_POT

%BLOCK HUBBARD_U
Fe d:4.0
%ENDBLOCK HUBBARD_U

SNAP_TO_SYMMETRY
SYMMETRY_GENERATE

