#              Generated by Buildcell
#
# at 01:39:01 (GMT+0.0) 24th November 2020
# in /scratch/scratch/uccabz1/launch_tmp
# on node-a14f-014
# by uccabz1
#
# compiler GCC version 4.9.2
# options -cpp -iprefix /scratch/UCL/applications/gcc/4.9.2/bin/../lib/gcc/x86_64-unknown-linux-gnu/4.9.2/ -mtune=corei7 -march=x86-64 -g -O2
#
# seed  -235661098   655824433  -532127735    91506877 -1167867360   206469501  1105669740 -1344723179 -1103820141  1941328956 -1351784362    25187966
#
#      Author: C. J. Pickard (cjp20@cam.ac.uk)
#                Space group: P-1
#

%BLOCK LATTICE_ABC
      4.43314      5.45563      6.86953
    100.66009    101.17159     90.58132
%ENDBLOCK LATTICE_ABC

%BLOCK POSITIONS_FRAC
  Li   0.1431193  -0.2526813  -0.0168629 SPIN=   0.00000
  Li  -0.1431193   0.2526813   0.0168629 SPIN=   0.00000
   O  -0.2794535  -0.4529205  -0.3419798 SPIN=   0.00000
   O  -0.7823366  -0.2237076  -0.3061029 SPIN=   0.00000
   O  -0.3747965  -0.2012959  -0.0011899 SPIN=   0.00000
   O  -0.2930288   0.0281822  -0.2719480 SPIN=   0.00000
   P  -0.4226153  -0.2224006  -0.2367427 SPIN=   0.00000
   O   0.2794535   0.4529205   0.3419798 SPIN=   0.00000
   O   0.7823366   0.2237076   0.3061029 SPIN=   0.00000
   O   0.3747965   0.2012959   0.0011899 SPIN=   0.00000
   O   0.2930288  -0.0281822   0.2719480 SPIN=   0.00000
   P   0.4226153   0.2224006   0.2367427 SPIN=   0.00000
  Fe   0.7133316  -0.2834550   0.3660277 SPIN=   4.00000
  Fe  -0.7133316   0.2834550  -0.3660277 SPIN=   4.00000
%ENDBLOCK POSITIONS_FRAC

# Note: total spin =   8.00

KPOINTS_MP_SPACING 0.07

%BLOCK SPECIES_POT
QC5
%ENDBLOCK SPECIES_POT

%BLOCK HUBBARD_U
Fe d:4.0
%ENDBLOCK HUBBARD_U

SNAP_TO_SYMMETRY
SYMMETRY_GENERATE

