#              Generated by Buildcell
#
# at 19:48:29 (GMT+0.0) 30th November 2020
# in /scratch/scratch/mmm0366/launch_tmp
# on node-k98c-010
# by mmm0366
#
# compiler GCC version 4.9.2
# options -cpp -iprefix /scratch/UCL/applications/gcc/4.9.2/bin/../lib/gcc/x86_64-unknown-linux-gnu/4.9.2/ -mtune=corei7 -march=x86-64 -g -O2
#
# seed -2023664503  1029004495  1483165782  1911780453    73468724 -2001666289 -1802983788 -1149627225  -273546471  1111752216 -1976162221  -815495664
#
#      Author: C. J. Pickard (cjp20@cam.ac.uk)
#                Space group: Cc
#

%BLOCK LATTICE_ABC
      3.91585      5.05085      8.77585
     89.94838     89.86682     67.19213
%ENDBLOCK LATTICE_ABC

%BLOCK POSITIONS_FRAC
  Li  -0.1095799  -0.2374899   0.1311180 SPIN=   0.00000
  Li   0.1529303   0.2374899  -0.3688820 SPIN=   0.00000
   O   0.3262218  -0.0615403   0.0694021 SPIN=   0.00000
   O  -0.1544610   0.0736300  -0.1504536 SPIN=   0.00000
   O  -0.3254210   0.3500792   0.0893527 SPIN=   0.00000
   O   0.1505615   0.4110763  -0.0823891 SPIN=   0.00000
   P   0.0184222   0.1823115  -0.0145942 SPIN=   0.00000
   O  -0.2353185   0.0615403   0.5694021 SPIN=   0.00000
   O  -0.5808310  -0.0736300   0.3495464 SPIN=   0.00000
   O  -0.4753418  -0.3500792   0.5893527 SPIN=   0.00000
   O   0.0616377  -0.4110763   0.4176109 SPIN=   0.00000
   P  -0.2992663  -0.1823115   0.4854058 SPIN=   0.00000
  Fe   0.4470711  -0.3494887  -0.1632618 SPIN=   4.00000
  Fe  -0.4024176   0.3494887   0.3367382 SPIN=   4.00000
%ENDBLOCK POSITIONS_FRAC

# Note: total spin =   8.00

KPOINTS_MP_SPACING 0.07

%BLOCK SPECIES_POT
QC5
%ENDBLOCK SPECIES_POT

%BLOCK HUBBARD_U
Fe d:4.0
%ENDBLOCK HUBBARD_U

SNAP_TO_SYMMETRY
SYMMETRY_GENERATE

