#              Generated by Buildcell
#
# at 00:55:02 (GMT+0.0) 24th November 2020
# in /lustre/scratch/uccabz1/launch_tmp
# on node-c12e-025
# by uccabz1
#
# compiler GCC version 4.9.2
# options -cpp -iprefix /lustre/shared/ucl/apps/gcc/4.9.2/bin/../lib/gcc/x86_64-unknown-linux-gnu/4.9.2/ -mtune=corei7 -march=x86-64 -g -Og
#
# seed -1557140747  1415882973 -1105507000  1225121099  1444898826  -350642949 -1416572047 -1257112876  1526192574  -537173508 -1408077171  -315292968
#
#      Author: C. J. Pickard (cjp20@cam.ac.uk)
#                Space group: Pmc21
#

%BLOCK LATTICE_ABC
      4.92514      5.69753      5.70184
     90.00000     90.00000     90.00000
%ENDBLOCK LATTICE_ABC

%BLOCK POSITIONS_FRAC
  Li   0.0000000   0.3497557   0.1229708 SPIN=   0.00000
  Li  -0.0000000  -0.1502443  -0.1229708 SPIN=   0.00000
   O   0.2499999  -0.1164124   0.5505215 SPIN=   0.00000
   O   0.2499999  -0.3055741   0.1359217 SPIN=   0.00000
   O  -0.2499999   0.3835876  -0.5505215 SPIN=   0.00000
   O  -0.2499999   0.1944259  -0.1359217 SPIN=   0.00000
   O   0.2499999   0.3835876  -0.5505215 SPIN=   0.00000
   O   0.2499999   0.1944259  -0.1359217 SPIN=   0.00000
   O  -0.2499999  -0.1164124   0.5505215 SPIN=   0.00000
   O  -0.2499999  -0.3055741   0.1359217 SPIN=   0.00000
   P   0.5000000  -0.0190593  -0.2588925 SPIN=   0.00000
   P  -0.5000000   0.4809407   0.2588925 SPIN=   0.00000
  Fe   0.5000000  -0.0191791   0.2413145 SPIN=   4.00000
  Fe  -0.5000000   0.4808209  -0.2413145 SPIN=   4.00000
%ENDBLOCK POSITIONS_FRAC

# Note: total spin =   8.00

KPOINTS_MP_SPACING 0.07

%BLOCK SPECIES_POT
QC5
%ENDBLOCK SPECIES_POT

%BLOCK HUBBARD_U
Fe d:4.0
%ENDBLOCK HUBBARD_U

SNAP_TO_SYMMETRY
SYMMETRY_GENERATE

