#              Generated by Buildcell
#
# at 03:26:00 (GMT+0.0) 24th November 2020
# in /lustre/scratch/uccabz1/launch_tmp
# on node-c12a-034
# by uccabz1
#
# compiler GCC version 4.9.2
# options -cpp -iprefix /lustre/shared/ucl/apps/gcc/4.9.2/bin/../lib/gcc/x86_64-unknown-linux-gnu/4.9.2/ -mtune=corei7 -march=x86-64 -g -Og
#
# seed  1955367112   331383090  1152725295   959639669 -1277544104  -805057709  1630819142 -1574168405 -1425776274   325612424  1392062997 -2092305495
#
#      Author: C. J. Pickard (cjp20@cam.ac.uk)
#                Space group: Pc
#

%BLOCK LATTICE_ABC
      3.84667      5.90044      7.16056
     90.00000     90.00000    100.10967
%ENDBLOCK LATTICE_ABC

%BLOCK POSITIONS_FRAC
  Li   0.2289793   0.2447013   0.4502203 SPIN=   0.00000
  Li   0.2289793  -0.2552987  -0.4502203 SPIN=   0.00000
   O   0.0751185  -0.1851151  -0.1770387 SPIN=   0.00000
   O  -0.3772257   0.0785778  -0.0942983 SPIN=   0.00000
   O   0.1713778   0.2507464  -0.2576444 SPIN=   0.00000
   O  -0.2927837  -0.0216405  -0.4291542 SPIN=   0.00000
   P  -0.0984469   0.0185371  -0.2384440 SPIN=   0.00000
   O   0.0751185  -0.6851151   0.1770387 SPIN=   0.00000
   O  -0.3772257  -0.4214222   0.0942983 SPIN=   0.00000
   O   0.1713778  -0.2492536   0.2576444 SPIN=   0.00000
   O  -0.2927837  -0.5216405   0.4291542 SPIN=   0.00000
   P  -0.0984469  -0.4814629   0.2384440 SPIN=   0.00000
  Fe  -0.3431979   0.4410991  -0.1729340 SPIN=   4.00000
  Fe  -0.3431979  -0.0589009   0.1729340 SPIN=   4.00000
%ENDBLOCK POSITIONS_FRAC

# Note: total spin =   8.00

KPOINTS_MP_SPACING 0.07

%BLOCK SPECIES_POT
QC5
%ENDBLOCK SPECIES_POT

%BLOCK HUBBARD_U
Fe d:4.0
%ENDBLOCK HUBBARD_U

SNAP_TO_SYMMETRY
SYMMETRY_GENERATE

