#              Generated by Buildcell
#
# at 03:44:40 (GMT+0.0) 24th November 2020
# in /lustre/scratch/uccabz1/launch_tmp
# on node-c12n-022
# by uccabz1
#
# compiler GCC version 4.9.2
# options -cpp -iprefix /lustre/shared/ucl/apps/gcc/4.9.2/bin/../lib/gcc/x86_64-unknown-linux-gnu/4.9.2/ -mtune=corei7 -march=x86-64 -g -Og
#
# seed    83192946 -1061794585 -1160477024  -930038371  -650847677  1633206978 -1498659126  -327819096   918024737 -1980799954  1038765510    80049219
#
#      Author: C. J. Pickard (cjp20@cam.ac.uk)
#                Space group: P42
#

%BLOCK LATTICE_ABC
      4.65460      4.65460      7.38509
     90.00000     90.00000     90.00000
%ENDBLOCK LATTICE_ABC

%BLOCK POSITIONS_FRAC
  Li  -0.5000000  -0.0000000   0.4942068 SPIN=   0.00000
  Li  -0.0000000   0.5000000  -0.0057932 SPIN=   0.00000
   O  -0.2870071  -0.2760967  -0.1758044 SPIN=   0.00000
   O   0.2149725  -0.1960494  -0.3211296 SPIN=   0.00000
   O   0.2870071   0.2760967  -0.1758044 SPIN=   0.00000
   O  -0.2149725   0.1960494  -0.3211296 SPIN=   0.00000
   O  -0.2760967   0.2870071   0.3241956 SPIN=   0.00000
   O  -0.1960494  -0.2149725   0.1788704 SPIN=   0.00000
   O   0.2760967  -0.2870071   0.3241956 SPIN=   0.00000
   O   0.1960494   0.2149725   0.1788704 SPIN=   0.00000
   P   0.5000000  -0.5000000  -0.2502135 SPIN=   0.00000
   P  -0.5000000   0.5000000   0.2497865 SPIN=   0.00000
  Fe   0.5000000  -0.0000000   0.0185293 SPIN=   4.00000
  Fe   0.0000000  -0.5000000  -0.4814707 SPIN=   4.00000
%ENDBLOCK POSITIONS_FRAC

# Note: total spin =   8.00

KPOINTS_MP_SPACING 0.07

%BLOCK SPECIES_POT
QC5
%ENDBLOCK SPECIES_POT

%BLOCK HUBBARD_U
Fe d:4.0
%ENDBLOCK HUBBARD_U

SNAP_TO_SYMMETRY
SYMMETRY_GENERATE

