#              Generated by Buildcell
#
# at 03:30:39 (GMT+0.0) 24th November 2020
# in /lustre/scratch/uccabz1/launch_tmp
# on node-c12g-028
# by uccabz1
#
# compiler GCC version 4.9.2
# options -cpp -iprefix /lustre/shared/ucl/apps/gcc/4.9.2/bin/../lib/gcc/x86_64-unknown-linux-gnu/4.9.2/ -mtune=corei7 -march=x86-64 -g -Og
#
# seed  -294003388  1108527099  1266868817  1498280303  1489825550   665643045   723537489  -272984345 -1491179198 -1735762786  1375288393   833311927
#
#      Author: C. J. Pickard (cjp20@cam.ac.uk)
#                Space group: C2/c
#

%BLOCK LATTICE_ABC
      4.63552      4.63552      7.67498
     80.10693     80.10693     89.72606
%ENDBLOCK LATTICE_ABC

%BLOCK POSITIONS_FRAC
  Li   0.4781661   0.5218339  -0.2500000 SPIN=   0.00000
  Li  -0.4781661  -0.5218339   0.2500000 SPIN=   0.00000
   O  -0.3414709  -0.2491264   0.4161519 SPIN=   0.00000
   O  -0.1098177  -0.7627825   0.4516311 SPIN=   0.00000
   O  -0.7508736   0.3414709   0.0838481 SPIN=   0.00000
   O  -0.2372175   0.1098177   0.0483689 SPIN=   0.00000
   O   0.3414709   0.2491264  -0.4161519 SPIN=   0.00000
   O   0.1098177   0.7627825  -0.4516311 SPIN=   0.00000
   O   0.7508736  -0.3414709  -0.0838481 SPIN=   0.00000
   O   0.2372175  -0.1098177  -0.0483689 SPIN=   0.00000
   P  -0.0000000  -0.5000000   0.0000000 SPIN=   0.00000
   P  -0.5000000  -1.0000000   0.5000000 SPIN=   0.00000
  Fe  -0.0252829   0.0252829  -0.2500000 SPIN=   4.00000
  Fe   0.0252829  -0.0252829   0.2500000 SPIN=   4.00000
%ENDBLOCK POSITIONS_FRAC

# Note: total spin =   8.00

KPOINTS_MP_SPACING 0.07

%BLOCK SPECIES_POT
QC5
%ENDBLOCK SPECIES_POT

%BLOCK HUBBARD_U
Fe d:4.0
%ENDBLOCK HUBBARD_U

SNAP_TO_SYMMETRY
SYMMETRY_GENERATE

