#              Generated by Buildcell
#
# at 03:36:56 (GMT+0.0) 24th November 2020
# in /lustre/scratch/uccabz1/launch_tmp
# on node-c12p-022
# by uccabz1
#
# compiler GCC version 4.9.2
# options -cpp -iprefix /lustre/shared/ucl/apps/gcc/4.9.2/bin/../lib/gcc/x86_64-unknown-linux-gnu/4.9.2/ -mtune=corei7 -march=x86-64 -g -Og
#
# seed   638257151 -1313955046 -2140514202   370867401  -168647687    -2304543  1342598769   798092626  2111707851 -1059753765 -1389786565 -1242381354
#
#      Author: C. J. Pickard (cjp20@cam.ac.uk)
#                Space group: P21212
#

%BLOCK LATTICE_ABC
      5.35147      5.46694      5.46893
     90.00000     90.00000     90.00000
%ENDBLOCK LATTICE_ABC

%BLOCK POSITIONS_FRAC
  Li  -0.0000031  -0.5000000   0.0000000 SPIN=   0.00000
  Li   0.0000031   0.0000000  -0.5000000 SPIN=   0.00000
   O  -0.1600845   0.1832608   0.1816092 SPIN=   0.00000
   O  -0.3876811  -0.2345719   0.2219240 SPIN=   0.00000
   O  -0.1600845  -0.1832608  -0.1816092 SPIN=   0.00000
   O  -0.3876811   0.2345719  -0.2219240 SPIN=   0.00000
   O   0.1600845   0.6832608   0.3183908 SPIN=   0.00000
   O   0.3876811   0.2654281   0.2780760 SPIN=   0.00000
   O   0.1600845  -0.6832608  -0.3183908 SPIN=   0.00000
   O   0.3876811  -0.2654281  -0.2780760 SPIN=   0.00000
   P   0.4999415   0.0000000   0.5000000 SPIN=   0.00000
   P  -0.4999415  -0.5000000   0.0000000 SPIN=   0.00000
  Fe   0.3453622   0.0000000   0.0000000 SPIN=   4.00000
  Fe  -0.3453622  -0.5000000  -0.5000000 SPIN=   4.00000
%ENDBLOCK POSITIONS_FRAC

# Note: total spin =   8.00

KPOINTS_MP_SPACING 0.07

%BLOCK SPECIES_POT
QC5
%ENDBLOCK SPECIES_POT

%BLOCK HUBBARD_U
Fe d:4.0
%ENDBLOCK HUBBARD_U

SNAP_TO_SYMMETRY
SYMMETRY_GENERATE

