#              Generated by Buildcell
#
# at 05:15:01 (GMT+0.0) 24th November 2020
# in /lustre/scratch/uccabz1/launch_tmp
# on node-c12j-029
# by uccabz1
#
# compiler GCC version 4.9.2
# options -cpp -iprefix /lustre/shared/ucl/apps/gcc/4.9.2/bin/../lib/gcc/x86_64-unknown-linux-gnu/4.9.2/ -mtune=corei7 -march=x86-64 -g -Og
#
# seed -1443623555  -776837288   602733149 -1913641484   194892145  -320816193   912515085   173460281   297708735 -2045973520  1794953718  -573487723
#
#      Author: C. J. Pickard (cjp20@cam.ac.uk)
#                Space group: I222
#

%BLOCK LATTICE_ABC
      4.77288      4.77454      7.79042
    107.84462    107.83820     90.00000
%ENDBLOCK LATTICE_ABC

%BLOCK POSITIONS_FRAC
  Li   0.5000000  -0.5000000   0.0000000 SPIN=   0.00000
  Li   0.0000000   0.0000000   0.0000000 SPIN=   0.00000
   O   0.3960034   0.5007803   0.5462757 SPIN=   0.00000
   O   0.3762046   0.3208039   0.1920372 SPIN=   0.00000
   O  -0.3960034  -0.0454955  -0.5462757 SPIN=   0.00000
   O  -0.3762046   0.1287667  -0.1920372 SPIN=   0.00000
   O   0.1502724   0.0454955   0.5462757 SPIN=   0.00000
   O  -0.1841674  -0.1287667   0.1920372 SPIN=   0.00000
   O  -0.1502724  -0.5007803  -0.5462757 SPIN=   0.00000
   O   0.1841674  -0.3208039  -0.1920372 SPIN=   0.00000
   P  -0.3678433   0.1321567   0.2643133 SPIN=   0.00000
   P   0.3678433  -0.1321567  -0.2643133 SPIN=   0.00000
  Fe   0.1633883  -0.3366117   0.3267765 SPIN=   4.00000
  Fe  -0.1633883   0.3366117  -0.3267765 SPIN=   4.00000
%ENDBLOCK POSITIONS_FRAC

# Note: total spin =   8.00

KPOINTS_MP_SPACING 0.07

%BLOCK SPECIES_POT
QC5
%ENDBLOCK SPECIES_POT

%BLOCK HUBBARD_U
Fe d:4.0
%ENDBLOCK HUBBARD_U

SNAP_TO_SYMMETRY
SYMMETRY_GENERATE

