#              Generated by Buildcell
#
# at 04:44:17 (GMT+0.0) 24th November 2020
# in /lustre/scratch/uccabz1/launch_tmp
# on node-c12g-024
# by uccabz1
#
# compiler GCC version 4.9.2
# options -cpp -iprefix /lustre/shared/ucl/apps/gcc/4.9.2/bin/../lib/gcc/x86_64-unknown-linux-gnu/4.9.2/ -mtune=corei7 -march=x86-64 -g -Og
#
# seed  -963124472  1546621218  1516618012  1166200031  -657126390   203757580  1125817273 -2113908591 -1163438943 -1769297389 -2110451974   921575408
#
#      Author: C. J. Pickard (cjp20@cam.ac.uk)
#                Space group: Cm
#

%BLOCK LATTICE_ABC
      4.04508      6.34693      6.34693
    100.91935     90.00279     90.00279
%ENDBLOCK LATTICE_ABC

%BLOCK POSITIONS_FRAC
  Li  -0.1918354   0.3711394  -0.1288690 SPIN=   0.00000
  Li  -0.1918354  -0.1288690   0.3711394 SPIN=   0.00000
   O   0.2196649  -0.0979018   0.1758626 SPIN=   0.00000
   O  -0.3003983  -0.3368879   0.0791426 SPIN=   0.00000
   O   0.1911598  -0.4099123  -0.1541190 SPIN=   0.00000
   O   0.2053223  -0.4954972   0.2150898 SPIN=   0.00000
   O   0.2196649   0.1758626  -0.0979018 SPIN=   0.00000
   O  -0.3003983   0.0791426  -0.3368879 SPIN=   0.00000
   O   0.1911598  -0.1541190  -0.4099123 SPIN=   0.00000
   O   0.2053223   0.2150898  -0.4954972 SPIN=   0.00000
   P   0.0836576  -0.3789625  -0.3789625 SPIN=   0.00000
   P   0.0837255   0.1211223   0.1211223 SPIN=   0.00000
  Fe  -0.4147676   0.3711440   0.3711440 SPIN=   5.70325
  Fe  -0.4179489  -0.1289016  -0.1289016 SPIN=   2.29675
%ENDBLOCK POSITIONS_FRAC

# Note: total spin =   8.00

KPOINTS_MP_SPACING 0.07

%BLOCK SPECIES_POT
QC5
%ENDBLOCK SPECIES_POT

%BLOCK HUBBARD_U
Fe d:4.0
%ENDBLOCK HUBBARD_U

SNAP_TO_SYMMETRY
SYMMETRY_GENERATE

