#              Generated by Buildcell
#
# at 02:37:50 (GMT+0.0) 24th November 2020
# in /lustre/scratch/uccabz1/launch_tmp
# on node-c12k-030
# by uccabz1
#
# compiler GCC version 4.9.2
# options -cpp -iprefix /lustre/shared/ucl/apps/gcc/4.9.2/bin/../lib/gcc/x86_64-unknown-linux-gnu/4.9.2/ -mtune=corei7 -march=x86-64 -g -Og
#
# seed -1371473406 -1169584846 -1655869959 -2138987152  -387798788  -308408645  1050938616  -379164035  1424527869 -1078452528  -680087932   255286137
#
#      Author: C. J. Pickard (cjp20@cam.ac.uk)
#                Space group: P-1
#

%BLOCK LATTICE_ABC
      4.99179      5.76062      6.38336
     96.61637    111.08198    105.88022
%ENDBLOCK LATTICE_ABC

%BLOCK POSITIONS_FRAC
  Li   0.1492197  -0.0604576  -0.2204386 SPIN=   0.00000
  Li  -0.1492197   0.0604576   0.2204386 SPIN=   0.00000
   O  -0.5525935  -0.2348991   0.0020260 SPIN=   0.00000
   O  -0.1046884  -0.3033272  -0.0826957 SPIN=   0.00000
   O  -0.6321031  -0.5370075  -0.3673903 SPIN=   0.00000
   O  -0.4153694  -0.0782392  -0.3219526 SPIN=   0.00000
   P  -0.4327913  -0.2830415  -0.1836730 SPIN=   0.00000
   O   0.5525935   0.2348991  -0.0020260 SPIN=   0.00000
   O   0.1046884   0.3033272   0.0826957 SPIN=   0.00000
   O   0.6321031   0.5370075   0.3673903 SPIN=   0.00000
   O   0.4153694   0.0782392   0.3219526 SPIN=   0.00000
   P   0.4327913   0.2830415   0.1836730 SPIN=   0.00000
  Fe  -0.2228660   0.3373179  -0.3295321 SPIN=   4.00000
  Fe   0.2228660  -0.3373179   0.3295321 SPIN=   4.00000
%ENDBLOCK POSITIONS_FRAC

# Note: total spin =   8.00

KPOINTS_MP_SPACING 0.07

%BLOCK SPECIES_POT
QC5
%ENDBLOCK SPECIES_POT

%BLOCK HUBBARD_U
Fe d:4.0
%ENDBLOCK HUBBARD_U

SNAP_TO_SYMMETRY
SYMMETRY_GENERATE

