#              Generated by Buildcell
#
# at 23:28:50 (GMT+0.0) 23rd November 2020
# in /lustre/scratch/uccabz1/launch_tmp
# on node-c12o-023
# by uccabz1
#
# compiler GCC version 4.9.2
# options -cpp -iprefix /lustre/shared/ucl/apps/gcc/4.9.2/bin/../lib/gcc/x86_64-unknown-linux-gnu/4.9.2/ -mtune=corei7 -march=x86-64 -g -Og
#
# seed   941745792  1835506057 -1659420705   180436992 -1229330766  -770659091  -844137535 -1762090832  -204596265 -1325121169  1412468443 -1097139508
#
#      Author: C. J. Pickard (cjp20@cam.ac.uk)
#                Space group: Cm
#

%BLOCK LATTICE_ABC
      5.42787      5.59788      6.55157
    115.28160    114.46190     90.02061
%ENDBLOCK LATTICE_ABC

%BLOCK POSITIONS_FRAC
  Li  -0.4450987  -0.2435533   0.0000000 SPIN=   0.00000
  Li   0.0019189   0.2420934   0.0000000 SPIN=   0.00000
   O   0.0938962  -0.8916420  -0.7219781 SPIN=   0.00000
   O   0.0332423  -0.8260295  -0.3294899 SPIN=   0.00000
   O   0.5074005  -0.7292419  -0.2736271 SPIN=   0.00000
   O   0.1895207  -0.4187418  -0.3490250 SPIN=   0.00000
   O  -0.1841256   0.8303361   0.7219781 SPIN=   0.00000
   O  -0.6372679   0.5034603   0.3294899 SPIN=   0.00000
   O  -0.2189724   0.5443852   0.2736271 SPIN=   0.00000
   O  -0.4614543   0.9302833   0.3490250 SPIN=   0.00000
   P  -0.4909806   0.2781523   0.0000000 SPIN=   0.00000
   P   0.0502991  -0.2341249   0.0000000 SPIN=   0.00000
  Fe   0.1878216   0.8434794   0.4985187 SPIN=   4.00000
  Fe  -0.3106971  -0.6550393  -0.4985187 SPIN=   4.00000
%ENDBLOCK POSITIONS_FRAC

# Note: total spin =   8.00

KPOINTS_MP_SPACING 0.07

%BLOCK SPECIES_POT
QC5
%ENDBLOCK SPECIES_POT

%BLOCK HUBBARD_U
Fe d:4.0
%ENDBLOCK HUBBARD_U

SNAP_TO_SYMMETRY
SYMMETRY_GENERATE

