#              Generated by Buildcell
#
# at 04:44:56 (GMT+0.0) 24th November 2020
# in /lustre/scratch/uccabz1/launch_tmp
# on node-c12i-032
# by uccabz1
#
# compiler GCC version 4.9.2
# options -cpp -iprefix /lustre/shared/ucl/apps/gcc/4.9.2/bin/../lib/gcc/x86_64-unknown-linux-gnu/4.9.2/ -mtune=corei7 -march=x86-64 -g -Og
#
# seed  1747947934   241327766   141055563   617408950  1765970653  -651122684 -1222007183 -1838177732  1228939010  -498736239   366533051  -816112028
#
#      Author: C. J. Pickard (cjp20@cam.ac.uk)
#                Space group: Imm2
#

%BLOCK LATTICE_ABC
      5.33228      5.65357      6.57783
    115.45137    113.91133     90.00000
%ENDBLOCK LATTICE_ABC

%BLOCK POSITIONS_FRAC
  Li   0.2499694   0.1557249   0.4999388 SPIN=   0.00000
  Li  -0.2499694  -0.3442139  -0.4999388 SPIN=   0.00000
   O   0.1451729  -0.0415089  -0.2431679 SPIN=   0.00000
   O   0.1001081  -0.5144925  -0.2735506 SPIN=   0.00000
   O  -0.1451729   0.2016590   0.2431679 SPIN=   0.00000
   O  -0.1001081  -0.2409418   0.2735506 SPIN=   0.00000
   O  -0.3883408  -0.0415089  -0.2431679 SPIN=   0.00000
   O  -0.3736587  -0.5144925  -0.2735506 SPIN=   0.00000
   O   0.3883408   0.2016590   0.2431679 SPIN=   0.00000
   O   0.3736587  -0.2409418   0.2735506 SPIN=   0.00000
   P  -0.2500066   0.1828362  -0.5000131 SPIN=   0.00000
   P   0.2500066  -0.3171507   0.5000131 SPIN=   0.00000
  Fe   0.0000000   0.2502790   0.0000000 SPIN=   1.02930
  Fe   0.5000000  -0.2497812   1.0000000 SPIN=   6.97070
%ENDBLOCK POSITIONS_FRAC

# Note: total spin =   8.00

KPOINTS_MP_SPACING 0.07

%BLOCK SPECIES_POT
QC5
%ENDBLOCK SPECIES_POT

%BLOCK HUBBARD_U
Fe d:4.0
%ENDBLOCK HUBBARD_U

SNAP_TO_SYMMETRY
SYMMETRY_GENERATE

