#              Generated by Buildcell
#
# at 02:41:46 (GMT+0.0) 24th November 2020
# in /lustre/scratch/uccabz1/launch_tmp
# on node-c12n-022
# by uccabz1
#
# compiler GCC version 4.9.2
# options -cpp -iprefix /lustre/shared/ucl/apps/gcc/4.9.2/bin/../lib/gcc/x86_64-unknown-linux-gnu/4.9.2/ -mtune=corei7 -march=x86-64 -g -Og
#
# seed  -502264638  -135264325   248177257 -1168685365  -154828941  1793842432  -447033700 -1792010143 -1920852295  -780369242 -1344284398  1501757388
#
#      Author: C. J. Pickard (cjp20@cam.ac.uk)
#                Space group: C2221
#

%BLOCK LATTICE_ABC
      4.77035      4.77035      7.79184
     90.00000     90.00000    115.52992
%ENDBLOCK LATTICE_ABC

%BLOCK POSITIONS_FRAC
  Li   0.3305879  -0.3305879  -0.0000000 SPIN=   0.00000
  Li  -0.3305879   0.3305879   0.5000000 SPIN=   0.00000
   O  -0.5587049   0.0745247   0.2798603 SPIN=   0.00000
   O  -0.3081762  -0.1957986   0.4757773 SPIN=   0.00000
   O   0.5587049  -0.0745247  -0.2201397 SPIN=   0.00000
   O   0.3081762   0.1957986  -0.0242227 SPIN=   0.00000
   O   0.0745247  -0.5587049   0.2201397 SPIN=   0.00000
   O  -0.1957986  -0.3081762   0.0242227 SPIN=   0.00000
   O  -0.0745247   0.5587049  -0.2798603 SPIN=   0.00000
   O   0.1957986   0.3081762  -0.4757773 SPIN=   0.00000
   P  -0.2877053   0.2877053   0.0000000 SPIN=   0.00000
   P   0.2877053  -0.2877053   0.5000000 SPIN=   0.00000
  Fe   0.0411814   0.0411814  -0.2500000 SPIN=   4.00000
  Fe  -0.0411814  -0.0411814   0.2500000 SPIN=   4.00000
%ENDBLOCK POSITIONS_FRAC

# Note: total spin =   8.00

KPOINTS_MP_SPACING 0.07

%BLOCK SPECIES_POT
QC5
%ENDBLOCK SPECIES_POT

%BLOCK HUBBARD_U
Fe d:4.0
%ENDBLOCK HUBBARD_U

SNAP_TO_SYMMETRY
SYMMETRY_GENERATE

