#              Generated by Buildcell
#
# at 22:21:53 (GMT+0.0) 23rd November 2020
# in /lustre/scratch/uccabz1/launch_tmp
# on node-c12d-032
# by uccabz1
#
# compiler GCC version 4.9.2
# options -cpp -iprefix /lustre/shared/ucl/apps/gcc/4.9.2/bin/../lib/gcc/x86_64-unknown-linux-gnu/4.9.2/ -mtune=corei7 -march=x86-64 -g -Og
#
# seed   -33310797  -131627416   412425861  1437950320  1318174749  1821044598 -1053674667  -314393623 -1415443524   969538790   186568401 -1370767840
#
#      Author: C. J. Pickard (cjp20@cam.ac.uk)
#                Space group: Cm
#

%BLOCK LATTICE_ABC
      4.49885      6.11691      6.11691
     85.55001     77.20199     77.20199
%ENDBLOCK LATTICE_ABC

%BLOCK POSITIONS_FRAC
  Li  -0.0194799   0.1911949  -0.3938662 SPIN=   0.00000
  Li  -0.0194799  -0.3938662   0.1911949 SPIN=   0.00000
   O   0.3970089   0.5499386  -0.0557538 SPIN=   0.00000
   O   0.5782172   0.1319946  -0.1653054 SPIN=   0.00000
   O   0.0133739   0.2960596  -0.0801151 SPIN=   0.00000
   P   0.3377786   0.3597251  -0.1798189 SPIN=   0.00000
   O   0.3970089  -0.0557538   0.5499386 SPIN=   0.00000
   O   0.5782172  -0.1653054   0.1319946 SPIN=   0.00000
   O   0.0133739  -0.0801151   0.2960596 SPIN=   0.00000
   P   0.3377786  -0.1798189   0.3597251 SPIN=   0.00000
   O  -0.3011984   0.4919310   0.4919310 SPIN=   0.00000
   O   0.1927941   0.2758613   0.2758613 SPIN=   0.00000
  Fe  -0.3008643  -0.2742654  -0.2742654 SPIN=   3.33264
  Fe  -0.3238200   0.1655914   0.1655914 SPIN=   4.66736
%ENDBLOCK POSITIONS_FRAC

# Note: total spin =   8.00

KPOINTS_MP_SPACING 0.07

%BLOCK SPECIES_POT
QC5
%ENDBLOCK SPECIES_POT

%BLOCK HUBBARD_U
Fe d:4.0
%ENDBLOCK HUBBARD_U

SNAP_TO_SYMMETRY
SYMMETRY_GENERATE

