#              Generated by Buildcell
#
# at 19:29:30 (GMT+0.0) 30th November 2020
# in /lustre/scratch/uccabz1/launch_tmp
# on node-c12n-028
# by uccabz1
#
# compiler GCC version 4.9.2
# options -cpp -iprefix /lustre/shared/ucl/apps/gcc/4.9.2/bin/../lib/gcc/x86_64-unknown-linux-gnu/4.9.2/ -mtune=corei7 -march=x86-64 -g -Og
#
# seed   579267006   275389015 -1633478148   160287140   496065844  -499813943   583464880  -250174407 -1812981095    59160566   244038150  -690816467
#
#      Author: C. J. Pickard (cjp20@cam.ac.uk)
#                Space group: P-1
#

%BLOCK LATTICE_ABC
      4.21295      5.16817      7.73053
     88.41992     75.51159     79.11589
%ENDBLOCK LATTICE_ABC

%BLOCK POSITIONS_FRAC
  Li   0.3818608  -0.2191836  -0.3838460 SPIN=   0.00000
  Li  -0.3818608   0.2191836   0.3838460 SPIN=   0.00000
   O  -0.1044026  -0.0211098   0.1623114 SPIN=   0.00000
   O   0.3971170   0.2226580   0.0760948 SPIN=   0.00000
   O  -0.1653603   0.4850644   0.2010287 SPIN=   0.00000
   O   0.1162847   0.1833384   0.3994282 SPIN=   0.00000
   O   0.1044026   0.0211098  -0.1623114 SPIN=   0.00000
   O  -0.3971170  -0.2226580  -0.0760948 SPIN=   0.00000
   O   0.1653603  -0.4850644  -0.2010287 SPIN=   0.00000
   O  -0.1162847  -0.1833384  -0.3994282 SPIN=   0.00000
   P  -1.0000000   0.5000000   0.5000000 SPIN=   0.00000
   P   0.0000000  -0.5000000   0.0000000 SPIN=   0.00000
  Fe  -0.6486058  -0.2340224   0.1938494 SPIN=   4.00000
  Fe   0.6486058   0.2340224  -0.1938494 SPIN=   4.00000
%ENDBLOCK POSITIONS_FRAC

# Note: total spin =   8.00

KPOINTS_MP_SPACING 0.07

%BLOCK SPECIES_POT
QC5
%ENDBLOCK SPECIES_POT

%BLOCK HUBBARD_U
Fe d:4.0
%ENDBLOCK HUBBARD_U

SNAP_TO_SYMMETRY
SYMMETRY_GENERATE

