#              Generated by Buildcell
#
# at 23:53:02 (GMT+0.0) 23rd November 2020
# in /lustre/scratch/uccabz1/launch_tmp
# on node-c12a-034
# by uccabz1
#
# compiler GCC version 4.9.2
# options -cpp -iprefix /lustre/shared/ucl/apps/gcc/4.9.2/bin/../lib/gcc/x86_64-unknown-linux-gnu/4.9.2/ -mtune=corei7 -march=x86-64 -g -Og
#
# seed  1106944322  1457959871 -1031910772  1871817444  -453745516   121050517  1636958478  1340848302   919819216  -615222843   633132237  1538710413
#
#      Author: C. J. Pickard (cjp20@cam.ac.uk)
#                Space group: I222
#

%BLOCK LATTICE_ABC
      5.82496      5.95552      5.95552
     69.59160     60.72260     60.72260
%ENDBLOCK LATTICE_ABC

%BLOCK POSITIONS_FRAC
  Li  -0.0000000   0.1786840  -0.1786840 SPIN=   0.00000
  Li   0.0000000  -0.1786840   0.1786840 SPIN=   0.00000
   O   0.2530727  -0.1507700   0.4107508 SPIN=   0.00000
   O   0.6876710  -0.2813420   0.5189931 SPIN=   0.00000
   O  -0.2530727   0.5892492   0.1507700 SPIN=   0.00000
   O  -0.6876710   0.4810069   0.2813420 SPIN=   0.00000
   O   0.4869465  -0.5892492  -0.1507700 SPIN=   0.00000
   O   0.0746779  -0.4810069  -0.2813420 SPIN=   0.00000
   O  -0.4869465   0.1507700  -0.4107508 SPIN=   0.00000
   O  -0.0746779   0.2813420  -0.5189931 SPIN=   0.00000
   P   0.5000000  -0.5000000  -0.5000000 SPIN=   0.00000
   P   0.0000000   0.5000000  -0.5000000 SPIN=   0.00000
  Fe   0.3020793  -0.8020793   0.1979207 SPIN=   4.00000
  Fe  -0.3020793   0.8020793  -0.1979207 SPIN=   4.00000
%ENDBLOCK POSITIONS_FRAC

# Note: total spin =   8.00

KPOINTS_MP_SPACING 0.07

%BLOCK SPECIES_POT
QC5
%ENDBLOCK SPECIES_POT

%BLOCK HUBBARD_U
Fe d:4.0
%ENDBLOCK HUBBARD_U

SNAP_TO_SYMMETRY
SYMMETRY_GENERATE

