#              Generated by Buildcell
#
# at 05:08:15 (GMT+0.0) 24th November 2020
# in /scratch/scratch/uccabz1/launch_tmp
# on node-a14a-001
# by uccabz1
#
# compiler GCC version 4.9.2
# options -cpp -iprefix /scratch/UCL/applications/gcc/4.9.2/bin/../lib/gcc/x86_64-unknown-linux-gnu/4.9.2/ -mtune=corei7 -march=x86-64 -g -O2
#
# seed -1080470502  -758905247  -942447498 -1227616518 -1938287520  1601809538 -1933511822  1327603106 -1172902548    91894286  -197623306   549193122
#
#      Author: C. J. Pickard (cjp20@cam.ac.uk)
#                Space group: Cm
#

%BLOCK LATTICE_ABC
      4.82290      5.97364      5.97364
     81.09253     75.10285     75.10285
%ENDBLOCK LATTICE_ABC

%BLOCK POSITIONS_FRAC
  Li   0.4525924   0.3495114  -0.2590631 SPIN=   0.00000
  Li   0.4525924  -0.2590631   0.3495114 SPIN=   0.00000
   O   0.0385279  -0.0325860  -0.5427709 SPIN=   0.00000
   O  -0.1570363   0.1646863  -0.1566566 SPIN=   0.00000
   O   0.3805701   0.0241149  -0.2939187 SPIN=   0.00000
   P   0.0912052   0.1262307  -0.3858798 SPIN=   0.00000
   O   0.0385279  -0.5427709  -0.0325860 SPIN=   0.00000
   O  -0.1570363  -0.1566566   0.1646863 SPIN=   0.00000
   O   0.3805701  -0.2939187   0.0241149 SPIN=   0.00000
   P   0.0912052  -0.3858798   0.1262307 SPIN=   0.00000
   O   0.3584973   0.4079477   0.4079477 SPIN=   0.00000
   O  -0.1855237   0.4981242   0.4981242 SPIN=   0.00000
  Fe  -0.2263033   0.2062103   0.2062103 SPIN=   5.82170
  Fe  -0.2473170  -0.2216731  -0.2216731 SPIN=   2.17830
%ENDBLOCK POSITIONS_FRAC

# Note: total spin =   8.00

KPOINTS_MP_SPACING 0.07

%BLOCK SPECIES_POT
QC5
%ENDBLOCK SPECIES_POT

%BLOCK HUBBARD_U
Fe d:4.0
%ENDBLOCK HUBBARD_U

SNAP_TO_SYMMETRY
SYMMETRY_GENERATE

