#              Generated by Buildcell
#
# at 01:52:40 (GMT+0.0) 24th November 2020
# in /lustre/scratch/uccabz1/launch_tmp
# on node-c12l-023
# by uccabz1
#
# compiler GCC version 4.9.2
# options -cpp -iprefix /lustre/shared/ucl/apps/gcc/4.9.2/bin/../lib/gcc/x86_64-unknown-linux-gnu/4.9.2/ -mtune=corei7 -march=x86-64 -g -Og
#
# seed  -501352755 -1344364434  1826691994  -537291609 -2032629859  1250823658  -347023422  1322777045   857537215  -612946213 -1184246361 -1268124709
#
#      Author: C. J. Pickard (cjp20@cam.ac.uk)
#                Space group: Cm
#

%BLOCK LATTICE_ABC
      3.95817      6.45746      6.45746
    102.66250     94.05912     94.05912
%ENDBLOCK LATTICE_ABC

%BLOCK POSITIONS_FRAC
  Li   0.0227371  -0.2729917   0.2235981 SPIN=   0.00000
  Li   0.0227371   0.2235981  -0.2729917 SPIN=   0.00000
   O  -0.4509527   0.3486693  -0.3029995 SPIN=   0.00000
   O  -0.3382217   0.7158721  -0.0355589 SPIN=   0.00000
   O  -0.7698405   0.4520836   0.0377809 SPIN=   0.00000
   P  -0.4260424   0.4688220  -0.0680951 SPIN=   0.00000
   O  -0.4509527  -0.3029995   0.3486693 SPIN=   0.00000
   O  -0.3382217  -0.0355589   0.7158721 SPIN=   0.00000
   O  -0.7698405   0.0377809   0.4520836 SPIN=   0.00000
   P  -0.4260424  -0.0680951   0.4688220 SPIN=   0.00000
   O   0.2141857  -0.0082231  -0.0082231 SPIN=   0.00000
   O  -0.2434471   0.1741448   0.1741448 SPIN=   0.00000
  Fe   0.1696133  -0.2690131  -0.2690131 SPIN=   3.64067
  Fe   0.2759219   0.2570714   0.2570714 SPIN=   4.35933
%ENDBLOCK POSITIONS_FRAC

# Note: total spin =   8.00

KPOINTS_MP_SPACING 0.07

%BLOCK SPECIES_POT
QC5
%ENDBLOCK SPECIES_POT

%BLOCK HUBBARD_U
Fe d:4.0
%ENDBLOCK HUBBARD_U

SNAP_TO_SYMMETRY
SYMMETRY_GENERATE

