#              Generated by Buildcell
#
# at 02:41:34 (GMT+0.0) 24th November 2020
# in /lustre/scratch/uccabz1/launch_tmp
# on node-c12o-023
# by uccabz1
#
# compiler GCC version 4.9.2
# options -cpp -iprefix /lustre/shared/ucl/apps/gcc/4.9.2/bin/../lib/gcc/x86_64-unknown-linux-gnu/4.9.2/ -mtune=corei7 -march=x86-64 -g -Og
#
# seed -2071136974 -1686116158  1255699999 -1202535618  2006882910   272305067  2033694052   973970472   190874667   968590358   460254538   110107174
#
#      Author: C. J. Pickard (cjp20@cam.ac.uk)
#                Space group: Cc
#

%BLOCK LATTICE_ABC
      4.53104      4.53104      8.68737
     89.17678     89.17678     63.79479
%ENDBLOCK LATTICE_ABC

%BLOCK POSITIONS_FRAC
  Li   0.0268086  -0.2892885  -0.4499851 SPIN=   0.00000
  Li   0.2107115  -0.4731914   0.0500149 SPIN=   0.00000
   O   0.2144604   0.0817570   0.1464686 SPIN=   0.00000
   O   0.6925223   0.0113156  -0.0410246 SPIN=   0.00000
   O   0.8192317  -0.1211719   0.2342056 SPIN=   0.00000
   O   0.6715314  -0.4897086   0.0732738 SPIN=   0.00000
   P   0.5797891  -0.1224576   0.1051795 SPIN=   0.00000
   O   0.5817570  -0.2855396  -0.3535314 SPIN=   0.00000
   O   0.5113156   0.1925223  -0.5410246 SPIN=   0.00000
   O   0.3788281   0.3192317  -0.2657944 SPIN=   0.00000
   O   0.0102914   0.1715314  -0.4267262 SPIN=   0.00000
   P   0.3775424   0.0797891  -0.3948205 SPIN=   0.00000
  Fe  -0.2074421   0.3250599   0.3058414 SPIN=   4.00000
  Fe  -0.1749401   0.2925579  -0.1941586 SPIN=   4.00000
%ENDBLOCK POSITIONS_FRAC

# Note: total spin =   8.00

KPOINTS_MP_SPACING 0.07

%BLOCK SPECIES_POT
QC5
%ENDBLOCK SPECIES_POT

%BLOCK HUBBARD_U
Fe d:4.0
%ENDBLOCK HUBBARD_U

SNAP_TO_SYMMETRY
SYMMETRY_GENERATE

