#              Generated by Buildcell
#
# at 22:04:43 (GMT+0.0) 23rd November 2020
# in /lustre/scratch/uccabz1/launch_tmp
# on node-c12l-025
# by uccabz1
#
# compiler GCC version 4.9.2
# options -cpp -iprefix /lustre/shared/ucl/apps/gcc/4.9.2/bin/../lib/gcc/x86_64-unknown-linux-gnu/4.9.2/ -mtune=corei7 -march=x86-64 -g -Og
#
# seed   402751401 -1436323666   224598818   995500735 -1774710821  1559602848   198519816 -1063734855  -560665534    36470831  1110041619  -744038176
#
#      Author: C. J. Pickard (cjp20@cam.ac.uk)
#                Space group: Cc
#

%BLOCK LATTICE_ABC
      5.65044      5.85970      5.85970
     81.00355     65.26299     65.26299
%ENDBLOCK LATTICE_ABC

%BLOCK POSITIONS_FRAC
  Li   0.5525541  -0.4758895  -0.3132770 SPIN=   0.00000
  Li   1.0525541  -0.3132770  -0.4758895 SPIN=   0.00000
   O   0.0701954   0.2899141  -0.2636706 SPIN=   0.00000
   O  -0.1816129   0.1028694  -0.4187395 SPIN=   0.00000
   O   0.1421220  -0.1802403  -0.2196185 SPIN=   0.00000
   O  -0.3240751   0.1452292   0.0437660 SPIN=   0.00000
   P  -0.0686589   0.1007755  -0.2141317 SPIN=   0.00000
   O   0.5701954  -0.2636706   0.2899141 SPIN=   0.00000
   O   0.3183871  -0.4187395   0.1028694 SPIN=   0.00000
   O   0.6421220  -0.2196185  -0.1802403 SPIN=   0.00000
   O   0.1759249   0.0437660   0.1452292 SPIN=   0.00000
   P   0.4313411  -0.2141317   0.1007755 SPIN=   0.00000
  Fe  -0.5229968   0.0838324   0.4377777 SPIN=   4.00000
  Fe  -0.0229968   0.4377777   0.0838324 SPIN=   4.00000
%ENDBLOCK POSITIONS_FRAC

# Note: total spin =   8.00

KPOINTS_MP_SPACING 0.07

%BLOCK SPECIES_POT
QC5
%ENDBLOCK SPECIES_POT

%BLOCK HUBBARD_U
Fe d:4.0
%ENDBLOCK HUBBARD_U

SNAP_TO_SYMMETRY
SYMMETRY_GENERATE

