#              Generated by Buildcell
#
# at 02:48:55 (GMT+0.0) 24th November 2020
# in /lustre/scratch/uccabz1/launch_tmp
# on node-c12p-023
# by uccabz1
#
# compiler GCC version 4.9.2
# options -cpp -iprefix /lustre/shared/ucl/apps/gcc/4.9.2/bin/../lib/gcc/x86_64-unknown-linux-gnu/4.9.2/ -mtune=corei7 -march=x86-64 -g -Og
#
# seed   584506249   769829681  1847423055   507105588   439848702  1102278552 -1210081830 -1708229742   985461785 -1563980160  1079394208  -405408644
#
#      Author: C. J. Pickard (cjp20@cam.ac.uk)
#                Space group: P-4
#

%BLOCK LATTICE_ABC
      5.27940      5.27940      5.74051
     90.00000     90.00000     90.00000
%ENDBLOCK LATTICE_ABC

%BLOCK POSITIONS_FRAC
  Li   0.0000000   0.0000000   0.0000000 SPIN=   0.00000
  Li  -0.5000000   0.5000000   0.0000000 SPIN=   0.00000
   O   0.2350646   0.7020151  -0.4137612 SPIN=   0.00000
   O   0.2062703   0.2938636  -0.1623019 SPIN=   0.00000
   O  -0.2350646  -0.7020151  -0.4137612 SPIN=   0.00000
   O  -0.2062703  -0.2938636  -0.1623019 SPIN=   0.00000
   O  -0.7020151   0.2350646   0.4137612 SPIN=   0.00000
   O  -0.2938636   0.2062703   0.1623019 SPIN=   0.00000
   O   0.7020151  -0.2350646   0.4137612 SPIN=   0.00000
   O   0.2938636  -0.2062703   0.1623019 SPIN=   0.00000
   P  -0.0000000  -0.5000000  -0.1508891 SPIN=   0.00000
   P  -0.5000000   0.0000000   0.1508891 SPIN=   0.00000
  Fe   0.5000000   0.0000000  -0.3491109 SPIN=   4.00000
  Fe   0.0000000  -0.5000000   0.3491109 SPIN=   4.00000
%ENDBLOCK POSITIONS_FRAC

# Note: total spin =   8.00

KPOINTS_MP_SPACING 0.07

%BLOCK SPECIES_POT
QC5
%ENDBLOCK SPECIES_POT

%BLOCK HUBBARD_U
Fe d:4.0
%ENDBLOCK HUBBARD_U

SNAP_TO_SYMMETRY
SYMMETRY_GENERATE

