#              Generated by Buildcell
#
# at 02:53:55 (GMT+0.0) 24th November 2020
# in /scratch/scratch/uccabz1/launch_tmp
# on node-a14f-030
# by uccabz1
#
# compiler GCC version 4.9.2
# options -cpp -iprefix /scratch/UCL/applications/gcc/4.9.2/bin/../lib/gcc/x86_64-unknown-linux-gnu/4.9.2/ -mtune=corei7 -march=x86-64 -g -O2
#
# seed   167490761 -1709608878  1923473533  -328564780   891091053 -1281483112   370339449  1006186464  -271772106  -558164293  -961336348  -264402878
#
#      Author: C. J. Pickard (cjp20@cam.ac.uk)
#                Space group: P21
#

%BLOCK LATTICE_ABC
      4.45348      4.71756      7.62613
     93.01424     90.00000     90.00000
%ENDBLOCK LATTICE_ABC

%BLOCK POSITIONS_FRAC
  Li  -0.3279864  -0.2116264   0.4568001 SPIN=   0.00000
  Li   0.1720136   0.2116264  -0.4568001 SPIN=   0.00000
   O  -0.0666278  -0.0739175  -0.2424528 SPIN=   0.00000
   O  -0.0877381   0.4509251  -0.1214989 SPIN=   0.00000
   O  -0.3808074   0.3142431  -0.3876332 SPIN=   0.00000
   O  -0.5430405   0.1440098  -0.0968482 SPIN=   0.00000
   P  -0.2619761   0.1929963  -0.2123637 SPIN=   0.00000
   O   0.4333722   0.0739175   0.2424528 SPIN=   0.00000
   O   0.4122619  -0.4509251   0.1214989 SPIN=   0.00000
   O   0.1191926  -0.3142431   0.3876332 SPIN=   0.00000
   O  -0.0430405  -0.1440098   0.0968482 SPIN=   0.00000
   P   0.2380239  -0.1929963   0.2123637 SPIN=   0.00000
  Fe  -0.1499284   0.2836695   0.1569129 SPIN=   4.00000
  Fe   0.3500716  -0.2836695  -0.1569129 SPIN=   4.00000
%ENDBLOCK POSITIONS_FRAC

# Note: total spin =   8.00

KPOINTS_MP_SPACING 0.07

%BLOCK SPECIES_POT
QC5
%ENDBLOCK SPECIES_POT

%BLOCK HUBBARD_U
Fe d:4.0
%ENDBLOCK HUBBARD_U

SNAP_TO_SYMMETRY
SYMMETRY_GENERATE

