#              Generated by Buildcell
#
# at 02:48:04 (GMT+0.0) 24th November 2020
# in /lustre/scratch/uccabz1/launch_tmp
# on node-c12e-032
# by uccabz1
#
# compiler GCC version 4.9.2
# options -cpp -iprefix /lustre/shared/ucl/apps/gcc/4.9.2/bin/../lib/gcc/x86_64-unknown-linux-gnu/4.9.2/ -mtune=corei7 -march=x86-64 -g -Og
#
# seed  1303560672   802359748   890866894 -1926680819 -1070039992   421328622  -509651691  1478647242   -22190564  -767474785   284147316 -1406982170
#
#      Author: C. J. Pickard (cjp20@cam.ac.uk)
#                Space group: Cmc21
#

%BLOCK LATTICE_ABC
      4.13287      5.52723      7.52973
    111.53241     90.00000     90.00000
%ENDBLOCK LATTICE_ABC

%BLOCK POSITIONS_FRAC
  Li  -0.0196355  -0.0793922  -0.1587844 SPIN=   0.00000
  Li   0.4803645   0.0793922   0.1587844 SPIN=   0.00000
   O   0.4951365  -0.0932051   0.3671458 SPIN=   0.00000
   O   0.0692317  -0.1744145   0.0976150 SPIN=   0.00000
   O  -0.0048635   0.0932051  -0.3671458 SPIN=   0.00000
   O  -0.4307683   0.1744145  -0.0976150 SPIN=   0.00000
   O  -0.0048635  -0.4603509  -0.3671458 SPIN=   0.00000
   O  -0.4307683  -0.2720295  -0.0976150 SPIN=   0.00000
   O   0.4951365   0.4603509   0.3671458 SPIN=   0.00000
   O   0.0692317   0.2720295   0.0976150 SPIN=   0.00000
   P   0.4803645  -0.2019395  -0.4038789 SPIN=   0.00000
   P  -0.0196355   0.2019395   0.4038789 SPIN=   0.00000
  Fe  -0.0381211  -0.3532931   0.2934138 SPIN=   4.00000
  Fe   0.4618789   0.3532931  -0.2934138 SPIN=   4.00000
%ENDBLOCK POSITIONS_FRAC

# Note: total spin =   8.00

KPOINTS_MP_SPACING 0.07

%BLOCK SPECIES_POT
QC5
%ENDBLOCK SPECIES_POT

%BLOCK HUBBARD_U
Fe d:4.0
%ENDBLOCK HUBBARD_U

SNAP_TO_SYMMETRY
SYMMETRY_GENERATE

