#              Generated by Buildcell
#
# at 02:11:12 (GMT+0.0) 24th November 2020
# in /lustre/scratch/uccabz1/launch_tmp
# on node-c12d-032
# by uccabz1
#
# compiler GCC version 4.9.2
# options -cpp -iprefix /lustre/shared/ucl/apps/gcc/4.9.2/bin/../lib/gcc/x86_64-unknown-linux-gnu/4.9.2/ -mtune=corei7 -march=x86-64 -g -Og
#
# seed -1999359175  -675448019  -328349555  -149816876  -354614734  2022560160  1427956759   214138949 -2050808646  -783637421  1771423575   365982231
#
#      Author: C. J. Pickard (cjp20@cam.ac.uk)
#                Space group: Pc
#

%BLOCK LATTICE_ABC
      3.86301      5.88559      7.12389
     90.00000     98.94426     90.00000
%ENDBLOCK LATTICE_ABC

%BLOCK POSITIONS_FRAC
  Li   0.3260303  -0.3829400  -0.1496436 SPIN=   0.00000
  Li   0.3260303   0.3829400   0.3503564 SPIN=   0.00000
   O  -0.0388689   0.2207501  -0.5081754 SPIN=   0.00000
   O  -0.5023755   0.1233907  -0.2925192 SPIN=   0.00000
   O   0.0421180   0.3163325  -0.1479545 SPIN=   0.00000
   O  -0.4047740   0.5303039  -0.3727873 SPIN=   0.00000
   P  -0.2181227   0.2963424  -0.3403276 SPIN=   0.00000
   O  -0.0388689  -0.2207501  -0.0081754 SPIN=   0.00000
   O  -0.5023755  -0.1233907   0.2074808 SPIN=   0.00000
   O   0.0421180  -0.3163325   0.3520455 SPIN=   0.00000
   O  -0.4047740  -0.5303039   0.1272127 SPIN=   0.00000
   P  -0.2181227  -0.2963424   0.1596724 SPIN=   0.00000
  Fe  -0.2709829   0.1525602   0.0286726 SPIN=   4.00000
  Fe  -0.2709829  -0.1525602  -0.4713274 SPIN=   4.00000
%ENDBLOCK POSITIONS_FRAC

# Note: total spin =   8.00

KPOINTS_MP_SPACING 0.07

%BLOCK SPECIES_POT
QC5
%ENDBLOCK SPECIES_POT

%BLOCK HUBBARD_U
Fe d:4.0
%ENDBLOCK HUBBARD_U

SNAP_TO_SYMMETRY
SYMMETRY_GENERATE

