#              Generated by Buildcell
#
# at 23:10:04 (GMT+0.0) 23rd November 2020
# in /scratch/scratch/uccabz1/launch_tmp
# on node-k10h-026
# by uccabz1
#
# compiler GCC version 4.9.2
# options -cpp -iprefix /scratch/UCL/applications/gcc/4.9.2/bin/../lib/gcc/x86_64-unknown-linux-gnu/4.9.2/ -mtune=corei7 -march=x86-64 -g -O2
#
# seed  1044449924 -1096802031 -2082626185 -1946432315  -892174649   156632532 -2141162778   554837573   378867843   272632357  -221742725   907762585
#
#      Author: C. J. Pickard (cjp20@cam.ac.uk)
#                Space group: Cm
#

%BLOCK LATTICE_ABC
      5.42930      5.95938      5.95938
     91.24547    112.96017    112.96017
%ENDBLOCK LATTICE_ABC

%BLOCK POSITIONS_FRAC
  Li  -0.0303192  -0.0036623  -0.0036623 SPIN=   0.00000
  Li   0.0023259   0.3850083   0.3850083 SPIN=   0.00000
   O  -0.0204041   0.1811624  -0.2982449 SPIN=   0.00000
   O   0.2184527   0.4360938   0.1515973 SPIN=   0.00000
   O   0.4647440   0.5929661  -0.1215508 SPIN=   0.00000
   P   0.1494507   0.4418568  -0.1296966 SPIN=   0.00000
   O  -0.0204041  -0.2982449   0.1811624 SPIN=   0.00000
   O   0.2184527   0.1515973   0.4360938 SPIN=   0.00000
   O   0.4647440  -0.1215508   0.5929661 SPIN=   0.00000
   P   0.1494507  -0.1296966   0.4418568 SPIN=   0.00000
   O  -0.3033918   0.4660863   0.4660863 SPIN=   0.00000
   O   0.1326551  -0.1959844  -0.1959844 SPIN=   0.00000
  Fe  -0.4355997  -0.2010116   0.3072760 SPIN=   4.00000
  Fe  -0.4355997   0.3072760  -0.2010116 SPIN=   4.00000
%ENDBLOCK POSITIONS_FRAC

# Note: total spin =   8.00

KPOINTS_MP_SPACING 0.07

%BLOCK SPECIES_POT
QC5
%ENDBLOCK SPECIES_POT

%BLOCK HUBBARD_U
Fe d:4.0
%ENDBLOCK HUBBARD_U

SNAP_TO_SYMMETRY
SYMMETRY_GENERATE

