#              Generated by Buildcell
#
# at 05:16:16 (GMT+0.0) 24th November 2020
# in /lustre/scratch/uccabz1/launch_tmp
# on node-c12b-026
# by uccabz1
#
# compiler GCC version 4.9.2
# options -cpp -iprefix /lustre/shared/ucl/apps/gcc/4.9.2/bin/../lib/gcc/x86_64-unknown-linux-gnu/4.9.2/ -mtune=corei7 -march=x86-64 -g -Og
#
# seed   202949227  -328276525 -2123485081  -406736513 -1400218655  -765452302  -227301138 -1847752571  -558015220   655665439   243071325 -1750000952
#
#      Author: C. J. Pickard (cjp20@cam.ac.uk)
#                Space group: Imm2
#

%BLOCK LATTICE_ABC
      5.53973      5.63799      6.47008
    115.82964    115.34728     90.00000
%ENDBLOCK LATTICE_ABC

%BLOCK POSITIONS_FRAC
  Li   0.7001104   0.2001104   0.4002208 SPIN=   0.00000
  Li  -0.7694014  -0.2694014  -0.5388029 SPIN=   0.00000
   O  -0.6396264  -0.1535044   0.2385629 SPIN=   0.00000
   O  -0.8884225  -0.4138124  -0.2685145 SPIN=   0.00000
   O   0.8781893   0.3920673   0.2385629 SPIN=   0.00000
   O   0.6199080   0.1452978  -0.2685145 SPIN=   0.00000
   O  -0.1218107  -0.1535044   0.2385629 SPIN=   0.00000
   O  -0.3800920  -0.4138124  -0.2685145 SPIN=   0.00000
   O   0.3603736   0.3920673   0.2385629 SPIN=   0.00000
   O   0.1115775   0.1452978  -0.2685145 SPIN=   0.00000
   P   0.2086760   0.2086760   0.4173520 SPIN=   0.00000
   P   0.9639822   0.4639822   0.9279644 SPIN=   0.00000
  Fe  -0.0868910  -0.0868910  -0.1737819 SPIN=   8.00000
  Fe  -0.4689070  -0.4689070  -0.9378141 SPIN=  -0.00000
%ENDBLOCK POSITIONS_FRAC

# Note: total spin =   8.00

KPOINTS_MP_SPACING 0.07

%BLOCK SPECIES_POT
QC5
%ENDBLOCK SPECIES_POT

%BLOCK HUBBARD_U
Fe d:4.0
%ENDBLOCK HUBBARD_U

SNAP_TO_SYMMETRY
SYMMETRY_GENERATE

