#              Generated by Buildcell
#
# at 00:49:13 (GMT+0.0) 24th November 2020
# in /lustre/scratch/uccabz1/launch_tmp
# on node-c12j-029
# by uccabz1
#
# compiler GCC version 4.9.2
# options -cpp -iprefix /lustre/shared/ucl/apps/gcc/4.9.2/bin/../lib/gcc/x86_64-unknown-linux-gnu/4.9.2/ -mtune=corei7 -march=x86-64 -g -Og
#
# seed  1857174950 -1585762272  1507515313   643245278   605612794  -754354285  2060379928   372694127  1050054621  1803828104   730838459   137310551
#
#      Author: C. J. Pickard (cjp20@cam.ac.uk)
#                Space group: Ama2
#

%BLOCK LATTICE_ABC
      5.52891      5.73946      5.75344
     90.00000     90.00000    118.79370
%ENDBLOCK LATTICE_ABC

%BLOCK POSITIONS_FRAC
  Li  -0.2162545   0.0856119  -0.2500000 SPIN=   0.00000
  Li  -0.3018663  -0.0856119   0.2500000 SPIN=   0.00000
   O   0.3465248  -0.2587366   0.0355225 SPIN=   0.00000
   O  -0.1233813  -0.2587358   0.0355227 SPIN=   0.00000
   O   0.6052614   0.2587366  -0.0355225 SPIN=   0.00000
   O   0.1353546   0.2587358  -0.0355227 SPIN=   0.00000
   O   0.6052614   0.2587366  -0.4644775 SPIN=   0.00000
   O   0.1353546   0.2587358  -0.4644773 SPIN=   0.00000
   O   0.3465248  -0.2587366   0.4644775 SPIN=   0.00000
   O  -0.1233813  -0.2587358   0.4644773 SPIN=   0.00000
   P   0.4544611   0.4901020  -0.2500000 SPIN=   0.00000
   P  -0.0356409  -0.4901020   0.2500000 SPIN=   0.00000
  Fe   0.1088729  -0.2641332  -0.2500000 SPIN=   4.00000
  Fe   0.3730060   0.2641332   0.2500000 SPIN=   4.00000
%ENDBLOCK POSITIONS_FRAC

# Note: total spin =   8.00

KPOINTS_MP_SPACING 0.07

%BLOCK SPECIES_POT
QC5
%ENDBLOCK SPECIES_POT

%BLOCK HUBBARD_U
Fe d:4.0
%ENDBLOCK HUBBARD_U

SNAP_TO_SYMMETRY
SYMMETRY_GENERATE

