#              Generated by Buildcell
#
# at 02:48:28 (GMT+0.0) 24th November 2020
# in /lustre/scratch/uccabz1/launch_tmp
# on node-c12e-034
# by uccabz1
#
# compiler GCC version 4.9.2
# options -cpp -iprefix /lustre/shared/ucl/apps/gcc/4.9.2/bin/../lib/gcc/x86_64-unknown-linux-gnu/4.9.2/ -mtune=corei7 -march=x86-64 -g -Og
#
# seed  1549229538   724965557  -116926136  -867812527 -1922553409  -356913146 -1887977691 -1099609810   757794653   664127987    56025700  1810935911
#
#      Author: C. J. Pickard (cjp20@cam.ac.uk)
#                Space group: P-1
#

%BLOCK LATTICE_ABC
      4.22166      4.76494      8.22991
    101.06476     97.51891     95.00669
%ENDBLOCK LATTICE_ABC

%BLOCK POSITIONS_FRAC
  Li  -0.0000000  -0.0000000  -0.0000000 SPIN=   0.00000
  Li   0.5000000   0.5000000   0.0000000 SPIN=   0.00000
   O  -0.3487912  -0.2837313   0.3045763 SPIN=   0.00000
   O   0.1206729  -0.3266000   0.1295327 SPIN=   0.00000
   O   0.2125101   0.0136895   0.4028366 SPIN=   0.00000
   P   0.0166191  -0.2814751   0.3085560 SPIN=   0.00000
   O   0.3487912   0.2837313  -0.3045763 SPIN=   0.00000
   O  -0.1206729   0.3266000  -0.1295327 SPIN=   0.00000
   O  -0.2125101  -0.0136895  -0.4028366 SPIN=   0.00000
   P  -0.0166191   0.2814751  -0.3085560 SPIN=   0.00000
   O  -0.5000000  -0.0000000   0.0000000 SPIN=   0.00000
   O  -0.0000000  -0.5000000   0.5000000 SPIN=   0.00000
  Fe   0.3730901  -0.1926448  -0.3258187 SPIN=   4.00000
  Fe  -0.3730901   0.1926448   0.3258187 SPIN=   4.00000
%ENDBLOCK POSITIONS_FRAC

# Note: total spin =   8.00

KPOINTS_MP_SPACING 0.07

%BLOCK SPECIES_POT
QC5
%ENDBLOCK SPECIES_POT

%BLOCK HUBBARD_U
Fe d:4.0
%ENDBLOCK HUBBARD_U

SNAP_TO_SYMMETRY
SYMMETRY_GENERATE

