#              Generated by Buildcell
#
# at 04:50:47 (GMT+0.0) 24th November 2020
# in /lustre/scratch/uccabz1/launch_tmp
# on node-c12f-022
# by uccabz1
#
# compiler GCC version 4.9.2
# options -cpp -iprefix /lustre/shared/ucl/apps/gcc/4.9.2/bin/../lib/gcc/x86_64-unknown-linux-gnu/4.9.2/ -mtune=corei7 -march=x86-64 -g -Og
#
# seed -1741848431  -115643650   567081529  2104112408   632237544  -808328283 -1220971682   168460484 -1683316586 -1845702698   178432731 -1720891910
#
#      Author: C. J. Pickard (cjp20@cam.ac.uk)
#                Space group: Cmc21
#

%BLOCK LATTICE_ABC
      4.30432      4.30432      9.18859
     90.00000     90.00000    109.97212
%ENDBLOCK LATTICE_ABC

%BLOCK POSITIONS_FRAC
  Li  -0.6654202  -0.3345798   0.0457288 SPIN=   0.00000
  Li   0.6654202   0.3345798  -0.4542712 SPIN=   0.00000
   O   0.0478859   0.4521690   0.3486287 SPIN=   0.00000
   O   0.2963807   0.2035644   0.1398841 SPIN=   0.00000
   O  -0.0478859  -0.4521690  -0.1513713 SPIN=   0.00000
   O  -0.2963807  -0.2035644  -0.3601159 SPIN=   0.00000
   O   0.4521690   0.0478859  -0.1513713 SPIN=   0.00000
   O   0.2035644   0.2963807  -0.3601159 SPIN=   0.00000
   O  -0.4521690  -0.0478859   0.3486287 SPIN=   0.00000
   O  -0.2035644  -0.2963807   0.1398841 SPIN=   0.00000
   P  -0.7161422  -0.2838578  -0.3672175 SPIN=   0.00000
   P   0.7161422   0.2838578   0.1327825 SPIN=   0.00000
  Fe  -0.0378098   0.0378098  -0.1747181 SPIN=   4.00000
  Fe   0.0378098  -0.0378098   0.3252819 SPIN=   4.00000
%ENDBLOCK POSITIONS_FRAC

# Note: total spin =   8.00

KPOINTS_MP_SPACING 0.07

%BLOCK SPECIES_POT
QC5
%ENDBLOCK SPECIES_POT

%BLOCK HUBBARD_U
Fe d:4.0
%ENDBLOCK HUBBARD_U

SNAP_TO_SYMMETRY
SYMMETRY_GENERATE

