#              Generated by Buildcell
#
# at 02:09:36 (GMT+0.0) 24th November 2020
# in /scratch/scratch/uccabz1/launch_tmp
# on node-a14e-014
# by uccabz1
#
# compiler GCC version 4.9.2
# options -cpp -iprefix /scratch/UCL/applications/gcc/4.9.2/bin/../lib/gcc/x86_64-unknown-linux-gnu/4.9.2/ -mtune=corei7 -march=x86-64 -g -O2
#
# seed  1726842755 -2087496951  -475628785 -1369571307 -2071923023  1199558746   521129866  -900115032   594025864 -2094465844  2020625292  1116999475
#
#      Author: C. J. Pickard (cjp20@cam.ac.uk)
#                Space group: C2
#

%BLOCK LATTICE_ABC
      4.57464      6.06826      6.88037
    116.16663    108.79455     90.00000
%ENDBLOCK LATTICE_ABC

%BLOCK POSITIONS_FRAC
  Li   0.0000000  -0.4777007  -0.0000000 SPIN=   0.00000
  Li   0.0000000   0.0223020   0.0000000 SPIN=   0.00000
   O   0.7594223   0.4951514   0.5940046 SPIN=   0.00000
   O   0.4967627   0.0983631   0.1991145 SPIN=   0.00000
   O   0.4439099   0.5092454   0.2120858 SPIN=   0.00000
   O   0.9644435   0.3670167   0.2570123 SPIN=   0.00000
   P   0.6746221   0.3742388   0.3296896 SPIN=   0.00000
   O  -0.7594223  -0.0988533  -0.5940046 SPIN=   0.00000
   O  -0.4967627  -0.1007514  -0.1991145 SPIN=   0.00000
   O  -0.4439099   0.2971595  -0.2120858 SPIN=   0.00000
   O  -0.9644435   0.1100045  -0.2570123 SPIN=   0.00000
   P  -0.6746221   0.0445493  -0.3296896 SPIN=   0.00000
  Fe  -0.6796906  -0.4823400  -0.3696579 SPIN=   4.00000
  Fe   0.6796906  -0.1126821   0.3696579 SPIN=   4.00000
%ENDBLOCK POSITIONS_FRAC

# Note: total spin =   8.00

KPOINTS_MP_SPACING 0.07

%BLOCK SPECIES_POT
QC5
%ENDBLOCK SPECIES_POT

%BLOCK HUBBARD_U
Fe d:4.0
%ENDBLOCK HUBBARD_U

SNAP_TO_SYMMETRY
SYMMETRY_GENERATE

