#              Generated by Buildcell
#
# at 23:51:48 (GMT+0.0) 23rd November 2020
# in /lustre/scratch/uccabz1/launch_tmp
# on node-c12l-026
# by uccabz1
#
# compiler GCC version 4.9.2
# options -cpp -iprefix /lustre/shared/ucl/apps/gcc/4.9.2/bin/../lib/gcc/x86_64-unknown-linux-gnu/4.9.2/ -mtune=corei7 -march=x86-64 -g -Og
#
# seed -1245123666  1870753340  1415052418  2129236125 -1330945363  -882165311 -1127991924 -1702877229  1864658272 -1968691920  -901931804 -1384664736
#
#      Author: C. J. Pickard (cjp20@cam.ac.uk)
#                Space group: P21
#

%BLOCK LATTICE_ABC
      4.91485      5.31676      6.25289
     90.00000     90.00000    101.69965
%ENDBLOCK LATTICE_ABC

%BLOCK POSITIONS_FRAC
  Li   0.2154180   0.1850873   0.1600398 SPIN=   0.00000
  Li  -0.2154180  -0.1850873  -0.3399602 SPIN=   0.00000
   O   0.4690251   0.1841694  -0.4780139 SPIN=   0.00000
   O   0.1966813  -0.2132072  -0.2731154 SPIN=   0.00000
   O   0.0339906  -0.1219190  -0.6331613 SPIN=   0.00000
   O   0.4778823  -0.2802400  -0.5943622 SPIN=   0.00000
   P   0.3058584  -0.0942883  -0.4949532 SPIN=   0.00000
   O  -0.4690251  -0.1841694   0.0219861 SPIN=   0.00000
   O  -0.1966813   0.2132072   0.2268846 SPIN=   0.00000
   O  -0.0339906   0.1219190  -0.1331613 SPIN=   0.00000
   O  -0.4778823   0.2802400  -0.0943622 SPIN=   0.00000
   P  -0.3058584   0.0942883   0.0050468 SPIN=   0.00000
  Fe  -0.1922406  -0.3908269   0.1573511 SPIN=   4.00000
  Fe   0.1922406   0.3908269  -0.3426489 SPIN=   4.00000
%ENDBLOCK POSITIONS_FRAC

# Note: total spin =   8.00

KPOINTS_MP_SPACING 0.07

%BLOCK SPECIES_POT
QC5
%ENDBLOCK SPECIES_POT

%BLOCK HUBBARD_U
Fe d:4.0
%ENDBLOCK HUBBARD_U

SNAP_TO_SYMMETRY
SYMMETRY_GENERATE

