#              Generated by Buildcell
#
# at 01:43:25 (GMT+0.0) 24th November 2020
# in /lustre/scratch/uccabz1/launch_tmp
# on node-c12d-024
# by uccabz1
#
# compiler GCC version 4.9.2
# options -cpp -iprefix /lustre/shared/ucl/apps/gcc/4.9.2/bin/../lib/gcc/x86_64-unknown-linux-gnu/4.9.2/ -mtune=corei7 -march=x86-64 -g -Og
#
# seed   991891497  1512760296  -103343742 -1511724047   882165783  -126954073  1496568463 -1724824929   419943551  2109162784 -1828962158  -538680922
#
#      Author: C. J. Pickard (cjp20@cam.ac.uk)
#                Space group: C2
#

%BLOCK LATTICE_ABC
      5.12906      5.12906      6.64774
    102.38554    102.38554    102.96315
%ENDBLOCK LATTICE_ABC

%BLOCK POSITIONS_FRAC
  Li  -0.1562774   0.1562774  -0.0000000 SPIN=   0.00000
  Li   0.3951734  -0.3951734  -0.5000000 SPIN=   0.00000
   O   0.3286146   0.2522090   0.1539710 SPIN=   0.00000
   O  -0.0915769  -0.0395495   0.2449237 SPIN=   0.00000
   O   0.3177734  -0.2174645   0.2448527 SPIN=   0.00000
   O   0.3527474   0.2012926   0.5352402 SPIN=   0.00000
   P   0.2337912   0.0617311   0.2900894 SPIN=   0.00000
   O  -0.2522090  -0.3286146  -0.1539710 SPIN=   0.00000
   O   0.0395495   0.0915769  -0.2449237 SPIN=   0.00000
   O   0.2174645  -0.3177734  -0.2448527 SPIN=   0.00000
   O  -0.2012926  -0.3527474  -0.5352402 SPIN=   0.00000
   P  -0.0617311  -0.2337912  -0.2900894 SPIN=   0.00000
  Fe  -0.1926919   0.1926919   0.5000000 SPIN=   5.99134
  Fe   0.4408231  -0.4408231   0.0000000 SPIN=   2.00866
%ENDBLOCK POSITIONS_FRAC

# Note: total spin =   8.00

KPOINTS_MP_SPACING 0.07

%BLOCK SPECIES_POT
QC5
%ENDBLOCK SPECIES_POT

%BLOCK HUBBARD_U
Fe d:4.0
%ENDBLOCK HUBBARD_U

SNAP_TO_SYMMETRY
SYMMETRY_GENERATE

