#              Generated by Buildcell
#
# at 04:32:10 (GMT+0.0) 24th November 2020
# in /scratch/scratch/uccabz1/launch_tmp
# on node-a14a-010
# by uccabz1
#
# compiler GCC version 4.9.2
# options -cpp -iprefix /scratch/UCL/applications/gcc/4.9.2/bin/../lib/gcc/x86_64-unknown-linux-gnu/4.9.2/ -mtune=corei7 -march=x86-64 -g -O2
#
# seed -2065631413 -1472895264  -880309056 -1081450268  -219223456   305828110  -335115707  1218101435  -716038360  2126921541 -1122462270 -1710854475
#
#      Author: C. J. Pickard (cjp20@cam.ac.uk)
#                Space group: Cm
#

%BLOCK LATTICE_ABC
      4.39595      6.12360      6.12360
     99.15443     96.80696     96.80696
%ENDBLOCK LATTICE_ABC

%BLOCK POSITIONS_FRAC
  Li   0.2251559  -0.0565163  -0.0565163 SPIN=   0.00000
  Li   0.0987951  -0.4469314  -0.4469314 SPIN=   0.00000
   O  -0.1713424   0.5507926  -0.1844042 SPIN=   0.00000
   O  -0.1856223   0.1388509  -0.1260088 SPIN=   0.00000
   O   0.3145607   0.3470468  -0.1680946 SPIN=   0.00000
   O   0.0792654   0.4462895   0.1811144 SPIN=   0.00000
   O  -0.1713424  -0.1844042   0.5507926 SPIN=   0.00000
   O  -0.1856223  -0.1260088   0.1388509 SPIN=   0.00000
   O   0.3145607  -0.1680946   0.3470468 SPIN=   0.00000
   O   0.0792654   0.1811144   0.4462895 SPIN=   0.00000
   P  -0.3385673  -0.2535498  -0.2535498 SPIN=   0.00000
   P  -0.0594541   0.2124265   0.2124265 SPIN=   0.00000
  Fe  -0.4412324   0.1265861  -0.4561398 SPIN=   4.00000
  Fe  -0.4412324  -0.4561398   0.1265861 SPIN=   4.00000
%ENDBLOCK POSITIONS_FRAC

# Note: total spin =   8.00

KPOINTS_MP_SPACING 0.07

%BLOCK SPECIES_POT
QC5
%ENDBLOCK SPECIES_POT

%BLOCK HUBBARD_U
Fe d:4.0
%ENDBLOCK HUBBARD_U

SNAP_TO_SYMMETRY
SYMMETRY_GENERATE

