#              Generated by Buildcell
#
# at 04:48:52 (GMT+0.0) 24th November 2020
# in /scratch/scratch/uccabz1/launch_tmp
# on node-a14c-007
# by uccabz1
#
# compiler GCC version 4.9.2
# options -cpp -iprefix /scratch/UCL/applications/gcc/4.9.2/bin/../lib/gcc/x86_64-unknown-linux-gnu/4.9.2/ -mtune=corei7 -march=x86-64 -g -O2
#
# seed -1578119593  1481285146   806431082   -74159118   853705527  1265361343 -1917107352 -1033150184  1851927756  1935117904  -715805444  1205767538
#
#      Author: C. J. Pickard (cjp20@cam.ac.uk)
#                Space group: C2
#

%BLOCK LATTICE_ABC
      5.50541      6.03388      6.06224
    113.62707     90.00000    117.14269
%ENDBLOCK LATTICE_ABC

%BLOCK POSITIONS_FRAC
  Li  -0.0124039  -0.0080813   0.2470257 SPIN=   0.00000
  Li  -0.0043226   0.0080813  -0.2470257 SPIN=   0.00000
   O   0.5157851  -0.2440459  -0.1614746 SPIN=   0.00000
   O   0.0436068  -0.5887245  -0.1112785 SPIN=   0.00000
   O   0.0314492  -0.4114899  -0.4120422 SPIN=   0.00000
   P   0.2160423  -0.4878606  -0.2916922 SPIN=   0.00000
   O  -0.2401690   0.2440459   0.1614746 SPIN=   0.00000
   O  -0.3676687   0.5887245   0.1112785 SPIN=   0.00000
   O  -0.5570610   0.4114899   0.4120422 SPIN=   0.00000
   P  -0.2960970   0.4878606   0.2916922 SPIN=   0.00000
   O   0.2699950  -0.0000000   0.5000000 SPIN=   0.00000
   O  -0.2813240   0.0000000  -0.5000000 SPIN=   0.00000
  Fe  -0.3451577   0.3896074  -0.2558811 SPIN=   4.00000
  Fe   0.2652349  -0.3896074   0.2558811 SPIN=   4.00000
%ENDBLOCK POSITIONS_FRAC

# Note: total spin =   8.00

KPOINTS_MP_SPACING 0.07

%BLOCK SPECIES_POT
QC5
%ENDBLOCK SPECIES_POT

%BLOCK HUBBARD_U
Fe d:4.0
%ENDBLOCK HUBBARD_U

SNAP_TO_SYMMETRY
SYMMETRY_GENERATE

