#              Generated by Buildcell
#
# at 03:34:11 (GMT+0.0) 24th November 2020
# in /lustre/scratch/uccabz1/launch_tmp
# on node-c12n-026
# by uccabz1
#
# compiler GCC version 4.9.2
# options -cpp -iprefix /lustre/shared/ucl/apps/gcc/4.9.2/bin/../lib/gcc/x86_64-unknown-linux-gnu/4.9.2/ -mtune=corei7 -march=x86-64 -g -Og
#
# seed  2078559066  -992998971   967251781  1881597116   723426362   554019835  1311687519  1710364644 -1387182000  2011969441   643082512 -2118839090
#
#      Author: C. J. Pickard (cjp20@cam.ac.uk)
#                Space group: C2
#

%BLOCK LATTICE_ABC
      5.06352      5.06352      6.58552
    101.16248    101.16248     97.54791
%ENDBLOCK LATTICE_ABC

%BLOCK POSITIONS_FRAC
  Li  -0.2183909   0.2183909  -0.0000000 SPIN=   0.00000
  Li  -0.7874120  -0.2125880  -0.5000000 SPIN=   0.00000
   O  -0.1311877  -0.4569022  -0.1981230 SPIN=   0.00000
   O  -0.4874576  -0.1320391  -0.1867851 SPIN=   0.00000
   O  -0.0446188   0.0334865  -0.2639298 SPIN=   0.00000
   P  -0.2565701  -0.2353474  -0.2938153 SPIN=   0.00000
   O   0.4569022   0.1311877   0.1981230 SPIN=   0.00000
   O   0.1320391   0.4874576   0.1867851 SPIN=   0.00000
   O  -0.0334865   0.0446188   0.2639298 SPIN=   0.00000
   P   0.2353474   0.2565701   0.2938153 SPIN=   0.00000
   O  -0.5098356  -0.4901644  -0.5000000 SPIN=   0.00000
   O  -0.4920327   0.4920327  -0.0000000 SPIN=   0.00000
  Fe   0.2355333  -0.2355333   0.0000000 SPIN=   2.33043
  Fe  -0.2219637  -0.7780363  -0.5000000 SPIN=   5.66957
%ENDBLOCK POSITIONS_FRAC

# Note: total spin =   8.00

KPOINTS_MP_SPACING 0.07

%BLOCK SPECIES_POT
QC5
%ENDBLOCK SPECIES_POT

%BLOCK HUBBARD_U
Fe d:4.0
%ENDBLOCK HUBBARD_U

SNAP_TO_SYMMETRY
SYMMETRY_GENERATE

