#              Generated by Buildcell
#
# at 03:07:13 (GMT+0.0) 24th November 2020
# in /scratch/scratch/uccabz1/launch_tmp
# on node-a14e-019
# by uccabz1
#
# compiler GCC version 4.9.2
# options -cpp -iprefix /scratch/UCL/applications/gcc/4.9.2/bin/../lib/gcc/x86_64-unknown-linux-gnu/4.9.2/ -mtune=corei7 -march=x86-64 -g -O2
#
# seed   725931198  -443253594  1207507998   877351486   908412954  1493970077   290413044   515683070   236748114  -716930172  1907788251   982548500
#
#      Author: C. J. Pickard (cjp20@cam.ac.uk)
#                Space group: P21
#

%BLOCK LATTICE_ABC
      4.78819      5.16198      6.53081
     90.00000     90.00000     97.60262
%ENDBLOCK LATTICE_ABC

%BLOCK POSITIONS_FRAC
  Li  -0.1621917  -0.2742093  -0.1581211 SPIN=   0.00000
  Li   0.1621917   0.2742093   0.3418789 SPIN=   0.00000
   O  -0.3038817   0.3338548   0.2365010 SPIN=   0.00000
   O  -0.2049589   0.2914401  -0.1523833 SPIN=   0.00000
   O   0.0380323   0.0293736   0.0897510 SPIN=   0.00000
   O  -0.4807939  -0.0839974   0.0319279 SPIN=   0.00000
   P  -0.2442801   0.1501727   0.0610719 SPIN=   0.00000
   O   0.3038817  -0.3338548  -0.2634990 SPIN=   0.00000
   O   0.2049589  -0.2914401  -0.6523833 SPIN=   0.00000
   O  -0.0380323  -0.0293736  -0.4102490 SPIN=   0.00000
   O   0.4807939   0.0839974  -0.4680721 SPIN=   0.00000
   P   0.2442801  -0.1501727  -0.4389281 SPIN=   0.00000
  Fe   0.2741975   0.2794505  -0.1581270 SPIN=   4.00000
  Fe  -0.2741975  -0.2794505   0.3418730 SPIN=   4.00000
%ENDBLOCK POSITIONS_FRAC

# Note: total spin =   8.00

KPOINTS_MP_SPACING 0.07

%BLOCK SPECIES_POT
QC5
%ENDBLOCK SPECIES_POT

%BLOCK HUBBARD_U
Fe d:4.0
%ENDBLOCK HUBBARD_U

SNAP_TO_SYMMETRY
SYMMETRY_GENERATE

