#              Generated by Buildcell
#
# at 23:17:57 (GMT+0.0) 23rd November 2020
# in /scratch/scratch/uccabz1/launch_tmp
# on node-a14b-028
# by uccabz1
#
# compiler GCC version 4.9.2
# options -cpp -iprefix /scratch/UCL/applications/gcc/4.9.2/bin/../lib/gcc/x86_64-unknown-linux-gnu/4.9.2/ -mtune=corei7 -march=x86-64 -g -O2
#
# seed -1675453110  -778991499   598973505   752114983  1552335093 -1095911446  1179343600   987408230  -596192895 -1383623920   718212989 -1083609309
#
#      Author: C. J. Pickard (cjp20@cam.ac.uk)
#                Space group: Cm
#

%BLOCK LATTICE_ABC
      4.16109      6.32028      6.32028
    105.38683     91.97995     91.97995
%ENDBLOCK LATTICE_ABC

%BLOCK POSITIONS_FRAC
  Li  -0.0081447  -0.4035478  -0.4035478 SPIN=   0.00000
  Li   0.3377448  -0.0438565  -0.0438565 SPIN=   0.00000
   O   0.2122225  -0.1738511   0.2174502 SPIN=   0.00000
   O  -0.3218145  -0.2761741  -0.0191262 SPIN=   0.00000
   O  -0.3077578  -0.3196483   0.3580512 SPIN=   0.00000
   O  -0.2900679   0.0579243   0.3013697 SPIN=   0.00000
   P  -0.1574741  -0.1749363   0.2156226 SPIN=   0.00000
   O   0.2122225   0.2174502  -0.1738511 SPIN=   0.00000
   O  -0.3218145  -0.0191262  -0.2761741 SPIN=   0.00000
   O  -0.3077578   0.3580512  -0.3196483 SPIN=   0.00000
   O  -0.2900679   0.3013697   0.0579243 SPIN=   0.00000
   P  -0.1574741   0.2156226  -0.1749363 SPIN=   0.00000
  Fe   0.3135253   0.4968805   0.1103916 SPIN=   4.00000
  Fe   0.3135253   0.1103916   0.4968805 SPIN=   4.00000
%ENDBLOCK POSITIONS_FRAC

# Note: total spin =   8.00

KPOINTS_MP_SPACING 0.07

%BLOCK SPECIES_POT
QC5
%ENDBLOCK SPECIES_POT

%BLOCK HUBBARD_U
Fe d:4.0
%ENDBLOCK HUBBARD_U

SNAP_TO_SYMMETRY
SYMMETRY_GENERATE

