#              Generated by Buildcell
#
# at 21:55:29 (GMT+0.0) 23rd November 2020
# in /lustre/scratch/uccabz1/launch_tmp
# on node-c12i-025
# by uccabz1
#
# compiler GCC version 4.9.2
# options -cpp -iprefix /lustre/shared/ucl/apps/gcc/4.9.2/bin/../lib/gcc/x86_64-unknown-linux-gnu/4.9.2/ -mtune=corei7 -march=x86-64 -g -Og
#
# seed -2136779310   849324029   608682094 -1784823903  1700196424  1598264299   110363941  1202498816   732141250   826229516 -1906327601  1512511494
#
#      Author: C. J. Pickard (cjp20@cam.ac.uk)
#                Space group: P-1
#

%BLOCK LATTICE_ABC
      4.42251      4.95626      7.42436
    100.47711     90.32946     90.82131
%ENDBLOCK LATTICE_ABC

%BLOCK POSITIONS_FRAC
  Li   0.2488674  -0.2532532   0.0302641 SPIN=   0.00000
  Li  -0.2488674   0.2532532  -0.0302641 SPIN=   0.00000
   O  -0.6372590   0.0294269  -0.1401876 SPIN=   0.00000
   O  -0.4113147  -0.4593942  -0.2040310 SPIN=   0.00000
   O  -0.6153834  -0.2713708  -0.4651027 SPIN=   0.00000
   O  -0.1343331  -0.0751906  -0.3121851 SPIN=   0.00000
   P  -0.4558457  -0.1808251  -0.2732876 SPIN=   0.00000
   O   0.6372590  -0.0294269   0.1401876 SPIN=   0.00000
   O   0.4113147   0.4593942   0.2040310 SPIN=   0.00000
   O   0.6153834   0.2713708   0.4651027 SPIN=   0.00000
   O   0.1343331   0.0751906   0.3121851 SPIN=   0.00000
   P   0.4558457   0.1808251   0.2732876 SPIN=   0.00000
  Fe  -0.2476589  -0.2925818   0.3556559 SPIN=   4.00000
  Fe   0.2476589   0.2925818  -0.3556559 SPIN=   4.00000
%ENDBLOCK POSITIONS_FRAC

# Note: total spin =   8.00

KPOINTS_MP_SPACING 0.07

%BLOCK SPECIES_POT
QC5
%ENDBLOCK SPECIES_POT

%BLOCK HUBBARD_U
Fe d:4.0
%ENDBLOCK HUBBARD_U

SNAP_TO_SYMMETRY
SYMMETRY_GENERATE

