#              Generated by Buildcell
#
# at 23:38:51 (GMT+0.0) 23rd November 2020
# in /lustre/scratch/uccabz1/launch_tmp
# on node-c12i-035
# by uccabz1
#
# compiler GCC version 4.9.2
# options -cpp -iprefix /lustre/shared/ucl/apps/gcc/4.9.2/bin/../lib/gcc/x86_64-unknown-linux-gnu/4.9.2/ -mtune=corei7 -march=x86-64 -g -Og
#
# seed  1111248538  1481537008  1311681225  -278882720 -1507856329  -464635698  1082522860 -1802828326  1139725514   -63599593   966589209  -639396597
#
#      Author: C. J. Pickard (cjp20@cam.ac.uk)
#                Space group: Cm
#

%BLOCK LATTICE_ABC
      4.12157      6.57010      6.57010
     89.89167     71.97072     71.97072
%ENDBLOCK LATTICE_ABC

%BLOCK POSITIONS_FRAC
  Li   0.0665452   0.1394429   0.4618577 SPIN=   0.00000
  Li   0.0665452   0.4618577   0.1394429 SPIN=   0.00000
   O  -0.3859819   0.1021669   0.3649383 SPIN=   0.00000
   O   0.2577736  -0.1747494   0.2767463 SPIN=   0.00000
   O  -0.2650296  -0.2988222   0.4379844 SPIN=   0.00000
   O  -0.1280936  -0.2063093   0.0574508 SPIN=   0.00000
   P  -0.1439184  -0.1320288   0.2858978 SPIN=   0.00000
   O  -0.3859819   0.3649383   0.1021669 SPIN=   0.00000
   O   0.2577736   0.2767463  -0.1747494 SPIN=   0.00000
   O  -0.2650296   0.4379844  -0.2988222 SPIN=   0.00000
   O  -0.1280936   0.0574508  -0.2063093 SPIN=   0.00000
   P  -0.1439184   0.2858978  -0.1320288 SPIN=   0.00000
  Fe   0.4280460  -0.0510585  -0.0510585 SPIN=   3.25230
  Fe   0.3186450  -0.4478215  -0.4478215 SPIN=   4.74770
%ENDBLOCK POSITIONS_FRAC

# Note: total spin =   8.00

KPOINTS_MP_SPACING 0.07

%BLOCK SPECIES_POT
QC5
%ENDBLOCK SPECIES_POT

%BLOCK HUBBARD_U
Fe d:4.0
%ENDBLOCK HUBBARD_U

SNAP_TO_SYMMETRY
SYMMETRY_GENERATE

