#              Generated by Buildcell
#
# at 02:20:46 (GMT+0.0) 24th November 2020
# in /lustre/scratch/uccabz1/launch_tmp
# on node-c12d-022
# by uccabz1
#
# compiler GCC version 4.9.2
# options -cpp -iprefix /lustre/shared/ucl/apps/gcc/4.9.2/bin/../lib/gcc/x86_64-unknown-linux-gnu/4.9.2/ -mtune=corei7 -march=x86-64 -g -Og
#
# seed   566278394  1983858216 -1412091025  2103021710 -1299296080  -383187550 -1429928585  -305965305  1874969305  -656290941 -2143617395   165679991
#
#      Author: C. J. Pickard (cjp20@cam.ac.uk)
#                Space group: I222
#

%BLOCK LATTICE_ABC
      4.88235      5.99958      6.69284
    116.62879    111.39181     90.00000
%ENDBLOCK LATTICE_ABC

%BLOCK POSITIONS_FRAC
  Li  -0.0000000  -0.5000000   0.0000000 SPIN=   0.00000
  Li   0.0000000  -0.0000000   0.0000000 SPIN=   0.00000
   O   0.6446699  -0.3051933   0.8716311 SPIN=   0.00000
   O   0.3010297  -0.4866683   0.4099727 SPIN=   0.00000
   O  -0.2269612   0.3051933  -0.8716311 SPIN=   0.00000
   O  -0.1089431   0.4866683  -0.4099727 SPIN=   0.00000
   O   0.2269612   0.1768244   0.8716311 SPIN=   0.00000
   O   0.1089431  -0.1033589   0.4099727 SPIN=   0.00000
   O  -0.6446699  -0.1768244  -0.8716311 SPIN=   0.00000
   O  -0.3010297   0.1033589  -0.4099727 SPIN=   0.00000
   P  -0.3322820   0.1677180  -0.6645639 SPIN=   0.00000
   P   0.3322820  -0.1677180   0.6645639 SPIN=   0.00000
  Fe  -0.3010876  -0.3010876  -0.6021753 SPIN=   4.00000
  Fe   0.3010876   0.3010876   0.6021753 SPIN=   4.00000
%ENDBLOCK POSITIONS_FRAC

# Note: total spin =   8.00

KPOINTS_MP_SPACING 0.07

%BLOCK SPECIES_POT
QC5
%ENDBLOCK SPECIES_POT

%BLOCK HUBBARD_U
Fe d:4.0
%ENDBLOCK HUBBARD_U

SNAP_TO_SYMMETRY
SYMMETRY_GENERATE

