#              Generated by Buildcell
#
# at 04:04:12 (GMT+0.0) 24th November 2020
# in /lustre/scratch/uccabz1/launch_tmp
# on node-c12j-029
# by uccabz1
#
# compiler GCC version 4.9.2
# options -cpp -iprefix /lustre/shared/ucl/apps/gcc/4.9.2/bin/../lib/gcc/x86_64-unknown-linux-gnu/4.9.2/ -mtune=corei7 -march=x86-64 -g -Og
#
# seed   928695546  -787070468 -1945625158   476660155 -1783690072  -709543772   353321636   599837182 -1689660789 -1610070223  2063993644  1597513611
#
#      Author: C. J. Pickard (cjp20@cam.ac.uk)
#                Space group: P21
#

%BLOCK LATTICE_ABC
      4.62526      4.98900      7.01097
     90.00000     90.00000     98.50952
%ENDBLOCK LATTICE_ABC

%BLOCK POSITIONS_FRAC
  Li  -0.0157374   0.3021429  -0.4774521 SPIN=   0.00000
  Li   0.0157374  -0.3021429   0.0225479 SPIN=   0.00000
   O  -0.1563171  -0.1470600  -0.2260469 SPIN=   0.00000
   O   0.2917901  -0.3964000  -0.2801329 SPIN=   0.00000
   O   0.0076511  -0.2889392  -0.5610051 SPIN=   0.00000
   O   0.3181717   0.0860177  -0.3860349 SPIN=   0.00000
   P   0.1032543  -0.1812732  -0.3562649 SPIN=   0.00000
   O   0.1563171   0.1470600   0.2739531 SPIN=   0.00000
   O  -0.2917901   0.3964000   0.2198671 SPIN=   0.00000
   O  -0.0076511   0.2889392  -0.0610051 SPIN=   0.00000
   O  -0.3181717  -0.0860177   0.1139651 SPIN=   0.00000
   P  -0.1032543   0.1812732   0.1437351 SPIN=   0.00000
  Fe  -0.4392054  -0.2560293   0.3814338 SPIN=   4.00000
  Fe   0.4392054   0.2560293  -0.1185662 SPIN=   4.00000
%ENDBLOCK POSITIONS_FRAC

# Note: total spin =   8.00

KPOINTS_MP_SPACING 0.07

%BLOCK SPECIES_POT
QC5
%ENDBLOCK SPECIES_POT

%BLOCK HUBBARD_U
Fe d:4.0
%ENDBLOCK HUBBARD_U

SNAP_TO_SYMMETRY
SYMMETRY_GENERATE

