#              Generated by Buildcell
#
# at 03:23:31 (GMT+0.0) 24th November 2020
# in /scratch/scratch/uccabz1/launch_tmp
# on node-k10h-028
# by uccabz1
#
# compiler GCC version 4.9.2
# options -cpp -iprefix /scratch/UCL/applications/gcc/4.9.2/bin/../lib/gcc/x86_64-unknown-linux-gnu/4.9.2/ -mtune=corei7 -march=x86-64 -g -O2
#
# seed  -747953168  1668361836  1970798227   770093600  -385203753   -59361160   758922898   236597462  2047717093 -1579864555   164279819  1446911101
#
#      Author: C. J. Pickard (cjp20@cam.ac.uk)
#                Space group: P-4
#

%BLOCK LATTICE_ABC
      4.68111      4.68111      7.30166
     90.00000     90.00000     90.00000
%ENDBLOCK LATTICE_ABC

%BLOCK POSITIONS_FRAC
  Li   0.5000000  -0.5000000   0.0000000 SPIN=   0.00000
  Li  -0.0000000  -0.0000000  -0.5000000 SPIN=   0.00000
   O   0.1782162  -0.7015670   0.1840312 SPIN=   0.00000
   O   0.2953679  -0.2066063   0.3264171 SPIN=   0.00000
   O  -0.1782162   0.7015670   0.1840312 SPIN=   0.00000
   O  -0.2953679   0.2066063   0.3264171 SPIN=   0.00000
   O  -0.7015670  -0.1782162  -0.1840312 SPIN=   0.00000
   O  -0.2066063  -0.2953679  -0.3264171 SPIN=   0.00000
   O   0.7015670   0.1782162  -0.1840312 SPIN=   0.00000
   O   0.2066063   0.2953679  -0.3264171 SPIN=   0.00000
   P  -0.5000000  -0.0000000   0.2277420 SPIN=   0.00000
   P  -0.0000000  -0.5000000  -0.2277420 SPIN=   0.00000
  Fe   0.0000000   0.0000000   0.0000000 SPIN=   3.36886
  Fe  -0.5000000   0.5000000   0.5000000 SPIN=   4.63114
%ENDBLOCK POSITIONS_FRAC

# Note: total spin =   8.00

KPOINTS_MP_SPACING 0.07

%BLOCK SPECIES_POT
QC5
%ENDBLOCK SPECIES_POT

%BLOCK HUBBARD_U
Fe d:4.0
%ENDBLOCK HUBBARD_U

SNAP_TO_SYMMETRY
SYMMETRY_GENERATE

