#              Generated by Buildcell
#
# at 04:11:10 (GMT+0.0) 24th November 2020
# in /lustre/scratch/uccabz1/launch_tmp
# on node-c12o-022
# by uccabz1
#
# compiler GCC version 4.9.2
# options -cpp -iprefix /lustre/shared/ucl/apps/gcc/4.9.2/bin/../lib/gcc/x86_64-unknown-linux-gnu/4.9.2/ -mtune=corei7 -march=x86-64 -g -Og
#
# seed  1698967793    15780752  1289793187  -724428125  -100426702   920197356  1759777097   508084365    18391452  1071806250   579350991 -1367569927
#
#      Author: C. J. Pickard (cjp20@cam.ac.uk)
#                Space group: C2
#

%BLOCK LATTICE_ABC
      5.25306      5.71227      5.71227
     78.69206     76.29677     76.29677
%ENDBLOCK LATTICE_ABC

%BLOCK POSITIONS_FRAC
  Li  -0.5000000   0.0404105  -0.0404105 SPIN=   0.00000
  Li   0.5000000  -0.3763839   0.3763839 SPIN=   0.00000
   O  -0.0216534   0.2323803   0.0521541 SPIN=   0.00000
   O  -0.5401813   0.3513583   0.1262444 SPIN=   0.00000
   O  -0.2830194   0.6808257   0.0169559 SPIN=   0.00000
   P  -0.2659508   0.4128918  -0.0245976 SPIN=   0.00000
   O   0.0216534  -0.0521541  -0.2323803 SPIN=   0.00000
   O   0.5401813  -0.1262444  -0.3513583 SPIN=   0.00000
   O   0.2830194  -0.0169559  -0.6808257 SPIN=   0.00000
   P   0.2659508   0.0245976  -0.4128918 SPIN=   0.00000
   O   0.0000000  -0.4515088   0.4515088 SPIN=   0.00000
   O  -0.5000000   0.3317326  -0.3317326 SPIN=   0.00000
  Fe   0.1882895  -0.3912552  -0.0556868 SPIN=   4.00000
  Fe  -0.1882895   0.0556868   0.3912552 SPIN=   4.00000
%ENDBLOCK POSITIONS_FRAC

# Note: total spin =   8.00

KPOINTS_MP_SPACING 0.07

%BLOCK SPECIES_POT
QC5
%ENDBLOCK SPECIES_POT

%BLOCK HUBBARD_U
Fe d:4.0
%ENDBLOCK HUBBARD_U

SNAP_TO_SYMMETRY
SYMMETRY_GENERATE

