#              Generated by Buildcell
#
# at 05:12:28 (GMT+0.0) 24th November 2020
# in /scratch/scratch/uccabz1/launch_tmp
# on node-a14a-024
# by uccabz1
#
# compiler GCC version 4.9.2
# options -cpp -iprefix /scratch/UCL/applications/gcc/4.9.2/bin/../lib/gcc/x86_64-unknown-linux-gnu/4.9.2/ -mtune=corei7 -march=x86-64 -g -O2
#
# seed  1197843896   679467012   957073368 -1152996028   452841435  1534546033  1976601251   213282687  1424697938  -841607939   292562690  -894593535
#
#      Author: C. J. Pickard (cjp20@cam.ac.uk)
#                Space group: Fdd2
#

%BLOCK LATTICE_ABC
      5.34438      5.34438      6.74811
    113.10907    113.10907     90.50756
%ENDBLOCK LATTICE_ABC

%BLOCK POSITIONS_FRAC
  Li   0.2679637  -0.7320363  -0.4640726 SPIN=   0.00000
  Li  -0.4820363   0.0179637   0.0359274 SPIN=   0.00000
   O  -0.0460027   0.4832550   0.4212630 SPIN=   0.00000
   O  -0.2553307   0.2618430  -0.0419280 SPIN=   0.00000
   O   0.4672657  -0.0619920   0.4212630 SPIN=   0.00000
   O   0.2134026  -0.3037711  -0.0419280 SPIN=   0.00000
   O  -0.2667450  -0.2960027  -0.0787370 SPIN=   0.00000
   O  -0.4881570  -0.5053307  -0.5419280 SPIN=   0.00000
   O   0.1880080   0.2172657  -0.0787370 SPIN=   0.00000
   O  -0.0537711  -0.0365974  -0.5419280 SPIN=   0.00000
   P  -0.4930725   0.5069275   0.0138551 SPIN=   0.00000
   P  -0.2430725  -0.7430725  -0.4861449 SPIN=   0.00000
  Fe  -0.1541603  -0.1541603  -0.3083206 SPIN=   4.00000
  Fe   0.0958397   0.5958397   0.1916794 SPIN=   4.00000
%ENDBLOCK POSITIONS_FRAC

# Note: total spin =   8.00

KPOINTS_MP_SPACING 0.07

%BLOCK SPECIES_POT
QC5
%ENDBLOCK SPECIES_POT

%BLOCK HUBBARD_U
Fe d:4.0
%ENDBLOCK HUBBARD_U

SNAP_TO_SYMMETRY
SYMMETRY_GENERATE

