#              Generated by Buildcell
#
# at 01:46:58 (GMT+0.0) 24th November 2020
# in /lustre/scratch/uccabz1/launch_tmp
# on node-c12d-032
# by uccabz1
#
# compiler GCC version 4.9.2
# options -cpp -iprefix /lustre/shared/ucl/apps/gcc/4.9.2/bin/../lib/gcc/x86_64-unknown-linux-gnu/4.9.2/ -mtune=corei7 -march=x86-64 -g -Og
#
# seed  1166318213  -279574453 -2081228971  -369515559  1093639562  1702703236   451706897 -1065807149 -1287834499    98799726   -42924142  1109205809
#
#      Author: C. J. Pickard (cjp20@cam.ac.uk)
#                Space group: P4
#

%BLOCK LATTICE_ABC
      5.27591      5.27591      5.74811
     90.00000     90.00000     90.00000
%ENDBLOCK LATTICE_ABC

%BLOCK POSITIONS_FRAC
  Li   0.0000000  -0.5000000   0.3406773 SPIN=   0.00000
  Li  -0.5000000   0.0000000   0.3406773 SPIN=   0.00000
   O  -0.3289411   0.1604938   0.0433925 SPIN=   0.00000
   O  -0.2680749   0.2632631  -0.3950972 SPIN=   0.00000
   O   0.3289411  -0.1604938   0.0433925 SPIN=   0.00000
   O   0.2680749  -0.2632631  -0.3950972 SPIN=   0.00000
   O  -0.1604938  -0.3289411   0.0433925 SPIN=   0.00000
   O  -0.2632631  -0.2680749  -0.3950972 SPIN=   0.00000
   O   0.1604938   0.3289411   0.0433925 SPIN=   0.00000
   O   0.2632631   0.2680749  -0.3950972 SPIN=   0.00000
   P   0.0000000   0.0000000   0.2244802 SPIN=   0.00000
   P  -0.5000000  -0.5000000   0.4369712 SPIN=   0.00000
  Fe   0.0000000   0.0000000  -0.2750871 SPIN=   4.53140
  Fe   0.5000000  -0.5000000  -0.0640808 SPIN=   3.46860
%ENDBLOCK POSITIONS_FRAC

# Note: total spin =   8.00

KPOINTS_MP_SPACING 0.07

%BLOCK SPECIES_POT
QC5
%ENDBLOCK SPECIES_POT

%BLOCK HUBBARD_U
Fe d:4.0
%ENDBLOCK HUBBARD_U

SNAP_TO_SYMMETRY
SYMMETRY_GENERATE

