#              Generated by Buildcell
#
# at 04:28:50 (GMT+0.0) 24th November 2020
# in /lustre/scratch/uccabz1/launch_tmp
# on node-c12g-020
# by uccabz1
#
# compiler GCC version 4.9.2
# options -cpp -iprefix /lustre/shared/ucl/apps/gcc/4.9.2/bin/../lib/gcc/x86_64-unknown-linux-gnu/4.9.2/ -mtune=corei7 -march=x86-64 -g -Og
#
# seed -1088864071 -1693339540  1375128296 -1610543455 -1605218649  -126991799 -1464758122 -1266916291  -896578416  -287182123 -1232884596  1743206220
#
#      Author: C. J. Pickard (cjp20@cam.ac.uk)
#                Space group: C2
#

%BLOCK LATTICE_ABC
      4.98735      4.98735      6.50921
     92.46017     92.46017     97.97183
%ENDBLOCK LATTICE_ABC

%BLOCK POSITIONS_FRAC
  Li   0.4191460  -0.4191460   0.0000000 SPIN=   0.00000
  Li  -0.1102310   0.1102310   0.5000000 SPIN=   0.00000
   O   0.6708701  -0.0919466  -0.2511220 SPIN=   0.00000
   O   0.1562037  -0.2643627  -0.2374233 SPIN=   0.00000
   O   0.3422950   0.1607013  -0.0416127 SPIN=   0.00000
   O   0.3056960   0.1527387  -0.4268127 SPIN=   0.00000
   P   0.3841074  -0.0131135  -0.2420887 SPIN=   0.00000
   O   0.0919466  -0.6708701   0.2511220 SPIN=   0.00000
   O   0.2643627  -0.1562037   0.2374233 SPIN=   0.00000
   O  -0.1607013  -0.3422950   0.0416127 SPIN=   0.00000
   O  -0.1527387  -0.3056960   0.4268127 SPIN=   0.00000
   P   0.0131135  -0.3841074   0.2420887 SPIN=   0.00000
  Fe   0.4582537  -0.4582537  -0.5000000 SPIN=   2.11762
  Fe  -0.0739113   0.0739113  -0.0000000 SPIN=   5.88238
%ENDBLOCK POSITIONS_FRAC

# Note: total spin =   8.00

KPOINTS_MP_SPACING 0.07

%BLOCK SPECIES_POT
QC5
%ENDBLOCK SPECIES_POT

%BLOCK HUBBARD_U
Fe d:4.0
%ENDBLOCK HUBBARD_U

SNAP_TO_SYMMETRY
SYMMETRY_GENERATE

