#              Generated by Buildcell
#
# at 00:49:25 (GMT+0.0) 24th November 2020
# in /lustre/scratch/uccabz1/launch_tmp
# on node-c12l-023
# by uccabz1
#
# compiler GCC version 4.9.2
# options -cpp -iprefix /lustre/shared/ucl/apps/gcc/4.9.2/bin/../lib/gcc/x86_64-unknown-linux-gnu/4.9.2/ -mtune=corei7 -march=x86-64 -g -Og
#
# seed  -459594702  1045619835  -592572311  -958565768  -484797689   718339453   402584816  1638943982 -2102933542    19636717  -206336949   534605523
#
#      Author: C. J. Pickard (cjp20@cam.ac.uk)
#                Space group: Pc
#

%BLOCK LATTICE_ABC
      4.39548      4.82428      7.56912
     90.00000     94.53913     90.00000
%ENDBLOCK LATTICE_ABC

%BLOCK POSITIONS_FRAC
  Li  -0.2680494   0.1953995  -0.0069048 SPIN=   0.00000
  Li  -0.2680494  -0.1953995   0.4930952 SPIN=   0.00000
   O  -0.2472626   0.2368984   0.5346157 SPIN=   0.00000
   O   0.0007383   0.5799955   0.3237818 SPIN=   0.00000
   O   0.0117490   0.0799857   0.2543997 SPIN=   0.00000
   O  -0.4837297   0.3378515   0.2178577 SPIN=   0.00000
   P  -0.1868163   0.3052049   0.3420618 SPIN=   0.00000
   O  -0.2472626  -0.2368984   0.0346157 SPIN=   0.00000
   O   0.0007383  -0.5799955  -0.1762182 SPIN=   0.00000
   O   0.0117490  -0.0799857  -0.2456003 SPIN=   0.00000
   O  -0.4837297  -0.3378515  -0.2821423 SPIN=   0.00000
   P  -0.1868163  -0.3052049  -0.1579382 SPIN=   0.00000
  Fe   0.2852770  -0.3023652   0.1265711 SPIN=   4.00000
  Fe   0.2852770   0.3023652  -0.3734289 SPIN=   4.00000
%ENDBLOCK POSITIONS_FRAC

# Note: total spin =   8.00

KPOINTS_MP_SPACING 0.07

%BLOCK SPECIES_POT
QC5
%ENDBLOCK SPECIES_POT

%BLOCK HUBBARD_U
Fe d:4.0
%ENDBLOCK HUBBARD_U

SNAP_TO_SYMMETRY
SYMMETRY_GENERATE

