#              Generated by Buildcell
#
# at 03:26:53 (GMT+0.0) 24th November 2020
# in /lustre/scratch/uccabz1/launch_tmp
# on node-c12h-032
# by uccabz1
#
# compiler GCC version 4.9.2
# options -cpp -iprefix /lustre/shared/ucl/apps/gcc/4.9.2/bin/../lib/gcc/x86_64-unknown-linux-gnu/4.9.2/ -mtune=corei7 -march=x86-64 -g -Og
#
# seed  2086415806   503205497  1514747134   -12226395  -169103302 -1196429192 -1634514439  -171777821   -76354920  1320541537 -1843809021 -1230108947
#
#      Author: C. J. Pickard (cjp20@cam.ac.uk)
#                Space group: Pc
#

%BLOCK LATTICE_ABC
      3.91743      4.73478      8.62653
     90.00000     90.51334     90.00000
%ENDBLOCK LATTICE_ABC

%BLOCK POSITIONS_FRAC
  Li  -0.0641464  -0.2169353  -0.3764407 SPIN=   0.00000
  Li  -0.0641464   0.2169353   0.1235593 SPIN=   0.00000
   O  -0.5392682  -0.0602270   0.2998843 SPIN=   0.00000
   O  -0.0614292  -0.2283714   0.1144651 SPIN=   0.00000
   O  -0.0556774  -0.4046730   0.3839528 SPIN=   0.00000
   O  -0.5077745  -0.5729804   0.1988110 SPIN=   0.00000
   P  -0.3068121  -0.3059403   0.2513772 SPIN=   0.00000
   O  -0.5392682   0.0602270  -0.2001157 SPIN=   0.00000
   O  -0.0614292   0.2283714  -0.3855349 SPIN=   0.00000
   O  -0.0556774   0.4046730  -0.1160472 SPIN=   0.00000
   O  -0.5077745   0.5729804  -0.3011890 SPIN=   0.00000
   P  -0.3068121   0.3059403  -0.2486228 SPIN=   0.00000
  Fe   0.3812731   0.2830646   0.4493796 SPIN=   4.00000
  Fe   0.3812731  -0.2830646  -0.0506204 SPIN=   4.00000
%ENDBLOCK POSITIONS_FRAC

# Note: total spin =   8.00

KPOINTS_MP_SPACING 0.07

%BLOCK SPECIES_POT
QC5
%ENDBLOCK SPECIES_POT

%BLOCK HUBBARD_U
Fe d:4.0
%ENDBLOCK HUBBARD_U

SNAP_TO_SYMMETRY
SYMMETRY_GENERATE

