#              Generated by Buildcell
#
# at 00:20:24 (GMT+0.0) 24th November 2020
# in /scratch/scratch/uccabz1/launch_tmp
# on node-a14e-019
# by uccabz1
#
# compiler GCC version 4.9.2
# options -cpp -iprefix /scratch/UCL/applications/gcc/4.9.2/bin/../lib/gcc/x86_64-unknown-linux-gnu/4.9.2/ -mtune=corei7 -march=x86-64 -g -O2
#
# seed   773492077   730731734  1287224935   986777548  -876412354 -1190994993  1144174578  1252466475   -18388112   220550717  -906667730   409093152
#
#      Author: C. J. Pickard (cjp20@cam.ac.uk)
#                Space group: P-1
#

%BLOCK LATTICE_ABC
      5.28755      5.70685      5.93357
     93.59837    116.38185     90.05752
%ENDBLOCK LATTICE_ABC

%BLOCK POSITIONS_FRAC
  Li   0.3173202  -0.4857230   0.1346618 SPIN=   0.00000
  Li  -0.3173202   0.4857230  -0.1346618 SPIN=   0.00000
   O  -0.3153015  -0.1446398  -0.1117349 SPIN=   0.00000
   O   0.1462826  -0.2229414   0.2865324 SPIN=   0.00000
   O  -0.1154007   0.1323864   0.2976472 SPIN=   0.00000
   O  -0.3183963  -0.2636335   0.2999245 SPIN=   0.00000
   P  -0.1614469  -0.1274079   0.1781225 SPIN=   0.00000
   O   0.3153015   0.1446398   0.1117349 SPIN=   0.00000
   O  -0.1462826   0.2229414  -0.2865324 SPIN=   0.00000
   O   0.1154007  -0.1323864  -0.2976472 SPIN=   0.00000
   O   0.3183963   0.2636335  -0.2999245 SPIN=   0.00000
   P   0.1614469   0.1274079  -0.1781225 SPIN=   0.00000
  Fe   0.5000000  -0.0000000   0.5000000 SPIN=   3.97525
  Fe   0.0000000   0.5000000  -0.5000000 SPIN=   4.02475
%ENDBLOCK POSITIONS_FRAC

# Note: total spin =   8.00

KPOINTS_MP_SPACING 0.07

%BLOCK SPECIES_POT
QC5
%ENDBLOCK SPECIES_POT

%BLOCK HUBBARD_U
Fe d:4.0
%ENDBLOCK HUBBARD_U

SNAP_TO_SYMMETRY
SYMMETRY_GENERATE

