#              Generated by Buildcell
#
# at 04:48:34 (GMT+0.0) 24th November 2020
# in /lustre/scratch/uccabz1/launch_tmp
# on node-c12g-032
# by uccabz1
#
# compiler GCC version 4.9.2
# options -cpp -iprefix /lustre/shared/ucl/apps/gcc/4.9.2/bin/../lib/gcc/x86_64-unknown-linux-gnu/4.9.2/ -mtune=corei7 -march=x86-64 -g -Og
#
# seed   924470167 -1690387219  -320868870  -108593605 -1202032332  -754360904 -2027828690 -1733468200  1653530524  1092255080   234625735  1137943970
#
#      Author: C. J. Pickard (cjp20@cam.ac.uk)
#                Space group: Cm
#

%BLOCK LATTICE_ABC
      5.91042      5.91042      5.92411
    113.92353    113.92353     98.76725
%ENDBLOCK LATTICE_ABC

%BLOCK POSITIONS_FRAC
  Li   0.2961699   0.2961699   0.3633219 SPIN=   0.00000
  Li  -0.1990965  -0.1990965   0.1529743 SPIN=   0.00000
   O   0.6625009  -0.0419793   0.4630990 SPIN=   0.00000
   O   0.3557677  -0.3035163  -0.0951371 SPIN=   0.00000
   O   0.1862388  -0.4026620   0.1864963 SPIN=   0.00000
   P   0.3747199  -0.1685191   0.2051778 SPIN=   0.00000
   O  -0.0419793   0.6625009   0.4630990 SPIN=   0.00000
   O  -0.3035163   0.3557677  -0.0951371 SPIN=   0.00000
   O  -0.4026620   0.1862388   0.1864963 SPIN=   0.00000
   P  -0.1685191   0.3747199   0.2051778 SPIN=   0.00000
   O  -0.3481206  -0.3481206  -0.2949149 SPIN=   0.00000
   O   0.0571177   0.0571177  -0.0905600 SPIN=   0.00000
  Fe  -0.0744706  -0.6401359  -0.2881289 SPIN=   4.00000
  Fe  -0.6401359  -0.0744706  -0.2881289 SPIN=   4.00000
%ENDBLOCK POSITIONS_FRAC

# Note: total spin =   8.00

KPOINTS_MP_SPACING 0.07

%BLOCK SPECIES_POT
QC5
%ENDBLOCK SPECIES_POT

%BLOCK HUBBARD_U
Fe d:4.0
%ENDBLOCK HUBBARD_U

SNAP_TO_SYMMETRY
SYMMETRY_GENERATE

