#              Generated by Buildcell
#
# at 01:34:37 (GMT+0.0) 24th November 2020
# in /scratch/scratch/uccabz1/launch_tmp
# on node-k10c-005
# by uccabz1
#
# compiler GCC version 4.9.2
# options -cpp -iprefix /scratch/UCL/applications/gcc/4.9.2/bin/../lib/gcc/x86_64-unknown-linux-gnu/4.9.2/ -mtune=corei7 -march=x86-64 -g -O2
#
# seed   150230154  1769406194 -1968307107  -619308308 -1261252701   653554018   517410128  1571942069  -542426458   749652227   -71858088   -37681521
#
#      Author: C. J. Pickard (cjp20@cam.ac.uk)
#                Space group: C2
#

%BLOCK LATTICE_ABC
      5.60489      5.60489      6.07923
     71.62529     71.62529     64.54018
%ENDBLOCK LATTICE_ABC

%BLOCK POSITIONS_FRAC
  Li   0.1749837  -0.0921164  -0.2664282 SPIN=   0.00000
  Li   0.0921164  -0.1749837   0.2664282 SPIN=   0.00000
   O  -0.2120530   0.7142171  -0.2447289 SPIN=   0.00000
   O   0.2619119   0.4747714  -0.4876422 SPIN=   0.00000
   O   0.1108921   0.2323494  -0.0868408 SPIN=   0.00000
   O  -0.1079302   0.3040817  -0.4154793 SPIN=   0.00000
   P  -0.0002182   0.4449140  -0.3065286 SPIN=   0.00000
   O  -0.7142171   0.2120530   0.2447289 SPIN=   0.00000
   O  -0.4747714  -0.2619119   0.4876422 SPIN=   0.00000
   O  -0.2323494  -0.1108921   0.0868408 SPIN=   0.00000
   O  -0.3040817   0.1079302   0.4154793 SPIN=   0.00000
   P  -0.4449140   0.0002182   0.3065286 SPIN=   0.00000
  Fe  -0.2192969   0.4881897   0.1760973 SPIN=   4.00000
  Fe  -0.4881897   0.2192969  -0.1760973 SPIN=   4.00000
%ENDBLOCK POSITIONS_FRAC

# Note: total spin =   8.00

KPOINTS_MP_SPACING 0.07

%BLOCK SPECIES_POT
QC5
%ENDBLOCK SPECIES_POT

%BLOCK HUBBARD_U
Fe d:4.0
%ENDBLOCK HUBBARD_U

SNAP_TO_SYMMETRY
SYMMETRY_GENERATE

