#              Generated by Buildcell
#
# at 02:20:12 (GMT+0.0) 24th November 2020
# in /lustre/scratch/uccabz1/launch_tmp
# on node-c12g-020
# by uccabz1
#
# compiler GCC version 4.9.2
# options -cpp -iprefix /lustre/shared/ucl/apps/gcc/4.9.2/bin/../lib/gcc/x86_64-unknown-linux-gnu/4.9.2/ -mtune=corei7 -march=x86-64 -g -Og
#
# seed  1357344024  -102226675   950264626    -8486177   909660631 -1387549157  -508274480  -439824490 -2003834262 -1355980805  -155480430  -736808884
#
#      Author: C. J. Pickard (cjp20@cam.ac.uk)
#                Space group: P-1
#

%BLOCK LATTICE_ABC
      5.36330      5.81101      6.12417
     80.28469     66.22193     66.35826
%ENDBLOCK LATTICE_ABC

%BLOCK POSITIONS_FRAC
  Li  -0.5528685   0.0745697  -0.2542852 SPIN=   0.00000
  Li   0.5528685  -0.0745697   0.2542852 SPIN=   0.00000
   O   0.3155344  -0.4743475   0.3455787 SPIN=   0.00000
   O  -0.1584062  -0.0728542   0.4513293 SPIN=   0.00000
   O   0.2691036  -0.0643643   0.0911505 SPIN=   0.00000
   O  -0.0099838  -0.3229787   0.0941580 SPIN=   0.00000
   P   0.1139760  -0.2475072   0.2490933 SPIN=   0.00000
   O  -0.3155344   0.4743475  -0.3455787 SPIN=   0.00000
   O   0.1584062   0.0728542  -0.4513293 SPIN=   0.00000
   O  -0.2691036   0.0643643  -0.0911505 SPIN=   0.00000
   O   0.0099838   0.3229787  -0.0941580 SPIN=   0.00000
   P  -0.1139760   0.2475072  -0.2490933 SPIN=   0.00000
  Fe   0.1177549  -0.2902123  -0.2784346 SPIN=   4.00000
  Fe  -0.1177549   0.2902123   0.2784346 SPIN=   4.00000
%ENDBLOCK POSITIONS_FRAC

# Note: total spin =   8.00

KPOINTS_MP_SPACING 0.07

%BLOCK SPECIES_POT
QC5
%ENDBLOCK SPECIES_POT

%BLOCK HUBBARD_U
Fe d:4.0
%ENDBLOCK HUBBARD_U

SNAP_TO_SYMMETRY
SYMMETRY_GENERATE

