#              Generated by Buildcell
#
# at 01:11:16 (GMT+0.0) 24th November 2020
# in /lustre/scratch/uccabz1/launch_tmp
# on node-c12c-023
# by uccabz1
#
# compiler GCC version 4.9.2
# options -cpp -iprefix /lustre/shared/ucl/apps/gcc/4.9.2/bin/../lib/gcc/x86_64-unknown-linux-gnu/4.9.2/ -mtune=corei7 -march=x86-64 -g -Og
#
# seed   928490642  -766197871 -1098253277  1749698423 -1869828234   834194472  1903713738   530509427 -1247278462  -612559326 -1031885452    49423991
#
#      Author: C. J. Pickard (cjp20@cam.ac.uk)
#                Space group: P-1
#

%BLOCK LATTICE_ABC
      4.72564      5.88799      6.70548
     64.11435     87.26988     73.17659
%ENDBLOCK LATTICE_ABC

%BLOCK POSITIONS_FRAC
  Li  -0.0420784   0.2694062  -0.2562703 SPIN=   0.00000
  Li   0.0420784  -0.2694062   0.2562703 SPIN=   0.00000
   O  -0.3838644  -0.3611899   0.1714555 SPIN=   0.00000
   O   0.0986994  -0.6793610   0.4275481 SPIN=   0.00000
   O  -0.3763769  -0.7703263   0.5440240 SPIN=   0.00000
   O  -0.1580896  -0.8395213   0.2198434 SPIN=   0.00000
   P  -0.2138839  -0.6486389   0.3302789 SPIN=   0.00000
   O   0.3838644   0.3611899  -0.1714555 SPIN=   0.00000
   O  -0.0986994   0.6793610  -0.4275481 SPIN=   0.00000
   O   0.3763769   0.7703263  -0.5440240 SPIN=   0.00000
   O   0.1580896   0.8395213  -0.2198434 SPIN=   0.00000
   P   0.2138839   0.6486389  -0.3302789 SPIN=   0.00000
  Fe   0.3520241   0.1980136   0.1736369 SPIN=   4.00000
  Fe  -0.3520241  -0.1980136  -0.1736369 SPIN=   4.00000
%ENDBLOCK POSITIONS_FRAC

# Note: total spin =   8.00

KPOINTS_MP_SPACING 0.07

%BLOCK SPECIES_POT
QC5
%ENDBLOCK SPECIES_POT

%BLOCK HUBBARD_U
Fe d:4.0
%ENDBLOCK HUBBARD_U

SNAP_TO_SYMMETRY
SYMMETRY_GENERATE

