#              Generated by Buildcell
#
# at 23:17:43 (GMT+0.0) 23rd November 2020
# in /lustre/scratch/uccabz1/launch_tmp
# on node-c12b-026
# by uccabz1
#
# compiler GCC version 4.9.2
# options -cpp -iprefix /lustre/shared/ucl/apps/gcc/4.9.2/bin/../lib/gcc/x86_64-unknown-linux-gnu/4.9.2/ -mtune=corei7 -march=x86-64 -g -Og
#
# seed  1315074183  -530266632  1308075732   552004382   985461785  1516242010   575379743   292710035 -1345222107 -1003560424  1839410200 -1842226123
#
#      Author: C. J. Pickard (cjp20@cam.ac.uk)
#                Space group: Pmn21
#

%BLOCK LATTICE_ABC
      4.45851      5.47555      6.55394
     90.00000     90.00000     90.00000
%ENDBLOCK LATTICE_ABC

%BLOCK POSITIONS_FRAC
  Li   0.2996243  -0.5000000   0.0282331 SPIN=   0.00000
  Li  -0.2996243   0.0000000  -0.4717669 SPIN=   0.00000
   O  -0.0356501   0.2758853   0.4020064 SPIN=   0.00000
   O   0.4833057   0.2366432   0.2247077 SPIN=   0.00000
   O   0.0356501   0.2241147  -0.0979936 SPIN=   0.00000
   O  -0.4833057   0.2633568  -0.2752923 SPIN=   0.00000
   O   0.0356501  -0.2241147  -0.0979936 SPIN=   0.00000
   O  -0.4833057  -0.2633568  -0.2752923 SPIN=   0.00000
   O  -0.0356501  -0.2758853   0.4020064 SPIN=   0.00000
   O   0.4833057  -0.2366432   0.2247077 SPIN=   0.00000
   P   0.2020564   0.0000000   0.3005398 SPIN=   0.00000
   P  -0.2020564  -0.5000000  -0.1994602 SPIN=   0.00000
  Fe  -0.2953253   0.0000000   0.0261683 SPIN=   4.00000
  Fe   0.2953253  -0.5000000  -0.4738317 SPIN=   4.00000
%ENDBLOCK POSITIONS_FRAC

# Note: total spin =   8.00

KPOINTS_MP_SPACING 0.07

%BLOCK SPECIES_POT
QC5
%ENDBLOCK SPECIES_POT

%BLOCK HUBBARD_U
Fe d:4.0
%ENDBLOCK HUBBARD_U

SNAP_TO_SYMMETRY
SYMMETRY_GENERATE

