#              Generated by Buildcell
#
# at 04:24:52 (GMT+0.0) 24th November 2020
# in /lustre/scratch/uccabz1/launch_tmp
# on node-c12b-031
# by uccabz1
#
# compiler GCC version 4.9.2
# options -cpp -iprefix /lustre/shared/ucl/apps/gcc/4.9.2/bin/../lib/gcc/x86_64-unknown-linux-gnu/4.9.2/ -mtune=corei7 -march=x86-64 -g -Og
#
# seed  -572527808   821386499  1646781501  -639843577  -949545932  -132457696   732088473   981295303  -803268294  1837345759   173634678  1016969249
#
#      Author: C. J. Pickard (cjp20@cam.ac.uk)
#                Space group: P-1
#

%BLOCK LATTICE_ABC
      4.22310      5.25761      7.57333
     89.88644     84.35133     73.04448
%ENDBLOCK LATTICE_ABC

%BLOCK POSITIONS_FRAC
  Li   0.5000000  -0.5000000  -0.0000000 SPIN=   0.00000
  Li  -0.5000000   0.5000000  -0.5000000 SPIN=   0.00000
   O   0.1858006   0.5860589  -0.2084759 SPIN=   0.00000
   O   0.2191234   0.1545059  -0.0341192 SPIN=   0.00000
   O  -0.2224618   0.3049841  -0.2345938 SPIN=   0.00000
   P   0.1436165   0.3053644  -0.2117992 SPIN=   0.00000
   O  -0.1858006  -0.5860589   0.2084759 SPIN=   0.00000
   O  -0.2191234  -0.1545059   0.0341192 SPIN=   0.00000
   O   0.2224618  -0.3049841   0.2345938 SPIN=   0.00000
   P  -0.1436165  -0.3053644   0.2117992 SPIN=   0.00000
   O  -0.5000000   0.0000000  -0.5000000 SPIN=   0.00000
   O   0.0000000  -0.5000000   0.5000000 SPIN=   0.00000
  Fe  -0.2161592  -0.0926977  -0.2705939 SPIN=   4.00000
  Fe   0.2161592   0.0926977   0.2705939 SPIN=   4.00000
%ENDBLOCK POSITIONS_FRAC

# Note: total spin =   8.00

KPOINTS_MP_SPACING 0.07

%BLOCK SPECIES_POT
QC5
%ENDBLOCK SPECIES_POT

%BLOCK HUBBARD_U
Fe d:4.0
%ENDBLOCK HUBBARD_U

SNAP_TO_SYMMETRY
SYMMETRY_GENERATE

