#              Generated by Buildcell
#
# at 03:06:07 (GMT+0.0) 24th November 2020
# in /lustre/scratch/uccabz1/launch_tmp
# on node-c12c-030
# by uccabz1
#
# compiler GCC version 4.9.2
# options -cpp -iprefix /lustre/shared/ucl/apps/gcc/4.9.2/bin/../lib/gcc/x86_64-unknown-linux-gnu/4.9.2/ -mtune=corei7 -march=x86-64 -g -Og
#
# seed -2085018735  1194747380  1049401474  2136530206  -638974621 -1793729816 -1898941742 -1041044037  1559540161 -1781535571  1503534866  1960829469
#
#      Author: C. J. Pickard (cjp20@cam.ac.uk)
#                Space group: Cm
#

%BLOCK LATTICE_ABC
      3.87666      6.44142      6.44142
     89.14623     85.85041     85.85041
%ENDBLOCK LATTICE_ABC

%BLOCK POSITIONS_FRAC
  Li   0.3509184  -0.2637439  -0.2637439 SPIN=   0.00000
  Li  -0.2559467   0.4327085   0.4327085 SPIN=   0.00000
   O   0.3390490  -0.6231406   0.0733217 SPIN=   0.00000
   O   0.5697674  -0.3102629   0.2572014 SPIN=   0.00000
   O   0.0853795  -0.2416156   0.0310242 SPIN=   0.00000
   P   0.2461748  -0.4124093   0.1798897 SPIN=   0.00000
   O   0.3390490   0.0733217  -0.6231406 SPIN=   0.00000
   O   0.5697674   0.2572014  -0.3102629 SPIN=   0.00000
   O   0.0853795   0.0310242  -0.2416156 SPIN=   0.00000
   P   0.2461748   0.1798897  -0.4124093 SPIN=   0.00000
   O  -0.4443532   0.0017819   0.0017819 SPIN=   0.00000
   O  -0.1275676  -0.3507030  -0.3507030 SPIN=   0.00000
  Fe  -0.1573806  -0.0688697   0.3581255 SPIN=   4.00000
  Fe  -0.1573806   0.3581255  -0.0688697 SPIN=   4.00000
%ENDBLOCK POSITIONS_FRAC

# Note: total spin =   8.00

KPOINTS_MP_SPACING 0.07

%BLOCK SPECIES_POT
QC5
%ENDBLOCK SPECIES_POT

%BLOCK HUBBARD_U
Fe d:4.0
%ENDBLOCK HUBBARD_U

SNAP_TO_SYMMETRY
SYMMETRY_GENERATE

