#              Generated by Buildcell
#
# at 00:21:15 (GMT+0.0) 24th November 2020
# in /lustre/scratch/uccabz1/launch_tmp
# on node-c12m-034
# by uccabz1
#
# compiler GCC version 4.9.2
# options -cpp -iprefix /lustre/shared/ucl/apps/gcc/4.9.2/bin/../lib/gcc/x86_64-unknown-linux-gnu/4.9.2/ -mtune=corei7 -march=x86-64 -g -Og
#
# seed   185065518  -427365132 -1003393328  1013432186  -923295074  1705995630  1724836926   407186396  1833538580 -1029362150 -1753667034  1659623764
#
#      Author: C. J. Pickard (cjp20@cam.ac.uk)
#                Space group: P-4
#

%BLOCK LATTICE_ABC
      4.71430      4.71430      7.19924
     90.00000     90.00000     90.00000
%ENDBLOCK LATTICE_ABC

%BLOCK POSITIONS_FRAC
  Li   0.0000000   0.0000000  -0.5000000 SPIN=   0.00000
  Li  -0.5000000  -0.5000000   0.0000000 SPIN=   0.00000
   O  -0.2164520   0.2850861   0.3233969 SPIN=   0.00000
   O  -0.2840262  -0.2137637   0.1765353 SPIN=   0.00000
   O   0.2164520  -0.2850861   0.3233969 SPIN=   0.00000
   O   0.2840262   0.2137637   0.1765353 SPIN=   0.00000
   O   0.2850861   0.2164520  -0.3233969 SPIN=   0.00000
   O  -0.2137637   0.2840262  -0.1765353 SPIN=   0.00000
   O  -0.2850861  -0.2164520  -0.3233969 SPIN=   0.00000
   O   0.2137637  -0.2840262  -0.1765353 SPIN=   0.00000
   P  -0.5000000   0.0000000  -0.2276343 SPIN=   0.00000
   P  -0.0000000   0.5000000   0.2276343 SPIN=   0.00000
  Fe   0.0000000   0.0000000   0.0000000 SPIN=   4.65642
  Fe   0.5000000   0.5000000   0.5000000 SPIN=   3.34358
%ENDBLOCK POSITIONS_FRAC

# Note: total spin =   8.00

KPOINTS_MP_SPACING 0.07

%BLOCK SPECIES_POT
QC5
%ENDBLOCK SPECIES_POT

%BLOCK HUBBARD_U
Fe d:4.0
%ENDBLOCK HUBBARD_U

SNAP_TO_SYMMETRY
SYMMETRY_GENERATE

