#              Generated by Buildcell
#
# at 03:40:55 (GMT+0.0) 24th November 2020
# in /scratch/scratch/uccabz1/launch_tmp
# on node-a14a-009
# by uccabz1
#
# compiler GCC version 4.9.2
# options -cpp -iprefix /scratch/UCL/applications/gcc/4.9.2/bin/../lib/gcc/x86_64-unknown-linux-gnu/4.9.2/ -mtune=corei7 -march=x86-64 -g -O2
#
# seed  1465347317  1685962893 -1824839021  2070535455    72482196   -25308536 -1126864407   808271853   946108239 -1892519972  1217542557   600983864
#
#      Author: C. J. Pickard (cjp20@cam.ac.uk)
#                Space group: Cmc21
#

%BLOCK LATTICE_ABC
      5.45992      5.70623      5.87485
    119.05502     90.00000     90.00000
%ENDBLOCK LATTICE_ABC

%BLOCK POSITIONS_FRAC
  Li   0.0582571  -0.0649213  -0.1298425 SPIN=   0.00000
  Li  -0.4417429   0.0649213   0.1298425 SPIN=   0.00000
   O  -0.2842343   0.0891066  -0.3890116 SPIN=   0.00000
   O  -0.6544461   0.2356977  -0.0714668 SPIN=   0.00000
   O   0.2157657  -0.0891066   0.3890116 SPIN=   0.00000
   O  -0.1544461  -0.2356977   0.0714668 SPIN=   0.00000
   O   0.2157657   0.4781182   0.3890116 SPIN=   0.00000
   O  -0.1544461   0.3071646   0.0714668 SPIN=   0.00000
   O  -0.2842343  -0.4781182  -0.3890116 SPIN=   0.00000
   O  -0.6544461  -0.3071646  -0.0714668 SPIN=   0.00000
   P   0.0082745  -0.3777033   0.2445933 SPIN=   0.00000
   P  -0.4917255   0.3777033  -0.2445933 SPIN=   0.00000
  Fe   0.0207607   0.2732183  -0.4535635 SPIN=   4.00000
  Fe  -0.4792393  -0.2732183   0.4535635 SPIN=   4.00000
%ENDBLOCK POSITIONS_FRAC

# Note: total spin =   8.00

KPOINTS_MP_SPACING 0.07

%BLOCK SPECIES_POT
QC5
%ENDBLOCK SPECIES_POT

%BLOCK HUBBARD_U
Fe d:4.0
%ENDBLOCK HUBBARD_U

SNAP_TO_SYMMETRY
SYMMETRY_GENERATE

