#              Generated by Buildcell
#
# at 02:05:13 (GMT+0.0) 24th November 2020
# in /lustre/scratch/uccabz1/launch_tmp
# on node-c12b-025
# by uccabz1
#
# compiler GCC version 4.9.2
# options -cpp -iprefix /lustre/shared/ucl/apps/gcc/4.9.2/bin/../lib/gcc/x86_64-unknown-linux-gnu/4.9.2/ -mtune=corei7 -march=x86-64 -g -Og
#
# seed  1905752268 -2103779206 -1941858559   -15572795 -1172619485   733007921 -1038343991  1911903719   120691344 -1712972550 -1505743600   460861955
#
#      Author: C. J. Pickard (cjp20@cam.ac.uk)
#                Space group: P21/m
#

%BLOCK LATTICE_ABC
      3.88594      5.58739      7.52194
     90.00000     90.00000    101.56941
%ENDBLOCK LATTICE_ABC

%BLOCK POSITIONS_FRAC
  Li   0.0000000   0.5000000  -0.0000000 SPIN=   0.00000
  Li  -0.0000000  -0.5000000  -0.5000000 SPIN=   0.00000
   O  -0.4279557  -0.3097628  -0.0859068 SPIN=   0.00000
   O   0.1462391  -0.1357438   0.0872346 SPIN=   0.00000
   O   0.4279557   0.3097628  -0.5859068 SPIN=   0.00000
   O  -0.1462391   0.1357438  -0.4127654 SPIN=   0.00000
   O   0.4279557   0.3097628   0.0859068 SPIN=   0.00000
   O  -0.1462391   0.1357438  -0.0872346 SPIN=   0.00000
   O  -0.4279557  -0.3097628   0.5859068 SPIN=   0.00000
   O   0.1462391  -0.1357438   0.4127654 SPIN=   0.00000
   P  -0.2057372  -0.2198510  -0.2500000 SPIN=   0.00000
   P   0.2057372   0.2198510   0.2500000 SPIN=   0.00000
  Fe   0.4023437   0.1589665  -0.2500000 SPIN=   4.00000
  Fe  -0.4023437  -0.1589665   0.2500000 SPIN=   4.00000
%ENDBLOCK POSITIONS_FRAC

# Note: total spin =   8.00

KPOINTS_MP_SPACING 0.07

%BLOCK SPECIES_POT
QC5
%ENDBLOCK SPECIES_POT

%BLOCK HUBBARD_U
Fe d:4.0
%ENDBLOCK HUBBARD_U

SNAP_TO_SYMMETRY
SYMMETRY_GENERATE

