#              Generated by Buildcell
#
# at 23:35:11 (GMT+0.0) 23rd November 2020
# in /lustre/scratch/uccabz1/launch_tmp
# on node-c12i-026
# by uccabz1
#
# compiler GCC version 4.9.2
# options -cpp -iprefix /lustre/shared/ucl/apps/gcc/4.9.2/bin/../lib/gcc/x86_64-unknown-linux-gnu/4.9.2/ -mtune=corei7 -march=x86-64 -g -Og
#
# seed -1842220196  1423903736 -1907625187  -463886556  1361207283 -1752930033  1845173197  -233829642  -443254605 -1381841117 -1249414914   308964438
#
#      Author: C. J. Pickard (cjp20@cam.ac.uk)
#                Space group: P-1
#

%BLOCK LATTICE_ABC
      3.91870      6.37472      7.36487
    109.02431     99.46157    106.43808
%ENDBLOCK LATTICE_ABC

%BLOCK POSITIONS_FRAC
  Li  -0.1049512  -0.2800499  -0.4497309 SPIN=   0.00000
  Li   0.1049512   0.2800499   0.4497309 SPIN=   0.00000
   O   0.3708941   0.5270878   0.3367583 SPIN=   0.00000
   O   0.1267619   0.1897322  -0.0192636 SPIN=   0.00000
   O   0.7851016   0.4544078   0.0988798 SPIN=   0.00000
   O   0.5673873   0.1604145   0.2509373 SPIN=   0.00000
   P   0.4588940   0.3412139   0.1768685 SPIN=   0.00000
   O  -0.3708941  -0.5270878  -0.3367583 SPIN=   0.00000
   O  -0.1267619  -0.1897322   0.0192636 SPIN=   0.00000
   O  -0.7851016  -0.4544078  -0.0988798 SPIN=   0.00000
   O  -0.5673873  -0.1604145  -0.2509373 SPIN=   0.00000
   P  -0.4588940  -0.3412139  -0.1768685 SPIN=   0.00000
  Fe   0.3389619  -0.1968474   0.2123481 SPIN=   4.00000
  Fe  -0.3389619   0.1968474  -0.2123481 SPIN=   4.00000
%ENDBLOCK POSITIONS_FRAC

# Note: total spin =   8.00

KPOINTS_MP_SPACING 0.07

%BLOCK SPECIES_POT
QC5
%ENDBLOCK SPECIES_POT

%BLOCK HUBBARD_U
Fe d:4.0
%ENDBLOCK HUBBARD_U

SNAP_TO_SYMMETRY
SYMMETRY_GENERATE

