#              Generated by Buildcell
#
# at 01:19:39 (GMT+0.0) 24th November 2020
# in /lustre/scratch/uccabz1/launch_tmp
# on node-c12o-027
# by uccabz1
#
# compiler GCC version 4.9.2
# options -cpp -iprefix /lustre/shared/ucl/apps/gcc/4.9.2/bin/../lib/gcc/x86_64-unknown-linux-gnu/4.9.2/ -mtune=corei7 -march=x86-64 -g -Og
#
# seed -1705446426  1634251405  1134411669  -231776595 -1905415210  1560497964   909085408  -392772476  1837799793 -1670924910   816167260  -553756110
#
#      Author: C. J. Pickard (cjp20@cam.ac.uk)
#                Space group: P-1
#

%BLOCK LATTICE_ABC
      4.73300      4.78950      7.63136
    104.34730     91.12370    106.43369
%ENDBLOCK LATTICE_ABC

%BLOCK POSITIONS_FRAC
  Li   0.7011174   0.3229979  -0.4565287 SPIN=   0.00000
  Li  -0.7011174  -0.3229979   0.4565287 SPIN=   0.00000
   O  -0.2628074   0.0870718  -0.0688541 SPIN=   0.00000
   O  -0.3781374  -0.4963977  -0.1627326 SPIN=   0.00000
   O  -0.7435032  -0.2748461  -0.2636695 SPIN=   0.00000
   O  -0.2601090  -0.2129001  -0.4002619 SPIN=   0.00000
   P  -0.4014590  -0.2075566  -0.2177067 SPIN=   0.00000
   O   0.2628074  -0.0870718   0.0688541 SPIN=   0.00000
   O   0.3781374   0.4963977   0.1627326 SPIN=   0.00000
   O   0.7435032   0.2748461   0.2636695 SPIN=   0.00000
   O   0.2601090   0.2129001   0.4002619 SPIN=   0.00000
   P   0.4014590   0.2075566   0.2177067 SPIN=   0.00000
  Fe   0.1787881   0.2141052  -0.1773034 SPIN=   4.00000
  Fe  -0.1787881  -0.2141052   0.1773034 SPIN=   4.00000
%ENDBLOCK POSITIONS_FRAC

# Note: total spin =   8.00

KPOINTS_MP_SPACING 0.07

%BLOCK SPECIES_POT
QC5
%ENDBLOCK SPECIES_POT

%BLOCK HUBBARD_U
Fe d:4.0
%ENDBLOCK HUBBARD_U

SNAP_TO_SYMMETRY
SYMMETRY_GENERATE

