#              Generated by Buildcell
#
# at 21:26:03 (GMT+0.0) 23rd November 2020
# in /lustre/scratch/uccabz1/launch_tmp
# on node-c12l-023
# by uccabz1
#
# compiler GCC version 4.9.2
# options -cpp -iprefix /lustre/shared/ucl/apps/gcc/4.9.2/bin/../lib/gcc/x86_64-unknown-linux-gnu/4.9.2/ -mtune=corei7 -march=x86-64 -g -Og
#
# seed -1336464016 -1414668813  -620354192   754858239   553755565 -2078053577   884039438  1756082586 -1037469167  -276968451   626651049  -509857186
#
#      Author: C. J. Pickard (cjp20@cam.ac.uk)
#                Space group: P-1
#

%BLOCK LATTICE_ABC
      4.58386      5.70671      6.32972
     87.09595     75.84044     85.66934
%ENDBLOCK LATTICE_ABC

%BLOCK POSITIONS_FRAC
  Li   0.4022822   0.2574122   0.4729992 SPIN=   0.00000
  Li  -0.4022822  -0.2574122  -0.4729992 SPIN=   0.00000
   O  -0.1880104   0.5317623   0.1743601 SPIN=   0.00000
   O   0.3257803   0.2983053   0.1573704 SPIN=   0.00000
   O  -0.0675201   0.2845381   0.5022692 SPIN=   0.00000
   O  -0.1333033   0.0778504   0.1789062 SPIN=   0.00000
   P  -0.0263217   0.3079553   0.2481501 SPIN=   0.00000
   O   0.1880104  -0.5317623  -0.1743601 SPIN=   0.00000
   O  -0.3257803  -0.2983053  -0.1573704 SPIN=   0.00000
   O   0.0675201  -0.2845381  -0.5022692 SPIN=   0.00000
   O   0.1333033  -0.0778504  -0.1789062 SPIN=   0.00000
   P   0.0263217  -0.3079553  -0.2481501 SPIN=   0.00000
  Fe   0.2268503  -0.2411367   0.1384607 SPIN=   4.00000
  Fe  -0.2268503   0.2411367  -0.1384607 SPIN=   4.00000
%ENDBLOCK POSITIONS_FRAC

# Note: total spin =   8.00

KPOINTS_MP_SPACING 0.07

%BLOCK SPECIES_POT
QC5
%ENDBLOCK SPECIES_POT

%BLOCK HUBBARD_U
Fe d:4.0
%ENDBLOCK HUBBARD_U

SNAP_TO_SYMMETRY
SYMMETRY_GENERATE

