#              Generated by Buildcell
#
# at 01:12:41 (GMT+0.0) 24th November 2020
# in /lustre/scratch/uccabz1/launch_tmp
# on node-c12c-034
# by uccabz1
#
# compiler GCC version 4.9.2
# options -cpp -iprefix /lustre/shared/ucl/apps/gcc/4.9.2/bin/../lib/gcc/x86_64-unknown-linux-gnu/4.9.2/ -mtune=corei7 -march=x86-64 -g -Og
#
# seed  1329926169 -1116159775 -1603296113  -257877878   113685009 -1911055378 -1786960723  -675639842  1308247721  1884400811    47054353    -3686500
#
#      Author: C. J. Pickard (cjp20@cam.ac.uk)
#                Space group: Cm
#

%BLOCK LATTICE_ABC
      5.61856      5.98725      6.18905
    116.63797    114.59785     94.46610
%ENDBLOCK LATTICE_ABC

%BLOCK POSITIONS_FRAC
  Li  -0.4925189  -0.3417807   0.0000000 SPIN=   0.00000
  Li  -0.1628822   0.0841752  -0.0000000 SPIN=   0.00000
   O  -1.1468450  -0.4702852  -0.7422788 SPIN=   0.00000
   O  -0.8546272  -0.7360280  -0.5763608 SPIN=   0.00000
   O  -0.6469911  -0.2508425  -0.3135344 SPIN=   0.00000
   O  -1.0320029  -0.4470126  -0.2813318 SPIN=   0.00000
   P  -0.9335091  -0.4753930  -0.4901026 SPIN=   0.00000
   O  -0.4045662   0.2719936   0.7422788 SPIN=   0.00000
   O  -0.2782665  -0.1596673   0.5763608 SPIN=   0.00000
   O  -0.3334567   0.0626918   0.3135344 SPIN=   0.00000
   O  -0.7506711  -0.1656808   0.2813318 SPIN=   0.00000
   P  -0.4434065   0.0147096   0.4901026 SPIN=   0.00000
  Fe   0.5133574   0.4459694   0.4092954 SPIN=   4.00000
  Fe   0.1040620   0.0366740  -0.4092954 SPIN=   4.00000
%ENDBLOCK POSITIONS_FRAC

# Note: total spin =   8.00

KPOINTS_MP_SPACING 0.07

%BLOCK SPECIES_POT
QC5
%ENDBLOCK SPECIES_POT

%BLOCK HUBBARD_U
Fe d:4.0
%ENDBLOCK HUBBARD_U

SNAP_TO_SYMMETRY
SYMMETRY_GENERATE

