#              Generated by Buildcell
#
# at 04:11:51 (GMT+0.0) 24th November 2020
# in /scratch/scratch/uccabz1/launch_tmp
# on node-a14f-013
# by uccabz1
#
# compiler GCC version 4.9.2
# options -cpp -iprefix /scratch/UCL/applications/gcc/4.9.2/bin/../lib/gcc/x86_64-unknown-linux-gnu/4.9.2/ -mtune=corei7 -march=x86-64 -g -O2
#
# seed   215758412   729735763  1338957922  1248336467 -1965216708   534831747  1422781251  1612213822  -603234931  1946721637  2112117798  1192284473
#
#      Author: C. J. Pickard (cjp20@cam.ac.uk)
#                Space group: P-1
#

%BLOCK LATTICE_ABC
      4.95591      5.38168      6.41803
     85.20762     84.34372     70.15780
%ENDBLOCK LATTICE_ABC

%BLOCK POSITIONS_FRAC
  Li   0.5000000  -0.5000000  -0.0000000 SPIN=   0.00000
  Li   0.5000000  -0.5000000   0.5000000 SPIN=   0.00000
   O   0.2743189   0.0533782  -0.0972775 SPIN=   0.00000
   O   0.2927023   0.2149632  -0.4896878 SPIN=   0.00000
   O  -0.1785677   0.3399055  -0.2855940 SPIN=   0.00000
   O   0.1851926   0.5442537  -0.2131780 SPIN=   0.00000
   P   0.1508748   0.2786486  -0.2614739 SPIN=   0.00000
   O  -0.2743189  -0.0533782   0.0972775 SPIN=   0.00000
   O  -0.2927023  -0.2149632   0.4896878 SPIN=   0.00000
   O   0.1785677  -0.3399055   0.2855940 SPIN=   0.00000
   O  -0.1851926  -0.5442537   0.2131780 SPIN=   0.00000
   P  -0.1508748  -0.2786486   0.2614739 SPIN=   0.00000
  Fe  -0.1930335  -0.0673048  -0.2305935 SPIN=   4.00000
  Fe   0.1930335   0.0673048   0.2305935 SPIN=   4.00000
%ENDBLOCK POSITIONS_FRAC

# Note: total spin =   8.00

KPOINTS_MP_SPACING 0.07

%BLOCK SPECIES_POT
QC5
%ENDBLOCK SPECIES_POT

%BLOCK HUBBARD_U
Fe d:4.0
%ENDBLOCK HUBBARD_U

SNAP_TO_SYMMETRY
SYMMETRY_GENERATE

