#              Generated by Buildcell
#
# at 00:35:23 (GMT+0.0) 24th November 2020
# in /lustre/scratch/uccabz1/launch_tmp
# on node-c12m-034
# by uccabz1
#
# compiler GCC version 4.9.2
# options -cpp -iprefix /lustre/shared/ucl/apps/gcc/4.9.2/bin/../lib/gcc/x86_64-unknown-linux-gnu/4.9.2/ -mtune=corei7 -march=x86-64 -g -Og
#
# seed   772577128  -125384794   700535868  1008433698 -1941941770 -1391972216  -148778949 -1186925108  -780122043 -1221118773 -1184094003  1795918055
#
#      Author: C. J. Pickard (cjp20@cam.ac.uk)
#                Space group: C2
#

%BLOCK LATTICE_ABC
      4.55751      4.55751      8.05253
     78.76235     78.76235     81.95517
%ENDBLOCK LATTICE_ABC

%BLOCK POSITIONS_FRAC
  Li  -0.2816161  -0.2705586   0.4708892 SPIN=   0.00000
  Li   0.2705586   0.2816161  -0.4708892 SPIN=   0.00000
   O  -0.2930874   0.0957589   0.1749610 SPIN=   0.00000
   O  -0.0575015   0.3472262   0.3735038 SPIN=   0.00000
   O  -0.0929078   0.6199321   0.0800994 SPIN=   0.00000
   O  -0.5618736   0.5628995   0.2999797 SPIN=   0.00000
   P  -0.2572299   0.3917574   0.2298924 SPIN=   0.00000
   O  -0.0957589   0.2930874  -0.1749610 SPIN=   0.00000
   O  -0.3472262   0.0575015  -0.3735038 SPIN=   0.00000
   O  -0.6199321   0.0929078  -0.0800994 SPIN=   0.00000
   O  -0.5628995   0.5618736  -0.2999797 SPIN=   0.00000
   P  -0.3917574   0.2572299  -0.2298924 SPIN=   0.00000
  Fe   0.2744057  -0.0103947   0.1858018 SPIN=   4.00000
  Fe   0.0103947  -0.2744057  -0.1858018 SPIN=   4.00000
%ENDBLOCK POSITIONS_FRAC

# Note: total spin =   8.00

KPOINTS_MP_SPACING 0.07

%BLOCK SPECIES_POT
QC5
%ENDBLOCK SPECIES_POT

%BLOCK HUBBARD_U
Fe d:4.0
%ENDBLOCK HUBBARD_U

SNAP_TO_SYMMETRY
SYMMETRY_GENERATE

