#              Generated by Buildcell
#
# at 04:53:41 (GMT+0.0) 24th November 2020
# in /scratch/scratch/uccabz1/launch_tmp
# on node-a14e-014
# by uccabz1
#
# compiler GCC version 4.9.2
# options -cpp -iprefix /scratch/UCL/applications/gcc/4.9.2/bin/../lib/gcc/x86_64-unknown-linux-gnu/4.9.2/ -mtune=corei7 -march=x86-64 -g -O2
#
# seed  1666100276  1798815234 -1915683123  -531234983   777945067 -1339936993 -1342834129 -1956700101 -1080394345  1396216078   525653864  -781625815
#
#      Author: C. J. Pickard (cjp20@cam.ac.uk)
#                Space group: C2/c
#

%BLOCK LATTICE_ABC
      5.28451      5.28451      6.32166
    102.58304    102.58304    104.22151
%ENDBLOCK LATTICE_ABC

%BLOCK POSITIONS_FRAC
  Li   0.5000000   0.0000000   0.0000000 SPIN=   0.00000
  Li  -0.5000000   0.0000000  -0.5000000 SPIN=   0.00000
   O   0.1005487  -0.1741975   0.0587297 SPIN=   0.00000
   O   0.0105582  -0.1384717  -0.3528320 SPIN=   0.00000
   O  -0.3258025  -0.6005487  -0.5587297 SPIN=   0.00000
   O  -0.3615283  -0.5105582  -0.1471680 SPIN=   0.00000
   O  -0.1005487   0.1741975  -0.0587297 SPIN=   0.00000
   O  -0.0105582   0.1384717   0.3528320 SPIN=   0.00000
   O   0.3258025   0.6005487   0.5587297 SPIN=   0.00000
   O   0.3615283   0.5105582   0.1471680 SPIN=   0.00000
   P   0.2079341   0.2920659   0.2500000 SPIN=   0.00000
   P  -0.2079341  -0.2920659  -0.2500000 SPIN=   0.00000
  Fe  -0.1500345   0.6500345   0.2500000 SPIN=   4.00000
  Fe   0.1500345  -0.6500345  -0.2500000 SPIN=   4.00000
%ENDBLOCK POSITIONS_FRAC

# Note: total spin =   8.00

KPOINTS_MP_SPACING 0.07

%BLOCK SPECIES_POT
QC5
%ENDBLOCK SPECIES_POT

%BLOCK HUBBARD_U
Fe d:4.0
%ENDBLOCK HUBBARD_U

SNAP_TO_SYMMETRY
SYMMETRY_GENERATE

