#              Generated by Buildcell
#
# at 22:38:48 (GMT+0.0) 23rd November 2020
# in /lustre/scratch/uccabz1/launch_tmp
# on node-c12e-033
# by uccabz1
#
# compiler GCC version 4.9.2
# options -cpp -iprefix /lustre/shared/ucl/apps/gcc/4.9.2/bin/../lib/gcc/x86_64-unknown-linux-gnu/4.9.2/ -mtune=corei7 -march=x86-64 -g -Og
#
# seed -1975377310  1218195886  1709764399  -276714496  -503965706   847244708   604169555  2130586392  1374377323  -838933933  1418633556 -1514637167
#
#      Author: C. J. Pickard (cjp20@cam.ac.uk)
#                Space group: C2221
#

%BLOCK LATTICE_ABC
      4.71901      4.97317      7.74485
     90.00000     90.00000    118.32332
%ENDBLOCK LATTICE_ABC

%BLOCK POSITIONS_FRAC
  Li   0.1953422   0.3906843   0.0000000 SPIN=   0.00000
  Li  -0.1953422  -0.3906843  -0.5000000 SPIN=   0.00000
   O  -0.7455954  -0.9982519   0.0540089 SPIN=   0.00000
   O  -0.1986989  -0.5515908   0.1536004 SPIN=   0.00000
   O   0.7455954   0.9982519  -0.4459911 SPIN=   0.00000
   O   0.1986989   0.5515908  -0.3463996 SPIN=   0.00000
   O   0.2526565   0.9982519   0.4459911 SPIN=   0.00000
   O   0.3528919   0.5515908   0.3463996 SPIN=   0.00000
   O  -0.2526565  -0.9982519  -0.0540089 SPIN=   0.00000
   O  -0.3528919  -0.5515908  -0.1536004 SPIN=   0.00000
   P  -0.1324271  -0.2648542  -0.0000000 SPIN=   0.00000
   P   0.1324271   0.2648542  -0.5000000 SPIN=   0.00000
  Fe   0.4380299  -0.0000000  -0.2500000 SPIN=   4.00000
  Fe  -0.4380299   0.0000000   0.2500000 SPIN=   4.00000
%ENDBLOCK POSITIONS_FRAC

# Note: total spin =   8.00

KPOINTS_MP_SPACING 0.07

%BLOCK SPECIES_POT
QC5
%ENDBLOCK SPECIES_POT

%BLOCK HUBBARD_U
Fe d:4.0
%ENDBLOCK HUBBARD_U

SNAP_TO_SYMMETRY
SYMMETRY_GENERATE

