#              Generated by Buildcell
#
# at 23:12:43 (GMT+0.0) 23rd November 2020
# in /scratch/scratch/uccabz1/launch_tmp
# on node-a14a-017
# by uccabz1
#
# compiler GCC version 4.9.2
# options -cpp -iprefix /scratch/UCL/applications/gcc/4.9.2/bin/../lib/gcc/x86_64-unknown-linux-gnu/4.9.2/ -mtune=corei7 -march=x86-64 -g -O2
#
# seed   250266461  1669301328   -41074690   116994786   472744692 -1368312390 -1468281378   905742155  1164308004 -1482608089  1789061050 -1865253743
#
#      Author: C. J. Pickard (cjp20@cam.ac.uk)
#                Space group: P-1
#

%BLOCK LATTICE_ABC
      4.02335      5.45229      8.12704
    106.33545     93.94588    108.29582
%ENDBLOCK LATTICE_ABC

%BLOCK POSITIONS_FRAC
  Li  -0.6724695  -0.3055829  -0.0372552 SPIN=   0.00000
  Li   0.6724695   0.3055829   0.0372552 SPIN=   0.00000
   O  -0.5975737  -0.2648321   0.4754536 SPIN=   0.00000
   O  -0.1197844  -0.3001554   0.2794920 SPIN=   0.00000
   O  -0.7502183  -0.5645127   0.1502359 SPIN=   0.00000
   O  -0.5287269  -0.0561027   0.2256794 SPIN=   0.00000
   P  -0.5046702  -0.2918841   0.2923045 SPIN=   0.00000
   O   0.5975737   0.2648321  -0.4754536 SPIN=   0.00000
   O   0.1197844   0.3001554  -0.2794920 SPIN=   0.00000
   O   0.7502183   0.5645127  -0.1502359 SPIN=   0.00000
   O   0.5287269   0.0561027  -0.2256794 SPIN=   0.00000
   P   0.5046702   0.2918841  -0.2923045 SPIN=   0.00000
  Fe   0.1569963   0.1751714   0.3250657 SPIN=   4.00000
  Fe  -0.1569963  -0.1751714  -0.3250657 SPIN=   4.00000
%ENDBLOCK POSITIONS_FRAC

# Note: total spin =   8.00

KPOINTS_MP_SPACING 0.07

%BLOCK SPECIES_POT
QC5
%ENDBLOCK SPECIES_POT

%BLOCK HUBBARD_U
Fe d:4.0
%ENDBLOCK HUBBARD_U

SNAP_TO_SYMMETRY
SYMMETRY_GENERATE

