#              Generated by Buildcell
#
# at 02:05:47 (GMT+0.0) 24th November 2020
# in /lustre/scratch/uccabz1/launch_tmp
# on node-c12e-023
# by uccabz1
#
# compiler GCC version 4.9.2
# options -cpp -iprefix /lustre/shared/ucl/apps/gcc/4.9.2/bin/../lib/gcc/x86_64-unknown-linux-gnu/4.9.2/ -mtune=corei7 -march=x86-64 -g -Og
#
# seed   673011168 -2126344202 -1125104947 -1306829027  -974659856 -1777206183  1364942024 -1943955940  -756184346   115383792  1816764365 -1144145561
#
#      Author: C. J. Pickard (cjp20@cam.ac.uk)
#                Space group: C2
#

%BLOCK LATTICE_ABC
      5.00714      5.99715      5.99715
     88.49435     70.83240     70.83240
%ENDBLOCK LATTICE_ABC

%BLOCK POSITIONS_FRAC
  Li   0.0000000  -0.0094980   0.0094980 SPIN=   0.00000
  Li   0.5000000   0.4901873  -0.4901873 SPIN=   0.00000
   O  -0.5170669  -0.1169921  -0.1814454 SPIN=   0.00000
   O  -0.2359330   0.1646990  -0.3961000 SPIN=   0.00000
   O   0.0613622  -0.2546638  -0.3926023 SPIN=   0.00000
   O  -0.2755534  -0.1501303  -0.6371566 SPIN=   0.00000
   P  -0.2568529  -0.0914659  -0.3928691 SPIN=   0.00000
   O   0.5170669   0.1814454   0.1169921 SPIN=   0.00000
   O   0.2359330   0.3961000  -0.1646990 SPIN=   0.00000
   O  -0.0613622   0.3926023   0.2546638 SPIN=   0.00000
   O   0.2755534   0.6371566   0.1501303 SPIN=   0.00000
   P   0.2568529   0.3928691   0.0914659 SPIN=   0.00000
  Fe  -0.2493925  -0.4388671  -0.0610597 SPIN=   4.00000
  Fe   0.2493925   0.0610597   0.4388671 SPIN=   4.00000
%ENDBLOCK POSITIONS_FRAC

# Note: total spin =   8.00

KPOINTS_MP_SPACING 0.07

%BLOCK SPECIES_POT
QC5
%ENDBLOCK SPECIES_POT

%BLOCK HUBBARD_U
Fe d:4.0
%ENDBLOCK HUBBARD_U

SNAP_TO_SYMMETRY
SYMMETRY_GENERATE

