#              Generated by Buildcell
#
# at 00:42:11 (GMT+0.0) 24th November 2020
# in /lustre/scratch/uccabz1/launch_tmp
# on node-c12e-023
# by uccabz1
#
# compiler GCC version 4.9.2
# options -cpp -iprefix /lustre/shared/ucl/apps/gcc/4.9.2/bin/../lib/gcc/x86_64-unknown-linux-gnu/4.9.2/ -mtune=corei7 -march=x86-64 -g -Og
#
# seed  1124774719  -970211656   868197672   253285339  1388334795  1516389482  1457575874  -523209099  -357714009  -988130534  1223835409  1539867751
#
#      Author: C. J. Pickard (cjp20@cam.ac.uk)
#                Space group: C2
#

%BLOCK LATTICE_ABC
      5.49333      5.55651      5.55651
     91.96266    103.26354    103.26354
%ENDBLOCK LATTICE_ABC

%BLOCK POSITIONS_FRAC
  Li   0.0915737   0.3661630   0.0668881 SPIN=   0.00000
  Li  -0.0915737  -0.0668881  -0.3661630 SPIN=   0.00000
   O   0.1772820  -0.3527335  -0.3531443 SPIN=   0.00000
   O   0.2073758   0.0742403  -0.5359527 SPIN=   0.00000
   O   0.5950293   0.0036866  -0.2488267 SPIN=   0.00000
   P   0.3470565  -0.1369071  -0.4506512 SPIN=   0.00000
   O  -0.1772820   0.3531443   0.3527335 SPIN=   0.00000
   O  -0.2073758   0.5359527  -0.0742403 SPIN=   0.00000
   O  -0.5950293   0.2488267  -0.0036866 SPIN=   0.00000
   P  -0.3470565   0.4506512   0.1369071 SPIN=   0.00000
   O  -0.5000000  -0.3469513   0.3469513 SPIN=   0.00000
   O  -0.0000000  -0.0247647   0.0247647 SPIN=   0.00000
  Fe  -0.5000000  -0.0872584   0.0872584 SPIN=   5.62799
  Fe   0.5000000   0.3933916  -0.3933916 SPIN=   2.37201
%ENDBLOCK POSITIONS_FRAC

# Note: total spin =   8.00

KPOINTS_MP_SPACING 0.07

%BLOCK SPECIES_POT
QC5
%ENDBLOCK SPECIES_POT

%BLOCK HUBBARD_U
Fe d:4.0
%ENDBLOCK HUBBARD_U

SNAP_TO_SYMMETRY
SYMMETRY_GENERATE

