#              Generated by Buildcell
#
# at 23:10:27 (GMT+0.0) 23rd November 2020
# in /lustre/scratch/uccabz1/launch_tmp
# on node-c12h-025
# by uccabz1
#
# compiler GCC version 4.9.2
# options -cpp -iprefix /lustre/shared/ucl/apps/gcc/4.9.2/bin/../lib/gcc/x86_64-unknown-linux-gnu/4.9.2/ -mtune=corei7 -march=x86-64 -g -Og
#
# seed   -56684950  -681700920 -1195752564   304963100   279988363   498308921  -581613119 -2053404021  1743197530  -522473532 -2085789510  -432220515
#
#      Author: C. J. Pickard (cjp20@cam.ac.uk)
#                Space group: Cm
#

%BLOCK LATTICE_ABC
      5.34500      5.70294      6.54337
    115.81952    114.08995     90.03399
%ENDBLOCK LATTICE_ABC

%BLOCK POSITIONS_FRAC
  Li  -0.6552463  -0.3896462   0.0000000 SPIN=   0.00000
  Li  -0.1627763   0.0522006   0.0000000 SPIN=   0.00000
   O  -0.2558235  -0.0052026  -0.3649747 SPIN=   0.00000
   O  -0.7860667  -0.2292379  -0.6508665 SPIN=   0.00000
   O  -0.5430540  -0.2492034  -0.2485250 SPIN=   0.00000
   O  -0.6366295   0.1863901  -0.2346771 SPIN=   0.00000
   O   0.1091512   0.3597722   0.3649747 SPIN=   0.00000
   O  -0.1352002   0.4216286   0.6508665 SPIN=   0.00000
   O  -0.2945290  -0.0006784   0.2485250 SPIN=   0.00000
   O  -0.4019524   0.4210672   0.2346771 SPIN=   0.00000
   P  -0.1553053  -0.4171535   0.0000000 SPIN=   0.00000
   P   0.3436512   0.1357846  -0.0000000 SPIN=   0.00000
  Fe  -0.0312321  -0.2900993  -0.4893680 SPIN=   4.00000
  Fe   0.4581359   0.1992687   0.4893680 SPIN=   4.00000
%ENDBLOCK POSITIONS_FRAC

# Note: total spin =   8.00

KPOINTS_MP_SPACING 0.07

%BLOCK SPECIES_POT
QC5
%ENDBLOCK SPECIES_POT

%BLOCK HUBBARD_U
Fe d:4.0
%ENDBLOCK HUBBARD_U

SNAP_TO_SYMMETRY
SYMMETRY_GENERATE

