#              Generated by Buildcell
#
# at 04:41:32 (GMT+0.0) 24th November 2020
# in /lustre/scratch/uccabz1/launch_tmp
# on node-c12f-031
# by uccabz1
#
# compiler GCC version 4.9.2
# options -cpp -iprefix /lustre/shared/ucl/apps/gcc/4.9.2/bin/../lib/gcc/x86_64-unknown-linux-gnu/4.9.2/ -mtune=corei7 -march=x86-64 -g -Og
#
# seed  -602866099  -661377764  1999940095 -1460253833  1975544971 -2112743787  1916747451  1419286157   202759569   633347958 -1901945612  -979988025
#
#      Author: C. J. Pickard (cjp20@cam.ac.uk)
#                Space group: P-1
#

%BLOCK LATTICE_ABC
      5.25946      5.75551      6.06864
    102.77515     91.14480    115.71611
%ENDBLOCK LATTICE_ABC

%BLOCK POSITIONS_FRAC
  Li   0.0000000  -0.5000000  -0.0000000 SPIN=   0.00000
  Li   0.0000000  -0.5000000  -0.5000000 SPIN=   0.00000
   O  -0.0837584   0.1252517  -0.2141370 SPIN=   0.00000
   O  -0.2718683  -0.3222745  -0.5258120 SPIN=   0.00000
   O  -0.2987044  -0.3378916  -0.1230942 SPIN=   0.00000
   P  -0.3094799  -0.1679025  -0.2902517 SPIN=   0.00000
   O   0.0837584  -0.1252517   0.2141370 SPIN=   0.00000
   O   0.2718683   0.3222745   0.5258120 SPIN=   0.00000
   O   0.2987044   0.3378916   0.1230942 SPIN=   0.00000
   P   0.3094799   0.1679025   0.2902517 SPIN=   0.00000
   O   0.5000000   0.0000000  -0.5000000 SPIN=   0.00000
   O  -0.5000000   0.0000000  -0.0000000 SPIN=   0.00000
  Fe   0.3250695   0.1413283  -0.2238517 SPIN=   4.00000
  Fe  -0.3250695  -0.1413283   0.2238517 SPIN=   4.00000
%ENDBLOCK POSITIONS_FRAC

# Note: total spin =   8.00

KPOINTS_MP_SPACING 0.07

%BLOCK SPECIES_POT
QC5
%ENDBLOCK SPECIES_POT

%BLOCK HUBBARD_U
Fe d:4.0
%ENDBLOCK HUBBARD_U

SNAP_TO_SYMMETRY
SYMMETRY_GENERATE

