#              Generated by Buildcell
#
# at 04:47:17 (GMT+0.0) 24th November 2020
# in /lustre/scratch/uccabz1/launch_tmp
# on node-c12c-026
# by uccabz1
#
# compiler GCC version 4.9.2
# options -cpp -iprefix /lustre/shared/ucl/apps/gcc/4.9.2/bin/../lib/gcc/x86_64-unknown-linux-gnu/4.9.2/ -mtune=corei7 -march=x86-64 -g -Og
#
# seed    90629803   208744194  1088779169 -1213723790  1811925682  1020079390  1848096197   273609285 -1172305562   649351906  1082763077  -769456706
#
#      Author: C. J. Pickard (cjp20@cam.ac.uk)
#                Space group: P21
#

%BLOCK LATTICE_ABC
      3.92005      5.77167      7.14518
     90.00000     98.22116     90.00000
%ENDBLOCK LATTICE_ABC

%BLOCK POSITIONS_FRAC
  Li  -0.3902742  -0.3285792  -0.4623787 SPIN=   0.00000
  Li   0.3902742   0.1714208   0.4623787 SPIN=   0.00000
   O  -0.1500481  -0.3017663  -0.1608787 SPIN=   0.00000
   O   0.3947635  -0.0468652  -0.0701402 SPIN=   0.00000
   O   0.1937204  -0.1187803  -0.4087228 SPIN=   0.00000
   O  -0.1511577   0.1387191  -0.2247916 SPIN=   0.00000
   P   0.0573748  -0.0912587  -0.2132934 SPIN=   0.00000
   O   0.1500481   0.1982337   0.1608787 SPIN=   0.00000
   O  -0.3947635   0.4531348   0.0701402 SPIN=   0.00000
   O  -0.1937204   0.3812197   0.4087228 SPIN=   0.00000
   O   0.1511577   0.6387191   0.2247916 SPIN=   0.00000
   P  -0.0573748   0.4087413   0.2132934 SPIN=   0.00000
  Fe   0.1897740   0.4144422  -0.1481430 SPIN=   4.00000
  Fe  -0.1897740  -0.0855578   0.1481430 SPIN=   4.00000
%ENDBLOCK POSITIONS_FRAC

# Note: total spin =   8.00

KPOINTS_MP_SPACING 0.07

%BLOCK SPECIES_POT
QC5
%ENDBLOCK SPECIES_POT

%BLOCK HUBBARD_U
Fe d:4.0
%ENDBLOCK HUBBARD_U

SNAP_TO_SYMMETRY
SYMMETRY_GENERATE

