#              Generated by Buildcell
#
# at 04:22:55 (GMT+0.0) 24th November 2020
# in /lustre/scratch/uccabz1/launch_tmp
# on node-c12c-023
# by uccabz1
#
# compiler GCC version 4.9.2
# options -cpp -iprefix /lustre/shared/ucl/apps/gcc/4.9.2/bin/../lib/gcc/x86_64-unknown-linux-gnu/4.9.2/ -mtune=corei7 -march=x86-64 -g -Og
#
# seed  -860818418   680562140   954866514  1143298808   897046816  -424102596 -2001682944 -1733530411  -555737675    19855669 -1213561258  1971300416
#
#      Author: C. J. Pickard (cjp20@cam.ac.uk)
#                Space group: Pc
#

%BLOCK LATTICE_ABC
      4.35003      4.64064      8.07195
     90.00000     90.00000    100.91482
%ENDBLOCK LATTICE_ABC

%BLOCK POSITIONS_FRAC
  Li   0.3406939   0.2959476  -0.0533187 SPIN=   0.00000
  Li  -0.1593061  -0.2040524   0.0533187 SPIN=   0.00000
   O   0.0106711   0.0793291   0.3079696 SPIN=   0.00000
   O  -0.4946571   0.1457590   0.4630124 SPIN=   0.00000
   O  -0.3382009   0.4454577   0.2133353 SPIN=   0.00000
   O  -0.5406400  -0.0943573   0.1839367 SPIN=   0.00000
   P  -0.3243571   0.1377878   0.2916344 SPIN=   0.00000
   O   0.5106711  -0.4206709  -0.3079696 SPIN=   0.00000
   O   0.0053429  -0.3542410  -0.4630124 SPIN=   0.00000
   O   0.1617991  -0.0545423  -0.2133353 SPIN=   0.00000
   O  -0.0406400  -0.5943573  -0.1839367 SPIN=   0.00000
   P   0.1756429  -0.3622122  -0.2916344 SPIN=   0.00000
  Fe  -0.2293748   0.0485425  -0.3353288 SPIN=   4.00000
  Fe   0.2706252  -0.4514575   0.3353288 SPIN=   4.00000
%ENDBLOCK POSITIONS_FRAC

# Note: total spin =   8.00

KPOINTS_MP_SPACING 0.07

%BLOCK SPECIES_POT
QC5
%ENDBLOCK SPECIES_POT

%BLOCK HUBBARD_U
Fe d:4.0
%ENDBLOCK HUBBARD_U

SNAP_TO_SYMMETRY
SYMMETRY_GENERATE

