#              Generated by Buildcell
#
# at 02:10:36 (GMT+0.0) 24th November 2020
# in /scratch/scratch/uccabz1/launch_tmp
# on node-a14a-001
# by uccabz1
#
# compiler GCC version 4.9.2
# options -cpp -iprefix /scratch/UCL/applications/gcc/4.9.2/bin/../lib/gcc/x86_64-unknown-linux-gnu/4.9.2/ -mtune=corei7 -march=x86-64 -g -O2
#
# seed -1013742709  1892560018  1278485027   826040662 -1859773813  1126005166  1898472878   -42597518  -779384223  1688170785 -1030703482  1389688998
#
#      Author: C. J. Pickard (cjp20@cam.ac.uk)
#                Space group: Cc
#

%BLOCK LATTICE_ABC
      4.70788      4.70788      7.55429
     77.85561     77.85561     86.51706
%ENDBLOCK LATTICE_ABC

%BLOCK POSITIONS_FRAC
  Li  -0.0471464  -0.2133412  -0.2270088 SPIN=   0.00000
  Li  -0.2133412  -0.0471464   0.2729912 SPIN=   0.00000
   O  -0.6493718  -0.2182574   0.2307872 SPIN=   0.00000
   O  -0.4708382  -0.7153084   0.1465380 SPIN=   0.00000
   O  -0.5247862  -0.3009021  -0.1065485 SPIN=   0.00000
   O  -0.1226559  -0.3041197   0.0645107 SPIN=   0.00000
   P  -0.4491916  -0.3748372   0.0914192 SPIN=   0.00000
   O  -0.2182574  -0.6493718  -0.2692128 SPIN=   0.00000
   O  -0.7153084  -0.4708382  -0.3534620 SPIN=   0.00000
   O  -0.3009021  -0.5247862  -0.6065485 SPIN=   0.00000
   O  -0.3041197  -0.1226559  -0.4354893 SPIN=   0.00000
   P  -0.3748372  -0.4491916  -0.4085808 SPIN=   0.00000
  Fe   0.3509680   0.1905708  -0.0667251 SPIN=   4.00000
  Fe   0.1905708   0.3509680   0.4332749 SPIN=   4.00000
%ENDBLOCK POSITIONS_FRAC

# Note: total spin =   8.00

KPOINTS_MP_SPACING 0.07

%BLOCK SPECIES_POT
QC5
%ENDBLOCK SPECIES_POT

%BLOCK HUBBARD_U
Fe d:4.0
%ENDBLOCK HUBBARD_U

SNAP_TO_SYMMETRY
SYMMETRY_GENERATE

