#              Generated by Buildcell
#
# at 02:56:13 (GMT+0.0) 24th November 2020
# in /lustre/scratch/uccabz1/launch_tmp
# on node-c12o-023
# by uccabz1
#
# compiler GCC version 4.9.2
# options -cpp -iprefix /lustre/shared/ucl/apps/gcc/4.9.2/bin/../lib/gcc/x86_64-unknown-linux-gnu/4.9.2/ -mtune=corei7 -march=x86-64 -g -Og
#
# seed  -127899046  1995367488 -2119354427   392645134  -416477608  1338250650  1652076200 -1515215605 -1465052971 -1972829937 -1985585685  1119987004
#
#      Author: C. J. Pickard (cjp20@cam.ac.uk)
#                Space group: P-1
#

%BLOCK LATTICE_ABC
      3.87776      4.73961      8.81424
     91.88337     98.29157     92.68261
%ENDBLOCK LATTICE_ABC

%BLOCK POSITIONS_FRAC
  Li   0.2366921  -0.2431776   0.4950822 SPIN=   0.00000
  Li  -0.2366921   0.2431776  -0.4950822 SPIN=   0.00000
   O   0.1779713   0.0588201   0.3247774 SPIN=   0.00000
   O  -0.4069920   0.0401563   0.1383515 SPIN=   0.00000
   O   0.0562701  -0.2673350   0.0782298 SPIN=   0.00000
   O  -0.2590915  -0.3742503   0.3000538 SPIN=   0.00000
   P  -0.0945196  -0.1281132   0.2175043 SPIN=   0.00000
   O  -0.1779713  -0.0588201  -0.3247774 SPIN=   0.00000
   O   0.4069920  -0.0401563  -0.1383515 SPIN=   0.00000
   O  -0.0562701   0.2673350  -0.0782298 SPIN=   0.00000
   O   0.2590915   0.3742503  -0.3000538 SPIN=   0.00000
   P   0.0945196   0.1281132  -0.2175043 SPIN=   0.00000
  Fe  -0.2974943  -0.3843598  -0.1795032 SPIN=   4.00000
  Fe   0.2974943   0.3843598   0.1795032 SPIN=   4.00000
%ENDBLOCK POSITIONS_FRAC

# Note: total spin =   8.00

KPOINTS_MP_SPACING 0.07

%BLOCK SPECIES_POT
QC5
%ENDBLOCK SPECIES_POT

%BLOCK HUBBARD_U
Fe d:4.0
%ENDBLOCK HUBBARD_U

SNAP_TO_SYMMETRY
SYMMETRY_GENERATE

