#              Generated by Buildcell
#
# at 03:20:09 (GMT+0.0) 24th November 2020
# in /lustre/scratch/uccabz1/launch_tmp
# on node-c12c-030
# by uccabz1
#
# compiler GCC version 4.9.2
# options -cpp -iprefix /lustre/shared/ucl/apps/gcc/4.9.2/bin/../lib/gcc/x86_64-unknown-linux-gnu/4.9.2/ -mtune=corei7 -march=x86-64 -g -Og
#
# seed -1443363077 -1322034442 -2091376938 -1399250874   916590432  -829093582   156176311   333978135  1514569426 -1351784302 -1829867025 -1005391424
#
#      Author: C. J. Pickard (cjp20@cam.ac.uk)
#                Space group: P21
#

%BLOCK LATTICE_ABC
      3.91969      5.56192      7.81773
    110.15247     90.00000     90.00000
%ENDBLOCK LATTICE_ABC

%BLOCK POSITIONS_FRAC
  Li   0.1279626   0.7210650   0.4534665 SPIN=   0.00000
  Li  -0.3720374  -0.7210650  -0.4534665 SPIN=   0.00000
   O   0.7561497  -0.1770926   0.0559949 SPIN=   0.00000
   O   0.2604482   0.0941064   0.2484204 SPIN=   0.00000
   O   0.2443256  -0.3752439   0.1719695 SPIN=   0.00000
   O   0.6753060  -0.1155663   0.3963871 SPIN=   0.00000
   P   0.5008019  -0.1449113   0.2116596 SPIN=   0.00000
   O   0.2561497   0.1770926  -0.0559949 SPIN=   0.00000
   O  -0.2395518  -0.0941064  -0.2484204 SPIN=   0.00000
   O  -0.2556744   0.3752439  -0.1719695 SPIN=   0.00000
   O   0.1753060   0.1155663  -0.3963871 SPIN=   0.00000
   P   0.0008019   0.1449113  -0.2116596 SPIN=   0.00000
  Fe  -0.3463053   0.3142387   0.1326540 SPIN=   4.00000
  Fe   0.1536947  -0.3142387  -0.1326540 SPIN=   4.00000
%ENDBLOCK POSITIONS_FRAC

# Note: total spin =   8.00

KPOINTS_MP_SPACING 0.07

%BLOCK SPECIES_POT
QC5
%ENDBLOCK SPECIES_POT

%BLOCK HUBBARD_U
Fe d:4.0
%ENDBLOCK HUBBARD_U

SNAP_TO_SYMMETRY
SYMMETRY_GENERATE

