#              Generated by Buildcell
#
# at 02:54:48 (GMT+0.0) 24th November 2020
# in /scratch/scratch/uccabz1/launch_tmp
# on node-a14f-013
# by uccabz1
#
# compiler GCC version 4.9.2
# options -cpp -iprefix /scratch/UCL/applications/gcc/4.9.2/bin/../lib/gcc/x86_64-unknown-linux-gnu/4.9.2/ -mtune=corei7 -march=x86-64 -g -O2
#
# seed  -533975534  -920584967 -1000940233   436816829  -739248004   159506558  1269366063   -51077002 -1200979060   229968238   522314479 -1808171837
#
#      Author: C. J. Pickard (cjp20@cam.ac.uk)
#                Space group: Pcc2
#

%BLOCK LATTICE_ABC
      4.19609      4.86338      7.84038
     90.00000     90.00000     90.00000
%ENDBLOCK LATTICE_ABC

%BLOCK POSITIONS_FRAC
  Li   0.0000000  -0.0000000   0.1799150 SPIN=   0.00000
  Li   0.0000000   0.0000000  -0.3200850 SPIN=   0.00000
   O  -0.2255868  -0.1631204  -0.0907397 SPIN=   0.00000
   O   0.2891228  -0.3136335   0.0680283 SPIN=   0.00000
   O   0.2255868   0.1631204  -0.0907397 SPIN=   0.00000
   O  -0.2891228   0.3136335   0.0680283 SPIN=   0.00000
   O   0.2255868  -0.1631204   0.4092603 SPIN=   0.00000
   O  -0.2891228  -0.3136335   0.5680283 SPIN=   0.00000
   O  -0.2255868   0.1631204   0.4092603 SPIN=   0.00000
   O   0.2891228   0.3136335   0.5680283 SPIN=   0.00000
   P   0.0000000   0.5000000   0.0319071 SPIN=   0.00000
   P   0.0000000   0.5000000  -0.4680929 SPIN=   0.00000
  Fe   0.5000000   0.5000000   0.2820460 SPIN=   4.00000
  Fe   0.5000000  -0.5000000  -0.2179540 SPIN=   4.00000
%ENDBLOCK POSITIONS_FRAC

# Note: total spin =   8.00

KPOINTS_MP_SPACING 0.07

%BLOCK SPECIES_POT
QC5
%ENDBLOCK SPECIES_POT

%BLOCK HUBBARD_U
Fe d:4.0
%ENDBLOCK HUBBARD_U

SNAP_TO_SYMMETRY
SYMMETRY_GENERATE

