#              Generated by Buildcell
#
# at 01:06:59 (GMT+0.0) 24th November 2020
# in /lustre/scratch/uccabz1/launch_tmp
# on node-c12n-026
# by uccabz1
#
# compiler GCC version 4.9.2
# options -cpp -iprefix /lustre/shared/ucl/apps/gcc/4.9.2/bin/../lib/gcc/x86_64-unknown-linux-gnu/4.9.2/ -mtune=corei7 -march=x86-64 -g -Og
#
# seed   638266323 -1044155332   945126991   233360894  1199675952 -1046519391  1370261101  1884301694 -1635333962   780178378   855799477  1183121206
#
#      Author: C. J. Pickard (cjp20@cam.ac.uk)
#                Space group: C2
#

%BLOCK LATTICE_ABC
      5.85495      5.85495      6.04938
    102.29258    115.61541    109.47171
%ENDBLOCK LATTICE_ABC

%BLOCK POSITIONS_FRAC
  Li   0.4600076   0.4600076  -0.0000000 SPIN=   0.00000
  Li  -0.4543801   0.0456199  -0.5000000 SPIN=   0.00000
   O   0.5584473   0.0490875   1.1603195 SPIN=   0.00000
   O   0.2443960  -0.3977409   0.7304058 SPIN=   0.00000
   O   0.2902262   0.0173990   0.6734134 SPIN=   0.00000
   P   0.4611735  -0.0901942   0.8653966 SPIN=   0.00000
   O  -1.1112319  -0.6018722  -1.1603195 SPIN=   0.00000
   O  -1.1281467  -0.4860098  -0.7304058 SPIN=   0.00000
   O  -0.6560143  -0.3831872  -0.6734134 SPIN=   0.00000
   P  -0.9555909  -0.4042231  -0.8653966 SPIN=   0.00000
   O   0.1466843   0.1466843   0.0000000 SPIN=   0.00000
   O  -0.2219830  -0.2219830   0.0000000 SPIN=   0.00000
  Fe  -0.1405868  -0.3059073  -0.3338898 SPIN=   4.00000
  Fe   0.0279825   0.1933030   0.3338898 SPIN=   4.00000
%ENDBLOCK POSITIONS_FRAC

# Note: total spin =   8.00

KPOINTS_MP_SPACING 0.07

%BLOCK SPECIES_POT
QC5
%ENDBLOCK SPECIES_POT

%BLOCK HUBBARD_U
Fe d:4.0
%ENDBLOCK HUBBARD_U

SNAP_TO_SYMMETRY
SYMMETRY_GENERATE

