#              Generated by Buildcell
#
# at 00:25:24 (GMT+0.0) 24th November 2020
# in /lustre/scratch/uccabz1/launch_tmp
# on node-c12j-029
# by uccabz1
#
# compiler GCC version 4.9.2
# options -cpp -iprefix /lustre/shared/ucl/apps/gcc/4.9.2/bin/../lib/gcc/x86_64-unknown-linux-gnu/4.9.2/ -mtune=corei7 -march=x86-64 -g -Og
#
# seed  1168629761  1159744358   163298861 -1348599396  1330788289   644468309 -1669641743  1638957469  -543952943   968071840  1811778834  1708287954
#
#      Author: C. J. Pickard (cjp20@cam.ac.uk)
#                Space group: Aea2
#

%BLOCK LATTICE_ABC
      5.35169      5.35169      6.01233
     90.00000     90.00000    111.69407
%ENDBLOCK LATTICE_ABC

%BLOCK POSITIONS_FRAC
  Li   0.3954539  -0.3954539  -0.0000000 SPIN=   0.00000
  Li  -0.1045461   0.1045461   0.5000000 SPIN=   0.00000
   O  -0.0256663  -0.2279744  -0.3270379 SPIN=   0.00000
   O  -0.0195811  -0.6628212  -0.1390704 SPIN=   0.00000
   O   0.2279744   0.0256663   0.3270379 SPIN=   0.00000
   O   0.6628212   0.0195811   0.1390704 SPIN=   0.00000
   O  -0.2720256  -0.4743337   0.1729621 SPIN=   0.00000
   O   0.1628212  -0.4804189   0.3609296 SPIN=   0.00000
   O   0.4743337   0.2720256  -0.1729621 SPIN=   0.00000
   O   0.4804189  -0.1628212  -0.3609296 SPIN=   0.00000
   P   0.2072048  -0.2072048   0.5000000 SPIN=   0.00000
   P  -0.2927952   0.2927952  -0.0000000 SPIN=   0.00000
  Fe   0.0325667  -0.0325667  -0.0000000 SPIN=   4.00000
  Fe  -0.4674333   0.4674333   0.5000000 SPIN=   4.00000
%ENDBLOCK POSITIONS_FRAC

# Note: total spin =   8.00

KPOINTS_MP_SPACING 0.07

%BLOCK SPECIES_POT
QC5
%ENDBLOCK SPECIES_POT

%BLOCK HUBBARD_U
Fe d:4.0
%ENDBLOCK HUBBARD_U

SNAP_TO_SYMMETRY
SYMMETRY_GENERATE

