#              Generated by Buildcell
#
# at 04:59:13 (GMT+0.0) 24th November 2020
# in /scratch/scratch/uccabz1/launch_tmp
# on node-a14a-017
# by uccabz1
#
# compiler GCC version 4.9.2
# options -cpp -iprefix /scratch/UCL/applications/gcc/4.9.2/bin/../lib/gcc/x86_64-unknown-linux-gnu/4.9.2/ -mtune=corei7 -march=x86-64 -g -O2
#
# seed -1078341224   276196021  1376608118   865569160  -491832454  1183816751  -137715410  1236511675 -1802186747 -1816166769  1631959388  -213297369
#
#      Author: C. J. Pickard (cjp20@cam.ac.uk)
#                Space group: Pc
#

%BLOCK LATTICE_ABC
      5.02804      5.39618      6.36382
    112.08118     90.00000     90.00000
%ENDBLOCK LATTICE_ABC

%BLOCK POSITIONS_FRAC
  Li  -0.2109533   0.4227470  -0.1872050 SPIN=   0.00000
  Li   0.2109533  -0.0772530   0.3127950 SPIN=   0.00000
   O  -0.1645386   0.0815034   0.4337457 SPIN=   0.00000
   O  -0.0882550  -0.0024486   0.0086275 SPIN=   0.00000
   O  -0.3923949  -0.3037827   0.1045060 SPIN=   0.00000
   O  -0.5301268   0.1691419   0.1849895 SPIN=   0.00000
   P  -0.2897333  -0.0066569   0.1963437 SPIN=   0.00000
   O   0.1645386   0.5815034  -0.0662543 SPIN=   0.00000
   O   0.0882550   0.4975514  -0.4913725 SPIN=   0.00000
   O   0.3923949   0.1962173  -0.3954940 SPIN=   0.00000
   O   0.5301268   0.6691419  -0.3150105 SPIN=   0.00000
   P   0.2897333   0.4933431  -0.3036563 SPIN=   0.00000
  Fe   0.2891870   0.0605291  -0.1393036 SPIN=   4.00000
  Fe  -0.2891870  -0.4394709   0.3606964 SPIN=   4.00000
%ENDBLOCK POSITIONS_FRAC

# Note: total spin =   8.00

KPOINTS_MP_SPACING 0.07

%BLOCK SPECIES_POT
QC5
%ENDBLOCK SPECIES_POT

%BLOCK HUBBARD_U
Fe d:4.0
%ENDBLOCK HUBBARD_U

SNAP_TO_SYMMETRY
SYMMETRY_GENERATE

