#              Generated by Buildcell
#
# at 22:21:34 (GMT+0.0) 23rd November 2020
# in /lustre/scratch/uccabz1/launch_tmp
# on node-c12c-030
# by uccabz1
#
# compiler GCC version 4.9.2
# options -cpp -iprefix /lustre/shared/ucl/apps/gcc/4.9.2/bin/../lib/gcc/x86_64-unknown-linux-gnu/4.9.2/ -mtune=corei7 -march=x86-64 -g -Og
#
# seed -1696746366  1006301957  1642719336  1776414985   806776609   -39317522  -942841544   664901389  1779878841  -566950615 -1835724206  1355387716
#
#      Author: C. J. Pickard (cjp20@cam.ac.uk)
#                Space group: Cc
#

%BLOCK LATTICE_ABC
      4.51585      5.09168      7.77393
     88.69564     87.05760     63.67556
%ENDBLOCK LATTICE_ABC

%BLOCK POSITIONS_FRAC
  Li   0.3734103   0.3822314   0.1761918 SPIN=   0.00000
  Li  -0.2443584  -0.3822314  -0.3238082 SPIN=   0.00000
   O  -0.2797128  -0.0060346   0.0563761 SPIN=   0.00000
   O  -0.2077648  -0.3423833   0.3230401 SPIN=   0.00000
   O  -0.7215616  -0.1746668   0.1654328 SPIN=   0.00000
   O  -0.1872375  -0.5418975   0.0288404 SPIN=   0.00000
   P  -0.3434665  -0.2556436   0.1374354 SPIN=   0.00000
   O   0.7142527   0.0060346  -0.4436239 SPIN=   0.00000
   O   0.4498519   0.3423833  -0.1769599 SPIN=   0.00000
   O   0.1037716   0.1746668  -0.3345672 SPIN=   0.00000
   O   0.2708650   0.5418975  -0.4711596 SPIN=   0.00000
   P   0.4008899   0.2556436  -0.3625646 SPIN=   0.00000
  Fe   0.1421750  -0.0334327   0.4208775 SPIN=   4.00000
  Fe   0.1087424   0.0334327  -0.0791225 SPIN=   4.00000
%ENDBLOCK POSITIONS_FRAC

# Note: total spin =   8.00

KPOINTS_MP_SPACING 0.07

%BLOCK SPECIES_POT
QC5
%ENDBLOCK SPECIES_POT

%BLOCK HUBBARD_U
Fe d:4.0
%ENDBLOCK HUBBARD_U

SNAP_TO_SYMMETRY
SYMMETRY_GENERATE

