#              Generated by Buildcell
#
# at 02:35:20 (GMT+0.0) 24th November 2020
# in /lustre/scratch/uccabz1/launch_tmp
# on node-c12n-022
# by uccabz1
#
# compiler GCC version 4.9.2
# options -cpp -iprefix /lustre/shared/ucl/apps/gcc/4.9.2/bin/../lib/gcc/x86_64-unknown-linux-gnu/4.9.2/ -mtune=corei7 -march=x86-64 -g -Og
#
# seed -1269401590  -746147077 -1366326365  -894554051 -1035911709 -1407685569   665320508 -1558201855 -2143387290 -1004676659  1796985282  -542136064
#
#      Author: C. J. Pickard (cjp20@cam.ac.uk)
#                Space group: Pm
#

%BLOCK LATTICE_ABC
      3.87452      4.68067      9.00213
     90.00000     90.00000    101.46381
%ENDBLOCK LATTICE_ABC

%BLOCK POSITIONS_FRAC
  Li  -0.4601890   0.1892818  -0.5000000 SPIN=   0.00000
  Li  -0.3396382   0.4545762  -0.0000000 SPIN=   0.00000
   O   0.7296065  -0.5502971   0.3150367 SPIN=   0.00000
   O   0.4624855  -0.0834662   0.3069549 SPIN=   0.00000
   O   0.2222791  -0.4882094   0.1367931 SPIN=   0.00000
   P   0.3943848  -0.4253155   0.2947104 SPIN=   0.00000
   O   0.7296065  -0.5502971  -0.3150367 SPIN=   0.00000
   O   0.4624855  -0.0834662  -0.3069549 SPIN=   0.00000
   O   0.2222791  -0.4882094  -0.1367931 SPIN=   0.00000
   P   0.3943848  -0.4253155  -0.2947104 SPIN=   0.00000
   O  -0.0090364  -0.0051861  -0.5000000 SPIN=   0.00000
   O   0.2277470  -0.4626263   0.5000000 SPIN=   0.00000
  Fe  -0.0028525   0.0101469  -0.2170891 SPIN=   4.00000
  Fe  -0.0028525   0.0101469   0.2170891 SPIN=   4.00000
%ENDBLOCK POSITIONS_FRAC

# Note: total spin =   8.00

KPOINTS_MP_SPACING 0.07

%BLOCK SPECIES_POT
QC5
%ENDBLOCK SPECIES_POT

%BLOCK HUBBARD_U
Fe d:4.0
%ENDBLOCK HUBBARD_U

SNAP_TO_SYMMETRY
SYMMETRY_GENERATE

