#              Generated by Buildcell
#
# at 01:01:35 (GMT+0.0) 24th November 2020
# in /lustre/scratch/uccabz1/launch_tmp
# on node-c12a-027
# by uccabz1
#
# compiler GCC version 4.9.2
# options -cpp -iprefix /lustre/shared/ucl/apps/gcc/4.9.2/bin/../lib/gcc/x86_64-unknown-linux-gnu/4.9.2/ -mtune=corei7 -march=x86-64 -g -Og
#
# seed  -298055546   305826907  1128758597   -26051212 -1329616112  -582732954   114410644  1745785963  -547952497  1204102954   763169158  -863657479
#
#      Author: C. J. Pickard (cjp20@cam.ac.uk)
#                Space group: P2
#

%BLOCK LATTICE_ABC
      4.50239      4.50461      8.19065
    105.59935     90.00000     90.00000
%ENDBLOCK LATTICE_ABC

%BLOCK POSITIONS_FRAC
  Li   0.2019829   0.0000000  -0.0000000 SPIN=   0.00000
  Li  -0.3628604  -0.5000000  -0.0000000 SPIN=   0.00000
   O  -0.3942478  -0.4799717  -0.2530779 SPIN=   0.00000
   O  -0.1648807   0.0665800  -0.1422557 SPIN=   0.00000
   O  -0.0725913  -0.2217433  -0.4399248 SPIN=   0.00000
   O  -0.5814535  -0.0150639  -0.3522742 SPIN=   0.00000
   P  -0.3114188  -0.1777104  -0.2952044 SPIN=   0.00000
   O  -0.3942478   0.4799717   0.2530779 SPIN=   0.00000
   O  -0.1648807  -0.0665800   0.1422557 SPIN=   0.00000
   O  -0.0725913   0.2217433   0.4399248 SPIN=   0.00000
   O  -0.5814535   0.0150639   0.3522742 SPIN=   0.00000
   P  -0.3114188   0.1777104   0.2952044 SPIN=   0.00000
  Fe   0.1272059   0.3551941  -0.3010871 SPIN=   4.00000
  Fe   0.1272059  -0.3551941   0.3010871 SPIN=   4.00000
%ENDBLOCK POSITIONS_FRAC

# Note: total spin =   8.00

KPOINTS_MP_SPACING 0.07

%BLOCK SPECIES_POT
QC5
%ENDBLOCK SPECIES_POT

%BLOCK HUBBARD_U
Fe d:4.0
%ENDBLOCK HUBBARD_U

SNAP_TO_SYMMETRY
SYMMETRY_GENERATE

