#              Generated by Buildcell
#
# at 05:49:31 (GMT+0.0) 24th November 2020
# in /lustre/scratch/uccabz1/launch_tmp
# on node-c12g-028
# by uccabz1
#
# compiler GCC version 4.9.2
# options -cpp -iprefix /lustre/shared/ucl/apps/gcc/4.9.2/bin/../lib/gcc/x86_64-unknown-linux-gnu/4.9.2/ -mtune=corei7 -march=x86-64 -g -Og
#
# seed -1849076466   928007292  -386963357 -1227046299 -1742127239 -1069106386   811045148  1527723327  -349393441 -1477116852  -225575577 -1603844062
#
#      Author: C. J. Pickard (cjp20@cam.ac.uk)
#                Space group: P-1
#

%BLOCK LATTICE_ABC
      4.02586      5.67855      7.79429
    108.18846     92.09618    107.27178
%ENDBLOCK LATTICE_ABC

%BLOCK POSITIONS_FRAC
  Li  -0.1717349   0.1430125   0.1753568 SPIN=   0.00000
  Li   0.1717349  -0.1430125  -0.1753568 SPIN=   0.00000
   O  -0.0087523   0.2270395  -0.0589900 SPIN=   0.00000
   O   0.0263847   0.3879025  -0.3374881 SPIN=   0.00000
   O  -0.1774548  -0.0888715  -0.3949442 SPIN=   0.00000
   O  -0.5638174   0.1756067  -0.2630734 SPIN=   0.00000
   P  -0.1762621   0.1781701  -0.2527217 SPIN=   0.00000
   O   0.0087523  -0.2270395   0.0589900 SPIN=   0.00000
   O  -0.0263847  -0.3879025   0.3374881 SPIN=   0.00000
   O   0.1774548   0.0888715   0.3949442 SPIN=   0.00000
   O   0.5638174  -0.1756067   0.2630734 SPIN=   0.00000
   P   0.1762621  -0.1781701   0.2527217 SPIN=   0.00000
  Fe   0.5000000   0.5000000   0.5000000 SPIN=   3.02701
  Fe   0.5000000   0.5000000   0.0000000 SPIN=   4.97299
%ENDBLOCK POSITIONS_FRAC

# Note: total spin =   8.00

KPOINTS_MP_SPACING 0.07

%BLOCK SPECIES_POT
QC5
%ENDBLOCK SPECIES_POT

%BLOCK HUBBARD_U
Fe d:4.0
%ENDBLOCK HUBBARD_U

SNAP_TO_SYMMETRY
SYMMETRY_GENERATE

