#              Generated by Buildcell
#
# at 05:49:15 (GMT+0.0) 24th November 2020
# in /scratch/scratch/uccabz1/launch_tmp
# on node-k10i-025
# by uccabz1
#
# compiler GCC version 4.9.2
# options -cpp -iprefix /scratch/UCL/applications/gcc/4.9.2/bin/../lib/gcc/x86_64-unknown-linux-gnu/4.9.2/ -mtune=corei7 -march=x86-64 -g -O2
#
# seed   700938307  -117935024  2144677497   486905568   704991317 -1784129287   668264504  -235911469  1340885332  1563361436  -812113618   283250386
#
#      Author: C. J. Pickard (cjp20@cam.ac.uk)
#                Space group: Cc
#

%BLOCK LATTICE_ABC
      4.88795      5.96183      6.58699
    110.95378    104.78799    104.82440
%ENDBLOCK LATTICE_ABC

%BLOCK POSITIONS_FRAC
  Li  -0.1643757   0.0087154  -0.1819809 SPIN=   0.00000
  Li  -0.4823948   0.1906963   0.1819809 SPIN=   0.00000
   O  -0.2078679   0.1969437  -0.3985643 SPIN=   0.00000
   O  -0.5311609   0.2053807  -0.1401384 SPIN=   0.00000
   O  -0.2719874   0.6146686  -0.1478241 SPIN=   0.00000
   O  -0.7213598   0.2577951  -0.5046210 SPIN=   0.00000
   P  -0.4245037   0.3114955  -0.3055937 SPIN=   0.00000
   O   0.6906964  -0.4044920   0.3985643 SPIN=   0.00000
   O   0.1089775  -0.6544810   0.1401384 SPIN=   0.00000
   O   0.3758368  -0.2375073   0.1478241 SPIN=   0.00000
   O   0.2832612  -0.2375839   0.5046210 SPIN=   0.00000
   P   0.3810900  -0.3829108   0.3055937 SPIN=   0.00000
  Fe   0.1712943  -0.4142942  -0.2758956 SPIN=   4.00000
  Fe  -0.0528101  -0.1383987   0.2758956 SPIN=   4.00000
%ENDBLOCK POSITIONS_FRAC

# Note: total spin =   8.00

KPOINTS_MP_SPACING 0.07

%BLOCK SPECIES_POT
QC5
%ENDBLOCK SPECIES_POT

%BLOCK HUBBARD_U
Fe d:4.0
%ENDBLOCK HUBBARD_U

SNAP_TO_SYMMETRY
SYMMETRY_GENERATE

