#              Generated by Buildcell
#
# at 05:26:05 (GMT+0.0) 24th November 2020
# in /lustre/scratch/uccabz1/launch_tmp
# on node-c12c-035
# by uccabz1
#
# compiler GCC version 4.9.2
# options -cpp -iprefix /lustre/shared/ucl/apps/gcc/4.9.2/bin/../lib/gcc/x86_64-unknown-linux-gnu/4.9.2/ -mtune=corei7 -march=x86-64 -g -Og
#
# seed -1714318489  1917184282 -1014109676  1261571875 -1232847905    80792947   -18941447  2103410887  -771853026 -2007194469  -740461415    71027007
#
#      Author: C. J. Pickard (cjp20@cam.ac.uk)
#                Space group: P-1
#

%BLOCK LATTICE_ABC
      4.27815      5.54688      7.35738
     71.07931     80.98258     76.54764
%ENDBLOCK LATTICE_ABC

%BLOCK POSITIONS_FRAC
  Li   0.2866361   0.7995244  -0.4115572 SPIN=   0.00000
  Li  -0.2866361  -0.7995244   0.4115572 SPIN=   0.00000
   O  -0.2242296  -0.2640228  -0.3616132 SPIN=   0.00000
   O   0.0177807  -0.0391378  -0.1722234 SPIN=   0.00000
   O  -0.5118798   0.1726687  -0.2992001 SPIN=   0.00000
   O  -0.4662799  -0.2375653  -0.0226196 SPIN=   0.00000
   P  -0.2943303  -0.1028906  -0.2195208 SPIN=   0.00000
   O   0.2242296   0.2640228   0.3616132 SPIN=   0.00000
   O  -0.0177807   0.0391378   0.1722234 SPIN=   0.00000
   O   0.5118798  -0.1726687   0.2992001 SPIN=   0.00000
   O   0.4662799   0.2375653   0.0226196 SPIN=   0.00000
   P   0.2943303   0.1028906   0.2195208 SPIN=   0.00000
  Fe  -0.1420344   0.3496407  -0.1726886 SPIN=   4.00000
  Fe   0.1420344  -0.3496407   0.1726886 SPIN=   4.00000
%ENDBLOCK POSITIONS_FRAC

# Note: total spin =   8.00

KPOINTS_MP_SPACING 0.07

%BLOCK SPECIES_POT
QC5
%ENDBLOCK SPECIES_POT

%BLOCK HUBBARD_U
Fe d:4.0
%ENDBLOCK HUBBARD_U

SNAP_TO_SYMMETRY
SYMMETRY_GENERATE

