#              Generated by Buildcell
#
# at 05:51:39 (GMT+0.0) 24th November 2020
# in /lustre/scratch/uccabz1/launch_tmp
# on node-c12g-032
# by uccabz1
#
# compiler GCC version 4.9.2
# options -cpp -iprefix /lustre/shared/ucl/apps/gcc/4.9.2/bin/../lib/gcc/x86_64-unknown-linux-gnu/4.9.2/ -mtune=corei7 -march=x86-64 -g -Og
#
# seed  2111880721 -2062820277   485281321 -1608689809  -272856057  -653589120  1546581435  -500772928  1564385520 -1400460764  1906096347  1518061308
#
#      Author: C. J. Pickard (cjp20@cam.ac.uk)
#                Space group: P-1
#

%BLOCK LATTICE_ABC
      5.33541      5.52392      6.07316
    104.58679     90.16957    111.71970
%ENDBLOCK LATTICE_ABC

%BLOCK POSITIONS_FRAC
  Li   0.0000000   0.0000000   0.5000000 SPIN=   0.00000
  Li   0.0000000   0.0000000   0.0000000 SPIN=   0.00000
   O  -0.0028466  -0.3046885   0.1521428 SPIN=   0.00000
   O   0.4941182  -0.2761687   0.1727909 SPIN=   0.00000
   O   0.2946488  -0.1783349   0.5348587 SPIN=   0.00000
   O   0.1317869  -0.6539800   0.2834070 SPIN=   0.00000
   P   0.2159072  -0.3542535   0.2786550 SPIN=   0.00000
   O   0.0028466   0.3046885  -0.1521428 SPIN=   0.00000
   O  -0.4941182   0.2761687  -0.1727909 SPIN=   0.00000
   O  -0.2946488   0.1783349  -0.5348587 SPIN=   0.00000
   O  -0.1317869   0.6539800  -0.2834070 SPIN=   0.00000
   P  -0.2159072   0.3542535  -0.2786550 SPIN=   0.00000
  Fe  -0.3615294   0.3600017   0.2181378 SPIN=   4.00000
  Fe   0.3615294  -0.3600017  -0.2181378 SPIN=   4.00000
%ENDBLOCK POSITIONS_FRAC

# Note: total spin =   8.00

KPOINTS_MP_SPACING 0.07

%BLOCK SPECIES_POT
QC5
%ENDBLOCK SPECIES_POT

%BLOCK HUBBARD_U
Fe d:4.0
%ENDBLOCK HUBBARD_U

SNAP_TO_SYMMETRY
SYMMETRY_GENERATE

