#              Generated by Buildcell
#
# at 01:53:42 (GMT+0.0) 24th November 2020
# in /lustre/scratch/uccabz1/launch_tmp
# on node-c12n-022
# by uccabz1
#
# compiler GCC version 4.9.2
# options -cpp -iprefix /lustre/shared/ucl/apps/gcc/4.9.2/bin/../lib/gcc/x86_64-unknown-linux-gnu/4.9.2/ -mtune=corei7 -march=x86-64 -g -Og
#
# seed  1599427247  -361869557 -1755150222  1761819006   104708729   112599676   871956398   967194140 -1291704168 -1823088693  1083253656 -1880642038
#
#      Author: C. J. Pickard (cjp20@cam.ac.uk)
#                Space group: C2
#

%BLOCK LATTICE_ABC
      5.50707      5.50707      5.94665
     70.72931     70.72931     88.53791
%ENDBLOCK LATTICE_ABC

%BLOCK POSITIONS_FRAC
  Li  -0.4033902  -0.2043905   0.4767580 SPIN=   0.00000
  Li   0.2043905   0.4033902  -0.4767580 SPIN=   0.00000
   O   0.2874119   0.1537206   0.2604362 SPIN=   0.00000
   O  -0.0244896   0.5128704   0.2899698 SPIN=   0.00000
   O   0.1811501   0.4599191  -0.1261615 SPIN=   0.00000
   O  -0.1607626   0.1238616   0.2157733 SPIN=   0.00000
   P   0.0796265   0.3019065   0.1660101 SPIN=   0.00000
   O  -0.1537206  -0.2874119  -0.2604362 SPIN=   0.00000
   O  -0.5128704   0.0244896  -0.2899698 SPIN=   0.00000
   O  -0.4599191  -0.1811501   0.1261615 SPIN=   0.00000
   O  -0.1238616   0.1607626  -0.2157733 SPIN=   0.00000
   P  -0.3019065  -0.0796265  -0.1660101 SPIN=   0.00000
  Fe  -0.3637318   0.3637318   0.0000000 SPIN=   4.61643
  Fe   0.1366704  -0.1366704   0.0000000 SPIN=   3.38357
%ENDBLOCK POSITIONS_FRAC

# Note: total spin =   8.00

KPOINTS_MP_SPACING 0.07

%BLOCK SPECIES_POT
QC5
%ENDBLOCK SPECIES_POT

%BLOCK HUBBARD_U
Fe d:4.0
%ENDBLOCK HUBBARD_U

SNAP_TO_SYMMETRY
SYMMETRY_GENERATE

