#              Generated by Buildcell
#
# at 04:00:40 (GMT+0.0) 24th November 2020
# in /lustre/scratch/uccabz1/launch_tmp
# on node-c12f-020
# by uccabz1
#
# compiler GCC version 4.9.2
# options -cpp -iprefix /lustre/shared/ucl/apps/gcc/4.9.2/bin/../lib/gcc/x86_64-unknown-linux-gnu/4.9.2/ -mtune=corei7 -march=x86-64 -g -Og
#
# seed  1369140574   588050208  1572022040  1978785919   945556737  -518714393 -1069115960  1201466799   -59394391 -1979585645 -1316242483  1533046380
#
#      Author: C. J. Pickard (cjp20@cam.ac.uk)
#                Space group: C2/m
#

%BLOCK LATTICE_ABC
      5.35063      5.35063      6.05834
     80.20651     80.20651     70.59453
%ENDBLOCK LATTICE_ABC

%BLOCK POSITIONS_FRAC
  Li  -0.4726122  -0.4726122   0.2394395 SPIN=   0.00000
  Li   0.4726122   0.4726122  -0.2394395 SPIN=   0.00000
   O   0.4063065  -0.1241867   0.3997454 SPIN=   0.00000
   O   0.1155601  -0.2868220   0.1895283 SPIN=   0.00000
   O   0.1241867  -0.4063065  -0.3997454 SPIN=   0.00000
   O   0.2868220  -0.1155601  -0.1895283 SPIN=   0.00000
   O  -0.4063065   0.1241867  -0.3997454 SPIN=   0.00000
   O  -0.1155601   0.2868220  -0.1895283 SPIN=   0.00000
   O  -0.1241867   0.4063065   0.3997454 SPIN=   0.00000
   O  -0.2868220   0.1155601   0.1895283 SPIN=   0.00000
   P  -0.1735464  -0.1735464   0.3234628 SPIN=   0.00000
   P   0.1735464   0.1735464  -0.3234628 SPIN=   0.00000
  Fe   0.1610366   0.1610366   0.1798572 SPIN=   4.00000
  Fe  -0.1610366  -0.1610366  -0.1798572 SPIN=   4.00000
%ENDBLOCK POSITIONS_FRAC

# Note: total spin =   8.00

KPOINTS_MP_SPACING 0.07

%BLOCK SPECIES_POT
QC5
%ENDBLOCK SPECIES_POT

%BLOCK HUBBARD_U
Fe d:4.0
%ENDBLOCK HUBBARD_U

SNAP_TO_SYMMETRY
SYMMETRY_GENERATE

