#              Generated by Buildcell
#
# at 05:05:49 (GMT+0.0) 24th November 2020
# in /lustre/scratch/uccabz1/launch_tmp
# on node-c12g-028
# by uccabz1
#
# compiler GCC version 4.9.2
# options -cpp -iprefix /lustre/shared/ucl/apps/gcc/4.9.2/bin/../lib/gcc/x86_64-unknown-linux-gnu/4.9.2/ -mtune=corei7 -march=x86-64 -g -Og
#
# seed  1816171515 -1910318965   133668741   -74159993  -124970527  -288407582  1943374183 -1202664460 -1332385275 -1856280666  -922653630 -1913547186
#
#      Author: C. J. Pickard (cjp20@cam.ac.uk)
#                Space group: P-1
#

%BLOCK LATTICE_ABC
      4.26966      5.65704      7.62391
    102.26852    104.66017    108.58395
%ENDBLOCK LATTICE_ABC

%BLOCK POSITIONS_FRAC
  Li  -0.8226153  -0.5192175  -0.1459263 SPIN=   0.00000
  Li   0.8226153   0.5192175   0.1459263 SPIN=   0.00000
   O  -0.2585289  -0.8177515  -0.3685780 SPIN=   0.00000
   O  -0.2451723  -0.4170595  -0.1209477 SPIN=   0.00000
   O  -0.7232916  -0.6127212  -0.4356440 SPIN=   0.00000
   O  -0.7189525  -0.8615258  -0.2003602 SPIN=   0.00000
   O   0.2585289   0.8177515   0.3685780 SPIN=   0.00000
   O   0.2451723   0.4170595   0.1209477 SPIN=   0.00000
   O   0.7232916   0.6127212   0.4356440 SPIN=   0.00000
   O   0.7189525   0.8615258   0.2003602 SPIN=   0.00000
   P  -0.5000000   0.0000000   0.0000000 SPIN=   0.00000
   P   1.0000000   0.5000000   0.5000000 SPIN=   0.00000
  Fe  -0.2542006  -0.1582480  -0.3022349 SPIN=   4.00000
  Fe   0.2542006   0.1582480   0.3022349 SPIN=   4.00000
%ENDBLOCK POSITIONS_FRAC

# Note: total spin =   8.00

KPOINTS_MP_SPACING 0.07

%BLOCK SPECIES_POT
QC5
%ENDBLOCK SPECIES_POT

%BLOCK HUBBARD_U
Fe d:4.0
%ENDBLOCK HUBBARD_U

SNAP_TO_SYMMETRY
SYMMETRY_GENERATE

