#              Generated by Buildcell
#
# at 02:51:50 (GMT+0.0) 24th November 2020
# in /lustre/scratch/uccabz1/launch_tmp
# on node-c12c-023
# by uccabz1
#
# compiler GCC version 4.9.2
# options -cpp -iprefix /lustre/shared/ucl/apps/gcc/4.9.2/bin/../lib/gcc/x86_64-unknown-linux-gnu/4.9.2/ -mtune=corei7 -march=x86-64 -g -Og
#
# seed  1274985103   453798809  -331862320   -29947101  1604897319  -747327080    72282602  1919380829   902175548  1066264210  1651097394 -1972198001
#
#      Author: C. J. Pickard (cjp20@cam.ac.uk)
#                Space group: C2
#

%BLOCK LATTICE_ABC
      5.22495      5.74567      5.74567
     77.59785     75.88124     75.88124
%ENDBLOCK LATTICE_ABC

%BLOCK POSITIONS_FRAC
  Li   0.5000000  -0.3980777   0.3980777 SPIN=   0.00000
  Li   0.5000000   0.1844831  -0.1844831 SPIN=   0.00000
   O  -0.2729042  -0.0796666   0.1948400 SPIN=   0.00000
   O  -0.0185883   0.2744288   0.0058782 SPIN=   0.00000
   O  -0.5162333   0.3714010   0.1011983 SPIN=   0.00000
   O  -0.2628756   0.2439414   0.4408986 SPIN=   0.00000
   P  -0.2678737   0.1879895   0.1892018 SPIN=   0.00000
   O   0.2729042  -0.1948400   0.0796666 SPIN=   0.00000
   O   0.0185883  -0.0058782  -0.2744288 SPIN=   0.00000
   O   0.5162333  -0.1011983  -0.3714010 SPIN=   0.00000
   O   0.2628756  -0.4408986  -0.2439414 SPIN=   0.00000
   P   0.2678737  -0.1892018  -0.1879895 SPIN=   0.00000
  Fe  -0.8158629   0.1706675   0.3850770 SPIN=   4.00000
  Fe   0.8158629  -0.3850770  -0.1706675 SPIN=   4.00000
%ENDBLOCK POSITIONS_FRAC

# Note: total spin =   8.00

KPOINTS_MP_SPACING 0.07

%BLOCK SPECIES_POT
QC5
%ENDBLOCK SPECIES_POT

%BLOCK HUBBARD_U
Fe d:4.0
%ENDBLOCK HUBBARD_U

SNAP_TO_SYMMETRY
SYMMETRY_GENERATE

