#              Generated by Buildcell
#
# at 04:21:18 (GMT+0.0) 24th November 2020
# in /lustre/scratch/uccabz1/launch_tmp
# on node-c12c-035
# by uccabz1
#
# compiler GCC version 4.9.2
# options -cpp -iprefix /lustre/shared/ucl/apps/gcc/4.9.2/bin/../lib/gcc/x86_64-unknown-linux-gnu/4.9.2/ -mtune=corei7 -march=x86-64 -g -Og
#
# seed -1623165168   624912664   303986149 -1903011929   986156224  -735485942   444009915  1764128613  1640665650   732334341  -597704060  1575879127
#
#      Author: C. J. Pickard (cjp20@cam.ac.uk)
#                Space group: C2
#

%BLOCK LATTICE_ABC
      4.93493      5.98107      6.30608
    107.54526     90.00000    114.36484
%ENDBLOCK LATTICE_ABC

%BLOCK POSITIONS_FRAC
  Li  -0.4792016   0.0669554   0.2537743 SPIN=   0.00000
  Li   0.4538430  -0.0669554  -0.2537743 SPIN=   0.00000
   O   0.4301069   0.3008637  -0.1046421 SPIN=   0.00000
   O  -0.1253363   0.2207063  -0.0745341 SPIN=   0.00000
   O   0.1597099   0.4988368  -0.2932449 SPIN=   0.00000
   P   0.1335937   0.2593163  -0.2249343 SPIN=   0.00000
   O   0.1292431  -0.3008637   0.1046421 SPIN=   0.00000
   O  -0.3460426  -0.2207063   0.0745341 SPIN=   0.00000
   O  -0.3391270  -0.4988368   0.2932449 SPIN=   0.00000
   P  -0.1257226  -0.2593163   0.2249343 SPIN=   0.00000
   O   0.2371268  -0.0000000   0.5000000 SPIN=   0.00000
   O  -0.2625336   0.0000000  -0.5000000 SPIN=   0.00000
  Fe   0.2207392   0.4640013   0.2531758 SPIN=   4.00000
  Fe  -0.2432622  -0.4640013  -0.2531758 SPIN=   4.00000
%ENDBLOCK POSITIONS_FRAC

# Note: total spin =   8.00

KPOINTS_MP_SPACING 0.07

%BLOCK SPECIES_POT
QC5
%ENDBLOCK SPECIES_POT

%BLOCK HUBBARD_U
Fe d:4.0
%ENDBLOCK HUBBARD_U

SNAP_TO_SYMMETRY
SYMMETRY_GENERATE

