#              Generated by Buildcell
#
# at 03:18:18 (GMT+0.0) 24th November 2020
# in /lustre/scratch/uccabz1/launch_tmp
# on node-c12n-022
# by uccabz1
#
# compiler GCC version 4.9.2
# options -cpp -iprefix /lustre/shared/ucl/apps/gcc/4.9.2/bin/../lib/gcc/x86_64-unknown-linux-gnu/4.9.2/ -mtune=corei7 -march=x86-64 -g -Og
#
# seed -1423583160   554275924 -1281845423 -1695277203 -1386060374  1761518150   642572663  1659972735  -403625580  1658165467  -274481960   321497684
#
#      Author: C. J. Pickard (cjp20@cam.ac.uk)
#                Space group: Fdd2
#

%BLOCK LATTICE_ABC
      5.63941      5.63941      6.27232
    106.45612    106.45612    111.70656
%ENDBLOCK LATTICE_ABC

%BLOCK POSITIONS_FRAC
  Li   0.0661928  -0.4338072   0.1323855 SPIN=   0.00000
  Li   0.3161928   0.3161928  -0.3676145 SPIN=   0.00000
   O   0.2163644  -0.0430704   0.1171092 SPIN=   0.00000
   O   0.4605697  -0.3069582  -0.0569063 SPIN=   0.00000
   O  -0.0992552   0.1601796   0.1171092 SPIN=   0.00000
   O  -0.5174760   0.2500519  -0.0569063 SPIN=   0.00000
   O  -0.2930704  -0.5336356  -0.3828908 SPIN=   0.00000
   O  -0.5569582  -0.2894303  -0.5569063 SPIN=   0.00000
   O  -0.0898204   0.1507448  -0.3828908 SPIN=   0.00000
   O   0.0000519  -0.2674760  -0.5569063 SPIN=   0.00000
   P   0.3330016  -0.1669984  -0.3339969 SPIN=   0.00000
   P  -0.4169984  -0.4169984   0.1660031 SPIN=   0.00000
  Fe  -0.0967520  -0.0967520  -0.1935040 SPIN=   4.00000
  Fe  -0.3467520   0.1532480   0.3064960 SPIN=   4.00000
%ENDBLOCK POSITIONS_FRAC

# Note: total spin =   8.00

KPOINTS_MP_SPACING 0.07

%BLOCK SPECIES_POT
QC5
%ENDBLOCK SPECIES_POT

%BLOCK HUBBARD_U
Fe d:4.0
%ENDBLOCK HUBBARD_U

SNAP_TO_SYMMETRY
SYMMETRY_GENERATE

