#              Generated by Buildcell
#
# at 01:46:50 (GMT+0.0) 24th November 2020
# in /lustre/scratch/uccabz1/launch_tmp
# on node-c12f-031
# by uccabz1
#
# compiler GCC version 4.9.2
# options -cpp -iprefix /lustre/shared/ucl/apps/gcc/4.9.2/bin/../lib/gcc/x86_64-unknown-linux-gnu/4.9.2/ -mtune=corei7 -march=x86-64 -g -Og
#
# seed   883923019  1118121827  2128628625  -724737263  -577580752   542128528  1933006523   894370714  -304277230   817102210   772970111  -706421896
#
#      Author: C. J. Pickard (cjp20@cam.ac.uk)
#                Space group: P-1
#

%BLOCK LATTICE_ABC
      4.32508      5.98591      6.48570
     80.68187     89.80695     75.10519
%ENDBLOCK LATTICE_ABC

%BLOCK POSITIONS_FRAC
  Li   0.5000000  -0.0000000   0.5000000 SPIN=   0.00000
  Li  -0.5000000   0.0000000   0.0000000 SPIN=   0.00000
   O   0.4225162  -0.2127812  -0.2225793 SPIN=   0.00000
   O  -0.1334818   0.0901793  -0.2733263 SPIN=   0.00000
   O  -0.0684909  -0.2818228  -0.4076212 SPIN=   0.00000
   O  -0.0686718  -0.2843081  -0.0211201 SPIN=   0.00000
   P   0.0571848  -0.1756680  -0.2282260 SPIN=   0.00000
   O  -0.4225162   0.2127812   0.2225793 SPIN=   0.00000
   O   0.1334818  -0.0901793   0.2733263 SPIN=   0.00000
   O   0.0684909   0.2818228   0.4076212 SPIN=   0.00000
   O   0.0686718   0.2843081   0.0211201 SPIN=   0.00000
   P  -0.0571848   0.1756680   0.2282260 SPIN=   0.00000
  Fe   0.2370140  -0.4448157   0.2422481 SPIN=   4.00000
  Fe  -0.2370140   0.4448157  -0.2422481 SPIN=   4.00000
%ENDBLOCK POSITIONS_FRAC

# Note: total spin =   8.00

KPOINTS_MP_SPACING 0.07

%BLOCK SPECIES_POT
QC5
%ENDBLOCK SPECIES_POT

%BLOCK HUBBARD_U
Fe d:4.0
%ENDBLOCK HUBBARD_U

SNAP_TO_SYMMETRY
SYMMETRY_GENERATE

