#              Generated by Buildcell
#
# at 23:42:27 (GMT+0.0) 23rd November 2020
# in /lustre/scratch/uccabz1/launch_tmp
# on node-c12m-036
# by uccabz1
#
# compiler GCC version 4.9.2
# options -cpp -iprefix /lustre/shared/ucl/apps/gcc/4.9.2/bin/../lib/gcc/x86_64-unknown-linux-gnu/4.9.2/ -mtune=corei7 -march=x86-64 -g -Og
#
# seed -1199290182  1992927676  1530604198  -746916109  1606295457 -1103871008  1947179485  -359887223  1926375947   853053780  -691187028 -1441750640
#
#      Author: C. J. Pickard (cjp20@cam.ac.uk)
#                Space group: P-1
#

%BLOCK LATTICE_ABC
      4.18226      6.03944      6.63364
     89.91172     73.35197     85.50276
%ENDBLOCK LATTICE_ABC

%BLOCK POSITIONS_FRAC
  Li   0.0576899  -0.3485323   0.2566816 SPIN=   0.00000
  Li  -0.0576899   0.3485323  -0.2566816 SPIN=   0.00000
   O  -0.3057560   0.1438223  -0.0201696 SPIN=   0.00000
   O  -0.1642424   0.0982684   0.3350439 SPIN=   0.00000
   O   0.1495890   0.3553545   0.0762593 SPIN=   0.00000
   O  -0.4546885   0.4560909   0.2648489 SPIN=   0.00000
   O   0.3057560  -0.1438223   0.0201696 SPIN=   0.00000
   O   0.1642424  -0.0982684  -0.3350439 SPIN=   0.00000
   O  -0.1495890  -0.3553545  -0.0762593 SPIN=   0.00000
   O   0.4546885  -0.4560909  -0.2648489 SPIN=   0.00000
   P   0.5000000   0.5000000   0.5000000 SPIN=   0.00000
   P   0.0000000   0.0000000   0.0000000 SPIN=   0.00000
  Fe   0.3523309   0.1372818   0.2782242 SPIN=   4.00000
  Fe  -0.3523309  -0.1372818  -0.2782242 SPIN=   4.00000
%ENDBLOCK POSITIONS_FRAC

# Note: total spin =   8.00

KPOINTS_MP_SPACING 0.07

%BLOCK SPECIES_POT
QC5
%ENDBLOCK SPECIES_POT

%BLOCK HUBBARD_U
Fe d:4.0
%ENDBLOCK HUBBARD_U

SNAP_TO_SYMMETRY
SYMMETRY_GENERATE

