#              Generated by Buildcell
#
# at 00:08:50 (GMT+0.0) 24th November 2020
# in /scratch/scratch/uccabz1/launch_tmp
# on node-a14f-010
# by uccabz1
#
# compiler GCC version 4.9.2
# options -cpp -iprefix /scratch/UCL/applications/gcc/4.9.2/bin/../lib/gcc/x86_64-unknown-linux-gnu/4.9.2/ -mtune=corei7 -march=x86-64 -g -O2
#
# seed   885974015 -1867663130   207616673  -667213823  -640671817   489780656  -734352976  2023617008  -827281602 -2103695674 -1356944870 -1926176344
#
#      Author: C. J. Pickard (cjp20@cam.ac.uk)
#                Space group: P21
#

%BLOCK LATTICE_ABC
      5.23504      5.44452      6.02063
     90.00000     90.00000    111.18922
%ENDBLOCK LATTICE_ABC

%BLOCK POSITIONS_FRAC
  Li  -0.4877128  -0.0333911   0.3454146 SPIN=   0.00000
  Li   0.4877128   0.0333911  -0.1545854 SPIN=   0.00000
   O   0.0950854  -0.2070581   0.0849602 SPIN=   0.00000
   O  -0.4185851  -0.3528020   0.1940849 SPIN=   0.00000
   O  -0.1637466   0.1184126   0.1173815 SPIN=   0.00000
   O  -0.2774355  -0.2059730  -0.1959317 SPIN=   0.00000
   P  -0.1769468  -0.1647826   0.0490749 SPIN=   0.00000
   O  -0.0950854   0.2070581  -0.4150398 SPIN=   0.00000
   O   0.4185851   0.3528020  -0.3059151 SPIN=   0.00000
   O   0.1637466  -0.1184126  -0.3826185 SPIN=   0.00000
   O   0.2774355   0.2059730  -0.6959317 SPIN=   0.00000
   P   0.1769468   0.1647826  -0.4509251 SPIN=   0.00000
  Fe   0.2019702   0.4324394   0.0482216 SPIN=   4.00000
  Fe  -0.2019702  -0.4324394  -0.4517784 SPIN=   4.00000
%ENDBLOCK POSITIONS_FRAC

# Note: total spin =   8.00

KPOINTS_MP_SPACING 0.07

%BLOCK SPECIES_POT
QC5
%ENDBLOCK SPECIES_POT

%BLOCK HUBBARD_U
Fe d:4.0
%ENDBLOCK HUBBARD_U

SNAP_TO_SYMMETRY
SYMMETRY_GENERATE

