#              Generated by Buildcell
#
# at 01:42:15 (GMT+0.0) 24th November 2020
# in /lustre/scratch/uccabz1/launch_tmp
# on node-c12n-026
# by uccabz1
#
# compiler GCC version 4.9.2
# options -cpp -iprefix /lustre/shared/ucl/apps/gcc/4.9.2/bin/../lib/gcc/x86_64-unknown-linux-gnu/4.9.2/ -mtune=corei7 -march=x86-64 -g -Og
#
# seed  1954944593 -1027400168 -1297976086   790548892   769454669   631047416  1469074554  1319243951 -1304789507  1472807647  -403013043  -777195786
#
#      Author: C. J. Pickard (cjp20@cam.ac.uk)
#                Space group: Pm
#

%BLOCK LATTICE_ABC
      3.92482      3.94055     10.83423
     90.00000     90.00000    107.27870
%ENDBLOCK LATTICE_ABC

%BLOCK POSITIONS_FRAC
  Li   0.3196078  -0.0780881  -0.2982029 SPIN=   0.00000
  Li   0.3196078  -0.0780881   0.2982029 SPIN=   0.00000
   O  -0.3110878  -0.5677361  -0.3045927 SPIN=   0.00000
   O   0.1073482  -0.4228934  -0.1135536 SPIN=   0.00000
   O  -0.2686836  -0.0342925  -0.1583207 SPIN=   0.00000
   P  -0.2628703  -0.4301912  -0.1709640 SPIN=   0.00000
   O  -0.3110878  -0.5677361   0.3045927 SPIN=   0.00000
   O   0.1073482  -0.4228934   0.1135536 SPIN=   0.00000
   O  -0.2686836  -0.0342925   0.1583207 SPIN=   0.00000
   P  -0.2628703  -0.4301912   0.1709640 SPIN=   0.00000
   O   0.3777370   0.1442626  -0.5000000 SPIN=   0.00000
   O  -0.2405226  -0.2376541   0.5000000 SPIN=   0.00000
  Fe   0.4213085   0.0114711   0.0000000 SPIN=   5.58055
  Fe  -0.0684410   0.3153958  -0.5000000 SPIN=   2.41945
%ENDBLOCK POSITIONS_FRAC

# Note: total spin =   8.00

KPOINTS_MP_SPACING 0.07

%BLOCK SPECIES_POT
QC5
%ENDBLOCK SPECIES_POT

%BLOCK HUBBARD_U
Fe d:4.0
%ENDBLOCK HUBBARD_U

SNAP_TO_SYMMETRY
SYMMETRY_GENERATE

