#              Generated by Buildcell
#
# at 19:47:35 (GMT+0.0) 30th November 2020
# in /lustre/scratch/uccabz1/launch_tmp
# on node-c12l-025
# by uccabz1
#
# compiler GCC version 4.9.2
# options -cpp -iprefix /lustre/shared/ucl/apps/gcc/4.9.2/bin/../lib/gcc/x86_64-unknown-linux-gnu/4.9.2/ -mtune=corei7 -march=x86-64 -g -Og
#
# seed -1909573760 -1075791830   953057275 -1337735036  -241067681  -436642625  -840640836  1333408219 -2123738175   848655483  -394917174 -1781626414
#
#      Author: C. J. Pickard (cjp20@cam.ac.uk)
#                Space group: Cc
#

%BLOCK LATTICE_ABC
      4.47382      4.47382      8.37257
    102.01108    102.01108     90.98401
%ENDBLOCK LATTICE_ABC

%BLOCK POSITIONS_FRAC
  Li   0.1305673   0.4603716   0.3243679 SPIN=   0.00000
  Li   0.4603716   0.1305673  -0.1756321 SPIN=   0.00000
   O   0.2027375   0.7095580  -0.0369962 SPIN=   0.00000
   O  -0.2268523   0.4747965   0.0743555 SPIN=   0.00000
   O  -0.0677659   0.1708581  -0.1724313 SPIN=   0.00000
   O   0.2871680   0.2535944   0.1090507 SPIN=   0.00000
   P   0.0598298   0.4168133  -0.0067651 SPIN=   0.00000
   O   0.7095580   0.2027375   0.4630038 SPIN=   0.00000
   O   0.4747965  -0.2268523   0.5743555 SPIN=   0.00000
   O   0.1708581  -0.0677659   0.3275687 SPIN=   0.00000
   O   0.2535944   0.2871680   0.6090507 SPIN=   0.00000
   P   0.4168133   0.0598298   0.4932349 SPIN=   0.00000
  Fe  -0.1238054  -0.4204568  -0.3252493 SPIN=   4.00000
  Fe  -0.4204568  -0.1238054   0.1747507 SPIN=   4.00000
%ENDBLOCK POSITIONS_FRAC

# Note: total spin =   8.00

KPOINTS_MP_SPACING 0.07

%BLOCK SPECIES_POT
QC5
%ENDBLOCK SPECIES_POT

%BLOCK HUBBARD_U
Fe d:4.0
%ENDBLOCK HUBBARD_U

SNAP_TO_SYMMETRY
SYMMETRY_GENERATE

