#              Generated by Buildcell
#
# at 01:00:06 (GMT+0.0) 24th November 2020
# in /lustre/scratch/uccabz1/launch_tmp
# on node-c12i-027
# by uccabz1
#
# compiler GCC version 4.9.2
# options -cpp -iprefix /lustre/shared/ucl/apps/gcc/4.9.2/bin/../lib/gcc/x86_64-unknown-linux-gnu/4.9.2/ -mtune=corei7 -march=x86-64 -g -Og
#
# seed   129687802  1136848969   -38176893  -495625511  1251398167 -2008968699    48331482   637065447 -1770891515 -1844406603 -1492163223  1289468556
#
#      Author: C. J. Pickard (cjp20@cam.ac.uk)
#                Space group: Pnc2
#

%BLOCK LATTICE_ABC
      3.90766      5.41100      7.56704
     90.00000     90.00000     90.00000
%ENDBLOCK LATTICE_ABC

%BLOCK POSITIONS_FRAC
  Li   0.5000000   0.0000000   0.2141838 SPIN=   0.00000
  Li  -0.5000000   0.5000000  -0.2858162 SPIN=   0.00000
   O   0.2394682   0.1705904  -0.2162249 SPIN=   0.00000
   O  -0.2822129   0.1855350  -0.0036394 SPIN=   0.00000
   O  -0.2394682  -0.1705904  -0.2162249 SPIN=   0.00000
   O   0.2822129  -0.1855350  -0.0036394 SPIN=   0.00000
   O   0.2394682   0.3294096   0.2837751 SPIN=   0.00000
   O  -0.2822129   0.3144650   0.4963606 SPIN=   0.00000
   O  -0.2394682  -0.3294096   0.2837751 SPIN=   0.00000
   O   0.2822129  -0.3144650   0.4963606 SPIN=   0.00000
   P   0.0000000  -0.0000000  -0.0543361 SPIN=   0.00000
   P   0.0000000   0.5000000   0.4456639 SPIN=   0.00000
  Fe  -0.0000000  -0.0000000  -0.4325000 SPIN=   4.00000
  Fe  -0.0000000  -0.5000000   0.0675000 SPIN=   4.00000
%ENDBLOCK POSITIONS_FRAC

# Note: total spin =   8.00

KPOINTS_MP_SPACING 0.07

%BLOCK SPECIES_POT
QC5
%ENDBLOCK SPECIES_POT

%BLOCK HUBBARD_U
Fe d:4.0
%ENDBLOCK HUBBARD_U

SNAP_TO_SYMMETRY
SYMMETRY_GENERATE

