#              Generated by Buildcell
#
# at 00:55:54 (GMT+0.0) 24th November 2020
# in /lustre/scratch/uccabz1/launch_tmp
# on node-c12o-022
# by uccabz1
#
# compiler GCC version 4.9.2
# options -cpp -iprefix /lustre/shared/ucl/apps/gcc/4.9.2/bin/../lib/gcc/x86_64-unknown-linux-gnu/4.9.2/ -mtune=corei7 -march=x86-64 -g -Og
#
# seed   835554902  -297384451  -192741635    14575977   308935627  -584756058  -517506358  -281898813  -163914224   468444184  1566779431   560883066
#
#      Author: C. J. Pickard (cjp20@cam.ac.uk)
#                Space group: Cm
#

%BLOCK LATTICE_ABC
      5.16475      5.59230      5.59230
     92.98923     95.00795     95.00795
%ENDBLOCK LATTICE_ABC

%BLOCK POSITIONS_FRAC
  Li   0.1724494   0.1962813   0.1962813 SPIN=   0.00000
  Li   0.3292571  -0.1715740  -0.1715740 SPIN=   0.00000
   O   0.1364889   0.4793227  -0.2076302 SPIN=   0.00000
   O  -0.0879544   0.1625601  -0.5341172 SPIN=   0.00000
   O   0.3917006   0.1867701  -0.4526751 SPIN=   0.00000
   P   0.1368923   0.2249887  -0.3261428 SPIN=   0.00000
   O   0.1364889  -0.2076302   0.4793227 SPIN=   0.00000
   O  -0.0879544  -0.5341172   0.1625601 SPIN=   0.00000
   O   0.3917006  -0.4526751   0.1867701 SPIN=   0.00000
   P   0.1368923  -0.3261428   0.2249887 SPIN=   0.00000
   O  -0.2351624   0.0325899   0.0325899 SPIN=   0.00000
   O  -0.2458533  -0.2910199  -0.2910199 SPIN=   0.00000
  Fe  -0.3328890  -0.1487028   0.3582359 SPIN=   4.00000
  Fe  -0.3328890   0.3582359  -0.1487028 SPIN=   4.00000
%ENDBLOCK POSITIONS_FRAC

# Note: total spin =   8.00

KPOINTS_MP_SPACING 0.07

%BLOCK SPECIES_POT
QC5
%ENDBLOCK SPECIES_POT

%BLOCK HUBBARD_U
Fe d:4.0
%ENDBLOCK HUBBARD_U

SNAP_TO_SYMMETRY
SYMMETRY_GENERATE

