#              Generated by Buildcell
#
# at 04:19:03 (GMT+0.0) 24th November 2020
# in /lustre/scratch/uccabz1/launch_tmp
# on node-c12a-034
# by uccabz1
#
# compiler GCC version 4.9.2
# options -cpp -iprefix /lustre/shared/ucl/apps/gcc/4.9.2/bin/../lib/gcc/x86_64-unknown-linux-gnu/4.9.2/ -mtune=corei7 -march=x86-64 -g -Og
#
# seed   168649479   926988899  1517422423  1672221932  1077670429  1335650721 -1850298806 -2088197677   399630303   927067906  1164876988 -1516832375
#
#      Author: C. J. Pickard (cjp20@cam.ac.uk)
#                Space group: P-1
#

%BLOCK LATTICE_ABC
      4.73478      5.48608      6.65181
    103.74978     94.86379    105.14777
%ENDBLOCK LATTICE_ABC

%BLOCK POSITIONS_FRAC
  Li  -0.0260465   0.2711126   0.1104155 SPIN=   0.00000
  Li   0.0260465  -0.2711126  -0.1104155 SPIN=   0.00000
   O   0.7332471   0.1955658   0.4333547 SPIN=   0.00000
   O   0.2348221  -0.1006902   0.2035711 SPIN=   0.00000
   O   0.2614596   0.3498168   0.3994918 SPIN=   0.00000
   O   0.5300928   0.2807828   0.0919130 SPIN=   0.00000
   P   0.4565887   0.1832979   0.2878929 SPIN=   0.00000
   O  -0.7332471  -0.1955658  -0.4333547 SPIN=   0.00000
   O  -0.2348221   0.1006902  -0.2035711 SPIN=   0.00000
   O  -0.2614596  -0.3498168  -0.3994918 SPIN=   0.00000
   O  -0.5300928  -0.2807828  -0.0919130 SPIN=   0.00000
   P  -0.4565887  -0.1832979  -0.2878929 SPIN=   0.00000
  Fe  -0.3528358  -0.2727417   0.2854537 SPIN=   4.00000
  Fe   0.3528358   0.2727417  -0.2854537 SPIN=   4.00000
%ENDBLOCK POSITIONS_FRAC

# Note: total spin =   8.00

KPOINTS_MP_SPACING 0.07

%BLOCK SPECIES_POT
QC5
%ENDBLOCK SPECIES_POT

%BLOCK HUBBARD_U
Fe d:4.0
%ENDBLOCK HUBBARD_U

SNAP_TO_SYMMETRY
SYMMETRY_GENERATE

