#              Generated by Buildcell
#
# at 04:04:29 (GMT+0.0) 24th November 2020
# in /lustre/scratch/uccabz1/launch_tmp
# on node-c12n-026
# by uccabz1
#
# compiler GCC version 4.9.2
# options -cpp -iprefix /lustre/shared/ucl/apps/gcc/4.9.2/bin/../lib/gcc/x86_64-unknown-linux-gnu/4.9.2/ -mtune=corei7 -march=x86-64 -g -Og
#
# seed   505404223  1464510468  2097320109  1906310619 -1209365544  1026068301  2086266754 -1416247590  -750952930  1917050388    75015770  -598185492
#
#      Author: C. J. Pickard (cjp20@cam.ac.uk)
#                Space group: Fdd2
#

%BLOCK LATTICE_ABC
      5.31385      5.31385      6.78704
    112.75931    112.75931     90.67471
%ENDBLOCK LATTICE_ABC

%BLOCK POSITIONS_FRAC
  Li  -0.3384873  -0.3384873   0.3230255 SPIN=   0.00000
  Li   0.4115127  -0.0884873  -0.1769745 SPIN=   0.00000
   O  -0.1058801   0.0690452   0.4954470 SPIN=   0.00000
   O  -0.2996992  -0.2671096   0.0504122 SPIN=   0.00000
   O   0.6013271   0.4264018   0.4954470 SPIN=   0.00000
   O   0.3501114   0.3175218   0.0504122 SPIN=   0.00000
   O  -0.1809548   0.1441199  -0.0045530 SPIN=   0.00000
   O  -0.5171096  -0.0496992  -0.4495878 SPIN=   0.00000
   O   0.1764018  -0.1486729  -0.0045530 SPIN=   0.00000
   O   0.0675218  -0.3998886  -0.4495878 SPIN=   0.00000
   P  -0.1024094  -0.1024094  -0.2048188 SPIN=   0.00000
   P  -0.3524094   0.1475906   0.2951812 SPIN=   0.00000
  Fe  -0.0106775   0.4893225  -0.0213549 SPIN=   4.00000
  Fe   0.2393225   0.2393225   0.4786451 SPIN=   4.00000
%ENDBLOCK POSITIONS_FRAC

# Note: total spin =   8.00

KPOINTS_MP_SPACING 0.07

%BLOCK SPECIES_POT
QC5
%ENDBLOCK SPECIES_POT

%BLOCK HUBBARD_U
Fe d:4.0
%ENDBLOCK HUBBARD_U

SNAP_TO_SYMMETRY
SYMMETRY_GENERATE

