#              Generated by Buildcell
#
# at 01:28:02 (GMT+0.0) 24th November 2020
# in /lustre/scratch/uccabz1/launch_tmp
# on node-c12j-021
# by uccabz1
#
# compiler GCC version 4.9.2
# options -cpp -iprefix /lustre/shared/ucl/apps/gcc/4.9.2/bin/../lib/gcc/x86_64-unknown-linux-gnu/4.9.2/ -mtune=corei7 -march=x86-64 -g -Og
#
# seed -2032374542   404385635   527273487  -266450795  1423626185  1901918669  2098948617  -149805494 -1545362441  1914684689 -1624151451   885681839
#
#      Author: C. J. Pickard (cjp20@cam.ac.uk)
#                Space group: Cc
#

%BLOCK LATTICE_ABC
      4.76457      5.73481      6.55648
     85.47946     79.06281     65.45501
%ENDBLOCK LATTICE_ABC

%BLOCK POSITIONS_FRAC
  Li   0.1113016  -0.0772524   0.3857527 SPIN=   0.00000
  Li   0.0340491   0.0772524  -0.1142473 SPIN=   0.00000
   O   0.4725451  -0.2685524  -0.4401923 SPIN=   0.00000
   O   0.9709194  -0.4934610  -0.2716343 SPIN=   0.00000
   O   0.7823808  -0.0277618  -0.3379926 SPIN=   0.00000
   O   0.4747750  -0.1923080  -0.0575719 SPIN=   0.00000
   P   0.6620024  -0.2461192  -0.2829573 SPIN=   0.00000
   O  -0.7960073   0.2685524   0.0598077 SPIN=   0.00000
   O  -0.5225416   0.4934610   0.2283657 SPIN=   0.00000
   O  -0.2453810   0.0277618   0.1620074 SPIN=   0.00000
   O  -0.7175330   0.1923080   0.4424281 SPIN=   0.00000
   P  -0.5841168   0.2461192   0.2170427 SPIN=   0.00000
  Fe   0.4555104   0.3723662  -0.3776564 SPIN=   4.00000
  Fe  -0.1721233  -0.3723662   0.1223436 SPIN=   4.00000
%ENDBLOCK POSITIONS_FRAC

# Note: total spin =   8.00

KPOINTS_MP_SPACING 0.07

%BLOCK SPECIES_POT
QC5
%ENDBLOCK SPECIES_POT

%BLOCK HUBBARD_U
Fe d:4.0
%ENDBLOCK HUBBARD_U

SNAP_TO_SYMMETRY
SYMMETRY_GENERATE

