#              Generated by Buildcell
#
# at 05:29:21 (GMT+0.0) 24th November 2020
# in /scratch/scratch/uccabz1/launch_tmp
# on node-k10c-017
# by uccabz1
#
# compiler GCC version 4.9.2
# options -cpp -iprefix /scratch/UCL/applications/gcc/4.9.2/bin/../lib/gcc/x86_64-unknown-linux-gnu/4.9.2/ -mtune=corei7 -march=x86-64 -g -O2
#
# seed  1413342330    98939575   625651889 -1976434318  -114736261  -699592789  1618807376 -1782127639  1692240206 -1894417617   290142436   972129467
#
#      Author: C. J. Pickard (cjp20@cam.ac.uk)
#                Space group: P21
#

%BLOCK LATTICE_ABC
      4.77414      5.34397      6.37144
     90.00000     90.00000    100.16910
%ENDBLOCK LATTICE_ABC

%BLOCK POSITIONS_FRAC
  Li  -0.2309144  -0.2690301   0.4415065 SPIN=   0.00000
  Li   0.2309144   0.2690301  -0.0584935 SPIN=   0.00000
   O   0.0050149  -0.6070054  -0.3870425 SPIN=   0.00000
   O   0.1779385  -0.1683372  -0.2111202 SPIN=   0.00000
   O   0.5350209  -0.4351115  -0.2976548 SPIN=   0.00000
   O   0.3015227  -0.2306242  -0.5872641 SPIN=   0.00000
   P   0.2421209  -0.3718771  -0.3741917 SPIN=   0.00000
   O  -0.0050149   0.6070054   0.1129575 SPIN=   0.00000
   O  -0.1779385   0.1683372   0.2888798 SPIN=   0.00000
   O  -0.5350209   0.4351115   0.2023452 SPIN=   0.00000
   O  -0.3015227   0.2306242  -0.0872641 SPIN=   0.00000
   P  -0.2421209   0.3718771   0.1258083 SPIN=   0.00000
  Fe  -0.3546899  -0.1659634  -0.0581772 SPIN=   4.00000
  Fe   0.3546899   0.1659634   0.4418228 SPIN=   4.00000
%ENDBLOCK POSITIONS_FRAC

# Note: total spin =   8.00

KPOINTS_MP_SPACING 0.07

%BLOCK SPECIES_POT
QC5
%ENDBLOCK SPECIES_POT

%BLOCK HUBBARD_U
Fe d:4.0
%ENDBLOCK HUBBARD_U

SNAP_TO_SYMMETRY
SYMMETRY_GENERATE

