#              Generated by Buildcell
#
# at 23:02:42 (GMT+0.0) 23rd November 2020
# in /lustre/scratch/uccabz1/launch_tmp
# on node-c12o-023
# by uccabz1
#
# compiler GCC version 4.9.2
# options -cpp -iprefix /lustre/shared/ucl/apps/gcc/4.9.2/bin/../lib/gcc/x86_64-unknown-linux-gnu/4.9.2/ -mtune=corei7 -march=x86-64 -g -Og
#
# seed  -888395547 -1803965117   665948310  -746917632 -1738751414 -1888280026  -864961272   -36043245  -287827107  1098998204  -647783059 -1127256030
#
#      Author: C. J. Pickard (cjp20@cam.ac.uk)
#                Space group: Pc
#

%BLOCK LATTICE_ABC
      4.82215      5.11817      6.57892
     90.00000     99.80414     90.00000
%ENDBLOCK LATTICE_ABC

%BLOCK POSITIONS_FRAC
  Li   0.0464632   0.2518194  -0.1023094 SPIN=   0.00000
  Li  -0.4535368  -0.2518194   0.3976906 SPIN=   0.00000
   O   0.0857958  -0.3557380  -0.5159126 SPIN=   0.00000
   O  -0.2393423  -0.0594253  -0.3381709 SPIN=   0.00000
   O   0.1053229  -0.3408944  -0.1189880 SPIN=   0.00000
   O   0.2744751   0.0454288  -0.2970039 SPIN=   0.00000
   P   0.0606910  -0.1845065  -0.3278403 SPIN=   0.00000
   O  -0.4142042   0.3557380  -0.0159126 SPIN=   0.00000
   O  -0.7393423   0.0594253   0.1618291 SPIN=   0.00000
   O  -0.3946771   0.3408944   0.3810120 SPIN=   0.00000
   O  -0.2255249  -0.0454288   0.2029961 SPIN=   0.00000
   P  -0.4393090   0.1845065   0.1721597 SPIN=   0.00000
  Fe   0.1146372   0.2488120   0.4061899 SPIN=   4.00000
  Fe  -0.3853628  -0.2488120  -0.0938101 SPIN=   4.00000
%ENDBLOCK POSITIONS_FRAC

# Note: total spin =   8.00

KPOINTS_MP_SPACING 0.07

%BLOCK SPECIES_POT
QC5
%ENDBLOCK SPECIES_POT

%BLOCK HUBBARD_U
Fe d:4.0
%ENDBLOCK HUBBARD_U

SNAP_TO_SYMMETRY
SYMMETRY_GENERATE

