#              Generated by Buildcell
#
# at 04:02:34 (GMT+0.0) 24th November 2020
# in /scratch/scratch/uccabz1/launch_tmp
# on node-k10i-025
# by uccabz1
#
# compiler GCC version 4.9.2
# options -cpp -iprefix /scratch/UCL/applications/gcc/4.9.2/bin/../lib/gcc/x86_64-unknown-linux-gnu/4.9.2/ -mtune=corei7 -march=x86-64 -g -O2
#
# seed   403442479  -997870383  -419364592  -431588945  -681460210  -592815382 -1874362793   299490977 -1410828249   878684084 -1766616317  1313465155
#
#      Author: C. J. Pickard (cjp20@cam.ac.uk)
#                Space group: C2
#

%BLOCK LATTICE_ABC
      4.23941      4.23941      9.39235
     97.12000     97.12000    104.55472
%ENDBLOCK LATTICE_ABC

%BLOCK POSITIONS_FRAC
  Li   0.4945201  -0.4945201  -0.5000000 SPIN=   0.00000
  Li   0.3838835  -0.3838835   0.0000000 SPIN=   0.00000
   O   0.5139477   0.0013472   0.4829419 SPIN=   0.00000
   O  -0.0621245  -0.1889225   0.3192728 SPIN=   0.00000
   O   0.3853222   0.2142507   0.2404149 SPIN=   0.00000
   P   0.3235290  -0.0849574   0.3266656 SPIN=   0.00000
   O  -0.0013472  -0.5139477  -0.4829419 SPIN=   0.00000
   O   0.1889225   0.0621245  -0.3192728 SPIN=   0.00000
   O  -0.2142507  -0.3853222  -0.2404149 SPIN=   0.00000
   P   0.0849574  -0.3235290  -0.3266656 SPIN=   0.00000
   O  -0.3015446   0.3015446  -0.0000000 SPIN=   0.00000
   O   0.0675121  -0.0675121   0.0000000 SPIN=   0.00000
  Fe  -0.2742272   0.1167971  -0.2155609 SPIN=   4.00000
  Fe  -0.1167971   0.2742272   0.2155609 SPIN=   4.00000
%ENDBLOCK POSITIONS_FRAC

# Note: total spin =   8.00

KPOINTS_MP_SPACING 0.07

%BLOCK SPECIES_POT
QC5
%ENDBLOCK SPECIES_POT

%BLOCK HUBBARD_U
Fe d:4.0
%ENDBLOCK HUBBARD_U

SNAP_TO_SYMMETRY
SYMMETRY_GENERATE

