#              Generated by Buildcell
#
# at 02:38:52 (GMT+0.0) 24th November 2020
# in /lustre/scratch/uccabz1/launch_tmp
# on node-c12f-026
# by uccabz1
#
# compiler GCC version 4.9.2
# options -cpp -iprefix /lustre/shared/ucl/apps/gcc/4.9.2/bin/../lib/gcc/x86_64-unknown-linux-gnu/4.9.2/ -mtune=corei7 -march=x86-64 -g -Og
#
# seed  1020903507   666933808   -66823383 -1365453063   172241949  1034559933 -2049220049  -807238894  1068313464  1643282010  -657725551   364671027
#
#      Author: C. J. Pickard (cjp20@cam.ac.uk)
#                Space group: P-1
#

%BLOCK LATTICE_ABC
      4.86740      5.30888      6.80512
     99.51703     94.05736    111.24473
%ENDBLOCK LATTICE_ABC

%BLOCK POSITIONS_FRAC
  Li   0.5000000   1.0000000   0.5000000 SPIN=   0.00000
  Li  -0.5000000  -0.0000000   0.0000000 SPIN=   0.00000
   O   0.0921125  -0.2499104  -0.4220446 SPIN=   0.00000
   O  -0.2714083  -0.0601089  -0.2475467 SPIN=   0.00000
   O  -0.4200348  -0.5656016  -0.3446822 SPIN=   0.00000
   O  -0.0094364  -0.2952084  -0.0595051 SPIN=   0.00000
   P  -0.1374991  -0.2904581  -0.2741574 SPIN=   0.00000
   O  -0.0921125   0.2499104   0.4220446 SPIN=   0.00000
   O   0.2714083   0.0601089   0.2475467 SPIN=   0.00000
   O   0.4200348   0.5656016   0.3446822 SPIN=   0.00000
   O   0.0094364   0.2952084   0.0595051 SPIN=   0.00000
   P   0.1374991   0.2904581   0.2741574 SPIN=   0.00000
  Fe  -0.1618821   0.6595444   0.2220234 SPIN=   4.00000
  Fe   0.1618821  -0.6595444  -0.2220234 SPIN=   4.00000
%ENDBLOCK POSITIONS_FRAC

# Note: total spin =   8.00

KPOINTS_MP_SPACING 0.07

%BLOCK SPECIES_POT
QC5
%ENDBLOCK SPECIES_POT

%BLOCK HUBBARD_U
Fe d:4.0
%ENDBLOCK HUBBARD_U

SNAP_TO_SYMMETRY
SYMMETRY_GENERATE

