#              Generated by Buildcell
#
# at 21:11:23 (GMT+0.0) 23rd November 2020
# in /lustre/scratch/uccabz1/launch_tmp
# on node-c12m-034
# by uccabz1
#
# compiler GCC version 4.9.2
# options -cpp -iprefix /lustre/shared/ucl/apps/gcc/4.9.2/bin/../lib/gcc/x86_64-unknown-linux-gnu/4.9.2/ -mtune=corei7 -march=x86-64 -g -Og
#
# seed  1771038104 -1554963346 -1588049862 -1626143765 -1715734785 -1471480471  1804207084  -725879258  -911209706  1032590486   559224675   956151010
#
#      Author: C. J. Pickard (cjp20@cam.ac.uk)
#                Space group: Pcc2
#

%BLOCK LATTICE_ABC
      4.19302      4.86427      7.84470
     90.00000     90.00000     90.00000
%ENDBLOCK LATTICE_ABC

%BLOCK POSITIONS_FRAC
  Li   0.0000000  -0.5000000  -0.1085601 SPIN=   0.00000
  Li   0.0000000   0.5000000   0.3914399 SPIN=   0.00000
   O  -0.2219532  -0.6715881  -0.3364834 SPIN=   0.00000
   O  -0.2835926  -0.1994127  -0.4877400 SPIN=   0.00000
   O   0.2219532   0.6715881  -0.3364834 SPIN=   0.00000
   O   0.2835926   0.1994127  -0.4877400 SPIN=   0.00000
   O   0.2219532  -0.6715881   0.1635166 SPIN=   0.00000
   O   0.2835926  -0.1994127   0.0122600 SPIN=   0.00000
   O  -0.2219532   0.6715881   0.1635166 SPIN=   0.00000
   O  -0.2835926   0.1994127   0.0122600 SPIN=   0.00000
   P  -0.0000000   0.0000000   0.0404122 SPIN=   0.00000
   P  -0.0000000   0.0000000  -0.4595878 SPIN=   0.00000
  Fe   0.5000000  -0.0000000   0.2901452 SPIN=   4.00000
  Fe  -0.5000000   0.0000000  -0.2098548 SPIN=   4.00000
%ENDBLOCK POSITIONS_FRAC

# Note: total spin =   8.00

KPOINTS_MP_SPACING 0.07

%BLOCK SPECIES_POT
QC5
%ENDBLOCK SPECIES_POT

%BLOCK HUBBARD_U
Fe d:4.0
%ENDBLOCK HUBBARD_U

SNAP_TO_SYMMETRY
SYMMETRY_GENERATE

