#              Generated by Buildcell
#
# at 02:42:31 (GMT+0.0) 24th November 2020
# in /lustre/scratch/uccabz1/launch_tmp
# on node-c12d-031
# by uccabz1
#
# compiler GCC version 4.9.2
# options -cpp -iprefix /lustre/shared/ucl/apps/gcc/4.9.2/bin/../lib/gcc/x86_64-unknown-linux-gnu/4.9.2/ -mtune=corei7 -march=x86-64 -g -Og
#
# seed   -67206133 -1170389463   815379462  -155185963  -704096630  -850944372 -1298298018   398298079  1689709351   545191960 -1518755947  -698371665
#
#      Author: C. J. Pickard (cjp20@cam.ac.uk)
#                Space group: Aea2
#

%BLOCK LATTICE_ABC
      4.69469      6.12563      6.35102
    118.83286     90.00000     90.00000
%ENDBLOCK LATTICE_ABC

%BLOCK POSITIONS_FRAC
  Li  -0.0000000  -0.1174342  -0.2348684 SPIN=   0.00000
  Li  -0.5000000   0.3825658  -0.2348684 SPIN=   0.00000
   O  -0.3787290   0.4530619   0.2643466 SPIN=   0.00000
   O  -0.6162780   0.1173428  -0.1285524 SPIN=   0.00000
   O   0.3787290  -0.1887153   0.2643466 SPIN=   0.00000
   O   0.6162780  -0.2458952  -0.1285524 SPIN=   0.00000
   O   0.1212710   0.3112847   0.2643466 SPIN=   0.00000
   O  -0.1162780   0.2541048  -0.1285524 SPIN=   0.00000
   O  -0.1212710  -0.0469381   0.2643466 SPIN=   0.00000
   O   0.1162780  -0.3826572  -0.1285524 SPIN=   0.00000
   P  -0.0000000   0.2585675  -0.4828649 SPIN=   0.00000
   P  -0.5000000  -0.2414325  -0.4828649 SPIN=   0.00000
  Fe  -0.0000000  -0.4113740   0.1772519 SPIN=   4.00000
  Fe  -0.5000000   0.0886260   0.1772519 SPIN=   4.00000
%ENDBLOCK POSITIONS_FRAC

# Note: total spin =   8.00

KPOINTS_MP_SPACING 0.07

%BLOCK SPECIES_POT
QC5
%ENDBLOCK SPECIES_POT

%BLOCK HUBBARD_U
Fe d:4.0
%ENDBLOCK HUBBARD_U

SNAP_TO_SYMMETRY
SYMMETRY_GENERATE

