#              Generated by Buildcell
#
# at 23:39:38 (GMT+0.0) 23rd November 2020
# in /lustre/scratch/uccabz1/launch_tmp
# on node-c12e-020
# by uccabz1
#
# compiler GCC version 4.9.2
# options -cpp -iprefix /lustre/shared/ucl/apps/gcc/4.9.2/bin/../lib/gcc/x86_64-unknown-linux-gnu/4.9.2/ -mtune=corei7 -march=x86-64 -g -Og
#
# seed -1070931951   -54370646  -982179076 -1600223845 -1113027919  1041613730  1615466508 -2137045784  1901892391   185399906 -1061716187  1479295924
#
#      Author: C. J. Pickard (cjp20@cam.ac.uk)
#                Space group: C2
#

%BLOCK LATTICE_ABC
      5.94187      5.94187      5.99334
    106.70567    119.01824    102.75389
%ENDBLOCK LATTICE_ABC

%BLOCK POSITIONS_FRAC
  Li  -0.2259966  -0.3666173  -0.6202351 SPIN=   0.00000
  Li   0.2536178   0.3942385   0.6202351 SPIN=   0.00000
   O   0.0095089  -0.2067002  -0.1730471 SPIN=   0.00000
   O   0.3974140  -0.2801811   0.2156533 SPIN=   0.00000
   O   0.4291261   0.1650032   0.3382468 SPIN=   0.00000
   O   0.0418592  -0.1740966   0.2816074 SPIN=   0.00000
   O  -0.0336531   0.1825560   0.1730471 SPIN=   0.00000
   O  -0.4958344   0.1817608  -0.2156533 SPIN=   0.00000
   O  -0.1732436   0.0908793  -0.3382468 SPIN=   0.00000
   O  -0.4557040  -0.2397482  -0.2816074 SPIN=   0.00000
   P   0.2974692  -0.2025308   0.5000000 SPIN=   0.00000
   P   0.0815594   0.0815594  -0.0000000 SPIN=   0.00000
  Fe   0.9053468   0.4723546   0.8975583 SPIN=   4.00000
  Fe  -0.4252037   0.0077885  -0.8975583 SPIN=   4.00000
%ENDBLOCK POSITIONS_FRAC

# Note: total spin =   8.00

KPOINTS_MP_SPACING 0.07

%BLOCK SPECIES_POT
QC5
%ENDBLOCK SPECIES_POT

%BLOCK HUBBARD_U
Fe d:4.0
%ENDBLOCK HUBBARD_U

SNAP_TO_SYMMETRY
SYMMETRY_GENERATE

