#              Generated by Buildcell
#
# at 03:23:37 (GMT+0.0) 24th November 2020
# in /scratch/scratch/uccabz1/launch_tmp
# on node-k10h-028
# by uccabz1
#
# compiler GCC version 4.9.2
# options -cpp -iprefix /scratch/UCL/applications/gcc/4.9.2/bin/../lib/gcc/x86_64-unknown-linux-gnu/4.9.2/ -mtune=corei7 -march=x86-64 -g -O2
#
# seed  -560238091   718019818   339601248 -1920581965  -268828964   573431865   505898954   573922200   736992045  -764365360 -1658916789  1204271201
#
#      Author: C. J. Pickard (cjp20@cam.ac.uk)
#                Space group: Cm
#

%BLOCK LATTICE_ABC
      4.11994      6.50517      6.50517
    113.31025     91.18620     91.18620
%ENDBLOCK LATTICE_ABC

%BLOCK POSITIONS_FRAC
  Li  -0.2970374   0.5185452   0.1255605 SPIN=   0.00000
  Li  -0.2970374  -0.8744395  -0.4814548 SPIN=   0.00000
   O   0.6198107  -0.1464259   0.2162501 SPIN=   0.00000
   O   0.1055453   0.0940020   0.3185598 SPIN=   0.00000
   O   0.0848056  -0.2527202  -0.0259572 SPIN=   0.00000
   O   0.0983839  -0.2783260   0.3482374 SPIN=   0.00000
   P   0.2465249  -0.1474604   0.2159588 SPIN=   0.00000
   O   0.6198107   0.2162501  -0.1464259 SPIN=   0.00000
   O   0.1055453   0.3185598   0.0940020 SPIN=   0.00000
   O   0.0848056  -0.0259572  -0.2527202 SPIN=   0.00000
   O   0.0983839   0.3482374  -0.2783260 SPIN=   0.00000
   P   0.2465249   0.2159588  -0.1474604 SPIN=   0.00000
  Fe  -0.7848349  -0.4831144  -0.4831144 SPIN=   4.78343
  Fe  -0.2626449  -0.0234005  -0.0234005 SPIN=   3.21657
%ENDBLOCK POSITIONS_FRAC

# Note: total spin =   8.00

KPOINTS_MP_SPACING 0.07

%BLOCK SPECIES_POT
QC5
%ENDBLOCK SPECIES_POT

%BLOCK HUBBARD_U
Fe d:4.0
%ENDBLOCK HUBBARD_U

SNAP_TO_SYMMETRY
SYMMETRY_GENERATE

