#              Generated by Buildcell
#
# at 01:25:11 (GMT+0.0) 24th November 2020
# in /lustre/scratch/uccabz1/launch_tmp
# on node-c12g-036
# by uccabz1
#
# compiler GCC version 4.9.2
# options -cpp -iprefix /lustre/shared/ucl/apps/gcc/4.9.2/bin/../lib/gcc/x86_64-unknown-linux-gnu/4.9.2/ -mtune=corei7 -march=x86-64 -g -Og
#
# seed   454362683  1659031948  1517955178  -494882160  1942872935  1937804161 -1068156414  -260264781 -1995990969  -291805903  -139765699 -1114341454
#
#      Author: C. J. Pickard (cjp20@cam.ac.uk)
#                Space group: Cm
#

%BLOCK LATTICE_ABC
      5.35571      5.71323      6.52783
    115.84569    114.10775     90.23144
%ENDBLOCK LATTICE_ABC

%BLOCK POSITIONS_FRAC
  Li  -0.3666848  -0.9228224  -0.4993316 SPIN=   0.00000
  Li   0.1326468   0.5765093   0.4993316 SPIN=   0.00000
   O  -0.6562176   0.5827484   0.2680130 SPIN=   0.00000
   O  -0.2587427   0.3245156   0.3424985 SPIN=   0.00000
   O  -0.1376673   0.8149627   0.6054640 SPIN=   0.00000
   P  -0.3844053   0.5654502   0.4649382 SPIN=   0.00000
   O   0.0757694  -0.6852646  -0.2680130 SPIN=   0.00000
   O   0.3987588  -1.0179829  -0.3424985 SPIN=   0.00000
   O   0.2568686  -0.7905014  -0.6054640 SPIN=   0.00000
   P   0.1506565  -0.8994881  -0.4649382 SPIN=   0.00000
   O   0.0600363  -0.2249244   0.0000000 SPIN=   0.00000
   O  -0.1514612   0.2964495   0.0000000 SPIN=   0.00000
  Fe   0.1983107   0.1327787  -0.0000000 SPIN=   3.47518
  Fe  -0.3027611  -0.3654856   0.0000000 SPIN=   4.52482
%ENDBLOCK POSITIONS_FRAC

# Note: total spin =   8.00

KPOINTS_MP_SPACING 0.07

%BLOCK SPECIES_POT
QC5
%ENDBLOCK SPECIES_POT

%BLOCK HUBBARD_U
Fe d:4.0
%ENDBLOCK HUBBARD_U

SNAP_TO_SYMMETRY
SYMMETRY_GENERATE

