#              Generated by Buildcell
#
# at 05:55:38 (GMT+0.0) 24th November 2020
# in /lustre/scratch/uccabz1/launch_tmp
# on node-c12h-027
# by uccabz1
#
# compiler GCC version 4.9.2
# options -cpp -iprefix /lustre/shared/ucl/apps/gcc/4.9.2/bin/../lib/gcc/x86_64-unknown-linux-gnu/4.9.2/ -mtune=corei7 -march=x86-64 -g -Og
#
# seed   -75207195  1476027164  -195668404  -677873701  1018732070  -178440283  -234326940  1276690181 -1543746937  -232823259   700382921   198213087
#
#      Author: C. J. Pickard (cjp20@cam.ac.uk)
#                Space group: C2
#

%BLOCK LATTICE_ABC
      5.47586      5.47586      5.58041
    100.76029    100.76029     95.52095
%ENDBLOCK LATTICE_ABC

%BLOCK POSITIONS_FRAC
  Li  -0.5316514  -0.4683486   0.0000000 SPIN=   0.00000
  Li  -0.1603550   0.1603550   0.0000000 SPIN=   0.00000
   O  -0.6977737  -0.2778211  -0.2682612 SPIN=   0.00000
   O  -0.8783684  -0.6919261  -0.1628294 SPIN=   0.00000
   O  -0.9102037  -0.6723204  -0.6060381 SPIN=   0.00000
   O  -0.4904357  -0.6820759  -0.3397970 SPIN=   0.00000
   O   0.2778211   0.6977737   0.2682612 SPIN=   0.00000
   O   0.6919261   0.8783684   0.1628294 SPIN=   0.00000
   O   0.6723204   0.9102037   0.6060381 SPIN=   0.00000
   O   0.6820759   0.4904357   0.3397970 SPIN=   0.00000
   P  -0.0614183   0.0614183   0.5000000 SPIN=   0.00000
   P   0.3961331   0.6038669   0.5000000 SPIN=   0.00000
  Fe   0.3892361   0.0810266   0.3083237 SPIN=   4.00000
  Fe  -0.0810266  -0.3892361  -0.3083237 SPIN=   4.00000
%ENDBLOCK POSITIONS_FRAC

# Note: total spin =   8.00

KPOINTS_MP_SPACING 0.07

%BLOCK SPECIES_POT
QC5
%ENDBLOCK SPECIES_POT

%BLOCK HUBBARD_U
Fe d:4.0
%ENDBLOCK HUBBARD_U

SNAP_TO_SYMMETRY
SYMMETRY_GENERATE

