#              Generated by Buildcell
#
# at 00:23:55 (GMT+0.0) 24th November 2020
# in /lustre/scratch/uccabz1/launch_tmp
# on node-c12c-025
# by uccabz1
#
# compiler GCC version 4.9.2
# options -cpp -iprefix /lustre/shared/ucl/apps/gcc/4.9.2/bin/../lib/gcc/x86_64-unknown-linux-gnu/4.9.2/ -mtune=corei7 -march=x86-64 -g -Og
#
# seed -1589177100   168690785  -240647644   -35273092  -826781722  -394344915  2016428433  -564453955  1241206224   773193054 -1945076837 -1429952048
#
#      Author: C. J. Pickard (cjp20@cam.ac.uk)
#                Space group: Amm2
#

%BLOCK LATTICE_ABC
      3.87930      3.87930     10.64650
     90.00000     90.00000     92.99247
%ENDBLOCK LATTICE_ABC

%BLOCK POSITIONS_FRAC
  Li   0.3220330  -0.3220330  -0.0000000 SPIN=   0.00000
  Li  -0.3679815   0.3679815  -0.5000000 SPIN=   0.00000
   O  -0.4938525   0.0301023  -0.1431632 SPIN=   0.00000
   O  -0.4337709  -0.0761707  -0.3829204 SPIN=   0.00000
   O  -0.0301023   0.4938525   0.1431632 SPIN=   0.00000
   O   0.0761707   0.4337709   0.3829204 SPIN=   0.00000
   O  -0.0301023   0.4938525  -0.1431632 SPIN=   0.00000
   O   0.0761707   0.4337709  -0.3829204 SPIN=   0.00000
   O  -0.4938525   0.0301023   0.1431632 SPIN=   0.00000
   O  -0.4337709  -0.0761707   0.3829204 SPIN=   0.00000
   P   0.1566802  -0.1566802   0.5000000 SPIN=   0.00000
   P  -0.2025607   0.2025607  -0.0000000 SPIN=   0.00000
  Fe  -0.0231727   0.0231727   0.2500520 SPIN=   4.00000
  Fe  -0.0231727   0.0231727  -0.2500520 SPIN=   4.00000
%ENDBLOCK POSITIONS_FRAC

# Note: total spin =   8.00

KPOINTS_MP_SPACING 0.07

%BLOCK SPECIES_POT
QC5
%ENDBLOCK SPECIES_POT

%BLOCK HUBBARD_U
Fe d:4.0
%ENDBLOCK HUBBARD_U

SNAP_TO_SYMMETRY
SYMMETRY_GENERATE

