#              Generated by Buildcell
#
# at 00:44:38 (GMT+0.0) 24th November 2020
# in /lustre/scratch/uccabz1/launch_tmp
# on node-c12l-030
# by uccabz1
#
# compiler GCC version 4.9.2
# options -cpp -iprefix /lustre/shared/ucl/apps/gcc/4.9.2/bin/../lib/gcc/x86_64-unknown-linux-gnu/4.9.2/ -mtune=corei7 -march=x86-64 -g -Og
#
# seed  1302300527   972965790  -432700707 -1631796677  1746044365  -467791843  1023360237 -1612538204 -1960856058   600419295  1991441243  1590457850
#
#      Author: C. J. Pickard (cjp20@cam.ac.uk)
#                Space group: Cm
#

%BLOCK LATTICE_ABC
      5.48556      5.48770      5.48770
     92.13877     99.83516     99.83516
%ENDBLOCK LATTICE_ABC

%BLOCK POSITIONS_FRAC
  Li  -0.2637034  -0.3866794   0.0354069 SPIN=   0.00000
  Li  -0.2637034   0.0354069  -0.3866794 SPIN=   0.00000
   O   0.0922872   0.2855719  -0.4044428 SPIN=   0.00000
   O  -0.1416993   0.2771555  -0.0303947 SPIN=   0.00000
   O   0.3228648   0.3610968   0.0537261 SPIN=   0.00000
   P   0.0909084   0.3985779  -0.1441168 SPIN=   0.00000
   O   0.0922872  -0.4044428   0.2855719 SPIN=   0.00000
   O  -0.1416993  -0.0303947   0.2771555 SPIN=   0.00000
   O   0.3228648   0.0537261   0.3610968 SPIN=   0.00000
   P   0.0909084  -0.1441168   0.3985779 SPIN=   0.00000
   O  -0.2981708   0.3537177   0.3537177 SPIN=   0.00000
   O   0.4958158  -0.2401089  -0.2401089 SPIN=   0.00000
  Fe   0.4054038   0.4757234   0.4757234 SPIN=   5.14204
  Fe   0.2791321  -0.0483613  -0.0483613 SPIN=   2.85796
%ENDBLOCK POSITIONS_FRAC

# Note: total spin =   8.00

KPOINTS_MP_SPACING 0.07

%BLOCK SPECIES_POT
QC5
%ENDBLOCK SPECIES_POT

%BLOCK HUBBARD_U
Fe d:4.0
%ENDBLOCK HUBBARD_U

SNAP_TO_SYMMETRY
SYMMETRY_GENERATE

