#              Generated by Buildcell
#
# at 01:16:03 (GMT+0.0) 24th November 2020
# in /lustre/scratch/uccabz1/launch_tmp
# on node-c12e-034
# by uccabz1
#
# compiler GCC version 4.9.2
# options -cpp -iprefix /lustre/shared/ucl/apps/gcc/4.9.2/bin/../lib/gcc/x86_64-unknown-linux-gnu/4.9.2/ -mtune=corei7 -march=x86-64 -g -Og
#
# seed -1090895615  1645150286  1313107618  1244829589   171121931 -1442060085 -1879229550   -95542689   444629099   590973090   -53643596 -1440538112
#
#      Author: C. J. Pickard (cjp20@cam.ac.uk)
#                Space group: Cm
#

%BLOCK LATTICE_ABC
      3.88253      4.70895      9.25414
    103.86017    101.05414     94.06511
%ENDBLOCK LATTICE_ABC

%BLOCK POSITIONS_FRAC
  Li   0.2761608  -0.1723988  -0.4781217 SPIN=   0.00000
  Li   0.7542825   0.3057230   0.4781217 SPIN=   0.00000
   O   0.0418277   0.0194448   0.3488069 SPIN=   0.00000
   O   0.1625373   0.5041539   0.2695315 SPIN=   0.00000
   O   0.4883384   0.0880614   0.1800287 SPIN=   0.00000
   P   0.1247987   0.1576745   0.2228204 SPIN=   0.00000
   O  -0.3069792  -0.3293621  -0.3488069 SPIN=   0.00000
   O  -0.1069942   0.2346224  -0.2695315 SPIN=   0.00000
   O   0.3083097  -0.0919672  -0.1800287 SPIN=   0.00000
   P  -0.0980217  -0.0651459  -0.2228204 SPIN=   0.00000
   O  -0.8094117  -0.3803168  -0.0000000 SPIN=   0.00000
   O  -0.1091827   0.1391802  -0.0000000 SPIN=   0.00000
  Fe   0.4065242   0.4573065  -0.2183736 SPIN=   4.00000
  Fe  -0.3751022  -0.3243199   0.2183736 SPIN=   4.00000
%ENDBLOCK POSITIONS_FRAC

# Note: total spin =   8.00

KPOINTS_MP_SPACING 0.07

%BLOCK SPECIES_POT
QC5
%ENDBLOCK SPECIES_POT

%BLOCK HUBBARD_U
Fe d:4.0
%ENDBLOCK HUBBARD_U

SNAP_TO_SYMMETRY
SYMMETRY_GENERATE

