#              Generated by Buildcell
#
# at 05:09:20 (GMT+0.0) 24th November 2020
# in /lustre/scratch/uccabz1/launch_tmp
# on node-c12n-026
# by uccabz1
#
# compiler GCC version 4.9.2
# options -cpp -iprefix /lustre/shared/ucl/apps/gcc/4.9.2/bin/../lib/gcc/x86_64-unknown-linux-gnu/4.9.2/ -mtune=corei7 -march=x86-64 -g -Og
#
# seed  1042985306  -130887063 -1783438039  1544102246 -1009050195  -908411889   154844392   325300805 -1658527890 -2017876091  1967183990  -711011673
#
#      Author: C. J. Pickard (cjp20@cam.ac.uk)
#                Space group: I222
#

%BLOCK LATTICE_ABC
      4.92645      5.95563      6.68380
    116.45711    111.62543     90.00000
%ENDBLOCK LATTICE_ABC

%BLOCK POSITIONS_FRAC
  Li   0.0000000  -0.0000000  -0.0000000 SPIN=   0.00000
  Li  -0.0000000   0.5000000   0.0000000 SPIN=   0.00000
   O   0.2240899   0.1871696  -0.1267145 SPIN=   0.00000
   O   0.5175566   0.1222584  -0.3950598 SPIN=   0.00000
   O  -0.6491957  -0.1871696   0.1267145 SPIN=   0.00000
   O  -0.0873835  -0.1222584   0.3950598 SPIN=   0.00000
   O   0.6491957  -0.3138841  -0.1267145 SPIN=   0.00000
   O   0.0873835  -0.5173183  -0.3950598 SPIN=   0.00000
   O  -0.2240899   0.3138841   0.1267145 SPIN=   0.00000
   O  -0.5175566   0.5173183   0.3950598 SPIN=   0.00000
   P   0.3309651   0.3309651   0.6619301 SPIN=   0.00000
   P  -0.3309651  -0.3309651  -0.6619301 SPIN=   0.00000
  Fe  -0.3015106   0.1984894   0.3969787 SPIN=   4.00000
  Fe   0.3015106  -0.1984894  -0.3969787 SPIN=   4.00000
%ENDBLOCK POSITIONS_FRAC

# Note: total spin =   8.00

KPOINTS_MP_SPACING 0.07

%BLOCK SPECIES_POT
QC5
%ENDBLOCK SPECIES_POT

%BLOCK HUBBARD_U
Fe d:4.0
%ENDBLOCK HUBBARD_U

SNAP_TO_SYMMETRY
SYMMETRY_GENERATE

