#              Generated by Buildcell
#
# at 05:49:16 (GMT+0.0) 24th November 2020
# in /lustre/scratch/uccabz1/launch_tmp
# on node-c12b-030
# by uccabz1
#
# compiler GCC version 4.9.2
# options -cpp -iprefix /lustre/shared/ucl/apps/gcc/4.9.2/bin/../lib/gcc/x86_64-unknown-linux-gnu/4.9.2/ -mtune=corei7 -march=x86-64 -g -Og
#
# seed  -991172169 -1911243448  1025372218 -1792517593  -468011513  1019201344 -1373888681  1934392964  -600480317  1610319358  -349316867    17167483
#
#      Author: C. J. Pickard (cjp20@cam.ac.uk)
#                Space group: Cm
#

%BLOCK LATTICE_ABC
      5.74350      5.99942      5.99942
    100.99480    113.03409    113.03409
%ENDBLOCK LATTICE_ABC

%BLOCK POSITIONS_FRAC
  Li  -0.1715816  -0.4115249  -0.4115249 SPIN=   0.00000
  Li   0.0063553   0.0520642   0.0520642 SPIN=   0.00000
   O   0.1837972   0.0327907  -0.2325145 SPIN=   0.00000
   O   0.0327363   0.3615483  -0.3725869 SPIN=   0.00000
   O  -0.1751474  -0.0727617  -0.7196550 SPIN=   0.00000
   P  -0.0645525   0.0646881  -0.4183405 SPIN=   0.00000
   O   0.1837972  -0.2325145   0.0327907 SPIN=   0.00000
   O   0.0327363  -0.3725869   0.3615483 SPIN=   0.00000
   O  -0.1751474  -0.7196550  -0.0727617 SPIN=   0.00000
   P  -0.0645525  -0.4183405   0.0646881 SPIN=   0.00000
   O   0.4978731  -0.3408961  -0.3408961 SPIN=   0.00000
   O  -0.4344229   0.2399443   0.2399443 SPIN=   0.00000
  Fe   0.4175459   0.0025902  -0.4186096 SPIN=   4.00000
  Fe   0.4175459  -0.4186096   0.0025902 SPIN=   4.00000
%ENDBLOCK POSITIONS_FRAC

# Note: total spin =   8.00

KPOINTS_MP_SPACING 0.07

%BLOCK SPECIES_POT
QC5
%ENDBLOCK SPECIES_POT

%BLOCK HUBBARD_U
Fe d:4.0
%ENDBLOCK HUBBARD_U

SNAP_TO_SYMMETRY
SYMMETRY_GENERATE

