#              Generated by Buildcell
#
# at 01:24:55 (GMT+0.0) 24th November 2020
# in /scratch/scratch/uccabz1/launch_tmp
# on node-a14b-028
# by uccabz1
#
# compiler GCC version 4.9.2
# options -cpp -iprefix /scratch/UCL/applications/gcc/4.9.2/bin/../lib/gcc/x86_64-unknown-linux-gnu/4.9.2/ -mtune=corei7 -march=x86-64 -g -O2
#
# seed  1584492585   279339528 -1758496352  1628406098 -1336836547  2033897277 -2020422917  1126784928  -590818648  1685928314  1855560208   772873318
#
#      Author: C. J. Pickard (cjp20@cam.ac.uk)
#                Space group: P-1
#

%BLOCK LATTICE_ABC
      3.91955      5.26222      7.95607
     81.17843     82.48010     83.37519
%ENDBLOCK LATTICE_ABC

%BLOCK POSITIONS_FRAC
  Li  -0.3003213  -0.2657199   0.0030425 SPIN=   0.00000
  Li   0.3003213   0.2657199  -0.0030425 SPIN=   0.00000
   O  -0.2674468   0.0701726  -0.4118066 SPIN=   0.00000
   O   0.0899424   0.0426589  -0.1555538 SPIN=   0.00000
   O   0.2046098   0.3757738  -0.4052311 SPIN=   0.00000
   O  -0.3501718   0.4207919  -0.2117095 SPIN=   0.00000
   P  -0.0938857   0.2212632  -0.3012418 SPIN=   0.00000
   O   0.2674468  -0.0701726   0.4118066 SPIN=   0.00000
   O  -0.0899424  -0.0426589   0.1555538 SPIN=   0.00000
   O  -0.2046098  -0.3757738   0.4052311 SPIN=   0.00000
   O   0.3501718  -0.4207919   0.2117095 SPIN=   0.00000
   P   0.0938857  -0.2212632   0.3012418 SPIN=   0.00000
  Fe   0.2902159  -0.2702951  -0.3347288 SPIN=   4.00000
  Fe  -0.2902159   0.2702951   0.3347288 SPIN=   4.00000
%ENDBLOCK POSITIONS_FRAC

# Note: total spin =   8.00

KPOINTS_MP_SPACING 0.07

%BLOCK SPECIES_POT
QC5
%ENDBLOCK SPECIES_POT

%BLOCK HUBBARD_U
Fe d:4.0
%ENDBLOCK HUBBARD_U

SNAP_TO_SYMMETRY
SYMMETRY_GENERATE

