#              Generated by Buildcell
#
# at 21:05:25 (GMT+0.0) 23rd November 2020
# in /scratch/scratch/uccabz1/launch_tmp
# on node-a14a-001
# by uccabz1
#
# compiler GCC version 4.9.2
# options -cpp -iprefix /scratch/UCL/applications/gcc/4.9.2/bin/../lib/gcc/x86_64-unknown-linux-gnu/4.9.2/ -mtune=corei7 -march=x86-64 -g -O2
#
# seed  1266924893   710902534 -1451351956 -2129202560  -511315440 -1417436928 -1198830158  -918561161  -341870442   491493048  1287701036  -425626569
#
#      Author: C. J. Pickard (cjp20@cam.ac.uk)
#                Space group: Amm2
#

%BLOCK LATTICE_ABC
      4.19139      4.19139      9.21694
     90.00000     90.00000     98.83441
%ENDBLOCK LATTICE_ABC

%BLOCK POSITIONS_FRAC
  Li  -0.3219559   0.3219559  -0.5000000 SPIN=   0.00000
  Li  -0.4555172   0.4555172   0.0000000 SPIN=   0.00000
   O  -0.2391268  -0.2137358  -0.3530868 SPIN=   0.00000
   O  -0.4951511   0.0429556  -0.1337681 SPIN=   0.00000
   O   0.2137358   0.2391268   0.3530868 SPIN=   0.00000
   O  -0.0429556   0.4951511   0.1337681 SPIN=   0.00000
   O   0.2137358   0.2391268  -0.3530868 SPIN=   0.00000
   O  -0.0429556   0.4951511  -0.1337681 SPIN=   0.00000
   O  -0.2391268  -0.2137358   0.3530868 SPIN=   0.00000
   O  -0.4951511   0.0429556   0.1337681 SPIN=   0.00000
   P  -0.1798584   0.1798584   0.2179788 SPIN=   0.00000
   P  -0.1798584   0.1798584  -0.2179788 SPIN=   0.00000
  Fe   0.2537741  -0.2537741   0.2924051 SPIN=   4.00000
  Fe   0.2537741  -0.2537741  -0.2924051 SPIN=   4.00000
%ENDBLOCK POSITIONS_FRAC

# Note: total spin =   8.00

KPOINTS_MP_SPACING 0.07

%BLOCK SPECIES_POT
QC5
%ENDBLOCK SPECIES_POT

%BLOCK HUBBARD_U
Fe d:4.0
%ENDBLOCK HUBBARD_U

SNAP_TO_SYMMETRY
SYMMETRY_GENERATE

