#              Generated by Buildcell
#
# at 04:35:53 (GMT+0.0) 24th November 2020
# in /lustre/scratch/uccabz1/launch_tmp
# on node-c12i-033
# by uccabz1
#
# compiler GCC version 4.9.2
# options -cpp -iprefix /lustre/shared/ucl/apps/gcc/4.9.2/bin/../lib/gcc/x86_64-unknown-linux-gnu/4.9.2/ -mtune=corei7 -march=x86-64 -g -Og
#
# seed -2097471778 -1602692362  1495535210  1163482878  1500038497  1526370145   717980380 -1563186525 -1195553606   564599815  -143493288  -756358740
#
#      Author: C. J. Pickard (cjp20@cam.ac.uk)
#                Space group: Aea2
#

%BLOCK LATTICE_ABC
      5.47163      5.61358      5.88383
     90.00000    117.70841     90.00000
%ENDBLOCK LATTICE_ABC

%BLOCK POSITIONS_FRAC
  Li   0.3970269  -0.0000000  -0.2059461 SPIN=   0.00000
  Li  -0.1029731  -0.5000000  -0.2059461 SPIN=   0.00000
   O  -0.1261279  -0.1668753   0.1144870 SPIN=   0.00000
   O   0.0313783  -0.2660665   0.5939368 SPIN=   0.00000
   O   0.2406149   0.1668753   0.1144870 SPIN=   0.00000
   O   0.5625586   0.2660665   0.5939368 SPIN=   0.00000
   O  -0.2593851   0.3331247   0.1144870 SPIN=   0.00000
   O   0.0625586   0.2339335   0.5939368 SPIN=   0.00000
   O   0.3738721  -0.3331247   0.1144870 SPIN=   0.00000
   O   0.5313783  -0.2339335   0.5939368 SPIN=   0.00000
   P  -0.0097955  -0.0000000  -0.0195911 SPIN=   0.00000
   P   0.4902045  -0.5000000  -0.0195911 SPIN=   0.00000
  Fe  -0.2852625  -0.0000000   0.4294751 SPIN=   4.00000
  Fe   0.2147375  -0.5000000   0.4294751 SPIN=   4.00000
%ENDBLOCK POSITIONS_FRAC

# Note: total spin =   8.00

KPOINTS_MP_SPACING 0.07

%BLOCK SPECIES_POT
QC5
%ENDBLOCK SPECIES_POT

%BLOCK HUBBARD_U
Fe d:4.0
%ENDBLOCK HUBBARD_U

SNAP_TO_SYMMETRY
SYMMETRY_GENERATE

