#              Generated by Buildcell
#
# at 03:55:03 (GMT+0.0) 24th November 2020
# in /scratch/scratch/uccabz1/launch_tmp
# on node-k10e-028
# by uccabz1
#
# compiler GCC version 4.9.2
# options -cpp -iprefix /scratch/UCL/applications/gcc/4.9.2/bin/../lib/gcc/x86_64-unknown-linux-gnu/4.9.2/ -mtune=corei7 -march=x86-64 -g -O2
#
# seed  1174533984   204100274  1331099521  1973355269  1172926138     3791155  -670781703 -1737172763  1087969598 -1386114673 -2030664947  -665854833
#
#      Author: C. J. Pickard (cjp20@cam.ac.uk)
#                Space group: C2
#

%BLOCK LATTICE_ABC
      4.11241      5.82250      7.68388
    110.18250     90.00000    110.67998
%ENDBLOCK LATTICE_ABC

%BLOCK POSITIONS_FRAC
  Li  -0.1983599   0.3588238  -0.1693733 SPIN=   0.00000
  Li   0.4428163  -0.3588238   0.1693733 SPIN=   0.00000
   O  -0.6581682   0.2598969   0.3172434 SPIN=   0.00000
   O  -0.1361616   0.2545102   0.5041242 SPIN=   0.00000
   O  -0.2564405   0.0110789   0.1619206 SPIN=   0.00000
   O  -0.0127387   0.5056592   0.2890064 SPIN=   0.00000
   P  -0.2837775   0.2608239   0.3176864 SPIN=   0.00000
   O   0.0819349  -0.2598969  -0.3172434 SPIN=   0.00000
   O   0.6093281  -0.2545102  -0.5041242 SPIN=   0.00000
   O   0.7324806  -0.0110789  -0.1619206 SPIN=   0.00000
   O   0.4816021  -0.5056592  -0.2890064 SPIN=   0.00000
   P   0.4553986  -0.2608239  -0.3176864 SPIN=   0.00000
  Fe   0.1683414   0.0000000   0.0000000 SPIN=   2.23793
  Fe   0.1221092   0.0000000  -0.5000000 SPIN=   5.76207
%ENDBLOCK POSITIONS_FRAC

# Note: total spin =   8.00

KPOINTS_MP_SPACING 0.07

%BLOCK SPECIES_POT
QC5
%ENDBLOCK SPECIES_POT

%BLOCK HUBBARD_U
Fe d:4.0
%ENDBLOCK HUBBARD_U

SNAP_TO_SYMMETRY
SYMMETRY_GENERATE

