#              Generated by Buildcell
#
# at 01:44:43 (GMT+0.0) 24th November 2020
# in /lustre/scratch/uccabz1/launch_tmp
# on node-c12b-030
# by uccabz1
#
# compiler GCC version 4.9.2
# options -cpp -iprefix /lustre/shared/ucl/apps/gcc/4.9.2/bin/../lib/gcc/x86_64-unknown-linux-gnu/4.9.2/ -mtune=corei7 -march=x86-64 -g -Og
#
# seed   229605835   588050208   664969927   828833943 -1219431393   660165227  -385103701  2057721411  1214962832 -1300543084 -1367257759 -1049737732
#
#      Author: C. J. Pickard (cjp20@cam.ac.uk)
#                Space group: P-1
#

%BLOCK LATTICE_ABC
      5.11434      5.74997      5.84956
     68.75029     86.48675     89.62219
%ENDBLOCK LATTICE_ABC

%BLOCK POSITIONS_FRAC
  Li  -0.2062425  -0.4104035   0.1503224 SPIN=   0.00000
  Li   0.2062425   0.4104035  -0.1503224 SPIN=   0.00000
   O   0.2823082   0.6158254   0.1044376 SPIN=   0.00000
   O   0.0107658   0.2082165   0.3322960 SPIN=   0.00000
   O   0.4933430   0.1828193   0.3068210 SPIN=   0.00000
   P   0.2662400   0.3639751   0.3206529 SPIN=   0.00000
   O  -0.2823082  -0.6158254  -0.1044376 SPIN=   0.00000
   O  -0.0107658  -0.2082165  -0.3322960 SPIN=   0.00000
   O  -0.4933430  -0.1828193  -0.3068210 SPIN=   0.00000
   P  -0.2662400  -0.3639751  -0.3206529 SPIN=   0.00000
   O   0.0000000   0.0000000   0.0000000 SPIN=   0.00000
   O   0.5000000  -0.5000000   0.5000000 SPIN=   0.00000
  Fe   0.2777334  -0.1309285   0.3074674 SPIN=   4.00000
  Fe  -0.2777334   0.1309285  -0.3074674 SPIN=   4.00000
%ENDBLOCK POSITIONS_FRAC

# Note: total spin =   8.00

KPOINTS_MP_SPACING 0.07

%BLOCK SPECIES_POT
QC5
%ENDBLOCK SPECIES_POT

%BLOCK HUBBARD_U
Fe d:4.0
%ENDBLOCK HUBBARD_U

SNAP_TO_SYMMETRY
SYMMETRY_GENERATE

