#              Generated by Buildcell
#
# at 21:59:31 (GMT+0.0) 23rd November 2020
# in /lustre/scratch/uccabz1/launch_tmp
# on node-c12i-035
# by uccabz1
#
# compiler GCC version 4.9.2
# options -cpp -iprefix /lustre/shared/ucl/apps/gcc/4.9.2/bin/../lib/gcc/x86_64-unknown-linux-gnu/4.9.2/ -mtune=corei7 -march=x86-64 -g -Og
#
# seed   747744596   812693947  -948454350  -944178682   556768505 -1676195499   513461014 -1517166968 -1685708286  1931611782   926165700 -1308182017
#
#      Author: C. J. Pickard (cjp20@cam.ac.uk)
#                Space group: Ima2
#

%BLOCK LATTICE_ABC
      5.20924      6.33366      6.33366
     60.53986     65.71761     65.71761
%ENDBLOCK LATTICE_ABC

%BLOCK POSITIONS_FRAC
  Li  -0.5000000   0.8884177   0.1115823 SPIN=   0.00000
  Li   0.0000000   0.3884177  -0.3884177 SPIN=   0.00000
   O  -0.5664459   0.1638682  -0.4084502 SPIN=   0.00000
   O  -0.1485406  -0.0001850  -0.1984322 SPIN=   0.00000
   O   0.5664459  -0.5915498  -0.1638682 SPIN=   0.00000
   O   0.1485406  -0.8015678   0.0001850 SPIN=   0.00000
   O   0.3110280  -0.3361318   0.0915498 SPIN=   0.00000
   O  -0.1528422  -0.5001850   0.3015678 SPIN=   0.00000
   O  -0.3110280  -0.0915498   0.3361318 SPIN=   0.00000
   O   0.1528422  -0.3015678   0.5001850 SPIN=   0.00000
   P  -0.0000000  -0.1960501   0.1960501 SPIN=   0.00000
   P   0.5000000  -0.6960501  -0.3039499 SPIN=   0.00000
  Fe   0.2840337  -0.2104533  -0.2895467 SPIN=   4.00000
  Fe  -0.2840337   0.2895467   0.2104533 SPIN=   4.00000
%ENDBLOCK POSITIONS_FRAC

# Note: total spin =   8.00

KPOINTS_MP_SPACING 0.07

%BLOCK SPECIES_POT
QC5
%ENDBLOCK SPECIES_POT

%BLOCK HUBBARD_U
Fe d:4.0
%ENDBLOCK HUBBARD_U

SNAP_TO_SYMMETRY
SYMMETRY_GENERATE

