#              Generated by Buildcell
#
# at 01:30:34 (GMT+0.0) 24th November 2020
# in /lustre/scratch/uccabz1/launch_tmp
# on node-c12i-020
# by uccabz1
#
# compiler GCC version 4.9.2
# options -cpp -iprefix /lustre/shared/ucl/apps/gcc/4.9.2/bin/../lib/gcc/x86_64-unknown-linux-gnu/4.9.2/ -mtune=corei7 -march=x86-64 -g -Og
#
# seed  1439021804   964808061 -1590356187  1762500578  1529198702 -1833750900  1553451334  -994298617  1929282229 -1635437623  1975972619 -2033545722
#
#      Author: C. J. Pickard (cjp20@cam.ac.uk)
#                Space group: C2
#

%BLOCK LATTICE_ABC
      4.85103      6.21517      6.21517
     81.47558     67.52400     67.52400
%ENDBLOCK LATTICE_ABC

%BLOCK POSITIONS_FRAC
  Li   0.2338787   0.4077983   0.1655179 SPIN=   0.00000
  Li  -0.2338787  -0.1655179  -0.4077983 SPIN=   0.00000
   O   0.4897370   0.1302378   0.4548511 SPIN=   0.00000
   O  -0.0873784   0.1265148   0.6079201 SPIN=   0.00000
   O   0.2250179   0.0700395   0.1868907 SPIN=   0.00000
   P   0.2647840   0.0230884   0.4310274 SPIN=   0.00000
   O  -0.4897370  -0.4548511  -0.1302378 SPIN=   0.00000
   O   0.0873784  -0.6079201  -0.1265148 SPIN=   0.00000
   O  -0.2250179  -0.1868907  -0.0700395 SPIN=   0.00000
   P  -0.2647840  -0.4310274  -0.0230884 SPIN=   0.00000
   O  -0.0000000  -0.2341186   0.2341186 SPIN=   0.00000
   O  -0.5000000  -0.3192763   0.3192763 SPIN=   0.00000
  Fe   0.0000000   0.0402253  -0.0402253 SPIN=   2.87469
  Fe   0.5000000   0.4220476  -0.4220476 SPIN=   5.12531
%ENDBLOCK POSITIONS_FRAC

# Note: total spin =   8.00

KPOINTS_MP_SPACING 0.07

%BLOCK SPECIES_POT
QC5
%ENDBLOCK SPECIES_POT

%BLOCK HUBBARD_U
Fe d:4.0
%ENDBLOCK HUBBARD_U

SNAP_TO_SYMMETRY
SYMMETRY_GENERATE

