#              Generated by Buildcell
#
# at 22:06:30 (GMT+0.0) 23rd November 2020
# in /lustre/scratch/uccabz1/launch_tmp
# on node-c12j-029
# by uccabz1
#
# compiler GCC version 4.9.2
# options -cpp -iprefix /lustre/shared/ucl/apps/gcc/4.9.2/bin/../lib/gcc/x86_64-unknown-linux-gnu/4.9.2/ -mtune=corei7 -march=x86-64 -g -Og
#
# seed  2141204606   915142538   491019450  -406906579  2096029991 -1411784953  -104359412  1234979834 -1024753209  -863873255  -379646757   -40262150
#
#      Author: C. J. Pickard (cjp20@cam.ac.uk)
#                Space group: P-1
#

%BLOCK LATTICE_ABC
      4.84741      6.10991      6.27249
     70.88446     89.81852     67.07055
%ENDBLOCK LATTICE_ABC

%BLOCK POSITIONS_FRAC
  Li  -0.4751913  -0.0101336  -0.2551529 SPIN=   0.00000
  Li   0.4751913   0.0101336   0.2551529 SPIN=   0.00000
   O   0.3564033  -0.2052510   0.0995693 SPIN=   0.00000
   O  -0.0498768  -0.1564015   0.3723342 SPIN=   0.00000
   O  -0.1002454  -0.3215715   0.0707839 SPIN=   0.00000
   O   0.3144132  -0.5927218   0.4016538 SPIN=   0.00000
   P   0.1443934  -0.3161609   0.2307704 SPIN=   0.00000
   O  -0.3564033   0.2052510  -0.0995693 SPIN=   0.00000
   O   0.0498768   0.1564015  -0.3723342 SPIN=   0.00000
   O   0.1002454   0.3215715  -0.0707839 SPIN=   0.00000
   O  -0.3144132   0.5927218  -0.4016538 SPIN=   0.00000
   P  -0.1443934   0.3161609  -0.2307704 SPIN=   0.00000
  Fe   0.2135629  -0.3940719  -0.2923643 SPIN=   4.00000
  Fe  -0.2135629   0.3940719   0.2923643 SPIN=   4.00000
%ENDBLOCK POSITIONS_FRAC

# Note: total spin =   8.00

KPOINTS_MP_SPACING 0.07

%BLOCK SPECIES_POT
QC5
%ENDBLOCK SPECIES_POT

%BLOCK HUBBARD_U
Fe d:4.0
%ENDBLOCK HUBBARD_U

SNAP_TO_SYMMETRY
SYMMETRY_GENERATE

