#              Generated by Buildcell
#
# at 01:21:41 (GMT+0.0) 24th November 2020
# in /lustre/scratch/uccabz1/launch_tmp
# on node-c12f-026
# by uccabz1
#
# compiler GCC version 4.9.2
# options -cpp -iprefix /lustre/shared/ucl/apps/gcc/4.9.2/bin/../lib/gcc/x86_64-unknown-linux-gnu/4.9.2/ -mtune=corei7 -march=x86-64 -g -Og
#
# seed  -860818418 -2048238060  1947249238   825228146  -842911469  -114514909  1935514897   871467356  1702707213   173143559   838923837 -1376872304
#
#      Author: C. J. Pickard (cjp20@cam.ac.uk)
#                Space group: Pma2
#

%BLOCK LATTICE_ABC
      3.93329      4.18923      9.71025
     90.00000     90.00000     90.00000
%ENDBLOCK LATTICE_ABC

%BLOCK POSITIONS_FRAC
  Li  -0.0000000   0.2932119   0.0000000 SPIN=   0.00000
  Li   0.0000000   0.2932119   0.5000000 SPIN=   0.00000
   O  -0.5792490   0.4263861   0.1229377 SPIN=   0.00000
   O  -0.2140413  -0.0903004   0.1190959 SPIN=   0.00000
   O   0.5792490   0.4263861  -0.1229377 SPIN=   0.00000
   O   0.2140413  -0.0903004  -0.1190959 SPIN=   0.00000
   O   0.5792490   0.4263861  -0.3770623 SPIN=   0.00000
   O   0.2140413  -0.0903004  -0.3809041 SPIN=   0.00000
   O  -0.5792490   0.4263861   0.3770623 SPIN=   0.00000
   O  -0.2140413  -0.0903004   0.3809041 SPIN=   0.00000
   P  -0.2892812   0.2902444   0.2500000 SPIN=   0.00000
   P   0.2892812   0.2902444  -0.2500000 SPIN=   0.00000
  Fe  -0.2132559  -0.2094578  -0.2500000 SPIN=   4.00000
  Fe   0.2132559  -0.2094578   0.2500000 SPIN=   4.00000
%ENDBLOCK POSITIONS_FRAC

# Note: total spin =   8.00

KPOINTS_MP_SPACING 0.07

%BLOCK SPECIES_POT
QC5
%ENDBLOCK SPECIES_POT

%BLOCK HUBBARD_U
Fe d:4.0
%ENDBLOCK HUBBARD_U

SNAP_TO_SYMMETRY
SYMMETRY_GENERATE

