#              Generated by Buildcell
#
# at 04:43:43 (GMT+0.0) 24th November 2020
# in /lustre/scratch/uccabz1/launch_tmp
# on node-c12b-026
# by uccabz1
#
# compiler GCC version 4.9.2
# options -cpp -iprefix /lustre/shared/ucl/apps/gcc/4.9.2/bin/../lib/gcc/x86_64-unknown-linux-gnu/4.9.2/ -mtune=corei7 -march=x86-64 -g -Og
#
# seed  -233298983  1840844782   147525310  2139376698 -1450130830  2125254411 -1718852075  1326919937  1139200030   191619960   507839560  1498693950
#
#      Author: C. J. Pickard (cjp20@cam.ac.uk)
#                Space group: Cm
#

%BLOCK LATTICE_ABC
      5.26419      6.05812      6.05812
     98.84491    110.78249    110.78249
%ENDBLOCK LATTICE_ABC

%BLOCK POSITIONS_FRAC
  Li   0.4900802  -0.0134096  -0.0134096 SPIN=   0.00000
  Li   0.3323400  -0.4747229  -0.4747229 SPIN=   0.00000
   O  -0.2053858   0.3974550   0.1292904 SPIN=   0.00000
   O  -0.4805356   0.6426849  -0.0828515 SPIN=   0.00000
   O  -0.3925884   0.3483988  -0.3421396 SPIN=   0.00000
   O  -0.7740373   0.1835432  -0.1800357 SPIN=   0.00000
   O  -0.2053858   0.1292904   0.3974550 SPIN=   0.00000
   O  -0.4805356  -0.0828515   0.6426849 SPIN=   0.00000
   O  -0.3925884  -0.3421396   0.3483988 SPIN=   0.00000
   O  -0.7740373  -0.1800357   0.1835432 SPIN=   0.00000
   P  -0.0700451  -0.0867215  -0.0867215 SPIN=   0.00000
   P  -0.2605059   0.3876634   0.3876634 SPIN=   0.00000
  Fe   0.0364199  -0.0831927   0.4121458 SPIN=   4.00000
  Fe   0.0364199   0.4121458  -0.0831927 SPIN=   4.00000
%ENDBLOCK POSITIONS_FRAC

# Note: total spin =   8.00

KPOINTS_MP_SPACING 0.07

%BLOCK SPECIES_POT
QC5
%ENDBLOCK SPECIES_POT

%BLOCK HUBBARD_U
Fe d:4.0
%ENDBLOCK HUBBARD_U

SNAP_TO_SYMMETRY
SYMMETRY_GENERATE

