#              Generated by Buildcell
#
# at 03:30:33 (GMT+0.0) 24th November 2020
# in /lustre/scratch/uccabz1/launch_tmp
# on node-c12i-025
# by uccabz1
#
# compiler GCC version 4.9.2
# options -cpp -iprefix /lustre/shared/ucl/apps/gcc/4.9.2/bin/../lib/gcc/x86_64-unknown-linux-gnu/4.9.2/ -mtune=corei7 -march=x86-64 -g -Og
#
# seed   441887794   626084462   286773983  1194620081  1316402318   673465374  1122070181  1014953800  2044179067   787766749  1026828849   769275137
#
#      Author: C. J. Pickard (cjp20@cam.ac.uk)
#                Space group: Pc
#

%BLOCK LATTICE_ABC
      4.94805      5.41637      6.34992
     90.00000     90.00000    109.91877
%ENDBLOCK LATTICE_ABC

%BLOCK POSITIONS_FRAC
  Li  -0.3927828  -0.2179138  -0.3615450 SPIN=   0.00000
  Li   0.1072172  -0.2179138   0.3615450 SPIN=   0.00000
   O   0.2220097   0.6218386   0.0885307 SPIN=   0.00000
   O   0.3994595   0.2224084   0.0784088 SPIN=   0.00000
   O   0.6666294   0.6044734   0.2974618 SPIN=   0.00000
   O   0.1748729   0.3157915   0.4086755 SPIN=   0.00000
   P   0.3558373   0.4492708   0.2136083 SPIN=   0.00000
   O  -0.2779903   0.6218386  -0.0885307 SPIN=   0.00000
   O  -0.1005405   0.2224084  -0.0784088 SPIN=   0.00000
   O   0.1666294   0.6044734  -0.2974618 SPIN=   0.00000
   O  -0.3251271   0.3157915  -0.4086755 SPIN=   0.00000
   P  -0.1441627   0.4492708  -0.2136083 SPIN=   0.00000
  Fe  -0.2475334   0.1736010   0.2336947 SPIN=   4.00000
  Fe   0.2524666   0.1736010  -0.2336947 SPIN=   4.00000
%ENDBLOCK POSITIONS_FRAC

# Note: total spin =   8.00

KPOINTS_MP_SPACING 0.07

%BLOCK SPECIES_POT
QC5
%ENDBLOCK SPECIES_POT

%BLOCK HUBBARD_U
Fe d:4.0
%ENDBLOCK HUBBARD_U

SNAP_TO_SYMMETRY
SYMMETRY_GENERATE

