#              Generated by Buildcell
#
# at 05:21:50 (GMT+0.0) 24th November 2020
# in /lustre/scratch/uccabz1/launch_tmp
# on node-c12p-031
# by uccabz1
#
# compiler GCC version 4.9.2
# options -cpp -iprefix /lustre/shared/ucl/apps/gcc/4.9.2/bin/../lib/gcc/x86_64-unknown-linux-gnu/4.9.2/ -mtune=corei7 -march=x86-64 -g -Og
#
# seed  1305233298 -1250439763  -848866584   -68018000  1972921333  1560886655 -1893211400  -185577427   490952944  1650874118  1188480177 -2044756598
#
#      Author: C. J. Pickard (cjp20@cam.ac.uk)
#                Space group: P21
#

%BLOCK LATTICE_ABC
      4.56353      5.46568      6.46378
     90.00000     90.00000     97.06616
%ENDBLOCK LATTICE_ABC

%BLOCK POSITIONS_FRAC
  Li  -0.0304828   0.4812806  -0.2769404 SPIN=   0.00000
  Li   0.0304828  -0.4812806   0.2230596 SPIN=   0.00000
   O   0.3005555   0.2307625   0.6965840 SPIN=   0.00000
   O   0.2483686   0.2114717   0.2964812 SPIN=   0.00000
   O   0.3335679   0.6204777   0.4635403 SPIN=   0.00000
   O   0.7422338   0.3540506   0.4525138 SPIN=   0.00000
   P   0.4045232   0.3476170   0.4886644 SPIN=   0.00000
   O  -0.3005555  -0.2307625   0.1965840 SPIN=   0.00000
   O  -0.2483686  -0.2114717  -0.2035188 SPIN=   0.00000
   O  -0.3335679  -0.6204777  -0.0364597 SPIN=   0.00000
   O  -0.7422338  -0.3540506  -0.0474862 SPIN=   0.00000
   P  -0.4045232  -0.3476170  -0.0113356 SPIN=   0.00000
  Fe   0.2413558   0.0430036  -0.0202523 SPIN=   4.00000
  Fe  -0.2413558  -0.0430036   0.4797477 SPIN=   4.00000
%ENDBLOCK POSITIONS_FRAC

# Note: total spin =   8.00

KPOINTS_MP_SPACING 0.07

%BLOCK SPECIES_POT
QC5
%ENDBLOCK SPECIES_POT

%BLOCK HUBBARD_U
Fe d:4.0
%ENDBLOCK HUBBARD_U

SNAP_TO_SYMMETRY
SYMMETRY_GENERATE

