#              Generated by Buildcell
#
# at 05:16:32 (GMT+0.0) 24th November 2020
# in /lustre/scratch/uccabz1/launch_tmp
# on node-c12j-029
# by uccabz1
#
# compiler GCC version 4.9.2
# options -cpp -iprefix /lustre/shared/ucl/apps/gcc/4.9.2/bin/../lib/gcc/x86_64-unknown-linux-gnu/4.9.2/ -mtune=corei7 -march=x86-64 -g -Og
#
# seed  1282426117 -2062442144  -106824043 -2044722554  1364304775  -970141385  1806170721  -259293175 -1333495718  1294017596  -379714825 -1217211854
#
#      Author: C. J. Pickard (cjp20@cam.ac.uk)
#                Space group: Cm
#

%BLOCK LATTICE_ABC
      4.08560      6.46509      6.46509
     87.91063     75.50048     75.50048
%ENDBLOCK LATTICE_ABC

%BLOCK POSITIONS_FRAC
  Li  -0.2908801  -0.1267724   0.4940514 SPIN=   0.00000
  Li  -0.2908801   0.4940514  -0.1267724 SPIN=   0.00000
   O  -0.0511065   0.1302106  -0.5686084 SPIN=   0.00000
   O   0.2254131   0.3081083  -0.3251352 SPIN=   0.00000
   O  -0.2867376   0.1694108  -0.1559386 SPIN=   0.00000
   P   0.0418161   0.1275670  -0.3521075 SPIN=   0.00000
   O  -0.0511065  -0.5686084   0.1302106 SPIN=   0.00000
   O   0.2254131  -0.3251352   0.3081083 SPIN=   0.00000
   O  -0.2867376  -0.1559386   0.1694108 SPIN=   0.00000
   P   0.0418161  -0.3521075   0.1275670 SPIN=   0.00000
   O   0.4860747  -0.3798011  -0.3798011 SPIN=   0.00000
   O  -0.1397087  -0.2208650  -0.2208650 SPIN=   0.00000
  Fe  -0.4625780   0.3878614   0.3878614 SPIN=   4.14270
  Fe   0.3411679   0.0045524   0.0045524 SPIN=   3.85730
%ENDBLOCK POSITIONS_FRAC

# Note: total spin =   8.00

KPOINTS_MP_SPACING 0.07

%BLOCK SPECIES_POT
QC5
%ENDBLOCK SPECIES_POT

%BLOCK HUBBARD_U
Fe d:4.0
%ENDBLOCK HUBBARD_U

SNAP_TO_SYMMETRY
SYMMETRY_GENERATE

