#              Generated by Buildcell
#
# at 02:34:18 (GMT+0.0) 24th November 2020
# in /lustre/scratch/uccabz1/launch_tmp
# on node-c12k-029
# by uccabz1
#
# compiler GCC version 4.9.2
# options -cpp -iprefix /lustre/shared/ucl/apps/gcc/4.9.2/bin/../lib/gcc/x86_64-unknown-linux-gnu/4.9.2/ -mtune=corei7 -march=x86-64 -g -Og
#
# seed  1469784146  2140565590 -1617291231   -28656551   377940931  -805543313   652729717   973842179  2036457113  1684196985  -291524715 -1098723443
#
#      Author: C. J. Pickard (cjp20@cam.ac.uk)
#                Space group: Cm
#

%BLOCK LATTICE_ABC
      5.62528      5.62528      6.17923
    113.32867    113.32867     92.67187
%ENDBLOCK LATTICE_ABC

%BLOCK POSITIONS_FRAC
  Li  -0.4773054  -0.1096717  -0.2693465 SPIN=   0.00000
  Li  -0.1096717  -0.4773054  -0.2693465 SPIN=   0.00000
   O  -0.2520525   0.3234220  -0.0924811 SPIN=   0.00000
   O  -0.2406051   0.0565358   0.1702349 SPIN=   0.00000
   O   0.0808811   0.4930868   0.4021652 SPIN=   0.00000
   P  -0.2087870   0.3379731   0.1747081 SPIN=   0.00000
   O   0.3234220  -0.2520525  -0.0924811 SPIN=   0.00000
   O   0.0565358  -0.2406051   0.1702349 SPIN=   0.00000
   O   0.4930868   0.0808811   0.4021652 SPIN=   0.00000
   P   0.3379731  -0.2087870   0.1747081 SPIN=   0.00000
   O   0.5750636   0.5750636   0.2175723 SPIN=   0.00000
   O  -0.7678455  -0.7678455  -0.3495415 SPIN=   0.00000
  Fe   0.9033355   0.9033355   0.4424459 SPIN=   6.45068
  Fe   0.3026215   0.3026215   0.2097778 SPIN=   1.54932
%ENDBLOCK POSITIONS_FRAC

# Note: total spin =   8.00

KPOINTS_MP_SPACING 0.07

%BLOCK SPECIES_POT
QC5
%ENDBLOCK SPECIES_POT

%BLOCK HUBBARD_U
Fe d:4.0
%ENDBLOCK HUBBARD_U

SNAP_TO_SYMMETRY
SYMMETRY_GENERATE

