#              Generated by Buildcell
#
# at 01:52:40 (GMT+0.0) 24th November 2020
# in /lustre/scratch/uccabz1/launch_tmp
# on node-c12n-028
# by uccabz1
#
# compiler GCC version 4.9.2
# options -cpp -iprefix /lustre/shared/ucl/apps/gcc/4.9.2/bin/../lib/gcc/x86_64-unknown-linux-gnu/4.9.2/ -mtune=corei7 -march=x86-64 -g -Og
#
# seed  1140202670  1570062447  1268426842 -1800546054  1467021232  1301560752 -1589363745   893752101   775187089    23384573   310542906  -388696785
#
#      Author: C. J. Pickard (cjp20@cam.ac.uk)
#                Space group: Imm2
#

%BLOCK LATTICE_ABC
      4.96608      5.98846      6.63901
    116.80821    111.96297     90.00000
%ENDBLOCK LATTICE_ABC

%BLOCK POSITIONS_FRAC
  Li  -0.3287960  -0.3287960  -0.6575919 SPIN=   0.00000
  Li  -0.3287960   0.1712040  -0.6575920 SPIN=   0.00000
   O   0.2905387  -0.2176285   0.0784034 SPIN=   0.00000
   O   0.0464691  -0.4499866  -0.4043881 SPIN=   0.00000
   O  -0.2121353   0.2960319   0.0784034 SPIN=   0.00000
   O  -0.4508572   0.0455985  -0.4043881 SPIN=   0.00000
   O  -0.2121353  -0.2176285   0.0784034 SPIN=   0.00000
   O  -0.4508572  -0.4499866  -0.4043881 SPIN=   0.00000
   O   0.2905387   0.2960319   0.0784034 SPIN=   0.00000
   O   0.0464691   0.0455985  -0.4043881 SPIN=   0.00000
   P   0.3427494  -0.1572506   0.6854987 SPIN=   0.00000
   P  -0.0003425   0.4996575  -0.0006850 SPIN=   0.00000
  Fe  -0.0255827  -0.0255827  -0.0511655 SPIN=   5.57872
  Fe   0.3679912   0.3679912   0.7359823 SPIN=   2.42128
%ENDBLOCK POSITIONS_FRAC

# Note: total spin =   8.00

KPOINTS_MP_SPACING 0.07

%BLOCK SPECIES_POT
QC5
%ENDBLOCK SPECIES_POT

%BLOCK HUBBARD_U
Fe d:4.0
%ENDBLOCK HUBBARD_U

SNAP_TO_SYMMETRY
SYMMETRY_GENERATE

