#              Generated by Buildcell
#
# at 02:42:58 (GMT+0.0) 24th November 2020
# in /lustre/scratch/uccabz1/launch_tmp
# on node-c12e-023
# by uccabz1
#
# compiler GCC version 4.9.2
# options -cpp -iprefix /lustre/shared/ucl/apps/gcc/4.9.2/bin/../lib/gcc/x86_64-unknown-linux-gnu/4.9.2/ -mtune=corei7 -march=x86-64 -g -Og
#
# seed  1969928681   793219570  1813253649  1523088780  2109895161  1264643274  1853270712  -889876890  1272219803  1176468369 -1859872836  1735809185
#
#      Author: C. J. Pickard (cjp20@cam.ac.uk)
#                Space group: P-1
#

%BLOCK LATTICE_ABC
      3.99660      5.76938      7.72022
     70.42937     89.03174     73.26628
%ENDBLOCK LATTICE_ABC

%BLOCK POSITIONS_FRAC
  Li  -0.3359910   0.1472418   0.0850627 SPIN=   0.00000
  Li   0.3359910  -0.1472418  -0.0850627 SPIN=   0.00000
   O  -0.2709323  -0.1430714  -0.2699476 SPIN=   0.00000
   O  -0.4314769   0.2894105  -0.2071764 SPIN=   0.00000
   O   0.1315447   0.1536086  -0.3361789 SPIN=   0.00000
   O  -0.4317419   0.2982661  -0.5337221 SPIN=   0.00000
   P  -0.2538686   0.1357276  -0.3355234 SPIN=   0.00000
   O   0.2709323   0.1430714   0.2699476 SPIN=   0.00000
   O   0.4314769  -0.2894105   0.2071764 SPIN=   0.00000
   O  -0.1315447  -0.1536086   0.3361789 SPIN=   0.00000
   O   0.4317419  -0.2982661   0.5337221 SPIN=   0.00000
   P   0.2538686  -0.1357276   0.3355234 SPIN=   0.00000
  Fe   0.0325056   0.4873208  -0.2486368 SPIN=   4.00000
  Fe  -0.0325056  -0.4873208   0.2486368 SPIN=   4.00000
%ENDBLOCK POSITIONS_FRAC

# Note: total spin =   8.00

KPOINTS_MP_SPACING 0.07

%BLOCK SPECIES_POT
QC5
%ENDBLOCK SPECIES_POT

%BLOCK HUBBARD_U
Fe d:4.0
%ENDBLOCK HUBBARD_U

SNAP_TO_SYMMETRY
SYMMETRY_GENERATE

