#              Generated by Buildcell
#
# at 02:44:39 (GMT+0.0) 24th November 2020
# in /lustre/scratch/uccabz1/launch_tmp
# on node-c12e-025
# by uccabz1
#
# compiler GCC version 4.9.2
# options -cpp -iprefix /lustre/shared/ucl/apps/gcc/4.9.2/bin/../lib/gcc/x86_64-unknown-linux-gnu/4.9.2/ -mtune=corei7 -march=x86-64 -g -Og
#
# seed  -713942747 -1072688111  -113856489  -325011050 -2107049760   -10654721    56491848  -731299685   854230053 -1422294287  1864947062   450525741
#
#      Author: C. J. Pickard (cjp20@cam.ac.uk)
#                Space group: C2/c
#

%BLOCK LATTICE_ABC
      4.04703      4.04703     10.10597
    100.43193    100.43193     90.01213
%ENDBLOCK LATTICE_ABC

%BLOCK POSITIONS_FRAC
  Li   0.0000000   0.0000000   0.0000000 SPIN=   0.00000
  Li   0.5000000   0.5000000   0.5000000 SPIN=   0.00000
   O   0.3868546  -0.2586588  -0.0877516 SPIN=   0.00000
   O   0.2847645  -0.2453805   0.1596455 SPIN=   0.00000
   O   0.7586588   0.1131454   0.5877516 SPIN=   0.00000
   O   0.7453805   0.2152355   0.3403545 SPIN=   0.00000
   O  -0.3868546   0.2586588   0.0877516 SPIN=   0.00000
   O  -0.2847645   0.2453805  -0.1596455 SPIN=   0.00000
   O  -0.7586588  -0.1131454  -0.5877516 SPIN=   0.00000
   O  -0.7453805  -0.2152355  -0.3403545 SPIN=   0.00000
   P  -0.3847476  -0.1152524  -0.2500000 SPIN=   0.00000
   P   0.3847476   0.1152524   0.2500000 SPIN=   0.00000
  Fe  -0.1153911   0.6153911   0.2500000 SPIN=   4.00000
  Fe   0.1153911  -0.6153911  -0.2500000 SPIN=   4.00000
%ENDBLOCK POSITIONS_FRAC

# Note: total spin =   8.00

KPOINTS_MP_SPACING 0.07

%BLOCK SPECIES_POT
QC5
%ENDBLOCK SPECIES_POT

%BLOCK HUBBARD_U
Fe d:4.0
%ENDBLOCK HUBBARD_U

SNAP_TO_SYMMETRY
SYMMETRY_GENERATE

