#              Generated by Buildcell
#
# at 02:14:19 (GMT+0.0) 24th November 2020
# in /lustre/scratch/uccabz1/launch_tmp
# on node-c12g-024
# by uccabz1
#
# compiler GCC version 4.9.2
# options -cpp -iprefix /lustre/shared/ucl/apps/gcc/4.9.2/bin/../lib/gcc/x86_64-unknown-linux-gnu/4.9.2/ -mtune=corei7 -march=x86-64 -g -Og
#
# seed  1271775135 -1081884681 -1870594892 -1167567287   589173677  1665073710  1479967188   349261506  1838684736  1965118752  -347833050   318360085
#
#      Author: C. J. Pickard (cjp20@cam.ac.uk)
#                Space group: Pc
#

%BLOCK LATTICE_ABC
      4.59092      5.44395      6.51924
     90.00000    100.88870     90.00000
%ENDBLOCK LATTICE_ABC

%BLOCK POSITIONS_FRAC
  Li  -0.3039748   0.2876638   0.1699906 SPIN=   0.00000
  Li   0.1960252  -0.2876638  -0.3300094 SPIN=   0.00000
   O  -0.3207494  -0.1620322   0.0657451 SPIN=   0.00000
   O   0.0629520  -0.4533905  -0.0541481 SPIN=   0.00000
   O  -0.4700841  -0.5374810  -0.1774146 SPIN=   0.00000
   O  -0.2380469  -0.1715568  -0.3152226 SPIN=   0.00000
   P  -0.2456621  -0.3202293  -0.1126569 SPIN=   0.00000
   O   0.1792506   0.1620322   0.5657451 SPIN=   0.00000
   O   0.5629520   0.4533905   0.4458519 SPIN=   0.00000
   O   0.0299159   0.5374810   0.3225854 SPIN=   0.00000
   O   0.2619531   0.1715568   0.1847774 SPIN=   0.00000
   P   0.2543379   0.3202293   0.3873431 SPIN=   0.00000
  Fe   0.2871639  -0.2135953   0.1821209 SPIN=   4.00000
  Fe  -0.2128361   0.2135953  -0.3178791 SPIN=   4.00000
%ENDBLOCK POSITIONS_FRAC

# Note: total spin =   8.00

KPOINTS_MP_SPACING 0.07

%BLOCK SPECIES_POT
QC5
%ENDBLOCK SPECIES_POT

%BLOCK HUBBARD_U
Fe d:4.0
%ENDBLOCK HUBBARD_U

SNAP_TO_SYMMETRY
SYMMETRY_GENERATE

