#              Generated by Buildcell
#
# at 02:04:50 (GMT+0.0) 24th November 2020
# in /lustre/scratch/uccabz1/launch_tmp
# on node-c12g-036
# by uccabz1
#
# compiler GCC version 4.9.2
# options -cpp -iprefix /lustre/shared/ucl/apps/gcc/4.9.2/bin/../lib/gcc/x86_64-unknown-linux-gnu/4.9.2/ -mtune=corei7 -march=x86-64 -g -Og
#
# seed  -732182580  1192866330   386293350  1911190748  -603587078  1135364886    44350178   740704626 -1639223331  1378887853   571136849  -447930886
#
#      Author: C. J. Pickard (cjp20@cam.ac.uk)
#                Space group: Cmc21
#

%BLOCK LATTICE_ABC
      4.67509      4.67509      7.44411
     90.00000     90.00000    100.45653
%ENDBLOCK LATTICE_ABC

%BLOCK POSITIONS_FRAC
  Li  -0.4441435   0.4441435  -0.0023067 SPIN=   0.00000
  Li   0.4441435  -0.4441435   0.4976933 SPIN=   0.00000
   O  -0.5185126   0.0122861   0.5056748 SPIN=   0.00000
   O  -0.2971981  -0.2898707   0.2671249 SPIN=   0.00000
   O   0.5185126  -0.0122861   0.0056748 SPIN=   0.00000
   O   0.2971981   0.2898707  -0.2328751 SPIN=   0.00000
   O   0.0122861  -0.5185126   0.0056748 SPIN=   0.00000
   O  -0.2898707  -0.2971981  -0.2328751 SPIN=   0.00000
   O  -0.0122861   0.5185126   0.5056748 SPIN=   0.00000
   O   0.2898707   0.2971981   0.2671249 SPIN=   0.00000
   P   0.2424246  -0.2424246  -0.1985598 SPIN=   0.00000
   P  -0.2424246   0.2424246   0.3014402 SPIN=   0.00000
  Fe   0.1325967  -0.1325967   0.1716709 SPIN=   4.00000
  Fe  -0.1325967   0.1325967  -0.3283291 SPIN=   4.00000
%ENDBLOCK POSITIONS_FRAC

# Note: total spin =   8.00

KPOINTS_MP_SPACING 0.07

%BLOCK SPECIES_POT
QC5
%ENDBLOCK SPECIES_POT

%BLOCK HUBBARD_U
Fe d:4.0
%ENDBLOCK HUBBARD_U

SNAP_TO_SYMMETRY
SYMMETRY_GENERATE

