#              Generated by Buildcell
#
# at 04:52:45 (GMT+0.0) 24th November 2020
# in /scratch/scratch/uccabz1/launch_tmp
# on node-k10a-022
# by uccabz1
#
# compiler GCC version 4.9.2
# options -cpp -iprefix /scratch/UCL/applications/gcc/4.9.2/bin/../lib/gcc/x86_64-unknown-linux-gnu/4.9.2/ -mtune=corei7 -march=x86-64 -g -O2
#
# seed   543384887   695271437   101787701 -1229242225  -744399607   229979375  -486227566  -678911844  -670780767 -1160613656 -1169528082  1156992617
#
#      Author: C. J. Pickard (cjp20@cam.ac.uk)
#                Space group: P21
#

%BLOCK LATTICE_ABC
      4.27255      6.05897      6.34224
     90.00000     90.00000    102.96109
%ENDBLOCK LATTICE_ABC

%BLOCK POSITIONS_FRAC
  Li   0.4499950  -0.0685582   0.2417260 SPIN=   0.00000
  Li  -0.4499950   0.0685582  -0.2582740 SPIN=   0.00000
   O  -0.1602915  -0.3337353   0.2157393 SPIN=   0.00000
   O   0.2411314  -0.2148693   0.5248668 SPIN=   0.00000
   O  -0.1939916  -0.0108949   0.4784741 SPIN=   0.00000
   O  -0.3264935  -0.4127041   0.6048661 SPIN=   0.00000
   P  -0.1151496  -0.2498815   0.4449516 SPIN=   0.00000
   O   0.1602915   0.3337353  -0.2842607 SPIN=   0.00000
   O  -0.2411314   0.2148693   0.0248668 SPIN=   0.00000
   O   0.1939916   0.0108949  -0.0215259 SPIN=   0.00000
   O   0.3264935   0.4127041   0.1048661 SPIN=   0.00000
   P   0.1151496   0.2498815  -0.0550484 SPIN=   0.00000
  Fe   0.0764947   0.3291819   0.3893395 SPIN=   4.00000
  Fe  -0.0764947  -0.3291819  -0.1106605 SPIN=   4.00000
%ENDBLOCK POSITIONS_FRAC

# Note: total spin =   8.00

KPOINTS_MP_SPACING 0.07

%BLOCK SPECIES_POT
QC5
%ENDBLOCK SPECIES_POT

%BLOCK HUBBARD_U
Fe d:4.0
%ENDBLOCK HUBBARD_U

SNAP_TO_SYMMETRY
SYMMETRY_GENERATE

