#              Generated by Buildcell
#
# at 22:36:52 (GMT+0.0) 23rd November 2020
# in /lustre/scratch/uccabz1/launch_tmp
# on node-c12a-034
# by uccabz1
#
# compiler GCC version 4.9.2
# options -cpp -iprefix /lustre/shared/ucl/apps/gcc/4.9.2/bin/../lib/gcc/x86_64-unknown-linux-gnu/4.9.2/ -mtune=corei7 -march=x86-64 -g -Og
#
# seed  1711779931 -1427665244 -1706452484  1703913374   769765754  -143264337  -556457069  -852124565 -1877018193  2017348992  1731920749   280881915
#
#      Author: C. J. Pickard (cjp20@cam.ac.uk)
#                Space group: P-1
#

%BLOCK LATTICE_ABC
      3.98168      4.43102      9.22195
     82.07976     83.50925     86.94848
%ENDBLOCK LATTICE_ABC

%BLOCK POSITIONS_FRAC
  Li  -0.2236231  -0.4541075   0.3781947 SPIN=   0.00000
  Li   0.2236231   0.4541075  -0.3781947 SPIN=   0.00000
   O   0.2916870  -0.5261350   0.3216544 SPIN=   0.00000
   O  -0.0819000  -0.0371295   0.2587204 SPIN=   0.00000
   O   0.3247127  -0.2103037   0.0616143 SPIN=   0.00000
   O  -0.1887086  -0.5114954   0.1542991 SPIN=   0.00000
   O  -0.2916870   0.5261350  -0.3216544 SPIN=   0.00000
   O   0.0819000   0.0371295  -0.2587204 SPIN=   0.00000
   O  -0.3247127   0.2103037  -0.0616143 SPIN=   0.00000
   O   0.1887086   0.5114954  -0.1542991 SPIN=   0.00000
   P  -0.0000000  -0.5000000  -0.0000000 SPIN=   0.00000
   P   0.0000000   0.0000000  -0.5000000 SPIN=   0.00000
  Fe  -0.4015986  -0.1219112  -0.1927561 SPIN=   4.00000
  Fe   0.4015986   0.1219112   0.1927561 SPIN=   4.00000
%ENDBLOCK POSITIONS_FRAC

# Note: total spin =   8.00

KPOINTS_MP_SPACING 0.07

%BLOCK SPECIES_POT
QC5
%ENDBLOCK SPECIES_POT

%BLOCK HUBBARD_U
Fe d:4.0
%ENDBLOCK HUBBARD_U

SNAP_TO_SYMMETRY
SYMMETRY_GENERATE

