#              Generated by Buildcell
#
# at 04:48:57 (GMT+0.0) 24th November 2020
# in /lustre/scratch/uccabz1/launch_tmp
# on node-c12l-030
# by uccabz1
#
# compiler GCC version 4.9.2
# options -cpp -iprefix /lustre/shared/ucl/apps/gcc/4.9.2/bin/../lib/gcc/x86_64-unknown-linux-gnu/4.9.2/ -mtune=corei7 -march=x86-64 -g -Og
#
# seed  1349461546  1995560533  -628238540    49385266 -1036417430  2106913848 -2106186238   992608168  1590731495  2137103489  -831006374   -21251034
#
#      Author: C. J. Pickard (cjp20@cam.ac.uk)
#                Space group: Pmc21
#

%BLOCK LATTICE_ABC
      3.91489      5.51219      7.41440
     90.00000     90.00000     90.00000
%ENDBLOCK LATTICE_ABC

%BLOCK POSITIONS_FRAC
  Li  -0.0027544   0.0000000  -0.1794864 SPIN=   0.00000
  Li   0.0027544   0.0000000   0.3205136 SPIN=   0.00000
   O   0.4270904   0.2663891  -0.1827540 SPIN=   0.00000
   O  -0.0822425   0.2257922  -0.4053517 SPIN=   0.00000
   O  -0.4270904  -0.2663891   0.3172460 SPIN=   0.00000
   O   0.0822425  -0.2257922   0.0946483 SPIN=   0.00000
   O  -0.4270904   0.2663891   0.3172460 SPIN=   0.00000
   O   0.0822425   0.2257922   0.0946483 SPIN=   0.00000
   O   0.4270904  -0.2663891  -0.1827540 SPIN=   0.00000
   O  -0.0822425  -0.2257922  -0.4053517 SPIN=   0.00000
   P   0.4964732   0.0000000   0.0688509 SPIN=   0.00000
   P  -0.4964732   0.0000000  -0.4311491 SPIN=   0.00000
  Fe  -0.3179265  -0.5000000   0.1011303 SPIN=   4.00000
  Fe   0.3179265  -0.5000000  -0.3988697 SPIN=   4.00000
%ENDBLOCK POSITIONS_FRAC

# Note: total spin =   8.00

KPOINTS_MP_SPACING 0.07

%BLOCK SPECIES_POT
QC5
%ENDBLOCK SPECIES_POT

%BLOCK HUBBARD_U
Fe d:4.0
%ENDBLOCK HUBBARD_U

SNAP_TO_SYMMETRY
SYMMETRY_GENERATE

