#              Generated by Buildcell
#
# at 00:08:10 (GMT+0.0) 24th November 2020
# in /lustre/scratch/uccabz1/launch_tmp
# on node-c12k-027
# by uccabz1
#
# compiler GCC version 4.9.2
# options -cpp -iprefix /lustre/shared/ucl/apps/gcc/4.9.2/bin/../lib/gcc/x86_64-unknown-linux-gnu/4.9.2/ -mtune=corei7 -march=x86-64 -g -Og
#
# seed   101108056   912968298  -798072063 -1270610783   799016181 -1898961491 -2021031266  1508350171  -701857051  -788832991 -2025183338 -1103178953
#
#      Author: C. J. Pickard (cjp20@cam.ac.uk)
#                Space group: Fdd2
#

%BLOCK LATTICE_ABC
      5.35834      5.35834      6.73756
    113.40465    113.40465     90.06116
%ENDBLOCK LATTICE_ABC

%BLOCK POSITIONS_FRAC
  Li  -0.2181823  -0.7181823  -0.4363647 SPIN=   0.00000
  Li   0.0318177   0.0318177   0.0636353 SPIN=   0.00000
   O   0.7315568  -0.3384539  -0.2054239 SPIN=   0.00000
   O   0.2261396  -0.3099425  -0.2596912 SPIN=   0.00000
   O   0.0630193   0.1330300  -0.2054239 SPIN=   0.00000
   O   0.5141692   0.0502513  -0.2596912 SPIN=   0.00000
   O   0.4115461   0.9815568   0.2945761 SPIN=   0.00000
   O   0.4400575   0.4761396   0.2403088 SPIN=   0.00000
   O  -0.1169700   0.3130193   0.2945761 SPIN=   0.00000
   O  -0.1997487   0.7641692   0.2403088 SPIN=   0.00000
   P  -0.2084805  -0.2084805  -0.4169610 SPIN=   0.00000
   P  -0.4584805   0.0415195   0.0830390 SPIN=   0.00000
  Fe   0.2039795   0.7039795   0.4079590 SPIN=   4.00000
  Fe   0.4539795  -0.5460205  -0.0920410 SPIN=   4.00000
%ENDBLOCK POSITIONS_FRAC

# Note: total spin =   8.00

KPOINTS_MP_SPACING 0.07

%BLOCK SPECIES_POT
QC5
%ENDBLOCK SPECIES_POT

%BLOCK HUBBARD_U
Fe d:4.0
%ENDBLOCK HUBBARD_U

SNAP_TO_SYMMETRY
SYMMETRY_GENERATE

