#              Generated by Buildcell
#
# at 05:04:25 (GMT+0.0) 24th November 2020
# in /lustre/scratch/uccabz1/launch_tmp
# on node-c12l-027
# by uccabz1
#
# compiler GCC version 4.9.2
# options -cpp -iprefix /lustre/shared/ucl/apps/gcc/4.9.2/bin/../lib/gcc/x86_64-unknown-linux-gnu/4.9.2/ -mtune=corei7 -march=x86-64 -g -Og
#
# seed  1077903489  -794112734 -1621107668  -739144209 -1090183070   687087399  -282466881  1587928617   158033963  -570969158 -1010618134 -1542141421
#
#      Author: C. J. Pickard (cjp20@cam.ac.uk)
#                Space group: P-1
#

%BLOCK LATTICE_ABC
      5.57750      5.81774      5.97747
    113.41258     96.08980    110.35993
%ENDBLOCK LATTICE_ABC

%BLOCK POSITIONS_FRAC
  Li   0.2529746   0.4758427   0.3319550 SPIN=   0.00000
  Li  -0.2529746  -0.4758427  -0.3319550 SPIN=   0.00000
   O   0.1205354  -0.2571550  -0.0204757 SPIN=   0.00000
   O   0.0266239  -0.6877451  -0.4454340 SPIN=   0.00000
   O   0.4651120  -0.2852654  -0.2786811 SPIN=   0.00000
   P   0.2367828  -0.4429951  -0.1889700 SPIN=   0.00000
   O  -0.1205354   0.2571550   0.0204757 SPIN=   0.00000
   O  -0.0266239   0.6877451   0.4454340 SPIN=   0.00000
   O  -0.4651120   0.2852654   0.2786811 SPIN=   0.00000
   P  -0.2367828   0.4429951   0.1889700 SPIN=   0.00000
   O  -0.5000000  -0.0000000   0.5000000 SPIN=   0.00000
   O   0.5000000   0.5000000   0.0000000 SPIN=   0.00000
  Fe  -0.2873589  -0.0695749   0.2267097 SPIN=   4.00000
  Fe   0.2873589   0.0695749  -0.2267097 SPIN=   4.00000
%ENDBLOCK POSITIONS_FRAC

# Note: total spin =   8.00

KPOINTS_MP_SPACING 0.07

%BLOCK SPECIES_POT
QC5
%ENDBLOCK SPECIES_POT

%BLOCK HUBBARD_U
Fe d:4.0
%ENDBLOCK HUBBARD_U

SNAP_TO_SYMMETRY
SYMMETRY_GENERATE

