#              Generated by Buildcell
#
# at 05:54:15 (GMT+0.0) 24th November 2020
# in /lustre/scratch/uccabz1/launch_tmp
# on node-c12e-025
# by uccabz1
#
# compiler GCC version 4.9.2
# options -cpp -iprefix /lustre/shared/ucl/apps/gcc/4.9.2/bin/../lib/gcc/x86_64-unknown-linux-gnu/4.9.2/ -mtune=corei7 -march=x86-64 -g -Og
#
# seed  1807075041  -621433377 -1604246017 -1799966638   394708788   922417419  -278662384 -1123391026  1692910877   196945474  -774004399   343853588
#
#      Author: C. J. Pickard (cjp20@cam.ac.uk)
#                Space group: Pc
#

%BLOCK LATTICE_ABC
      3.90402      5.51739      7.59245
     90.00000    101.94550     90.00000
%ENDBLOCK LATTICE_ABC

%BLOCK POSITIONS_FRAC
  Li  -0.4287462  -0.1346934  -0.4150502 SPIN=   0.00000
  Li   0.5712538   0.1346934   0.0849498 SPIN=   0.00000
   O   0.4532635  -0.5417023   0.2267174 SPIN=   0.00000
   O   0.9436478  -0.2874358   0.4275535 SPIN=   0.00000
   O   0.8117042  -0.2122474   0.0997556 SPIN=   0.00000
   O   0.3804447  -0.0851032   0.2844999 SPIN=   0.00000
   P   0.6337867  -0.2931510   0.2581726 SPIN=   0.00000
   O  -0.5467365   0.5417023  -0.2732826 SPIN=   0.00000
   O  -0.0563522   0.2874358  -0.0724465 SPIN=   0.00000
   O  -0.1882958   0.2122474  -0.4002444 SPIN=   0.00000
   O  -0.6195553   0.0851032  -0.2155001 SPIN=   0.00000
   P  -0.3662133   0.2931510  -0.2418274 SPIN=   0.00000
  Fe   0.1598195   0.3652759   0.4193831 SPIN=   4.00000
  Fe   0.1598195  -0.3652759  -0.0806169 SPIN=   4.00000
%ENDBLOCK POSITIONS_FRAC

# Note: total spin =   8.00

KPOINTS_MP_SPACING 0.07

%BLOCK SPECIES_POT
QC5
%ENDBLOCK SPECIES_POT

%BLOCK HUBBARD_U
Fe d:4.0
%ENDBLOCK HUBBARD_U

SNAP_TO_SYMMETRY
SYMMETRY_GENERATE

