#              Generated by Buildcell
#
# at 01:21:39 (GMT+0.0) 24th November 2020
# in /lustre/scratch/uccabz1/launch_tmp
# on node-c12n-028
# by uccabz1
#
# compiler GCC version 4.9.2
# options -cpp -iprefix /lustre/shared/ucl/apps/gcc/4.9.2/bin/../lib/gcc/x86_64-unknown-linux-gnu/4.9.2/ -mtune=corei7 -march=x86-64 -g -Og
#
# seed   801506275 -1678754162  1748661851  -314358546 -1922307801 -1007682102  -128985766  1785048219  -632325849  -830318789 -1415074753 -1930186799
#
#      Author: C. J. Pickard (cjp20@cam.ac.uk)
#                Space group: P2
#

%BLOCK LATTICE_ABC
      3.81897      5.49061      7.65002
     94.09234     90.00000     90.00000
%ENDBLOCK LATTICE_ABC

%BLOCK POSITIONS_FRAC
  Li   0.0191139   0.4128534  -0.2421381 SPIN=   0.00000
  Li   0.0191139  -0.4128534   0.2421381 SPIN=   0.00000
   O  -0.4332292   0.0775166  -0.2403332 SPIN=   0.00000
   O  -0.5266038  -0.3901448  -0.2971132 SPIN=   0.00000
   O  -0.0230682  -0.2009212  -0.4381172 SPIN=   0.00000
   O  -0.0185451  -0.2371599  -0.1136436 SPIN=   0.00000
   O  -0.4332292  -0.0775166   0.2403332 SPIN=   0.00000
   O  -0.5266038   0.3901448   0.2971132 SPIN=   0.00000
   O  -0.0230682   0.2009212   0.4381172 SPIN=   0.00000
   O  -0.0185451   0.2371599   0.1136436 SPIN=   0.00000
   P  -0.4778225  -0.5000000   0.0000000 SPIN=   0.00000
   P  -0.4254553  -0.5000000   0.5000000 SPIN=   0.00000
  Fe   0.4195912  -0.0000000  -0.5000000 SPIN=   5.19528
  Fe   0.3556620   0.0000000  -0.0000000 SPIN=   2.80472
%ENDBLOCK POSITIONS_FRAC

# Note: total spin =   8.00

KPOINTS_MP_SPACING 0.07

%BLOCK SPECIES_POT
QC5
%ENDBLOCK SPECIES_POT

%BLOCK HUBBARD_U
Fe d:4.0
%ENDBLOCK HUBBARD_U

SNAP_TO_SYMMETRY
SYMMETRY_GENERATE

