#              Generated by Buildcell
#
# at 04:23:39 (GMT+0.0) 24th November 2020
# in /scratch/scratch/uccabz1/launch_tmp
# on node-a14e-019
# by uccabz1
#
# compiler GCC version 4.9.2
# options -cpp -iprefix /scratch/UCL/applications/gcc/4.9.2/bin/../lib/gcc/x86_64-unknown-linux-gnu/4.9.2/ -mtune=corei7 -march=x86-64 -g -O2
#
# seed  -546813275 -2112282835   865766418 -1308363848   938978745   588469466   565000784   859255838  -816759932 -1359202872  -419905764 -1115447437
#
#      Author: C. J. Pickard (cjp20@cam.ac.uk)
#                Space group: Pma2
#

%BLOCK LATTICE_ABC
      3.80785      3.85184     10.90869
     90.00000     90.00000     90.00000
%ENDBLOCK LATTICE_ABC

%BLOCK POSITIONS_FRAC
  Li  -0.4038530  -0.1680997  -0.2500000 SPIN=   0.00000
  Li  -0.4038530   0.1680997   0.2500000 SPIN=   0.00000
   O  -0.0691756   0.1295499  -0.3619378 SPIN=   0.00000
   O  -0.5948400  -0.2578137  -0.4278581 SPIN=   0.00000
   O  -0.0691756  -0.1295499   0.3619378 SPIN=   0.00000
   O  -0.5948400   0.2578137   0.4278581 SPIN=   0.00000
   O  -0.0691756  -0.1295499   0.1380622 SPIN=   0.00000
   O  -0.5948400   0.2578137   0.0721419 SPIN=   0.00000
   O  -0.0691756   0.1295499  -0.1380622 SPIN=   0.00000
   O  -0.5948400  -0.2578137  -0.0721419 SPIN=   0.00000
   P   0.1040419  -0.3315191   0.2500000 SPIN=   0.00000
   P   0.1040419   0.3315191  -0.2500000 SPIN=   0.00000
  Fe  -0.0494539   0.5000000  -0.0000000 SPIN=   4.00000
  Fe  -0.0494539   0.5000000  -0.5000000 SPIN=   4.00000
%ENDBLOCK POSITIONS_FRAC

# Note: total spin =   8.00

KPOINTS_MP_SPACING 0.07

%BLOCK SPECIES_POT
QC5
%ENDBLOCK SPECIES_POT

%BLOCK HUBBARD_U
Fe d:4.0
%ENDBLOCK HUBBARD_U

SNAP_TO_SYMMETRY
SYMMETRY_GENERATE

