#              Generated by Buildcell
#
# at 00:31:27 (GMT+0.0) 24th November 2020
# in /lustre/scratch/uccabz1/launch_tmp
# on node-c12l-027
# by uccabz1
#
# compiler GCC version 4.9.2
# options -cpp -iprefix /lustre/shared/ucl/apps/gcc/4.9.2/bin/../lib/gcc/x86_64-unknown-linux-gnu/4.9.2/ -mtune=corei7 -march=x86-64 -g -Og
#
# seed  1922586162   555452178 -1414298894  1798487279  1288721159   223502219   917491895 -2087043577  -818279420  -346802737  1632448958  -652636248
#
#      Author: C. J. Pickard (cjp20@cam.ac.uk)
#                Space group: Cm
#

%BLOCK LATTICE_ABC
      4.14550      6.30433      6.30433
     99.15787     96.70787     96.70787
%ENDBLOCK LATTICE_ABC

%BLOCK POSITIONS_FRAC
  Li  -0.2755872   0.4241482   0.4241482 SPIN=   0.00000
  Li  -0.4221105   0.0052164   0.0052164 SPIN=   0.00000
   O   0.1790218  -0.1143895   0.1495650 SPIN=   0.00000
   O   0.6919327  -0.2851446   0.2784853 SPIN=   0.00000
   O   0.1465250  -0.5027111   0.2422877 SPIN=   0.00000
   O   0.3812176  -0.4290133  -0.0914098 SPIN=   0.00000
   O   0.1790218   0.1495650  -0.1143895 SPIN=   0.00000
   O   0.6919327   0.2784853  -0.2851446 SPIN=   0.00000
   O   0.1465250   0.2422877  -0.5027111 SPIN=   0.00000
   O   0.3812176  -0.0914098  -0.4290133 SPIN=   0.00000
   P   0.1511991   0.2146922   0.2146922 SPIN=   0.00000
   P   0.3480750  -0.3241804  -0.3241804 SPIN=   0.00000
  Fe  -0.1135991  -0.0452843  -0.4532724 SPIN=   4.00000
  Fe  -0.1135991  -0.4532724  -0.0452843 SPIN=   4.00000
%ENDBLOCK POSITIONS_FRAC

# Note: total spin =   8.00

KPOINTS_MP_SPACING 0.07

%BLOCK SPECIES_POT
QC5
%ENDBLOCK SPECIES_POT

%BLOCK HUBBARD_U
Fe d:4.0
%ENDBLOCK HUBBARD_U

SNAP_TO_SYMMETRY
SYMMETRY_GENERATE

