#              Generated by Buildcell
#
# at 04:07:38 (GMT+0.0) 24th November 2020
# in /lustre/scratch/uccabz1/launch_tmp
# on node-c12l-027
# by uccabz1
#
# compiler GCC version 4.9.2
# options -cpp -iprefix /lustre/shared/ucl/apps/gcc/4.9.2/bin/../lib/gcc/x86_64-unknown-linux-gnu/4.9.2/ -mtune=corei7 -march=x86-64 -g -Og
#
# seed  -144957145  -667353147  1024535541 -1654976466 -1491834434   747217373   653113848  1922433713 -1093777093  1367594286  2014600174  -766747508
#
#      Author: C. J. Pickard (cjp20@cam.ac.uk)
#                Space group: P-1
#

%BLOCK LATTICE_ABC
      4.69059      4.90098      7.03879
     82.73992     85.51465     88.48963
%ENDBLOCK LATTICE_ABC

%BLOCK POSITIONS_FRAC
  Li   0.7432708  -0.8038902   0.4823808 SPIN=   0.00000
  Li  -0.7432708   0.8038902  -0.4823808 SPIN=   0.00000
   O   0.0880964  -0.9208115   0.2230047 SPIN=   0.00000
   O   0.5274297  -0.6006774   0.1690215 SPIN=   0.00000
   O   0.0831876  -0.4333985   0.3317955 SPIN=   0.00000
   P   0.2594761  -0.7050085   0.3045473 SPIN=   0.00000
   O  -0.0880964   0.9208115  -0.2230047 SPIN=   0.00000
   O  -0.5274297   0.6006774  -0.1690215 SPIN=   0.00000
   O  -0.0831876   0.4333985  -0.3317955 SPIN=   0.00000
   P  -0.2594761   0.7050085  -0.3045473 SPIN=   0.00000
   O  -0.5000000  -0.0000000  -0.0000000 SPIN=   0.00000
   O  -0.0000000   0.5000000   0.0000000 SPIN=   0.00000
  Fe   0.2379685   0.2476155  -0.1728749 SPIN=   4.00000
  Fe  -0.2379685  -0.2476155   0.1728749 SPIN=   4.00000
%ENDBLOCK POSITIONS_FRAC

# Note: total spin =   8.00

KPOINTS_MP_SPACING 0.07

%BLOCK SPECIES_POT
QC5
%ENDBLOCK SPECIES_POT

%BLOCK HUBBARD_U
Fe d:4.0
%ENDBLOCK HUBBARD_U

SNAP_TO_SYMMETRY
SYMMETRY_GENERATE

