#              Generated by Buildcell
#
# at 02:06:48 (GMT+0.0) 24th November 2020
# in /lustre/scratch/uccabz1/launch_tmp
# on node-c12h-027
# by uccabz1
#
# compiler GCC version 4.9.2
# options -cpp -iprefix /lustre/shared/ucl/apps/gcc/4.9.2/bin/../lib/gcc/x86_64-unknown-linux-gnu/4.9.2/ -mtune=corei7 -march=x86-64 -g -Og
#
# seed -1621241541  1849987127  1146580807  -363510912   104026755   279621140 -1196884343    11397941  -327255436 -1446587225 -2066563119  -699474284
#
#      Author: C. J. Pickard (cjp20@cam.ac.uk)
#                Space group: P-1
#

%BLOCK LATTICE_ABC
      4.31384      5.06622      7.82460
     81.90270     84.95945     71.08960
%ENDBLOCK LATTICE_ABC

%BLOCK POSITIONS_FRAC
  Li  -0.1574867   0.3715509   0.2101315 SPIN=   0.00000
  Li   0.1574867  -0.3715509  -0.2101315 SPIN=   0.00000
   O  -0.2246596  -0.0029524  -0.2904303 SPIN=   0.00000
   O  -0.1810916   0.3257420  -0.0733265 SPIN=   0.00000
   O   0.1944666   0.2737060  -0.3324219 SPIN=   0.00000
   O  -0.4029094   0.5367668  -0.3641729 SPIN=   0.00000
   P  -0.1602776   0.2710643  -0.2676065 SPIN=   0.00000
   O   0.2246596   0.0029524   0.2904303 SPIN=   0.00000
   O   0.1810916  -0.3257420   0.0733265 SPIN=   0.00000
   O  -0.1944666  -0.2737060   0.3324219 SPIN=   0.00000
   O   0.4029094  -0.5367668   0.3641729 SPIN=   0.00000
   P   0.1602776  -0.2710643   0.2676065 SPIN=   0.00000
  Fe  -0.5000000  -0.0000000  -0.0000000 SPIN=   8.00000
  Fe  -0.5000000  -0.0000000   0.5000000 SPIN=  -0.00000
%ENDBLOCK POSITIONS_FRAC

# Note: total spin =   8.00

KPOINTS_MP_SPACING 0.07

%BLOCK SPECIES_POT
QC5
%ENDBLOCK SPECIES_POT

%BLOCK HUBBARD_U
Fe d:4.0
%ENDBLOCK HUBBARD_U

SNAP_TO_SYMMETRY
SYMMETRY_GENERATE

