#              Generated by Buildcell
#
# at 04:10:58 (GMT+0.0) 24th November 2020
# in /lustre/scratch/uccabz1/launch_tmp
# on node-c12o-027
# by uccabz1
#
# compiler GCC version 4.9.2
# options -cpp -iprefix /lustre/shared/ucl/apps/gcc/4.9.2/bin/../lib/gcc/x86_64-unknown-linux-gnu/4.9.2/ -mtune=corei7 -march=x86-64 -g -Og
#
# seed  1747625827   956831591   -51130496 -1481386674  -250433514  -605969544  -475506923  -680724331  -468654205  1174803757  1042875618  1279472981
#
#      Author: C. J. Pickard (cjp20@cam.ac.uk)
#                Space group: P-1
#

%BLOCK LATTICE_ABC
      4.82516      6.01435      6.18582
     76.99256     76.90268     67.86085
%ENDBLOCK LATTICE_ABC

%BLOCK POSITIONS_FRAC
  Li   0.3417128  -0.2545122   0.0798595 SPIN=   0.00000
  Li  -0.3417128   0.2545122  -0.0798595 SPIN=   0.00000
   O  -0.5642778  -0.0095914   0.2398864 SPIN=   0.00000
   O  -0.0468800  -0.0911735   0.3580490 SPIN=   0.00000
   O  -0.2612248  -0.4213452   0.4578497 SPIN=   0.00000
   O  -0.0623172  -0.2999509   0.0556670 SPIN=   0.00000
   P  -0.2492557  -0.1961977   0.2732188 SPIN=   0.00000
   O   0.5642778   0.0095914  -0.2398864 SPIN=   0.00000
   O   0.0468800   0.0911735  -0.3580490 SPIN=   0.00000
   O   0.2612248   0.4213452  -0.4578497 SPIN=   0.00000
   O   0.0623172   0.2999509  -0.0556670 SPIN=   0.00000
   P   0.2492557   0.1961977  -0.2732188 SPIN=   0.00000
  Fe   0.0350647   0.2878229   0.2901371 SPIN=   4.00000
  Fe  -0.0350647  -0.2878229  -0.2901371 SPIN=   4.00000
%ENDBLOCK POSITIONS_FRAC

# Note: total spin =   8.00

KPOINTS_MP_SPACING 0.07

%BLOCK SPECIES_POT
QC5
%ENDBLOCK SPECIES_POT

%BLOCK HUBBARD_U
Fe d:4.0
%ENDBLOCK HUBBARD_U

SNAP_TO_SYMMETRY
SYMMETRY_GENERATE

