#              Generated by Buildcell
#
# at 02:41:14 (GMT+0.0) 24th November 2020
# in /scratch/scratch/uccabz1/launch_tmp
# on node-a14e-019
# by uccabz1
#
# compiler GCC version 4.9.2
# options -cpp -iprefix /scratch/UCL/applications/gcc/4.9.2/bin/../lib/gcc/x86_64-unknown-linux-gnu/4.9.2/ -mtune=corei7 -march=x86-64 -g -O2
#
# seed  2007767466   371640082 -2029916924  -417167980   533999621  1478899965  1186436579  1267544529 -1018508398  1372916933  1940622958  -395255489
#
#      Author: C. J. Pickard (cjp20@cam.ac.uk)
#                Space group: P21212
#

%BLOCK LATTICE_ABC
      5.32873      5.46944      5.48976
     90.00000     90.00000     90.00000
%ENDBLOCK LATTICE_ABC

%BLOCK POSITIONS_FRAC
  Li   0.1533610  -0.0000000  -0.0000000 SPIN=   0.00000
  Li  -0.1533610   0.5000000   0.5000000 SPIN=   0.00000
   O  -0.3459030   0.2591562   0.2590119 SPIN=   0.00000
   O  -0.1987369   0.7036127   0.1724972 SPIN=   0.00000
   O  -0.3459030  -0.2591562  -0.2590119 SPIN=   0.00000
   O  -0.1987369  -0.7036127  -0.1724972 SPIN=   0.00000
   O   0.3459030  -0.2408438   0.2409881 SPIN=   0.00000
   O   0.1987369   0.2036127   0.3275028 SPIN=   0.00000
   O   0.3459030   0.2408438  -0.2409881 SPIN=   0.00000
   O   0.1987369  -0.2036127  -0.3275028 SPIN=   0.00000
   P  -0.3458870  -0.0000000   0.0000000 SPIN=   0.00000
   P   0.3458870   0.5000000  -0.5000000 SPIN=   0.00000
  Fe   0.4997925  -0.0000000   0.5000000 SPIN=   4.00000
  Fe  -0.4997925   0.5000000  -0.0000000 SPIN=   4.00000
%ENDBLOCK POSITIONS_FRAC

# Note: total spin =   8.00

KPOINTS_MP_SPACING 0.07

%BLOCK SPECIES_POT
QC5
%ENDBLOCK SPECIES_POT

%BLOCK HUBBARD_U
Fe d:4.0
%ENDBLOCK HUBBARD_U

SNAP_TO_SYMMETRY
SYMMETRY_GENERATE

