#              Generated by Buildcell
#
# at 05:20:12 (GMT+0.0) 24th November 2020
# in /scratch/scratch/uccabz1/launch_tmp
# on node-k10i-019
# by uccabz1
#
# compiler GCC version 4.9.2
# options -cpp -iprefix /scratch/UCL/applications/gcc/4.9.2/bin/../lib/gcc/x86_64-unknown-linux-gnu/4.9.2/ -mtune=corei7 -march=x86-64 -g -O2
#
# seed  1879928798   192333480  1498061792 -1046342482  2108667910  2039033624  -924030899   900769067  1068620083   884769235  1841054177  -138127451
#
#      Author: C. J. Pickard (cjp20@cam.ac.uk)
#                Space group: P21
#

%BLOCK LATTICE_ABC
      5.05108      5.46930      6.01604
     90.00000    105.69733     90.00000
%ENDBLOCK LATTICE_ABC

%BLOCK POSITIONS_FRAC
  Li   0.1204546  -0.1836995  -0.0236090 SPIN=   0.00000
  Li  -0.1204546   0.3163005   0.0236090 SPIN=   0.00000
   O   0.7891587   0.2723505   0.3436203 SPIN=   0.00000
   O   0.3930916   0.4000778  -0.0119234 SPIN=   0.00000
   O   0.3069311   0.0678663   0.2377593 SPIN=   0.00000
   O   0.3560604   0.4983389   0.3851446 SPIN=   0.00000
   P   0.4775247   0.3098986   0.2459681 SPIN=   0.00000
   O  -0.7891587  -0.2276495  -0.3436203 SPIN=   0.00000
   O  -0.3930916  -0.0999222   0.0119234 SPIN=   0.00000
   O  -0.3069311  -0.4321337  -0.2377593 SPIN=   0.00000
   O  -0.3560604  -0.0016611  -0.3851446 SPIN=   0.00000
   P  -0.4775247  -0.1901014  -0.2459681 SPIN=   0.00000
  Fe   0.2693836   0.2801929  -0.3559903 SPIN=   4.00000
  Fe  -0.2693836  -0.2198071   0.3559903 SPIN=   4.00000
%ENDBLOCK POSITIONS_FRAC

# Note: total spin =   8.00

KPOINTS_MP_SPACING 0.07

%BLOCK SPECIES_POT
QC5
%ENDBLOCK SPECIES_POT

%BLOCK HUBBARD_U
Fe d:4.0
%ENDBLOCK HUBBARD_U

SNAP_TO_SYMMETRY
SYMMETRY_GENERATE

