#              Generated by Buildcell
#
# at 01:52:11 (GMT+0.0) 24th November 2020
# in /lustre/scratch/uccabz1/launch_tmp
# on node-c12c-021
# by uccabz1
#
# compiler GCC version 4.9.2
# options -cpp -iprefix /lustre/shared/ucl/apps/gcc/4.9.2/bin/../lib/gcc/x86_64-unknown-linux-gnu/4.9.2/ -mtune=corei7 -march=x86-64 -g -Og
#
# seed  1654946747  2070202137  -160663927   746311024  -283586225   123529458 -1874003690  2134941301  2037937324   286813800 -1043501100  1219033150
#
#      Author: C. J. Pickard (cjp20@cam.ac.uk)
#                Space group: P21
#

%BLOCK LATTICE_ABC
      4.72256      6.01138      6.07866
     90.00000     90.00000    112.00172
%ENDBLOCK LATTICE_ABC

%BLOCK POSITIONS_FRAC
  Li   0.3714750  -0.3913796  -0.2708353 SPIN=   0.00000
  Li  -0.3714750   0.3913796   0.2291647 SPIN=   0.00000
   O  -0.0795959  -0.4700868  -0.5005764 SPIN=   0.00000
   O  -0.2665774  -0.1152543  -0.5162822 SPIN=   0.00000
   O  -0.1525572  -0.2458160  -0.1529348 SPIN=   0.00000
   O   0.2761490  -0.0344644  -0.4123179 SPIN=   0.00000
   P  -0.0530051  -0.2277656  -0.4013193 SPIN=   0.00000
   O   0.0795959   0.4700868  -0.0005764 SPIN=   0.00000
   O   0.2665774   0.1152543  -0.0162822 SPIN=   0.00000
   O   0.1525572   0.2458160   0.3470652 SPIN=   0.00000
   O  -0.2761490   0.0344644   0.0876821 SPIN=   0.00000
   P   0.0530051   0.2277656   0.0986807 SPIN=   0.00000
  Fe  -0.3191338   0.2019283  -0.2733848 SPIN=   4.00000
  Fe   0.3191338  -0.2019283   0.2266152 SPIN=   4.00000
%ENDBLOCK POSITIONS_FRAC

# Note: total spin =   8.00

KPOINTS_MP_SPACING 0.07

%BLOCK SPECIES_POT
QC5
%ENDBLOCK SPECIES_POT

%BLOCK HUBBARD_U
Fe d:4.0
%ENDBLOCK HUBBARD_U

SNAP_TO_SYMMETRY
SYMMETRY_GENERATE

