#              Generated by Buildcell
#
# at 04:05:16 (GMT+0.0) 24th November 2020
# in /lustre/scratch/uccabz1/launch_tmp
# on node-c12f-020
# by uccabz1
#
# compiler GCC version 4.9.2
# options -cpp -iprefix /lustre/shared/ucl/apps/gcc/4.9.2/bin/../lib/gcc/x86_64-unknown-linux-gnu/4.9.2/ -mtune=corei7 -march=x86-64 -g -Og
#
# seed -1395230823  -480203193  -527454516  -824563015     4489080  1927723317  1166380752   611581307 -1908226125 -1091036249   -47062897  1124350363
#
#      Author: C. J. Pickard (cjp20@cam.ac.uk)
#                Space group: C2
#

%BLOCK LATTICE_ABC
      4.33431      5.20822      8.05037
     84.02772     75.51944     65.41119
%ENDBLOCK LATTICE_ABC

%BLOCK POSITIONS_FRAC
  Li  -0.1421504   0.2843007  -0.0000000 SPIN=   0.00000
  Li   0.8561544   0.2876912  -0.5000000 SPIN=   0.00000
   O   0.7164106  -0.0543155  -0.4078683 SPIN=   0.00000
   O   0.5415558   0.3063791  -0.1654637 SPIN=   0.00000
   O   0.0940959   0.3400007  -0.3156849 SPIN=   0.00000
   O   0.3027536  -0.0650211  -0.1165304 SPIN=   0.00000
   P   0.4285123   0.1195309  -0.2581272 SPIN=   0.00000
   O  -0.6620951  -0.0543155   0.4078683 SPIN=   0.00000
   O  -0.8479349   0.3063791   0.1654637 SPIN=   0.00000
   O  -0.4340966   0.3400007   0.3156849 SPIN=   0.00000
   O  -0.2377325  -0.0650211   0.1165304 SPIN=   0.00000
   P  -0.5480432   0.1195309   0.2581272 SPIN=   0.00000
  Fe   0.1499695  -0.2751413   0.2551962 SPIN=   4.00000
  Fe   0.1251718  -0.2751413  -0.2551962 SPIN=   4.00000
%ENDBLOCK POSITIONS_FRAC

# Note: total spin =   8.00

KPOINTS_MP_SPACING 0.07

%BLOCK SPECIES_POT
QC5
%ENDBLOCK SPECIES_POT

%BLOCK HUBBARD_U
Fe d:4.0
%ENDBLOCK HUBBARD_U

SNAP_TO_SYMMETRY
SYMMETRY_GENERATE

