#              Generated by Buildcell
#
# at 00:14:02 (GMT+0.0) 24th November 2020
# in /lustre/scratch/uccabz1/launch_tmp
# on node-c12f-022
# by uccabz1
#
# compiler GCC version 4.9.2
# options -cpp -iprefix /lustre/shared/ucl/apps/gcc/4.9.2/bin/../lib/gcc/x86_64-unknown-linux-gnu/4.9.2/ -mtune=corei7 -march=x86-64 -g -Og
#
# seed  -666891291  1688362893  1482599815  1284265268  -283339482  -306921845  1835630008    66365000   980470723   583802063   865600611  1021856428
#
#      Author: C. J. Pickard (cjp20@cam.ac.uk)
#                Space group: Fdd2
#

%BLOCK LATTICE_ABC
      5.37297      5.37297      6.60594
    109.90869    109.90869     99.36204
%ENDBLOCK LATTICE_ABC

%BLOCK POSITIONS_FRAC
  Li   0.2279466   0.2279466   0.4558933 SPIN=   0.00000
  Li  -0.0220534   0.4779466  -0.0441067 SPIN=   0.00000
   O   0.0150371  -0.4819532  -0.3402568 SPIN=   0.00000
   O   0.2260972   0.0268982  -0.2704339 SPIN=   0.00000
   O  -0.3552939   0.1416964  -0.3402568 SPIN=   0.00000
   O  -0.4965311  -0.2973321  -0.2704339 SPIN=   0.00000
   O  -0.7319532   0.2650371   0.1597432 SPIN=   0.00000
   O  -0.2231018   0.4760972   0.2295661 SPIN=   0.00000
   O  -0.1083036  -0.1052939   0.1597432 SPIN=   0.00000
   O  -0.5473321  -0.2465311   0.2295661 SPIN=   0.00000
   P   0.4672051   0.4672051  -0.0655899 SPIN=   0.00000
   P   0.2172051  -0.2827949   0.4344101 SPIN=   0.00000
  Fe  -0.4437720   0.0562280   0.1124560 SPIN=   4.00000
  Fe  -0.1937720  -0.1937720  -0.3875440 SPIN=   4.00000
%ENDBLOCK POSITIONS_FRAC

# Note: total spin =   8.00

KPOINTS_MP_SPACING 0.07

%BLOCK SPECIES_POT
QC5
%ENDBLOCK SPECIES_POT

%BLOCK HUBBARD_U
Fe d:4.0
%ENDBLOCK HUBBARD_U

SNAP_TO_SYMMETRY
SYMMETRY_GENERATE

