#              Generated by Buildcell
#
# at 02:52:46 (GMT+0.0) 24th November 2020
# in /lustre/scratch/uccabz1/launch_tmp
# on node-c12g-020
# by uccabz1
#
# compiler GCC version 4.9.2
# options -cpp -iprefix /lustre/shared/ucl/apps/gcc/4.9.2/bin/../lib/gcc/x86_64-unknown-linux-gnu/4.9.2/ -mtune=corei7 -march=x86-64 -g -Og
#
# seed  1806457411  1446932036  -578831912  1580228430 -1846335297  1404062496   -98464850  -360967705   716761195 -1153298060   225289413   335987192
#
#      Author: C. J. Pickard (cjp20@cam.ac.uk)
#                Space group: C2
#

%BLOCK LATTICE_ABC
      3.85015      6.54307      6.54307
     80.97481     81.93900     81.93900
%ENDBLOCK LATTICE_ABC

%BLOCK POSITIONS_FRAC
  Li   0.0740499  -0.0091795  -0.4721212 SPIN=   0.00000
  Li  -0.0740499   0.4721212   0.0091795 SPIN=   0.00000
   O   0.0542988  -0.2542067  -0.1871623 SPIN=   0.00000
   O   0.5990777  -0.5307129  -0.2462693 SPIN=   0.00000
   O   0.6175422  -0.1760907  -0.4405864 SPIN=   0.00000
   P   0.4593755  -0.2957917  -0.2279512 SPIN=   0.00000
   O  -0.0542988   0.1871623   0.2542067 SPIN=   0.00000
   O  -0.5990777   0.2462693   0.5307129 SPIN=   0.00000
   O  -0.6175422   0.4405864   0.1760907 SPIN=   0.00000
   P  -0.4593755   0.2279512   0.2957917 SPIN=   0.00000
   O   0.5000000   0.0934560  -0.0934560 SPIN=   0.00000
   O  -0.5000000  -0.1988585   0.1988585 SPIN=   0.00000
  Fe  -0.0000000  -0.0384174   0.0384174 SPIN=   1.89943
  Fe  -0.0000000  -0.4986064   0.4986064 SPIN=   6.10057
%ENDBLOCK POSITIONS_FRAC

# Note: total spin =   8.00

KPOINTS_MP_SPACING 0.07

%BLOCK SPECIES_POT
QC5
%ENDBLOCK SPECIES_POT

%BLOCK HUBBARD_U
Fe d:4.0
%ENDBLOCK HUBBARD_U

SNAP_TO_SYMMETRY
SYMMETRY_GENERATE

