#              Generated by Buildcell
#
# at 02:06:27 (GMT+0.0) 24th November 2020
# in /lustre/scratch/uccabz1/launch_tmp
# on node-c12j-029
# by uccabz1
#
# compiler GCC version 4.9.2
# options -cpp -iprefix /lustre/shared/ucl/apps/gcc/4.9.2/bin/../lib/gcc/x86_64-unknown-linux-gnu/4.9.2/ -mtune=corei7 -march=x86-64 -g -Og
#
# seed   400352434 -1344148582  -990850978 -2134055949  -144081089   254283904   231136726 -2015879268   237950194  2022568114 -1604201529   794033624
#
#      Author: C. J. Pickard (cjp20@cam.ac.uk)
#                Space group: P-1
#

%BLOCK LATTICE_ABC
      4.95317      5.01895      7.18629
     74.07624     85.17257     68.66850
%ENDBLOCK LATTICE_ABC

%BLOCK POSITIONS_FRAC
  Li  -0.0505555  -0.1852190  -0.1161174 SPIN=   0.00000
  Li   0.0505555   0.1852190   0.1161174 SPIN=   0.00000
   O   0.3650349  -0.1656837   0.0066778 SPIN=   0.00000
   O   0.2370944  -0.1598897   0.3640036 SPIN=   0.00000
   O   0.0804392  -0.4776295   0.2225611 SPIN=   0.00000
   O   0.6075126  -0.6150549   0.2934406 SPIN=   0.00000
   O  -0.3650349   0.1656837  -0.0066778 SPIN=   0.00000
   O  -0.2370944   0.1598897  -0.3640036 SPIN=   0.00000
   O  -0.0804392   0.4776295  -0.2225611 SPIN=   0.00000
   O  -0.6075126   0.6150549  -0.2934406 SPIN=   0.00000
   P   0.0000000   0.0000000   0.5000000 SPIN=   0.00000
   P   0.5000000  -0.5000000   0.0000000 SPIN=   0.00000
  Fe  -0.3196429   0.7570512   0.3227308 SPIN=   4.00000
  Fe   0.3196429  -0.7570512  -0.3227308 SPIN=   4.00000
%ENDBLOCK POSITIONS_FRAC

# Note: total spin =   8.00

KPOINTS_MP_SPACING 0.07

%BLOCK SPECIES_POT
QC5
%ENDBLOCK SPECIES_POT

%BLOCK HUBBARD_U
Fe d:4.0
%ENDBLOCK HUBBARD_U

SNAP_TO_SYMMETRY
SYMMETRY_GENERATE

