#              Generated by Buildcell
#
# at 22:12:54 (GMT+0.0) 23rd November 2020
# in /lustre/scratch/uccabz1/launch_tmp
# on node-c12d-031
# by uccabz1
#
# compiler GCC version 4.9.2
# options -cpp -iprefix /lustre/shared/ucl/apps/gcc/4.9.2/bin/../lib/gcc/x86_64-unknown-linux-gnu/4.9.2/ -mtune=corei7 -march=x86-64 -g -Og
#
# seed  1734460491 -1326035164   827446651 -1063966885  1465120106   -61610787  1472202799  -639763433  1211530253  1958722245   523939298   435575000
#
#      Author: C. J. Pickard (cjp20@cam.ac.uk)
#                Space group: Pmn21
#

%BLOCK LATTICE_ABC
      4.16102      5.43753      7.07162
     90.00000     90.00000     90.00000
%ENDBLOCK LATTICE_ABC

%BLOCK POSITIONS_FRAC
  Li   0.4408949   0.0000000   0.2972992 SPIN=   0.00000
  Li  -0.4408949  -0.5000000  -0.2027008 SPIN=   0.00000
   O   0.0270575   0.2719162  -0.2724001 SPIN=   0.00000
   O   0.5409382   0.2719140  -0.4810832 SPIN=   0.00000
   O  -0.0270575   0.2280838   0.2275999 SPIN=   0.00000
   O  -0.5409382   0.2280860   0.0189168 SPIN=   0.00000
   O  -0.0270575  -0.2280838   0.2275999 SPIN=   0.00000
   O  -0.5409382  -0.2280860   0.0189168 SPIN=   0.00000
   O   0.0270575  -0.2719162  -0.2724001 SPIN=   0.00000
   O   0.5409382  -0.2719140  -0.4810832 SPIN=   0.00000
   P  -0.0603039   0.0000000  -0.4647139 SPIN=   0.00000
   P   0.0603039  -0.5000000   0.0352861 SPIN=   0.00000
  Fe  -0.0591753   0.0000000  -0.0629550 SPIN=   4.00000
  Fe   0.0591753  -0.5000000   0.4370450 SPIN=   4.00000
%ENDBLOCK POSITIONS_FRAC

# Note: total spin =   8.00

KPOINTS_MP_SPACING 0.07

%BLOCK SPECIES_POT
QC5
%ENDBLOCK SPECIES_POT

%BLOCK HUBBARD_U
Fe d:4.0
%ENDBLOCK HUBBARD_U

SNAP_TO_SYMMETRY
SYMMETRY_GENERATE

