#              Generated by Buildcell
#
# at 05:49:34 (GMT+0.0) 24th November 2020
# in /lustre/scratch/uccabz1/launch_tmp
# on node-c12e-031
# by uccabz1
#
# compiler GCC version 4.9.2
# options -cpp -iprefix /lustre/shared/ucl/apps/gcc/4.9.2/bin/../lib/gcc/x86_64-unknown-linux-gnu/4.9.2/ -mtune=corei7 -march=x86-64 -g -Og
#
# seed   199541961 -2044767633 -1710076338   352757730 -1527681283  1686274314  -573238574   800030963  -198425987  -619647823    87634267  1700643901
#
#      Author: C. J. Pickard (cjp20@cam.ac.uk)
#                Space group: P-1
#

%BLOCK LATTICE_ABC
      4.14381      5.51649      7.35474
    106.52581     94.24971     94.03215
%ENDBLOCK LATTICE_ABC

%BLOCK POSITIONS_FRAC
  Li  -0.2159082   0.1338269   0.1442693 SPIN=   0.00000
  Li   0.2159082  -0.1338269  -0.1442693 SPIN=   0.00000
   O   0.2766000  -0.0483373  -0.4015886 SPIN=   0.00000
   O   0.0088489   0.3765717  -0.3190458 SPIN=   0.00000
   O  -0.2102430   0.0325657  -0.1960073 SPIN=   0.00000
   O   0.3368077   0.2617303  -0.0610374 SPIN=   0.00000
   O  -0.2766000   0.0483373   0.4015886 SPIN=   0.00000
   O  -0.0088489  -0.3765717   0.3190458 SPIN=   0.00000
   O   0.2102430  -0.0325657   0.1960073 SPIN=   0.00000
   O  -0.3368077  -0.2617303   0.0610374 SPIN=   0.00000
   P  -0.0000000  -0.5000000  -0.0000000 SPIN=   0.00000
   P  -0.0000000   0.5000000   0.5000000 SPIN=   0.00000
  Fe  -0.4924971   0.3208946  -0.3069966 SPIN=   4.00000
  Fe   0.4924971  -0.3208946   0.3069966 SPIN=   4.00000
%ENDBLOCK POSITIONS_FRAC

# Note: total spin =   8.00

KPOINTS_MP_SPACING 0.07

%BLOCK SPECIES_POT
QC5
%ENDBLOCK SPECIES_POT

%BLOCK HUBBARD_U
Fe d:4.0
%ENDBLOCK HUBBARD_U

SNAP_TO_SYMMETRY
SYMMETRY_GENERATE

