#              Generated by Buildcell
#
# at 23:38:19 (GMT+0.0) 23rd November 2020
# in /lustre/scratch/uccabz1/launch_tmp
# on node-c12n-028
# by uccabz1
#
# compiler GCC version 4.9.2
# options -cpp -iprefix /lustre/shared/ucl/apps/gcc/4.9.2/bin/../lib/gcc/x86_64-unknown-linux-gnu/4.9.2/ -mtune=corei7 -march=x86-64 -g -Og
#
# seed -1106104272  1579450966   717735277  1234628971   102821225  -778645003  1600349929   467632461  -902851769  1205290660 -2081226798 -2128929369
#
#      Author: C. J. Pickard (cjp20@cam.ac.uk)
#                Space group: Pc
#

%BLOCK LATTICE_ABC
      4.55606      5.71939      6.14026
     90.00000     90.00000     90.32026
%ENDBLOCK LATTICE_ABC

%BLOCK POSITIONS_FRAC
  Li  -0.3073535  -0.4509889   0.0942571 SPIN=   0.00000
  Li   0.1926465   0.0490111  -0.0942571 SPIN=   0.00000
   O   0.2966483  -0.3444450   0.4743164 SPIN=   0.00000
   O   0.2439304  -0.3776525   0.0541292 SPIN=   0.00000
   O  -0.1326966  -0.1585400   0.2576605 SPIN=   0.00000
   O   0.3732697   0.0098095   0.2192789 SPIN=   0.00000
   P   0.2027853  -0.2217702   0.2628399 SPIN=   0.00000
   O  -0.2033517   0.1555550  -0.4743164 SPIN=   0.00000
   O  -0.2560696   0.1223475  -0.0541292 SPIN=   0.00000
   O  -0.6326966   0.3414600  -0.2576605 SPIN=   0.00000
   O  -0.1267303   0.5098095  -0.2192789 SPIN=   0.00000
   P  -0.2972147   0.2782298  -0.2628399 SPIN=   0.00000
  Fe  -0.3102301  -0.2129290  -0.3944775 SPIN=   4.00000
  Fe   0.1897699   0.2870710   0.3944775 SPIN=   4.00000
%ENDBLOCK POSITIONS_FRAC

# Note: total spin =   8.00

KPOINTS_MP_SPACING 0.07

%BLOCK SPECIES_POT
QC5
%ENDBLOCK SPECIES_POT

%BLOCK HUBBARD_U
Fe d:4.0
%ENDBLOCK HUBBARD_U

SNAP_TO_SYMMETRY
SYMMETRY_GENERATE

