#              Generated by Buildcell
#
# at 04:33:46 (GMT+0.0) 24th November 2020
# in /scratch/scratch/uccabz1/launch_tmp
# on node-a14a-004
# by uccabz1
#
# compiler GCC version 4.9.2
# options -cpp -iprefix /scratch/UCL/applications/gcc/4.9.2/bin/../lib/gcc/x86_64-unknown-linux-gnu/4.9.2/ -mtune=corei7 -march=x86-64 -g -O2
#
# seed  -359528331  1810783683 -1679741886   246802533   615238089  -433420006 -1751632822  -242179538   207507718  1153890096  1663482321 -1718045257
#
#      Author: C. J. Pickard (cjp20@cam.ac.uk)
#                Space group: C2
#

%BLOCK LATTICE_ABC
      5.93247      5.93247      5.99378
    106.02304    118.63935    103.70215
%ENDBLOCK LATTICE_ABC

%BLOCK POSITIONS_FRAC
  Li  -0.2600664   0.1928312   0.0694926 SPIN=   0.00000
  Li   0.1233387  -0.3295589  -0.0694926 SPIN=   0.00000
   O   0.0721306  -0.0771578  -0.7599580 SPIN=   0.00000
   O  -0.3123312  -0.5486766  -1.1503029 SPIN=   0.00000
   O   0.1661732  -0.4862606  -0.7832969 SPIN=   0.00000
   O  -0.1582047  -0.4139153  -0.6463625 SPIN=   0.00000
   O  -0.3171998  -0.1679114  -0.2400420 SPIN=   0.00000
   O  -0.3983737  -0.1620283   0.1503029 SPIN=   0.00000
   O  -0.7029638  -0.0505300  -0.2167031 SPIN=   0.00000
   O  -0.7675528  -0.5118422  -0.3536375 SPIN=   0.00000
   P   0.3519669  -0.1480331  -0.5000000 SPIN=   0.00000
   P  -0.4404615  -0.4404615  -0.0000000 SPIN=   0.00000
  Fe  -0.0641176   0.0163364  -0.4139773 SPIN=   4.00000
  Fe   0.4303137   0.3498597   0.4139773 SPIN=   4.00000
%ENDBLOCK POSITIONS_FRAC

# Note: total spin =   8.00

KPOINTS_MP_SPACING 0.07

%BLOCK SPECIES_POT
QC5
%ENDBLOCK SPECIES_POT

%BLOCK HUBBARD_U
Fe d:4.0
%ENDBLOCK HUBBARD_U

SNAP_TO_SYMMETRY
SYMMETRY_GENERATE

