#              Generated by Buildcell
#
# at 04:17:08 (GMT+0.0) 24th November 2020
# in /lustre/scratch/uccabz1/launch_tmp
# on node-c12c-021
# by uccabz1
#
# compiler GCC version 4.9.2
# options -cpp -iprefix /lustre/shared/ucl/apps/gcc/4.9.2/bin/../lib/gcc/x86_64-unknown-linux-gnu/4.9.2/ -mtune=corei7 -march=x86-64 -g -Og
#
# seed  1099526349 -1369589274  -238918797  -350945820 -1859841648   185024531 -1509596497   479801068   135363348  1448044450  1136609727 -1836716408
#
#      Author: C. J. Pickard (cjp20@cam.ac.uk)
#                Space group: P-1
#

%BLOCK LATTICE_ABC
      3.98940      5.09324      8.09759
     95.58193     93.68886    101.28770
%ENDBLOCK LATTICE_ABC

%BLOCK POSITIONS_FRAC
  Li  -0.0248768   0.0669659  -0.3160784 SPIN=   0.00000
  Li   0.0248768  -0.0669659   0.3160784 SPIN=   0.00000
   O   0.3301487   0.6428392   0.2822365 SPIN=   0.00000
   O  -0.1930555   0.2966481   0.3561999 SPIN=   0.00000
   O  -0.2479615   0.5119273   0.0980543 SPIN=   0.00000
   O   0.1288527   0.1739769   0.1144368 SPIN=   0.00000
   P   0.0233030   0.4161976   0.2152727 SPIN=   0.00000
   O  -0.3301487  -0.6428392  -0.2822365 SPIN=   0.00000
   O   0.1930555  -0.2966481  -0.3561999 SPIN=   0.00000
   O   0.2479615  -0.5119273  -0.0980543 SPIN=   0.00000
   O  -0.1288527  -0.1739769  -0.1144368 SPIN=   0.00000
   P  -0.0233030  -0.4161976  -0.2152727 SPIN=   0.00000
  Fe   0.5000000   0.0000000   0.0000000 SPIN=   0.52633
  Fe  -0.5000000  -0.5000000  -0.5000000 SPIN=   7.47367
%ENDBLOCK POSITIONS_FRAC

# Note: total spin =   8.00

KPOINTS_MP_SPACING 0.07

%BLOCK SPECIES_POT
QC5
%ENDBLOCK SPECIES_POT

%BLOCK HUBBARD_U
Fe d:4.0
%ENDBLOCK HUBBARD_U

SNAP_TO_SYMMETRY
SYMMETRY_GENERATE

