#              Generated by Buildcell
#
# at 01:56:29 (GMT+0.0) 24th November 2020
# in /lustre/scratch/uccabz1/launch_tmp
# on node-c12h-032
# by uccabz1
#
# compiler GCC version 4.9.2
# options -cpp -iprefix /lustre/shared/ucl/apps/gcc/4.9.2/bin/../lib/gcc/x86_64-unknown-linux-gnu/4.9.2/ -mtune=corei7 -march=x86-64 -g -Og
#
# seed  1054765614  1889467543  1727039821 -1975869001   154131033  1831402538   174864953 -2132081400  -572037647   244837368  -911507771    52884707
#
#      Author: C. J. Pickard (cjp20@cam.ac.uk)
#                Space group: C2
#

%BLOCK LATTICE_ABC
      5.14687      5.14687      6.43848
     77.08747     77.08747     78.44955
%ENDBLOCK LATTICE_ABC

%BLOCK POSITIONS_FRAC
  Li  -0.8692844  -0.1307156   0.5000000 SPIN=   0.00000
  Li  -0.3673871   0.3673871  -0.0000000 SPIN=   0.00000
   O   0.8198392  -0.3737573  -0.2942785 SPIN=   0.00000
   O   0.4222382   0.0266930  -0.2859136 SPIN=   0.00000
   O   0.5785492  -0.1919453   0.0567009 SPIN=   0.00000
   O   0.8710042   0.0910482  -0.2327778 SPIN=   0.00000
   P   0.6830688  -0.1235320  -0.1951851 SPIN=   0.00000
   O   0.3737573   0.1801608   0.2942785 SPIN=   0.00000
   O  -0.0266930   0.5777618   0.2859136 SPIN=   0.00000
   O   0.1919453   0.4214508  -0.0567009 SPIN=   0.00000
   O  -0.0910482   0.1289958   0.2327778 SPIN=   0.00000
   P   0.1235320   0.3169312   0.1951851 SPIN=   0.00000
  Fe   0.1311749  -0.1311749   0.0000000 SPIN=   6.48279
  Fe  -0.3711516   0.3711516   0.5000000 SPIN=   1.51721
%ENDBLOCK POSITIONS_FRAC

# Note: total spin =   8.00

KPOINTS_MP_SPACING 0.07

%BLOCK SPECIES_POT
QC5
%ENDBLOCK SPECIES_POT

%BLOCK HUBBARD_U
Fe d:4.0
%ENDBLOCK HUBBARD_U

SNAP_TO_SYMMETRY
SYMMETRY_GENERATE

