#              Generated by Buildcell
#
# at 01:35:02 (GMT+0.0) 24th November 2020
# in /lustre/scratch/uccabz1/launch_tmp
# on node-c12g-020
# by uccabz1
#
# compiler GCC version 4.9.2
# options -cpp -iprefix /lustre/shared/ucl/apps/gcc/4.9.2/bin/../lib/gcc/x86_64-unknown-linux-gnu/4.9.2/ -mtune=corei7 -march=x86-64 -g -Og
#
# seed -1990236272  -271828869  -207700688 -2100383630  1678584282  1063038504  2086747669   373024653   405411278  -411380780  -139020960 -2052565023
#
#      Author: C. J. Pickard (cjp20@cam.ac.uk)
#                Space group: C2221
#

%BLOCK LATTICE_ABC
      4.09234      4.09234      9.68835
     90.00000     90.00000     99.55954
%ENDBLOCK LATTICE_ABC

%BLOCK POSITIONS_FRAC
  Li  -0.1540467   0.1540467   0.2500000 SPIN=   0.00000
  Li   0.1540467  -0.1540467  -0.2500000 SPIN=   0.00000
   O  -0.3606314  -0.2976323  -0.1553246 SPIN=   0.00000
   O  -0.1402162   0.2565182  -0.0300548 SPIN=   0.00000
   O   0.3606314   0.2976323   0.3446754 SPIN=   0.00000
   O   0.1402162  -0.2565182   0.4699452 SPIN=   0.00000
   O   0.2976323   0.3606314  -0.3446754 SPIN=   0.00000
   O  -0.2565182   0.1402162  -0.4699452 SPIN=   0.00000
   O  -0.2976323  -0.3606314   0.1553246 SPIN=   0.00000
   O   0.2565182  -0.1402162   0.0300548 SPIN=   0.00000
   P  -0.2751156   0.2751156  -0.2500000 SPIN=   0.00000
   P   0.2751156  -0.2751156   0.2500000 SPIN=   0.00000
  Fe   0.3850077   0.3850077  -0.0000000 SPIN=   4.00000
  Fe  -0.3850077  -0.3850077  -0.5000000 SPIN=   4.00000
%ENDBLOCK POSITIONS_FRAC

# Note: total spin =   8.00

KPOINTS_MP_SPACING 0.07

%BLOCK SPECIES_POT
QC5
%ENDBLOCK SPECIES_POT

%BLOCK HUBBARD_U
Fe d:4.0
%ENDBLOCK HUBBARD_U

SNAP_TO_SYMMETRY
SYMMETRY_GENERATE

