#              Generated by Buildcell
#
# at 05:49:16 (GMT+0.0) 24th November 2020
# in /scratch/scratch/uccabz1/launch_tmp
# on node-a14c-005
# by uccabz1
#
# compiler GCC version 4.9.2
# options -cpp -iprefix /scratch/UCL/applications/gcc/4.9.2/bin/../lib/gcc/x86_64-unknown-linux-gnu/4.9.2/ -mtune=corei7 -march=x86-64 -g -O2
#
# seed -1502691171   -61542855     9465679   873708077   748278791   699742122   382990859   797990379  -662536756  -707729967   756324896  -376784438
#
#      Author: C. J. Pickard (cjp20@cam.ac.uk)
#                Space group: Pmn21
#

%BLOCK LATTICE_ABC
      3.92054      5.20807      7.83604
     90.00000     90.00000     90.00000
%ENDBLOCK LATTICE_ABC

%BLOCK POSITIONS_FRAC
  Li  -0.0439430   0.5000000   0.1456814 SPIN=   0.00000
  Li   0.0439430   0.0000000  -0.3543186 SPIN=   0.00000
   O  -0.0725037   0.2371458  -0.1341041 SPIN=   0.00000
   O  -0.5294352   0.2628683   0.1054200 SPIN=   0.00000
   O   0.0725037   0.2628542   0.3658959 SPIN=   0.00000
   O   0.5294352   0.2371317   0.6054200 SPIN=   0.00000
   O   0.0725037  -0.2628542   0.3658959 SPIN=   0.00000
   O   0.5294352  -0.2371317   0.6054200 SPIN=   0.00000
   O  -0.0725037  -0.2371458  -0.1341041 SPIN=   0.00000
   O  -0.5294352  -0.2628683   0.1054200 SPIN=   0.00000
   P   0.2153194   0.0000000  -0.0219246 SPIN=   0.00000
   P  -0.2153194   0.5000000   0.4780754 SPIN=   0.00000
  Fe  -0.4560165   0.0000000   0.3053281 SPIN=   4.00000
  Fe   0.4560165   0.5000000  -0.1946719 SPIN=   4.00000
%ENDBLOCK POSITIONS_FRAC

# Note: total spin =   8.00

KPOINTS_MP_SPACING 0.07

%BLOCK SPECIES_POT
QC5
%ENDBLOCK SPECIES_POT

%BLOCK HUBBARD_U
Fe d:4.0
%ENDBLOCK HUBBARD_U

SNAP_TO_SYMMETRY
SYMMETRY_GENERATE

