#              Generated by Buildcell
#
# at 02:09:00 (GMT+0.0) 24th November 2020
# in /lustre/scratch/uccabz1/launch_tmp
# on node-c12e-034
# by uccabz1
#
# compiler GCC version 4.9.2
# options -cpp -iprefix /lustre/shared/ucl/apps/gcc/4.9.2/bin/../lib/gcc/x86_64-unknown-linux-gnu/4.9.2/ -mtune=corei7 -march=x86-64 -g -Og
#
# seed   113012305  -107841935   634795350   360151164  1957022775 -1009486612  1639662191   141298979   344928559  -967836050  -340954578  -792517906
#
#      Author: C. J. Pickard (cjp20@cam.ac.uk)
#                Space group: Pmc21
#

%BLOCK LATTICE_ABC
      5.31649      5.34985      5.62540
     90.00000     90.00000     90.00000
%ENDBLOCK LATTICE_ABC

%BLOCK POSITIONS_FRAC
  Li   0.0000000  -0.2245993  -0.2694879 SPIN=   0.00000
  Li  -0.0000000   0.2245993   0.2305121 SPIN=   0.00000
   O   0.2676592  -0.4689862   0.1667327 SPIN=   0.00000
   O   0.2385795  -0.0312808  -0.0314326 SPIN=   0.00000
   O  -0.2676592   0.4689862  -0.3332673 SPIN=   0.00000
   O  -0.2385795   0.0312808  -0.5314326 SPIN=   0.00000
   O   0.2676592   0.4689862  -0.3332673 SPIN=   0.00000
   O   0.2385795   0.0312808  -0.5314326 SPIN=   0.00000
   O  -0.2676592  -0.4689862   0.1667327 SPIN=   0.00000
   O  -0.2385795  -0.0312808  -0.0314326 SPIN=   0.00000
   P  -0.0000000  -0.2751599   0.2038714 SPIN=   0.00000
   P   0.0000000   0.2751599  -0.2961286 SPIN=   0.00000
  Fe   0.5000000   0.2499336  -0.1144796 SPIN=   4.00000
  Fe  -0.5000000  -0.2499336   0.3855204 SPIN=   4.00000
%ENDBLOCK POSITIONS_FRAC

# Note: total spin =   8.00

KPOINTS_MP_SPACING 0.07

%BLOCK SPECIES_POT
QC5
%ENDBLOCK SPECIES_POT

%BLOCK HUBBARD_U
Fe d:4.0
%ENDBLOCK HUBBARD_U

SNAP_TO_SYMMETRY
SYMMETRY_GENERATE

