#              Generated by Buildcell
#
# at 02:20:22 (GMT+0.0) 24th November 2020
# in /lustre/scratch/uccabz1/launch_tmp
# on node-c12c-030
# by uccabz1
#
# compiler GCC version 4.9.2
# options -cpp -iprefix /lustre/shared/ucl/apps/gcc/4.9.2/bin/../lib/gcc/x86_64-unknown-linux-gnu/4.9.2/ -mtune=corei7 -march=x86-64 -g -Og
#
# seed   -20865882  2073826568 -1367079605   576275110 -1999495690 -1252779325   353361119  -609745251  -726038596 -1344831243 -1165396622  1796502064
#
#      Author: C. J. Pickard (cjp20@cam.ac.uk)
#                Space group: P-1
#

%BLOCK LATTICE_ABC
      3.99694      5.27422      7.86178
     90.01978     90.05357    105.11323
%ENDBLOCK LATTICE_ABC

%BLOCK POSITIONS_FRAC
  Li  -0.4535638   0.0101549   0.2499514 SPIN=   0.00000
  Li   0.4535638  -0.0101549  -0.2499514 SPIN=   0.00000
   O  -0.1902400   0.2283619  -0.0808137 SPIN=   0.00000
   O  -0.1771338   0.2321949  -0.4112112 SPIN=   0.00000
   O  -0.0302181   0.6572046  -0.2595963 SPIN=   0.00000
   O   0.3816132   0.3718558  -0.2500430 SPIN=   0.00000
   O   0.1902400  -0.2283619   0.0808137 SPIN=   0.00000
   O   0.1771338  -0.2321949   0.4112112 SPIN=   0.00000
   O   0.0302181  -0.6572046   0.2595963 SPIN=   0.00000
   O  -0.3816132  -0.3718558   0.2500430 SPIN=   0.00000
   P   0.0000000   0.0000000   0.5000000 SPIN=   0.00000
   P  -0.0000000  -0.0000000  -0.0000000 SPIN=   0.00000
  Fe   0.5000000   0.5000000  -0.5000000 SPIN=   4.26668
  Fe  -0.5000000  -0.5000000  -0.0000000 SPIN=   3.73332
%ENDBLOCK POSITIONS_FRAC

# Note: total spin =   8.00

KPOINTS_MP_SPACING 0.07

%BLOCK SPECIES_POT
QC5
%ENDBLOCK SPECIES_POT

%BLOCK HUBBARD_U
Fe d:4.0
%ENDBLOCK HUBBARD_U

SNAP_TO_SYMMETRY
SYMMETRY_GENERATE

