#              Generated by Buildcell
#
# at 03:42:58 (GMT+0.0) 24th November 2020
# in /lustre/scratch/uccabz1/launch_tmp
# on node-c12e-031
# by uccabz1
#
# compiler GCC version 4.9.2
# options -cpp -iprefix /lustre/shared/ucl/apps/gcc/4.9.2/bin/../lib/gcc/x86_64-unknown-linux-gnu/4.9.2/ -mtune=corei7 -march=x86-64 -g -Og
#
# seed -1286716351   986198820  1039829340     8455089 -1615446747  -841854028  -854021242 -2081154545   500425212 -1231525277  1457274841  1479967188
#
#      Author: C. J. Pickard (cjp20@cam.ac.uk)
#                Space group: P21
#

%BLOCK LATTICE_ABC
      4.89954      4.92270      6.94002
     90.00000     90.00000    107.08443
%ENDBLOCK LATTICE_ABC

%BLOCK POSITIONS_FRAC
  Li   0.0491267   0.2540042   0.2954580 SPIN=   0.00000
  Li  -0.0491267  -0.2540042  -0.2045420 SPIN=   0.00000
   O  -0.1083457  -0.4955001   0.0493999 SPIN=   0.00000
   O   0.1526714  -0.1292189   0.3078905 SPIN=   0.00000
   O  -0.2806388  -0.0670369   0.1555309 SPIN=   0.00000
   O  -0.3250053  -0.4695015   0.3857365 SPIN=   0.00000
   P  -0.1408060  -0.3033541   0.2172099 SPIN=   0.00000
   O   0.1083457   0.4955001  -0.4506001 SPIN=   0.00000
   O  -0.1526714   0.1292189  -0.1921095 SPIN=   0.00000
   O   0.2806388   0.0670369  -0.3444691 SPIN=   0.00000
   O   0.3250053   0.4695015  -0.1142635 SPIN=   0.00000
   P   0.1408060   0.3033541  -0.2827901 SPIN=   0.00000
  Fe   0.4773876  -0.1749825   0.4886300 SPIN=   4.00000
  Fe  -0.4773876   0.1749825  -0.0113700 SPIN=   4.00000
%ENDBLOCK POSITIONS_FRAC

# Note: total spin =   8.00

KPOINTS_MP_SPACING 0.07

%BLOCK SPECIES_POT
QC5
%ENDBLOCK SPECIES_POT

%BLOCK HUBBARD_U
Fe d:4.0
%ENDBLOCK HUBBARD_U

SNAP_TO_SYMMETRY
SYMMETRY_GENERATE

