#              Generated by Buildcell
#
# at 05:11:07 (GMT+0.0) 24th November 2020
# in /lustre/scratch/uccabz1/launch_tmp
# on node-c12b-031
# by uccabz1
#
# compiler GCC version 4.9.2
# options -cpp -iprefix /lustre/shared/ucl/apps/gcc/4.9.2/bin/../lib/gcc/x86_64-unknown-linux-gnu/4.9.2/ -mtune=corei7 -march=x86-64 -g -Og
#
# seed -1145278669  1493295081  -261334510 -1277053440   970739883  1243552784  2065362267   495913199 -1427408098  -969506504 -2075476936   244609664
#
#      Author: C. J. Pickard (cjp20@cam.ac.uk)
#                Space group: P-1
#

%BLOCK LATTICE_ABC
      3.86665      4.68756      9.01647
     93.80371     99.84476     94.46871
%ENDBLOCK LATTICE_ABC

%BLOCK POSITIONS_FRAC
  Li   0.4724825   0.4474444   0.3322370 SPIN=   0.00000
  Li  -0.4724825  -0.4474444  -0.3322370 SPIN=   0.00000
   O   0.3265486   0.3494576  -0.1450190 SPIN=   0.00000
   O   0.7107824  -0.0712653  -0.0803101 SPIN=   0.00000
   O   0.1327649  -0.1801445  -0.2477356 SPIN=   0.00000
   O   0.6258326   0.0871942  -0.3429260 SPIN=   0.00000
   P   0.4445502   0.0629341  -0.2024968 SPIN=   0.00000
   O  -0.3265486  -0.3494576   0.1450190 SPIN=   0.00000
   O  -0.7107824   0.0712653   0.0803101 SPIN=   0.00000
   O  -0.1327649   0.1801445   0.2477356 SPIN=   0.00000
   O  -0.6258326  -0.0871942   0.3429260 SPIN=   0.00000
   P  -0.4445502  -0.0629341   0.2024968 SPIN=   0.00000
  Fe  -0.0000000  -0.0000000   0.5000000 SPIN=   0.63541
  Fe   0.0000000   0.5000000   0.0000000 SPIN=   7.36459
%ENDBLOCK POSITIONS_FRAC

# Note: total spin =   8.00

KPOINTS_MP_SPACING 0.07

%BLOCK SPECIES_POT
QC5
%ENDBLOCK SPECIES_POT

%BLOCK HUBBARD_U
Fe d:4.0
%ENDBLOCK HUBBARD_U

SNAP_TO_SYMMETRY
SYMMETRY_GENERATE

