#              Generated by Buildcell
#
# at 02:18:53 (GMT+0.0) 24th November 2020
# in /scratch/scratch/uccabz1/launch_tmp
# on node-a14a-004
# by uccabz1
#
# compiler GCC version 4.9.2
# options -cpp -iprefix /scratch/UCL/applications/gcc/4.9.2/bin/../lib/gcc/x86_64-unknown-linux-gnu/4.9.2/ -mtune=corei7 -march=x86-64 -g -O2
#
# seed  1342452057 -1713780425  -769244185 -1263970267  1007019701  1857192753  -158679780  -169493431 -1498839589  1278278147  -291109102  2077216554
#
#      Author: C. J. Pickard (cjp20@cam.ac.uk)
#                Space group: Fdd2
#

%BLOCK LATTICE_ABC
      5.36439      5.36439      6.62057
    110.01123    110.01123     98.93554
%ENDBLOCK LATTICE_ABC

%BLOCK POSITIONS_FRAC
  Li  -0.0175629  -0.0175629  -0.0351259 SPIN=   0.00000
  Li  -0.2675629   0.2324371   0.4648741 SPIN=   0.00000
   O   0.2726272   0.3883633   0.2240217 SPIN=   0.00000
   O  -0.2440686   0.2591932   0.1609114 SPIN=   0.00000
   O  -0.0486055  -0.1643416   0.2240217 SPIN=   0.00000
   O   0.4049801  -0.0982818   0.1609114 SPIN=   0.00000
   O   0.1383633   0.5226272  -0.2759783 SPIN=   0.00000
   O   0.0091932   0.0059314  -0.3390886 SPIN=   0.00000
   O  -0.4143416   0.2013945  -0.2759783 SPIN=   0.00000
   O  -0.3482818   0.6549801  -0.3390886 SPIN=   0.00000
   P   0.2211144   0.2211144   0.4422288 SPIN=   0.00000
   P  -0.0288856   0.4711144  -0.0577712 SPIN=   0.00000
  Fe   0.3106645  -0.1893355  -0.3786710 SPIN=   4.00000
  Fe  -0.4393355  -0.4393355   0.1213290 SPIN=   4.00000
%ENDBLOCK POSITIONS_FRAC

# Note: total spin =   8.00

KPOINTS_MP_SPACING 0.07

%BLOCK SPECIES_POT
QC5
%ENDBLOCK SPECIES_POT

%BLOCK HUBBARD_U
Fe d:4.0
%ENDBLOCK HUBBARD_U

SNAP_TO_SYMMETRY
SYMMETRY_GENERATE

