#              Generated by Buildcell
#
# at 03:07:39 (GMT+0.0) 24th November 2020
# in /scratch/scratch/uccabz1/launch_tmp
# on node-k10e-034
# by uccabz1
#
# compiler GCC version 4.9.2
# options -cpp -iprefix /scratch/UCL/applications/gcc/4.9.2/bin/../lib/gcc/x86_64-unknown-linux-gnu/4.9.2/ -mtune=corei7 -march=x86-64 -g -O2
#
# seed  1925972709 -2084082572  1284402910  1053422689 -1478398998   123563149 -1516662497   162351875 -1361792215  1845540513   258762364 -1546807126
#
#      Author: C. J. Pickard (cjp20@cam.ac.uk)
#                Space group: Aea2
#

%BLOCK LATTICE_ABC
      5.33483      5.71162      5.88964
     90.00000    116.92984     90.00000
%ENDBLOCK LATTICE_ABC

%BLOCK POSITIONS_FRAC
  Li   0.1469166  -0.0000000   0.2938333 SPIN=   0.00000
  Li  -0.3530834   0.5000000   0.2938333 SPIN=   0.00000
   O   0.3329398   0.3355933  -0.0305118 SPIN=   0.00000
   O   0.3821871   0.2621302  -0.4438224 SPIN=   0.00000
   O   0.6365484  -0.3355933  -0.0305118 SPIN=   0.00000
   O   0.1739905  -0.2621302  -0.4438224 SPIN=   0.00000
   O   0.1365484  -0.1644067  -0.0305118 SPIN=   0.00000
   O  -0.3260095  -0.2378698  -0.4438224 SPIN=   0.00000
   O  -0.1670602   0.1644067  -0.0305118 SPIN=   0.00000
   O  -0.1178129   0.2378698  -0.4438224 SPIN=   0.00000
   P  -0.2661148  -0.0000000   0.4677705 SPIN=   0.00000
   P   0.2338852  -0.5000000   0.4677705 SPIN=   0.00000
  Fe  -0.0391501   0.5000000  -0.0783001 SPIN=   4.00000
  Fe   0.4608499   0.0000000  -0.0783001 SPIN=   4.00000
%ENDBLOCK POSITIONS_FRAC

# Note: total spin =   8.00

KPOINTS_MP_SPACING 0.07

%BLOCK SPECIES_POT
QC5
%ENDBLOCK SPECIES_POT

%BLOCK HUBBARD_U
Fe d:4.0
%ENDBLOCK HUBBARD_U

SNAP_TO_SYMMETRY
SYMMETRY_GENERATE

