#              Generated by Buildcell
#
# at 19:15:07 (GMT+0.0) 30th November 2020
# in /lustre/scratch/uccabz1/launch_tmp
# on node-c12l-025
# by uccabz1
#
# compiler GCC version 4.9.2
# options -cpp -iprefix /lustre/shared/ucl/apps/gcc/4.9.2/bin/../lib/gcc/x86_64-unknown-linux-gnu/4.9.2/ -mtune=corei7 -march=x86-64 -g -Og
#
# seed  -635566067  1607341564  1179218740   101108056 -2103779206  1554854228  1392690266  1856683055  -186412225 -1354073208  1036596578  1349673488
#
#      Author: C. J. Pickard (cjp20@cam.ac.uk)
#                Space group: C2
#

%BLOCK LATTICE_ABC
      5.00965      5.00965      6.37573
     90.27119     90.27119     90.47567
%ENDBLOCK LATTICE_ABC

%BLOCK POSITIONS_FRAC
  Li  -0.2893939   0.2893939  -0.0000000 SPIN=   0.00000
  Li   0.1058991  -0.1058991  -0.5000000 SPIN=   0.00000
   O  -0.4084579  -0.1542155   0.5236240 SPIN=   0.00000
   O  -0.3377998  -0.3370200   0.1461063 SPIN=   0.00000
   O  -0.5974548   0.0761615   0.1909340 SPIN=   0.00000
   O  -0.1041818   0.0849629   0.2565872 SPIN=   0.00000
   P  -0.3614064  -0.0843682   0.2920530 SPIN=   0.00000
   O   0.1542155   0.4084579  -0.5236240 SPIN=   0.00000
   O   0.3370200   0.3377998  -0.1461063 SPIN=   0.00000
   O  -0.0761615   0.5974548  -0.1909340 SPIN=   0.00000
   O  -0.0849629   0.1041818  -0.2565872 SPIN=   0.00000
   P   0.0843682   0.3614064  -0.2920530 SPIN=   0.00000
  Fe   0.2232548  -0.2232548  -0.0000000 SPIN=   7.13706
  Fe  -0.4166895   0.4166895   0.5000000 SPIN=   0.86294
%ENDBLOCK POSITIONS_FRAC

# Note: total spin =   8.00

KPOINTS_MP_SPACING 0.07

%BLOCK SPECIES_POT
QC5
%ENDBLOCK SPECIES_POT

%BLOCK HUBBARD_U
Fe d:4.0
%ENDBLOCK HUBBARD_U

SNAP_TO_SYMMETRY
SYMMETRY_GENERATE

