#              Generated by Buildcell
#
# at 04:56:58 (GMT+0.0) 24th November 2020
# in /scratch/scratch/uccabz1/launch_tmp
# on node-a14e-012
# by uccabz1
#
# compiler GCC version 4.9.2
# options -cpp -iprefix /scratch/UCL/applications/gcc/4.9.2/bin/../lib/gcc/x86_64-unknown-linux-gnu/4.9.2/ -mtune=corei7 -march=x86-64 -g -O2
#
# seed  -636412899   232964270  1088895773 -1774316846  -739461690  -958632565  -598509479 -2020048016  1024413247   454747613  -512351882  1393833490
#
#      Author: C. J. Pickard (cjp20@cam.ac.uk)
#                Space group: Pc
#

%BLOCK LATTICE_ABC
      4.95854      5.82624      6.03931
     90.00000     90.00000    113.50221
%ENDBLOCK LATTICE_ABC

%BLOCK POSITIONS_FRAC
  Li   0.3133853   0.0547156  -0.3414579 SPIN=   0.00000
  Li  -0.1866147   0.0547156   0.3414579 SPIN=   0.00000
   O   0.3925094  -0.0073819   0.2206339 SPIN=   0.00000
   O   0.0055715  -0.2717931   0.5099491 SPIN=   0.00000
   O  -0.1664527  -0.2247147   0.1355958 SPIN=   0.00000
   O   0.1233189  -0.4877248   0.1887728 SPIN=   0.00000
   P   0.1053193  -0.2379272   0.2605582 SPIN=   0.00000
   O  -0.1074906  -0.0073819  -0.2206339 SPIN=   0.00000
   O  -0.4944285  -0.2717931  -0.5099491 SPIN=   0.00000
   O  -0.6664527  -0.2247147  -0.1355958 SPIN=   0.00000
   O  -0.3766811  -0.4877248  -0.1887728 SPIN=   0.00000
   P  -0.3946807  -0.2379272  -0.2605582 SPIN=   0.00000
  Fe  -0.0016754   0.4457923  -0.2473292 SPIN=   4.00000
  Fe   0.4983246   0.4457923   0.2473292 SPIN=   4.00000
%ENDBLOCK POSITIONS_FRAC

# Note: total spin =   8.00

KPOINTS_MP_SPACING 0.07

%BLOCK SPECIES_POT
QC5
%ENDBLOCK SPECIES_POT

%BLOCK HUBBARD_U
Fe d:4.0
%ENDBLOCK HUBBARD_U

SNAP_TO_SYMMETRY
SYMMETRY_GENERATE

