#              Generated by Buildcell
#
# at 02:26:36 (GMT+0.0) 24th November 2020
# in /lustre/scratch/uccabz1/launch_tmp
# on node-c12f-021
# by uccabz1
#
# compiler GCC version 4.9.2
# options -cpp -iprefix /lustre/shared/ucl/apps/gcc/4.9.2/bin/../lib/gcc/x86_64-unknown-linux-gnu/4.9.2/ -mtune=corei7 -march=x86-64 -g -Og
#
# seed   287700502   235126390  -708059879   205242444 -1853561141  1639946822  -776114832  1174307045    -5521422  -358480273  1624721288  1016148355
#
#      Author: C. J. Pickard (cjp20@cam.ac.uk)
#                Space group: Cm
#

%BLOCK LATTICE_ABC
      5.81414      5.89815      5.89815
    100.43521    112.34502    112.34502
%ENDBLOCK LATTICE_ABC

%BLOCK POSITIONS_FRAC
  Li   0.4729724   0.2260319  -0.1996122 SPIN=   0.00000
  Li   0.4729724  -0.1996122   0.2260319 SPIN=   0.00000
   O  -0.2555608   0.0711543  -0.2011540 SPIN=   0.00000
   O   0.0220396   0.5856062   0.0166448 SPIN=   0.00000
   O   0.2986666   0.3513259   0.0418456 SPIN=   0.00000
   P   0.0044700   0.3283546  -0.1407435 SPIN=   0.00000
   O  -0.2555608  -0.2011540   0.0711543 SPIN=   0.00000
   O   0.0220396   0.0166448   0.5856062 SPIN=   0.00000
   O   0.2986666   0.0418456   0.3513259 SPIN=   0.00000
   P   0.0044700  -0.1407435   0.3283546 SPIN=   0.00000
   O   0.2873674  -0.2861629  -0.2861629 SPIN=   0.00000
   O  -0.3943970   0.1474219   0.1474219 SPIN=   0.00000
  Fe   0.0517938   0.3689241   0.3689241 SPIN=   3.67923
  Fe  -0.1166961  -0.2088121  -0.2088121 SPIN=   4.32077
%ENDBLOCK POSITIONS_FRAC

# Note: total spin =   8.00

KPOINTS_MP_SPACING 0.07

%BLOCK SPECIES_POT
QC5
%ENDBLOCK SPECIES_POT

%BLOCK HUBBARD_U
Fe d:4.0
%ENDBLOCK HUBBARD_U

SNAP_TO_SYMMETRY
SYMMETRY_GENERATE

