#              Generated by Buildcell
#
# at 23:50:27 (GMT+0.0) 23rd November 2020
# in /lustre/scratch/uccabz1/launch_tmp
# on node-c12e-029
# by uccabz1
#
# compiler GCC version 4.9.2
# options -cpp -iprefix /lustre/shared/ucl/apps/gcc/4.9.2/bin/../lib/gcc/x86_64-unknown-linux-gnu/4.9.2/ -mtune=corei7 -march=x86-64 -g -Og
#
# seed   429381227   148971445  -186693822  -883538032  -134874541  1546032989 -1481771198  2086747669   -37400543   762237667  1735031672   946233470
#
#      Author: C. J. Pickard (cjp20@cam.ac.uk)
#                Space group: P21
#

%BLOCK LATTICE_ABC
      3.94673      5.34280      7.81698
    103.90914     90.00000     90.00000
%ENDBLOCK LATTICE_ABC

%BLOCK POSITIONS_FRAC
  Li   0.3464431   0.2186560   0.0260708 SPIN=   0.00000
  Li  -0.1535569  -0.2186560  -0.0260708 SPIN=   0.00000
   O  -0.4651001   0.3996141  -0.3324469 SPIN=   0.00000
   O   0.0477861   0.4121272  -0.1222094 SPIN=   0.00000
   O  -0.3282252   0.0315305  -0.1783213 SPIN=   0.00000
   O   0.0538108   0.1012937  -0.4184394 SPIN=   0.00000
   P  -0.1858127   0.2432542  -0.2683958 SPIN=   0.00000
   O   0.0348999  -0.3996141   0.3324469 SPIN=   0.00000
   O   0.5477861  -0.4121272   0.1222094 SPIN=   0.00000
   O   0.1717748  -0.0315305   0.1783213 SPIN=   0.00000
   O   0.5538108  -0.1012937   0.4184394 SPIN=   0.00000
   P   0.3141873  -0.2432542   0.2683958 SPIN=   0.00000
  Fe   0.3455399  -0.2032235  -0.3609461 SPIN=   4.00000
  Fe  -0.1544601   0.2032235   0.3609461 SPIN=   4.00000
%ENDBLOCK POSITIONS_FRAC

# Note: total spin =   8.00

KPOINTS_MP_SPACING 0.07

%BLOCK SPECIES_POT
QC5
%ENDBLOCK SPECIES_POT

%BLOCK HUBBARD_U
Fe d:4.0
%ENDBLOCK HUBBARD_U

SNAP_TO_SYMMETRY
SYMMETRY_GENERATE

