#              Generated by Buildcell
#
# at 00:12:49 (GMT+0.0) 24th November 2020
# in /lustre/scratch/uccabz1/launch_tmp
# on node-c12b-025
# by uccabz1
#
# compiler GCC version 4.9.2
# options -cpp -iprefix /lustre/shared/ucl/apps/gcc/4.9.2/bin/../lib/gcc/x86_64-unknown-linux-gnu/4.9.2/ -mtune=corei7 -march=x86-64 -g -Og
#
# seed  1453688977   241420006  -968427248   830153945   423363068  1470595489 -1024678608  1545829029 -1128242629  -422667324 -1219550782  -840240431
#
#      Author: C. J. Pickard (cjp20@cam.ac.uk)
#                Space group: Cc
#

%BLOCK LATTICE_ABC
      5.13786      5.13786      6.67013
    100.45845    100.45845    107.33037
%ENDBLOCK LATTICE_ABC

%BLOCK POSITIONS_FRAC
  Li   0.2419661   0.2373905   0.0260844 SPIN=   0.00000
  Li  -0.7626095  -0.7580339  -0.4739156 SPIN=   0.00000
   O  -0.0197108   0.0803263   0.2169828 SPIN=   0.00000
   O  -0.3315299   0.3949886   0.1929598 SPIN=   0.00000
   O  -0.2666216   0.1452709  -0.1371252 SPIN=   0.00000
   O  -0.5593230  -0.1291347   0.0666687 SPIN=   0.00000
   P  -0.2828036   0.1176241   0.0916910 SPIN=   0.00000
   O  -0.9196737  -0.0197108  -0.2830172 SPIN=   0.00000
   O  -0.6050114  -0.3315299  -0.3070402 SPIN=   0.00000
   O  -0.8547291  -0.2666216  -0.6371252 SPIN=   0.00000
   O  -1.1291347  -0.5593230  -0.4333313 SPIN=   0.00000
   P  -0.8823759  -0.2828036  -0.4083090 SPIN=   0.00000
  Fe   0.5805596   0.8182421   0.4012330 SPIN=   4.00000
  Fe  -0.1817579  -0.4194404  -0.0987670 SPIN=   4.00000
%ENDBLOCK POSITIONS_FRAC

# Note: total spin =   8.00

KPOINTS_MP_SPACING 0.07

%BLOCK SPECIES_POT
QC5
%ENDBLOCK SPECIES_POT

%BLOCK HUBBARD_U
Fe d:4.0
%ENDBLOCK HUBBARD_U

SNAP_TO_SYMMETRY
SYMMETRY_GENERATE

