#              Generated by Buildcell
#
# at 03:45:09 (GMT+0.0) 24th November 2020
# in /scratch/scratch/uccabz1/launch_tmp
# on node-a14c-007
# by uccabz1
#
# compiler GCC version 4.9.2
# options -cpp -iprefix /scratch/UCL/applications/gcc/4.9.2/bin/../lib/gcc/x86_64-unknown-linux-gnu/4.9.2/ -mtune=corei7 -march=x86-64 -g -O2
#
# seed   486222950   872787329  -150293620  1207993295  -114240453 -1290627965    67057917 -1533913911  1814149864 -1834908738  -128232027 -1031700132
#
#      Author: C. J. Pickard (cjp20@cam.ac.uk)
#                Space group: Cm
#

%BLOCK LATTICE_ABC
      4.32080      6.67320      6.67320
    113.88497    103.11112    103.11112
%ENDBLOCK LATTICE_ABC

%BLOCK POSITIONS_FRAC
  Li   0.5624063   0.2148003   0.2148003 SPIN=   0.00000
  Li  -0.0832088  -0.1776322  -0.1776322 SPIN=   0.00000
   O  -0.4337313  -0.3025711   0.0481090 SPIN=   0.00000
   O  -0.0507549  -0.0780407   0.4895325 SPIN=   0.00000
   O   0.2164355  -0.0753288   0.1998703 SPIN=   0.00000
   P  -0.1279702  -0.0858174   0.2439861 SPIN=   0.00000
   O  -0.4337313   0.0481090  -0.3025711 SPIN=   0.00000
   O  -0.0507549   0.4895325  -0.0780407 SPIN=   0.00000
   O   0.2164355   0.1998703  -0.0753288 SPIN=   0.00000
   P  -0.1279702   0.2439861  -0.0858174 SPIN=   0.00000
   O   1.0954086   0.3112323   0.3112323 SPIN=   0.00000
   O  -0.7485765  -0.3216494  -0.3216494 SPIN=   0.00000
  Fe   0.3171043  -0.3254064   0.3262073 SPIN=   4.00000
  Fe   0.3171043   0.3262073  -0.3254064 SPIN=   4.00000
%ENDBLOCK POSITIONS_FRAC

# Note: total spin =   8.00

KPOINTS_MP_SPACING 0.07

%BLOCK SPECIES_POT
QC5
%ENDBLOCK SPECIES_POT

%BLOCK HUBBARD_U
Fe d:4.0
%ENDBLOCK HUBBARD_U

SNAP_TO_SYMMETRY
SYMMETRY_GENERATE

