#              Generated by Buildcell
#
# at 02:30:07 (GMT+0.0) 24th November 2020
# in /scratch/scratch/uccabz1/launch_tmp
# on node-a14a-009
# by uccabz1
#
# compiler GCC version 4.9.2
# options -cpp -iprefix /scratch/UCL/applications/gcc/4.9.2/bin/../lib/gcc/x86_64-unknown-linux-gnu/4.9.2/ -mtune=corei7 -march=x86-64 -g -O2
#
# seed  -790250354  1253206852   -70845514   561031254 -1364735886  -271645664   621602093 -1005935675  -986128641  -890877771  -399602633  1508565059
#
#      Author: C. J. Pickard (cjp20@cam.ac.uk)
#                Space group: P-1
#

%BLOCK LATTICE_ABC
      4.19886      6.20448      6.46821
     72.01022     86.67386     88.98705
%ENDBLOCK LATTICE_ABC

%BLOCK POSITIONS_FRAC
  Li   0.4873530   0.2838916  -0.2585358 SPIN=   0.00000
  Li  -0.4873530  -0.2838916   0.2585358 SPIN=   0.00000
   O   0.2170303   0.1736959   0.4958024 SPIN=   0.00000
   O   0.2601777   0.5004659   0.1296356 SPIN=   0.00000
   O   0.7406291   0.3973881   0.3421184 SPIN=   0.00000
   O   0.5360563   0.1324063   0.1564708 SPIN=   0.00000
   O  -0.2170303  -0.1736959  -0.4958024 SPIN=   0.00000
   O  -0.2601777  -0.5004659  -0.1296356 SPIN=   0.00000
   O  -0.7406291  -0.3973881  -0.3421184 SPIN=   0.00000
   O  -0.5360563  -0.1324063  -0.1564708 SPIN=   0.00000
   P   0.0000000   0.5000000   0.5000000 SPIN=   0.00000
   P   0.5000000  -0.0000000  -0.5000000 SPIN=   0.00000
  Fe   0.0257295   0.1882020   0.1930727 SPIN=   4.00000
  Fe  -0.0257295  -0.1882020  -0.1930727 SPIN=   4.00000
%ENDBLOCK POSITIONS_FRAC

# Note: total spin =   8.00

KPOINTS_MP_SPACING 0.07

%BLOCK SPECIES_POT
QC5
%ENDBLOCK SPECIES_POT

%BLOCK HUBBARD_U
Fe d:4.0
%ENDBLOCK HUBBARD_U

SNAP_TO_SYMMETRY
SYMMETRY_GENERATE

