#              Generated by Buildcell
#
# at 22:20:02 (GMT+0.0) 23rd November 2020
# in /lustre/scratch/uccabz1/launch_tmp
# on node-c12m-034
# by uccabz1
#
# compiler GCC version 4.9.2
# options -cpp -iprefix /lustre/shared/ucl/apps/gcc/4.9.2/bin/../lib/gcc/x86_64-unknown-linux-gnu/4.9.2/ -mtune=corei7 -march=x86-64 -g -Og
#
# seed -1269207757   155369819   -58770554   724193414  2033092646 -1284227100 -1320538280  -722569877  1965375726  1948694227  1886655965   -35297248
#
#      Author: C. J. Pickard (cjp20@cam.ac.uk)
#                Space group: P21
#

%BLOCK LATTICE_ABC
      4.54443      5.49603      6.71136
     90.00000     90.00000    107.34818
%ENDBLOCK LATTICE_ABC

%BLOCK POSITIONS_FRAC
  Li  -0.3985783   0.0385796   0.1544377 SPIN=   0.00000
  Li   0.3985783  -0.0385796  -0.3455623 SPIN=   0.00000
   O   0.1601866   0.0221202   0.0458205 SPIN=   0.00000
   O   0.1912514   0.5018532   0.0437336 SPIN=   0.00000
   O   0.3077990   0.3098382  -0.2678625 SPIN=   0.00000
   O  -0.2355402   0.1902282  -0.1422329 SPIN=   0.00000
   P   0.1047838   0.2427802  -0.0741616 SPIN=   0.00000
   O  -0.1601866  -0.0221202   0.5458205 SPIN=   0.00000
   O  -0.1912514  -0.5018532   0.5437336 SPIN=   0.00000
   O  -0.3077990  -0.3098382   0.2321375 SPIN=   0.00000
   O   0.2355402  -0.1902282   0.3577671 SPIN=   0.00000
   P  -0.1047838  -0.2427802   0.4258384 SPIN=   0.00000
  Fe   0.2680805   0.4210369   0.3825469 SPIN=   4.00000
  Fe  -0.2680805  -0.4210369  -0.1174531 SPIN=   4.00000
%ENDBLOCK POSITIONS_FRAC

# Note: total spin =   8.00

KPOINTS_MP_SPACING 0.07

%BLOCK SPECIES_POT
QC5
%ENDBLOCK SPECIES_POT

%BLOCK HUBBARD_U
Fe d:4.0
%ENDBLOCK HUBBARD_U

SNAP_TO_SYMMETRY
SYMMETRY_GENERATE

