#              Generated by Buildcell
#
# at 01:12:28 (GMT+0.0) 24th November 2020
# in /lustre/scratch/uccabz1/launch_tmp
# on node-c12e-020
# by uccabz1
#
# compiler GCC version 4.9.2
# options -cpp -iprefix /lustre/shared/ucl/apps/gcc/4.9.2/bin/../lib/gcc/x86_64-unknown-linux-gnu/4.9.2/ -mtune=corei7 -march=x86-64 -g -Og
#
# seed  1796734293 -2055984520  1284941298   427978658 -1850405625  -214117575 -1686555880   725264699 -1334709053   338242803   923695299  -491176995
#
#      Author: C. J. Pickard (cjp20@cam.ac.uk)
#                Space group: Fdd2
#

%BLOCK LATTICE_ABC
      5.69909      5.73939      6.31468
     77.05332     63.17563     60.23202
%ENDBLOCK LATTICE_ABC

%BLOCK POSITIONS_FRAC
  Li   0.2640114  -0.5280228  -0.0000000 SPIN=   0.00000
  Li   0.0140114  -0.0280228  -0.5000000 SPIN=   0.00000
   O  -0.5201130  -0.0377289  -0.2895881 SPIN=   0.00000
   O  -0.0110188  -0.3334605  -0.6104768 SPIN=   0.00000
   O   0.5578419  -0.0377289   0.2895881 SPIN=   0.00000
   O   0.3444793  -0.3334605   0.6104768 SPIN=   0.00000
   O  -0.0597011   0.4622711  -0.2104119 SPIN=   0.00000
   O   0.1285044   0.1665395   0.1104768 SPIN=   0.00000
   O  -0.4025700   0.4622711   0.2104119 SPIN=   0.00000
   O  -0.2950439   0.1665395  -0.1104768 SPIN=   0.00000
   P  -0.1018301   0.2036602  -0.0000000 SPIN=   0.00000
   P  -0.3518301   0.7036602  -0.5000000 SPIN=   0.00000
  Fe  -0.4007821   0.8015642  -0.0000000 SPIN=   4.00000
  Fe   0.3492179  -0.6984358  -0.5000000 SPIN=   4.00000
%ENDBLOCK POSITIONS_FRAC

# Note: total spin =   8.00

KPOINTS_MP_SPACING 0.07

%BLOCK SPECIES_POT
QC5
%ENDBLOCK SPECIES_POT

%BLOCK HUBBARD_U
Fe d:4.0
%ENDBLOCK HUBBARD_U

SNAP_TO_SYMMETRY
SYMMETRY_GENERATE

