#              Generated by Buildcell
#
# at 04:34:01 (GMT+0.0) 24th November 2020
# in /scratch/scratch/uccabz1/launch_tmp
# on node-a14e-012
# by uccabz1
#
# compiler GCC version 4.9.2
# options -cpp -iprefix /scratch/UCL/applications/gcc/4.9.2/bin/../lib/gcc/x86_64-unknown-linux-gnu/4.9.2/ -mtune=corei7 -march=x86-64 -g -O2
#
# seed   547618468  1886335143 -1131637413  1389907404  1016164067 -1141925914  -520075017 -1801795898   708276650    86870309 -1810913642  -320657361
#
#      Author: C. J. Pickard (cjp20@cam.ac.uk)
#                Space group: C2
#

%BLOCK LATTICE_ABC
      4.99858      5.88096      5.99643
     92.80737    114.63252     90.00000
%ENDBLOCK LATTICE_ABC

%BLOCK POSITIONS_FRAC
  Li  -0.0013174   0.2523244   0.0619124 SPIN=   0.00000
  Li  -0.0632299  -0.2523244  -0.0619124 SPIN=   0.00000
   O  -0.1181167   0.2733336   0.3578518 SPIN=   0.00000
   O  -0.5655665  -0.0075969   0.2240284 SPIN=   0.00000
   O  -0.3207376   0.1267216   0.6605634 SPIN=   0.00000
   O  -0.6194655   0.3974002   0.3457542 SPIN=   0.00000
   P  -0.3931642   0.2038637   0.3943570 SPIN=   0.00000
   O   0.5240316  -0.2733336  -0.3578518 SPIN=   0.00000
   O   0.2104051   0.0075969  -0.2240284 SPIN=   0.00000
   O   0.0186991  -0.1267216  -0.6605634 SPIN=   0.00000
   O   0.0347803  -0.3974002  -0.3457542 SPIN=   0.00000
   P   0.2124788  -0.2038637  -0.3943570 SPIN=   0.00000
  Fe  -0.3801188  -0.3246541   0.3132055 SPIN=   4.00000
  Fe   0.3066756   0.3246541  -0.3132055 SPIN=   4.00000
%ENDBLOCK POSITIONS_FRAC

# Note: total spin =   8.00

KPOINTS_MP_SPACING 0.07

%BLOCK SPECIES_POT
QC5
%ENDBLOCK SPECIES_POT

%BLOCK HUBBARD_U
Fe d:4.0
%ENDBLOCK HUBBARD_U

SNAP_TO_SYMMETRY
SYMMETRY_GENERATE

