#              Generated by Buildcell
#
# at 01:19:27 (GMT+0.0) 24th November 2020
# in /lustre/scratch/uccabz1/launch_tmp
# on node-c12f-022
# by uccabz1
#
# compiler GCC version 4.9.2
# options -cpp -iprefix /lustre/shared/ucl/apps/gcc/4.9.2/bin/../lib/gcc/x86_64-unknown-linux-gnu/4.9.2/ -mtune=corei7 -march=x86-64 -g -Og
#
# seed  1742744033   389467365  1221170474  -175558041  -833230278 -1038559457 -1652311699  -606498158 -1576832729  -239038855  -760700443 -2067060883
#
#      Author: C. J. Pickard (cjp20@cam.ac.uk)
#                Space group: Pc
#

%BLOCK LATTICE_ABC
      3.81037      5.26612      8.02654
     90.00000     90.00000     96.57560
%ENDBLOCK LATTICE_ABC

%BLOCK POSITIONS_FRAC
  Li   0.1534677   0.4728522   0.4700316 SPIN=   0.00000
  Li  -0.3465323  -0.0271478  -0.4700316 SPIN=   0.00000
   O   0.4931751   0.0690857  -0.2217971 SPIN=   0.00000
   O   0.0108318  -0.2533242  -0.3585052 SPIN=   0.00000
   O   0.4815608  -0.4235288  -0.1954900 SPIN=   0.00000
   O   0.0207146  -0.2048902  -0.0480978 SPIN=   0.00000
   P   0.2617104  -0.1886888  -0.2049520 SPIN=   0.00000
   O  -0.0068249   0.5690857   0.2217971 SPIN=   0.00000
   O  -0.4891682   0.2466758   0.3585052 SPIN=   0.00000
   O  -0.0184392   0.0764712   0.1954900 SPIN=   0.00000
   O  -0.4792854   0.2951098   0.0480978 SPIN=   0.00000
   P  -0.2382896   0.3113112   0.2049520 SPIN=   0.00000
  Fe  -0.0076679   0.2893520  -0.1451467 SPIN=   4.00000
  Fe   0.4923321  -0.2106480   0.1451467 SPIN=   4.00000
%ENDBLOCK POSITIONS_FRAC

# Note: total spin =   8.00

KPOINTS_MP_SPACING 0.07

%BLOCK SPECIES_POT
QC5
%ENDBLOCK SPECIES_POT

%BLOCK HUBBARD_U
Fe d:4.0
%ENDBLOCK HUBBARD_U

SNAP_TO_SYMMETRY
SYMMETRY_GENERATE

