#              Generated by Buildcell
#
# at 21:26:07 (GMT+0.0) 23rd November 2020
# in /lustre/scratch/uccabz1/launch_tmp
# on node-c12b-030
# by uccabz1
#
# compiler GCC version 4.9.2
# options -cpp -iprefix /lustre/shared/ucl/apps/gcc/4.9.2/bin/../lib/gcc/x86_64-unknown-linux-gnu/4.9.2/ -mtune=corei7 -march=x86-64 -g -Og
#
# seed -1644907369  1420501714   444053347   317382083 -1032460449  1636349384 -1810788031   702080198  -486259166   500331145 -1675437525  1545369043
#
#      Author: C. J. Pickard (cjp20@cam.ac.uk)
#                Space group: Amm2
#

%BLOCK LATTICE_ABC
      5.18407      5.76712      5.94635
     90.00000    115.84279     90.00000
%ENDBLOCK LATTICE_ABC

%BLOCK POSITIONS_FRAC
  Li  -0.4657895  -0.5000000   0.0684210 SPIN=   0.00000
  Li  -0.3086316   0.0000000   0.3827367 SPIN=   0.00000
   O   0.4215501  -0.2818401   0.3623754 SPIN=   0.00000
   O   0.1806601  -0.2644993  -0.1227301 SPIN=   0.00000
   O  -0.0591747   0.2818401   0.3623754 SPIN=   0.00000
   O  -0.3033903   0.2644993  -0.1227301 SPIN=   0.00000
   O  -0.0591747  -0.2818401   0.3623754 SPIN=   0.00000
   O  -0.3033903  -0.2644993  -0.1227301 SPIN=   0.00000
   O   0.4215501   0.2818401   0.3623754 SPIN=   0.00000
   O   0.1806601   0.2644993  -0.1227301 SPIN=   0.00000
   P   0.0095025   0.0000000   0.0190050 SPIN=   0.00000
   P   0.2275649   0.5000000   0.4551297 SPIN=   0.00000
  Fe   0.3829640  -0.0000000  -0.2340720 SPIN=   1.74935
  Fe  -0.1573763  -0.5000000  -0.3147526 SPIN=   6.25065
%ENDBLOCK POSITIONS_FRAC

# Note: total spin =   8.00

KPOINTS_MP_SPACING 0.07

%BLOCK SPECIES_POT
QC5
%ENDBLOCK SPECIES_POT

%BLOCK HUBBARD_U
Fe d:4.0
%ENDBLOCK HUBBARD_U

SNAP_TO_SYMMETRY
SYMMETRY_GENERATE

