#              Generated by Buildcell
#
# at 01:18:38 (GMT+0.0) 24th November 2020
# in /lustre/scratch/uccabz1/launch_tmp
# on node-c12d-032
# by uccabz1
#
# compiler GCC version 4.9.2
# options -cpp -iprefix /lustre/shared/ucl/apps/gcc/4.9.2/bin/../lib/gcc/x86_64-unknown-linux-gnu/4.9.2/ -mtune=corei7 -march=x86-64 -g -Og
#
# seed  -221294318  1621837734 -1603121994  1353233658   713092426   628811571  -488497431   209702253 -1579201562   767398320  -486880864  -796886353
#
#      Author: C. J. Pickard (cjp20@cam.ac.uk)
#                Space group: Aem2
#

%BLOCK LATTICE_ABC
      4.24644      4.24644      8.88499
     90.00000     90.00000     92.97774
%ENDBLOCK LATTICE_ABC

%BLOCK POSITIONS_FRAC
  Li  -0.8139901  -0.3139901  -0.0561345 SPIN=   0.00000
  Li  -0.3139901   0.1860099   0.0561345 SPIN=   0.00000
   O  -0.2003987  -0.2928056   0.1367511 SPIN=   0.00000
   O  -0.0375355   0.0611951   0.3651997 SPIN=   0.00000
   O  -0.2928056  -0.2003987  -0.1367511 SPIN=   0.00000
   O   0.0611951  -0.0375355  -0.3651997 SPIN=   0.00000
   O   0.2071944   0.2996013   0.1367511 SPIN=   0.00000
   O   0.5611951   0.4624645   0.3651997 SPIN=   0.00000
   O   0.2996013   0.2071944  -0.1367511 SPIN=   0.00000
   O   0.4624645   0.5611951  -0.3651997 SPIN=   0.00000
   P   0.0816551  -0.4183449  -0.3510020 SPIN=   0.00000
   P   0.5816551   0.0816551   0.3510020 SPIN=   0.00000
  Fe   0.5930957   0.0930957  -0.3198885 SPIN=   4.00000
  Fe  -0.9069043  -0.4069043   0.3198885 SPIN=   4.00000
%ENDBLOCK POSITIONS_FRAC

# Note: total spin =   8.00

KPOINTS_MP_SPACING 0.07

%BLOCK SPECIES_POT
QC5
%ENDBLOCK SPECIES_POT

%BLOCK HUBBARD_U
Fe d:4.0
%ENDBLOCK HUBBARD_U

SNAP_TO_SYMMETRY
SYMMETRY_GENERATE

