#              Generated by Buildcell
#
# at 04:05:36 (GMT+0.0) 24th November 2020
# in /scratch/scratch/uccabz1/launch_tmp
# on node-k10f-020
# by uccabz1
#
# compiler GCC version 4.9.2
# options -cpp -iprefix /scratch/UCL/applications/gcc/4.9.2/bin/../lib/gcc/x86_64-unknown-linux-gnu/4.9.2/ -mtune=corei7 -march=x86-64 -g -O2
#
# seed    52249129  1985036991 -1677116138  1577756274  -794976810 -1323954759  1068027562  1619269142   -95352908   622399789  1491665650  1369534283
#
#      Author: C. J. Pickard (cjp20@cam.ac.uk)
#                Space group: Cc
#

%BLOCK LATTICE_ABC
      4.74665      4.74665      8.28813
     78.57439     78.57439     61.71285
%ENDBLOCK LATTICE_ABC

%BLOCK POSITIONS_FRAC
  Li   0.4592748  -0.4311008  -0.4039232 SPIN=   0.00000
  Li   0.0688992  -0.0407252   0.0960768 SPIN=   0.00000
   O   0.0398330  -0.4677782  -0.4141033 SPIN=   0.00000
   O  -0.5169356   0.0074333  -0.4745226 SPIN=   0.00000
   O  -0.1460830   0.1161777  -0.3550115 SPIN=   0.00000
   O  -0.0176199  -0.0033218  -0.6492501 SPIN=   0.00000
   P  -0.1478679  -0.1061676  -0.4721514 SPIN=   0.00000
   O  -0.9677782   0.5398330   0.0858967 SPIN=   0.00000
   O  -0.4925667  -0.0169356   0.0254774 SPIN=   0.00000
   O  -0.3838223   0.3539170   0.1449885 SPIN=   0.00000
   O  -0.5033218   0.4823801  -0.1492501 SPIN=   0.00000
   P  -0.6061676   0.3521321   0.0278486 SPIN=   0.00000
  Fe   0.8252291  -0.3501454  -0.1338217 SPIN=   4.00000
  Fe   0.1498546   0.3252291   0.3661783 SPIN=   4.00000
%ENDBLOCK POSITIONS_FRAC

# Note: total spin =   8.00

KPOINTS_MP_SPACING 0.07

%BLOCK SPECIES_POT
QC5
%ENDBLOCK SPECIES_POT

%BLOCK HUBBARD_U
Fe d:4.0
%ENDBLOCK HUBBARD_U

SNAP_TO_SYMMETRY
SYMMETRY_GENERATE

