#              Generated by Buildcell
#
# at 23:21:09 (GMT+0.0) 23rd November 2020
# in /scratch/scratch/uccabz1/launch_tmp
# on node-a14f-014
# by uccabz1
#
# compiler GCC version 4.9.2
# options -cpp -iprefix /scratch/UCL/applications/gcc/4.9.2/bin/../lib/gcc/x86_64-unknown-linux-gnu/4.9.2/ -mtune=corei7 -march=x86-64 -g -O2
#
# seed -1175779650   802871896  2109162784  -510639614  1806385539   273724889   409273198 -1189244665  -905483479  -733814107  2050864062  1487306248
#
#      Author: C. J. Pickard (cjp20@cam.ac.uk)
#                Space group: P-1
#

%BLOCK LATTICE_ABC
      5.07775      5.28051      6.41421
     85.14795     85.20182     69.26286
%ENDBLOCK LATTICE_ABC

%BLOCK POSITIONS_FRAC
  Li  -0.5000000   0.5000000  -0.0000000 SPIN=   0.00000
  Li   0.5000000  -0.5000000   0.5000000 SPIN=   0.00000
   O   0.3244121  -0.1691229   0.2498386 SPIN=   0.00000
   O   0.5455580   0.1990692   0.2842606 SPIN=   0.00000
   O   0.2027907   0.2766863   0.0131940 SPIN=   0.00000
   O   0.0350027   0.2983638   0.3919194 SPIN=   0.00000
   P   0.2766134   0.1359270   0.2374579 SPIN=   0.00000
   O  -0.3244121   0.1691229  -0.2498386 SPIN=   0.00000
   O  -0.5455580  -0.1990692  -0.2842606 SPIN=   0.00000
   O  -0.2027907  -0.2766863  -0.0131940 SPIN=   0.00000
   O  -0.0350027  -0.2983638  -0.3919194 SPIN=   0.00000
   P  -0.2766134  -0.1359270  -0.2374579 SPIN=   0.00000
  Fe   0.1012665   0.1637566  -0.2702067 SPIN=   4.00000
  Fe  -0.1012665  -0.1637566   0.2702067 SPIN=   4.00000
%ENDBLOCK POSITIONS_FRAC

# Note: total spin =   8.00

KPOINTS_MP_SPACING 0.07

%BLOCK SPECIES_POT
QC5
%ENDBLOCK SPECIES_POT

%BLOCK HUBBARD_U
Fe d:4.0
%ENDBLOCK HUBBARD_U

SNAP_TO_SYMMETRY
SYMMETRY_GENERATE

