#              Generated by Buildcell
#
# at 05:51:39 (GMT+0.0) 24th November 2020
# in /lustre/scratch/uccabz1/launch_tmp
# on node-c12h-023
# by uccabz1
#
# compiler GCC version 4.9.2
# options -cpp -iprefix /lustre/shared/ucl/apps/gcc/4.9.2/bin/../lib/gcc/x86_64-unknown-linux-gnu/4.9.2/ -mtune=corei7 -march=x86-64 -g -Og
#
# seed     5037657   383153733  1336700046  1509737900   653956867  -854285752 -1771345794  -227175502    60347320  -863628612 -1170783400   -95758668
#
#      Author: C. J. Pickard (cjp20@cam.ac.uk)
#                Space group: P2
#

%BLOCK LATTICE_ABC
      4.13629      4.99656      7.82488
     98.36232     90.00000     90.00000
%ENDBLOCK LATTICE_ABC

%BLOCK POSITIONS_FRAC
  Li  -0.0294482   0.4058493  -0.1897981 SPIN=   0.00000
  Li  -0.0294482  -0.4058493   0.1897981 SPIN=   0.00000
   O   0.0881745   0.2274927   0.4337640 SPIN=   0.00000
   O  -0.3616448  -0.1234548   0.3337486 SPIN=   0.00000
   O  -0.3995570   0.3295907   0.2442207 SPIN=   0.00000
   P  -0.1455697   0.1152708   0.2879651 SPIN=   0.00000
   O   0.0881745  -0.2274927  -0.4337640 SPIN=   0.00000
   O  -0.3616448   0.1234548  -0.3337486 SPIN=   0.00000
   O  -0.3995570  -0.3295907  -0.2442207 SPIN=   0.00000
   P  -0.1455697  -0.1152708  -0.2879651 SPIN=   0.00000
   O  -0.0709235  -0.0000000   0.0000000 SPIN=   0.00000
   O   0.3310214   0.5000000   0.0000000 SPIN=   0.00000
  Fe   0.4289468   0.0000000   0.0000000 SPIN=   4.48394
  Fe   0.4677960   0.5000000   0.5000000 SPIN=   3.51606
%ENDBLOCK POSITIONS_FRAC

# Note: total spin =   8.00

KPOINTS_MP_SPACING 0.07

%BLOCK SPECIES_POT
QC5
%ENDBLOCK SPECIES_POT

%BLOCK HUBBARD_U
Fe d:4.0
%ENDBLOCK HUBBARD_U

SNAP_TO_SYMMETRY
SYMMETRY_GENERATE

