#              Generated by Buildcell
#
# at 03:03:10 (GMT+0.0) 24th November 2020
# in /lustre/scratch/uccabz1/launch_tmp
# on node-c12n-028
# by uccabz1
#
# compiler GCC version 4.9.2
# options -cpp -iprefix /lustre/shared/ucl/apps/gcc/4.9.2/bin/../lib/gcc/x86_64-unknown-linux-gnu/4.9.2/ -mtune=corei7 -march=x86-64 -g -Og
#
# seed  -649364071  -114592905 -1791771175 -1166190709  -406038543  2061480457   672908787  1618312273  1959414048   737142085 -1886776971   114331425
#
#      Author: C. J. Pickard (cjp20@cam.ac.uk)
#                Space group: I222
#

%BLOCK LATTICE_ABC
      4.96277      6.05059      6.61072
    117.23459    112.04641     90.00000
%ENDBLOCK LATTICE_ABC

%BLOCK POSITIONS_FRAC
  Li   0.0000000   0.2502128  -0.0000000 SPIN=   0.00000
  Li  -0.0000000  -0.2502128   0.0000000 SPIN=   0.00000
   O  -0.5469934  -0.0723115   0.1900706 SPIN=   0.00000
   O   0.0250388  -0.0366250   0.3654970 SPIN=   0.00000
   O   0.5469934  -0.2623822  -0.1900706 SPIN=   0.00000
   O  -0.0250388  -0.4021219  -0.3654970 SPIN=   0.00000
   O   0.2629359   0.0723115  -0.1900706 SPIN=   0.00000
   O   0.6595418   0.0366250  -0.3654970 SPIN=   0.00000
   O  -0.2629359   0.2623822   0.1900706 SPIN=   0.00000
   O  -0.6595418   0.4021219   0.3654970 SPIN=   0.00000
   P  -0.3185387   0.1814613   0.3629226 SPIN=   0.00000
   P   0.3185387  -0.1814613  -0.3629226 SPIN=   0.00000
  Fe  -0.3164710  -0.3164710   0.3670579 SPIN=   4.00000
  Fe   0.3164710   0.3164710  -0.3670579 SPIN=   4.00000
%ENDBLOCK POSITIONS_FRAC

# Note: total spin =   8.00

KPOINTS_MP_SPACING 0.07

%BLOCK SPECIES_POT
QC5
%ENDBLOCK SPECIES_POT

%BLOCK HUBBARD_U
Fe d:4.0
%ENDBLOCK HUBBARD_U

SNAP_TO_SYMMETRY
SYMMETRY_GENERATE

