#              Generated by Buildcell
#
# at 02:40:12 (GMT+0.0) 24th November 2020
# in /lustre/scratch/uccabz1/launch_tmp
# on node-c12e-034
# by uccabz1
#
# compiler GCC version 4.9.2
# options -cpp -iprefix /lustre/shared/ucl/apps/gcc/4.9.2/bin/../lib/gcc/x86_64-unknown-linux-gnu/4.9.2/ -mtune=corei7 -march=x86-64 -g -Og
#
# seed  -355725154  1085224275  1710059124  1705325293  1940884891  1873126871   463208312   206866151 -1448270757 -1838978492  1333375020   829142225
#
#      Author: C. J. Pickard (cjp20@cam.ac.uk)
#                Space group: Pcc2
#

%BLOCK LATTICE_ABC
      3.90905      5.21660      7.84622
     90.00000     90.00000     90.00000
%ENDBLOCK LATTICE_ABC

%BLOCK POSITIONS_FRAC
  Li  -0.0000000   0.0000000  -0.1583067 SPIN=   0.00000
  Li  -0.0000000  -0.0000000   0.3416933 SPIN=   0.00000
   O   0.3159526  -0.2949629   0.2470975 SPIN=   0.00000
   O  -0.2059846  -0.1954139   0.0530747 SPIN=   0.00000
   O  -0.3159526   0.2949629   0.2470975 SPIN=   0.00000
   O   0.2059846   0.1954139   0.0530747 SPIN=   0.00000
   O  -0.3159526  -0.2949629  -0.2529025 SPIN=   0.00000
   O   0.2059846  -0.1954139  -0.4469253 SPIN=   0.00000
   O   0.3159526   0.2949629  -0.2529025 SPIN=   0.00000
   O  -0.2059846   0.1954139  -0.4469253 SPIN=   0.00000
   P  -0.5000000  -0.0000000   0.1071707 SPIN=   0.00000
   P  -0.5000000  -0.0000000  -0.3928293 SPIN=   0.00000
  Fe   0.5000000   0.5000000  -0.0424675 SPIN=   4.00000
  Fe   0.5000000   0.5000000   0.4575325 SPIN=   4.00000
%ENDBLOCK POSITIONS_FRAC

# Note: total spin =   8.00

KPOINTS_MP_SPACING 0.07

%BLOCK SPECIES_POT
QC5
%ENDBLOCK SPECIES_POT

%BLOCK HUBBARD_U
Fe d:4.0
%ENDBLOCK HUBBARD_U

SNAP_TO_SYMMETRY
SYMMETRY_GENERATE

