#              Generated by Buildcell
#
# at 21:06:26 (GMT+0.0) 23rd November 2020
# in /scratch/scratch/uccabz1/launch_tmp
# on node-a14f-014
# by uccabz1
#
# compiler GCC version 4.9.2
# options -cpp -iprefix /scratch/UCL/applications/gcc/4.9.2/bin/../lib/gcc/x86_64-unknown-linux-gnu/4.9.2/ -mtune=corei7 -march=x86-64 -g -O2
#
# seed  1794693876 -2023606995    57859685  1338294648   397843465  -519642834  -911895969    22732135 -1206162567  1626107627  -900376796   117043271
#
#      Author: C. J. Pickard (cjp20@cam.ac.uk)
#                Space group: Cm
#

%BLOCK LATTICE_ABC
      4.26824      6.24078      6.24078
    105.23558     92.43747     92.43747
%ENDBLOCK LATTICE_ABC

%BLOCK POSITIONS_FRAC
  Li  -0.0989352   0.0322221   0.0322221 SPIN=   0.00000
  Li   0.2748086   0.3854912   0.3854912 SPIN=   0.00000
   O   0.6054021  -0.3084978  -0.0607327 SPIN=   0.00000
   O   0.1053122  -0.2380152   0.1653388 SPIN=   0.00000
   O   0.5749777  -0.3561362   0.3392294 SPIN=   0.00000
   O   0.5768900   0.0266341   0.2827404 SPIN=   0.00000
   P   0.4743996  -0.2208701   0.1699317 SPIN=   0.00000
   O   0.6054021  -0.0607327  -0.3084978 SPIN=   0.00000
   O   0.1053122   0.1653388  -0.2380152 SPIN=   0.00000
   O   0.5749777   0.3392294  -0.3561362 SPIN=   0.00000
   O   0.5768900   0.2827404   0.0266341 SPIN=   0.00000
   P   0.4743996   0.1699317  -0.2208701 SPIN=   0.00000
  Fe  -0.0050560  -0.1143010   0.4953327 SPIN=   4.00000
  Fe  -0.0050560   0.4953327  -0.1143010 SPIN=   4.00000
%ENDBLOCK POSITIONS_FRAC

# Note: total spin =   8.00

KPOINTS_MP_SPACING 0.07

%BLOCK SPECIES_POT
QC5
%ENDBLOCK SPECIES_POT

%BLOCK HUBBARD_U
Fe d:4.0
%ENDBLOCK HUBBARD_U

SNAP_TO_SYMMETRY
SYMMETRY_GENERATE

