#              Generated by Buildcell
#
# at 23:15:22 (GMT+0.0) 23rd November 2020
# in /lustre/scratch/uccabz1/launch_tmp
# on node-c12c-034
# by uccabz1
#
# compiler GCC version 4.9.2
# options -cpp -iprefix /lustre/shared/ucl/apps/gcc/4.9.2/bin/../lib/gcc/x86_64-unknown-linux-gnu/4.9.2/ -mtune=corei7 -march=x86-64 -g -Og
#
# seed   328780399   130593292   835086641 -2133899257  -412334394  -737098534  1168667065 -1819721961   -12177884  -535156041 -1233228729   288968312
#
#      Author: C. J. Pickard (cjp20@cam.ac.uk)
#                Space group: P-1
#

%BLOCK LATTICE_ABC
      4.20773      5.12888      7.84778
     96.17737     91.45961    107.81483
%ENDBLOCK LATTICE_ABC

%BLOCK POSITIONS_FRAC
  Li  -0.1760446   0.0470955  -0.2032197 SPIN=   0.00000
  Li   0.1760446  -0.0470955   0.2032197 SPIN=   0.00000
   O  -0.0656656   0.6579111   0.3696616 SPIN=   0.00000
   O   0.3235171   0.3912174   0.2395834 SPIN=   0.00000
   O  -0.2484264   0.1239402   0.3023730 SPIN=   0.00000
   P  -0.0419860   0.4103318   0.2472724 SPIN=   0.00000
   O   0.0656656  -0.6579111  -0.3696616 SPIN=   0.00000
   O  -0.3235171  -0.3912174  -0.2395834 SPIN=   0.00000
   O   0.2484264  -0.1239402  -0.3023730 SPIN=   0.00000
   P   0.0419860  -0.4103318  -0.2472724 SPIN=   0.00000
   O  -0.5000000  -0.0000000   0.0000000 SPIN=   0.00000
   O  -1.0000000  -0.5000000  -0.0000000 SPIN=   0.00000
  Fe   0.5000000  -0.5000000  -0.5000000 SPIN=   0.59947
  Fe  -0.5000000  -0.5000000   0.0000000 SPIN=   7.40053
%ENDBLOCK POSITIONS_FRAC

# Note: total spin =   8.00

KPOINTS_MP_SPACING 0.07

%BLOCK SPECIES_POT
QC5
%ENDBLOCK SPECIES_POT

%BLOCK HUBBARD_U
Fe d:4.0
%ENDBLOCK HUBBARD_U

SNAP_TO_SYMMETRY
SYMMETRY_GENERATE

