#              Generated by Buildcell
#
# at 01:54:07 (GMT+0.0) 24th November 2020
# in /lustre/scratch/uccabz1/launch_tmp
# on node-c12n-022
# by uccabz1
#
# compiler GCC version 4.9.2
# options -cpp -iprefix /lustre/shared/ucl/apps/gcc/4.9.2/bin/../lib/gcc/x86_64-unknown-linux-gnu/4.9.2/ -mtune=corei7 -march=x86-64 -g -Og
#
# seed -1295577302  -201259015  1272863803  -927124415  2101339114  1943742964 -1506965436 -1718380159 -1359850889  -849435969 -1867236042   514847841
#
#      Author: C. J. Pickard (cjp20@cam.ac.uk)
#                Space group: P21212
#

%BLOCK LATTICE_ABC
      3.91995      4.74862      8.59552
     90.00000     90.00000     90.00000
%ENDBLOCK LATTICE_ABC

%BLOCK POSITIONS_FRAC
  Li   0.0000000  -0.5000000  -0.0089307 SPIN=   0.00000
  Li   0.5000000   0.0000000   0.0089307 SPIN=   0.00000
   O   0.2565098  -0.3349583  -0.4132084 SPIN=   0.00000
   O   0.6941684  -0.2949967  -0.1872976 SPIN=   0.00000
   O  -0.2565098   0.3349583  -0.4132084 SPIN=   0.00000
   O  -0.6941684   0.2949967  -0.1872976 SPIN=   0.00000
   O  -0.2434902  -0.1650417   0.4132084 SPIN=   0.00000
   O   0.1941684  -0.2050033   0.1872976 SPIN=   0.00000
   O   0.2434902   0.1650417   0.4132084 SPIN=   0.00000
   O  -0.1941684   0.2050033   0.1872976 SPIN=   0.00000
   P   0.0000000   0.0000000   0.2977069 SPIN=   0.00000
   P  -0.5000000  -0.5000000  -0.2977069 SPIN=   0.00000
  Fe   0.0000000   0.0000000  -0.3047079 SPIN=   4.00000
  Fe  -0.5000000   0.5000000   0.3047079 SPIN=   4.00000
%ENDBLOCK POSITIONS_FRAC

# Note: total spin =   8.00

KPOINTS_MP_SPACING 0.07

%BLOCK SPECIES_POT
QC5
%ENDBLOCK SPECIES_POT

%BLOCK HUBBARD_U
Fe d:4.0
%ENDBLOCK HUBBARD_U

SNAP_TO_SYMMETRY
SYMMETRY_GENERATE

