#              Generated by Buildcell
#
# at 05:49:13 (GMT+0.0) 24th November 2020
# in /lustre/scratch/uccabz1/launch_tmp
# on node-c12f-020
# by uccabz1
#
# compiler GCC version 4.9.2
# options -cpp -iprefix /lustre/shared/ucl/apps/gcc/4.9.2/bin/../lib/gcc/x86_64-unknown-linux-gnu/4.9.2/ -mtune=corei7 -march=x86-64 -g -Og
#
# seed   -67814973  -461889628   265943043  -695735988 -1172047102  1594826157 -1440363650  -420020696 -1984760546   346114488 -1808970571  -166162049
#
#      Author: C. J. Pickard (cjp20@cam.ac.uk)
#                Space group: P21
#

%BLOCK LATTICE_ABC
      4.50630      4.90388      7.70584
     90.00000     90.00000    110.01673
%ENDBLOCK LATTICE_ABC

%BLOCK POSITIONS_FRAC
  Li  -0.3593056  -0.1727970  -0.3836149 SPIN=   0.00000
  Li   0.3593056   0.1727970   0.1163851 SPIN=   0.00000
   O  -0.0782845   0.1735034  -0.2285088 SPIN=   0.00000
   O   0.3457536  -0.0735463  -0.2006524 SPIN=   0.00000
   O   0.3076559   0.1661880  -0.4774971 SPIN=   0.00000
   O   0.5182609   0.4687737  -0.2136608 SPIN=   0.00000
   P   0.2575141   0.1865490  -0.2765500 SPIN=   0.00000
   O   0.0782845  -0.1735034   0.2714912 SPIN=   0.00000
   O  -0.3457536   0.0735463   0.2993476 SPIN=   0.00000
   O  -0.3076559  -0.1661880   0.0225029 SPIN=   0.00000
   O  -0.5182609  -0.4687737   0.2863392 SPIN=   0.00000
   P  -0.2575141  -0.1865490   0.2234500 SPIN=   0.00000
  Fe  -0.0026679   0.4377795   0.4081985 SPIN=   4.00000
  Fe   0.0026679  -0.4377795  -0.0918015 SPIN=   4.00000
%ENDBLOCK POSITIONS_FRAC

# Note: total spin =   8.00

KPOINTS_MP_SPACING 0.07

%BLOCK SPECIES_POT
QC5
%ENDBLOCK SPECIES_POT

%BLOCK HUBBARD_U
Fe d:4.0
%ENDBLOCK HUBBARD_U

SNAP_TO_SYMMETRY
SYMMETRY_GENERATE

