#              Generated by Buildcell
#
# at 21:14:53 (GMT+0.0) 23rd November 2020
# in /lustre/scratch/uccabz1/launch_tmp
# on node-c12h-032
# by uccabz1
#
# compiler GCC version 4.9.2
# options -cpp -iprefix /lustre/shared/ucl/apps/gcc/4.9.2/bin/../lib/gcc/x86_64-unknown-linux-gnu/4.9.2/ -mtune=corei7 -march=x86-64 -g -Og
#
# seed -2076808833  1910340595   564913800 -1582519793 -1503787774   770733927  -132787883    26412103  -392849619 -1442321799   832305386 -1559285722
#
#      Author: C. J. Pickard (cjp20@cam.ac.uk)
#                Space group: P21212
#

%BLOCK LATTICE_ABC
      4.56315      5.36696      6.53321
     90.00000     90.00000     90.00000
%ENDBLOCK LATTICE_ABC

%BLOCK POSITIONS_FRAC
  Li   0.0000000  -0.0000000   0.1113747 SPIN=   0.00000
  Li   0.5000000   0.5000000  -0.1113747 SPIN=   0.00000
   O  -0.1435708   0.2137098  -0.1387336 SPIN=   0.00000
   O  -0.3619460  -0.1959985  -0.2856972 SPIN=   0.00000
   O   0.1435708  -0.2137098  -0.1387336 SPIN=   0.00000
   O   0.3619460   0.1959985  -0.2856972 SPIN=   0.00000
   O  -0.3564292  -0.2862902   0.1387336 SPIN=   0.00000
   O  -0.1380540  -0.6959985   0.2856972 SPIN=   0.00000
   O   0.3564292   0.2862902   0.1387336 SPIN=   0.00000
   O   0.1380540   0.6959985   0.2856972 SPIN=   0.00000
   P   0.5000000   0.0000000  -0.1099984 SPIN=   0.00000
   P   0.0000000   0.5000000   0.1099984 SPIN=   0.00000
  Fe   0.0000000   0.0000000  -0.3866211 SPIN=   4.00000
  Fe   0.5000000   0.5000000   0.3866211 SPIN=   4.00000
%ENDBLOCK POSITIONS_FRAC

# Note: total spin =   8.00

KPOINTS_MP_SPACING 0.07

%BLOCK SPECIES_POT
QC5
%ENDBLOCK SPECIES_POT

%BLOCK HUBBARD_U
Fe d:4.0
%ENDBLOCK HUBBARD_U

SNAP_TO_SYMMETRY
SYMMETRY_GENERATE

