#              Generated by Buildcell
#
# at 04:14:04 (GMT+0.0) 24th November 2020
# in /lustre/scratch/uccabz1/launch_tmp
# on node-c12f-031
# by uccabz1
#
# compiler GCC version 4.9.2
# options -cpp -iprefix /lustre/shared/ucl/apps/gcc/4.9.2/bin/../lib/gcc/x86_64-unknown-linux-gnu/4.9.2/ -mtune=corei7 -march=x86-64 -g -Og
#
# seed -1905536797 -1946503001   279253902 -2062672775   870247394 -2052985630  1160866292  -976188094  1852150243   316370976 -1362155110  1580255785
#
#      Author: C. J. Pickard (cjp20@cam.ac.uk)
#                Space group: C2/c
#

%BLOCK LATTICE_ABC
      5.33999      5.53382      6.11689
     99.27170    115.88050     90.00000
%ENDBLOCK LATTICE_ABC

%BLOCK POSITIONS_FRAC
  Li  -0.0000000  -0.0000000  -0.5000000 SPIN=   0.00000
  Li   0.5000000  -0.5000000   0.5000000 SPIN=   0.00000
   O  -0.2456424   0.2882886   0.3501265 SPIN=   0.00000
   O  -0.0868234   0.6150384   0.1658819 SPIN=   0.00000
   O  -0.5957689   0.2117114  -0.3501265 SPIN=   0.00000
   O  -0.2527053  -0.1150384  -0.1658819 SPIN=   0.00000
   O   0.2456424  -0.2882886  -0.3501265 SPIN=   0.00000
   O   0.0868234  -0.6150384  -0.1658819 SPIN=   0.00000
   O   0.5957689  -0.2117114   0.3501265 SPIN=   0.00000
   O   0.2527053   0.1150384   0.1658819 SPIN=   0.00000
   P   0.5000000  -0.0000000   0.5000000 SPIN=   0.00000
   P   0.0000000  -0.5000000   0.5000000 SPIN=   0.00000
  Fe  -0.2497877   0.2500000   0.0000000 SPIN=   4.00000
  Fe   0.2497877  -0.2500000   0.0000000 SPIN=   4.00000
%ENDBLOCK POSITIONS_FRAC

# Note: total spin =   8.00

KPOINTS_MP_SPACING 0.07

%BLOCK SPECIES_POT
QC5
%ENDBLOCK SPECIES_POT

%BLOCK HUBBARD_U
Fe d:4.0
%ENDBLOCK HUBBARD_U

SNAP_TO_SYMMETRY
SYMMETRY_GENERATE

