#              Generated by Buildcell
#
# at 03:07:34 (GMT+0.0) 24th November 2020
# in /lustre/scratch/uccabz1/launch_tmp
# on node-c12i-035
# by uccabz1
#
# compiler GCC version 4.9.2
# options -cpp -iprefix /lustre/shared/ucl/apps/gcc/4.9.2/bin/../lib/gcc/x86_64-unknown-linux-gnu/4.9.2/ -mtune=corei7 -march=x86-64 -g -Og
#
# seed  -254444686  -752767710 -2113681998  1285281829  1898564585 -1931377778   807141140  -269342922 -1669159583   853206346   506617460 -1530547261
#
#      Author: C. J. Pickard (cjp20@cam.ac.uk)
#                Space group: P-4
#

%BLOCK LATTICE_ABC
      4.68609      4.68609      7.28617
     90.00000     90.00000     90.00000
%ENDBLOCK LATTICE_ABC

%BLOCK POSITIONS_FRAC
  Li  -0.5000000   0.5000000   0.0000000 SPIN=   0.00000
  Li   0.0000000   0.0000000   0.5000000 SPIN=   0.00000
   O   0.2533714   0.2446727  -0.1782415 SPIN=   0.00000
   O   0.2541211   0.7522879  -0.3216358 SPIN=   0.00000
   O  -0.2533714  -0.2446727  -0.1782415 SPIN=   0.00000
   O  -0.2541211  -0.7522879  -0.3216358 SPIN=   0.00000
   O  -0.2446727   0.2533714   0.1782415 SPIN=   0.00000
   O  -0.7522879   0.2541211   0.3216358 SPIN=   0.00000
   O   0.2446727  -0.2533714   0.1782415 SPIN=   0.00000
   O   0.7522879  -0.2541211   0.3216358 SPIN=   0.00000
   P   0.5000000   0.0000000   0.2283399 SPIN=   0.00000
   P   0.0000000  -0.5000000  -0.2283399 SPIN=   0.00000
  Fe   0.5000000  -0.5000000  -0.5000000 SPIN=   2.04085
  Fe   0.0000000   0.0000000   0.0000000 SPIN=   5.95915
%ENDBLOCK POSITIONS_FRAC

# Note: total spin =   8.00

KPOINTS_MP_SPACING 0.07

%BLOCK SPECIES_POT
QC5
%ENDBLOCK SPECIES_POT

%BLOCK HUBBARD_U
Fe d:4.0
%ENDBLOCK HUBBARD_U

SNAP_TO_SYMMETRY
SYMMETRY_GENERATE

