#              Generated by Buildcell
#
# at 02:19:38 (GMT+0.0) 24th November 2020
# in /lustre/scratch/uccabz1/launch_tmp
# on node-c12l-025
# by uccabz1
#
# compiler GCC version 4.9.2
# options -cpp -iprefix /lustre/shared/ucl/apps/gcc/4.9.2/bin/../lib/gcc/x86_64-unknown-linux-gnu/4.9.2/ -mtune=corei7 -march=x86-64 -g -Og
#
# seed   891460437  1203729631  -668864224  -664429233  1549040684 -1414219987  -505271572   877521135 -1898333602  -844527019  1949611601  -776225427
#
#      Author: C. J. Pickard (cjp20@cam.ac.uk)
#                Space group: Cm
#

%BLOCK LATTICE_ABC
      5.86681      5.97234      5.97234
    100.87353    113.56012    113.56012
%ENDBLOCK LATTICE_ABC

%BLOCK POSITIONS_FRAC
  Li   0.0559910   0.4469932   0.0270857 SPIN=   0.00000
  Li   0.0559910   0.0270857   0.4469932 SPIN=   0.00000
   O  -0.5727812  -0.7449673  -0.1623715 SPIN=   0.00000
   O  -0.1578353  -0.4044350   0.3287972 SPIN=   0.00000
   O  -0.1126553  -0.3050646  -0.0397516 SPIN=   0.00000
   P  -0.3475652  -0.4477134   0.0315718 SPIN=   0.00000
   O  -0.5727812  -0.1623715  -0.7449673 SPIN=   0.00000
   O  -0.1578353   0.3287972  -0.4044350 SPIN=   0.00000
   O  -0.1126553  -0.0397516  -0.3050646 SPIN=   0.00000
   P  -0.3475652   0.0315718  -0.4477134 SPIN=   0.00000
   O   0.2520125   0.1995606   0.1995606 SPIN=   0.00000
   O   0.2542070   0.5268611  -0.4731389 SPIN=   0.00000
  Fe   0.4761552   0.9659586  -0.0340414 SPIN=   4.81844
  Fe  -0.3697706  -0.4583989  -0.4583989 SPIN=   3.18156
%ENDBLOCK POSITIONS_FRAC

# Note: total spin =   8.00

KPOINTS_MP_SPACING 0.07

%BLOCK SPECIES_POT
QC5
%ENDBLOCK SPECIES_POT

%BLOCK HUBBARD_U
Fe d:4.0
%ENDBLOCK HUBBARD_U

SNAP_TO_SYMMETRY
SYMMETRY_GENERATE

