#              Generated by Buildcell
#
# at 01:55:33 (GMT+0.0) 24th November 2020
# in /lustre/scratch/uccabz1/launch_tmp
# on node-c12j-029
# by uccabz1
#
# compiler GCC version 4.9.2
# options -cpp -iprefix /lustre/shared/ucl/apps/gcc/4.9.2/bin/../lib/gcc/x86_64-unknown-linux-gnu/4.9.2/ -mtune=corei7 -march=x86-64 -g -Og
#
# seed   739361144   495627496  2028391808 -1011662683   245645080   331421822  1069918340  1899537719  1514801923    57344039  1200326449  1468880956
#
#      Author: C. J. Pickard (cjp20@cam.ac.uk)
#                Space group: Cc
#

%BLOCK LATTICE_ABC
      3.90647      6.05459      7.05666
     88.90342     73.93109     86.03536
%ENDBLOCK LATTICE_ABC

%BLOCK POSITIONS_FRAC
  Li   0.1441174  -0.0383438   0.0030708 SPIN=   0.00000
  Li   0.1471882   0.4616562  -0.0030708 SPIN=   0.00000
   O   0.1644054   0.0354756   0.2905448 SPIN=   0.00000
   O   0.1447535   0.4651495   0.2962221 SPIN=   0.00000
   O   0.5674577   0.2545325   0.4463531 SPIN=   0.00000
   O   0.6799129   0.2547079   0.0793052 SPIN=   0.00000
   P   0.3805982   0.2409392   0.2764225 SPIN=   0.00000
   O  -0.5450498  -0.4645244  -0.2905448 SPIN=   0.00000
   O  -0.5590244  -0.0348505  -0.2962221 SPIN=   0.00000
   O   0.0138108  -0.2454675  -0.4463531 SPIN=   0.00000
   O  -0.2407819  -0.2452921  -0.0793052 SPIN=   0.00000
   P  -0.3429792  -0.2590608  -0.2764225 SPIN=   0.00000
  Fe  -0.4832233  -0.2733397   0.3458695 SPIN=   4.00000
  Fe  -0.1373538   0.2266603  -0.3458695 SPIN=   4.00000
%ENDBLOCK POSITIONS_FRAC

# Note: total spin =   8.00

KPOINTS_MP_SPACING 0.07

%BLOCK SPECIES_POT
QC5
%ENDBLOCK SPECIES_POT

%BLOCK HUBBARD_U
Fe d:4.0
%ENDBLOCK HUBBARD_U

SNAP_TO_SYMMETRY
SYMMETRY_GENERATE

