#              Generated by Buildcell
#
# at 02:31:36 (GMT+0.0) 24th November 2020
# in /scratch/scratch/uccabz1/launch_tmp
# on node-a14a-001
# by uccabz1
#
# compiler GCC version 4.9.2
# options -cpp -iprefix /scratch/UCL/applications/gcc/4.9.2/bin/../lib/gcc/x86_64-unknown-linux-gnu/4.9.2/ -mtune=corei7 -march=x86-64 -g -O2
#
# seed -2073707935   613961963   153954689   203631868  1809198387 -1004481919  1565492134  -525417079 -1531977212 -1465251162 -1614985157  1305998608
#
#      Author: C. J. Pickard (cjp20@cam.ac.uk)
#                Space group: Pmn21
#

%BLOCK LATTICE_ABC
      5.10288      5.55960      5.63976
     90.00000     90.00000     90.00000
%ENDBLOCK LATTICE_ABC

%BLOCK POSITIONS_FRAC
  Li   0.5000000   0.4122287  -0.1267566 SPIN=   0.00000
  Li   0.0000000  -0.4122287   0.3732434 SPIN=   0.00000
   O  -0.2579849   0.3123524  -0.5167646 SPIN=   0.00000
   O  -0.2576822  -0.1535317  -0.4807761 SPIN=   0.00000
   O  -0.2420151  -0.3123524  -0.0167646 SPIN=   0.00000
   O  -0.2423178   0.1535317   0.0192239 SPIN=   0.00000
   O   0.2420151  -0.3123524  -0.0167646 SPIN=   0.00000
   O   0.2423178   0.1535317   0.0192239 SPIN=   0.00000
   O   0.2579849   0.3123524  -0.5167646 SPIN=   0.00000
   O   0.2576822  -0.1535317  -0.4807761 SPIN=   0.00000
   P   0.0000000   0.1454424   0.1866418 SPIN=   0.00000
   P   0.5000000  -0.1454424  -0.3133582 SPIN=   0.00000
  Fe   0.0000000   0.0866784  -0.3128112 SPIN=   4.00000
  Fe   0.5000000  -0.0866784   0.1871888 SPIN=   4.00000
%ENDBLOCK POSITIONS_FRAC

# Note: total spin =   8.00

KPOINTS_MP_SPACING 0.07

%BLOCK SPECIES_POT
QC5
%ENDBLOCK SPECIES_POT

%BLOCK HUBBARD_U
Fe d:4.0
%ENDBLOCK HUBBARD_U

SNAP_TO_SYMMETRY
SYMMETRY_GENERATE

