#              Generated by Buildcell
#
# at 00:30:17 (GMT+0.0) 24th November 2020
# in /lustre/scratch/uccabz1/launch_tmp
# on node-c12j-029
# by uccabz1
#
# compiler GCC version 4.9.2
# options -cpp -iprefix /lustre/shared/ucl/apps/gcc/4.9.2/bin/../lib/gcc/x86_64-unknown-linux-gnu/4.9.2/ -mtune=corei7 -march=x86-64 -g -Og
#
# seed  -400287958  1431161042 -1818818089   235308540 -1583965330 -1636794086  -782786673  1184062488   718583587  1007871521  -919708651   925474210
#
#      Author: C. J. Pickard (cjp20@cam.ac.uk)
#                Space group: C2
#

%BLOCK LATTICE_ABC
      5.01179      5.08901      7.64109
    106.79619     90.00000    119.49936
%ENDBLOCK LATTICE_ABC

%BLOCK POSITIONS_FRAC
  Li  -0.0645991   0.2553152  -0.0925627 SPIN=   0.00000
  Li  -0.3199143  -0.2553152   0.0925627 SPIN=   0.00000
   O  -0.0857959   0.5398696   0.4254391 SPIN=   0.00000
   O   0.0632986   0.2150146   0.1572299 SPIN=   0.00000
   O   0.0621420   0.6843566   0.1262870 SPIN=   0.00000
   O   0.4750653   0.7661249   0.3562077 SPIN=   0.00000
   P   0.1213456   0.5532652   0.2758259 SPIN=   0.00000
   O  -0.6256655  -0.5398696  -0.4254391 SPIN=   0.00000
   O  -0.1517160  -0.2150146  -0.1572299 SPIN=   0.00000
   O  -0.6222146  -0.6843566  -0.1262870 SPIN=   0.00000
   O  -0.2910597  -0.7661249  -0.3562077 SPIN=   0.00000
   P  -0.4319197  -0.5532652  -0.2758259 SPIN=   0.00000
  Fe   0.4297087   0.2202728   0.3160322 SPIN=   4.00000
  Fe   0.2094359  -0.2202728  -0.3160322 SPIN=   4.00000
%ENDBLOCK POSITIONS_FRAC

# Note: total spin =   8.00

KPOINTS_MP_SPACING 0.07

%BLOCK SPECIES_POT
QC5
%ENDBLOCK SPECIES_POT

%BLOCK HUBBARD_U
Fe d:4.0
%ENDBLOCK HUBBARD_U

SNAP_TO_SYMMETRY
SYMMETRY_GENERATE

