#              Generated by Buildcell
#
# at 01:38:44 (GMT+0.0) 24th November 2020
# in /lustre/scratch/uccabz1/launch_tmp
# on node-c12l-027
# by uccabz1
#
# compiler GCC version 4.9.2
# options -cpp -iprefix /lustre/shared/ucl/apps/gcc/4.9.2/bin/../lib/gcc/x86_64-unknown-linux-gnu/4.9.2/ -mtune=corei7 -march=x86-64 -g -Og
#
# seed  1800327869 -1289947839   456524789   496990349   290252093  1494592518 -1189210944  -449743470  1796734293   580003010   417663216 -1295370286
#
#      Author: C. J. Pickard (cjp20@cam.ac.uk)
#                Space group: Pnn2
#

%BLOCK LATTICE_ABC
      4.61790      4.74754      7.29805
     90.00000     90.00000     90.00000
%ENDBLOCK LATTICE_ABC

%BLOCK POSITIONS_FRAC
  Li  -0.0000000  -0.0000000  -0.0750672 SPIN=   0.00000
  Li  -0.5000000  -0.5000000   0.4249328 SPIN=   0.00000
   O  -0.2249282  -0.2651145   0.5980369 SPIN=   0.00000
   O  -0.2116392  -0.2984843   0.2428040 SPIN=   0.00000
   O   0.2249282   0.2651145   0.5980369 SPIN=   0.00000
   O   0.2116392   0.2984843   0.2428040 SPIN=   0.00000
   O   0.2750718  -0.2348855   0.0980369 SPIN=   0.00000
   O   0.2883608  -0.2015157  -0.2571960 SPIN=   0.00000
   O  -0.2750718   0.2348855   0.0980369 SPIN=   0.00000
   O  -0.2883608   0.2015157  -0.2571960 SPIN=   0.00000
   P  -0.5000000  -0.0000000   0.1288820 SPIN=   0.00000
   P  -0.0000000  -0.5000000  -0.3711180 SPIN=   0.00000
  Fe  -0.0000000  -0.0000000   0.4077364 SPIN=   4.00000
  Fe  -0.5000000  -0.5000000  -0.0922636 SPIN=   4.00000
%ENDBLOCK POSITIONS_FRAC

# Note: total spin =   8.00

KPOINTS_MP_SPACING 0.07

%BLOCK SPECIES_POT
QC5
%ENDBLOCK SPECIES_POT

%BLOCK HUBBARD_U
Fe d:4.0
%ENDBLOCK HUBBARD_U

SNAP_TO_SYMMETRY
SYMMETRY_GENERATE

