#              Generated by Buildcell
#
# at 04:42:48 (GMT+0.0) 24th November 2020
# in /lustre/scratch/uccabz1/launch_tmp
# on node-c12g-036
# by uccabz1
#
# compiler GCC version 4.9.2
# options -cpp -iprefix /lustre/shared/ucl/apps/gcc/4.9.2/bin/../lib/gcc/x86_64-unknown-linux-gnu/4.9.2/ -mtune=corei7 -march=x86-64 -g -Og
#
# seed  1749403008  -882446269  -414383559   247115932  1833489574  -743410488  -493090746  -333546262  -515935960  1914757428  1048324510  1601663007
#
#      Author: C. J. Pickard (cjp20@cam.ac.uk)
#                Space group: P42
#

%BLOCK LATTICE_ABC
      4.66053      4.66053      7.36629
     90.00000     90.00000     90.00000
%ENDBLOCK LATTICE_ABC

%BLOCK POSITIONS_FRAC
  Li   0.5000000   0.0000000  -0.0751342 SPIN=   0.00000
  Li   0.0000000  -0.5000000   0.4248658 SPIN=   0.00000
   O  -0.2124494   0.2149198   0.1298495 SPIN=   0.00000
   O   0.3027275   0.2642878   0.2609222 SPIN=   0.00000
   O   0.2124494  -0.2149198   0.1298495 SPIN=   0.00000
   O  -0.3027275  -0.2642878   0.2609222 SPIN=   0.00000
   O  -0.2149198  -0.2124494  -0.3701505 SPIN=   0.00000
   O  -0.2642878   0.3027275  -0.2390778 SPIN=   0.00000
   O   0.2149198   0.2124494  -0.3701505 SPIN=   0.00000
   O   0.2642878  -0.3027275  -0.2390778 SPIN=   0.00000
   P   0.5000000   0.5000000  -0.3160080 SPIN=   0.00000
   P   0.5000000  -0.5000000   0.1839920 SPIN=   0.00000
  Fe  -0.0000000  -0.5000000  -0.0449732 SPIN=   4.00000
  Fe   0.5000000   0.0000000   0.4550268 SPIN=   4.00000
%ENDBLOCK POSITIONS_FRAC

# Note: total spin =   8.00

KPOINTS_MP_SPACING 0.07

%BLOCK SPECIES_POT
QC5
%ENDBLOCK SPECIES_POT

%BLOCK HUBBARD_U
Fe d:4.0
%ENDBLOCK HUBBARD_U

SNAP_TO_SYMMETRY
SYMMETRY_GENERATE

