#              Generated by Buildcell
#
# at 03:30:49 (GMT+0.0) 24th November 2020
# in /lustre/scratch/uccabz1/launch_tmp
# on node-c12i-027
# by uccabz1
#
# compiler GCC version 4.9.2
# options -cpp -iprefix /lustre/shared/ucl/apps/gcc/4.9.2/bin/../lib/gcc/x86_64-unknown-linux-gnu/4.9.2/ -mtune=corei7 -march=x86-64 -g -Og
#
# seed  -990877222 -1439263818   417114618 -1096702831 -1814378163 -1423514346 -1357499538  1703718676  1045608885  1193535773   401649267   357630849
#
#      Author: C. J. Pickard (cjp20@cam.ac.uk)
#                Space group: P-1
#

%BLOCK LATTICE_ABC
      4.16716      4.82890      8.27467
     80.94965     79.11801     80.75330
%ENDBLOCK LATTICE_ABC

%BLOCK POSITIONS_FRAC
  Li   0.8589353   0.4034409  -0.3203646 SPIN=   0.00000
  Li  -0.8589353  -0.4034409   0.3203646 SPIN=   0.00000
   O   0.2429873   0.2251613   0.1930154 SPIN=   0.00000
   O  -0.2339043   0.3453616   0.0209871 SPIN=   0.00000
   O  -0.2339276  -0.0783900   0.2315313 SPIN=   0.00000
   O  -0.3536362   0.4034661   0.3228536 SPIN=   0.00000
   P  -0.1264486   0.2260860   0.1936888 SPIN=   0.00000
   O  -0.2429873  -0.2251613  -0.1930154 SPIN=   0.00000
   O   0.2339043  -0.3453616  -0.0209871 SPIN=   0.00000
   O   0.2339276   0.0783900  -0.2315313 SPIN=   0.00000
   O   0.3536362  -0.4034661  -0.3228536 SPIN=   0.00000
   P   0.1264486  -0.2260860  -0.1936888 SPIN=   0.00000
  Fe   0.5000000   0.0000000   0.0000000 SPIN=   8.00000
  Fe  -0.5000000  -0.0000000   0.5000000 SPIN=  -0.00000
%ENDBLOCK POSITIONS_FRAC

# Note: total spin =   8.00

KPOINTS_MP_SPACING 0.07

%BLOCK SPECIES_POT
QC5
%ENDBLOCK SPECIES_POT

%BLOCK HUBBARD_U
Fe d:4.0
%ENDBLOCK HUBBARD_U

SNAP_TO_SYMMETRY
SYMMETRY_GENERATE

