#              Generated by Buildcell
#
# at 22:12:34 (GMT+0.0) 23rd November 2020
# in /lustre/scratch/uccabz1/launch_tmp
# on node-c12c-026
# by uccabz1
#
# compiler GCC version 4.9.2
# options -cpp -iprefix /lustre/shared/ucl/apps/gcc/4.9.2/bin/../lib/gcc/x86_64-unknown-linux-gnu/4.9.2/ -mtune=corei7 -march=x86-64 -g -Og
#
# seed -2101580470  -286593420  1829465988  -384823479 -1011800475  -888069463 -1790901533 -1565022756  1659913353  1321080255 -1222608882  -852021555
#
#      Author: C. J. Pickard (cjp20@cam.ac.uk)
#                Space group: P-1
#

%BLOCK LATTICE_ABC
      3.90894      6.36613      7.18566
    101.12710    104.01687    106.15726
%ENDBLOCK LATTICE_ABC

%BLOCK POSITIONS_FRAC
  Li  -0.1736997   0.1876348   0.4885678 SPIN=   0.00000
  Li   0.1736997  -0.1876348  -0.4885678 SPIN=   0.00000
   O   0.6090648   0.2048620   0.0112619 SPIN=   0.00000
   O  -0.0379334  -0.0714046  -0.2327558 SPIN=   0.00000
   O   0.0790339   0.3423258  -0.1590228 SPIN=   0.00000
   O   0.4136513   0.1688656  -0.3667541 SPIN=   0.00000
   P   0.2859661   0.1635799  -0.1783944 SPIN=   0.00000
   O  -0.6090648  -0.2048620  -0.0112619 SPIN=   0.00000
   O   0.0379334   0.0714046   0.2327558 SPIN=   0.00000
   O  -0.0790339  -0.3423258   0.1590228 SPIN=   0.00000
   O  -0.4136513  -0.1688656   0.3667541 SPIN=   0.00000
   P  -0.2859661  -0.1635799   0.1783944 SPIN=   0.00000
  Fe  -0.2961615  -0.4015961  -0.2047678 SPIN=   4.00000
  Fe   0.2961615   0.4015961   0.2047678 SPIN=   4.00000
%ENDBLOCK POSITIONS_FRAC

# Note: total spin =   8.00

KPOINTS_MP_SPACING 0.07

%BLOCK SPECIES_POT
QC5
%ENDBLOCK SPECIES_POT

%BLOCK HUBBARD_U
Fe d:4.0
%ENDBLOCK HUBBARD_U

SNAP_TO_SYMMETRY
SYMMETRY_GENERATE

