#              Generated by Buildcell
#
# at 05:22:16 (GMT+0.0) 24th November 2020
# in /lustre/scratch/uccabz1/launch_tmp
# on node-c12g-028
# by uccabz1
#
# compiler GCC version 4.9.2
# options -cpp -iprefix /lustre/shared/ucl/apps/gcc/4.9.2/bin/../lib/gcc/x86_64-unknown-linux-gnu/4.9.2/ -mtune=corei7 -march=x86-64 -g -Og
#
# seed -1564171398 -1078864087   547482171 -1467131613 -1068471725    24146914   393502333  -985456950   707509341   900979749    31514311  -690172932
#
#      Author: C. J. Pickard (cjp20@cam.ac.uk)
#                Space group: Ima2
#

%BLOCK LATTICE_ABC
      5.70750      5.72318      6.35019
    116.78415    116.70496     90.00000
%ENDBLOCK LATTICE_ABC

%BLOCK POSITIONS_FRAC
  Li  -0.1141901   0.2794329   0.5000000 SPIN=   0.00000
  Li   0.1141901  -0.2205671  -0.5000000 SPIN=   0.00000
   O   0.2423752  -0.3563534  -0.1809235 SPIN=   0.00000
   O   0.3296670  -0.3837726   0.2447023 SPIN=   0.00000
   O  -0.2423752  -0.1754299   0.1809235 SPIN=   0.00000
   O  -0.3296670  -0.6284749  -0.2447023 SPIN=   0.00000
   O   0.0767012   0.1436466  -0.1809235 SPIN=   0.00000
   O   0.4150353   0.1162274   0.2447023 SPIN=   0.00000
   O  -0.0767012   0.3245701   0.1809235 SPIN=   0.00000
   O  -0.4150353  -0.1284749  -0.2447023 SPIN=   0.00000
   P   0.0000000   0.3927013   0.0000000 SPIN=   0.00000
   P   0.5000000  -0.1072987  -0.0000000 SPIN=   0.00000
  Fe   0.0000000  -0.1071533   0.0000000 SPIN=   4.00000
  Fe   0.5000000   0.3928467  -0.0000000 SPIN=   4.00000
%ENDBLOCK POSITIONS_FRAC

# Note: total spin =   8.00

KPOINTS_MP_SPACING 0.07

%BLOCK SPECIES_POT
QC5
%ENDBLOCK SPECIES_POT

%BLOCK HUBBARD_U
Fe d:4.0
%ENDBLOCK HUBBARD_U

SNAP_TO_SYMMETRY
SYMMETRY_GENERATE

