#              Generated by Buildcell
#
# at 03:27:02 (GMT+0.0) 24th November 2020
# in /lustre/scratch/uccabz1/launch_tmp
# on node-c12f-020
# by uccabz1
#
# compiler GCC version 4.9.2
# options -cpp -iprefix /lustre/shared/ucl/apps/gcc/4.9.2/bin/../lib/gcc/x86_64-unknown-linux-gnu/4.9.2/ -mtune=corei7 -march=x86-64 -g -Og
#
# seed   411697895  1052501383   -21434647  -682511041 -1320985344  1395582882  1167560080 -1171982081   -85173576  2037709237  1411760599 -1943819059
#
#      Author: C. J. Pickard (cjp20@cam.ac.uk)
#                Space group: P-1
#

%BLOCK LATTICE_ABC
      4.85832      5.66543      6.69925
    111.03803     91.00807    109.70056
%ENDBLOCK LATTICE_ABC

%BLOCK POSITIONS_FRAC
  Li  -0.2075933   0.4991862  -0.3334323 SPIN=   0.00000
  Li   0.2075933  -0.4991862   0.3334323 SPIN=   0.00000
   O   0.3375587   0.2730534   0.4909181 SPIN=   0.00000
   O   0.7986720   0.2050460   0.3260877 SPIN=   0.00000
   O   0.3260491  -0.1893121   0.2111761 SPIN=   0.00000
   O   0.3839115   0.1926404   0.0903703 SPIN=   0.00000
   P   0.4540299   0.1293403   0.2886541 SPIN=   0.00000
   O  -0.3375587  -0.2730534  -0.4909181 SPIN=   0.00000
   O  -0.7986720  -0.2050460  -0.3260877 SPIN=   0.00000
   O  -0.3260491   0.1893121  -0.2111761 SPIN=   0.00000
   O  -0.3839115  -0.1926404  -0.0903703 SPIN=   0.00000
   P  -0.4540299  -0.1293403  -0.2886541 SPIN=   0.00000
  Fe   0.1700658   0.1800425  -0.1932234 SPIN=   4.00000
  Fe  -0.1700658  -0.1800425   0.1932234 SPIN=   4.00000
%ENDBLOCK POSITIONS_FRAC

# Note: total spin =   8.00

KPOINTS_MP_SPACING 0.07

%BLOCK SPECIES_POT
QC5
%ENDBLOCK SPECIES_POT

%BLOCK HUBBARD_U
Fe d:4.0
%ENDBLOCK HUBBARD_U

SNAP_TO_SYMMETRY
SYMMETRY_GENERATE

