#              Generated by Buildcell
#
# at 02:27:59 (GMT+0.0) 24th November 2020
# in /lustre/scratch/uccabz1/launch_tmp
# on node-c12l-027
# by uccabz1
#
# compiler GCC version 4.9.2
# options -cpp -iprefix /lustre/shared/ucl/apps/gcc/4.9.2/bin/../lib/gcc/x86_64-unknown-linux-gnu/4.9.2/ -mtune=corei7 -march=x86-64 -g -Og
#
# seed   366958044  1800659328  2141835448   653434092 -1110641453  1144740230  1558586811   119566428  -280128022   858351895   315688974  1478366126
#
#      Author: C. J. Pickard (cjp20@cam.ac.uk)
#                Space group: Pc
#

%BLOCK LATTICE_ABC
      4.93926      5.52672      6.26638
     90.00000     90.00000    110.71545
%ENDBLOCK LATTICE_ABC

%BLOCK POSITIONS_FRAC
  Li  -0.2633366  -0.2213425  -0.1420295 SPIN=   0.00000
  Li   0.2366634  -0.2213425   0.1420295 SPIN=   0.00000
   O   0.3007131   0.6613828  -0.2489986 SPIN=   0.00000
   O  -0.2332734   0.5199175  -0.3767758 SPIN=   0.00000
   O  -0.0020485   0.1904515  -0.3610604 SPIN=   0.00000
   O  -0.1247618   0.3675246  -0.0215182 SPIN=   0.00000
   P   0.0006620   0.4460884  -0.2492028 SPIN=   0.00000
   O   0.8007131   0.6613828   0.2489986 SPIN=   0.00000
   O   0.2667266   0.5199175   0.3767758 SPIN=   0.00000
   O   0.4979515   0.1904515   0.3610604 SPIN=   0.00000
   O   0.3752382   0.3675246   0.0215182 SPIN=   0.00000
   P   0.5006620   0.4460884   0.2492028 SPIN=   0.00000
  Fe  -0.1063852   0.1715655   0.2628308 SPIN=   4.00000
  Fe   0.3936148   0.1715655  -0.2628308 SPIN=   4.00000
%ENDBLOCK POSITIONS_FRAC

# Note: total spin =   8.00

KPOINTS_MP_SPACING 0.07

%BLOCK SPECIES_POT
QC5
%ENDBLOCK SPECIES_POT

%BLOCK HUBBARD_U
Fe d:4.0
%ENDBLOCK HUBBARD_U

SNAP_TO_SYMMETRY
SYMMETRY_GENERATE

