#              Generated by Buildcell
#
# at 03:24:50 (GMT+0.0) 24th November 2020
# in /lustre/scratch/uccabz1/launch_tmp
# on node-c12p-031
# by uccabz1
#
# compiler GCC version 4.9.2
# options -cpp -iprefix /lustre/shared/ucl/apps/gcc/4.9.2/bin/../lib/gcc/x86_64-unknown-linux-gnu/4.9.2/ -mtune=corei7 -march=x86-64 -g -Og
#
# seed   703351981  1890448802   397083295  1929525858  -993220319  -433775181  1711311812 -1625764684 -1482544210 -1007352067   353504078  1923344345
#
#      Author: C. J. Pickard (cjp20@cam.ac.uk)
#                Space group: Cm
#

%BLOCK LATTICE_ABC
      4.28647      6.44250      6.44250
     88.95345     71.83155     71.83155
%ENDBLOCK LATTICE_ABC

%BLOCK POSITIONS_FRAC
  Li   0.3389373   0.4696697   0.4696697 SPIN=   0.00000
  Li   0.4972775  -0.0270428  -0.0270428 SPIN=   0.00000
   O  -0.4923509   0.2825280  -0.2706591 SPIN=   0.00000
   O  -0.0963500   0.5016206  -0.2278608 SPIN=   0.00000
   O  -0.4405262   0.3779766   0.1047004 SPIN=   0.00000
   O   0.0629296   0.1019525  -0.1686446 SPIN=   0.00000
   O  -0.4923509  -0.2706591   0.2825280 SPIN=   0.00000
   O  -0.0963500  -0.2278608   0.5016206 SPIN=   0.00000
   O  -0.4405262   0.1047004   0.3779766 SPIN=   0.00000
   O   0.0629296  -0.1686446   0.1019525 SPIN=   0.00000
   P  -0.3401289  -0.3404210  -0.3404210 SPIN=   0.00000
   P  -0.1826387   0.1635111   0.1635111 SPIN=   0.00000
  Fe   0.1014005  -0.4914459   0.0278901 SPIN=   4.00000
  Fe   0.1014005   0.0278901  -0.4914459 SPIN=   4.00000
%ENDBLOCK POSITIONS_FRAC

# Note: total spin =   8.00

KPOINTS_MP_SPACING 0.07

%BLOCK SPECIES_POT
QC5
%ENDBLOCK SPECIES_POT

%BLOCK HUBBARD_U
Fe d:4.0
%ENDBLOCK HUBBARD_U

SNAP_TO_SYMMETRY
SYMMETRY_GENERATE

