#              Generated by Buildcell
#
# at 01:49:26 (GMT+0.0) 24th November 2020
# in /scratch/scratch/uccabz1/launch_tmp
# on node-a14e-019
# by uccabz1
#
# compiler GCC version 4.9.2
# options -cpp -iprefix /scratch/UCL/applications/gcc/4.9.2/bin/../lib/gcc/x86_64-unknown-linux-gnu/4.9.2/ -mtune=corei7 -march=x86-64 -g -O2
#
# seed  2097403047  1892451526  -900808994 -1392146578  -702250841   816391797 -1841342890 -1113581108 -1779919590  -107596161 -1661138203 -2079959768
#
#      Author: C. J. Pickard (cjp20@cam.ac.uk)
#                Space group: P-1
#

%BLOCK LATTICE_ABC
      5.06756      6.00384      6.05961
    114.49559    103.40348     94.49060
%ENDBLOCK LATTICE_ABC

%BLOCK POSITIONS_FRAC
  Li   0.4433723   0.2230256   0.4297337 SPIN=   0.00000
  Li  -0.4433723  -0.2230256  -0.4297337 SPIN=   0.00000
   O  -0.5140147   0.4506127   0.1881024 SPIN=   0.00000
   O   0.0148321   0.5185424   0.2452453 SPIN=   0.00000
   O  -0.1984781   0.1714137   0.3051822 SPIN=   0.00000
   O  -0.2975335   0.1442516  -0.1307543 SPIN=   0.00000
   P  -0.2634951   0.3260072   0.1505330 SPIN=   0.00000
   O   0.5140147  -0.4506127  -0.1881024 SPIN=   0.00000
   O  -0.0148321  -0.5185424  -0.2452453 SPIN=   0.00000
   O   0.1984781  -0.1714137  -0.3051822 SPIN=   0.00000
   O   0.2975335  -0.1442516   0.1307543 SPIN=   0.00000
   P   0.2634951  -0.3260072  -0.1505330 SPIN=   0.00000
  Fe  -0.1637547  -0.2046791   0.1341708 SPIN=   4.00000
  Fe   0.1637547   0.2046791  -0.1341708 SPIN=   4.00000
%ENDBLOCK POSITIONS_FRAC

# Note: total spin =   8.00

KPOINTS_MP_SPACING 0.07

%BLOCK SPECIES_POT
QC5
%ENDBLOCK SPECIES_POT

%BLOCK HUBBARD_U
Fe d:4.0
%ENDBLOCK HUBBARD_U

SNAP_TO_SYMMETRY
SYMMETRY_GENERATE

