#              Generated by Buildcell
#
# at 21:57:16 (GMT+0.0) 23rd November 2020
# in /scratch/scratch/uccabz1/launch_tmp
# on node-a14e-014
# by uccabz1
#
# compiler GCC version 4.9.2
# options -cpp -iprefix /scratch/UCL/applications/gcc/4.9.2/bin/../lib/gcc/x86_64-unknown-linux-gnu/4.9.2/ -mtune=corei7 -march=x86-64 -g -O2
#
# seed  1818466047   216413384  1654699282   735470650 -1178696476 -2043059595  1477423391   234767431   -34533543   253775402  -890512425  1035916503
#
#      Author: C. J. Pickard (cjp20@cam.ac.uk)
#                Space group: P-1
#

%BLOCK LATTICE_ABC
      4.89822      5.52593      6.78638
     75.61881     87.59929     64.38968
%ENDBLOCK LATTICE_ABC

%BLOCK POSITIONS_FRAC
  Li   0.3197937   0.2564845  -0.4228818 SPIN=   0.00000
  Li  -0.3197937  -0.2564845   0.4228818 SPIN=   0.00000
   O   0.5008963  -0.2632064   0.1274889 SPIN=   0.00000
   O   0.2415943  -0.3075498   0.4678274 SPIN=   0.00000
   O  -0.0734603  -0.1405108   0.1442627 SPIN=   0.00000
   O   0.3081237  -0.6382754   0.2556793 SPIN=   0.00000
   P   0.2587049  -0.3369868   0.2424356 SPIN=   0.00000
   O  -0.5008963   0.2632064  -0.1274889 SPIN=   0.00000
   O  -0.2415943   0.3075498  -0.4678274 SPIN=   0.00000
   O   0.0734603   0.1405108  -0.1442627 SPIN=   0.00000
   O  -0.3081237   0.6382754  -0.2556793 SPIN=   0.00000
   P  -0.2587049   0.3369868  -0.2424356 SPIN=   0.00000
  Fe   0.1308545  -0.2434577  -0.1858830 SPIN=   4.00000
  Fe  -0.1308545   0.2434577   0.1858830 SPIN=   4.00000
%ENDBLOCK POSITIONS_FRAC

# Note: total spin =   8.00

KPOINTS_MP_SPACING 0.07

%BLOCK SPECIES_POT
QC5
%ENDBLOCK SPECIES_POT

%BLOCK HUBBARD_U
Fe d:4.0
%ENDBLOCK HUBBARD_U

SNAP_TO_SYMMETRY
SYMMETRY_GENERATE

