#              Generated by Buildcell
#
# at 05:28:52 (GMT+0.0) 24th November 2020
# in /scratch/scratch/uccabz1/launch_tmp
# on node-a14f-015
# by uccabz1
#
# compiler GCC version 4.9.2
# options -cpp -iprefix /scratch/UCL/applications/gcc/4.9.2/bin/../lib/gcc/x86_64-unknown-linux-gnu/4.9.2/ -mtune=corei7 -march=x86-64 -g -O2
#
# seed -1547345132   749009113 -1009054009 -1163170212 -1667078519  -862721365  -804070165  1825990580   290426672  1465759882 -1437523024  -579445486
#
#      Author: C. J. Pickard (cjp20@cam.ac.uk)
#                Space group: P21
#

%BLOCK LATTICE_ABC
      4.25819      5.44658      7.07875
     90.00000     90.00000    102.94821
%ENDBLOCK LATTICE_ABC

%BLOCK POSITIONS_FRAC
  Li   0.2992508   0.4115030   0.1452324 SPIN=   0.00000
  Li  -0.2992508  -0.4115030  -0.3547676 SPIN=   0.00000
   O   0.3542507   0.5588833  -0.1310950 SPIN=   0.00000
   O   0.1294973   0.3332422  -0.4422292 SPIN=   0.00000
   O   0.2050405   0.0719762  -0.1680368 SPIN=   0.00000
   O  -0.2353471   0.3091068  -0.1620882 SPIN=   0.00000
   P   0.1220714   0.3310034  -0.2200638 SPIN=   0.00000
   O  -0.3542507  -0.5588833   0.3689050 SPIN=   0.00000
   O  -0.1294973  -0.3332422   0.0577708 SPIN=   0.00000
   O  -0.2050405  -0.0719762   0.3319632 SPIN=   0.00000
   O   0.2353471  -0.3091068   0.3379118 SPIN=   0.00000
   P  -0.1220714  -0.3310034   0.2799362 SPIN=   0.00000
  Fe   0.3257985   0.0223429   0.4996236 SPIN=   4.00000
  Fe  -0.3257985  -0.0223429  -0.0003764 SPIN=   4.00000
%ENDBLOCK POSITIONS_FRAC

# Note: total spin =   8.00

KPOINTS_MP_SPACING 0.07

%BLOCK SPECIES_POT
QC5
%ENDBLOCK SPECIES_POT

%BLOCK HUBBARD_U
Fe d:4.0
%ENDBLOCK HUBBARD_U

SNAP_TO_SYMMETRY
SYMMETRY_GENERATE

