#              Generated by Buildcell
#
# at 00:04:17 (GMT+0.0) 24th November 2020
# in /lustre/scratch/uccabz1/launch_tmp
# on node-c12c-022
# by uccabz1
#
# compiler GCC version 4.9.2
# options -cpp -iprefix /lustre/shared/ucl/apps/gcc/4.9.2/bin/../lib/gcc/x86_64-unknown-linux-gnu/4.9.2/ -mtune=corei7 -march=x86-64 -g -Og
#
# seed -1876528153  -470798425   481317556 -1258514529  1083595856  -516218037  1236173048   295664632  1810955955   884782853 -1169337958  -896580749
#
#      Author: C. J. Pickard (cjp20@cam.ac.uk)
#                Space group: Cm
#

%BLOCK LATTICE_ABC
      4.20907      6.18025      6.18025
     89.41503     86.04394     86.04394
%ENDBLOCK LATTICE_ABC

%BLOCK POSITIONS_FRAC
  Li  -0.4371059   0.2109331   0.2109331 SPIN=   0.00000
  Li  -0.2254724   0.5288806  -0.4711194 SPIN=   0.00000
   O  -0.2031815   0.1524884   0.6605718 SPIN=   0.00000
   O  -0.4937133  -0.1272829   0.4491932 SPIN=   0.00000
   O   0.0101719   0.0017012   0.2833502 SPIN=   0.00000
   P  -0.1657228  -0.0455328   0.5100236 SPIN=   0.00000
   O  -0.2031815   0.6605718   0.1524884 SPIN=   0.00000
   O  -0.4937133   0.4491932  -0.1272829 SPIN=   0.00000
   O   0.0101719   0.2833502   0.0017012 SPIN=   0.00000
   P  -0.1657228   0.5100236  -0.0455328 SPIN=   0.00000
   O   0.2777056   0.5131868  -0.4868132 SPIN=   0.00000
   O   0.4511269  -0.1269965  -0.1269965 SPIN=   0.00000
  Fe   0.2906442  -0.2723249   0.1731952 SPIN=   4.00000
  Fe   0.2906442   0.1731952  -0.2723249 SPIN=   4.00000
%ENDBLOCK POSITIONS_FRAC

# Note: total spin =   8.00

KPOINTS_MP_SPACING 0.07

%BLOCK SPECIES_POT
QC5
%ENDBLOCK SPECIES_POT

%BLOCK HUBBARD_U
Fe d:4.0
%ENDBLOCK HUBBARD_U

SNAP_TO_SYMMETRY
SYMMETRY_GENERATE

