#              Generated by Buildcell
#
# at 04:02:25 (GMT+0.0) 24th November 2020
# in /lustre/scratch/uccabz1/launch_tmp
# on node-c12f-026
# by uccabz1
#
# compiler GCC version 4.9.2
# options -cpp -iprefix /lustre/shared/ucl/apps/gcc/4.9.2/bin/../lib/gcc/x86_64-unknown-linux-gnu/4.9.2/ -mtune=corei7 -march=x86-64 -g -Og
#
# seed -1060763284   901564164 -1759243308   -37467699  -466730057  1772043708  2144136931  -650143948  1475160744 -1549740546  1613169550   -19731322
#
#      Author: C. J. Pickard (cjp20@cam.ac.uk)
#                Space group: Cc
#

%BLOCK LATTICE_ABC
      5.55483      5.70948      5.85844
     85.28351     80.26860     60.89208
%ENDBLOCK LATTICE_ABC

%BLOCK POSITIONS_FRAC
  Li  -0.1514879   0.0839080  -0.3814897 SPIN=   0.00000
  Li  -0.0675799  -0.0839080   0.1185103 SPIN=   0.00000
   O  -0.1018870  -0.2590283  -0.1692800 SPIN=   0.00000
   O  -0.0471136  -0.5802136  -0.4871267 SPIN=   0.00000
   O   0.2034184  -0.3177237  -0.5708083 SPIN=   0.00000
   O   0.3585443  -0.6937965  -0.2840190 SPIN=   0.00000
   P   0.0953313  -0.4545738  -0.3655985 SPIN=   0.00000
   O  -0.3609153   0.2590283   0.3307200 SPIN=   0.00000
   O  -0.6273272   0.5802136   0.0128733 SPIN=   0.00000
   O  -0.1143053   0.3177237  -0.0708083 SPIN=   0.00000
   O  -0.3352522   0.6937965   0.2159810 SPIN=   0.00000
   P  -0.3592425   0.4545738   0.1344015 SPIN=   0.00000
  Fe   0.2439577  -0.7389490   0.2077380 SPIN=   4.00000
  Fe  -0.4949914   0.7389490  -0.2922620 SPIN=   4.00000
%ENDBLOCK POSITIONS_FRAC

# Note: total spin =   8.00

KPOINTS_MP_SPACING 0.07

%BLOCK SPECIES_POT
QC5
%ENDBLOCK SPECIES_POT

%BLOCK HUBBARD_U
Fe d:4.0
%ENDBLOCK HUBBARD_U

SNAP_TO_SYMMETRY
SYMMETRY_GENERATE

