#              Generated by Buildcell
#
# at 19:51:48 (GMT+0.0) 30th November 2020
# in /lustre/scratch/uccabz1/launch_tmp
# on node-c12l-022
# by uccabz1
#
# compiler GCC version 4.9.2
# options -cpp -iprefix /lustre/shared/ucl/apps/gcc/4.9.2/bin/../lib/gcc/x86_64-unknown-linux-gnu/4.9.2/ -mtune=corei7 -march=x86-64 -g -Og
#
# seed -1377386568  -554750436 -1046262475  -732346033 -1606769624 -1661175246  1869001215   786836725 -2036786427 -2052570784  -867235595  -485699502
#
#      Author: C. J. Pickard (cjp20@cam.ac.uk)
#                Space group: P21
#

%BLOCK LATTICE_ABC
      3.91992      4.99349      8.24071
     90.00000     90.00000     97.29134
%ENDBLOCK LATTICE_ABC

%BLOCK POSITIONS_FRAC
  Li  -0.0305016   0.2998155   0.2326294 SPIN=   0.00000
  Li   0.0305016  -0.2998155  -0.2673706 SPIN=   0.00000
   O  -0.3901767   0.4418821  -0.0900689 SPIN=   0.00000
   O   0.0584774   0.2815301  -0.2879227 SPIN=   0.00000
   O   0.0833111   0.1541537   0.0010567 SPIN=   0.00000
   O  -0.4020381  -0.0584023  -0.1721887 SPIN=   0.00000
   P  -0.1775491   0.2143089  -0.1351791 SPIN=   0.00000
   O   0.3901767  -0.4418821   0.4099311 SPIN=   0.00000
   O  -0.0584774  -0.2815301   0.2120773 SPIN=   0.00000
   O  -0.0833111  -0.1541537   0.5010567 SPIN=   0.00000
   O   0.4020381   0.0584023   0.3278113 SPIN=   0.00000
   P   0.1775491  -0.2143089   0.3648209 SPIN=   0.00000
  Fe  -0.4746907  -0.2322029   0.0592817 SPIN=   4.00000
  Fe   0.4746907   0.2322029  -0.4407183 SPIN=   4.00000
%ENDBLOCK POSITIONS_FRAC

# Note: total spin =   8.00

KPOINTS_MP_SPACING 0.07

%BLOCK SPECIES_POT
QC5
%ENDBLOCK SPECIES_POT

%BLOCK HUBBARD_U
Fe d:4.0
%ENDBLOCK HUBBARD_U

SNAP_TO_SYMMETRY
SYMMETRY_GENERATE

