#              Generated by Buildcell
#
# at 05:20:44 (GMT+0.0) 24th November 2020
# in /scratch/scratch/uccabz1/launch_tmp
# on node-a14e-014
# by uccabz1
#
# compiler GCC version 4.9.2
# options -cpp -iprefix /scratch/UCL/applications/gcc/4.9.2/bin/../lib/gcc/x86_64-unknown-linux-gnu/4.9.2/ -mtune=corei7 -march=x86-64 -g -O2
#
# seed  -187737209  2019566744  2083848394   450066382 -1002355546   -67472322 -1603301785   497102103   -75414404 -2119474746 -1768985573   662160681
#
#      Author: C. J. Pickard (cjp20@cam.ac.uk)
#                Space group: P-1
#

%BLOCK LATTICE_ABC
      5.28283      5.38888      6.36354
     74.34029     83.51602     66.52822
%ENDBLOCK LATTICE_ABC

%BLOCK POSITIONS_FRAC
  Li   0.2668467  -0.2671965   0.3406028 SPIN=   0.00000
  Li  -0.2668467   0.2671965  -0.3406028 SPIN=   0.00000
   O   0.2812618   0.3334063  -0.4590319 SPIN=   0.00000
   O  -0.0242896   0.3446691  -0.1091407 SPIN=   0.00000
   O   0.4323976   0.3648583  -0.0956432 SPIN=   0.00000
   O   0.0532583   0.7764032  -0.3127897 SPIN=   0.00000
   P   0.1891850   0.4521636  -0.2564027 SPIN=   0.00000
   O  -0.2812618  -0.3334063   0.4590319 SPIN=   0.00000
   O   0.0242896  -0.3446691   0.1091407 SPIN=   0.00000
   O  -0.4323976  -0.3648583   0.0956432 SPIN=   0.00000
   O  -0.0532583  -0.7764032   0.3127897 SPIN=   0.00000
   P  -0.1891850  -0.4521636   0.2564027 SPIN=   0.00000
  Fe   0.3775631  -0.1368751  -0.2070170 SPIN=   4.00000
  Fe  -0.3775631   0.1368751   0.2070170 SPIN=   4.00000
%ENDBLOCK POSITIONS_FRAC

# Note: total spin =   8.00

KPOINTS_MP_SPACING 0.07

%BLOCK SPECIES_POT
QC5
%ENDBLOCK SPECIES_POT

%BLOCK HUBBARD_U
Fe d:4.0
%ENDBLOCK HUBBARD_U

SNAP_TO_SYMMETRY
SYMMETRY_GENERATE

