#              Generated by Buildcell
#
# at 04:33:10 (GMT+0.0) 24th November 2020
# in /lustre/scratch/uccabz1/launch_tmp
# on node-c12e-025
# by uccabz1
#
# compiler GCC version 4.9.2
# options -cpp -iprefix /lustre/shared/ucl/apps/gcc/4.9.2/bin/../lib/gcc/x86_64-unknown-linux-gnu/4.9.2/ -mtune=corei7 -march=x86-64 -g -Og
#
# seed  1061313688  -412631917  -256341666  -526133192  -611676272 -2003435758  1736816443  1465520874  -937435448   693341493  1484893232  -826378629
#
#      Author: C. J. Pickard (cjp20@cam.ac.uk)
#                Space group: Cc
#

%BLOCK LATTICE_ABC
      4.29302      5.24771      7.80090
     93.54323     90.00000    114.14437
%ENDBLOCK LATTICE_ABC

%BLOCK POSITIONS_FRAC
  Li  -0.3409110   0.3889504  -0.3790432 SPIN=   0.00000
  Li  -0.2701386   0.3889504   0.1209568 SPIN=   0.00000
   O  -0.1330136   0.1456679  -0.0643039 SPIN=   0.00000
   O   0.1778815   0.4347665  -0.3191011 SPIN=   0.00000
   O   0.3428828   0.0614180  -0.2320867 SPIN=   0.00000
   O  -0.2265316  -0.0672621  -0.3774156 SPIN=   0.00000
   P   0.0279275   0.1412662  -0.2399584 SPIN=   0.00000
   O   0.2786816   0.1456679   0.4356961 SPIN=   0.00000
   O   0.2568850   0.4347665   0.1808989 SPIN=   0.00000
   O  -0.2814648   0.0614180   0.2679133 SPIN=   0.00000
   O   0.1592695  -0.0672621   0.1225844 SPIN=   0.00000
   P   0.1133388   0.1412662   0.2600416 SPIN=   0.00000
  Fe   0.4147576  -0.2415417  -0.0935033 SPIN=   4.00000
  Fe   0.3437007  -0.2415417   0.4064967 SPIN=   4.00000
%ENDBLOCK POSITIONS_FRAC

# Note: total spin =   8.00

KPOINTS_MP_SPACING 0.07

%BLOCK SPECIES_POT
QC5
%ENDBLOCK SPECIES_POT

%BLOCK HUBBARD_U
Fe d:4.0
%ENDBLOCK HUBBARD_U

SNAP_TO_SYMMETRY
SYMMETRY_GENERATE

