#              Generated by Buildcell
#
# at 04:40:46 (GMT+0.0) 24th November 2020
# in /lustre/scratch/uccabz1/launch_tmp
# on node-c12l-027
# by uccabz1
#
# compiler GCC version 4.9.2
# options -cpp -iprefix /lustre/shared/ucl/apps/gcc/4.9.2/bin/../lib/gcc/x86_64-unknown-linux-gnu/4.9.2/ -mtune=corei7 -march=x86-64 -g -Og
#
# seed  -860135469  -111659933   587396334  2022617932 -1457818146  1446911101  1350956843   292712005   100606793 -1185478608  -163128658 -1372120442
#
#      Author: C. J. Pickard (cjp20@cam.ac.uk)
#                Space group: P21/m
#

%BLOCK LATTICE_ABC
      3.80614      4.17927     10.14474
     90.00000     90.00000     97.47463
%ENDBLOCK LATTICE_ABC

%BLOCK POSITIONS_FRAC
  Li  -0.0000000   0.5000000  -0.0000000 SPIN=   0.00000
  Li  -0.0000000   0.5000000   0.5000000 SPIN=   0.00000
   O   0.5078859   0.3285983   0.1054261 SPIN=   0.00000
   O  -0.0704850  -0.0748050   0.1216831 SPIN=   0.00000
   O  -0.5078859  -0.3285983  -0.3945739 SPIN=   0.00000
   O   0.0704850   0.0748050  -0.3783169 SPIN=   0.00000
   O  -0.5078859  -0.3285983  -0.1054261 SPIN=   0.00000
   O   0.0704850   0.0748050  -0.1216831 SPIN=   0.00000
   O   0.5078859   0.3285983   0.3945739 SPIN=   0.00000
   O  -0.0704850  -0.0748050   0.3783169 SPIN=   0.00000
   P  -0.5000000  -0.0000000  -0.0000000 SPIN=   0.00000
   P  -0.5000000  -0.0000000  -0.5000000 SPIN=   0.00000
  Fe   0.4708928   0.3003923  -0.2500000 SPIN=   4.00000
  Fe  -0.4708928  -0.3003923   0.2500000 SPIN=   4.00000
%ENDBLOCK POSITIONS_FRAC

# Note: total spin =   8.00

KPOINTS_MP_SPACING 0.07

%BLOCK SPECIES_POT
QC5
%ENDBLOCK SPECIES_POT

%BLOCK HUBBARD_U
Fe d:4.0
%ENDBLOCK HUBBARD_U

SNAP_TO_SYMMETRY
SYMMETRY_GENERATE

