#              Generated by Buildcell
#
# at 02:41:39 (GMT+0.0) 24th November 2020
# in /lustre/scratch/uccabz1/launch_tmp
# on node-c12f-022
# by uccabz1
#
# compiler GCC version 4.9.2
# options -cpp -iprefix /lustre/shared/ucl/apps/gcc/4.9.2/bin/../lib/gcc/x86_64-unknown-linux-gnu/4.9.2/ -mtune=corei7 -march=x86-64 -g -Og
#
# seed   -61239405   -35715317  -424386884   498494041  2034434869   -64271773 -1779708578 -1722301924  -185385803   975094459  -107730490 -1839082683
#
#      Author: C. J. Pickard (cjp20@cam.ac.uk)
#                Space group: C2
#

%BLOCK LATTICE_ABC
      4.38892      6.23317      6.23317
     79.78005     76.61950     76.61950
%ENDBLOCK LATTICE_ABC

%BLOCK POSITIONS_FRAC
  Li  -0.1189601  -0.1284010  -0.4893773 SPIN=   0.00000
  Li   0.1189601   0.4893773   0.1284010 SPIN=   0.00000
   O  -0.5398421   0.0631361   0.3986325 SPIN=   0.00000
   O  -0.0883817   0.2722067   0.3902392 SPIN=   0.00000
   O  -0.1898597   0.2155933   0.0326986 SPIN=   0.00000
   P  -0.3644984   0.2509577   0.2780748 SPIN=   0.00000
   O   0.5398421  -0.3986325  -0.0631361 SPIN=   0.00000
   O   0.0883817  -0.3902392  -0.2722067 SPIN=   0.00000
   O   0.1898597  -0.0326986  -0.2155933 SPIN=   0.00000
   P   0.3644984  -0.2780748  -0.2509577 SPIN=   0.00000
   O  -0.5000000  -0.3681146   0.3681146 SPIN=   0.00000
   O   0.5000000   0.2620152  -0.2620152 SPIN=   0.00000
  Fe   0.0000000   0.3036240  -0.3036240 SPIN=   1.64428
  Fe   0.5000000  -0.1004615   0.1004615 SPIN=   6.35572
%ENDBLOCK POSITIONS_FRAC

# Note: total spin =   8.00

KPOINTS_MP_SPACING 0.07

%BLOCK SPECIES_POT
QC5
%ENDBLOCK SPECIES_POT

%BLOCK HUBBARD_U
Fe d:4.0
%ENDBLOCK HUBBARD_U

SNAP_TO_SYMMETRY
SYMMETRY_GENERATE

