#              Generated by Buildcell
#
# at 22:20:02 (GMT+0.0) 23rd November 2020
# in /scratch/scratch/uccabz1/launch_tmp
# on node-a14f-013
# by uccabz1
#
# compiler GCC version 4.9.2
# options -cpp -iprefix /scratch/UCL/applications/gcc/4.9.2/bin/../lib/gcc/x86_64-unknown-linux-gnu/4.9.2/ -mtune=corei7 -march=x86-64 -g -O2
#
# seed  1096819987 -1637159520  1347035068 -2018539610 -1502333328  -184390421 -1611266709  1548106038 -1003433428   567117840 -1750574333 -2085997124
#
#      Author: C. J. Pickard (cjp20@cam.ac.uk)
#                Space group: Cc
#

%BLOCK LATTICE_ABC
      4.99468      6.20048      6.20048
     92.23068    112.49728    112.49728
%ENDBLOCK LATTICE_ABC

%BLOCK POSITIONS_FRAC
  Li   0.3506387   0.2531441   0.0632496 SPIN=   0.00000
  Li  -0.1493613   0.0632496   0.2531441 SPIN=   0.00000
   O  -0.4979832  -0.3178417   0.1065691 SPIN=   0.00000
   O  -0.5223839  -0.3947184  -0.3169096 SPIN=   0.00000
   O  -0.0086981  -0.1091036   0.0107945 SPIN=   0.00000
   O  -0.2080075  -0.5468039   0.0079008 SPIN=   0.00000
   P  -0.3181214  -0.3432399  -0.0390274 SPIN=   0.00000
   O   0.0020168   0.1065691  -0.3178417 SPIN=   0.00000
   O  -0.0223839  -0.3169096  -0.3947184 SPIN=   0.00000
   O   0.4913019   0.0107945  -0.1091036 SPIN=   0.00000
   O   0.2919925   0.0079008  -0.5468039 SPIN=   0.00000
   P   0.1818786  -0.0390274  -0.3432399 SPIN=   0.00000
  Fe   0.2489548  -0.3338344   0.3322032 SPIN=   4.00000
  Fe  -0.2510452   0.3322032  -0.3338344 SPIN=   4.00000
%ENDBLOCK POSITIONS_FRAC

# Note: total spin =   8.00

KPOINTS_MP_SPACING 0.07

%BLOCK SPECIES_POT
QC5
%ENDBLOCK SPECIES_POT

%BLOCK HUBBARD_U
Fe d:4.0
%ENDBLOCK HUBBARD_U

SNAP_TO_SYMMETRY
SYMMETRY_GENERATE

