#              Generated by Buildcell
#
# at 02:25:19 (GMT+0.0) 24th November 2020
# in /lustre/scratch/uccabz1/launch_tmp
# on node-c12p-031
# by uccabz1
#
# compiler GCC version 4.9.2
# options -cpp -iprefix /lustre/shared/ucl/apps/gcc/4.9.2/bin/../lib/gcc/x86_64-unknown-linux-gnu/4.9.2/ -mtune=corei7 -march=x86-64 -g -Og
#
# seed   802359748  1058687051 -1491355396    38859410 -1082967200  1119572868 -1555785316  1640282886  1187158194 -1963207677  -351391424   965012890
#
#      Author: C. J. Pickard (cjp20@cam.ac.uk)
#                Space group: Cm
#

%BLOCK LATTICE_ABC
      4.50455      6.18598      6.80151
    112.15568    102.97591    103.55739
%ENDBLOCK LATTICE_ABC

%BLOCK POSITIONS_FRAC
  Li   0.0226294  -0.1208819  -0.0000000 SPIN=   0.00000
  Li  -0.3600683   0.2236472  -0.0000000 SPIN=   0.00000
   O   0.5392096   0.0182216   0.2413859 SPIN=   0.00000
   O   0.1245119   0.2348091   0.3344418 SPIN=   0.00000
   O   0.6540107   0.3791993   0.6350480 SPIN=   0.00000
   P   0.4919509   0.2644518   0.3707131 SPIN=   0.00000
   O   0.2978237  -0.2231643  -0.2413859 SPIN=   0.00000
   O  -0.2099300  -0.0996327  -0.3344418 SPIN=   0.00000
   O   0.0189627  -0.2558486  -0.6350480 SPIN=   0.00000
   P   0.1212378  -0.1062613  -0.3707131 SPIN=   0.00000
   O  -0.3902996  -0.3664689   0.0000000 SPIN=   0.00000
   O   0.0560392   0.4659565   0.0000000 SPIN=   0.00000
  Fe   0.4594243  -0.2952170   0.3313324 SPIN=   4.00000
  Fe   0.1280919   0.3734507  -0.3313324 SPIN=   4.00000
%ENDBLOCK POSITIONS_FRAC

# Note: total spin =   8.00

KPOINTS_MP_SPACING 0.07

%BLOCK SPECIES_POT
QC5
%ENDBLOCK SPECIES_POT

%BLOCK HUBBARD_U
Fe d:4.0
%ENDBLOCK HUBBARD_U

SNAP_TO_SYMMETRY
SYMMETRY_GENERATE

