#              Generated by Buildcell
#
# at 05:24:09 (GMT+0.0) 24th November 2020
# in /lustre/scratch/uccabz1/launch_tmp
# on node-c12n-022
# by uccabz1
#
# compiler GCC version 4.9.2
# options -cpp -iprefix /lustre/shared/ucl/apps/gcc/4.9.2/bin/../lib/gcc/x86_64-unknown-linux-gnu/4.9.2/ -mtune=corei7 -march=x86-64 -g -Og
#
# seed   -91400213 -1679741886 -1346391556   936832484 -1585443984 -1910200410  1286316149  1567784227  -227698866   549029621 -1771324358   261613175
#
#      Author: C. J. Pickard (cjp20@cam.ac.uk)
#                Space group: C2
#

%BLOCK LATTICE_ABC
      5.08495      5.08495      6.98246
     71.26071     71.26071     76.08162
%ENDBLOCK LATTICE_ABC

%BLOCK POSITIONS_FRAC
  Li  -0.1733824  -0.1999726  -0.0059799 SPIN=   0.00000
  Li   0.1999726   0.1733824   0.0059799 SPIN=   0.00000
   O   0.0764401  -0.0042783  -0.3043640 SPIN=   0.00000
   O  -0.3935453   0.2763144  -0.1369437 SPIN=   0.00000
   O   0.0439150   0.4740116  -0.2314258 SPIN=   0.00000
   O  -0.1502554   0.4629284  -0.5155757 SPIN=   0.00000
   P  -0.0966787   0.2878195  -0.3000438 SPIN=   0.00000
   O   0.0042783  -0.0764401   0.3043640 SPIN=   0.00000
   O  -0.2763144   0.3935453   0.1369437 SPIN=   0.00000
   O  -0.4740116  -0.0439150   0.2314258 SPIN=   0.00000
   O  -0.4629284   0.1502554   0.5155757 SPIN=   0.00000
   P  -0.2878195   0.0966787   0.3000438 SPIN=   0.00000
  Fe   0.2518936  -0.4687159   0.3020171 SPIN=   4.00000
  Fe   0.4687159  -0.2518936  -0.3020171 SPIN=   4.00000
%ENDBLOCK POSITIONS_FRAC

# Note: total spin =   8.00

KPOINTS_MP_SPACING 0.07

%BLOCK SPECIES_POT
QC5
%ENDBLOCK SPECIES_POT

%BLOCK HUBBARD_U
Fe d:4.0
%ENDBLOCK HUBBARD_U

SNAP_TO_SYMMETRY
SYMMETRY_GENERATE

