#              Generated by Buildcell
#
# at 04:23:18 (GMT+0.0) 24th November 2020
# in /lustre/scratch/uccabz1/launch_tmp
# on node-c12p-022
# by uccabz1
#
# compiler GCC version 4.9.2
# options -cpp -iprefix /lustre/shared/ucl/apps/gcc/4.9.2/bin/../lib/gcc/x86_64-unknown-linux-gnu/4.9.2/ -mtune=corei7 -march=x86-64 -g -Og
#
# seed  -806663596  -509643403 -1572946980  1091115612 -1084286952   337531645 -1243976675 -1561249414 -1679035875   880534872  1758196499 -1475484779
#
#      Author: C. J. Pickard (cjp20@cam.ac.uk)
#                Space group: P2
#

%BLOCK LATTICE_ABC
      3.85081      4.58351      9.18581
     90.00000     99.30132     90.00000
%ENDBLOCK LATTICE_ABC

%BLOCK POSITIONS_FRAC
  Li  -0.0555467   0.3732975   0.3351770 SPIN=   0.00000
  Li   0.0555467   0.3732975  -0.3351770 SPIN=   0.00000
   O   0.2206949  -0.4052827   0.1479469 SPIN=   0.00000
   O  -0.1040080  -0.1721530   0.3459900 SPIN=   0.00000
   O   0.3638449   0.1123625   0.2565055 SPIN=   0.00000
   O  -0.2079271   0.0279152   0.0889187 SPIN=   0.00000
   P   0.0730153  -0.1234305   0.2051178 SPIN=   0.00000
   O  -0.2206949  -0.4052827  -0.1479469 SPIN=   0.00000
   O   0.1040080  -0.1721530  -0.3459900 SPIN=   0.00000
   O  -0.3638449   0.1123625  -0.2565055 SPIN=   0.00000
   O   0.2079271   0.0279152  -0.0889187 SPIN=   0.00000
   P  -0.0730153  -0.1234305  -0.2051178 SPIN=   0.00000
  Fe  -0.5000000   0.3895183   0.0000000 SPIN=   3.00431
  Fe   0.5000000  -0.1303182   0.5000000 SPIN=   4.99569
%ENDBLOCK POSITIONS_FRAC

# Note: total spin =   8.00

KPOINTS_MP_SPACING 0.07

%BLOCK SPECIES_POT
QC5
%ENDBLOCK SPECIES_POT

%BLOCK HUBBARD_U
Fe d:4.0
%ENDBLOCK HUBBARD_U

SNAP_TO_SYMMETRY
SYMMETRY_GENERATE

