#              Generated by Buildcell
#
# at 22:23:48 (GMT+0.0) 23rd November 2020
# in /lustre/scratch/uccabz1/launch_tmp
# on node-c12o-027
# by uccabz1
#
# compiler GCC version 4.9.2
# options -cpp -iprefix /lustre/shared/ucl/apps/gcc/4.9.2/bin/../lib/gcc/x86_64-unknown-linux-gnu/4.9.2/ -mtune=corei7 -march=x86-64 -g -Og
#
# seed  2006212990  -116818177   490672889 -1999958709  -708191590   570556595   493152030   397208102 -1060124452   853705527   299302140   -72971488
#
#      Author: C. J. Pickard (cjp20@cam.ac.uk)
#                Space group: C2/m
#

%BLOCK LATTICE_ABC
      4.45861      4.45861      8.45983
    102.48616    102.48616     90.73566
%ENDBLOCK LATTICE_ABC

%BLOCK POSITIONS_FRAC
  Li  -0.2484951  -0.2484951   0.4816131 SPIN=   0.00000
  Li   0.2484951   0.2484951  -0.4816131 SPIN=   0.00000
   O   0.2744744  -0.2853935  -0.3556261 SPIN=   0.00000
   O   0.1272230  -0.4847668  -0.1140178 SPIN=   0.00000
   O   0.2853935  -0.2744744   0.3556261 SPIN=   0.00000
   O   0.4847668  -0.1272230   0.1140178 SPIN=   0.00000
   O  -0.2744744   0.2853935   0.3556261 SPIN=   0.00000
   O  -0.1272230   0.4847668   0.1140178 SPIN=   0.00000
   O  -0.2853935   0.2744744  -0.3556261 SPIN=   0.00000
   O  -0.4847668   0.1272230  -0.1140178 SPIN=   0.00000
   P   0.1127824   0.1127824  -0.2093860 SPIN=   0.00000
   P  -0.1127824  -0.1127824   0.2093860 SPIN=   0.00000
  Fe   0.3108595   0.3108595   0.1448935 SPIN=   4.00000
  Fe  -0.3108595  -0.3108595  -0.1448935 SPIN=   4.00000
%ENDBLOCK POSITIONS_FRAC

# Note: total spin =   8.00

KPOINTS_MP_SPACING 0.07

%BLOCK SPECIES_POT
QC5
%ENDBLOCK SPECIES_POT

%BLOCK HUBBARD_U
Fe d:4.0
%ENDBLOCK HUBBARD_U

SNAP_TO_SYMMETRY
SYMMETRY_GENERATE

