#              Generated by Buildcell
#
# at 01:51:14 (GMT+0.0) 24th November 2020
# in /lustre/scratch/uccabz1/launch_tmp
# on node-c12c-023
# by uccabz1
#
# compiler GCC version 4.9.2
# options -cpp -iprefix /lustre/shared/ucl/apps/gcc/4.9.2/bin/../lib/gcc/x86_64-unknown-linux-gnu/4.9.2/ -mtune=corei7 -march=x86-64 -g -Og
#
# seed -1355704430   884769235   140004688 -1680452529   189644520   342135127  -924423546  1718129596  1109813591  1650263320 -1416239855   955922268
#
#      Author: C. J. Pickard (cjp20@cam.ac.uk)
#                Space group: P21
#

%BLOCK LATTICE_ABC
      4.11306      4.57081      8.57829
     90.00000     97.20052     90.00000
%ENDBLOCK LATTICE_ABC

%BLOCK POSITIONS_FRAC
  Li  -0.2437450   0.4730828   0.4709262 SPIN=   0.00000
  Li   0.2437450  -0.0269172  -0.4709262 SPIN=   0.00000
   O   0.2842359   0.1069466   0.2365971 SPIN=   0.00000
   O   0.2798962   0.6080963   0.3792293 SPIN=   0.00000
   O   0.2339370   0.6047658   0.0893701 SPIN=   0.00000
   O  -0.2361530   0.4269093   0.2231193 SPIN=   0.00000
   P   0.1436887   0.4190076   0.2322138 SPIN=   0.00000
   O  -0.2842359  -0.3930534  -0.2365971 SPIN=   0.00000
   O  -0.2798962   0.1080963  -0.3792293 SPIN=   0.00000
   O  -0.2339370   0.1047658  -0.0893701 SPIN=   0.00000
   O   0.2361530  -0.0730907  -0.2231193 SPIN=   0.00000
   P  -0.1436887  -0.0809924  -0.2322138 SPIN=   0.00000
  Fe  -0.2721018  -0.0809927   0.1643867 SPIN=   4.00000
  Fe   0.2721018   0.4190073  -0.1643867 SPIN=   4.00000
%ENDBLOCK POSITIONS_FRAC

# Note: total spin =   8.00

KPOINTS_MP_SPACING 0.07

%BLOCK SPECIES_POT
QC5
%ENDBLOCK SPECIES_POT

%BLOCK HUBBARD_U
Fe d:4.0
%ENDBLOCK HUBBARD_U

SNAP_TO_SYMMETRY
SYMMETRY_GENERATE

