#              Generated by Buildcell
#
# at 05:54:50 (GMT+0.0) 24th November 2020
# in /lustre/scratch/uccabz1/launch_tmp
# on node-c12k-029
# by uccabz1
#
# compiler GCC version 4.9.2
# options -cpp -iprefix /lustre/shared/ucl/apps/gcc/4.9.2/bin/../lib/gcc/x86_64-unknown-linux-gnu/4.9.2/ -mtune=corei7 -march=x86-64 -g -Og
#
# seed    -3264694  1576771849  -429917600  1258841173  1432809217 -1785555343  -925701566 -1762379665  2058289131 -1717582413  1743723270    -1572160
#
#      Author: C. J. Pickard (cjp20@cam.ac.uk)
#                Space group: Pma2
#

%BLOCK LATTICE_ABC
      3.91299      4.20016      9.73521
     90.00000     90.00000     90.00000
%ENDBLOCK LATTICE_ABC

%BLOCK POSITIONS_FRAC
  Li   0.5000000   0.4640772   0.0000000 SPIN=   0.00000
  Li  -0.5000000   0.4640772  -0.5000000 SPIN=   0.00000
   O   0.0713468   0.5910286  -0.1233285 SPIN=   0.00000
   O  -0.2940577   0.0749218  -0.1150438 SPIN=   0.00000
   O  -0.0713468   0.5910286   0.1233285 SPIN=   0.00000
   O   0.2940577   0.0749218   0.1150438 SPIN=   0.00000
   O  -0.0713468   0.5910286   0.3766715 SPIN=   0.00000
   O   0.2940577   0.0749218   0.3849562 SPIN=   0.00000
   O   0.0713468   0.5910286  -0.3766715 SPIN=   0.00000
   O  -0.2940577   0.0749218  -0.3849562 SPIN=   0.00000
   P  -0.2069592   0.4653068  -0.2500000 SPIN=   0.00000
   P   0.2069592   0.4653068   0.2500000 SPIN=   0.00000
  Fe   0.2929797  -0.0346649  -0.2500000 SPIN=   4.00000
  Fe  -0.2929797  -0.0346649   0.2500000 SPIN=   4.00000
%ENDBLOCK POSITIONS_FRAC

# Note: total spin =   8.00

KPOINTS_MP_SPACING 0.07

%BLOCK SPECIES_POT
QC5
%ENDBLOCK SPECIES_POT

%BLOCK HUBBARD_U
Fe d:4.0
%ENDBLOCK HUBBARD_U

SNAP_TO_SYMMETRY
SYMMETRY_GENERATE

