#              Generated by Buildcell
#
# at 05:21:54 (GMT+0.0) 24th November 2020
# in /lustre/scratch/uccabz1/launch_tmp
# on node-c12e-031
# by uccabz1
#
# compiler GCC version 4.9.2
# options -cpp -iprefix /lustre/shared/ucl/apps/gcc/4.9.2/bin/../lib/gcc/x86_64-unknown-linux-gnu/4.9.2/ -mtune=corei7 -march=x86-64 -g -Og
#
# seed  -853419232 -1917539391  1989509264  -608395353  1727280782 -1100643828  2061480457 -1778101589  -120357110  1098266287  -323796234  -298716345
#
#      Author: C. J. Pickard (cjp20@cam.ac.uk)
#                Space group: Ama2
#

%BLOCK LATTICE_ABC
      5.61235      5.64080      5.78078
     90.00000    119.04073     90.00000
%ENDBLOCK LATTICE_ABC

%BLOCK POSITIONS_FRAC
  Li   0.2955932  -0.2500000  -0.1122482 SPIN=   0.00000
  Li   0.4078414   0.2500000   0.1122482 SPIN=   0.00000
   O   0.2205050   0.5312280   0.2455188 SPIN=   0.00000
   O   0.4920298   0.4687720   0.7544812 SPIN=   0.00000
   O  -0.0250138  -0.5312280  -0.2455188 SPIN=   0.00000
   O  -0.2624515  -0.4687720  -0.7544812 SPIN=   0.00000
   O  -0.0250138   0.0312280  -0.2455188 SPIN=   0.00000
   O  -0.2624515  -0.0312280  -0.7544812 SPIN=   0.00000
   O   0.2205050  -0.0312280   0.2455188 SPIN=   0.00000
   O   0.4920298   0.0312280   0.7544812 SPIN=   0.00000
   P   0.0018853  -0.2500000   0.3086793 SPIN=   0.00000
   P  -0.3067940   0.2500000  -0.3086793 SPIN=   0.00000
  Fe  -0.3773497  -0.2500000  -0.4581340 SPIN=   4.00000
  Fe   0.0807843   0.2500000   0.4581340 SPIN=   4.00000
%ENDBLOCK POSITIONS_FRAC

# Note: total spin =   8.00

KPOINTS_MP_SPACING 0.07

%BLOCK SPECIES_POT
QC5
%ENDBLOCK SPECIES_POT

%BLOCK HUBBARD_U
Fe d:4.0
%ENDBLOCK HUBBARD_U

SNAP_TO_SYMMETRY
SYMMETRY_GENERATE

