#              Generated by Buildcell
#
# at 02:38:29 (GMT+0.0) 24th November 2020
# in /scratch/scratch/uccabz1/launch_tmp
# on node-a14e-014
# by uccabz1
#
# compiler GCC version 4.9.2
# options -cpp -iprefix /scratch/UCL/applications/gcc/4.9.2/bin/../lib/gcc/x86_64-unknown-linux-gnu/4.9.2/ -mtune=corei7 -march=x86-64 -g -O2
#
# seed     9404433  -175555432 -2106341915  1829086640 -1436719458  2039266387    -8087713 -1681293311  1399459753 -2070570299  2047779667  1816114141
#
#      Author: C. J. Pickard (cjp20@cam.ac.uk)
#                Space group: Cc
#

%BLOCK LATTICE_ABC
      4.54725      4.64979      8.68545
     88.63081     87.19903     60.72684
%ENDBLOCK LATTICE_ABC

%BLOCK POSITIONS_FRAC
  Li   0.2788793  -0.5678132  -0.2476744 SPIN=   0.00000
  Li   0.2110661  -0.4321868   0.2523256 SPIN=   0.00000
   O  -0.3449864   0.4390040   0.3665394 SPIN=   0.00000
   O   0.2447771   0.2468386   0.4754823 SPIN=   0.00000
   O   0.0378708  -0.1544429   0.4675194 SPIN=   0.00000
   O   0.2071530   0.0269423   0.2211105 SPIN=   0.00000
   P   0.0179246   0.1541988   0.3798979 SPIN=   0.00000
   O  -0.4059824  -0.4390040  -0.1334606 SPIN=   0.00000
   O  -0.0083843  -0.2468386  -0.0245177 SPIN=   0.00000
   O  -0.6165721   0.1544429  -0.0324806 SPIN=   0.00000
   O  -0.2659047  -0.0269423  -0.2788895 SPIN=   0.00000
   P  -0.3278767  -0.1541988  -0.1201021 SPIN=   0.00000
  Fe  -0.0976107   0.2264694   0.0315785 SPIN=   4.00000
  Fe  -0.3711413   0.7735306  -0.4684215 SPIN=   4.00000
%ENDBLOCK POSITIONS_FRAC

# Note: total spin =   8.00

KPOINTS_MP_SPACING 0.07

%BLOCK SPECIES_POT
QC5
%ENDBLOCK SPECIES_POT

%BLOCK HUBBARD_U
Fe d:4.0
%ENDBLOCK HUBBARD_U

SNAP_TO_SYMMETRY
SYMMETRY_GENERATE

