#              Generated by Buildcell
#
# at 02:40:00 (GMT+0.0) 24th November 2020
# in /lustre/scratch/uccabz1/launch_tmp
# on node-c12l-023
# by uccabz1
#
# compiler GCC version 4.9.2
# options -cpp -iprefix /lustre/shared/ucl/apps/gcc/4.9.2/bin/../lib/gcc/x86_64-unknown-linux-gnu/4.9.2/ -mtune=corei7 -march=x86-64 -g -Og
#
# seed -1262953827  -269557202  -186493778   620894309  1620824951 -1190006504   643938821   184029080    46048536   167110414   453876259  -338075545
#
#      Author: C. J. Pickard (cjp20@cam.ac.uk)
#                Space group: Pc
#

%BLOCK LATTICE_ABC
      4.61048      5.63488      6.16081
     90.00000     90.00000     91.49900
%ENDBLOCK LATTICE_ABC

%BLOCK POSITIONS_FRAC
  Li  -0.0163353   0.4973912   0.1115308 SPIN=   0.00000
  Li   0.4836647  -0.0026088  -0.1115308 SPIN=   0.00000
   O  -0.0279597   0.0127501  -0.1565709 SPIN=   0.00000
   O  -0.0655710  -0.1848618  -0.5368925 SPIN=   0.00000
   O   0.3359663  -0.2971328  -0.2954788 SPIN=   0.00000
   O  -0.1726920  -0.4298771  -0.2059323 SPIN=   0.00000
   P   0.0127750  -0.2145534  -0.2900550 SPIN=   0.00000
   O  -0.5279597   0.5127501   0.1565709 SPIN=   0.00000
   O  -0.5655710   0.3151382   0.5368925 SPIN=   0.00000
   O  -0.1640337   0.2028672   0.2954788 SPIN=   0.00000
   O  -0.6726920   0.0701229   0.2059323 SPIN=   0.00000
   P  -0.4872250   0.2854466   0.2900550 SPIN=   0.00000
  Fe  -0.0083395   0.2877479  -0.3865035 SPIN=   4.00000
  Fe   0.4916605  -0.2122521   0.3865035 SPIN=   4.00000
%ENDBLOCK POSITIONS_FRAC

# Note: total spin =   8.00

KPOINTS_MP_SPACING 0.07

%BLOCK SPECIES_POT
QC5
%ENDBLOCK SPECIES_POT

%BLOCK HUBBARD_U
Fe d:4.0
%ENDBLOCK HUBBARD_U

SNAP_TO_SYMMETRY
SYMMETRY_GENERATE

