#              Generated by Buildcell
#
# at 04:42:42 (GMT+0.0) 24th November 2020
# in /lustre/scratch/uccabz1/launch_tmp
# on node-c12b-020
# by uccabz1
#
# compiler GCC version 4.9.2
# options -cpp -iprefix /lustre/shared/ucl/apps/gcc/4.9.2/bin/../lib/gcc/x86_64-unknown-linux-gnu/4.9.2/ -mtune=corei7 -march=x86-64 -g -Og
#
# seed  1716605947   461670798   360390073  -837453675 -1060866271  -979725854 -1749525001    13923632  1139201084   232947729  -601336339   234741651
#
#      Author: C. J. Pickard (cjp20@cam.ac.uk)
#                Space group: Fdd2
#

%BLOCK LATTICE_ABC
      5.38540      5.38540      6.62837
    105.65211    105.65211    109.62536
%ENDBLOCK LATTICE_ABC

%BLOCK POSITIONS_FRAC
  Li  -0.2382958   0.2382958  -0.0000000 SPIN=   0.00000
  Li   0.0117042  -0.0117042   0.5000000 SPIN=   0.00000
   O   0.0303073   0.3832431   0.5009713 SPIN=   0.00000
   O   0.2168645   0.0616278   0.2799230 SPIN=   0.00000
   O  -0.3832431  -0.0303073  -0.5009713 SPIN=   0.00000
   O  -0.0616278  -0.2168645  -0.2799230 SPIN=   0.00000
   O   0.3677283   0.2206640   0.0009713 SPIN=   0.00000
   O   0.4682952  -0.1869415  -0.2200770 SPIN=   0.00000
   O  -0.2206640  -0.3677283  -0.0009713 SPIN=   0.00000
   O   0.1869415  -0.4682952   0.2200770 SPIN=   0.00000
   P   0.0641895  -0.0641895   0.0000000 SPIN=   0.00000
   P   0.3141895  -0.3141895   0.5000000 SPIN=   0.00000
  Fe   0.3866973  -0.3866973  -0.0000000 SPIN=   4.00000
  Fe  -0.3633027   0.3633027   0.5000000 SPIN=   4.00000
%ENDBLOCK POSITIONS_FRAC

# Note: total spin =   8.00

KPOINTS_MP_SPACING 0.07

%BLOCK SPECIES_POT
QC5
%ENDBLOCK SPECIES_POT

%BLOCK HUBBARD_U
Fe d:4.0
%ENDBLOCK HUBBARD_U

SNAP_TO_SYMMETRY
SYMMETRY_GENERATE

