#              Generated by Buildcell
#
# at 03:00:51 (GMT+0.0) 24th November 2020
# in /lustre/scratch/uccabz1/launch_tmp
# on node-c12n-028
# by uccabz1
#
# compiler GCC version 4.9.2
# options -cpp -iprefix /lustre/shared/ucl/apps/gcc/4.9.2/bin/../lib/gcc/x86_64-unknown-linux-gnu/4.9.2/ -mtune=corei7 -march=x86-64 -g -Og
#
# seed -1735945686   153835982  -636745004  1307840826  1783089873  1408309815 -1207122326  -789099323 -1929333536   363443616  -214049162 -1593572758
#
#      Author: C. J. Pickard (cjp20@cam.ac.uk)
#                Space group: Imm2
#

%BLOCK LATTICE_ABC
      5.13804      5.64405      6.70858
    114.87619    112.51623     90.00000
%ENDBLOCK LATTICE_ABC

%BLOCK POSITIONS_FRAC
  Li  -0.4997241   0.0002759   0.0005519 SPIN=   0.00000
  Li  -0.3620874  -0.3620874  -0.7241749 SPIN=   0.00000
   O  -0.4283668   0.0900976  -0.3760062 SPIN=   0.00000
   O  -0.1922187   0.3201395   0.0948500 SPIN=   0.00000
   O   0.0523605  -0.4661038  -0.3760062 SPIN=   0.00000
   O   0.2870687  -0.2252895   0.0948500 SPIN=   0.00000
   O  -0.4283668  -0.4661038  -0.3760062 SPIN=   0.00000
   O  -0.1922187  -0.2252895   0.0948500 SPIN=   0.00000
   O   0.0523605   0.0900976  -0.3760062 SPIN=   0.00000
   O   0.2870687   0.3201395   0.0948500 SPIN=   0.00000
   P   0.2018132  -0.2981868  -0.5963736 SPIN=   0.00000
   P  -0.0659874  -0.0659874  -0.1319748 SPIN=   0.00000
  Fe  -0.0535303   0.4464697   0.8929394 SPIN=   2.32462
  Fe   0.1890522   0.1890522   0.3781045 SPIN=   5.67538
%ENDBLOCK POSITIONS_FRAC

# Note: total spin =   8.00

KPOINTS_MP_SPACING 0.07

%BLOCK SPECIES_POT
QC5
%ENDBLOCK SPECIES_POT

%BLOCK HUBBARD_U
Fe d:4.0
%ENDBLOCK HUBBARD_U

SNAP_TO_SYMMETRY
SYMMETRY_GENERATE

