#              Generated by Buildcell
#
# at 05:24:12 (GMT+0.0) 24th November 2020
# in /scratch/scratch/uccabz1/launch_tmp
# on node-a14b-028
# by uccabz1
#
# compiler GCC version 4.9.2
# options -cpp -iprefix /scratch/UCL/applications/gcc/4.9.2/bin/../lib/gcc/x86_64-unknown-linux-gnu/4.9.2/ -mtune=corei7 -march=x86-64 -g -O2
#
# seed -1520801954  1399685670   204546461  1018534162  1925581744   -83284419  -834382102 -1971686865  -522632887   783324381 -1618160108  -775343072
#
#      Author: C. J. Pickard (cjp20@cam.ac.uk)
#                Space group: Cm
#

%BLOCK LATTICE_ABC
      5.81034      5.85858      6.07589
    113.75673    113.46735     99.54194
%ENDBLOCK LATTICE_ABC

%BLOCK POSITIONS_FRAC
  Li  -0.0847614  -0.3637050   0.0000000 SPIN=   0.00000
  Li  -0.4531649  -0.0564414  -0.0000000 SPIN=   0.00000
   O  -0.8878534  -0.4690296  -0.7055160 SPIN=   0.00000
   O  -0.3739412  -0.2378998  -0.3227172 SPIN=   0.00000
   O  -0.5188075  -0.1860659  -0.7352446 SPIN=   0.00000
   O  -0.6409085   0.0500555  -0.3775272 SPIN=   0.00000
   P  -0.6208374  -0.2214103  -0.5424556 SPIN=   0.00000
   O  -0.1823374   0.2364864   0.7055160 SPIN=   0.00000
   O  -0.0512240   0.0848174   0.3227172 SPIN=   0.00000
   O   0.2164370   0.5491787   0.7352446 SPIN=   0.00000
   O  -0.2633813   0.4275827   0.3775272 SPIN=   0.00000
   P  -0.0783817   0.3210454   0.5424556 SPIN=   0.00000
  Fe  -0.0714526  -0.1387512  -0.4088494 SPIN=   4.00000
  Fe   0.3373968   0.2700982   0.4088494 SPIN=   4.00000
%ENDBLOCK POSITIONS_FRAC

# Note: total spin =   8.00

KPOINTS_MP_SPACING 0.07

%BLOCK SPECIES_POT
QC5
%ENDBLOCK SPECIES_POT

%BLOCK HUBBARD_U
Fe d:4.0
%ENDBLOCK HUBBARD_U

SNAP_TO_SYMMETRY
SYMMETRY_GENERATE

