#              Generated by Buildcell
#
# at 21:44:05 (GMT+0.0) 23rd November 2020
# in /lustre/scratch/uccabz1/launch_tmp
# on node-c12h-032
# by uccabz1
#
# compiler GCC version 4.9.2
# options -cpp -iprefix /lustre/shared/ucl/apps/gcc/4.9.2/bin/../lib/gcc/x86_64-unknown-linux-gnu/4.9.2/ -mtune=corei7 -march=x86-64 -g -Og
#
# seed -1917062155  -465615927  -833693177  1745052254  -815447389  -553526091  1067845702  -916270976   487267778  1965236369  1716472153   815433530
#
#      Author: C. J. Pickard (cjp20@cam.ac.uk)
#                Space group: C2
#

%BLOCK LATTICE_ABC
      4.88220      4.88220      6.73281
     88.82161     88.82161     85.85797
%ENDBLOCK LATTICE_ABC

%BLOCK POSITIONS_FRAC
  Li   0.2879293  -0.2879293  -0.0000000 SPIN=   0.00000
  Li  -0.3102010   0.3102010  -0.5000000 SPIN=   0.00000
   O   0.1712057   0.0044247  -0.2233158 SPIN=   0.00000
   O   0.2048694   0.3703742  -0.5067478 SPIN=   0.00000
   O   0.0110978   0.5194969  -0.1815155 SPIN=   0.00000
   O   0.5139988   0.3828379  -0.2153040 SPIN=   0.00000
   P   0.2258201   0.3032687  -0.2778273 SPIN=   0.00000
   O  -0.0044247  -0.1712057   0.2233158 SPIN=   0.00000
   O  -0.3703742  -0.2048694   0.5067478 SPIN=   0.00000
   O  -0.5194969  -0.0110978   0.1815155 SPIN=   0.00000
   O  -0.3828379  -0.5139988   0.2153040 SPIN=   0.00000
   P  -0.3032687  -0.2258201   0.2778273 SPIN=   0.00000
  Fe   0.1876220  -0.1876220   0.5000000 SPIN=   5.15455
  Fe  -0.2143088   0.2143088   0.0000000 SPIN=   2.84545
%ENDBLOCK POSITIONS_FRAC

# Note: total spin =   8.00

KPOINTS_MP_SPACING 0.07

%BLOCK SPECIES_POT
QC5
%ENDBLOCK SPECIES_POT

%BLOCK HUBBARD_U
Fe d:4.0
%ENDBLOCK HUBBARD_U

SNAP_TO_SYMMETRY
SYMMETRY_GENERATE

