#              Generated by Buildcell
#
# at 04:56:41 (GMT+0.0) 24th November 2020
# in /lustre/scratch/uccabz1/launch_tmp
# on node-c12d-031
# by uccabz1
#
# compiler GCC version 4.9.2
# options -cpp -iprefix /lustre/shared/ucl/apps/gcc/4.9.2/bin/../lib/gcc/x86_64-unknown-linux-gnu/4.9.2/ -mtune=corei7 -march=x86-64 -g -Og
#
# seed   358324166  -592138165    33468242  1227019592 -1401740018   544627972  1761730399  -224210985  2118714666   374823369  1503900215  1453579451
#
#      Author: C. J. Pickard (cjp20@cam.ac.uk)
#                Space group: Pm
#

%BLOCK LATTICE_ABC
      4.04080      4.41415      8.97063
     90.00000     90.00000     90.52026
%ENDBLOCK LATTICE_ABC

%BLOCK POSITIONS_FRAC
  Li   0.2760719  -0.2372522   0.5000000 SPIN=   0.00000
  Li  -0.2240920   0.2633698   0.5000000 SPIN=   0.00000
   O  -0.1751287  -0.5799008  -0.1565830 SPIN=   0.00000
   O  -0.1709897  -0.1692814  -0.3640863 SPIN=   0.00000
   O  -0.6743694  -0.2295842  -0.2103321 SPIN=   0.00000
   P  -0.2873352  -0.2615344  -0.2028965 SPIN=   0.00000
   O  -0.1751287  -0.5799008   0.1565830 SPIN=   0.00000
   O  -0.1709897  -0.1692814   0.3640863 SPIN=   0.00000
   O  -0.6743694  -0.2295842   0.2103321 SPIN=   0.00000
   P  -0.2873352  -0.2615344   0.2028965 SPIN=   0.00000
   O  -0.0843511  -0.1118753   0.0000000 SPIN=   0.00000
   O   0.3249126   0.4121932  -0.0000000 SPIN=   0.00000
  Fe   0.2753878   0.2374906  -0.2154380 SPIN=   4.00000
  Fe   0.2753878   0.2374906   0.2154380 SPIN=   4.00000
%ENDBLOCK POSITIONS_FRAC

# Note: total spin =   8.00

KPOINTS_MP_SPACING 0.07

%BLOCK SPECIES_POT
QC5
%ENDBLOCK SPECIES_POT

%BLOCK HUBBARD_U
Fe d:4.0
%ENDBLOCK HUBBARD_U

SNAP_TO_SYMMETRY
SYMMETRY_GENERATE

