#              Generated by Buildcell
#
# at 02:21:47 (GMT+0.0) 24th November 2020
# in /lustre/scratch/uccabz1/launch_tmp
# on node-c12i-025
# by uccabz1
#
# compiler GCC version 4.9.2
# options -cpp -iprefix /lustre/shared/ucl/apps/gcc/4.9.2/bin/../lib/gcc/x86_64-unknown-linux-gnu/4.9.2/ -mtune=corei7 -march=x86-64 -g -Og
#
# seed   842208456   941046774 -1745111385 -1232886040  1589245984 -2112852268  1634203047  -375907014 -1370931463 -1755459323  1908483035  1963730361
#
#      Author: C. J. Pickard (cjp20@cam.ac.uk)
#                Space group: P-1
#

%BLOCK LATTICE_ABC
      4.21563      6.02767      6.69947
     90.85118     90.57102    109.93300
%ENDBLOCK LATTICE_ABC

%BLOCK POSITIONS_FRAC
  Li  -0.5000000   0.0000000  -0.0000000 SPIN=   0.00000
  Li   0.5000000   0.0000000   0.5000000 SPIN=   0.00000
   O  -0.3435006  -0.5253083   0.1494122 SPIN=   0.00000
   O  -0.1349396  -0.1266089   0.3474411 SPIN=   0.00000
   O   0.2905601  -0.2759439   0.2009446 SPIN=   0.00000
   P  -0.0788116  -0.2759651   0.1652770 SPIN=   0.00000
   O   0.3435006   0.5253083  -0.1494122 SPIN=   0.00000
   O   0.1349396   0.1266089  -0.3474411 SPIN=   0.00000
   O  -0.2905601   0.2759439  -0.2009446 SPIN=   0.00000
   P   0.0788116   0.2759651  -0.1652770 SPIN=   0.00000
   O   0.0000000   0.0000000  -0.0000000 SPIN=   0.00000
   O   0.5000000  -0.5000000   0.5000000 SPIN=   0.00000
  Fe  -0.1644469  -0.3478640  -0.2622501 SPIN=   4.00000
  Fe   0.1644469   0.3478640   0.2622501 SPIN=   4.00000
%ENDBLOCK POSITIONS_FRAC

# Note: total spin =   8.00

KPOINTS_MP_SPACING 0.07

%BLOCK SPECIES_POT
QC5
%ENDBLOCK SPECIES_POT

%BLOCK HUBBARD_U
Fe d:4.0
%ENDBLOCK HUBBARD_U

SNAP_TO_SYMMETRY
SYMMETRY_GENERATE

