#              Generated by Buildcell
#
# at 02:31:22 (GMT+0.0) 24th November 2020
# in /lustre/scratch/uccabz1/launch_tmp
# on node-c12o-022
# by uccabz1
#
# compiler GCC version 4.9.2
# options -cpp -iprefix /lustre/shared/ucl/apps/gcc/4.9.2/bin/../lib/gcc/x86_64-unknown-linux-gnu/4.9.2/ -mtune=corei7 -march=x86-64 -g -Og
#
# seed   901530697 -1132368342  -362436863  -203892945 -1963167242 -1789000399 -1639334811  -576436788  1584388237  1923576163  1404492653  -924208406
#
#      Author: C. J. Pickard (cjp20@cam.ac.uk)
#                Space group: Cm
#

%BLOCK LATTICE_ABC
      5.67216      5.94631      6.11545
    114.69160    113.07971     98.48627
%ENDBLOCK LATTICE_ABC

%BLOCK POSITIONS_FRAC
  Li   0.0689756  -0.1056079   0.0000000 SPIN=   0.00000
  Li  -0.6146852  -0.4717775   0.0000000 SPIN=   0.00000
   O  -0.2282485  -0.4479404  -0.7324660 SPIN=   0.00000
   O  -0.1003960  -0.5107804  -0.3102661 SPIN=   0.00000
   O  -0.3919635  -0.2483659  -0.3769551 SPIN=   0.00000
   O  -0.5884279  -0.7426499  -0.7078932 SPIN=   0.00000
   P  -0.3250692  -0.4883431  -0.5446514 SPIN=   0.00000
   O   0.5042175   0.2845256   0.7324660 SPIN=   0.00000
   O   0.2098701  -0.2005143   0.3102661 SPIN=   0.00000
   O  -0.0150085   0.1285892   0.3769551 SPIN=   0.00000
   O   0.1194654  -0.0347567   0.7078932 SPIN=   0.00000
   P   0.2195823   0.0563083   0.5446514 SPIN=   0.00000
  Fe  -0.2556118   0.0988249   0.5913649 SPIN=   4.00000
  Fe  -0.8469767  -0.4925400  -0.5913649 SPIN=   4.00000
%ENDBLOCK POSITIONS_FRAC

# Note: total spin =   8.00

KPOINTS_MP_SPACING 0.07

%BLOCK SPECIES_POT
QC5
%ENDBLOCK SPECIES_POT

%BLOCK HUBBARD_U
Fe d:4.0
%ENDBLOCK HUBBARD_U

SNAP_TO_SYMMETRY
SYMMETRY_GENERATE

