#              Generated by Buildcell
#
# at 04:28:18 (GMT+0.0) 24th November 2020
# in /lustre/scratch/uccabz1/launch_tmp
# on node-c12d-032
# by uccabz1
#
# compiler GCC version 4.9.2
# options -cpp -iprefix /lustre/shared/ucl/apps/gcc/4.9.2/bin/../lib/gcc/x86_64-unknown-linux-gnu/4.9.2/ -mtune=corei7 -march=x86-64 -g -Og
#
# seed -1856218339 -1123867027 -2023943401  -300545038   345600236 -1783412738   295233563  -648803622 -1573577664 -1779916870   -34890943  1852044427
#
#      Author: C. J. Pickard (cjp20@cam.ac.uk)
#                Space group: C2
#

%BLOCK LATTICE_ABC
      5.03956      6.14948      6.52398
    116.98132     90.00000    114.18947
%ENDBLOCK LATTICE_ABC

%BLOCK POSITIONS_FRAC
  Li   0.3770182   0.0150035  -0.2647390 SPIN=   0.00000
  Li   0.3620147  -0.0150035   0.2647390 SPIN=   0.00000
   O   0.2011717   0.4821390  -0.4171533 SPIN=   0.00000
   O   0.0259165   0.1150215  -0.2850908 SPIN=   0.00000
   O   0.0899394   0.5788092  -0.0040631 SPIN=   0.00000
   P   0.0026791   0.3664842  -0.2760664 SPIN=   0.00000
   O  -0.2809674  -0.4821390   0.4171533 SPIN=   0.00000
   O  -0.0891050  -0.1150215   0.2850908 SPIN=   0.00000
   O  -0.4888697  -0.5788092   0.0040631 SPIN=   0.00000
   P  -0.3638051  -0.3664842   0.2760664 SPIN=   0.00000
   O   0.1497368   0.0000000  -0.0000000 SPIN=   0.00000
   O  -0.3508864  -0.0000000   0.0000000 SPIN=   0.00000
  Fe   0.0151070   0.3846103   0.2384785 SPIN=   4.00000
  Fe  -0.3695033  -0.3846103  -0.2384785 SPIN=   4.00000
%ENDBLOCK POSITIONS_FRAC

# Note: total spin =   8.00

KPOINTS_MP_SPACING 0.07

%BLOCK SPECIES_POT
QC5
%ENDBLOCK SPECIES_POT

%BLOCK HUBBARD_U
Fe d:4.0
%ENDBLOCK HUBBARD_U

SNAP_TO_SYMMETRY
SYMMETRY_GENERATE

