#              Generated by Buildcell
#
# at 23:33:50 (GMT+0.0) 23rd November 2020
# in /scratch/scratch/uccabz1/launch_tmp
# on node-a14c-007
# by uccabz1
#
# compiler GCC version 4.9.2
# options -cpp -iprefix /scratch/UCL/applications/gcc/4.9.2/bin/../lib/gcc/x86_64-unknown-linux-gnu/4.9.2/ -mtune=corei7 -march=x86-64 -g -O2
#
# seed -1126243781   444092305  -827250407   385210693 -2133652301 -1166734724  1289023437  -153122407  2135339801  1392367702   985943685  1427135070
#
#      Author: C. J. Pickard (cjp20@cam.ac.uk)
#                Space group: P-1
#

%BLOCK LATTICE_ABC
      4.30904      5.95808      6.77666
    100.20616    102.81654    103.58736
%ENDBLOCK LATTICE_ABC

%BLOCK POSITIONS_FRAC
  Li   0.0213766  -0.2544578   0.4567177 SPIN=   0.00000
  Li  -0.0213766   0.2544578  -0.4567177 SPIN=   0.00000
   O   0.7227924  -0.2082570   0.1771462 SPIN=   0.00000
   O   0.1780167  -0.1449228  -0.0287912 SPIN=   0.00000
   O   0.1367189  -0.4341502   0.1909208 SPIN=   0.00000
   P   0.3708073  -0.1946952   0.1771741 SPIN=   0.00000
   O  -0.7227924   0.2082570  -0.1771462 SPIN=   0.00000
   O  -0.1780167   0.1449228   0.0287912 SPIN=   0.00000
   O  -0.1367189   0.4341502  -0.1909208 SPIN=   0.00000
   P  -0.3708073   0.1946952  -0.1771741 SPIN=   0.00000
   O   0.5000000   0.0000000   0.5000000 SPIN=   0.00000
   O   0.5000000  -0.5000000   0.5000000 SPIN=   0.00000
  Fe  -0.3572285  -0.2830145  -0.1697100 SPIN=   4.00000
  Fe   0.3572285   0.2830145   0.1697100 SPIN=   4.00000
%ENDBLOCK POSITIONS_FRAC

# Note: total spin =   8.00

KPOINTS_MP_SPACING 0.07

%BLOCK SPECIES_POT
QC5
%ENDBLOCK SPECIES_POT

%BLOCK HUBBARD_U
Fe d:4.0
%ENDBLOCK HUBBARD_U

SNAP_TO_SYMMETRY
SYMMETRY_GENERATE

