#              Generated by Buildcell
#
# at 00:39:04 (GMT+0.0) 24th November 2020
# in /lustre/scratch/uccabz1/launch_tmp
# on node-c12o-026
# by uccabz1
#
# compiler GCC version 4.9.2
# options -cpp -iprefix /lustre/shared/ucl/apps/gcc/4.9.2/bin/../lib/gcc/x86_64-unknown-linux-gnu/4.9.2/ -mtune=corei7 -march=x86-64 -g -Og
#
# seed   621160828 -2088374712   120835254  1346171957 -2025928817  1654290153 -1695851443 -1589019165  -980058514  -604733290 -1869607857 -1992756043
#
#      Author: C. J. Pickard (cjp20@cam.ac.uk)
#                Space group: P21/m
#

%BLOCK LATTICE_ABC
      3.90770      4.69460      8.75949
     90.00000     90.00000     95.32679
%ENDBLOCK LATTICE_ABC

%BLOCK POSITIONS_FRAC
  Li  -0.2053406  -0.0172013   0.2500000 SPIN=   0.00000
  Li   0.2053406   0.0172013  -0.2500000 SPIN=   0.00000
   O   0.2101808   0.1304495   0.1090336 SPIN=   0.00000
   O   0.4538206   0.6645387   0.1093163 SPIN=   0.00000
   O  -0.2101808  -0.1304495  -0.3909664 SPIN=   0.00000
   O  -0.4538206  -0.6645387  -0.3906837 SPIN=   0.00000
   O  -0.2101808  -0.1304495  -0.1090336 SPIN=   0.00000
   O  -0.4538206  -0.6645387  -0.1093163 SPIN=   0.00000
   O   0.2101808   0.1304495   0.3909664 SPIN=   0.00000
   O   0.4538206   0.6645387   0.3906837 SPIN=   0.00000
   P  -0.4631078  -0.4570559  -0.2500000 SPIN=   0.00000
   P   0.4631078   0.4570559   0.2500000 SPIN=   0.00000
  Fe  -0.0000000  -0.5000000  -0.0000000 SPIN=   4.00000
  Fe  -0.0000000  -0.5000000   0.5000000 SPIN=   4.00000
%ENDBLOCK POSITIONS_FRAC

# Note: total spin =   8.00

KPOINTS_MP_SPACING 0.07

%BLOCK SPECIES_POT
QC5
%ENDBLOCK SPECIES_POT

%BLOCK HUBBARD_U
Fe d:4.0
%ENDBLOCK HUBBARD_U

SNAP_TO_SYMMETRY
SYMMETRY_GENERATE

