#              Generated by Buildcell
#
# at 22:49:34 (GMT+0.0) 23rd November 2020
# in /scratch/scratch/uccabz1/launch_tmp
# on node-k10e-034
# by uccabz1
#
# compiler GCC version 4.9.2
# options -cpp -iprefix /scratch/UCL/applications/gcc/4.9.2/bin/../lib/gcc/x86_64-unknown-linux-gnu/4.9.2/ -mtune=corei7 -march=x86-64 -g -O2
#
# seed -1554244532   510687749  -404586896  1650823595 -1736656719  1751049676   335253291   768308388 -1194405686  -695972111  -623836101   403541004
#
#      Author: C. J. Pickard (cjp20@cam.ac.uk)
#                Space group: Pcc2
#

%BLOCK LATTICE_ABC
      3.92039      5.20605      7.83940
     90.00000     90.00000     90.00000
%ENDBLOCK LATTICE_ABC

%BLOCK POSITIONS_FRAC
  Li   0.0000000  -0.0000000  -0.0997055 SPIN=   0.00000
  Li   0.0000000   0.0000000   0.4002945 SPIN=   0.00000
   O   0.2927356  -0.3117308   0.5027295 SPIN=   0.00000
   O   0.2044511  -0.1876918   0.1847684 SPIN=   0.00000
   O  -0.2927356   0.3117308   0.5027295 SPIN=   0.00000
   O  -0.2044511   0.1876918   0.1847684 SPIN=   0.00000
   O  -0.2927356  -0.3117308   0.0027295 SPIN=   0.00000
   O  -0.2044511  -0.1876918  -0.3152316 SPIN=   0.00000
   O   0.2927356   0.3117308   0.0027295 SPIN=   0.00000
   O   0.2044511   0.1876918  -0.3152316 SPIN=   0.00000
   P   0.5000000   0.0000000   0.1352827 SPIN=   0.00000
   P  -0.5000000   0.0000000  -0.3647173 SPIN=   0.00000
  Fe  -0.5000000  -0.5000000  -0.2103039 SPIN=   4.00000
  Fe   0.5000000   0.5000000   0.2896961 SPIN=   4.00000
%ENDBLOCK POSITIONS_FRAC

# Note: total spin =   8.00

KPOINTS_MP_SPACING 0.07

%BLOCK SPECIES_POT
QC5
%ENDBLOCK SPECIES_POT

%BLOCK HUBBARD_U
Fe d:4.0
%ENDBLOCK HUBBARD_U

SNAP_TO_SYMMETRY
SYMMETRY_GENERATE

