#              Generated by Buildcell
#
# at 23:09:56 (GMT+0.0) 23rd November 2020
# in /lustre/scratch/uccabz1/launch_tmp
# on node-c12l-023
# by uccabz1
#
# compiler GCC version 4.9.2
# options -cpp -iprefix /lustre/shared/ucl/apps/gcc/4.9.2/bin/../lib/gcc/x86_64-unknown-linux-gnu/4.9.2/ -mtune=corei7 -march=x86-64 -g -Og
#
# seed -2039930991   870948212  1892451526  -177865907  1540832359 -1413339210  1123719297 -1028342591  1518828223 -2144273416  -302910479 -1290984628
#
#      Author: C. J. Pickard (cjp20@cam.ac.uk)
#                Space group: Fdd2
#

%BLOCK LATTICE_ABC
      5.30875      5.82288      6.39246
     79.08886     65.46584     62.88018
%ENDBLOCK LATTICE_ABC

%BLOCK POSITIONS_FRAC
  Li  -0.0251775   0.0503551  -0.0000000 SPIN=   0.00000
  Li  -0.2751775  -0.4496449  -0.5000000 SPIN=   0.00000
   O  -0.1577683   0.6648491  -0.2416851 SPIN=   0.00000
   O  -0.1954262   0.2414121  -0.2644645 SPIN=   0.00000
   O  -0.5070807   0.6648491   0.2416851 SPIN=   0.00000
   O  -0.0459859   0.2414121   0.2644645 SPIN=   0.00000
   O   0.3505465   0.1648491  -0.2583149 SPIN=   0.00000
   O   0.2901094  -0.2585879  -0.2355355 SPIN=   0.00000
   O  -0.5153956   0.1648491   0.2583149 SPIN=   0.00000
   O  -0.0315214  -0.2585879   0.2355355 SPIN=   0.00000
   P   0.3284219   0.3431562   0.5000000 SPIN=   0.00000
   P  -0.4215781  -0.1568438   0.0000000 SPIN=   0.00000
  Fe   0.0409697  -0.0819395  -0.5000000 SPIN=   4.00000
  Fe   0.2909697   0.4180605  -0.0000000 SPIN=   4.00000
%ENDBLOCK POSITIONS_FRAC

# Note: total spin =   8.00

KPOINTS_MP_SPACING 0.07

%BLOCK SPECIES_POT
QC5
%ENDBLOCK SPECIES_POT

%BLOCK HUBBARD_U
Fe d:4.0
%ENDBLOCK HUBBARD_U

SNAP_TO_SYMMETRY
SYMMETRY_GENERATE

