#              Generated by Buildcell
#
# at 01:15:02 (GMT+0.0) 24th November 2020
# in /lustre/scratch/uccabz1/launch_tmp
# on node-c12n-026
# by uccabz1
#
# compiler GCC version 4.9.2
# options -cpp -iprefix /lustre/shared/ucl/apps/gcc/4.9.2/bin/../lib/gcc/x86_64-unknown-linux-gnu/4.9.2/ -mtune=corei7 -march=x86-64 -g -Og
#
# seed -1440316240 -1892999710 -1759173779  1192269889 -1539019998 -1265427939 -1197319727   816660072 -1245720131   439428463  1263849125  -755842341
#
#      Author: C. J. Pickard (cjp20@cam.ac.uk)
#                Space group: P21212
#

%BLOCK LATTICE_ABC
      4.55172      5.27644      6.66199
     90.00000     90.00000     90.00000
%ENDBLOCK LATTICE_ABC

%BLOCK POSITIONS_FRAC
  Li  -0.0000000  -0.0000000  -0.1415565 SPIN=   0.00000
  Li  -0.5000000   0.5000000   0.1415565 SPIN=   0.00000
   O  -0.2894587  -0.6474572  -0.1137209 SPIN=   0.00000
   O  -0.1177874  -0.2837722  -0.3490066 SPIN=   0.00000
   O   0.2894587   0.6474572  -0.1137209 SPIN=   0.00000
   O   0.1177874   0.2837722  -0.3490066 SPIN=   0.00000
   O   0.2105413   0.1474572   0.1137209 SPIN=   0.00000
   O   0.3822126  -0.2162278   0.3490066 SPIN=   0.00000
   O  -0.2105413  -0.1474572   0.1137209 SPIN=   0.00000
   O  -0.3822126   0.2162278   0.3490066 SPIN=   0.00000
   P  -0.5000000   0.0000000   0.0924377 SPIN=   0.00000
   P  -0.0000000   0.5000000  -0.0924377 SPIN=   0.00000
  Fe  -0.0000000   0.0000000   0.3667587 SPIN=   4.00000
  Fe  -0.5000000   0.5000000  -0.3667587 SPIN=   4.00000
%ENDBLOCK POSITIONS_FRAC

# Note: total spin =   8.00

KPOINTS_MP_SPACING 0.07

%BLOCK SPECIES_POT
QC5
%ENDBLOCK SPECIES_POT

%BLOCK HUBBARD_U
Fe d:4.0
%ENDBLOCK HUBBARD_U

SNAP_TO_SYMMETRY
SYMMETRY_GENERATE

