#              Generated by Buildcell
#
# at 00:26:45 (GMT+0.0) 24th November 2020
# in /scratch/scratch/uccabz1/launch_tmp
# on node-k10e-028
# by uccabz1
#
# compiler GCC version 4.9.2
# options -cpp -iprefix /scratch/UCL/applications/gcc/4.9.2/bin/../lib/gcc/x86_64-unknown-linux-gnu/4.9.2/ -mtune=corei7 -march=x86-64 -g -O2
#
# seed -1451037645   482353051  -868102291  -370810302 -1972332269  1200961559  1690786506   798420940  2135658099  1420529762  -335036819  1748620363
#
#      Author: C. J. Pickard (cjp20@cam.ac.uk)
#                Space group: Cm
#

%BLOCK LATTICE_ABC
      5.69722      5.71072      6.33104
    116.12990    116.06030     91.35014
%ENDBLOCK LATTICE_ABC

%BLOCK POSITIONS_FRAC
  Li   0.0330799   0.1507124   0.0000000 SPIN=   0.00000
  Li  -0.2182812  -0.3225101  -0.0000000 SPIN=   0.00000
   O  -0.3618911  -0.0529199  -0.3308763 SPIN=   0.00000
   O  -0.2592062  -0.3701415  -0.7061962 SPIN=   0.00000
   O  -0.1186980  -0.4270851  -0.3067175 SPIN=   0.00000
   O  -0.6124174  -0.5622137  -0.6489056 SPIN=   0.00000
   P  -0.3425602  -0.3395753  -0.4910450 SPIN=   0.00000
   O  -0.0310148   0.2779565   0.3308763 SPIN=   0.00000
   O   0.4469900   0.3360547   0.7061962 SPIN=   0.00000
   O   0.1880196  -0.1203676   0.3067175 SPIN=   0.00000
   O   0.0364882   0.0866918   0.6489056 SPIN=   0.00000
   P   0.1484848   0.1514696   0.4910450 SPIN=   0.00000
  Fe   0.1916415  -0.3023531   0.5768081 SPIN=   4.00000
  Fe  -0.3851666  -0.8791612  -0.5768081 SPIN=   4.00000
%ENDBLOCK POSITIONS_FRAC

# Note: total spin =   8.00

KPOINTS_MP_SPACING 0.07

%BLOCK SPECIES_POT
QC5
%ENDBLOCK SPECIES_POT

%BLOCK HUBBARD_U
Fe d:4.0
%ENDBLOCK HUBBARD_U

SNAP_TO_SYMMETRY
SYMMETRY_GENERATE

