#              Generated by Buildcell
#
# at 07:50:06 (GMT+0.0) 24th November 2020
# in /scratch/scratch/uccabz1/launch_tmp
# on node-k10h-028
# by uccabz1
#
# compiler GCC version 4.9.2
# options -cpp -iprefix /scratch/UCL/applications/gcc/4.9.2/bin/../lib/gcc/x86_64-unknown-linux-gnu/4.9.2/ -mtune=corei7 -march=x86-64 -g -O2
#
# seed   714039333   767255659 -1671019204  -167835584 -2030739038 -1473326470  2048315843   810636809  1096114795 -1783645600 -1467785280 -1902083943
#
#      Author: C. J. Pickard (cjp20@cam.ac.uk)
#                Space group: Pma2
#

%BLOCK LATTICE_ABC
      4.44670      4.78348      7.52208
     90.00000     90.00000     90.00000
%ENDBLOCK LATTICE_ABC

%BLOCK POSITIONS_FRAC
  Li   0.4251368  -0.4854640  -0.2500000 SPIN=   0.00000
  Li  -0.4251368  -0.4854640   0.2500000 SPIN=   0.00000
   O  -0.2499985  -0.1865569   0.0714945 SPIN=   0.00000
   O  -0.2450723  -0.6767594  -0.0772016 SPIN=   0.00000
   O   0.2499985  -0.1865569  -0.0714945 SPIN=   0.00000
   O   0.2450723  -0.6767594   0.0772016 SPIN=   0.00000
   O   0.2499985  -0.1865569   0.5714945 SPIN=   0.00000
   O   0.2450723  -0.6767594   0.4227984 SPIN=   0.00000
   O  -0.2499985  -0.1865569  -0.5714945 SPIN=   0.00000
   O  -0.2450723  -0.6767594  -0.4227984 SPIN=   0.00000
   P   0.0000000  -0.4384206   0.0000000 SPIN=   0.00000
   P   0.0000000  -0.4384206   0.5000000 SPIN=   0.00000
  Fe   0.0779340   0.0146856   0.2500000 SPIN=   4.00000
  Fe  -0.0779340   0.0146856  -0.2500000 SPIN=   4.00000
%ENDBLOCK POSITIONS_FRAC

# Note: total spin =   8.00

KPOINTS_MP_SPACING 0.07

%BLOCK SPECIES_POT
QC5
%ENDBLOCK SPECIES_POT

%BLOCK HUBBARD_U
Fe d:4.0
%ENDBLOCK HUBBARD_U

SNAP_TO_SYMMETRY
SYMMETRY_GENERATE

