#              Generated by Buildcell
#
# at 14:21:38 (GMT+0.0) 26th November 2020
# in /lustre/scratch/uccabz1/launch_tmp
# on node-c12f-021
# by uccabz1
#
# compiler GCC version 4.9.2
# options -cpp -iprefix /lustre/shared/ucl/apps/gcc/4.9.2/bin/../lib/gcc/x86_64-unknown-linux-gnu/4.9.2/ -mtune=corei7 -march=x86-64 -g -Og
#
# seed  1664718536  -314042858    45549472  -893273697 -2045252088  1147020798  2025722951  -282749594 -1083890396 -1739523631  1403962251   891713975
#
#      Author: C. J. Pickard (cjp20@cam.ac.uk)
#                Space group: Cc
#

%BLOCK LATTICE_ABC
      7.42198      7.45820      7.67614
    116.50185    118.91064     90.00000
%ENDBLOCK LATTICE_ABC

%BLOCK POSITIONS_FRAC
  Li   0.1995583  -0.2542533   0.4365599 SPIN=   0.00000
  Li   0.2370017   0.2457467   0.4365599 SPIN=   0.00000
  Li   0.3925199  -0.4074230  -0.0762180 SPIN=   0.00000
  Li  -0.4687379   0.0925770  -0.0762180 SPIN=   0.00000
   O   0.4517379  -0.2594929   0.3218734 SPIN=   0.00000
   O   0.7175054   0.1108606   0.5944267 SPIN=   0.00000
   O   0.3686638   0.0518030   0.2571815 SPIN=   0.00000
   O   0.3827642   0.0529046   0.5902934 SPIN=   0.00000
   P   0.4775046  -0.0234592   0.4363664 SPIN=   0.00000
   O  -0.1298645   0.2405071   0.3218734 SPIN=   0.00000
   O  -0.1230787   0.6108606   0.5944267 SPIN=   0.00000
   O  -0.1114823   0.5518030   0.2571815 SPIN=   0.00000
   O   0.2075291   0.5529046   0.5902934 SPIN=   0.00000
   P  -0.0411383   0.4765408   0.4363664 SPIN=   0.00000
   O   0.1082314   0.2819149   0.0525272 SPIN=   0.00000
   O   0.1005515   0.0553255  -0.3257093 SPIN=   0.00000
   O   0.0694501   0.4134190  -0.2221724 SPIN=   0.00000
   O   0.4197716   0.3588923   0.0103167 SPIN=   0.00000
   P   0.1738670   0.2785908  -0.1104535 SPIN=   0.00000
   O  -0.0557042  -0.2180851   0.0525272 SPIN=   0.00000
   O  -0.4262608  -0.4446745  -0.3257093 SPIN=   0.00000
   O  -0.2916225  -0.0865810  -0.2221724 SPIN=   0.00000
   O  -0.4094548  -0.1411077   0.0103167 SPIN=   0.00000
   P  -0.2843205  -0.2214092  -0.1104535 SPIN=   0.00000
  Fe  -0.1796507  -0.0107525   0.3639408 SPIN=   4.79475
  Fe  -0.4564086   0.4892475   0.3639408 SPIN=   4.79475
  Fe  -0.1865877   0.4096471  -0.1033370 SPIN=   3.20525
  Fe   0.0832506  -0.0903529  -0.1033370 SPIN=   3.20525
%ENDBLOCK POSITIONS_FRAC

# Note: total spin =  16.00

KPOINTS_MP_SPACING 0.07

%BLOCK SPECIES_POT
QC5
%ENDBLOCK SPECIES_POT

%BLOCK HUBBARD_U
Fe d:4.0
%ENDBLOCK HUBBARD_U

SNAP_TO_SYMMETRY
SYMMETRY_GENERATE

