#              Generated by Buildcell
#
# at 14:17:32 (GMT+0.0) 24th November 2020
# in /scratch/scratch/uccabz1/launch_tmp
# on node-a14f-003
# by uccabz1
#
# compiler GCC version 4.9.2
# options -cpp -iprefix /scratch/UCL/applications/gcc/4.9.2/bin/../lib/gcc/x86_64-unknown-linux-gnu/4.9.2/ -mtune=corei7 -march=x86-64 -g -O2
#
# seed  -960621722  -521597810   246394408      811346  1774864334 -1028074525   181825164   433983788  -231945756  -390093187  -186704679 -1716606418
#
#      Author: C. J. Pickard (cjp20@cam.ac.uk)
#                Space group: Pmc21
#

%BLOCK LATTICE_ABC
      4.92434      5.69276      5.70754
     90.00000     90.00000     90.00000
%ENDBLOCK LATTICE_ABC

%BLOCK POSITIONS_FRAC
  Li   0.5000000   0.1338991  -0.3925800 SPIN=   0.00000
  Li   0.5000000  -0.3661009   0.3925800 SPIN=   0.00000
   O   0.2500000   0.1822467  -0.0731529 SPIN=   0.00000
   O   0.2500006  -0.1876983  -0.3397141 SPIN=   0.00000
   O  -0.2500000   0.6822467   0.0731529 SPIN=   0.00000
   O  -0.2500006   0.3123017   0.3397141 SPIN=   0.00000
   O   0.2500000   0.6822467   0.0731529 SPIN=   0.00000
   O   0.2500006   0.3123017   0.3397141 SPIN=   0.00000
   O  -0.2500000   0.1822467  -0.0731529 SPIN=   0.00000
   O  -0.2500006  -0.1876983  -0.3397141 SPIN=   0.00000
   P  -0.0000000  -0.0090933  -0.2648486 SPIN=   0.00000
   P  -0.0000000   0.4909067   0.2648486 SPIN=   0.00000
  Fe   0.0000000  -0.0090961   0.2353335 SPIN=   4.00000
  Fe  -0.0000000   0.4909039  -0.2353335 SPIN=   4.00000
%ENDBLOCK POSITIONS_FRAC

# Note: total spin =   8.00

KPOINTS_MP_SPACING 0.07

%BLOCK SPECIES_POT
QC5
%ENDBLOCK SPECIES_POT

%BLOCK HUBBARD_U
Fe d:4.0
%ENDBLOCK HUBBARD_U

SNAP_TO_SYMMETRY
SYMMETRY_GENERATE

