#              Generated by Buildcell
#
# at 11:40:11 (GMT+0.0) 24th November 2020
# in /scratch/scratch/uccabz1/launch_tmp
# on node-a14e-013
# by uccabz1
#
# compiler GCC version 4.9.2
# options -cpp -iprefix /scratch/UCL/applications/gcc/4.9.2/bin/../lib/gcc/x86_64-unknown-linux-gnu/4.9.2/ -mtune=corei7 -march=x86-64 -g -O2
#
# seed -1394916802 -2056277206 -1278962777  -615458066  -450170066   -44345653 -1223410975  1993478204  1634548827 -1339645733  2117338663  -958077538
#
#      Author: C. J. Pickard (cjp20@cam.ac.uk)
#                Space group: P21
#

%BLOCK LATTICE_ABC
      5.02300      5.50992      5.79445
     90.00000     93.88644     90.00000
%ENDBLOCK LATTICE_ABC

%BLOCK POSITIONS_FRAC
  Li  -0.2429853  -0.2501892  -0.1062956 SPIN=   0.00000
  Li   0.2429853   0.2498108   0.1062956 SPIN=   0.00000
   O  -0.5193370  -0.1892913   0.1525540 SPIN=   0.00000
   O  -0.4546283   0.1612948   0.4509224 SPIN=   0.00000
   O  -0.1152668  -0.1634250   0.4561248 SPIN=   0.00000
   O  -0.1490792   0.1331428   0.1279244 SPIN=   0.00000
   P  -0.3188524  -0.0221296   0.2872028 SPIN=   0.00000
   O   0.5193370   0.3107087  -0.1525540 SPIN=   0.00000
   O   0.4546283   0.6612948  -0.4509224 SPIN=   0.00000
   O   0.1152668   0.3365750  -0.4561248 SPIN=   0.00000
   O   0.1490792   0.6331428  -0.1279244 SPIN=   0.00000
   P   0.3188524   0.4778704  -0.2872028 SPIN=   0.00000
  Fe   0.2420532  -0.0217185  -0.3929307 SPIN=   4.00000
  Fe  -0.2420532   0.4782815   0.3929307 SPIN=   4.00000
%ENDBLOCK POSITIONS_FRAC

# Note: total spin =   8.00

KPOINTS_MP_SPACING 0.07

%BLOCK SPECIES_POT
QC5
%ENDBLOCK SPECIES_POT

%BLOCK HUBBARD_U
Fe d:4.0
%ENDBLOCK HUBBARD_U

SNAP_TO_SYMMETRY
SYMMETRY_GENERATE

