#              Generated by Buildcell
#
# at 12:12:59 (GMT+0.0) 24th November 2020
# in /lustre/scratch/uccabz1/launch_tmp
# on node-c12g-032
# by uccabz1
#
# compiler GCC version 4.9.2
# options -cpp -iprefix /lustre/shared/ucl/apps/gcc/4.9.2/bin/../lib/gcc/x86_64-unknown-linux-gnu/4.9.2/ -mtune=corei7 -march=x86-64 -g -Og
#
# seed  -178984041   781598587   557932105 -2041573792   -58744492 -1842875953  -541518828  1116071386   192549202 -1714135116   403546569 -1339044297
#
#      Author: C. J. Pickard (cjp20@cam.ac.uk)
#                Space group: C2
#

%BLOCK LATTICE_ABC
      4.88640      6.04135      6.04135
     82.41922     71.34012     71.34012
%ENDBLOCK LATTICE_ABC

%BLOCK POSITIONS_FRAC
  Li   0.0808746  -0.3784896   0.0179279 SPIN=   0.00000
  Li  -0.0808746  -0.0179279   0.3784896 SPIN=   0.00000
   O   0.1484282   0.2513456   0.2767439 SPIN=   0.00000
   O   0.2627410   0.3172751   0.6503015 SPIN=   0.00000
   O   0.2417935  -0.0740734   0.5945418 SPIN=   0.00000
   P   0.3261366   0.1450566   0.4536557 SPIN=   0.00000
   O  -0.1484282  -0.2767439  -0.2513456 SPIN=   0.00000
   O  -0.2627410  -0.6503015  -0.3172751 SPIN=   0.00000
   O  -0.2417935  -0.5945418   0.0740734 SPIN=   0.00000
   P  -0.3261366  -0.4536557  -0.1450566 SPIN=   0.00000
   O   0.0000000  -0.0151845   0.0151845 SPIN=   0.00000
   O   0.5000000  -0.1863152   0.1863152 SPIN=   0.00000
  Fe   0.5000000   0.0731703  -0.0731703 SPIN=   6.52121
  Fe   0.5000000  -0.4467240   0.4467240 SPIN=   1.47879
%ENDBLOCK POSITIONS_FRAC

# Note: total spin =   8.00

KPOINTS_MP_SPACING 0.07

%BLOCK SPECIES_POT
QC5
%ENDBLOCK SPECIES_POT

%BLOCK HUBBARD_U
Fe d:4.0
%ENDBLOCK HUBBARD_U

SNAP_TO_SYMMETRY
SYMMETRY_GENERATE

