#              Generated by Buildcell
#
# at 08:56:21 (GMT+0.0) 24th November 2020
# in /lustre/scratch/uccabz1/launch_tmp
# on node-c12n-028
# by uccabz1
#
# compiler GCC version 4.9.2
# options -cpp -iprefix /lustre/shared/ucl/apps/gcc/4.9.2/bin/../lib/gcc/x86_64-unknown-linux-gnu/4.9.2/ -mtune=corei7 -march=x86-64 -g -Og
#
# seed  1789201707  1980726136  2070077457  -419780671 -1134696889  -639627980    19615506  2116125415  1742332318   -59405387  -859548774  -271860684
#
#      Author: C. J. Pickard (cjp20@cam.ac.uk)
#                Space group: P-1
#

%BLOCK LATTICE_ABC
      3.97373      5.09117      8.32626
    102.28252     94.80515    101.31869
%ENDBLOCK LATTICE_ABC

%BLOCK POSITIONS_FRAC
  Li   0.5000000   0.0000000   0.5000000 SPIN=   0.00000
  Li   0.5000000   0.0000000   0.0000000 SPIN=   0.00000
   O  -0.3372374   0.0664787   0.2745967 SPIN=   0.00000
   O   0.0940478  -0.1793995   0.1168014 SPIN=   0.00000
   O  -0.0080796  -0.2586631   0.3929435 SPIN=   0.00000
   O  -0.4758849  -0.4592427   0.1523571 SPIN=   0.00000
   P  -0.1935360  -0.1960760   0.2353614 SPIN=   0.00000
   O   0.3372374  -0.0664787  -0.2745967 SPIN=   0.00000
   O  -0.0940478   0.1793995  -0.1168014 SPIN=   0.00000
   O   0.0080796   0.2586631  -0.3929435 SPIN=   0.00000
   O   0.4758849   0.4592427  -0.1523571 SPIN=   0.00000
   P   0.1935360   0.1960760  -0.2353614 SPIN=   0.00000
  Fe   0.1426386   0.3716796   0.2835029 SPIN=   4.00000
  Fe  -0.1426386  -0.3716796  -0.2835029 SPIN=   4.00000
%ENDBLOCK POSITIONS_FRAC

# Note: total spin =   8.00

KPOINTS_MP_SPACING 0.07

%BLOCK SPECIES_POT
QC5
%ENDBLOCK SPECIES_POT

%BLOCK HUBBARD_U
Fe d:4.0
%ENDBLOCK HUBBARD_U

SNAP_TO_SYMMETRY
SYMMETRY_GENERATE

