#              Generated by Buildcell
#
# at 23:02:20 (GMT+0.0) 26th November 2020
# in /lustre/scratch/uccabz1/launch_tmp
# on node-c12b-021
# by uccabz1
#
# compiler GCC version 4.9.2
# options -cpp -iprefix /lustre/shared/ucl/apps/gcc/4.9.2/bin/../lib/gcc/x86_64-unknown-linux-gnu/4.9.2/ -mtune=corei7 -march=x86-64 -g -Og
#
# seed -1815020595  1765841868   420557673 -2116454770   251919179  -777392088 -1905627363  -272095837   553260064 -1556838596  1168471375 -1215452388
#
#      Author: C. J. Pickard (cjp20@cam.ac.uk)
#                Space group: P-1
#

%BLOCK LATTICE_ABC
      5.51103      7.85678      8.20632
     72.84346     77.81556     71.95440
%ENDBLOCK LATTICE_ABC

%BLOCK POSITIONS_FRAC
  Li  -0.6932066   0.2220355   0.2910174 SPIN=   0.00000
  Li   0.6932066  -0.2220355  -0.2910174 SPIN=   0.00000
  Li   0.5000000   0.0000000  -0.0000000 SPIN=   0.00000
  Li  -0.0000000   0.5000000   0.5000000 SPIN=   0.00000
   O   0.6453408   0.3992364  -0.3218220 SPIN=   0.00000
   O   0.7082732   0.2578270  -0.5817055 SPIN=   0.00000
   O   0.7170946   0.0488556  -0.2902715 SPIN=   0.00000
   O   0.3004000   0.2696453  -0.3760230 SPIN=   0.00000
   P   0.5921255   0.2524664  -0.3885007 SPIN=   0.00000
   O  -0.6453408  -0.3992364   0.3218220 SPIN=   0.00000
   O  -0.7082732  -0.2578270   0.5817055 SPIN=   0.00000
   O  -0.7170946  -0.0488556   0.2902715 SPIN=   0.00000
   O  -0.3004000  -0.2696453   0.3760230 SPIN=   0.00000
   P  -0.5921255  -0.2524664   0.3885007 SPIN=   0.00000
   O  -0.0109152  -0.2522226  -0.1490783 SPIN=   0.00000
   O   0.0620420  -0.4502227   0.1605589 SPIN=   0.00000
   O   0.2333103  -0.1761162   0.0473324 SPIN=   0.00000
   P   0.0062532  -0.2516687   0.0353699 SPIN=   0.00000
   O   0.0109152   0.2522226   0.1490783 SPIN=   0.00000
   O  -0.0620420   0.4502227  -0.1605589 SPIN=   0.00000
   O  -0.2333103   0.1761162  -0.0473324 SPIN=   0.00000
   P  -0.0062532   0.2516687  -0.0353699 SPIN=   0.00000
   O   0.5000000   0.0000000  -0.5000000 SPIN=   0.00000
   O  -0.5000000  -0.5000000  -0.0000000 SPIN=   0.00000
  Fe   0.1036286   0.0564569  -0.2999064 SPIN=   2.73403
  Fe  -0.1036286  -0.0564569   0.2999064 SPIN=   2.73403
  Fe   0.2888292  -0.4839508  -0.1917566 SPIN=   5.26597
  Fe  -0.2888292   0.4839508   0.1917566 SPIN=   5.26597
%ENDBLOCK POSITIONS_FRAC

# Note: total spin =  16.00

KPOINTS_MP_SPACING 0.07

%BLOCK SPECIES_POT
QC5
%ENDBLOCK SPECIES_POT

%BLOCK HUBBARD_U
Fe d:4.0
%ENDBLOCK HUBBARD_U

SNAP_TO_SYMMETRY
SYMMETRY_GENERATE

