#              Generated by Buildcell
#
# at 13:43:30 (GMT+0.0) 24th November 2020
# in /lustre/scratch/uccabz1/launch_tmp
# on node-c12n-022
# by uccabz1
#
# compiler GCC version 4.9.2
# options -cpp -iprefix /lustre/shared/ucl/apps/gcc/4.9.2/bin/../lib/gcc/x86_64-unknown-linux-gnu/4.9.2/ -mtune=corei7 -march=x86-64 -g -Og
#
# seed -1967699909  -660622527  -307862179  -218492709  -997790451  1124008802  1710750265   613695714  1685723002 -1934285006  -908764842 -2023348993
#
#      Author: C. J. Pickard (cjp20@cam.ac.uk)
#                Space group: I-4
#

%BLOCK LATTICE_ABC
      5.61815      5.61815      6.44033
    115.85972    115.85972     90.00000
%ENDBLOCK LATTICE_ABC

%BLOCK POSITIONS_FRAC
  Li  -0.4813856   0.0186144   0.0372288 SPIN=   0.00000
  Li  -0.0186144   0.4813856  -0.0372288 SPIN=   0.00000
   O   0.2520965  -0.1107804   0.1410664 SPIN=   0.00000
   O   0.5457523   0.0170959   0.6337118 SPIN=   0.00000
   O  -0.1110301   0.2518469   0.1410664 SPIN=   0.00000
   O   0.0879595   0.6166159   0.6337118 SPIN=   0.00000
   O   0.1107804   0.1110301  -0.1410664 SPIN=   0.00000
   O  -0.0170959  -0.0879595  -0.6337118 SPIN=   0.00000
   O  -0.2518469  -0.2520965  -0.1410664 SPIN=   0.00000
   O  -0.6166159  -0.5457523  -0.6337118 SPIN=   0.00000
   P   0.2500000  -0.2500000  -0.5000000 SPIN=   0.00000
   P   0.0000000   0.0000000   0.0000000 SPIN=   0.00000
  Fe   0.3063875   0.3063875  -0.3872249 SPIN=   4.00000
  Fe  -0.3063875  -0.3063875   0.3872249 SPIN=   4.00000
%ENDBLOCK POSITIONS_FRAC

# Note: total spin =   8.00

KPOINTS_MP_SPACING 0.07

%BLOCK SPECIES_POT
QC5
%ENDBLOCK SPECIES_POT

%BLOCK HUBBARD_U
Fe d:4.0
%ENDBLOCK HUBBARD_U

SNAP_TO_SYMMETRY
SYMMETRY_GENERATE

