#              Generated by Buildcell
#
# at 16:30:47 (GMT+0.0) 26th November 2020
# in /lustre/scratch/uccabz1/launch_tmp
# on node-c12j-030
# by uccabz1
#
# compiler GCC version 4.9.2
# options -cpp -iprefix /lustre/shared/ucl/apps/gcc/4.9.2/bin/../lib/gcc/x86_64-unknown-linux-gnu/4.9.2/ -mtune=corei7 -march=x86-64 -g -Og
#
# seed  -192837399 -1732580970    40165837   868738630  1702206069 -1714655453  -639182662  1696908823   -21617142  -382749231  1902095156   194584609
#
#      Author: C. J. Pickard (cjp20@cam.ac.uk)
#                Space group: P21/m
#

%BLOCK LATTICE_ABC
      4.90295      6.67253     10.14918
     90.00000     90.00000    105.47097
%ENDBLOCK LATTICE_ABC

%BLOCK POSITIONS_FRAC
  Li   0.6180656   0.1183701  -0.2500000 SPIN=   0.00000
  Li  -0.6180656  -0.1183701   0.2500000 SPIN=   0.00000
  Li   0.0201612  -0.1605292  -0.2500000 SPIN=   0.00000
  Li  -0.0201612   0.1605292   0.2500000 SPIN=   0.00000
   O   0.3711343   0.1857989   0.3724630 SPIN=   0.00000
   O   0.8799035   0.4331499   0.3723150 SPIN=   0.00000
   O   0.6490555   0.3232870   0.5864912 SPIN=   0.00000
   O   0.8051997   0.0647182   0.4469954 SPIN=   0.00000
   O  -0.3711343  -0.1857989  -0.1275370 SPIN=   0.00000
   O  -0.8799035  -0.4331499  -0.1276850 SPIN=   0.00000
   O  -0.6490555  -0.3232870   0.0864912 SPIN=   0.00000
   O  -0.8051997  -0.0647182  -0.0530046 SPIN=   0.00000
   O  -0.3711343  -0.1857989  -0.3724630 SPIN=   0.00000
   O  -0.8799035  -0.4331499  -0.3723150 SPIN=   0.00000
   O  -0.6490555  -0.3232870  -0.5864912 SPIN=   0.00000
   O  -0.8051997  -0.0647182  -0.4469954 SPIN=   0.00000
   O   0.3711343   0.1857989   0.1275370 SPIN=   0.00000
   O   0.8799035   0.4331499   0.1276850 SPIN=   0.00000
   O   0.6490555   0.3232870  -0.0864912 SPIN=   0.00000
   O   0.8051997   0.0647182   0.0530046 SPIN=   0.00000
   P   0.4543769   0.4741423   0.2500000 SPIN=   0.00000
   P  -0.4543769  -0.4741423  -0.2500000 SPIN=   0.00000
   P  -0.5000000   0.0000000  -0.0000000 SPIN=   0.00000
   P   0.5000000   0.0000000  -0.5000000 SPIN=   0.00000
  Fe  -0.1721259  -0.2836174   0.0576432 SPIN=   4.00000
  Fe   0.1721259   0.2836174  -0.4423568 SPIN=   4.00000
  Fe   0.1721259   0.2836174  -0.0576432 SPIN=   4.00000
  Fe  -0.1721259  -0.2836174   0.4423568 SPIN=   4.00000
%ENDBLOCK POSITIONS_FRAC

# Note: total spin =  16.00

KPOINTS_MP_SPACING 0.07

%BLOCK SPECIES_POT
QC5
%ENDBLOCK SPECIES_POT

%BLOCK HUBBARD_U
Fe d:4.0
%ENDBLOCK HUBBARD_U

SNAP_TO_SYMMETRY
SYMMETRY_GENERATE

