#              Generated by Buildcell
#
# at 12:07:10 (GMT+0.0) 24th November 2020
# in /lustre/scratch/uccabz1/launch_tmp
# on node-c12c-023
# by uccabz1
#
# compiler GCC version 4.9.2
# options -cpp -iprefix /lustre/shared/ucl/apps/gcc/4.9.2/bin/../lib/gcc/x86_64-unknown-linux-gnu/4.9.2/ -mtune=corei7 -march=x86-64 -g -Og
#
# seed  1495947097  -771108017   915408985    61279585   730970248  2025309771  1120414463 -1393824712 -1292816818   153189129 -1713097244  2097236785
#
#      Author: C. J. Pickard (cjp20@cam.ac.uk)
#                Space group: P4
#

%BLOCK LATTICE_ABC
      5.27720      5.27720      5.74530
     90.00000     90.00000     90.00000
%ENDBLOCK LATTICE_ABC

%BLOCK POSITIONS_FRAC
  Li  -0.0000000  -0.5000000   0.0730454 SPIN=   0.00000
  Li   0.5000000   0.0000000   0.0730454 SPIN=   0.00000
   O   0.2474935  -0.2330318  -0.7112899 SPIN=   0.00000
   O   0.1930974  -0.3675935  -0.2791804 SPIN=   0.00000
   O  -0.2474935   0.2330318  -0.7112899 SPIN=   0.00000
   O  -0.1930974   0.3675935  -0.2791804 SPIN=   0.00000
   O   0.2330318   0.2474935  -0.7112899 SPIN=   0.00000
   O   0.3675935   0.1930974  -0.2791804 SPIN=   0.00000
   O  -0.2330318  -0.2474935  -0.7112899 SPIN=   0.00000
   O  -0.3675935  -0.1930974  -0.2791804 SPIN=   0.00000
   P   0.5000000  -0.5000000  -0.0624425 SPIN=   0.00000
   P  -0.0000000  -0.0000000   0.1635017 SPIN=   0.00000
  Fe   0.0000000   0.0000000  -0.3371206 SPIN=   7.74855
  Fe   0.5000000  -0.5000000   0.4378469 SPIN=   0.25145
%ENDBLOCK POSITIONS_FRAC

# Note: total spin =   8.00

KPOINTS_MP_SPACING 0.07

%BLOCK SPECIES_POT
QC5
%ENDBLOCK SPECIES_POT

%BLOCK HUBBARD_U
Fe d:4.0
%ENDBLOCK HUBBARD_U

SNAP_TO_SYMMETRY
SYMMETRY_GENERATE

