#              Generated by Buildcell
#
# at 20:12:39 (GMT+0.0) 26th November 2020
# in /lustre/scratch/uccabz1/launch_tmp
# on node-c12f-021
# by uccabz1
#
# compiler GCC version 4.9.2
# options -cpp -iprefix /lustre/shared/ucl/apps/gcc/4.9.2/bin/../lib/gcc/x86_64-unknown-linux-gnu/4.9.2/ -mtune=corei7 -march=x86-64 -g -Og
#
# seed -1109108020 -1241536692  -596958105 -1657433852  -954768037  1150552445  -926316741  1914947113 -1641970781    28697969 -1507576992  1134342706
#
#      Author: C. J. Pickard (cjp20@cam.ac.uk)
#                Space group: Pna21
#

%BLOCK LATTICE_ABC
      4.23227      8.55840      8.83453
     90.00000     90.00000     90.00000
%ENDBLOCK LATTICE_ABC

%BLOCK POSITIONS_FRAC
  Li   0.2505988   0.4590830   0.1885926 SPIN=   0.00000
  Li  -0.2505988  -0.0409170  -0.1885926 SPIN=   0.00000
  Li   0.2494012   0.4590830  -0.3114074 SPIN=   0.00000
  Li  -0.2494012  -0.0409170   0.3114074 SPIN=   0.00000
   O  -0.0631795   0.0052851  -0.4051719 SPIN=   0.00000
   O  -0.0892651   0.2810809  -0.2829233 SPIN=   0.00000
   O   0.3581669   0.1089922  -0.2163684 SPIN=   0.00000
   O   0.3282756   0.2248819  -0.4762698 SPIN=   0.00000
   P   0.1253258   0.1479092  -0.3499244 SPIN=   0.00000
   O   0.0631795  -0.4947149   0.4051719 SPIN=   0.00000
   O   0.0892651  -0.2189191   0.2829233 SPIN=   0.00000
   O  -0.3581669  -0.3910078   0.2163684 SPIN=   0.00000
   O  -0.3282756  -0.2751181   0.4762698 SPIN=   0.00000
   P  -0.1253258  -0.3520908   0.3499244 SPIN=   0.00000
   O   0.5631795   0.0052851   0.0948281 SPIN=   0.00000
   O   0.5892651   0.2810809   0.2170767 SPIN=   0.00000
   O   0.1418331   0.1089922   0.2836316 SPIN=   0.00000
   O   0.1717244   0.2248819   0.0237302 SPIN=   0.00000
   P   0.3746742   0.1479092   0.1500756 SPIN=   0.00000
   O  -0.5631795  -0.4947149  -0.0948281 SPIN=   0.00000
   O  -0.5892651  -0.2189191  -0.2170767 SPIN=   0.00000
   O  -0.1418331  -0.3910078  -0.2836316 SPIN=   0.00000
   O  -0.1717244  -0.2751181  -0.0237302 SPIN=   0.00000
   P  -0.3746742  -0.3520908  -0.1500756 SPIN=   0.00000
  Fe   0.2505608  -0.1810001  -0.4387304 SPIN=   4.00000
  Fe  -0.2505608   0.3189999   0.4387304 SPIN=   4.00000
  Fe   0.2494392  -0.1810001   0.0612696 SPIN=   4.00000
  Fe  -0.2494392   0.3189999  -0.0612696 SPIN=   4.00000
%ENDBLOCK POSITIONS_FRAC

# Note: total spin =  16.00

KPOINTS_MP_SPACING 0.07

%BLOCK SPECIES_POT
QC5
%ENDBLOCK SPECIES_POT

%BLOCK HUBBARD_U
Fe d:4.0
%ENDBLOCK HUBBARD_U

SNAP_TO_SYMMETRY
SYMMETRY_GENERATE

