#              Generated by Buildcell
#
# at 10:56:17 (GMT+0.0) 24th November 2020
# in /scratch/scratch/uccabz1/launch_tmp
# on node-k10b-024
# by uccabz1
#
# compiler GCC version 4.9.2
# options -cpp -iprefix /scratch/UCL/applications/gcc/4.9.2/bin/../lib/gcc/x86_64-unknown-linux-gnu/4.9.2/ -mtune=corei7 -march=x86-64 -g -O2
#
# seed   826793942 -1588056216   125693962  1628419774  -191406642 -1681324436 -2123704618 -1504390021  1927245589  1038434989  -945689354 -2028159623
#
#      Author: C. J. Pickard (cjp20@cam.ac.uk)
#                Space group: P21
#

%BLOCK LATTICE_ABC
      3.90029      4.98324      8.44072
     90.00000     90.00000    102.76475
%ENDBLOCK LATTICE_ABC

%BLOCK POSITIONS_FRAC
  Li  -0.0456774  -0.1646391   0.2283517 SPIN=   0.00000
  Li   0.0456774   0.1646391  -0.2716483 SPIN=   0.00000
   O  -0.7597547  -0.3865809  -0.5056094 SPIN=   0.00000
   O  -0.5247488  -0.0275036  -0.2861061 SPIN=   0.00000
   O  -0.2494898  -0.4260684  -0.3154101 SPIN=   0.00000
   O  -0.1480740  -0.0576638  -0.5228543 SPIN=   0.00000
   P  -0.4353645  -0.2311183  -0.4140805 SPIN=   0.00000
   O   0.7597547   0.3865809  -0.0056094 SPIN=   0.00000
   O   0.5247488   0.0275036   0.2138939 SPIN=   0.00000
   O   0.2494898   0.4260684   0.1845899 SPIN=   0.00000
   O   0.1480740   0.0576638  -0.0228543 SPIN=   0.00000
   P   0.4353645   0.2311183   0.0859195 SPIN=   0.00000
  Fe   0.4238346  -0.2712282  -0.0808656 SPIN=   4.00000
  Fe  -0.4238346   0.2712282   0.4191344 SPIN=   4.00000
%ENDBLOCK POSITIONS_FRAC

# Note: total spin =   8.00

KPOINTS_MP_SPACING 0.07

%BLOCK SPECIES_POT
QC5
%ENDBLOCK SPECIES_POT

%BLOCK HUBBARD_U
Fe d:4.0
%ENDBLOCK HUBBARD_U

SNAP_TO_SYMMETRY
SYMMETRY_GENERATE

