#              Generated by Buildcell
#
# at 14:03:05 (GMT+0.0) 24th November 2020
# in /lustre/scratch/uccabz1/launch_tmp
# on node-c12m-033
# by uccabz1
#
# compiler GCC version 4.9.2
# options -cpp -iprefix /lustre/shared/ucl/apps/gcc/4.9.2/bin/../lib/gcc/x86_64-unknown-linux-gnu/4.9.2/ -mtune=corei7 -march=x86-64 -g -Og
#
# seed  -300891309   182297899    27743523  -489749966   129873309  2007527905   707797341  1575121481  1294761501   516839885 -2091949373 -1194548334
#
#      Author: C. J. Pickard (cjp20@cam.ac.uk)
#                Space group: Cm
#

%BLOCK LATTICE_ABC
      5.71302      5.72674      6.25963
    115.03685    114.96236     94.30223
%ENDBLOCK LATTICE_ABC

%BLOCK POSITIONS_FRAC
  Li   0.4944786   0.1644473   0.5000154 SPIN=   0.00000
  Li  -0.0055368  -0.3355682  -0.5000154 SPIN=   0.00000
   O  -0.5767201  -0.6506466  -0.7423687 SPIN=   0.00000
   O  -0.7097738  -0.2100367  -0.5790921 SPIN=   0.00000
   O  -0.6216577  -0.4393564  -0.3088320 SPIN=   0.00000
   O  -0.2347003  -0.2014708  -0.3078049 SPIN=   0.00000
   O   0.1656486   0.0917221   0.7423687 SPIN=   0.00000
   O  -0.1306816   0.3690555   0.5790921 SPIN=   0.00000
   O  -0.3128257  -0.1305244   0.3088320 SPIN=   0.00000
   O   0.0731046   0.1063341   0.3078049 SPIN=   0.00000
   P   0.1160961   0.0404767   0.0000000 SPIN=   0.00000
   P  -0.3807894  -0.4564115  -0.0000000 SPIN=   0.00000
  Fe  -0.3828997   0.0425151   0.0000000 SPIN=   4.91985
  Fe  -0.8802477  -0.4601212  -0.0000000 SPIN=   3.08015
%ENDBLOCK POSITIONS_FRAC

# Note: total spin =   8.00

KPOINTS_MP_SPACING 0.07

%BLOCK SPECIES_POT
QC5
%ENDBLOCK SPECIES_POT

%BLOCK HUBBARD_U
Fe d:4.0
%ENDBLOCK HUBBARD_U

SNAP_TO_SYMMETRY
SYMMETRY_GENERATE

