#              Generated by Buildcell
#
# at 13:11:51 (GMT+0.0) 24th November 2020
# in /scratch/scratch/uccabz1/launch_tmp
# on node-a14b-010
# by uccabz1
#
# compiler GCC version 4.9.2
# options -cpp -iprefix /scratch/UCL/applications/gcc/4.9.2/bin/../lib/gcc/x86_64-unknown-linux-gnu/4.9.2/ -mtune=corei7 -march=x86-64 -g -O2
#
# seed   861261375   745292361  -591167946 -1838921936  1671613400 -1400923577   104726069   559762451 -1422110715  1427376084 -1847159893   841338976
#
#      Author: C. J. Pickard (cjp20@cam.ac.uk)
#                Space group: Cmc21
#

%BLOCK LATTICE_ABC
      3.94946      3.94946     10.49402
     90.00000     90.00000    102.18612
%ENDBLOCK LATTICE_ABC

%BLOCK POSITIONS_FRAC
  Li  -0.3286405   0.3286405   0.0118908 SPIN=   0.00000
  Li   0.3286405  -0.3286405  -0.4881092 SPIN=   0.00000
   O  -0.1645013  -0.3376133  -0.4091454 SPIN=   0.00000
   O  -0.1625110  -0.3393291  -0.1615718 SPIN=   0.00000
   O   0.1645013   0.3376133   0.0908546 SPIN=   0.00000
   O   0.1625110   0.3393291   0.3384282 SPIN=   0.00000
   O  -0.3376133  -0.1645013   0.0908546 SPIN=   0.00000
   O  -0.3393291  -0.1625110   0.3384282 SPIN=   0.00000
   O   0.3376133   0.1645013  -0.4091454 SPIN=   0.00000
   O   0.3393291   0.1625110  -0.1615718 SPIN=   0.00000
   P   0.3380854  -0.3380854  -0.1542461 SPIN=   0.00000
   P  -0.3380854   0.3380854   0.3457539 SPIN=   0.00000
  Fe  -0.0886857   0.0886857  -0.2849547 SPIN=   4.00000
  Fe   0.0886857  -0.0886857   0.2150453 SPIN=   4.00000
%ENDBLOCK POSITIONS_FRAC

# Note: total spin =   8.00

KPOINTS_MP_SPACING 0.07

%BLOCK SPECIES_POT
QC5
%ENDBLOCK SPECIES_POT

%BLOCK HUBBARD_U
Fe d:4.0
%ENDBLOCK HUBBARD_U

SNAP_TO_SYMMETRY
SYMMETRY_GENERATE

