#              Generated by Buildcell
#
# at 12:09:04 (GMT+0.0) 24th November 2020
# in /lustre/scratch/uccabz1/launch_tmp
# on node-c12h-026
# by uccabz1
#
# compiler GCC version 4.9.2
# options -cpp -iprefix /lustre/shared/ucl/apps/gcc/4.9.2/bin/../lib/gcc/x86_64-unknown-linux-gnu/4.9.2/ -mtune=corei7 -march=x86-64 -g -Og
#
# seed  -338316414  -599064395  2007053380   541077093 -2084263387 -1413135807   231503905  -430581294 -2129370742  1631525531  -164444584  -459340658
#
#      Author: C. J. Pickard (cjp20@cam.ac.uk)
#                Space group: P21
#

%BLOCK LATTICE_ABC
      4.24559      5.04326      7.57178
     99.28496     90.00000     90.00000
%ENDBLOCK LATTICE_ABC

%BLOCK POSITIONS_FRAC
  Li  -0.2454711   0.2817396  -0.0240787 SPIN=   0.00000
  Li   0.2545289  -0.2817396   0.0240787 SPIN=   0.00000
   O   0.2392547   0.2520110  -0.0851853 SPIN=   0.00000
   O   0.6862672   0.1404819  -0.3197401 SPIN=   0.00000
   O   0.2051276  -0.1384233  -0.3540837 SPIN=   0.00000
   O   0.1814556   0.3367122  -0.4110689 SPIN=   0.00000
   P   0.3215700   0.1554804  -0.2828790 SPIN=   0.00000
   O  -0.2607453  -0.2520110   0.0851853 SPIN=   0.00000
   O   0.1862672  -0.1404819   0.3197401 SPIN=   0.00000
   O  -0.2948724   0.1384233   0.3540837 SPIN=   0.00000
   O  -0.3185444  -0.3367122   0.4110689 SPIN=   0.00000
   P  -0.1784300  -0.1554804   0.2828790 SPIN=   0.00000
  Fe  -0.2458195  -0.2865535  -0.3112755 SPIN=   4.00000
  Fe   0.2541805   0.2865535   0.3112755 SPIN=   4.00000
%ENDBLOCK POSITIONS_FRAC

# Note: total spin =   8.00

KPOINTS_MP_SPACING 0.07

%BLOCK SPECIES_POT
QC5
%ENDBLOCK SPECIES_POT

%BLOCK HUBBARD_U
Fe d:4.0
%ENDBLOCK HUBBARD_U

SNAP_TO_SYMMETRY
SYMMETRY_GENERATE

