#              Generated by Buildcell
#
# at 12:27:14 (GMT+0.0) 24th November 2020
# in /lustre/scratch/uccabz1/launch_tmp
# on node-c12a-034
# by uccabz1
#
# compiler GCC version 4.9.2
# options -cpp -iprefix /lustre/shared/ucl/apps/gcc/4.9.2/bin/../lib/gcc/x86_64-unknown-linux-gnu/4.9.2/ -mtune=corei7 -march=x86-64 -g -Og
#
# seed   237060513  1582318338  1557711818 -1972579359  -552202306  -204615896 -1674681870  -541781615  -707693607  1350171625  1852192120  -113754499
#
#      Author: C. J. Pickard (cjp20@cam.ac.uk)
#                Space group: P2
#

%BLOCK LATTICE_ABC
      3.90438      4.90241      8.48660
     90.00000     99.94564     90.00000
%ENDBLOCK LATTICE_ABC

%BLOCK POSITIONS_FRAC
  Li   0.5000000  -0.1618040   0.0000000 SPIN=   0.00000
  Li  -0.5000000  -0.2047165  -0.5000000 SPIN=   0.00000
   O   0.3274442   0.0529941  -0.2227421 SPIN=   0.00000
   O   0.2789111  -0.4606120  -0.2987807 SPIN=   0.00000
   O  -0.1722300  -0.2594924  -0.1631181 SPIN=   0.00000
   P   0.0821017  -0.1851516  -0.2815689 SPIN=   0.00000
   O  -0.3274442   0.0529941   0.2227421 SPIN=   0.00000
   O  -0.2789111  -0.4606120   0.2987807 SPIN=   0.00000
   O   0.1722300  -0.2594924   0.1631181 SPIN=   0.00000
   P  -0.0821017  -0.1851516   0.2815689 SPIN=   0.00000
   O  -0.5000000   0.3946738   0.0000000 SPIN=   0.00000
   O   0.0000000  -0.0361400  -0.5000000 SPIN=   0.00000
  Fe   0.2544334   0.3169339   0.2292220 SPIN=   4.00000
  Fe  -0.2544334   0.3169339  -0.2292220 SPIN=   4.00000
%ENDBLOCK POSITIONS_FRAC

# Note: total spin =   8.00

KPOINTS_MP_SPACING 0.07

%BLOCK SPECIES_POT
QC5
%ENDBLOCK SPECIES_POT

%BLOCK HUBBARD_U
Fe d:4.0
%ENDBLOCK HUBBARD_U

SNAP_TO_SYMMETRY
SYMMETRY_GENERATE

