#              Generated by Buildcell
#
# at 13:19:48 (GMT+0.0) 24th November 2020
# in /scratch/scratch/uccabz1/launch_tmp
# on node-k10i-025
# by uccabz1
#
# compiler GCC version 4.9.2
# options -cpp -iprefix /scratch/UCL/applications/gcc/4.9.2/bin/../lib/gcc/x86_64-unknown-linux-gnu/4.9.2/ -mtune=corei7 -march=x86-64 -g -O2
#
# seed -1331594720 -1801902769  -248397006 -1867283115  1555218562  -251933621  2079350660 -1588921120  -346028139  2012652846  -422982783   254956386
#
#      Author: C. J. Pickard (cjp20@cam.ac.uk)
#                Space group: Cc
#

%BLOCK LATTICE_ABC
      5.44778      5.71266      5.92749
     98.20343     90.00000    118.47770
%ENDBLOCK LATTICE_ABC

%BLOCK POSITIONS_FRAC
  Li   0.1283961  -0.2193809   0.4976172 SPIN=   0.00000
  Li  -0.3477770  -0.2193809  -0.0023828 SPIN=   0.00000
   O   0.2993233   0.6198795  -0.2721934 SPIN=   0.00000
   O   0.2036979   0.2223485  -0.5965000 SPIN=   0.00000
   O   0.6892523   0.5937026  -0.5091134 SPIN=   0.00000
   O   0.4678341   0.2741705  -0.2306365 SPIN=   0.00000
   P   0.4094894   0.4359574  -0.3931698 SPIN=   0.00000
   O   0.3205562   0.6198795   0.2278066 SPIN=   0.00000
   O   0.0186506   0.2223485  -0.0965000 SPIN=   0.00000
   O  -0.0955497   0.5937026  -0.0091134 SPIN=   0.00000
   O  -0.1936636   0.2741705   0.2693635 SPIN=   0.00000
   P   0.0264680   0.4359574   0.1068302 SPIN=   0.00000
  Fe  -0.1895125   0.1490364  -0.4161067 SPIN=   4.00000
  Fe   0.3385489   0.1490364   0.0838933 SPIN=   4.00000
%ENDBLOCK POSITIONS_FRAC

# Note: total spin =   8.00

KPOINTS_MP_SPACING 0.07

%BLOCK SPECIES_POT
QC5
%ENDBLOCK SPECIES_POT

%BLOCK HUBBARD_U
Fe d:4.0
%ENDBLOCK HUBBARD_U

SNAP_TO_SYMMETRY
SYMMETRY_GENERATE

