#              Generated by Buildcell
#
# at 10:15:06 (GMT+0.0) 24th November 2020
# in /lustre/scratch/uccabz1/launch_tmp
# on node-c12c-021
# by uccabz1
#
# compiler GCC version 4.9.2
# options -cpp -iprefix /lustre/shared/ucl/apps/gcc/4.9.2/bin/../lib/gcc/x86_64-unknown-linux-gnu/4.9.2/ -mtune=corei7 -march=x86-64 -g -Og
#
# seed   780061488  1863140020  -347681036  2024849256  -831079561  1048787658 -1734857002 -1963679497  -251023219  1304181020  2081374420  -367257772
#
#      Author: C. J. Pickard (cjp20@cam.ac.uk)
#                Space group: P-1
#

%BLOCK LATTICE_ABC
      4.29743      5.70464      6.85975
    106.75689     93.80063     93.91545
%ENDBLOCK LATTICE_ABC

%BLOCK POSITIONS_FRAC
  Li  -0.1559885  -0.3247519  -0.0958174 SPIN=   0.00000
  Li   0.1559885   0.3247519   0.0958174 SPIN=   0.00000
   O  -0.2346448   0.1890645  -0.4028081 SPIN=   0.00000
   O  -0.3724526   0.2223874  -0.0332510 SPIN=   0.00000
   O  -0.4387915  -0.1866130  -0.2900469 SPIN=   0.00000
   O   0.1012132   0.0149226  -0.1601589 SPIN=   0.00000
   P  -0.2321063   0.0662844  -0.2304918 SPIN=   0.00000
   O   0.2346448  -0.1890645   0.4028081 SPIN=   0.00000
   O   0.3724526  -0.2223874   0.0332510 SPIN=   0.00000
   O   0.4387915   0.1866130   0.2900469 SPIN=   0.00000
   O  -0.1012132  -0.0149226   0.1601589 SPIN=   0.00000
   P   0.2321063  -0.0662844   0.2304918 SPIN=   0.00000
  Fe   0.2742660   0.2906787  -0.3786822 SPIN=   4.00000
  Fe  -0.2742660  -0.2906787   0.3786822 SPIN=   4.00000
%ENDBLOCK POSITIONS_FRAC

# Note: total spin =   8.00

KPOINTS_MP_SPACING 0.07

%BLOCK SPECIES_POT
QC5
%ENDBLOCK SPECIES_POT

%BLOCK HUBBARD_U
Fe d:4.0
%ENDBLOCK HUBBARD_U

SNAP_TO_SYMMETRY
SYMMETRY_GENERATE

