#              Generated by Buildcell
#
# at 06:59:27 (GMT+0.0) 26th November 2020
# in /lustre/scratch/uccabz1/launch_tmp
# on node-c12d-021
# by uccabz1
#
# compiler GCC version 4.9.2
# options -cpp -iprefix /lustre/shared/ucl/apps/gcc/4.9.2/bin/../lib/gcc/x86_64-unknown-linux-gnu/4.9.2/ -mtune=corei7 -march=x86-64 -g -Og
#
# seed  2066481908 -1323567358   342210760   493409015 -1660083892 -1005848388   582149474   325005886  2041394896 -1683150613  -485008578  2024521724
#
#      Author: C. J. Pickard (cjp20@cam.ac.uk)
#                Space group: C2221
#

%BLOCK LATTICE_ABC
      6.32396      7.57670      7.57670
    118.18142     90.00000     90.00000
%ENDBLOCK LATTICE_ABC

%BLOCK POSITIONS_FRAC
  Li  -0.2446872  -0.7481673  -0.2519623 SPIN=   0.00000
  Li   0.2553128   0.7481673   0.2519623 SPIN=   0.00000
  Li  -0.2553128   0.7480377   0.2518327 SPIN=   0.00000
  Li   0.2446872  -0.7480377  -0.2518327 SPIN=   0.00000
   O   0.3316171   0.5172642   0.3219855 SPIN=   0.00000
   O   0.6689141   0.3164001   0.1435999 SPIN=   0.00000
   O   0.3224579   0.1887217  -0.0166344 SPIN=   0.00000
   O   0.4712860   0.4997960  -0.0062451 SPIN=   0.00000
   P   0.4426098   0.3892324   0.1205478 SPIN=   0.00000
   O  -0.1683829  -0.5172642  -0.3219855 SPIN=   0.00000
   O   0.1689141  -0.3164001  -0.1435999 SPIN=   0.00000
   O  -0.1775421  -0.1887217   0.0166344 SPIN=   0.00000
   O  -0.0287140  -0.4997960   0.0062451 SPIN=   0.00000
   P  -0.0573902  -0.3892324  -0.1205478 SPIN=   0.00000
   O   0.1683829   0.3219855   0.5172642 SPIN=   0.00000
   O  -0.1689141   0.1435999   0.3164001 SPIN=   0.00000
   O   0.1775421  -0.0166344   0.1887217 SPIN=   0.00000
   O   0.0287140  -0.0062451   0.4997960 SPIN=   0.00000
   P   0.0573902   0.1205478   0.3892324 SPIN=   0.00000
   O  -0.3316171  -0.3219855  -0.5172642 SPIN=   0.00000
   O  -0.6689141  -0.1435999  -0.3164001 SPIN=   0.00000
   O  -0.3224579   0.0166344  -0.1887217 SPIN=   0.00000
   O  -0.4712860   0.0062451  -0.4997960 SPIN=   0.00000
   P  -0.4426098  -0.1205478  -0.3892324 SPIN=   0.00000
  Fe   0.0000104   0.3358234   0.1641991 SPIN=   4.00000
  Fe  -0.4999896  -0.3358234  -0.1641991 SPIN=   4.00000
  Fe   0.4999896   0.1641991   0.3358234 SPIN=   4.00000
  Fe  -0.0000104  -0.1641991  -0.3358234 SPIN=   4.00000
%ENDBLOCK POSITIONS_FRAC

# Note: total spin =  16.00

KPOINTS_MP_SPACING 0.07

%BLOCK SPECIES_POT
QC5
%ENDBLOCK SPECIES_POT

%BLOCK HUBBARD_U
Fe d:4.0
%ENDBLOCK HUBBARD_U

SNAP_TO_SYMMETRY
SYMMETRY_GENERATE

