#              Generated by Buildcell
#
# at 01:53:17 (GMT+0.0) 27th November 2020
# in /lustre/scratch/uccabz1/launch_tmp
# on node-c12f-025
# by uccabz1
#
# compiler GCC version 4.9.2
# options -cpp -iprefix /lustre/shared/ucl/apps/gcc/4.9.2/bin/../lib/gcc/x86_64-unknown-linux-gnu/4.9.2/ -mtune=corei7 -march=x86-64 -g -Og
#
# seed  -429318057 -1004762518  -930323220   -31193316  1432024939 -1914696777   327784755   377447317   923138878 -1331210693  1003580037 -1748299355
#
#      Author: C. J. Pickard (cjp20@cam.ac.uk)
#                Space group: Pc
#

%BLOCK LATTICE_ABC
      5.43591      5.68672     10.64100
     90.00000     90.00000    103.38870
%ENDBLOCK LATTICE_ABC

%BLOCK POSITIONS_FRAC
  Li   0.0672380  -0.2443040   0.0646078 SPIN=   0.00000
  Li  -0.4327620  -0.2443040  -0.0646078 SPIN=   0.00000
  Li  -0.0908303   0.1747957   0.4410144 SPIN=   0.00000
  Li   0.4091697   0.1747957  -0.4410144 SPIN=   0.00000
   O   0.0662330  -0.2918123  -0.1788352 SPIN=   0.00000
   O   0.0502836  -0.0548495  -0.3862750 SPIN=   0.00000
   O   0.4677485  -0.0492511  -0.2930765 SPIN=   0.00000
   O   0.2164961  -0.4303472  -0.3907639 SPIN=   0.00000
   P   0.1932501  -0.2137449  -0.3060613 SPIN=   0.00000
   O  -0.4337670  -0.2918123   0.1788352 SPIN=   0.00000
   O  -0.4497164  -0.0548495   0.3862750 SPIN=   0.00000
   O  -0.0322515  -0.0492511   0.2930765 SPIN=   0.00000
   O  -0.2835039  -0.4303472   0.3907639 SPIN=   0.00000
   P  -0.3067499  -0.2137449   0.3060613 SPIN=   0.00000
   O  -0.3956741   0.4529326  -0.2335089 SPIN=   0.00000
   O  -0.3997651   0.4196610   0.0100255 SPIN=   0.00000
   O  -0.7080868   0.1161908  -0.1108015 SPIN=   0.00000
   O  -0.2489860   0.1104794  -0.1174950 SPIN=   0.00000
   P  -0.4336354   0.2823604  -0.1194181 SPIN=   0.00000
   O   0.1043259   0.4529326   0.2335089 SPIN=   0.00000
   O   0.1002349   0.4196610  -0.0100255 SPIN=   0.00000
   O  -0.2080868   0.1161908   0.1108015 SPIN=   0.00000
   O   0.2510140   0.1104794   0.1174950 SPIN=   0.00000
   P   0.0663646   0.2823604   0.1194181 SPIN=   0.00000
  Fe   0.0714328   0.3117781  -0.2072371 SPIN=   4.02585
  Fe  -0.4285672   0.3117781   0.2072371 SPIN=   4.02585
  Fe   0.1814794  -0.2735058   0.3690500 SPIN=   3.97415
  Fe  -0.3185206  -0.2735058  -0.3690500 SPIN=   3.97415
%ENDBLOCK POSITIONS_FRAC

# Note: total spin =  16.00

KPOINTS_MP_SPACING 0.07

%BLOCK SPECIES_POT
QC5
%ENDBLOCK SPECIES_POT

%BLOCK HUBBARD_U
Fe d:4.0
%ENDBLOCK HUBBARD_U

SNAP_TO_SYMMETRY
SYMMETRY_GENERATE

