#              Generated by Buildcell
#
# at 14:24:02 (GMT+0.0) 26th November 2020
# in /lustre/scratch/uccabz1/launch_tmp
# on node-c12e-026
# by uccabz1
#
# compiler GCC version 4.9.2
# options -cpp -iprefix /lustre/shared/ucl/apps/gcc/4.9.2/bin/../lib/gcc/x86_64-unknown-linux-gnu/4.9.2/ -mtune=corei7 -march=x86-64 -g -Og
#
# seed  1590470701  -853725723  2011678215  2089456784  1359679523 -1980612837   -13054880   385280935  2088905138  -948613307 -1778459066 -1576264051
#
#      Author: C. J. Pickard (cjp20@cam.ac.uk)
#                Space group: Pc
#

%BLOCK LATTICE_ABC
      4.26558      7.08453     10.85024
    102.59491     90.00000     90.00000
%ENDBLOCK LATTICE_ABC

%BLOCK POSITIONS_FRAC
  Li   0.2500459   0.4812288  -0.3715706 SPIN=   0.00000
  Li  -0.2500459   0.4812288   0.1284294 SPIN=   0.00000
  Li  -0.1685254  -0.0461835   0.1291225 SPIN=   0.00000
  Li   0.1685254  -0.0461835  -0.3708775 SPIN=   0.00000
   O   0.1966075   0.2124256   0.3436681 SPIN=   0.00000
   O   0.2670831   0.4712424   0.2091479 SPIN=   0.00000
   O   0.7069071   0.2487585   0.2201834 SPIN=   0.00000
   O   0.2219366   0.1223575   0.1000295 SPIN=   0.00000
   P   0.3385763   0.2592982   0.2235395 SPIN=   0.00000
   O  -0.1966075   0.2124256  -0.1563319 SPIN=   0.00000
   O  -0.2670831   0.4712424  -0.2908521 SPIN=   0.00000
   O  -0.7069071   0.2487585  -0.2798166 SPIN=   0.00000
   O  -0.2219366   0.1223575  -0.3999705 SPIN=   0.00000
   P  -0.3385763   0.2592982  -0.2764605 SPIN=   0.00000
   O   0.4052647  -0.4961270  -0.0746914 SPIN=   0.00000
   O   0.2730123  -0.1433951  -0.0885855 SPIN=   0.00000
   O  -0.1125991  -0.3232248   0.0111445 SPIN=   0.00000
   O   0.3921176  -0.2156498   0.1224000 SPIN=   0.00000
   P   0.2500794  -0.3043978  -0.0094821 SPIN=   0.00000
   O  -0.4052647  -0.4961270   0.4253086 SPIN=   0.00000
   O  -0.2730123  -0.1433951   0.4114145 SPIN=   0.00000
   O   0.1125991  -0.3232248   0.5111445 SPIN=   0.00000
   O  -0.3921176  -0.2156498   0.6224000 SPIN=   0.00000
   P  -0.2500794  -0.3043978   0.4905179 SPIN=   0.00000
  Fe   0.2499632   0.2229641  -0.0736449 SPIN=   4.78983
  Fe  -0.2499632   0.2229641   0.4263551 SPIN=   4.78983
  Fe  -0.2499471  -0.2495974  -0.1751704 SPIN=   3.21017
  Fe   0.2499471  -0.2495974   0.3248296 SPIN=   3.21017
%ENDBLOCK POSITIONS_FRAC

# Note: total spin =  16.00

KPOINTS_MP_SPACING 0.07

%BLOCK SPECIES_POT
QC5
%ENDBLOCK SPECIES_POT

%BLOCK HUBBARD_U
Fe d:4.0
%ENDBLOCK HUBBARD_U

SNAP_TO_SYMMETRY
SYMMETRY_GENERATE

