#              Generated by Buildcell
#
# at 11:47:58 (GMT+0.0) 24th November 2020
# in /lustre/scratch/uccabz1/launch_tmp
# on node-c12g-032
# by uccabz1
#
# compiler GCC version 4.9.2
# options -cpp -iprefix /lustre/shared/ucl/apps/gcc/4.9.2/bin/../lib/gcc/x86_64-unknown-linux-gnu/4.9.2/ -mtune=corei7 -march=x86-64 -g -Og
#
# seed  -278782499  -331055853  1149245529 -1629911535   -55010295 -1947385449  1927847581  -124140256  -327728453 -1297571121   321135654  -197167395
#
#      Author: C. J. Pickard (cjp20@cam.ac.uk)
#                Space group: P21
#

%BLOCK LATTICE_ABC
      4.60405      5.35602      6.72613
     90.00000     90.00000    105.27853
%ENDBLOCK LATTICE_ABC

%BLOCK POSITIONS_FRAC
  Li  -0.4323788   0.2215395   0.2230875 SPIN=   0.00000
  Li   0.4323788  -0.2215395  -0.2769125 SPIN=   0.00000
   O  -0.6861543   0.3108536  -0.4886968 SPIN=   0.00000
   O  -0.4727564   0.2460100  -0.1405262 SPIN=   0.00000
   O  -0.2312695   0.1159483  -0.4368023 SPIN=   0.00000
   O  -0.1685160   0.5865928  -0.3674096 SPIN=   0.00000
   P  -0.4028503   0.3178452  -0.3654054 SPIN=   0.00000
   O   0.6861543  -0.3108536   0.0113032 SPIN=   0.00000
   O   0.4727564  -0.2460100   0.3594738 SPIN=   0.00000
   O   0.2312695  -0.1159483   0.0631977 SPIN=   0.00000
   O   0.1685160  -0.5865928   0.1325904 SPIN=   0.00000
   P   0.4028503  -0.3178452   0.1345946 SPIN=   0.00000
  Fe   0.0593443   0.1945587  -0.1288941 SPIN=   4.00000
  Fe  -0.0593443  -0.1945587   0.3711059 SPIN=   4.00000
%ENDBLOCK POSITIONS_FRAC

# Note: total spin =   8.00

KPOINTS_MP_SPACING 0.07

%BLOCK SPECIES_POT
QC5
%ENDBLOCK SPECIES_POT

%BLOCK HUBBARD_U
Fe d:4.0
%ENDBLOCK HUBBARD_U

SNAP_TO_SYMMETRY
SYMMETRY_GENERATE

