#              Generated by Buildcell
#
# at 06:20:08 (GMT+0.0) 24th November 2020
# in /lustre/scratch/uccabz1/launch_tmp
# on node-c12n-028
# by uccabz1
#
# compiler GCC version 4.9.2
# options -cpp -iprefix /lustre/shared/ucl/apps/gcc/4.9.2/bin/../lib/gcc/x86_64-unknown-linux-gnu/4.9.2/ -mtune=corei7 -march=x86-64 -g -Og
#
# seed   848422868  -937247335 -1184353649  -580830412    27807022 -1511465069 -1032767807   631367150  1704032469  1154948411  -729376796   681720237
#
#      Author: C. J. Pickard (cjp20@cam.ac.uk)
#                Space group: C2
#

%BLOCK LATTICE_ABC
      4.84590      4.89044      8.15184
     78.97344     72.70884     60.30081
%ENDBLOCK LATTICE_ABC

%BLOCK POSITIONS_FRAC
  Li  -0.0327674   0.3231864   0.0663117 SPIN=   0.00000
  Li   0.3567307  -0.3231864  -0.0663117 SPIN=   0.00000
   O   0.5008835  -0.6381192   0.1810211 SPIN=   0.00000
   O  -0.0425787  -0.6408306   0.3545735 SPIN=   0.00000
   O   0.0821779  -0.2446568   0.4171100 SPIN=   0.00000
   O  -0.0623165  -0.1958343   0.1386509 SPIN=   0.00000
   P   0.1377000  -0.4381872   0.2663665 SPIN=   0.00000
   O   0.0437854   0.6381192  -0.1810211 SPIN=   0.00000
   O  -0.3288357   0.6408306  -0.3545735 SPIN=   0.00000
   O   0.2546311   0.2446568  -0.4171100 SPIN=   0.00000
   O  -0.1194998   0.1958343  -0.1386509 SPIN=   0.00000
   P  -0.0341208   0.4381872  -0.2663665 SPIN=   0.00000
  Fe   0.6628263   0.1076242  -0.3209992 SPIN=   4.00000
  Fe  -0.5505487  -0.1076242   0.3209992 SPIN=   4.00000
%ENDBLOCK POSITIONS_FRAC

# Note: total spin =   8.00

KPOINTS_MP_SPACING 0.07

%BLOCK SPECIES_POT
QC5
%ENDBLOCK SPECIES_POT

%BLOCK HUBBARD_U
Fe d:4.0
%ENDBLOCK HUBBARD_U

SNAP_TO_SYMMETRY
SYMMETRY_GENERATE

