#              Generated by Buildcell
#
# at 07:10:38 (GMT+0.0) 24th November 2020
# in /lustre/scratch/uccabz1/launch_tmp
# on node-c12e-031
# by uccabz1
#
# compiler GCC version 4.9.2
# options -cpp -iprefix /lustre/shared/ucl/apps/gcc/4.9.2/bin/../lib/gcc/x86_64-unknown-linux-gnu/4.9.2/ -mtune=corei7 -march=x86-64 -g -Og
#
# seed  1005304623  1454019118  1335683541  1684926267  -428571631  2109403869  1451650405  1878275796   252410616   437335310  -196589502   255407014
#
#      Author: C. J. Pickard (cjp20@cam.ac.uk)
#                Space group: Pm
#

%BLOCK LATTICE_ABC
      3.87780      3.90179     10.80699
     90.00000     90.00000    101.89936
%ENDBLOCK LATTICE_ABC

%BLOCK POSITIONS_FRAC
  Li   0.2492553   0.2400869  -0.0000000 SPIN=   0.00000
  Li   0.0307502  -0.4035843   0.5000000 SPIN=   0.00000
   O  -0.3649663  -0.5765269   0.1386412 SPIN=   0.00000
   O   0.0501022   0.0303175   0.1712969 SPIN=   0.00000
   O   0.1184183  -0.4570736   0.3087449 SPIN=   0.00000
   P   0.0080231  -0.3793269   0.1732112 SPIN=   0.00000
   O  -0.3649663  -0.5765269  -0.1386412 SPIN=   0.00000
   O   0.0501022   0.0303175  -0.1712969 SPIN=   0.00000
   O   0.1184183  -0.4570736  -0.3087449 SPIN=   0.00000
   P   0.0080231  -0.3793269  -0.1732112 SPIN=   0.00000
   O   0.4596227   0.3380758  -0.5000000 SPIN=   0.00000
   O  -0.3777455  -0.0804000   0.0000000 SPIN=   0.00000
  Fe   0.4478135   0.1775642   0.3040939 SPIN=   4.00000
  Fe   0.4478135   0.1775642  -0.3040939 SPIN=   4.00000
%ENDBLOCK POSITIONS_FRAC

# Note: total spin =   8.00

KPOINTS_MP_SPACING 0.07

%BLOCK SPECIES_POT
QC5
%ENDBLOCK SPECIES_POT

%BLOCK HUBBARD_U
Fe d:4.0
%ENDBLOCK HUBBARD_U

SNAP_TO_SYMMETRY
SYMMETRY_GENERATE

