#              Generated by Buildcell
#
# at 13:21:42 (GMT+0.0) 24th November 2020
# in /lustre/scratch/uccabz1/launch_tmp
# on node-c12a-027
# by uccabz1
#
# compiler GCC version 4.9.2
# options -cpp -iprefix /lustre/shared/ucl/apps/gcc/4.9.2/bin/../lib/gcc/x86_64-unknown-linux-gnu/4.9.2/ -mtune=corei7 -march=x86-64 -g -Og
#
# seed  -978018241  1481249568   -71502926  1682823617  1927297941  1633722194  1867317642   973825950 -1751908706  1382310698   435305054 -1090575139
#
#      Author: C. J. Pickard (cjp20@cam.ac.uk)
#                Space group: P21
#

%BLOCK LATTICE_ABC
      3.91052      5.43452      7.62969
     90.00000     99.32864     90.00000
%ENDBLOCK LATTICE_ABC

%BLOCK POSITIONS_FRAC
  Li   0.3241041  -0.4980157  -0.0128077 SPIN=   0.00000
  Li  -0.3241041   0.0019843   0.0128077 SPIN=   0.00000
   O  -0.3514063  -0.1108752  -0.3951530 SPIN=   0.00000
   O   0.1665498  -0.4160518  -0.3432074 SPIN=   0.00000
   O   0.2336265  -0.0119127  -0.1934569 SPIN=   0.00000
   O  -0.1603049  -0.3275429  -0.0938867 SPIN=   0.00000
   P  -0.0466724  -0.2122759  -0.2618944 SPIN=   0.00000
   O   0.3514063   0.3891248   0.3951530 SPIN=   0.00000
   O  -0.1665498   0.0839482   0.3432074 SPIN=   0.00000
   O  -0.2336265   0.4880873   0.1934569 SPIN=   0.00000
   O   0.1603049   0.1724571   0.0938867 SPIN=   0.00000
   P   0.0466724   0.2877241   0.2618944 SPIN=   0.00000
  Fe   0.2197972  -0.2122660   0.3579727 SPIN=   4.00000
  Fe  -0.2197972   0.2877340  -0.3579727 SPIN=   4.00000
%ENDBLOCK POSITIONS_FRAC

# Note: total spin =   8.00

KPOINTS_MP_SPACING 0.07

%BLOCK SPECIES_POT
QC5
%ENDBLOCK SPECIES_POT

%BLOCK HUBBARD_U
Fe d:4.0
%ENDBLOCK HUBBARD_U

SNAP_TO_SYMMETRY
SYMMETRY_GENERATE

