#              Generated by Buildcell
#
# at 09:33:02 (GMT+0.0) 24th November 2020
# in /lustre/scratch/uccabz1/launch_tmp
# on node-c12c-030
# by uccabz1
#
# compiler GCC version 4.9.2
# options -cpp -iprefix /lustre/shared/ucl/apps/gcc/4.9.2/bin/../lib/gcc/x86_64-unknown-linux-gnu/4.9.2/ -mtune=corei7 -march=x86-64 -g -Og
#
# seed -1345449480   -11916318  1914471283  -433621882   916389537  2072241803  -877155461 -1486082573  -582593893   354135655   257063313  -410528985
#
#      Author: C. J. Pickard (cjp20@cam.ac.uk)
#                Space group: P-1
#

%BLOCK LATTICE_ABC
      4.13478      4.42337      9.15408
     76.47396     79.66455     89.76626
%ENDBLOCK LATTICE_ABC

%BLOCK POSITIONS_FRAC
  Li  -0.0000000  -0.0000000   0.5000000 SPIN=   0.00000
  Li  -0.5000000  -0.5000000   0.5000000 SPIN=   0.00000
   O  -0.4027293   0.4013088   0.2709603 SPIN=   0.00000
   O  -0.5584225  -0.0430996   0.1512744 SPIN=   0.00000
   O  -0.1181117  -0.1289113   0.3049382 SPIN=   0.00000
   P  -0.4461611   0.0479434   0.2911901 SPIN=   0.00000
   O   0.4027293  -0.4013088  -0.2709603 SPIN=   0.00000
   O   0.5584225   0.0430996  -0.1512744 SPIN=   0.00000
   O   0.1181117   0.1289113  -0.3049382 SPIN=   0.00000
   P   0.4461611  -0.0479434  -0.2911901 SPIN=   0.00000
   O  -0.0000000   0.0000000   0.0000000 SPIN=   0.00000
   O  -0.5000000  -0.5000000  -0.0000000 SPIN=   0.00000
  Fe   0.8670940   0.4377341  -0.1853901 SPIN=   4.00000
  Fe  -0.8670940  -0.4377341   0.1853901 SPIN=   4.00000
%ENDBLOCK POSITIONS_FRAC

# Note: total spin =   8.00

KPOINTS_MP_SPACING 0.07

%BLOCK SPECIES_POT
QC5
%ENDBLOCK SPECIES_POT

%BLOCK HUBBARD_U
Fe d:4.0
%ENDBLOCK HUBBARD_U

SNAP_TO_SYMMETRY
SYMMETRY_GENERATE

