#              Generated by Buildcell
#
# at 13:47:57 (GMT+0.0) 24th November 2020
# in /scratch/scratch/uccabz1/launch_tmp
# on node-a14b-010
# by uccabz1
#
# compiler GCC version 4.9.2
# options -cpp -iprefix /scratch/UCL/applications/gcc/4.9.2/bin/../lib/gcc/x86_64-unknown-linux-gnu/4.9.2/ -mtune=corei7 -march=x86-64 -g -O2
#
# seed   448303831  -760358518 -1565258351   887011921   299173880   100986417  1933006523 -1358126839  1031252363 -1199039575  -632015251 -1985963710
#
#      Author: C. J. Pickard (cjp20@cam.ac.uk)
#                Space group: P21
#

%BLOCK LATTICE_ABC
      3.88863      4.39674      9.35828
     90.00000     90.00000     90.23229
%ENDBLOCK LATTICE_ABC

%BLOCK POSITIONS_FRAC
  Li  -0.2844511   0.3335355   0.3870466 SPIN=   0.00000
  Li   0.2844511  -0.3335355  -0.1129534 SPIN=   0.00000
   O  -0.5698732   0.4053134  -0.4134847 SPIN=   0.00000
   O  -0.6815243   0.1273222  -0.1728340 SPIN=   0.00000
   O  -0.1818641  -0.0291464  -0.3178400 SPIN=   0.00000
   O  -0.1735287   0.4762325  -0.1944213 SPIN=   0.00000
   P  -0.4079595   0.2561996  -0.2810908 SPIN=   0.00000
   O   0.5698732  -0.4053134   0.0865153 SPIN=   0.00000
   O   0.6815243  -0.1273222   0.3271660 SPIN=   0.00000
   O   0.1818641   0.0291464   0.1821600 SPIN=   0.00000
   O   0.1735287  -0.4762325   0.3055787 SPIN=   0.00000
   P   0.4079595  -0.2561996   0.2189092 SPIN=   0.00000
  Fe   0.2155710  -0.1664508  -0.4541378 SPIN=   4.00000
  Fe  -0.2155710   0.1664508   0.0458622 SPIN=   4.00000
%ENDBLOCK POSITIONS_FRAC

# Note: total spin =   8.00

KPOINTS_MP_SPACING 0.07

%BLOCK SPECIES_POT
QC5
%ENDBLOCK SPECIES_POT

%BLOCK HUBBARD_U
Fe d:4.0
%ENDBLOCK HUBBARD_U

SNAP_TO_SYMMETRY
SYMMETRY_GENERATE

