#              Generated by Buildcell
#
# at 19:45:58 (GMT+0.0) 26th November 2020
# in /lustre/scratch/uccabz1/launch_tmp
# on node-c12p-029
# by uccabz1
#
# compiler GCC version 4.9.2
# options -cpp -iprefix /lustre/shared/ucl/apps/gcc/4.9.2/bin/../lib/gcc/x86_64-unknown-linux-gnu/4.9.2/ -mtune=corei7 -march=x86-64 -g -Og
#
# seed -1999512730 -1030398169  1510315177   -75829247 -1709776380  1651049555  -374800988  -312856815   466368752  -357044174 -1567961943   -19430654
#
#      Author: C. J. Pickard (cjp20@cam.ac.uk)
#                Space group: P2
#

%BLOCK LATTICE_ABC
      6.00620      6.10577      8.92260
    102.05311     90.00000     90.00000
%ENDBLOCK LATTICE_ABC

%BLOCK POSITIONS_FRAC
  Li   0.2662732   0.2526781  -0.4827542 SPIN=   0.00000
  Li   0.2662732  -0.2526781   0.4827542 SPIN=   0.00000
  Li  -0.2352627  -0.2417476  -0.4879924 SPIN=   0.00000
  Li  -0.2352627   0.2417476   0.4879924 SPIN=   0.00000
   O  -0.0375485   0.3888969   0.3451865 SPIN=   0.00000
   O  -0.4309364   0.5640425   0.3398175 SPIN=   0.00000
   O  -0.1664498   0.5948606   0.1332515 SPIN=   0.00000
   O  -0.3325392   0.2218041   0.1428038 SPIN=   0.00000
   P  -0.2320595   0.4369489   0.2447013 SPIN=   0.00000
   O  -0.0375485  -0.3888969  -0.3451865 SPIN=   0.00000
   O  -0.4309364  -0.5640425  -0.3398175 SPIN=   0.00000
   O  -0.1664498  -0.5948606  -0.1332515 SPIN=   0.00000
   O  -0.3325392  -0.2218041  -0.1428038 SPIN=   0.00000
   P  -0.2320595  -0.4369489  -0.2447013 SPIN=   0.00000
   O   0.0416105   0.0610570   0.1396140 SPIN=   0.00000
   O   0.3641445   0.0129868   0.3240887 SPIN=   0.00000
   O  -0.0000089  -0.1580651   0.3582957 SPIN=   0.00000
   O   0.2343147  -0.3198557   0.1298078 SPIN=   0.00000
   P   0.1545876  -0.0949252   0.2314394 SPIN=   0.00000
   O   0.0416105  -0.0610570  -0.1396140 SPIN=   0.00000
   O   0.3641445  -0.0129868  -0.3240887 SPIN=   0.00000
   O  -0.0000089   0.1580651  -0.3582957 SPIN=   0.00000
   O   0.2343147   0.3198557  -0.1298078 SPIN=   0.00000
   P   0.1545876   0.0949252  -0.2314394 SPIN=   0.00000
  Fe   0.2261062   0.3562828   0.1715440 SPIN=   5.24916
  Fe   0.2261062  -0.3562828  -0.1715440 SPIN=   5.24916
  Fe  -0.3763094   0.1317114  -0.1798948 SPIN=   2.75084
  Fe  -0.3763094  -0.1317114   0.1798948 SPIN=   2.75084
%ENDBLOCK POSITIONS_FRAC

# Note: total spin =  16.00

KPOINTS_MP_SPACING 0.07

%BLOCK SPECIES_POT
QC5
%ENDBLOCK SPECIES_POT

%BLOCK HUBBARD_U
Fe d:4.0
%ENDBLOCK HUBBARD_U

SNAP_TO_SYMMETRY
SYMMETRY_GENERATE

