#              Generated by Buildcell
#
# at 07:02:16 (GMT+0.0) 24th November 2020
# in /lustre/scratch/uccabz1/launch_tmp
# on node-c12d-032
# by uccabz1
#
# compiler GCC version 4.9.2
# options -cpp -iprefix /lustre/shared/ucl/apps/gcc/4.9.2/bin/../lib/gcc/x86_64-unknown-linux-gnu/4.9.2/ -mtune=corei7 -march=x86-64 -g -Og
#
# seed -1928379210 -1801358235   693626128  -743446062 -1686393373  -562113022 -1367521937  -961896652 -2128679795  1610256112  1197955470  1223091136
#
#      Author: C. J. Pickard (cjp20@cam.ac.uk)
#                Space group: Pc
#

%BLOCK LATTICE_ABC
      4.66090      5.64046      6.08609
     90.00000     90.00000     90.20471
%ENDBLOCK LATTICE_ABC

%BLOCK POSITIONS_FRAC
  Li  -0.1905347  -0.0425267   0.0893809 SPIN=   0.00000
  Li  -0.1905347   0.4574733  -0.0893809 SPIN=   0.00000
   O   0.5593609   0.1869547  -0.3623562 SPIN=   0.00000
   O   0.0432006   0.1478433  -0.2049844 SPIN=   0.00000
   O   0.3656415   0.4510429  -0.0460338 SPIN=   0.00000
   O   0.1729350   0.5066399  -0.4266053 SPIN=   0.00000
   P   0.2985518   0.3180357  -0.2674113 SPIN=   0.00000
   O   0.5593609  -0.3130453   0.3623562 SPIN=   0.00000
   O   0.0432006  -0.3521567   0.2049844 SPIN=   0.00000
   O   0.3656415  -0.0489571   0.0460338 SPIN=   0.00000
   O   0.1729350   0.0066399   0.4266053 SPIN=   0.00000
   P   0.2985518  -0.1819643   0.2674113 SPIN=   0.00000
  Fe   0.3099657  -0.1814030  -0.2703260 SPIN=   4.00000
  Fe   0.3099657   0.3185970   0.2703260 SPIN=   4.00000
%ENDBLOCK POSITIONS_FRAC

# Note: total spin =   8.00

KPOINTS_MP_SPACING 0.07

%BLOCK SPECIES_POT
QC5
%ENDBLOCK SPECIES_POT

%BLOCK HUBBARD_U
Fe d:4.0
%ENDBLOCK HUBBARD_U

SNAP_TO_SYMMETRY
SYMMETRY_GENERATE

