#              Generated by Buildcell
#
# at 20:06:24 (GMT+0.0) 26th November 2020
# in /scratch/scratch/mmm0366/launch_tmp
# on node-k98i-023
# by mmm0366
#
# compiler GCC version 4.9.2
# options -cpp -iprefix /scratch/UCL/applications/gcc/4.9.2/bin/../lib/gcc/x86_64-unknown-linux-gnu/4.9.2/ -mtune=corei7 -march=x86-64 -g -O2
#
# seed  2141744223 -1811192641  -738614160 -1187136663  -355368238  1546032989  1742387101  -586766810  -553790722   603999868 -1195643320   750760330
#
#      Author: C. J. Pickard (cjp20@cam.ac.uk)
#                Space group: Pc
#

%BLOCK LATTICE_ABC
      4.29321      7.09784     10.71362
     90.00000     90.00000    101.42710
%ENDBLOCK LATTICE_ABC

%BLOCK POSITIONS_FRAC
  Li  -0.1204054  -0.3020081  -0.1383575 SPIN=   0.00000
  Li  -0.1204054   0.1979919   0.1383575 SPIN=   0.00000
  Li  -0.0495362   0.4240032   0.3811887 SPIN=   0.00000
  Li  -0.0495362  -0.0759968  -0.3811887 SPIN=   0.00000
   O   0.3599960   0.3441844   0.0652471 SPIN=   0.00000
   O   0.1398121   0.1649848  -0.1374297 SPIN=   0.00000
   O  -0.1357059   0.4112564  -0.0525538 SPIN=   0.00000
   O   0.4021871   0.5125918  -0.1495472 SPIN=   0.00000
   P   0.2030255   0.3593265  -0.0624014 SPIN=   0.00000
   O   0.3599960  -0.1558156  -0.0652471 SPIN=   0.00000
   O   0.1398121  -0.3350152   0.1374297 SPIN=   0.00000
   O  -0.1357059  -0.0887436   0.0525538 SPIN=   0.00000
   O   0.4021871   0.0125918   0.1495472 SPIN=   0.00000
   P   0.2030255  -0.1406735   0.0624014 SPIN=   0.00000
   O  -0.0688339  -0.1166019   0.2803578 SPIN=   0.00000
   O  -0.4948406  -0.4141888   0.3446321 SPIN=   0.00000
   O  -0.0267364  -0.3158807   0.4808813 SPIN=   0.00000
   O  -0.4390283  -0.1113882   0.4698350 SPIN=   0.00000
   P  -0.2494657  -0.2314584   0.3887753 SPIN=   0.00000
   O  -0.0688339   0.3833981  -0.2803578 SPIN=   0.00000
   O  -0.4948406   0.0858112  -0.3446321 SPIN=   0.00000
   O  -0.0267364   0.1841193  -0.4808813 SPIN=   0.00000
   O  -0.4390283   0.3886118  -0.4698350 SPIN=   0.00000
   P  -0.2494657   0.2685416  -0.3887753 SPIN=   0.00000
  Fe   0.3351404  -0.4377749  -0.3563595 SPIN=   6.99679
  Fe   0.3351404   0.0622251   0.3563595 SPIN=   6.99679
  Fe  -0.4031124  -0.3980969   0.1469675 SPIN=   1.00321
  Fe  -0.4031124   0.1019031  -0.1469675 SPIN=   1.00321
%ENDBLOCK POSITIONS_FRAC

# Note: total spin =  16.00

KPOINTS_MP_SPACING 0.07

%BLOCK SPECIES_POT
QC5
%ENDBLOCK SPECIES_POT

%BLOCK HUBBARD_U
Fe d:4.0
%ENDBLOCK HUBBARD_U

SNAP_TO_SYMMETRY
SYMMETRY_GENERATE

