#              Generated by Buildcell
#
# at 00:48:14 (GMT+0.0) 27th November 2020
# in /scratch/scratch/mmm0366/launch_tmp
# on node-k98l-022
# by mmm0366
#
# compiler GCC version 4.9.2
# options -cpp -iprefix /scratch/UCL/applications/gcc/4.9.2/bin/../lib/gcc/x86_64-unknown-linux-gnu/4.9.2/ -mtune=corei7 -march=x86-64 -g -O2
#
# seed -1738533686  -443626115 -1308790756  -407503912 -1366202673   583414463   474902657   972573957 -1418639310 -1676127875   228655434 -1802785909
#
#      Author: C. J. Pickard (cjp20@cam.ac.uk)
#                Space group: Cc
#

%BLOCK LATTICE_ABC
      6.05403      6.05403      8.85648
     91.94012     91.94012     99.18667
%ENDBLOCK LATTICE_ABC

%BLOCK POSITIONS_FRAC
  Li   0.0575786   0.0484704  -0.0597297 SPIN=   0.00000
  Li  -0.4515296  -0.4424214   0.4402703 SPIN=   0.00000
  Li   0.0827295  -0.1474144  -0.3755077 SPIN=   0.00000
  Li   0.3525856  -0.4172705   0.1244923 SPIN=   0.00000
   O   0.3213214   0.1184801  -0.2093268 SPIN=   0.00000
   O   0.5746103   0.4715546  -0.0886766 SPIN=   0.00000
   O   0.3972385   0.1847611   0.0804451 SPIN=   0.00000
   O   0.7074237   0.1007936  -0.0811992 SPIN=   0.00000
   P   0.4930729   0.2121569  -0.0819350 SPIN=   0.00000
   O  -0.3815199  -0.1786786   0.2906732 SPIN=   0.00000
   O  -0.0284454   0.0746103   0.4113234 SPIN=   0.00000
   O  -0.3152389  -0.1027615   0.5804451 SPIN=   0.00000
   O  -0.3992064   0.2074237   0.4188008 SPIN=   0.00000
   P  -0.2878431  -0.0069271   0.4180650 SPIN=   0.00000
   O   0.2709751  -0.1916686  -0.0341451 SPIN=   0.00000
   O  -0.1039598  -0.2883400  -0.1917866 SPIN=   0.00000
   O   0.2174317  -0.4637430  -0.2704973 SPIN=   0.00000
   O   0.0252418  -0.5818110  -0.0334972 SPIN=   0.00000
   P   0.1104859  -0.3736541  -0.1260775 SPIN=   0.00000
   O   0.3083314  -0.2290249   0.4658549 SPIN=   0.00000
   O   0.2116600  -0.6039598   0.3082134 SPIN=   0.00000
   O   0.0362570  -0.2825683   0.2295027 SPIN=   0.00000
   O  -0.0818110  -0.4747582   0.4665028 SPIN=   0.00000
   P   0.1263459  -0.3895141   0.3739225 SPIN=   0.00000
  Fe  -0.1140509   0.3182756  -0.3488559 SPIN=   2.73119
  Fe  -0.1817244   0.3859491   0.1511441 SPIN=   2.73119
  Fe   0.2780757   0.0661280   0.3096431 SPIN=   5.26881
  Fe  -0.4338720  -0.2219243  -0.1903569 SPIN=   5.26881
%ENDBLOCK POSITIONS_FRAC

# Note: total spin =  16.00

KPOINTS_MP_SPACING 0.07

%BLOCK SPECIES_POT
QC5
%ENDBLOCK SPECIES_POT

%BLOCK HUBBARD_U
Fe d:4.0
%ENDBLOCK HUBBARD_U

SNAP_TO_SYMMETRY
SYMMETRY_GENERATE

