#              Generated by Buildcell
#
# at 08:21:58 (GMT+0.0) 26th November 2020
# in /lustre/scratch/uccabz1/launch_tmp
# on node-c12e-023
# by uccabz1
#
# compiler GCC version 4.9.2
# options -cpp -iprefix /lustre/shared/ucl/apps/gcc/4.9.2/bin/../lib/gcc/x86_64-unknown-linux-gnu/4.9.2/ -mtune=corei7 -march=x86-64 -g -Og
#
# seed  1792279664   697705653   672895328   385980368  1925231105  1786571085   -81989170   203457654  -325664426 -1038919342   210514004  -418938197
#
#      Author: C. J. Pickard (cjp20@cam.ac.uk)
#                Space group: Cc
#

%BLOCK LATTICE_ABC
      6.81551      7.65371      7.65371
     95.19318    113.59354    113.59354
%ENDBLOCK LATTICE_ABC

%BLOCK POSITIONS_FRAC
  Li  -0.2025642   0.1600001  -0.1316604 SPIN=   0.00000
  Li   0.2974358   0.3683396  -0.3399999 SPIN=   0.00000
  Li   0.3288499   0.0369580   0.4418250 SPIN=   0.00000
  Li  -0.1711501  -0.0581750  -0.4630420 SPIN=   0.00000
   O  -0.2691990   0.3348017   0.2767219 SPIN=   0.00000
   O  -0.4621540  -0.0210100   0.3107937 SPIN=   0.00000
   O  -0.3389065   0.0199184   0.0481184 SPIN=   0.00000
   O  -0.0185074   0.1521175   0.4072942 SPIN=   0.00000
   P  -0.2690386   0.1331783   0.2633130 SPIN=   0.00000
   O   0.2308010  -0.2232781  -0.1651983 SPIN=   0.00000
   O   0.0378460  -0.1892063  -0.5210100 SPIN=   0.00000
   O   0.1610935  -0.4518816  -0.4800816 SPIN=   0.00000
   O   0.4814926  -0.0927058  -0.3478825 SPIN=   0.00000
   P   0.2309614  -0.2366870  -0.3668217 SPIN=   0.00000
   O   0.4630939   0.6666487   0.4012041 SPIN=   0.00000
   O   0.4452633   0.3211932   0.4015590 SPIN=   0.00000
   O   0.0728154   0.3296339   0.1733730 SPIN=   0.00000
   O   0.4268673   0.4418846   0.1048164 SPIN=   0.00000
   P   0.3588081   0.4519407   0.2752593 SPIN=   0.00000
   O  -0.0369061  -0.0987959   0.1666487 SPIN=   0.00000
   O  -0.0547367  -0.0984410  -0.1788068 SPIN=   0.00000
   O  -0.4271846  -0.3266270  -0.1703661 SPIN=   0.00000
   O  -0.0731327  -0.3951836  -0.0581154 SPIN=   0.00000
   P  -0.1411919  -0.2247407  -0.0480593 SPIN=   0.00000
  Fe   0.3008674   0.1355416  -0.0021420 SPIN=   3.93192
  Fe  -0.1991326   0.4978580  -0.3644584 SPIN=   3.93192
  Fe  -0.0183107  -0.4459348   0.2182906 SPIN=   4.06808
  Fe   0.4816893  -0.2817094   0.0540652 SPIN=   4.06808
%ENDBLOCK POSITIONS_FRAC

# Note: total spin =  16.00

KPOINTS_MP_SPACING 0.07

%BLOCK SPECIES_POT
QC5
%ENDBLOCK SPECIES_POT

%BLOCK HUBBARD_U
Fe d:4.0
%ENDBLOCK HUBBARD_U

SNAP_TO_SYMMETRY
SYMMETRY_GENERATE

