#              Generated by Buildcell
#
# at 06:41:18 (GMT+0.0) 24th November 2020
# in /scratch/scratch/uccabz1/launch_tmp
# on node-a14f-030
# by uccabz1
#
# compiler GCC version 4.9.2
# options -cpp -iprefix /scratch/UCL/applications/gcc/4.9.2/bin/../lib/gcc/x86_64-unknown-linux-gnu/4.9.2/ -mtune=corei7 -march=x86-64 -g -O2
#
# seed  -257463775  -155421989 -2095640486 -1299591861  1760481655  -399062308 -1404116029  1258648202  1582848304  1953481447   569129035  1746764782
#
#      Author: C. J. Pickard (cjp20@cam.ac.uk)
#                Space group: C2/c
#

%BLOCK LATTICE_ABC
      5.21620      5.21620      6.53857
    102.67845    102.67845    105.27901
%ENDBLOCK LATTICE_ABC

%BLOCK POSITIONS_FRAC
  Li  -0.4854811   0.4854811   0.2500000 SPIN=   0.00000
  Li   0.4854811  -0.4854811  -0.2500000 SPIN=   0.00000
   O  -0.7383824  -0.3828069   0.0038983 SPIN=   0.00000
   O  -0.2535363  -0.1070147  -0.0127788 SPIN=   0.00000
   O   0.3828069   0.7383824  -0.5038983 SPIN=   0.00000
   O   0.1070147   0.2535363  -0.4872212 SPIN=   0.00000
   O   0.7383824   0.3828069  -0.0038983 SPIN=   0.00000
   O   0.2535363   0.1070147   0.0127788 SPIN=   0.00000
   O  -0.3828069  -0.7383824   0.5038983 SPIN=   0.00000
   O  -0.1070147  -0.2535363   0.4872212 SPIN=   0.00000
   P   0.0000000   0.5000000  -0.5000000 SPIN=   0.00000
   P  -0.5000000  -0.0000000  -0.0000000 SPIN=   0.00000
  Fe  -0.1221451   0.1221451  -0.2500000 SPIN=   4.00000
  Fe   0.1221451  -0.1221451   0.2500000 SPIN=   4.00000
%ENDBLOCK POSITIONS_FRAC

# Note: total spin =   8.00

KPOINTS_MP_SPACING 0.07

%BLOCK SPECIES_POT
QC5
%ENDBLOCK SPECIES_POT

%BLOCK HUBBARD_U
Fe d:4.0
%ENDBLOCK HUBBARD_U

SNAP_TO_SYMMETRY
SYMMETRY_GENERATE

