#              Generated by Buildcell
#
# at 06:59:35 (GMT+0.0) 26th November 2020
# in /lustre/scratch/uccabz1/launch_tmp
# on node-c12d-021
# by uccabz1
#
# compiler GCC version 4.9.2
# options -cpp -iprefix /lustre/shared/ucl/apps/gcc/4.9.2/bin/../lib/gcc/x86_64-unknown-linux-gnu/4.9.2/ -mtune=corei7 -march=x86-64 -g -Og
#
# seed   577536182  1681693064 -1024981027  1730468341 -1802663882 -1748317164   478626324  -206380274  -866665266  1675843951 -1725584009  -508786717
#
#      Author: C. J. Pickard (cjp20@cam.ac.uk)
#                Space group: Cc
#

%BLOCK LATTICE_ABC
      7.47223      7.47223      7.60371
     98.10532    114.11033    116.15766
%ENDBLOCK LATTICE_ABC

%BLOCK POSITIONS_FRAC
  Li  -0.0935037  -0.1230755   0.0463741 SPIN=   0.00000
  Li  -0.3305504   0.1398778   0.5463741 SPIN=   0.00000
  Li   0.5945987   0.4863441   0.0979715 SPIN=   0.00000
  Li  -0.8883727  -0.4966272  -0.4020285 SPIN=   0.00000
   O   0.7715104   0.4643531   0.6097208 SPIN=   0.00000
   O   0.6019056   0.5799875   0.8067909 SPIN=   0.00000
   O   0.6244697   0.2619398   0.8213549 SPIN=   0.00000
   O   0.9947535   0.6331531   1.0135883 SPIN=   0.00000
   P   0.7523132   0.4855167   0.8044161 SPIN=   0.00000
   O  -0.3546323  -0.1617896   0.1097208 SPIN=   0.00000
   O  -0.2731966   0.2048853   0.3067909 SPIN=   0.00000
   O   0.0594151   0.1968852   0.3213549 SPIN=   0.00000
   O  -0.1195649   0.0188347   0.5135883 SPIN=   0.00000
   P  -0.1811005   0.0521029   0.3044161 SPIN=   0.00000
   O   0.1042789  -0.0445407  -0.1856116 SPIN=   0.00000
   O   0.2786285   0.2834691   0.1431556 SPIN=   0.00000
   O   0.2390721   0.3432073  -0.1784666 SPIN=   0.00000
   O  -0.1218598   0.1301339  -0.1665184 SPIN=   0.00000
   P   0.1210115   0.1656489  -0.1024078 SPIN=   0.00000
   O   0.3589291  -0.2898905  -0.6856116 SPIN=   0.00000
   O   0.3596865  -0.1354729  -0.3568444 SPIN=   0.00000
   O  -0.0216739  -0.4175387  -0.6784666 SPIN=   0.00000
   O   0.2033477  -0.0446586  -0.6665184 SPIN=   0.00000
   P   0.2319432  -0.2234193  -0.6024078 SPIN=   0.00000
  Fe   0.3464793  -0.0933084   0.0285279 SPIN=   2.23034
  Fe  -0.3781637  -0.3179514  -0.4714721 SPIN=   2.23034
  Fe  -0.0472021   0.3392267   0.1045053 SPIN=   5.76966
  Fe   0.2652786   0.1517074   0.6045053 SPIN=   5.76966
%ENDBLOCK POSITIONS_FRAC

# Note: total spin =  16.00

KPOINTS_MP_SPACING 0.07

%BLOCK SPECIES_POT
QC5
%ENDBLOCK SPECIES_POT

%BLOCK HUBBARD_U
Fe d:4.0
%ENDBLOCK HUBBARD_U

SNAP_TO_SYMMETRY
SYMMETRY_GENERATE

