#              Generated by Buildcell
#
# at 10:33:02 (GMT+0.0) 24th November 2020
# in /lustre/scratch/uccabz1/launch_tmp
# on node-c12o-023
# by uccabz1
#
# compiler GCC version 4.9.2
# options -cpp -iprefix /lustre/shared/ucl/apps/gcc/4.9.2/bin/../lib/gcc/x86_64-unknown-linux-gnu/4.9.2/ -mtune=corei7 -march=x86-64 -g -Og
#
# seed  1647505989  -939655983  1270620657  -465566918  -171165408  1204229083  -472107667   459335907 -1922204131  1858127367  1733916064 -1033756973
#
#      Author: C. J. Pickard (cjp20@cam.ac.uk)
#                Space group: Pm
#

%BLOCK LATTICE_ABC
      4.47986      4.68974      8.10719
     90.00000     90.00000    110.05412
%ENDBLOCK LATTICE_ABC

%BLOCK POSITIONS_FRAC
  Li   0.0116531   0.2058664   0.5000000 SPIN=   0.00000
  Li   0.0419675   0.2561091   0.0000000 SPIN=   0.00000
   O  -0.4660659  -0.6391141   0.1489518 SPIN=   0.00000
   O   0.0950314  -0.5223466   0.2768839 SPIN=   0.00000
   O  -0.1233831  -0.1061608   0.2577247 SPIN=   0.00000
   P  -0.2282616  -0.4600232   0.2805332 SPIN=   0.00000
   O  -0.4660659  -0.6391141  -0.1489518 SPIN=   0.00000
   O   0.0950314  -0.5223466  -0.2768839 SPIN=   0.00000
   O  -0.1233831  -0.1061608  -0.2577247 SPIN=   0.00000
   P  -0.2282616  -0.4600232  -0.2805332 SPIN=   0.00000
   O  -0.4115056  -0.0797276   0.0000000 SPIN=   0.00000
   O   0.0069841  -0.3100395  -0.0000000 SPIN=   0.00000
  Fe   0.4092906  -0.0795483   0.2415377 SPIN=   4.00000
  Fe   0.4092906  -0.0795483  -0.2415377 SPIN=   4.00000
%ENDBLOCK POSITIONS_FRAC

# Note: total spin =   8.00

KPOINTS_MP_SPACING 0.07

%BLOCK SPECIES_POT
QC5
%ENDBLOCK SPECIES_POT

%BLOCK HUBBARD_U
Fe d:4.0
%ENDBLOCK HUBBARD_U

SNAP_TO_SYMMETRY
SYMMETRY_GENERATE

