#              Generated by Buildcell
#
# at 07:05:12 (GMT+0.0) 24th November 2020
# in /scratch/scratch/uccabz1/launch_tmp
# on node-k10a-022
# by uccabz1
#
# compiler GCC version 4.9.2
# options -cpp -iprefix /scratch/UCL/applications/gcc/4.9.2/bin/../lib/gcc/x86_64-unknown-linux-gnu/4.9.2/ -mtune=corei7 -march=x86-64 -g -O2
#
# seed -1333679212 -1776722409 -1446316562   851794949  1831027662 -1415624772  -769034981 -1881687133   167961444  -153477048   518503810    -5410719
#
#      Author: C. J. Pickard (cjp20@cam.ac.uk)
#                Space group: Pm
#

%BLOCK LATTICE_ABC
      4.10659      4.26527      9.35318
     90.00000     90.00000    102.40947
%ENDBLOCK LATTICE_ABC

%BLOCK POSITIONS_FRAC
  Li   0.4070210  -0.1381018   0.2877028 SPIN=   0.00000
  Li   0.4070210  -0.1381018  -0.2877028 SPIN=   0.00000
   O  -0.2441407   0.0634826   0.1311875 SPIN=   0.00000
   O   0.3551628   0.4164415   0.1459177 SPIN=   0.00000
   O  -0.1030859   0.6141046   0.2614065 SPIN=   0.00000
   O   0.0893001   0.1459390   0.3673659 SPIN=   0.00000
   P   0.0107825   0.2949305   0.2230588 SPIN=   0.00000
   O  -0.2441407   0.0634826  -0.1311875 SPIN=   0.00000
   O   0.3551628   0.4164415  -0.1459177 SPIN=   0.00000
   O  -0.1030859   0.6141046  -0.2614065 SPIN=   0.00000
   O   0.0893001   0.1459390  -0.3673659 SPIN=   0.00000
   P   0.0107825   0.2949305  -0.2230588 SPIN=   0.00000
  Fe  -0.2012699   0.4488844  -0.5000000 SPIN=   3.02128
  Fe  -0.1951617  -0.3300037   0.0000000 SPIN=   4.97872
%ENDBLOCK POSITIONS_FRAC

# Note: total spin =   8.00

KPOINTS_MP_SPACING 0.07

%BLOCK SPECIES_POT
QC5
%ENDBLOCK SPECIES_POT

%BLOCK HUBBARD_U
Fe d:4.0
%ENDBLOCK HUBBARD_U

SNAP_TO_SYMMETRY
SYMMETRY_GENERATE

