#              Generated by Buildcell
#
# at 08:37:44 (GMT+0.0) 24th November 2020
# in /lustre/scratch/uccabz1/launch_tmp
# on node-c12h-032
# by uccabz1
#
# compiler GCC version 4.9.2
# options -cpp -iprefix /lustre/shared/ucl/apps/gcc/4.9.2/bin/../lib/gcc/x86_64-unknown-linux-gnu/4.9.2/ -mtune=corei7 -march=x86-64 -g -Og
#
# seed -1045658276   215392412    78146008   732556803  2047568995  -923513584   921959341   272305067 -2117292157 -1480583373    19141808 -1636909337
#
#      Author: C. J. Pickard (cjp20@cam.ac.uk)
#                Space group: P-1
#

%BLOCK LATTICE_ABC
      4.95052      5.93298      5.95619
     82.39590     67.52475     89.92420
%ENDBLOCK LATTICE_ABC

%BLOCK POSITIONS_FRAC
  Li   0.5521145  -0.2427955  -0.0543171 SPIN=   0.00000
  Li  -0.5521145   0.2427955   0.0543171 SPIN=   0.00000
   O   0.3627693   0.3100583  -0.2740248 SPIN=   0.00000
   O  -0.0625935   0.0776521  -0.3055985 SPIN=   0.00000
   O  -0.1402097   0.2133236   0.0879780 SPIN=   0.00000
   O  -0.1100317   0.4939128  -0.2751293 SPIN=   0.00000
   P   0.0296888   0.2782689  -0.1970621 SPIN=   0.00000
   O  -0.3627693  -0.3100583   0.2740248 SPIN=   0.00000
   O   0.0625935  -0.0776521   0.3055985 SPIN=   0.00000
   O   0.1402097  -0.2133236  -0.0879780 SPIN=   0.00000
   O   0.1100317  -0.4939128   0.2751293 SPIN=   0.00000
   P  -0.0296888  -0.2782689   0.1970621 SPIN=   0.00000
  Fe   0.2307692  -0.2561544  -0.4526871 SPIN=   4.00000
  Fe  -0.2307692   0.2561544   0.4526871 SPIN=   4.00000
%ENDBLOCK POSITIONS_FRAC

# Note: total spin =   8.00

KPOINTS_MP_SPACING 0.07

%BLOCK SPECIES_POT
QC5
%ENDBLOCK SPECIES_POT

%BLOCK HUBBARD_U
Fe d:4.0
%ENDBLOCK HUBBARD_U

SNAP_TO_SYMMETRY
SYMMETRY_GENERATE

