#              Generated by Buildcell
#
# at 08:42:33 (GMT+0.0) 24th November 2020
# in /scratch/scratch/uccabz1/launch_tmp
# on node-a14b-007
# by uccabz1
#
# compiler GCC version 4.9.2
# options -cpp -iprefix /scratch/UCL/applications/gcc/4.9.2/bin/../lib/gcc/x86_64-unknown-linux-gnu/4.9.2/ -mtune=corei7 -march=x86-64 -g -O2
#
# seed -1304833744   640439430   -71521613    89674227  2147288726  -134231305 -2065584382   257298505   875648358 -1575398029  1204563980  1998090180
#
#      Author: C. J. Pickard (cjp20@cam.ac.uk)
#                Space group: Cm
#

%BLOCK LATTICE_ABC
      5.54574      5.83440      5.83440
     91.82412    111.63958    111.63958
%ENDBLOCK LATTICE_ABC

%BLOCK POSITIONS_FRAC
  Li  -0.4800746  -0.0406287   0.3691814 SPIN=   0.00000
  Li  -0.4800746   0.3691814  -0.0406287 SPIN=   0.00000
   O  -0.1393839  -0.5767711  -0.1443663 SPIN=   0.00000
   O   0.3946995  -0.2739741   0.0206951 SPIN=   0.00000
   O   0.1800903  -0.3781305   0.3276431 SPIN=   0.00000
   P   0.1585650  -0.4914962   0.0690024 SPIN=   0.00000
   O  -0.1393839  -0.1443663  -0.5767711 SPIN=   0.00000
   O   0.3946995   0.0206951  -0.2739741 SPIN=   0.00000
   O   0.1800903   0.3276431  -0.3781305 SPIN=   0.00000
   P   0.1585650   0.0690024  -0.4914962 SPIN=   0.00000
   O   0.2548297   0.0732964   0.0732964 SPIN=   0.00000
   O  -0.2292206   0.2146122   0.2146122 SPIN=   0.00000
  Fe  -0.1766682  -0.0223147  -0.0223147 SPIN=   1.45509
  Fe  -0.0440918  -0.4442783  -0.4442783 SPIN=   6.54491
%ENDBLOCK POSITIONS_FRAC

# Note: total spin =   8.00

KPOINTS_MP_SPACING 0.07

%BLOCK SPECIES_POT
QC5
%ENDBLOCK SPECIES_POT

%BLOCK HUBBARD_U
Fe d:4.0
%ENDBLOCK HUBBARD_U

SNAP_TO_SYMMETRY
SYMMETRY_GENERATE

