#              Generated by Buildcell
#
# at 10:03:18 (GMT+0.0) 26th November 2020
# in /lustre/scratch/uccabz1/launch_tmp
# on node-c12n-022
# by uccabz1
#
# compiler GCC version 4.9.2
# options -cpp -iprefix /lustre/shared/ucl/apps/gcc/4.9.2/bin/../lib/gcc/x86_64-unknown-linux-gnu/4.9.2/ -mtune=corei7 -march=x86-64 -g -Og
#
# seed  -561781268  2084495825  1396777475  2021606626  1575899896 -1655296439  1350253445   717811533 -1929261340 -1110105444  1539835862      413865
#
#      Author: C. J. Pickard (cjp20@cam.ac.uk)
#                Space group: P21
#

%BLOCK LATTICE_ABC
      4.74968      6.94353      9.79816
     90.00000     90.00000     97.99297
%ENDBLOCK LATTICE_ABC

%BLOCK POSITIONS_FRAC
  Li   0.2119903   0.3151593  -0.0438693 SPIN=   0.00000
  Li  -0.2119903  -0.3151593   0.4561307 SPIN=   0.00000
  Li   0.3066210  -0.2173615   0.2766567 SPIN=   0.00000
  Li  -0.3066210   0.2173615  -0.2233433 SPIN=   0.00000
   O  -0.3287736  -0.2057623   0.1052042 SPIN=   0.00000
   O   0.1324428   0.0399954   0.1338525 SPIN=   0.00000
   O  -0.2395567   0.1252755  -0.0221805 SPIN=   0.00000
   O  -0.3245736   0.1222054   0.2301105 SPIN=   0.00000
   P  -0.1990849   0.0095860   0.1127951 SPIN=   0.00000
   O   0.3287736   0.2057623  -0.3947958 SPIN=   0.00000
   O  -0.1324428  -0.0399954  -0.3661475 SPIN=   0.00000
   O   0.2395567  -0.1252755  -0.5221805 SPIN=   0.00000
   O   0.3245736  -0.1222054  -0.2698895 SPIN=   0.00000
   P   0.1990849  -0.0095860  -0.3872049 SPIN=   0.00000
   O  -0.1927809  -0.4383431  -0.3190759 SPIN=   0.00000
   O  -0.5741968  -0.4041325  -0.1339011 SPIN=   0.00000
   O  -0.1284036  -0.5212569  -0.0633945 SPIN=   0.00000
   O  -0.1194936  -0.1732393  -0.1325513 SPIN=   0.00000
   P  -0.2488901  -0.3846334  -0.1702317 SPIN=   0.00000
   O   0.1927809   0.4383431   0.1809241 SPIN=   0.00000
   O   0.5741968   0.4041325   0.3660989 SPIN=   0.00000
   O   0.1284036   0.5212569   0.4366055 SPIN=   0.00000
   O   0.1194936   0.1732393   0.3674487 SPIN=   0.00000
   P   0.2488901   0.3846334   0.3297683 SPIN=   0.00000
  Fe  -0.3212124   0.1416962   0.4445334 SPIN=   2.71568
  Fe   0.3212124  -0.1416962  -0.0554666 SPIN=   2.71568
  Fe  -0.2489632  -0.4908003   0.1434259 SPIN=   5.28432
  Fe   0.2489632   0.4908003  -0.3565741 SPIN=   5.28432
%ENDBLOCK POSITIONS_FRAC

# Note: total spin =  16.00

KPOINTS_MP_SPACING 0.07

%BLOCK SPECIES_POT
QC5
%ENDBLOCK SPECIES_POT

%BLOCK HUBBARD_U
Fe d:4.0
%ENDBLOCK HUBBARD_U

SNAP_TO_SYMMETRY
SYMMETRY_GENERATE

