#              Generated by Buildcell
#
# at 16:21:52 (GMT+0.0) 26th November 2020
# in /lustre/scratch/uccabz1/launch_tmp
# on node-c12d-028
# by uccabz1
#
# compiler GCC version 4.9.2
# options -cpp -iprefix /lustre/shared/ucl/apps/gcc/4.9.2/bin/../lib/gcc/x86_64-unknown-linux-gnu/4.9.2/ -mtune=corei7 -march=x86-64 -g -Og
#
# seed -1866685803   786399384 -1534979864 -1920412939  1300646038  -840421708 -1101787904  -753566444  1142256360  1806642603  1888958741    67177589
#
#      Author: C. J. Pickard (cjp20@cam.ac.uk)
#                Space group: P-1
#

%BLOCK LATTICE_ABC
      7.32817      7.33278      7.40417
     66.31545     61.85708     74.84057
%ENDBLOCK LATTICE_ABC

%BLOCK POSITIONS_FRAC
  Li   0.0167298  -0.2647398   0.2791244 SPIN=   0.00000
  Li  -0.0167298   0.2647398  -0.2791244 SPIN=   0.00000
  Li   0.2789913  -0.0419753  -0.4807342 SPIN=   0.00000
  Li  -0.2789913   0.0419753   0.4807342 SPIN=   0.00000
   O   0.6154887  -0.1825234  -0.2151528 SPIN=   0.00000
   O   0.3894246  -0.1276534   0.1574758 SPIN=   0.00000
   O   0.2323768  -0.0278610  -0.1030541 SPIN=   0.00000
   O   0.3076045  -0.3913506   0.0790784 SPIN=   0.00000
   P   0.3975031  -0.1848230  -0.0296079 SPIN=   0.00000
   O  -0.6154887   0.1825234   0.2151528 SPIN=   0.00000
   O  -0.3894246   0.1276534  -0.1574758 SPIN=   0.00000
   O  -0.2323768   0.0278610   0.1030541 SPIN=   0.00000
   O  -0.3076045   0.3913506  -0.0790784 SPIN=   0.00000
   P  -0.3975031   0.1848230   0.0296079 SPIN=   0.00000
   O  -0.2685946   0.3298659   0.2536616 SPIN=   0.00000
   O  -0.4012994   0.6464795   0.3718381 SPIN=   0.00000
   O  -0.1398183   0.4043757   0.4872810 SPIN=   0.00000
   O  -0.0361603   0.6150998   0.0969673 SPIN=   0.00000
   P  -0.2124411   0.4913227   0.2974152 SPIN=   0.00000
   O   0.2685946  -0.3298659  -0.2536616 SPIN=   0.00000
   O   0.4012994  -0.6464795  -0.3718381 SPIN=   0.00000
   O   0.1398183  -0.4043757  -0.4872810 SPIN=   0.00000
   O   0.0361603  -0.6150998  -0.0969673 SPIN=   0.00000
   P   0.2124411  -0.4913227  -0.2974152 SPIN=   0.00000
  Fe  -0.1946683  -0.1718431  -0.0791733 SPIN=   3.96483
  Fe   0.1946683   0.1718431   0.0791733 SPIN=   3.96483
  Fe  -0.4185943  -0.4176097  -0.3104020 SPIN=   4.03517
  Fe   0.4185943   0.4176097   0.3104020 SPIN=   4.03517
%ENDBLOCK POSITIONS_FRAC

# Note: total spin =  16.00

KPOINTS_MP_SPACING 0.07

%BLOCK SPECIES_POT
QC5
%ENDBLOCK SPECIES_POT

%BLOCK HUBBARD_U
Fe d:4.0
%ENDBLOCK HUBBARD_U

SNAP_TO_SYMMETRY
SYMMETRY_GENERATE

