#              Generated by Buildcell
#
# at 14:46:38 (GMT+0.0) 26th November 2020
# in /lustre/scratch/uccabz1/launch_tmp
# on node-c12f-021
# by uccabz1
#
# compiler GCC version 4.9.2
# options -cpp -iprefix /lustre/shared/ucl/apps/gcc/4.9.2/bin/../lib/gcc/x86_64-unknown-linux-gnu/4.9.2/ -mtune=corei7 -march=x86-64 -g -Og
#
# seed  1577281707   310049144   960103952 -1289258326  -295073614 -1067138109  -234394536   266005433  2084838863   859499504   383787671    85076976
#
#      Author: C. J. Pickard (cjp20@cam.ac.uk)
#                Space group: P21/c
#

%BLOCK LATTICE_ABC
      4.03623      6.87915     11.74330
    101.06612     90.00000     90.00000
%ENDBLOCK LATTICE_ABC

%BLOCK POSITIONS_FRAC
  Li  -0.0000000   0.5000000  -0.0000000 SPIN=   0.00000
  Li  -0.5000000  -0.5000000  -0.5000000 SPIN=   0.00000
  Li  -0.0000000  -0.0000000  -0.0000000 SPIN=   0.00000
  Li  -0.5000000  -0.0000000  -0.5000000 SPIN=   0.00000
   O   0.1673070  -0.2546066   0.5251080 SPIN=   0.00000
   O   0.1467495  -0.4574051   0.3144136 SPIN=   0.00000
   O  -0.3527425  -0.2715604   0.3931935 SPIN=   0.00000
   O   0.1481429  -0.0868391   0.3464081 SPIN=   0.00000
   P   0.0362408  -0.2647776   0.4011492 SPIN=   0.00000
   O  -0.3326930   0.2546066  -0.0251080 SPIN=   0.00000
   O  -0.3532505   0.4574051   0.1855864 SPIN=   0.00000
   O  -0.8527425   0.2715604   0.1068065 SPIN=   0.00000
   O  -0.3518571   0.0868391   0.1535919 SPIN=   0.00000
   P  -0.4637592   0.2647776   0.0988508 SPIN=   0.00000
   O  -0.1673070   0.2546066  -0.5251080 SPIN=   0.00000
   O  -0.1467495   0.4574051  -0.3144136 SPIN=   0.00000
   O   0.3527425   0.2715604  -0.3931935 SPIN=   0.00000
   O  -0.1481429   0.0868391  -0.3464081 SPIN=   0.00000
   P  -0.0362408   0.2647776  -0.4011492 SPIN=   0.00000
   O   0.3326930  -0.2546066   0.0251080 SPIN=   0.00000
   O   0.3532505  -0.4574051  -0.1855864 SPIN=   0.00000
   O   0.8527425  -0.2715604  -0.1068065 SPIN=   0.00000
   O   0.3518571  -0.0868391  -0.1535919 SPIN=   0.00000
   P   0.4637592  -0.2647776  -0.0988508 SPIN=   0.00000
  Fe  -0.4755851   0.2481367  -0.2110003 SPIN=   4.00000
  Fe   0.0244149  -0.2481367  -0.2889997 SPIN=   4.00000
  Fe   0.4755851  -0.2481367   0.2110003 SPIN=   4.00000
  Fe  -0.0244149   0.2481367   0.2889997 SPIN=   4.00000
%ENDBLOCK POSITIONS_FRAC

# Note: total spin =  16.00

KPOINTS_MP_SPACING 0.07

%BLOCK SPECIES_POT
QC5
%ENDBLOCK SPECIES_POT

%BLOCK HUBBARD_U
Fe d:4.0
%ENDBLOCK HUBBARD_U

SNAP_TO_SYMMETRY
SYMMETRY_GENERATE

