#              Generated by Buildcell
#
# at 20:34:21 (GMT+0.0) 26th November 2020
# in /lustre/scratch/uccabz1/launch_tmp
# on node-c12a-036
# by uccabz1
#
# compiler GCC version 4.9.2
# options -cpp -iprefix /lustre/shared/ucl/apps/gcc/4.9.2/bin/../lib/gcc/x86_64-unknown-linux-gnu/4.9.2/ -mtune=corei7 -march=x86-64 -g -Og
#
# seed   351119472 -1167764857  1845739835  2051577776  -286332152 -1275804092 -1203189868   304246832 -1856352493  -238748923 -1650157046  2087154299
#
#      Author: C. J. Pickard (cjp20@cam.ac.uk)
#                Space group: P-1
#

%BLOCK LATTICE_ABC
      4.17184      9.02764      9.23476
     70.82106     77.97248     81.31874
%ENDBLOCK LATTICE_ABC

%BLOCK POSITIONS_FRAC
  Li   0.1558057   0.2385130  -0.0815976 SPIN=   0.00000
  Li  -0.1558057  -0.2385130   0.0815976 SPIN=   0.00000
  Li   0.2405960  -0.0550037   0.1913121 SPIN=   0.00000
  Li  -0.2405960   0.0550037  -0.1913121 SPIN=   0.00000
   O   0.1411031   0.1779629   0.1936464 SPIN=   0.00000
   O  -0.3336940   0.2627903   0.0323804 SPIN=   0.00000
   O  -0.3504828   0.0111259   0.2458615 SPIN=   0.00000
   O  -0.4480154   0.2654983   0.3087465 SPIN=   0.00000
   P  -0.2294297   0.1802875   0.1964186 SPIN=   0.00000
   O  -0.1411031  -0.1779629  -0.1936464 SPIN=   0.00000
   O   0.3336940  -0.2627903  -0.0323804 SPIN=   0.00000
   O   0.3504828  -0.0111259  -0.2458615 SPIN=   0.00000
   O   0.4480154  -0.2654983  -0.3087465 SPIN=   0.00000
   P   0.2294297  -0.1802875  -0.1964186 SPIN=   0.00000
   O   0.4115453   0.2591562  -0.4182564 SPIN=   0.00000
   O  -0.1875620   0.3424791  -0.3061701 SPIN=   0.00000
   O  -0.0351571   0.3931282  -0.5902672 SPIN=   0.00000
   P   0.0457430   0.2748175  -0.4314378 SPIN=   0.00000
   O  -0.4115453  -0.2591562   0.4182564 SPIN=   0.00000
   O   0.1875620  -0.3424791   0.3061701 SPIN=   0.00000
   O   0.0351571  -0.3931282   0.5902672 SPIN=   0.00000
   P  -0.0457430  -0.2748175   0.4314378 SPIN=   0.00000
   O  -0.0000000   0.0000000  -0.5000000 SPIN=   0.00000
   O   0.0000000  -0.0000000  -0.0000000 SPIN=   0.00000
  Fe  -0.8031018   0.4048620   0.1827285 SPIN=   4.47702
  Fe   0.8031018  -0.4048620  -0.1827285 SPIN=   4.47702
  Fe   0.5000000  -0.0000000  -0.5000000 SPIN=   3.65486
  Fe  -0.5000000   0.5000000   0.5000000 SPIN=   3.39111
%ENDBLOCK POSITIONS_FRAC

# Note: total spin =  16.00

KPOINTS_MP_SPACING 0.07

%BLOCK SPECIES_POT
QC5
%ENDBLOCK SPECIES_POT

%BLOCK HUBBARD_U
Fe d:4.0
%ENDBLOCK HUBBARD_U

SNAP_TO_SYMMETRY
SYMMETRY_GENERATE

