#              Generated by Buildcell
#
# at 12:43:19 (GMT+0.0) 24th November 2020
# in /lustre/scratch/uccabz1/launch_tmp
# on node-c12f-024
# by uccabz1
#
# compiler GCC version 4.9.2
# options -cpp -iprefix /lustre/shared/ucl/apps/gcc/4.9.2/bin/../lib/gcc/x86_64-unknown-linux-gnu/4.9.2/ -mtune=corei7 -march=x86-64 -g -Og
#
# seed  -807950387  2016450962   221003709  1190153162  2117084236 -1574716753 -1923975685 -1896534547   -62588269 -1012594997  -791851013   465018730
#
#      Author: C. J. Pickard (cjp20@cam.ac.uk)
#                Space group: P21
#

%BLOCK LATTICE_ABC
      4.85978      5.09953      6.45614
     90.00000     90.00000     90.06329
%ENDBLOCK LATTICE_ABC

%BLOCK POSITIONS_FRAC
  Li   0.2020810   0.2839809   0.3078722 SPIN=   0.00000
  Li  -0.2020810  -0.2839809  -0.1921278 SPIN=   0.00000
   O  -0.1411790   0.5441893   0.1094049 SPIN=   0.00000
   O  -0.2595714   0.2603900  -0.2127632 SPIN=   0.00000
   O   0.0355176   0.0678026   0.0589203 SPIN=   0.00000
   O  -0.4646253   0.1428553   0.1308326 SPIN=   0.00000
   P  -0.2069699   0.2679612   0.0275629 SPIN=   0.00000
   O   0.1411790  -0.5441893  -0.3905951 SPIN=   0.00000
   O   0.2595714  -0.2603900  -0.7127632 SPIN=   0.00000
   O  -0.0355176  -0.0678026  -0.4410797 SPIN=   0.00000
   O   0.4646253  -0.1428553  -0.3691674 SPIN=   0.00000
   P   0.2069699  -0.2679612  -0.4724371 SPIN=   0.00000
  Fe  -0.2929455  -0.1622790   0.3066688 SPIN=   4.00000
  Fe   0.2929455   0.1622790  -0.1933312 SPIN=   4.00000
%ENDBLOCK POSITIONS_FRAC

# Note: total spin =   8.00

KPOINTS_MP_SPACING 0.07

%BLOCK SPECIES_POT
QC5
%ENDBLOCK SPECIES_POT

%BLOCK HUBBARD_U
Fe d:4.0
%ENDBLOCK HUBBARD_U

SNAP_TO_SYMMETRY
SYMMETRY_GENERATE

