#              Generated by Buildcell
#
# at 10:42:44 (GMT+0.0) 24th November 2020
# in /scratch/scratch/uccabz1/launch_tmp
# on node-a14f-013
# by uccabz1
#
# compiler GCC version 4.9.2
# options -cpp -iprefix /scratch/UCL/applications/gcc/4.9.2/bin/../lib/gcc/x86_64-unknown-linux-gnu/4.9.2/ -mtune=corei7 -march=x86-64 -g -O2
#
# seed   240091725  1230938125 -1185195989   618178957 -2092729783 -1808119982   660165227  -841085866  -452800449 -1514028283   126997675  -981345600
#
#      Author: C. J. Pickard (cjp20@cam.ac.uk)
#                Space group: Pmm2
#

%BLOCK LATTICE_ABC
      5.28790      5.35873      5.64645
     90.00000     90.00000     90.00000
%ENDBLOCK LATTICE_ABC

%BLOCK POSITIONS_FRAC
  Li   0.5000000   0.5000000  -0.4167384 SPIN=   0.00000
  Li   0.5000000  -0.0000000   0.0833013 SPIN=   0.00000
   O   0.2651831  -0.2327999   0.3515641 SPIN=   0.00000
   O   0.2572862  -0.2650248  -0.1074832 SPIN=   0.00000
   O  -0.2651831   0.2327999   0.3515641 SPIN=   0.00000
   O  -0.2572862   0.2650248  -0.1074832 SPIN=   0.00000
   O   0.2651831   0.2327999   0.3515641 SPIN=   0.00000
   O   0.2572862   0.2650248  -0.1074832 SPIN=   0.00000
   O  -0.2651831  -0.2327999   0.3515641 SPIN=   0.00000
   O  -0.2572862  -0.2650248  -0.1074832 SPIN=   0.00000
   P   0.5000000   0.0000000  -0.4441283 SPIN=   0.00000
   P   0.5000000   0.5000000   0.0558218 SPIN=   0.00000
  Fe   0.0000000   0.0000000  -0.2614665 SPIN=   4.05718
  Fe  -0.0000000   0.5000000   0.2385134 SPIN=   3.94282
%ENDBLOCK POSITIONS_FRAC

# Note: total spin =   8.00

KPOINTS_MP_SPACING 0.07

%BLOCK SPECIES_POT
QC5
%ENDBLOCK SPECIES_POT

%BLOCK HUBBARD_U
Fe d:4.0
%ENDBLOCK HUBBARD_U

SNAP_TO_SYMMETRY
SYMMETRY_GENERATE

