#              Generated by Buildcell
#
# at 06:36:05 (GMT+0.0) 24th November 2020
# in /lustre/scratch/uccabz1/launch_tmp
# on node-c12f-022
# by uccabz1
#
# compiler GCC version 4.9.2
# options -cpp -iprefix /lustre/shared/ucl/apps/gcc/4.9.2/bin/../lib/gcc/x86_64-unknown-linux-gnu/4.9.2/ -mtune=corei7 -march=x86-64 -g -Og
#
# seed   804385127  1979657922  -113091573  -605343462 -1560200985   571463686  -551239596 -1578066326 -1007613101  -592032652  -239262355  1967963064
#
#      Author: C. J. Pickard (cjp20@cam.ac.uk)
#                Space group: C2/c
#

%BLOCK LATTICE_ABC
      5.36082      5.53078      6.10493
     99.25798    116.04369     90.00000
%ENDBLOCK LATTICE_ABC

%BLOCK POSITIONS_FRAC
  Li   0.2590233  -0.2500000  -0.0000000 SPIN=   0.00000
  Li  -0.2590233   0.2500000   0.0000000 SPIN=   0.00000
   O  -0.1683311  -0.2494189  -0.2408363 SPIN=   0.00000
   O  -0.5903763  -0.0232046  -0.2342154 SPIN=   0.00000
   O   0.0725052  -0.2505811   0.2408363 SPIN=   0.00000
   O  -0.3561609  -0.4767954   0.2342154 SPIN=   0.00000
   O   0.1683311   0.2494189   0.2408363 SPIN=   0.00000
   O   0.5903763   0.0232046   0.2342154 SPIN=   0.00000
   O  -0.0725052   0.2505811  -0.2408363 SPIN=   0.00000
   O   0.3561609   0.4767954  -0.2342154 SPIN=   0.00000
   P  -0.2409576  -0.2500000   0.0000000 SPIN=   0.00000
   P   0.2409576   0.2500000   0.0000000 SPIN=   0.00000
  Fe   0.5000000   0.5000000   0.5000000 SPIN=   4.00000
  Fe   0.0000000  -0.0000000  -0.5000000 SPIN=   4.00000
%ENDBLOCK POSITIONS_FRAC

# Note: total spin =   8.00

KPOINTS_MP_SPACING 0.07

%BLOCK SPECIES_POT
QC5
%ENDBLOCK SPECIES_POT

%BLOCK HUBBARD_U
Fe d:4.0
%ENDBLOCK HUBBARD_U

SNAP_TO_SYMMETRY
SYMMETRY_GENERATE

