#              Generated by Buildcell
#
# at 09:18:50 (GMT+0.0) 24th November 2020
# in /lustre/scratch/uccabz1/launch_tmp
# on node-c12c-021
# by uccabz1
#
# compiler GCC version 4.9.2
# options -cpp -iprefix /lustre/shared/ucl/apps/gcc/4.9.2/bin/../lib/gcc/x86_64-unknown-linux-gnu/4.9.2/ -mtune=corei7 -march=x86-64 -g -Og
#
# seed -1562155785  1663664718   387756514 -1232449300 -1918720342  -320129548  2000376923 -1244104405  -969076499  1182757299 -1163424230  -185313590
#
#      Author: C. J. Pickard (cjp20@cam.ac.uk)
#                Space group: C2
#

%BLOCK LATTICE_ABC
      5.16333      5.70955      5.70955
     95.58161    101.48128    101.48128
%ENDBLOCK LATTICE_ABC

%BLOCK POSITIONS_FRAC
  Li   0.5000000   0.4466001  -0.4466001 SPIN=   0.00000
  Li   0.0000000  -0.3664094   0.3664094 SPIN=   0.00000
   O  -0.1809972   0.2499233   0.4390239 SPIN=   0.00000
   O   0.2020990   0.3903141   0.2158381 SPIN=   0.00000
   O   0.2439207   0.0660201   0.4679477 SPIN=   0.00000
   P   0.0263062   0.1737165   0.3052444 SPIN=   0.00000
   O   0.1809972  -0.4390239  -0.2499233 SPIN=   0.00000
   O  -0.2020990  -0.2158381  -0.3903141 SPIN=   0.00000
   O  -0.2439207  -0.4679477  -0.0660201 SPIN=   0.00000
   P  -0.0263062  -0.3052444  -0.1737165 SPIN=   0.00000
   O   0.5000000   0.1117603  -0.1117603 SPIN=   0.00000
   O   0.0000000  -0.0433950   0.0433950 SPIN=   0.00000
  Fe   0.5000000  -0.1354989   0.1354989 SPIN=   6.39040
  Fe  -0.0000000   0.2035185  -0.2035185 SPIN=   1.60960
%ENDBLOCK POSITIONS_FRAC

# Note: total spin =   8.00

KPOINTS_MP_SPACING 0.07

%BLOCK SPECIES_POT
QC5
%ENDBLOCK SPECIES_POT

%BLOCK HUBBARD_U
Fe d:4.0
%ENDBLOCK HUBBARD_U

SNAP_TO_SYMMETRY
SYMMETRY_GENERATE

