#              Generated by Buildcell
#
# at 23:25:44 (GMT+0.0) 26th November 2020
# in /lustre/scratch/uccabz1/launch_tmp
# on node-c12g-020
# by uccabz1
#
# compiler GCC version 4.9.2
# options -cpp -iprefix /lustre/shared/ucl/apps/gcc/4.9.2/bin/../lib/gcc/x86_64-unknown-linux-gnu/4.9.2/ -mtune=corei7 -march=x86-64 -g -Og
#
# seed   759577503   344651717   419845156  -661414595 -1757838960   142122988  -866293151   -31009427  -523220560 -1733170440  1622994128 -1148410290
#
#      Author: C. J. Pickard (cjp20@cam.ac.uk)
#                Space group: P-1
#

%BLOCK LATTICE_ABC
      5.55953      6.24086      9.75457
     98.01717    106.43388     92.89945
%ENDBLOCK LATTICE_ABC

%BLOCK POSITIONS_FRAC
  Li   0.2638122  -0.3998822   0.0797241 SPIN=   0.00000
  Li  -0.2638122   0.3998822  -0.0797241 SPIN=   0.00000
  Li  -0.3396878  -0.3245526   0.3666259 SPIN=   0.00000
  Li   0.3396878   0.3245526  -0.3666259 SPIN=   0.00000
   O   0.2035805  -0.2882777   0.2815495 SPIN=   0.00000
   O   0.3116095   0.1050931   0.4242586 SPIN=   0.00000
   O   0.5888375  -0.0349788   0.2811751 SPIN=   0.00000
   O   0.1543342   0.0491633   0.1534001 SPIN=   0.00000
   P   0.3067885  -0.0542710   0.2833529 SPIN=   0.00000
   O  -0.2035805   0.2882777  -0.2815495 SPIN=   0.00000
   O  -0.3116095  -0.1050931  -0.4242586 SPIN=   0.00000
   O  -0.5888375   0.0349788  -0.2811751 SPIN=   0.00000
   O  -0.1543342  -0.0491633  -0.1534001 SPIN=   0.00000
   P  -0.3067885   0.0542710  -0.2833529 SPIN=   0.00000
   O   0.3566023  -0.1684987  -0.0410911 SPIN=   0.00000
   O   0.0509929  -0.2887352  -0.3001925 SPIN=   0.00000
   O   0.5014586  -0.3430141  -0.2586608 SPIN=   0.00000
   O   0.2369323  -0.5727162  -0.1550283 SPIN=   0.00000
   P   0.2896444  -0.3366449  -0.1804836 SPIN=   0.00000
   O  -0.3566023   0.1684987   0.0410911 SPIN=   0.00000
   O  -0.0509929   0.2887352   0.3001925 SPIN=   0.00000
   O  -0.5014586   0.3430141   0.2586608 SPIN=   0.00000
   O  -0.2369323   0.5727162   0.1550283 SPIN=   0.00000
   P  -0.2896444   0.3366449   0.1804836 SPIN=   0.00000
  Fe  -0.2044654  -0.1137382   0.1065302 SPIN=   5.85420
  Fe   0.2044654   0.1137382  -0.1065302 SPIN=   5.85420
  Fe   0.2519488  -0.2043040  -0.4631367 SPIN=   2.14580
  Fe  -0.2519488   0.2043040   0.4631367 SPIN=   2.14580
%ENDBLOCK POSITIONS_FRAC

# Note: total spin =  16.00

KPOINTS_MP_SPACING 0.07

%BLOCK SPECIES_POT
QC5
%ENDBLOCK SPECIES_POT

%BLOCK HUBBARD_U
Fe d:4.0
%ENDBLOCK HUBBARD_U

SNAP_TO_SYMMETRY
SYMMETRY_GENERATE

