#              Generated by Buildcell
#
# at 08:30:21 (GMT+0.0) 24th November 2020
# in /lustre/scratch/uccabz1/launch_tmp
# on node-c12p-022
# by uccabz1
#
# compiler GCC version 4.9.2
# options -cpp -iprefix /lustre/shared/ucl/apps/gcc/4.9.2/bin/../lib/gcc/x86_64-unknown-linux-gnu/4.9.2/ -mtune=corei7 -march=x86-64 -g -Og
#
# seed  -661377764 -1614862460   995261872  -255706350 -1528000114   794766938  -228316582   794101806  1601352977  -393147473  1497777990   -89656630
#
#      Author: C. J. Pickard (cjp20@cam.ac.uk)
#                Space group: P4
#

%BLOCK LATTICE_ABC
      5.33307      5.47736      5.47736
     90.00000     90.00000     90.00000
%ENDBLOCK LATTICE_ABC

%BLOCK POSITIONS_FRAC
  Li   0.1974558  -0.5000000   0.5000000 SPIN=   0.00000
  Li   0.1974567   0.0000000   0.0000000 SPIN=   0.00000
   O   0.0296542  -0.2522982   0.2531606 SPIN=   0.00000
   O  -0.4433630  -0.1450926   0.2903422 SPIN=   0.00000
   O   0.0296542   0.2522982  -0.2531606 SPIN=   0.00000
   O  -0.4433630   0.1450926  -0.2903422 SPIN=   0.00000
   O   0.0296542  -0.2531606  -0.2522982 SPIN=   0.00000
   O  -0.4433630  -0.2903422  -0.1450926 SPIN=   0.00000
   O   0.0296542   0.2531606   0.2522982 SPIN=   0.00000
   O  -0.4433630   0.2903422   0.1450926 SPIN=   0.00000
   P  -0.3033870  -0.5000000   0.5000000 SPIN=   0.00000
   P  -0.3033859   0.0000000   0.0000000 SPIN=   0.00000
  Fe  -0.1488089   0.0000000   0.5000000 SPIN=   4.00000
  Fe  -0.1488089   0.5000000  -0.0000000 SPIN=   4.00000
%ENDBLOCK POSITIONS_FRAC

# Note: total spin =   8.00

KPOINTS_MP_SPACING 0.07

%BLOCK SPECIES_POT
QC5
%ENDBLOCK SPECIES_POT

%BLOCK HUBBARD_U
Fe d:4.0
%ENDBLOCK HUBBARD_U

SNAP_TO_SYMMETRY
SYMMETRY_GENERATE

