#              Generated by Buildcell
#
# at 07:56:09 (GMT+0.0) 24th November 2020
# in /lustre/scratch/uccabz1/launch_tmp
# on node-c12e-025
# by uccabz1
#
# compiler GCC version 4.9.2
# options -cpp -iprefix /lustre/shared/ucl/apps/gcc/4.9.2/bin/../lib/gcc/x86_64-unknown-linux-gnu/4.9.2/ -mtune=corei7 -march=x86-64 -g -Og
#
# seed  2086689269  -606179218 -1338880714 -1339191529  -482381753  -510919914  -549661514  -353127537 -1687415772  -832546209  -168899566   338767088
#
#      Author: C. J. Pickard (cjp20@cam.ac.uk)
#                Space group: Cc
#

%BLOCK LATTICE_ABC
      3.91788      6.84839      6.84839
    111.32975    101.55821    101.55821
%ENDBLOCK LATTICE_ABC

%BLOCK POSITIONS_FRAC
  Li   0.2791223   0.0254568   0.2302282 SPIN=   0.00000
  Li  -0.2208777   0.2302282   0.0254568 SPIN=   0.00000
   O   0.4544774  -0.6090778   0.2232622 SPIN=   0.00000
   O   0.6068359  -0.1949311   0.3045863 SPIN=   0.00000
   O  -0.0360234  -0.4260201   0.1278295 SPIN=   0.00000
   O   0.2634161  -0.3343474   0.5223756 SPIN=   0.00000
   P   0.3285275  -0.4020310   0.2934087 SPIN=   0.00000
   O  -0.0455226   0.2232622  -0.6090778 SPIN=   0.00000
   O   0.1068359   0.3045863  -0.1949311 SPIN=   0.00000
   O  -0.5360234   0.1278295  -0.4260201 SPIN=   0.00000
   O  -0.2365839   0.5223756  -0.3343474 SPIN=   0.00000
   P  -0.1714725   0.2934087  -0.4020310 SPIN=   0.00000
  Fe   0.4986015  -0.3911717  -0.0917486 SPIN=   4.00000
  Fe  -0.0013985  -0.0917486  -0.3911717 SPIN=   4.00000
%ENDBLOCK POSITIONS_FRAC

# Note: total spin =   8.00

KPOINTS_MP_SPACING 0.07

%BLOCK SPECIES_POT
QC5
%ENDBLOCK SPECIES_POT

%BLOCK HUBBARD_U
Fe d:4.0
%ENDBLOCK HUBBARD_U

SNAP_TO_SYMMETRY
SYMMETRY_GENERATE

