#              Generated by Buildcell
#
# at 01:57:52 (GMT+0.0) 27th November 2020
# in /lustre/scratch/uccabz1/launch_tmp
# on node-c12h-022
# by uccabz1
#
# compiler GCC version 4.9.2
# options -cpp -iprefix /lustre/shared/ucl/apps/gcc/4.9.2/bin/../lib/gcc/x86_64-unknown-linux-gnu/4.9.2/ -mtune=corei7 -march=x86-64 -g -Og
#
# seed  -477269207  1676306994 -1107007888 -1982898490  1254442661  -517396342  1706963587  -335590555   559560640 -1228146822   379063318 -1137453632
#
#      Author: C. J. Pickard (cjp20@cam.ac.uk)
#                Space group: P21
#

%BLOCK LATTICE_ABC
      5.82267      5.99835      9.26805
     90.00000     90.00000     98.67070
%ENDBLOCK LATTICE_ABC

%BLOCK POSITIONS_FRAC
  Li  -0.2434069   0.3349743  -0.2452111 SPIN=   0.00000
  Li   0.2434069  -0.3349743   0.2547889 SPIN=   0.00000
  Li   0.2553839   0.3380674  -0.3430866 SPIN=   0.00000
  Li  -0.2553839  -0.3380674   0.1569134 SPIN=   0.00000
   O  -0.5670955   0.4901510   0.4253010 SPIN=   0.00000
   O  -0.3232828   0.2063948   0.5389268 SPIN=   0.00000
   O  -0.6353882   0.0613625   0.3677083 SPIN=   0.00000
   O  -0.2750227   0.3006857   0.2763806 SPIN=   0.00000
   P  -0.4543543   0.2770807   0.4018323 SPIN=   0.00000
   O   0.5670955  -0.4901510  -0.0746990 SPIN=   0.00000
   O   0.3232828  -0.2063948   0.0389268 SPIN=   0.00000
   O   0.6353882  -0.0613625  -0.1322917 SPIN=   0.00000
   O   0.2750227  -0.3006857  -0.2236194 SPIN=   0.00000
   P   0.4543543  -0.2770807  -0.0981677 SPIN=   0.00000
   O  -0.1465358   0.0498178   0.0914530 SPIN=   0.00000
   O   0.2190912   0.3270148   0.1692798 SPIN=   0.00000
   O   0.2215400   0.1424645  -0.0688393 SPIN=   0.00000
   O  -0.0322351   0.4388808  -0.0292050 SPIN=   0.00000
   P   0.0530241   0.2317949   0.0425514 SPIN=   0.00000
   O   0.1465358  -0.0498178  -0.4085470 SPIN=   0.00000
   O  -0.2190912  -0.3270148  -0.3307202 SPIN=   0.00000
   O  -0.2215400  -0.1424645  -0.5688393 SPIN=   0.00000
   O   0.0322351  -0.4388808  -0.5292050 SPIN=   0.00000
   P  -0.0530241  -0.2317949  -0.4574486 SPIN=   0.00000
  Fe  -0.0223192  -0.1437349  -0.1526762 SPIN=   4.37237
  Fe   0.0223192   0.1437349   0.3473238 SPIN=   4.37237
  Fe   0.4780640  -0.1412059  -0.4359125 SPIN=   3.62763
  Fe  -0.4780640   0.1412059   0.0640875 SPIN=   3.62763
%ENDBLOCK POSITIONS_FRAC

# Note: total spin =  16.00

KPOINTS_MP_SPACING 0.07

%BLOCK SPECIES_POT
QC5
%ENDBLOCK SPECIES_POT

%BLOCK HUBBARD_U
Fe d:4.0
%ENDBLOCK HUBBARD_U

SNAP_TO_SYMMETRY
SYMMETRY_GENERATE

