#              Generated by Buildcell
#
# at 15:19:01 (GMT+0.0) 26th November 2020
# in /lustre/scratch/uccabz1/launch_tmp
# on node-c12i-029
# by uccabz1
#
# compiler GCC version 4.9.2
# options -cpp -iprefix /lustre/shared/ucl/apps/gcc/4.9.2/bin/../lib/gcc/x86_64-unknown-linux-gnu/4.9.2/ -mtune=corei7 -march=x86-64 -g -Og
#
# seed -2110405465 -1039731076  -230387901  -553305921  -475380392  -675026019  1803248829 -1432847787 -1312617143  1513175555  1589618576  -325998232
#
#      Author: C. J. Pickard (cjp20@cam.ac.uk)
#                Space group: Cmc21
#

%BLOCK LATTICE_ABC
      6.43974      6.43974      7.74495
     90.00000     90.00000     94.92306
%ENDBLOCK LATTICE_ABC

%BLOCK POSITIONS_FRAC
  Li  -0.3100305  -0.3100305   0.0498618 SPIN=   0.00000
  Li   0.3100305   0.3100305  -0.4501382 SPIN=   0.00000
  Li   0.1064280   0.1064280  -0.0901705 SPIN=   0.00000
  Li  -0.1064280  -0.1064280   0.4098295 SPIN=   0.00000
   O   0.2116367  -0.1032859   0.3457843 SPIN=   0.00000
   O  -0.0946578  -0.3639916   0.2450140 SPIN=   0.00000
   O   0.2313040  -0.5045193   0.3407301 SPIN=   0.00000
   O   0.0020152  -0.3492280   0.5582482 SPIN=   0.00000
   O  -0.2116367   0.1032859  -0.1542157 SPIN=   0.00000
   O   0.0946578   0.3639916  -0.2549860 SPIN=   0.00000
   O  -0.2313040   0.5045193  -0.1592699 SPIN=   0.00000
   O  -0.0020152   0.3492280   0.0582482 SPIN=   0.00000
   O   0.1032859  -0.2116367  -0.1542157 SPIN=   0.00000
   O   0.3639916   0.0946578  -0.2549860 SPIN=   0.00000
   O   0.5045193  -0.2313040  -0.1592699 SPIN=   0.00000
   O   0.3492280  -0.0020152   0.0582482 SPIN=   0.00000
   O  -0.1032859   0.2116367   0.3457843 SPIN=   0.00000
   O  -0.3639916  -0.0946578   0.2450140 SPIN=   0.00000
   O  -0.5045193   0.2313040   0.3407301 SPIN=   0.00000
   O  -0.3492280   0.0020152   0.5582482 SPIN=   0.00000
   P   0.4254025   0.4254025  -0.1289877 SPIN=   0.00000
   P  -0.4254025  -0.4254025   0.3710123 SPIN=   0.00000
   P   0.1642323   0.1642323   0.2473947 SPIN=   0.00000
   P  -0.1642323  -0.1642323  -0.2526053 SPIN=   0.00000
  Fe   0.3487286  -0.1869267  -0.3920184 SPIN=   4.00000
  Fe  -0.3487286   0.1869267   0.1079816 SPIN=   4.00000
  Fe   0.1869267  -0.3487286   0.1079816 SPIN=   4.00000
  Fe  -0.1869267   0.3487286  -0.3920184 SPIN=   4.00000
%ENDBLOCK POSITIONS_FRAC

# Note: total spin =  16.00

KPOINTS_MP_SPACING 0.07

%BLOCK SPECIES_POT
QC5
%ENDBLOCK SPECIES_POT

%BLOCK HUBBARD_U
Fe d:4.0
%ENDBLOCK HUBBARD_U

SNAP_TO_SYMMETRY
SYMMETRY_GENERATE

