#              Generated by Buildcell
#
# at 21:38:36 (GMT+0.0) 26th November 2020
# in /lustre/scratch/uccabz1/launch_tmp
# on node-c12d-024
# by uccabz1
#
# compiler GCC version 4.9.2
# options -cpp -iprefix /lustre/shared/ucl/apps/gcc/4.9.2/bin/../lib/gcc/x86_64-unknown-linux-gnu/4.9.2/ -mtune=corei7 -march=x86-64 -g -Og
#
# seed  1067682593  1121959041  2036763497  -250766470  -994267834  1714538381  -616667694  -439663924  -107277952    68558588  1292233585  1770578443
#
#      Author: C. J. Pickard (cjp20@cam.ac.uk)
#                Space group: Pm
#

%BLOCK LATTICE_ABC
      4.63097      6.97014     10.13808
     90.00000     90.00000    102.07605
%ENDBLOCK LATTICE_ABC

%BLOCK POSITIONS_FRAC
  Li  -0.0043452  -0.3296544  -0.3503834 SPIN=   0.00000
  Li  -0.0043452  -0.3296544   0.3503834 SPIN=   0.00000
  Li  -0.1500763   0.0273134  -0.5000000 SPIN=   0.00000
  Li  -0.3445652  -0.0946308   0.0000000 SPIN=   0.00000
   O   0.6945004   0.3203479   0.3632162 SPIN=   0.00000
   O   0.6824999   0.5022598   0.1402487 SPIN=   0.00000
   O   1.1337976   0.3848506   0.1984031 SPIN=   0.00000
   O   0.6731372   0.1417146   0.1390896 SPIN=   0.00000
   P   0.7891305   0.3340830   0.2175450 SPIN=   0.00000
   O   0.6945004   0.3203479  -0.3632162 SPIN=   0.00000
   O   0.6824999   0.5022598  -0.1402487 SPIN=   0.00000
   O   1.1337976   0.3848506  -0.1984031 SPIN=   0.00000
   O   0.6731372   0.1417146  -0.1390896 SPIN=   0.00000
   P   0.7891305   0.3340830  -0.2175450 SPIN=   0.00000
   O  -0.1398218  -0.1491018  -0.2069609 SPIN=   0.00000
   O  -0.5616503  -0.0363523  -0.3345795 SPIN=   0.00000
   O  -0.5344112  -0.3861979  -0.3444654 SPIN=   0.00000
   O  -0.6851503  -0.2469565  -0.1338523 SPIN=   0.00000
   P  -0.4645498  -0.2021936  -0.2509793 SPIN=   0.00000
   O  -0.1398218  -0.1491018   0.2069609 SPIN=   0.00000
   O  -0.5616503  -0.0363523   0.3345795 SPIN=   0.00000
   O  -0.5344112  -0.3861979   0.3444654 SPIN=   0.00000
   O  -0.6851503  -0.2469565   0.1338523 SPIN=   0.00000
   P  -0.4645498  -0.2021936   0.2509793 SPIN=   0.00000
  Fe   0.2123196   0.0925848   0.1913606 SPIN=   4.29022
  Fe   0.2123196   0.0925848  -0.1913606 SPIN=   4.29022
  Fe   0.0512744  -0.4365053   0.0000000 SPIN=   0.93498
  Fe   0.4130893   0.4119544  -0.5000000 SPIN=   6.48458
%ENDBLOCK POSITIONS_FRAC

# Note: total spin =  16.00

KPOINTS_MP_SPACING 0.07

%BLOCK SPECIES_POT
QC5
%ENDBLOCK SPECIES_POT

%BLOCK HUBBARD_U
Fe d:4.0
%ENDBLOCK HUBBARD_U

SNAP_TO_SYMMETRY
SYMMETRY_GENERATE

