#              Generated by Buildcell
#
# at 16:54:01 (GMT+0.0) 1st December 2020
# in /lustre/scratch/uccabz1/launch_tmp
# on node-c12f-024
# by uccabz1
#
# compiler GCC version 4.9.2
# options -cpp -iprefix /lustre/shared/ucl/apps/gcc/4.9.2/bin/../lib/gcc/x86_64-unknown-linux-gnu/4.9.2/ -mtune=corei7 -march=x86-64 -g -Og
#
# seed   -20146330   243943829 -1833272600   355494324  1814894548  -997790451  1872759980  -558283049 -1590506658    74355562  -525821991  -916170550
#
#      Author: C. J. Pickard (cjp20@cam.ac.uk)
#                Space group: Cc
#

%BLOCK LATTICE_ABC
      5.06774      7.56000      8.86733
     89.58119     88.75035     70.41725
%ENDBLOCK LATTICE_ABC

%BLOCK POSITIONS_FRAC
  Li   0.2666762  -0.2123514   0.0349871 SPIN=   0.00000
  Li  -0.4456752   0.2123514  -0.4650129 SPIN=   0.00000
  Li   0.2849679  -0.2240078  -0.3071998 SPIN=   0.00000
  Li  -0.4390399   0.2240078   0.1928002 SPIN=   0.00000
   O  -0.5108292  -0.0280448  -0.3521850 SPIN=   0.00000
   O  -0.3955129  -0.1485825  -0.6276096 SPIN=   0.00000
   O  -0.0132266  -0.1153611  -0.4746878 SPIN=   0.00000
   O  -0.2102835  -0.3707963  -0.4137998 SPIN=   0.00000
   P  -0.2937706  -0.1607873  -0.4603248 SPIN=   0.00000
   O  -0.0388739   0.0280448   0.1478150 SPIN=   0.00000
   O  -0.0440954   0.1485825  -0.1276096 SPIN=   0.00000
   O   0.3714123   0.1153611   0.0253122 SPIN=   0.00000
   O  -0.0810798   0.3707963   0.0862002 SPIN=   0.00000
   P   0.0454420   0.1607873   0.0396752 SPIN=   0.00000
   O   0.6824054  -0.5717009   0.3364338 SPIN=   0.00000
   O   0.1830740  -0.5939372   0.3212841 SPIN=   0.00000
   O   0.2987284  -0.4438988   0.5451713 SPIN=   0.00000
   O   0.2442291  -0.2797644   0.2955606 SPIN=   0.00000
   P   0.3684227  -0.4753442   0.3716467 SPIN=   0.00000
   O   0.6107045   0.5717009  -0.1635662 SPIN=   0.00000
   O   0.0891367   0.5939372  -0.1787159 SPIN=   0.00000
   O   0.3548296   0.4438988   0.0451713 SPIN=   0.00000
   O   0.4644647   0.2797644  -0.2044394 SPIN=   0.00000
   P   0.3930786   0.4753442  -0.1283533 SPIN=   0.00000
  Fe  -0.0400754   0.3842316  -0.2743164 SPIN=   4.47023
  Fe  -0.1558438  -0.3842316   0.2256836 SPIN=   4.47023
  Fe  -0.3262288  -0.0123864  -0.1405255 SPIN=   3.52977
  Fe   0.1613848   0.0123864   0.3594745 SPIN=   3.52977
%ENDBLOCK POSITIONS_FRAC

# Note: total spin =  16.00

KPOINTS_MP_SPACING 0.07

%BLOCK SPECIES_POT
QC5
%ENDBLOCK SPECIES_POT

%BLOCK HUBBARD_U
Fe d:4.0
%ENDBLOCK HUBBARD_U

SNAP_TO_SYMMETRY
SYMMETRY_GENERATE

