#              Generated by Buildcell
#
# at 06:56:10 (GMT+0.0) 26th November 2020
# in /lustre/scratch/uccabz1/launch_tmp
# on node-c12o-027
# by uccabz1
#
# compiler GCC version 4.9.2
# options -cpp -iprefix /lustre/shared/ucl/apps/gcc/4.9.2/bin/../lib/gcc/x86_64-unknown-linux-gnu/4.9.2/ -mtune=corei7 -march=x86-64 -g -Og
#
# seed -2003032940   244450888  -723506395  -338772094 -1625764684  -478607927  1931704714  1282061820   111871001  -234316595    14791423  1412058323
#
#      Author: C. J. Pickard (cjp20@cam.ac.uk)
#                Space group: Cc
#

%BLOCK LATTICE_ABC
      6.68722      7.88166      7.88166
     98.68354    114.10020    114.10020
%ENDBLOCK LATTICE_ABC

%BLOCK POSITIONS_FRAC
  Li   0.5478444   0.7498924   0.4493456 SPIN=   0.00000
  Li   0.0478444  -0.5506544  -0.2501076 SPIN=   0.00000
  Li   0.0992403  -0.1457160  -0.2147115 SPIN=   0.00000
  Li  -0.4007597  -0.2147115  -0.1457160 SPIN=   0.00000
   O  -0.7244178  -0.7893220  -0.2906284 SPIN=   0.00000
   O  -0.5248337  -0.4775824  -0.3729578 SPIN=   0.00000
   O  -0.7821435  -0.8147182  -0.6418745 SPIN=   0.00000
   O  -1.0009814  -0.6766040  -0.5251113 SPIN=   0.00000
   P  -0.7591673  -0.6947158  -0.4495465 SPIN=   0.00000
   O   0.7755822   0.7093716   0.2106780 SPIN=   0.00000
   O   0.9751663   0.6270422   0.5224176 SPIN=   0.00000
   O   0.7178565   0.3581255   0.1852818 SPIN=   0.00000
   O   0.4990186   0.4748887   0.3233960 SPIN=   0.00000
   P   0.7408327   0.5504535   0.3052842 SPIN=   0.00000
   O   0.2967788  -0.0587498   0.2073988 SPIN=   0.00000
   O  -0.0739213  -0.3700321  -0.1215482 SPIN=   0.00000
   O   0.3620702  -0.3156222   0.0231692 SPIN=   0.00000
   O   0.1209351  -0.4210535   0.1984767 SPIN=   0.00000
   P   0.1822164  -0.2805093   0.0852590 SPIN=   0.00000
   O  -0.2032212   0.2073988  -0.0587498 SPIN=   0.00000
   O  -0.5739213  -0.1215482  -0.3700321 SPIN=   0.00000
   O  -0.1379298   0.0231692  -0.3156222 SPIN=   0.00000
   O  -0.3790649   0.1984767  -0.4210535 SPIN=   0.00000
   P  -0.3177836   0.0852590  -0.2805093 SPIN=   0.00000
  Fe   0.1662829  -0.0789822   0.4081078 SPIN=   4.49220
  Fe  -0.3337171   0.4081078  -0.0789822 SPIN=   4.49220
  Fe   0.6579690   0.0764604   0.2368428 SPIN=   3.50780
  Fe   0.1579690   0.2368428   0.0764604 SPIN=   3.50780
%ENDBLOCK POSITIONS_FRAC

# Note: total spin =  16.00

KPOINTS_MP_SPACING 0.07

%BLOCK SPECIES_POT
QC5
%ENDBLOCK SPECIES_POT

%BLOCK HUBBARD_U
Fe d:4.0
%ENDBLOCK HUBBARD_U

SNAP_TO_SYMMETRY
SYMMETRY_GENERATE

