#              Generated by Buildcell
#
# at 07:42:15 (GMT+0.0) 26th November 2020
# in /scratch/scratch/uccabz1/launch_tmp
# on node-a14c-007
# by uccabz1
#
# compiler GCC version 4.9.2
# options -cpp -iprefix /scratch/UCL/applications/gcc/4.9.2/bin/../lib/gcc/x86_64-unknown-linux-gnu/4.9.2/ -mtune=corei7 -march=x86-64 -g -O2
#
# seed -1195671471  -937261290  -755382204 -1062987392   393398250  -721918083  1800760945   655974315  -526974610   229650744   911094009 -1260045647
#
#      Author: C. J. Pickard (cjp20@cam.ac.uk)
#                Space group: P2
#

%BLOCK LATTICE_ABC
      4.80660      5.90867     11.39424
     90.00000     98.55872     90.00000
%ENDBLOCK LATTICE_ABC

%BLOCK POSITIONS_FRAC
  Li   0.2218180   0.1245072  -0.0792004 SPIN=   0.00000
  Li  -0.2218180   0.1245072   0.0792004 SPIN=   0.00000
  Li   0.4561845  -0.1856309   0.2239462 SPIN=   0.00000
  Li  -0.4561845  -0.1856309  -0.2239462 SPIN=   0.00000
   O  -0.2661362  -0.1628515   0.3851060 SPIN=   0.00000
   O   0.2433690  -0.3002825   0.3753846 SPIN=   0.00000
   O  -0.0178808  -0.1110872   0.1993305 SPIN=   0.00000
   O   0.1469469   0.1156689   0.3821720 SPIN=   0.00000
   P   0.0124098  -0.1144873   0.3386905 SPIN=   0.00000
   O   0.2661362  -0.1628515  -0.3851060 SPIN=   0.00000
   O  -0.2433690  -0.3002825  -0.3753846 SPIN=   0.00000
   O   0.0178808  -0.1110872  -0.1993305 SPIN=   0.00000
   O  -0.1469469   0.1156689  -0.3821720 SPIN=   0.00000
   P  -0.0124098  -0.1144873  -0.3386905 SPIN=   0.00000
   O   0.1320705   0.4943085   0.1845524 SPIN=   0.00000
   O   0.3218510   0.1179545   0.1090899 SPIN=   0.00000
   O   0.6238692   0.4575523   0.1177523 SPIN=   0.00000
   P   0.3911171   0.3430251   0.1812653 SPIN=   0.00000
   O  -0.1320705   0.4943085  -0.1845524 SPIN=   0.00000
   O  -0.3218510   0.1179545  -0.1090899 SPIN=   0.00000
   O  -0.6238692   0.4575523  -0.1177523 SPIN=   0.00000
   P  -0.3911171   0.3430251  -0.1812653 SPIN=   0.00000
   O  -0.5000000   0.3970149  -0.5000000 SPIN=   0.00000
   O  -0.5000000  -0.1974722   0.0000000 SPIN=   0.00000
  Fe  -0.0762809   0.4108280   0.3273707 SPIN=   6.03226
  Fe   0.0762809   0.4108280  -0.3273707 SPIN=   6.03226
  Fe  -0.5000000   0.0026616  -0.5000000 SPIN=   1.74408
  Fe   0.0000000  -0.3761232   0.0000000 SPIN=   2.19140
%ENDBLOCK POSITIONS_FRAC

# Note: total spin =  16.00

KPOINTS_MP_SPACING 0.07

%BLOCK SPECIES_POT
QC5
%ENDBLOCK SPECIES_POT

%BLOCK HUBBARD_U
Fe d:4.0
%ENDBLOCK HUBBARD_U

SNAP_TO_SYMMETRY
SYMMETRY_GENERATE

