#              Generated by Buildcell
#
# at 13:54:40 (GMT+0.0) 24th November 2020
# in /lustre/scratch/uccabz1/launch_tmp
# on node-c12a-028
# by uccabz1
#
# compiler GCC version 4.9.2
# options -cpp -iprefix /lustre/shared/ucl/apps/gcc/4.9.2/bin/../lib/gcc/x86_64-unknown-linux-gnu/4.9.2/ -mtune=corei7 -march=x86-64 -g -Og
#
# seed  1574658929  1715116367  1476099237 -1432019030 -1804411214  -945069132  1633381989  1500597246 -1090141932  -725511020   978410841   237234757
#
#      Author: C. J. Pickard (cjp20@cam.ac.uk)
#                Space group: P-1
#

%BLOCK LATTICE_ABC
      4.91403      5.78797      6.36524
    106.94847     96.76300    108.29561
%ENDBLOCK LATTICE_ABC

%BLOCK POSITIONS_FRAC
  Li  -0.0398282  -0.2110533  -0.2716599 SPIN=   0.00000
  Li   0.0398282   0.2110533   0.2716599 SPIN=   0.00000
   O  -0.1221232   0.3786151  -0.3853172 SPIN=   0.00000
   O   0.2242797   0.3696777  -0.0487861 SPIN=   0.00000
   O   0.3328971   0.2462375  -0.4259746 SPIN=   0.00000
   O   0.4108289   0.7106149  -0.2198377 SPIN=   0.00000
   P   0.1960610   0.4271034  -0.2755283 SPIN=   0.00000
   O   0.1221232  -0.3786151   0.3853172 SPIN=   0.00000
   O  -0.2242797  -0.3696777   0.0487861 SPIN=   0.00000
   O  -0.3328971  -0.2462375   0.4259746 SPIN=   0.00000
   O  -0.4108289  -0.7106149   0.2198377 SPIN=   0.00000
   P  -0.1960610  -0.4271034   0.2755283 SPIN=   0.00000
  Fe  -0.3675923   0.2167123  -0.1804413 SPIN=   4.00000
  Fe   0.3675923  -0.2167123   0.1804413 SPIN=   4.00000
%ENDBLOCK POSITIONS_FRAC

# Note: total spin =   8.00

KPOINTS_MP_SPACING 0.07

%BLOCK SPECIES_POT
QC5
%ENDBLOCK SPECIES_POT

%BLOCK HUBBARD_U
Fe d:4.0
%ENDBLOCK HUBBARD_U

SNAP_TO_SYMMETRY
SYMMETRY_GENERATE

