#              Generated by Buildcell
#
# at 07:50:38 (GMT+0.0) 24th November 2020
# in /lustre/scratch/uccabz1/launch_tmp
# on node-c12a-033
# by uccabz1
#
# compiler GCC version 4.9.2
# options -cpp -iprefix /lustre/shared/ucl/apps/gcc/4.9.2/bin/../lib/gcc/x86_64-unknown-linux-gnu/4.9.2/ -mtune=corei7 -march=x86-64 -g -Og
#
# seed  -536810606  1049058590  -767619734 -1081831114  1561345165 -1567972068   712806631  -934282581  -326324238   426274248 -1698026134   734158665
#
#      Author: C. J. Pickard (cjp20@cam.ac.uk)
#                Space group: Aem2
#

%BLOCK LATTICE_ABC
      4.26280      4.26280      8.81603
     90.00000     90.00000     92.86355
%ENDBLOCK LATTICE_ABC

%BLOCK POSITIONS_FRAC
  Li   0.2320995  -0.2679005  -0.4563089 SPIN=   0.00000
  Li  -0.2679005   0.2320995   0.4563089 SPIN=   0.00000
   O   0.0180677  -0.0822402  -0.1355378 SPIN=   0.00000
   O   0.1755772   0.2757706  -0.3644427 SPIN=   0.00000
   O  -0.0822402   0.0180677   0.1355378 SPIN=   0.00000
   O   0.2757706   0.1755772   0.3644427 SPIN=   0.00000
   O  -0.5822402  -0.4819323  -0.1355378 SPIN=   0.00000
   O  -0.2242294  -0.3244228  -0.3644427 SPIN=   0.00000
   O  -0.4819323  -0.5822402   0.1355378 SPIN=   0.00000
   O  -0.3244228  -0.2242294   0.3644427 SPIN=   0.00000
   P  -0.4597165   0.0402835   0.1783855 SPIN=   0.00000
   P   0.0402835  -0.4597165  -0.1783855 SPIN=   0.00000
  Fe  -0.4488509   0.0511491  -0.1470816 SPIN=   4.00000
  Fe   0.0511491  -0.4488509   0.1470816 SPIN=   4.00000
%ENDBLOCK POSITIONS_FRAC

# Note: total spin =   8.00

KPOINTS_MP_SPACING 0.07

%BLOCK SPECIES_POT
QC5
%ENDBLOCK SPECIES_POT

%BLOCK HUBBARD_U
Fe d:4.0
%ENDBLOCK HUBBARD_U

SNAP_TO_SYMMETRY
SYMMETRY_GENERATE

