#              Generated by Buildcell
#
# at 11:57:37 (GMT+0.0) 24th November 2020
# in /scratch/scratch/uccabz1/launch_tmp
# on node-a14b-007
# by uccabz1
#
# compiler GCC version 4.9.2
# options -cpp -iprefix /scratch/UCL/applications/gcc/4.9.2/bin/../lib/gcc/x86_64-unknown-linux-gnu/4.9.2/ -mtune=corei7 -march=x86-64 -g -O2
#
# seed   742134097  1670230400 -1701122452  1274839342 -1136947182  1684544563   625040164  -812850391  -576420005   628913555  1231459522    42424290
#
#      Author: C. J. Pickard (cjp20@cam.ac.uk)
#                Space group: Cc
#

%BLOCK LATTICE_ABC
      5.35532      5.35532      5.78902
     90.84842     90.84842    105.42170
%ENDBLOCK LATTICE_ABC

%BLOCK POSITIONS_FRAC
  Li  -0.0742827   0.0345134   0.2521277 SPIN=   0.00000
  Li   0.0345134  -0.0742827  -0.2478723 SPIN=   0.00000
   O   0.1893446  -0.7455381  -0.0337611 SPIN=   0.00000
   O   0.1348910  -0.2832765   0.0395344 SPIN=   0.00000
   O   0.5162817  -0.3280127  -0.1751876 SPIN=   0.00000
   O   0.0755602  -0.4714645  -0.3625058 SPIN=   0.00000
   P   0.2250959  -0.4726021  -0.1304057 SPIN=   0.00000
   O  -0.7455381   0.1893446   0.4662389 SPIN=   0.00000
   O  -0.2832765   0.1348910   0.5395344 SPIN=   0.00000
   O  -0.3280127   0.5162817   0.3248124 SPIN=   0.00000
   O  -0.4714645   0.0755602   0.1374942 SPIN=   0.00000
   P  -0.4726021   0.2250959   0.3695943 SPIN=   0.00000
  Fe   0.3284345  -0.3281710   0.3479343 SPIN=   4.00000
  Fe  -0.3281710   0.3284345  -0.1520657 SPIN=   4.00000
%ENDBLOCK POSITIONS_FRAC

# Note: total spin =   8.00

KPOINTS_MP_SPACING 0.07

%BLOCK SPECIES_POT
QC5
%ENDBLOCK SPECIES_POT

%BLOCK HUBBARD_U
Fe d:4.0
%ENDBLOCK HUBBARD_U

SNAP_TO_SYMMETRY
SYMMETRY_GENERATE

