#              Generated by Buildcell
#
# at 10:39:26 (GMT+0.0) 24th November 2020
# in /lustre/scratch/uccabz1/launch_tmp
# on node-c12c-035
# by uccabz1
#
# compiler GCC version 4.9.2
# options -cpp -iprefix /lustre/shared/ucl/apps/gcc/4.9.2/bin/../lib/gcc/x86_64-unknown-linux-gnu/4.9.2/ -mtune=corei7 -march=x86-64 -g -Og
#
# seed  1613879053   509325242 -1389756083  1263459201  -846151345 -1672058546  -396217428 -1509126514 -1682396342 -1962836081   365752164   587396334
#
#      Author: C. J. Pickard (cjp20@cam.ac.uk)
#                Space group: P-1
#

%BLOCK LATTICE_ABC
      3.92036      6.20792      6.83233
     97.65597    103.71243     90.14959
%ENDBLOCK LATTICE_ABC

%BLOCK POSITIONS_FRAC
  Li   0.0391178   0.3469081  -0.3337551 SPIN=   0.00000
  Li  -0.0391178  -0.3469081   0.3337551 SPIN=   0.00000
   O  -0.1724585   0.2720556   0.1880070 SPIN=   0.00000
   O  -0.2828167   0.4655123  -0.1348017 SPIN=   0.00000
   O  -0.0008413   0.1101833  -0.1447084 SPIN=   0.00000
   P  -0.2722377   0.2439599  -0.0458123 SPIN=   0.00000
   O   0.1724585  -0.2720556  -0.1880070 SPIN=   0.00000
   O   0.2828167  -0.4655123   0.1348017 SPIN=   0.00000
   O   0.0008413  -0.1101833   0.1447084 SPIN=   0.00000
   P   0.2722377  -0.2439599   0.0458123 SPIN=   0.00000
   O  -0.5000000   0.0000000  -0.5000000 SPIN=   0.00000
   O   0.5000000   0.5000000  -0.5000000 SPIN=   0.00000
  Fe   0.3573448   0.1894271   0.2617843 SPIN=   4.00000
  Fe  -0.3573448  -0.1894271  -0.2617843 SPIN=   4.00000
%ENDBLOCK POSITIONS_FRAC

# Note: total spin =   8.00

KPOINTS_MP_SPACING 0.07

%BLOCK SPECIES_POT
QC5
%ENDBLOCK SPECIES_POT

%BLOCK HUBBARD_U
Fe d:4.0
%ENDBLOCK HUBBARD_U

SNAP_TO_SYMMETRY
SYMMETRY_GENERATE

