#              Generated by Buildcell
#
# at 11:52:23 (GMT+0.0) 24th November 2020
# in /scratch/scratch/uccabz1/launch_tmp
# on node-k10i-025
# by uccabz1
#
# compiler GCC version 4.9.2
# options -cpp -iprefix /scratch/UCL/applications/gcc/4.9.2/bin/../lib/gcc/x86_64-unknown-linux-gnu/4.9.2/ -mtune=corei7 -march=x86-64 -g -O2
#
# seed  -829744689  -563797391 -1133970279   870658559  -275456606  1036992443  1184391778  -671653738   -11122585   356065650  1743099957  1748274822
#
#      Author: C. J. Pickard (cjp20@cam.ac.uk)
#                Space group: P21
#

%BLOCK LATTICE_ABC
      4.09441      5.39462      7.26386
     90.00000     90.00000     94.25716
%ENDBLOCK LATTICE_ABC

%BLOCK POSITIONS_FRAC
  Li   0.0551012  -0.3383396   0.4145207 SPIN=   0.00000
  Li  -0.0551012   0.3383396  -0.0854793 SPIN=   0.00000
   O  -0.1512644  -0.1089409   0.0251104 SPIN=   0.00000
   O  -0.2046208  -0.5326014   0.1966663 SPIN=   0.00000
   O  -0.4827707  -0.1819767   0.3277230 SPIN=   0.00000
   O  -0.6951416  -0.3836096   0.0365624 SPIN=   0.00000
   P  -0.3747650  -0.2924800   0.1387537 SPIN=   0.00000
   O   0.1512644   0.1089409  -0.4748896 SPIN=   0.00000
   O   0.2046208   0.5326014  -0.3033337 SPIN=   0.00000
   O   0.4827707   0.1819767  -0.1722770 SPIN=   0.00000
   O   0.6951416   0.3836096  -0.4634376 SPIN=   0.00000
   P   0.3747650   0.2924800  -0.3612463 SPIN=   0.00000
  Fe   0.4297598   0.1835450   0.2537451 SPIN=   4.00000
  Fe  -0.4297598  -0.1835450  -0.2462549 SPIN=   4.00000
%ENDBLOCK POSITIONS_FRAC

# Note: total spin =   8.00

KPOINTS_MP_SPACING 0.07

%BLOCK SPECIES_POT
QC5
%ENDBLOCK SPECIES_POT

%BLOCK HUBBARD_U
Fe d:4.0
%ENDBLOCK HUBBARD_U

SNAP_TO_SYMMETRY
SYMMETRY_GENERATE

