#              Generated by Buildcell
#
# at 14:47:38 (GMT+0.0) 24th November 2020
# in /lustre/scratch/uccabz1/launch_tmp
# on node-c12j-029
# by uccabz1
#
# compiler GCC version 4.9.2
# options -cpp -iprefix /lustre/shared/ucl/apps/gcc/4.9.2/bin/../lib/gcc/x86_64-unknown-linux-gnu/4.9.2/ -mtune=corei7 -march=x86-64 -g -Og
#
# seed   879628027  1153677223  1756055167  1285091482 -1774634880  -800081470  -363676654  1239714656  2138464441  2089916655  1268875397  1392145505
#
#      Author: C. J. Pickard (cjp20@cam.ac.uk)
#                Space group: Pmn21
#

%BLOCK LATTICE_ABC
      3.91977      5.52327      7.39031
     90.00000     90.00000     90.00000
%ENDBLOCK LATTICE_ABC

%BLOCK POSITIONS_FRAC
  Li   0.0406814   0.0000000   0.1933090 SPIN=   0.00000
  Li  -0.0406814   0.5000000  -0.3066910 SPIN=   0.00000
   O  -0.4630829  -0.2725959  -0.2388004 SPIN=   0.00000
   O  -0.0488753  -0.2339685  -0.5117280 SPIN=   0.00000
   O   0.4630829  -0.2274041   0.2611996 SPIN=   0.00000
   O   0.0488753  -0.2660315  -0.0117280 SPIN=   0.00000
   O   0.4630829   0.2274041   0.2611996 SPIN=   0.00000
   O   0.0488753   0.2660315  -0.0117280 SPIN=   0.00000
   O  -0.4630829   0.2725959  -0.2388004 SPIN=   0.00000
   O  -0.0488753   0.2339685  -0.5117280 SPIN=   0.00000
   P  -0.4556242   0.0000000  -0.0578482 SPIN=   0.00000
   P   0.4556242   0.5000000   0.4421518 SPIN=   0.00000
  Fe   0.4598143   0.5000000   0.0538838 SPIN=   4.00000
  Fe  -0.4598143   0.0000000  -0.4461162 SPIN=   4.00000
%ENDBLOCK POSITIONS_FRAC

# Note: total spin =   8.00

KPOINTS_MP_SPACING 0.07

%BLOCK SPECIES_POT
QC5
%ENDBLOCK SPECIES_POT

%BLOCK HUBBARD_U
Fe d:4.0
%ENDBLOCK HUBBARD_U

SNAP_TO_SYMMETRY
SYMMETRY_GENERATE

