#              Generated by Buildcell
#
# at 11:58:10 (GMT+0.0) 24th November 2020
# in /lustre/scratch/uccabz1/launch_tmp
# on node-c12b-020
# by uccabz1
#
# compiler GCC version 4.9.2
# options -cpp -iprefix /lustre/shared/ucl/apps/gcc/4.9.2/bin/../lib/gcc/x86_64-unknown-linux-gnu/4.9.2/ -mtune=corei7 -march=x86-64 -g -Og
#
# seed   -79569788 -1300657127  1377832504  -186649010  1670999485  -885375322  1499058604  1034335215   758753121  1689091176  1560005896   292828110
#
#      Author: C. J. Pickard (cjp20@cam.ac.uk)
#                Space group: Amm2
#

%BLOCK LATTICE_ABC
      5.42634      5.66131      5.92782
    118.52357     90.00000     90.00000
%ENDBLOCK LATTICE_ABC

%BLOCK POSITIONS_FRAC
  Li  -0.5000000  -0.3426139  -0.6852278 SPIN=   0.00000
  Li   0.0000000   0.1573854   0.3147707 SPIN=   0.00000
   O  -0.2483651   0.0301154  -0.3760585 SPIN=   0.00000
   O  -0.2471036   0.2961198   0.1224391 SPIN=   0.00000
   O   0.2483651  -0.4061739  -0.3760585 SPIN=   0.00000
   O   0.2471036  -0.1736807   0.1224391 SPIN=   0.00000
   O  -0.2483651  -0.4061739  -0.3760585 SPIN=   0.00000
   O  -0.2471036  -0.1736807   0.1224391 SPIN=   0.00000
   O   0.2483651   0.0301154  -0.3760585 SPIN=   0.00000
   O   0.2471036   0.2961198   0.1224391 SPIN=   0.00000
   P  -0.0000000  -0.1980815  -0.3961630 SPIN=   0.00000
   P   0.5000000   0.3026287   0.6052574 SPIN=   0.00000
  Fe  -0.0000000   0.4751920   0.9503840 SPIN=   3.48115
  Fe   0.5000000  -0.0248073  -0.0496146 SPIN=   4.51885
%ENDBLOCK POSITIONS_FRAC

# Note: total spin =   8.00

KPOINTS_MP_SPACING 0.07

%BLOCK SPECIES_POT
QC5
%ENDBLOCK SPECIES_POT

%BLOCK HUBBARD_U
Fe d:4.0
%ENDBLOCK HUBBARD_U

SNAP_TO_SYMMETRY
SYMMETRY_GENERATE

