#              Generated by Buildcell
#
# at 18:55:11 (GMT+0.0) 26th November 2020
# in /lustre/scratch/uccabz1/launch_tmp
# on node-c12i-029
# by uccabz1
#
# compiler GCC version 4.9.2
# options -cpp -iprefix /lustre/shared/ucl/apps/gcc/4.9.2/bin/../lib/gcc/x86_64-unknown-linux-gnu/4.9.2/ -mtune=corei7 -march=x86-64 -g -Og
#
# seed  -402621951  -879102050 -1589554390  1073504266  -135225290  -119357738 -2045627682   945909358  1383721347 -1995869853 -1443976737   945433716
#
#      Author: C. J. Pickard (cjp20@cam.ac.uk)
#                Space group: P-1
#

%BLOCK LATTICE_ABC
      5.33207      7.78779      8.66136
    112.01240     97.71612    100.29039
%ENDBLOCK LATTICE_ABC

%BLOCK POSITIONS_FRAC
  Li  -0.2231179  -0.1335867  -0.4774147 SPIN=   0.00000
  Li   0.2231179   0.1335867   0.4774147 SPIN=   0.00000
  Li  -0.2723909   0.4082916  -0.4934904 SPIN=   0.00000
  Li   0.2723909  -0.4082916   0.4934904 SPIN=   0.00000
   O  -0.3302728   0.5074317   0.2356249 SPIN=   0.00000
   O  -0.0183338   0.3326420   0.3393028 SPIN=   0.00000
   O  -0.3019740   0.1639493   0.0498748 SPIN=   0.00000
   O   0.0729136   0.4415188   0.1100676 SPIN=   0.00000
   P  -0.1517479   0.3701074   0.1856122 SPIN=   0.00000
   O   0.3302728  -0.5074317  -0.2356249 SPIN=   0.00000
   O   0.0183338  -0.3326420  -0.3393028 SPIN=   0.00000
   O   0.3019740  -0.1639493  -0.0498748 SPIN=   0.00000
   O  -0.0729136  -0.4415188  -0.1100676 SPIN=   0.00000
   P   0.1517479  -0.3701074  -0.1856122 SPIN=   0.00000
   O   0.3420627  -0.0203972  -0.3316058 SPIN=   0.00000
   O   0.0023744   0.0057466  -0.1403760 SPIN=   0.00000
   O   0.3626166   0.2898201  -0.0686348 SPIN=   0.00000
   O   0.0072760   0.1821837  -0.3298732 SPIN=   0.00000
   P   0.1852653   0.1079649  -0.2250162 SPIN=   0.00000
   O  -0.3420627   0.0203972   0.3316058 SPIN=   0.00000
   O  -0.0023744  -0.0057466   0.1403760 SPIN=   0.00000
   O  -0.3626166  -0.2898201   0.0686348 SPIN=   0.00000
   O  -0.0072760  -0.1821837   0.3298732 SPIN=   0.00000
   P  -0.1852653  -0.1079649   0.2250162 SPIN=   0.00000
  Fe  -0.2979716  -0.2182298  -0.1372657 SPIN=   4.21487
  Fe   0.2979716   0.2182298   0.1372657 SPIN=   4.21487
  Fe   0.2563538  -0.2710210   0.1751091 SPIN=   3.78513
  Fe  -0.2563538   0.2710210  -0.1751091 SPIN=   3.78513
%ENDBLOCK POSITIONS_FRAC

# Note: total spin =  16.00

KPOINTS_MP_SPACING 0.07

%BLOCK SPECIES_POT
QC5
%ENDBLOCK SPECIES_POT

%BLOCK HUBBARD_U
Fe d:4.0
%ENDBLOCK HUBBARD_U

SNAP_TO_SYMMETRY
SYMMETRY_GENERATE

