#              Generated by Buildcell
#
# at 01:35:04 (GMT+0.0) 27th November 2020
# in /lustre/scratch/uccabz1/launch_tmp
# on node-c12g-020
# by uccabz1
#
# compiler GCC version 4.9.2
# options -cpp -iprefix /lustre/shared/ucl/apps/gcc/4.9.2/bin/../lib/gcc/x86_64-unknown-linux-gnu/4.9.2/ -mtune=corei7 -march=x86-64 -g -Og
#
# seed  1012665707   531642813   812393010 -1739162287  1154691238  2019606274  -375184611  1507638268   361395190 -1111074635  1906338529  1310241086
#
#      Author: C. J. Pickard (cjp20@cam.ac.uk)
#                Space group: P2
#

%BLOCK LATTICE_ABC
      5.01945      7.48730      8.73734
    102.96284     90.00000     90.00000
%ENDBLOCK LATTICE_ABC

%BLOCK POSITIONS_FRAC
  Li  -0.0165429   0.4102430   0.1372361 SPIN=   0.00000
  Li  -0.0165429  -0.4102430  -0.1372361 SPIN=   0.00000
  Li   0.4046679  -0.1961851  -0.2959352 SPIN=   0.00000
  Li   0.4046679   0.1961851   0.2959352 SPIN=   0.00000
   O   0.5845142   0.5151052  -0.1879080 SPIN=   0.00000
   O   0.1743711   0.5642943  -0.3551278 SPIN=   0.00000
   O   0.5196592   0.3435920  -0.4787834 SPIN=   0.00000
   O   0.2232222   0.2668424  -0.2720731 SPIN=   0.00000
   P   0.3847774   0.4255550  -0.3156483 SPIN=   0.00000
   O   0.5845142  -0.5151052   0.1879080 SPIN=   0.00000
   O   0.1743711  -0.5642943   0.3551278 SPIN=   0.00000
   O   0.5196592  -0.3435920   0.4787834 SPIN=   0.00000
   O   0.2232222  -0.2668424   0.2720731 SPIN=   0.00000
   P   0.3847774  -0.4255550   0.3156483 SPIN=   0.00000
   O   0.0271886  -0.1111851   0.0835507 SPIN=   0.00000
   O  -0.3425118  -0.0896129   0.2950277 SPIN=   0.00000
   O   0.0938749   0.0529725   0.3761769 SPIN=   0.00000
   O  -0.2078191   0.1938366   0.2076060 SPIN=   0.00000
   P  -0.1013412   0.0071220   0.2318395 SPIN=   0.00000
   O   0.0271886   0.1111851  -0.0835507 SPIN=   0.00000
   O  -0.3425118   0.0896129  -0.2950277 SPIN=   0.00000
   O   0.0938749  -0.0529725  -0.3761769 SPIN=   0.00000
   O  -0.2078191  -0.1938366  -0.2076060 SPIN=   0.00000
   P  -0.1013412  -0.0071220  -0.2318395 SPIN=   0.00000
  Fe   0.4802626  -0.2225362   0.0815219 SPIN=   2.55875
  Fe   0.4802626   0.2225362  -0.0815219 SPIN=   2.55875
  Fe  -0.0923196  -0.2604683   0.4517424 SPIN=   5.44125
  Fe  -0.0923196   0.2604683  -0.4517424 SPIN=   5.44125
%ENDBLOCK POSITIONS_FRAC

# Note: total spin =  16.00

KPOINTS_MP_SPACING 0.07

%BLOCK SPECIES_POT
QC5
%ENDBLOCK SPECIES_POT

%BLOCK HUBBARD_U
Fe d:4.0
%ENDBLOCK HUBBARD_U

SNAP_TO_SYMMETRY
SYMMETRY_GENERATE

