#              Generated by Buildcell
#
# at 06:43:51 (GMT+0.0) 24th November 2020
# in /lustre/scratch/uccabz1/launch_tmp
# on node-c12l-023
# by uccabz1
#
# compiler GCC version 4.9.2
# options -cpp -iprefix /lustre/shared/ucl/apps/gcc/4.9.2/bin/../lib/gcc/x86_64-unknown-linux-gnu/4.9.2/ -mtune=corei7 -march=x86-64 -g -Og
#
# seed -1908916869   606076088  1870678797  1446054060  1035321558  -753201135  1029506076 -1729264918   289710713  -621120449  1592948921  -926480594
#
#      Author: C. J. Pickard (cjp20@cam.ac.uk)
#                Space group: C2
#

%BLOCK LATTICE_ABC
      5.42160      5.42160      6.14430
     81.32614     81.32614     64.14852
%ENDBLOCK LATTICE_ABC

%BLOCK POSITIONS_FRAC
  Li   0.0697105  -0.3979591   0.0896704 SPIN=   0.00000
  Li   0.3979591  -0.0697105  -0.0896704 SPIN=   0.00000
   O   0.8555907  -0.0393103   0.2540075 SPIN=   0.00000
   O   0.6470097  -0.3873881   0.2457430 SPIN=   0.00000
   O   0.5062724  -0.1130023   0.5657409 SPIN=   0.00000
   O   0.3445853   0.1181155   0.1964377 SPIN=   0.00000
   P   0.5997161  -0.0992399   0.3108042 SPIN=   0.00000
   O  -0.9606897   0.1444093  -0.2540075 SPIN=   0.00000
   O  -0.6126119   0.3529903  -0.2457430 SPIN=   0.00000
   O  -0.8869977   0.4937276  -0.5657409 SPIN=   0.00000
   O  -1.1181155   0.6554147  -0.1964377 SPIN=   0.00000
   P  -0.9007601   0.4002839  -0.3108042 SPIN=   0.00000
  Fe   0.1062143  -0.1062143  -0.5000000 SPIN=   4.47735
  Fe  -0.2768539   0.2768539  -0.0000000 SPIN=   3.52265
%ENDBLOCK POSITIONS_FRAC

# Note: total spin =   8.00

KPOINTS_MP_SPACING 0.07

%BLOCK SPECIES_POT
QC5
%ENDBLOCK SPECIES_POT

%BLOCK HUBBARD_U
Fe d:4.0
%ENDBLOCK HUBBARD_U

SNAP_TO_SYMMETRY
SYMMETRY_GENERATE

