#              Generated by Buildcell
#
# at 20:02:52 (GMT+0.0) 26th November 2020
# in /scratch/scratch/mmm0366/launch_tmp
# on node-k98g-016
# by mmm0366
#
# compiler GCC version 4.9.2
# options -cpp -iprefix /scratch/UCL/applications/gcc/4.9.2/bin/../lib/gcc/x86_64-unknown-linux-gnu/4.9.2/ -mtune=corei7 -march=x86-64 -g -O2
#
# seed -1696651218  1098244886   154778935   514474521   562777933  1375113820  1903030090  1456614121 -1409021693  1255984209  1264860456  1407626125
#
#      Author: C. J. Pickard (cjp20@cam.ac.uk)
#                Space group: I-4
#

%BLOCK LATTICE_ABC
      5.89900      7.93385      7.93385
     82.05591     68.17570     68.17570
%ENDBLOCK LATTICE_ABC

%BLOCK POSITIONS_FRAC
  Li  -0.3005999   0.4275400   0.3080606 SPIN=   0.00000
  Li   0.4350007  -0.4275400  -0.3080606 SPIN=   0.00000
  Li  -0.0074607   0.3080606  -0.4275400 SPIN=   0.00000
  Li  -0.1269401  -0.3080606   0.4275400 SPIN=   0.00000
   O   0.2655631  -0.4671891   0.2769669 SPIN=   0.00000
   O   0.1942924  -0.2339450   0.0207710 SPIN=   0.00000
   O   0.4723088  -0.2156282   0.1808537 SPIN=   0.00000
   O   0.6330522  -0.4749502  -0.0307757 SPIN=   0.00000
   P   0.3874619  -0.3557772   0.1190557 SPIN=   0.00000
   O   0.0753409   0.4671891  -0.2769669 SPIN=   0.00000
   O  -0.0188816   0.2339450  -0.0207710 SPIN=   0.00000
   O   0.4375343   0.2156282  -0.1808537 SPIN=   0.00000
   O   0.1273263   0.4749502   0.0307757 SPIN=   0.00000
   P   0.1507404   0.3557772  -0.1190557 SPIN=   0.00000
   O   0.4574700   0.2769669   0.4671891 SPIN=   0.00000
   O   0.7849366   0.0207710   0.2339450 SPIN=   0.00000
   O   0.3468375   0.1808537   0.2156282 SPIN=   0.00000
   O   0.3977235  -0.0307757   0.4749502 SPIN=   0.00000
   P   0.4934824   0.1190557   0.3557772 SPIN=   0.00000
   O   0.2016260  -0.2769669  -0.4671891 SPIN=   0.00000
   O   0.0396526  -0.0207710  -0.2339450 SPIN=   0.00000
   O  -0.2566806  -0.1808537  -0.2156282 SPIN=   0.00000
   O  -0.1581020   0.0307757  -0.4749502 SPIN=   0.00000
   P  -0.0316847  -0.1190557  -0.3557772 SPIN=   0.00000
  Fe   0.4040541  -0.0109005  -0.2651766 SPIN=   4.00000
  Fe   0.1279770   0.0109005   0.2651766 SPIN=   4.00000
  Fe  -0.1388776  -0.2651766   0.0109005 SPIN=   4.00000
  Fe  -0.3931536   0.2651766  -0.0109005 SPIN=   4.00000
%ENDBLOCK POSITIONS_FRAC

# Note: total spin =  16.00

KPOINTS_MP_SPACING 0.07

%BLOCK SPECIES_POT
QC5
%ENDBLOCK SPECIES_POT

%BLOCK HUBBARD_U
Fe d:4.0
%ENDBLOCK HUBBARD_U

SNAP_TO_SYMMETRY
SYMMETRY_GENERATE

