#              Generated by Buildcell
#
# at 00:46:58 (GMT+0.0) 27th November 2020
# in /lustre/scratch/uccabz1/launch_tmp
# on node-c12j-020
# by uccabz1
#
# compiler GCC version 4.9.2
# options -cpp -iprefix /lustre/shared/ucl/apps/gcc/4.9.2/bin/../lib/gcc/x86_64-unknown-linux-gnu/4.9.2/ -mtune=corei7 -march=x86-64 -g -Og
#
# seed -1676580974  -201259015  -705237067   284035444   228396757   960429312  -528024292 -1660649115 -1238076134 -1223677782  1180272673  -605251405
#
#      Author: C. J. Pickard (cjp20@cam.ac.uk)
#                Space group: Pmn21
#

%BLOCK LATTICE_ABC
      3.93459      8.94588      9.09134
     90.00000     90.00000     90.00000
%ENDBLOCK LATTICE_ABC

%BLOCK POSITIONS_FRAC
  Li  -0.0556147   0.1548129   0.3228143 SPIN=   0.00000
  Li   0.0556147  -0.3451871   0.1771857 SPIN=   0.00000
  Li   0.0556147  -0.3451871  -0.1771857 SPIN=   0.00000
  Li  -0.0556147   0.1548129  -0.3228143 SPIN=   0.00000
   O  -0.5564537  -0.0048560   0.3497493 SPIN=   0.00000
   O  -0.5360517  -0.1985363   0.1369877 SPIN=   0.00000
   O  -0.0360395  -0.0365295   0.1766358 SPIN=   0.00000
   O  -0.1698179  -0.2380072   0.3589139 SPIN=   0.00000
   P  -0.3351098  -0.1147777   0.2618057 SPIN=   0.00000
   O   0.5564537   0.4951440   0.1502507 SPIN=   0.00000
   O   0.5360517   0.3014637   0.3630123 SPIN=   0.00000
   O   0.0360395   0.4634705   0.3233642 SPIN=   0.00000
   O   0.1698179   0.2619928   0.1410861 SPIN=   0.00000
   P   0.3351098   0.3852223   0.2381943 SPIN=   0.00000
   O   0.5564537   0.4951440  -0.1502507 SPIN=   0.00000
   O   0.5360517   0.3014637  -0.3630123 SPIN=   0.00000
   O   0.0360395   0.4634705  -0.3233642 SPIN=   0.00000
   O   0.1698179   0.2619928  -0.1410861 SPIN=   0.00000
   P   0.3351098   0.3852223  -0.2381943 SPIN=   0.00000
   O  -0.5564537  -0.0048560  -0.3497493 SPIN=   0.00000
   O  -0.5360517  -0.1985363  -0.1369877 SPIN=   0.00000
   O  -0.0360395  -0.0365295  -0.1766358 SPIN=   0.00000
   O  -0.1698179  -0.2380072  -0.3589139 SPIN=   0.00000
   P  -0.3351098  -0.1147777  -0.2618057 SPIN=   0.00000
  Fe   0.3124515  -0.0226510   0.0000000 SPIN=   4.64721
  Fe  -0.3124515   0.4773490  -0.5000000 SPIN=   4.64721
  Fe  -0.1954912   0.3537800   0.0000000 SPIN=   3.35279
  Fe   0.1954912  -0.1462200  -0.5000000 SPIN=   3.35279
%ENDBLOCK POSITIONS_FRAC

# Note: total spin =  16.00

KPOINTS_MP_SPACING 0.07

%BLOCK SPECIES_POT
QC5
%ENDBLOCK SPECIES_POT

%BLOCK HUBBARD_U
Fe d:4.0
%ENDBLOCK HUBBARD_U

SNAP_TO_SYMMETRY
SYMMETRY_GENERATE

