#              Generated by Buildcell
#
# at 14:57:10 (GMT+0.0) 26th November 2020
# in /lustre/scratch/uccabz1/launch_tmp
# on node-c12f-024
# by uccabz1
#
# compiler GCC version 4.9.2
# options -cpp -iprefix /lustre/shared/ucl/apps/gcc/4.9.2/bin/../lib/gcc/x86_64-unknown-linux-gnu/4.9.2/ -mtune=corei7 -march=x86-64 -g -Og
#
# seed -1494491082   829350111  -369012599  2112650380   498228563  -406906662  1711578801  1061478158   537340489  1134969887  1547519323 -1629589405
#
#      Author: C. J. Pickard (cjp20@cam.ac.uk)
#                Space group: Cm
#

%BLOCK LATTICE_ABC
      6.40915      6.40915      8.22778
    102.68434    102.68434     92.80182
%ENDBLOCK LATTICE_ABC

%BLOCK POSITIONS_FRAC
  Li  -0.3691007  -0.3691007   0.2282186 SPIN=   0.00000
  Li  -0.0851238  -0.0851238  -0.1397428 SPIN=   0.00000
  Li   0.3796823   0.3796823  -0.1181499 SPIN=   0.00000
  Li   0.1766087   0.1766087   0.2015451 SPIN=   0.00000
   O   0.3111380  -0.4285092   0.2468914 SPIN=   0.00000
   O   0.0477502  -0.2155498   0.0744273 SPIN=   0.00000
   O  -0.0374076  -0.3024781   0.3321170 SPIN=   0.00000
   O   0.2705598  -0.0283768   0.3651356 SPIN=   0.00000
   P   0.1581421  -0.2510257   0.2555340 SPIN=   0.00000
   O  -0.4285092   0.3111380   0.2468914 SPIN=   0.00000
   O  -0.2155498   0.0477502   0.0744273 SPIN=   0.00000
   O  -0.3024781  -0.0374076   0.3321170 SPIN=   0.00000
   O  -0.0283768   0.2705598   0.3651356 SPIN=   0.00000
   P  -0.2510257   0.1581421   0.2555340 SPIN=   0.00000
   O   0.1628906  -0.2318186  -0.2369294 SPIN=   0.00000
   O   0.0791354  -0.6454893  -0.2918145 SPIN=   0.00000
   O  -0.1787691  -0.4458610  -0.4521948 SPIN=   0.00000
   P   0.0677328  -0.4421018  -0.3699270 SPIN=   0.00000
   O  -0.2318186   0.1628906  -0.2369294 SPIN=   0.00000
   O  -0.6454893   0.0791354  -0.2918145 SPIN=   0.00000
   O  -0.4458610  -0.1787691  -0.4521948 SPIN=   0.00000
   P  -0.4421018   0.0677328  -0.3699270 SPIN=   0.00000
   O   0.1657987   0.1657987  -0.0577866 SPIN=   0.00000
   O  -0.3406949  -0.3406949  -0.0279373 SPIN=   0.00000
  Fe  -0.0957344   0.4428548  -0.0516441 SPIN=   4.85244
  Fe   0.4428548  -0.0957344  -0.0516441 SPIN=   4.85244
  Fe   0.4897376   0.4897376  -0.4573570 SPIN=   2.83740
  Fe   0.0439975   0.0439975  -0.4696574 SPIN=   3.45772
%ENDBLOCK POSITIONS_FRAC

# Note: total spin =  16.00

KPOINTS_MP_SPACING 0.07

%BLOCK SPECIES_POT
QC5
%ENDBLOCK SPECIES_POT

%BLOCK HUBBARD_U
Fe d:4.0
%ENDBLOCK HUBBARD_U

SNAP_TO_SYMMETRY
SYMMETRY_GENERATE

