#              Generated by Buildcell
#
# at 19:58:47 (GMT+0.0) 26th November 2020
# in /lustre/scratch/uccabz1/launch_tmp
# on node-c12m-034
# by uccabz1
#
# compiler GCC version 4.9.2
# options -cpp -iprefix /lustre/shared/ucl/apps/gcc/4.9.2/bin/../lib/gcc/x86_64-unknown-linux-gnu/4.9.2/ -mtune=corei7 -march=x86-64 -g -Og
#
# seed  -680685742   679576020 -1074899741    85048600 -1651160595  1785403332  1144559846  1474659152  -434615238 -1687300565 -1070435368 -1914398271
#
#      Author: C. J. Pickard (cjp20@cam.ac.uk)
#                Space group: Pnc2
#

%BLOCK LATTICE_ABC
      5.99056      6.02349      8.86818
     90.00000     90.00000     90.00000
%ENDBLOCK LATTICE_ABC

%BLOCK POSITIONS_FRAC
  Li  -0.2499969  -0.3139646  -0.4825868 SPIN=   0.00000
  Li   0.2499969  -0.3139646   0.4825868 SPIN=   0.00000
  Li  -0.2500031   0.1860354  -0.4825868 SPIN=   0.00000
  Li   0.2500031   0.1860354   0.4825868 SPIN=   0.00000
   O   0.1617346  -0.2052074  -0.1294988 SPIN=   0.00000
   O   0.0372917   0.0237855  -0.3631012 SPIN=   0.00000
   O  -0.2317431  -0.2390708  -0.2505388 SPIN=   0.00000
   P  -0.0312300  -0.0826087  -0.2078728 SPIN=   0.00000
   O  -0.1617346  -0.2052074   0.1294988 SPIN=   0.00000
   O  -0.0372917   0.0237855   0.3631012 SPIN=   0.00000
   O   0.2317431  -0.2390708   0.2505388 SPIN=   0.00000
   P   0.0312300  -0.0826087   0.2078728 SPIN=   0.00000
   O  -0.6617346   0.2947926  -0.1294988 SPIN=   0.00000
   O  -0.5372917   0.5237855  -0.3631012 SPIN=   0.00000
   O  -0.2682569   0.2609292  -0.2505388 SPIN=   0.00000
   P  -0.4687700   0.4173913  -0.2078728 SPIN=   0.00000
   O   0.6617346   0.2947926   0.1294988 SPIN=   0.00000
   O   0.5372917   0.5237855   0.3631012 SPIN=   0.00000
   O   0.2682569   0.2609292   0.2505388 SPIN=   0.00000
   P   0.4687700   0.4173913   0.2078728 SPIN=   0.00000
   O  -0.0000000   0.1202691   0.0000000 SPIN=   0.00000
   O  -0.5000000  -0.3797309   0.0000000 SPIN=   0.00000
   O  -0.5000000  -0.0633423  -0.5000000 SPIN=   0.00000
   O  -0.0000000   0.4366577   0.5000000 SPIN=   0.00000
  Fe  -0.4577857  -0.0639607   0.2170513 SPIN=   4.00000
  Fe   0.4577857  -0.0639607  -0.2170513 SPIN=   4.00000
  Fe  -0.0422143   0.4360393   0.2170513 SPIN=   4.00000
  Fe   0.0422143   0.4360393  -0.2170513 SPIN=   4.00000
%ENDBLOCK POSITIONS_FRAC

# Note: total spin =  16.00

KPOINTS_MP_SPACING 0.07

%BLOCK SPECIES_POT
QC5
%ENDBLOCK SPECIES_POT

%BLOCK HUBBARD_U
Fe d:4.0
%ENDBLOCK HUBBARD_U

SNAP_TO_SYMMETRY
SYMMETRY_GENERATE

