#              Generated by Buildcell
#
# at 10:30:29 (GMT+0.0) 26th November 2020
# in /lustre/scratch/uccabz1/launch_tmp
# on node-c12b-021
# by uccabz1
#
# compiler GCC version 4.9.2
# options -cpp -iprefix /lustre/shared/ucl/apps/gcc/4.9.2/bin/../lib/gcc/x86_64-unknown-linux-gnu/4.9.2/ -mtune=corei7 -march=x86-64 -g -Og
#
# seed -1028331218 -1632782817  -125646548  -975236181  -867299917 -2081872997  -186775803 -1961817945  1851434652   873965633  1698223743   622240329
#
#      Author: C. J. Pickard (cjp20@cam.ac.uk)
#                Space group: P2
#

%BLOCK LATTICE_ABC
      5.47587      5.97167      9.80541
     90.00000     93.61388     90.00000
%ENDBLOCK LATTICE_ABC

%BLOCK POSITIONS_FRAC
  Li  -0.5000000  -0.3720088  -0.0000000 SPIN=   0.00000
  Li   0.0000000   0.0423554   0.5000000 SPIN=   0.00000
  Li   0.0000000   0.3419695   0.0000000 SPIN=   0.00000
  Li   0.5000000   0.1286585   0.0000000 SPIN=   0.00000
   O  -0.4538311   0.1094660   0.3784508 SPIN=   0.00000
   O  -0.2673502  -0.0227295   0.1549688 SPIN=   0.00000
   O  -0.1391120  -0.2151467   0.3707002 SPIN=   0.00000
   O  -0.5639794  -0.2718816   0.2664938 SPIN=   0.00000
   P  -0.3637271  -0.0909436   0.2969129 SPIN=   0.00000
   O   0.4538311   0.1094660  -0.3784508 SPIN=   0.00000
   O   0.2673502  -0.0227295  -0.1549688 SPIN=   0.00000
   O   0.1391120  -0.2151467  -0.3707002 SPIN=   0.00000
   O   0.5639794  -0.2718816  -0.2664938 SPIN=   0.00000
   P   0.3637271  -0.0909436  -0.2969129 SPIN=   0.00000
   O   0.0531800   0.1791787   0.3068229 SPIN=   0.00000
   O   0.3833318   0.3554341   0.1608885 SPIN=   0.00000
   O  -0.0122597   0.5511844   0.1720562 SPIN=   0.00000
   P   0.1710682   0.3967370   0.2587988 SPIN=   0.00000
   O  -0.0531800   0.1791787  -0.3068229 SPIN=   0.00000
   O  -0.3833318   0.3554341  -0.1608885 SPIN=   0.00000
   O   0.0122597   0.5511844  -0.1720562 SPIN=   0.00000
   P  -0.1710682   0.3967370  -0.2587988 SPIN=   0.00000
   O  -0.5000000  -0.4313453  -0.5000000 SPIN=   0.00000
   O   0.0000000   0.4473424   0.5000000 SPIN=   0.00000
  Fe   0.3209988   0.4344036  -0.3347405 SPIN=   1.88400
  Fe  -0.3209988   0.4344036   0.3347405 SPIN=   1.88400
  Fe   0.1112765  -0.1174815   0.1916096 SPIN=   6.11600
  Fe  -0.1112765  -0.1174815  -0.1916096 SPIN=   6.11600
%ENDBLOCK POSITIONS_FRAC

# Note: total spin =  16.00

KPOINTS_MP_SPACING 0.07

%BLOCK SPECIES_POT
QC5
%ENDBLOCK SPECIES_POT

%BLOCK HUBBARD_U
Fe d:4.0
%ENDBLOCK HUBBARD_U

SNAP_TO_SYMMETRY
SYMMETRY_GENERATE

