#              Generated by Buildcell
#
# at 10:43:46 (GMT+0.0) 26th November 2020
# in /lustre/scratch/uccabz1/launch_tmp
# on node-c12e-026
# by uccabz1
#
# compiler GCC version 4.9.2
# options -cpp -iprefix /lustre/shared/ucl/apps/gcc/4.9.2/bin/../lib/gcc/x86_64-unknown-linux-gnu/4.9.2/ -mtune=corei7 -march=x86-64 -g -Og
#
# seed -1894307488  1368813196  -436733958  -320989215   127653255  1041914329  -203725285  -963442101  -339677735   879018999  1345444550   494295291
#
#      Author: C. J. Pickard (cjp20@cam.ac.uk)
#                Space group: P21/c
#

%BLOCK LATTICE_ABC
      5.79493      6.01880      9.61586
    107.42275     90.00000     90.00000
%ENDBLOCK LATTICE_ABC

%BLOCK POSITIONS_FRAC
  Li  -0.2871018  -0.1545814  -0.0272615 SPIN=   0.00000
  Li   0.2128982  -0.3454186   0.0272615 SPIN=   0.00000
  Li   0.2871018   0.1545814   0.0272615 SPIN=   0.00000
  Li  -0.2128982   0.3454186  -0.0272615 SPIN=   0.00000
   O   0.2080663  -0.5831405   0.2225193 SPIN=   0.00000
   O   0.0741613  -0.1977534   0.4110066 SPIN=   0.00000
   O  -0.1776054  -0.3766007   0.1998621 SPIN=   0.00000
   O  -0.1350461  -0.5680845   0.3965574 SPIN=   0.00000
   P   0.0023736  -0.4410875   0.3040134 SPIN=   0.00000
   O   0.7080663   0.0831405  -0.2225193 SPIN=   0.00000
   O   0.5741613  -0.3022466  -0.4110066 SPIN=   0.00000
   O   0.3223946  -0.1233993  -0.1998621 SPIN=   0.00000
   O   0.3649539   0.0680845  -0.3965574 SPIN=   0.00000
   P   0.5023736  -0.0589125  -0.3040134 SPIN=   0.00000
   O  -0.2080663   0.5831405  -0.2225193 SPIN=   0.00000
   O  -0.0741613   0.1977534  -0.4110066 SPIN=   0.00000
   O   0.1776054   0.3766007  -0.1998621 SPIN=   0.00000
   O   0.1350461   0.5680845  -0.3965574 SPIN=   0.00000
   P  -0.0023736   0.4410875  -0.3040134 SPIN=   0.00000
   O  -0.7080663  -0.0831405   0.2225193 SPIN=   0.00000
   O  -0.5741613   0.3022466   0.4110066 SPIN=   0.00000
   O  -0.3223946   0.1233993   0.1998621 SPIN=   0.00000
   O  -0.3649539  -0.0680845   0.3965574 SPIN=   0.00000
   P  -0.5023736   0.0589125   0.3040134 SPIN=   0.00000
  Fe  -0.0083690   0.0898795   0.3202741 SPIN=   4.00000
  Fe   0.4916310   0.4101205  -0.3202741 SPIN=   4.00000
  Fe   0.0083690  -0.0898795  -0.3202741 SPIN=   4.00000
  Fe  -0.4916310  -0.4101205   0.3202741 SPIN=   4.00000
%ENDBLOCK POSITIONS_FRAC

# Note: total spin =  16.00

KPOINTS_MP_SPACING 0.07

%BLOCK SPECIES_POT
QC5
%ENDBLOCK SPECIES_POT

%BLOCK HUBBARD_U
Fe d:4.0
%ENDBLOCK HUBBARD_U

SNAP_TO_SYMMETRY
SYMMETRY_GENERATE

