#              Generated by Buildcell
#
# at 20:34:25 (GMT+0.0) 26th November 2020
# in /lustre/scratch/uccabz1/launch_tmp
# on node-c12k-024
# by uccabz1
#
# compiler GCC version 4.9.2
# options -cpp -iprefix /lustre/shared/ucl/apps/gcc/4.9.2/bin/../lib/gcc/x86_64-unknown-linux-gnu/4.9.2/ -mtune=corei7 -march=x86-64 -g -Og
#
# seed   285224076  -616289869  1478479394   751229428 -1383801781 -1421714926  2112549472  -734791449   359294109  -385371001 -1053892524  1038909571
#
#      Author: C. J. Pickard (cjp20@cam.ac.uk)
#                Space group: P2
#

%BLOCK LATTICE_ABC
      3.89659      7.97957     10.34302
     90.00000     95.71179     90.00000
%ENDBLOCK LATTICE_ABC

%BLOCK POSITIONS_FRAC
  Li   0.4976425   0.0929010  -0.2568574 SPIN=   0.00000
  Li  -0.4976425   0.0929010   0.2568574 SPIN=   0.00000
  Li  -0.4444801   0.4803682  -0.3121420 SPIN=   0.00000
  Li   0.4444801   0.4803682   0.3121420 SPIN=   0.00000
   O  -0.0477579  -0.3497354  -0.1588241 SPIN=   0.00000
   O  -0.1171358  -0.0800766  -0.2997717 SPIN=   0.00000
   O   0.3630171  -0.0935878  -0.1251722 SPIN=   0.00000
   O   0.3818251  -0.2715266  -0.3237965 SPIN=   0.00000
   P   0.1375193  -0.2076309  -0.2244105 SPIN=   0.00000
   O   0.0477579  -0.3497354   0.1588241 SPIN=   0.00000
   O   0.1171358  -0.0800766   0.2997717 SPIN=   0.00000
   O  -0.3630171  -0.0935878   0.1251722 SPIN=   0.00000
   O  -0.3818251  -0.2715266   0.3237965 SPIN=   0.00000
   P  -0.1375193  -0.2076309   0.2244105 SPIN=   0.00000
   O  -0.0363734   0.1569100  -0.1473311 SPIN=   0.00000
   O   0.4897398   0.3584017  -0.1335790 SPIN=   0.00000
   O   0.0524397   0.3816171  -0.3227037 SPIN=   0.00000
   P   0.0930448   0.3343326  -0.1743282 SPIN=   0.00000
   O   0.0363734   0.1569100   0.1473311 SPIN=   0.00000
   O  -0.4897398   0.3584017   0.1335790 SPIN=   0.00000
   O  -0.0524397   0.3816171   0.3227037 SPIN=   0.00000
   P  -0.0930448   0.3343326   0.1743282 SPIN=   0.00000
   O   0.5000000   0.3565199   0.5000000 SPIN=   0.00000
   O   0.0000000  -0.4025116   0.5000000 SPIN=   0.00000
  Fe  -0.0000000  -0.0222113   0.0000000 SPIN=   4.26951
  Fe   0.5000000  -0.4444786   0.0000000 SPIN=   5.11362
  Fe  -0.5000000  -0.1727887  -0.5000000 SPIN=   5.73754
  Fe   0.0000000   0.2518735   0.5000000 SPIN=   0.87933
%ENDBLOCK POSITIONS_FRAC

# Note: total spin =  16.00

KPOINTS_MP_SPACING 0.07

%BLOCK SPECIES_POT
QC5
%ENDBLOCK SPECIES_POT

%BLOCK HUBBARD_U
Fe d:4.0
%ENDBLOCK HUBBARD_U

SNAP_TO_SYMMETRY
SYMMETRY_GENERATE

