#              Generated by Buildcell
#
# at 06:23:18 (GMT+0.0) 24th November 2020
# in /lustre/scratch/uccabz1/launch_tmp
# on node-c12f-020
# by uccabz1
#
# compiler GCC version 4.9.2
# options -cpp -iprefix /lustre/shared/ucl/apps/gcc/4.9.2/bin/../lib/gcc/x86_64-unknown-linux-gnu/4.9.2/ -mtune=corei7 -march=x86-64 -g -Og
#
# seed   562450594 -1849510223 -1377620077   284179780   790521885   177784094  -432822146  1001910781 -1509993317  -550864536   295767412 -1007638937
#
#      Author: C. J. Pickard (cjp20@cam.ac.uk)
#                Space group: C2
#

%BLOCK LATTICE_ABC
      4.49984      4.49984      8.08852
     81.26060     81.26060     88.72767
%ENDBLOCK LATTICE_ABC

%BLOCK POSITIONS_FRAC
  Li  -0.1203103   0.1203103  -0.0000000 SPIN=   0.00000
  Li   0.3965989  -0.3965989  -0.0000000 SPIN=   0.00000
   O   0.5824956   0.4581477   0.2367728 SPIN=   0.00000
   O   0.4393753  -0.0106702   0.1136799 SPIN=   0.00000
   O   0.5032222  -0.0729151   0.4149477 SPIN=   0.00000
   O   0.0583144   0.2098499   0.3201530 SPIN=   0.00000
   P   0.4018064   0.1634702   0.2701207 SPIN=   0.00000
   O  -0.4581477  -0.5824956  -0.2367728 SPIN=   0.00000
   O   0.0106702  -0.4393753  -0.1136799 SPIN=   0.00000
   O   0.0729151  -0.5032222  -0.4149477 SPIN=   0.00000
   O  -0.2098499  -0.0583144  -0.3201530 SPIN=   0.00000
   P  -0.1634702  -0.4018064  -0.2701207 SPIN=   0.00000
  Fe   0.3491503   0.0728689  -0.3521003 SPIN=   4.00000
  Fe  -0.0728689  -0.3491503   0.3521003 SPIN=   4.00000
%ENDBLOCK POSITIONS_FRAC

# Note: total spin =   8.00

KPOINTS_MP_SPACING 0.07

%BLOCK SPECIES_POT
QC5
%ENDBLOCK SPECIES_POT

%BLOCK HUBBARD_U
Fe d:4.0
%ENDBLOCK HUBBARD_U

SNAP_TO_SYMMETRY
SYMMETRY_GENERATE

