#              Generated by Buildcell
#
# at 07:09:09 (GMT+0.0) 24th November 2020
# in /lustre/scratch/uccabz1/launch_tmp
# on node-c12a-034
# by uccabz1
#
# compiler GCC version 4.9.2
# options -cpp -iprefix /lustre/shared/ucl/apps/gcc/4.9.2/bin/../lib/gcc/x86_64-unknown-linux-gnu/4.9.2/ -mtune=corei7 -march=x86-64 -g -Og
#
# seed   920644087 -1855223535  1341481220  1625190290  1947180203  1815779145  2142399983 -1034727222   260820019  -904522046  1691660497 -2080626664
#
#      Author: C. J. Pickard (cjp20@cam.ac.uk)
#                Space group: P-1
#

%BLOCK LATTICE_ABC
      5.47277      5.72439      5.74685
     96.65094    116.18496     90.99894
%ENDBLOCK LATTICE_ABC

%BLOCK POSITIONS_FRAC
  Li   0.0533353  -0.2353406  -0.3940630 SPIN=   0.00000
  Li  -0.0533353   0.2353406   0.3940630 SPIN=   0.00000
   O   0.5273372  -0.2408971   0.5585400 SPIN=   0.00000
   O   0.3819483  -0.3358321   0.0599748 SPIN=   0.00000
   O   0.0935849  -0.5089490   0.2368712 SPIN=   0.00000
   O   0.1037600  -0.0751020   0.2127576 SPIN=   0.00000
   P   0.2879647  -0.2850318   0.2819165 SPIN=   0.00000
   O  -0.5273372   0.2408971  -0.5585400 SPIN=   0.00000
   O  -0.3819483   0.3358321  -0.0599748 SPIN=   0.00000
   O  -0.0935849   0.5089490  -0.2368712 SPIN=   0.00000
   O  -0.1037600   0.0751020  -0.2127576 SPIN=   0.00000
   P  -0.2879647   0.2850318  -0.2819165 SPIN=   0.00000
  Fe   0.2797596   0.2493811   0.0366605 SPIN=   4.00000
  Fe  -0.2797596  -0.2493811  -0.0366605 SPIN=   4.00000
%ENDBLOCK POSITIONS_FRAC

# Note: total spin =   8.00

KPOINTS_MP_SPACING 0.07

%BLOCK SPECIES_POT
QC5
%ENDBLOCK SPECIES_POT

%BLOCK HUBBARD_U
Fe d:4.0
%ENDBLOCK HUBBARD_U

SNAP_TO_SYMMETRY
SYMMETRY_GENERATE

