#              Generated by Buildcell
#
# at 12:48:45 (GMT+0.0) 24th November 2020
# in /scratch/scratch/uccabz1/launch_tmp
# on node-a14f-015
# by uccabz1
#
# compiler GCC version 4.9.2
# options -cpp -iprefix /scratch/UCL/applications/gcc/4.9.2/bin/../lib/gcc/x86_64-unknown-linux-gnu/4.9.2/ -mtune=corei7 -march=x86-64 -g -O2
#
# seed  -377533963 -1400838683   760354405  -200871477  1092216244   486030424   882483194 -1710249132   428045696   239084933   -59935184   161845774
#
#      Author: C. J. Pickard (cjp20@cam.ac.uk)
#                Space group: P21
#

%BLOCK LATTICE_ABC
      5.02030      5.21133      6.20460
     90.00000     90.00000     99.71349
%ENDBLOCK LATTICE_ABC

%BLOCK POSITIONS_FRAC
  Li   0.4914947   0.4515202   0.4837515 SPIN=   0.00000
  Li  -0.4914947  -0.4515202  -0.0162485 SPIN=   0.00000
   O  -0.5880502   0.2212119  -0.2193205 SPIN=   0.00000
   O  -0.2620629  -0.0836525  -0.0873808 SPIN=   0.00000
   O  -0.1977218   0.1020903  -0.4536685 SPIN=   0.00000
   O  -0.0861721   0.3922502  -0.1330449 SPIN=   0.00000
   P  -0.2973887   0.1641067  -0.2220732 SPIN=   0.00000
   O   0.5880502  -0.2212119   0.2806795 SPIN=   0.00000
   O   0.2620629   0.0836525   0.4126192 SPIN=   0.00000
   O   0.1977218  -0.1020903   0.0463315 SPIN=   0.00000
   O   0.0861721  -0.3922502   0.3669551 SPIN=   0.00000
   P   0.2973887  -0.1641067   0.2779268 SPIN=   0.00000
  Fe   0.0497485  -0.2163899  -0.3039650 SPIN=   4.00000
  Fe  -0.0497485   0.2163899   0.1960350 SPIN=   4.00000
%ENDBLOCK POSITIONS_FRAC

# Note: total spin =   8.00

KPOINTS_MP_SPACING 0.07

%BLOCK SPECIES_POT
QC5
%ENDBLOCK SPECIES_POT

%BLOCK HUBBARD_U
Fe d:4.0
%ENDBLOCK HUBBARD_U

SNAP_TO_SYMMETRY
SYMMETRY_GENERATE

