#              Generated by Buildcell
#
# at 21:31:50 (GMT+0.0) 26th November 2020
# in /lustre/scratch/uccabz1/launch_tmp
# on node-c12i-035
# by uccabz1
#
# compiler GCC version 4.9.2
# options -cpp -iprefix /lustre/shared/ucl/apps/gcc/4.9.2/bin/../lib/gcc/x86_64-unknown-linux-gnu/4.9.2/ -mtune=corei7 -march=x86-64 -g -Og
#
# seed   575914860 -1831822644 -1766249083 -1695304189   831549440   753698222 -1856217112  1956367151   124123535  1572170666  -349120005  -469734599
#
#      Author: C. J. Pickard (cjp20@cam.ac.uk)
#                Space group: P21
#

%BLOCK LATTICE_ABC
      4.66517      8.07915      8.57591
     98.10890     90.00000     90.00000
%ENDBLOCK LATTICE_ABC

%BLOCK POSITIONS_FRAC
  Li   0.2071136  -0.4717327   0.3495798 SPIN=   0.00000
  Li  -0.2928864   0.4717327  -0.3495798 SPIN=   0.00000
  Li   0.2164928   0.4862535  -0.1147616 SPIN=   0.00000
  Li  -0.2835072  -0.4862535   0.1147616 SPIN=   0.00000
   O   0.3490589   0.1355814   0.2513324 SPIN=   0.00000
   O  -0.0615434   0.2651164   0.1033412 SPIN=   0.00000
   O   0.4384541   0.3160009   0.0281253 SPIN=   0.00000
   O   0.2273282   0.0298783  -0.0394939 SPIN=   0.00000
   P   0.2440907   0.1820754   0.0931597 SPIN=   0.00000
   O  -0.1509411  -0.1355814  -0.2513324 SPIN=   0.00000
   O  -0.5615434  -0.2651164  -0.1033412 SPIN=   0.00000
   O  -0.0615459  -0.3160009  -0.0281253 SPIN=   0.00000
   O  -0.2726718  -0.0298783   0.0394939 SPIN=   0.00000
   P  -0.2559093  -0.1820754  -0.0931597 SPIN=   0.00000
   O  -0.3095433  -0.2358637   0.2257641 SPIN=   0.00000
   O   0.0195413  -0.2070746   0.4725100 SPIN=   0.00000
   O  -0.4767809  -0.1011673   0.5038943 SPIN=   0.00000
   O  -0.3892347  -0.4098890   0.4526163 SPIN=   0.00000
   P  -0.2912808  -0.2403810   0.4041490 SPIN=   0.00000
   O   0.1904567   0.2358637  -0.2257641 SPIN=   0.00000
   O   0.5195413   0.2070746  -0.4725100 SPIN=   0.00000
   O   0.0232191   0.1011673  -0.5038943 SPIN=   0.00000
   O   0.1107653   0.4098890  -0.4526163 SPIN=   0.00000
   P   0.2087192   0.2403810  -0.4041490 SPIN=   0.00000
  Fe  -0.2259068   0.1635992  -0.1354775 SPIN=   6.26732
  Fe   0.2740932  -0.1635992   0.1354775 SPIN=   6.26732
  Fe   0.2753354  -0.2005341  -0.3252206 SPIN=   1.73268
  Fe  -0.2246646   0.2005341   0.3252206 SPIN=   1.73268
%ENDBLOCK POSITIONS_FRAC

# Note: total spin =  16.00

KPOINTS_MP_SPACING 0.07

%BLOCK SPECIES_POT
QC5
%ENDBLOCK SPECIES_POT

%BLOCK HUBBARD_U
Fe d:4.0
%ENDBLOCK HUBBARD_U

SNAP_TO_SYMMETRY
SYMMETRY_GENERATE

