#              Generated by Buildcell
#
# at 00:23:31 (GMT+0.0) 27th November 2020
# in /scratch/scratch/uccabz1/launch_tmp
# on node-k10h-025
# by uccabz1
#
# compiler GCC version 4.9.2
# options -cpp -iprefix /scratch/UCL/applications/gcc/4.9.2/bin/../lib/gcc/x86_64-unknown-linux-gnu/4.9.2/ -mtune=corei7 -march=x86-64 -g -O2
#
# seed  1778320676   958649941 -1268578238  -643843658 -1109781637   956618943 -1299000464 -1359768451  1854038180   966326068 -1677053079  1882120457
#
#      Author: C. J. Pickard (cjp20@cam.ac.uk)
#                Space group: Pba2
#

%BLOCK LATTICE_ABC
      3.81971      7.98383     10.49322
     90.00000     90.00000     90.00000
%ENDBLOCK LATTICE_ABC

%BLOCK POSITIONS_FRAC
  Li  -0.4430966   0.0208243  -0.3244783 SPIN=   0.00000
  Li  -0.4430966  -0.0208243   0.3244783 SPIN=   0.00000
  Li  -0.4430966  -0.4791757  -0.1755217 SPIN=   0.00000
  Li  -0.4430966   0.4791757   0.1755217 SPIN=   0.00000
   O   0.4971117   0.1437442   0.0402392 SPIN=   0.00000
   O   0.0504590   0.0244295   0.2034165 SPIN=   0.00000
   O   0.4606280   0.2440968   0.2753923 SPIN=   0.00000
   O  -0.0229896   0.3183592   0.1244731 SPIN=   0.00000
   P   0.2564786   0.1821869   0.1540271 SPIN=   0.00000
   O   0.4971117  -0.1437442  -0.0402392 SPIN=   0.00000
   O   0.0504590  -0.0244295  -0.2034165 SPIN=   0.00000
   O   0.4606280  -0.2440968  -0.2753923 SPIN=   0.00000
   O  -0.0229896  -0.3183592  -0.1244731 SPIN=   0.00000
   P   0.2564786  -0.1821869  -0.1540271 SPIN=   0.00000
   O   0.4971117  -0.3562558   0.4597608 SPIN=   0.00000
   O   0.0504590  -0.4755705   0.2965835 SPIN=   0.00000
   O   0.4606280  -0.2559032   0.2246077 SPIN=   0.00000
   O  -0.0229896  -0.1816408   0.3755269 SPIN=   0.00000
   P   0.2564786  -0.3178131   0.3459729 SPIN=   0.00000
   O   0.4971117   0.3562558  -0.4597608 SPIN=   0.00000
   O   0.0504590   0.4755705  -0.2965835 SPIN=   0.00000
   O   0.4606280   0.2559032  -0.2246077 SPIN=   0.00000
   O  -0.0229896   0.1816408  -0.3755269 SPIN=   0.00000
   P   0.2564786   0.3178131  -0.3459729 SPIN=   0.00000
  Fe   0.0417082   0.2991893   0.3971241 SPIN=   4.00000
  Fe   0.0417082  -0.2991893  -0.3971241 SPIN=   4.00000
  Fe   0.0417082  -0.2008107   0.1028759 SPIN=   4.00000
  Fe   0.0417082   0.2008107  -0.1028759 SPIN=   4.00000
%ENDBLOCK POSITIONS_FRAC

# Note: total spin =  16.00

KPOINTS_MP_SPACING 0.07

%BLOCK SPECIES_POT
QC5
%ENDBLOCK SPECIES_POT

%BLOCK HUBBARD_U
Fe d:4.0
%ENDBLOCK HUBBARD_U

SNAP_TO_SYMMETRY
SYMMETRY_GENERATE

