#              Generated by Buildcell
#
# at 10:54:35 (GMT+0.0) 24th November 2020
# in /lustre/scratch/uccabz1/launch_tmp
# on node-c12p-030
# by uccabz1
#
# compiler GCC version 4.9.2
# options -cpp -iprefix /lustre/shared/ucl/apps/gcc/4.9.2/bin/../lib/gcc/x86_64-unknown-linux-gnu/4.9.2/ -mtune=corei7 -march=x86-64 -g -Og
#
# seed  -568210526 -1640704669 -1728428978  -554917889 -1921563806  1325866316   614564205 -2041086510 -1342125917 -1030144092  -842026474  1845709050
#
#      Author: C. J. Pickard (cjp20@cam.ac.uk)
#                Space group: P-1
#

%BLOCK LATTICE_ABC
      4.93765      5.78441      6.13017
     81.59329     84.94763     67.56867
%ENDBLOCK LATTICE_ABC

%BLOCK POSITIONS_FRAC
  Li  -0.5000000   0.0000000   0.0000000 SPIN=   0.00000
  Li   0.5000000   0.0000000  -0.5000000 SPIN=   0.00000
   O  -0.0719857  -0.2734014   0.5089927 SPIN=   0.00000
   O   0.3501314  -0.1737727   0.2844812 SPIN=   0.00000
   O   0.1023959  -0.3992301   0.1158019 SPIN=   0.00000
   O  -0.1656770   0.0563232   0.1628025 SPIN=   0.00000
   P   0.0444341  -0.1985649   0.2796085 SPIN=   0.00000
   O   0.0719857   0.2734014  -0.5089927 SPIN=   0.00000
   O  -0.3501314   0.1737727  -0.2844812 SPIN=   0.00000
   O  -0.1023959   0.3992301  -0.1158019 SPIN=   0.00000
   O   0.1656770  -0.0563232  -0.1628025 SPIN=   0.00000
   P  -0.0444341   0.1985649  -0.2796085 SPIN=   0.00000
  Fe  -0.2367412   0.4152719   0.2439472 SPIN=   4.00000
  Fe   0.2367412  -0.4152719  -0.2439472 SPIN=   4.00000
%ENDBLOCK POSITIONS_FRAC

# Note: total spin =   8.00

KPOINTS_MP_SPACING 0.07

%BLOCK SPECIES_POT
QC5
%ENDBLOCK SPECIES_POT

%BLOCK HUBBARD_U
Fe d:4.0
%ENDBLOCK HUBBARD_U

SNAP_TO_SYMMETRY
SYMMETRY_GENERATE

