#              Generated by Buildcell
#
# at 07:38:11 (GMT+0.0) 26th November 2020
# in /lustre/scratch/uccabz1/launch_tmp
# on node-c12g-023
# by uccabz1
#
# compiler GCC version 4.9.2
# options -cpp -iprefix /lustre/shared/ucl/apps/gcc/4.9.2/bin/../lib/gcc/x86_64-unknown-linux-gnu/4.9.2/ -mtune=corei7 -march=x86-64 -g -Og
#
# seed  1272589321   306935082  -734953205  -485699502   336689339   606055660   653131355 -1949495684   -99459915   976442205  1570668073 -1910177466
#
#      Author: C. J. Pickard (cjp20@cam.ac.uk)
#                Space group: P-1
#

%BLOCK LATTICE_ABC
      6.54914      6.58220      8.59989
    112.11693    100.63208    102.72548
%ENDBLOCK LATTICE_ABC

%BLOCK POSITIONS_FRAC
  Li   0.3460233  -0.0311123   0.1063057 SPIN=   0.00000
  Li  -0.3460233   0.0311123  -0.1063057 SPIN=   0.00000
  Li  -0.0000000   0.0000000  -0.5000000 SPIN=   0.00000
  Li  -0.0000000  -0.5000000   0.0000000 SPIN=   0.00000
   O   0.4863548   0.6005103   0.3200152 SPIN=   0.00000
   O   0.4907539   0.2334719   0.3664549 SPIN=   0.00000
   O   0.5745240   0.2553518   0.1035722 SPIN=   0.00000
   O   0.8449618   0.5103489   0.4006108 SPIN=   0.00000
   P   0.5960437   0.4119043   0.3000683 SPIN=   0.00000
   O  -0.4863548  -0.6005103  -0.3200152 SPIN=   0.00000
   O  -0.4907539  -0.2334719  -0.3664549 SPIN=   0.00000
   O  -0.5745240  -0.2553518  -0.1035722 SPIN=   0.00000
   O  -0.8449618  -0.5103489  -0.4006108 SPIN=   0.00000
   P  -0.5960437  -0.4119043  -0.3000683 SPIN=   0.00000
   O   0.2719847   0.0955695  -0.2688754 SPIN=   0.00000
   O   0.2191478   0.3201853   0.0340467 SPIN=   0.00000
   O  -0.1072196   0.1146316  -0.2267231 SPIN=   0.00000
   O   0.0798445  -0.1129126  -0.1085586 SPIN=   0.00000
   P   0.1238221   0.1013358  -0.1488541 SPIN=   0.00000
   O  -0.2719847  -0.0955695   0.2688754 SPIN=   0.00000
   O  -0.2191478  -0.3201853  -0.0340467 SPIN=   0.00000
   O   0.1072196  -0.1146316   0.2267231 SPIN=   0.00000
   O  -0.0798445   0.1129126   0.1085586 SPIN=   0.00000
   P  -0.1238221  -0.1013358   0.1488541 SPIN=   0.00000
  Fe   0.1572590   0.3669908   0.3370612 SPIN=   2.81121
  Fe  -0.1572590  -0.3669908  -0.3370612 SPIN=   2.81121
  Fe   0.5000000   0.5000000  -0.0000000 SPIN=  10.34793
  Fe   0.5000000  -0.0000000   0.5000000 SPIN=   0.02965
%ENDBLOCK POSITIONS_FRAC

# Note: total spin =  16.00

KPOINTS_MP_SPACING 0.07

%BLOCK SPECIES_POT
QC5
%ENDBLOCK SPECIES_POT

%BLOCK HUBBARD_U
Fe d:4.0
%ENDBLOCK HUBBARD_U

SNAP_TO_SYMMETRY
SYMMETRY_GENERATE

