#              Generated by Buildcell
#
# at 15:18:30 (GMT+0.0) 26th November 2020
# in /lustre/scratch/uccabz1/launch_tmp
# on node-c12i-029
# by uccabz1
#
# compiler GCC version 4.9.2
# options -cpp -iprefix /lustre/shared/ucl/apps/gcc/4.9.2/bin/../lib/gcc/x86_64-unknown-linux-gnu/4.9.2/ -mtune=corei7 -march=x86-64 -g -Og
#
# seed  1944682976    46111324  -346508543   717322187  -429318057 -1505890279 -2125787760  1802495279 -1757220293   987033163    50787873  2091812547
#
#      Author: C. J. Pickard (cjp20@cam.ac.uk)
#                Space group: P-1
#

%BLOCK LATTICE_ABC
      5.37651      6.77044      9.36828
     82.59975     74.46249     77.62750
%ENDBLOCK LATTICE_ABC

%BLOCK POSITIONS_FRAC
  Li   0.5795729   0.1730660  -0.4441320 SPIN=   0.00000
  Li  -0.5795729  -0.1730660   0.4441320 SPIN=   0.00000
  Li   0.1853836  -0.0050516   0.0968868 SPIN=   0.00000
  Li  -0.1853836   0.0050516  -0.0968868 SPIN=   0.00000
   O   0.2226033   0.3450910  -0.3296968 SPIN=   0.00000
   O   0.0088372   0.0365759  -0.3330514 SPIN=   0.00000
   O  -0.2490475   0.3131907  -0.1759164 SPIN=   0.00000
   O  -0.1608994   0.3726878  -0.4528550 SPIN=   0.00000
   P  -0.0317701   0.2722989  -0.3247767 SPIN=   0.00000
   O  -0.2226033  -0.3450910   0.3296968 SPIN=   0.00000
   O  -0.0088372  -0.0365759   0.3330514 SPIN=   0.00000
   O   0.2490475  -0.3131907   0.1759164 SPIN=   0.00000
   O   0.1608994  -0.3726878   0.4528550 SPIN=   0.00000
   P   0.0317701  -0.2722989   0.3247767 SPIN=   0.00000
   O   0.4252591  -0.2332819  -0.3246990 SPIN=   0.00000
   O   0.2559810   0.0502445  -0.1406311 SPIN=   0.00000
   O   0.1094495  -0.2776501  -0.0638926 SPIN=   0.00000
   O   0.5768143  -0.2570414  -0.0826511 SPIN=   0.00000
   P   0.3490883  -0.1832153  -0.1612824 SPIN=   0.00000
   O  -0.4252591   0.2332819   0.3246990 SPIN=   0.00000
   O  -0.2559810  -0.0502445   0.1406311 SPIN=   0.00000
   O  -0.1094495   0.2776501   0.0638926 SPIN=   0.00000
   O  -0.5768143   0.2570414   0.0826511 SPIN=   0.00000
   P  -0.3490883   0.1832153   0.1612824 SPIN=   0.00000
  Fe   0.1402473   0.2933231   0.3571752 SPIN=   3.39275
  Fe  -0.1402473  -0.2933231  -0.3571752 SPIN=   3.39275
  Fe  -0.3379710  -0.3911955   0.1284042 SPIN=   4.60725
  Fe   0.3379710   0.3911955  -0.1284042 SPIN=   4.60725
%ENDBLOCK POSITIONS_FRAC

# Note: total spin =  16.00

KPOINTS_MP_SPACING 0.07

%BLOCK SPECIES_POT
QC5
%ENDBLOCK SPECIES_POT

%BLOCK HUBBARD_U
Fe d:4.0
%ENDBLOCK HUBBARD_U

SNAP_TO_SYMMETRY
SYMMETRY_GENERATE

