#              Generated by Buildcell
#
# at 18:11:12 (GMT+0.0) 26th November 2020
# in /scratch/scratch/uccabz1/launch_tmp
# on node-k10e-027
# by uccabz1
#
# compiler GCC version 4.9.2
# options -cpp -iprefix /scratch/UCL/applications/gcc/4.9.2/bin/../lib/gcc/x86_64-unknown-linux-gnu/4.9.2/ -mtune=corei7 -march=x86-64 -g -O2
#
# seed   658240958  -176267716  -878594710  2044693956  2004305507 -2116758885 -1475408154 -1375295039 -1263789840  -858465641  1465627414   733743535
#
#      Author: C. J. Pickard (cjp20@cam.ac.uk)
#                Space group: F222
#

%BLOCK LATTICE_ABC
      5.86058      5.86058     10.15753
    105.45675    105.45675     94.36835
%ENDBLOCK LATTICE_ABC

%BLOCK POSITIONS_FRAC
  Li   0.4932277  -0.0067723  -0.0135446 SPIN=   0.00000
  Li   0.0067723  -0.4932277   0.0135446 SPIN=   0.00000
  Li  -0.4484028   0.0515972   0.5000000 SPIN=   0.00000
  Li  -0.0515972   0.4484028  -0.5000000 SPIN=   0.00000
   O   0.2579489   0.0148228   0.1122355 SPIN=   0.00000
   O   0.2314093  -0.1320925   0.3282807 SPIN=   0.00000
   O   0.3675783  -0.3947283   0.1398360 SPIN=   0.00000
   P   0.3699748  -0.1228082   0.2163216 SPIN=   0.00000
   O  -0.0974127   0.1457135  -0.1122355 SPIN=   0.00000
   O  -0.4603732  -0.0968714  -0.3282807 SPIN=   0.00000
   O  -0.5345643   0.2277423  -0.1398360 SPIN=   0.00000
   P  -0.3391299   0.1536532  -0.2163216 SPIN=   0.00000
   O  -0.1457135   0.0974127   0.1122355 SPIN=   0.00000
   O   0.0968714   0.4603732   0.3282807 SPIN=   0.00000
   O  -0.2277423   0.5345643   0.1398360 SPIN=   0.00000
   P  -0.1536532   0.3391299   0.2163216 SPIN=   0.00000
   O  -0.0148228  -0.2579489  -0.1122355 SPIN=   0.00000
   O   0.1320925  -0.2314093  -0.3282807 SPIN=   0.00000
   O   0.3947283  -0.3675783  -0.1398360 SPIN=   0.00000
   P   0.1228082  -0.3699748  -0.2163216 SPIN=   0.00000
   O  -0.2756785  -0.2756785   0.4486430 SPIN=   0.00000
   O   0.2756785   0.2756785  -0.4486430 SPIN=   0.00000
   O  -0.3369422   0.1630578   0.3261155 SPIN=   0.00000
   O  -0.1630578   0.3369422  -0.3261155 SPIN=   0.00000
  Fe  -0.1303311  -0.1094865   0.2739748 SPIN=   4.00000
  Fe  -0.3834613  -0.4043059  -0.2739748 SPIN=   4.00000
  Fe   0.4043059   0.3834613   0.2739748 SPIN=   4.00000
  Fe   0.1094865   0.1303311  -0.2739748 SPIN=   4.00000
%ENDBLOCK POSITIONS_FRAC

# Note: total spin =  16.00

KPOINTS_MP_SPACING 0.07

%BLOCK SPECIES_POT
QC5
%ENDBLOCK SPECIES_POT

%BLOCK HUBBARD_U
Fe d:4.0
%ENDBLOCK HUBBARD_U

SNAP_TO_SYMMETRY
SYMMETRY_GENERATE

