#              Generated by Buildcell
#
# at 11:27:19 (GMT+0.0) 26th November 2020
# in /scratch/scratch/uccabz1/launch_tmp
# on node-k10g-001
# by uccabz1
#
# compiler GCC version 4.9.2
# options -cpp -iprefix /scratch/UCL/applications/gcc/4.9.2/bin/../lib/gcc/x86_64-unknown-linux-gnu/4.9.2/ -mtune=corei7 -march=x86-64 -g -O2
#
# seed   541594204   379295302  1633595642   866230550  2000836596  1113021162   278017520   831863815 -1386236034  1533219400 -1916262063  1225919476
#
#      Author: C. J. Pickard (cjp20@cam.ac.uk)
#                Space group: Cm
#

%BLOCK LATTICE_ABC
      4.81388      8.49305      8.49305
     67.16451     89.47651     89.47651
%ENDBLOCK LATTICE_ABC

%BLOCK POSITIONS_FRAC
  Li   0.4515147  -0.2003256   0.2170554 SPIN=   0.00000
  Li   0.4515147   0.2170554  -0.2003256 SPIN=   0.00000
  Li   0.1979246   0.1369860   0.4592751 SPIN=   0.00000
  Li   0.1979246   0.4592751   0.1369860 SPIN=   0.00000
   O  -0.1435266  -0.0922934   0.1691115 SPIN=   0.00000
   O   0.1090521  -0.3678603   0.3697488 SPIN=   0.00000
   O   0.1570988  -0.1053502   0.4264447 SPIN=   0.00000
   O  -0.2990815  -0.2573503   0.4817908 SPIN=   0.00000
   P  -0.0524164  -0.2002839   0.3529320 SPIN=   0.00000
   O  -0.1435266   0.1691115  -0.0922934 SPIN=   0.00000
   O   0.1090521   0.3697488  -0.3678603 SPIN=   0.00000
   O   0.1570988   0.4264447  -0.1053502 SPIN=   0.00000
   O  -0.2990815   0.4817908  -0.2573503 SPIN=   0.00000
   P  -0.0524164   0.3529320  -0.2002839 SPIN=   0.00000
   O  -0.0433854  -0.3253488  -0.0630615 SPIN=   0.00000
   O  -0.5601933  -0.2739323  -0.0048319 SPIN=   0.00000
   O  -0.4099866  -0.5674028   0.0415255 SPIN=   0.00000
   P  -0.3008500  -0.3968218   0.0498709 SPIN=   0.00000
   O  -0.0433854  -0.0630615  -0.3253488 SPIN=   0.00000
   O  -0.5601933  -0.0048319  -0.2739323 SPIN=   0.00000
   O  -0.4099866   0.0415255  -0.5674028 SPIN=   0.00000
   P  -0.3008500   0.0498709  -0.3968218 SPIN=   0.00000
   O   0.2988402   0.0225990   0.0225990 SPIN=   0.00000
   O   0.2677371   0.1968475   0.1968475 SPIN=   0.00000
  Fe  -0.0290505  -0.0756803  -0.0756803 SPIN=   4.86406
  Fe   0.2834333  -0.3309520  -0.3309520 SPIN=   1.98750
  Fe  -0.2114527   0.4515755   0.4515755 SPIN=   5.84123
  Fe  -0.2986034   0.1791757   0.1791757 SPIN=   3.30721
%ENDBLOCK POSITIONS_FRAC

# Note: total spin =  16.00

KPOINTS_MP_SPACING 0.07

%BLOCK SPECIES_POT
QC5
%ENDBLOCK SPECIES_POT

%BLOCK HUBBARD_U
Fe d:4.0
%ENDBLOCK HUBBARD_U

SNAP_TO_SYMMETRY
SYMMETRY_GENERATE

