#              Generated by Buildcell
#
# at 07:00:41 (GMT+0.0) 24th November 2020
# in /lustre/scratch/uccabz1/launch_tmp
# on node-c12i-027
# by uccabz1
#
# compiler GCC version 4.9.2
# options -cpp -iprefix /lustre/shared/ucl/apps/gcc/4.9.2/bin/../lib/gcc/x86_64-unknown-linux-gnu/4.9.2/ -mtune=corei7 -march=x86-64 -g -Og
#
# seed   -59684761 -1774366102 -1456983117 -1443983393  1517721339 -1857452739   728839689 -1080944841  1760152498  1024859359  2071051192 -1163525630
#
#      Author: C. J. Pickard (cjp20@cam.ac.uk)
#                Space group: P-1
#

%BLOCK LATTICE_ABC
      4.87417      5.51305      6.25124
     81.18163     83.19381     75.29478
%ENDBLOCK LATTICE_ABC

%BLOCK POSITIONS_FRAC
  Li  -0.1105080   0.1610903   0.1760342 SPIN=   0.00000
  Li   0.1105080  -0.1610903  -0.1760342 SPIN=   0.00000
   O  -0.0461389  -0.2693083  -0.5111350 SPIN=   0.00000
   O  -0.3323959  -0.1188419  -0.1580709 SPIN=   0.00000
   O  -0.5966589  -0.1880880  -0.4478415 SPIN=   0.00000
   P  -0.3025083  -0.2865476  -0.3456270 SPIN=   0.00000
   O   0.0461389   0.2693083   0.5111350 SPIN=   0.00000
   O   0.3323959   0.1188419   0.1580709 SPIN=   0.00000
   O   0.5966589   0.1880880   0.4478415 SPIN=   0.00000
   P   0.3025083   0.2865476   0.3456270 SPIN=   0.00000
   O   0.0000000  -0.5000000   0.0000000 SPIN=   0.00000
   O  -0.5000000   0.5000000  -0.0000000 SPIN=   0.00000
  Fe   0.4878725   0.2685368  -0.2338740 SPIN=   4.00000
  Fe  -0.4878725  -0.2685368   0.2338740 SPIN=   4.00000
%ENDBLOCK POSITIONS_FRAC

# Note: total spin =   8.00

KPOINTS_MP_SPACING 0.07

%BLOCK SPECIES_POT
QC5
%ENDBLOCK SPECIES_POT

%BLOCK HUBBARD_U
Fe d:4.0
%ENDBLOCK HUBBARD_U

SNAP_TO_SYMMETRY
SYMMETRY_GENERATE

