#              Generated by Buildcell
#
# at 09:44:31 (GMT+0.0) 24th November 2020
# in /scratch/scratch/uccabz1/launch_tmp
# on node-a14e-012
# by uccabz1
#
# compiler GCC version 4.9.2
# options -cpp -iprefix /scratch/UCL/applications/gcc/4.9.2/bin/../lib/gcc/x86_64-unknown-linux-gnu/4.9.2/ -mtune=corei7 -march=x86-64 -g -O2
#
# seed   526953346   720016254   916590432  1180422596   989342541 -1161540741  1564014741   290633754 -1898612369 -1865251730   773275739  2014096921
#
#      Author: C. J. Pickard (cjp20@cam.ac.uk)
#                Space group: C2
#

%BLOCK LATTICE_ABC
      4.91910      6.03358      6.03358
     86.31253     71.03971     71.03971
%ENDBLOCK LATTICE_ABC

%BLOCK POSITIONS_FRAC
  Li   0.2671955  -0.0747937  -0.4453888 SPIN=   0.00000
  Li  -0.2671955   0.4453888   0.0747937 SPIN=   0.00000
   O   0.0368658  -0.4397599  -0.2497686 SPIN=   0.00000
   O  -0.1994616  -0.1073398  -0.4933456 SPIN=   0.00000
   O  -0.5368703  -0.2937354  -0.2072456 SPIN=   0.00000
   P  -0.2400337  -0.2277438  -0.2509618 SPIN=   0.00000
   O  -0.0368658   0.2497686   0.4397599 SPIN=   0.00000
   O   0.1994616   0.4933456   0.1073398 SPIN=   0.00000
   O   0.5368703   0.2072456   0.2937354 SPIN=   0.00000
   P   0.2400337   0.2509618   0.2277438 SPIN=   0.00000
   O   0.5000000   0.1033784  -0.1033784 SPIN=   0.00000
   O   0.5000000  -0.1967341   0.1967341 SPIN=   0.00000
  Fe  -0.0000000  -0.1320151   0.1320151 SPIN=   3.62414
  Fe  -0.5000000   0.3577312  -0.3577312 SPIN=   4.37586
%ENDBLOCK POSITIONS_FRAC

# Note: total spin =   8.00

KPOINTS_MP_SPACING 0.07

%BLOCK SPECIES_POT
QC5
%ENDBLOCK SPECIES_POT

%BLOCK HUBBARD_U
Fe d:4.0
%ENDBLOCK HUBBARD_U

SNAP_TO_SYMMETRY
SYMMETRY_GENERATE

