#              Generated by Buildcell
#
# at 08:48:34 (GMT+0.0) 24th November 2020
# in /lustre/scratch/uccabz1/launch_tmp
# on node-c12d-022
# by uccabz1
#
# compiler GCC version 4.9.2
# options -cpp -iprefix /lustre/shared/ucl/apps/gcc/4.9.2/bin/../lib/gcc/x86_64-unknown-linux-gnu/4.9.2/ -mtune=corei7 -march=x86-64 -g -Og
#
# seed   264462924  -974190818  -151069502  -532529437  -718487420 -1949264221  1810970358  -837976442  -579150433   881723557   740148570   847117312
#
#      Author: C. J. Pickard (cjp20@cam.ac.uk)
#                Space group: F222
#

%BLOCK LATTICE_ABC
      5.69782      5.69782      6.35712
    113.21669    113.21669     96.91238
%ENDBLOCK LATTICE_ABC

%BLOCK POSITIONS_FRAC
  Li   0.5000000   0.5000000   0.0000000 SPIN=   0.00000
  Li   0.2500000  -0.2500000   0.5000000 SPIN=   0.00000
   O  -0.0670251   0.4052056   0.2077465 SPIN=   0.00000
   O   0.0622052   0.2679622  -0.1625838 SPIN=   0.00000
   O   0.2747716  -0.1974591   0.2077465 SPIN=   0.00000
   O  -0.2247889  -0.4305460  -0.1625838 SPIN=   0.00000
   O   0.1974591  -0.2747716  -0.2077465 SPIN=   0.00000
   O   0.4305460   0.2247889   0.1625838 SPIN=   0.00000
   O  -0.4052056   0.0670251  -0.2077465 SPIN=   0.00000
   O  -0.2679622  -0.0622052   0.1625838 SPIN=   0.00000
   P  -0.4485069   0.0514931  -0.5000000 SPIN=   0.00000
   P  -0.0514931   0.4485069   0.5000000 SPIN=   0.00000
  Fe   0.1558813   0.1558813   0.3117627 SPIN=   4.00000
  Fe  -0.1558813  -0.1558813  -0.3117627 SPIN=   4.00000
%ENDBLOCK POSITIONS_FRAC

# Note: total spin =   8.00

KPOINTS_MP_SPACING 0.07

%BLOCK SPECIES_POT
QC5
%ENDBLOCK SPECIES_POT

%BLOCK HUBBARD_U
Fe d:4.0
%ENDBLOCK HUBBARD_U

SNAP_TO_SYMMETRY
SYMMETRY_GENERATE

