#              Generated by Buildcell
#
# at 22:04:38 (GMT+0.0) 26th November 2020
# in /lustre/scratch/uccabz1/launch_tmp
# on node-c12d-021
# by uccabz1
#
# compiler GCC version 4.9.2
# options -cpp -iprefix /lustre/shared/ucl/apps/gcc/4.9.2/bin/../lib/gcc/x86_64-unknown-linux-gnu/4.9.2/ -mtune=corei7 -march=x86-64 -g -Og
#
# seed -1830844385   607713185 -2079765585 -1042715966  2127174362  1726621618   155083116 -1600631067  1882057124  1808469306  -461110714  1239950483
#
#      Author: C. J. Pickard (cjp20@cam.ac.uk)
#                Space group: Pc
#

%BLOCK LATTICE_ABC
      4.75078      5.96215     11.29768
     90.00000     90.00000     90.33634
%ENDBLOCK LATTICE_ABC

%BLOCK POSITIONS_FRAC
  Li   0.3107303   0.2294936  -0.2879667 SPIN=   0.00000
  Li  -0.1892697  -0.2705064   0.2879667 SPIN=   0.00000
  Li   0.4321038   0.2461101  -0.0256961 SPIN=   0.00000
  Li  -0.0678962  -0.2538899   0.0256961 SPIN=   0.00000
   O  -0.1501470  -0.1707763  -0.4313316 SPIN=   0.00000
   O   0.0563170  -0.5679934  -0.3968350 SPIN=   0.00000
   O  -0.0380211  -0.3297776  -0.2225894 SPIN=   0.00000
   O  -0.4418339  -0.4915145  -0.3374298 SPIN=   0.00000
   P  -0.1473009  -0.3795399  -0.3514208 SPIN=   0.00000
   O   0.3498530   0.3292237   0.4313316 SPIN=   0.00000
   O   0.5563170  -0.0679934   0.3968350 SPIN=   0.00000
   O   0.4619789   0.1702224   0.2225894 SPIN=   0.00000
   O   0.0581661   0.0084855   0.3374298 SPIN=   0.00000
   P   0.3526991   0.1204601   0.3514208 SPIN=   0.00000
   O   0.6863167  -0.4844873   0.1463143 SPIN=   0.00000
   O   0.1711705  -0.5428850   0.0749944 SPIN=   0.00000
   O   0.2504588  -0.3780101   0.2728568 SPIN=   0.00000
   O   0.3643554  -0.1524751   0.0919020 SPIN=   0.00000
   P   0.3849762  -0.3917272   0.1458616 SPIN=   0.00000
   O   0.1863167   0.0155127  -0.1463143 SPIN=   0.00000
   O  -0.3288295  -0.0428850  -0.0749944 SPIN=   0.00000
   O  -0.2495412   0.1219899  -0.2728568 SPIN=   0.00000
   O  -0.1356446   0.3475249  -0.0919020 SPIN=   0.00000
   P  -0.1150238   0.1082728  -0.1458616 SPIN=   0.00000
  Fe  -0.1895013   0.1642057  -0.4849212 SPIN=   2.60179
  Fe   0.3104987  -0.3357943   0.4849212 SPIN=   2.60179
  Fe   0.4328713  -0.2703488  -0.1757041 SPIN=   5.39821
  Fe  -0.0671287   0.2296512   0.1757041 SPIN=   5.39821
%ENDBLOCK POSITIONS_FRAC

# Note: total spin =  16.00

KPOINTS_MP_SPACING 0.07

%BLOCK SPECIES_POT
QC5
%ENDBLOCK SPECIES_POT

%BLOCK HUBBARD_U
Fe d:4.0
%ENDBLOCK HUBBARD_U

SNAP_TO_SYMMETRY
SYMMETRY_GENERATE

