#              Generated by Buildcell
#
# at 14:18:49 (GMT+0.0) 24th November 2020
# in /lustre/scratch/uccabz1/launch_tmp
# on node-c12e-020
# by uccabz1
#
# compiler GCC version 4.9.2
# options -cpp -iprefix /lustre/shared/ucl/apps/gcc/4.9.2/bin/../lib/gcc/x86_64-unknown-linux-gnu/4.9.2/ -mtune=corei7 -march=x86-64 -g -Og
#
# seed   726268598    10730681  2100137788 -1282547661 -1858071222 -1207671779 -1649458401  1089821894  1886769123  2114570648  1129666846  -328336288
#
#      Author: C. J. Pickard (cjp20@cam.ac.uk)
#                Space group: P2
#

%BLOCK LATTICE_ABC
      4.11614      5.22108      7.56625
    100.26813     90.00000     90.00000
%ENDBLOCK LATTICE_ABC

%BLOCK POSITIONS_FRAC
  Li  -0.3630960   0.5000000  -0.0000000 SPIN=   0.00000
  Li   0.4813102  -0.5000000   0.5000000 SPIN=   0.00000
   O  -0.4332085  -0.1170211  -0.2068203 SPIN=   0.00000
   O   0.0813891  -0.3000525  -0.0741209 SPIN=   0.00000
   O  -0.2675445  -0.6047166  -0.2781516 SPIN=   0.00000
   O   0.0669235  -0.2768408  -0.4017879 SPIN=   0.00000
   O  -0.4332085   0.1170211   0.2068203 SPIN=   0.00000
   O   0.0813891   0.3000525   0.0741209 SPIN=   0.00000
   O  -0.2675445   0.6047166   0.2781516 SPIN=   0.00000
   O   0.0669235   0.2768408   0.4017879 SPIN=   0.00000
   P  -0.3632382   0.0000000   0.0000000 SPIN=   0.00000
   P  -0.3631299  -0.0000000   0.5000000 SPIN=   0.00000
  Fe   0.1368191  -0.0894849   0.2397065 SPIN=   4.00000
  Fe   0.1368191   0.0894849  -0.2397065 SPIN=   4.00000
%ENDBLOCK POSITIONS_FRAC

# Note: total spin =   8.00

KPOINTS_MP_SPACING 0.07

%BLOCK SPECIES_POT
QC5
%ENDBLOCK SPECIES_POT

%BLOCK HUBBARD_U
Fe d:4.0
%ENDBLOCK HUBBARD_U

SNAP_TO_SYMMETRY
SYMMETRY_GENERATE

