#              Generated by Buildcell
#
# at 23:27:41 (GMT+0.0) 26th November 2020
# in /lustre/scratch/uccabz1/launch_tmp
# on node-c12k-026
# by uccabz1
#
# compiler GCC version 4.9.2
# options -cpp -iprefix /lustre/shared/ucl/apps/gcc/4.9.2/bin/../lib/gcc/x86_64-unknown-linux-gnu/4.9.2/ -mtune=corei7 -march=x86-64 -g -Og
#
# seed -1870036248  -959618529   386158425   219299643   -32303631 -1919246608   204423094  -777488936  1988686962  1877487431  1122792286 -1949327280
#
#      Author: C. J. Pickard (cjp20@cam.ac.uk)
#                Space group: P-1
#

%BLOCK LATTICE_ABC
      6.77557      6.85213      7.31186
    103.20184     90.02718    104.08177
%ENDBLOCK LATTICE_ABC

%BLOCK POSITIONS_FRAC
  Li  -0.4546189   0.3853234   0.2108354 SPIN=   0.00000
  Li   0.4546189  -0.3853234  -0.2108354 SPIN=   0.00000
  Li  -0.2615913  -0.1674268   0.3982066 SPIN=   0.00000
  Li   0.2615913   0.1674268  -0.3982066 SPIN=   0.00000
   O  -0.3243062  -0.0616461   0.1610247 SPIN=   0.00000
   O  -0.2457948  -0.2027781  -0.1848944 SPIN=   0.00000
   O   0.0209429  -0.1448017   0.0658684 SPIN=   0.00000
   O  -0.2915586  -0.4363403   0.0382703 SPIN=   0.00000
   P  -0.2172162  -0.2060730   0.0277873 SPIN=   0.00000
   O   0.3243062   0.0616461  -0.1610247 SPIN=   0.00000
   O   0.2457948   0.2027781   0.1848944 SPIN=   0.00000
   O  -0.0209429   0.1448017  -0.0658684 SPIN=   0.00000
   O   0.2915586   0.4363403  -0.0382703 SPIN=   0.00000
   P   0.2172162   0.2060730  -0.0277873 SPIN=   0.00000
   O   0.2691214  -0.5604717   0.4997086 SPIN=   0.00000
   O   0.4395411  -0.3432883   0.2675192 SPIN=   0.00000
   O   0.1401863  -0.2570461   0.4274665 SPIN=   0.00000
   O   0.4724290  -0.1790717   0.6128705 SPIN=   0.00000
   P   0.3287380  -0.3451366   0.4563369 SPIN=   0.00000
   O  -0.2691214   0.5604717  -0.4997086 SPIN=   0.00000
   O  -0.4395411   0.3432883  -0.2675192 SPIN=   0.00000
   O  -0.1401863   0.2570461  -0.4274665 SPIN=   0.00000
   O  -0.4724290   0.1790717  -0.6128705 SPIN=   0.00000
   P  -0.3287380   0.3451366  -0.4563369 SPIN=   0.00000
  Fe   0.3343088  -0.1072422   0.1871537 SPIN=   1.93215
  Fe  -0.3343088   0.1072422  -0.1871537 SPIN=   1.93215
  Fe  -0.0241992   0.2669361   0.2889725 SPIN=   6.06785
  Fe   0.0241992  -0.2669361  -0.2889725 SPIN=   6.06785
%ENDBLOCK POSITIONS_FRAC

# Note: total spin =  16.00

KPOINTS_MP_SPACING 0.07

%BLOCK SPECIES_POT
QC5
%ENDBLOCK SPECIES_POT

%BLOCK HUBBARD_U
Fe d:4.0
%ENDBLOCK HUBBARD_U

SNAP_TO_SYMMETRY
SYMMETRY_GENERATE

