#              Generated by Buildcell
#
# at 13:26:55 (GMT+0.0) 1st December 2020
# in /lustre/scratch/uccabz1/launch_tmp
# on node-c12e-023
# by uccabz1
#
# compiler GCC version 4.9.2
# options -cpp -iprefix /lustre/shared/ucl/apps/gcc/4.9.2/bin/../lib/gcc/x86_64-unknown-linux-gnu/4.9.2/ -mtune=corei7 -march=x86-64 -g -Og
#
# seed  -886416208  1347160135  1521769259  -336366914   540947821  1823155339 -1144358524  -174585310   987459130 -2129995920 -2070013997 -1343905821
#
#      Author: C. J. Pickard (cjp20@cam.ac.uk)
#                Space group: Cm
#

%BLOCK LATTICE_ABC
      6.98226      6.98226      7.11162
     74.56789     74.56789     79.73901
%ENDBLOCK LATTICE_ABC

%BLOCK POSITIONS_FRAC
  Li  -0.4980568  -0.0642912  -0.2586325 SPIN=   0.00000
  Li  -0.0642912  -0.4980568  -0.2586325 SPIN=   0.00000
  Li   0.4959760   0.4959760  -0.3267210 SPIN=   0.00000
  Li   0.2763102   0.2763102   0.4976783 SPIN=   0.00000
   O   0.2376301  -0.1961542  -0.1331604 SPIN=   0.00000
   O   0.2401884  -0.4850496   0.1842490 SPIN=   0.00000
   O  -0.0821998  -0.3516767   0.0904558 SPIN=   0.00000
   O   0.1760060  -0.5538273  -0.1203817 SPIN=   0.00000
   P   0.1483404  -0.3878547  -0.0035642 SPIN=   0.00000
   O  -0.1961542   0.2376301  -0.1331604 SPIN=   0.00000
   O  -0.4850496   0.2401884   0.1842490 SPIN=   0.00000
   O  -0.3516767  -0.0821998   0.0904558 SPIN=   0.00000
   O  -0.5538273   0.1760060  -0.1203817 SPIN=   0.00000
   P  -0.3878547   0.1483404  -0.0035642 SPIN=   0.00000
   O   0.2980532  -0.1346380   0.1861369 SPIN=   0.00000
   O   0.3729056  -0.0694082   0.5011418 SPIN=   0.00000
   O   0.1654130  -0.3378381   0.5480037 SPIN=   0.00000
   P   0.3418315  -0.2280641   0.3942159 SPIN=   0.00000
   O  -0.1346380   0.2980532   0.1861369 SPIN=   0.00000
   O  -0.0694082   0.3729056   0.5011418 SPIN=   0.00000
   O  -0.3378381   0.1654130   0.5480037 SPIN=   0.00000
   P  -0.2280641   0.3418315   0.3942159 SPIN=   0.00000
   O   0.0407699   0.0407699   0.4232954 SPIN=   0.00000
   O  -0.0185782  -0.0185782   0.0897063 SPIN=   0.00000
  Fe  -0.0394164  -0.0394164  -0.2310541 SPIN=   0.82147
  Fe  -0.1938296  -0.1938296   0.3499149 SPIN=   2.50051
  Fe   0.1836901   0.1836901   0.1030349 SPIN=   0.73363
  Fe  -0.4551601  -0.4551601   0.1029497 SPIN=  11.94439
%ENDBLOCK POSITIONS_FRAC

# Note: total spin =  16.00

KPOINTS_MP_SPACING 0.07

%BLOCK SPECIES_POT
QC5
%ENDBLOCK SPECIES_POT

%BLOCK HUBBARD_U
Fe d:4.0
%ENDBLOCK HUBBARD_U

SNAP_TO_SYMMETRY
SYMMETRY_GENERATE

