#              Generated by Buildcell
#
# at 14:27:35 (GMT+0.0) 24th November 2020
# in /lustre/scratch/uccabz1/launch_tmp
# on node-c12e-029
# by uccabz1
#
# compiler GCC version 4.9.2
# options -cpp -iprefix /lustre/shared/ucl/apps/gcc/4.9.2/bin/../lib/gcc/x86_64-unknown-linux-gnu/4.9.2/ -mtune=corei7 -march=x86-64 -g -Og
#
# seed  1020452190 -1255282888  1727638493 -1712724846 -2106330696 -1803252708 -1628934418   216896783 -1550397630 -1006600366 -1785148046 -1801433620
#
#      Author: C. J. Pickard (cjp20@cam.ac.uk)
#                Space group: Pmc21
#

%BLOCK LATTICE_ABC
      4.92672      5.67754      5.72007
     90.00000     90.00000     90.00000
%ENDBLOCK LATTICE_ABC

%BLOCK POSITIONS_FRAC
  Li   0.0000000   0.3774186  -0.3202105 SPIN=   0.00000
  Li  -0.0000000  -0.3774186   0.1797895 SPIN=   0.00000
   O  -0.2499995  -0.0339931   0.1254947 SPIN=   0.00000
   O  -0.2500005   0.3683622   0.3418464 SPIN=   0.00000
   O   0.2499995   0.0339931  -0.3745053 SPIN=   0.00000
   O   0.2500005  -0.3683622  -0.1581536 SPIN=   0.00000
   O  -0.2499995   0.0339931  -0.3745053 SPIN=   0.00000
   O  -0.2500005  -0.3683622  -0.1581536 SPIN=   0.00000
   O   0.2499995  -0.0339931   0.1254947 SPIN=   0.00000
   O   0.2500005   0.3683622   0.3418464 SPIN=   0.00000
   P  -0.5000000  -0.2429288   0.0468896 SPIN=   0.00000
   P  -0.5000000   0.2429288  -0.4531104 SPIN=   0.00000
  Fe   0.5000000   0.2570137   0.0469797 SPIN=   4.00000
  Fe  -0.5000000  -0.2570137  -0.4530203 SPIN=   4.00000
%ENDBLOCK POSITIONS_FRAC

# Note: total spin =   8.00

KPOINTS_MP_SPACING 0.07

%BLOCK SPECIES_POT
QC5
%ENDBLOCK SPECIES_POT

%BLOCK HUBBARD_U
Fe d:4.0
%ENDBLOCK HUBBARD_U

SNAP_TO_SYMMETRY
SYMMETRY_GENERATE

