#              Generated by Buildcell
#
# at 08:16:07 (GMT+0.0) 24th November 2020
# in /lustre/scratch/uccabz1/launch_tmp
# on node-c12h-032
# by uccabz1
#
# compiler GCC version 4.9.2
# options -cpp -iprefix /lustre/shared/ucl/apps/gcc/4.9.2/bin/../lib/gcc/x86_64-unknown-linux-gnu/4.9.2/ -mtune=corei7 -march=x86-64 -g -Og
#
# seed   413165912  2015957997   -20796509 -1322319272 -1627361928  -997880861 -1823541061   508858725  1862677446 -1803751674  -940227843 -2140210613
#
#      Author: C. J. Pickard (cjp20@cam.ac.uk)
#                Space group: Cc
#

%BLOCK LATTICE_ABC
      4.55026      5.10816      7.83323
     99.86914     90.00000    116.44837
%ENDBLOCK LATTICE_ABC

%BLOCK POSITIONS_FRAC
  Li  -0.4911773  -0.4818578   0.2859899 SPIN=   0.00000
  Li  -0.4906805  -0.4818578  -0.2140101 SPIN=   0.00000
   O   0.0664298   0.1273792   0.2747437 SPIN=   0.00000
   O   0.3639975  -0.0665706   0.0406344 SPIN=   0.00000
   O   0.1180244  -0.3606975   0.2679823 SPIN=   0.00000
   O  -0.2499608  -0.3420160   0.0375670 SPIN=   0.00000
   P   0.0703561  -0.1472917   0.1602067 SPIN=   0.00000
   O   0.5609494   0.1273792  -0.2252563 SPIN=   0.00000
   O   0.0694320  -0.0665706  -0.4593656 SPIN=   0.00000
   O   0.0212782  -0.3606975  -0.2320177 SPIN=   0.00000
   O   0.4079448  -0.3420160  -0.4624330 SPIN=   0.00000
   P   0.2823523  -0.1472917  -0.3397933 SPIN=   0.00000
  Fe  -0.1437451   0.2120657   0.0025248 SPIN=   4.00000
  Fe  -0.1441892   0.2120657  -0.4974752 SPIN=   4.00000
%ENDBLOCK POSITIONS_FRAC

# Note: total spin =   8.00

KPOINTS_MP_SPACING 0.07

%BLOCK SPECIES_POT
QC5
%ENDBLOCK SPECIES_POT

%BLOCK HUBBARD_U
Fe d:4.0
%ENDBLOCK HUBBARD_U

SNAP_TO_SYMMETRY
SYMMETRY_GENERATE

