#              Generated by Buildcell
#
# at 01:57:50 (GMT+0.0) 27th November 2020
# in /lustre/scratch/uccabz1/launch_tmp
# on node-c12p-025
# by uccabz1
#
# compiler GCC version 4.9.2
# options -cpp -iprefix /lustre/shared/ucl/apps/gcc/4.9.2/bin/../lib/gcc/x86_64-unknown-linux-gnu/4.9.2/ -mtune=corei7 -march=x86-64 -g -Og
#
# seed   572950739  -713697776   616156458  1049153310 -1767722133 -1853246165   -68830104   573213351  -194669107  1139641099   594435983  1157484095
#
#      Author: C. J. Pickard (cjp20@cam.ac.uk)
#                Space group: P-1
#

%BLOCK LATTICE_ABC
      4.44459      8.07186      9.18084
    101.66676     90.76859     96.88688
%ENDBLOCK LATTICE_ABC

%BLOCK POSITIONS_FRAC
  Li   0.2857486   0.0417497   0.1928519 SPIN=   0.00000
  Li  -0.2857486  -0.0417497  -0.1928519 SPIN=   0.00000
  Li   0.2463457   0.4425983   0.3820311 SPIN=   0.00000
  Li  -0.2463457  -0.4425983  -0.3820311 SPIN=   0.00000
   O   0.4420736   0.3559008  -0.0781540 SPIN=   0.00000
   O  -0.1074062   0.2173109  -0.1615159 SPIN=   0.00000
   O   0.2737370   0.0294793  -0.1238049 SPIN=   0.00000
   O   0.0844609   0.2200496   0.0967961 SPIN=   0.00000
   P   0.1864842   0.2138529  -0.0653521 SPIN=   0.00000
   O  -0.4420736  -0.3559008   0.0781540 SPIN=   0.00000
   O   0.1074062  -0.2173109   0.1615159 SPIN=   0.00000
   O  -0.2737370  -0.0294793   0.1238049 SPIN=   0.00000
   O  -0.0844609  -0.2200496  -0.0967961 SPIN=   0.00000
   P  -0.1864842  -0.2138529   0.0653521 SPIN=   0.00000
   O   0.2392509  -0.2931444  -0.5994859 SPIN=   0.00000
   O  -0.0971954  -0.1840601  -0.3800282 SPIN=   0.00000
   O   0.3269821  -0.3393479  -0.3309554 SPIN=   0.00000
   O   0.4374031  -0.0453695  -0.3822180 SPIN=   0.00000
   P   0.2297708  -0.2176082  -0.4320764 SPIN=   0.00000
   O  -0.2392509   0.2931444   0.5994859 SPIN=   0.00000
   O   0.0971954   0.1840601   0.3800282 SPIN=   0.00000
   O  -0.3269821   0.3393479   0.3309554 SPIN=   0.00000
   O  -0.4374031   0.0453695   0.3822180 SPIN=   0.00000
   P  -0.2297708   0.2176082   0.4320764 SPIN=   0.00000
  Fe  -0.2760569   0.3674029   0.1098955 SPIN=   4.50296
  Fe   0.2760569  -0.3674029  -0.1098955 SPIN=   4.50296
  Fe  -0.2693948  -0.1878061   0.3777378 SPIN=   3.49704
  Fe   0.2693948   0.1878061  -0.3777378 SPIN=   3.49704
%ENDBLOCK POSITIONS_FRAC

# Note: total spin =  16.00

KPOINTS_MP_SPACING 0.07

%BLOCK SPECIES_POT
QC5
%ENDBLOCK SPECIES_POT

%BLOCK HUBBARD_U
Fe d:4.0
%ENDBLOCK HUBBARD_U

SNAP_TO_SYMMETRY
SYMMETRY_GENERATE

