#              Generated by Buildcell
#
# at 14:37:21 (GMT+0.0) 24th November 2020
# in /scratch/scratch/uccabz1/launch_tmp
# on node-a14f-029
# by uccabz1
#
# compiler GCC version 4.9.2
# options -cpp -iprefix /scratch/UCL/applications/gcc/4.9.2/bin/../lib/gcc/x86_64-unknown-linux-gnu/4.9.2/ -mtune=corei7 -march=x86-64 -g -O2
#
# seed -2097648419  -633786077 -1417429399 -2046765262  1892122623  -923007117  -176459373  -550053761  -514262879 -1456137622 -1780375732 -1366193877
#
#      Author: C. J. Pickard (cjp20@cam.ac.uk)
#                Space group: I41
#

%BLOCK LATTICE_ABC
      5.41027      5.41027      6.67191
    113.91941    113.91941     90.00000
%ENDBLOCK LATTICE_ABC

%BLOCK POSITIONS_FRAC
  Li   0.0431644   0.0431644   0.0863288 SPIN=   0.00000
  Li   0.2931644  -0.2068356  -0.4136712 SPIN=   0.00000
   O   0.3436117  -0.1949591   0.0471008 SPIN=   0.00000
   O   0.4151309   0.3362570   0.2898181 SPIN=   0.00000
   O  -0.2965108   0.2420599   0.0471008 SPIN=   0.00000
   O  -0.1253128  -0.0464389   0.2898181 SPIN=   0.00000
   O   0.4920599   0.0936117  -0.4528992 SPIN=   0.00000
   O   0.2035611   0.1651309  -0.2101819 SPIN=   0.00000
   O   0.0550409  -0.5465108  -0.4528992 SPIN=   0.00000
   O   0.5862570  -0.3753128  -0.2101819 SPIN=   0.00000
   P  -0.4616843   0.0383157   0.0766315 SPIN=   0.00000
   P   0.2883157   0.2883157  -0.4233685 SPIN=   0.00000
  Fe  -0.1289093   0.3710907  -0.2578185 SPIN=   4.00000
  Fe  -0.3789093  -0.3789093   0.2421815 SPIN=   4.00000
%ENDBLOCK POSITIONS_FRAC

# Note: total spin =   8.00

KPOINTS_MP_SPACING 0.07

%BLOCK SPECIES_POT
QC5
%ENDBLOCK SPECIES_POT

%BLOCK HUBBARD_U
Fe d:4.0
%ENDBLOCK HUBBARD_U

SNAP_TO_SYMMETRY
SYMMETRY_GENERATE

