#              Generated by Buildcell
#
# at 11:02:47 (GMT+0.0) 24th November 2020
# in /scratch/scratch/uccabz1/launch_tmp
# on node-a14c-007
# by uccabz1
#
# compiler GCC version 4.9.2
# options -cpp -iprefix /scratch/UCL/applications/gcc/4.9.2/bin/../lib/gcc/x86_64-unknown-linux-gnu/4.9.2/ -mtune=corei7 -march=x86-64 -g -O2
#
# seed  1334196080   449742895  -605359417  2084866133   339137328 -1248136674 -1417700687   484729884 -1238849271  1262315879   385323149   483579593
#
#      Author: C. J. Pickard (cjp20@cam.ac.uk)
#                Space group: C2/c
#

%BLOCK LATTICE_ABC
      5.33306      5.33306      6.16757
    104.17399    104.17399     99.63897
%ENDBLOCK LATTICE_ABC

%BLOCK POSITIONS_FRAC
  Li  -0.0000000  -0.0000000  -0.0000000 SPIN=   0.00000
  Li   0.0000000  -0.0000000  -0.5000000 SPIN=   0.00000
   O  -0.3248867  -0.2843068   0.0102305 SPIN=   0.00000
   O   0.0466387  -0.4211576  -0.1636400 SPIN=   0.00000
   O   0.2843068   0.3248867  -0.5102305 SPIN=   0.00000
   O   0.4211576  -0.0466387  -0.3363600 SPIN=   0.00000
   O   0.3248867   0.2843068  -0.0102305 SPIN=   0.00000
   O  -0.0466387   0.4211576   0.1636400 SPIN=   0.00000
   O  -0.2843068  -0.3248867   0.5102305 SPIN=   0.00000
   O  -0.4211576   0.0466387   0.3363600 SPIN=   0.00000
   P  -0.5000000  -0.0000000   0.0000000 SPIN=   0.00000
   P   0.0000000   0.5000000   0.5000000 SPIN=   0.00000
  Fe   0.3568771  -0.3568771   0.2500000 SPIN=   4.00000
  Fe  -0.3568771   0.3568771  -0.2500000 SPIN=   4.00000
%ENDBLOCK POSITIONS_FRAC

# Note: total spin =   8.00

KPOINTS_MP_SPACING 0.07

%BLOCK SPECIES_POT
QC5
%ENDBLOCK SPECIES_POT

%BLOCK HUBBARD_U
Fe d:4.0
%ENDBLOCK HUBBARD_U

SNAP_TO_SYMMETRY
SYMMETRY_GENERATE

