#              Generated by Buildcell
#
# at 23:15:42 (GMT+0.0) 26th November 2020
# in /lustre/scratch/uccabz1/launch_tmp
# on node-c12j-025
# by uccabz1
#
# compiler GCC version 4.9.2
# options -cpp -iprefix /lustre/shared/ucl/apps/gcc/4.9.2/bin/../lib/gcc/x86_64-unknown-linux-gnu/4.9.2/ -mtune=corei7 -march=x86-64 -g -Og
#
# seed  -859657212  -336957307  1144368853 -2050676223 -1349567660  1532890919 -1757358771   218953543  2100148037  1294025162  1260279713  1839878376
#
#      Author: C. J. Pickard (cjp20@cam.ac.uk)
#                Space group: P21
#

%BLOCK LATTICE_ABC
      5.44471      5.54645     11.81121
     90.00000     90.00000    116.21375
%ENDBLOCK LATTICE_ABC

%BLOCK POSITIONS_FRAC
  Li   0.3196250  -0.1425642   0.1336496 SPIN=   0.00000
  Li  -0.3196250   0.1425642  -0.3663504 SPIN=   0.00000
  Li   0.5359380   0.4514482   0.1746267 SPIN=   0.00000
  Li  -0.5359380  -0.4514482  -0.3253733 SPIN=   0.00000
   O  -0.0359405   0.2636652   0.4999266 SPIN=   0.00000
   O   0.4289271   0.6920642   0.5087682 SPIN=   0.00000
   O   0.4330899   0.2488214   0.5159649 SPIN=   0.00000
   O   0.3107325   0.4043999   0.3348613 SPIN=   0.00000
   P   0.2674693   0.3948849   0.4652120 SPIN=   0.00000
   O   0.0359405  -0.2636652  -0.0000734 SPIN=   0.00000
   O  -0.4289271  -0.6920642   0.0087682 SPIN=   0.00000
   O  -0.4330899  -0.2488214   0.0159649 SPIN=   0.00000
   O  -0.3107325  -0.4043999  -0.1651387 SPIN=   0.00000
   P  -0.2674693  -0.3948849  -0.0347880 SPIN=   0.00000
   O  -0.1515736  -0.0753272   0.2326877 SPIN=   0.00000
   O  -0.0006984  -0.4590711   0.2311032 SPIN=   0.00000
   O   0.2599753  -0.0592552   0.3493127 SPIN=   0.00000
   O  -0.2162141  -0.3816801   0.4059673 SPIN=   0.00000
   P  -0.0359853  -0.2364881   0.3021241 SPIN=   0.00000
   O   0.1515736   0.0753272  -0.2673123 SPIN=   0.00000
   O   0.0006984   0.4590711  -0.2688968 SPIN=   0.00000
   O  -0.2599753   0.0592552  -0.1506873 SPIN=   0.00000
   O   0.2162141   0.3816801  -0.0940327 SPIN=   0.00000
   P   0.0359853   0.2364881  -0.1978759 SPIN=   0.00000
  Fe   0.0571624  -0.2413471  -0.4581006 SPIN=   1.44918
  Fe  -0.0571624   0.2413471   0.0418994 SPIN=   1.44918
  Fe  -0.2851716   0.1089632   0.3570149 SPIN=   6.55082
  Fe   0.2851716  -0.1089632  -0.1429851 SPIN=   6.55082
%ENDBLOCK POSITIONS_FRAC

# Note: total spin =  16.00

KPOINTS_MP_SPACING 0.07

%BLOCK SPECIES_POT
QC5
%ENDBLOCK SPECIES_POT

%BLOCK HUBBARD_U
Fe d:4.0
%ENDBLOCK HUBBARD_U

SNAP_TO_SYMMETRY
SYMMETRY_GENERATE

