#              Generated by Buildcell
#
# at 18:31:22 (GMT+0.0) 26th November 2020
# in /lustre/scratch/uccabz1/launch_tmp
# on node-c12j-025
# by uccabz1
#
# compiler GCC version 4.9.2
# options -cpp -iprefix /lustre/shared/ucl/apps/gcc/4.9.2/bin/../lib/gcc/x86_64-unknown-linux-gnu/4.9.2/ -mtune=corei7 -march=x86-64 -g -Og
#
# seed   785930080 -1013348219  -862583478 -1535641357   984407665  1826417845 -1379526875   167114330 -1438162838  1225851337  1260182796  1490832844
#
#      Author: C. J. Pickard (cjp20@cam.ac.uk)
#                Space group: Pm
#

%BLOCK LATTICE_ABC
      5.00629      6.84278      9.39815
     90.00000     90.00000     96.31226
%ENDBLOCK LATTICE_ABC

%BLOCK POSITIONS_FRAC
  Li  -0.0836861  -0.3621080   0.2311092 SPIN=   0.00000
  Li  -0.0836861  -0.3621080  -0.2311092 SPIN=   0.00000
  Li   0.4397180   0.1617462  -0.3037760 SPIN=   0.00000
  Li   0.4397180   0.1617462   0.3037760 SPIN=   0.00000
   O   0.0166114   0.3884010  -0.3601970 SPIN=   0.00000
   O   0.1998960   0.2376966  -0.1310825 SPIN=   0.00000
   O  -0.2685682   0.3193673  -0.1310746 SPIN=   0.00000
   O  -0.1469311   0.0358003  -0.2768166 SPIN=   0.00000
   P  -0.0473615   0.2504623  -0.2326162 SPIN=   0.00000
   O   0.0166114   0.3884010   0.3601970 SPIN=   0.00000
   O   0.1998960   0.2376966   0.1310825 SPIN=   0.00000
   O  -0.2685682   0.3193673   0.1310746 SPIN=   0.00000
   O  -0.1469311   0.0358003   0.2768166 SPIN=   0.00000
   P  -0.0473615   0.2504623   0.2326162 SPIN=   0.00000
   O   0.4225377  -0.0893367  -0.1306266 SPIN=   0.00000
   O   0.4225057  -0.4476612  -0.2220385 SPIN=   0.00000
   O   0.2015897  -0.2129084  -0.3689599 SPIN=   0.00000
   P   0.4398221  -0.2230798  -0.2610410 SPIN=   0.00000
   O   0.4225377  -0.0893367   0.1306266 SPIN=   0.00000
   O   0.4225057  -0.4476612   0.2220385 SPIN=   0.00000
   O   0.2015897  -0.2129084   0.3689599 SPIN=   0.00000
   P   0.4398221  -0.2230798   0.2610410 SPIN=   0.00000
   O  -0.2761797  -0.4061098   0.5000000 SPIN=   0.00000
   O   0.0325887  -0.3386411  -0.0000000 SPIN=   0.00000
  Fe  -0.0851741  -0.0010905  -0.5000000 SPIN=   5.06567
  Fe   0.4254349  -0.4727342  -0.0000000 SPIN=   9.08211
  Fe   0.0464938  -0.0025176  -0.0000000 SPIN=   1.78306
  Fe   0.2989106  -0.4672239   0.5000000 SPIN=   0.06915
%ENDBLOCK POSITIONS_FRAC

# Note: total spin =  16.00

KPOINTS_MP_SPACING 0.07

%BLOCK SPECIES_POT
QC5
%ENDBLOCK SPECIES_POT

%BLOCK HUBBARD_U
Fe d:4.0
%ENDBLOCK HUBBARD_U

SNAP_TO_SYMMETRY
SYMMETRY_GENERATE

