#              Generated by Buildcell
#
# at 12:42:55 (GMT+0.0) 24th November 2020
# in /lustre/scratch/uccabz1/launch_tmp
# on node-c12j-029
# by uccabz1
#
# compiler GCC version 4.9.2
# options -cpp -iprefix /lustre/shared/ucl/apps/gcc/4.9.2/bin/../lib/gcc/x86_64-unknown-linux-gnu/4.9.2/ -mtune=corei7 -march=x86-64 -g -Og
#
# seed -1046872122 -1956342648  -891792577   935779468    86649864  1275623141  -322444392  -639356757  -721797245 -1756297989  -308092525   916106586
#
#      Author: C. J. Pickard (cjp20@cam.ac.uk)
#                Space group: Pba2
#

%BLOCK LATTICE_ABC
      5.29191      5.49808      5.49917
     90.00000     90.00000     90.00000
%ENDBLOCK LATTICE_ABC

%BLOCK POSITIONS_FRAC
  Li  -0.0303969   0.0000000  -0.5000000 SPIN=   0.00000
  Li  -0.0303969   0.5000000   0.0000000 SPIN=   0.00000
   O   0.2932560  -0.1575965  -0.3423519 SPIN=   0.00000
   O   0.6839656   0.1134324  -0.2506202 SPIN=   0.00000
   O   0.2932560   0.1575965   0.3423519 SPIN=   0.00000
   O   0.6839656  -0.1134324   0.2506202 SPIN=   0.00000
   O   0.2932560   0.3424035  -0.1576481 SPIN=   0.00000
   O   0.6839656   0.6134324  -0.2493798 SPIN=   0.00000
   O   0.2932560  -0.3424035   0.1576481 SPIN=   0.00000
   O   0.6839656  -0.6134324   0.2493798 SPIN=   0.00000
   P   0.4703682   0.0000000  -0.5000000 SPIN=   0.00000
   P   0.4703682   0.5000000   0.0000000 SPIN=   0.00000
  Fe   0.3237122   0.0000000   0.0000000 SPIN=   4.00000
  Fe   0.3237122  -0.5000000   0.5000000 SPIN=   4.00000
%ENDBLOCK POSITIONS_FRAC

# Note: total spin =   8.00

KPOINTS_MP_SPACING 0.07

%BLOCK SPECIES_POT
QC5
%ENDBLOCK SPECIES_POT

%BLOCK HUBBARD_U
Fe d:4.0
%ENDBLOCK HUBBARD_U

SNAP_TO_SYMMETRY
SYMMETRY_GENERATE

