#              Generated by Buildcell
#
# at 06:45:16 (GMT+0.0) 24th November 2020
# in /lustre/scratch/uccabz1/launch_tmp
# on node-c12c-030
# by uccabz1
#
# compiler GCC version 4.9.2
# options -cpp -iprefix /lustre/shared/ucl/apps/gcc/4.9.2/bin/../lib/gcc/x86_64-unknown-linux-gnu/4.9.2/ -mtune=corei7 -march=x86-64 -g -Og
#
# seed   401774869   481852993  1331947423 -2110492403   673733665  1869272433    96906382 -1957688021  1052254147   464766716   613376228  1470087509
#
#      Author: C. J. Pickard (cjp20@cam.ac.uk)
#                Space group: P-1
#

%BLOCK LATTICE_ABC
      3.87884      5.37502      8.25979
     73.69078     81.28123     76.45549
%ENDBLOCK LATTICE_ABC

%BLOCK POSITIONS_FRAC
  Li   0.1827748  -0.7707722   0.4789213 SPIN=   0.00000
  Li  -0.1827748   0.7707722  -0.4789213 SPIN=   0.00000
   O   0.2022797  -0.1626148   0.2635579 SPIN=   0.00000
   O  -0.2339346  -0.2053915   0.0678209 SPIN=   0.00000
   O   0.2552223  -0.5852841   0.1602002 SPIN=   0.00000
   O  -0.2517312  -0.4694090   0.3705565 SPIN=   0.00000
   P   0.0012167  -0.3467375   0.2199203 SPIN=   0.00000
   O  -0.2022797   0.1626148  -0.2635579 SPIN=   0.00000
   O   0.2339346   0.2053915  -0.0678209 SPIN=   0.00000
   O  -0.2552223   0.5852841  -0.1602002 SPIN=   0.00000
   O   0.2517312   0.4694090  -0.3705565 SPIN=   0.00000
   P  -0.0012167   0.3467375  -0.2199203 SPIN=   0.00000
  Fe   0.2099166  -0.2169557  -0.1552848 SPIN=   4.00000
  Fe  -0.2099166   0.2169557   0.1552848 SPIN=   4.00000
%ENDBLOCK POSITIONS_FRAC

# Note: total spin =   8.00

KPOINTS_MP_SPACING 0.07

%BLOCK SPECIES_POT
QC5
%ENDBLOCK SPECIES_POT

%BLOCK HUBBARD_U
Fe d:4.0
%ENDBLOCK HUBBARD_U

SNAP_TO_SYMMETRY
SYMMETRY_GENERATE

