#              Generated by Buildcell
#
# at 11:28:02 (GMT+0.0) 24th November 2020
# in /lustre/scratch/uccabz1/launch_tmp
# on node-c12g-024
# by uccabz1
#
# compiler GCC version 4.9.2
# options -cpp -iprefix /lustre/shared/ucl/apps/gcc/4.9.2/bin/../lib/gcc/x86_64-unknown-linux-gnu/4.9.2/ -mtune=corei7 -march=x86-64 -g -Og
#
# seed  -280158215   -61837724   448563829 -1264689134 -1812030399  -531653368 -1786741158  1650677352  -236792729   809657674  1807158116 -1806425990
#
#      Author: C. J. Pickard (cjp20@cam.ac.uk)
#                Space group: Pm
#

%BLOCK LATTICE_ABC
      3.87348      4.75294      9.00039
     90.00000     90.00000    105.07298
%ENDBLOCK LATTICE_ABC

%BLOCK POSITIONS_FRAC
  Li  -0.1658046  -0.3744308  -0.0000000 SPIN=   0.00000
  Li  -0.3454268   0.4484607  -0.5000000 SPIN=   0.00000
   O   0.1553901   0.1894587   0.3634546 SPIN=   0.00000
   O  -0.1012936   0.6284567   0.2997421 SPIN=   0.00000
   O   0.3673869   0.5297955   0.1371173 SPIN=   0.00000
   O  -0.2465669   0.1894731   0.1344771 SPIN=   0.00000
   O   0.1553901   0.1894587  -0.3634546 SPIN=   0.00000
   O  -0.1012936   0.6284567  -0.2997421 SPIN=   0.00000
   O   0.3673869   0.5297955  -0.1371173 SPIN=   0.00000
   O  -0.2465669   0.1894731  -0.1344771 SPIN=   0.00000
   P  -0.0288624   0.0180123   0.5000000 SPIN=   0.00000
   P   0.2044840   0.2187331   0.0000000 SPIN=   0.00000
  Fe   0.4129960  -0.1057916   0.2708958 SPIN=   4.00000
  Fe   0.4129960  -0.1057916  -0.2708958 SPIN=   4.00000
%ENDBLOCK POSITIONS_FRAC

# Note: total spin =   8.00

KPOINTS_MP_SPACING 0.07

%BLOCK SPECIES_POT
QC5
%ENDBLOCK SPECIES_POT

%BLOCK HUBBARD_U
Fe d:4.0
%ENDBLOCK HUBBARD_U

SNAP_TO_SYMMETRY
SYMMETRY_GENERATE

