#              Generated by Buildcell
#
# at 22:18:51 (GMT+0.0) 26th November 2020
# in /lustre/scratch/uccabz1/launch_tmp
# on node-c12h-022
# by uccabz1
#
# compiler GCC version 4.9.2
# options -cpp -iprefix /lustre/shared/ucl/apps/gcc/4.9.2/bin/../lib/gcc/x86_64-unknown-linux-gnu/4.9.2/ -mtune=corei7 -march=x86-64 -g -Og
#
# seed -1657884859  1195946747 -2080058004  -408479310 -1255603864  -837901534 -2028817775  1022467997 -1888210262  -332353665  -817058099  1308237863
#
#      Author: C. J. Pickard (cjp20@cam.ac.uk)
#                Space group: Cm
#

%BLOCK LATTICE_ABC
      4.35503      9.31727      9.31727
    119.56989     96.65016     96.65016
%ENDBLOCK LATTICE_ABC

%BLOCK POSITIONS_FRAC
  Li  -0.3965292   0.4570507   0.4570507 SPIN=   0.00000
  Li  -0.1702378  -0.0943859  -0.0943859 SPIN=   0.00000
  Li  -0.0075121   0.2336813   0.2336813 SPIN=   0.00000
  Li   0.2192635  -0.3176068  -0.3176068 SPIN=   0.00000
   O  -0.3506842  -0.3935437  -0.2400288 SPIN=   0.00000
   O  -0.2571872  -0.2374267   0.0865993 SPIN=   0.00000
   O  -0.8010367  -0.3090836  -0.0727549 SPIN=   0.00000
   O  -0.5409162  -0.5387793  -0.0820801 SPIN=   0.00000
   P  -0.4808045  -0.3729727  -0.0858023 SPIN=   0.00000
   O  -0.3506842  -0.2400288  -0.3935437 SPIN=   0.00000
   O  -0.2571872   0.0865993  -0.2374267 SPIN=   0.00000
   O  -0.8010367  -0.0727549  -0.3090836 SPIN=   0.00000
   O  -0.5409162  -0.0820801  -0.5387793 SPIN=   0.00000
   P  -0.4808045  -0.0858023  -0.3729727 SPIN=   0.00000
   O   0.1368594   0.5152275   0.3591019 SPIN=   0.00000
   O   0.1812631   0.6347387   0.1609009 SPIN=   0.00000
   O   0.5930955   0.4869723   0.1960736 SPIN=   0.00000
   O   0.0490887   0.3223376   0.0360456 SPIN=   0.00000
   P   0.2323270   0.4891954   0.1953456 SPIN=   0.00000
   O   0.1368594   0.3591019   0.5152275 SPIN=   0.00000
   O   0.1812631   0.1609009   0.6347387 SPIN=   0.00000
   O   0.5930955   0.1960736   0.4869723 SPIN=   0.00000
   O   0.0490887   0.0360456   0.3223376 SPIN=   0.00000
   P   0.2323270   0.1953456   0.4891954 SPIN=   0.00000
  Fe  -0.0892629   0.3904271  -0.2486006 SPIN=   3.26029
  Fe  -0.0892629  -0.2486006   0.3904271 SPIN=   3.26029
  Fe   0.4108827   0.1907651  -0.0517141 SPIN=   4.73971
  Fe   0.4108827  -0.0517141   0.1907651 SPIN=   4.73971
%ENDBLOCK POSITIONS_FRAC

# Note: total spin =  16.00

KPOINTS_MP_SPACING 0.07

%BLOCK SPECIES_POT
QC5
%ENDBLOCK SPECIES_POT

%BLOCK HUBBARD_U
Fe d:4.0
%ENDBLOCK HUBBARD_U

SNAP_TO_SYMMETRY
SYMMETRY_GENERATE

