#              Generated by Buildcell
#
# at 12:36:08 (GMT+0.0) 24th November 2020
# in /lustre/scratch/uccabz1/launch_tmp
# on node-c12c-032
# by uccabz1
#
# compiler GCC version 4.9.2
# options -cpp -iprefix /lustre/shared/ucl/apps/gcc/4.9.2/bin/../lib/gcc/x86_64-unknown-linux-gnu/4.9.2/ -mtune=corei7 -march=x86-64 -g -Og
#
# seed  -920234100  1761882350 -2004255333   498070382   118930126   817900529 -1411133181 -1100234110 -2012123663  1861526094  -495772207  -277099154
#
#      Author: C. J. Pickard (cjp20@cam.ac.uk)
#                Space group: C2221
#

%BLOCK LATTICE_ABC
      5.27955      5.73205      6.01390
    118.46140     90.00000     90.00000
%ENDBLOCK LATTICE_ABC

%BLOCK POSITIONS_FRAC
  Li  -0.2500000  -0.4271892  -0.8543784 SPIN=   0.00000
  Li   0.2500000   0.4271892   0.8543784 SPIN=   0.00000
   O   0.4712444   0.4062713   0.2844135 SPIN=   0.00000
   O  -0.0147584   0.3273486   0.2336198 SPIN=   0.00000
   O  -0.0287556  -0.4062713  -0.2844135 SPIN=   0.00000
   O  -0.5147584  -0.3273486  -0.2336198 SPIN=   0.00000
   O   0.0287556  -0.1218578   0.2844135 SPIN=   0.00000
   O   0.5147584  -0.0937288   0.2336198 SPIN=   0.00000
   O  -0.4712444   0.1218578  -0.2844135 SPIN=   0.00000
   O   0.0147584   0.0937288  -0.2336198 SPIN=   0.00000
   P   0.2500000   0.1232641   0.2465282 SPIN=   0.00000
   P  -0.2500000  -0.1232641  -0.2465282 SPIN=   0.00000
  Fe  -0.2500000   0.2297692   0.4595385 SPIN=   4.00000
  Fe   0.2500000  -0.2297692  -0.4595385 SPIN=   4.00000
%ENDBLOCK POSITIONS_FRAC

# Note: total spin =   8.00

KPOINTS_MP_SPACING 0.07

%BLOCK SPECIES_POT
QC5
%ENDBLOCK SPECIES_POT

%BLOCK HUBBARD_U
Fe d:4.0
%ENDBLOCK HUBBARD_U

SNAP_TO_SYMMETRY
SYMMETRY_GENERATE

