#              Generated by Buildcell
#
# at 22:41:17 (GMT+0.0) 26th November 2020
# in /lustre/scratch/uccabz1/launch_tmp
# on node-c12d-030
# by uccabz1
#
# compiler GCC version 4.9.2
# options -cpp -iprefix /lustre/shared/ucl/apps/gcc/4.9.2/bin/../lib/gcc/x86_64-unknown-linux-gnu/4.9.2/ -mtune=corei7 -march=x86-64 -g -Og
#
# seed   246315148  1236364526   563321541 -1438746432 -1200044987 -1570429319  -759349309 -1863110286   583861673   470250782 -2092094140  1432871492
#
#      Author: C. J. Pickard (cjp20@cam.ac.uk)
#                Space group: P21212
#

%BLOCK LATTICE_ABC
      4.84689      7.02004      9.40476
     90.00000     90.00000     90.00000
%ENDBLOCK LATTICE_ABC

%BLOCK POSITIONS_FRAC
  Li  -0.2500695  -0.0055192  -0.0962316 SPIN=   0.00000
  Li   0.2500695  -0.0055192   0.0962316 SPIN=   0.00000
  Li  -0.2499305   0.0055192   0.4037684 SPIN=   0.00000
  Li   0.2499305   0.0055192  -0.4037684 SPIN=   0.00000
   O   0.3182213  -0.0512788   0.3494931 SPIN=   0.00000
   O  -0.0402579  -0.3249826   0.3705462 SPIN=   0.00000
   O   0.2269545  -0.2963994   0.1479361 SPIN=   0.00000
   O   0.4635585  -0.4041364   0.3705857 SPIN=   0.00000
   P   0.2487844  -0.2591885   0.3124815 SPIN=   0.00000
   O  -0.3182213  -0.0512788  -0.3494931 SPIN=   0.00000
   O   0.0402579  -0.3249826  -0.3705462 SPIN=   0.00000
   O  -0.2269545  -0.2963994  -0.1479361 SPIN=   0.00000
   O  -0.4635585  -0.4041364  -0.3705857 SPIN=   0.00000
   P  -0.2487844  -0.2591885  -0.3124815 SPIN=   0.00000
   O   0.1817787   0.0512788  -0.1505069 SPIN=   0.00000
   O   0.5402579   0.3249826  -0.1294538 SPIN=   0.00000
   O   0.2730455   0.2963994  -0.3520639 SPIN=   0.00000
   O   0.0364415   0.4041364  -0.1294143 SPIN=   0.00000
   P   0.2512156   0.2591885  -0.1875185 SPIN=   0.00000
   O  -0.1817787   0.0512788   0.1505069 SPIN=   0.00000
   O  -0.5402579   0.3249826   0.1294538 SPIN=   0.00000
   O  -0.2730455   0.2963994   0.3520639 SPIN=   0.00000
   O  -0.0364415   0.4041364   0.1294143 SPIN=   0.00000
   P  -0.2512156   0.2591885   0.1875185 SPIN=   0.00000
  Fe  -0.2492769   0.3240576  -0.3406234 SPIN=   4.00000
  Fe   0.2492769   0.3240576   0.3406234 SPIN=   4.00000
  Fe  -0.2507231  -0.3240576   0.1593766 SPIN=   4.00000
  Fe   0.2507231  -0.3240576  -0.1593766 SPIN=   4.00000
%ENDBLOCK POSITIONS_FRAC

# Note: total spin =  16.00

KPOINTS_MP_SPACING 0.07

%BLOCK SPECIES_POT
QC5
%ENDBLOCK SPECIES_POT

%BLOCK HUBBARD_U
Fe d:4.0
%ENDBLOCK HUBBARD_U

SNAP_TO_SYMMETRY
SYMMETRY_GENERATE

