#              Generated by Buildcell
#
# at 08:54:55 (GMT+0.0) 24th November 2020
# in /scratch/scratch/uccabz1/launch_tmp
# on node-a14a-009
# by uccabz1
#
# compiler GCC version 4.9.2
# options -cpp -iprefix /scratch/UCL/applications/gcc/4.9.2/bin/../lib/gcc/x86_64-unknown-linux-gnu/4.9.2/ -mtune=corei7 -march=x86-64 -g -O2
#
# seed  1040119594  1097497854   251374959  1192749691  -828548292  1786321621  -894501062   249919000   331086749   166217321  -915910456    38402521
#
#      Author: C. J. Pickard (cjp20@cam.ac.uk)
#                Space group: Cc
#

%BLOCK LATTICE_ABC
      5.57223      5.86634      5.86634
    113.17750    103.36521    103.36521
%ENDBLOCK LATTICE_ABC

%BLOCK POSITIONS_FRAC
  Li   0.3274656  -0.3829596   0.4930357 SPIN=   0.00000
  Li  -0.1725344   0.4930357  -0.3829596 SPIN=   0.00000
   O  -0.5532664   0.0902170  -0.0465153 SPIN=   0.00000
   O  -0.3692129   0.5801965   0.3264157 SPIN=   0.00000
   O  -0.0581059   0.3930517   0.1496355 SPIN=   0.00000
   O  -0.3908322   0.4863638  -0.1343665 SPIN=   0.00000
   P  -0.3546240   0.3727979   0.0649301 SPIN=   0.00000
   O  -0.0532664  -0.0465153   0.0902170 SPIN=   0.00000
   O   0.1307871   0.3264157   0.5801965 SPIN=   0.00000
   O   0.4418941   0.1496355   0.3930517 SPIN=   0.00000
   O   0.1091678  -0.1343665   0.4863638 SPIN=   0.00000
   P   0.1453760   0.0649301   0.3727979 SPIN=   0.00000
  Fe   0.0787220   0.1463093  -0.1338129 SPIN=   4.00000
  Fe  -0.4212780  -0.1338129   0.1463093 SPIN=   4.00000
%ENDBLOCK POSITIONS_FRAC

# Note: total spin =   8.00

KPOINTS_MP_SPACING 0.07

%BLOCK SPECIES_POT
QC5
%ENDBLOCK SPECIES_POT

%BLOCK HUBBARD_U
Fe d:4.0
%ENDBLOCK HUBBARD_U

SNAP_TO_SYMMETRY
SYMMETRY_GENERATE

