#              Generated by Buildcell
#
# at 17:53:56 (GMT+0.0) 26th November 2020
# in /lustre/scratch/uccabz1/launch_tmp
# on node-c12p-026
# by uccabz1
#
# compiler GCC version 4.9.2
# options -cpp -iprefix /lustre/shared/ucl/apps/gcc/4.9.2/bin/../lib/gcc/x86_64-unknown-linux-gnu/4.9.2/ -mtune=corei7 -march=x86-64 -g -Og
#
# seed  -570292877 -1259975617 -1579025284  1441269001   990433092 -1683459698 -1778478419  2110853326  1881414378  1515181555  -743121862   248730571
#
#      Author: C. J. Pickard (cjp20@cam.ac.uk)
#                Space group: P-1
#

%BLOCK LATTICE_ABC
      5.61923      7.71993      7.80578
     95.04916     90.59518    108.29128
%ENDBLOCK LATTICE_ABC

%BLOCK POSITIONS_FRAC
  Li   0.2245752   0.2164604   0.2673077 SPIN=   0.00000
  Li  -0.2245752  -0.2164604  -0.2673077 SPIN=   0.00000
  Li  -0.0042751  -0.2115438   0.2111583 SPIN=   0.00000
  Li   0.0042751   0.2115438  -0.2111583 SPIN=   0.00000
   O  -0.0005370  -0.5181645  -0.1577571 SPIN=   0.00000
   O   0.0610375  -0.1784094  -0.0492386 SPIN=   0.00000
   O   0.4375620  -0.2738172  -0.0963296 SPIN=   0.00000
   O   0.1735525  -0.2543444  -0.3498783 SPIN=   0.00000
   P   0.1590017  -0.3168590  -0.1652075 SPIN=   0.00000
   O   0.0005370   0.5181645   0.1577571 SPIN=   0.00000
   O  -0.0610375   0.1784094   0.0492386 SPIN=   0.00000
   O  -0.4375620   0.2738172   0.0963296 SPIN=   0.00000
   O  -0.1735525   0.2543444   0.3498783 SPIN=   0.00000
   P  -0.1590017   0.3168590   0.1652075 SPIN=   0.00000
   O   0.7025811   0.2424140  -0.3508864 SPIN=   0.00000
   O   0.2461520   0.1578918  -0.4765018 SPIN=   0.00000
   O   0.3095312   0.1161205  -0.1711735 SPIN=   0.00000
   O   0.4118067   0.4333305  -0.2627846 SPIN=   0.00000
   O  -0.7025811  -0.2424140   0.3508864 SPIN=   0.00000
   O  -0.2461520  -0.1578918   0.4765018 SPIN=   0.00000
   O  -0.3095312  -0.1161205   0.1711735 SPIN=   0.00000
   O  -0.4118067  -0.4333305   0.2627846 SPIN=   0.00000
   P   0.5000000   0.5000000   0.5000000 SPIN=   0.00000
   P   0.0000000   0.0000000   0.5000000 SPIN=   0.00000
  Fe   0.0000000  -0.5000000  -0.5000000 SPIN=   5.54668
  Fe   0.5000000   0.0000000   0.0000000 SPIN=   5.81955
  Fe  -0.5000000  -0.0000000   0.5000000 SPIN=   1.90898
  Fe   0.5000000   0.5000000  -0.0000000 SPIN=   2.72478
%ENDBLOCK POSITIONS_FRAC

# Note: total spin =  16.00

KPOINTS_MP_SPACING 0.07

%BLOCK SPECIES_POT
QC5
%ENDBLOCK SPECIES_POT

%BLOCK HUBBARD_U
Fe d:4.0
%ENDBLOCK HUBBARD_U

SNAP_TO_SYMMETRY
SYMMETRY_GENERATE

