#              Generated by Buildcell
#
# at 09:01:11 (GMT+0.0) 24th November 2020
# in /lustre/scratch/uccabz1/launch_tmp
# on node-c12n-026
# by uccabz1
#
# compiler GCC version 4.9.2
# options -cpp -iprefix /lustre/shared/ucl/apps/gcc/4.9.2/bin/../lib/gcc/x86_64-unknown-linux-gnu/4.9.2/ -mtune=corei7 -march=x86-64 -g -Og
#
# seed  -278894724  2047955453 -1848825704   207527650   293697815 -1286274343  1589973100  1099514295 -1081971433 -1720414715  -918690229  1335719802
#
#      Author: C. J. Pickard (cjp20@cam.ac.uk)
#                Space group: P21/m
#

%BLOCK LATTICE_ABC
      3.85109      4.39522      9.46048
     90.00000     90.00000     92.32572
%ENDBLOCK LATTICE_ABC

%BLOCK POSITIONS_FRAC
  Li   0.3278955   0.4937776   0.2500000 SPIN=   0.00000
  Li  -0.3278955  -0.4937776  -0.2500000 SPIN=   0.00000
   O   0.0420828   0.1471424   0.1194211 SPIN=   0.00000
   O  -0.2818174  -0.3811734   0.0990542 SPIN=   0.00000
   O  -0.0420828  -0.1471424  -0.3805789 SPIN=   0.00000
   O   0.2818174   0.3811734  -0.4009458 SPIN=   0.00000
   O  -0.0420828  -0.1471424  -0.1194211 SPIN=   0.00000
   O   0.2818174   0.3811734  -0.0990542 SPIN=   0.00000
   O   0.0420828   0.1471424   0.3805789 SPIN=   0.00000
   O  -0.2818174  -0.3811734   0.4009458 SPIN=   0.00000
   P  -0.0000000   0.5000000   0.0000000 SPIN=   0.00000
   P  -0.0000000   0.5000000  -0.5000000 SPIN=   0.00000
  Fe   0.5000000  -0.0000000   0.0000000 SPIN=   4.00000
  Fe  -0.5000000   0.0000000  -0.5000000 SPIN=   4.00000
%ENDBLOCK POSITIONS_FRAC

# Note: total spin =   8.00

KPOINTS_MP_SPACING 0.07

%BLOCK SPECIES_POT
QC5
%ENDBLOCK SPECIES_POT

%BLOCK HUBBARD_U
Fe d:4.0
%ENDBLOCK HUBBARD_U

SNAP_TO_SYMMETRY
SYMMETRY_GENERATE

