#              Generated by Buildcell
#
# at 13:01:42 (GMT+0.0) 24th November 2020
# in /scratch/scratch/uccabz1/launch_tmp
# on node-a14c-025
# by uccabz1
#
# compiler GCC version 4.9.2
# options -cpp -iprefix /scratch/UCL/applications/gcc/4.9.2/bin/../lib/gcc/x86_64-unknown-linux-gnu/4.9.2/ -mtune=corei7 -march=x86-64 -g -O2
#
# seed -1275241042  1194856408  -107869552 -1157095469  -929636070  1046610686 -2041086295 -1095000297  1044640093   176913187 -1625090440  1225224470
#
#      Author: C. J. Pickard (cjp20@cam.ac.uk)
#                Space group: P21
#

%BLOCK LATTICE_ABC
      4.80694      5.67621      6.24697
     90.00000    110.16661     90.00000
%ENDBLOCK LATTICE_ABC

%BLOCK POSITIONS_FRAC
  Li  -0.3458941   0.4751762   0.1019749 SPIN=   0.00000
  Li   0.3458941  -0.0248238  -0.1019749 SPIN=   0.00000
   O  -0.0025033  -0.1438322  -0.3953954 SPIN=   0.00000
   O  -0.3303274  -0.2463960  -0.1534045 SPIN=   0.00000
   O  -0.1501590   0.1622867  -0.1443511 SPIN=   0.00000
   O  -0.5384559   0.0100017  -0.4981667 SPIN=   0.00000
   P  -0.2452388  -0.0584813  -0.3053885 SPIN=   0.00000
   O   0.0025033   0.3561678   0.3953954 SPIN=   0.00000
   O   0.3303274   0.2536040   0.1534045 SPIN=   0.00000
   O   0.1501590   0.6622867   0.1443511 SPIN=   0.00000
   O   0.5384559   0.5100017   0.4981667 SPIN=   0.00000
   P   0.2452388   0.4415187   0.3053885 SPIN=   0.00000
  Fe   0.0179012  -0.0282843   0.2887123 SPIN=   4.00000
  Fe  -0.0179012   0.4717157  -0.2887123 SPIN=   4.00000
%ENDBLOCK POSITIONS_FRAC

# Note: total spin =   8.00

KPOINTS_MP_SPACING 0.07

%BLOCK SPECIES_POT
QC5
%ENDBLOCK SPECIES_POT

%BLOCK HUBBARD_U
Fe d:4.0
%ENDBLOCK HUBBARD_U

SNAP_TO_SYMMETRY
SYMMETRY_GENERATE

