#              Generated by Buildcell
#
# at 11:15:46 (GMT+0.0) 24th November 2020
# in /lustre/scratch/uccabz1/launch_tmp
# on node-c12a-034
# by uccabz1
#
# compiler GCC version 4.9.2
# options -cpp -iprefix /lustre/shared/ucl/apps/gcc/4.9.2/bin/../lib/gcc/x86_64-unknown-linux-gnu/4.9.2/ -mtune=corei7 -march=x86-64 -g -Og
#
# seed  -603899910  1612703405   848839517  2084573117  -490771716   429381227  -975294990 -1486352143 -1623359585 -1829130693   318812953   263465545
#
#      Author: C. J. Pickard (cjp20@cam.ac.uk)
#                Space group: Cc
#

%BLOCK LATTICE_ABC
      4.25961      6.55503      6.55503
    113.97331     99.12400     99.12400
%ENDBLOCK LATTICE_ABC

%BLOCK POSITIONS_FRAC
  Li  -0.2260814   0.0930800  -0.1015629 SPIN=   0.00000
  Li   0.2739186  -0.1015629   0.0930800 SPIN=   0.00000
   O   0.3939061   0.2265188   0.0334293 SPIN=   0.00000
   O  -0.0541344   0.4507104   0.0202168 SPIN=   0.00000
   O   0.2632685   0.5162181   0.4004055 SPIN=   0.00000
   O   0.5379264   0.6651606   0.1602187 SPIN=   0.00000
   P   0.2940094   0.4543388   0.1472493 SPIN=   0.00000
   O  -0.1060939   0.0334293   0.2265188 SPIN=   0.00000
   O  -0.5541344   0.0202168   0.4507104 SPIN=   0.00000
   O  -0.2367315   0.4004055   0.5162181 SPIN=   0.00000
   O   0.0379264   0.1602187   0.6651606 SPIN=   0.00000
   P  -0.2059906   0.1472493   0.4543388 SPIN=   0.00000
  Fe   0.4322733  -0.5688319  -0.2727057 SPIN=   4.00000
  Fe  -0.0677267   0.7272943   0.4311681 SPIN=   4.00000
%ENDBLOCK POSITIONS_FRAC

# Note: total spin =   8.00

KPOINTS_MP_SPACING 0.07

%BLOCK SPECIES_POT
QC5
%ENDBLOCK SPECIES_POT

%BLOCK HUBBARD_U
Fe d:4.0
%ENDBLOCK HUBBARD_U

SNAP_TO_SYMMETRY
SYMMETRY_GENERATE

