#              Generated by Buildcell
#
# at 00:33:33 (GMT+0.0) 27th November 2020
# in /lustre/scratch/uccabz1/launch_tmp
# on node-c12k-024
# by uccabz1
#
# compiler GCC version 4.9.2
# options -cpp -iprefix /lustre/shared/ucl/apps/gcc/4.9.2/bin/../lib/gcc/x86_64-unknown-linux-gnu/4.9.2/ -mtune=corei7 -march=x86-64 -g -Og
#
# seed  1980121274 -2067353457  -212850398 -2010930216 -2089145029  1664073559  1879168566  1597992582  1886644965   960155859  1067089360   361010915
#
#      Author: C. J. Pickard (cjp20@cam.ac.uk)
#                Space group: P21
#

%BLOCK LATTICE_ABC
      6.37689      6.98577      7.59862
    109.02972     90.00000     90.00000
%ENDBLOCK LATTICE_ABC

%BLOCK POSITIONS_FRAC
  Li  -0.1410421   0.2339735  -0.2126573 SPIN=   0.00000
  Li   0.3589579  -0.2339735   0.2126573 SPIN=   0.00000
  Li   0.0092661   0.4569770  -0.4683128 SPIN=   0.00000
  Li  -0.4907339  -0.4569770   0.4683128 SPIN=   0.00000
   O  -0.4485183   0.0588831   0.2152825 SPIN=   0.00000
   O  -0.3235466   0.2558037   0.5511055 SPIN=   0.00000
   O  -0.0570948   0.0878119   0.3154286 SPIN=   0.00000
   O  -0.2431903   0.3950454   0.2937937 SPIN=   0.00000
   P  -0.2774008   0.1942140   0.3364629 SPIN=   0.00000
   O   0.0514817  -0.0588831  -0.2152825 SPIN=   0.00000
   O   0.1764534  -0.2558037  -0.5511055 SPIN=   0.00000
   O   0.4429052  -0.0878119  -0.3154286 SPIN=   0.00000
   O   0.2568097  -0.3950454  -0.2937937 SPIN=   0.00000
   P   0.2225992  -0.1942140  -0.3364629 SPIN=   0.00000
   O  -0.0938907  -0.4613391  -0.1907853 SPIN=   0.00000
   O  -0.2538929  -0.2637009   0.1318413 SPIN=   0.00000
   O   0.0359139  -0.5024637   0.1190062 SPIN=   0.00000
   O   0.1092174  -0.1787743   0.0557277 SPIN=   0.00000
   P  -0.0510780  -0.3553750   0.0175638 SPIN=   0.00000
   O   0.4061093   0.4613391   0.1907853 SPIN=   0.00000
   O   0.2461071   0.2637009  -0.1318413 SPIN=   0.00000
   O   0.5359139   0.5024637  -0.1190062 SPIN=   0.00000
   O   0.6092174   0.1787743  -0.0557277 SPIN=   0.00000
   P   0.4489220   0.3553750  -0.0175638 SPIN=   0.00000
  Fe  -0.3622777  -0.1475648  -0.1175271 SPIN=   4.24434
  Fe   0.1377223   0.1475648   0.1175271 SPIN=   4.24434
  Fe  -0.1243519  -0.1590361   0.4037590 SPIN=   3.75566
  Fe   0.3756481   0.1590361  -0.4037590 SPIN=   3.75566
%ENDBLOCK POSITIONS_FRAC

# Note: total spin =  16.00

KPOINTS_MP_SPACING 0.07

%BLOCK SPECIES_POT
QC5
%ENDBLOCK SPECIES_POT

%BLOCK HUBBARD_U
Fe d:4.0
%ENDBLOCK HUBBARD_U

SNAP_TO_SYMMETRY
SYMMETRY_GENERATE

