#              Generated by Buildcell
#
# at 17:46:25 (GMT+0.0) 26th November 2020
# in /lustre/scratch/uccabz1/launch_tmp
# on node-c12e-023
# by uccabz1
#
# compiler GCC version 4.9.2
# options -cpp -iprefix /lustre/shared/ucl/apps/gcc/4.9.2/bin/../lib/gcc/x86_64-unknown-linux-gnu/4.9.2/ -mtune=corei7 -march=x86-64 -g -Og
#
# seed -1698734820  -617626013 -2108427617 -1512553442  2043711739    99569272 -1026749795 -1981444857  1166171497  1202354238 -1434294007  1247889720
#
#      Author: C. J. Pickard (cjp20@cam.ac.uk)
#                Space group: Cc
#

%BLOCK LATTICE_ABC
      6.89319      6.89319      7.28694
     80.94992     80.94992     70.35642
%ENDBLOCK LATTICE_ABC

%BLOCK POSITIONS_FRAC
  Li  -0.0552836  -0.0068108   0.1890744 SPIN=   0.00000
  Li  -0.0068108  -0.0552836  -0.3109256 SPIN=   0.00000
  Li   0.2696523  -0.3579699   0.4216652 SPIN=   0.00000
  Li  -0.3579699   0.2696523  -0.0783348 SPIN=   0.00000
   O  -0.6028840   0.3957442  -0.3740124 SPIN=   0.00000
   O  -0.2058839   0.2519695  -0.3538497 SPIN=   0.00000
   O  -0.3938695   0.0027879  -0.3501014 SPIN=   0.00000
   O  -0.3425731   0.2290555  -0.6457041 SPIN=   0.00000
   P  -0.3973185   0.2293609  -0.4304217 SPIN=   0.00000
   O   0.3957442  -0.6028840   0.1259876 SPIN=   0.00000
   O   0.2519695  -0.2058839   0.1461503 SPIN=   0.00000
   O   0.0027879  -0.3938695   0.1498986 SPIN=   0.00000
   O   0.2290555  -0.3425731  -0.1457041 SPIN=   0.00000
   P   0.2293609  -0.3973185   0.0695783 SPIN=   0.00000
   O  -0.0686475  -0.1677937  -0.5407525 SPIN=   0.00000
   O   0.0497372  -0.5702308  -0.4883824 SPIN=   0.00000
   O  -0.0968718  -0.3766947  -0.2138301 SPIN=   0.00000
   O  -0.3293662  -0.3713523  -0.4476294 SPIN=   0.00000
   P  -0.1115903  -0.3606686  -0.4292319 SPIN=   0.00000
   O  -0.1677937  -0.0686475  -0.0407525 SPIN=   0.00000
   O  -0.5702308   0.0497372   0.0116176 SPIN=   0.00000
   O  -0.3766947  -0.0968718   0.2861699 SPIN=   0.00000
   O  -0.3713523  -0.3293662   0.0523706 SPIN=   0.00000
   P  -0.3606686  -0.1115903   0.0707681 SPIN=   0.00000
  Fe   0.4806715  -0.2289550  -0.2198993 SPIN=   7.54821
  Fe  -0.2289550   0.4806715   0.2801007 SPIN=   7.54821
  Fe   0.1558358   0.3523306  -0.1743058 SPIN=   0.45179
  Fe   0.3523306   0.1558358   0.3256942 SPIN=   0.45179
%ENDBLOCK POSITIONS_FRAC

# Note: total spin =  16.00

KPOINTS_MP_SPACING 0.07

%BLOCK SPECIES_POT
QC5
%ENDBLOCK SPECIES_POT

%BLOCK HUBBARD_U
Fe d:4.0
%ENDBLOCK HUBBARD_U

SNAP_TO_SYMMETRY
SYMMETRY_GENERATE

