#              Generated by Buildcell
#
# at 11:38:33 (GMT+0.0) 24th November 2020
# in /scratch/scratch/uccabz1/launch_tmp
# on node-a14f-024
# by uccabz1
#
# compiler GCC version 4.9.2
# options -cpp -iprefix /scratch/UCL/applications/gcc/4.9.2/bin/../lib/gcc/x86_64-unknown-linux-gnu/4.9.2/ -mtune=corei7 -march=x86-64 -g -O2
#
# seed -1077643563 -1338394056  2049147433  1592370810   806326169  1376422367  -115574104  1565188810 -1855474944  -520541203 -1126964766 -1603853047
#
#      Author: C. J. Pickard (cjp20@cam.ac.uk)
#                Space group: P21212
#

%BLOCK LATTICE_ABC
      5.33264      5.47466      5.48050
     90.00000     90.00000     90.00000
%ENDBLOCK LATTICE_ABC

%BLOCK POSITIONS_FRAC
  Li  -0.3463361   0.0000000  -0.0000000 SPIN=   0.00000
  Li   0.3463361   0.5000000  -0.5000000 SPIN=   0.00000
   O  -0.1643976  -0.6967728   0.2876829 SPIN=   0.00000
   O  -0.3881499  -0.2759532   0.3125377 SPIN=   0.00000
   O  -0.1643976   0.6967728  -0.2876829 SPIN=   0.00000
   O  -0.3881499   0.2759532  -0.3125377 SPIN=   0.00000
   O   0.1643976   0.1967728  -0.2123171 SPIN=   0.00000
   O   0.3881499  -0.2240468  -0.1874623 SPIN=   0.00000
   O   0.1643976  -0.1967728   0.2123171 SPIN=   0.00000
   O   0.3881499   0.2240468   0.1874623 SPIN=   0.00000
   P   0.1544931   0.0000000  -0.0000000 SPIN=   0.00000
   P  -0.1544931   0.5000000  -0.5000000 SPIN=   0.00000
  Fe  -0.0000786   0.0000000  -0.5000000 SPIN=   4.00000
  Fe   0.0000786   0.5000000   0.0000000 SPIN=   4.00000
%ENDBLOCK POSITIONS_FRAC

# Note: total spin =   8.00

KPOINTS_MP_SPACING 0.07

%BLOCK SPECIES_POT
QC5
%ENDBLOCK SPECIES_POT

%BLOCK HUBBARD_U
Fe d:4.0
%ENDBLOCK HUBBARD_U

SNAP_TO_SYMMETRY
SYMMETRY_GENERATE

