#              Generated by Buildcell
#
# at 14:10:07 (GMT+0.0) 24th November 2020
# in /lustre/scratch/uccabz1/launch_tmp
# on node-c12l-027
# by uccabz1
#
# compiler GCC version 4.9.2
# options -cpp -iprefix /lustre/shared/ucl/apps/gcc/4.9.2/bin/../lib/gcc/x86_64-unknown-linux-gnu/4.9.2/ -mtune=corei7 -march=x86-64 -g -Og
#
# seed -1229611356  1930097440  -832445298    37257204  1080739245  -192869184  1204403911  1076602485  -116119385 -1849947888   291393343  -503103447
#
#      Author: C. J. Pickard (cjp20@cam.ac.uk)
#                Space group: P21
#

%BLOCK LATTICE_ABC
      4.08226      5.17651      7.63780
     97.55450     90.00000     90.00000
%ENDBLOCK LATTICE_ABC

%BLOCK POSITIONS_FRAC
  Li   0.1423384   0.2493332   0.0357549 SPIN=   0.00000
  Li  -0.3576616  -0.2493332  -0.0357549 SPIN=   0.00000
   O  -0.0158083  -0.0384616  -0.1681614 SPIN=   0.00000
   O  -0.1354619  -0.3976221  -0.4312243 SPIN=   0.00000
   O   0.3645374  -0.1314595  -0.4419256 SPIN=   0.00000
   O   0.3315710  -0.4578382  -0.2278670 SPIN=   0.00000
   P   0.1304208  -0.2471220  -0.3082986 SPIN=   0.00000
   O  -0.5158083   0.0384616   0.1681614 SPIN=   0.00000
   O  -0.6354619   0.3976221   0.4312243 SPIN=   0.00000
   O  -0.1354626   0.1314595   0.4419256 SPIN=   0.00000
   O  -0.1684290   0.4578382   0.2278670 SPIN=   0.00000
   P  -0.3695792   0.2471220   0.3082986 SPIN=   0.00000
  Fe   0.1423321  -0.1978301   0.3082304 SPIN=   4.00000
  Fe  -0.3576679   0.1978301  -0.3082304 SPIN=   4.00000
%ENDBLOCK POSITIONS_FRAC

# Note: total spin =   8.00

KPOINTS_MP_SPACING 0.07

%BLOCK SPECIES_POT
QC5
%ENDBLOCK SPECIES_POT

%BLOCK HUBBARD_U
Fe d:4.0
%ENDBLOCK HUBBARD_U

SNAP_TO_SYMMETRY
SYMMETRY_GENERATE

