#              Generated by Buildcell
#
# at 12:02:35 (GMT+0.0) 26th November 2020
# in /lustre/scratch/uccabz1/launch_tmp
# on node-c12n-021
# by uccabz1
#
# compiler GCC version 4.9.2
# options -cpp -iprefix /lustre/shared/ucl/apps/gcc/4.9.2/bin/../lib/gcc/x86_64-unknown-linux-gnu/4.9.2/ -mtune=corei7 -march=x86-64 -g -Og
#
# seed  1775370569 -1593005705 -1583725638   899668330  1819299888   353865373   939565090 -1907283914   466630761  -824831658  1352635509 -1853959999
#
#      Author: C. J. Pickard (cjp20@cam.ac.uk)
#                Space group: Pca21
#

%BLOCK LATTICE_ABC
      5.29923      7.42225      8.13581
     90.00000     90.00000     90.00000
%ENDBLOCK LATTICE_ABC

%BLOCK POSITIONS_FRAC
  Li   0.4138537   0.3965985   0.3454501 SPIN=   0.00000
  Li  -0.4138537  -0.3965985  -0.1545499 SPIN=   0.00000
  Li  -0.0861463  -0.3965985   0.3454501 SPIN=   0.00000
  Li   0.0861463   0.3965985  -0.1545499 SPIN=   0.00000
   O   0.1635424  -0.3301993  -0.0396503 SPIN=   0.00000
   O  -0.2625960  -0.3461597   0.1175840 SPIN=   0.00000
   O   0.0088574  -0.0795019   0.1591382 SPIN=   0.00000
   O  -0.2118669  -0.1221759  -0.1102465 SPIN=   0.00000
   P  -0.0643962  -0.2242543   0.0262318 SPIN=   0.00000
   O  -0.1635424   0.3301993  -0.5396503 SPIN=   0.00000
   O   0.2625960   0.3461597  -0.3824160 SPIN=   0.00000
   O  -0.0088574   0.0795019  -0.3408618 SPIN=   0.00000
   O   0.2118669   0.1221759  -0.6102465 SPIN=   0.00000
   P   0.0643962   0.2242543  -0.4737682 SPIN=   0.00000
   O   0.6635424   0.3301993  -0.0396503 SPIN=   0.00000
   O   0.2374040   0.3461597   0.1175840 SPIN=   0.00000
   O   0.5088574   0.0795019   0.1591382 SPIN=   0.00000
   O   0.2881331   0.1221759  -0.1102465 SPIN=   0.00000
   P   0.4356038   0.2242543   0.0262318 SPIN=   0.00000
   O  -0.6635424  -0.3301993  -0.5396503 SPIN=   0.00000
   O  -0.2374040  -0.3461597  -0.3824160 SPIN=   0.00000
   O  -0.5088574  -0.0795019  -0.3408618 SPIN=   0.00000
   O  -0.2881331  -0.1221759  -0.6102465 SPIN=   0.00000
   P  -0.4356038  -0.2242543  -0.4737682 SPIN=   0.00000
  Fe  -0.4139147   0.1932495  -0.3113711 SPIN=   4.00000
  Fe   0.4139147  -0.1932495   0.1886289 SPIN=   4.00000
  Fe   0.0860853  -0.1932495  -0.3113711 SPIN=   4.00000
  Fe  -0.0860853   0.1932495   0.1886289 SPIN=   4.00000
%ENDBLOCK POSITIONS_FRAC

# Note: total spin =  16.00

KPOINTS_MP_SPACING 0.07

%BLOCK SPECIES_POT
QC5
%ENDBLOCK SPECIES_POT

%BLOCK HUBBARD_U
Fe d:4.0
%ENDBLOCK HUBBARD_U

SNAP_TO_SYMMETRY
SYMMETRY_GENERATE

