#              Generated by Buildcell
#
# at 06:22:00 (GMT+0.0) 24th November 2020
# in /lustre/scratch/uccabz1/launch_tmp
# on node-c12c-023
# by uccabz1
#
# compiler GCC version 4.9.2
# options -cpp -iprefix /lustre/shared/ucl/apps/gcc/4.9.2/bin/../lib/gcc/x86_64-unknown-linux-gnu/4.9.2/ -mtune=corei7 -march=x86-64 -g -Og
#
# seed  -413436261 -1538853034  1168775640 -1225136446 -1326323080 -1018277665  -504445340    71013970  1999093383  2007666020   783451421   -91953520
#
#      Author: C. J. Pickard (cjp20@cam.ac.uk)
#                Space group: Pmc21
#

%BLOCK LATTICE_ABC
      4.92402      5.69538      5.70528
     90.00000     90.00000     90.00000
%ENDBLOCK LATTICE_ABC

%BLOCK POSITIONS_FRAC
  Li   0.0000000   0.0418193  -0.1092237 SPIN=   0.00000
  Li   0.0000000  -0.4581807   0.1092237 SPIN=   0.00000
   O  -0.2499988   0.3424902  -0.1208397 SPIN=   0.00000
   O  -0.2500011   0.0001151  -0.4217656 SPIN=   0.00000
   O   0.2499988  -0.1575098   0.1208397 SPIN=   0.00000
   O   0.2500011  -0.4998849   0.4217656 SPIN=   0.00000
   O  -0.2499988  -0.1575098   0.1208397 SPIN=   0.00000
   O  -0.2500011  -0.4998849   0.4217656 SPIN=   0.00000
   O   0.2499988   0.3424902  -0.1208397 SPIN=   0.00000
   O   0.2500011   0.0001151  -0.4217656 SPIN=   0.00000
   P  -0.5000000  -0.3140857   0.2351840 SPIN=   0.00000
   P   0.5000000   0.1859143  -0.2351840 SPIN=   0.00000
  Fe   0.5000000  -0.3140706  -0.2646431 SPIN=   4.00000
  Fe  -0.5000000   0.1859294   0.2646431 SPIN=   4.00000
%ENDBLOCK POSITIONS_FRAC

# Note: total spin =   8.00

KPOINTS_MP_SPACING 0.07

%BLOCK SPECIES_POT
QC5
%ENDBLOCK SPECIES_POT

%BLOCK HUBBARD_U
Fe d:4.0
%ENDBLOCK HUBBARD_U

SNAP_TO_SYMMETRY
SYMMETRY_GENERATE

