#              Generated by Buildcell
#
# at 23:05:17 (GMT+0.0) 26th November 2020
# in /lustre/scratch/uccabz1/launch_tmp
# on node-c12e-026
# by uccabz1
#
# compiler GCC version 4.9.2
# options -cpp -iprefix /lustre/shared/ucl/apps/gcc/4.9.2/bin/../lib/gcc/x86_64-unknown-linux-gnu/4.9.2/ -mtune=corei7 -march=x86-64 -g -Og
#
# seed -1593460113  -194408231  2037010435  1076478556  1142502542   473943260  1789477417  1996965446   794277135  -737371743  1066228025  1302610380
#
#      Author: C. J. Pickard (cjp20@cam.ac.uk)
#                Space group: Cc
#

%BLOCK LATTICE_ABC
      6.77497      6.77497      7.60513
     73.33669     73.33669     82.72575
%ENDBLOCK LATTICE_ABC

%BLOCK POSITIONS_FRAC
  Li  -0.3911873   0.3882912  -0.0659721 SPIN=   0.00000
  Li   0.3882912  -0.3911873   0.4340279 SPIN=   0.00000
  Li  -0.4486266   0.1205786  -0.3031790 SPIN=   0.00000
  Li   0.1205786  -0.4486266   0.1968210 SPIN=   0.00000
   O  -0.0873860  -0.0504591   0.1199229 SPIN=   0.00000
   O   0.1191389  -0.2485193   0.3626064 SPIN=   0.00000
   O   0.3088327  -0.0315714   0.0535686 SPIN=   0.00000
   O   0.0722937   0.1361423   0.2947454 SPIN=   0.00000
   P   0.0927060  -0.0465206   0.2040637 SPIN=   0.00000
   O  -0.0504591  -0.0873860  -0.3800771 SPIN=   0.00000
   O  -0.2485193   0.1191389  -0.1373936 SPIN=   0.00000
   O  -0.0315714   0.3088327  -0.4464314 SPIN=   0.00000
   O   0.1361423   0.0722937  -0.2052546 SPIN=   0.00000
   P  -0.0465206   0.0927060  -0.2959363 SPIN=   0.00000
   O  -0.5275576   0.4405724   0.2231886 SPIN=   0.00000
   O  -0.2470312   0.5293729   0.3566358 SPIN=   0.00000
   O  -0.3048868   0.1623747   0.4064490 SPIN=   0.00000
   O  -0.1385524   0.3743941   0.0794502 SPIN=   0.00000
   P  -0.3144249   0.3800536   0.2619219 SPIN=   0.00000
   O   0.4405724  -0.5275576  -0.2768114 SPIN=   0.00000
   O   0.5293729  -0.2470312  -0.1433642 SPIN=   0.00000
   O   0.1623747  -0.3048868  -0.0935510 SPIN=   0.00000
   O   0.3743941  -0.1385524  -0.4205498 SPIN=   0.00000
   P   0.3800536  -0.3144249  -0.2380781 SPIN=   0.00000
  Fe   0.1140852   0.3590698  -0.1487262 SPIN=   4.12116
  Fe   0.3590698   0.1140852   0.3512738 SPIN=   4.12116
  Fe  -0.2065673  -0.2684023  -0.4714658 SPIN=   3.87884
  Fe  -0.2684023  -0.2065673   0.0285342 SPIN=   3.87884
%ENDBLOCK POSITIONS_FRAC

# Note: total spin =  16.00

KPOINTS_MP_SPACING 0.07

%BLOCK SPECIES_POT
QC5
%ENDBLOCK SPECIES_POT

%BLOCK HUBBARD_U
Fe d:4.0
%ENDBLOCK HUBBARD_U

SNAP_TO_SYMMETRY
SYMMETRY_GENERATE

