#              Generated by Buildcell
#
# at 12:27:25 (GMT+0.0) 24th November 2020
# in /lustre/scratch/uccabz1/launch_tmp
# on node-c12d-032
# by uccabz1
#
# compiler GCC version 4.9.2
# options -cpp -iprefix /lustre/shared/ucl/apps/gcc/4.9.2/bin/../lib/gcc/x86_64-unknown-linux-gnu/4.9.2/ -mtune=corei7 -march=x86-64 -g -Og
#
# seed   181180885 -1070513461 -2104932908   970006192  1256903197  -144176803  1429711534   350196221 -1713031370 -2134356713 -1445635584  -205233416
#
#      Author: C. J. Pickard (cjp20@cam.ac.uk)
#                Space group: P-1
#

%BLOCK LATTICE_ABC
      4.04362      5.47075      7.80580
     80.20463     82.77936     70.52590
%ENDBLOCK LATTICE_ABC

%BLOCK POSITIONS_FRAC
  Li  -0.2797582   0.1130798  -0.1862815 SPIN=   0.00000
  Li   0.2797582  -0.1130798   0.1862815 SPIN=   0.00000
   O  -0.5201314   0.4810922   0.1745106 SPIN=   0.00000
   O  -0.2804944  -0.0256273   0.2448498 SPIN=   0.00000
   O   0.0811194   0.2312464   0.3050142 SPIN=   0.00000
   O  -0.4749882   0.2434475   0.4905059 SPIN=   0.00000
   P  -0.3124992   0.2459026   0.2990446 SPIN=   0.00000
   O   0.5201314  -0.4810922  -0.1745106 SPIN=   0.00000
   O   0.2804944   0.0256273  -0.2448498 SPIN=   0.00000
   O  -0.0811194  -0.2312464  -0.3050142 SPIN=   0.00000
   O   0.4749882  -0.2434475  -0.4905059 SPIN=   0.00000
   P   0.3124992  -0.2459026  -0.2990446 SPIN=   0.00000
  Fe   0.0000000  -0.5000000   0.0000000 SPIN=  -0.00000
  Fe  -0.0000000  -0.5000000   0.5000000 SPIN=   8.00000
%ENDBLOCK POSITIONS_FRAC

# Note: total spin =   8.00

KPOINTS_MP_SPACING 0.07

%BLOCK SPECIES_POT
QC5
%ENDBLOCK SPECIES_POT

%BLOCK HUBBARD_U
Fe d:4.0
%ENDBLOCK HUBBARD_U

SNAP_TO_SYMMETRY
SYMMETRY_GENERATE

