#              Generated by Buildcell
#
# at 06:31:47 (GMT+0.0) 24th November 2020
# in /lustre/scratch/uccabz1/launch_tmp
# on node-c12h-026
# by uccabz1
#
# compiler GCC version 4.9.2
# options -cpp -iprefix /lustre/shared/ucl/apps/gcc/4.9.2/bin/../lib/gcc/x86_64-unknown-linux-gnu/4.9.2/ -mtune=corei7 -march=x86-64 -g -Og
#
# seed -1322643118 -1897323774  -634442667   576973210 -2088355892  1544951405  1833880810  -151284330   242699868  1996554983   678920152   494668117
#
#      Author: C. J. Pickard (cjp20@cam.ac.uk)
#                Space group: I41
#

%BLOCK LATTICE_ABC
      5.53444      5.53444      6.52697
    115.08526    115.08526     90.00000
%ENDBLOCK LATTICE_ABC

%BLOCK POSITIONS_FRAC
  Li  -0.3178026  -0.3178026   0.3643947 SPIN=   0.00000
  Li   0.4321974  -0.0678026  -0.1356053 SPIN=   0.00000
   O   0.2424301   0.4362388   0.0786892 SPIN=   0.00000
   O  -0.2277405   0.1100748  -0.1370816 SPIN=   0.00000
   O  -0.1637410  -0.3575496   0.0786892 SPIN=   0.00000
   O   0.0906588  -0.2471565  -0.1370816 SPIN=   0.00000
   O   0.1862388   0.0862590   0.5786892 SPIN=   0.00000
   O  -0.1399252   0.3406588   0.3629184 SPIN=   0.00000
   O   0.3924504   0.4924301   0.5786892 SPIN=   0.00000
   O   0.5028435   0.0222595   0.3629184 SPIN=   0.00000
   P   0.4250652   0.4250652  -0.1498696 SPIN=   0.00000
   P   0.1750652  -0.3249348   0.3501304 SPIN=   0.00000
  Fe   0.1051588   0.1051588   0.2103176 SPIN=   4.00000
  Fe  -0.1448412   0.3551588  -0.2896824 SPIN=   4.00000
%ENDBLOCK POSITIONS_FRAC

# Note: total spin =   8.00

KPOINTS_MP_SPACING 0.07

%BLOCK SPECIES_POT
QC5
%ENDBLOCK SPECIES_POT

%BLOCK HUBBARD_U
Fe d:4.0
%ENDBLOCK HUBBARD_U

SNAP_TO_SYMMETRY
SYMMETRY_GENERATE

