#              Generated by Buildcell
#
# at 22:06:40 (GMT+0.0) 26th November 2020
# in /lustre/scratch/uccabz1/launch_tmp
# on node-c12e-024
# by uccabz1
#
# compiler GCC version 4.9.2
# options -cpp -iprefix /lustre/shared/ucl/apps/gcc/4.9.2/bin/../lib/gcc/x86_64-unknown-linux-gnu/4.9.2/ -mtune=corei7 -march=x86-64 -g -Og
#
# seed  1010134178   700938307 -1464569817   137479309  -784089499  1823390421  1029639723   -61812996  -411158122  1483464157   240963209  -686445929
#
#      Author: C. J. Pickard (cjp20@cam.ac.uk)
#                Space group: P-1
#

%BLOCK LATTICE_ABC
      5.99921      7.87663      8.06143
    115.10862     95.37807    106.70402
%ENDBLOCK LATTICE_ABC

%BLOCK POSITIONS_FRAC
  Li  -0.5808782  -0.6053320  -0.3665516 SPIN=   0.00000
  Li   0.5808782   0.6053320   0.3665516 SPIN=   0.00000
  Li  -0.5000000   0.0000000  -0.5000000 SPIN=   0.00000
  Li   0.0000000   0.0000000  -0.5000000 SPIN=   0.00000
   O   0.2763414   0.1102120   0.3903931 SPIN=   0.00000
   O   0.3639468   0.3002633   0.1936932 SPIN=   0.00000
   O   0.6830633   0.2030708   0.3014431 SPIN=   0.00000
   O   0.3170859  -0.0630826   0.0477428 SPIN=   0.00000
   P   0.4018891   0.1337883   0.2394915 SPIN=   0.00000
   O  -0.2763414  -0.1102120  -0.3903931 SPIN=   0.00000
   O  -0.3639468  -0.3002633  -0.1936932 SPIN=   0.00000
   O  -0.6830633  -0.2030708  -0.3014431 SPIN=   0.00000
   O  -0.3170859   0.0630826  -0.0477428 SPIN=   0.00000
   P  -0.4018891  -0.1337883  -0.2394915 SPIN=   0.00000
   O  -0.2904938  -0.6962467  -0.2637078 SPIN=   0.00000
   O   0.0746889  -0.7951834  -0.2030601 SPIN=   0.00000
   O   0.0439379  -0.6843350  -0.4458095 SPIN=   0.00000
   O   0.1406776  -0.4333983  -0.1034347 SPIN=   0.00000
   P  -0.0210974  -0.6520481  -0.2527429 SPIN=   0.00000
   O   0.2904938   0.6962467   0.2637078 SPIN=   0.00000
   O  -0.0746889   0.7951834   0.2030601 SPIN=   0.00000
   O  -0.0439379   0.6843350   0.4458095 SPIN=   0.00000
   O  -0.1406776   0.4333983   0.1034347 SPIN=   0.00000
   P   0.0210974   0.6520481   0.2527429 SPIN=   0.00000
  Fe   0.0299437   0.2975238   0.2660789 SPIN=   4.33669
  Fe  -0.0299437  -0.2975238  -0.2660789 SPIN=   4.33669
  Fe  -0.5337287   0.2269583  -0.0623259 SPIN=   3.66331
  Fe   0.5337287  -0.2269583   0.0623259 SPIN=   3.66331
%ENDBLOCK POSITIONS_FRAC

# Note: total spin =  16.00

KPOINTS_MP_SPACING 0.07

%BLOCK SPECIES_POT
QC5
%ENDBLOCK SPECIES_POT

%BLOCK HUBBARD_U
Fe d:4.0
%ENDBLOCK HUBBARD_U

SNAP_TO_SYMMETRY
SYMMETRY_GENERATE

