#              Generated by Buildcell
#
# at 14:30:55 (GMT+0.0) 24th November 2020
# in /lustre/scratch/uccabz1/launch_tmp
# on node-c12l-027
# by uccabz1
#
# compiler GCC version 4.9.2
# options -cpp -iprefix /lustre/shared/ucl/apps/gcc/4.9.2/bin/../lib/gcc/x86_64-unknown-linux-gnu/4.9.2/ -mtune=corei7 -march=x86-64 -g -Og
#
# seed  1137932363   755894459  -854285752   148801985   867436543  -598927060  -243426071   483490505 -1473784539  1021177934 -1157766306  -657309346
#
#      Author: C. J. Pickard (cjp20@cam.ac.uk)
#                Space group: P-1
#

%BLOCK LATTICE_ABC
      4.70891      5.58757      6.22181
     77.92527     89.78069     88.16719
%ENDBLOCK LATTICE_ABC

%BLOCK POSITIONS_FRAC
  Li   0.0692989   0.0665046   0.2173547 SPIN=   0.00000
  Li  -0.0692989  -0.0665046  -0.2173547 SPIN=   0.00000
   O   0.4165453  -0.0997702  -0.1464328 SPIN=   0.00000
   O   0.7221581   0.2793473  -0.2900265 SPIN=   0.00000
   O   0.3380777   0.1897815  -0.5279320 SPIN=   0.00000
   O   0.2146880   0.3428114  -0.1874923 SPIN=   0.00000
   P   0.4200740   0.1651948  -0.2792489 SPIN=   0.00000
   O  -0.4165453   0.0997702   0.1464328 SPIN=   0.00000
   O  -0.7221581  -0.2793473   0.2900265 SPIN=   0.00000
   O  -0.3380777  -0.1897815   0.5279320 SPIN=   0.00000
   O  -0.2146880  -0.3428114   0.1874923 SPIN=   0.00000
   P  -0.4200740  -0.1651948   0.2792489 SPIN=   0.00000
  Fe   0.0000000   0.5000000  -0.5000000 SPIN=   3.85038
  Fe  -0.5000000  -0.5000000   0.0000000 SPIN=   4.14962
%ENDBLOCK POSITIONS_FRAC

# Note: total spin =   8.00

KPOINTS_MP_SPACING 0.07

%BLOCK SPECIES_POT
QC5
%ENDBLOCK SPECIES_POT

%BLOCK HUBBARD_U
Fe d:4.0
%ENDBLOCK HUBBARD_U

SNAP_TO_SYMMETRY
SYMMETRY_GENERATE

