#              Generated by Buildcell
#
# at 00:05:50 (GMT+0.0) 27th November 2020
# in /lustre/scratch/uccabz1/launch_tmp
# on node-c12g-027
# by uccabz1
#
# compiler GCC version 4.9.2
# options -cpp -iprefix /lustre/shared/ucl/apps/gcc/4.9.2/bin/../lib/gcc/x86_64-unknown-linux-gnu/4.9.2/ -mtune=corei7 -march=x86-64 -g -Og
#
# seed  1629227078 -1541220033  1226081746 -1232231166  1905619799 -1073171964   -92524957 -1635406690  1567913167   973781222 -1302158301  -660801872
#
#      Author: C. J. Pickard (cjp20@cam.ac.uk)
#                Space group: P21212
#

%BLOCK LATTICE_ABC
      3.93907      8.24911      9.84804
     90.00000     90.00000     90.00000
%ENDBLOCK LATTICE_ABC

%BLOCK POSITIONS_FRAC
  Li   0.2182196  -0.4494242   0.1479334 SPIN=   0.00000
  Li   0.2182196   0.4494242  -0.1479334 SPIN=   0.00000
  Li  -0.2182196  -0.0505758  -0.3520666 SPIN=   0.00000
  Li  -0.2182196   0.0505758   0.3520666 SPIN=   0.00000
   O   0.3886441   0.0907167  -0.2677688 SPIN=   0.00000
   O   0.2441380   0.1868945  -0.0232946 SPIN=   0.00000
   O  -0.1324866   0.2714389  -0.2109021 SPIN=   0.00000
   O  -0.1297627  -0.0186238  -0.1358405 SPIN=   0.00000
   P   0.1057698   0.1285915  -0.1649402 SPIN=   0.00000
   O   0.3886441  -0.0907167   0.2677688 SPIN=   0.00000
   O   0.2441380  -0.1868945   0.0232946 SPIN=   0.00000
   O  -0.1324866  -0.2714389   0.2109021 SPIN=   0.00000
   O  -0.1297627   0.0186238   0.1358405 SPIN=   0.00000
   P   0.1057698  -0.1285915   0.1649402 SPIN=   0.00000
   O  -0.3886441   0.4092833   0.2322312 SPIN=   0.00000
   O  -0.2441380   0.3131055   0.4767054 SPIN=   0.00000
   O   0.1324866   0.2285611   0.2890979 SPIN=   0.00000
   O   0.1297627   0.5186238   0.3641595 SPIN=   0.00000
   P  -0.1057698   0.3714085   0.3350598 SPIN=   0.00000
   O  -0.3886441  -0.4092833  -0.2322312 SPIN=   0.00000
   O  -0.2441380  -0.3131055  -0.4767054 SPIN=   0.00000
   O   0.1324866  -0.2285611  -0.2890979 SPIN=   0.00000
   O   0.1297627  -0.5186238  -0.3641595 SPIN=   0.00000
   P  -0.1057698  -0.3714085  -0.3350598 SPIN=   0.00000
  Fe   0.2820639   0.2542575  -0.4391902 SPIN=   4.00000
  Fe   0.2820639  -0.2542575   0.4391902 SPIN=   4.00000
  Fe  -0.2820639   0.2457425   0.0608098 SPIN=   4.00000
  Fe  -0.2820639  -0.2457425  -0.0608098 SPIN=   4.00000
%ENDBLOCK POSITIONS_FRAC

# Note: total spin =  16.00

KPOINTS_MP_SPACING 0.07

%BLOCK SPECIES_POT
QC5
%ENDBLOCK SPECIES_POT

%BLOCK HUBBARD_U
Fe d:4.0
%ENDBLOCK HUBBARD_U

SNAP_TO_SYMMETRY
SYMMETRY_GENERATE

