#              Generated by Buildcell
#
# at 15:39:53 (GMT+0.0) 26th November 2020
# in /lustre/scratch/uccabz1/launch_tmp
# on node-c12f-029
# by uccabz1
#
# compiler GCC version 4.9.2
# options -cpp -iprefix /lustre/shared/ucl/apps/gcc/4.9.2/bin/../lib/gcc/x86_64-unknown-linux-gnu/4.9.2/ -mtune=corei7 -march=x86-64 -g -Og
#
# seed -1498159038   612437510  1367883598   934386994  -727267495   844543911  1775418116  1192180123  -530687592   481236192  2031672509  -287550474
#
#      Author: C. J. Pickard (cjp20@cam.ac.uk)
#                Space group: P-1
#

%BLOCK LATTICE_ABC
      5.60160      7.63820      7.80720
     94.43368     96.80363    103.92076
%ENDBLOCK LATTICE_ABC

%BLOCK POSITIONS_FRAC
  Li  -0.5000000  -0.5000000  -0.0000000 SPIN=   0.00000
  Li  -0.0000000  -0.0000000   0.5000000 SPIN=   0.00000
  Li   0.0000000   0.0000000   0.0000000 SPIN=   0.00000
  Li  -0.5000000  -0.5000000  -0.5000000 SPIN=   0.00000
   O  -0.1880942  -0.0957786   0.2262282 SPIN=   0.00000
   O  -0.4562669  -0.1956667   0.4681613 SPIN=   0.00000
   O  -0.6589220  -0.2569664   0.1634104 SPIN=   0.00000
   O  -0.3572370  -0.4329457   0.2685989 SPIN=   0.00000
   P  -0.4023583  -0.2395899   0.2784981 SPIN=   0.00000
   O   0.1880942   0.0957786  -0.2262282 SPIN=   0.00000
   O   0.4562669   0.1956667  -0.4681613 SPIN=   0.00000
   O   0.6589220   0.2569664  -0.1634104 SPIN=   0.00000
   O   0.3572370   0.4329457  -0.2685989 SPIN=   0.00000
   P   0.4023583   0.2395899  -0.2784981 SPIN=   0.00000
   O   0.2945890   0.2916746   0.1682009 SPIN=   0.00000
   O   0.1121664   0.3942823   0.4384317 SPIN=   0.00000
   O  -0.1776859   0.2561565   0.1724088 SPIN=   0.00000
   P   0.0787573   0.2510248   0.2758354 SPIN=   0.00000
   O  -0.2945890  -0.2916746  -0.1682009 SPIN=   0.00000
   O  -0.1121664  -0.3942823  -0.4384317 SPIN=   0.00000
   O   0.1776859  -0.2561565  -0.1724088 SPIN=   0.00000
   P  -0.0787573  -0.2510248  -0.2758354 SPIN=   0.00000
   O  -0.5000000  -0.0000000   0.0000000 SPIN=   0.00000
   O   1.0000000   0.5000000   0.0000000 SPIN=   0.00000
  Fe   0.0301471  -0.3828216   0.2827295 SPIN=   2.34868
  Fe  -0.0301471   0.3828216  -0.2827295 SPIN=   2.34868
  Fe  -0.5157789  -0.1166534  -0.2802361 SPIN=   5.65132
  Fe   0.5157789   0.1166534   0.2802361 SPIN=   5.65132
%ENDBLOCK POSITIONS_FRAC

# Note: total spin =  16.00

KPOINTS_MP_SPACING 0.07

%BLOCK SPECIES_POT
QC5
%ENDBLOCK SPECIES_POT

%BLOCK HUBBARD_U
Fe d:4.0
%ENDBLOCK HUBBARD_U

SNAP_TO_SYMMETRY
SYMMETRY_GENERATE

