#              Generated by Buildcell
#
# at 12:04:54 (GMT+0.0) 24th November 2020
# in /scratch/scratch/uccabz1/launch_tmp
# on node-k10i-019
# by uccabz1
#
# compiler GCC version 4.9.2
# options -cpp -iprefix /scratch/UCL/applications/gcc/4.9.2/bin/../lib/gcc/x86_64-unknown-linux-gnu/4.9.2/ -mtune=corei7 -march=x86-64 -g -O2
#
# seed  1592516729  -947322893 -2104346109   150192360 -1290224511  2105000926  -855697544 -1497537769 -2002843647  -601243269 -1205992674  1493831863
#
#      Author: C. J. Pickard (cjp20@cam.ac.uk)
#                Space group: Cc
#

%BLOCK LATTICE_ABC
      5.31719      5.31719      6.43546
     73.18952     73.18952     70.04180
%ENDBLOCK LATTICE_ABC

%BLOCK POSITIONS_FRAC
  Li  -0.1927248   0.4521080  -0.2059592 SPIN=   0.00000
  Li   0.4521080  -0.1927248   0.2940408 SPIN=   0.00000
   O   0.0869028   0.6511742   0.5514424 SPIN=   0.00000
   O  -0.1155788   0.5219649   0.2876453 SPIN=   0.00000
   O   0.3717689   0.5142015   0.1781515 SPIN=   0.00000
   O   0.2210600   0.1567032   0.4953528 SPIN=   0.00000
   P   0.1391001   0.4675450   0.3887582 SPIN=   0.00000
   O   0.6511742   0.0869028   0.0514424 SPIN=   0.00000
   O   0.5219649  -0.1155788  -0.2123547 SPIN=   0.00000
   O   0.5142015   0.3717689  -0.3218485 SPIN=   0.00000
   O   0.1567032   0.2210600  -0.0046472 SPIN=   0.00000
   P   0.4675450   0.1391001  -0.1112418 SPIN=   0.00000
  Fe  -0.2166397   0.1500969   0.4197159 SPIN=   4.00000
  Fe   0.1500969  -0.2166397  -0.0802841 SPIN=   4.00000
%ENDBLOCK POSITIONS_FRAC

# Note: total spin =   8.00

KPOINTS_MP_SPACING 0.07

%BLOCK SPECIES_POT
QC5
%ENDBLOCK SPECIES_POT

%BLOCK HUBBARD_U
Fe d:4.0
%ENDBLOCK HUBBARD_U

SNAP_TO_SYMMETRY
SYMMETRY_GENERATE

