#              Generated by Buildcell
#
# at 12:36:28 (GMT+0.0) 24th November 2020
# in /lustre/scratch/uccabz1/launch_tmp
# on node-c12o-023
# by uccabz1
#
# compiler GCC version 4.9.2
# options -cpp -iprefix /lustre/shared/ucl/apps/gcc/4.9.2/bin/../lib/gcc/x86_64-unknown-linux-gnu/4.9.2/ -mtune=corei7 -march=x86-64 -g -Og
#
# seed  -158806055 -1017895390   657364882  1391637862 -1920104224  1823814527  2008844234  -672032398  -410118901  1459176474  1290029900 -1687349629
#
#      Author: C. J. Pickard (cjp20@cam.ac.uk)
#                Space group: P-1
#

%BLOCK LATTICE_ABC
      3.92235      4.54531      9.43465
    102.96673    101.11474     93.11592
%ENDBLOCK LATTICE_ABC

%BLOCK POSITIONS_FRAC
  Li  -0.1121039   0.4379674   0.3322293 SPIN=   0.00000
  Li   0.1121039  -0.4379674  -0.3322293 SPIN=   0.00000
   O  -0.1715709   0.4243962  -0.1520066 SPIN=   0.00000
   O   0.1185796   0.0922098  -0.3483211 SPIN=   0.00000
   O   0.2311381   0.0126669  -0.0935653 SPIN=   0.00000
   O  -0.3616567  -0.1484792  -0.2584552 SPIN=   0.00000
   P  -0.0562966   0.1098509  -0.2103702 SPIN=   0.00000
   O   0.1715709  -0.4243962   0.1520066 SPIN=   0.00000
   O  -0.1185796  -0.0922098   0.3483211 SPIN=   0.00000
   O  -0.2311381  -0.0126669   0.0935653 SPIN=   0.00000
   O   0.3616567   0.1484792   0.2584552 SPIN=   0.00000
   P   0.0562966  -0.1098509   0.2103702 SPIN=   0.00000
  Fe  -0.5000000  -0.5000000   0.0000000 SPIN=   6.94909
  Fe   0.5000000  -1.0000000  -0.5000000 SPIN=   1.05091
%ENDBLOCK POSITIONS_FRAC

# Note: total spin =   8.00

KPOINTS_MP_SPACING 0.07

%BLOCK SPECIES_POT
QC5
%ENDBLOCK SPECIES_POT

%BLOCK HUBBARD_U
Fe d:4.0
%ENDBLOCK HUBBARD_U

SNAP_TO_SYMMETRY
SYMMETRY_GENERATE

