#              Generated by Buildcell
#
# at 08:26:12 (GMT+0.0) 24th November 2020
# in /scratch/scratch/uccabz1/launch_tmp
# on node-a14f-002
# by uccabz1
#
# compiler GCC version 4.9.2
# options -cpp -iprefix /scratch/UCL/applications/gcc/4.9.2/bin/../lib/gcc/x86_64-unknown-linux-gnu/4.9.2/ -mtune=corei7 -march=x86-64 -g -O2
#
# seed -1339348962  1165929823  -931817092   597817013   885504732  1088946799  1299971382  -518168120  -684158596  1188068035  2033123846  1450413376
#
#      Author: C. J. Pickard (cjp20@cam.ac.uk)
#                Space group: Cc
#

%BLOCK LATTICE_ABC
      4.62686      4.62686      7.52407
     90.23776     90.23776     96.61070
%ENDBLOCK LATTICE_ABC

%BLOCK POSITIONS_FRAC
  Li   0.2250854  -0.4342215   0.0137456 SPIN=   0.00000
  Li   0.0657785  -0.2749146  -0.4862544 SPIN=   0.00000
   O  -0.3518412   0.5744480  -0.1004467 SPIN=   0.00000
   O  -0.8058993   0.3422222  -0.2755762 SPIN=   0.00000
   O  -0.4950262   0.7501592  -0.4127964 SPIN=   0.00000
   O  -0.3092133   0.2650578  -0.3836406 SPIN=   0.00000
   P  -0.4809731   0.4852708  -0.2839246 SPIN=   0.00000
   O   0.0744480   0.1481588   0.3995533 SPIN=   0.00000
   O  -0.1577778  -0.3058993   0.2244238 SPIN=   0.00000
   O   0.2501592   0.0049738   0.0872036 SPIN=   0.00000
   O  -0.2349422   0.1907867   0.1163594 SPIN=   0.00000
   P  -0.0147292   0.0190269   0.2160754 SPIN=   0.00000
  Fe  -0.4827364   0.2830193   0.3597651 SPIN=   4.00000
  Fe  -0.2169807   0.0172636  -0.1402349 SPIN=   4.00000
%ENDBLOCK POSITIONS_FRAC

# Note: total spin =   8.00

KPOINTS_MP_SPACING 0.07

%BLOCK SPECIES_POT
QC5
%ENDBLOCK SPECIES_POT

%BLOCK HUBBARD_U
Fe d:4.0
%ENDBLOCK HUBBARD_U

SNAP_TO_SYMMETRY
SYMMETRY_GENERATE

