#              Generated by Buildcell
#
# at 00:00:20 (GMT+0.0) 27th November 2020
# in /lustre/scratch/uccabz1/launch_tmp
# on node-c12l-025
# by uccabz1
#
# compiler GCC version 4.9.2
# options -cpp -iprefix /lustre/shared/ucl/apps/gcc/4.9.2/bin/../lib/gcc/x86_64-unknown-linux-gnu/4.9.2/ -mtune=corei7 -march=x86-64 -g -Og
#
# seed -1918564038  -879749271  -367692194  1329975685 -2098471881  -639319357 -1602857436 -1858707206   728859254   437461976  1540365038  -178803022
#
#      Author: C. J. Pickard (cjp20@cam.ac.uk)
#                Space group: Cm
#

%BLOCK LATTICE_ABC
      6.40062      6.40062      8.85018
    107.51006    107.51006     97.41251
%ENDBLOCK LATTICE_ABC

%BLOCK POSITIONS_FRAC
  Li   0.4314785   0.4314785   0.0849762 SPIN=   0.00000
  Li   0.2236851   0.2236851   0.4728979 SPIN=   0.00000
  Li  -0.1886666  -0.1886666   0.4419303 SPIN=   0.00000
  Li  -0.1954889  -0.1954889   0.0789472 SPIN=   0.00000
   O  -0.4609728   0.2829472   0.4446630 SPIN=   0.00000
   O  -0.2668872   0.4700111   0.2827512 SPIN=   0.00000
   O  -0.0262924   0.3857235   0.5224751 SPIN=   0.00000
   O  -0.2658409   0.0682211   0.2519647 SPIN=   0.00000
   P  -0.2660934   0.2979703   0.3776906 SPIN=   0.00000
   O   0.2829472  -0.4609728   0.4446630 SPIN=   0.00000
   O   0.4700111  -0.2668872   0.2827512 SPIN=   0.00000
   O   0.3857235  -0.0262924   0.5224751 SPIN=   0.00000
   O   0.0682211  -0.2658409   0.2519647 SPIN=   0.00000
   P   0.2979703  -0.2660934   0.3776906 SPIN=   0.00000
   O   0.3620567   0.0869396  -0.0621665 SPIN=   0.00000
   O   0.0555455  -0.2006592  -0.3410599 SPIN=   0.00000
   O   0.3435606  -0.3425268  -0.1697161 SPIN=   0.00000
   O   0.0468744  -0.2086142  -0.0617928 SPIN=   0.00000
   O   0.0869396   0.3620567  -0.0621665 SPIN=   0.00000
   O  -0.2006592   0.0555455  -0.3410599 SPIN=   0.00000
   O  -0.3425268   0.3435606  -0.1697161 SPIN=   0.00000
   O  -0.2086142   0.0468744  -0.0617928 SPIN=   0.00000
   P   0.0216037   0.0216037  -0.2206133 SPIN=   0.00000
   P   0.4699612   0.4699612  -0.2003657 SPIN=   0.00000
  Fe  -0.0556330   0.3496090   0.1459370 SPIN=   1.36544
  Fe   0.3496090  -0.0556330   0.1459370 SPIN=   1.36544
  Fe  -0.1128618   0.4816673  -0.2611881 SPIN=   6.63456
  Fe   0.4816673  -0.1128618  -0.2611881 SPIN=   6.63456
%ENDBLOCK POSITIONS_FRAC

# Note: total spin =  16.00

KPOINTS_MP_SPACING 0.07

%BLOCK SPECIES_POT
QC5
%ENDBLOCK SPECIES_POT

%BLOCK HUBBARD_U
Fe d:4.0
%ENDBLOCK HUBBARD_U

SNAP_TO_SYMMETRY
SYMMETRY_GENERATE

