#              Generated by Buildcell
#
# at 11:32:37 (GMT+0.0) 24th November 2020
# in /scratch/scratch/uccabz1/launch_tmp
# on node-a14f-030
# by uccabz1
#
# compiler GCC version 4.9.2
# options -cpp -iprefix /scratch/UCL/applications/gcc/4.9.2/bin/../lib/gcc/x86_64-unknown-linux-gnu/4.9.2/ -mtune=corei7 -march=x86-64 -g -O2
#
# seed   282856103  -726492302  -836926798 -1628929527   851619818  -148253348  1467638993   402843856  -638836170 -1205554902  1056201414   118282623
#
#      Author: C. J. Pickard (cjp20@cam.ac.uk)
#                Space group: Pc
#

%BLOCK LATTICE_ABC
      4.44065      4.91565      7.35321
     94.57258     90.00000     90.00000
%ENDBLOCK LATTICE_ABC

%BLOCK POSITIONS_FRAC
  Li  -0.4447865  -0.1882910   0.1205722 SPIN=   0.00000
  Li   0.4447865   0.3117090  -0.3794278 SPIN=   0.00000
   O  -0.7275614  -0.1130514  -0.1196932 SPIN=   0.00000
   O  -0.5387372  -0.2304800  -0.4510843 SPIN=   0.00000
   O  -0.2282162   0.0750767  -0.2445184 SPIN=   0.00000
   O  -0.2646565  -0.4210020  -0.1920167 SPIN=   0.00000
   P  -0.4530483  -0.1721403  -0.2440868 SPIN=   0.00000
   O   0.7275614   0.3869486   0.3803068 SPIN=   0.00000
   O   0.5387372   0.2695200   0.0489157 SPIN=   0.00000
   O   0.2282162   0.5750767   0.2554816 SPIN=   0.00000
   O   0.2646565   0.0789980   0.3079833 SPIN=   0.00000
   P   0.4530483   0.3278597   0.2559132 SPIN=   0.00000
  Fe   0.0037423  -0.2051856   0.4789508 SPIN=   4.00000
  Fe  -0.0037423   0.2948144  -0.0210492 SPIN=   4.00000
%ENDBLOCK POSITIONS_FRAC

# Note: total spin =   8.00

KPOINTS_MP_SPACING 0.07

%BLOCK SPECIES_POT
QC5
%ENDBLOCK SPECIES_POT

%BLOCK HUBBARD_U
Fe d:4.0
%ENDBLOCK HUBBARD_U

SNAP_TO_SYMMETRY
SYMMETRY_GENERATE

