#              Generated by Buildcell
#
# at 11:46:25 (GMT+0.0) 26th November 2020
# in /scratch/scratch/uccabz1/launch_tmp
# on node-k10e-001
# by uccabz1
#
# compiler GCC version 4.9.2
# options -cpp -iprefix /scratch/UCL/applications/gcc/4.9.2/bin/../lib/gcc/x86_64-unknown-linux-gnu/4.9.2/ -mtune=corei7 -march=x86-64 -g -O2
#
# seed -1142183334 -1379664187  -466783960  -684988850  2116869900   373449441  -354263643  -906724215 -2038995519   -86151556 -1845702698  -284202728
#
#      Author: C. J. Pickard (cjp20@cam.ac.uk)
#                Space group: Pc
#

%BLOCK LATTICE_ABC
      5.46824      6.17071      9.64852
    100.61276     90.00000     90.00000
%ENDBLOCK LATTICE_ABC

%BLOCK POSITIONS_FRAC
  Li  -0.0034510   0.2040138  -0.2588064 SPIN=   0.00000
  Li   0.0034510  -0.2959862  -0.2588064 SPIN=   0.00000
  Li  -0.4773968   0.4537953  -0.2776029 SPIN=   0.00000
  Li   0.4773968  -0.0462047  -0.2776029 SPIN=   0.00000
   O  -0.0103592   0.4181304   0.5832205 SPIN=   0.00000
   O   0.3821195   0.6566303   0.5878043 SPIN=   0.00000
   O   0.3610669   0.3050259   0.4177791 SPIN=   0.00000
   O   0.0992478   0.6224697   0.3807810 SPIN=   0.00000
   P   0.1951076   0.4976135   0.4959150 SPIN=   0.00000
   O   0.0103592  -0.0818696   0.5832205 SPIN=   0.00000
   O  -0.3821195   0.1566303   0.5878043 SPIN=   0.00000
   O  -0.3610669  -0.1949741   0.4177791 SPIN=   0.00000
   O  -0.0992478   0.1224697   0.3807810 SPIN=   0.00000
   P  -0.1951076  -0.0023865   0.4959150 SPIN=   0.00000
   O  -0.1429761  -0.5871789   0.0244032 SPIN=   0.00000
   O  -0.4276156  -0.2568868   0.0052078 SPIN=   0.00000
   O  -0.4900892  -0.4531024   0.2036066 SPIN=   0.00000
   O  -0.1184415  -0.2171245   0.1997423 SPIN=   0.00000
   P  -0.2846168  -0.3877751   0.1048559 SPIN=   0.00000
   O   0.1429761  -0.0871789   0.0244032 SPIN=   0.00000
   O   0.4276156   0.2431132   0.0052078 SPIN=   0.00000
   O   0.4900892   0.0468976   0.2036066 SPIN=   0.00000
   O   0.1184415   0.2828755   0.1997423 SPIN=   0.00000
   P   0.2846168   0.1122249   0.1048559 SPIN=   0.00000
  Fe  -0.2173426   0.0317360   0.0228340 SPIN=   3.62377
  Fe   0.2173426  -0.4682640   0.0228340 SPIN=   3.62377
  Fe  -0.2808363   0.4669209   0.3708278 SPIN=   4.37623
  Fe   0.2808363  -0.0330791   0.3708278 SPIN=   4.37623
%ENDBLOCK POSITIONS_FRAC

# Note: total spin =  16.00

KPOINTS_MP_SPACING 0.07

%BLOCK SPECIES_POT
QC5
%ENDBLOCK SPECIES_POT

%BLOCK HUBBARD_U
Fe d:4.0
%ENDBLOCK HUBBARD_U

SNAP_TO_SYMMETRY
SYMMETRY_GENERATE

