#              Generated by Buildcell
#
# at 08:03:43 (GMT+0.0) 24th November 2020
# in /lustre/scratch/uccabz1/launch_tmp
# on node-c12l-030
# by uccabz1
#
# compiler GCC version 4.9.2
# options -cpp -iprefix /lustre/shared/ucl/apps/gcc/4.9.2/bin/../lib/gcc/x86_64-unknown-linux-gnu/4.9.2/ -mtune=corei7 -march=x86-64 -g -Og
#
# seed  -119920352   514376670  -269296636  -427931083   145570222   367414087 -1116388072  1801203957  -890389469 -1704787397  -975795686  1139802888
#
#      Author: C. J. Pickard (cjp20@cam.ac.uk)
#                Space group: P-1
#

%BLOCK LATTICE_ABC
      5.12175      5.67706      6.16018
     96.31108     99.31434    112.78644
%ENDBLOCK LATTICE_ABC

%BLOCK POSITIONS_FRAC
  Li   0.5000000   0.0000000   0.0000000 SPIN=   0.00000
  Li  -0.5000000  -0.0000000  -0.5000000 SPIN=   0.00000
   O   0.1530399   0.1046543   0.3727169 SPIN=   0.00000
   O  -0.1042654   0.3312506   0.1285990 SPIN=   0.00000
   O   0.3821884   0.6000750   0.3696771 SPIN=   0.00000
   O   0.3314845   0.2842008   0.0312358 SPIN=   0.00000
   P   0.1902737   0.3175032   0.2310995 SPIN=   0.00000
   O  -0.1530399  -0.1046543  -0.3727169 SPIN=   0.00000
   O   0.1042654  -0.3312506  -0.1285990 SPIN=   0.00000
   O  -0.3821884  -0.6000750  -0.3696771 SPIN=   0.00000
   O  -0.3314845  -0.2842008  -0.0312358 SPIN=   0.00000
   P  -0.1902737  -0.3175032  -0.2310995 SPIN=   0.00000
  Fe   0.2023113  -0.6315612  -0.2810152 SPIN=   4.00000
  Fe  -0.2023113   0.6315612   0.2810152 SPIN=   4.00000
%ENDBLOCK POSITIONS_FRAC

# Note: total spin =   8.00

KPOINTS_MP_SPACING 0.07

%BLOCK SPECIES_POT
QC5
%ENDBLOCK SPECIES_POT

%BLOCK HUBBARD_U
Fe d:4.0
%ENDBLOCK HUBBARD_U

SNAP_TO_SYMMETRY
SYMMETRY_GENERATE

