#              Generated by Buildcell
#
# at 21:16:26 (GMT+0.0) 26th November 2020
# in /lustre/scratch/uccabz1/launch_tmp
# on node-c12l-026
# by uccabz1
#
# compiler GCC version 4.9.2
# options -cpp -iprefix /lustre/shared/ucl/apps/gcc/4.9.2/bin/../lib/gcc/x86_64-unknown-linux-gnu/4.9.2/ -mtune=corei7 -march=x86-64 -g -Og
#
# seed   762924551  -354751026  -737770697   209952749  -801465234 -1763563110   288247365  1242637496  1548203332  -998118512  -774918616  -473813078
#
#      Author: C. J. Pickard (cjp20@cam.ac.uk)
#                Space group: P212121
#

%BLOCK LATTICE_ABC
      6.36978      6.68505      7.51486
     90.00000     90.00000     90.00000
%ENDBLOCK LATTICE_ABC

%BLOCK POSITIONS_FRAC
  Li   0.4309358   0.3624600  -0.4634659 SPIN=   0.00000
  Li  -0.0690642  -0.3624600  -0.0365341 SPIN=   0.00000
  Li   0.0690642  -0.1375400   0.4634659 SPIN=   0.00000
  Li  -0.4309358   0.1375400   0.0365341 SPIN=   0.00000
   O   0.0615357  -0.2473214   0.2002994 SPIN=   0.00000
   O   0.2807421  -0.0526758  -0.0342641 SPIN=   0.00000
   O  -0.0834954   0.0564331   0.0231050 SPIN=   0.00000
   O   0.1924687   0.1131381   0.2550503 SPIN=   0.00000
   P   0.1110226  -0.0423191   0.1174992 SPIN=   0.00000
   O  -0.4384643   0.2473214   0.2997006 SPIN=   0.00000
   O  -0.2192579   0.0526758   0.5342641 SPIN=   0.00000
   O  -0.5834954  -0.0564331   0.4768950 SPIN=   0.00000
   O  -0.3075313  -0.1131381   0.2449497 SPIN=   0.00000
   P  -0.3889774   0.0423191   0.3825008 SPIN=   0.00000
   O   0.4384643   0.2526786  -0.2002994 SPIN=   0.00000
   O   0.2192579   0.4473242   0.0342641 SPIN=   0.00000
   O   0.5834954   0.5564331  -0.0231050 SPIN=   0.00000
   O   0.3075313   0.6131381  -0.2550503 SPIN=   0.00000
   P   0.3889774   0.4576809  -0.1174992 SPIN=   0.00000
   O  -0.0615357  -0.2526786  -0.2997006 SPIN=   0.00000
   O  -0.2807421  -0.4473242  -0.5342641 SPIN=   0.00000
   O   0.0834954  -0.5564331  -0.4768950 SPIN=   0.00000
   O  -0.1924687  -0.6131381  -0.2449497 SPIN=   0.00000
   P  -0.1110226  -0.4576809  -0.3825008 SPIN=   0.00000
  Fe  -0.0555255   0.3146349   0.2971643 SPIN=   4.00000
  Fe   0.4444745  -0.3146349   0.2028357 SPIN=   4.00000
  Fe  -0.4444745  -0.1853651  -0.2971643 SPIN=   4.00000
  Fe   0.0555255   0.1853651  -0.2028357 SPIN=   4.00000
%ENDBLOCK POSITIONS_FRAC

# Note: total spin =  16.00

KPOINTS_MP_SPACING 0.07

%BLOCK SPECIES_POT
QC5
%ENDBLOCK SPECIES_POT

%BLOCK HUBBARD_U
Fe d:4.0
%ENDBLOCK HUBBARD_U

SNAP_TO_SYMMETRY
SYMMETRY_GENERATE

