#              Generated by Buildcell
#
# at 16:28:28 (GMT+0.0) 26th November 2020
# in /lustre/scratch/uccabz1/launch_tmp
# on node-c12g-023
# by uccabz1
#
# compiler GCC version 4.9.2
# options -cpp -iprefix /lustre/shared/ucl/apps/gcc/4.9.2/bin/../lib/gcc/x86_64-unknown-linux-gnu/4.9.2/ -mtune=corei7 -march=x86-64 -g -Og
#
# seed  1325899650  1039362276   568484065   254193596 -2143387290 -1163602323  -550910940 -1726857143  1944022570 -1937667785 -1078310745  -318152209
#
#      Author: C. J. Pickard (cjp20@cam.ac.uk)
#                Space group: Pc
#

%BLOCK LATTICE_ABC
      5.26527      6.77398      8.97215
     90.39871     90.00000     90.00000
%ENDBLOCK LATTICE_ABC

%BLOCK POSITIONS_FRAC
  Li  -0.4898430   0.4003776  -0.2148927 SPIN=   0.00000
  Li   0.4898430   0.4003776   0.2851073 SPIN=   0.00000
  Li   0.0375684   0.4467010  -0.4161550 SPIN=   0.00000
  Li  -0.0375684   0.4467010   0.0838450 SPIN=   0.00000
   O   0.1132117  -0.2664617   0.4891650 SPIN=   0.00000
   O   0.2271869  -0.3008688   0.2084445 SPIN=   0.00000
   O  -0.0272824  -0.5644063   0.3249527 SPIN=   0.00000
   O  -0.2236230  -0.2330070   0.2815799 SPIN=   0.00000
   P   0.0243070  -0.3359306   0.3341967 SPIN=   0.00000
   O  -0.1132117  -0.2664617  -0.0108350 SPIN=   0.00000
   O  -0.2271869  -0.3008688  -0.2915555 SPIN=   0.00000
   O   0.0272824  -0.5644063  -0.1750473 SPIN=   0.00000
   O   0.2236230  -0.2330070  -0.2184201 SPIN=   0.00000
   P  -0.0243070  -0.3359306  -0.1658033 SPIN=   0.00000
   O   0.7622808   0.1797062   0.0484034 SPIN=   0.00000
   O   0.3324006   0.0594052   0.1571330 SPIN=   0.00000
   O   0.3538727   0.3949289   0.0518445 SPIN=   0.00000
   O   0.3754143   0.1012888  -0.1188254 SPIN=   0.00000
   P   0.4713496   0.1826385   0.0335607 SPIN=   0.00000
   O  -0.7622808   0.1797062  -0.4515966 SPIN=   0.00000
   O  -0.3324006   0.0594052  -0.3428670 SPIN=   0.00000
   O  -0.3538727   0.3949289  -0.4481555 SPIN=   0.00000
   O  -0.3754143   0.1012888  -0.6188254 SPIN=   0.00000
   P  -0.4713496   0.1826385  -0.4664393 SPIN=   0.00000
  Fe   0.4864601  -0.2406925   0.0368096 SPIN=   2.12701
  Fe  -0.4864601  -0.2406925  -0.4631904 SPIN=   2.12701
  Fe  -0.0135281   0.0875984  -0.1696660 SPIN=   5.87299
  Fe   0.0135281   0.0875984   0.3303340 SPIN=   5.87299
%ENDBLOCK POSITIONS_FRAC

# Note: total spin =  16.00

KPOINTS_MP_SPACING 0.07

%BLOCK SPECIES_POT
QC5
%ENDBLOCK SPECIES_POT

%BLOCK HUBBARD_U
Fe d:4.0
%ENDBLOCK HUBBARD_U

SNAP_TO_SYMMETRY
SYMMETRY_GENERATE

