#              Generated by Buildcell
#
# at 21:58:00 (GMT+0.0) 26th November 2020
# in /lustre/scratch/uccabz1/launch_tmp
# on node-c12m-036
# by uccabz1
#
# compiler GCC version 4.9.2
# options -cpp -iprefix /lustre/shared/ucl/apps/gcc/4.9.2/bin/../lib/gcc/x86_64-unknown-linux-gnu/4.9.2/ -mtune=corei7 -march=x86-64 -g -Og
#
# seed  1424128350   219779958   849905478  -478120100 -1365249607  -129433009  -170905535  -343145226  -780122043  -700062524   -89437167  2128026465
#
#      Author: C. J. Pickard (cjp20@cam.ac.uk)
#                Space group: P21
#

%BLOCK LATTICE_ABC
      6.55074      6.96459      7.44809
     90.00000    109.65865     90.00000
%ENDBLOCK LATTICE_ABC

%BLOCK POSITIONS_FRAC
  Li  -0.4348438   0.2768515   0.3180874 SPIN=   0.00000
  Li   0.4348438  -0.2231485  -0.3180874 SPIN=   0.00000
  Li   0.2859735  -0.3645330   0.2481466 SPIN=   0.00000
  Li  -0.2859735   0.1354670  -0.2481466 SPIN=   0.00000
   O   0.4903446   0.4757331   0.0908675 SPIN=   0.00000
   O   0.2595468   0.2557924  -0.1843965 SPIN=   0.00000
   O   0.0733639   0.4368813   0.0003529 SPIN=   0.00000
   O   0.2219900   0.6127227  -0.2218835 SPIN=   0.00000
   P   0.2730422   0.4488797  -0.0714218 SPIN=   0.00000
   O  -0.4903446  -0.0242669  -0.0908675 SPIN=   0.00000
   O  -0.2595468  -0.2442076   0.1843965 SPIN=   0.00000
   O  -0.0733639  -0.0631187  -0.0003529 SPIN=   0.00000
   O  -0.2219900   0.1127227   0.2218835 SPIN=   0.00000
   P  -0.2730422  -0.0511203   0.0714218 SPIN=   0.00000
   O   0.3887046   0.0958369   0.5780781 SPIN=   0.00000
   O   0.1852665   0.1605424   0.2185096 SPIN=   0.00000
   O   0.4802116  -0.0792984   0.3066337 SPIN=   0.00000
   O   0.1307525  -0.1536189   0.3596091 SPIN=   0.00000
   P   0.2992045   0.0087740   0.3769433 SPIN=   0.00000
   O  -0.3887046  -0.4041631  -0.5780781 SPIN=   0.00000
   O  -0.1852665  -0.3394576  -0.2185096 SPIN=   0.00000
   O  -0.4802116  -0.5792984  -0.3066337 SPIN=   0.00000
   O  -0.1307525  -0.6536189  -0.3596091 SPIN=   0.00000
   P  -0.2992045  -0.4912260  -0.3769433 SPIN=   0.00000
  Fe   0.1430096   0.3354574  -0.4735909 SPIN=   4.46643
  Fe  -0.1430096  -0.1645426   0.4735909 SPIN=   4.46643
  Fe  -0.2255971  -0.4827143   0.0246443 SPIN=   3.53357
  Fe   0.2255971   0.0172857  -0.0246443 SPIN=   3.53357
%ENDBLOCK POSITIONS_FRAC

# Note: total spin =  16.00

KPOINTS_MP_SPACING 0.07

%BLOCK SPECIES_POT
QC5
%ENDBLOCK SPECIES_POT

%BLOCK HUBBARD_U
Fe d:4.0
%ENDBLOCK HUBBARD_U

SNAP_TO_SYMMETRY
SYMMETRY_GENERATE

