#              Generated by Buildcell
#
# at 13:43:30 (GMT+0.0) 24th November 2020
# in /scratch/scratch/uccabz1/launch_tmp
# on node-k10i-019
# by uccabz1
#
# compiler GCC version 4.9.2
# options -cpp -iprefix /scratch/UCL/applications/gcc/4.9.2/bin/../lib/gcc/x86_64-unknown-linux-gnu/4.9.2/ -mtune=corei7 -march=x86-64 -g -O2
#
# seed   869151017  -108700556  -512615259  1763050006 -1599849629    66292374 -1975037672  1727433522 -1114510332   838923837 -2020760028 -1719742431
#
#      Author: C. J. Pickard (cjp20@cam.ac.uk)
#                Space group: C2/m
#

%BLOCK LATTICE_ABC
      3.84802      3.84802     10.80803
     89.98996     89.98996     88.75959
%ENDBLOCK LATTICE_ABC

%BLOCK POSITIONS_FRAC
  Li  -0.0000000   0.0000000  -0.5000000 SPIN=   0.00000
  Li   0.0000000   0.0000000   0.0000000 SPIN=   0.00000
   O   0.5057494  -0.0337819  -0.3863614 SPIN=   0.00000
   O   0.3763859  -0.1588630  -0.1548487 SPIN=   0.00000
   O   0.0337819  -0.5057494   0.3863614 SPIN=   0.00000
   O   0.1588630  -0.3763859   0.1548487 SPIN=   0.00000
   O  -0.5057494   0.0337819   0.3863614 SPIN=   0.00000
   O  -0.3763859   0.1588630   0.1548487 SPIN=   0.00000
   O  -0.0337819   0.5057494  -0.3863614 SPIN=   0.00000
   O  -0.1588630   0.3763859  -0.1548487 SPIN=   0.00000
   P  -0.5000000  -0.5000000   0.0000000 SPIN=   0.00000
   P   0.5000000   0.5000000   0.5000000 SPIN=   0.00000
  Fe  -0.3429356  -0.3429356   0.2500009 SPIN=   4.00000
  Fe   0.3429356   0.3429356  -0.2500009 SPIN=   4.00000
%ENDBLOCK POSITIONS_FRAC

# Note: total spin =   8.00

KPOINTS_MP_SPACING 0.07

%BLOCK SPECIES_POT
QC5
%ENDBLOCK SPECIES_POT

%BLOCK HUBBARD_U
Fe d:4.0
%ENDBLOCK HUBBARD_U

SNAP_TO_SYMMETRY
SYMMETRY_GENERATE

