#              Generated by Buildcell
#
# at 13:45:55 (GMT+0.0) 24th November 2020
# in /scratch/scratch/uccabz1/launch_tmp
# on node-a14a-010
# by uccabz1
#
# compiler GCC version 4.9.2
# options -cpp -iprefix /scratch/UCL/applications/gcc/4.9.2/bin/../lib/gcc/x86_64-unknown-linux-gnu/4.9.2/ -mtune=corei7 -march=x86-64 -g -O2
#
# seed   981966742 -1035439293 -1151117539  -704452948   403213590   368949013  -156931104 -1045377421  -369096758  1066959917 -1985758136  -991762337
#
#      Author: C. J. Pickard (cjp20@cam.ac.uk)
#                Space group: P-1
#

%BLOCK LATTICE_ABC
      5.60510      5.82702      6.04225
     64.88567     63.60050     80.36354
%ENDBLOCK LATTICE_ABC

%BLOCK POSITIONS_FRAC
  Li  -0.0828291   0.2384045  -0.4433693 SPIN=   0.00000
  Li   0.0828291  -0.2384045   0.4433693 SPIN=   0.00000
   O  -0.1395450   0.0016476   0.2291789 SPIN=   0.00000
   O  -0.4207193   0.3577806   0.3719401 SPIN=   0.00000
   O  -0.1423379   0.4614068  -0.1116587 SPIN=   0.00000
   O  -0.5493828   0.1814361   0.1263588 SPIN=   0.00000
   P  -0.3065505   0.2364982   0.1576345 SPIN=   0.00000
   O   0.1395450  -0.0016476  -0.2291789 SPIN=   0.00000
   O   0.4207193  -0.3577806  -0.3719401 SPIN=   0.00000
   O   0.1423379  -0.4614068   0.1116587 SPIN=   0.00000
   O   0.5493828  -0.1814361  -0.1263588 SPIN=   0.00000
   P   0.3065505  -0.2364982  -0.1576345 SPIN=   0.00000
  Fe   0.2627227   0.2675109  -0.1316062 SPIN=   4.00000
  Fe  -0.2627227  -0.2675109   0.1316062 SPIN=   4.00000
%ENDBLOCK POSITIONS_FRAC

# Note: total spin =   8.00

KPOINTS_MP_SPACING 0.07

%BLOCK SPECIES_POT
QC5
%ENDBLOCK SPECIES_POT

%BLOCK HUBBARD_U
Fe d:4.0
%ENDBLOCK HUBBARD_U

SNAP_TO_SYMMETRY
SYMMETRY_GENERATE

