#              Generated by Buildcell
#
# at 09:37:50 (GMT+0.0) 24th November 2020
# in /lustre/scratch/uccabz1/launch_tmp
# on node-c12h-026
# by uccabz1
#
# compiler GCC version 4.9.2
# options -cpp -iprefix /lustre/shared/ucl/apps/gcc/4.9.2/bin/../lib/gcc/x86_64-unknown-linux-gnu/4.9.2/ -mtune=corei7 -march=x86-64 -g -Og
#
# seed  1397872343  -847097196 -2126073401  -122743542  -830793922  -652267374 -1493718694   740220591  -162333265  1421530769  1966783314 -1750969594
#
#      Author: C. J. Pickard (cjp20@cam.ac.uk)
#                Space group: P21/m
#

%BLOCK LATTICE_ABC
      3.95590      5.77430      7.17446
     90.00000    102.49709     90.00000
%ENDBLOCK LATTICE_ABC

%BLOCK POSITIONS_FRAC
  Li   0.3876496   0.2500000  -0.1032291 SPIN=   0.00000
  Li  -0.3876496  -0.2500000   0.1032291 SPIN=   0.00000
   O   0.2748090   0.0347326   0.1162465 SPIN=   0.00000
   O  -0.1601859  -0.0356837   0.3346969 SPIN=   0.00000
   O  -0.2748090   0.5347326  -0.1162465 SPIN=   0.00000
   O   0.1601859   0.4643163  -0.3346969 SPIN=   0.00000
   O  -0.2748090  -0.0347326  -0.1162465 SPIN=   0.00000
   O   0.1601859   0.0356837  -0.3346969 SPIN=   0.00000
   O   0.2748090  -0.5347326   0.1162465 SPIN=   0.00000
   O  -0.1601859  -0.4643163   0.3346969 SPIN=   0.00000
   P  -0.2139556   0.2500000  -0.3672460 SPIN=   0.00000
   P   0.2139556  -0.2500000   0.3672460 SPIN=   0.00000
  Fe   0.1707499   0.2500000   0.3330978 SPIN=   4.00000
  Fe  -0.1707499  -0.2500000  -0.3330978 SPIN=   4.00000
%ENDBLOCK POSITIONS_FRAC

# Note: total spin =   8.00

KPOINTS_MP_SPACING 0.07

%BLOCK SPECIES_POT
QC5
%ENDBLOCK SPECIES_POT

%BLOCK HUBBARD_U
Fe d:4.0
%ENDBLOCK HUBBARD_U

SNAP_TO_SYMMETRY
SYMMETRY_GENERATE

