#              Generated by Buildcell
#
# at 08:59:25 (GMT+0.0) 24th November 2020
# in /lustre/scratch/uccabz1/launch_tmp
# on node-c12b-025
# by uccabz1
#
# compiler GCC version 4.9.2
# options -cpp -iprefix /lustre/shared/ucl/apps/gcc/4.9.2/bin/../lib/gcc/x86_64-unknown-linux-gnu/4.9.2/ -mtune=corei7 -march=x86-64 -g -Og
#
# seed -1102562814   959980178 -1278665934  -225390850 -1850624645  1342295323 -1525139775  2102470593  -775235954 -2024498524  -791487599 -1738427199
#
#      Author: C. J. Pickard (cjp20@cam.ac.uk)
#                Space group: Fdd2
#

%BLOCK LATTICE_ABC
      5.49619      5.49619      6.43439
    107.39451    107.39451    107.46002
%ENDBLOCK LATTICE_ABC

%BLOCK POSITIONS_FRAC
  Li  -0.0395396   0.0395396  -0.0000000 SPIN=   0.00000
  Li   0.2104604  -0.2104604   0.5000000 SPIN=   0.00000
   O  -0.3665607  -0.1669587  -0.3516469 SPIN=   0.00000
   O  -0.5093680  -0.5578425  -0.2056380 SPIN=   0.00000
   O   0.1669587   0.3665607   0.3516469 SPIN=   0.00000
   O   0.5578425   0.5093680   0.2056380 SPIN=   0.00000
   O   0.0653118  -0.2350862   0.1483531 SPIN=   0.00000
   O   0.6022045   0.0537300   0.2943620 SPIN=   0.00000
   O   0.2350862  -0.0653118  -0.1483531 SPIN=   0.00000
   O  -0.0537300  -0.6022045  -0.2943620 SPIN=   0.00000
   P  -0.0928827   0.0928827  -0.5000000 SPIN=   0.00000
   P  -0.3428827   0.3428827   0.0000000 SPIN=   0.00000
  Fe  -0.4164780   0.4164780  -0.5000000 SPIN=   4.00000
  Fe   0.3335220  -0.3335220   0.0000000 SPIN=   4.00000
%ENDBLOCK POSITIONS_FRAC

# Note: total spin =   8.00

KPOINTS_MP_SPACING 0.07

%BLOCK SPECIES_POT
QC5
%ENDBLOCK SPECIES_POT

%BLOCK HUBBARD_U
Fe d:4.0
%ENDBLOCK HUBBARD_U

SNAP_TO_SYMMETRY
SYMMETRY_GENERATE

