#              Generated by Buildcell
#
# at 13:12:09 (GMT+0.0) 26th November 2020
# in /scratch/scratch/uccabz1/launch_tmp
# on node-k10a-018
# by uccabz1
#
# compiler GCC version 4.9.2
# options -cpp -iprefix /scratch/UCL/applications/gcc/4.9.2/bin/../lib/gcc/x86_64-unknown-linux-gnu/4.9.2/ -mtune=corei7 -march=x86-64 -g -O2
#
# seed  -234979833   952872862   961733446  -610096743   559823154  2026835326  2097550605  -137037430  -896989449   249202064 -1635591175  1754435994
#
#      Author: C. J. Pickard (cjp20@cam.ac.uk)
#                Space group: Cm
#

%BLOCK LATTICE_ABC
      6.74293      6.74293      7.04232
     91.13177     91.13177     91.16495
%ENDBLOCK LATTICE_ABC

%BLOCK POSITIONS_FRAC
  Li  -0.1430919   0.3994393  -0.2036648 SPIN=   0.00000
  Li   0.3994393  -0.1430919  -0.2036648 SPIN=   0.00000
  Li  -0.1467888   0.4013265   0.2974941 SPIN=   0.00000
  Li   0.4013265  -0.1467888   0.2974941 SPIN=   0.00000
   O  -0.0269122  -0.4505390  -0.4585578 SPIN=   0.00000
   O   0.2024851  -0.1362027  -0.4399687 SPIN=   0.00000
   O   0.3093563  -0.4349732  -0.2717523 SPIN=   0.00000
   O   0.3094536  -0.4334992  -0.6273359 SPIN=   0.00000
   P   0.1878967  -0.3692442  -0.4519909 SPIN=   0.00000
   O  -0.4505390  -0.0269122  -0.4585578 SPIN=   0.00000
   O  -0.1362027   0.2024851  -0.4399687 SPIN=   0.00000
   O  -0.4349732   0.3093563  -0.2717523 SPIN=   0.00000
   O  -0.4334992   0.3094536  -0.6273359 SPIN=   0.00000
   P  -0.3692442   0.1878967  -0.4519909 SPIN=   0.00000
   O   0.2826166  -0.2939104   0.0527855 SPIN=   0.00000
   O   0.0533746  -0.6084661   0.0453016 SPIN=   0.00000
   O  -0.0557514  -0.3116595   0.2224570 SPIN=   0.00000
   O  -0.0516474  -0.3092566  -0.1330075 SPIN=   0.00000
   P   0.0678693  -0.3753510   0.0450754 SPIN=   0.00000
   O  -0.2939104   0.2826166   0.0527855 SPIN=   0.00000
   O  -0.6084661   0.0533746   0.0453016 SPIN=   0.00000
   O  -0.3116595  -0.0557514   0.2224570 SPIN=   0.00000
   O  -0.3092566  -0.0516474  -0.1330075 SPIN=   0.00000
   P  -0.3753510   0.0678693   0.0450754 SPIN=   0.00000
  Fe   0.4482743   0.4482743   0.0363008 SPIN=   3.52761
  Fe  -0.1921780  -0.1921780  -0.4437102 SPIN=   4.90362
  Fe   0.2156331   0.2156331  -0.4510336 SPIN=   2.38852
  Fe   0.0402149   0.0402149   0.0442677 SPIN=   5.18024
%ENDBLOCK POSITIONS_FRAC

# Note: total spin =  16.00

KPOINTS_MP_SPACING 0.07

%BLOCK SPECIES_POT
QC5
%ENDBLOCK SPECIES_POT

%BLOCK HUBBARD_U
Fe d:4.0
%ENDBLOCK HUBBARD_U

SNAP_TO_SYMMETRY
SYMMETRY_GENERATE

