#              Generated by Buildcell
#
# at 08:01:49 (GMT+0.0) 24th November 2020
# in /scratch/scratch/uccabz1/launch_tmp
# on node-k10i-019
# by uccabz1
#
# compiler GCC version 4.9.2
# options -cpp -iprefix /scratch/UCL/applications/gcc/4.9.2/bin/../lib/gcc/x86_64-unknown-linux-gnu/4.9.2/ -mtune=corei7 -march=x86-64 -g -O2
#
# seed -1545498525  1019736976 -1718907465  1021844112 -1786764156   232092875 -1231946876  -658696643   660556572 -1719622459  1996489109  1422618030
#
#      Author: C. J. Pickard (cjp20@cam.ac.uk)
#                Space group: P-1
#

%BLOCK LATTICE_ABC
      4.85256      5.77656      6.34720
     64.06624     89.71210     89.73728
%ENDBLOCK LATTICE_ABC

%BLOCK POSITIONS_FRAC
  Li  -0.2501808   0.1677007  -0.1111872 SPIN=   0.00000
  Li   0.2501808  -0.1677007   0.1111872 SPIN=   0.00000
   O  -0.0073903   0.0592106   0.2881011 SPIN=   0.00000
   O  -0.5208094  -0.0813176   0.3494181 SPIN=   0.00000
   O  -0.2111378  -0.2728306   0.1579704 SPIN=   0.00000
   O  -0.1576348  -0.3957558   0.5860402 SPIN=   0.00000
   P  -0.2119107  -0.1629593   0.3451725 SPIN=   0.00000
   O   0.0073903  -0.0592106  -0.2881011 SPIN=   0.00000
   O   0.5208094   0.0813176  -0.3494181 SPIN=   0.00000
   O   0.2111378   0.2728306  -0.1579704 SPIN=   0.00000
   O   0.1576348   0.3957558  -0.5860402 SPIN=   0.00000
   P   0.2119107   0.1629593  -0.3451725 SPIN=   0.00000
  Fe  -0.3205140   0.3364492   0.3219222 SPIN=   4.00000
  Fe   0.3205140  -0.3364492  -0.3219222 SPIN=   4.00000
%ENDBLOCK POSITIONS_FRAC

# Note: total spin =   8.00

KPOINTS_MP_SPACING 0.07

%BLOCK SPECIES_POT
QC5
%ENDBLOCK SPECIES_POT

%BLOCK HUBBARD_U
Fe d:4.0
%ENDBLOCK HUBBARD_U

SNAP_TO_SYMMETRY
SYMMETRY_GENERATE

