#              Generated by Buildcell
#
# at 06:53:33 (GMT+0.0) 24th November 2020
# in /lustre/scratch/uccabz1/launch_tmp
# on node-c12k-030
# by uccabz1
#
# compiler GCC version 4.9.2
# options -cpp -iprefix /lustre/shared/ucl/apps/gcc/4.9.2/bin/../lib/gcc/x86_64-unknown-linux-gnu/4.9.2/ -mtune=corei7 -march=x86-64 -g -Og
#
# seed -1835724206   852818782   559201006  -434313764 -1218321719   784130257  -415000275  1313601436 -1340847717   925392968  1627773388   424075617
#
#      Author: C. J. Pickard (cjp20@cam.ac.uk)
#                Space group: P-1
#

%BLOCK LATTICE_ABC
      4.98656      5.92979      5.98860
     96.61135     95.71393    112.90641
%ENDBLOCK LATTICE_ABC

%BLOCK POSITIONS_FRAC
  Li  -0.0800388   0.2962057  -0.3549370 SPIN=   0.00000
  Li   0.0800388  -0.2962057   0.3549370 SPIN=   0.00000
   O   0.1276333   0.1670506  -0.1061524 SPIN=   0.00000
   O   0.1201381  -0.2573392  -0.2817689 SPIN=   0.00000
   O   0.2678528   0.0850174  -0.5046361 SPIN=   0.00000
   O   0.6051448   0.1065065  -0.1562201 SPIN=   0.00000
   P   0.2759040   0.0338140  -0.2526353 SPIN=   0.00000
   O  -0.1276333  -0.1670506   0.1061524 SPIN=   0.00000
   O  -0.1201381   0.2573392   0.2817689 SPIN=   0.00000
   O  -0.2678528  -0.0850174   0.5046361 SPIN=   0.00000
   O  -0.6051448  -0.1065065   0.1562201 SPIN=   0.00000
   P  -0.2759040  -0.0338140   0.2526353 SPIN=   0.00000
  Fe  -0.3898891  -0.2633549  -0.2154166 SPIN=   4.00000
  Fe   0.3898891   0.2633549   0.2154166 SPIN=   4.00000
%ENDBLOCK POSITIONS_FRAC

# Note: total spin =   8.00

KPOINTS_MP_SPACING 0.07

%BLOCK SPECIES_POT
QC5
%ENDBLOCK SPECIES_POT

%BLOCK HUBBARD_U
Fe d:4.0
%ENDBLOCK HUBBARD_U

SNAP_TO_SYMMETRY
SYMMETRY_GENERATE

