#              Generated by Buildcell
#
# at 10:59:39 (GMT+0.0) 24th November 2020
# in /lustre/scratch/uccabz1/launch_tmp
# on node-c12h-023
# by uccabz1
#
# compiler GCC version 4.9.2
# options -cpp -iprefix /lustre/shared/ucl/apps/gcc/4.9.2/bin/../lib/gcc/x86_64-unknown-linux-gnu/4.9.2/ -mtune=corei7 -march=x86-64 -g -Og
#
# seed  -663204510 -1865946720  1010801298  1313466131 -2009485479 -1647318982 -1629407426  1624686276  1649129026    50304116  2098536757  -307723452
#
#      Author: C. J. Pickard (cjp20@cam.ac.uk)
#                Space group: Cmc21
#

%BLOCK LATTICE_ABC
      5.24807      5.24807      6.02568
     90.00000     90.00000    105.40228
%ENDBLOCK LATTICE_ABC

%BLOCK POSITIONS_FRAC
  Li   0.0242792  -0.0242792  -0.0170977 SPIN=   0.00000
  Li  -0.0242792   0.0242792   0.4829023 SPIN=   0.00000
   O  -0.2296256  -0.2329402  -0.2669579 SPIN=   0.00000
   O  -0.4792643   0.0281468  -0.5132530 SPIN=   0.00000
   O   0.2296256   0.2329402   0.2330421 SPIN=   0.00000
   O   0.4792643  -0.0281468  -0.0132530 SPIN=   0.00000
   O  -0.2329402  -0.2296256   0.2330421 SPIN=   0.00000
   O   0.0281468  -0.4792643  -0.0132530 SPIN=   0.00000
   O   0.2329402   0.2296256  -0.2669579 SPIN=   0.00000
   O  -0.0281468   0.4792643  -0.5132530 SPIN=   0.00000
   P  -0.3076966   0.3076966   0.2706166 SPIN=   0.00000
   P   0.3076966  -0.3076966  -0.2293834 SPIN=   0.00000
  Fe  -0.3491295   0.3491295  -0.2022492 SPIN=   4.00000
  Fe   0.3491295  -0.3491295   0.2977508 SPIN=   4.00000
%ENDBLOCK POSITIONS_FRAC

# Note: total spin =   8.00

KPOINTS_MP_SPACING 0.07

%BLOCK SPECIES_POT
QC5
%ENDBLOCK SPECIES_POT

%BLOCK HUBBARD_U
Fe d:4.0
%ENDBLOCK HUBBARD_U

SNAP_TO_SYMMETRY
SYMMETRY_GENERATE

