#              Generated by Buildcell
#
# at 08:03:23 (GMT+0.0) 24th November 2020
# in /scratch/scratch/uccabz1/launch_tmp
# on node-a14c-007
# by uccabz1
#
# compiler GCC version 4.9.2
# options -cpp -iprefix /scratch/UCL/applications/gcc/4.9.2/bin/../lib/gcc/x86_64-unknown-linux-gnu/4.9.2/ -mtune=corei7 -march=x86-64 -g -O2
#
# seed -1308790756   827968808 -2103779206  1279471835  2014334245  1371412663 -1968691920  1955841785  -988720552  1561319614  1469727027    53000510
#
#      Author: C. J. Pickard (cjp20@cam.ac.uk)
#                Space group: I-4
#

%BLOCK LATTICE_ABC
      4.60638      4.60638      8.21392
    106.28414    106.28414     90.00000
%ENDBLOCK LATTICE_ABC

%BLOCK POSITIONS_FRAC
  Li   0.2780839   0.2780839  -0.4438321 SPIN=   0.00000
  Li  -0.2780839  -0.2780839   0.4438321 SPIN=   0.00000
   O   0.3014844  -0.0627539   0.1139666 SPIN=   0.00000
   O   0.0160915  -0.0758383   0.3437613 SPIN=   0.00000
   O  -0.1875178   0.1767205   0.1139666 SPIN=   0.00000
   O   0.3276698   0.4195996   0.3437613 SPIN=   0.00000
   O   0.0627539   0.1875178  -0.1139666 SPIN=   0.00000
   O   0.0758383  -0.3276698  -0.3437613 SPIN=   0.00000
   O  -0.1767205  -0.3014844  -0.1139666 SPIN=   0.00000
   O  -0.4195996  -0.0160915  -0.3437613 SPIN=   0.00000
   P  -0.3745269   0.1254731   0.2509462 SPIN=   0.00000
   P  -0.1254731   0.3745269  -0.2509462 SPIN=   0.00000
  Fe   0.4322137  -0.0677863  -0.1355725 SPIN=   4.00000
  Fe   0.0677863  -0.4322137   0.1355725 SPIN=   4.00000
%ENDBLOCK POSITIONS_FRAC

# Note: total spin =   8.00

KPOINTS_MP_SPACING 0.07

%BLOCK SPECIES_POT
QC5
%ENDBLOCK SPECIES_POT

%BLOCK HUBBARD_U
Fe d:4.0
%ENDBLOCK HUBBARD_U

SNAP_TO_SYMMETRY
SYMMETRY_GENERATE

