#              Generated by Buildcell
#
# at 12:20:05 (GMT+0.0) 24th November 2020
# in /lustre/scratch/uccabz1/launch_tmp
# on node-c12g-024
# by uccabz1
#
# compiler GCC version 4.9.2
# options -cpp -iprefix /lustre/shared/ucl/apps/gcc/4.9.2/bin/../lib/gcc/x86_64-unknown-linux-gnu/4.9.2/ -mtune=corei7 -march=x86-64 -g -Og
#
# seed   488331117  -103994055 -1412469974  -575054702  -951686209  -965818069  1749296981   856283520  1695426258  -895463945  1899567102  -866604744
#
#      Author: C. J. Pickard (cjp20@cam.ac.uk)
#                Space group: Cm
#

%BLOCK LATTICE_ABC
      3.93291      6.50888      6.50888
     88.26707     78.50924     78.50924
%ENDBLOCK LATTICE_ABC

%BLOCK POSITIONS_FRAC
  Li  -0.2473191  -0.2887319   0.3422291 SPIN=   0.00000
  Li  -0.2473191   0.3422291  -0.2887319 SPIN=   0.00000
   O   0.0130417  -0.0056157  -0.2779707 SPIN=   0.00000
   O   0.6045625   0.0287458  -0.5254907 SPIN=   0.00000
   O   0.2115292  -0.1693871  -0.6523056 SPIN=   0.00000
   P   0.2025228   0.0197417  -0.5051717 SPIN=   0.00000
   O   0.0130417  -0.2779707  -0.0056157 SPIN=   0.00000
   O   0.6045625  -0.5254907   0.0287458 SPIN=   0.00000
   O   0.2115292  -0.6523056  -0.1693871 SPIN=   0.00000
   P   0.2025228  -0.5051717   0.0197417 SPIN=   0.00000
   O  -0.1103125  -0.3625257  -0.3625257 SPIN=   0.00000
   O   0.0850822   0.3621850   0.3621850 SPIN=   0.00000
  Fe  -0.4987739  -0.1558454  -0.1558454 SPIN=  -0.00000
  Fe  -0.2487677   0.2214574   0.2214574 SPIN=   8.00000
%ENDBLOCK POSITIONS_FRAC

# Note: total spin =   8.00

KPOINTS_MP_SPACING 0.07

%BLOCK SPECIES_POT
QC5
%ENDBLOCK SPECIES_POT

%BLOCK HUBBARD_U
Fe d:4.0
%ENDBLOCK HUBBARD_U

SNAP_TO_SYMMETRY
SYMMETRY_GENERATE

