#              Generated by Buildcell
#
# at 13:47:08 (GMT+0.0) 26th November 2020
# in /lustre/scratch/uccabz1/launch_tmp
# on node-c12e-026
# by uccabz1
#
# compiler GCC version 4.9.2
# options -cpp -iprefix /lustre/shared/ucl/apps/gcc/4.9.2/bin/../lib/gcc/x86_64-unknown-linux-gnu/4.9.2/ -mtune=corei7 -march=x86-64 -g -Og
#
# seed -1236884523  1464031872  -902942632  -745022579 -1221717408   741882069   268187088 -1330882688  -613214699  -824684285   917505278 -1960480431
#
#      Author: C. J. Pickard (cjp20@cam.ac.uk)
#                Space group: P-1
#

%BLOCK LATTICE_ABC
      5.88341      6.57444      9.10506
     77.72628     86.52806     68.44129
%ENDBLOCK LATTICE_ABC

%BLOCK POSITIONS_FRAC
  Li   0.4451164   0.2412879  -0.2960313 SPIN=   0.00000
  Li  -0.4451164  -0.2412879   0.2960313 SPIN=   0.00000
  Li   0.5000000   0.5000000  -0.0000000 SPIN=   0.00000
  Li   0.0000000  -0.5000000   0.5000000 SPIN=   0.00000
   O  -0.2746344   0.4585753  -0.3413636 SPIN=   0.00000
   O   0.0935259   0.1217809  -0.2061222 SPIN=   0.00000
   O  -0.1139369   0.4329371  -0.0759216 SPIN=   0.00000
   O  -0.3278525   0.1784982  -0.1083697 SPIN=   0.00000
   P  -0.1640871   0.3050908  -0.1904992 SPIN=   0.00000
   O   0.2746344  -0.4585753   0.3413636 SPIN=   0.00000
   O  -0.0935259  -0.1217809   0.2061222 SPIN=   0.00000
   O   0.1139369  -0.4329371   0.0759216 SPIN=   0.00000
   O   0.3278525  -0.1784982   0.1083697 SPIN=   0.00000
   P   0.1640871  -0.3050908   0.1904992 SPIN=   0.00000
   O  -0.1675079   0.1001027  -0.4230308 SPIN=   0.00000
   O  -0.3800632  -0.1405093  -0.2478443 SPIN=   0.00000
   O  -0.3170318  -0.1801885  -0.5125138 SPIN=   0.00000
   O   0.0431761  -0.3271550  -0.3354058 SPIN=   0.00000
   P  -0.2004085  -0.1265611  -0.3814831 SPIN=   0.00000
   O   0.1675079  -0.1001027   0.4230308 SPIN=   0.00000
   O   0.3800632   0.1405093   0.2478443 SPIN=   0.00000
   O   0.3170318   0.1801885   0.5125138 SPIN=   0.00000
   O  -0.0431761   0.3271550   0.3354058 SPIN=   0.00000
   P   0.2004085   0.1265611   0.3814831 SPIN=   0.00000
  Fe   0.1715674   0.1770443   0.0572912 SPIN=   3.79608
  Fe  -0.1715674  -0.1770443  -0.0572912 SPIN=   3.79608
  Fe  -0.3587986   0.2217178   0.3515940 SPIN=   4.20392
  Fe   0.3587986  -0.2217178  -0.3515940 SPIN=   4.20392
%ENDBLOCK POSITIONS_FRAC

# Note: total spin =  16.00

KPOINTS_MP_SPACING 0.07

%BLOCK SPECIES_POT
QC5
%ENDBLOCK SPECIES_POT

%BLOCK HUBBARD_U
Fe d:4.0
%ENDBLOCK HUBBARD_U

SNAP_TO_SYMMETRY
SYMMETRY_GENERATE

