#              Generated by Buildcell
#
# at 23:59:02 (GMT+0.0) 26th November 2020
# in /scratch/scratch/uccabz1/launch_tmp
# on node-k10b-006
# by uccabz1
#
# compiler GCC version 4.9.2
# options -cpp -iprefix /scratch/UCL/applications/gcc/4.9.2/bin/../lib/gcc/x86_64-unknown-linux-gnu/4.9.2/ -mtune=corei7 -march=x86-64 -g -O2
#
# seed  -801678050  1352706947  -321801978  1453300991   645116754   946689036  1723281687  -676810091  -729312526   674891086 -1876572936 -1877154710
#
#      Author: C. J. Pickard (cjp20@cam.ac.uk)
#                Space group: C2
#

%BLOCK LATTICE_ABC
      7.21505      7.38480      7.38480
     61.75976     70.73438     70.73438
%ENDBLOCK LATTICE_ABC

%BLOCK POSITIONS_FRAC
  Li   0.3090281   0.4052902  -0.4762806 SPIN=   0.00000
  Li  -0.3090281   0.4762806  -0.4052902 SPIN=   0.00000
  Li   0.0730109   0.0697497  -0.3248758 SPIN=   0.00000
  Li  -0.0730109   0.3248758  -0.0697497 SPIN=   0.00000
   O  -0.3618959  -0.1272758   0.2857403 SPIN=   0.00000
   O  -0.2230933   0.1348270  -0.0872531 SPIN=   0.00000
   O  -0.5906513   0.1716085   0.0359852 SPIN=   0.00000
   O  -0.3990629   0.2642106   0.1970537 SPIN=   0.00000
   P  -0.3920472   0.0999739   0.1184039 SPIN=   0.00000
   O   0.3618959  -0.2857403   0.1272758 SPIN=   0.00000
   O   0.2230933   0.0872531  -0.1348270 SPIN=   0.00000
   O   0.5906513  -0.0359852  -0.1716085 SPIN=   0.00000
   O   0.3990629  -0.1970537  -0.2642106 SPIN=   0.00000
   P   0.3920472  -0.1184039  -0.0999739 SPIN=   0.00000
   O  -0.1290394  -0.2777476  -0.3326190 SPIN=   0.00000
   O   0.0513991  -0.2409574  -0.1036088 SPIN=   0.00000
   O   0.1856828  -0.5468130  -0.1967963 SPIN=   0.00000
   P   0.0730224  -0.3099572  -0.2823398 SPIN=   0.00000
   O   0.1290394   0.3326190   0.2777476 SPIN=   0.00000
   O  -0.0513991   0.1036088   0.2409574 SPIN=   0.00000
   O  -0.1856828   0.1967963   0.5468130 SPIN=   0.00000
   P  -0.0730224   0.2823398   0.3099572 SPIN=   0.00000
   O   0.0000000   0.3951320  -0.3951320 SPIN=   0.00000
   O   0.0000000  -0.2790556   0.2790556 SPIN=   0.00000
  Fe  -0.2315842  -0.2884131   0.0783100 SPIN=   4.93221
  Fe   0.2315842  -0.0783100   0.2884131 SPIN=   4.93221
  Fe   0.3328863   0.4836696   0.0084463 SPIN=   3.06779
  Fe  -0.3328863  -0.0084463  -0.4836696 SPIN=   3.06779
%ENDBLOCK POSITIONS_FRAC

# Note: total spin =  16.00

KPOINTS_MP_SPACING 0.07

%BLOCK SPECIES_POT
QC5
%ENDBLOCK SPECIES_POT

%BLOCK HUBBARD_U
Fe d:4.0
%ENDBLOCK HUBBARD_U

SNAP_TO_SYMMETRY
SYMMETRY_GENERATE

