#              Generated by Buildcell
#
# at 10:45:31 (GMT+0.0) 24th November 2020
# in /lustre/scratch/uccabz1/launch_tmp
# on node-c12p-022
# by uccabz1
#
# compiler GCC version 4.9.2
# options -cpp -iprefix /lustre/shared/ucl/apps/gcc/4.9.2/bin/../lib/gcc/x86_64-unknown-linux-gnu/4.9.2/ -mtune=corei7 -march=x86-64 -g -Og
#
# seed  2083665280 -2016803607  -217840654 -1383997812   238426480  1283707077 -1113796350  -679770164   558758699 -1187758152  -807099338 -1582349506
#
#      Author: C. J. Pickard (cjp20@cam.ac.uk)
#                Space group: Cm
#

%BLOCK LATTICE_ABC
      3.83771      6.55557      6.55557
    104.02694     90.38651     90.38651
%ENDBLOCK LATTICE_ABC

%BLOCK POSITIONS_FRAC
  Li  -0.1034572   0.0719196   0.0719196 SPIN=   0.00000
  Li  -0.0676042  -0.2980340  -0.2980340 SPIN=   0.00000
   O   0.2930888   0.2792121   0.0262960 SPIN=   0.00000
   O   0.0972687   0.6475652  -0.0097111 SPIN=   0.00000
   O   0.5936295   0.4796000  -0.2221195 SPIN=   0.00000
   P   0.2434296   0.4256107  -0.1226277 SPIN=   0.00000
   O   0.2930888   0.0262960   0.2792121 SPIN=   0.00000
   O   0.0972687  -0.0097111   0.6475652 SPIN=   0.00000
   O   0.5936295  -0.2221195   0.4796000 SPIN=   0.00000
   P   0.2434296  -0.1226277   0.4256107 SPIN=   0.00000
   O   0.1101460   0.3965289   0.3965289 SPIN=   0.00000
   O  -0.4716519  -0.1233718  -0.1233718 SPIN=   0.00000
  Fe  -0.2597098   0.1990625  -0.4234179 SPIN=   4.00000
  Fe  -0.2597098  -0.4234179   0.1990625 SPIN=   4.00000
%ENDBLOCK POSITIONS_FRAC

# Note: total spin =   8.00

KPOINTS_MP_SPACING 0.07

%BLOCK SPECIES_POT
QC5
%ENDBLOCK SPECIES_POT

%BLOCK HUBBARD_U
Fe d:4.0
%ENDBLOCK HUBBARD_U

SNAP_TO_SYMMETRY
SYMMETRY_GENERATE

