#              Generated by Buildcell
#
# at 16:45:07 (GMT+0.0) 26th November 2020
# in /scratch/scratch/uccabz1/launch_tmp
# on node-k10i-007
# by uccabz1
#
# compiler GCC version 4.9.2
# options -cpp -iprefix /scratch/UCL/applications/gcc/4.9.2/bin/../lib/gcc/x86_64-unknown-linux-gnu/4.9.2/ -mtune=corei7 -march=x86-64 -g -O2
#
# seed -1033693076 -1005518180  1653262041  -222136072  -786542729 -1074687891  1103338302  1772989859   149546541   233895359 -1011141469  -571006652
#
#      Author: C. J. Pickard (cjp20@cam.ac.uk)
#                Space group: P21
#

%BLOCK LATTICE_ABC
      6.14802      6.91775      8.23396
    113.96700     90.00000     90.00000
%ENDBLOCK LATTICE_ABC

%BLOCK POSITIONS_FRAC
  Li  -0.2135819  -0.1707587   0.2047568 SPIN=   0.00000
  Li   0.2864181   0.1707587  -0.2047568 SPIN=   0.00000
  Li  -0.4743142  -0.4024296  -0.3389256 SPIN=   0.00000
  Li   0.0256858   0.4024296   0.3389256 SPIN=   0.00000
   O   0.4229067  -0.3054201   0.1885205 SPIN=   0.00000
   O   0.3340195  -0.5060081  -0.1472199 SPIN=   0.00000
   O   0.2803328  -0.1188820  -0.0080467 SPIN=   0.00000
   O   0.6583104  -0.2665576  -0.0563204 SPIN=   0.00000
   P   0.4266062  -0.2991619   0.0039816 SPIN=   0.00000
   O  -0.0770933   0.3054201  -0.1885205 SPIN=   0.00000
   O  -0.1659805   0.5060081   0.1472199 SPIN=   0.00000
   O  -0.2196672   0.1188820   0.0080467 SPIN=   0.00000
   O   0.1583104   0.2665576   0.0563204 SPIN=   0.00000
   P  -0.0733938   0.2991619  -0.0039816 SPIN=   0.00000
   O  -0.4374743   0.2307799   0.5927319 SPIN=   0.00000
   O  -0.4377373   0.0869867   0.2480686 SPIN=   0.00000
   O  -0.3026939   0.4495998   0.4200006 SPIN=   0.00000
   O  -0.0824193   0.1400929   0.4092281 SPIN=   0.00000
   P  -0.3188524   0.2260492   0.4267394 SPIN=   0.00000
   O   0.0625257  -0.2307799  -0.5927319 SPIN=   0.00000
   O   0.0622627  -0.0869867  -0.2480686 SPIN=   0.00000
   O   0.1973061  -0.4495998  -0.4200006 SPIN=   0.00000
   O   0.4175807  -0.1400929  -0.4092281 SPIN=   0.00000
   P   0.1811476  -0.2260492  -0.4267394 SPIN=   0.00000
  Fe   0.0237357  -0.4042519  -0.1877382 SPIN=   2.87714
  Fe  -0.4762643   0.4042519   0.1877382 SPIN=   2.87714
  Fe  -0.2159120   0.0117417  -0.3492285 SPIN=   5.12286
  Fe   0.2840880  -0.0117417   0.3492285 SPIN=   5.12286
%ENDBLOCK POSITIONS_FRAC

# Note: total spin =  16.00

KPOINTS_MP_SPACING 0.07

%BLOCK SPECIES_POT
QC5
%ENDBLOCK SPECIES_POT

%BLOCK HUBBARD_U
Fe d:4.0
%ENDBLOCK HUBBARD_U

SNAP_TO_SYMMETRY
SYMMETRY_GENERATE

