#              Generated by Buildcell
#
# at 22:41:44 (GMT+0.0) 26th November 2020
# in /lustre/scratch/uccabz1/launch_tmp
# on node-c12l-026
# by uccabz1
#
# compiler GCC version 4.9.2
# options -cpp -iprefix /lustre/shared/ucl/apps/gcc/4.9.2/bin/../lib/gcc/x86_64-unknown-linux-gnu/4.9.2/ -mtune=corei7 -march=x86-64 -g -Og
#
# seed   562557201  1257747816  1700144891 -1980115716  -486803760  1715527756 -1086845396   811296913  -926902755 -1645379858  1666483661 -1263661171
#
#      Author: C. J. Pickard (cjp20@cam.ac.uk)
#                Space group: P2
#

%BLOCK LATTICE_ABC
      6.07449      6.26778      8.40642
     91.13220     90.00000     90.00000
%ENDBLOCK LATTICE_ABC

%BLOCK POSITIONS_FRAC
  Li  -0.4517074  -0.2720554  -0.4363890 SPIN=   0.00000
  Li  -0.4517074   0.2720554   0.4363890 SPIN=   0.00000
  Li  -0.0143018   0.5000000  -0.5000000 SPIN=   0.00000
  Li   0.0186824   0.0000000  -0.5000000 SPIN=   0.00000
   O   0.5622466   0.3656082   0.1597288 SPIN=   0.00000
   O   0.1962513   0.2915792   0.3087299 SPIN=   0.00000
   O   0.1884027   0.3062605   0.0153841 SPIN=   0.00000
   O   0.3708084  -0.0022904   0.1467571 SPIN=   0.00000
   P   0.3423121   0.2440993   0.1576321 SPIN=   0.00000
   O   0.5622466  -0.3656082  -0.1597288 SPIN=   0.00000
   O   0.1962513  -0.2915792  -0.3087299 SPIN=   0.00000
   O   0.1884027  -0.3062605  -0.0153841 SPIN=   0.00000
   O   0.3708084   0.0022904  -0.1467571 SPIN=   0.00000
   P   0.3423121  -0.2440993  -0.1576321 SPIN=   0.00000
   O  -0.0252541  -0.0255803   0.2536297 SPIN=   0.00000
   O  -0.3945919  -0.2106463   0.3234107 SPIN=   0.00000
   O  -0.1786959  -0.3542623   0.0965039 SPIN=   0.00000
   P  -0.1510344  -0.2378965   0.2628016 SPIN=   0.00000
   O  -0.0252541   0.0255803  -0.2536297 SPIN=   0.00000
   O  -0.3945919   0.2106463  -0.3234107 SPIN=   0.00000
   O  -0.1786959   0.3542623  -0.0965039 SPIN=   0.00000
   P  -0.1510344   0.2378965  -0.2628016 SPIN=   0.00000
   O  -0.2780074   0.0000000   0.0000000 SPIN=   0.00000
   O   0.3638334   0.0000000   0.5000000 SPIN=   0.00000
  Fe   0.3095396   0.3108030  -0.2176021 SPIN=   2.54121
  Fe   0.3095396  -0.3108030   0.2176021 SPIN=   2.54121
  Fe  -0.1201848   0.2492154   0.1338566 SPIN=   5.45879
  Fe  -0.1201848  -0.2492154  -0.1338566 SPIN=   5.45879
%ENDBLOCK POSITIONS_FRAC

# Note: total spin =  16.00

KPOINTS_MP_SPACING 0.07

%BLOCK SPECIES_POT
QC5
%ENDBLOCK SPECIES_POT

%BLOCK HUBBARD_U
Fe d:4.0
%ENDBLOCK HUBBARD_U

SNAP_TO_SYMMETRY
SYMMETRY_GENERATE

