#              Generated by Buildcell
#
# at 20:07:36 (GMT+0.0) 26th November 2020
# in /scratch/scratch/mmm0366/launch_tmp
# on node-k98g-018
# by mmm0366
#
# compiler GCC version 4.9.2
# options -cpp -iprefix /scratch/UCL/applications/gcc/4.9.2/bin/../lib/gcc/x86_64-unknown-linux-gnu/4.9.2/ -mtune=corei7 -march=x86-64 -g -O2
#
# seed  1194689361  -480976933   859071901   129608071  1037470926   278368855  -495759950 -2043477448 -2130385530 -1937809382  -568327828  1383765814
#
#      Author: C. J. Pickard (cjp20@cam.ac.uk)
#                Space group: P-1
#

%BLOCK LATTICE_ABC
      6.61547      6.99684      7.90253
     75.91771     69.94538     70.23947
%ENDBLOCK LATTICE_ABC

%BLOCK POSITIONS_FRAC
  Li  -0.0790599   0.0418951   0.1950043 SPIN=   0.00000
  Li   0.0790599  -0.0418951  -0.1950043 SPIN=   0.00000
  Li   0.5000000  -0.5000000  -0.0000000 SPIN=   0.00000
  Li  -0.5000000  -0.0000000   0.5000000 SPIN=   0.00000
   O  -0.8251170   0.1541176   0.4576818 SPIN=   0.00000
   O  -0.4721415   0.2159802   0.2016947 SPIN=   0.00000
   O  -0.7972850   0.2192074   0.1134921 SPIN=   0.00000
   O  -0.8219144   0.5077964   0.2616537 SPIN=   0.00000
   P  -0.7353212   0.2706334   0.2692647 SPIN=   0.00000
   O   0.8251170  -0.1541176  -0.4576818 SPIN=   0.00000
   O   0.4721415  -0.2159802  -0.2016947 SPIN=   0.00000
   O   0.7972850  -0.2192074  -0.1134921 SPIN=   0.00000
   O   0.8219144  -0.5077964  -0.2616537 SPIN=   0.00000
   P   0.7353212  -0.2706334  -0.2692647 SPIN=   0.00000
   O   0.5827980   0.1643401  -0.2629569 SPIN=   0.00000
   O   0.1528124   0.2305756  -0.1894254 SPIN=   0.00000
   O   0.2970170   0.5212811  -0.2117157 SPIN=   0.00000
   O   0.3644201   0.3782345  -0.4937941 SPIN=   0.00000
   P   0.3618754   0.3157723  -0.2904724 SPIN=   0.00000
   O  -0.5827980  -0.1643401   0.2629569 SPIN=   0.00000
   O  -0.1528124  -0.2305756   0.1894254 SPIN=   0.00000
   O  -0.2970170  -0.5212811   0.2117157 SPIN=   0.00000
   O  -0.3644201  -0.3782345   0.4937941 SPIN=   0.00000
   P  -0.3618754  -0.3157723   0.2904724 SPIN=   0.00000
  Fe  -0.8247630  -0.3105307   0.4759937 SPIN=   1.80702
  Fe   0.8247630   0.3105307  -0.4759937 SPIN=   1.80702
  Fe  -0.5000000  -0.0000000   0.0000000 SPIN=   0.55039
  Fe  -0.0000000   0.5000000   0.0000000 SPIN=  11.83557
%ENDBLOCK POSITIONS_FRAC

# Note: total spin =  16.00

KPOINTS_MP_SPACING 0.07

%BLOCK SPECIES_POT
QC5
%ENDBLOCK SPECIES_POT

%BLOCK HUBBARD_U
Fe d:4.0
%ENDBLOCK HUBBARD_U

SNAP_TO_SYMMETRY
SYMMETRY_GENERATE

