#              Generated by Buildcell
#
# at 10:55:55 (GMT+0.0) 24th November 2020
# in /lustre/scratch/uccabz1/launch_tmp
# on node-c12d-032
# by uccabz1
#
# compiler GCC version 4.9.2
# options -cpp -iprefix /lustre/shared/ucl/apps/gcc/4.9.2/bin/../lib/gcc/x86_64-unknown-linux-gnu/4.9.2/ -mtune=corei7 -march=x86-64 -g -Og
#
# seed  1261617913   636904080  1862417894   884813915   607088563 -1079493838   798642390  1474638111 -1136680045 -1854020631  1344228908   266823429
#
#      Author: C. J. Pickard (cjp20@cam.ac.uk)
#                Space group: P21
#

%BLOCK LATTICE_ABC
      4.08775      5.59648      7.13603
     90.00000    101.45361     90.00000
%ENDBLOCK LATTICE_ABC

%BLOCK POSITIONS_FRAC
  Li   0.1344317  -0.1304264   0.4824650 SPIN=   0.00000
  Li  -0.1344317   0.3695736  -0.4824650 SPIN=   0.00000
   O   0.1990283   0.4034415  -0.1939684 SPIN=   0.00000
   O   0.7475556   0.1573067  -0.1102835 SPIN=   0.00000
   O   0.2146644  -0.0603761  -0.2048385 SPIN=   0.00000
   O   0.4391685   0.1740897  -0.4503445 SPIN=   0.00000
   P   0.3898590   0.1811834  -0.2398993 SPIN=   0.00000
   O  -0.1990283  -0.0965585   0.1939684 SPIN=   0.00000
   O  -0.7475556  -0.3426933   0.1102835 SPIN=   0.00000
   O  -0.2146644  -0.5603761   0.2048385 SPIN=   0.00000
   O  -0.4391685  -0.3259103   0.4503445 SPIN=   0.00000
   P  -0.3898590  -0.3188166   0.2398993 SPIN=   0.00000
  Fe  -0.2794238  -0.2670970  -0.1425910 SPIN=   4.00000
  Fe   0.2794238   0.2329030   0.1425910 SPIN=   4.00000
%ENDBLOCK POSITIONS_FRAC

# Note: total spin =   8.00

KPOINTS_MP_SPACING 0.07

%BLOCK SPECIES_POT
QC5
%ENDBLOCK SPECIES_POT

%BLOCK HUBBARD_U
Fe d:4.0
%ENDBLOCK HUBBARD_U

SNAP_TO_SYMMETRY
SYMMETRY_GENERATE

