#              Generated by Buildcell
#
# at 11:15:51 (GMT+0.0) 26th November 2020
# in /lustre/scratch/uccabz1/launch_tmp
# on node-c12n-028
# by uccabz1
#
# compiler GCC version 4.9.2
# options -cpp -iprefix /lustre/shared/ucl/apps/gcc/4.9.2/bin/../lib/gcc/x86_64-unknown-linux-gnu/4.9.2/ -mtune=corei7 -march=x86-64 -g -Og
#
# seed  1635143669  -456641834  1466439656  -403164771  1882923404 -1698630595  1646911854   467632461  -613214699   337766083 -1200728932   600747617
#
#      Author: C. J. Pickard (cjp20@cam.ac.uk)
#                Space group: Pc
#

%BLOCK LATTICE_ABC
      5.18670      7.49838      8.39869
     90.00000    101.57236     90.00000
%ENDBLOCK LATTICE_ABC

%BLOCK POSITIONS_FRAC
  Li  -0.0492405  -0.3366688   0.3520828 SPIN=   0.00000
  Li   0.4507595   0.3366688  -0.1479172 SPIN=   0.00000
  Li   0.4327422  -0.2058530   0.1494441 SPIN=   0.00000
  Li  -0.0672578   0.2058530  -0.3505559 SPIN=   0.00000
   O   0.5476318  -0.3300783  -0.3349966 SPIN=   0.00000
   O   0.5639352  -0.6539420  -0.4424739 SPIN=   0.00000
   O   0.1349308  -0.5329749  -0.4092543 SPIN=   0.00000
   O   0.3455731  -0.4158605  -0.6316354 SPIN=   0.00000
   P   0.4053651  -0.4742654  -0.4503116 SPIN=   0.00000
   O   0.0476318   0.3300783   0.1650034 SPIN=   0.00000
   O   0.0639352   0.6539420   0.0575261 SPIN=   0.00000
   O  -0.3650692   0.5329749   0.0907457 SPIN=   0.00000
   O  -0.1544269   0.4158605  -0.1316354 SPIN=   0.00000
   P  -0.0946349   0.4742654   0.0496884 SPIN=   0.00000
   O   0.5806202  -0.1832575  -0.0661515 SPIN=   0.00000
   O   0.5128605   0.0878513  -0.2627622 SPIN=   0.00000
   O   0.1333600  -0.1089782  -0.2559962 SPIN=   0.00000
   O   0.3030517   0.0904654  -0.0189467 SPIN=   0.00000
   P   0.3920862  -0.0353172  -0.1448903 SPIN=   0.00000
   O   0.0806202   0.1832575   0.4338485 SPIN=   0.00000
   O   0.0128605  -0.0878513   0.2372378 SPIN=   0.00000
   O  -0.3666400   0.1089782   0.2440038 SPIN=   0.00000
   O  -0.1969483  -0.0904654   0.4810533 SPIN=   0.00000
   P  -0.1079138   0.0353172   0.3551097 SPIN=   0.00000
  Fe   0.4176234  -0.0532816  -0.4827198 SPIN=   2.61845
  Fe  -0.0823766   0.0532816   0.0172802 SPIN=   2.61845
  Fe  -0.0252350  -0.3662366  -0.2519752 SPIN=   5.38155
  Fe   0.4747650   0.3662366   0.2480248 SPIN=   5.38155
%ENDBLOCK POSITIONS_FRAC

# Note: total spin =  16.00

KPOINTS_MP_SPACING 0.07

%BLOCK SPECIES_POT
QC5
%ENDBLOCK SPECIES_POT

%BLOCK HUBBARD_U
Fe d:4.0
%ENDBLOCK HUBBARD_U

SNAP_TO_SYMMETRY
SYMMETRY_GENERATE

