#              Generated by Buildcell
#
# at 08:25:23 (GMT+0.0) 24th November 2020
# in /lustre/scratch/uccabz1/launch_tmp
# on node-c12o-027
# by uccabz1
#
# compiler GCC version 4.9.2
# options -cpp -iprefix /lustre/shared/ucl/apps/gcc/4.9.2/bin/../lib/gcc/x86_64-unknown-linux-gnu/4.9.2/ -mtune=corei7 -march=x86-64 -g -Og
#
# seed  -304749199  -691991920  1232046762  1781056027 -1208246595 -1305848950 -1167392978   717403083   109056966  1601366481   440224359  -774641869
#
#      Author: C. J. Pickard (cjp20@cam.ac.uk)
#                Space group: I-4
#

%BLOCK LATTICE_ABC
      5.47181      5.47181      6.59754
    114.49955    114.49955     90.00000
%ENDBLOCK LATTICE_ABC

%BLOCK POSITIONS_FRAC
  Li  -0.2516803  -0.2516803   0.4966393 SPIN=   0.00000
  Li   0.2516803   0.2516803  -0.4966393 SPIN=   0.00000
   O  -0.1398547  -0.6308625  -0.6529077 SPIN=   0.00000
   O   0.1366340  -0.3528498  -0.1694629 SPIN=   0.00000
   O  -0.5130530  -0.0220452  -0.6529077 SPIN=   0.00000
   O  -0.3060968   0.1833870  -0.1694629 SPIN=   0.00000
   O   0.0220452   0.1398547   0.6529077 SPIN=   0.00000
   O  -0.1833870  -0.1366340   0.1694629 SPIN=   0.00000
   O   0.6308625   0.5130530   0.6529077 SPIN=   0.00000
   O   0.3528498   0.3060968   0.1694629 SPIN=   0.00000
   P  -0.2500000   0.2500000   0.5000000 SPIN=   0.00000
   P  -0.0000000  -0.0000000  -0.0000000 SPIN=   0.00000
  Fe   0.4316092  -0.0683908  -0.1367816 SPIN=   4.00000
  Fe   0.0683908  -0.4316092   0.1367816 SPIN=   4.00000
%ENDBLOCK POSITIONS_FRAC

# Note: total spin =   8.00

KPOINTS_MP_SPACING 0.07

%BLOCK SPECIES_POT
QC5
%ENDBLOCK SPECIES_POT

%BLOCK HUBBARD_U
Fe d:4.0
%ENDBLOCK HUBBARD_U

SNAP_TO_SYMMETRY
SYMMETRY_GENERATE

