#              Generated by Buildcell
#
# at 14:13:47 (GMT+0.0) 24th November 2020
# in /lustre/scratch/uccabz1/launch_tmp
# on node-c12e-031
# by uccabz1
#
# compiler GCC version 4.9.2
# options -cpp -iprefix /lustre/shared/ucl/apps/gcc/4.9.2/bin/../lib/gcc/x86_64-unknown-linux-gnu/4.9.2/ -mtune=corei7 -march=x86-64 -g -Og
#
# seed  1884864356 -1990881062  -595821413    86698368   810239753  1307006414 -1038822006  -179115541 -1375195555  -637981260  -403044872  1495422453
#
#      Author: C. J. Pickard (cjp20@cam.ac.uk)
#                Space group: Cm
#

%BLOCK LATTICE_ABC
      4.70970      6.20655      6.20655
     88.65375     70.31161     70.31161
%ENDBLOCK LATTICE_ABC

%BLOCK POSITIONS_FRAC
  Li   0.2748901  -0.1853080   0.1900297 SPIN=   0.00000
  Li   0.2748901   0.1900297  -0.1853080 SPIN=   0.00000
   O  -0.6941565  -0.1024572   0.5591269 SPIN=   0.00000
   O  -0.0768582  -0.2477972   0.4710279 SPIN=   0.00000
   O  -0.2767754  -0.1324073   0.1503952 SPIN=   0.00000
   O  -0.3658600   0.1686256   0.4517244 SPIN=   0.00000
   P  -0.3717023  -0.0768677   0.4166269 SPIN=   0.00000
   O  -0.6941565   0.5591269  -0.1024572 SPIN=   0.00000
   O  -0.0768582   0.4710279  -0.2477972 SPIN=   0.00000
   O  -0.2767754   0.1503952  -0.1324073 SPIN=   0.00000
   O  -0.3658600   0.4517244   0.1686256 SPIN=   0.00000
   P  -0.3717023   0.4166269  -0.0768677 SPIN=   0.00000
  Fe  -0.0690243   0.3669952   0.3669952 SPIN=   4.61335
  Fe  -0.0448738  -0.2050632  -0.2050632 SPIN=   3.38665
%ENDBLOCK POSITIONS_FRAC

# Note: total spin =   8.00

KPOINTS_MP_SPACING 0.07

%BLOCK SPECIES_POT
QC5
%ENDBLOCK SPECIES_POT

%BLOCK HUBBARD_U
Fe d:4.0
%ENDBLOCK HUBBARD_U

SNAP_TO_SYMMETRY
SYMMETRY_GENERATE

