#              Generated by Buildcell
#
# at 11:25:22 (GMT+0.0) 24th November 2020
# in /scratch/scratch/uccabz1/launch_tmp
# on node-a14e-019
# by uccabz1
#
# compiler GCC version 4.9.2
# options -cpp -iprefix /scratch/UCL/applications/gcc/4.9.2/bin/../lib/gcc/x86_64-unknown-linux-gnu/4.9.2/ -mtune=corei7 -march=x86-64 -g -O2
#
# seed -1493885120  1152557048  1045699027 -1473326470  1967414410  -656444056  -514982906  1265522919 -1941727125 -1376718702   836174502    72010689
#
#      Author: C. J. Pickard (cjp20@cam.ac.uk)
#                Space group: Pmn21
#

%BLOCK LATTICE_ABC
      3.89530      5.68417      7.22623
     90.00000     90.00000     90.00000
%ENDBLOCK LATTICE_ABC

%BLOCK POSITIONS_FRAC
  Li  -0.1207760   0.0000000  -0.4161065 SPIN=   0.00000
  Li   0.3792240   0.5000000   0.4161065 SPIN=   0.00000
   O   0.4143841   0.2199153   0.1102164 SPIN=   0.00000
   O  -0.1025692   0.2801156   0.3324058 SPIN=   0.00000
   O  -0.0856159   0.2800847  -0.1102164 SPIN=   0.00000
   O  -0.6025692   0.2198844  -0.3324058 SPIN=   0.00000
   O  -0.0856159  -0.2800847  -0.1102164 SPIN=   0.00000
   O  -0.6025692  -0.2198844  -0.3324058 SPIN=   0.00000
   O   0.4143841  -0.2199153   0.1102164 SPIN=   0.00000
   O  -0.1025692  -0.2801156   0.3324058 SPIN=   0.00000
   P   0.3792246  -0.0000000  -0.1613429 SPIN=   0.00000
   P  -0.1207754  -0.5000000   0.1613429 SPIN=   0.00000
  Fe  -0.1207760  -0.0000000   0.1286473 SPIN=   4.00000
  Fe   0.3792240  -0.5000000  -0.1286473 SPIN=   4.00000
%ENDBLOCK POSITIONS_FRAC

# Note: total spin =   8.00

KPOINTS_MP_SPACING 0.07

%BLOCK SPECIES_POT
QC5
%ENDBLOCK SPECIES_POT

%BLOCK HUBBARD_U
Fe d:4.0
%ENDBLOCK HUBBARD_U

SNAP_TO_SYMMETRY
SYMMETRY_GENERATE

