#              Generated by Buildcell
#
# at 14:44:05 (GMT+0.0) 24th November 2020
# in /scratch/scratch/uccabz1/launch_tmp
# on node-k10i-019
# by uccabz1
#
# compiler GCC version 4.9.2
# options -cpp -iprefix /scratch/UCL/applications/gcc/4.9.2/bin/../lib/gcc/x86_64-unknown-linux-gnu/4.9.2/ -mtune=corei7 -march=x86-64 -g -O2
#
# seed -1001166189 -1576070635    36476822 -1715505068 -1076302419  -404446306  -505376809 -1533982138   765165343  1222044926   397664833  -446168112
#
#      Author: C. J. Pickard (cjp20@cam.ac.uk)
#                Space group: P-1
#

%BLOCK LATTICE_ABC
      4.03540      6.04091      7.09344
     97.13499     97.06820    108.76229
%ENDBLOCK LATTICE_ABC

%BLOCK POSITIONS_FRAC
  Li   0.5000000  -0.0000000   0.5000000 SPIN=   0.00000
  Li   0.5000000  -0.0000000   0.0000000 SPIN=   0.00000
   O  -0.0287809  -0.2850393   0.4182338 SPIN=   0.00000
   O   0.0779794   0.0537848   0.2158863 SPIN=   0.00000
   O  -0.1581257  -0.3611218   0.0435064 SPIN=   0.00000
   O  -0.5461108  -0.1982255   0.2261526 SPIN=   0.00000
   P  -0.1610847  -0.2023102   0.2361857 SPIN=   0.00000
   O   0.0287809   0.2850393  -0.4182338 SPIN=   0.00000
   O  -0.0779794  -0.0537848  -0.2158863 SPIN=   0.00000
   O   0.1581257   0.3611218  -0.0435064 SPIN=   0.00000
   O   0.5461108   0.1982255  -0.2261526 SPIN=   0.00000
   P   0.1610847   0.2023102  -0.2361857 SPIN=   0.00000
  Fe   1.1742376   0.4479721   0.2582711 SPIN=   4.00000
  Fe  -1.1742376  -0.4479721  -0.2582711 SPIN=   4.00000
%ENDBLOCK POSITIONS_FRAC

# Note: total spin =   8.00

KPOINTS_MP_SPACING 0.07

%BLOCK SPECIES_POT
QC5
%ENDBLOCK SPECIES_POT

%BLOCK HUBBARD_U
Fe d:4.0
%ENDBLOCK HUBBARD_U

SNAP_TO_SYMMETRY
SYMMETRY_GENERATE

