#              Generated by Buildcell
#
# at 10:55:18 (GMT+0.0) 24th November 2020
# in /lustre/scratch/uccabz1/launch_tmp
# on node-c12g-025
# by uccabz1
#
# compiler GCC version 4.9.2
# options -cpp -iprefix /lustre/shared/ucl/apps/gcc/4.9.2/bin/../lib/gcc/x86_64-unknown-linux-gnu/4.9.2/ -mtune=corei7 -march=x86-64 -g -Og
#
# seed   852700011 -1514526121   607019869  2095627725   947093371   -94559746   363947084 -1473936919  -564134658   836793061 -1305096816  -518596729
#
#      Author: C. J. Pickard (cjp20@cam.ac.uk)
#                Space group: Pnc2
#

%BLOCK LATTICE_ABC
      5.30861      5.33002      5.65472
     90.00000     90.00000     90.00000
%ENDBLOCK LATTICE_ABC

%BLOCK POSITIONS_FRAC
  Li  -0.5000000   0.5000000  -0.1004505 SPIN=   0.00000
  Li  -0.5000000  -0.0000000   0.3995495 SPIN=   0.00000
   O   0.1873044   0.2619774  -0.1639497 SPIN=   0.00000
   O   0.2023111   0.6449196   0.1199694 SPIN=   0.00000
   O  -0.1873044  -0.2619774  -0.1639497 SPIN=   0.00000
   O  -0.2023111  -0.6449196   0.1199694 SPIN=   0.00000
   O   0.1873044   0.2380226   0.3360503 SPIN=   0.00000
   O   0.2023111  -0.1449196   0.6199694 SPIN=   0.00000
   O  -0.1873044  -0.2380226   0.3360503 SPIN=   0.00000
   O  -0.2023111   0.1449196   0.6199694 SPIN=   0.00000
   P  -0.5000000  -0.0000000  -0.1277770 SPIN=   0.00000
   P   0.5000000  -0.5000000   0.3722230 SPIN=   0.00000
  Fe   0.0000000   0.0000000   0.0550221 SPIN=   4.00000
  Fe   0.0000000  -0.5000000  -0.4449779 SPIN=   4.00000
%ENDBLOCK POSITIONS_FRAC

# Note: total spin =   8.00

KPOINTS_MP_SPACING 0.07

%BLOCK SPECIES_POT
QC5
%ENDBLOCK SPECIES_POT

%BLOCK HUBBARD_U
Fe d:4.0
%ENDBLOCK HUBBARD_U

SNAP_TO_SYMMETRY
SYMMETRY_GENERATE

