#              Generated by Buildcell
#
# at 01:25:55 (GMT+0.0) 27th November 2020
# in /lustre/scratch/uccabz1/launch_tmp
# on node-c12f-031
# by uccabz1
#
# compiler GCC version 4.9.2
# options -cpp -iprefix /lustre/shared/ucl/apps/gcc/4.9.2/bin/../lib/gcc/x86_64-unknown-linux-gnu/4.9.2/ -mtune=corei7 -march=x86-64 -g -Og
#
# seed   894807732  1067682593  -437338651   947595656   959264889   984501207 -1756882840  1388006309   -87772457 -2025445870 -1840362538  1244793325
#
#      Author: C. J. Pickard (cjp20@cam.ac.uk)
#                Space group: Fmm2
#

%BLOCK LATTICE_ABC
      6.35634      6.35634      9.06540
    106.90202    106.90202     99.82883
%ENDBLOCK LATTICE_ABC

%BLOCK POSITIONS_FRAC
  Li   0.4548659  -0.8527888  -0.3979229 SPIN=   0.00000
  Li  -0.1472112   0.5451341   0.3979229 SPIN=   0.00000
  Li   0.3636249  -0.3636249  -0.5000000 SPIN=   0.00000
  Li  -0.1363751  -0.8636249  -0.5000000 SPIN=   0.00000
   O  -0.2115432   0.0843924   0.2181220 SPIN=   0.00000
   O  -0.4695201   0.1562171   0.3927991 SPIN=   0.00000
   O  -0.4610414   0.3670957   0.2037696 SPIN=   0.00000
   P  -0.4385583   0.1331724   0.2233658 SPIN=   0.00000
   O  -0.0843924  -0.7884568  -0.2181220 SPIN=   0.00000
   O  -0.1562171  -0.5304799  -0.3927991 SPIN=   0.00000
   O  -0.3670957  -0.5389586  -0.2037696 SPIN=   0.00000
   P  -0.1331724  -0.5614417  -0.2233658 SPIN=   0.00000
   O   0.1337296   0.4296651   0.2181220 SPIN=   0.00000
   O   0.2365821   0.8623193   0.3927991 SPIN=   0.00000
   O  -0.1633261   0.6648110   0.2037696 SPIN=   0.00000
   P   0.0901934   0.6619241   0.2233658 SPIN=   0.00000
   O   0.5703349  -0.1337296  -0.2181220 SPIN=   0.00000
   O   0.1376807  -0.2365821  -0.3927991 SPIN=   0.00000
   O   0.3351890   0.1633261  -0.2037696 SPIN=   0.00000
   P   0.3380759  -0.0901934  -0.2233658 SPIN=   0.00000
   O  -0.3604969   0.8006918   0.4401948 SPIN=   0.00000
   O   0.1993082  -0.6395031  -0.4401948 SPIN=   0.00000
   O   0.0037583  -0.3000770   0.0000000 SPIN=   0.00000
   O   0.3000770  -0.0037583   0.0000000 SPIN=   0.00000
  Fe  -0.1180350  -0.1322877  -0.2503227 SPIN=   4.24224
  Fe   0.1322877   0.1180350   0.2503227 SPIN=   4.24224
  Fe  -0.3067621   0.3067621   0.0000000 SPIN=   3.44069
  Fe   0.3255825  -0.3255825  -0.0000000 SPIN=   4.07483
%ENDBLOCK POSITIONS_FRAC

# Note: total spin =  16.00

KPOINTS_MP_SPACING 0.07

%BLOCK SPECIES_POT
QC5
%ENDBLOCK SPECIES_POT

%BLOCK HUBBARD_U
Fe d:4.0
%ENDBLOCK HUBBARD_U

SNAP_TO_SYMMETRY
SYMMETRY_GENERATE

