#              Generated by Buildcell
#
# at 01:46:26 (GMT+0.0) 27th November 2020
# in /lustre/scratch/uccabz1/launch_tmp
# on node-c12e-023
# by uccabz1
#
# compiler GCC version 4.9.2
# options -cpp -iprefix /lustre/shared/ucl/apps/gcc/4.9.2/bin/../lib/gcc/x86_64-unknown-linux-gnu/4.9.2/ -mtune=corei7 -march=x86-64 -g -Og
#
# seed   279253902  1141203612   680157854 -1435333107   988545715  -998063691  1193480943   -94082236 -1687523514  -840343410   912207590  1844511656
#
#      Author: C. J. Pickard (cjp20@cam.ac.uk)
#                Space group: P-1
#

%BLOCK LATTICE_ABC
      6.40852      7.59861      7.88800
    109.12966    106.39085    105.34227
%ENDBLOCK LATTICE_ABC

%BLOCK POSITIONS_FRAC
  Li  -0.0503876   0.3712835   0.2018462 SPIN=   0.00000
  Li   0.0503876  -0.3712835  -0.2018462 SPIN=   0.00000
  Li   0.2902950  -0.0118853  -0.2689303 SPIN=   0.00000
  Li  -0.2902950   0.0118853   0.2689303 SPIN=   0.00000
   O  -0.5583915  -0.2210829  -0.0443678 SPIN=   0.00000
   O  -0.2351498  -0.3158649  -0.1431709 SPIN=   0.00000
   O  -0.4450988  -0.1542680  -0.3154528 SPIN=   0.00000
   O  -0.1575224   0.0500724   0.0359286 SPIN=   0.00000
   P  -0.3579274  -0.1610405  -0.1111089 SPIN=   0.00000
   O   0.5583915   0.2210829   0.0443678 SPIN=   0.00000
   O   0.2351498   0.3158649   0.1431709 SPIN=   0.00000
   O   0.4450988   0.1542680   0.3154528 SPIN=   0.00000
   O   0.1575224  -0.0500724  -0.0359286 SPIN=   0.00000
   P   0.3579274   0.1610405   0.1111089 SPIN=   0.00000
   O   0.2388674   0.5249957  -0.3925440 SPIN=   0.00000
   O   0.0875391   0.1413791  -0.6199029 SPIN=   0.00000
   O   0.2332063   0.2521239  -0.2616878 SPIN=   0.00000
   O  -0.1504686   0.2627749  -0.4411283 SPIN=   0.00000
   P   0.1065756   0.3071635  -0.4270298 SPIN=   0.00000
   O  -0.2388674  -0.5249957   0.3925440 SPIN=   0.00000
   O  -0.0875391  -0.1413791   0.6199029 SPIN=   0.00000
   O  -0.2332063  -0.2521239   0.2616878 SPIN=   0.00000
   O   0.1504686  -0.2627749   0.4411283 SPIN=   0.00000
   P  -0.1065756  -0.3071635   0.4270298 SPIN=   0.00000
  Fe   0.1728247  -0.1078955   0.2658562 SPIN=   2.04161
  Fe  -0.1728247   0.1078955  -0.2658562 SPIN=   2.04161
  Fe   0.5000000  -0.5000000   0.0000000 SPIN=   3.39692
  Fe   0.5000000   0.5000000   0.5000000 SPIN=   8.51985
%ENDBLOCK POSITIONS_FRAC

# Note: total spin =  16.00

KPOINTS_MP_SPACING 0.07

%BLOCK SPECIES_POT
QC5
%ENDBLOCK SPECIES_POT

%BLOCK HUBBARD_U
Fe d:4.0
%ENDBLOCK HUBBARD_U

SNAP_TO_SYMMETRY
SYMMETRY_GENERATE

