#              Generated by Buildcell
#
# at 13:58:39 (GMT+0.0) 26th November 2020
# in /lustre/scratch/uccabz1/launch_tmp
# on node-c12d-022
# by uccabz1
#
# compiler GCC version 4.9.2
# options -cpp -iprefix /lustre/shared/ucl/apps/gcc/4.9.2/bin/../lib/gcc/x86_64-unknown-linux-gnu/4.9.2/ -mtune=corei7 -march=x86-64 -g -Og
#
# seed   585239909 -1715469119  1817172706  1371881197  1266575186  -213539103 -1839719073  -470416863   295412611 -1676266269 -1995918268  -656038419
#
#      Author: C. J. Pickard (cjp20@cam.ac.uk)
#                Space group: I-4
#

%BLOCK LATTICE_ABC
      7.53303      7.53303      7.66496
    119.43225    119.43225     90.00000
%ENDBLOCK LATTICE_ABC

%BLOCK POSITIONS_FRAC
  Li   0.2502539   0.2502539   0.5005077 SPIN=   0.00000
  Li  -0.2502539  -0.2502539  -0.5005077 SPIN=   0.00000
  Li  -0.3516310   0.1483690   0.2967379 SPIN=   0.00000
  Li  -0.1483690   0.3516310  -0.2967379 SPIN=   0.00000
   O   0.0494153  -0.5938937  -0.6115401 SPIN=   0.00000
   O   0.1693000  -0.6104847  -0.2403606 SPIN=   0.00000
   O   0.3759118  -0.3038380  -0.1747699 SPIN=   0.00000
   O   0.0036689  -0.3300788  -0.2708541 SPIN=   0.00000
   O  -0.6609554  -0.0176464  -0.6115401 SPIN=   0.00000
   O  -0.4096607   0.3701240  -0.2403606 SPIN=   0.00000
   O  -0.5506817   0.1290681  -0.1747699 SPIN=   0.00000
   O  -0.2745230   0.0592247  -0.2708541 SPIN=   0.00000
   O   0.5938937   0.6609554   1.6115401 SPIN=   0.00000
   O   0.6104847   0.4096607   1.2403606 SPIN=   0.00000
   O   0.3038380   0.5506817   1.1747699 SPIN=   0.00000
   O   0.3300788   0.2745230   1.2708541 SPIN=   0.00000
   O   0.0176464  -0.0494153  -0.3884599 SPIN=   0.00000
   O  -0.3701240  -0.1693000  -0.7596394 SPIN=   0.00000
   O  -0.1290681  -0.3759118  -0.8252301 SPIN=   0.00000
   O  -0.0592247  -0.0036689  -0.7291459 SPIN=   0.00000
   P   0.1048391  -0.3951609   0.2096782 SPIN=   0.00000
   P   0.3951609  -0.1048391  -0.2096782 SPIN=   0.00000
   P   0.5000000   0.5000000   1.0000000 SPIN=   0.00000
   P   0.0000000  -0.0000000   0.0000000 SPIN=   0.00000
  Fe  -0.2849814  -0.2646973  -1.0437446 SPIN=   4.00000
  Fe   0.2412368   0.2209527   0.9562554 SPIN=   4.00000
  Fe   0.2646973  -0.2412368   0.0437446 SPIN=   4.00000
  Fe  -0.2209527   0.2849814   0.0437446 SPIN=   4.00000
%ENDBLOCK POSITIONS_FRAC

# Note: total spin =  16.00

KPOINTS_MP_SPACING 0.07

%BLOCK SPECIES_POT
QC5
%ENDBLOCK SPECIES_POT

%BLOCK HUBBARD_U
Fe d:4.0
%ENDBLOCK HUBBARD_U

SNAP_TO_SYMMETRY
SYMMETRY_GENERATE

