#              Generated by Buildcell
#
# at 14:00:10 (GMT+0.0) 24th November 2020
# in /lustre/scratch/uccabz1/launch_tmp
# on node-c12c-026
# by uccabz1
#
# compiler GCC version 4.9.2
# options -cpp -iprefix /lustre/shared/ucl/apps/gcc/4.9.2/bin/../lib/gcc/x86_64-unknown-linux-gnu/4.9.2/ -mtune=corei7 -march=x86-64 -g -Og
#
# seed  -972014039  1777992992 -1702599547   175429194  1071309976   296205644  -457586752  -484110288  1259889387  -973930021  2060840433  1474855691
#
#      Author: C. J. Pickard (cjp20@cam.ac.uk)
#                Space group: C2
#

%BLOCK LATTICE_ABC
      5.08581      5.08581      6.54715
     78.18681     78.18681     78.41414
%ENDBLOCK LATTICE_ABC

%BLOCK POSITIONS_FRAC
  Li   0.2700277   0.3125105  -0.3341219 SPIN=   0.00000
  Li  -0.3125105  -0.2700277   0.3341219 SPIN=   0.00000
   O  -0.0805982   0.0377814   0.3107812 SPIN=   0.00000
   O  -0.4162281   0.0117848   0.0678215 SPIN=   0.00000
   O  -0.6003866   0.0517829   0.4417550 SPIN=   0.00000
   O  -0.4356700   0.4510523   0.1912741 SPIN=   0.00000
   O  -0.0377814   0.0805982  -0.3107812 SPIN=   0.00000
   O  -0.0117848   0.4162281  -0.0678215 SPIN=   0.00000
   O  -0.0517829   0.6003866  -0.4417550 SPIN=   0.00000
   O  -0.4510523   0.4356700  -0.1912741 SPIN=   0.00000
   P  -0.2143770   0.2143770  -0.0000000 SPIN=   0.00000
   P   0.1609378  -0.1609378   0.5000000 SPIN=   0.00000
  Fe  -0.2960252  -0.2212047  -0.1757056 SPIN=   4.00000
  Fe   0.2212047   0.2960252   0.1757056 SPIN=   4.00000
%ENDBLOCK POSITIONS_FRAC

# Note: total spin =   8.00

KPOINTS_MP_SPACING 0.07

%BLOCK SPECIES_POT
QC5
%ENDBLOCK SPECIES_POT

%BLOCK HUBBARD_U
Fe d:4.0
%ENDBLOCK HUBBARD_U

SNAP_TO_SYMMETRY
SYMMETRY_GENERATE

