#              Generated by Buildcell
#
# at 20:38:11 (GMT+0.0) 26th November 2020
# in /lustre/scratch/uccabz1/launch_tmp
# on node-c12i-035
# by uccabz1
#
# compiler GCC version 4.9.2
# options -cpp -iprefix /lustre/shared/ucl/apps/gcc/4.9.2/bin/../lib/gcc/x86_64-unknown-linux-gnu/4.9.2/ -mtune=corei7 -march=x86-64 -g -Og
#
# seed    -8008114  -583921521   -28676541 -1796529668  -605110659   542701443  2100032030  1085542689  1368866907   519522390  1771257771  1345846695
#
#      Author: C. J. Pickard (cjp20@cam.ac.uk)
#                Space group: P21
#

%BLOCK LATTICE_ABC
      4.91931      7.58322      8.58270
     91.87003     90.00000     90.00000
%ENDBLOCK LATTICE_ABC

%BLOCK POSITIONS_FRAC
  Li  -0.3538370  -0.1205071   0.4724381 SPIN=   0.00000
  Li   0.1461630   0.1205071  -0.4724381 SPIN=   0.00000
  Li  -0.3745970   0.0990314   0.1829337 SPIN=   0.00000
  Li   0.1254030  -0.0990314  -0.1829337 SPIN=   0.00000
   O  -0.5426389   0.5099098   0.1494526 SPIN=   0.00000
   O  -0.2714587   0.5856119   0.4026443 SPIN=   0.00000
   O  -0.4895950   0.2928486   0.3755026 SPIN=   0.00000
   O  -0.0847314   0.3607812   0.2110431 SPIN=   0.00000
   P  -0.3544208   0.4402518   0.2765927 SPIN=   0.00000
   O  -0.0426389  -0.5099098  -0.1494526 SPIN=   0.00000
   O   0.2285413  -0.5856119  -0.4026443 SPIN=   0.00000
   O   0.0104050  -0.2928486  -0.3755026 SPIN=   0.00000
   O   0.4152686  -0.3607812  -0.2110431 SPIN=   0.00000
   P   0.1455792  -0.4402518  -0.2765927 SPIN=   0.00000
   O  -0.3122118  -0.0314360  -0.0347078 SPIN=   0.00000
   O  -0.5244779  -0.0379795  -0.3120209 SPIN=   0.00000
   O  -0.5233549   0.2442112  -0.1599344 SPIN=   0.00000
   O  -0.0850857   0.1219683  -0.2653790 SPIN=   0.00000
   P  -0.3554104   0.0691307  -0.1854358 SPIN=   0.00000
   O   0.1877882   0.0314360   0.0347078 SPIN=   0.00000
   O  -0.0244779   0.0379795   0.3120209 SPIN=   0.00000
   O  -0.0233549  -0.2442112   0.1599344 SPIN=   0.00000
   O   0.4149143  -0.1219683   0.2653790 SPIN=   0.00000
   P   0.1445896  -0.0691307   0.1854358 SPIN=   0.00000
  Fe   0.1456207  -0.3858855   0.3579070 SPIN=   2.94011
  Fe  -0.3543793   0.3858855  -0.3579070 SPIN=   2.94011
  Fe   0.1435509   0.2993048  -0.0132910 SPIN=   5.05989
  Fe  -0.3564491  -0.2993048   0.0132910 SPIN=   5.05989
%ENDBLOCK POSITIONS_FRAC

# Note: total spin =  16.00

KPOINTS_MP_SPACING 0.07

%BLOCK SPECIES_POT
QC5
%ENDBLOCK SPECIES_POT

%BLOCK HUBBARD_U
Fe d:4.0
%ENDBLOCK HUBBARD_U

SNAP_TO_SYMMETRY
SYMMETRY_GENERATE

