#              Generated by Buildcell
#
# at 09:59:20 (GMT+0.0) 24th November 2020
# in /lustre/scratch/uccabz1/launch_tmp
# on node-c12o-027
# by uccabz1
#
# compiler GCC version 4.9.2
# options -cpp -iprefix /lustre/shared/ucl/apps/gcc/4.9.2/bin/../lib/gcc/x86_64-unknown-linux-gnu/4.9.2/ -mtune=corei7 -march=x86-64 -g -Og
#
# seed  -183223473 -1154279582  -979623116 -1183497577  -804559018 -1982876089  1609561724  -475871472   234685150 -1382309126  -211884352 -1869866147
#
#      Author: C. J. Pickard (cjp20@cam.ac.uk)
#                Space group: P42
#

%BLOCK LATTICE_ABC
      4.66510      4.66510      7.35186
     90.00000     90.00000     90.00000
%ENDBLOCK LATTICE_ABC

%BLOCK POSITIONS_FRAC
  Li  -0.5000000  -0.0000000  -0.0486373 SPIN=   0.00000
  Li   0.0000000   0.5000000   0.4513627 SPIN=   0.00000
   O  -0.7275509   0.2632095  -0.3681063 SPIN=   0.00000
   O  -0.2193034   0.2172976  -0.2265988 SPIN=   0.00000
   O   0.7275509  -0.2632095  -0.3681063 SPIN=   0.00000
   O   0.2193034  -0.2172976  -0.2265988 SPIN=   0.00000
   O   0.2632095   0.7275509   0.1318937 SPIN=   0.00000
   O   0.2172976   0.2193034   0.2734012 SPIN=   0.00000
   O  -0.2632095  -0.7275509   0.1318937 SPIN=   0.00000
   O  -0.2172976  -0.2193034   0.2734012 SPIN=   0.00000
   P   0.0000000  -0.0000000   0.1775309 SPIN=   0.00000
   P  -0.0000000   0.0000000  -0.3224691 SPIN=   0.00000
  Fe  -0.0000000   0.5000000  -0.0497982 SPIN=   4.00000
  Fe  -0.5000000  -0.0000000   0.4502018 SPIN=   4.00000
%ENDBLOCK POSITIONS_FRAC

# Note: total spin =   8.00

KPOINTS_MP_SPACING 0.07

%BLOCK SPECIES_POT
QC5
%ENDBLOCK SPECIES_POT

%BLOCK HUBBARD_U
Fe d:4.0
%ENDBLOCK HUBBARD_U

SNAP_TO_SYMMETRY
SYMMETRY_GENERATE

