#              Generated by Buildcell
#
# at 13:09:43 (GMT+0.0) 24th November 2020
# in /scratch/scratch/uccabz1/launch_tmp
# on node-a14f-013
# by uccabz1
#
# compiler GCC version 4.9.2
# options -cpp -iprefix /scratch/UCL/applications/gcc/4.9.2/bin/../lib/gcc/x86_64-unknown-linux-gnu/4.9.2/ -mtune=corei7 -march=x86-64 -g -O2
#
# seed -1680446308   205765055 -1911243448  1368559485  1907349338 -1475010159  -472629654  1962922926  -357239902   966434850  1831735025  -488657129
#
#      Author: C. J. Pickard (cjp20@cam.ac.uk)
#                Space group: C222
#

%BLOCK LATTICE_ABC
      5.44217      5.53279      5.99076
    117.50186     90.00000     90.00000
%ENDBLOCK LATTICE_ABC

%BLOCK POSITIONS_FRAC
  Li  -0.5000000   0.5000000  -0.0000000 SPIN=   0.00000
  Li   0.0000000  -0.0000000  -0.0000000 SPIN=   0.00000
   O   0.2883057   0.2449728  -0.3170790 SPIN=   0.00000
   O   0.3082614   0.2512049   0.1188493 SPIN=   0.00000
   O   0.2883057  -0.2449728   0.3170790 SPIN=   0.00000
   O   0.3082614  -0.2512049  -0.1188493 SPIN=   0.00000
   O  -0.2883057  -0.5620517  -0.3170790 SPIN=   0.00000
   O  -0.3082614  -0.1323557   0.1188493 SPIN=   0.00000
   O  -0.2883057   0.5620517   0.3170790 SPIN=   0.00000
   O  -0.3082614   0.1323557  -0.1188493 SPIN=   0.00000
   P  -0.5000000   0.0000000   0.0000000 SPIN=   0.00000
   P   0.0000000  -0.5000000   0.0000000 SPIN=   0.00000
  Fe   0.2490591   0.5000000   0.5000000 SPIN=   4.00000
  Fe  -0.2490591  -0.0000000   0.5000000 SPIN=   4.00000
%ENDBLOCK POSITIONS_FRAC

# Note: total spin =   8.00

KPOINTS_MP_SPACING 0.07

%BLOCK SPECIES_POT
QC5
%ENDBLOCK SPECIES_POT

%BLOCK HUBBARD_U
Fe d:4.0
%ENDBLOCK HUBBARD_U

SNAP_TO_SYMMETRY
SYMMETRY_GENERATE

