#              Generated by Buildcell
#
# at 14:23:36 (GMT+0.0) 24th November 2020
# in /lustre/scratch/uccabz1/launch_tmp
# on node-c12g-025
# by uccabz1
#
# compiler GCC version 4.9.2
# options -cpp -iprefix /lustre/shared/ucl/apps/gcc/4.9.2/bin/../lib/gcc/x86_64-unknown-linux-gnu/4.9.2/ -mtune=corei7 -march=x86-64 -g -Og
#
# seed   400722688  -386696616  -379232343  1165151873  -801151601 -1063370397  -786009581 -1913743283   413283374 -1231608852    18573470   162351010
#
#      Author: C. J. Pickard (cjp20@cam.ac.uk)
#                Space group: P-1
#

%BLOCK LATTICE_ABC
      4.88099      5.85073      6.47954
     93.52498    108.06792    111.82163
%ENDBLOCK LATTICE_ABC

%BLOCK POSITIONS_FRAC
  Li   0.3807564   0.0268806   0.1868102 SPIN=   0.00000
  Li  -0.3807564  -0.0268806  -0.1868102 SPIN=   0.00000
   O  -0.1498783  -0.1481968  -0.3773822 SPIN=   0.00000
   O  -0.2804772  -0.3692108  -0.0628206 SPIN=   0.00000
   O  -0.2218271  -0.6088245  -0.3614879 SPIN=   0.00000
   O   0.2558540  -0.2568539  -0.0850322 SPIN=   0.00000
   P  -0.0975982  -0.3342023  -0.2283584 SPIN=   0.00000
   O   0.1498783   0.1481968   0.3773822 SPIN=   0.00000
   O   0.2804772   0.3692108   0.0628206 SPIN=   0.00000
   O   0.2218271   0.6088245   0.3614879 SPIN=   0.00000
   O  -0.2558540   0.2568539   0.0850322 SPIN=   0.00000
   P   0.0975982   0.3342023   0.2283584 SPIN=   0.00000
  Fe  -0.2304172  -0.3345440   0.3080072 SPIN=   4.00000
  Fe   0.2304172   0.3345440  -0.3080072 SPIN=   4.00000
%ENDBLOCK POSITIONS_FRAC

# Note: total spin =   8.00

KPOINTS_MP_SPACING 0.07

%BLOCK SPECIES_POT
QC5
%ENDBLOCK SPECIES_POT

%BLOCK HUBBARD_U
Fe d:4.0
%ENDBLOCK HUBBARD_U

SNAP_TO_SYMMETRY
SYMMETRY_GENERATE

