#              Generated by Buildcell
#
# at 07:34:12 (GMT+0.0) 24th November 2020
# in /scratch/scratch/uccabz1/launch_tmp
# on node-k10h-026
# by uccabz1
#
# compiler GCC version 4.9.2
# options -cpp -iprefix /scratch/UCL/applications/gcc/4.9.2/bin/../lib/gcc/x86_64-unknown-linux-gnu/4.9.2/ -mtune=corei7 -march=x86-64 -g -O2
#
# seed  -377052098   -28549471   786051449   834194472  -601985891  1908697455 -2080708077   893856700    31062097   862311679  -769964802   943927731
#
#      Author: C. J. Pickard (cjp20@cam.ac.uk)
#                Space group: Pm
#

%BLOCK LATTICE_ABC
      3.90962      5.00748      8.73328
     90.00000     90.00000    110.64027
%ENDBLOCK LATTICE_ABC

%BLOCK POSITIONS_FRAC
  Li  -0.1911350  -0.0859645  -0.2778476 SPIN=   0.00000
  Li  -0.1911350  -0.0859645   0.2778476 SPIN=   0.00000
   O   0.2821219  -0.7303986   0.2307374 SPIN=   0.00000
   O  -0.0687893  -0.4371078   0.3608072 SPIN=   0.00000
   O   0.3343912  -0.2223194   0.1419099 SPIN=   0.00000
   P   0.0816063  -0.5187458   0.2075293 SPIN=   0.00000
   O   0.2821219  -0.7303986  -0.2307374 SPIN=   0.00000
   O  -0.0687893  -0.4371078  -0.3608072 SPIN=   0.00000
   O   0.3343912  -0.2223194  -0.1419099 SPIN=   0.00000
   P   0.0816063  -0.5187458  -0.2075293 SPIN=   0.00000
   O  -0.2309788   0.0665131   0.5000000 SPIN=   0.00000
   O  -0.0712280  -0.0079859   0.0000000 SPIN=   0.00000
  Fe   0.4822131   0.2522338   0.0000000 SPIN=   1.44003
  Fe   0.4453625   0.3502334  -0.5000000 SPIN=   6.55997
%ENDBLOCK POSITIONS_FRAC

# Note: total spin =   8.00

KPOINTS_MP_SPACING 0.07

%BLOCK SPECIES_POT
QC5
%ENDBLOCK SPECIES_POT

%BLOCK HUBBARD_U
Fe d:4.0
%ENDBLOCK HUBBARD_U

SNAP_TO_SYMMETRY
SYMMETRY_GENERATE

