#              Generated by Buildcell
#
# at 20:48:27 (GMT+0.0) 26th November 2020
# in /lustre/scratch/uccabz1/launch_tmp
# on node-c12i-029
# by uccabz1
#
# compiler GCC version 4.9.2
# options -cpp -iprefix /lustre/shared/ucl/apps/gcc/4.9.2/bin/../lib/gcc/x86_64-unknown-linux-gnu/4.9.2/ -mtune=corei7 -march=x86-64 -g -Og
#
# seed  1629617290  -239255980  1352493446 -1955476254  1503115727  1235989972 -1498874723  -620195731   490440236 -1936133003 -1888921458  1657501118
#
#      Author: C. J. Pickard (cjp20@cam.ac.uk)
#                Space group: P-1
#

%BLOCK LATTICE_ABC
      5.09032      7.81244      8.36461
     88.07236     89.22069     74.27034
%ENDBLOCK LATTICE_ABC

%BLOCK POSITIONS_FRAC
  Li   0.2225175   0.1200811   0.2283817 SPIN=   0.00000
  Li  -0.2225175  -0.1200811  -0.2283817 SPIN=   0.00000
  Li  -0.4945174   0.4508447  -0.2053905 SPIN=   0.00000
  Li   0.4945174  -0.4508447   0.2053905 SPIN=   0.00000
   O  -0.1752078   0.3226471   0.0180368 SPIN=   0.00000
   O  -0.4652717   0.1221194  -0.0845618 SPIN=   0.00000
   O  -0.3482571   0.1013895   0.2023453 SPIN=   0.00000
   O  -0.6845958   0.3746431   0.0918152 SPIN=   0.00000
   P  -0.4085301   0.2368267   0.0552510 SPIN=   0.00000
   O   0.1752078  -0.3226471  -0.0180368 SPIN=   0.00000
   O   0.4652717  -0.1221194   0.0845618 SPIN=   0.00000
   O   0.3482571  -0.1013895  -0.2023453 SPIN=   0.00000
   O   0.6845958  -0.3746431  -0.0918152 SPIN=   0.00000
   P   0.4085301  -0.2368267  -0.0552510 SPIN=   0.00000
   O  -0.2704936  -0.4610620  -0.3934704 SPIN=   0.00000
   O   0.2218962  -0.6497071  -0.3262624 SPIN=   0.00000
   O   0.1138760  -0.3232171  -0.3065733 SPIN=   0.00000
   P  -0.0193788  -0.4823801  -0.2867155 SPIN=   0.00000
   O   0.2704936   0.4610620   0.3934704 SPIN=   0.00000
   O  -0.2218962   0.6497071   0.3262624 SPIN=   0.00000
   O  -0.1138760   0.3232171   0.3065733 SPIN=   0.00000
   P   0.0193788   0.4823801   0.2867155 SPIN=   0.00000
   O   0.5000000   0.0000000  -0.5000000 SPIN=   0.00000
   O   0.0000000  -0.0000000   0.0000000 SPIN=   0.00000
  Fe   0.1361275   0.1635251  -0.1627994 SPIN=   4.27245
  Fe  -0.1361275  -0.1635251   0.1627994 SPIN=   4.27245
  Fe   0.3397847  -0.2170705  -0.4715160 SPIN=   3.72755
  Fe  -0.3397847   0.2170705   0.4715160 SPIN=   3.72755
%ENDBLOCK POSITIONS_FRAC

# Note: total spin =  16.00

KPOINTS_MP_SPACING 0.07

%BLOCK SPECIES_POT
QC5
%ENDBLOCK SPECIES_POT

%BLOCK HUBBARD_U
Fe d:4.0
%ENDBLOCK HUBBARD_U

SNAP_TO_SYMMETRY
SYMMETRY_GENERATE

