#              Generated by Buildcell
#
# at 06:18:33 (GMT+0.0) 24th November 2020
# in /scratch/scratch/uccabz1/launch_tmp
# on node-k10e-034
# by uccabz1
#
# compiler GCC version 4.9.2
# options -cpp -iprefix /scratch/UCL/applications/gcc/4.9.2/bin/../lib/gcc/x86_64-unknown-linux-gnu/4.9.2/ -mtune=corei7 -march=x86-64 -g -O2
#
# seed -1263875650 -1653018548  1481323781  1774951420 -1405082594   314404885 -1431842674  -146236883  1791431788  2091477966  -365010237  -561691345
#
#      Author: C. J. Pickard (cjp20@cam.ac.uk)
#                Space group: P-1
#

%BLOCK LATTICE_ABC
      4.54934      5.34972      6.94295
     77.13414     77.27231     82.13825
%ENDBLOCK LATTICE_ABC

%BLOCK POSITIONS_FRAC
  Li   0.0721967   0.2320866  -0.2112397 SPIN=   0.00000
  Li  -0.0721967  -0.2320866   0.2112397 SPIN=   0.00000
   O  -0.0045503  -0.3753260  -0.3410937 SPIN=   0.00000
   O  -0.3083905  -0.3722256   0.0222260 SPIN=   0.00000
   O   0.1661099  -0.1592447  -0.0889304 SPIN=   0.00000
   O  -0.2886393   0.0395847  -0.2344068 SPIN=   0.00000
   O   0.0045503   0.3753260   0.3410937 SPIN=   0.00000
   O   0.3083905   0.3722256  -0.0222260 SPIN=   0.00000
   O  -0.1661099   0.1592447   0.0889304 SPIN=   0.00000
   O   0.2886393  -0.0395847   0.2344068 SPIN=   0.00000
   P   0.5000000   0.0000000  -0.0000000 SPIN=   0.00000
   P  -0.0000000   0.0000000   0.5000000 SPIN=   0.00000
  Fe  -0.4781494  -0.3104423  -0.2909292 SPIN=   4.00000
  Fe   0.4781494   0.3104423   0.2909292 SPIN=   4.00000
%ENDBLOCK POSITIONS_FRAC

# Note: total spin =   8.00

KPOINTS_MP_SPACING 0.07

%BLOCK SPECIES_POT
QC5
%ENDBLOCK SPECIES_POT

%BLOCK HUBBARD_U
Fe d:4.0
%ENDBLOCK HUBBARD_U

SNAP_TO_SYMMETRY
SYMMETRY_GENERATE

