#              Generated by Buildcell
#
# at 09:18:25 (GMT+0.0) 24th November 2020
# in /lustre/scratch/uccabz1/launch_tmp
# on node-c12g-024
# by uccabz1
#
# compiler GCC version 4.9.2
# options -cpp -iprefix /lustre/shared/ucl/apps/gcc/4.9.2/bin/../lib/gcc/x86_64-unknown-linux-gnu/4.9.2/ -mtune=corei7 -march=x86-64 -g -Og
#
# seed   359092232  1759420027 -1104660223 -2100847658  -917011094   -46014641 -1949017226  -898543898  1938217467   763305773  1168372594  -105749902
#
#      Author: C. J. Pickard (cjp20@cam.ac.uk)
#                Space group: Cc
#

%BLOCK LATTICE_ABC
      5.38536      5.38536      6.07613
     77.46814     77.46814     70.34567
%ENDBLOCK LATTICE_ABC

%BLOCK POSITIONS_FRAC
  Li  -0.4372973   0.1639101  -0.1294500 SPIN=   0.00000
  Li   0.1639101  -0.4372973   0.3705500 SPIN=   0.00000
   O  -0.1440354   0.3519723  -0.4090267 SPIN=   0.00000
   O   0.1555634   0.4165689  -0.1570106 SPIN=   0.00000
   O  -0.2167391   0.8043717  -0.2805155 SPIN=   0.00000
   O  -0.3154189   0.4277951   0.0097496 SPIN=   0.00000
   P  -0.1330827   0.4914316  -0.2172567 SPIN=   0.00000
   O   0.3519723  -0.1440354   0.0909733 SPIN=   0.00000
   O   0.4165689   0.1555634   0.3429894 SPIN=   0.00000
   O   0.8043717  -0.2167391   0.2194845 SPIN=   0.00000
   O   0.4277951  -0.3154189   0.5097496 SPIN=   0.00000
   P   0.4914316  -0.1330827   0.2827433 SPIN=   0.00000
  Fe   0.1982226  -0.2006834  -0.1816197 SPIN=   4.00000
  Fe  -0.2006834   0.1982226   0.3183803 SPIN=   4.00000
%ENDBLOCK POSITIONS_FRAC

# Note: total spin =   8.00

KPOINTS_MP_SPACING 0.07

%BLOCK SPECIES_POT
QC5
%ENDBLOCK SPECIES_POT

%BLOCK HUBBARD_U
Fe d:4.0
%ENDBLOCK HUBBARD_U

SNAP_TO_SYMMETRY
SYMMETRY_GENERATE

