#              Generated by Buildcell
#
# at 10:04:19 (GMT+0.0) 24th November 2020
# in /lustre/scratch/uccabz1/launch_tmp
# on node-c12c-027
# by uccabz1
#
# compiler GCC version 4.9.2
# options -cpp -iprefix /lustre/shared/ucl/apps/gcc/4.9.2/bin/../lib/gcc/x86_64-unknown-linux-gnu/4.9.2/ -mtune=corei7 -march=x86-64 -g -Og
#
# seed   315785553 -1696181929   697040433 -1567868895   703821849 -1123282860   691553160  -981740210  -885465587   728171921 -1351796922  1236446125
#
#      Author: C. J. Pickard (cjp20@cam.ac.uk)
#                Space group: Cc
#

%BLOCK LATTICE_ABC
      4.91201      6.34815      6.39438
     60.23886     79.08384     67.57319
%ENDBLOCK LATTICE_ABC

%BLOCK POSITIONS_FRAC
  Li   0.2902438  -0.4522900   0.8285393 SPIN=   0.00000
  Li  -0.2097562   0.3762493  -0.8285393 SPIN=   0.00000
   O   0.1438366  -0.2131555   0.3461632 SPIN=   0.00000
   O   0.0003410  -0.2153525  -0.0233220 SPIN=   0.00000
   O   0.3408162  -0.6169099   0.2781420 SPIN=   0.00000
   O  -0.1901376  -0.4615540   0.3848715 SPIN=   0.00000
   P   0.0743340  -0.3690336   0.2534055 SPIN=   0.00000
   O  -0.3561634   0.1330077  -0.3461632 SPIN=   0.00000
   O  -0.4996590  -0.2386745   0.0233220 SPIN=   0.00000
   O  -0.1591838  -0.3387679  -0.2781420 SPIN=   0.00000
   O  -0.6901376  -0.0766825  -0.3848715 SPIN=   0.00000
   P  -0.4256660  -0.1156280  -0.2534055 SPIN=   0.00000
  Fe   0.4789345  -0.0477700   0.2782456 SPIN=   4.00000
  Fe  -0.0210655   0.2304756  -0.2782456 SPIN=   4.00000
%ENDBLOCK POSITIONS_FRAC

# Note: total spin =   8.00

KPOINTS_MP_SPACING 0.07

%BLOCK SPECIES_POT
QC5
%ENDBLOCK SPECIES_POT

%BLOCK HUBBARD_U
Fe d:4.0
%ENDBLOCK HUBBARD_U

SNAP_TO_SYMMETRY
SYMMETRY_GENERATE

