#              Generated by Buildcell
#
# at 12:57:28 (GMT+0.0) 26th November 2020
# in /lustre/scratch/uccabz1/launch_tmp
# on node-c12e-024
# by uccabz1
#
# compiler GCC version 4.9.2
# options -cpp -iprefix /lustre/shared/ucl/apps/gcc/4.9.2/bin/../lib/gcc/x86_64-unknown-linux-gnu/4.9.2/ -mtune=corei7 -march=x86-64 -g -Og
#
# seed  -818105234  1866113537 -1347285103  2092336171 -1503512646  1806832626   916174095  -246447390  1206782895  -458038625  -297274432  1836357723
#
#      Author: C. J. Pickard (cjp20@cam.ac.uk)
#                Space group: P-1
#

%BLOCK LATTICE_ABC
      5.00856      5.98916     10.74241
     83.74674     87.83240     88.38397
%ENDBLOCK LATTICE_ABC

%BLOCK POSITIONS_FRAC
  Li   0.2505488  -0.4196269  -0.4338093 SPIN=   0.00000
  Li  -0.2505488   0.4196269   0.4338093 SPIN=   0.00000
  Li   0.1755557  -0.3802636   0.2504238 SPIN=   0.00000
  Li  -0.1755557   0.3802636  -0.2504238 SPIN=   0.00000
   O   0.2442557  -0.0160517   0.0040062 SPIN=   0.00000
   O   0.4671245   0.2954154  -0.1493927 SPIN=   0.00000
   O   0.0009152   0.3583617  -0.0754462 SPIN=   0.00000
   O   0.3720072   0.3649656   0.0738533 SPIN=   0.00000
   P   0.2708388   0.2378198  -0.0332699 SPIN=   0.00000
   O  -0.2442557   0.0160517  -0.0040062 SPIN=   0.00000
   O  -0.4671245  -0.2954154   0.1493927 SPIN=   0.00000
   O  -0.0009152  -0.3583617   0.0754462 SPIN=   0.00000
   O  -0.3720072  -0.3649656  -0.0738533 SPIN=   0.00000
   P  -0.2708388  -0.2378198   0.0332699 SPIN=   0.00000
   O   0.0043207   0.2982849  -0.4206731 SPIN=   0.00000
   O   0.2791278  -0.0675413  -0.4507683 SPIN=   0.00000
   O   0.5085950   0.2472161  -0.3734148 SPIN=   0.00000
   O   0.1728993   0.0310607  -0.2334232 SPIN=   0.00000
   P   0.2278147   0.1352264  -0.3706842 SPIN=   0.00000
   O  -0.0043207  -0.2982849   0.4206731 SPIN=   0.00000
   O  -0.2791278   0.0675413   0.4507683 SPIN=   0.00000
   O  -0.5085950  -0.2472161   0.3734148 SPIN=   0.00000
   O  -0.1728993  -0.0310607   0.2334232 SPIN=   0.00000
   P  -0.2278147  -0.1352264   0.3706842 SPIN=   0.00000
  Fe   0.2630691   0.0949208   0.3666504 SPIN=   3.53819
  Fe  -0.2630691  -0.0949208  -0.3666504 SPIN=   3.53819
  Fe  -0.2242394   0.2879649   0.1016538 SPIN=   4.46181
  Fe   0.2242394  -0.2879649  -0.1016538 SPIN=   4.46181
%ENDBLOCK POSITIONS_FRAC

# Note: total spin =  16.00

KPOINTS_MP_SPACING 0.07

%BLOCK SPECIES_POT
QC5
%ENDBLOCK SPECIES_POT

%BLOCK HUBBARD_U
Fe d:4.0
%ENDBLOCK HUBBARD_U

SNAP_TO_SYMMETRY
SYMMETRY_GENERATE

