#              Generated by Buildcell
#
# at 07:23:39 (GMT+0.0) 24th November 2020
# in /lustre/scratch/uccabz1/launch_tmp
# on node-c12n-026
# by uccabz1
#
# compiler GCC version 4.9.2
# options -cpp -iprefix /lustre/shared/ucl/apps/gcc/4.9.2/bin/../lib/gcc/x86_64-unknown-linux-gnu/4.9.2/ -mtune=corei7 -march=x86-64 -g -Og
#
# seed -1939294126   823344468  -738295818  1992188615 -1588486983   376528700   525492064   899862813  -250766470     3402070   503966369  1022676087
#
#      Author: C. J. Pickard (cjp20@cam.ac.uk)
#                Space group: Pmc21
#

%BLOCK LATTICE_ABC
      4.96882      5.67011      5.67905
     90.00000     90.00000     90.00000
%ENDBLOCK LATTICE_ABC

%BLOCK POSITIONS_FRAC
  Li   0.0000000  -0.2904946   0.1293072 SPIN=   0.00000
  Li   0.0000000   0.2095054  -0.1293072 SPIN=   0.00000
   O   0.2550292  -0.1296296  -0.1320220 SPIN=   0.00000
   O   0.2449706  -0.3511511  -0.5323919 SPIN=   0.00000
   O  -0.2550292   0.3703704   0.1320220 SPIN=   0.00000
   O  -0.2449706   0.1488489   0.5323919 SPIN=   0.00000
   O   0.2550292   0.3703704   0.1320220 SPIN=   0.00000
   O   0.2449706   0.1488489   0.5323919 SPIN=   0.00000
   O  -0.2550292  -0.1296296  -0.1320220 SPIN=   0.00000
   O  -0.2449706  -0.3511511  -0.5323919 SPIN=   0.00000
   P   0.5000000   0.0816273  -0.2623872 SPIN=   0.00000
   P   0.5000000  -0.4183727   0.2623872 SPIN=   0.00000
  Fe   0.5000000   0.0816188   0.2377336 SPIN=   4.00000
  Fe  -0.5000000  -0.4183812  -0.2377336 SPIN=   4.00000
%ENDBLOCK POSITIONS_FRAC

# Note: total spin =   8.00

KPOINTS_MP_SPACING 0.07

%BLOCK SPECIES_POT
QC5
%ENDBLOCK SPECIES_POT

%BLOCK HUBBARD_U
Fe d:4.0
%ENDBLOCK HUBBARD_U

SNAP_TO_SYMMETRY
SYMMETRY_GENERATE

