#              Generated by Buildcell
#
# at 20:11:46 (GMT+0.0) 26th November 2020
# in /lustre/scratch/uccabz1/launch_tmp
# on node-c12j-022
# by uccabz1
#
# compiler GCC version 4.9.2
# options -cpp -iprefix /lustre/shared/ucl/apps/gcc/4.9.2/bin/../lib/gcc/x86_64-unknown-linux-gnu/4.9.2/ -mtune=corei7 -march=x86-64 -g -Og
#
# seed  1096413125  -406346375 -1034689466   204113135   141275693   -96127761   120818488  -378913038  1259689815   915219782   902658760  1982081886
#
#      Author: C. J. Pickard (cjp20@cam.ac.uk)
#                Space group: P21/c
#

%BLOCK LATTICE_ABC
      5.93232      7.58789      7.63770
     90.00000    111.44491     90.00000
%ENDBLOCK LATTICE_ABC

%BLOCK POSITIONS_FRAC
  Li   0.4156705  -0.0971725   0.1377417 SPIN=   0.00000
  Li   0.0843295   0.4028275   0.3622583 SPIN=   0.00000
  Li  -0.4156705   0.0971725  -0.1377417 SPIN=   0.00000
  Li  -0.0843295  -0.4028275  -0.3622583 SPIN=   0.00000
   O  -0.6157218   0.3040374  -0.4124876 SPIN=   0.00000
   O  -0.7037432   0.5978756  -0.2748682 SPIN=   0.00000
   O  -0.5426162   0.3474516  -0.0584742 SPIN=   0.00000
   O  -0.2735925   0.5028278  -0.1962317 SPIN=   0.00000
   P  -0.5352020   0.4316772  -0.2444748 SPIN=   0.00000
   O   0.1157218  -0.1959626  -0.0875124 SPIN=   0.00000
   O   0.2037432   0.0978756  -0.2251318 SPIN=   0.00000
   O   0.0426162  -0.1525484  -0.4415258 SPIN=   0.00000
   O  -0.2264075   0.0028278  -0.3037683 SPIN=   0.00000
   P   0.0352020  -0.0683228  -0.2555252 SPIN=   0.00000
   O   0.6157218  -0.3040374   0.4124876 SPIN=   0.00000
   O   0.7037432  -0.5978756   0.2748682 SPIN=   0.00000
   O   0.5426162  -0.3474516   0.0584742 SPIN=   0.00000
   O   0.2735925  -0.5028278   0.1962317 SPIN=   0.00000
   P   0.5352020  -0.4316772   0.2444748 SPIN=   0.00000
   O  -0.1157218   0.1959626   0.0875124 SPIN=   0.00000
   O  -0.2037432  -0.0978756   0.2251318 SPIN=   0.00000
   O  -0.0426162   0.1525484   0.4415258 SPIN=   0.00000
   O   0.2264075  -0.0028278   0.3037683 SPIN=   0.00000
   P  -0.0352020   0.0683228   0.2555252 SPIN=   0.00000
  Fe  -0.6264333  -0.2278273  -0.4587983 SPIN=   4.00000
  Fe   0.1264333   0.2721727  -0.0412017 SPIN=   4.00000
  Fe   0.6264333   0.2278273   0.4587983 SPIN=   4.00000
  Fe  -0.1264333  -0.2721727   0.0412017 SPIN=   4.00000
%ENDBLOCK POSITIONS_FRAC

# Note: total spin =  16.00

KPOINTS_MP_SPACING 0.07

%BLOCK SPECIES_POT
QC5
%ENDBLOCK SPECIES_POT

%BLOCK HUBBARD_U
Fe d:4.0
%ENDBLOCK HUBBARD_U

SNAP_TO_SYMMETRY
SYMMETRY_GENERATE

