#              Generated by Buildcell
#
# at 10:53:05 (GMT+0.0) 26th November 2020
# in /lustre/scratch/uccabz1/launch_tmp
# on node-c12o-032
# by uccabz1
#
# compiler GCC version 4.9.2
# options -cpp -iprefix /lustre/shared/ucl/apps/gcc/4.9.2/bin/../lib/gcc/x86_64-unknown-linux-gnu/4.9.2/ -mtune=corei7 -march=x86-64 -g -Og
#
# seed  1655582222   142985363 -1306829027 -2011828561  -912653658   272368438 -1369959360 -2053242240  1992416209  -847103053   923239580  1990880046
#
#      Author: C. J. Pickard (cjp20@cam.ac.uk)
#                Space group: P41
#

%BLOCK LATTICE_ABC
      6.07911      6.07911      8.65903
     90.00000     90.00000     90.00000
%ENDBLOCK LATTICE_ABC

%BLOCK POSITIONS_FRAC
  Li  -0.2407137   0.1059995  -0.3728346 SPIN=   0.00000
  Li   0.2407137  -0.1059995   0.1271654 SPIN=   0.00000
  Li  -0.1059995  -0.2407137  -0.1228346 SPIN=   0.00000
  Li   0.1059995   0.2407137   0.3771654 SPIN=   0.00000
   O  -0.0903193  -0.2054008  -0.3843002 SPIN=   0.00000
   O   0.1222191  -0.5729378  -0.4186532 SPIN=   0.00000
   O  -0.1891051  -0.5631215  -0.2354916 SPIN=   0.00000
   O  -0.2625784  -0.5425265  -0.5197068 SPIN=   0.00000
   P  -0.1060273  -0.4576991  -0.3907952 SPIN=   0.00000
   O   0.0903193   0.2054008   0.1156998 SPIN=   0.00000
   O  -0.1222191   0.5729378   0.0813468 SPIN=   0.00000
   O   0.1891051   0.5631215   0.2645084 SPIN=   0.00000
   O   0.2625784   0.5425265  -0.0197068 SPIN=   0.00000
   P   0.1060273   0.4576991   0.1092048 SPIN=   0.00000
   O   0.2054008  -0.0903193  -0.1343002 SPIN=   0.00000
   O   0.5729378   0.1222191  -0.1686532 SPIN=   0.00000
   O   0.5631215  -0.1891051   0.0145084 SPIN=   0.00000
   O   0.5425265  -0.2625784  -0.2697068 SPIN=   0.00000
   P   0.4576991  -0.1060273  -0.1407952 SPIN=   0.00000
   O  -0.2054008   0.0903193   0.3656998 SPIN=   0.00000
   O  -0.5729378  -0.1222191   0.3313468 SPIN=   0.00000
   O  -0.5631215   0.1891051   0.5145084 SPIN=   0.00000
   O  -0.5425265   0.2625784   0.2302932 SPIN=   0.00000
   P  -0.4576991   0.1060273   0.3592048 SPIN=   0.00000
  Fe  -0.1910649  -0.3106515   0.3040017 SPIN=   4.00000
  Fe   0.1910649   0.3106515  -0.1959983 SPIN=   4.00000
  Fe   0.3106515  -0.1910649  -0.4459983 SPIN=   4.00000
  Fe  -0.3106515   0.1910649   0.0540017 SPIN=   4.00000
%ENDBLOCK POSITIONS_FRAC

# Note: total spin =  16.00

KPOINTS_MP_SPACING 0.07

%BLOCK SPECIES_POT
QC5
%ENDBLOCK SPECIES_POT

%BLOCK HUBBARD_U
Fe d:4.0
%ENDBLOCK HUBBARD_U

SNAP_TO_SYMMETRY
SYMMETRY_GENERATE

