#              Generated by Buildcell
#
# at 15:13:10 (GMT+0.0) 26th November 2020
# in /lustre/scratch/uccabz1/launch_tmp
# on node-c12i-025
# by uccabz1
#
# compiler GCC version 4.9.2
# options -cpp -iprefix /lustre/shared/ucl/apps/gcc/4.9.2/bin/../lib/gcc/x86_64-unknown-linux-gnu/4.9.2/ -mtune=corei7 -march=x86-64 -g -Og
#
# seed  -396246375   756821741 -1223962222  1871491932  1133164505 -2065846936  -485515614  1091449314   332739242  -433076270 -1167324609  -152802303
#
#      Author: C. J. Pickard (cjp20@cam.ac.uk)
#                Space group: P-1
#

%BLOCK LATTICE_ABC
      5.99140      6.90789      8.46731
     80.61276     72.45864     74.01542
%ENDBLOCK LATTICE_ABC

%BLOCK POSITIONS_FRAC
  Li   0.4230280  -0.1843008   0.1739951 SPIN=   0.00000
  Li  -0.4230280   0.1843008  -0.1739951 SPIN=   0.00000
  Li   0.0925712   0.1210013  -0.1609474 SPIN=   0.00000
  Li  -0.0925712  -0.1210013   0.1609474 SPIN=   0.00000
   O   0.4115889  -0.4812379  -0.1316137 SPIN=   0.00000
   O  -0.0451317  -0.3140532  -0.0243734 SPIN=   0.00000
   O   0.2486549  -0.1282919  -0.0158585 SPIN=   0.00000
   O   0.1971158  -0.1693050  -0.2903185 SPIN=   0.00000
   P   0.2140901  -0.2830715  -0.1184594 SPIN=   0.00000
   O  -0.4115889   0.4812379   0.1316137 SPIN=   0.00000
   O   0.0451317   0.3140532   0.0243734 SPIN=   0.00000
   O  -0.2486549   0.1282919   0.0158585 SPIN=   0.00000
   O  -0.1971158   0.1693050   0.2903185 SPIN=   0.00000
   P  -0.2140901   0.2830715   0.1184594 SPIN=   0.00000
   O  -0.2711091  -0.4034584   0.6010172 SPIN=   0.00000
   O  -0.1442432  -0.4908743   0.2944456 SPIN=   0.00000
   O  -0.3947206  -0.1499144   0.3618437 SPIN=   0.00000
   O   0.0365427  -0.2443781   0.3700501 SPIN=   0.00000
   O   0.2711091   0.4034584  -0.6010172 SPIN=   0.00000
   O   0.1442432   0.4908743  -0.2944456 SPIN=   0.00000
   O   0.3947206   0.1499144  -0.3618437 SPIN=   0.00000
   O  -0.0365427   0.2443781  -0.3700501 SPIN=   0.00000
   P   0.5000000   0.0000000  -0.5000000 SPIN=   0.00000
   P   0.0000000  -0.5000000   0.5000000 SPIN=   0.00000
  Fe  -0.2298803  -0.4083673  -0.1606882 SPIN=   4.96089
  Fe   0.2298803   0.4083673   0.1606882 SPIN=   4.96089
  Fe   0.0000000   0.0000000   0.5000000 SPIN=   0.37689
  Fe   0.5000000   0.5000000  -0.5000000 SPIN=   5.70133
%ENDBLOCK POSITIONS_FRAC

# Note: total spin =  16.00

KPOINTS_MP_SPACING 0.07

%BLOCK SPECIES_POT
QC5
%ENDBLOCK SPECIES_POT

%BLOCK HUBBARD_U
Fe d:4.0
%ENDBLOCK HUBBARD_U

SNAP_TO_SYMMETRY
SYMMETRY_GENERATE

