#              Generated by Buildcell
#
# at 21:29:56 (GMT+0.0) 26th November 2020
# in /lustre/scratch/uccabz1/launch_tmp
# on node-c12e-030
# by uccabz1
#
# compiler GCC version 4.9.2
# options -cpp -iprefix /lustre/shared/ucl/apps/gcc/4.9.2/bin/../lib/gcc/x86_64-unknown-linux-gnu/4.9.2/ -mtune=corei7 -march=x86-64 -g -Og
#
# seed -1462428401  -117305448   741908960   229682461  1059125304 -2078256839 -1382616291   759742044 -1693938066   923238222   235796582 -1788250737
#
#      Author: C. J. Pickard (cjp20@cam.ac.uk)
#                Space group: Pc
#

%BLOCK LATTICE_ABC
      5.72736      7.51806      7.72661
     90.00000    105.88016     90.00000
%ENDBLOCK LATTICE_ABC

%BLOCK POSITIONS_FRAC
  Li  -0.0783820   0.3264300   0.2681926 SPIN=   0.00000
  Li  -0.0783820  -0.3264300  -0.2318074 SPIN=   0.00000
  Li   0.0665221  -0.1383190   0.4051889 SPIN=   0.00000
  Li   0.0665221   0.1383190  -0.0948111 SPIN=   0.00000
   O   0.3139072  -0.3161759  -0.4292849 SPIN=   0.00000
   O   0.1481583  -0.0527453  -0.2801493 SPIN=   0.00000
   O   0.3299726  -0.3084683  -0.0900558 SPIN=   0.00000
   O   0.5970923  -0.1025760  -0.2051439 SPIN=   0.00000
   P   0.3484536  -0.2003532  -0.2600998 SPIN=   0.00000
   O   0.3139072   0.3161759   0.0707151 SPIN=   0.00000
   O   0.1481583   0.0527453   0.2198507 SPIN=   0.00000
   O   0.3299726   0.3084683   0.4099442 SPIN=   0.00000
   O   0.5970923   0.1025760   0.2948561 SPIN=   0.00000
   P   0.3484536   0.2003532   0.2399002 SPIN=   0.00000
   O   0.0831803  -0.4233206   0.2746599 SPIN=   0.00000
   O  -0.0222893  -0.1923706   0.0147060 SPIN=   0.00000
   O  -0.2312422  -0.4830032  -0.0329134 SPIN=   0.00000
   O  -0.3313064  -0.2631131   0.1795756 SPIN=   0.00000
   P  -0.1167375  -0.3439515   0.1186600 SPIN=   0.00000
   O   0.0831803   0.4233206  -0.2253401 SPIN=   0.00000
   O  -0.0222893   0.1923706  -0.4852940 SPIN=   0.00000
   O  -0.2312422   0.4830032  -0.5329134 SPIN=   0.00000
   O  -0.3313064   0.2631131  -0.3204244 SPIN=   0.00000
   P  -0.1167375   0.3439515  -0.3813400 SPIN=   0.00000
  Fe  -0.3786786  -0.0140777   0.0544715 SPIN=   3.30322
  Fe  -0.3786786   0.0140777  -0.4455285 SPIN=   3.30322
  Fe   0.4494412  -0.4296389   0.2859603 SPIN=   4.69678
  Fe   0.4494412   0.4296389  -0.2140397 SPIN=   4.69678
%ENDBLOCK POSITIONS_FRAC

# Note: total spin =  16.00

KPOINTS_MP_SPACING 0.07

%BLOCK SPECIES_POT
QC5
%ENDBLOCK SPECIES_POT

%BLOCK HUBBARD_U
Fe d:4.0
%ENDBLOCK HUBBARD_U

SNAP_TO_SYMMETRY
SYMMETRY_GENERATE

