#              Generated by Buildcell
#
# at 20:24:41 (GMT+0.0) 26th November 2020
# in /scratch/scratch/uccabz1/launch_tmp
# on node-k10b-007
# by uccabz1
#
# compiler GCC version 4.9.2
# options -cpp -iprefix /scratch/UCL/applications/gcc/4.9.2/bin/../lib/gcc/x86_64-unknown-linux-gnu/4.9.2/ -mtune=corei7 -march=x86-64 -g -O2
#
# seed  -682543861   920325029 -2031749488 -1331917214   147429035   135383646  1865849636  1427999239  -321314716 -1663838960  -507909370 -1913466847
#
#      Author: C. J. Pickard (cjp20@cam.ac.uk)
#                Space group: P21/m
#

%BLOCK LATTICE_ABC
      4.93221      7.81487      8.69364
     90.00000     90.00000    107.26135
%ENDBLOCK LATTICE_ABC

%BLOCK POSITIONS_FRAC
  Li  -0.5000000   0.0000000  -0.0000000 SPIN=   0.00000
  Li   0.5000000   0.0000000  -0.5000000 SPIN=   0.00000
  Li   0.6647415   0.3068123  -0.2500000 SPIN=   0.00000
  Li  -0.6647415  -0.3068123   0.2500000 SPIN=   0.00000
   O   0.1173439  -0.1812071  -0.5929790 SPIN=   0.00000
   O  -0.3934253  -0.4011953  -0.6084945 SPIN=   0.00000
   O  -0.0882778  -0.4312552  -0.3911390 SPIN=   0.00000
   O  -0.2767697  -0.1671539  -0.4020844 SPIN=   0.00000
   P  -0.1468747  -0.2876220  -0.5025557 SPIN=   0.00000
   O  -0.1173439   0.1812071  -0.0929790 SPIN=   0.00000
   O   0.3934253   0.4011953  -0.1084945 SPIN=   0.00000
   O   0.0882778   0.4312552   0.1088610 SPIN=   0.00000
   O   0.2767697   0.1671539   0.0979156 SPIN=   0.00000
   P   0.1468747   0.2876220  -0.0025557 SPIN=   0.00000
   O  -0.1173439   0.1812071   0.5929790 SPIN=   0.00000
   O   0.3934253   0.4011953   0.6084945 SPIN=   0.00000
   O   0.0882778   0.4312552   0.3911390 SPIN=   0.00000
   O   0.2767697   0.1671539   0.4020844 SPIN=   0.00000
   P   0.1468747   0.2876220   0.5025557 SPIN=   0.00000
   O   0.1173439  -0.1812071   0.0929790 SPIN=   0.00000
   O  -0.3934253  -0.4011953   0.1084945 SPIN=   0.00000
   O  -0.0882778  -0.4312552  -0.1088610 SPIN=   0.00000
   O  -0.2767697  -0.1671539  -0.0979156 SPIN=   0.00000
   P  -0.1468747  -0.2876220   0.0025557 SPIN=   0.00000
  Fe  -0.0050018  -0.0062294   0.2500000 SPIN=   2.95703
  Fe   0.0050018   0.0062294  -0.2500000 SPIN=   2.95703
  Fe  -0.6948127  -0.4004968  -0.2500000 SPIN=   5.04297
  Fe   0.6948127   0.4004968   0.2500000 SPIN=   5.04297
%ENDBLOCK POSITIONS_FRAC

# Note: total spin =  16.00

KPOINTS_MP_SPACING 0.07

%BLOCK SPECIES_POT
QC5
%ENDBLOCK SPECIES_POT

%BLOCK HUBBARD_U
Fe d:4.0
%ENDBLOCK HUBBARD_U

SNAP_TO_SYMMETRY
SYMMETRY_GENERATE

