#              Generated by Buildcell
#
# at 00:33:48 (GMT+0.0) 27th November 2020
# in /scratch/scratch/mmm0366/launch_tmp
# on node-k98c-035
# by mmm0366
#
# compiler GCC version 4.9.2
# options -cpp -iprefix /scratch/UCL/applications/gcc/4.9.2/bin/../lib/gcc/x86_64-unknown-linux-gnu/4.9.2/ -mtune=corei7 -march=x86-64 -g -O2
#
# seed -1696927076  1968868855  1925714063  -283244138 -2007195312  1843544657    34374955  1015419326  -359898877  2081529032   525659137 -1435966317
#
#      Author: C. J. Pickard (cjp20@cam.ac.uk)
#                Space group: P-1
#

%BLOCK LATTICE_ABC
      5.61906      5.64520     10.74068
     81.39470     78.91920     74.19626
%ENDBLOCK LATTICE_ABC

%BLOCK POSITIONS_FRAC
  Li   0.1900063   0.3545838  -0.1259372 SPIN=   0.00000
  Li  -0.1900063  -0.3545838   0.1259372 SPIN=   0.00000
  Li  -0.0790664  -0.3094865   0.3857756 SPIN=   0.00000
  Li   0.0790664   0.3094865  -0.3857756 SPIN=   0.00000
   O   0.2101363   0.0020278  -0.1762382 SPIN=   0.00000
   O   0.1431501  -0.3598628  -0.0042493 SPIN=   0.00000
   O   0.4726717  -0.4521756  -0.1914797 SPIN=   0.00000
   O   0.5327125  -0.2124175  -0.0267305 SPIN=   0.00000
   P   0.3350488  -0.2413796  -0.1028902 SPIN=   0.00000
   O  -0.2101363  -0.0020278   0.1762382 SPIN=   0.00000
   O  -0.1431501   0.3598628   0.0042493 SPIN=   0.00000
   O  -0.4726717   0.4521756   0.1914797 SPIN=   0.00000
   O  -0.5327125   0.2124175   0.0267305 SPIN=   0.00000
   P  -0.3350488   0.2413796   0.1028902 SPIN=   0.00000
   O   0.2213365  -0.6135211   0.4206124 SPIN=   0.00000
   O  -0.0284938  -0.6944969   0.2582481 SPIN=   0.00000
   O   0.3663678  -1.0002352   0.2946929 SPIN=   0.00000
   P   0.1401106  -0.8085722   0.3643562 SPIN=   0.00000
   O  -0.2213365   0.6135211  -0.4206124 SPIN=   0.00000
   O   0.0284938   0.6944969  -0.2582481 SPIN=   0.00000
   O  -0.3663678   1.0002352  -0.2946929 SPIN=   0.00000
   P  -0.1401106   0.8085722  -0.3643562 SPIN=   0.00000
   O   0.0000000   0.0000000   0.5000000 SPIN=   0.00000
   O  -0.5000000   1.0000000  -0.5000000 SPIN=   0.00000
  Fe   0.3852341   0.7232701  -0.3690345 SPIN=   6.03082
  Fe  -0.3852341  -0.7232701   0.3690345 SPIN=   6.03082
  Fe  -0.2192376   0.0357583  -0.1349887 SPIN=   1.96918
  Fe   0.2192376  -0.0357583   0.1349887 SPIN=   1.96918
%ENDBLOCK POSITIONS_FRAC

# Note: total spin =  16.00

KPOINTS_MP_SPACING 0.07

%BLOCK SPECIES_POT
QC5
%ENDBLOCK SPECIES_POT

%BLOCK HUBBARD_U
Fe d:4.0
%ENDBLOCK HUBBARD_U

SNAP_TO_SYMMETRY
SYMMETRY_GENERATE

