#              Generated by Buildcell
#
# at 13:10:48 (GMT+0.0) 1st December 2020
# in /lustre/scratch/uccabz1/launch_tmp
# on node-c12f-027
# by uccabz1
#
# compiler GCC version 4.9.2
# options -cpp -iprefix /lustre/shared/ucl/apps/gcc/4.9.2/bin/../lib/gcc/x86_64-unknown-linux-gnu/4.9.2/ -mtune=corei7 -march=x86-64 -g -Og
#
# seed -1210001952 -1687640376  -907275796  1306976961  -712637483   186734837    86768340   167110414  -190131586  1436078616 -1585467392 -1795647159
#
#      Author: C. J. Pickard (cjp20@cam.ac.uk)
#                Space group: Pnn2
#

%BLOCK LATTICE_ABC
      4.14597      7.20461     10.71306
     90.00000     90.00000     90.00000
%ENDBLOCK LATTICE_ABC

%BLOCK POSITIONS_FRAC
  Li   0.2620281  -0.2667874  -0.4962786 SPIN=   0.00000
  Li   0.2620281   0.2667874   0.4962786 SPIN=   0.00000
  Li  -0.2379719  -0.2332126   0.0037214 SPIN=   0.00000
  Li  -0.2379719   0.2332126  -0.0037214 SPIN=   0.00000
   O  -0.5597806  -0.0081195  -0.1253414 SPIN=   0.00000
   O  -0.6198267  -0.2432423  -0.3077437 SPIN=   0.00000
   O  -0.1143454  -0.2453369  -0.1857312 SPIN=   0.00000
   O  -0.6249807  -0.3602202  -0.0876200 SPIN=   0.00000
   O  -0.5597806   0.0081195   0.1253414 SPIN=   0.00000
   O  -0.6198267   0.2432423   0.3077437 SPIN=   0.00000
   O  -0.1143454   0.2453369   0.1857312 SPIN=   0.00000
   O  -0.6249807   0.3602202   0.0876200 SPIN=   0.00000
   O  -0.0597806  -0.4918805   0.3746586 SPIN=   0.00000
   O  -0.1198267  -0.2567577   0.1922563 SPIN=   0.00000
   O   0.3856546  -0.2546631   0.3142688 SPIN=   0.00000
   O  -0.1249807  -0.1397798   0.4123800 SPIN=   0.00000
   O  -0.0597806   0.4918805  -0.3746586 SPIN=   0.00000
   O  -0.1198267   0.2567577  -0.1922563 SPIN=   0.00000
   O   0.3856546   0.2546631  -0.3142688 SPIN=   0.00000
   O  -0.1249807   0.1397798  -0.4123800 SPIN=   0.00000
   P   0.2115209  -0.5000000  -0.0000000 SPIN=   0.00000
   P  -0.2884791  -0.0000000  -0.5000000 SPIN=   0.00000
   P   0.2615202  -0.0000000  -0.0000000 SPIN=   0.00000
   P  -0.2384798   0.5000000  -0.5000000 SPIN=   0.00000
  Fe  -0.4320727   0.4959722   0.2429502 SPIN=   4.00000
  Fe  -0.4320727  -0.4959722  -0.2429502 SPIN=   4.00000
  Fe   0.0679273   0.0040278  -0.2570498 SPIN=   4.00000
  Fe   0.0679273  -0.0040278   0.2570498 SPIN=   4.00000
%ENDBLOCK POSITIONS_FRAC

# Note: total spin =  16.00

KPOINTS_MP_SPACING 0.07

%BLOCK SPECIES_POT
QC5
%ENDBLOCK SPECIES_POT

%BLOCK HUBBARD_U
Fe d:4.0
%ENDBLOCK HUBBARD_U

SNAP_TO_SYMMETRY
SYMMETRY_GENERATE

