#              Generated by Buildcell
#
# at 15:18:15 (GMT+0.0) 26th November 2020
# in /lustre/scratch/uccabz1/launch_tmp
# on node-c12i-029
# by uccabz1
#
# compiler GCC version 4.9.2
# options -cpp -iprefix /lustre/shared/ucl/apps/gcc/4.9.2/bin/../lib/gcc/x86_64-unknown-linux-gnu/4.9.2/ -mtune=corei7 -march=x86-64 -g -Og
#
# seed  -227318446   952863274   514898510  1722227346 -1501384678 -1557798461 -1168668245   603465464  1108252669   -69163644  1307608117 -1457573364
#
#      Author: C. J. Pickard (cjp20@cam.ac.uk)
#                Space group: P43
#

%BLOCK LATTICE_ABC
      4.33485      4.33485     17.02952
     90.00000     90.00000     90.00000
%ENDBLOCK LATTICE_ABC

%BLOCK POSITIONS_FRAC
  Li   0.2728554  -0.4327984   0.0570633 SPIN=   0.00000
  Li  -0.2728554   0.4327984  -0.4429367 SPIN=   0.00000
  Li   0.4327984   0.2728554   0.3070633 SPIN=   0.00000
  Li  -0.4327984  -0.2728554  -0.1929367 SPIN=   0.00000
   O   0.0669054   0.1352328   0.1341927 SPIN=   0.00000
   O   0.5889044   0.4034168   0.1651690 SPIN=   0.00000
   O   0.4773316  -0.0972762   0.2283086 SPIN=   0.00000
   O   0.5870463  -0.0783491   0.0840050 SPIN=   0.00000
   P   0.4125642   0.0911287   0.1511085 SPIN=   0.00000
   O  -0.0669054  -0.1352328  -0.3658073 SPIN=   0.00000
   O  -0.5889044  -0.4034168  -0.3348310 SPIN=   0.00000
   O  -0.4773316   0.0972762  -0.2716914 SPIN=   0.00000
   O  -0.5870463   0.0783491  -0.4159950 SPIN=   0.00000
   P  -0.4125642  -0.0911287  -0.3488915 SPIN=   0.00000
   O  -0.1352328   0.0669054   0.3841927 SPIN=   0.00000
   O  -0.4034168   0.5889044   0.4151690 SPIN=   0.00000
   O   0.0972762   0.4773316   0.4783086 SPIN=   0.00000
   O   0.0783491   0.5870463   0.3340050 SPIN=   0.00000
   P  -0.0911287   0.4125642   0.4011085 SPIN=   0.00000
   O   0.1352328  -0.0669054  -0.1158073 SPIN=   0.00000
   O   0.4034168  -0.5889044  -0.0848310 SPIN=   0.00000
   O  -0.0972762  -0.4773316  -0.0216914 SPIN=   0.00000
   O  -0.0783491  -0.5870463  -0.1659950 SPIN=   0.00000
   P   0.0911287  -0.4125642  -0.0988915 SPIN=   0.00000
  Fe  -0.0679204  -0.2554136   0.2239276 SPIN=   4.00000
  Fe   0.0679204   0.2554136  -0.2760724 SPIN=   4.00000
  Fe   0.2554136  -0.0679204   0.4739276 SPIN=   4.00000
  Fe  -0.2554136   0.0679204  -0.0260724 SPIN=   4.00000
%ENDBLOCK POSITIONS_FRAC

# Note: total spin =  16.00

KPOINTS_MP_SPACING 0.07

%BLOCK SPECIES_POT
QC5
%ENDBLOCK SPECIES_POT

%BLOCK HUBBARD_U
Fe d:4.0
%ENDBLOCK HUBBARD_U

SNAP_TO_SYMMETRY
SYMMETRY_GENERATE

