#              Generated by Buildcell
#
# at 23:23:24 (GMT+0.0) 26th November 2020
# in /lustre/scratch/uccabz1/launch_tmp
# on node-c12p-026
# by uccabz1
#
# compiler GCC version 4.9.2
# options -cpp -iprefix /lustre/shared/ucl/apps/gcc/4.9.2/bin/../lib/gcc/x86_64-unknown-linux-gnu/4.9.2/ -mtune=corei7 -march=x86-64 -g -Og
#
# seed -1713328045  1245227460 -1201133160   531236889  1259645390   117466557   350893929   434109283 -1859740042  1619839156   668034834   486789041
#
#      Author: C. J. Pickard (cjp20@cam.ac.uk)
#                Space group: P212121
#

%BLOCK LATTICE_ABC
      4.38534      5.26485     13.85990
     90.00000     90.00000     90.00000
%ENDBLOCK LATTICE_ABC

%BLOCK POSITIONS_FRAC
  Li   0.1523505  -0.0328280   0.2761746 SPIN=   0.00000
  Li   0.3476495   0.0328280  -0.2238254 SPIN=   0.00000
  Li  -0.1523505   0.4671720   0.2238254 SPIN=   0.00000
  Li  -0.3476495  -0.4671720  -0.2761746 SPIN=   0.00000
   O   0.1574650  -0.0543660  -0.0654561 SPIN=   0.00000
   O  -0.1224427   0.1356841  -0.2140593 SPIN=   0.00000
   O  -0.3553948  -0.2312137  -0.1309805 SPIN=   0.00000
   O  -0.3484028   0.1934052  -0.0495689 SPIN=   0.00000
   P  -0.1520458   0.0095576  -0.1116050 SPIN=   0.00000
   O  -0.6574650   0.0543660   0.4345439 SPIN=   0.00000
   O  -0.3775573  -0.1356841   0.2859407 SPIN=   0.00000
   O  -0.1446052   0.2312137   0.3690195 SPIN=   0.00000
   O  -0.1515972  -0.1934052   0.4504311 SPIN=   0.00000
   P  -0.3479542  -0.0095576   0.3883950 SPIN=   0.00000
   O  -0.1574650  -0.5543660  -0.4345439 SPIN=   0.00000
   O   0.1224427  -0.3643159  -0.2859407 SPIN=   0.00000
   O   0.3553948  -0.7312137  -0.3690195 SPIN=   0.00000
   O   0.3484028  -0.3065948  -0.4504311 SPIN=   0.00000
   P   0.1520458  -0.4904424  -0.3883950 SPIN=   0.00000
   O   0.6574650   0.5543660   0.0654561 SPIN=   0.00000
   O   0.3775573   0.3643159   0.2140593 SPIN=   0.00000
   O   0.1446052   0.7312137   0.1309805 SPIN=   0.00000
   O   0.1515972   0.3065948   0.0495689 SPIN=   0.00000
   P   0.3479542   0.4904424   0.1116050 SPIN=   0.00000
  Fe   0.1860182  -0.4671720  -0.0883812 SPIN=   4.00000
  Fe   0.3139818   0.4671720   0.4116188 SPIN=   4.00000
  Fe  -0.1860182   0.0328280  -0.4116188 SPIN=   4.00000
  Fe  -0.3139818  -0.0328280   0.0883812 SPIN=   4.00000
%ENDBLOCK POSITIONS_FRAC

# Note: total spin =  16.00

KPOINTS_MP_SPACING 0.07

%BLOCK SPECIES_POT
QC5
%ENDBLOCK SPECIES_POT

%BLOCK HUBBARD_U
Fe d:4.0
%ENDBLOCK HUBBARD_U

SNAP_TO_SYMMETRY
SYMMETRY_GENERATE

