#              Generated by Buildcell
#
# at 13:50:53 (GMT+0.0) 26th November 2020
# in /lustre/scratch/uccabz1/launch_tmp
# on node-c12j-030
# by uccabz1
#
# compiler GCC version 4.9.2
# options -cpp -iprefix /lustre/shared/ucl/apps/gcc/4.9.2/bin/../lib/gcc/x86_64-unknown-linux-gnu/4.9.2/ -mtune=corei7 -march=x86-64 -g -Og
#
# seed  1549287027    93972516 -1607870979   904130866  1418706113    78146008  1169615770  2106074849   585059016 -1661359591  -926344080   511684014
#
#      Author: C. J. Pickard (cjp20@cam.ac.uk)
#                Space group: P-1
#

%BLOCK LATTICE_ABC
      6.06713      7.12521      8.75369
     76.69990     69.84556     64.84670
%ENDBLOCK LATTICE_ABC

%BLOCK POSITIONS_FRAC
  Li   0.7126067  -0.1969876  -0.3130523 SPIN=   0.00000
  Li  -0.7126067   0.1969876   0.3130523 SPIN=   0.00000
  Li   0.2162237   0.4549776  -0.4313249 SPIN=   0.00000
  Li  -0.2162237  -0.4549776   0.4313249 SPIN=   0.00000
   O   0.9312152   0.1860075  -0.5493455 SPIN=   0.00000
   O   0.4929726   0.1520010  -0.4538519 SPIN=   0.00000
   O   0.7296885   0.0634760  -0.2505908 SPIN=   0.00000
   O   0.5377964   0.4360918  -0.3584174 SPIN=   0.00000
   P   0.6850766   0.2108242  -0.4103141 SPIN=   0.00000
   O  -0.9312152  -0.1860075   0.5493455 SPIN=   0.00000
   O  -0.4929726  -0.1520010   0.4538519 SPIN=   0.00000
   O  -0.7296885  -0.0634760   0.2505908 SPIN=   0.00000
   O  -0.5377964  -0.4360918   0.3584174 SPIN=   0.00000
   P  -0.6850766  -0.2108242   0.4103141 SPIN=   0.00000
   O  -0.3940572   0.5646744  -0.1361872 SPIN=   0.00000
   O  -0.0970257   0.2438266   0.0056818 SPIN=   0.00000
   O  -0.0001303   0.2746288  -0.2950385 SPIN=   0.00000
   O   0.0636888   0.5183662  -0.1641420 SPIN=   0.00000
   P  -0.1201589   0.4105146  -0.1470206 SPIN=   0.00000
   O   0.3940572  -0.5646744   0.1361872 SPIN=   0.00000
   O   0.0970257  -0.2438266  -0.0056818 SPIN=   0.00000
   O   0.0001303  -0.2746288   0.2950385 SPIN=   0.00000
   O  -0.0636888  -0.5183662   0.1641420 SPIN=   0.00000
   P   0.1201589  -0.4105146   0.1470206 SPIN=   0.00000
  Fe   0.3720244   0.2907993  -0.0855574 SPIN=   5.13099
  Fe  -0.3720244  -0.2907993   0.0855574 SPIN=   5.13099
  Fe   0.0977169  -0.0464693  -0.2290347 SPIN=   2.86901
  Fe  -0.0977169   0.0464693   0.2290347 SPIN=   2.86901
%ENDBLOCK POSITIONS_FRAC

# Note: total spin =  16.00

KPOINTS_MP_SPACING 0.07

%BLOCK SPECIES_POT
QC5
%ENDBLOCK SPECIES_POT

%BLOCK HUBBARD_U
Fe d:4.0
%ENDBLOCK HUBBARD_U

SNAP_TO_SYMMETRY
SYMMETRY_GENERATE

