#              Generated by Buildcell
#
# at 19:35:57 (GMT+0.0) 26th November 2020
# in /lustre/scratch/uccabz1/launch_tmp
# on node-c12k-032
# by uccabz1
#
# compiler GCC version 4.9.2
# options -cpp -iprefix /lustre/shared/ucl/apps/gcc/4.9.2/bin/../lib/gcc/x86_64-unknown-linux-gnu/4.9.2/ -mtune=corei7 -march=x86-64 -g -Og
#
# seed  -599351332  1130831525 -1299490740   469935537  -173438061 -1431463808   270770362 -1773305702   902309367  2092739483  1953847980  1320863725
#
#      Author: C. J. Pickard (cjp20@cam.ac.uk)
#                Space group: C2
#

%BLOCK LATTICE_ABC
      5.79970      5.79970      9.60927
     84.27079     84.27079     89.53907
%ENDBLOCK LATTICE_ABC

%BLOCK POSITIONS_FRAC
  Li   0.1325598   0.2309917   0.1829916 SPIN=   0.00000
  Li  -0.2309917  -0.1325598  -0.1829916 SPIN=   0.00000
  Li   0.7410829   0.2589171   0.0000000 SPIN=   0.00000
  Li  -0.6277417  -0.3722583  -0.0000000 SPIN=   0.00000
   O   0.3719149   0.1773818   0.3673826 SPIN=   0.00000
   O   0.5747750  -0.2024562   0.2998248 SPIN=   0.00000
   O   0.4378539   0.0684310   0.1106645 SPIN=   0.00000
   O   0.7789843   0.1767761   0.2311383 SPIN=   0.00000
   P   0.5346952   0.0629843   0.2581335 SPIN=   0.00000
   O   0.8226182   0.6280851  -0.3673826 SPIN=   0.00000
   O   1.2024562   0.4252250  -0.2998248 SPIN=   0.00000
   O   0.9315690   0.5621461  -0.1106645 SPIN=   0.00000
   O   0.8232239   0.2210157  -0.2311383 SPIN=   0.00000
   P   0.9370157   0.4653048  -0.2581335 SPIN=   0.00000
   O  -0.5315662  -0.3066544  -0.2166518 SPIN=   0.00000
   O  -0.7790003   0.0172257  -0.3356134 SPIN=   0.00000
   O  -0.3570660   0.0153173  -0.4040791 SPIN=   0.00000
   P  -0.5670342  -0.1520911  -0.3524032 SPIN=   0.00000
   O  -0.6933456  -0.4684338   0.2166518 SPIN=   0.00000
   O  -1.0172257  -0.2209997   0.3356134 SPIN=   0.00000
   O  -1.0153173  -0.6429340   0.4040791 SPIN=   0.00000
   P  -0.8479089  -0.4329658   0.3524032 SPIN=   0.00000
   O  -0.7200316  -0.2799684  -0.5000000 SPIN=   0.00000
   O   0.1143487  -0.1143487   0.0000000 SPIN=   0.00000
  Fe   0.2678319   0.1498612  -0.1461017 SPIN=   3.89765
  Fe  -0.1498612  -0.2678319   0.1461017 SPIN=   3.89765
  Fe   0.5474452   0.4525548   0.5000000 SPIN=   1.44217
  Fe   0.0228883  -0.0228883  -0.5000000 SPIN=   6.76253
%ENDBLOCK POSITIONS_FRAC

# Note: total spin =  16.00

KPOINTS_MP_SPACING 0.07

%BLOCK SPECIES_POT
QC5
%ENDBLOCK SPECIES_POT

%BLOCK HUBBARD_U
Fe d:4.0
%ENDBLOCK HUBBARD_U

SNAP_TO_SYMMETRY
SYMMETRY_GENERATE

