#              Generated by Buildcell
#
# at 13:40:28 (GMT+0.0) 24th November 2020
# in /scratch/scratch/uccabz1/launch_tmp
# on node-a14b-007
# by uccabz1
#
# compiler GCC version 4.9.2
# options -cpp -iprefix /scratch/UCL/applications/gcc/4.9.2/bin/../lib/gcc/x86_64-unknown-linux-gnu/4.9.2/ -mtune=corei7 -march=x86-64 -g -O2
#
# seed   118334804    70676600 -1382313629  -415017973   165647397  1612414656   867975143  1265426744 -1648460676  1218727994   508770545 -1435815878
#
#      Author: C. J. Pickard (cjp20@cam.ac.uk)
#                Space group: Pmn21
#

%BLOCK LATTICE_ABC
      3.91414      5.63652      7.25224
     90.00000     90.00000     90.00000
%ENDBLOCK LATTICE_ABC

%BLOCK POSITIONS_FRAC
  Li  -0.1964627   0.0000000   0.3606312 SPIN=   0.00000
  Li   0.3035373   0.5000000  -0.3606312 SPIN=   0.00000
   O  -0.0951563  -0.2507410  -0.3902966 SPIN=   0.00000
   O   0.3546478  -0.2781832  -0.1277168 SPIN=   0.00000
   O  -0.5951563  -0.2492590   0.3902966 SPIN=   0.00000
   O  -0.1453522  -0.2218168   0.1277168 SPIN=   0.00000
   O  -0.5951563   0.2492590   0.3902966 SPIN=   0.00000
   O  -0.1453522   0.2218168   0.1277168 SPIN=   0.00000
   O  -0.0951563   0.2507410  -0.3902966 SPIN=   0.00000
   O   0.3546478   0.2781832  -0.1277168 SPIN=   0.00000
   P   0.3038060   0.0000000   0.1062038 SPIN=   0.00000
   P  -0.1961940   0.5000000  -0.1062038 SPIN=   0.00000
  Fe  -0.1961015   0.0000000  -0.1831357 SPIN=   4.00000
  Fe   0.3038985   0.5000000   0.1831357 SPIN=   4.00000
%ENDBLOCK POSITIONS_FRAC

# Note: total spin =   8.00

KPOINTS_MP_SPACING 0.07

%BLOCK SPECIES_POT
QC5
%ENDBLOCK SPECIES_POT

%BLOCK HUBBARD_U
Fe d:4.0
%ENDBLOCK HUBBARD_U

SNAP_TO_SYMMETRY
SYMMETRY_GENERATE

