#              Generated by Buildcell
#
# at 18:17:21 (GMT+0.0) 26th November 2020
# in /lustre/scratch/uccabz1/launch_tmp
# on node-c12g-033
# by uccabz1
#
# compiler GCC version 4.9.2
# options -cpp -iprefix /lustre/shared/ucl/apps/gcc/4.9.2/bin/../lib/gcc/x86_64-unknown-linux-gnu/4.9.2/ -mtune=corei7 -march=x86-64 -g -Og
#
# seed  1198608336  -505654630  -712693440  1000973504   193423731 -1475023703   598542865 -1615393184  1309363983  -289843108 -1949729989  1805036663
#
#      Author: C. J. Pickard (cjp20@cam.ac.uk)
#                Space group: C2/c
#

%BLOCK LATTICE_ABC
      6.02716      6.02716      9.91017
    100.87665    103.57632    107.68389
%ENDBLOCK LATTICE_ABC

%BLOCK POSITIONS_FRAC
  Li   0.2963493  -0.1768799  -0.1330000 SPIN=   0.00000
  Li  -0.0438799  -0.0706507  -0.3670000 SPIN=   0.00000
  Li  -0.2963493   0.1768799   0.1330000 SPIN=   0.00000
  Li   0.0438799   0.0706507   0.3670000 SPIN=   0.00000
   O  -0.2244082  -0.2032984   0.4082342 SPIN=   0.00000
   O  -0.2146961  -0.6386437   0.3585959 SPIN=   0.00000
   O  -0.6157682  -0.5926619   0.3265175 SPIN=   0.00000
   O  -0.3883701  -0.4967100   0.1506265 SPIN=   0.00000
   P  -0.3538731  -0.4681087   0.3142786 SPIN=   0.00000
   O   0.3884674  -0.1326424   0.0917658 SPIN=   0.00000
   O   0.0027604  -0.0732920   0.1414041 SPIN=   0.00000
   O   0.0808206  -0.4422857   0.1734825 SPIN=   0.00000
   O   0.3526636  -0.0389965   0.3493735 SPIN=   0.00000
   P   0.2176127  -0.1681517   0.1857214 SPIN=   0.00000
   O   0.2244082   0.2032984  -0.4082342 SPIN=   0.00000
   O   0.2146961   0.6386437  -0.3585959 SPIN=   0.00000
   O   0.6157682   0.5926619  -0.3265175 SPIN=   0.00000
   O   0.3883701   0.4967100  -0.1506265 SPIN=   0.00000
   P   0.3538731   0.4681087  -0.3142786 SPIN=   0.00000
   O  -0.3884674   0.1326424  -0.0917658 SPIN=   0.00000
   O  -0.0027604   0.0732920  -0.1414041 SPIN=   0.00000
   O  -0.0808206   0.4422857  -0.1734825 SPIN=   0.00000
   O  -0.3526636   0.0389965  -0.3493735 SPIN=   0.00000
   P  -0.2176127   0.1681517  -0.1857214 SPIN=   0.00000
  Fe  -0.2787667   0.3332090  -0.4449031 SPIN=   4.00000
  Fe  -0.2218879  -0.3338636  -0.0550969 SPIN=   4.00000
  Fe   0.2787667  -0.3332090   0.4449031 SPIN=   4.00000
  Fe   0.2218879   0.3338636   0.0550969 SPIN=   4.00000
%ENDBLOCK POSITIONS_FRAC

# Note: total spin =  16.00

KPOINTS_MP_SPACING 0.07

%BLOCK SPECIES_POT
QC5
%ENDBLOCK SPECIES_POT

%BLOCK HUBBARD_U
Fe d:4.0
%ENDBLOCK HUBBARD_U

SNAP_TO_SYMMETRY
SYMMETRY_GENERATE

