#              Generated by Buildcell
#
# at 19:41:22 (GMT+0.0) 26th November 2020
# in /lustre/scratch/uccabz1/launch_tmp
# on node-c12o-032
# by uccabz1
#
# compiler GCC version 4.9.2
# options -cpp -iprefix /lustre/shared/ucl/apps/gcc/4.9.2/bin/../lib/gcc/x86_64-unknown-linux-gnu/4.9.2/ -mtune=corei7 -march=x86-64 -g -Og
#
# seed -1523198797   512274177 -1243254118 -1993628677   203400534   216595454   -68412759  1901757045  -262327912 -1781472192 -1571798103     5865310
#
#      Author: C. J. Pickard (cjp20@cam.ac.uk)
#                Space group: P-1
#

%BLOCK LATTICE_ABC
      4.87815      7.79506      8.80761
     83.78856     80.79557     76.04857
%ENDBLOCK LATTICE_ABC

%BLOCK POSITIONS_FRAC
  Li  -0.2729888  -0.4963446   0.2035027 SPIN=   0.00000
  Li   0.2729888   0.4963446  -0.2035027 SPIN=   0.00000
  Li  -0.3844419  -0.1907226  -0.0373409 SPIN=   0.00000
  Li   0.3844419   0.1907226   0.0373409 SPIN=   0.00000
   O   0.2083040  -0.2563207  -0.1113285 SPIN=   0.00000
   O   0.3744373  -0.2916318   0.1585553 SPIN=   0.00000
   O  -0.1380063  -0.2579800   0.1454244 SPIN=   0.00000
   O   0.2081966  -0.5394593   0.0705049 SPIN=   0.00000
   P   0.1661634  -0.3344838   0.0564141 SPIN=   0.00000
   O  -0.2083040   0.2563207   0.1113285 SPIN=   0.00000
   O  -0.3744373   0.2916318  -0.1585553 SPIN=   0.00000
   O   0.1380063   0.2579800  -0.1454244 SPIN=   0.00000
   O  -0.2081966   0.5394593  -0.0705049 SPIN=   0.00000
   P  -0.1661634   0.3344838  -0.0564141 SPIN=   0.00000
   O   0.8005041   0.1624156  -0.6144506 SPIN=   0.00000
   O   0.9621497   0.2998078  -0.3975562 SPIN=   0.00000
   O   0.4460623   0.3503095  -0.4093562 SPIN=   0.00000
   O   0.7190984   0.0477194  -0.3283218 SPIN=   0.00000
   P   0.7354520   0.2102850  -0.4455596 SPIN=   0.00000
   O  -0.8005041  -0.1624156   0.6144506 SPIN=   0.00000
   O  -0.9621497  -0.2998078   0.3975562 SPIN=   0.00000
   O  -0.4460623  -0.3503095   0.4093562 SPIN=   0.00000
   O  -0.7190984  -0.0477194   0.3283218 SPIN=   0.00000
   P  -0.7354520  -0.2102850   0.4455596 SPIN=   0.00000
  Fe  -0.0821242  -0.0261931   0.2213794 SPIN=   2.68141
  Fe   0.0821242   0.0261931  -0.2213794 SPIN=   2.68141
  Fe   0.7528157  -0.3023134  -0.3970806 SPIN=   5.31859
  Fe  -0.7528157   0.3023134   0.3970806 SPIN=   5.31859
%ENDBLOCK POSITIONS_FRAC

# Note: total spin =  16.00

KPOINTS_MP_SPACING 0.07

%BLOCK SPECIES_POT
QC5
%ENDBLOCK SPECIES_POT

%BLOCK HUBBARD_U
Fe d:4.0
%ENDBLOCK HUBBARD_U

SNAP_TO_SYMMETRY
SYMMETRY_GENERATE

