#              Generated by Buildcell
#
# at 09:21:43 (GMT+0.0) 24th November 2020
# in /lustre/scratch/uccabz1/launch_tmp
# on node-c12a-034
# by uccabz1
#
# compiler GCC version 4.9.2
# options -cpp -iprefix /lustre/shared/ucl/apps/gcc/4.9.2/bin/../lib/gcc/x86_64-unknown-linux-gnu/4.9.2/ -mtune=corei7 -march=x86-64 -g -Og
#
# seed  -260331617   542179657   878828142 -1652458976   671847390   239821646 -1135541221 -1147625669  1864342319  -392898356  -196356310  -800097066
#
#      Author: C. J. Pickard (cjp20@cam.ac.uk)
#                Space group: P2
#

%BLOCK LATTICE_ABC
      4.07044      4.95823      7.93146
     91.74492     90.00000     90.00000
%ENDBLOCK LATTICE_ABC

%BLOCK POSITIONS_FRAC
  Li  -0.0982650   0.0122208  -0.2582526 SPIN=   0.00000
  Li  -0.0982650  -0.0122208   0.2582526 SPIN=   0.00000
   O   0.0110121  -0.5745741  -0.2513406 SPIN=   0.00000
   O  -0.4384024  -0.2979210  -0.0904422 SPIN=   0.00000
   O  -0.4386681  -0.2984301  -0.4018673 SPIN=   0.00000
   P  -0.3489750  -0.4804606  -0.2495283 SPIN=   0.00000
   O   0.0110121   0.5745741   0.2513406 SPIN=   0.00000
   O  -0.4384024   0.2979210   0.0904422 SPIN=   0.00000
   O  -0.4386681   0.2984301   0.4018673 SPIN=   0.00000
   P  -0.3489750   0.4804606   0.2495283 SPIN=   0.00000
   O   0.0750887   0.0000000  -0.0000000 SPIN=   0.00000
   O   0.1193567   0.0000000   0.5000000 SPIN=   0.00000
  Fe   0.1496963   0.5000000  -0.5000000 SPIN=   4.08974
  Fe   0.1499816  -0.5000000   0.0000000 SPIN=   3.91026
%ENDBLOCK POSITIONS_FRAC

# Note: total spin =   8.00

KPOINTS_MP_SPACING 0.07

%BLOCK SPECIES_POT
QC5
%ENDBLOCK SPECIES_POT

%BLOCK HUBBARD_U
Fe d:4.0
%ENDBLOCK HUBBARD_U

SNAP_TO_SYMMETRY
SYMMETRY_GENERATE

