#              Generated by Buildcell
#
# at 14:04:35 (GMT+0.0) 24th November 2020
# in /scratch/scratch/uccabz1/launch_tmp
# on node-k10b-024
# by uccabz1
#
# compiler GCC version 4.9.2
# options -cpp -iprefix /scratch/UCL/applications/gcc/4.9.2/bin/../lib/gcc/x86_64-unknown-linux-gnu/4.9.2/ -mtune=corei7 -march=x86-64 -g -O2
#
# seed  1203319808 -1872766393 -1476185476   610351935  1217102747 -2088238024  -419288766  1564565153   746997828  1186417094 -1114982434  1547503350
#
#      Author: C. J. Pickard (cjp20@cam.ac.uk)
#                Space group: Pc
#

%BLOCK LATTICE_ABC
      3.99827      5.63664      7.46561
     90.00000     90.00000    108.01797
%ENDBLOCK LATTICE_ABC

%BLOCK POSITIONS_FRAC
  Li   0.4373843  -0.0095313  -0.4205622 SPIN=   0.00000
  Li   0.4373843   0.4904687   0.4205622 SPIN=   0.00000
   O  -0.1480565  -0.3832577  -0.0326907 SPIN=   0.00000
   O  -0.0004063  -0.0207102  -0.2635968 SPIN=   0.00000
   O  -0.1896074  -0.4536144  -0.3769605 SPIN=   0.00000
   O  -0.6267573  -0.2854988  -0.2245718 SPIN=   0.00000
   P  -0.2407969  -0.2909577  -0.2142458 SPIN=   0.00000
   O  -0.1480565   0.1167423   0.0326907 SPIN=   0.00000
   O  -0.0004063   0.4792898   0.2635968 SPIN=   0.00000
   O  -0.1896074   0.0463856   0.3769605 SPIN=   0.00000
   O  -0.6267573   0.2145012   0.2245718 SPIN=   0.00000
   P  -0.2407969   0.2090423   0.2142458 SPIN=   0.00000
  Fe   0.0954482  -0.1578354   0.1785989 SPIN=   4.00000
  Fe   0.0954482   0.3421646  -0.1785989 SPIN=   4.00000
%ENDBLOCK POSITIONS_FRAC

# Note: total spin =   8.00

KPOINTS_MP_SPACING 0.07

%BLOCK SPECIES_POT
QC5
%ENDBLOCK SPECIES_POT

%BLOCK HUBBARD_U
Fe d:4.0
%ENDBLOCK HUBBARD_U

SNAP_TO_SYMMETRY
SYMMETRY_GENERATE

