#              Generated by Buildcell
#
# at 18:31:48 (GMT+0.0) 26th November 2020
# in /lustre/scratch/uccabz1/launch_tmp
# on node-c12f-023
# by uccabz1
#
# compiler GCC version 4.9.2
# options -cpp -iprefix /lustre/shared/ucl/apps/gcc/4.9.2/bin/../lib/gcc/x86_64-unknown-linux-gnu/4.9.2/ -mtune=corei7 -march=x86-64 -g -Og
#
# seed -2122810106 -2111341955  1540618904   392514116   237727314   168896202  1298978307 -1364339574  1584643474   293591558  -837494361  -662480417
#
#      Author: C. J. Pickard (cjp20@cam.ac.uk)
#                Space group: C2221
#

%BLOCK LATTICE_ABC
      5.18001      5.44352     12.90256
     90.00000     90.00000    118.41118
%ENDBLOCK LATTICE_ABC

%BLOCK POSITIONS_FRAC
  Li   0.2683643   0.0371511   0.0609387 SPIN=   0.00000
  Li  -0.2683643  -0.0371511  -0.4390613 SPIN=   0.00000
  Li   0.2312132  -0.0371511   0.4390613 SPIN=   0.00000
  Li  -0.2312132   0.0371511  -0.0609387 SPIN=   0.00000
   O   0.5760616   0.7240078  -0.1745117 SPIN=   0.00000
   O   0.4595982   0.4430410  -0.0025154 SPIN=   0.00000
   O   0.1468552   0.2188831  -0.1549545 SPIN=   0.00000
   O   0.6643692   0.2982791  -0.1522076 SPIN=   0.00000
   P   0.4702006   0.4357348  -0.1242617 SPIN=   0.00000
   O  -0.5760616  -0.7240078   0.3254883 SPIN=   0.00000
   O  -0.4595982  -0.4430410   0.4974846 SPIN=   0.00000
   O  -0.1468552  -0.2188831   0.3450455 SPIN=   0.00000
   O  -0.6643692  -0.2982791   0.3477924 SPIN=   0.00000
   P  -0.4702006  -0.4357348   0.3757383 SPIN=   0.00000
   O  -0.1479463  -0.7240078  -0.3254883 SPIN=   0.00000
   O   0.0165573  -0.4430410  -0.4974846 SPIN=   0.00000
   O  -0.0720279  -0.2188831  -0.3450455 SPIN=   0.00000
   O   0.3660901  -0.2982791  -0.3477924 SPIN=   0.00000
   P   0.0344658  -0.4357348  -0.3757383 SPIN=   0.00000
   O   0.1479463   0.7240078   0.1745117 SPIN=   0.00000
   O  -0.0165573   0.4430410   0.0025154 SPIN=   0.00000
   O   0.0720279   0.2188831   0.1549545 SPIN=   0.00000
   O  -0.3660901   0.2982791   0.1522076 SPIN=   0.00000
   P  -0.0344658   0.4357348   0.1242617 SPIN=   0.00000
  Fe  -0.0908721   0.3229319   0.3427657 SPIN=   4.00000
  Fe   0.0908721  -0.3229319  -0.1572343 SPIN=   4.00000
  Fe  -0.4138040  -0.3229319   0.1572343 SPIN=   4.00000
  Fe   0.4138040   0.3229319  -0.3427657 SPIN=   4.00000
%ENDBLOCK POSITIONS_FRAC

# Note: total spin =  16.00

KPOINTS_MP_SPACING 0.07

%BLOCK SPECIES_POT
QC5
%ENDBLOCK SPECIES_POT

%BLOCK HUBBARD_U
Fe d:4.0
%ENDBLOCK HUBBARD_U

SNAP_TO_SYMMETRY
SYMMETRY_GENERATE

