#              Generated by Buildcell
#
# at 20:37:52 (GMT+0.0) 26th November 2020
# in /lustre/scratch/uccabz1/launch_tmp
# on node-c12n-030
# by uccabz1
#
# compiler GCC version 4.9.2
# options -cpp -iprefix /lustre/shared/ucl/apps/gcc/4.9.2/bin/../lib/gcc/x86_64-unknown-linux-gnu/4.9.2/ -mtune=corei7 -march=x86-64 -g -Og
#
# seed -1557703730    81532476 -1513370594 -2065049978 -1045041945  -415395667   713903098 -2119049794    93749369 -1269207757 -1397693056  -854356694
#
#      Author: C. J. Pickard (cjp20@cam.ac.uk)
#                Space group: Pc
#

%BLOCK LATTICE_ABC
      5.04104      8.13732      8.24440
    108.87724     90.00000     90.00000
%ENDBLOCK LATTICE_ABC

%BLOCK POSITIONS_FRAC
  Li  -0.4993185  -0.4307318   0.2659810 SPIN=   0.00000
  Li   0.4993185   0.0692682   0.2659810 SPIN=   0.00000
  Li  -0.4129766   0.3095237  -0.3453291 SPIN=   0.00000
  Li   0.4129766  -0.1904763  -0.3453291 SPIN=   0.00000
   O  -0.2217422   0.1754691   0.1264592 SPIN=   0.00000
   O  -0.6865521   0.3167780   0.1381633 SPIN=   0.00000
   O  -0.3206010   0.4215782  -0.0018884 SPIN=   0.00000
   O  -0.5109350   0.1254627  -0.1438799 SPIN=   0.00000
   P  -0.4245016   0.2537451   0.0328162 SPIN=   0.00000
   O   0.2217422  -0.3245309   0.1264592 SPIN=   0.00000
   O   0.6865521  -0.1832220   0.1381633 SPIN=   0.00000
   O   0.3206010  -0.0784218  -0.0018884 SPIN=   0.00000
   O   0.5109350  -0.3745373  -0.1438799 SPIN=   0.00000
   P   0.4245016  -0.2462549   0.0328162 SPIN=   0.00000
   O   0.0287463  -0.3284168  -0.2218875 SPIN=   0.00000
   O  -0.1674552  -0.1289871  -0.3823125 SPIN=   0.00000
   O   0.1067410  -0.3792636  -0.5459859 SPIN=   0.00000
   O  -0.3454337  -0.4306469  -0.4460839 SPIN=   0.00000
   P  -0.0907592  -0.3187888  -0.3901883 SPIN=   0.00000
   O  -0.0287463   0.1715832  -0.2218875 SPIN=   0.00000
   O   0.1674552   0.3710129  -0.3823125 SPIN=   0.00000
   O  -0.1067410   0.1207364  -0.5459859 SPIN=   0.00000
   O   0.3454337   0.0693531  -0.4460839 SPIN=   0.00000
   P   0.0907592   0.1812112  -0.3901883 SPIN=   0.00000
  Fe   0.0767823   0.4587337  -0.0694564 SPIN=   4.11535
  Fe  -0.0767823  -0.0412663  -0.0694564 SPIN=   4.11535
  Fe   0.0000190   0.3484215   0.3570991 SPIN=   3.88465
  Fe  -0.0000190  -0.1515785   0.3570991 SPIN=   3.88465
%ENDBLOCK POSITIONS_FRAC

# Note: total spin =  16.00

KPOINTS_MP_SPACING 0.07

%BLOCK SPECIES_POT
QC5
%ENDBLOCK SPECIES_POT

%BLOCK HUBBARD_U
Fe d:4.0
%ENDBLOCK HUBBARD_U

SNAP_TO_SYMMETRY
SYMMETRY_GENERATE

