#              Generated by Buildcell
#
# at 14:38:04 (GMT+0.0) 24th November 2020
# in /lustre/scratch/uccabz1/launch_tmp
# on node-c12a-027
# by uccabz1
#
# compiler GCC version 4.9.2
# options -cpp -iprefix /lustre/shared/ucl/apps/gcc/4.9.2/bin/../lib/gcc/x86_64-unknown-linux-gnu/4.9.2/ -mtune=corei7 -march=x86-64 -g -Og
#
# seed   741972597  -611300116   160524728    50767772 -2057563821  1798355228  -371954902    85586639  -384126571 -1856576455  -256132393  1105089821
#
#      Author: C. J. Pickard (cjp20@cam.ac.uk)
#                Space group: P-4
#

%BLOCK LATTICE_ABC
      5.35445      5.46641      5.46641
     90.00000     90.00000     90.00000
%ENDBLOCK LATTICE_ABC

%BLOCK POSITIONS_FRAC
  Li   0.5000000   0.0000000   0.0000000 SPIN=   0.00000
  Li   0.5000000   0.5000000   0.5000000 SPIN=   0.00000
   O   0.2082981   0.1966646   0.1702030 SPIN=   0.00000
   O   0.2152606   0.6625132   0.2641607 SPIN=   0.00000
   O   0.2082981  -0.1966646  -0.1702030 SPIN=   0.00000
   O   0.2152606  -0.6625132  -0.2641607 SPIN=   0.00000
   O  -0.2082981  -0.1702030   0.1966646 SPIN=   0.00000
   O  -0.2152606  -0.2641607   0.6625132 SPIN=   0.00000
   O  -0.2082981   0.1702030  -0.1966646 SPIN=   0.00000
   O  -0.2152606   0.2641607  -0.6625132 SPIN=   0.00000
   P   0.0000000  -0.5000000  -0.5000000 SPIN=   0.00000
   P   0.0000000   0.0000000   0.0000000 SPIN=   0.00000
  Fe  -0.1540267   0.5000000  -0.0000000 SPIN=   4.00000
  Fe   0.1540267  -0.0000000  -0.5000000 SPIN=   4.00000
%ENDBLOCK POSITIONS_FRAC

# Note: total spin =   8.00

KPOINTS_MP_SPACING 0.07

%BLOCK SPECIES_POT
QC5
%ENDBLOCK SPECIES_POT

%BLOCK HUBBARD_U
Fe d:4.0
%ENDBLOCK HUBBARD_U

SNAP_TO_SYMMETRY
SYMMETRY_GENERATE

