#              Generated by Buildcell
#
# at 09:34:42 (GMT+0.0) 26th November 2020
# in /lustre/scratch/uccabz1/launch_tmp
# on node-c12d-029
# by uccabz1
#
# compiler GCC version 4.9.2
# options -cpp -iprefix /lustre/shared/ucl/apps/gcc/4.9.2/bin/../lib/gcc/x86_64-unknown-linux-gnu/4.9.2/ -mtune=corei7 -march=x86-64 -g -Og
#
# seed -2037709252  1838872031  -352135322 -1500919238  1661373373   683398921   365386447 -1517557956 -1567747132  -746927370  1614985083  -402656753
#
#      Author: C. J. Pickard (cjp20@cam.ac.uk)
#                Space group: P-1
#

%BLOCK LATTICE_ABC
      5.12378      6.42050     10.17946
     96.15366     95.53238    104.29710
%ENDBLOCK LATTICE_ABC

%BLOCK POSITIONS_FRAC
  Li   0.1874273  -0.3919625  -0.0905104 SPIN=   0.00000
  Li  -0.1874273   0.3919625   0.0905104 SPIN=   0.00000
  Li   0.2096771  -0.1029240   0.4395371 SPIN=   0.00000
  Li  -0.2096771   0.1029240  -0.4395371 SPIN=   0.00000
   O   0.5383380   0.3340219  -0.4598984 SPIN=   0.00000
   O   0.1681850   0.0625373  -0.3613739 SPIN=   0.00000
   O   0.4285683   0.3981925  -0.2172759 SPIN=   0.00000
   O   0.0900545   0.4195932  -0.4066125 SPIN=   0.00000
   P   0.3160903   0.3065757  -0.3670754 SPIN=   0.00000
   O  -0.5383380  -0.3340219   0.4598984 SPIN=   0.00000
   O  -0.1681850  -0.0625373   0.3613739 SPIN=   0.00000
   O  -0.4285683  -0.3981925   0.2172759 SPIN=   0.00000
   O  -0.0900545  -0.4195932   0.4066125 SPIN=   0.00000
   P  -0.3160903  -0.3065757   0.3670754 SPIN=   0.00000
   O   0.4522432   0.1469222   0.0729296 SPIN=   0.00000
   O   0.1653932  -0.1955212   0.1559361 SPIN=   0.00000
   O   0.4480950   0.1014498   0.3233347 SPIN=   0.00000
   O   0.0336837   0.1545914   0.1940698 SPIN=   0.00000
   P   0.2814528   0.0581344   0.1806054 SPIN=   0.00000
   O  -0.4522432  -0.1469222  -0.0729296 SPIN=   0.00000
   O  -0.1653932   0.1955212  -0.1559361 SPIN=   0.00000
   O  -0.4480950  -0.1014498  -0.3233347 SPIN=   0.00000
   O  -0.0336837  -0.1545914  -0.1940698 SPIN=   0.00000
   P  -0.2814528  -0.0581344  -0.1806054 SPIN=   0.00000
  Fe   0.2847440   0.1231121  -0.1248330 SPIN=   3.41536
  Fe  -0.2847440  -0.1231121   0.1248330 SPIN=   3.41536
  Fe   0.1831087   0.3795295   0.3665921 SPIN=   4.58464
  Fe  -0.1831087  -0.3795295  -0.3665921 SPIN=   4.58464
%ENDBLOCK POSITIONS_FRAC

# Note: total spin =  16.00

KPOINTS_MP_SPACING 0.07

%BLOCK SPECIES_POT
QC5
%ENDBLOCK SPECIES_POT

%BLOCK HUBBARD_U
Fe d:4.0
%ENDBLOCK HUBBARD_U

SNAP_TO_SYMMETRY
SYMMETRY_GENERATE

