#              Generated by Buildcell
#
# at 17:36:05 (GMT+0.0) 1st December 2020
# in /scratch/scratch/uccabz1/launch_tmp
# on node-a14b-026
# by uccabz1
#
# compiler GCC version 4.9.2
# options -cpp -iprefix /scratch/UCL/applications/gcc/4.9.2/bin/../lib/gcc/x86_64-unknown-linux-gnu/4.9.2/ -mtune=corei7 -march=x86-64 -g -O2
#
# seed  1233265759  -450967249 -1773157105 -1072746847  -863582386  1929074209  1943259012   873668735   410788459   -51370700  2134455236 -1838877382
#
#      Author: C. J. Pickard (cjp20@cam.ac.uk)
#                Space group: Pna21
#

%BLOCK LATTICE_ABC
      6.44646      6.81335      7.28564
     90.00000     90.00000     90.00000
%ENDBLOCK LATTICE_ABC

%BLOCK POSITIONS_FRAC
  Li   0.1066480  -0.1830024   0.2852874 SPIN=   0.00000
  Li  -0.1066480   0.3169976  -0.2852874 SPIN=   0.00000
  Li   0.3933520  -0.1830024  -0.2147126 SPIN=   0.00000
  Li  -0.3933520   0.3169976   0.2147126 SPIN=   0.00000
   O  -0.5946260  -0.4446096  -0.6122920 SPIN=   0.00000
   O  -0.2411548  -0.6101379  -0.5389110 SPIN=   0.00000
   O  -0.2571339  -0.2480481  -0.5474717 SPIN=   0.00000
   O  -0.4287679  -0.4293414  -0.2898868 SPIN=   0.00000
   P  -0.3923966  -0.4336070  -0.5008258 SPIN=   0.00000
   O   0.5946260   0.0553904   0.6122920 SPIN=   0.00000
   O   0.2411548  -0.1101379   0.5389110 SPIN=   0.00000
   O   0.2571339   0.2519519   0.5474717 SPIN=   0.00000
   O   0.4287679   0.0706586   0.2898868 SPIN=   0.00000
   P   0.3923966   0.0663930   0.5008258 SPIN=   0.00000
   O   0.0946260  -0.4446096  -0.1122920 SPIN=   0.00000
   O  -0.2588452  -0.6101379  -0.0389110 SPIN=   0.00000
   O  -0.2428661  -0.2480481  -0.0474717 SPIN=   0.00000
   O  -0.0712321  -0.4293414   0.2101132 SPIN=   0.00000
   P  -0.1076034  -0.4336070  -0.0008258 SPIN=   0.00000
   O  -0.0946260   0.0553904   0.1122920 SPIN=   0.00000
   O   0.2588452  -0.1101379   0.0389110 SPIN=   0.00000
   O   0.2428661   0.2519519   0.0474717 SPIN=   0.00000
   O   0.0712321   0.0706586  -0.2101132 SPIN=   0.00000
   P   0.1076034   0.0663930   0.0008258 SPIN=   0.00000
  Fe  -0.1068895  -0.1668672  -0.3038688 SPIN=   4.00000
  Fe   0.1068895   0.3331328   0.3038688 SPIN=   4.00000
  Fe  -0.3931105  -0.1668672   0.1961312 SPIN=   4.00000
  Fe   0.3931105   0.3331328  -0.1961312 SPIN=   4.00000
%ENDBLOCK POSITIONS_FRAC

# Note: total spin =  16.00

KPOINTS_MP_SPACING 0.07

%BLOCK SPECIES_POT
QC5
%ENDBLOCK SPECIES_POT

%BLOCK HUBBARD_U
Fe d:4.0
%ENDBLOCK HUBBARD_U

SNAP_TO_SYMMETRY
SYMMETRY_GENERATE

