#              Generated by Buildcell
#
# at 20:02:47 (GMT+0.0) 26th November 2020
# in /scratch/scratch/mmm0366/launch_tmp
# on node-k98a-027
# by mmm0366
#
# compiler GCC version 4.9.2
# options -cpp -iprefix /scratch/UCL/applications/gcc/4.9.2/bin/../lib/gcc/x86_64-unknown-linux-gnu/4.9.2/ -mtune=corei7 -march=x86-64 -g -O2
#
# seed -2091993778   592055318 -1239341066   440813445   637194996   328454824 -1513924295  1390291080   593645539  -334204549  2103992321  -412639506
#
#      Author: C. J. Pickard (cjp20@cam.ac.uk)
#                Space group: Pmn21
#

%BLOCK LATTICE_ABC
      3.94222      8.29127      9.79012
     90.00000     90.00000     90.00000
%ENDBLOCK LATTICE_ABC

%BLOCK POSITIONS_FRAC
  Li  -0.1886279  -0.4520368   0.0000000 SPIN=   0.00000
  Li   0.1886279   0.0479632   0.5000000 SPIN=   0.00000
  Li   0.3097720   0.2681844  -0.0000000 SPIN=   0.00000
  Li  -0.3097720  -0.2318156   0.5000000 SPIN=   0.00000
   O   0.0386542   0.3318651   0.3515643 SPIN=   0.00000
   O  -0.1445923   0.0318172   0.3313765 SPIN=   0.00000
   O  -0.2294300   0.2101031   0.1321614 SPIN=   0.00000
   P   0.0119068   0.1833612   0.2580881 SPIN=   0.00000
   O  -0.0386542  -0.1681349   0.1484357 SPIN=   0.00000
   O   0.1445923  -0.4681828   0.1686235 SPIN=   0.00000
   O   0.2294300  -0.2898969   0.3678386 SPIN=   0.00000
   P  -0.0119068  -0.3166388   0.2419119 SPIN=   0.00000
   O  -0.0386542  -0.1681349  -0.1484357 SPIN=   0.00000
   O   0.1445923  -0.4681828  -0.1686235 SPIN=   0.00000
   O   0.2294300  -0.2898969  -0.3678386 SPIN=   0.00000
   P  -0.0119068  -0.3166388  -0.2419119 SPIN=   0.00000
   O   0.0386542   0.3318651  -0.3515643 SPIN=   0.00000
   O  -0.1445923   0.0318172  -0.3313765 SPIN=   0.00000
   O  -0.2294300   0.2101031  -0.1321614 SPIN=   0.00000
   P   0.0119068   0.1833612  -0.2580881 SPIN=   0.00000
   O   0.3950492   0.0168102  -0.0000000 SPIN=   0.00000
   O  -0.3950492  -0.4831898  -0.5000000 SPIN=   0.00000
   O  -0.4090570   0.2157944   0.5000000 SPIN=   0.00000
   O   0.4090570  -0.2842056  -0.0000000 SPIN=   0.00000
  Fe   0.4880073  -0.0693927   0.2002187 SPIN=   4.00000
  Fe  -0.4880073   0.4306073   0.2997813 SPIN=   4.00000
  Fe  -0.4880073   0.4306073  -0.2997813 SPIN=   4.00000
  Fe   0.4880073  -0.0693927  -0.2002187 SPIN=   4.00000
%ENDBLOCK POSITIONS_FRAC

# Note: total spin =  16.00

KPOINTS_MP_SPACING 0.07

%BLOCK SPECIES_POT
QC5
%ENDBLOCK SPECIES_POT

%BLOCK HUBBARD_U
Fe d:4.0
%ENDBLOCK HUBBARD_U

SNAP_TO_SYMMETRY
SYMMETRY_GENERATE

