#              Generated by Buildcell
#
# at 11:20:27 (GMT+0.0) 24th November 2020
# in /scratch/scratch/uccabz1/launch_tmp
# on node-a14c-023
# by uccabz1
#
# compiler GCC version 4.9.2
# options -cpp -iprefix /scratch/UCL/applications/gcc/4.9.2/bin/../lib/gcc/x86_64-unknown-linux-gnu/4.9.2/ -mtune=corei7 -march=x86-64 -g -O2
#
# seed -1135000248 -1814694373  1995024119 -1242195655 -1071531065 -1453847331   508387813  1646323770  1129691153  -753290791  1715406003   431313606
#
#      Author: C. J. Pickard (cjp20@cam.ac.uk)
#                Space group: Cm
#

%BLOCK LATTICE_ABC
      5.21216      6.10019      6.31869
    115.79467    110.90216     96.62208
%ENDBLOCK LATTICE_ABC

%BLOCK POSITIONS_FRAC
  Li   0.2798059   0.0202582   0.0000000 SPIN=   0.00000
  Li   0.3913245  -0.4792427   0.0000000 SPIN=   0.00000
   O   0.2766879   0.5744721   0.6744134 SPIN=   0.00000
   O  -0.0803888   0.1491835   0.2418888 SPIN=   0.00000
   O  -0.1998289   0.5499937   0.3269177 SPIN=   0.00000
   P   0.0658553   0.4472375   0.3795837 SPIN=   0.00000
   O  -0.3977255  -0.0999413  -0.6744134 SPIN=   0.00000
   O  -0.3222776  -0.0927052  -0.2418888 SPIN=   0.00000
   O  -0.5267466   0.2230760  -0.3269177 SPIN=   0.00000
   P  -0.3137284   0.0676538  -0.3795837 SPIN=   0.00000
   O  -0.2241122  -0.3247153   0.0000000 SPIN=   0.00000
   O   0.0160739   0.3488885  -0.0000000 SPIN=   0.00000
  Fe   0.0713349  -0.0764165   0.3981191 SPIN=   4.00000
  Fe  -0.3267842  -0.4745356  -0.3981191 SPIN=   4.00000
%ENDBLOCK POSITIONS_FRAC

# Note: total spin =   8.00

KPOINTS_MP_SPACING 0.07

%BLOCK SPECIES_POT
QC5
%ENDBLOCK SPECIES_POT

%BLOCK HUBBARD_U
Fe d:4.0
%ENDBLOCK HUBBARD_U

SNAP_TO_SYMMETRY
SYMMETRY_GENERATE

