#              Generated by Buildcell
#
# at 14:00:17 (GMT+0.0) 26th November 2020
# in /scratch/scratch/uccabz1/launch_tmp
# on node-k10a-018
# by uccabz1
#
# compiler GCC version 4.9.2
# options -cpp -iprefix /scratch/UCL/applications/gcc/4.9.2/bin/../lib/gcc/x86_64-unknown-linux-gnu/4.9.2/ -mtune=corei7 -march=x86-64 -g -O2
#
# seed -1430960382  1394580658 -1417790362   332420511   896086221   142208800 -1114119617    36084898  -706757120  -352917454  1895404661  -994180153
#
#      Author: C. J. Pickard (cjp20@cam.ac.uk)
#                Space group: P212121
#

%BLOCK LATTICE_ABC
      4.74362      6.21307     10.85759
     90.00000     90.00000     90.00000
%ENDBLOCK LATTICE_ABC

%BLOCK POSITIONS_FRAC
  Li   0.0277112  -0.0647665   0.3482226 SPIN=   0.00000
  Li  -0.4722888  -0.4352335  -0.3482226 SPIN=   0.00000
  Li   0.4722888   0.0647665  -0.1517774 SPIN=   0.00000
  Li  -0.0277112   0.4352335   0.1517774 SPIN=   0.00000
   O  -0.1672069   0.4109443  -0.0391465 SPIN=   0.00000
   O  -0.5976978   0.4651647   0.1054956 SPIN=   0.00000
   O  -0.5025007   0.7406847  -0.0531365 SPIN=   0.00000
   O  -0.6800633   0.3777430  -0.1167756 SPIN=   0.00000
   P  -0.4721268   0.4925385  -0.0276691 SPIN=   0.00000
   O   0.3327931   0.0890557   0.0391465 SPIN=   0.00000
   O  -0.0976978   0.0348353  -0.1054956 SPIN=   0.00000
   O  -0.0025007  -0.2406847   0.0531365 SPIN=   0.00000
   O  -0.1800633   0.1222570   0.1167756 SPIN=   0.00000
   P   0.0278732   0.0074615   0.0276691 SPIN=   0.00000
   O  -0.3327931  -0.4109443   0.4608535 SPIN=   0.00000
   O   0.0976978  -0.4651647   0.6054956 SPIN=   0.00000
   O   0.0025007  -0.7406847   0.4468635 SPIN=   0.00000
   O   0.1800633  -0.3777430   0.3832244 SPIN=   0.00000
   P  -0.0278732  -0.4925385   0.4723309 SPIN=   0.00000
   O   0.1672069  -0.0890557  -0.4608535 SPIN=   0.00000
   O   0.5976978  -0.0348353  -0.6054956 SPIN=   0.00000
   O   0.5025007   0.2406847  -0.4468635 SPIN=   0.00000
   O   0.6800633  -0.1222570  -0.3832244 SPIN=   0.00000
   P   0.4721268  -0.0074615  -0.4723309 SPIN=   0.00000
  Fe  -0.4721206  -0.1550435   0.1420677 SPIN=   4.00000
  Fe   0.0278794  -0.3449565  -0.1420677 SPIN=   4.00000
  Fe  -0.0278794   0.1550435  -0.3579323 SPIN=   4.00000
  Fe   0.4721206   0.3449565   0.3579323 SPIN=   4.00000
%ENDBLOCK POSITIONS_FRAC

# Note: total spin =  16.00

KPOINTS_MP_SPACING 0.07

%BLOCK SPECIES_POT
QC5
%ENDBLOCK SPECIES_POT

%BLOCK HUBBARD_U
Fe d:4.0
%ENDBLOCK HUBBARD_U

SNAP_TO_SYMMETRY
SYMMETRY_GENERATE

