#              Generated by Buildcell
#
# at 14:19:15 (GMT+0.0) 24th November 2020
# in /scratch/scratch/uccabz1/launch_tmp
# on node-a14b-007
# by uccabz1
#
# compiler GCC version 4.9.2
# options -cpp -iprefix /scratch/UCL/applications/gcc/4.9.2/bin/../lib/gcc/x86_64-unknown-linux-gnu/4.9.2/ -mtune=corei7 -march=x86-64 -g -O2
#
# seed  1052098969   674458318  2137593609 -1622521093   -25370253 -1617692012   324218073   541979831   290432680    -8269922 -1363235331  1345513380
#
#      Author: C. J. Pickard (cjp20@cam.ac.uk)
#                Space group: Cm
#

%BLOCK LATTICE_ABC
      4.18233      6.39385      6.39385
     90.03810    104.43137    104.43137
%ENDBLOCK LATTICE_ABC

%BLOCK POSITIONS_FRAC
  Li   0.2923519  -0.2193560   0.1153540 SPIN=   0.00000
  Li   0.2923519   0.1153540  -0.2193560 SPIN=   0.00000
   O  -0.1831051   0.1412981  -0.1243435 SPIN=   0.00000
   O  -0.2472069   0.5210899  -0.0283456 SPIN=   0.00000
   O   0.2858218   0.4239773   0.1528106 SPIN=   0.00000
   O   0.1697248   0.4921728  -0.2412675 SPIN=   0.00000
   P  -0.0018482   0.3822967  -0.0658330 SPIN=   0.00000
   O  -0.1831051  -0.1243435   0.1412981 SPIN=   0.00000
   O  -0.2472069  -0.0283456   0.5210899 SPIN=   0.00000
   O   0.2858218   0.1528106   0.4239773 SPIN=   0.00000
   O   0.1697248  -0.2412675   0.4921728 SPIN=   0.00000
   P  -0.0018482  -0.0658330   0.3822967 SPIN=   0.00000
  Fe  -0.3923179  -0.2954982  -0.2954982 SPIN=   6.10111
  Fe  -0.3069591   0.2885969   0.2885969 SPIN=   1.89889
%ENDBLOCK POSITIONS_FRAC

# Note: total spin =   8.00

KPOINTS_MP_SPACING 0.07

%BLOCK SPECIES_POT
QC5
%ENDBLOCK SPECIES_POT

%BLOCK HUBBARD_U
Fe d:4.0
%ENDBLOCK HUBBARD_U

SNAP_TO_SYMMETRY
SYMMETRY_GENERATE

