#              Generated by Buildcell
#
# at 11:53:33 (GMT+0.0) 24th November 2020
# in /scratch/scratch/uccabz1/launch_tmp
# on node-a14b-028
# by uccabz1
#
# compiler GCC version 4.9.2
# options -cpp -iprefix /scratch/UCL/applications/gcc/4.9.2/bin/../lib/gcc/x86_64-unknown-linux-gnu/4.9.2/ -mtune=corei7 -march=x86-64 -g -O2
#
# seed -1175719549  1930661981  -151944289  1143700803   516226662   903339730  1408810730  1989978633 -1777211644 -1024513074 -1535060605  -208036112
#
#      Author: C. J. Pickard (cjp20@cam.ac.uk)
#                Space group: Amm2
#

%BLOCK LATTICE_ABC
      4.98200      5.86682      6.01423
     90.00000    114.46798     90.00000
%ENDBLOCK LATTICE_ABC

%BLOCK POSITIONS_FRAC
  Li   0.0543177   0.0000000   0.1086355 SPIN=   0.00000
  Li  -0.3965899   0.5000000   0.2068201 SPIN=   0.00000
   O   0.1824937  -0.2543517  -0.1391589 SPIN=   0.00000
   O   0.4148803  -0.2382877   0.3351196 SPIN=   0.00000
   O  -0.3216525   0.2543517  -0.1391589 SPIN=   0.00000
   O  -0.0797607   0.2382877   0.3351196 SPIN=   0.00000
   O  -0.3216525  -0.2543517  -0.1391589 SPIN=   0.00000
   O  -0.0797607  -0.2382877   0.3351196 SPIN=   0.00000
   O   0.1824937   0.2543517  -0.1391589 SPIN=   0.00000
   O   0.4148803   0.2382877   0.3351196 SPIN=   0.00000
   P   0.4529783   0.0000000  -0.0940434 SPIN=   0.00000
   P  -0.0396707  -0.5000000  -0.0793414 SPIN=   0.00000
  Fe  -0.2477116   0.0000000  -0.4954232 SPIN=   4.47990
  Fe   0.3024658  -0.5000000  -0.3950684 SPIN=   3.52010
%ENDBLOCK POSITIONS_FRAC

# Note: total spin =   8.00

KPOINTS_MP_SPACING 0.07

%BLOCK SPECIES_POT
QC5
%ENDBLOCK SPECIES_POT

%BLOCK HUBBARD_U
Fe d:4.0
%ENDBLOCK HUBBARD_U

SNAP_TO_SYMMETRY
SYMMETRY_GENERATE

