#              Generated by Buildcell
#
# at 12:23:01 (GMT+0.0) 24th November 2020
# in /lustre/scratch/uccabz1/launch_tmp
# on node-c12l-023
# by uccabz1
#
# compiler GCC version 4.9.2
# options -cpp -iprefix /lustre/shared/ucl/apps/gcc/4.9.2/bin/../lib/gcc/x86_64-unknown-linux-gnu/4.9.2/ -mtune=corei7 -march=x86-64 -g -Og
#
# seed  -201352010 -1881096038  2106582143 -1940893133 -1349911134 -1172335818  -421667324   938491565   916415569    48102526  1477741589  1594549315
#
#      Author: C. J. Pickard (cjp20@cam.ac.uk)
#                Space group: P-1
#

%BLOCK LATTICE_ABC
      4.23688      6.28419      6.62499
     71.34976     74.21762     79.66218
%ENDBLOCK LATTICE_ABC

%BLOCK POSITIONS_FRAC
  Li   0.7712209  -0.1832741  -0.4350207 SPIN=   0.00000
  Li  -0.7712209   0.1832741   0.4350207 SPIN=   0.00000
   O   0.2210576  -0.3220716  -0.3438262 SPIN=   0.00000
   O   0.4923163  -0.1587288  -0.1252800 SPIN=   0.00000
   O  -0.0157084   0.0476250  -0.2359548 SPIN=   0.00000
   O  -0.0461405  -0.3227130   0.0563181 SPIN=   0.00000
   P   0.1635122  -0.1976373  -0.1692786 SPIN=   0.00000
   O  -0.2210576   0.3220716   0.3438262 SPIN=   0.00000
   O  -0.4923163   0.1587288   0.1252800 SPIN=   0.00000
   O   0.0157084  -0.0476250   0.2359548 SPIN=   0.00000
   O   0.0461405   0.3227130  -0.0563181 SPIN=   0.00000
   P  -0.1635122   0.1976373   0.1692786 SPIN=   0.00000
  Fe   0.5482610   0.2985422  -0.2129106 SPIN=   4.00000
  Fe  -0.5482610  -0.2985422   0.2129106 SPIN=   4.00000
%ENDBLOCK POSITIONS_FRAC

# Note: total spin =   8.00

KPOINTS_MP_SPACING 0.07

%BLOCK SPECIES_POT
QC5
%ENDBLOCK SPECIES_POT

%BLOCK HUBBARD_U
Fe d:4.0
%ENDBLOCK HUBBARD_U

SNAP_TO_SYMMETRY
SYMMETRY_GENERATE

