#              Generated by Buildcell
#
# at 15:18:34 (GMT+0.0) 26th November 2020
# in /lustre/scratch/uccabz1/launch_tmp
# on node-c12g-027
# by uccabz1
#
# compiler GCC version 4.9.2
# options -cpp -iprefix /lustre/shared/ucl/apps/gcc/4.9.2/bin/../lib/gcc/x86_64-unknown-linux-gnu/4.9.2/ -mtune=corei7 -march=x86-64 -g -Og
#
# seed    87021423   275023637   698047246   110107044   661821394 -1963296637  -185783623   597478250   -56892913  -394358704   191161679 -1169090238
#
#      Author: C. J. Pickard (cjp20@cam.ac.uk)
#                Space group: P-1
#

%BLOCK LATTICE_ABC
      6.12793      6.55378      8.69739
     73.07113     76.05040     77.23307
%ENDBLOCK LATTICE_ABC

%BLOCK POSITIONS_FRAC
  Li   0.2485279   0.3045976   0.0977094 SPIN=   0.00000
  Li  -0.2485279  -0.3045976  -0.0977094 SPIN=   0.00000
  Li  -0.1561076   0.1889500   0.4157010 SPIN=   0.00000
  Li   0.1561076  -0.1889500  -0.4157010 SPIN=   0.00000
   O   0.4762493  -0.3207444  -0.2866143 SPIN=   0.00000
   O   0.6012538   0.0573874  -0.3834875 SPIN=   0.00000
   O   0.1900187   0.0383740  -0.2977149 SPIN=   0.00000
   O   0.4389372  -0.0845641  -0.0872168 SPIN=   0.00000
   P   0.4294030  -0.0904291  -0.2628920 SPIN=   0.00000
   O  -0.4762493   0.3207444   0.2866143 SPIN=   0.00000
   O  -0.6012538  -0.0573874   0.3834875 SPIN=   0.00000
   O  -0.1900187  -0.0383740   0.2977149 SPIN=   0.00000
   O  -0.4389372   0.0845641   0.0872168 SPIN=   0.00000
   P  -0.4294030   0.0904291   0.2628920 SPIN=   0.00000
   O   0.1037441   0.6229040  -0.1165435 SPIN=   0.00000
   O   0.0676265   0.5055282  -0.3688804 SPIN=   0.00000
   O   0.3757270   0.3043405  -0.2184584 SPIN=   0.00000
   P   0.1261910   0.4329166  -0.1924674 SPIN=   0.00000
   O  -0.1037441  -0.6229040   0.1165435 SPIN=   0.00000
   O  -0.0676265  -0.5055282   0.3688804 SPIN=   0.00000
   O  -0.3757270  -0.3043405   0.2184584 SPIN=   0.00000
   P  -0.1261910  -0.4329166   0.1924674 SPIN=   0.00000
   O   0.5000000  -0.5000000   0.0000000 SPIN=   0.00000
   O  -0.5000000   0.5000000   0.5000000 SPIN=   0.00000
  Fe   0.2860284   0.2930380  -0.4946726 SPIN=   4.20007
  Fe  -0.2860284  -0.2930380   0.4946726 SPIN=   4.20007
  Fe   0.2412322  -0.2058100   0.1393483 SPIN=   3.79993
  Fe  -0.2412322   0.2058100  -0.1393483 SPIN=   3.79993
%ENDBLOCK POSITIONS_FRAC

# Note: total spin =  16.00

KPOINTS_MP_SPACING 0.07

%BLOCK SPECIES_POT
QC5
%ENDBLOCK SPECIES_POT

%BLOCK HUBBARD_U
Fe d:4.0
%ENDBLOCK HUBBARD_U

SNAP_TO_SYMMETRY
SYMMETRY_GENERATE

