#              Generated by Buildcell
#
# at 11:23:38 (GMT+0.0) 24th November 2020
# in /lustre/scratch/uccabz1/launch_tmp
# on node-c12n-026
# by uccabz1
#
# compiler GCC version 4.9.2
# options -cpp -iprefix /lustre/shared/ucl/apps/gcc/4.9.2/bin/../lib/gcc/x86_64-unknown-linux-gnu/4.9.2/ -mtune=corei7 -march=x86-64 -g -Og
#
# seed   726719569 -2070196838  1584299607  -121622075  -577580752  1959547913  -562092818 -1262324020  1215464142    10787671   357473829 -1156697713
#
#      Author: C. J. Pickard (cjp20@cam.ac.uk)
#                Space group: P-1
#

%BLOCK LATTICE_ABC
      4.63953      5.86086      6.14743
     84.34510     74.45235     85.36370
%ENDBLOCK LATTICE_ABC

%BLOCK POSITIONS_FRAC
  Li  -0.3875545   0.2215997   0.0471619 SPIN=   0.00000
  Li   0.3875545  -0.2215997  -0.0471619 SPIN=   0.00000
   O   0.0690448   0.2778420  -0.0002139 SPIN=   0.00000
   O   0.1456144   0.5314933   0.3011734 SPIN=   0.00000
   O  -0.3028974   0.3033995   0.3976394 SPIN=   0.00000
   O   0.2029791   0.1034950   0.3652635 SPIN=   0.00000
   P   0.0328911   0.3002948   0.2529647 SPIN=   0.00000
   O  -0.0690448  -0.2778420   0.0002139 SPIN=   0.00000
   O  -0.1456144  -0.5314933  -0.3011734 SPIN=   0.00000
   O   0.3028974  -0.3033995  -0.3976394 SPIN=   0.00000
   O  -0.2029791  -0.1034950  -0.3652635 SPIN=   0.00000
   P  -0.0328911  -0.3002948  -0.2529647 SPIN=   0.00000
  Fe  -0.2478261  -0.2514973   0.3491670 SPIN=   4.00000
  Fe   0.2478261   0.2514973  -0.3491670 SPIN=   4.00000
%ENDBLOCK POSITIONS_FRAC

# Note: total spin =   8.00

KPOINTS_MP_SPACING 0.07

%BLOCK SPECIES_POT
QC5
%ENDBLOCK SPECIES_POT

%BLOCK HUBBARD_U
Fe d:4.0
%ENDBLOCK HUBBARD_U

SNAP_TO_SYMMETRY
SYMMETRY_GENERATE

