#              Generated by Buildcell
#
# at 09:59:19 (GMT+0.0) 24th November 2020
# in /lustre/scratch/uccabz1/launch_tmp
# on node-c12p-022
# by uccabz1
#
# compiler GCC version 4.9.2
# options -cpp -iprefix /lustre/shared/ucl/apps/gcc/4.9.2/bin/../lib/gcc/x86_64-unknown-linux-gnu/4.9.2/ -mtune=corei7 -march=x86-64 -g -Og
#
# seed  1783950966  1533367609  1063535182 -1268903530   329476066  -297122556  -543672522  1392973289 -1725090043   897364488  1362818673   267575587
#
#      Author: C. J. Pickard (cjp20@cam.ac.uk)
#                Space group: P21
#

%BLOCK LATTICE_ABC
      3.91999      5.37158      7.71327
     90.00000     90.00000     99.89225
%ENDBLOCK LATTICE_ABC

%BLOCK POSITIONS_FRAC
  Li   0.0562719   0.2774304  -0.0994373 SPIN=   0.00000
  Li  -0.0562719  -0.2774304   0.4005627 SPIN=   0.00000
   O   0.0548824   0.5168491  -0.3333399 SPIN=   0.00000
   O   0.5012619   0.2116402  -0.3176350 SPIN=   0.00000
   O  -0.0016066   0.1025809  -0.5129080 SPIN=   0.00000
   O   0.4665955   0.4656507  -0.5873491 SPIN=   0.00000
   P   0.2471067   0.3361084  -0.4340103 SPIN=   0.00000
   O  -0.0548824  -0.5168491   0.1666601 SPIN=   0.00000
   O  -0.5012619  -0.2116402   0.1823650 SPIN=   0.00000
   O   0.0016066  -0.1025809  -0.0129080 SPIN=   0.00000
   O  -0.4665955  -0.4656507  -0.0873491 SPIN=   0.00000
   P  -0.2471067  -0.3361084   0.0659897 SPIN=   0.00000
  Fe  -0.4503410   0.1732467   0.2455520 SPIN=   4.00000
  Fe   0.4503410  -0.1732467  -0.2544480 SPIN=   4.00000
%ENDBLOCK POSITIONS_FRAC

# Note: total spin =   8.00

KPOINTS_MP_SPACING 0.07

%BLOCK SPECIES_POT
QC5
%ENDBLOCK SPECIES_POT

%BLOCK HUBBARD_U
Fe d:4.0
%ENDBLOCK HUBBARD_U

SNAP_TO_SYMMETRY
SYMMETRY_GENERATE

