#              Generated by Buildcell
#
# at 14:31:51 (GMT+0.0) 24th November 2020
# in /lustre/scratch/uccabz1/launch_tmp
# on node-c12e-031
# by uccabz1
#
# compiler GCC version 4.9.2
# options -cpp -iprefix /lustre/shared/ucl/apps/gcc/4.9.2/bin/../lib/gcc/x86_64-unknown-linux-gnu/4.9.2/ -mtune=corei7 -march=x86-64 -g -Og
#
# seed -1236303931  -686415158  2011488129  -527027356 -2035372975  1887695658    55528724 -1789269450  -999609971  1506020752  1595595827  1790765389
#
#      Author: C. J. Pickard (cjp20@cam.ac.uk)
#                Space group: C2/c
#

%BLOCK LATTICE_ABC
      5.25738      5.25738      6.44666
    102.29031    102.29031    106.19673
%ENDBLOCK LATTICE_ABC

%BLOCK POSITIONS_FRAC
  Li  -0.0149678   0.0149678   0.2500000 SPIN=   0.00000
  Li   0.0149678  -0.0149678  -0.2500000 SPIN=   0.00000
   O   0.5436578  -0.0714431  -0.3175596 SPIN=   0.00000
   O   0.2531644  -0.5910570  -0.5082560 SPIN=   0.00000
   O   0.0714431  -0.5436578  -0.1824404 SPIN=   0.00000
   O   0.5910570  -0.2531644   0.0082560 SPIN=   0.00000
   O  -0.5436578   0.0714431   0.3175596 SPIN=   0.00000
   O  -0.2531644   0.5910570   0.5082560 SPIN=   0.00000
   O  -0.0714431   0.5436578   0.1824404 SPIN=   0.00000
   O  -0.5910570   0.2531644  -0.0082560 SPIN=   0.00000
   P  -0.5000000   0.0000000   0.0000000 SPIN=   0.00000
   P   0.0000000   0.5000000   0.5000000 SPIN=   0.00000
  Fe  -0.3751503   0.3751503  -0.2500000 SPIN=   4.00000
  Fe   0.3751503  -0.3751503   0.2500000 SPIN=   4.00000
%ENDBLOCK POSITIONS_FRAC

# Note: total spin =   8.00

KPOINTS_MP_SPACING 0.07

%BLOCK SPECIES_POT
QC5
%ENDBLOCK SPECIES_POT

%BLOCK HUBBARD_U
Fe d:4.0
%ENDBLOCK HUBBARD_U

SNAP_TO_SYMMETRY
SYMMETRY_GENERATE

