#              Generated by Buildcell
#
# at 01:14:40 (GMT+0.0) 27th November 2020
# in /scratch/scratch/mmm0366/launch_tmp
# on node-k98p-014
# by mmm0366
#
# compiler GCC version 4.9.2
# options -cpp -iprefix /scratch/UCL/applications/gcc/4.9.2/bin/../lib/gcc/x86_64-unknown-linux-gnu/4.9.2/ -mtune=corei7 -march=x86-64 -g -O2
#
# seed  1985364772 -1880489404  1168629761   366958044 -1463544599 -1802908763    19457763  -917863160   -15186327   346667733  1661105353  1889240099
#
#      Author: C. J. Pickard (cjp20@cam.ac.uk)
#                Space group: P-1
#

%BLOCK LATTICE_ABC
      4.86748      7.58059      9.29708
     85.71397     78.35016     72.27588
%ENDBLOCK LATTICE_ABC

%BLOCK POSITIONS_FRAC
  Li   0.0983594   0.0067092   0.3359101 SPIN=   0.00000
  Li  -0.0983594  -0.0067092  -0.3359101 SPIN=   0.00000
  Li   0.4552574   0.2468473   0.4277411 SPIN=   0.00000
  Li  -0.4552574  -0.2468473  -0.4277411 SPIN=   0.00000
   O   0.0509680   0.0046790  -0.1405707 SPIN=   0.00000
   O   0.3970705   0.0675344  -0.3774877 SPIN=   0.00000
   O   0.3371168   0.2463168  -0.1558729 SPIN=   0.00000
   O   0.6144069  -0.0915918  -0.1628547 SPIN=   0.00000
   P   0.3370960   0.0522125  -0.2049956 SPIN=   0.00000
   O  -0.0509680  -0.0046790   0.1405707 SPIN=   0.00000
   O  -0.3970705  -0.0675344   0.3774877 SPIN=   0.00000
   O  -0.3371168  -0.2463168   0.1558729 SPIN=   0.00000
   O  -0.6144069   0.0915918   0.1628547 SPIN=   0.00000
   P  -0.3370960  -0.0522125   0.2049956 SPIN=   0.00000
   O   0.0323805  -0.2002808   0.4954482 SPIN=   0.00000
   O   0.1976184  -0.3238357   0.2288679 SPIN=   0.00000
   O   0.5613269  -0.4049566   0.3921821 SPIN=   0.00000
   P   0.2231125  -0.3620092   0.3950252 SPIN=   0.00000
   O  -0.0323805   0.2002808  -0.4954482 SPIN=   0.00000
   O  -0.1976184   0.3238357  -0.2288679 SPIN=   0.00000
   O  -0.5613269   0.4049566  -0.3921821 SPIN=   0.00000
   P  -0.2231125   0.3620092  -0.3950252 SPIN=   0.00000
   O  -0.5000000  -0.5000000   0.0000000 SPIN=   0.00000
   O   0.0000000  -0.5000000   0.0000000 SPIN=   0.00000
  Fe   0.3467594  -0.2130952   0.0256322 SPIN=   5.98809
  Fe  -0.3467594   0.2130952  -0.0256322 SPIN=   5.98809
  Fe   0.0681725  -0.4556153  -0.2431334 SPIN=   2.01191
  Fe  -0.0681725   0.4556153   0.2431334 SPIN=   2.01191
%ENDBLOCK POSITIONS_FRAC

# Note: total spin =  16.00

KPOINTS_MP_SPACING 0.07

%BLOCK SPECIES_POT
QC5
%ENDBLOCK SPECIES_POT

%BLOCK HUBBARD_U
Fe d:4.0
%ENDBLOCK HUBBARD_U

SNAP_TO_SYMMETRY
SYMMETRY_GENERATE

