#              Generated by Buildcell
#
# at 18:30:41 (GMT+0.0) 26th November 2020
# in /lustre/scratch/uccabz1/launch_tmp
# on node-c12j-025
# by uccabz1
#
# compiler GCC version 4.9.2
# options -cpp -iprefix /lustre/shared/ucl/apps/gcc/4.9.2/bin/../lib/gcc/x86_64-unknown-linux-gnu/4.9.2/ -mtune=corei7 -march=x86-64 -g -Og
#
# seed -1836286453   643361107  1364829846 -1946197155   885889310 -1390742270  -994850457   597849085  1483102066  -906046687   109062578   603879139
#
#      Author: C. J. Pickard (cjp20@cam.ac.uk)
#                Space group: P21
#

%BLOCK LATTICE_ABC
      4.24926      7.98521      9.54952
     99.04268     90.00000     90.00000
%ENDBLOCK LATTICE_ABC

%BLOCK POSITIONS_FRAC
  Li  -0.3790928   0.1258487   0.0899643 SPIN=   0.00000
  Li   0.1209072  -0.1258487  -0.0899643 SPIN=   0.00000
  Li   0.2255394  -0.4009288   0.0909512 SPIN=   0.00000
  Li  -0.2744606   0.4009288  -0.0909512 SPIN=   0.00000
   O  -0.2678535   0.3136110  -0.3311814 SPIN=   0.00000
   O  -0.1614320   0.2399590  -0.6017757 SPIN=   0.00000
   O  -0.5718232   0.0790083  -0.4968861 SPIN=   0.00000
   O  -0.6663129   0.3836362  -0.5178794 SPIN=   0.00000
   P  -0.4118656   0.2587540  -0.4790030 SPIN=   0.00000
   O   0.2321465  -0.3136110   0.3311814 SPIN=   0.00000
   O   0.3385680  -0.2399590   0.6017757 SPIN=   0.00000
   O  -0.0718232  -0.0790083   0.4968861 SPIN=   0.00000
   O  -0.1663129  -0.3836362   0.5178794 SPIN=   0.00000
   P   0.0881344  -0.2587540   0.4790030 SPIN=   0.00000
   O   0.0590162   0.0814286  -0.2678336 SPIN=   0.00000
   O   0.0773325   0.1660117   0.0061000 SPIN=   0.00000
   O   0.5787112   0.1461735  -0.1263460 SPIN=   0.00000
   O   0.2058493   0.3838440  -0.1473325 SPIN=   0.00000
   P   0.2208234   0.1905872  -0.1411459 SPIN=   0.00000
   O  -0.4409838  -0.0814286   0.2678336 SPIN=   0.00000
   O  -0.4226675  -0.1660117  -0.0061000 SPIN=   0.00000
   O   0.0787112  -0.1461735   0.1263460 SPIN=   0.00000
   O  -0.2941507  -0.3838440   0.1473325 SPIN=   0.00000
   P  -0.2791766  -0.1905872   0.1411459 SPIN=   0.00000
  Fe   0.1218918   0.0280540   0.3294572 SPIN=   4.27694
  Fe  -0.3781082  -0.0280540  -0.3294572 SPIN=   4.27694
  Fe   0.2246569  -0.4767343  -0.3187769 SPIN=   3.72306
  Fe  -0.2753431   0.4767343   0.3187769 SPIN=   3.72306
%ENDBLOCK POSITIONS_FRAC

# Note: total spin =  16.00

KPOINTS_MP_SPACING 0.07

%BLOCK SPECIES_POT
QC5
%ENDBLOCK SPECIES_POT

%BLOCK HUBBARD_U
Fe d:4.0
%ENDBLOCK HUBBARD_U

SNAP_TO_SYMMETRY
SYMMETRY_GENERATE

