#              Generated by Buildcell
#
# at 08:14:45 (GMT+0.0) 24th November 2020
# in /lustre/scratch/uccabz1/launch_tmp
# on node-c12a-034
# by uccabz1
#
# compiler GCC version 4.9.2
# options -cpp -iprefix /lustre/shared/ucl/apps/gcc/4.9.2/bin/../lib/gcc/x86_64-unknown-linux-gnu/4.9.2/ -mtune=corei7 -march=x86-64 -g -Og
#
# seed   969832413  -752334733  -213249065 -1678456218   765355681 -1232476332 -1331999488  1789338384  1658464135   860066088   102043021  1613814389
#
#      Author: C. J. Pickard (cjp20@cam.ac.uk)
#                Space group: P-1
#

%BLOCK LATTICE_ABC
      4.20029      4.76663      9.05746
     80.06645     89.39472     63.92133
%ENDBLOCK LATTICE_ABC

%BLOCK POSITIONS_FRAC
  Li  -0.8550448   0.7062431  -0.2247914 SPIN=   0.00000
  Li   0.8550448  -0.7062431   0.2247914 SPIN=   0.00000
   O  -0.4444161   0.2431542  -0.3377796 SPIN=   0.00000
   O  -0.3453258   0.6897192  -0.2479427 SPIN=   0.00000
   O   0.1239115   0.1372073  -0.1803616 SPIN=   0.00000
   P  -0.1742771   0.3668672  -0.3069898 SPIN=   0.00000
   O   0.4444161  -0.2431542   0.3377796 SPIN=   0.00000
   O   0.3453258  -0.6897192   0.2479427 SPIN=   0.00000
   O  -0.1239115  -0.1372073   0.1803616 SPIN=   0.00000
   P   0.1742771  -0.3668672   0.3069898 SPIN=   0.00000
   O   0.0000000  -0.5000000   0.0000000 SPIN=   0.00000
   O  -0.0000000  -0.5000000   0.5000000 SPIN=   0.00000
  Fe  -0.5000000   0.0000000   0.0000000 SPIN=   0.86907
  Fe   0.5000000  -0.0000000  -0.5000000 SPIN=   7.13093
%ENDBLOCK POSITIONS_FRAC

# Note: total spin =   8.00

KPOINTS_MP_SPACING 0.07

%BLOCK SPECIES_POT
QC5
%ENDBLOCK SPECIES_POT

%BLOCK HUBBARD_U
Fe d:4.0
%ENDBLOCK HUBBARD_U

SNAP_TO_SYMMETRY
SYMMETRY_GENERATE

