#              Generated by Buildcell
#
# at 01:03:21 (GMT+0.0) 27th November 2020
# in /lustre/scratch/uccabz1/launch_tmp
# on node-c12j-029
# by uccabz1
#
# compiler GCC version 4.9.2
# options -cpp -iprefix /lustre/shared/ucl/apps/gcc/4.9.2/bin/../lib/gcc/x86_64-unknown-linux-gnu/4.9.2/ -mtune=corei7 -march=x86-64 -g -Og
#
# seed  -237262892  -237687488   906883610 -1199565236 -1459887673   848373478 -1993026359 -1220963990   579633441   562439908   502800899 -1918051495
#
#      Author: C. J. Pickard (cjp20@cam.ac.uk)
#                Space group: Pnn2
#

%BLOCK LATTICE_ABC
      4.23799      5.02883     15.01492
     90.00000     90.00000     90.00000
%ENDBLOCK LATTICE_ABC

%BLOCK POSITIONS_FRAC
  Li  -0.0110828  -0.2510586  -0.2378343 SPIN=   0.00000
  Li  -0.0110828   0.2510586   0.2378343 SPIN=   0.00000
  Li   0.4889172   0.2489414  -0.2621657 SPIN=   0.00000
  Li   0.4889172  -0.2489414   0.2621657 SPIN=   0.00000
   O  -0.1317096  -0.0021949  -0.4182889 SPIN=   0.00000
   O  -0.1202695   0.5143499  -0.4183829 SPIN=   0.00000
   O  -0.0154005   0.2794144  -0.2769850 SPIN=   0.00000
   O   0.3856528   0.2633570  -0.3993645 SPIN=   0.00000
   P   0.0251832   0.2495679  -0.3806360 SPIN=   0.00000
   O  -0.1317096   0.0021949   0.4182889 SPIN=   0.00000
   O  -0.1202695  -0.5143499   0.4183829 SPIN=   0.00000
   O  -0.0154005  -0.2794144   0.2769850 SPIN=   0.00000
   O   0.3856528  -0.2633570   0.3993645 SPIN=   0.00000
   P   0.0251832  -0.2495679   0.3806360 SPIN=   0.00000
   O  -0.6317096  -0.5021949  -0.0817111 SPIN=   0.00000
   O  -0.6202695   0.0143499  -0.0816171 SPIN=   0.00000
   O  -0.5154005  -0.2205856  -0.2230150 SPIN=   0.00000
   O  -0.1143472  -0.2366430  -0.1006355 SPIN=   0.00000
   P  -0.4748168  -0.2504321  -0.1193640 SPIN=   0.00000
   O  -0.6317096   0.5021949   0.0817111 SPIN=   0.00000
   O  -0.6202695  -0.0143499   0.0816171 SPIN=   0.00000
   O  -0.5154005   0.2205856   0.2230150 SPIN=   0.00000
   O  -0.1143472   0.2366430   0.1006355 SPIN=   0.00000
   P  -0.4748168   0.2504321   0.1193640 SPIN=   0.00000
  Fe   0.4771303   0.2506321   0.4033385 SPIN=   4.00000
  Fe   0.4771303  -0.2506321  -0.4033385 SPIN=   4.00000
  Fe  -0.0228697  -0.2493679   0.0966615 SPIN=   4.00000
  Fe  -0.0228697   0.2493679  -0.0966615 SPIN=   4.00000
%ENDBLOCK POSITIONS_FRAC

# Note: total spin =  16.00

KPOINTS_MP_SPACING 0.07

%BLOCK SPECIES_POT
QC5
%ENDBLOCK SPECIES_POT

%BLOCK HUBBARD_U
Fe d:4.0
%ENDBLOCK HUBBARD_U

SNAP_TO_SYMMETRY
SYMMETRY_GENERATE

