#              Generated by Buildcell
#
# at 00:11:02 (GMT+0.0) 27th November 2020
# in /lustre/scratch/uccabz1/launch_tmp
# on node-c12e-023
# by uccabz1
#
# compiler GCC version 4.9.2
# options -cpp -iprefix /lustre/shared/ucl/apps/gcc/4.9.2/bin/../lib/gcc/x86_64-unknown-linux-gnu/4.9.2/ -mtune=corei7 -march=x86-64 -g -Og
#
# seed   609450697 -1714532060  1695932384  -882813484  2078805774 -1320790688 -1665682456   853193643   -90818189  -185644927   504862546   932439737
#
#      Author: C. J. Pickard (cjp20@cam.ac.uk)
#                Space group: P-1
#

%BLOCK LATTICE_ABC
      4.74997      8.25975      8.69165
    109.41550     92.12856     94.31431
%ENDBLOCK LATTICE_ABC

%BLOCK POSITIONS_FRAC
  Li  -0.1123465   0.3110943   0.4431633 SPIN=   0.00000
  Li   0.1123465  -0.3110943  -0.4431633 SPIN=   0.00000
  Li  -0.1033523  -0.3318598   0.1631584 SPIN=   0.00000
  Li   0.1033523   0.3318598  -0.1631584 SPIN=   0.00000
   O   0.2303680   0.4196250  -0.3540825 SPIN=   0.00000
   O   0.6823760   0.2640221  -0.3433890 SPIN=   0.00000
   O   0.2263915   0.0867549  -0.4378888 SPIN=   0.00000
   O   0.4513131   0.2373671  -0.6155119 SPIN=   0.00000
   P   0.3893410   0.2606986  -0.4353630 SPIN=   0.00000
   O  -0.2303680  -0.4196250   0.3540825 SPIN=   0.00000
   O  -0.6823760  -0.2640221   0.3433890 SPIN=   0.00000
   O  -0.2263915  -0.0867549   0.4378888 SPIN=   0.00000
   O  -0.4513131  -0.2373671   0.6155119 SPIN=   0.00000
   P  -0.3893410  -0.2606986   0.4353630 SPIN=   0.00000
   O  -0.1846413   0.4003516   0.0282847 SPIN=   0.00000
   O   0.0192267   0.2290778   0.2024026 SPIN=   0.00000
   O  -0.4765569   0.1524471   0.0894780 SPIN=   0.00000
   O  -0.0829979   0.0818960  -0.0988959 SPIN=   0.00000
   P  -0.1802639   0.2241801   0.0520581 SPIN=   0.00000
   O   0.1846413  -0.4003516  -0.0282847 SPIN=   0.00000
   O  -0.0192267  -0.2290778  -0.2024026 SPIN=   0.00000
   O   0.4765569  -0.1524471  -0.0894780 SPIN=   0.00000
   O   0.0829979  -0.0818960   0.0988959 SPIN=   0.00000
   P   0.1802639  -0.2241801  -0.0520581 SPIN=   0.00000
  Fe   0.4424257  -0.0353187   0.2663709 SPIN=   5.09394
  Fe  -0.4424257   0.0353187  -0.2663709 SPIN=   5.09394
  Fe   0.3666301   0.4123403   0.2152695 SPIN=   2.90606
  Fe  -0.3666301  -0.4123403  -0.2152695 SPIN=   2.90606
%ENDBLOCK POSITIONS_FRAC

# Note: total spin =  16.00

KPOINTS_MP_SPACING 0.07

%BLOCK SPECIES_POT
QC5
%ENDBLOCK SPECIES_POT

%BLOCK HUBBARD_U
Fe d:4.0
%ENDBLOCK HUBBARD_U

SNAP_TO_SYMMETRY
SYMMETRY_GENERATE

