#              Generated by Buildcell
#
# at 17:38:54 (GMT+0.0) 26th November 2020
# in /lustre/scratch/uccabz1/launch_tmp
# on node-c12b-023
# by uccabz1
#
# compiler GCC version 4.9.2
# options -cpp -iprefix /lustre/shared/ucl/apps/gcc/4.9.2/bin/../lib/gcc/x86_64-unknown-linux-gnu/4.9.2/ -mtune=corei7 -march=x86-64 -g -Og
#
# seed -1195040221 -1427054106  1128610282  2112126796  -987510628  -936656397  -892161896  -828983565  1757708195 -1808428263 -1821516399  1710059124
#
#      Author: C. J. Pickard (cjp20@cam.ac.uk)
#                Space group: P-1
#

%BLOCK LATTICE_ABC
      5.16405      5.85539     11.20435
     97.81030     99.83360    102.90207
%ENDBLOCK LATTICE_ABC

%BLOCK POSITIONS_FRAC
  Li   0.2566426   0.0930409   0.4542070 SPIN=   0.00000
  Li  -0.2566426  -0.0930409  -0.4542070 SPIN=   0.00000
  Li  -0.4710546   0.2652310   0.0377562 SPIN=   0.00000
  Li   0.4710546  -0.2652310  -0.0377562 SPIN=   0.00000
   O   0.4805823   0.0016404  -0.3350468 SPIN=   0.00000
   O   0.4656870   0.4277178  -0.3715635 SPIN=   0.00000
   O   0.0560150   0.1684226  -0.3296178 SPIN=   0.00000
   O   0.4682230   0.3328438  -0.1601174 SPIN=   0.00000
   P   0.3748283   0.2215381  -0.2993611 SPIN=   0.00000
   O  -0.4805823  -0.0016404   0.3350468 SPIN=   0.00000
   O  -0.4656870  -0.4277178   0.3715635 SPIN=   0.00000
   O  -0.0560150  -0.1684226   0.3296178 SPIN=   0.00000
   O  -0.4682230  -0.3328438   0.1601174 SPIN=   0.00000
   P  -0.3748283  -0.2215381   0.2993611 SPIN=   0.00000
   O  -0.0236351   0.4760396   0.1927163 SPIN=   0.00000
   O   0.2893033   0.1864156   0.1787781 SPIN=   0.00000
   O  -0.1749178   0.0600952   0.0505588 SPIN=   0.00000
   O   0.1723300   0.3843610  -0.0004512 SPIN=   0.00000
   P   0.0622673   0.2886104   0.1088005 SPIN=   0.00000
   O   0.0236351  -0.4760396  -0.1927163 SPIN=   0.00000
   O  -0.2893033  -0.1864156  -0.1787781 SPIN=   0.00000
   O   0.1749178  -0.0600952  -0.0505588 SPIN=   0.00000
   O  -0.1723300  -0.3843610   0.0004512 SPIN=   0.00000
   P  -0.0622673  -0.2886104  -0.1088005 SPIN=   0.00000
  Fe  -0.2259021   0.3347370   0.3366616 SPIN=   2.80732
  Fe   0.2259021  -0.3347370  -0.3366616 SPIN=   2.80732
  Fe   0.0853781  -0.1727880   0.1617662 SPIN=   5.19268
  Fe  -0.0853781   0.1727880  -0.1617662 SPIN=   5.19268
%ENDBLOCK POSITIONS_FRAC

# Note: total spin =  16.00

KPOINTS_MP_SPACING 0.07

%BLOCK SPECIES_POT
QC5
%ENDBLOCK SPECIES_POT

%BLOCK HUBBARD_U
Fe d:4.0
%ENDBLOCK HUBBARD_U

SNAP_TO_SYMMETRY
SYMMETRY_GENERATE

