#              Generated by Buildcell
#
# at 07:02:41 (GMT+0.0) 24th November 2020
# in /scratch/scratch/uccabz1/launch_tmp
# on node-k10i-019
# by uccabz1
#
# compiler GCC version 4.9.2
# options -cpp -iprefix /scratch/UCL/applications/gcc/4.9.2/bin/../lib/gcc/x86_64-unknown-linux-gnu/4.9.2/ -mtune=corei7 -march=x86-64 -g -O2
#
# seed   695493420   -47712160 -1846225945  1443866822 -1515935992 -1833580331   747732602  1364359041  1702531581  -854356694   652122027 -1818220265
#
#      Author: C. J. Pickard (cjp20@cam.ac.uk)
#                Space group: Cm
#

%BLOCK LATTICE_ABC
      5.14037      6.15469      6.15469
     98.93648    111.14503    111.14503
%ENDBLOCK LATTICE_ABC

%BLOCK POSITIONS_FRAC
  Li   0.2179223   0.3378185   0.3378185 SPIN=   0.00000
  Li   0.3230841  -0.1866981  -0.1866981 SPIN=   0.00000
   O  -0.1484507  -0.0421334  -0.7792890 SPIN=   0.00000
   O  -0.0200961  -0.0717539  -0.3393961 SPIN=   0.00000
   O   0.4153773   0.1715673  -0.4193478 SPIN=   0.00000
   O   0.0343725   0.3304491  -0.4059638 SPIN=   0.00000
   O  -0.1484507  -0.7792890  -0.0421334 SPIN=   0.00000
   O  -0.0200961  -0.3393961  -0.0717539 SPIN=   0.00000
   O   0.4153773  -0.4193478   0.1715673 SPIN=   0.00000
   O   0.0343725  -0.4059638   0.3304491 SPIN=   0.00000
   P  -0.0724880  -0.0613287  -0.0613287 SPIN=   0.00000
   P  -0.1929206   0.4409153   0.4409153 SPIN=   0.00000
  Fe  -0.4189300   0.4104315  -0.0652778 SPIN=   4.00000
  Fe  -0.4189300  -0.0652778   0.4104315 SPIN=   4.00000
%ENDBLOCK POSITIONS_FRAC

# Note: total spin =   8.00

KPOINTS_MP_SPACING 0.07

%BLOCK SPECIES_POT
QC5
%ENDBLOCK SPECIES_POT

%BLOCK HUBBARD_U
Fe d:4.0
%ENDBLOCK HUBBARD_U

SNAP_TO_SYMMETRY
SYMMETRY_GENERATE

