#              Generated by Buildcell
#
# at 07:29:17 (GMT+0.0) 24th November 2020
# in /lustre/scratch/uccabz1/launch_tmp
# on node-c12l-030
# by uccabz1
#
# compiler GCC version 4.9.2
# options -cpp -iprefix /lustre/shared/ucl/apps/gcc/4.9.2/bin/../lib/gcc/x86_64-unknown-linux-gnu/4.9.2/ -mtune=corei7 -march=x86-64 -g -Og
#
# seed  1180855325  -976200009 -1742120432  1040254487  -361529451  2072271423  1098515134  1828305388  1686214426 -1314726826 -1680631062  -720678272
#
#      Author: C. J. Pickard (cjp20@cam.ac.uk)
#                Space group: Cm
#

%BLOCK LATTICE_ABC
      4.99752      6.02835      6.02835
     96.34557    107.98055    107.98055
%ENDBLOCK LATTICE_ABC

%BLOCK POSITIONS_FRAC
  Li  -0.1209243  -0.0913655  -0.4531569 SPIN=   0.00000
  Li  -0.1209243  -0.4531569  -0.0913655 SPIN=   0.00000
   O  -0.0039354   0.2738982  -0.4546594 SPIN=   0.00000
   O   0.1236369   0.2711069  -0.0035005 SPIN=   0.00000
   O   0.4920685   0.2367737  -0.1870984 SPIN=   0.00000
   P   0.2449302   0.3512315  -0.2046823 SPIN=   0.00000
   O  -0.0039354  -0.4546594   0.2738982 SPIN=   0.00000
   O   0.1236369  -0.0035005   0.2711069 SPIN=   0.00000
   O   0.4920685  -0.1870984   0.2367737 SPIN=   0.00000
   P   0.2449302  -0.2046823   0.3512315 SPIN=   0.00000
   O  -0.4209065  -0.3422808  -0.3422808 SPIN=   0.00000
   O   0.1259533  -0.2959740  -0.2959740 SPIN=   0.00000
  Fe  -0.4483129  -0.0595418  -0.0595418 SPIN=   4.58593
  Fe   0.3700747   0.3637453   0.3637453 SPIN=   3.41407
%ENDBLOCK POSITIONS_FRAC

# Note: total spin =   8.00

KPOINTS_MP_SPACING 0.07

%BLOCK SPECIES_POT
QC5
%ENDBLOCK SPECIES_POT

%BLOCK HUBBARD_U
Fe d:4.0
%ENDBLOCK HUBBARD_U

SNAP_TO_SYMMETRY
SYMMETRY_GENERATE

