#              Generated by Buildcell
#
# at 15:03:56 (GMT+0.0) 26th November 2020
# in /scratch/scratch/uccabz1/launch_tmp
# on node-k10g-001
# by uccabz1
#
# compiler GCC version 4.9.2
# options -cpp -iprefix /scratch/UCL/applications/gcc/4.9.2/bin/../lib/gcc/x86_64-unknown-linux-gnu/4.9.2/ -mtune=corei7 -march=x86-64 -g -O2
#
# seed  1152714069  1305331880   437030766  1566183371  1790597893 -1239048451   398577759 -1942465187   -41793504   601507484   357570844  1061440001
#
#      Author: C. J. Pickard (cjp20@cam.ac.uk)
#                Space group: C2
#

%BLOCK LATTICE_ABC
      3.97089      9.19465      9.19465
    104.39329     96.24891     96.24891
%ENDBLOCK LATTICE_ABC

%BLOCK POSITIONS_FRAC
  Li  -0.6156408  -0.4118332   0.1419591 SPIN=   0.00000
  Li   0.6156408  -0.1419591   0.4118332 SPIN=   0.00000
  Li   0.0000000  -0.1478722   0.1478722 SPIN=   0.00000
  Li   0.0000000   0.1543874  -0.1543874 SPIN=   0.00000
   O  -0.7324040  -0.0121887  -0.4805876 SPIN=   0.00000
   O  -0.7817525  -0.2555195  -0.3844868 SPIN=   0.00000
   O  -0.6691513  -0.0065778  -0.1949425 SPIN=   0.00000
   O  -1.2452286  -0.0907384  -0.3528027 SPIN=   0.00000
   P  -0.8550728  -0.0870401  -0.3599827 SPIN=   0.00000
   O   0.7324040   0.4805876   0.0121887 SPIN=   0.00000
   O   0.7817525   0.3844868   0.2555195 SPIN=   0.00000
   O   0.6691513   0.1949425   0.0065778 SPIN=   0.00000
   O   1.2452286   0.3528027   0.0907384 SPIN=   0.00000
   P   0.8550728   0.3599827   0.0870401 SPIN=   0.00000
   O   0.8175800   0.1559375   0.5843173 SPIN=   0.00000
   O   1.3147660   0.2254153   0.4410855 SPIN=   0.00000
   O   0.7799079   0.0752762   0.2907738 SPIN=   0.00000
   P   0.9170775   0.2006991   0.4426760 SPIN=   0.00000
   O  -0.8175800  -0.5843173  -0.1559375 SPIN=   0.00000
   O  -1.3147660  -0.4410855  -0.2254153 SPIN=   0.00000
   O  -0.7799079  -0.2907738  -0.0752762 SPIN=   0.00000
   P  -0.9170775  -0.4426760  -0.2006991 SPIN=   0.00000
   O   0.0000000   0.4195875  -0.4195875 SPIN=   0.00000
   O  -0.0000000  -0.2924795   0.2924795 SPIN=   0.00000
  Fe  -0.3664995  -0.2140707  -0.1998106 SPIN=   3.41695
  Fe   0.3664995   0.1998106   0.2140707 SPIN=   3.41695
  Fe  -0.5000000   0.3328049  -0.3328049 SPIN=   6.31392
  Fe  -0.0000000  -0.4364104   0.4364104 SPIN=   2.85217
%ENDBLOCK POSITIONS_FRAC

# Note: total spin =  16.00

KPOINTS_MP_SPACING 0.07

%BLOCK SPECIES_POT
QC5
%ENDBLOCK SPECIES_POT

%BLOCK HUBBARD_U
Fe d:4.0
%ENDBLOCK HUBBARD_U

SNAP_TO_SYMMETRY
SYMMETRY_GENERATE

