#              Generated by Buildcell
#
# at 07:00:13 (GMT+0.0) 24th November 2020
# in /lustre/scratch/uccabz1/launch_tmp
# on node-c12e-029
# by uccabz1
#
# compiler GCC version 4.9.2
# options -cpp -iprefix /lustre/shared/ucl/apps/gcc/4.9.2/bin/../lib/gcc/x86_64-unknown-linux-gnu/4.9.2/ -mtune=corei7 -march=x86-64 -g -Og
#
# seed  -385862416  1181782215   780220733   651489657  -458903011 -1625774963    71810164   484581711  1143419344   -20307061 -2146673261 -1791241191
#
#      Author: C. J. Pickard (cjp20@cam.ac.uk)
#                Space group: P-1
#

%BLOCK LATTICE_ABC
      3.92354      6.16889      6.86259
     89.50912     76.94653     81.54826
%ENDBLOCK LATTICE_ABC

%BLOCK POSITIONS_FRAC
  Li   1.0000000  -0.5000000  -0.5000000 SPIN=   0.00000
  Li   1.0000000   0.0000000  -0.5000000 SPIN=   0.00000
   O   0.6315414   0.4448885  -0.2324191 SPIN=   0.00000
   O   0.0982447   0.2429950  -0.0837858 SPIN=   0.00000
   O   0.3656585   0.1979580  -0.4458672 SPIN=   0.00000
   O   0.7003962   0.0240826  -0.2002370 SPIN=   0.00000
   P   0.4616489   0.2366566  -0.2396668 SPIN=   0.00000
   O  -0.6315414  -0.4448885   0.2324191 SPIN=   0.00000
   O  -0.0982447  -0.2429950   0.0837858 SPIN=   0.00000
   O  -0.3656585  -0.1979580   0.4458672 SPIN=   0.00000
   O  -0.7003962  -0.0240826   0.2002370 SPIN=   0.00000
   P  -0.4616489  -0.2366566   0.2396668 SPIN=   0.00000
  Fe   0.3564897  -0.2402647  -0.1457550 SPIN=   4.00000
  Fe  -0.3564897   0.2402647   0.1457550 SPIN=   4.00000
%ENDBLOCK POSITIONS_FRAC

# Note: total spin =   8.00

KPOINTS_MP_SPACING 0.07

%BLOCK SPECIES_POT
QC5
%ENDBLOCK SPECIES_POT

%BLOCK HUBBARD_U
Fe d:4.0
%ENDBLOCK HUBBARD_U

SNAP_TO_SYMMETRY
SYMMETRY_GENERATE

