#              Generated by Buildcell
#
# at 11:43:15 (GMT+0.0) 24th November 2020
# in /lustre/scratch/uccabz1/launch_tmp
# on node-c12d-032
# by uccabz1
#
# compiler GCC version 4.9.2
# options -cpp -iprefix /lustre/shared/ucl/apps/gcc/4.9.2/bin/../lib/gcc/x86_64-unknown-linux-gnu/4.9.2/ -mtune=corei7 -march=x86-64 -g -Og
#
# seed -1091118579  -259816846 -1430750021  -952467571 -1006954894    31533627  1441629651   482572186   544215960  -174951847  -807099232 -1136219439
#
#      Author: C. J. Pickard (cjp20@cam.ac.uk)
#                Space group: P21
#

%BLOCK LATTICE_ABC
      4.12544      5.43007      7.14240
     90.00000     90.06774     90.00000
%ENDBLOCK LATTICE_ABC

%BLOCK POSITIONS_FRAC
  Li   0.2491001   0.2428949   0.0366620 SPIN=   0.00000
  Li  -0.2491001  -0.2571051  -0.0366620 SPIN=   0.00000
   O  -0.2355605   0.3208726  -0.0369044 SPIN=   0.00000
   O  -0.2123520   0.1089456  -0.3627368 SPIN=   0.00000
   O  -0.7122305   0.3307661  -0.2748355 SPIN=   0.00000
   O  -0.2072948   0.5695246  -0.3447406 SPIN=   0.00000
   P  -0.3346115   0.3347035  -0.2442636 SPIN=   0.00000
   O   0.2355605  -0.1791274   0.0369044 SPIN=   0.00000
   O   0.2123520  -0.3910544   0.3627368 SPIN=   0.00000
   O   0.7122305  -0.1692339   0.2748355 SPIN=   0.00000
   O   0.2072948   0.0695246   0.3447406 SPIN=   0.00000
   P   0.3346115  -0.1652965   0.2442636 SPIN=   0.00000
  Fe  -0.2502277   0.4415858   0.3654299 SPIN=   4.00000
  Fe   0.2502277  -0.0584142  -0.3654299 SPIN=   4.00000
%ENDBLOCK POSITIONS_FRAC

# Note: total spin =   8.00

KPOINTS_MP_SPACING 0.07

%BLOCK SPECIES_POT
QC5
%ENDBLOCK SPECIES_POT

%BLOCK HUBBARD_U
Fe d:4.0
%ENDBLOCK HUBBARD_U

SNAP_TO_SYMMETRY
SYMMETRY_GENERATE

