#              Generated by Buildcell
#
# at 20:07:45 (GMT+0.0) 26th November 2020
# in /scratch/scratch/mmm0366/launch_tmp
# on node-k98g-018
# by mmm0366
#
# compiler GCC version 4.9.2
# options -cpp -iprefix /scratch/UCL/applications/gcc/4.9.2/bin/../lib/gcc/x86_64-unknown-linux-gnu/4.9.2/ -mtune=corei7 -march=x86-64 -g -O2
#
# seed  -288172246 -1304514016 -1343707554   850796321   140684866 -1122456545   520813025  1549647202 -1431832887  1368422635  1531506231  -374789989
#
#      Author: C. J. Pickard (cjp20@cam.ac.uk)
#                Space group: Pca21
#

%BLOCK LATTICE_ABC
      6.07707      6.82755      7.71242
     90.00000     90.00000     90.00000
%ENDBLOCK LATTICE_ABC

%BLOCK POSITIONS_FRAC
  Li  -0.1728689  -0.3201270  -0.2347531 SPIN=   0.00000
  Li   0.1728689   0.1798730   0.2347531 SPIN=   0.00000
  Li   0.1728689  -0.3201270   0.2652469 SPIN=   0.00000
  Li  -0.1728689   0.1798730  -0.2652469 SPIN=   0.00000
   O  -0.2874476   0.5017885  -0.0302324 SPIN=   0.00000
   O  -0.3722790   0.2323741   0.1980834 SPIN=   0.00000
   O  -0.0643249   0.1784113  -0.0053938 SPIN=   0.00000
   O  -0.0283211   0.4315857   0.2278535 SPIN=   0.00000
   P  -0.1914978   0.3459927   0.0923098 SPIN=   0.00000
   O   0.2874476   0.0017885   0.0302324 SPIN=   0.00000
   O   0.3722790  -0.2676259  -0.1980834 SPIN=   0.00000
   O   0.0643249  -0.3215887   0.0053938 SPIN=   0.00000
   O   0.0283211  -0.0684143  -0.2278535 SPIN=   0.00000
   P   0.1914978  -0.1540073  -0.0923098 SPIN=   0.00000
   O   0.2874476   0.5017885  -0.5302324 SPIN=   0.00000
   O   0.3722790   0.2323741  -0.3019166 SPIN=   0.00000
   O   0.0643249   0.1784113  -0.5053938 SPIN=   0.00000
   O   0.0283211   0.4315857  -0.2721465 SPIN=   0.00000
   P   0.1914978   0.3459927  -0.4076902 SPIN=   0.00000
   O  -0.2874476   0.0017885   0.5302324 SPIN=   0.00000
   O  -0.3722790  -0.2676259   0.3019166 SPIN=   0.00000
   O  -0.0643249  -0.3215887   0.5053938 SPIN=   0.00000
   O  -0.0283211  -0.0684143   0.2721465 SPIN=   0.00000
   P  -0.1914978  -0.1540073   0.4076902 SPIN=   0.00000
  Fe   0.3767617  -0.0444767  -0.4204694 SPIN=   4.00000
  Fe  -0.3767617   0.4555233   0.4204694 SPIN=   4.00000
  Fe  -0.3767617  -0.0444767   0.0795306 SPIN=   4.00000
  Fe   0.3767617   0.4555233  -0.0795306 SPIN=   4.00000
%ENDBLOCK POSITIONS_FRAC

# Note: total spin =  16.00

KPOINTS_MP_SPACING 0.07

%BLOCK SPECIES_POT
QC5
%ENDBLOCK SPECIES_POT

%BLOCK HUBBARD_U
Fe d:4.0
%ENDBLOCK HUBBARD_U

SNAP_TO_SYMMETRY
SYMMETRY_GENERATE

