#              Generated by Buildcell
#
# at 06:29:33 (GMT+0.0) 24th November 2020
# in /lustre/scratch/uccabz1/launch_tmp
# on node-c12e-029
# by uccabz1
#
# compiler GCC version 4.9.2
# options -cpp -iprefix /lustre/shared/ucl/apps/gcc/4.9.2/bin/../lib/gcc/x86_64-unknown-linux-gnu/4.9.2/ -mtune=corei7 -march=x86-64 -g -Og
#
# seed -1462665247  -401262968  1869160796  -652123358   619995219 -1573054219 -1611345717    27630296  1461429631  2083144860  -123479685 -2032658493
#
#      Author: C. J. Pickard (cjp20@cam.ac.uk)
#                Space group: P2
#

%BLOCK LATTICE_ABC
      3.97246      6.43071      6.43751
    103.36077     90.00000     90.00000
%ENDBLOCK LATTICE_ABC

%BLOCK POSITIONS_FRAC
  Li  -0.3525325   0.0000000   0.0000000 SPIN=   0.00000
  Li  -0.0302578   0.5000000   0.5000000 SPIN=   0.00000
   O   0.3644673   0.3532065  -0.3494899 SPIN=   0.00000
   O  -0.1619360   0.1964836  -0.2008401 SPIN=   0.00000
   O   0.3438659  -0.0307826  -0.2850343 SPIN=   0.00000
   O   0.3507622   0.2824924   0.0293956 SPIN=   0.00000
   P   0.2332461   0.2094582  -0.2066476 SPIN=   0.00000
   O   0.3644673  -0.3532065   0.3494899 SPIN=   0.00000
   O  -0.1619360  -0.1964836   0.2008401 SPIN=   0.00000
   O   0.3438659   0.0307826   0.2850343 SPIN=   0.00000
   O   0.3507622  -0.2824924  -0.0293956 SPIN=   0.00000
   P   0.2332461  -0.2094582   0.2066476 SPIN=   0.00000
  Fe  -0.2662589   0.0000000   0.5000000 SPIN=   3.73808
  Fe  -0.2650459   0.5000000   0.0000000 SPIN=   4.26192
%ENDBLOCK POSITIONS_FRAC

# Note: total spin =   8.00

KPOINTS_MP_SPACING 0.07

%BLOCK SPECIES_POT
QC5
%ENDBLOCK SPECIES_POT

%BLOCK HUBBARD_U
Fe d:4.0
%ENDBLOCK HUBBARD_U

SNAP_TO_SYMMETRY
SYMMETRY_GENERATE

