#              Generated by Buildcell
#
# at 07:14:25 (GMT+0.0) 24th November 2020
# in /lustre/scratch/uccabz1/launch_tmp
# on node-c12e-032
# by uccabz1
#
# compiler GCC version 4.9.2
# options -cpp -iprefix /lustre/shared/ucl/apps/gcc/4.9.2/bin/../lib/gcc/x86_64-unknown-linux-gnu/4.9.2/ -mtune=corei7 -march=x86-64 -g -Og
#
# seed  1018866831  -863582386 -1028887982  2056507529   333574459  -470877194  1189035061   379067072  1321633113  1139382251   461770465 -1876839022
#
#      Author: C. J. Pickard (cjp20@cam.ac.uk)
#                Space group: Cc
#

%BLOCK LATTICE_ABC
      5.17772      5.79541      5.96152
     89.38077     88.61370     63.46728
%ENDBLOCK LATTICE_ABC

%BLOCK POSITIONS_FRAC
  Li   0.1458398   0.0575460  -0.4302600 SPIN=   0.00000
  Li   0.2033858  -0.0575460   0.0697400 SPIN=   0.00000
   O   0.0308164  -0.2343298  -0.1489862 SPIN=   0.00000
   O  -0.1233320  -0.5682012  -0.3092168 SPIN=   0.00000
   O  -0.5044133  -0.1367264  -0.2046502 SPIN=   0.00000
   O  -0.1868375  -0.1849983  -0.5421711 SPIN=   0.00000
   P  -0.1837604  -0.2774419  -0.2959915 SPIN=   0.00000
   O  -0.2035135   0.2343298   0.3510138 SPIN=   0.00000
   O  -0.6915332   0.5682012   0.1907832 SPIN=   0.00000
   O  -0.6411398   0.1367264   0.2953498 SPIN=   0.00000
   O  -0.3718357   0.1849983  -0.0421711 SPIN=   0.00000
   P  -0.4612023   0.2774419   0.2040085 SPIN=   0.00000
  Fe  -0.1120975  -0.4329527   0.1836859 SPIN=   4.00000
  Fe   0.4549498   0.4329527  -0.3163141 SPIN=   4.00000
%ENDBLOCK POSITIONS_FRAC

# Note: total spin =   8.00

KPOINTS_MP_SPACING 0.07

%BLOCK SPECIES_POT
QC5
%ENDBLOCK SPECIES_POT

%BLOCK HUBBARD_U
Fe d:4.0
%ENDBLOCK HUBBARD_U

SNAP_TO_SYMMETRY
SYMMETRY_GENERATE

