#              Generated by Buildcell
#
# at 12:04:08 (GMT+0.0) 24th November 2020
# in /lustre/scratch/uccabz1/launch_tmp
# on node-c12l-025
# by uccabz1
#
# compiler GCC version 4.9.2
# options -cpp -iprefix /lustre/shared/ucl/apps/gcc/4.9.2/bin/../lib/gcc/x86_64-unknown-linux-gnu/4.9.2/ -mtune=corei7 -march=x86-64 -g -Og
#
# seed  -397505221 -1402418422    84152397   316424448  1913759577  1648174562   190073289  1108427259 -1655506149  1679770029  1591011682   284229296
#
#      Author: C. J. Pickard (cjp20@cam.ac.uk)
#                Space group: Pmc21
#

%BLOCK LATTICE_ABC
      5.34903      5.41690      5.52197
     90.00000     90.00000     90.00000
%ENDBLOCK LATTICE_ABC

%BLOCK POSITIONS_FRAC
  Li  -0.1473442   0.5000000  -0.2129884 SPIN=   0.00000
  Li   0.3526558  -0.5000000   0.2129884 SPIN=   0.00000
   O   0.4342512  -0.2721244  -0.1067067 SPIN=   0.00000
   O   0.1971914  -0.2724477  -0.5173580 SPIN=   0.00000
   O  -0.0657488   0.2721244   0.1067067 SPIN=   0.00000
   O  -0.3028086   0.2724477   0.5173580 SPIN=   0.00000
   O  -0.0657488  -0.2721244   0.1067067 SPIN=   0.00000
   O  -0.3028086  -0.2724477   0.5173580 SPIN=   0.00000
   O   0.4342512   0.2721244  -0.1067067 SPIN=   0.00000
   O   0.1971914   0.2724477  -0.5173580 SPIN=   0.00000
   P   0.3561835  -0.5000000  -0.2710167 SPIN=   0.00000
   P  -0.1438165  -0.5000000   0.2710167 SPIN=   0.00000
  Fe   0.1970934  -0.0000000  -0.2488791 SPIN=   4.00000
  Fe  -0.3029066  -0.0000000   0.2488791 SPIN=   4.00000
%ENDBLOCK POSITIONS_FRAC

# Note: total spin =   8.00

KPOINTS_MP_SPACING 0.07

%BLOCK SPECIES_POT
QC5
%ENDBLOCK SPECIES_POT

%BLOCK HUBBARD_U
Fe d:4.0
%ENDBLOCK HUBBARD_U

SNAP_TO_SYMMETRY
SYMMETRY_GENERATE

