#              Generated by Buildcell
#
# at 10:34:14 (GMT+0.0) 24th November 2020
# in /scratch/scratch/uccabz1/launch_tmp
# on node-a14b-007
# by uccabz1
#
# compiler GCC version 4.9.2
# options -cpp -iprefix /scratch/UCL/applications/gcc/4.9.2/bin/../lib/gcc/x86_64-unknown-linux-gnu/4.9.2/ -mtune=corei7 -march=x86-64 -g -O2
#
# seed  2090339466 -1519196135 -2061148892  1886199921 -1535381195 -1836470221  1921364173     7073980   636307930  -282224137 -1734863109  -442897541
#
#      Author: C. J. Pickard (cjp20@cam.ac.uk)
#                Space group: Imm2
#

%BLOCK LATTICE_ABC
      5.59607      5.65438      6.43354
    116.06852    115.77982     90.00000
%ENDBLOCK LATTICE_ABC

%BLOCK POSITIONS_FRAC
  Li   0.2499916   0.3791866   0.4999832 SPIN=   0.00000
  Li  -0.2499916  -0.1207966  -0.4999832 SPIN=   0.00000
   O   0.3697488   0.5626126   0.2504450 SPIN=   0.00000
   O   0.4017284   0.1017750   0.2451159 SPIN=   0.00000
   O  -0.3697488   0.3121676  -0.2504450 SPIN=   0.00000
   O  -0.4017284  -0.1433409  -0.2451159 SPIN=   0.00000
   O  -0.1193038   0.5626126   0.2504450 SPIN=   0.00000
   O  -0.1566125   0.1017750   0.2451159 SPIN=   0.00000
   O   0.1193038   0.3121676  -0.2504450 SPIN=   0.00000
   O   0.1566125  -0.1433409  -0.2451159 SPIN=   0.00000
   P   0.5000000   0.7641868  -0.0000000 SPIN=   0.00000
   P   0.0000000   0.2642247   0.0000000 SPIN=   0.00000
  Fe   0.0000000  -0.2385042  -0.0000000 SPIN=   4.48244
  Fe   0.5000000   0.2615078   0.0000000 SPIN=   3.51756
%ENDBLOCK POSITIONS_FRAC

# Note: total spin =   8.00

KPOINTS_MP_SPACING 0.07

%BLOCK SPECIES_POT
QC5
%ENDBLOCK SPECIES_POT

%BLOCK HUBBARD_U
Fe d:4.0
%ENDBLOCK HUBBARD_U

SNAP_TO_SYMMETRY
SYMMETRY_GENERATE

