#              Generated by Buildcell
#
# at 06:28:59 (GMT+0.0) 24th November 2020
# in /scratch/scratch/uccabz1/launch_tmp
# on node-a14b-028
# by uccabz1
#
# compiler GCC version 4.9.2
# options -cpp -iprefix /scratch/UCL/applications/gcc/4.9.2/bin/../lib/gcc/x86_64-unknown-linux-gnu/4.9.2/ -mtune=corei7 -march=x86-64 -g -O2
#
# seed -1219836193  -866293151  1486852137  1183049228  -699996612  1599427247  -931225205   787043767 -2080589121   870527905  -500144123  -418469947
#
#      Author: C. J. Pickard (cjp20@cam.ac.uk)
#                Space group: C2
#

%BLOCK LATTICE_ABC
      4.49078      4.49078      8.55485
     74.92844     74.92844     80.56296
%ENDBLOCK LATTICE_ABC

%BLOCK POSITIONS_FRAC
  Li  -0.8843561   0.3638525   0.4572316 SPIN=   0.00000
  Li   0.6361475  -0.1156439  -0.4572316 SPIN=   0.00000
   O   0.3319172   0.4042079  -0.3598414 SPIN=   0.00000
   O   0.6325220   0.4746403  -0.1523881 SPIN=   0.00000
   O   0.3928799  -0.0122209  -0.0920744 SPIN=   0.00000
   O   0.8567831   0.0889464  -0.3282123 SPIN=   0.00000
   P   0.5453048   0.2459261  -0.2409979 SPIN=   0.00000
   O  -0.4042079   0.6680828   0.3598414 SPIN=   0.00000
   O  -0.4746403   0.3674780   0.1523881 SPIN=   0.00000
   O   0.0122209   0.6071201   0.0920744 SPIN=   0.00000
   O  -0.0889464   0.1432169   0.3282123 SPIN=   0.00000
   P  -0.2459261   0.4546952   0.2409979 SPIN=   0.00000
  Fe   0.0219836  -0.3151441  -0.1607766 SPIN=   4.00000
  Fe   0.3151441  -0.0219836   0.1607766 SPIN=   4.00000
%ENDBLOCK POSITIONS_FRAC

# Note: total spin =   8.00

KPOINTS_MP_SPACING 0.07

%BLOCK SPECIES_POT
QC5
%ENDBLOCK SPECIES_POT

%BLOCK HUBBARD_U
Fe d:4.0
%ENDBLOCK HUBBARD_U

SNAP_TO_SYMMETRY
SYMMETRY_GENERATE

