#              Generated by Buildcell
#
# at 08:46:59 (GMT+0.0) 26th November 2020
# in /lustre/scratch/uccabz1/launch_tmp
# on node-c12g-023
# by uccabz1
#
# compiler GCC version 4.9.2
# options -cpp -iprefix /lustre/shared/ucl/apps/gcc/4.9.2/bin/../lib/gcc/x86_64-unknown-linux-gnu/4.9.2/ -mtune=corei7 -march=x86-64 -g -Og
#
# seed   358011641 -1272218634  -512967125    76017052  1983991680  2114162407  -512634986   830511234 -1038240299 -1756259196  1308098425  -621843690
#
#      Author: C. J. Pickard (cjp20@cam.ac.uk)
#                Space group: Pm
#

%BLOCK LATTICE_ABC
      5.67942      5.78371      9.83211
     90.00000     90.00000     97.77191
%ENDBLOCK LATTICE_ABC

%BLOCK POSITIONS_FRAC
  Li   0.3349742  -0.2640211   0.5000000 SPIN=   0.00000
  Li   0.2642157  -0.0664470   0.0000000 SPIN=   0.00000
  Li  -0.2519667   0.4551533  -0.5000000 SPIN=   0.00000
  Li  -0.1083943  -0.0254612  -0.5000000 SPIN=   0.00000
   O  -0.3782119   0.1071970  -0.1241966 SPIN=   0.00000
   O   0.0474343   0.0130257  -0.1753803 SPIN=   0.00000
   O  -0.1466542   0.2397395  -0.3448210 SPIN=   0.00000
   O  -0.0118845   0.4249142  -0.1229060 SPIN=   0.00000
   P  -0.1346502   0.1941779  -0.1874117 SPIN=   0.00000
   O  -0.3782119   0.1071970   0.1241966 SPIN=   0.00000
   O   0.0474343   0.0130257   0.1753803 SPIN=   0.00000
   O  -0.1466542   0.2397395   0.3448210 SPIN=   0.00000
   O  -0.0118845   0.4249142   0.1229060 SPIN=   0.00000
   P  -0.1346502   0.1941779   0.1874117 SPIN=   0.00000
   O   0.4148753  -0.5220443   0.1675954 SPIN=   0.00000
   O   0.1165112  -0.3574653   0.3295689 SPIN=   0.00000
   O   0.5273602  -0.1539701   0.3176863 SPIN=   0.00000
   P   0.3318279  -0.3021058   0.2287721 SPIN=   0.00000
   O   0.4148753  -0.5220443  -0.1675954 SPIN=   0.00000
   O   0.1165112  -0.3574653  -0.3295689 SPIN=   0.00000
   O   0.5273602  -0.1539701  -0.3176863 SPIN=   0.00000
   P   0.3318279  -0.3021058  -0.2287721 SPIN=   0.00000
   O   0.1863933   0.3510381  -0.5000000 SPIN=   0.00000
   O  -0.4794874   0.1312407   0.5000000 SPIN=   0.00000
  Fe   0.3311994   0.1933369   0.2991570 SPIN=   3.04626
  Fe   0.3311994   0.1933369  -0.2991570 SPIN=   3.04626
  Fe  -0.1735509  -0.3019553  -0.1988592 SPIN=   4.95374
  Fe  -0.1735509  -0.3019553   0.1988592 SPIN=   4.95374
%ENDBLOCK POSITIONS_FRAC

# Note: total spin =  16.00

KPOINTS_MP_SPACING 0.07

%BLOCK SPECIES_POT
QC5
%ENDBLOCK SPECIES_POT

%BLOCK HUBBARD_U
Fe d:4.0
%ENDBLOCK HUBBARD_U

SNAP_TO_SYMMETRY
SYMMETRY_GENERATE

