#              Generated by Buildcell
#
# at 06:23:29 (GMT+0.0) 24th November 2020
# in /lustre/scratch/uccabz1/launch_tmp
# on node-c12e-025
# by uccabz1
#
# compiler GCC version 4.9.2
# options -cpp -iprefix /lustre/shared/ucl/apps/gcc/4.9.2/bin/../lib/gcc/x86_64-unknown-linux-gnu/4.9.2/ -mtune=corei7 -march=x86-64 -g -Og
#
# seed -1126681359 -1363049416  -191687916 -1274410405  -970250933  -635275810  -633883232  -547828568  1739114841   -43465149  2105132999  1888702157
#
#      Author: C. J. Pickard (cjp20@cam.ac.uk)
#                Space group: Ama2
#

%BLOCK LATTICE_ABC
      3.85867      5.83790      7.52559
     90.00000     90.00000    109.29818
%ENDBLOCK LATTICE_ABC

%BLOCK POSITIONS_FRAC
  Li   0.4766099   0.0000000  -0.0000000 SPIN=   0.00000
  Li   0.4766099   0.0000000   0.5000000 SPIN=   0.00000
   O   0.0976858   0.1876104   0.4128301 SPIN=   0.00000
   O   0.7101603   0.3661460   0.5864098 SPIN=   0.00000
   O  -0.0899246  -0.1876104  -0.4128301 SPIN=   0.00000
   O   0.3440143  -0.3661460  -0.5864098 SPIN=   0.00000
   O  -0.0899246  -0.1876104  -0.0871699 SPIN=   0.00000
   O   0.3440143  -0.3661460   0.0864098 SPIN=   0.00000
   O   0.0976858   0.1876104   0.0871699 SPIN=   0.00000
   O   0.7101603   0.3661460  -0.0864098 SPIN=   0.00000
   P  -0.0180295   0.0069542  -0.2500000 SPIN=   0.00000
   P  -0.0249837  -0.0069542   0.2500000 SPIN=   0.00000
  Fe   0.3940482  -0.4839587  -0.2500000 SPIN=   4.00000
  Fe  -0.1219931   0.4839587   0.2500000 SPIN=   4.00000
%ENDBLOCK POSITIONS_FRAC

# Note: total spin =   8.00

KPOINTS_MP_SPACING 0.07

%BLOCK SPECIES_POT
QC5
%ENDBLOCK SPECIES_POT

%BLOCK HUBBARD_U
Fe d:4.0
%ENDBLOCK HUBBARD_U

SNAP_TO_SYMMETRY
SYMMETRY_GENERATE

