#              Generated by Buildcell
#
# at 14:48:21 (GMT+0.0) 24th November 2020
# in /lustre/scratch/uccabz1/launch_tmp
# on node-c12e-029
# by uccabz1
#
# compiler GCC version 4.9.2
# options -cpp -iprefix /lustre/shared/ucl/apps/gcc/4.9.2/bin/../lib/gcc/x86_64-unknown-linux-gnu/4.9.2/ -mtune=corei7 -march=x86-64 -g -Og
#
# seed -1367267254  -645466480  -717824418  1491661694   535195059   156884736   660875742 -1495717091 -1969881454 -1062206747 -1218618447  -402588397
#
#      Author: C. J. Pickard (cjp20@cam.ac.uk)
#                Space group: C2
#

%BLOCK LATTICE_ABC
      3.91326      6.55557      6.55557
     91.61422    102.34933    102.34933
%ENDBLOCK LATTICE_ABC

%BLOCK POSITIONS_FRAC
  Li   0.0381288   0.2310727   0.4272029 SPIN=   0.00000
  Li  -0.0381288  -0.4272029  -0.2310727 SPIN=   0.00000
   O   0.6232168   0.0065763  -0.4982607 SPIN=   0.00000
   O   0.0163124  -0.2422602  -0.4847940 SPIN=   0.00000
   O   0.4944313  -0.1626511  -0.1609562 SPIN=   0.00000
   P   0.3423292  -0.0641742  -0.3675576 SPIN=   0.00000
   O  -0.6232168   0.4982607  -0.0065763 SPIN=   0.00000
   O  -0.0163124   0.4847940   0.2422602 SPIN=   0.00000
   O  -0.4944313   0.1609562   0.1626511 SPIN=   0.00000
   P  -0.3423292   0.3675576   0.0641742 SPIN=   0.00000
   O  -0.5000000   0.4718986  -0.4718986 SPIN=   0.00000
   O   0.5000000   0.2096641  -0.2096641 SPIN=   0.00000
  Fe   0.0000000   0.0553574  -0.0553574 SPIN=   4.42131
  Fe   0.5000000  -0.3051177   0.3051177 SPIN=   3.57869
%ENDBLOCK POSITIONS_FRAC

# Note: total spin =   8.00

KPOINTS_MP_SPACING 0.07

%BLOCK SPECIES_POT
QC5
%ENDBLOCK SPECIES_POT

%BLOCK HUBBARD_U
Fe d:4.0
%ENDBLOCK HUBBARD_U

SNAP_TO_SYMMETRY
SYMMETRY_GENERATE

