#              Generated by Buildcell
#
# at 20:19:01 (GMT+0.0) 26th November 2020
# in /lustre/scratch/uccabz1/launch_tmp
# on node-c12p-025
# by uccabz1
#
# compiler GCC version 4.9.2
# options -cpp -iprefix /lustre/shared/ucl/apps/gcc/4.9.2/bin/../lib/gcc/x86_64-unknown-linux-gnu/4.9.2/ -mtune=corei7 -march=x86-64 -g -Og
#
# seed -1077254356  -534898603  1390229815  1343314815  1397497575  1053998818   844431212   265317788 -1072263435 -1247021523   -64914533  -448964677
#
#      Author: C. J. Pickard (cjp20@cam.ac.uk)
#                Space group: Pnc2
#

%BLOCK LATTICE_ABC
      5.05300      7.21505      8.77730
     90.00000     90.00000     90.00000
%ENDBLOCK LATTICE_ABC

%BLOCK POSITIONS_FRAC
  Li   0.0000000  -0.3981094   0.5000000 SPIN=   0.00000
  Li  -0.5000000   0.1018906   0.5000000 SPIN=   0.00000
  Li   0.0000000  -0.0881136   0.0000000 SPIN=   0.00000
  Li  -0.5000000   0.4118864   0.0000000 SPIN=   0.00000
   O   0.2377005  -0.1756524   0.4235792 SPIN=   0.00000
   O  -0.0855676  -0.2402030   0.1996025 SPIN=   0.00000
   O  -0.1622549   0.0366289   0.3591546 SPIN=   0.00000
   O   0.2262223   0.0287685   0.1820913 SPIN=   0.00000
   O  -0.2377005  -0.1756524  -0.4235792 SPIN=   0.00000
   O   0.0855676  -0.2402030  -0.1996025 SPIN=   0.00000
   O   0.1622549   0.0366289  -0.3591546 SPIN=   0.00000
   O  -0.2262223   0.0287685  -0.1820913 SPIN=   0.00000
   O   0.2622995   0.3243476   0.4235792 SPIN=   0.00000
   O   0.5855676   0.2597970   0.1996025 SPIN=   0.00000
   O   0.6622549   0.5366289   0.3591546 SPIN=   0.00000
   O   0.2737777   0.5287685   0.1820913 SPIN=   0.00000
   O  -0.2622995   0.3243476  -0.4235792 SPIN=   0.00000
   O  -0.5855676   0.2597970  -0.1996025 SPIN=   0.00000
   O  -0.6622549   0.5366289  -0.3591546 SPIN=   0.00000
   O  -0.2737777   0.5287685  -0.1820913 SPIN=   0.00000
   P   0.0000000  -0.4610948   0.0000000 SPIN=   0.00000
   P  -0.5000000   0.0389052   0.0000000 SPIN=   0.00000
   P   0.0000000  -0.0247374   0.5000000 SPIN=   0.00000
   P   0.5000000   0.4752626   0.5000000 SPIN=   0.00000
  Fe  -0.0057618   0.2669122   0.2428489 SPIN=   4.00000
  Fe   0.0057618   0.2669122  -0.2428489 SPIN=   4.00000
  Fe  -0.4942382  -0.2330878   0.2428489 SPIN=   4.00000
  Fe   0.4942382  -0.2330878  -0.2428489 SPIN=   4.00000
%ENDBLOCK POSITIONS_FRAC

# Note: total spin =  16.00

KPOINTS_MP_SPACING 0.07

%BLOCK SPECIES_POT
QC5
%ENDBLOCK SPECIES_POT

%BLOCK HUBBARD_U
Fe d:4.0
%ENDBLOCK HUBBARD_U

SNAP_TO_SYMMETRY
SYMMETRY_GENERATE

