#              Generated by Buildcell
#
# at 17:37:23 (GMT+0.0) 26th November 2020
# in /lustre/scratch/uccabz1/launch_tmp
# on node-c12l-024
# by uccabz1
#
# compiler GCC version 4.9.2
# options -cpp -iprefix /lustre/shared/ucl/apps/gcc/4.9.2/bin/../lib/gcc/x86_64-unknown-linux-gnu/4.9.2/ -mtune=corei7 -march=x86-64 -g -Og
#
# seed -2024806580  -435039172   325577500  -952466610 -1702837527  -161484641   291898690 -2128462215  2009576791   626105660   228523943 -1506684232
#
#      Author: C. J. Pickard (cjp20@cam.ac.uk)
#                Space group: Pnn2
#

%BLOCK LATTICE_ABC
      5.31957      6.28486      9.57145
     90.00000     90.00000     90.00000
%ENDBLOCK LATTICE_ABC

%BLOCK POSITIONS_FRAC
  Li  -0.4559458  -0.2594147  -0.4857502 SPIN=   0.00000
  Li  -0.4559458   0.2594147   0.4857502 SPIN=   0.00000
  Li   0.0440542   0.2405853  -0.0142498 SPIN=   0.00000
  Li   0.0440542  -0.2405853   0.0142498 SPIN=   0.00000
   O  -0.5523469   0.7204627  -0.1442770 SPIN=   0.00000
   O  -0.7254357   0.3400954  -0.1895062 SPIN=   0.00000
   O  -0.4010730   0.4814096  -0.3491471 SPIN=   0.00000
   O  -0.2834818   0.3837785  -0.1040359 SPIN=   0.00000
   P  -0.4914289   0.4930110  -0.1928540 SPIN=   0.00000
   O  -0.5523469  -0.7204627   0.1442770 SPIN=   0.00000
   O  -0.7254357  -0.3400954   0.1895062 SPIN=   0.00000
   O  -0.4010730  -0.4814096   0.3491471 SPIN=   0.00000
   O  -0.2834818  -0.3837785   0.1040359 SPIN=   0.00000
   P  -0.4914289  -0.4930110   0.1928540 SPIN=   0.00000
   O  -0.0523469   0.2204627  -0.3557230 SPIN=   0.00000
   O  -0.2254357  -0.1599046  -0.3104938 SPIN=   0.00000
   O   0.0989270  -0.0185904  -0.1508529 SPIN=   0.00000
   O   0.2165182  -0.1162215  -0.3959641 SPIN=   0.00000
   P   0.0085711  -0.0069890  -0.3071460 SPIN=   0.00000
   O  -0.0523469  -0.2204627   0.3557230 SPIN=   0.00000
   O  -0.2254357   0.1599046   0.3104938 SPIN=   0.00000
   O   0.0989270   0.0185904   0.1508529 SPIN=   0.00000
   O   0.2165182   0.1162215   0.3959641 SPIN=   0.00000
   P   0.0085711   0.0069890   0.3071460 SPIN=   0.00000
  Fe   0.0086525  -0.4618402  -0.2981433 SPIN=   4.00000
  Fe   0.0086525   0.4618402   0.2981433 SPIN=   4.00000
  Fe  -0.4913475   0.0381598  -0.2018567 SPIN=   4.00000
  Fe  -0.4913475  -0.0381598   0.2018567 SPIN=   4.00000
%ENDBLOCK POSITIONS_FRAC

# Note: total spin =  16.00

KPOINTS_MP_SPACING 0.07

%BLOCK SPECIES_POT
QC5
%ENDBLOCK SPECIES_POT

%BLOCK HUBBARD_U
Fe d:4.0
%ENDBLOCK HUBBARD_U

SNAP_TO_SYMMETRY
SYMMETRY_GENERATE

