#              Generated by Buildcell
#
# at 18:30:41 (GMT+0.0) 26th November 2020
# in /lustre/scratch/uccabz1/launch_tmp
# on node-c12j-025
# by uccabz1
#
# compiler GCC version 4.9.2
# options -cpp -iprefix /lustre/shared/ucl/apps/gcc/4.9.2/bin/../lib/gcc/x86_64-unknown-linux-gnu/4.9.2/ -mtune=corei7 -march=x86-64 -g -Og
#
# seed   139284186  -758646257   546938335 -1548481997  1572299656    50775190 -1674116068   191276476  -921152807  -729954996  1203438823   397035073
#
#      Author: C. J. Pickard (cjp20@cam.ac.uk)
#                Space group: C2/c
#

%BLOCK LATTICE_ABC
      5.27923      7.39464      9.30466
    108.09490     90.00000    110.91379
%ENDBLOCK LATTICE_ABC

%BLOCK POSITIONS_FRAC
  Li  -0.2804765  -0.1601778   0.0925769 SPIN=   0.00000
  Li  -0.1202987   0.1601778   0.4074231 SPIN=   0.00000
  Li   0.2804765   0.1601778  -0.0925769 SPIN=   0.00000
  Li   0.1202987  -0.1601778  -0.4074231 SPIN=   0.00000
   O   0.0139581   0.4413720  -0.3324193 SPIN=   0.00000
   O  -0.1324638   0.2952358  -0.1120446 SPIN=   0.00000
   O  -0.3666454   0.0843326  -0.3722594 SPIN=   0.00000
   O   0.1206551   0.1366823  -0.3078737 SPIN=   0.00000
   P  -0.0830297   0.2489472  -0.2841945 SPIN=   0.00000
   O  -0.4274140  -0.4413720  -0.1675807 SPIN=   0.00000
   O  -0.4276996  -0.2952358  -0.3879554 SPIN=   0.00000
   O  -0.4509780  -0.0843326  -0.1277406 SPIN=   0.00000
   O  -0.0160273  -0.1366823  -0.1921263 SPIN=   0.00000
   P  -0.3319769  -0.2489472  -0.2158055 SPIN=   0.00000
   O  -0.0139581  -0.4413720   0.3324193 SPIN=   0.00000
   O   0.1324638  -0.2952358   0.1120446 SPIN=   0.00000
   O   0.3666454  -0.0843326   0.3722594 SPIN=   0.00000
   O  -0.1206551  -0.1366823   0.3078737 SPIN=   0.00000
   P   0.0830297  -0.2489472   0.2841945 SPIN=   0.00000
   O   0.4274140   0.4413720   0.1675807 SPIN=   0.00000
   O   0.4276996   0.2952358   0.3879554 SPIN=   0.00000
   O   0.4509780   0.0843326   0.1277406 SPIN=   0.00000
   O   0.0160273   0.1366823   0.1921263 SPIN=   0.00000
   P   0.3319769   0.2489472   0.2158055 SPIN=   0.00000
  Fe   0.4605081   0.3209246  -0.3812099 SPIN=   4.00000
  Fe   0.1395836  -0.3209246  -0.1187901 SPIN=   4.00000
  Fe  -0.4605081  -0.3209246   0.3812099 SPIN=   4.00000
  Fe  -0.1395836   0.3209246   0.1187901 SPIN=   4.00000
%ENDBLOCK POSITIONS_FRAC

# Note: total spin =  16.00

KPOINTS_MP_SPACING 0.07

%BLOCK SPECIES_POT
QC5
%ENDBLOCK SPECIES_POT

%BLOCK HUBBARD_U
Fe d:4.0
%ENDBLOCK HUBBARD_U

SNAP_TO_SYMMETRY
SYMMETRY_GENERATE

