#              Generated by Buildcell
#
# at 22:06:10 (GMT+0.0) 26th November 2020
# in /lustre/scratch/uccabz1/launch_tmp
# on node-c12c-020
# by uccabz1
#
# compiler GCC version 4.9.2
# options -cpp -iprefix /lustre/shared/ucl/apps/gcc/4.9.2/bin/../lib/gcc/x86_64-unknown-linux-gnu/4.9.2/ -mtune=corei7 -march=x86-64 -g -Og
#
# seed  1742216257 -2026021498   863022217  1911190748  1978627201  1758003727  1974758807 -1773795947  1755684772  -272929917   828717215  1793421015
#
#      Author: C. J. Pickard (cjp20@cam.ac.uk)
#                Space group: P21/c
#

%BLOCK LATTICE_ABC
      3.84448      9.04729      9.30022
     90.00000     98.41383     90.00000
%ENDBLOCK LATTICE_ABC

%BLOCK POSITIONS_FRAC
  Li  -0.0334430  -0.0451171  -0.3498390 SPIN=   0.00000
  Li   0.0334430   0.4548829  -0.1501610 SPIN=   0.00000
  Li   0.0334430   0.0451171   0.3498390 SPIN=   0.00000
  Li  -0.0334430  -0.4548829   0.1501610 SPIN=   0.00000
   O   0.3621013   0.3481641  -0.2801310 SPIN=   0.00000
   O   0.1503654   0.2438606  -0.5383909 SPIN=   0.00000
   O  -0.1820482   0.1767518  -0.3398773 SPIN=   0.00000
   O  -0.2128652   0.4358692  -0.4356216 SPIN=   0.00000
   P   0.0442448   0.3052538  -0.3926404 SPIN=   0.00000
   O  -0.3621013  -0.1518359  -0.2198690 SPIN=   0.00000
   O  -0.1503654  -0.2561394   0.0383909 SPIN=   0.00000
   O   0.1820482  -0.3232482  -0.1601227 SPIN=   0.00000
   O   0.2128652  -0.0641308  -0.0643784 SPIN=   0.00000
   P  -0.0442448  -0.1947462  -0.1073596 SPIN=   0.00000
   O  -0.3621013  -0.3481641   0.2801310 SPIN=   0.00000
   O  -0.1503654  -0.2438606   0.5383909 SPIN=   0.00000
   O   0.1820482  -0.1767518   0.3398773 SPIN=   0.00000
   O   0.2128652  -0.4358692   0.4356216 SPIN=   0.00000
   P  -0.0442448  -0.3052538   0.3926404 SPIN=   0.00000
   O   0.3621013   0.1518359   0.2198690 SPIN=   0.00000
   O   0.1503654   0.2561394  -0.0383909 SPIN=   0.00000
   O  -0.1820482   0.3232482   0.1601227 SPIN=   0.00000
   O  -0.2128652   0.0641308   0.0643784 SPIN=   0.00000
   P   0.0442448   0.1947462   0.1073596 SPIN=   0.00000
  Fe   0.4634550  -0.1597070   0.1444270 SPIN=   4.00000
  Fe  -0.4634550   0.3402930   0.3555730 SPIN=   4.00000
  Fe  -0.4634550   0.1597070  -0.1444270 SPIN=   4.00000
  Fe   0.4634550  -0.3402930  -0.3555730 SPIN=   4.00000
%ENDBLOCK POSITIONS_FRAC

# Note: total spin =  16.00

KPOINTS_MP_SPACING 0.07

%BLOCK SPECIES_POT
QC5
%ENDBLOCK SPECIES_POT

%BLOCK HUBBARD_U
Fe d:4.0
%ENDBLOCK HUBBARD_U

SNAP_TO_SYMMETRY
SYMMETRY_GENERATE

