#              Generated by Buildcell
#
# at 19:10:51 (GMT+0.0) 26th November 2020
# in /lustre/scratch/uccabz1/launch_tmp
# on node-c12d-028
# by uccabz1
#
# compiler GCC version 4.9.2
# options -cpp -iprefix /lustre/shared/ucl/apps/gcc/4.9.2/bin/../lib/gcc/x86_64-unknown-linux-gnu/4.9.2/ -mtune=corei7 -march=x86-64 -g -Og
#
# seed  -620661838   861324313 -1994933944  -762528263  1621493404   379282319  2123483512  1252335323   407136931   664641862    17176752 -1776981207
#
#      Author: C. J. Pickard (cjp20@cam.ac.uk)
#                Space group: P-1
#

%BLOCK LATTICE_ABC
      5.80506      6.86976      8.38556
     79.00933     77.15174     86.52771
%ENDBLOCK LATTICE_ABC

%BLOCK POSITIONS_FRAC
  Li   0.3112067  -0.0005953   0.3163100 SPIN=   0.00000
  Li  -0.3112067   0.0005953  -0.3163100 SPIN=   0.00000
  Li   0.4962994   0.2261381  -0.0434218 SPIN=   0.00000
  Li  -0.4962994  -0.2261381   0.0434218 SPIN=   0.00000
   O   0.1702774   0.0025975  -0.2600916 SPIN=   0.00000
   O   0.1971035   0.3674834  -0.2245013 SPIN=   0.00000
   O   0.2484167   0.2979833  -0.5087924 SPIN=   0.00000
   O  -0.1514620   0.2666311  -0.3180124 SPIN=   0.00000
   P   0.1158121   0.2217591  -0.3241256 SPIN=   0.00000
   O  -0.1702774  -0.0025975   0.2600916 SPIN=   0.00000
   O  -0.1971035  -0.3674834   0.2245013 SPIN=   0.00000
   O  -0.2484167  -0.2979833   0.5087924 SPIN=   0.00000
   O   0.1514620  -0.2666311   0.3180124 SPIN=   0.00000
   P  -0.1158121  -0.2217591   0.3241256 SPIN=   0.00000
   O   0.1433781  -0.3162031  -0.0647883 SPIN=   0.00000
   O   0.5448504  -0.4546154  -0.2113850 SPIN=   0.00000
   O   0.2673838  -0.2976360  -0.3846318 SPIN=   0.00000
   P   0.3474259  -0.2879523  -0.2190469 SPIN=   0.00000
   O  -0.1433781   0.3162031   0.0647883 SPIN=   0.00000
   O  -0.5448504   0.4546154   0.2113850 SPIN=   0.00000
   O  -0.2673838   0.2976360   0.3846318 SPIN=   0.00000
   P  -0.3474259   0.2879523   0.2190469 SPIN=   0.00000
   O   0.5000000   0.0000000  -0.5000000 SPIN=   0.00000
   O   0.0000000   0.0000000  -0.5000000 SPIN=   0.00000
  Fe   0.0987630   0.4401130   0.2071237 SPIN=   2.41361
  Fe  -0.0987630  -0.4401130  -0.2071237 SPIN=   2.41361
  Fe  -0.0000000  -0.0000000   0.0000000 SPIN=   1.37937
  Fe  -0.5000000   0.5000000  -0.5000000 SPIN=   9.79342
%ENDBLOCK POSITIONS_FRAC

# Note: total spin =  16.00

KPOINTS_MP_SPACING 0.07

%BLOCK SPECIES_POT
QC5
%ENDBLOCK SPECIES_POT

%BLOCK HUBBARD_U
Fe d:4.0
%ENDBLOCK HUBBARD_U

SNAP_TO_SYMMETRY
SYMMETRY_GENERATE

