#              Generated by Buildcell
#
# at 07:25:05 (GMT+0.0) 24th November 2020
# in /scratch/scratch/uccabz1/launch_tmp
# on node-a14c-007
# by uccabz1
#
# compiler GCC version 4.9.2
# options -cpp -iprefix /scratch/UCL/applications/gcc/4.9.2/bin/../lib/gcc/x86_64-unknown-linux-gnu/4.9.2/ -mtune=corei7 -march=x86-64 -g -O2
#
# seed  -477611978  1453943172  1356978124  1379679936  1934980680   837353701  2124198411  1790348885  -549236199 -1950416402   167278794  -916305755
#
#      Author: C. J. Pickard (cjp20@cam.ac.uk)
#                Space group: Cc
#

%BLOCK LATTICE_ABC
      4.53210      4.53210      8.54468
     86.52626     86.52626     66.06909
%ENDBLOCK LATTICE_ABC

%BLOCK POSITIONS_FRAC
  Li   0.3133734   0.2386279   0.0517301 SPIN=   0.00000
  Li   0.2386279   0.3133734  -0.4482699 SPIN=   0.00000
   O  -0.2777715  -0.6592781  -0.3144183 SPIN=   0.00000
   O  -0.6108156  -0.0516702  -0.2628453 SPIN=   0.00000
   O  -0.0949584  -0.2059455  -0.4169416 SPIN=   0.00000
   O  -0.5694762  -0.2457621  -0.5348451 SPIN=   0.00000
   P  -0.3845113  -0.3097610  -0.3804508 SPIN=   0.00000
   O  -0.6592781  -0.2777715   0.1855817 SPIN=   0.00000
   O  -0.0516702  -0.6108156   0.2371547 SPIN=   0.00000
   O  -0.2059455  -0.0949584   0.0830584 SPIN=   0.00000
   O  -0.2457621  -0.5694762  -0.0348451 SPIN=   0.00000
   P  -0.3097610  -0.3845113   0.1195492 SPIN=   0.00000
  Fe  -0.1051979  -0.0304501   0.3242497 SPIN=   4.00000
  Fe  -0.0304501  -0.1051979  -0.1757503 SPIN=   4.00000
%ENDBLOCK POSITIONS_FRAC

# Note: total spin =   8.00

KPOINTS_MP_SPACING 0.07

%BLOCK SPECIES_POT
QC5
%ENDBLOCK SPECIES_POT

%BLOCK HUBBARD_U
Fe d:4.0
%ENDBLOCK HUBBARD_U

SNAP_TO_SYMMETRY
SYMMETRY_GENERATE

