#              Generated by Buildcell
#
# at 11:17:32 (GMT+0.0) 26th November 2020
# in /lustre/scratch/uccabz1/launch_tmp
# on node-c12g-031
# by uccabz1
#
# compiler GCC version 4.9.2
# options -cpp -iprefix /lustre/shared/ucl/apps/gcc/4.9.2/bin/../lib/gcc/x86_64-unknown-linux-gnu/4.9.2/ -mtune=corei7 -march=x86-64 -g -Og
#
# seed  -143104361   -52103752 -2007383069   678503698  1748965354   522593259  -425874870  2138384447 -1894419582  1328143033  1936667289  -899957161
#
#      Author: C. J. Pickard (cjp20@cam.ac.uk)
#                Space group: P2
#

%BLOCK LATTICE_ABC
      4.77527      6.44677     10.45959
     90.00000     96.38794     90.00000
%ENDBLOCK LATTICE_ABC

%BLOCK POSITIONS_FRAC
  Li  -0.0037097  -0.1769717  -0.2607704 SPIN=   0.00000
  Li   0.0037097  -0.1769717   0.2607704 SPIN=   0.00000
  Li   0.5000000   0.2709960   0.5000000 SPIN=   0.00000
  Li   0.0000000  -0.3995060   0.0000000 SPIN=   0.00000
   O   0.0331824   0.2095306   0.3862055 SPIN=   0.00000
   O   0.3914890   0.5076709   0.3656415 SPIN=   0.00000
   O   0.0252480   0.4441568   0.1838804 SPIN=   0.00000
   O  -0.1113497   0.5954775   0.3885742 SPIN=   0.00000
   P   0.0795896   0.4288239   0.3346894 SPIN=   0.00000
   O  -0.0331824   0.2095306  -0.3862055 SPIN=   0.00000
   O  -0.3914890   0.5076709  -0.3656415 SPIN=   0.00000
   O  -0.0252480   0.4441568  -0.1838804 SPIN=   0.00000
   O   0.1113497   0.5954775  -0.3885742 SPIN=   0.00000
   P  -0.0795896   0.4288239  -0.3346894 SPIN=   0.00000
   O  -0.1978663   0.0829392  -0.1876909 SPIN=   0.00000
   O  -0.6495372  -0.0401992  -0.3287121 SPIN=   0.00000
   O  -0.5215870  -0.2112876  -0.1190513 SPIN=   0.00000
   O  -0.6970670   0.1550481  -0.1252603 SPIN=   0.00000
   P  -0.5016787   0.0030905  -0.1892801 SPIN=   0.00000
   O   0.1978663   0.0829392   0.1876909 SPIN=   0.00000
   O   0.6495372  -0.0401992   0.3287121 SPIN=   0.00000
   O   0.5215870  -0.2112876   0.1190513 SPIN=   0.00000
   O   0.6970670   0.1550481   0.1252603 SPIN=   0.00000
   P   0.5016787   0.0030905   0.1892801 SPIN=   0.00000
  Fe  -0.5456605   0.4484390  -0.1905009 SPIN=   7.62437
  Fe   0.5456605   0.4484390   0.1905009 SPIN=   7.62437
  Fe   0.5000000  -0.2274449   0.5000000 SPIN=  -0.00000
  Fe  -0.0000000   0.0965571   0.0000000 SPIN=   0.75125
%ENDBLOCK POSITIONS_FRAC

# Note: total spin =  16.00

KPOINTS_MP_SPACING 0.07

%BLOCK SPECIES_POT
QC5
%ENDBLOCK SPECIES_POT

%BLOCK HUBBARD_U
Fe d:4.0
%ENDBLOCK HUBBARD_U

SNAP_TO_SYMMETRY
SYMMETRY_GENERATE

