#              Generated by Buildcell
#
# at 01:34:10 (GMT+0.0) 27th November 2020
# in /scratch/scratch/uccabz1/launch_tmp
# on node-k10b-007
# by uccabz1
#
# compiler GCC version 4.9.2
# options -cpp -iprefix /scratch/UCL/applications/gcc/4.9.2/bin/../lib/gcc/x86_64-unknown-linux-gnu/4.9.2/ -mtune=corei7 -march=x86-64 -g -O2
#
# seed  1709896351  1388944411 -1260157311 -1852750946 -1303599830  1151379293    21851387  1069348680   157161352  1642323045 -1465002780  1214385776
#
#      Author: C. J. Pickard (cjp20@cam.ac.uk)
#                Space group: P212121
#

%BLOCK LATTICE_ABC
      6.74766      6.81261      6.96119
     90.00000     90.00000     90.00000
%ENDBLOCK LATTICE_ABC

%BLOCK POSITIONS_FRAC
  Li  -0.2225457  -0.0839479   0.1809497 SPIN=   0.00000
  Li   0.2774543  -0.4160521  -0.1809497 SPIN=   0.00000
  Li  -0.2774543   0.0839479  -0.3190503 SPIN=   0.00000
  Li   0.2225457   0.4160521   0.3190503 SPIN=   0.00000
   O   0.3412540  -0.2905598   0.2984225 SPIN=   0.00000
   O   0.7044468  -0.3874266   0.2186279 SPIN=   0.00000
   O   0.4338391  -0.5541294   0.0440501 SPIN=   0.00000
   O   0.5064111  -0.2004874  -0.0244945 SPIN=   0.00000
   P   0.4883394  -0.3526913   0.1410260 SPIN=   0.00000
   O  -0.1587460  -0.2094402  -0.2984225 SPIN=   0.00000
   O   0.2044468  -0.1125734  -0.2186279 SPIN=   0.00000
   O  -0.0661609   0.0541294  -0.0440501 SPIN=   0.00000
   O   0.0064111  -0.2995126   0.0244945 SPIN=   0.00000
   P  -0.0116606  -0.1473087  -0.1410260 SPIN=   0.00000
   O   0.1587460   0.2905598  -0.2015775 SPIN=   0.00000
   O  -0.2044468   0.3874266  -0.2813721 SPIN=   0.00000
   O   0.0661609   0.5541294  -0.4559499 SPIN=   0.00000
   O  -0.0064111   0.2004874  -0.5244945 SPIN=   0.00000
   P   0.0116606   0.3526913  -0.3589740 SPIN=   0.00000
   O  -0.3412540   0.2094402   0.2015775 SPIN=   0.00000
   O  -0.7044468   0.1125734   0.2813721 SPIN=   0.00000
   O  -0.4338391  -0.0541294   0.4559499 SPIN=   0.00000
   O  -0.5064111   0.2995126   0.5244945 SPIN=   0.00000
   P  -0.4883394   0.1473087   0.3589740 SPIN=   0.00000
  Fe  -0.1581519   0.4039526   0.0194874 SPIN=   4.00000
  Fe   0.3418481   0.0960474  -0.0194874 SPIN=   4.00000
  Fe  -0.3418481  -0.4039526  -0.4805126 SPIN=   4.00000
  Fe   0.1581519  -0.0960474   0.4805126 SPIN=   4.00000
%ENDBLOCK POSITIONS_FRAC

# Note: total spin =  16.00

KPOINTS_MP_SPACING 0.07

%BLOCK SPECIES_POT
QC5
%ENDBLOCK SPECIES_POT

%BLOCK HUBBARD_U
Fe d:4.0
%ENDBLOCK HUBBARD_U

SNAP_TO_SYMMETRY
SYMMETRY_GENERATE

