#              Generated by Buildcell
#
# at 18:58:04 (GMT+0.0) 26th November 2020
# in /lustre/scratch/uccabz1/launch_tmp
# on node-c12n-031
# by uccabz1
#
# compiler GCC version 4.9.2
# options -cpp -iprefix /lustre/shared/ucl/apps/gcc/4.9.2/bin/../lib/gcc/x86_64-unknown-linux-gnu/4.9.2/ -mtune=corei7 -march=x86-64 -g -Og
#
# seed -2003646727  1423903736  1955712980   183980154 -1150749466  2106741652   534954145  1042901069    81598705   512380198  1151870017 -1379453223
#
#      Author: C. J. Pickard (cjp20@cam.ac.uk)
#                Space group: Pnn2
#

%BLOCK LATTICE_ABC
      3.83913      8.98170      9.28022
     90.00000     90.00000     90.00000
%ENDBLOCK LATTICE_ABC

%BLOCK POSITIONS_FRAC
  Li  -0.3598108  -0.4516752   0.3440508 SPIN=   0.00000
  Li  -0.3598108   0.4516752  -0.3440508 SPIN=   0.00000
  Li   0.1401892   0.0483248   0.1559492 SPIN=   0.00000
  Li   0.1401892  -0.0483248  -0.1559492 SPIN=   0.00000
   O  -0.1104884  -0.2526594   0.4014579 SPIN=   0.00000
   O  -0.3692364  -0.2232179   0.1443461 SPIN=   0.00000
   O  -0.6330254  -0.0790567   0.3429994 SPIN=   0.00000
   P  -0.2754365  -0.1458645   0.2913783 SPIN=   0.00000
   O  -0.1104884   0.2526594  -0.4014579 SPIN=   0.00000
   O  -0.3692364   0.2232179  -0.1443461 SPIN=   0.00000
   O  -0.6330254   0.0790567  -0.3429994 SPIN=   0.00000
   P  -0.2754365   0.1458645  -0.2913783 SPIN=   0.00000
   O   0.3895116   0.2473406   0.0985421 SPIN=   0.00000
   O   0.1307636   0.2767821   0.3556539 SPIN=   0.00000
   O  -0.1330254   0.4209433   0.1570006 SPIN=   0.00000
   P   0.2245635   0.3541355   0.2086217 SPIN=   0.00000
   O   0.3895116  -0.2473406  -0.0985421 SPIN=   0.00000
   O   0.1307636  -0.2767821  -0.3556539 SPIN=   0.00000
   O  -0.1330254  -0.4209433  -0.1570006 SPIN=   0.00000
   P   0.2245635  -0.3541355  -0.2086217 SPIN=   0.00000
   O  -0.2424176   0.0000000  -0.0000000 SPIN=   0.00000
   O   0.2575824  -0.5000000  -0.5000000 SPIN=   0.00000
   O  -0.1372071   0.0000000  -0.5000000 SPIN=   0.00000
   O   0.3627929  -0.5000000  -0.0000000 SPIN=   0.00000
  Fe   0.1394156   0.3092642  -0.0930250 SPIN=   4.00000
  Fe   0.1394156  -0.3092642   0.0930250 SPIN=   4.00000
  Fe  -0.3605844  -0.1907358  -0.4069750 SPIN=   4.00000
  Fe  -0.3605844   0.1907358   0.4069750 SPIN=   4.00000
%ENDBLOCK POSITIONS_FRAC

# Note: total spin =  16.00

KPOINTS_MP_SPACING 0.07

%BLOCK SPECIES_POT
QC5
%ENDBLOCK SPECIES_POT

%BLOCK HUBBARD_U
Fe d:4.0
%ENDBLOCK HUBBARD_U

SNAP_TO_SYMMETRY
SYMMETRY_GENERATE

