#              Generated by Buildcell
#
# at 20:35:05 (GMT+0.0) 26th November 2020
# in /lustre/scratch/uccabz1/launch_tmp
# on node-c12a-036
# by uccabz1
#
# compiler GCC version 4.9.2
# options -cpp -iprefix /lustre/shared/ucl/apps/gcc/4.9.2/bin/../lib/gcc/x86_64-unknown-linux-gnu/4.9.2/ -mtune=corei7 -march=x86-64 -g -Og
#
# seed  -153328278   986740355   371015118  1922451280 -1365188493  1791983148  1188958745   955515410    64714032  1839400783  -125123480  -821251424
#
#      Author: C. J. Pickard (cjp20@cam.ac.uk)
#                Space group: P-1
#

%BLOCK LATTICE_ABC
      6.02543      6.05184      9.42618
    103.07082    105.17455     94.10921
%ENDBLOCK LATTICE_ABC

%BLOCK POSITIONS_FRAC
  Li  -0.5000000  -0.5000000   0.0000000 SPIN=   0.00000
  Li   0.0000000   0.5000000  -0.0000000 SPIN=   0.00000
  Li  -0.5000000   0.0000000   0.0000000 SPIN=   0.00000
  Li   0.0000000  -0.5000000   0.5000000 SPIN=   0.00000
   O  -0.5566174   0.2914646   0.1497648 SPIN=   0.00000
   O  -0.1653109   0.2155440   0.3148662 SPIN=   0.00000
   O  -0.3545709   0.5323385   0.4258263 SPIN=   0.00000
   O  -0.5308995   0.1265728   0.3826002 SPIN=   0.00000
   P  -0.4116132   0.2895330   0.3100518 SPIN=   0.00000
   O   0.5566174  -0.2914646  -0.1497648 SPIN=   0.00000
   O   0.1653109  -0.2155440  -0.3148662 SPIN=   0.00000
   O   0.3545709  -0.5323385  -0.4258263 SPIN=   0.00000
   O   0.5308995  -0.1265728  -0.3826002 SPIN=   0.00000
   P   0.4116132  -0.2895330  -0.3100518 SPIN=   0.00000
   O   0.1423551  -0.1025702   0.4466661 SPIN=   0.00000
   O   0.1677917  -0.2005038   0.1689286 SPIN=   0.00000
   O   0.2226691  -0.4993805   0.3102623 SPIN=   0.00000
   O  -0.1722830  -0.3842302   0.2270452 SPIN=   0.00000
   P   0.0898170  -0.2873695   0.2959397 SPIN=   0.00000
   O  -0.1423551   0.1025702  -0.4466661 SPIN=   0.00000
   O  -0.1677917   0.2005038  -0.1689286 SPIN=   0.00000
   O  -0.2226691   0.4993805  -0.3102623 SPIN=   0.00000
   O   0.1722830   0.3842302  -0.2270452 SPIN=   0.00000
   P  -0.0898170   0.2873695  -0.2959397 SPIN=   0.00000
  Fe   0.1025153   0.1403288   0.2157935 SPIN=   2.40770
  Fe  -0.1025153  -0.1403288  -0.2157935 SPIN=   2.40770
  Fe  -0.3635985  -0.1687039   0.3495442 SPIN=   5.59230
  Fe   0.3635985   0.1687039  -0.3495442 SPIN=   5.59230
%ENDBLOCK POSITIONS_FRAC

# Note: total spin =  16.00

KPOINTS_MP_SPACING 0.07

%BLOCK SPECIES_POT
QC5
%ENDBLOCK SPECIES_POT

%BLOCK HUBBARD_U
Fe d:4.0
%ENDBLOCK HUBBARD_U

SNAP_TO_SYMMETRY
SYMMETRY_GENERATE

