#              Generated by Buildcell
#
# at 12:57:19 (GMT+0.0) 26th November 2020
# in /lustre/scratch/uccabz1/launch_tmp
# on node-c12e-024
# by uccabz1
#
# compiler GCC version 4.9.2
# options -cpp -iprefix /lustre/shared/ucl/apps/gcc/4.9.2/bin/../lib/gcc/x86_64-unknown-linux-gnu/4.9.2/ -mtune=corei7 -march=x86-64 -g -Og
#
# seed   477442017  -344556632 -1894688758 -1509679047  2072154264 -1339396724  1690396537   371987569   952817360  1010667963  -450406935  2049717611
#
#      Author: C. J. Pickard (cjp20@cam.ac.uk)
#                Space group: Cc
#

%BLOCK LATTICE_ABC
      5.79763      5.86135      9.86274
    107.28628     90.56061     90.00000
%ENDBLOCK LATTICE_ABC

%BLOCK POSITIONS_FRAC
  Li   0.1015711   0.1991052  -0.1025229 SPIN=   0.00000
  Li  -0.3984289  -0.3016281  -0.1025229 SPIN=   0.00000
  Li   0.0410791   0.2851353   0.4072046 SPIN=   0.00000
  Li  -0.4589209   0.1220693   0.4072046 SPIN=   0.00000
   O  -0.2613807  -0.4989471  -0.3162588 SPIN=   0.00000
   O  -0.5943015  -0.1897291  -0.2735104 SPIN=   0.00000
   O  -0.3630488  -0.2572048  -0.4908398 SPIN=   0.00000
   O  -0.6347776  -0.5757535  -0.4682420 SPIN=   0.00000
   P  -0.4546446  -0.3890255  -0.3843910 SPIN=   0.00000
   O   0.2386193   0.1826883  -0.3162588 SPIN=   0.00000
   O  -0.0943015  -0.0837813  -0.2735104 SPIN=   0.00000
   O   0.1369512  -0.2336349  -0.4908398 SPIN=   0.00000
   O  -0.1347776   0.1075115  -0.4682420 SPIN=   0.00000
   P   0.0453554   0.0046345  -0.3843910 SPIN=   0.00000
   O   0.4098643   0.3146708   0.2684027 SPIN=   0.00000
   O   0.0307540   0.5448398   0.2569004 SPIN=   0.00000
   O   0.2993988   0.4699487   0.0556539 SPIN=   0.00000
   O   0.0772157   0.1287513   0.0945632 SPIN=   0.00000
   P   0.2137532   0.3591140   0.1733022 SPIN=   0.00000
   O  -0.0901357  -0.0462681   0.2684027 SPIN=   0.00000
   O  -0.4692460  -0.2879393   0.2569004 SPIN=   0.00000
   O  -0.2006012  -0.4142948   0.0556539 SPIN=   0.00000
   O  -0.4227843  -0.0341881   0.0945632 SPIN=   0.00000
   P  -0.2862468  -0.1858118   0.1733022 SPIN=   0.00000
  Fe  -0.2966438   0.3159039   0.1436291 SPIN=   3.78136
  Fe   0.2033562  -0.1722748   0.1436291 SPIN=   3.78136
  Fe   0.0979320  -0.3818894  -0.2645633 SPIN=   4.21864
  Fe  -0.4020680   0.1173261  -0.2645633 SPIN=   4.21864
%ENDBLOCK POSITIONS_FRAC

# Note: total spin =  16.00

KPOINTS_MP_SPACING 0.07

%BLOCK SPECIES_POT
QC5
%ENDBLOCK SPECIES_POT

%BLOCK HUBBARD_U
Fe d:4.0
%ENDBLOCK HUBBARD_U

SNAP_TO_SYMMETRY
SYMMETRY_GENERATE

