#              Generated by Buildcell
#
# at 19:52:33 (GMT+0.0) 26th November 2020
# in /scratch/scratch/uccabz1/launch_tmp
# on node-k10g-001
# by uccabz1
#
# compiler GCC version 4.9.2
# options -cpp -iprefix /scratch/UCL/applications/gcc/4.9.2/bin/../lib/gcc/x86_64-unknown-linux-gnu/4.9.2/ -mtune=corei7 -march=x86-64 -g -O2
#
# seed  1754610555  1493366389    50699761  1536028458  1203996370  1609079563  1374566331   682976914 -1037043477  1548823374 -1806916528  1302558313
#
#      Author: C. J. Pickard (cjp20@cam.ac.uk)
#                Space group: P-1
#

%BLOCK LATTICE_ABC
      5.04882      8.16974      8.69185
    106.55920     99.81708    105.08552
%ENDBLOCK LATTICE_ABC

%BLOCK POSITIONS_FRAC
  Li  -0.6867245  -0.2023184   0.0913723 SPIN=   0.00000
  Li   0.6867245   0.2023184  -0.0913723 SPIN=   0.00000
  Li  -0.2123608  -0.4013304   0.1691127 SPIN=   0.00000
  Li   0.2123608   0.4013304  -0.1691127 SPIN=   0.00000
   O  -0.2535800   0.1176739   0.2976115 SPIN=   0.00000
   O   0.2225163   0.0481739   0.3229819 SPIN=   0.00000
   O  -0.1721204  -0.1442405   0.3913834 SPIN=   0.00000
   O  -0.2058556  -0.1668952   0.0947695 SPIN=   0.00000
   P  -0.1115395  -0.0296633   0.2756539 SPIN=   0.00000
   O   0.2535800  -0.1176739  -0.2976115 SPIN=   0.00000
   O  -0.2225163  -0.0481739  -0.3229819 SPIN=   0.00000
   O   0.1721204   0.1442405  -0.3913834 SPIN=   0.00000
   O   0.2058556   0.1668952  -0.0947695 SPIN=   0.00000
   P   0.1115395   0.0296633  -0.2756539 SPIN=   0.00000
   O   0.7753529   0.2524195  -0.3377917 SPIN=   0.00000
   O   0.6539225   0.4553396  -0.0886200 SPIN=   0.00000
   O   0.9187484   0.6014641  -0.2545420 SPIN=   0.00000
   P   0.6896418   0.4209950  -0.2702402 SPIN=   0.00000
   O  -0.7753529  -0.2524195   0.3377917 SPIN=   0.00000
   O  -0.6539225  -0.4553396   0.0886200 SPIN=   0.00000
   O  -0.9187484  -0.6014641   0.2545420 SPIN=   0.00000
   P  -0.6896418  -0.4209950   0.2702402 SPIN=   0.00000
   O  -0.5000000  -0.5000000   0.5000000 SPIN=   0.00000
   O  -0.5000000   0.0000000   0.0000000 SPIN=   0.00000
  Fe   0.2837921   0.2104552   0.1685591 SPIN=   0.57846
  Fe  -0.2837921  -0.2104552  -0.1685591 SPIN=   0.57846
  Fe  -0.5000000  -0.0000000  -0.5000000 SPIN=   9.10842
  Fe   0.0000000   0.5000000   0.5000000 SPIN=   5.73466
%ENDBLOCK POSITIONS_FRAC

# Note: total spin =  16.00

KPOINTS_MP_SPACING 0.07

%BLOCK SPECIES_POT
QC5
%ENDBLOCK SPECIES_POT

%BLOCK HUBBARD_U
Fe d:4.0
%ENDBLOCK HUBBARD_U

SNAP_TO_SYMMETRY
SYMMETRY_GENERATE

