#              Generated by Buildcell
#
# at 19:50:47 (GMT+0.0) 26th November 2020
# in /lustre/scratch/uccabz1/launch_tmp
# on node-c12f-029
# by uccabz1
#
# compiler GCC version 4.9.2
# options -cpp -iprefix /lustre/shared/ucl/apps/gcc/4.9.2/bin/../lib/gcc/x86_64-unknown-linux-gnu/4.9.2/ -mtune=corei7 -march=x86-64 -g -Og
#
# seed   124179064   -84758227 -1945979122  1849987127  -149491048  -689026712 -1458100084   566264437  -453401456 -1530640491   489971641  1512589358
#
#      Author: C. J. Pickard (cjp20@cam.ac.uk)
#                Space group: Aem2
#

%BLOCK LATTICE_ABC
      4.61317      8.27767      9.34633
    116.28457     90.00000     90.00000
%ENDBLOCK LATTICE_ABC

%BLOCK POSITIONS_FRAC
  Li   0.3945882   0.1806437   0.3036148 SPIN=   0.00000
  Li  -0.3945882  -0.1229711  -0.3036148 SPIN=   0.00000
  Li   0.3945882   0.3770289  -0.3036148 SPIN=   0.00000
  Li  -0.3945882  -0.3193563   0.3036148 SPIN=   0.00000
   O  -0.1795492  -0.1501421   0.1913245 SPIN=   0.00000
   O   0.0765528  -0.3235050   0.3291013 SPIN=   0.00000
   O   0.2636752  -0.3601196   0.0688462 SPIN=   0.00000
   O   0.3343250  -0.0666386   0.3115020 SPIN=   0.00000
   P   0.1100867  -0.2192401   0.2244087 SPIN=   0.00000
   O   0.1795492  -0.3414666  -0.1913245 SPIN=   0.00000
   O  -0.0765528  -0.6526063  -0.3291013 SPIN=   0.00000
   O  -0.2636752  -0.4289658  -0.0688462 SPIN=   0.00000
   O  -0.3343250  -0.3781407  -0.3115020 SPIN=   0.00000
   P  -0.1100867  -0.4436488  -0.2244087 SPIN=   0.00000
   O  -0.1795492   0.1585334  -0.1913245 SPIN=   0.00000
   O   0.0765528  -0.1526063  -0.3291013 SPIN=   0.00000
   O   0.2636752   0.0710342  -0.0688462 SPIN=   0.00000
   O   0.3343250   0.1218593  -0.3115020 SPIN=   0.00000
   P   0.1100867   0.0563512  -0.2244087 SPIN=   0.00000
   O   0.1795492   0.3498579   0.1913245 SPIN=   0.00000
   O  -0.0765528   0.1764950   0.3291013 SPIN=   0.00000
   O  -0.2636752   0.1398804   0.0688462 SPIN=   0.00000
   O  -0.3343250   0.4333614   0.3115020 SPIN=   0.00000
   P  -0.1100867   0.2807599   0.2244087 SPIN=   0.00000
  Fe  -0.0000000  -0.0858344  -0.0000000 SPIN=   2.07133
  Fe   0.0000000   0.4141656   0.0000000 SPIN=   2.07133
  Fe   0.1043616  -0.4209406   0.5000000 SPIN=   5.92867
  Fe  -0.1043616   0.0790594   0.5000000 SPIN=   5.92867
%ENDBLOCK POSITIONS_FRAC

# Note: total spin =  16.00

KPOINTS_MP_SPACING 0.07

%BLOCK SPECIES_POT
QC5
%ENDBLOCK SPECIES_POT

%BLOCK HUBBARD_U
Fe d:4.0
%ENDBLOCK HUBBARD_U

SNAP_TO_SYMMETRY
SYMMETRY_GENERATE

