#              Generated by Buildcell
#
# at 08:24:16 (GMT+0.0) 24th November 2020
# in /lustre/scratch/uccabz1/launch_tmp
# on node-c12e-020
# by uccabz1
#
# compiler GCC version 4.9.2
# options -cpp -iprefix /lustre/shared/ucl/apps/gcc/4.9.2/bin/../lib/gcc/x86_64-unknown-linux-gnu/4.9.2/ -mtune=corei7 -march=x86-64 -g -Og
#
# seed  -783909095  1995179927   892842369  -856018150   -98059238  1186180372  -235758724 -1297782131  -711904134 -1225875291   245609650 -1242013198
#
#      Author: C. J. Pickard (cjp20@cam.ac.uk)
#                Space group: Cc
#

%BLOCK LATTICE_ABC
      5.43404      5.87366      5.87366
    119.17109     96.14075     96.14075
%ENDBLOCK LATTICE_ABC

%BLOCK POSITIONS_FRAC
  Li   0.3986875   0.0933307  -0.0409690 SPIN=   0.00000
  Li  -0.1013125  -0.0409690   0.0933307 SPIN=   0.00000
   O  -0.6525504   0.1306121  -0.4689095 SPIN=   0.00000
   O  -0.3193970   0.2457272  -0.7006534 SPIN=   0.00000
   O  -0.3406460   0.5802205  -0.2412942 SPIN=   0.00000
   O  -0.1762498   0.1680656  -0.3286339 SPIN=   0.00000
   P  -0.3848249   0.2718060  -0.4354313 SPIN=   0.00000
   O  -0.1525504  -0.4689095   0.1306121 SPIN=   0.00000
   O   0.1806030  -0.7006534   0.2457272 SPIN=   0.00000
   O   0.1593540  -0.2412942   0.5802205 SPIN=   0.00000
   O   0.3237502  -0.3286339   0.1680656 SPIN=   0.00000
   P   0.1151751  -0.4354313   0.2718060 SPIN=   0.00000
  Fe   0.1511265   0.4419708  -0.2793201 SPIN=   4.00000
  Fe  -0.3488735  -0.2793201   0.4419708 SPIN=   4.00000
%ENDBLOCK POSITIONS_FRAC

# Note: total spin =   8.00

KPOINTS_MP_SPACING 0.07

%BLOCK SPECIES_POT
QC5
%ENDBLOCK SPECIES_POT

%BLOCK HUBBARD_U
Fe d:4.0
%ENDBLOCK HUBBARD_U

SNAP_TO_SYMMETRY
SYMMETRY_GENERATE

