#              Generated by Buildcell
#
# at 22:26:06 (GMT+0.0) 26th November 2020
# in /lustre/scratch/uccabz1/launch_tmp
# on node-c12j-022
# by uccabz1
#
# compiler GCC version 4.9.2
# options -cpp -iprefix /lustre/shared/ucl/apps/gcc/4.9.2/bin/../lib/gcc/x86_64-unknown-linux-gnu/4.9.2/ -mtune=corei7 -march=x86-64 -g -Og
#
# seed   569415943  -762758569   188315305  1713962816 -1893106240 -1416012182  2013744720  -157628499  1957760651 -1812617050 -1464706636    78789276
#
#      Author: C. J. Pickard (cjp20@cam.ac.uk)
#                Space group: P212121
#

%BLOCK LATTICE_ABC
      5.14897      6.49216      9.57282
     90.00000     90.00000     90.00000
%ENDBLOCK LATTICE_ABC

%BLOCK POSITIONS_FRAC
  Li   0.2726369   0.3933668   0.3997439 SPIN=   0.00000
  Li   0.2273631  -0.3933668  -0.1002561 SPIN=   0.00000
  Li  -0.2726369  -0.1066332   0.1002561 SPIN=   0.00000
  Li  -0.2273631   0.1066332  -0.3997439 SPIN=   0.00000
   O   0.3178351   0.3714873   0.0439078 SPIN=   0.00000
   O   0.3325658  -0.0250629   0.0795347 SPIN=   0.00000
   O   0.5650251   0.1958494   0.2483392 SPIN=   0.00000
   O   0.0786744   0.1917607   0.2473707 SPIN=   0.00000
   P   0.3203326   0.1936149   0.1499768 SPIN=   0.00000
   O   0.1821649  -0.3714873  -0.4560922 SPIN=   0.00000
   O   0.1674342   0.0250629  -0.4204653 SPIN=   0.00000
   O  -0.0650251  -0.1958494  -0.2516608 SPIN=   0.00000
   O   0.4213256  -0.1917607  -0.2526293 SPIN=   0.00000
   P   0.1796674  -0.1936149  -0.3500232 SPIN=   0.00000
   O  -0.3178351  -0.1285127   0.4560922 SPIN=   0.00000
   O  -0.3325658  -0.5250629   0.4204653 SPIN=   0.00000
   O  -0.5650251  -0.3041506   0.2516608 SPIN=   0.00000
   O  -0.0786744  -0.3082393   0.2526293 SPIN=   0.00000
   P  -0.3203326  -0.3063851   0.3500232 SPIN=   0.00000
   O  -0.1821649   0.1285127  -0.0439078 SPIN=   0.00000
   O  -0.1674342   0.5250629  -0.0795347 SPIN=   0.00000
   O   0.0650251   0.3041506  -0.2483392 SPIN=   0.00000
   O  -0.4213256   0.3082393  -0.2473707 SPIN=   0.00000
   P  -0.1796674   0.3063851  -0.1499768 SPIN=   0.00000
  Fe   0.3232169   0.1066325  -0.1439666 SPIN=   4.00000
  Fe   0.1767831  -0.1066325   0.3560334 SPIN=   4.00000
  Fe  -0.3232169  -0.3933675  -0.3560334 SPIN=   4.00000
  Fe  -0.1767831   0.3933675   0.1439666 SPIN=   4.00000
%ENDBLOCK POSITIONS_FRAC

# Note: total spin =  16.00

KPOINTS_MP_SPACING 0.07

%BLOCK SPECIES_POT
QC5
%ENDBLOCK SPECIES_POT

%BLOCK HUBBARD_U
Fe d:4.0
%ENDBLOCK HUBBARD_U

SNAP_TO_SYMMETRY
SYMMETRY_GENERATE

