#              Generated by Buildcell
#
# at 14:37:22 (GMT+0.0) 24th November 2020
# in /scratch/scratch/uccabz1/launch_tmp
# on node-a14f-029
# by uccabz1
#
# compiler GCC version 4.9.2
# options -cpp -iprefix /scratch/UCL/applications/gcc/4.9.2/bin/../lib/gcc/x86_64-unknown-linux-gnu/4.9.2/ -mtune=corei7 -march=x86-64 -g -O2
#
# seed  1818047333  1021312769  1569325527   274212088   576373051  -885587616  1547415249   154309148  1344266926   205517361  2006809863  -546599788
#
#      Author: C. J. Pickard (cjp20@cam.ac.uk)
#                Space group: Pc
#

%BLOCK LATTICE_ABC
      4.95781      5.71475      5.92039
     90.00000     90.00000    107.47356
%ENDBLOCK LATTICE_ABC

%BLOCK POSITIONS_FRAC
  Li  -0.2426041  -0.0498198  -0.3909984 SPIN=   0.00000
  Li  -0.2426041   0.4501802   0.3909984 SPIN=   0.00000
   O   0.0573120   0.5040154   0.0516177 SPIN=   0.00000
   O   0.4597415   0.6917858   0.3394309 SPIN=   0.00000
   O   0.1002448   0.3014881   0.4374218 SPIN=   0.00000
   O   0.4532483   0.3075107   0.1332051 SPIN=   0.00000
   P   0.2586284   0.4523165   0.2291009 SPIN=   0.00000
   O   0.0573120   0.0040154  -0.0516177 SPIN=   0.00000
   O   0.4597415   0.1917858  -0.3394309 SPIN=   0.00000
   O   0.1002448  -0.1985119  -0.4374218 SPIN=   0.00000
   O   0.4532483  -0.1924893  -0.1332051 SPIN=   0.00000
   P   0.2586284  -0.0476835  -0.2291009 SPIN=   0.00000
  Fe   0.2564324  -0.0490872   0.2482515 SPIN=   4.00000
  Fe   0.2564324   0.4509128  -0.2482515 SPIN=   4.00000
%ENDBLOCK POSITIONS_FRAC

# Note: total spin =   8.00

KPOINTS_MP_SPACING 0.07

%BLOCK SPECIES_POT
QC5
%ENDBLOCK SPECIES_POT

%BLOCK HUBBARD_U
Fe d:4.0
%ENDBLOCK HUBBARD_U

SNAP_TO_SYMMETRY
SYMMETRY_GENERATE

