#              Generated by Buildcell
#
# at 11:25:20 (GMT+0.0) 24th November 2020
# in /scratch/scratch/uccabz1/launch_tmp
# on node-a14a-009
# by uccabz1
#
# compiler GCC version 4.9.2
# options -cpp -iprefix /scratch/UCL/applications/gcc/4.9.2/bin/../lib/gcc/x86_64-unknown-linux-gnu/4.9.2/ -mtune=corei7 -march=x86-64 -g -O2
#
# seed   316341980  1398979450 -1752477473 -2041819560  -463619691 -2091470209  1725652461 -1132343436 -1592025991 -1837992174   639620058   939138272
#
#      Author: C. J. Pickard (cjp20@cam.ac.uk)
#                Space group: P2/c
#

%BLOCK LATTICE_ABC
      3.85349      5.99603      7.30580
     90.00000     90.00000    108.58720
%ENDBLOCK LATTICE_ABC

%BLOCK POSITIONS_FRAC
  Li   0.0000000   0.2500000  -0.0930560 SPIN=   0.00000
  Li   0.0000000  -0.2500000   0.0930560 SPIN=   0.00000
   O  -0.7096552   0.0014544  -0.1488664 SPIN=   0.00000
   O  -0.2236670   0.0552430  -0.4058101 SPIN=   0.00000
   O   0.7096552   0.4985456  -0.1488664 SPIN=   0.00000
   O   0.2236670   0.4447570  -0.4058101 SPIN=   0.00000
   O   0.7096552  -0.0014544   0.1488664 SPIN=   0.00000
   O   0.2236670  -0.0552430   0.4058101 SPIN=   0.00000
   O  -0.7096552  -0.4985456   0.1488664 SPIN=   0.00000
   O  -0.2236670  -0.4447570   0.4058101 SPIN=   0.00000
   P   0.5000000  -0.2500000   0.3454722 SPIN=   0.00000
   P   0.5000000   0.2500000  -0.3454722 SPIN=   0.00000
  Fe   0.5000000  -0.2500000  -0.2665119 SPIN=   4.00000
  Fe   0.5000000   0.2500000   0.2665119 SPIN=   4.00000
%ENDBLOCK POSITIONS_FRAC

# Note: total spin =   8.00

KPOINTS_MP_SPACING 0.07

%BLOCK SPECIES_POT
QC5
%ENDBLOCK SPECIES_POT

%BLOCK HUBBARD_U
Fe d:4.0
%ENDBLOCK HUBBARD_U

SNAP_TO_SYMMETRY
SYMMETRY_GENERATE

