#              Generated by Buildcell
#
# at 10:59:21 (GMT+0.0) 24th November 2020
# in /lustre/scratch/uccabz1/launch_tmp
# on node-c12d-032
# by uccabz1
#
# compiler GCC version 4.9.2
# options -cpp -iprefix /lustre/shared/ucl/apps/gcc/4.9.2/bin/../lib/gcc/x86_64-unknown-linux-gnu/4.9.2/ -mtune=corei7 -march=x86-64 -g -Og
#
# seed  -231965099   905506454  1072679847 -1654656001 -1462155817  1956700751  -394624192  1270730672 -1875140851 -1052614324 -1404486435 -1166796269
#
#      Author: C. J. Pickard (cjp20@cam.ac.uk)
#                Space group: C2
#

%BLOCK LATTICE_ABC
      4.93949      4.93949      6.77268
     90.62532     90.62532    104.43754
%ENDBLOCK LATTICE_ABC

%BLOCK POSITIONS_FRAC
  Li   0.6310987   0.3689013   0.0000000 SPIN=   0.00000
  Li   0.1185363  -0.1185363   0.0000000 SPIN=   0.00000
   O  -0.3506236   0.2474238  -0.3073413 SPIN=   0.00000
   O  -0.7861327  -0.1748234  -0.2982143 SPIN=   0.00000
   O  -0.3325725  -0.2626614  -0.3897364 SPIN=   0.00000
   O  -0.4098608  -0.1316065  -0.0404054 SPIN=   0.00000
   P  -0.4627447  -0.0635651  -0.2589235 SPIN=   0.00000
   O  -0.2474238   0.3506236   0.3073413 SPIN=   0.00000
   O   0.1748234   0.7861327   0.2982143 SPIN=   0.00000
   O   0.2626614   0.3325725   0.3897364 SPIN=   0.00000
   O   0.1316065   0.4098608   0.0404054 SPIN=   0.00000
   P   0.0635651   0.4627447   0.2589235 SPIN=   0.00000
  Fe  -0.3789601  -0.1285933   0.3215046 SPIN=   4.00000
  Fe   0.1285933   0.3789601  -0.3215046 SPIN=   4.00000
%ENDBLOCK POSITIONS_FRAC

# Note: total spin =   8.00

KPOINTS_MP_SPACING 0.07

%BLOCK SPECIES_POT
QC5
%ENDBLOCK SPECIES_POT

%BLOCK HUBBARD_U
Fe d:4.0
%ENDBLOCK HUBBARD_U

SNAP_TO_SYMMETRY
SYMMETRY_GENERATE

