#              Generated by Buildcell
#
# at 11:32:50 (GMT+0.0) 24th November 2020
# in /lustre/scratch/uccabz1/launch_tmp
# on node-c12n-028
# by uccabz1
#
# compiler GCC version 4.9.2
# options -cpp -iprefix /lustre/shared/ucl/apps/gcc/4.9.2/bin/../lib/gcc/x86_64-unknown-linux-gnu/4.9.2/ -mtune=corei7 -march=x86-64 -g -Og
#
# seed  1154143400  1206936813  1415741094  1182350578 -1011545434   403015211  1356665205   535658548  1960802007 -1829474477  1564719207   368476692
#
#      Author: C. J. Pickard (cjp20@cam.ac.uk)
#                Space group: P-1
#

%BLOCK LATTICE_ABC
      3.98876      6.24433      6.94737
     68.14426     86.57904     85.39390
%ENDBLOCK LATTICE_ABC

%BLOCK POSITIONS_FRAC
  Li  -0.2730699  -0.4034048   0.1089950 SPIN=   0.00000
  Li   0.2730699   0.4034048  -0.1089950 SPIN=   0.00000
   O  -0.3973594  -0.2218927  -0.2008225 SPIN=   0.00000
   O  -0.3261630  -0.5604119  -0.3347043 SPIN=   0.00000
   O  -0.3524513  -0.1605357  -0.5922175 SPIN=   0.00000
   O   0.1565453  -0.3123146  -0.3759860 SPIN=   0.00000
   P  -0.2342158  -0.3088783  -0.3666094 SPIN=   0.00000
   O   0.3973594   0.2218927   0.2008225 SPIN=   0.00000
   O   0.3261630   0.5604119   0.3347043 SPIN=   0.00000
   O   0.3524513   0.1605357   0.5922175 SPIN=   0.00000
   O  -0.1565453   0.3123146   0.3759860 SPIN=   0.00000
   P   0.2342158   0.3088783   0.3666094 SPIN=   0.00000
  Fe  -0.1746371   0.0928234  -0.2750166 SPIN=   4.00000
  Fe   0.1746371  -0.0928234   0.2750166 SPIN=   4.00000
%ENDBLOCK POSITIONS_FRAC

# Note: total spin =   8.00

KPOINTS_MP_SPACING 0.07

%BLOCK SPECIES_POT
QC5
%ENDBLOCK SPECIES_POT

%BLOCK HUBBARD_U
Fe d:4.0
%ENDBLOCK HUBBARD_U

SNAP_TO_SYMMETRY
SYMMETRY_GENERATE

