#              Generated by Buildcell
#
# at 19:41:16 (GMT+0.0) 26th November 2020
# in /scratch/scratch/uccabz1/launch_tmp
# on node-k10e-036
# by uccabz1
#
# compiler GCC version 4.9.2
# options -cpp -iprefix /scratch/UCL/applications/gcc/4.9.2/bin/../lib/gcc/x86_64-unknown-linux-gnu/4.9.2/ -mtune=corei7 -march=x86-64 -g -O2
#
# seed -1493112949  1774008595 -1209576520  1785063061 -1314394529 -1078416755  1391291222   693047884  -151125733  2081454006   614801550  -617626013
#
#      Author: C. J. Pickard (cjp20@cam.ac.uk)
#                Space group: P-1
#

%BLOCK LATTICE_ABC
      4.01769      8.00159     10.19354
     81.66700     81.90572     84.37017
%ENDBLOCK LATTICE_ABC

%BLOCK POSITIONS_FRAC
  Li  -0.2637112  -0.3473057   0.4161148 SPIN=   0.00000
  Li   0.2637112   0.3473057  -0.4161148 SPIN=   0.00000
  Li   0.0511797  -0.2410195  -0.0719985 SPIN=   0.00000
  Li  -0.0511797   0.2410195   0.0719985 SPIN=   0.00000
   O   0.3238933  -0.1448342   0.0714746 SPIN=   0.00000
   O  -0.2006079  -0.3084234   0.1721403 SPIN=   0.00000
   O   0.0836551  -0.1718651   0.3232961 SPIN=   0.00000
   O  -0.2452143   0.0080786   0.1561415 SPIN=   0.00000
   P   0.0054058  -0.1518433   0.1746535 SPIN=   0.00000
   O  -0.3238933   0.1448342  -0.0714746 SPIN=   0.00000
   O   0.2006079   0.3084234  -0.1721403 SPIN=   0.00000
   O  -0.0836551   0.1718651  -0.3232961 SPIN=   0.00000
   O   0.2452143  -0.0080786  -0.1561415 SPIN=   0.00000
   P  -0.0054058   0.1518433  -0.1746535 SPIN=   0.00000
   O   0.1925241  -0.3931654  -0.4890138 SPIN=   0.00000
   O   0.6507344  -0.2905503  -0.3699792 SPIN=   0.00000
   O   0.1215624  -0.1088721  -0.3893193 SPIN=   0.00000
   O   0.1140726  -0.3820972  -0.2344513 SPIN=   0.00000
   P   0.2637761  -0.3000124  -0.3753832 SPIN=   0.00000
   O  -0.1925241   0.3931654   0.4890138 SPIN=   0.00000
   O  -0.6507344   0.2905503   0.3699792 SPIN=   0.00000
   O  -0.1215624   0.1088721   0.3893193 SPIN=   0.00000
   O  -0.1140726   0.3820972   0.2344513 SPIN=   0.00000
   P  -0.2637761   0.3000124   0.3753832 SPIN=   0.00000
  Fe  -0.3536747   0.4828189  -0.1893411 SPIN=   4.55536
  Fe   0.3536747  -0.4828189   0.1893411 SPIN=   4.55536
  Fe   0.3777422   0.0319248   0.3184817 SPIN=   3.44464
  Fe  -0.3777422  -0.0319248  -0.3184817 SPIN=   3.44464
%ENDBLOCK POSITIONS_FRAC

# Note: total spin =  16.00

KPOINTS_MP_SPACING 0.07

%BLOCK SPECIES_POT
QC5
%ENDBLOCK SPECIES_POT

%BLOCK HUBBARD_U
Fe d:4.0
%ENDBLOCK HUBBARD_U

SNAP_TO_SYMMETRY
SYMMETRY_GENERATE

