#              Generated by Buildcell
#
# at 18:08:09 (GMT+0.0) 26th November 2020
# in /lustre/scratch/uccabz1/launch_tmp
# on node-c12c-024
# by uccabz1
#
# compiler GCC version 4.9.2
# options -cpp -iprefix /lustre/shared/ucl/apps/gcc/4.9.2/bin/../lib/gcc/x86_64-unknown-linux-gnu/4.9.2/ -mtune=corei7 -march=x86-64 -g -Og
#
# seed -1461235993  1447063772 -1371927086  1097384127 -1377951367   169766278  -877097421 -1682565610  1392637860   419295997  1926159327 -1557008736
#
#      Author: C. J. Pickard (cjp20@cam.ac.uk)
#                Space group: P-1
#

%BLOCK LATTICE_ABC
      4.97967      6.66117     10.28158
     75.53634     77.66994     80.00253
%ENDBLOCK LATTICE_ABC

%BLOCK POSITIONS_FRAC
  Li   0.2844690   0.3043900  -0.0253963 SPIN=   0.00000
  Li  -0.2844690  -0.3043900   0.0253963 SPIN=   0.00000
  Li   0.1728046   0.1641387  -0.4874419 SPIN=   0.00000
  Li  -0.1728046  -0.1641387   0.4874419 SPIN=   0.00000
   O  -0.3805529   0.1676681  -0.4018175 SPIN=   0.00000
   O  -0.4393832   0.1035885  -0.1380227 SPIN=   0.00000
   O  -0.1504030  -0.1651647  -0.2526878 SPIN=   0.00000
   O   0.0211396   0.1780250  -0.2818512 SPIN=   0.00000
   P  -0.2418775   0.0774375  -0.2758447 SPIN=   0.00000
   O   0.3805529  -0.1676681   0.4018175 SPIN=   0.00000
   O   0.4393832  -0.1035885   0.1380227 SPIN=   0.00000
   O   0.1504030   0.1651647   0.2526878 SPIN=   0.00000
   O  -0.0211396  -0.1780250   0.2818512 SPIN=   0.00000
   P   0.2418775  -0.0774375   0.2758447 SPIN=   0.00000
   O  -0.6263380  -0.5353694   0.3996941 SPIN=   0.00000
   O  -0.3317964  -0.8866296   0.3654000 SPIN=   0.00000
   O  -0.2534219  -0.5691274   0.1843220 SPIN=   0.00000
   O  -0.1027852  -0.6084096   0.4076701 SPIN=   0.00000
   P  -0.3417745  -0.6432973   0.3432959 SPIN=   0.00000
   O   0.6263380   0.5353694  -0.3996941 SPIN=   0.00000
   O   0.3317964   0.8866296  -0.3654000 SPIN=   0.00000
   O   0.2534219   0.5691274  -0.1843220 SPIN=   0.00000
   O   0.1027852   0.6084096  -0.4076701 SPIN=   0.00000
   P   0.3417745   0.6432973  -0.3432959 SPIN=   0.00000
  Fe  -0.1643363   0.4694910  -0.2342470 SPIN=   4.59159
  Fe   0.1643363  -0.4694910   0.2342470 SPIN=   4.59159
  Fe   0.2459367  -0.0831296  -0.1618263 SPIN=   3.40841
  Fe  -0.2459367   0.0831296   0.1618263 SPIN=   3.40841
%ENDBLOCK POSITIONS_FRAC

# Note: total spin =  16.00

KPOINTS_MP_SPACING 0.07

%BLOCK SPECIES_POT
QC5
%ENDBLOCK SPECIES_POT

%BLOCK HUBBARD_U
Fe d:4.0
%ENDBLOCK HUBBARD_U

SNAP_TO_SYMMETRY
SYMMETRY_GENERATE

