#              Generated by Buildcell
#
# at 13:43:28 (GMT+0.0) 26th November 2020
# in /lustre/scratch/uccabz1/launch_tmp
# on node-c12g-020
# by uccabz1
#
# compiler GCC version 4.9.2
# options -cpp -iprefix /lustre/shared/ucl/apps/gcc/4.9.2/bin/../lib/gcc/x86_64-unknown-linux-gnu/4.9.2/ -mtune=corei7 -march=x86-64 -g -Og
#
# seed  -897860672   619938239 -1111575612 -2135989213 -1918828832 -1153656779  -142077267  -963755886   624349556  -790339453  1726383682   567281661
#
#      Author: C. J. Pickard (cjp20@cam.ac.uk)
#                Space group: P2
#

%BLOCK LATTICE_ABC
      5.71589      6.03607      9.60605
    105.08684     90.00000     90.00000
%ENDBLOCK LATTICE_ABC

%BLOCK POSITIONS_FRAC
  Li   0.1941193  -0.2427747   0.0172768 SPIN=   0.00000
  Li   0.1941193   0.2427747  -0.0172768 SPIN=   0.00000
  Li  -0.3058694  -0.2572222   0.4827299 SPIN=   0.00000
  Li  -0.3058694   0.2572222  -0.4827299 SPIN=   0.00000
   O  -0.0699194   0.0103032  -0.3699044 SPIN=   0.00000
   O   0.2787006  -0.2705676  -0.4487115 SPIN=   0.00000
   O   0.3384351   0.0743617  -0.2471858 SPIN=   0.00000
   O   0.0841275  -0.2441361  -0.2113507 SPIN=   0.00000
   P   0.1448393  -0.1028491  -0.3207094 SPIN=   0.00000
   O  -0.0699194  -0.0103032   0.3699044 SPIN=   0.00000
   O   0.2787006   0.2705676   0.4487115 SPIN=   0.00000
   O   0.3384351  -0.0743617   0.2471858 SPIN=   0.00000
   O   0.0841275   0.2441361   0.2113507 SPIN=   0.00000
   P   0.1448393   0.1028491   0.3207094 SPIN=   0.00000
   O  -0.1681666   0.6017360   0.2210868 SPIN=   0.00000
   O  -0.3775353   0.2649660   0.2920343 SPIN=   0.00000
   O  -0.5864863   0.4631730   0.1342006 SPIN=   0.00000
   O  -0.2434944   0.2121586   0.0372671 SPIN=   0.00000
   P  -0.3333775   0.3949757   0.1722263 SPIN=   0.00000
   O  -0.1681666  -0.6017360  -0.2210868 SPIN=   0.00000
   O  -0.3775353  -0.2649660  -0.2920343 SPIN=   0.00000
   O  -0.5864863  -0.4631730  -0.1342006 SPIN=   0.00000
   O  -0.2434944  -0.2121586  -0.0372671 SPIN=   0.00000
   P  -0.3333775  -0.3949757  -0.1722263 SPIN=   0.00000
  Fe  -0.3058731  -0.0784135   0.1852203 SPIN=   4.33577
  Fe  -0.3058731   0.0784135  -0.1852203 SPIN=   4.33577
  Fe   0.1941341   0.4216150  -0.3147759 SPIN=   3.66423
  Fe   0.1941341  -0.4216150   0.3147759 SPIN=   3.66423
%ENDBLOCK POSITIONS_FRAC

# Note: total spin =  16.00

KPOINTS_MP_SPACING 0.07

%BLOCK SPECIES_POT
QC5
%ENDBLOCK SPECIES_POT

%BLOCK HUBBARD_U
Fe d:4.0
%ENDBLOCK HUBBARD_U

SNAP_TO_SYMMETRY
SYMMETRY_GENERATE

