#              Generated by Buildcell
#
# at 13:59:00 (GMT+0.0) 24th November 2020
# in /lustre/scratch/uccabz1/launch_tmp
# on node-c12k-030
# by uccabz1
#
# compiler GCC version 4.9.2
# options -cpp -iprefix /lustre/shared/ucl/apps/gcc/4.9.2/bin/../lib/gcc/x86_64-unknown-linux-gnu/4.9.2/ -mtune=corei7 -march=x86-64 -g -Og
#
# seed   197593724  -852943837  1101490211 -1888474315  1983384130 -1617473439  1189469955  -679636353   873345338  1849815976  2079657347  1013054375
#
#      Author: C. J. Pickard (cjp20@cam.ac.uk)
#                Space group: P-1
#

%BLOCK LATTICE_ABC
      4.40159      6.00429      6.43994
    101.84738    105.65475     90.60340
%ENDBLOCK LATTICE_ABC

%BLOCK POSITIONS_FRAC
  Li  -0.0557957  -0.2534255   0.4877311 SPIN=   0.00000
  Li   0.0557957   0.2534255  -0.4877311 SPIN=   0.00000
   O   0.2661624   0.5410853   0.3613033 SPIN=   0.00000
   O   0.6883369   0.2894073   0.2364293 SPIN=   0.00000
   O   0.1813132   0.1006663   0.2256869 SPIN=   0.00000
   O   0.1936032   0.3423579  -0.0463653 SPIN=   0.00000
   P   0.3271922   0.3305202   0.2003179 SPIN=   0.00000
   O  -0.2661624  -0.5410853  -0.3613033 SPIN=   0.00000
   O  -0.6883369  -0.2894073  -0.2364293 SPIN=   0.00000
   O  -0.1813132  -0.1006663  -0.2256869 SPIN=   0.00000
   O  -0.1936032  -0.3423579   0.0463653 SPIN=   0.00000
   P  -0.3271922  -0.3305202  -0.2003179 SPIN=   0.00000
  Fe   0.2914717  -0.2280396   0.0985201 SPIN=   4.00000
  Fe  -0.2914717   0.2280396  -0.0985201 SPIN=   4.00000
%ENDBLOCK POSITIONS_FRAC

# Note: total spin =   8.00

KPOINTS_MP_SPACING 0.07

%BLOCK SPECIES_POT
QC5
%ENDBLOCK SPECIES_POT

%BLOCK HUBBARD_U
Fe d:4.0
%ENDBLOCK HUBBARD_U

SNAP_TO_SYMMETRY
SYMMETRY_GENERATE

