#              Generated by Buildcell
#
# at 14:31:24 (GMT+0.0) 24th November 2020
# in /lustre/scratch/uccabz1/launch_tmp
# on node-c12l-027
# by uccabz1
#
# compiler GCC version 4.9.2
# options -cpp -iprefix /lustre/shared/ucl/apps/gcc/4.9.2/bin/../lib/gcc/x86_64-unknown-linux-gnu/4.9.2/ -mtune=corei7 -march=x86-64 -g -Og
#
# seed  1876645308 -2107350198 -1655344748   866305556  -883587241  1139069494 -2069748479  1916940404  -484944422  -516711207   398049997 -1759458768
#
#      Author: C. J. Pickard (cjp20@cam.ac.uk)
#                Space group: Cc
#

%BLOCK LATTICE_ABC
      5.16690      5.16690      6.21670
     92.35474     92.35474    104.92807
%ENDBLOCK LATTICE_ABC

%BLOCK POSITIONS_FRAC
  Li  -0.0850628  -0.0570532   0.1714812 SPIN=   0.00000
  Li  -0.0570532  -0.0850628  -0.3285188 SPIN=   0.00000
   O   0.0816080  -0.4571791   0.2281169 SPIN=   0.00000
   O   0.5673045  -0.2494926   0.3873095 SPIN=   0.00000
   O   0.2432422   0.0278220   0.4002178 SPIN=   0.00000
   O   0.1910126  -0.3607006   0.6373071 SPIN=   0.00000
   P   0.2597773  -0.2715821   0.4060253 SPIN=   0.00000
   O  -0.4571791   0.0816080  -0.2718831 SPIN=   0.00000
   O  -0.2494926   0.5673045  -0.1126905 SPIN=   0.00000
   O   0.0278220   0.2432422  -0.0997822 SPIN=   0.00000
   O  -0.3607006   0.1910126   0.1373071 SPIN=   0.00000
   P  -0.2715821   0.2597773  -0.0939747 SPIN=   0.00000
  Fe   0.3185844  -0.3900701  -0.0416167 SPIN=   4.00000
  Fe  -0.3900701   0.3185844   0.4583833 SPIN=   4.00000
%ENDBLOCK POSITIONS_FRAC

# Note: total spin =   8.00

KPOINTS_MP_SPACING 0.07

%BLOCK SPECIES_POT
QC5
%ENDBLOCK SPECIES_POT

%BLOCK HUBBARD_U
Fe d:4.0
%ENDBLOCK HUBBARD_U

SNAP_TO_SYMMETRY
SYMMETRY_GENERATE

