#              Generated by Buildcell
#
# at 09:34:00 (GMT+0.0) 24th November 2020
# in /scratch/scratch/uccabz1/launch_tmp
# on node-a14f-013
# by uccabz1
#
# compiler GCC version 4.9.2
# options -cpp -iprefix /scratch/UCL/applications/gcc/4.9.2/bin/../lib/gcc/x86_64-unknown-linux-gnu/4.9.2/ -mtune=corei7 -march=x86-64 -g -O2
#
# seed -1191207379 -1447763895  1721375258  1067361358   704883555  -642113305   566392217   651743461   476126954  1129798098  1050022721  1476122093
#
#      Author: C. J. Pickard (cjp20@cam.ac.uk)
#                Space group: P21
#

%BLOCK LATTICE_ABC
      4.55223      5.72193      6.76051
    114.68700     90.00000     90.00000
%ENDBLOCK LATTICE_ABC

%BLOCK POSITIONS_FRAC
  Li   0.4885020   0.4396169   0.1202663 SPIN=   0.00000
  Li  -0.0114980  -0.4396169  -0.1202663 SPIN=   0.00000
   O   0.7772135  -0.8003151  -0.4135416 SPIN=   0.00000
   O   0.3139690  -0.6051280  -0.5114474 SPIN=   0.00000
   O   0.2615339  -0.7993152  -0.2485255 SPIN=   0.00000
   O   0.5331426  -0.3832936  -0.1391881 SPIN=   0.00000
   P   0.4884722  -0.6520634  -0.3304907 SPIN=   0.00000
   O   0.2772135   0.8003151   0.4135416 SPIN=   0.00000
   O  -0.1860310   0.6051280   0.5114474 SPIN=   0.00000
   O  -0.2384661   0.7993152   0.2485255 SPIN=   0.00000
   O   0.0331426   0.3832936   0.1391881 SPIN=   0.00000
   P  -0.0115278   0.6520634   0.3304907 SPIN=   0.00000
  Fe  -0.0042703   0.1342862   0.2944404 SPIN=   4.00000
  Fe   0.4957297  -0.1342862  -0.2944404 SPIN=   4.00000
%ENDBLOCK POSITIONS_FRAC

# Note: total spin =   8.00

KPOINTS_MP_SPACING 0.07

%BLOCK SPECIES_POT
QC5
%ENDBLOCK SPECIES_POT

%BLOCK HUBBARD_U
Fe d:4.0
%ENDBLOCK HUBBARD_U

SNAP_TO_SYMMETRY
SYMMETRY_GENERATE

