#              Generated by Buildcell
#
# at 13:25:50 (GMT+0.0) 24th November 2020
# in /scratch/scratch/uccabz1/launch_tmp
# on node-a14c-023
# by uccabz1
#
# compiler GCC version 4.9.2
# options -cpp -iprefix /scratch/UCL/applications/gcc/4.9.2/bin/../lib/gcc/x86_64-unknown-linux-gnu/4.9.2/ -mtune=corei7 -march=x86-64 -g -O2
#
# seed -1685467572   603165851 -1990619519  -600485190  -191278110   -52717384   929226465  1425445570 -1149030935 -1720876495  1170049125   825788562
#
#      Author: C. J. Pickard (cjp20@cam.ac.uk)
#                Space group: F222
#

%BLOCK LATTICE_ABC
      5.38838      5.38838      6.66413
    108.52289    108.52289    102.36876
%ENDBLOCK LATTICE_ABC

%BLOCK POSITIONS_FRAC
  Li   0.3872850  -0.6127150  -0.2254301 SPIN=   0.00000
  Li  -0.3872850   0.6127150   0.2254301 SPIN=   0.00000
   O   0.2283899  -0.2838613  -0.1966094 SPIN=   0.00000
   O   0.4200562   0.2035509   0.1488410 SPIN=   0.00000
   O   0.2838613  -0.2283899   0.1966094 SPIN=   0.00000
   O  -0.2035509  -0.4200562  -0.1488410 SPIN=   0.00000
   O  -0.4249993   0.0872520  -0.1966094 SPIN=   0.00000
   O  -0.2712151  -0.0547098   0.1488410 SPIN=   0.00000
   O  -0.0872520   0.4249993   0.1966094 SPIN=   0.00000
   O   0.0547098   0.2712151  -0.1488410 SPIN=   0.00000
   P  -0.4399271   0.4399271   0.5000000 SPIN=   0.00000
   P  -0.0600729  -0.9399271  -0.5000000 SPIN=   0.00000
  Fe   0.2500000   0.7500000   0.5000000 SPIN=   2.94645
  Fe   0.0000000  -0.0000000  -0.0000000 SPIN=   5.05355
%ENDBLOCK POSITIONS_FRAC

# Note: total spin =   8.00

KPOINTS_MP_SPACING 0.07

%BLOCK SPECIES_POT
QC5
%ENDBLOCK SPECIES_POT

%BLOCK HUBBARD_U
Fe d:4.0
%ENDBLOCK HUBBARD_U

SNAP_TO_SYMMETRY
SYMMETRY_GENERATE

