#              Generated by Buildcell
#
# at 15:18:21 (GMT+0.0) 26th November 2020
# in /lustre/scratch/uccabz1/launch_tmp
# on node-c12k-032
# by uccabz1
#
# compiler GCC version 4.9.2
# options -cpp -iprefix /lustre/shared/ucl/apps/gcc/4.9.2/bin/../lib/gcc/x86_64-unknown-linux-gnu/4.9.2/ -mtune=corei7 -march=x86-64 -g -Og
#
# seed   377659480 -1174012361  1893235005  -832822528  -899687130  -848570532 -1264035153  -534009817   634433367    39005195   -29398043  1970782092
#
#      Author: C. J. Pickard (cjp20@cam.ac.uk)
#                Space group: Cc
#

%BLOCK LATTICE_ABC
      5.35427      5.35427     11.65175
     81.07923     81.07923     77.85074
%ENDBLOCK LATTICE_ABC

%BLOCK POSITIONS_FRAC
  Li   0.0507307  -0.2523645   0.1176090 SPIN=   0.00000
  Li   0.2476355  -0.4492693  -0.3823910 SPIN=   0.00000
  Li   0.4028379   0.0498929  -0.4831265 SPIN=   0.00000
  Li  -0.4501071  -0.0971621   0.0168735 SPIN=   0.00000
   O   0.0993593  -0.0704472   0.2578547 SPIN=   0.00000
   O  -0.3095303   0.1473347   0.3832724 SPIN=   0.00000
   O  -0.0018017  -0.1976340   0.4821238 SPIN=   0.00000
   O   0.1212291   0.2301049   0.4078201 SPIN=   0.00000
   P  -0.0144893   0.0245258   0.3764124 SPIN=   0.00000
   O  -0.5704472   0.5993593  -0.2421453 SPIN=   0.00000
   O  -0.3526653   0.1904697  -0.1167276 SPIN=   0.00000
   O  -0.6976340   0.4981983  -0.0178762 SPIN=   0.00000
   O  -0.2698951   0.6212291  -0.0921799 SPIN=   0.00000
   P  -0.4754742   0.4855107  -0.1235876 SPIN=   0.00000
   O  -0.5317592  -0.2911651   0.3656022 SPIN=   0.00000
   O  -0.5710190  -0.3897253   0.1584105 SPIN=   0.00000
   O  -0.3212261  -0.0600628   0.1736736 SPIN=   0.00000
   O  -0.1451451  -0.5249671   0.2356009 SPIN=   0.00000
   P  -0.3967970  -0.3175926   0.2403920 SPIN=   0.00000
   O   0.2088349  -0.0317592  -0.1343978 SPIN=   0.00000
   O   0.1102747  -0.0710190  -0.3415895 SPIN=   0.00000
   O   0.4399372   0.1787739  -0.3263264 SPIN=   0.00000
   O  -0.0249671   0.3548549  -0.2643991 SPIN=   0.00000
   P   0.1824074   0.1032030  -0.2596080 SPIN=   0.00000
  Fe   0.0160533   0.3079525  -0.0435317 SPIN=   2.38526
  Fe  -0.1920475  -0.4839467   0.4564683 SPIN=   2.38526
  Fe   0.3993401   0.2341698   0.2387361 SPIN=   5.61474
  Fe  -0.2658302  -0.1006599  -0.2612639 SPIN=   5.61474
%ENDBLOCK POSITIONS_FRAC

# Note: total spin =  16.00

KPOINTS_MP_SPACING 0.07

%BLOCK SPECIES_POT
QC5
%ENDBLOCK SPECIES_POT

%BLOCK HUBBARD_U
Fe d:4.0
%ENDBLOCK HUBBARD_U

SNAP_TO_SYMMETRY
SYMMETRY_GENERATE

