#              Generated by Buildcell
#
# at 01:35:15 (GMT+0.0) 27th November 2020
# in /lustre/scratch/uccabz1/launch_tmp
# on node-c12p-029
# by uccabz1
#
# compiler GCC version 4.9.2
# options -cpp -iprefix /lustre/shared/ucl/apps/gcc/4.9.2/bin/../lib/gcc/x86_64-unknown-linux-gnu/4.9.2/ -mtune=corei7 -march=x86-64 -g -Og
#
# seed  -248999067 -1512602025  -529613181  -829421640   318702215  1260301604  -721244040   534939676 -1386696667  2081540062  -379506344   395132117
#
#      Author: C. J. Pickard (cjp20@cam.ac.uk)
#                Space group: P2
#

%BLOCK LATTICE_ABC
      6.48005      6.58182      7.56351
     90.00000     97.26163     90.00000
%ENDBLOCK LATTICE_ABC

%BLOCK POSITIONS_FRAC
  Li  -0.4218804   0.3190145   0.1976405 SPIN=   0.00000
  Li   0.4218804   0.3190145  -0.1976405 SPIN=   0.00000
  Li   0.0000000   0.2203952  -0.5000000 SPIN=   0.00000
  Li  -0.5000000  -0.2831906  -0.0000000 SPIN=   0.00000
   O  -0.1906441  -0.1574483  -0.0330601 SPIN=   0.00000
   O  -0.1861886   0.0730223  -0.3114235 SPIN=   0.00000
   O  -0.5261970  -0.0334240  -0.2275662 SPIN=   0.00000
   O  -0.3091841   0.2173719  -0.0367690 SPIN=   0.00000
   P  -0.2971405   0.0174440  -0.1444986 SPIN=   0.00000
   O   0.1906441  -0.1574483   0.0330601 SPIN=   0.00000
   O   0.1861886   0.0730223   0.3114235 SPIN=   0.00000
   O   0.5261970  -0.0334240   0.2275662 SPIN=   0.00000
   O   0.3091841   0.2173719   0.0367690 SPIN=   0.00000
   P   0.2971405   0.0174440   0.1444986 SPIN=   0.00000
   O   0.0465574  -0.5628259   0.2572564 SPIN=   0.00000
   O   0.4250206  -0.4251187   0.2850163 SPIN=   0.00000
   O   0.1874989  -0.2851554   0.4852612 SPIN=   0.00000
   O   0.3172079  -0.6422841   0.5293214 SPIN=   0.00000
   P   0.2344177  -0.4852463   0.3838411 SPIN=   0.00000
   O  -0.0465574  -0.5628259  -0.2572564 SPIN=   0.00000
   O  -0.4250206  -0.4251187  -0.2850163 SPIN=   0.00000
   O  -0.1874989  -0.2851554  -0.4852612 SPIN=   0.00000
   O  -0.3172079  -0.6422841  -0.5293214 SPIN=   0.00000
   P  -0.2344177  -0.4852463  -0.3838411 SPIN=   0.00000
  Fe  -0.0573191  -0.1867606   0.2452045 SPIN=   4.31483
  Fe   0.0573191  -0.1867606  -0.2452045 SPIN=   4.31483
  Fe  -0.0000000   0.3143014   0.0000000 SPIN=   4.69069
  Fe   0.5000000  -0.0189960  -0.5000000 SPIN=   2.67966
%ENDBLOCK POSITIONS_FRAC

# Note: total spin =  16.00

KPOINTS_MP_SPACING 0.07

%BLOCK SPECIES_POT
QC5
%ENDBLOCK SPECIES_POT

%BLOCK HUBBARD_U
Fe d:4.0
%ENDBLOCK HUBBARD_U

SNAP_TO_SYMMETRY
SYMMETRY_GENERATE

