#              Generated by Buildcell
#
# at 07:05:36 (GMT+0.0) 26th November 2020
# in /lustre/scratch/uccabz1/launch_tmp
# on node-c12g-036
# by uccabz1
#
# compiler GCC version 4.9.2
# options -cpp -iprefix /lustre/shared/ucl/apps/gcc/4.9.2/bin/../lib/gcc/x86_64-unknown-linux-gnu/4.9.2/ -mtune=corei7 -march=x86-64 -g -Og
#
# seed   322346876 -1622675897   632512112  -227415201  -833831662 -1471074247 -1352111544  -615231666  -175770039   635712275  1745807070  -588939577
#
#      Author: C. J. Pickard (cjp20@cam.ac.uk)
#                Space group: P212121
#

%BLOCK LATTICE_ABC
      4.26385      6.83494     10.98028
     90.00000     90.00000     90.00000
%ENDBLOCK LATTICE_ABC

%BLOCK POSITIONS_FRAC
  Li   0.4510793   0.2349732  -0.4018033 SPIN=   0.00000
  Li  -0.0489207   0.2650268   0.4018033 SPIN=   0.00000
  Li   0.0489207  -0.2349732   0.0981967 SPIN=   0.00000
  Li  -0.4510793  -0.2650268  -0.0981967 SPIN=   0.00000
   O   0.6132174  -0.4409766   0.5383237 SPIN=   0.00000
   O   0.0949622  -0.4350520   0.4139418 SPIN=   0.00000
   O   0.5955860  -0.3949420   0.3035528 SPIN=   0.00000
   O   0.4576706  -0.7211807   0.3925028 SPIN=   0.00000
   P   0.4497671  -0.4976329   0.4185711 SPIN=   0.00000
   O   0.1132174  -0.0590234  -0.5383237 SPIN=   0.00000
   O  -0.4050378  -0.0649480  -0.4139418 SPIN=   0.00000
   O   0.0955860  -0.1050580  -0.3035528 SPIN=   0.00000
   O  -0.0423294   0.2211807  -0.3925028 SPIN=   0.00000
   P  -0.0502329  -0.0023671  -0.4185711 SPIN=   0.00000
   O  -0.1132174   0.4409766   0.0383237 SPIN=   0.00000
   O   0.4050378   0.4350520  -0.0860582 SPIN=   0.00000
   O  -0.0955860   0.3949420  -0.1964472 SPIN=   0.00000
   O   0.0423294   0.7211807  -0.1074972 SPIN=   0.00000
   P   0.0502329   0.4976329  -0.0814289 SPIN=   0.00000
   O  -0.6132174   0.0590234  -0.0383237 SPIN=   0.00000
   O  -0.0949622   0.0649480   0.0860582 SPIN=   0.00000
   O  -0.5955860   0.1050580   0.1964472 SPIN=   0.00000
   O  -0.4576706  -0.2211807   0.1074972 SPIN=   0.00000
   P  -0.4497671   0.0023671   0.0814289 SPIN=   0.00000
  Fe   0.0238617   0.1009433  -0.1644480 SPIN=   4.00000
  Fe  -0.4761383   0.3990567   0.1644480 SPIN=   4.00000
  Fe   0.4761383  -0.1009433   0.3355520 SPIN=   4.00000
  Fe  -0.0238617  -0.3990567  -0.3355520 SPIN=   4.00000
%ENDBLOCK POSITIONS_FRAC

# Note: total spin =  16.00

KPOINTS_MP_SPACING 0.07

%BLOCK SPECIES_POT
QC5
%ENDBLOCK SPECIES_POT

%BLOCK HUBBARD_U
Fe d:4.0
%ENDBLOCK HUBBARD_U

SNAP_TO_SYMMETRY
SYMMETRY_GENERATE

