#              Generated by Buildcell
#
# at 01:37:05 (GMT+0.0) 27th November 2020
# in /lustre/scratch/uccabz1/launch_tmp
# on node-c12e-024
# by uccabz1
#
# compiler GCC version 4.9.2
# options -cpp -iprefix /lustre/shared/ucl/apps/gcc/4.9.2/bin/../lib/gcc/x86_64-unknown-linux-gnu/4.9.2/ -mtune=corei7 -march=x86-64 -g -Og
#
# seed -1982457626   553969105   368949107  -585785620   456074426  -673890460  1120856972 -2014493053  1257749402  1448651758  -994748818  1754711195
#
#      Author: C. J. Pickard (cjp20@cam.ac.uk)
#                Space group: Iba2
#

%BLOCK LATTICE_ABC
      5.74139      8.04971      8.04971
     74.01527     69.10716     69.10716
%ENDBLOCK LATTICE_ABC

%BLOCK POSITIONS_FRAC
  Li   0.1819909  -0.3111755  -0.4637886 SPIN=   0.00000
  Li  -0.1819909   0.4637886   0.3111755 SPIN=   0.00000
  Li   0.4070268  -0.0362114  -0.1888245 SPIN=   0.00000
  Li  -0.4070268   0.1888245   0.0362114 SPIN=   0.00000
   O   0.2176083   0.2542896  -0.2594607 SPIN=   0.00000
   O   0.1718892   0.5287947  -0.1279023 SPIN=   0.00000
   O  -0.1154121   0.3348711   0.0455796 SPIN=   0.00000
   P   0.1640400   0.3279883  -0.0882128 SPIN=   0.00000
   O  -0.2176083   0.2594607  -0.2542896 SPIN=   0.00000
   O  -0.1718892   0.1279023  -0.5287947 SPIN=   0.00000
   O   0.1154121  -0.0455796  -0.3348711 SPIN=   0.00000
   P  -0.1640400   0.0882128  -0.3279883 SPIN=   0.00000
   O   0.2124373  -0.2405393   0.2457104 SPIN=   0.00000
   O   0.5727816  -0.3720977  -0.0287947 SPIN=   0.00000
   O   0.2650386  -0.5455796   0.1651289 SPIN=   0.00000
   P   0.4038155  -0.4117872   0.1720117 SPIN=   0.00000
   O  -0.2124373  -0.2457104   0.2405393 SPIN=   0.00000
   O  -0.5727816   0.0287947   0.3720977 SPIN=   0.00000
   O  -0.2650386  -0.1651289   0.5455796 SPIN=   0.00000
   P  -0.4038155  -0.1720117   0.4117872 SPIN=   0.00000
   O  -0.5000000  -0.0512385   0.0512385 SPIN=   0.00000
   O   0.5000000   0.4487615  -0.4487615 SPIN=   0.00000
   O   0.0000000   0.0317715  -0.0317715 SPIN=   0.00000
   O   0.0000000  -0.4682285   0.4682285 SPIN=   0.00000
  Fe  -0.3409138  -0.4538007  -0.2761339 SPIN=   4.00000
  Fe   0.3409138   0.2761339   0.4538007 SPIN=   4.00000
  Fe  -0.0708484  -0.2238661  -0.0461993 SPIN=   4.00000
  Fe   0.0708484   0.0461993   0.2238661 SPIN=   4.00000
%ENDBLOCK POSITIONS_FRAC

# Note: total spin =  16.00

KPOINTS_MP_SPACING 0.07

%BLOCK SPECIES_POT
QC5
%ENDBLOCK SPECIES_POT

%BLOCK HUBBARD_U
Fe d:4.0
%ENDBLOCK HUBBARD_U

SNAP_TO_SYMMETRY
SYMMETRY_GENERATE

