#              Generated by Buildcell
#
# at 14:37:20 (GMT+0.0) 24th November 2020
# in /scratch/scratch/uccabz1/launch_tmp
# on node-a14f-029
# by uccabz1
#
# compiler GCC version 4.9.2
# options -cpp -iprefix /scratch/UCL/applications/gcc/4.9.2/bin/../lib/gcc/x86_64-unknown-linux-gnu/4.9.2/ -mtune=corei7 -march=x86-64 -g -O2
#
# seed  1313661519  1165566367 -2017409860  1974082505  -369624382  1729843013  -687991287  1027165358  1430438105  -761333222   153703128   548042726
#
#      Author: C. J. Pickard (cjp20@cam.ac.uk)
#                Space group: Cc
#

%BLOCK LATTICE_ABC
      5.82317      5.87087      5.87087
    118.42212    102.48518    102.48518
%ENDBLOCK LATTICE_ABC

%BLOCK POSITIONS_FRAC
  Li   0.4630324  -0.0155547  -0.4299643 SPIN=   0.00000
  Li  -0.0369676   0.0700357   0.4844453 SPIN=   0.00000
   O  -0.2249331  -0.5636300  -0.2573786 SPIN=   0.00000
   O   0.1365198  -0.2700777  -0.3118556 SPIN=   0.00000
   O  -0.0320427  -0.0217872   0.0461885 SPIN=   0.00000
   O   0.2290107  -0.2876182   0.1151743 SPIN=   0.00000
   P   0.0160994  -0.3005942  -0.1076802 SPIN=   0.00000
   O  -0.7249331   0.2426214  -0.0636300 SPIN=   0.00000
   O  -0.3634802   0.1881444   0.2299223 SPIN=   0.00000
   O  -0.5320427   0.5461885   0.4782128 SPIN=   0.00000
   O  -0.2709893   0.6151743   0.2123818 SPIN=   0.00000
   P  -0.4839006   0.3923198   0.1994058 SPIN=   0.00000
  Fe  -0.0120552   0.3749027   0.1350087 SPIN=   4.00000
  Fe   0.4879448  -0.3649913  -0.1250973 SPIN=   4.00000
%ENDBLOCK POSITIONS_FRAC

# Note: total spin =   8.00

KPOINTS_MP_SPACING 0.07

%BLOCK SPECIES_POT
QC5
%ENDBLOCK SPECIES_POT

%BLOCK HUBBARD_U
Fe d:4.0
%ENDBLOCK HUBBARD_U

SNAP_TO_SYMMETRY
SYMMETRY_GENERATE

