#              Generated by Buildcell
#
# at 22:42:35 (GMT+0.0) 26th November 2020
# in /lustre/scratch/uccabz1/launch_tmp
# on node-c12g-031
# by uccabz1
#
# compiler GCC version 4.9.2
# options -cpp -iprefix /lustre/shared/ucl/apps/gcc/4.9.2/bin/../lib/gcc/x86_64-unknown-linux-gnu/4.9.2/ -mtune=corei7 -march=x86-64 -g -Og
#
# seed  1029042248 -1769651100  -292861204  1171253192   861771556  1138644643  1222980564 -2083609025   432933457   -48129316 -1588025058   465249241
#
#      Author: C. J. Pickard (cjp20@cam.ac.uk)
#                Space group: C2/c
#

%BLOCK LATTICE_ABC
      4.85923      5.38331     13.92602
     99.03702     90.00000    116.82863
%ENDBLOCK LATTICE_ABC

%BLOCK POSITIONS_FRAC
  Li   0.0000000   0.0000000   0.0000000 SPIN=   0.00000
  Li   0.0000000   0.0000000  -0.5000000 SPIN=   0.00000
  Li   0.1488350   0.0000000   0.2500000 SPIN=   0.00000
  Li  -0.1488350  -0.0000000  -0.2500000 SPIN=   0.00000
   O   0.6547167   0.4530677  -0.4423790 SPIN=   0.00000
   O   0.7151765   0.3017543  -0.2786227 SPIN=   0.00000
   O   0.2010253   0.2398254  -0.3332775 SPIN=   0.00000
   O   0.4113930  -0.0709404  -0.4222670 SPIN=   0.00000
   P   0.5030578   0.2391923  -0.3736633 SPIN=   0.00000
   O   0.2016490  -0.4530677  -0.0576210 SPIN=   0.00000
   O   0.4134222  -0.3017543  -0.2213773 SPIN=   0.00000
   O  -0.0388001  -0.2398254  -0.1667225 SPIN=   0.00000
   O   0.4823334   0.0709404  -0.0777330 SPIN=   0.00000
   P   0.2638655  -0.2391923  -0.1263367 SPIN=   0.00000
   O  -0.6547167  -0.4530677   0.4423790 SPIN=   0.00000
   O  -0.7151765  -0.3017543   0.2786227 SPIN=   0.00000
   O  -0.2010253  -0.2398254   0.3332775 SPIN=   0.00000
   O  -0.4113930   0.0709404   0.4222670 SPIN=   0.00000
   P  -0.5030578  -0.2391923   0.3736633 SPIN=   0.00000
   O  -0.2016490   0.4530677   0.0576210 SPIN=   0.00000
   O  -0.4134222   0.3017543   0.2213773 SPIN=   0.00000
   O   0.0388001   0.2398254   0.1667225 SPIN=   0.00000
   O  -0.4823334  -0.0709404   0.0777330 SPIN=   0.00000
   P  -0.2638655   0.2391923   0.1263367 SPIN=   0.00000
  Fe  -0.4451892  -0.5929613  -0.1471295 SPIN=   4.00000
  Fe   0.1477722   0.5929613  -0.3528705 SPIN=   4.00000
  Fe   0.4451892   0.5929613   0.1471295 SPIN=   4.00000
  Fe  -0.1477722  -0.5929613   0.3528705 SPIN=   4.00000
%ENDBLOCK POSITIONS_FRAC

# Note: total spin =  16.00

KPOINTS_MP_SPACING 0.07

%BLOCK SPECIES_POT
QC5
%ENDBLOCK SPECIES_POT

%BLOCK HUBBARD_U
Fe d:4.0
%ENDBLOCK HUBBARD_U

SNAP_TO_SYMMETRY
SYMMETRY_GENERATE

