#              Generated by Buildcell
#
# at 10:03:14 (GMT+0.0) 24th November 2020
# in /lustre/scratch/uccabz1/launch_tmp
# on node-c12d-031
# by uccabz1
#
# compiler GCC version 4.9.2
# options -cpp -iprefix /lustre/shared/ucl/apps/gcc/4.9.2/bin/../lib/gcc/x86_64-unknown-linux-gnu/4.9.2/ -mtune=corei7 -march=x86-64 -g -Og
#
# seed  1002986185  -285380805  -615458066  1281517765 -1176938120 -1101903076   778853641  1824268295   825747158  -196646150 -1417027500  1311680330
#
#      Author: C. J. Pickard (cjp20@cam.ac.uk)
#                Space group: P21
#

%BLOCK LATTICE_ABC
      5.21526      5.54175      5.68203
     90.00000     90.00000    103.01748
%ENDBLOCK LATTICE_ABC

%BLOCK POSITIONS_FRAC
  Li   0.1651713  -0.3315129  -0.2698531 SPIN=   0.00000
  Li  -0.1651713   0.3315129   0.2301469 SPIN=   0.00000
   O   0.1024568   0.3565713  -0.0494927 SPIN=   0.00000
   O   0.4857682   0.4406619  -0.3520881 SPIN=   0.00000
   O   0.4904858   0.1337610  -0.0378158 SPIN=   0.00000
   O   0.1581268   0.0337641  -0.3619975 SPIN=   0.00000
   P   0.2964179   0.2448853  -0.1942239 SPIN=   0.00000
   O  -0.1024568  -0.3565713   0.4505073 SPIN=   0.00000
   O  -0.4857682  -0.4406619   0.1479119 SPIN=   0.00000
   O  -0.4904858  -0.1337610   0.4621842 SPIN=   0.00000
   O  -0.1581268  -0.0337641   0.1380025 SPIN=   0.00000
   P  -0.2964179  -0.2448853   0.3057761 SPIN=   0.00000
  Fe   0.2428937  -0.0350820   0.2308115 SPIN=   4.00000
  Fe  -0.2428937   0.0350820  -0.2691885 SPIN=   4.00000
%ENDBLOCK POSITIONS_FRAC

# Note: total spin =   8.00

KPOINTS_MP_SPACING 0.07

%BLOCK SPECIES_POT
QC5
%ENDBLOCK SPECIES_POT

%BLOCK HUBBARD_U
Fe d:4.0
%ENDBLOCK HUBBARD_U

SNAP_TO_SYMMETRY
SYMMETRY_GENERATE

