#              Generated by Buildcell
#
# at 09:54:19 (GMT+0.0) 24th November 2020
# in /lustre/scratch/uccabz1/launch_tmp
# on node-c12l-023
# by uccabz1
#
# compiler GCC version 4.9.2
# options -cpp -iprefix /lustre/shared/ucl/apps/gcc/4.9.2/bin/../lib/gcc/x86_64-unknown-linux-gnu/4.9.2/ -mtune=corei7 -march=x86-64 -g -Og
#
# seed  -929070404    93676502 -2133385342   318970767 -1193224008 -1423644486   374724123 -1498187753  1763181567   202057841   158816960  1130946820
#
#      Author: C. J. Pickard (cjp20@cam.ac.uk)
#                Space group: Aem2
#

%BLOCK LATTICE_ABC
      3.91918      6.63683      6.63683
    112.05294     90.00000     90.00000
%ENDBLOCK LATTICE_ABC

%BLOCK POSITIONS_FRAC
  Li   0.5000000  -0.1044455  -0.1044455 SPIN=   0.00000
  Li   0.5000000   0.3955545   0.3955545 SPIN=   0.00000
   O  -0.5690130   0.2300855  -0.0455281 SPIN=   0.00000
   O  -0.0654705  -0.0136031  -0.2545491 SPIN=   0.00000
   O   0.5690130  -0.0455281   0.2300855 SPIN=   0.00000
   O   0.0654705  -0.2545491  -0.0136031 SPIN=   0.00000
   O  -0.5690130  -0.5455281  -0.2699145 SPIN=   0.00000
   O  -0.0654705  -0.7545491  -0.5136031 SPIN=   0.00000
   O   0.5690130   0.7300855   0.4544719 SPIN=   0.00000
   O   0.0654705   0.4863969   0.2454509 SPIN=   0.00000
   P   0.0000000   0.1455546   0.1455546 SPIN=   0.00000
   P   0.0000000  -0.3544454  -0.3544454 SPIN=   0.00000
  Fe  -0.1864939   0.4527411  -0.0472589 SPIN=   4.00000
  Fe   0.1864939   0.9527411   0.4527411 SPIN=   4.00000
%ENDBLOCK POSITIONS_FRAC

# Note: total spin =   8.00

KPOINTS_MP_SPACING 0.07

%BLOCK SPECIES_POT
QC5
%ENDBLOCK SPECIES_POT

%BLOCK HUBBARD_U
Fe d:4.0
%ENDBLOCK HUBBARD_U

SNAP_TO_SYMMETRY
SYMMETRY_GENERATE

