#              Generated by Buildcell
#
# at 00:46:13 (GMT+0.0) 27th November 2020
# in /lustre/scratch/uccabz1/launch_tmp
# on node-c12p-029
# by uccabz1
#
# compiler GCC version 4.9.2
# options -cpp -iprefix /lustre/shared/ucl/apps/gcc/4.9.2/bin/../lib/gcc/x86_64-unknown-linux-gnu/4.9.2/ -mtune=corei7 -march=x86-64 -g -Og
#
# seed   866233573  -134156222 -1392146578  -674592021  2063605873  -166071844   529212970   179950194  2122733051   -72785347  -216404585 -1533376544
#
#      Author: C. J. Pickard (cjp20@cam.ac.uk)
#                Space group: Pnc2
#

%BLOCK LATTICE_ABC
      5.92827      5.94584      9.07838
     90.00000     90.00000     90.00000
%ENDBLOCK LATTICE_ABC

%BLOCK POSITIONS_FRAC
  Li  -0.2506262  -0.2663198  -0.0098805 SPIN=   0.00000
  Li   0.2506262  -0.2663198   0.0098805 SPIN=   0.00000
  Li  -0.2493738   0.2336802  -0.0098805 SPIN=   0.00000
  Li   0.2493738   0.2336802   0.0098805 SPIN=   0.00000
   O   0.0984277   0.2703408  -0.1991518 SPIN=   0.00000
   O   0.1092509   0.6031754  -0.3844384 SPIN=   0.00000
   O  -0.1711529   0.3018670  -0.4238386 SPIN=   0.00000
   O  -0.2186511   0.5676197  -0.2120789 SPIN=   0.00000
   P  -0.0399092   0.4284997  -0.2981525 SPIN=   0.00000
   O  -0.0984277   0.2703408   0.1991518 SPIN=   0.00000
   O  -0.1092509   0.6031754   0.3844384 SPIN=   0.00000
   O   0.1711529   0.3018670   0.4238386 SPIN=   0.00000
   O   0.2186511   0.5676197   0.2120789 SPIN=   0.00000
   P   0.0399092   0.4284997   0.2981525 SPIN=   0.00000
   O  -0.5984277  -0.2296592  -0.1991518 SPIN=   0.00000
   O  -0.6092509   0.1031754  -0.3844384 SPIN=   0.00000
   O  -0.3288471  -0.1981330  -0.4238386 SPIN=   0.00000
   O  -0.2813489   0.0676197  -0.2120789 SPIN=   0.00000
   P  -0.4600908  -0.0715003  -0.2981525 SPIN=   0.00000
   O   0.5984277  -0.2296592   0.1991518 SPIN=   0.00000
   O   0.6092509   0.1031754   0.3844384 SPIN=   0.00000
   O   0.3288471  -0.1981330   0.4238386 SPIN=   0.00000
   O   0.2813489   0.0676197   0.2120789 SPIN=   0.00000
   P   0.4600908  -0.0715003   0.2981525 SPIN=   0.00000
  Fe  -0.0317109  -0.0477270   0.2884736 SPIN=   4.00000
  Fe   0.0317109  -0.0477270  -0.2884736 SPIN=   4.00000
  Fe  -0.4682891   0.4522730   0.2884736 SPIN=   4.00000
  Fe   0.4682891   0.4522730  -0.2884736 SPIN=   4.00000
%ENDBLOCK POSITIONS_FRAC

# Note: total spin =  16.00

KPOINTS_MP_SPACING 0.07

%BLOCK SPECIES_POT
QC5
%ENDBLOCK SPECIES_POT

%BLOCK HUBBARD_U
Fe d:4.0
%ENDBLOCK HUBBARD_U

SNAP_TO_SYMMETRY
SYMMETRY_GENERATE

