#              Generated by Buildcell
#
# at 06:58:28 (GMT+0.0) 26th November 2020
# in /scratch/scratch/uccabz1/launch_tmp
# on node-k10f-007
# by uccabz1
#
# compiler GCC version 4.9.2
# options -cpp -iprefix /scratch/UCL/applications/gcc/4.9.2/bin/../lib/gcc/x86_64-unknown-linux-gnu/4.9.2/ -mtune=corei7 -march=x86-64 -g -O2
#
# seed  -753094318  1372433013 -1961492489 -1716824101   149385055 -1934775118  1605692836  -406719037 -1535039984  -529568575   935465509  1830308219
#
#      Author: C. J. Pickard (cjp20@cam.ac.uk)
#                Space group: C2
#

%BLOCK LATTICE_ABC
      6.34971      7.51145      7.70336
     60.82071     88.04023     85.97780
%ENDBLOCK LATTICE_ABC

%BLOCK POSITIONS_FRAC
  Li  -0.0224605  -0.0594862  -0.2815318 SPIN=   0.00000
  Li   0.0224605   0.3410180  -0.2815318 SPIN=   0.00000
  Li   0.5000000  -0.1178966   0.2357933 SPIN=   0.00000
  Li  -0.5000000   0.3701002   0.2597997 SPIN=   0.00000
   O   0.5463309  -0.0145874   0.5409922 SPIN=   0.00000
   O   0.2851405   0.1028581   0.2473899 SPIN=   0.00000
   O   0.1956428  -0.1868468   0.5728744 SPIN=   0.00000
   O   0.1818433   0.1663524   0.5301014 SPIN=   0.00000
   P   0.3138153   0.0170284   0.4771440 SPIN=   0.00000
   O  -0.5463309  -0.5264048   0.5409922 SPIN=   0.00000
   O  -0.2851405  -0.3502479   0.2473899 SPIN=   0.00000
   O  -0.1956428  -0.3860275   0.5728744 SPIN=   0.00000
   O  -0.1818433  -0.6964538   0.5301014 SPIN=   0.00000
   P  -0.3138153  -0.4941723   0.4771440 SPIN=   0.00000
   O   0.2391523  -0.3064503   0.2437602 SPIN=   0.00000
   O   0.4958953  -0.2402592  -0.0486708 SPIN=   0.00000
   O   0.1339686  -0.3313377  -0.0663513 SPIN=   0.00000
   O   0.1912497   0.0118595  -0.1030411 SPIN=   0.00000
   P   0.2628156  -0.2186384   0.0177694 SPIN=   0.00000
   O  -0.2391523   0.0626900   0.2437602 SPIN=   0.00000
   O  -0.4958953   0.2889300  -0.0486708 SPIN=   0.00000
   O  -0.1339686   0.3976890  -0.0663513 SPIN=   0.00000
   O  -0.1912497   0.0911816  -0.1030411 SPIN=   0.00000
   P  -0.2628156   0.2008690   0.0177694 SPIN=   0.00000
  Fe  -0.0000000  -0.1773039   0.3546078 SPIN=   2.12372
  Fe  -0.5000000   0.1265290  -0.2530581 SPIN=   5.10632
  Fe   0.5000000  -0.3846083  -0.2307834 SPIN=   2.56968
  Fe  -0.0000000   0.4156873   0.1686255 SPIN=   6.20028
%ENDBLOCK POSITIONS_FRAC

# Note: total spin =  16.00

KPOINTS_MP_SPACING 0.07

%BLOCK SPECIES_POT
QC5
%ENDBLOCK SPECIES_POT

%BLOCK HUBBARD_U
Fe d:4.0
%ENDBLOCK HUBBARD_U

SNAP_TO_SYMMETRY
SYMMETRY_GENERATE

