#              Generated by Buildcell
#
# at 07:37:17 (GMT+0.0) 24th November 2020
# in /lustre/scratch/uccabz1/launch_tmp
# on node-c12b-030
# by uccabz1
#
# compiler GCC version 4.9.2
# options -cpp -iprefix /lustre/shared/ucl/apps/gcc/4.9.2/bin/../lib/gcc/x86_64-unknown-linux-gnu/4.9.2/ -mtune=corei7 -march=x86-64 -g -Og
#
# seed  1104966111  -404325405  2026336337  -396040513 -1828948022  -591000211  -809872826   744185863 -1350232159 -1543042004   460823859 -1374988949
#
#      Author: C. J. Pickard (cjp20@cam.ac.uk)
#                Space group: P-1
#

%BLOCK LATTICE_ABC
      4.48375      6.14387      6.45569
     64.23726     89.35092     87.47384
%ENDBLOCK LATTICE_ABC

%BLOCK POSITIONS_FRAC
  Li  -0.2638365  -0.3854680   0.3146678 SPIN=   0.00000
  Li   0.2638365   0.3854680  -0.3146678 SPIN=   0.00000
   O  -0.2611653   0.3524457  -0.2551827 SPIN=   0.00000
   O   0.1128500   0.1107421  -0.3953227 SPIN=   0.00000
   O  -0.3263681  -0.0954092  -0.1745573 SPIN=   0.00000
   O  -0.3957554   0.2292624  -0.5764477 SPIN=   0.00000
   P  -0.2220311   0.1610230  -0.3479768 SPIN=   0.00000
   O   0.2611653  -0.3524457   0.2551827 SPIN=   0.00000
   O  -0.1128500  -0.1107421   0.3953227 SPIN=   0.00000
   O   0.3263681   0.0954092   0.1745573 SPIN=   0.00000
   O   0.3957554  -0.2292624   0.5764477 SPIN=   0.00000
   P   0.2220311  -0.1610230   0.3479768 SPIN=   0.00000
  Fe   0.2339417  -0.2096282  -0.1047347 SPIN=   4.00000
  Fe  -0.2339417   0.2096282   0.1047347 SPIN=   4.00000
%ENDBLOCK POSITIONS_FRAC

# Note: total spin =   8.00

KPOINTS_MP_SPACING 0.07

%BLOCK SPECIES_POT
QC5
%ENDBLOCK SPECIES_POT

%BLOCK HUBBARD_U
Fe d:4.0
%ENDBLOCK HUBBARD_U

SNAP_TO_SYMMETRY
SYMMETRY_GENERATE

