#              Generated by Buildcell
#
# at 21:19:26 (GMT+0.0) 26th November 2020
# in /lustre/scratch/uccabz1/launch_tmp
# on node-c12c-024
# by uccabz1
#
# compiler GCC version 4.9.2
# options -cpp -iprefix /lustre/shared/ucl/apps/gcc/4.9.2/bin/../lib/gcc/x86_64-unknown-linux-gnu/4.9.2/ -mtune=corei7 -march=x86-64 -g -Og
#
# seed    28646313  1388070299 -1561720187 -1694326655   997989034   708628534  1099294538 -1890323727 -2112462760 -1293866931  1301416230   431652138
#
#      Author: C. J. Pickard (cjp20@cam.ac.uk)
#                Space group: P21
#

%BLOCK LATTICE_ABC
      6.48081      6.55225      8.18220
     90.00000     90.00000    112.92712
%ENDBLOCK LATTICE_ABC

%BLOCK POSITIONS_FRAC
  Li   0.4194665   0.4313660  -0.3943007 SPIN=   0.00000
  Li  -0.4194665  -0.4313660   0.1056993 SPIN=   0.00000
  Li   0.1865812  -0.0929690  -0.4825528 SPIN=   0.00000
  Li  -0.1865812   0.0929690   0.0174472 SPIN=   0.00000
   O  -0.0618998  -0.1237548  -0.1793396 SPIN=   0.00000
   O   0.3372423   0.1185599  -0.2843083 SPIN=   0.00000
   O   0.0237677   0.2237303  -0.3623675 SPIN=   0.00000
   O   0.1589231   0.2730504  -0.0726159 SPIN=   0.00000
   P   0.1056396   0.1115355  -0.2204506 SPIN=   0.00000
   O   0.0618998   0.1237548   0.3206604 SPIN=   0.00000
   O  -0.3372423  -0.1185599   0.2156917 SPIN=   0.00000
   O  -0.0237677  -0.2237303   0.1376325 SPIN=   0.00000
   O  -0.1589231  -0.2730504   0.4273841 SPIN=   0.00000
   P  -0.1056396  -0.1115355   0.2795494 SPIN=   0.00000
   O  -0.5940690   0.0470112   0.3203681 SPIN=   0.00000
   O  -0.2905329   0.3201717   0.5104912 SPIN=   0.00000
   O  -0.2343415   0.3630786   0.2118993 SPIN=   0.00000
   O  -0.5329128   0.4596803   0.3442552 SPIN=   0.00000
   P  -0.4240225   0.2860630   0.3453191 SPIN=   0.00000
   O   0.5940690  -0.0470112  -0.1796319 SPIN=   0.00000
   O   0.2905329  -0.3201717   0.0104912 SPIN=   0.00000
   O   0.2343415  -0.3630786  -0.2881007 SPIN=   0.00000
   O   0.5329128  -0.4596803  -0.1557448 SPIN=   0.00000
   P   0.4240225  -0.2860630  -0.1546809 SPIN=   0.00000
  Fe  -0.0954474  -0.4547361  -0.1999562 SPIN=   3.47903
  Fe   0.0954474   0.4547361   0.3000438 SPIN=   3.47903
  Fe   0.2885886   0.0288106   0.0794695 SPIN=   4.52097
  Fe  -0.2885886  -0.0288106  -0.4205305 SPIN=   4.52097
%ENDBLOCK POSITIONS_FRAC

# Note: total spin =  16.00

KPOINTS_MP_SPACING 0.07

%BLOCK SPECIES_POT
QC5
%ENDBLOCK SPECIES_POT

%BLOCK HUBBARD_U
Fe d:4.0
%ENDBLOCK HUBBARD_U

SNAP_TO_SYMMETRY
SYMMETRY_GENERATE

