#              Generated by Buildcell
#
# at 06:53:33 (GMT+0.0) 26th November 2020
# in /lustre/scratch/uccabz1/launch_tmp
# on node-c12b-021
# by uccabz1
#
# compiler GCC version 4.9.2
# options -cpp -iprefix /lustre/shared/ucl/apps/gcc/4.9.2/bin/../lib/gcc/x86_64-unknown-linux-gnu/4.9.2/ -mtune=corei7 -march=x86-64 -g -Og
#
# seed  -763556749  1906364648 -1338979793  -775788498 -1632296667  -703039457 -1903418116   416274969 -1834759990  1628415548  -257863157  1988369508
#
#      Author: C. J. Pickard (cjp20@cam.ac.uk)
#                Space group: C2
#

%BLOCK LATTICE_ABC
      5.18165      7.89971      7.89971
     81.73134     89.86220     89.86220
%ENDBLOCK LATTICE_ABC

%BLOCK POSITIONS_FRAC
  Li  -0.2477879  -0.2840533   0.1482451 SPIN=   0.00000
  Li   0.2477879  -0.1482451   0.2840533 SPIN=   0.00000
  Li   0.2527886  -0.3112652  -0.0397064 SPIN=   0.00000
  Li  -0.2527886   0.0397064   0.3112652 SPIN=   0.00000
   O  -0.2631460   0.4077532   0.6101509 SPIN=   0.00000
   O  -0.4901205   0.2189810   0.4118599 SPIN=   0.00000
   O  -0.2297770   0.4642469   0.2786265 SPIN=   0.00000
   O  -0.0086643   0.2077780   0.4384664 SPIN=   0.00000
   P  -0.2459138   0.3277328   0.4441573 SPIN=   0.00000
   O   0.2631460  -0.6101509  -0.4077532 SPIN=   0.00000
   O   0.4901205  -0.4118599  -0.2189810 SPIN=   0.00000
   O   0.2297770  -0.2786265  -0.4642469 SPIN=   0.00000
   O   0.0086643  -0.4384664  -0.2077780 SPIN=   0.00000
   P   0.2459138  -0.4441573  -0.3277328 SPIN=   0.00000
   O   0.3165887   0.3802810   0.0744361 SPIN=   0.00000
   O  -0.0289141   0.1401496   0.0990432 SPIN=   0.00000
   O   0.2635652   0.1735508  -0.1508384 SPIN=   0.00000
   O   0.4371941   0.0600919   0.1390251 SPIN=   0.00000
   P   0.2530511   0.1972131   0.0433916 SPIN=   0.00000
   O  -0.3165887  -0.0744361  -0.3802810 SPIN=   0.00000
   O   0.0289141  -0.0990432  -0.1401496 SPIN=   0.00000
   O  -0.2635652   0.1508384  -0.1735508 SPIN=   0.00000
   O  -0.4371941  -0.1390251  -0.0600919 SPIN=   0.00000
   P  -0.2530511  -0.0433916  -0.1972131 SPIN=   0.00000
  Fe  -0.2474402   0.3462583  -0.0208208 SPIN=   3.21711
  Fe   0.2474402   0.0208208  -0.3462583 SPIN=   3.21711
  Fe   0.2526671   0.4323204   0.3240460 SPIN=   4.78289
  Fe  -0.2526671  -0.3240460  -0.4323204 SPIN=   4.78289
%ENDBLOCK POSITIONS_FRAC

# Note: total spin =  16.00

KPOINTS_MP_SPACING 0.07

%BLOCK SPECIES_POT
QC5
%ENDBLOCK SPECIES_POT

%BLOCK HUBBARD_U
Fe d:4.0
%ENDBLOCK HUBBARD_U

SNAP_TO_SYMMETRY
SYMMETRY_GENERATE

