#              Generated by Buildcell
#
# at 21:02:17 (GMT+0.0) 26th November 2020
# in /lustre/scratch/uccabz1/launch_tmp
# on node-c12l-021
# by uccabz1
#
# compiler GCC version 4.9.2
# options -cpp -iprefix /lustre/shared/ucl/apps/gcc/4.9.2/bin/../lib/gcc/x86_64-unknown-linux-gnu/4.9.2/ -mtune=corei7 -march=x86-64 -g -Og
#
# seed  1142439670  2004948617 -1501159350  -909093969  1508366709 -2032656254    56627627  1200929314 -1793201587  -192455870   294040446   702812697
#
#      Author: C. J. Pickard (cjp20@cam.ac.uk)
#                Space group: Pca21
#

%BLOCK LATTICE_ABC
      6.28890      6.53233      7.78945
     90.00000     90.00000     90.00000
%ENDBLOCK LATTICE_ABC

%BLOCK POSITIONS_FRAC
  Li  -0.1066129  -0.2813244  -0.4876959 SPIN=   0.00000
  Li   0.1066129   0.2186756   0.4876959 SPIN=   0.00000
  Li   0.3933871  -0.2813244   0.4876959 SPIN=   0.00000
  Li  -0.3933871   0.2186756  -0.4876959 SPIN=   0.00000
   O  -0.2955428  -0.0555557   0.3930839 SPIN=   0.00000
   O  -0.5278854   0.0955996   0.1481541 SPIN=   0.00000
   O  -0.2363084  -0.1403039   0.0707352 SPIN=   0.00000
   O  -0.5594502  -0.2769473   0.2196346 SPIN=   0.00000
   P  -0.4008046  -0.0943942   0.2179004 SPIN=   0.00000
   O   0.2955428   0.4444443  -0.3930839 SPIN=   0.00000
   O   0.5278854   0.5955996  -0.1481541 SPIN=   0.00000
   O   0.2363084   0.3596961  -0.0707352 SPIN=   0.00000
   O   0.5594502   0.2230527  -0.2196346 SPIN=   0.00000
   P   0.4008046   0.4056058  -0.2179004 SPIN=   0.00000
   O   0.2044572  -0.0555557  -0.3930839 SPIN=   0.00000
   O  -0.0278854   0.0955996  -0.1481541 SPIN=   0.00000
   O   0.2636916  -0.1403039  -0.0707352 SPIN=   0.00000
   O  -0.0594502  -0.2769473  -0.2196346 SPIN=   0.00000
   P   0.0991954  -0.0943942  -0.2179004 SPIN=   0.00000
   O  -0.2044572   0.4444443   0.3930839 SPIN=   0.00000
   O   0.0278854   0.5955996   0.1481541 SPIN=   0.00000
   O  -0.2636916   0.3596961   0.0707352 SPIN=   0.00000
   O   0.0594502   0.2230527   0.2196346 SPIN=   0.00000
   P  -0.0991954   0.4056058   0.2179004 SPIN=   0.00000
  Fe   0.4219940   0.4132371   0.1498524 SPIN=   4.00000
  Fe  -0.4219940  -0.0867629  -0.1498524 SPIN=   4.00000
  Fe  -0.0780060   0.4132371  -0.1498524 SPIN=   4.00000
  Fe   0.0780060  -0.0867629   0.1498524 SPIN=   4.00000
%ENDBLOCK POSITIONS_FRAC

# Note: total spin =  16.00

KPOINTS_MP_SPACING 0.07

%BLOCK SPECIES_POT
QC5
%ENDBLOCK SPECIES_POT

%BLOCK HUBBARD_U
Fe d:4.0
%ENDBLOCK HUBBARD_U

SNAP_TO_SYMMETRY
SYMMETRY_GENERATE

