#              Generated by Buildcell
#
# at 13:57:56 (GMT+0.0) 24th November 2020
# in /scratch/scratch/uccabz1/launch_tmp
# on node-a14f-003
# by uccabz1
#
# compiler GCC version 4.9.2
# options -cpp -iprefix /scratch/UCL/applications/gcc/4.9.2/bin/../lib/gcc/x86_64-unknown-linux-gnu/4.9.2/ -mtune=corei7 -march=x86-64 -g -O2
#
# seed   594605856    95995236 -1455857669  -379615732   653088630  1787417739  -588712218  -921636565 -1553722446 -1126796604   973217333  1670874168
#
#      Author: C. J. Pickard (cjp20@cam.ac.uk)
#                Space group: Aea2
#

%BLOCK LATTICE_ABC
      5.52686      5.52686      5.79310
     90.00000     90.00000    115.28757
%ENDBLOCK LATTICE_ABC

%BLOCK POSITIONS_FRAC
  Li  -0.5364093  -0.4635907  -0.0000000 SPIN=   0.00000
  Li  -0.0364093   0.0364093  -0.5000000 SPIN=   0.00000
   O  -0.3395763  -0.3214793   0.3771356 SPIN=   0.00000
   O  -0.3903362   0.0486818   0.6209823 SPIN=   0.00000
   O   0.3214793   0.3395763  -0.3771356 SPIN=   0.00000
   O  -0.0486818   0.3903362  -0.6209823 SPIN=   0.00000
   O  -0.1785207  -0.1604237  -0.1228644 SPIN=   0.00000
   O  -0.5486818  -0.1096638   0.1209823 SPIN=   0.00000
   O   0.1604237   0.1785207   0.1228644 SPIN=   0.00000
   O   0.1096638   0.5486818  -0.1209823 SPIN=   0.00000
   P   0.1218974  -0.1218974   0.0000000 SPIN=   0.00000
   P   0.6218974   0.3781026   0.5000000 SPIN=   0.00000
  Fe  -0.1908946   0.1908946  -0.0000000 SPIN=   4.00000
  Fe  -0.6908946  -0.3091054  -0.5000000 SPIN=   4.00000
%ENDBLOCK POSITIONS_FRAC

# Note: total spin =   8.00

KPOINTS_MP_SPACING 0.07

%BLOCK SPECIES_POT
QC5
%ENDBLOCK SPECIES_POT

%BLOCK HUBBARD_U
Fe d:4.0
%ENDBLOCK HUBBARD_U

SNAP_TO_SYMMETRY
SYMMETRY_GENERATE

