#              Generated by Buildcell
#
# at 13:49:34 (GMT+0.0) 24th November 2020
# in /scratch/scratch/uccabz1/launch_tmp
# on node-a14c-023
# by uccabz1
#
# compiler GCC version 4.9.2
# options -cpp -iprefix /scratch/UCL/applications/gcc/4.9.2/bin/../lib/gcc/x86_64-unknown-linux-gnu/4.9.2/ -mtune=corei7 -march=x86-64 -g -O2
#
# seed -1492084284   395013766  1968478704 -1633117198 -1905846737 -1438080637   684477367 -2003843665  -349622205 -1756607402 -1975678209 -1743845784
#
#      Author: C. J. Pickard (cjp20@cam.ac.uk)
#                Space group: P-1
#

%BLOCK LATTICE_ABC
      4.22076      4.97042      8.03145
    102.93075     98.38375     97.73869
%ENDBLOCK LATTICE_ABC

%BLOCK POSITIONS_FRAC
  Li  -1.0000000  -0.5000000   0.0000000 SPIN=   0.00000
  Li   0.5000000   0.0000000   0.0000000 SPIN=   0.00000
   O   0.4799430   0.5810766  -0.1390376 SPIN=   0.00000
   O   0.3820015   0.0416488  -0.2652257 SPIN=   0.00000
   O  -0.0537065   0.3012579  -0.3428812 SPIN=   0.00000
   P   0.3269524   0.3347932  -0.2960629 SPIN=   0.00000
   O  -0.4799430  -0.5810766   0.1390376 SPIN=   0.00000
   O  -0.3820015  -0.0416488   0.2652257 SPIN=   0.00000
   O   0.0537065  -0.3012579   0.3428812 SPIN=   0.00000
   P  -0.3269524  -0.3347932   0.2960629 SPIN=   0.00000
   O   0.0000000   0.0000000   0.0000000 SPIN=   0.00000
   O  -0.5000000  -0.5000000  -0.5000000 SPIN=   0.00000
  Fe   0.1291294   0.1984883   0.3298930 SPIN=   4.00000
  Fe  -0.1291294  -0.1984883  -0.3298930 SPIN=   4.00000
%ENDBLOCK POSITIONS_FRAC

# Note: total spin =   8.00

KPOINTS_MP_SPACING 0.07

%BLOCK SPECIES_POT
QC5
%ENDBLOCK SPECIES_POT

%BLOCK HUBBARD_U
Fe d:4.0
%ENDBLOCK HUBBARD_U

SNAP_TO_SYMMETRY
SYMMETRY_GENERATE

