#              Generated by Buildcell
#
# at 10:00:03 (GMT+0.0) 24th November 2020
# in /scratch/scratch/uccabz1/launch_tmp
# on node-a14b-007
# by uccabz1
#
# compiler GCC version 4.9.2
# options -cpp -iprefix /scratch/UCL/applications/gcc/4.9.2/bin/../lib/gcc/x86_64-unknown-linux-gnu/4.9.2/ -mtune=corei7 -march=x86-64 -g -O2
#
# seed  -552111761   798268476 -1712662390  -786855271   627911203 -1926479134   -71751171 -1770862914 -1523378758  1013336552  1248359604 -1484969658
#
#      Author: C. J. Pickard (cjp20@cam.ac.uk)
#                Space group: P21
#

%BLOCK LATTICE_ABC
      3.96624      5.83834      7.07615
     90.00000    102.45644     90.00000
%ENDBLOCK LATTICE_ABC

%BLOCK POSITIONS_FRAC
  Li  -0.1084913  -0.4987842  -0.0185732 SPIN=   0.00000
  Li   0.1084913   0.0012158   0.0185732 SPIN=   0.00000
   O  -0.7759192   0.1720812  -0.4626675 SPIN=   0.00000
   O  -0.6183588   0.2592972  -0.0940607 SPIN=   0.00000
   O  -0.3062295  -0.0518384  -0.2199009 SPIN=   0.00000
   O  -0.1943320   0.3558339  -0.2978514 SPIN=   0.00000
   P  -0.4865041   0.1852469  -0.2792971 SPIN=   0.00000
   O   0.7759192  -0.3279188   0.4626675 SPIN=   0.00000
   O   0.6183588  -0.2407028   0.0940607 SPIN=   0.00000
   O   0.3062295  -0.5518384   0.2199009 SPIN=   0.00000
   O   0.1943320  -0.1441661   0.2978514 SPIN=   0.00000
   P   0.4865041  -0.3147531   0.2792971 SPIN=   0.00000
  Fe   0.2742729  -0.2758868  -0.3591489 SPIN=   4.00000
  Fe  -0.2742729   0.2241132   0.3591489 SPIN=   4.00000
%ENDBLOCK POSITIONS_FRAC

# Note: total spin =   8.00

KPOINTS_MP_SPACING 0.07

%BLOCK SPECIES_POT
QC5
%ENDBLOCK SPECIES_POT

%BLOCK HUBBARD_U
Fe d:4.0
%ENDBLOCK HUBBARD_U

SNAP_TO_SYMMETRY
SYMMETRY_GENERATE

