#              Generated by Buildcell
#
# at 10:50:25 (GMT+0.0) 26th November 2020
# in /lustre/scratch/uccabz1/launch_tmp
# on node-c12n-021
# by uccabz1
#
# compiler GCC version 4.9.2
# options -cpp -iprefix /lustre/shared/ucl/apps/gcc/4.9.2/bin/../lib/gcc/x86_64-unknown-linux-gnu/4.9.2/ -mtune=corei7 -march=x86-64 -g -Og
#
# seed   911733063 -2133584950 -1428323423  -784342428  -581452160 -1289591878  1043318174 -1381621684 -1530232139  1033524060  1391460883  1747527100
#
#      Author: C. J. Pickard (cjp20@cam.ac.uk)
#                Space group: P21/c
#

%BLOCK LATTICE_ABC
      5.26920      7.75330      7.84093
     90.00000     92.60517     90.00000
%ENDBLOCK LATTICE_ABC

%BLOCK POSITIONS_FRAC
  Li  -0.0176188  -0.1558317  -0.2508787 SPIN=   0.00000
  Li  -0.4823812   0.3441683  -0.2491213 SPIN=   0.00000
  Li   0.0176188   0.1558317   0.2508787 SPIN=   0.00000
  Li   0.4823812  -0.3441683   0.2491213 SPIN=   0.00000
   O  -0.1744520  -0.1011034   0.1326781 SPIN=   0.00000
   O   0.0692738  -0.3589851   0.2742692 SPIN=   0.00000
   O   0.1394067  -0.0680928   0.3959013 SPIN=   0.00000
   O  -0.2773700  -0.2162427   0.4308288 SPIN=   0.00000
   P  -0.0693935  -0.1819357   0.3005065 SPIN=   0.00000
   O  -0.3255480   0.3988966   0.3673219 SPIN=   0.00000
   O  -0.5692738   0.1410149   0.2257308 SPIN=   0.00000
   O  -0.6394067   0.4319072   0.1040987 SPIN=   0.00000
   O  -0.2226300   0.2837573   0.0691712 SPIN=   0.00000
   P  -0.4306065   0.3180643   0.1994935 SPIN=   0.00000
   O   0.1744520   0.1011034  -0.1326781 SPIN=   0.00000
   O  -0.0692738   0.3589851  -0.2742692 SPIN=   0.00000
   O  -0.1394067   0.0680928  -0.3959013 SPIN=   0.00000
   O   0.2773700   0.2162427  -0.4308288 SPIN=   0.00000
   P   0.0693935   0.1819357  -0.3005065 SPIN=   0.00000
   O   0.3255480  -0.3988966  -0.3673219 SPIN=   0.00000
   O   0.5692738  -0.1410149  -0.2257308 SPIN=   0.00000
   O   0.6394067  -0.4319072  -0.1040987 SPIN=   0.00000
   O   0.2226300  -0.2837573  -0.0691712 SPIN=   0.00000
   P   0.4306065  -0.3180643  -0.1994935 SPIN=   0.00000
  Fe  -0.5000000   0.0000000   0.0000000 SPIN=   4.93566
  Fe  -0.0000000  -0.5000000   0.5000000 SPIN=   4.93566
  Fe  -0.5000000   0.0000000  -0.5000000 SPIN=   3.06434
  Fe  -0.0000000  -0.5000000   0.0000000 SPIN=   3.06434
%ENDBLOCK POSITIONS_FRAC

# Note: total spin =  16.00

KPOINTS_MP_SPACING 0.07

%BLOCK SPECIES_POT
QC5
%ENDBLOCK SPECIES_POT

%BLOCK HUBBARD_U
Fe d:4.0
%ENDBLOCK HUBBARD_U

SNAP_TO_SYMMETRY
SYMMETRY_GENERATE

