#              Generated by Buildcell
#
# at 12:49:24 (GMT+0.0) 26th November 2020
# in /scratch/scratch/uccabz1/launch_tmp
# on node-a14c-005
# by uccabz1
#
# compiler GCC version 4.9.2
# options -cpp -iprefix /scratch/UCL/applications/gcc/4.9.2/bin/../lib/gcc/x86_64-unknown-linux-gnu/4.9.2/ -mtune=corei7 -march=x86-64 -g -O2
#
# seed   -85008091   131543089   941969506  1588574956   -66065635  1182208302 -2114199388  1798619880  1533309523  -833460393 -1200887781 -2131954197
#
#      Author: C. J. Pickard (cjp20@cam.ac.uk)
#                Space group: Cc
#

%BLOCK LATTICE_ABC
      5.40966      8.22013      8.22013
    118.02325     93.79526     93.79526
%ENDBLOCK LATTICE_ABC

%BLOCK POSITIONS_FRAC
  Li   0.2717618  -0.3572660  -0.2607735 SPIN=   0.00000
  Li  -0.2282382  -0.2607735  -0.3572660 SPIN=   0.00000
  Li   0.4023925   0.3027670   0.4015793 SPIN=   0.00000
  Li  -0.0976075   0.4015793   0.3027670 SPIN=   0.00000
   O  -0.3076360  -0.2012598  -0.0884416 SPIN=   0.00000
   O  -0.4655868  -0.5482555  -0.3066005 SPIN=   0.00000
   O  -0.0241297  -0.4666144  -0.1736764 SPIN=   0.00000
   O  -0.3576901  -0.4391884   0.0322494 SPIN=   0.00000
   P  -0.2905792  -0.4028105  -0.1297220 SPIN=   0.00000
   O   0.1923640  -0.0884416  -0.2012598 SPIN=   0.00000
   O   0.0344132  -0.3066005  -0.5482555 SPIN=   0.00000
   O   0.4758703  -0.1736764  -0.4666144 SPIN=   0.00000
   O   0.1423099   0.0322494  -0.4391884 SPIN=   0.00000
   P   0.2094208  -0.1297220  -0.4028105 SPIN=   0.00000
   O   0.3243151   0.2927775  -0.1321698 SPIN=   0.00000
   O   0.1365003   0.2262479   0.1162031 SPIN=   0.00000
   O   0.0698291   0.5215534   0.1182721 SPIN=   0.00000
   O  -0.1497762   0.2237099  -0.1373945 SPIN=   0.00000
   P   0.1045242   0.3137419  -0.0168604 SPIN=   0.00000
   O  -0.1756849  -0.1321698   0.2927775 SPIN=   0.00000
   O  -0.3634997   0.1162031   0.2262479 SPIN=   0.00000
   O  -0.4301709   0.1182721   0.5215534 SPIN=   0.00000
   O  -0.6497762  -0.1373945   0.2237099 SPIN=   0.00000
   P  -0.3954758  -0.0168604   0.3137419 SPIN=   0.00000
  Fe   0.0313169  -0.0777429   0.1151013 SPIN=   3.52157
  Fe  -0.4686831   0.1151013  -0.0777429 SPIN=   3.52157
  Fe   0.4305112  -0.3771265   0.2546334 SPIN=   4.47843
  Fe  -0.0694888   0.2546334  -0.3771265 SPIN=   4.47843
%ENDBLOCK POSITIONS_FRAC

# Note: total spin =  16.00

KPOINTS_MP_SPACING 0.07

%BLOCK SPECIES_POT
QC5
%ENDBLOCK SPECIES_POT

%BLOCK HUBBARD_U
Fe d:4.0
%ENDBLOCK HUBBARD_U

SNAP_TO_SYMMETRY
SYMMETRY_GENERATE

