#              Generated by Buildcell
#
# at 15:28:55 (GMT+0.0) 26th November 2020
# in /lustre/scratch/uccabz1/launch_tmp
# on node-c12m-034
# by uccabz1
#
# compiler GCC version 4.9.2
# options -cpp -iprefix /lustre/shared/ucl/apps/gcc/4.9.2/bin/../lib/gcc/x86_64-unknown-linux-gnu/4.9.2/ -mtune=corei7 -march=x86-64 -g -Og
#
# seed  2138464441   -77582847   438874307  1404081493   946423759  -732518756  1030024023 -1638660800  1338632879   123047966   200567555  -628455581
#
#      Author: C. J. Pickard (cjp20@cam.ac.uk)
#                Space group: Pnn2
#

%BLOCK LATTICE_ABC
      4.82703      7.84184      8.45381
     90.00000     90.00000     90.00000
%ENDBLOCK LATTICE_ABC

%BLOCK POSITIONS_FRAC
  Li  -0.4226809   0.0263897   0.1780565 SPIN=   0.00000
  Li  -0.4226809  -0.0263897  -0.1780565 SPIN=   0.00000
  Li   0.0773191  -0.4736103   0.3219435 SPIN=   0.00000
  Li   0.0773191   0.4736103  -0.3219435 SPIN=   0.00000
   O   0.0262709  -0.0073391   0.3543973 SPIN=   0.00000
   O   0.0459568   0.2815123   0.5044967 SPIN=   0.00000
   O   0.3744893   0.2339217   0.2848895 SPIN=   0.00000
   O  -0.1293451   0.2756345   0.2257317 SPIN=   0.00000
   P   0.0740544   0.1860497   0.3416422 SPIN=   0.00000
   O   0.0262709   0.0073391  -0.3543973 SPIN=   0.00000
   O   0.0459568  -0.2815123  -0.5044967 SPIN=   0.00000
   O   0.3744893  -0.2339217  -0.2848895 SPIN=   0.00000
   O  -0.1293451  -0.2756345  -0.2257317 SPIN=   0.00000
   P   0.0740544  -0.1860497  -0.3416422 SPIN=   0.00000
   O  -0.4737291  -0.5073391   0.1456027 SPIN=   0.00000
   O  -0.4540432  -0.2184877  -0.0044967 SPIN=   0.00000
   O  -0.1255107  -0.2660783   0.2151105 SPIN=   0.00000
   O  -0.6293451  -0.2243655   0.2742683 SPIN=   0.00000
   P  -0.4259456  -0.3139503   0.1583578 SPIN=   0.00000
   O  -0.4737291   0.5073391  -0.1456027 SPIN=   0.00000
   O  -0.4540432   0.2184877   0.0044967 SPIN=   0.00000
   O  -0.1255107   0.2660783  -0.2151105 SPIN=   0.00000
   O  -0.6293451   0.2243655  -0.2742683 SPIN=   0.00000
   P  -0.4259456   0.3139503  -0.1583578 SPIN=   0.00000
  Fe  -0.4243137  -0.2509246   0.4909898 SPIN=   4.00000
  Fe  -0.4243137   0.2509246  -0.4909898 SPIN=   4.00000
  Fe   0.0756863   0.2490754   0.0090102 SPIN=   4.00000
  Fe   0.0756863  -0.2490754  -0.0090102 SPIN=   4.00000
%ENDBLOCK POSITIONS_FRAC

# Note: total spin =  16.00

KPOINTS_MP_SPACING 0.07

%BLOCK SPECIES_POT
QC5
%ENDBLOCK SPECIES_POT

%BLOCK HUBBARD_U
Fe d:4.0
%ENDBLOCK HUBBARD_U

SNAP_TO_SYMMETRY
SYMMETRY_GENERATE

