#              Generated by Buildcell
#
# at 14:04:38 (GMT+0.0) 26th November 2020
# in /lustre/scratch/uccabz1/launch_tmp
# on node-c12g-022
# by uccabz1
#
# compiler GCC version 4.9.2
# options -cpp -iprefix /lustre/shared/ucl/apps/gcc/4.9.2/bin/../lib/gcc/x86_64-unknown-linux-gnu/4.9.2/ -mtune=corei7 -march=x86-64 -g -Og
#
# seed -1076104965  -864708387 -1957746139  1212654499  1410800061   386937490 -1026986614  1460891375  -147780875  -593178413  1578796448  1643533872
#
#      Author: C. J. Pickard (cjp20@cam.ac.uk)
#                Space group: P-1
#

%BLOCK LATTICE_ABC
      5.25120      7.97426      8.06427
     92.49012    102.49902    102.80381
%ENDBLOCK LATTICE_ABC

%BLOCK POSITIONS_FRAC
  Li  -0.4715106   0.3071122  -0.0995166 SPIN=   0.00000
  Li   0.4715106  -0.3071122   0.0995166 SPIN=   0.00000
  Li   0.2371324  -0.0688171  -0.1774875 SPIN=   0.00000
  Li  -0.2371324   0.0688171   0.1774875 SPIN=   0.00000
   O  -0.3760028  -0.4379701  -0.3550893 SPIN=   0.00000
   O  -0.1658996  -0.1491607  -0.1627392 SPIN=   0.00000
   O  -0.6323830  -0.2993354  -0.1664118 SPIN=   0.00000
   O  -0.2533755  -0.4257999  -0.0261437 SPIN=   0.00000
   P  -0.3567096  -0.3350717  -0.1852593 SPIN=   0.00000
   O   0.3760028   0.4379701   0.3550893 SPIN=   0.00000
   O   0.1658996   0.1491607   0.1627392 SPIN=   0.00000
   O   0.6323830   0.2993354   0.1664118 SPIN=   0.00000
   O   0.2533755   0.4257999   0.0261437 SPIN=   0.00000
   P   0.3567096   0.3350717   0.1852593 SPIN=   0.00000
   O  -0.1465829   0.1921326  -0.0958050 SPIN=   0.00000
   O  -0.2532898   0.2859917  -0.4028083 SPIN=   0.00000
   O   0.0073147   0.0633997  -0.3482619 SPIN=   0.00000
   O  -0.4809161  -0.0094568  -0.3460058 SPIN=   0.00000
   P  -0.2176447   0.1344831  -0.2880066 SPIN=   0.00000
   O   0.1465829  -0.1921326   0.0958050 SPIN=   0.00000
   O   0.2532898  -0.2859917   0.4028083 SPIN=   0.00000
   O  -0.0073147  -0.0633997   0.3482619 SPIN=   0.00000
   O   0.4809161   0.0094568   0.3460058 SPIN=   0.00000
   P   0.2176447  -0.1344831   0.2880066 SPIN=   0.00000
  Fe   0.0386850   0.4927791  -0.2504119 SPIN=   3.02971
  Fe  -0.0386850  -0.4927791   0.2504119 SPIN=   3.02971
  Fe  -0.3090630  -0.1820810  -0.4916690 SPIN=   4.97029
  Fe   0.3090630   0.1820810   0.4916690 SPIN=   4.97029
%ENDBLOCK POSITIONS_FRAC

# Note: total spin =  16.00

KPOINTS_MP_SPACING 0.07

%BLOCK SPECIES_POT
QC5
%ENDBLOCK SPECIES_POT

%BLOCK HUBBARD_U
Fe d:4.0
%ENDBLOCK HUBBARD_U

SNAP_TO_SYMMETRY
SYMMETRY_GENERATE

