#              Generated by Buildcell
#
# at 07:41:30 (GMT+0.0) 24th November 2020
# in /scratch/scratch/uccabz1/launch_tmp
# on node-a14f-002
# by uccabz1
#
# compiler GCC version 4.9.2
# options -cpp -iprefix /scratch/UCL/applications/gcc/4.9.2/bin/../lib/gcc/x86_64-unknown-linux-gnu/4.9.2/ -mtune=corei7 -march=x86-64 -g -O2
#
# seed -1685536872   247373173 -1755581551     6674016   751500174  -911914822   650626150  -149992704   513580206   811514459 -2045459723 -1276390192
#
#      Author: C. J. Pickard (cjp20@cam.ac.uk)
#                Space group: P21
#

%BLOCK LATTICE_ABC
      4.86692      4.94947      6.65968
     94.16142     90.00000     90.00000
%ENDBLOCK LATTICE_ABC

%BLOCK POSITIONS_FRAC
  Li  -0.0270925   0.1790006   0.4763673 SPIN=   0.00000
  Li   0.4729075  -0.1790006  -0.4763673 SPIN=   0.00000
   O   0.3285504   0.4190204  -0.4763619 SPIN=   0.00000
   O   0.7197506   0.2504069  -0.2512790 SPIN=   0.00000
   O   0.3365876   0.5084266  -0.0871358 SPIN=   0.00000
   O   0.2542310   0.0369225  -0.2376310 SPIN=   0.00000
   P   0.4036192   0.3066864  -0.2741564 SPIN=   0.00000
   O  -0.1714496  -0.4190204   0.4763619 SPIN=   0.00000
   O   0.2197506  -0.2504069   0.2512790 SPIN=   0.00000
   O  -0.1634124  -0.5084266   0.0871358 SPIN=   0.00000
   O  -0.2457690  -0.0369225   0.2376310 SPIN=   0.00000
   P  -0.0963808  -0.3066864   0.2741564 SPIN=   0.00000
  Fe  -0.0270919  -0.2678460  -0.1507452 SPIN=   4.00000
  Fe   0.4729081   0.2678460   0.1507452 SPIN=   4.00000
%ENDBLOCK POSITIONS_FRAC

# Note: total spin =   8.00

KPOINTS_MP_SPACING 0.07

%BLOCK SPECIES_POT
QC5
%ENDBLOCK SPECIES_POT

%BLOCK HUBBARD_U
Fe d:4.0
%ENDBLOCK HUBBARD_U

SNAP_TO_SYMMETRY
SYMMETRY_GENERATE

