#              Generated by Buildcell
#
# at 08:08:17 (GMT+0.0) 24th November 2020
# in /lustre/scratch/uccabz1/launch_tmp
# on node-c12n-022
# by uccabz1
#
# compiler GCC version 4.9.2
# options -cpp -iprefix /lustre/shared/ucl/apps/gcc/4.9.2/bin/../lib/gcc/x86_64-unknown-linux-gnu/4.9.2/ -mtune=corei7 -march=x86-64 -g -Og
#
# seed  -218342386  -533515110   940939822   726034020    10975761 -1272514256  -349425442  -662625401 -1097755156  1869144908  2123090421  1358141876
#
#      Author: C. J. Pickard (cjp20@cam.ac.uk)
#                Space group: P-1
#

%BLOCK LATTICE_ABC
      4.74266      5.76095      6.74400
    110.49232     90.57501    110.34675
%ENDBLOCK LATTICE_ABC

%BLOCK POSITIONS_FRAC
  Li  -0.2082909   0.0168011   0.1692269 SPIN=   0.00000
  Li   0.2082909  -0.0168011  -0.1692269 SPIN=   0.00000
   O   0.5455267   0.2716674   0.3940277 SPIN=   0.00000
   O   0.1784084   0.3081409   0.1280042 SPIN=   0.00000
   O   0.6814304   0.6738157   0.2727805 SPIN=   0.00000
   O   0.6468553   0.2285192   0.0095883 SPIN=   0.00000
   P   0.5163631   0.3635956   0.2091125 SPIN=   0.00000
   O  -0.5455267  -0.2716674  -0.3940277 SPIN=   0.00000
   O  -0.1784084  -0.3081409  -0.1280042 SPIN=   0.00000
   O  -0.6814304  -0.6738157  -0.2727805 SPIN=   0.00000
   O  -0.6468553  -0.2285192  -0.0095883 SPIN=   0.00000
   P  -0.5163631  -0.3635956  -0.2091125 SPIN=   0.00000
  Fe   0.1540189   0.6859319   0.3067156 SPIN=   4.00000
  Fe  -0.1540189  -0.6859319  -0.3067156 SPIN=   4.00000
%ENDBLOCK POSITIONS_FRAC

# Note: total spin =   8.00

KPOINTS_MP_SPACING 0.07

%BLOCK SPECIES_POT
QC5
%ENDBLOCK SPECIES_POT

%BLOCK HUBBARD_U
Fe d:4.0
%ENDBLOCK HUBBARD_U

SNAP_TO_SYMMETRY
SYMMETRY_GENERATE

