#              Generated by Buildcell
#
# at 22:47:24 (GMT+0.0) 26th November 2020
# in /scratch/scratch/uccabz1/launch_tmp
# on node-k10e-027
# by uccabz1
#
# compiler GCC version 4.9.2
# options -cpp -iprefix /scratch/UCL/applications/gcc/4.9.2/bin/../lib/gcc/x86_64-unknown-linux-gnu/4.9.2/ -mtune=corei7 -march=x86-64 -g -O2
#
# seed -1426515412  1189708837 -1095789655 -1759797757  -241915712   618234913 -1011618031  -874571564   262339843   570050290  -427004432  -534775167
#
#      Author: C. J. Pickard (cjp20@cam.ac.uk)
#                Space group: P21/m
#

%BLOCK LATTICE_ABC
      4.87906      4.90132     15.40300
     90.00000     90.00000    119.68624
%ENDBLOCK LATTICE_ABC

%BLOCK POSITIONS_FRAC
  Li   0.3967054   0.5945653  -0.1337157 SPIN=   0.00000
  Li  -0.3967054  -0.5945653   0.3662843 SPIN=   0.00000
  Li  -0.3967054  -0.5945653   0.1337157 SPIN=   0.00000
  Li   0.3967054   0.5945653  -0.3662843 SPIN=   0.00000
   O   0.1656682   0.3852704   0.1509596 SPIN=   0.00000
   O   0.5970993   0.9741531   0.1458612 SPIN=   0.00000
   O   0.2598104   0.7423479   0.0167694 SPIN=   0.00000
   O   0.0283773   0.8310152   0.1517374 SPIN=   0.00000
   P   0.2548046   0.7158257   0.1185935 SPIN=   0.00000
   O  -0.1656682  -0.3852704  -0.3490404 SPIN=   0.00000
   O  -0.5970993  -0.9741531  -0.3541388 SPIN=   0.00000
   O  -0.2598104  -0.7423479  -0.4832306 SPIN=   0.00000
   O  -0.0283773  -0.8310152  -0.3482626 SPIN=   0.00000
   P  -0.2548046  -0.7158257  -0.3814065 SPIN=   0.00000
   O  -0.1656682  -0.3852704  -0.1509596 SPIN=   0.00000
   O  -0.5970993  -0.9741531  -0.1458612 SPIN=   0.00000
   O  -0.2598104  -0.7423479  -0.0167694 SPIN=   0.00000
   O  -0.0283773  -0.8310152  -0.1517374 SPIN=   0.00000
   P  -0.2548046  -0.7158257  -0.1185935 SPIN=   0.00000
   O   0.1656682   0.3852704   0.3490404 SPIN=   0.00000
   O   0.5970993   0.9741531   0.3541388 SPIN=   0.00000
   O   0.2598104   0.7423479   0.4832306 SPIN=   0.00000
   O   0.0283773   0.8310152   0.3482626 SPIN=   0.00000
   P   0.2548046   0.7158257   0.3814065 SPIN=   0.00000
  Fe   0.0864511  -0.0593423  -0.2500000 SPIN=   4.58246
  Fe  -0.0864511   0.0593423   0.2500000 SPIN=   4.58246
  Fe  -0.0000000  -0.0000000   0.0000000 SPIN=   3.41754
  Fe   0.0000000   0.0000000   0.5000000 SPIN=   3.41754
%ENDBLOCK POSITIONS_FRAC

# Note: total spin =  16.00

KPOINTS_MP_SPACING 0.07

%BLOCK SPECIES_POT
QC5
%ENDBLOCK SPECIES_POT

%BLOCK HUBBARD_U
Fe d:4.0
%ENDBLOCK HUBBARD_U

SNAP_TO_SYMMETRY
SYMMETRY_GENERATE

