#              Generated by Buildcell
#
# at 13:50:19 (GMT+0.0) 26th November 2020
# in /lustre/scratch/uccabz1/launch_tmp
# on node-c12p-026
# by uccabz1
#
# compiler GCC version 4.9.2
# options -cpp -iprefix /lustre/shared/ucl/apps/gcc/4.9.2/bin/../lib/gcc/x86_64-unknown-linux-gnu/4.9.2/ -mtune=corei7 -march=x86-64 -g -Og
#
# seed -2023374880 -1861601138  -173887794  1660997015 -2103235608  1932596528  -405076240   558577787  -464665347  2112564679   965245460  1512511494
#
#      Author: C. J. Pickard (cjp20@cam.ac.uk)
#                Space group: Cc
#

%BLOCK LATTICE_ABC
      6.79000      6.79000      7.13145
     80.77411     80.77411     85.96080
%ENDBLOCK LATTICE_ABC

%BLOCK POSITIONS_FRAC
  Li   0.0090856   0.4968884   0.4753285 SPIN=   0.00000
  Li   0.4968884   0.0090856  -0.0246715 SPIN=   0.00000
  Li   0.3785216   0.2430072  -0.4484441 SPIN=   0.00000
  Li   0.2430072   0.3785216   0.0515559 SPIN=   0.00000
   O   0.4603344  -0.2974237  -0.0190944 SPIN=   0.00000
   O   0.1452340  -0.3031198   0.2416632 SPIN=   0.00000
   O   0.4235118  -0.5486446   0.2987965 SPIN=   0.00000
   O   0.4648110  -0.1873994   0.3104574 SPIN=   0.00000
   P   0.3791756  -0.3304598   0.1970760 SPIN=   0.00000
   O  -0.2974237   0.4603344  -0.5190944 SPIN=   0.00000
   O  -0.3031198   0.1452340  -0.2583368 SPIN=   0.00000
   O  -0.5486446   0.4235118  -0.2012035 SPIN=   0.00000
   O  -0.1873994   0.4648110  -0.1895426 SPIN=   0.00000
   P  -0.3304598   0.3791756  -0.3029240 SPIN=   0.00000
   O   0.0801023  -0.3695843  -0.0727148 SPIN=   0.00000
   O   0.3005286  -0.0907797  -0.2760792 SPIN=   0.00000
   O   0.2437971  -0.3812418  -0.4262122 SPIN=   0.00000
   O  -0.0379039  -0.1318910  -0.3579199 SPIN=   0.00000
   P   0.1409110  -0.2487786  -0.2729040 SPIN=   0.00000
   O  -0.3695843   0.0801023   0.4272852 SPIN=   0.00000
   O  -0.0907797   0.3005286   0.2239208 SPIN=   0.00000
   O  -0.3812418   0.2437971   0.0737878 SPIN=   0.00000
   O  -0.1318910  -0.0379039   0.1420801 SPIN=   0.00000
   P  -0.2487786   0.1409110   0.2270960 SPIN=   0.00000
  Fe  -0.0309500   0.1188481  -0.1507701 SPIN=   4.93523
  Fe   0.1188481  -0.0309500   0.3492299 SPIN=   4.93523
  Fe  -0.4079398  -0.2067199  -0.4143711 SPIN=   3.06477
  Fe  -0.2067199  -0.4079398   0.0856289 SPIN=   3.06477
%ENDBLOCK POSITIONS_FRAC

# Note: total spin =  16.00

KPOINTS_MP_SPACING 0.07

%BLOCK SPECIES_POT
QC5
%ENDBLOCK SPECIES_POT

%BLOCK HUBBARD_U
Fe d:4.0
%ENDBLOCK HUBBARD_U

SNAP_TO_SYMMETRY
SYMMETRY_GENERATE

