#              Generated by Buildcell
#
# at 09:47:36 (GMT+0.0) 24th November 2020
# in /lustre/scratch/uccabz1/launch_tmp
# on node-c12f-020
# by uccabz1
#
# compiler GCC version 4.9.2
# options -cpp -iprefix /lustre/shared/ucl/apps/gcc/4.9.2/bin/../lib/gcc/x86_64-unknown-linux-gnu/4.9.2/ -mtune=corei7 -march=x86-64 -g -Og
#
# seed  -377254653  1865294369 -1308764626  -906280698 -1750281713 -1127028683  -406870105  1894218707 -1856122929 -1055637129 -1649495229  -282117673
#
#      Author: C. J. Pickard (cjp20@cam.ac.uk)
#                Space group: I41
#

%BLOCK LATTICE_ABC
      5.37571      5.37571      6.71593
    113.59197    113.59197     90.00000
%ENDBLOCK LATTICE_ABC

%BLOCK POSITIONS_FRAC
  Li   0.1718003   0.1718003   0.3436007 SPIN=   0.00000
  Li   0.4218003  -0.0781997  -0.1563993 SPIN=   0.00000
   O  -0.2203295  -0.2429008  -0.1401558 SPIN=   0.00000
   O  -0.4904742  -0.2198591   0.1105667 SPIN=   0.00000
   O   0.0801737   0.1027450  -0.1401558 SPIN=   0.00000
   O   0.6010409   0.3304258   0.1105667 SPIN=   0.00000
   O   0.0070992  -0.1698263   0.3598442 SPIN=   0.00000
   O   0.0301409   0.3510409   0.6105667 SPIN=   0.00000
   O   0.3527450   0.5296705   0.3598442 SPIN=   0.00000
   O   0.5804258   0.2595258   0.6105667 SPIN=   0.00000
   P  -0.3360145   0.1639855   0.3279711 SPIN=   0.00000
   P   0.4139855   0.4139855  -0.1720289 SPIN=   0.00000
  Fe   0.0013020  -0.4986980   0.0026040 SPIN=   4.00000
  Fe  -0.2486980  -0.2486980  -0.4973960 SPIN=   4.00000
%ENDBLOCK POSITIONS_FRAC

# Note: total spin =   8.00

KPOINTS_MP_SPACING 0.07

%BLOCK SPECIES_POT
QC5
%ENDBLOCK SPECIES_POT

%BLOCK HUBBARD_U
Fe d:4.0
%ENDBLOCK HUBBARD_U

SNAP_TO_SYMMETRY
SYMMETRY_GENERATE

