#              Generated by Buildcell
#
# at 07:38:46 (GMT+0.0) 24th November 2020
# in /lustre/scratch/uccabz1/launch_tmp
# on node-c12n-026
# by uccabz1
#
# compiler GCC version 4.9.2
# options -cpp -iprefix /lustre/shared/ucl/apps/gcc/4.9.2/bin/../lib/gcc/x86_64-unknown-linux-gnu/4.9.2/ -mtune=corei7 -march=x86-64 -g -Og
#
# seed  1421761921   701916599 -1493238285 -2024019103  -237778468 -1961039649  1994257255   329084930 -1432126157  -805462821   413778288 -1139224146
#
#      Author: C. J. Pickard (cjp20@cam.ac.uk)
#                Space group: C2
#

%BLOCK LATTICE_ABC
      4.78126      4.78126      7.63342
    106.17129    106.17129     91.34099
%ENDBLOCK LATTICE_ABC

%BLOCK POSITIONS_FRAC
  Li  -0.4352375  -0.0268588   0.4917720 SPIN=   0.00000
  Li   0.0268588   0.4352375  -0.4917720 SPIN=   0.00000
   O  -0.4005614  -0.2640470   0.1929594 SPIN=   0.00000
   O   0.0439996  -0.3594117   0.0597917 SPIN=   0.00000
   O   0.1188281   0.0152107   0.3708048 SPIN=   0.00000
   P  -0.0684519  -0.2827865   0.2408335 SPIN=   0.00000
   O   0.2640470   0.4005614  -0.1929594 SPIN=   0.00000
   O   0.3594117  -0.0439996  -0.0597917 SPIN=   0.00000
   O  -0.0152107  -0.1188281  -0.3708048 SPIN=   0.00000
   P   0.2827865   0.0684519  -0.2408335 SPIN=   0.00000
   O  -0.1196593   0.1196593  -0.0000000 SPIN=   0.00000
   O  -0.4232473   0.4232473   0.5000000 SPIN=   0.00000
  Fe  -0.3240255  -0.3580063  -0.1673086 SPIN=   4.00000
  Fe   0.3580063   0.3240255   0.1673086 SPIN=   4.00000
%ENDBLOCK POSITIONS_FRAC

# Note: total spin =   8.00

KPOINTS_MP_SPACING 0.07

%BLOCK SPECIES_POT
QC5
%ENDBLOCK SPECIES_POT

%BLOCK HUBBARD_U
Fe d:4.0
%ENDBLOCK HUBBARD_U

SNAP_TO_SYMMETRY
SYMMETRY_GENERATE

