#              Generated by Buildcell
#
# at 11:09:04 (GMT+0.0) 24th November 2020
# in /lustre/scratch/uccabz1/launch_tmp
# on node-c12h-026
# by uccabz1
#
# compiler GCC version 4.9.2
# options -cpp -iprefix /lustre/shared/ucl/apps/gcc/4.9.2/bin/../lib/gcc/x86_64-unknown-linux-gnu/4.9.2/ -mtune=corei7 -march=x86-64 -g -Og
#
# seed -2031639396  1498288452  2089991746 -1906894299  -317511008   404727142  1864291016 -1788314136 -1723438886   -60279267  2023289345  -408305190
#
#      Author: C. J. Pickard (cjp20@cam.ac.uk)
#                Space group: P-1
#

%BLOCK LATTICE_ABC
      4.93768      5.27652      7.00647
     85.42031     80.86505     62.59572
%ENDBLOCK LATTICE_ABC

%BLOCK POSITIONS_FRAC
  Li  -0.0000000   0.0000000   0.0000000 SPIN=   0.00000
  Li  -1.0000000  -0.0000000   0.5000000 SPIN=   0.00000
   O  -0.7255571  -0.2029821   0.2217975 SPIN=   0.00000
   O  -0.2223974  -0.2592940   0.0057701 SPIN=   0.00000
   O  -0.3549125  -0.0302053   0.3240317 SPIN=   0.00000
   P  -0.3889761  -0.2621721   0.2162434 SPIN=   0.00000
   O   0.7255571   0.2029821  -0.2217975 SPIN=   0.00000
   O   0.2223974   0.2592940  -0.0057701 SPIN=   0.00000
   O   0.3549125   0.0302053  -0.3240317 SPIN=   0.00000
   P   0.3889761   0.2621721  -0.2162434 SPIN=   0.00000
   O   0.0000000  -0.5000000   0.5000000 SPIN=   0.00000
   O  -0.5000000   0.5000000   0.5000000 SPIN=   0.00000
  Fe   0.6845178  -0.3763246  -0.2461954 SPIN=   4.00000
  Fe  -0.6845178   0.3763246   0.2461954 SPIN=   4.00000
%ENDBLOCK POSITIONS_FRAC

# Note: total spin =   8.00

KPOINTS_MP_SPACING 0.07

%BLOCK SPECIES_POT
QC5
%ENDBLOCK SPECIES_POT

%BLOCK HUBBARD_U
Fe d:4.0
%ENDBLOCK HUBBARD_U

SNAP_TO_SYMMETRY
SYMMETRY_GENERATE

