#              Generated by Buildcell
#
# at 10:06:38 (GMT+0.0) 24th November 2020
# in /lustre/scratch/uccabz1/launch_tmp
# on node-c12i-031
# by uccabz1
#
# compiler GCC version 4.9.2
# options -cpp -iprefix /lustre/shared/ucl/apps/gcc/4.9.2/bin/../lib/gcc/x86_64-unknown-linux-gnu/4.9.2/ -mtune=corei7 -march=x86-64 -g -Og
#
# seed -1567763427  1553838547  2110249901  1488727517  1880064097  -370812841 -1151875057 -1852747170   601590490  -550824563   579210454 -2128193422
#
#      Author: C. J. Pickard (cjp20@cam.ac.uk)
#                Space group: Cm
#

%BLOCK LATTICE_ABC
      4.14678      6.44144      6.44144
     75.78026     77.12425     77.12425
%ENDBLOCK LATTICE_ABC

%BLOCK POSITIONS_FRAC
  Li   0.1766186  -0.1462318   0.4012162 SPIN=   0.00000
  Li   0.1766186   0.4012162  -0.1462318 SPIN=   0.00000
   O  -0.1108587  -0.3594788   0.0254658 SPIN=   0.00000
   O  -0.4006560  -0.6735313   0.0129278 SPIN=   0.00000
   O  -0.6883845  -0.4258157   0.2620458 SPIN=   0.00000
   P  -0.4453616  -0.4311344   0.0371180 SPIN=   0.00000
   O  -0.1108587   0.0254658  -0.3594788 SPIN=   0.00000
   O  -0.4006560   0.0129278  -0.6735313 SPIN=   0.00000
   O  -0.6883845   0.2620458  -0.4258157 SPIN=   0.00000
   P  -0.4453616   0.0371180  -0.4311344 SPIN=   0.00000
   O   0.0611327   0.2257443   0.2257443 SPIN=   0.00000
   O   0.2988392  -0.0493468  -0.0493468 SPIN=   0.00000
  Fe  -0.2241696  -0.0160712  -0.0160712 SPIN=   6.85918
  Fe  -0.1899293   0.4369449   0.4369449 SPIN=   1.14082
%ENDBLOCK POSITIONS_FRAC

# Note: total spin =   8.00

KPOINTS_MP_SPACING 0.07

%BLOCK SPECIES_POT
QC5
%ENDBLOCK SPECIES_POT

%BLOCK HUBBARD_U
Fe d:4.0
%ENDBLOCK HUBBARD_U

SNAP_TO_SYMMETRY
SYMMETRY_GENERATE

