#              Generated by Buildcell
#
# at 09:38:56 (GMT+0.0) 24th November 2020
# in /lustre/scratch/uccabz1/launch_tmp
# on node-c12h-023
# by uccabz1
#
# compiler GCC version 4.9.2
# options -cpp -iprefix /lustre/shared/ucl/apps/gcc/4.9.2/bin/../lib/gcc/x86_64-unknown-linux-gnu/4.9.2/ -mtune=corei7 -march=x86-64 -g -Og
#
# seed  2127560767   381191689  1610157254 -1748938225      -27430  -448318797  1366592979   751448242   356596116 -1873872879 -1463241617  1001360477
#
#      Author: C. J. Pickard (cjp20@cam.ac.uk)
#                Space group: Pc
#

%BLOCK LATTICE_ABC
      4.25134      5.04657      7.45758
     90.00000     90.08632     90.00000
%ENDBLOCK LATTICE_ABC

%BLOCK POSITIONS_FRAC
  Li   0.0922687  -0.3246512   0.3659778 SPIN=   0.00000
  Li   0.0922687   0.3246512  -0.1340222 SPIN=   0.00000
   O  -0.0671768   0.1180138  -0.5155292 SPIN=   0.00000
   O  -0.4096491   0.2325037  -0.2378845 SPIN=   0.00000
   O  -0.1061201   0.5918726  -0.3812076 SPIN=   0.00000
   O  -0.5725858   0.3997802  -0.5402334 SPIN=   0.00000
   P  -0.2804262   0.3247183  -0.4253027 SPIN=   0.00000
   O  -0.0671768  -0.1180138  -0.0155292 SPIN=   0.00000
   O  -0.4096491  -0.2325037   0.2621155 SPIN=   0.00000
   O  -0.1061201  -0.5918726   0.1187924 SPIN=   0.00000
   O  -0.5725858  -0.3997802  -0.0402334 SPIN=   0.00000
   P  -0.2804262  -0.3247183   0.0746973 SPIN=   0.00000
  Fe  -0.4742561  -0.1752786  -0.2795998 SPIN=   4.00000
  Fe  -0.4742561   0.1752786   0.2204002 SPIN=   4.00000
%ENDBLOCK POSITIONS_FRAC

# Note: total spin =   8.00

KPOINTS_MP_SPACING 0.07

%BLOCK SPECIES_POT
QC5
%ENDBLOCK SPECIES_POT

%BLOCK HUBBARD_U
Fe d:4.0
%ENDBLOCK HUBBARD_U

SNAP_TO_SYMMETRY
SYMMETRY_GENERATE

