#              Generated by Buildcell
#
# at 12:16:28 (GMT+0.0) 26th November 2020
# in /lustre/scratch/uccabz1/launch_tmp
# on node-c12n-022
# by uccabz1
#
# compiler GCC version 4.9.2
# options -cpp -iprefix /lustre/shared/ucl/apps/gcc/4.9.2/bin/../lib/gcc/x86_64-unknown-linux-gnu/4.9.2/ -mtune=corei7 -march=x86-64 -g -Og
#
# seed  1254936965 -1587502247  1575654765  -433966167   -47637172   568288758   172816939  1986847614  1536874829   619623205  1256117047  1643517634
#
#      Author: C. J. Pickard (cjp20@cam.ac.uk)
#                Space group: P2
#

%BLOCK LATTICE_ABC
      4.22283      4.97022     15.27187
     93.30066     90.00000     90.00000
%ENDBLOCK LATTICE_ABC

%BLOCK POSITIONS_FRAC
  Li   0.1023117   0.2875037  -0.4178338 SPIN=   0.00000
  Li   0.1023117  -0.2875037   0.4178338 SPIN=   0.00000
  Li  -0.3966121   0.2429535   0.4416759 SPIN=   0.00000
  Li  -0.3966121  -0.2429535  -0.4416759 SPIN=   0.00000
   O  -0.0463927   0.4357985  -0.2385174 SPIN=   0.00000
   O  -0.5152005   0.4649417  -0.3477329 SPIN=   0.00000
   O  -0.2065916   0.0425637  -0.3491087 SPIN=   0.00000
   O  -0.5632404   0.1654545  -0.2220196 SPIN=   0.00000
   P  -0.3203223   0.2843162  -0.2858438 SPIN=   0.00000
   O  -0.0463927  -0.4357985   0.2385174 SPIN=   0.00000
   O  -0.5152005  -0.4649417   0.3477329 SPIN=   0.00000
   O  -0.2065916  -0.0425637   0.3491087 SPIN=   0.00000
   O  -0.5632404  -0.1654545   0.2220196 SPIN=   0.00000
   P  -0.3203223  -0.2843162   0.2858438 SPIN=   0.00000
   O   0.0698406   0.5316335   0.0803778 SPIN=   0.00000
   O   0.4506340   0.3352392   0.1940979 SPIN=   0.00000
   O   0.0913836   0.0230088   0.1107956 SPIN=   0.00000
   O   0.5463645   0.2304280   0.0339225 SPIN=   0.00000
   P   0.2808876   0.2928856   0.1026618 SPIN=   0.00000
   O   0.0698406  -0.5316335  -0.0803778 SPIN=   0.00000
   O   0.4506340  -0.3352392  -0.1940979 SPIN=   0.00000
   O   0.0913836  -0.0230088  -0.1107956 SPIN=   0.00000
   O   0.5463645  -0.2304280  -0.0339225 SPIN=   0.00000
   P   0.2808876  -0.2928856  -0.1026618 SPIN=   0.00000
  Fe   0.1064819   0.1881714   0.2774199 SPIN=   4.47940
  Fe   0.1064819  -0.1881714  -0.2774199 SPIN=   4.47940
  Fe  -0.3449481  -0.2326825   0.0991630 SPIN=   3.52060
  Fe  -0.3449481   0.2326825  -0.0991630 SPIN=   3.52060
%ENDBLOCK POSITIONS_FRAC

# Note: total spin =  16.00

KPOINTS_MP_SPACING 0.07

%BLOCK SPECIES_POT
QC5
%ENDBLOCK SPECIES_POT

%BLOCK HUBBARD_U
Fe d:4.0
%ENDBLOCK HUBBARD_U

SNAP_TO_SYMMETRY
SYMMETRY_GENERATE

