#              Generated by Buildcell
#
# at 08:27:56 (GMT+0.0) 24th November 2020
# in /lustre/scratch/uccabz1/launch_tmp
# on node-c12c-030
# by uccabz1
#
# compiler GCC version 4.9.2
# options -cpp -iprefix /lustre/shared/ucl/apps/gcc/4.9.2/bin/../lib/gcc/x86_64-unknown-linux-gnu/4.9.2/ -mtune=corei7 -march=x86-64 -g -Og
#
# seed  1162452507  -862372927   848736007 -1583659558  -867052152 -1396993961   468477781  -998771371 -1768263758 -1522169161   405144505  1338958395
#
#      Author: C. J. Pickard (cjp20@cam.ac.uk)
#                Space group: P-1
#

%BLOCK LATTICE_ABC
      3.90765      6.41187      6.43119
     83.52540     87.89583     89.67688
%ENDBLOCK LATTICE_ABC

%BLOCK POSITIONS_FRAC
  Li  -0.2798351   0.4100019  -0.2503906 SPIN=   0.00000
  Li   0.2798351  -0.4100019   0.2503906 SPIN=   0.00000
   O  -0.2544841  -0.2602804   0.7058362 SPIN=   0.00000
   O   0.1021242  -0.1333437   0.3667214 SPIN=   0.00000
   O  -0.2315377  -0.4605217   0.3761767 SPIN=   0.00000
   P  -0.2353808  -0.2418469   0.4652116 SPIN=   0.00000
   O   0.2544841   0.2602804  -0.7058362 SPIN=   0.00000
   O  -0.1021242   0.1333437  -0.3667214 SPIN=   0.00000
   O   0.2315377   0.4605217  -0.3761767 SPIN=   0.00000
   P   0.2353808   0.2418469  -0.4652116 SPIN=   0.00000
   O   0.0000000  -0.5000000   0.0000000 SPIN=   0.00000
   O  -0.0000000   0.0000000  -0.0000000 SPIN=   0.00000
  Fe   0.2441725  -0.1638531  -0.2274030 SPIN=   4.00000
  Fe  -0.2441725   0.1638531   0.2274030 SPIN=   4.00000
%ENDBLOCK POSITIONS_FRAC

# Note: total spin =   8.00

KPOINTS_MP_SPACING 0.07

%BLOCK SPECIES_POT
QC5
%ENDBLOCK SPECIES_POT

%BLOCK HUBBARD_U
Fe d:4.0
%ENDBLOCK HUBBARD_U

SNAP_TO_SYMMETRY
SYMMETRY_GENERATE

