#              Generated by Buildcell
#
# at 08:14:33 (GMT+0.0) 24th November 2020
# in /lustre/scratch/uccabz1/launch_tmp
# on node-c12d-031
# by uccabz1
#
# compiler GCC version 4.9.2
# options -cpp -iprefix /lustre/shared/ucl/apps/gcc/4.9.2/bin/../lib/gcc/x86_64-unknown-linux-gnu/4.9.2/ -mtune=corei7 -march=x86-64 -g -Og
#
# seed  1357661574   180062145  -199206523  1269381535 -1778626084  -369009530  -208804908   954414619  -941433126  1410085276  1860799784   650898109
#
#      Author: C. J. Pickard (cjp20@cam.ac.uk)
#                Space group: P21
#

%BLOCK LATTICE_ABC
      4.99287      5.64887      5.70550
     90.00000     96.12437     90.00000
%ENDBLOCK LATTICE_ABC

%BLOCK POSITIONS_FRAC
  Li   0.1990160  -0.2331876  -0.4127710 SPIN=   0.00000
  Li  -0.1990160   0.2668124   0.4127710 SPIN=   0.00000
   O  -0.3253525   0.5343247   0.0773774 SPIN=   0.00000
   O  -0.0711589   0.2802698  -0.2073828 SPIN=   0.00000
   O  -0.5503510   0.3737918  -0.3227943 SPIN=   0.00000
   O  -0.2047264   0.6951680  -0.3219313 SPIN=   0.00000
   P  -0.2889100   0.4769129  -0.1807636 SPIN=   0.00000
   O   0.3253525   0.0343247  -0.0773774 SPIN=   0.00000
   O   0.0711589  -0.2197302   0.2073828 SPIN=   0.00000
   O   0.5503510  -0.1262082   0.3227943 SPIN=   0.00000
   O   0.2047264   0.1951680   0.3219313 SPIN=   0.00000
   P   0.2889100  -0.0230871   0.1807636 SPIN=   0.00000
  Fe   0.2615036   0.4767547   0.0927726 SPIN=   4.00000
  Fe  -0.2615036  -0.0232453  -0.0927726 SPIN=   4.00000
%ENDBLOCK POSITIONS_FRAC

# Note: total spin =   8.00

KPOINTS_MP_SPACING 0.07

%BLOCK SPECIES_POT
QC5
%ENDBLOCK SPECIES_POT

%BLOCK HUBBARD_U
Fe d:4.0
%ENDBLOCK HUBBARD_U

SNAP_TO_SYMMETRY
SYMMETRY_GENERATE

