#              Generated by Buildcell
#
# at 12:13:50 (GMT+0.0) 24th November 2020
# in /scratch/scratch/uccabz1/launch_tmp
# on node-a14f-017
# by uccabz1
#
# compiler GCC version 4.9.2
# options -cpp -iprefix /scratch/UCL/applications/gcc/4.9.2/bin/../lib/gcc/x86_64-unknown-linux-gnu/4.9.2/ -mtune=corei7 -march=x86-64 -g -O2
#
# seed  -601339151  2083665280  -389364824  1849929082  -425039691 -2028172237  1100996561   457734559 -1447333684   177871774   782792118   825939425
#
#      Author: C. J. Pickard (cjp20@cam.ac.uk)
#                Space group: P-1
#

%BLOCK LATTICE_ABC
      5.03348      5.21905      6.52435
     93.51783    101.44384    106.28017
%ENDBLOCK LATTICE_ABC

%BLOCK POSITIONS_FRAC
  Li  -0.3013371  -0.3357887   0.1963229 SPIN=   0.00000
  Li   0.3013371   0.3357887  -0.1963229 SPIN=   0.00000
   O  -0.2162101   0.0145487   0.0486414 SPIN=   0.00000
   O  -0.5077413   0.0505130  -0.3188213 SPIN=   0.00000
   O  -0.2529409   0.4687089  -0.0771295 SPIN=   0.00000
   P  -0.2340801   0.1791505  -0.1384599 SPIN=   0.00000
   O   0.2162101  -0.0145487  -0.0486414 SPIN=   0.00000
   O   0.5077413  -0.0505130   0.3188213 SPIN=   0.00000
   O   0.2529409  -0.4687089   0.0771295 SPIN=   0.00000
   P   0.2340801  -0.1791505   0.1384599 SPIN=   0.00000
   O   0.5000000   0.5000000  -0.5000000 SPIN=   0.00000
   O   0.0000000   0.0000000  -0.5000000 SPIN=   0.00000
  Fe   0.1094578   0.2835761   0.2942147 SPIN=   4.00000
  Fe  -0.1094578  -0.2835761  -0.2942147 SPIN=   4.00000
%ENDBLOCK POSITIONS_FRAC

# Note: total spin =   8.00

KPOINTS_MP_SPACING 0.07

%BLOCK SPECIES_POT
QC5
%ENDBLOCK SPECIES_POT

%BLOCK HUBBARD_U
Fe d:4.0
%ENDBLOCK HUBBARD_U

SNAP_TO_SYMMETRY
SYMMETRY_GENERATE

