#              Generated by Buildcell
#
# at 08:02:26 (GMT+0.0) 24th November 2020
# in /lustre/scratch/uccabz1/launch_tmp
# on node-c12i-027
# by uccabz1
#
# compiler GCC version 4.9.2
# options -cpp -iprefix /lustre/shared/ucl/apps/gcc/4.9.2/bin/../lib/gcc/x86_64-unknown-linux-gnu/4.9.2/ -mtune=corei7 -march=x86-64 -g -Og
#
# seed -1518916364  1437706604  -940759021 -1408707190 -1288518163   -64181546 -1067236108  1359605503 -1993616642 -1684104389 -1945341038  -907375527
#
#      Author: C. J. Pickard (cjp20@cam.ac.uk)
#                Space group: Cm
#

%BLOCK LATTICE_ABC
      5.03489      6.14581      6.48351
    117.46216    111.88021     91.88829
%ENDBLOCK LATTICE_ABC

%BLOCK POSITIONS_FRAC
  Li  -0.1587502   0.2627343   0.0000000 SPIN=   0.00000
  Li  -0.2507684  -0.2508767   0.0000000 SPIN=   0.00000
   O  -0.1023670  -0.0935913  -0.2847114 SPIN=   0.00000
   O   0.0385219  -0.3593281  -0.6584682 SPIN=   0.00000
   O   0.4027487   0.0300508  -0.2744709 SPIN=   0.00000
   O   0.2920552  -0.3480384  -0.2387006 SPIN=   0.00000
   P   0.1454754  -0.1892812  -0.3583817 SPIN=   0.00000
   O  -0.8176555   0.1911202   0.2847114 SPIN=   0.00000
   O  -0.3030100   0.2991400   0.6584682 SPIN=   0.00000
   O  -0.3227804   0.3045217   0.2744709 SPIN=   0.00000
   O  -0.4692441  -0.1093378   0.2387006 SPIN=   0.00000
   P  -0.4961429   0.1691006   0.3583817 SPIN=   0.00000
  Fe  -0.4873496   0.6457954   0.3786820 SPIN=   4.00000
  Fe   0.1339684  -0.7328866  -0.3786820 SPIN=   4.00000
%ENDBLOCK POSITIONS_FRAC

# Note: total spin =   8.00

KPOINTS_MP_SPACING 0.07

%BLOCK SPECIES_POT
QC5
%ENDBLOCK SPECIES_POT

%BLOCK HUBBARD_U
Fe d:4.0
%ENDBLOCK HUBBARD_U

SNAP_TO_SYMMETRY
SYMMETRY_GENERATE

