#              Generated by Buildcell
#
# at 09:43:25 (GMT+0.0) 24th November 2020
# in /lustre/scratch/uccabz1/launch_tmp
# on node-c12o-023
# by uccabz1
#
# compiler GCC version 4.9.2
# options -cpp -iprefix /lustre/shared/ucl/apps/gcc/4.9.2/bin/../lib/gcc/x86_64-unknown-linux-gnu/4.9.2/ -mtune=corei7 -march=x86-64 -g -Og
#
# seed  -313241954  1113692875  1787483266 -1075190754   447738695  1439761901 -1474671946  1216078621 -1112867060  1143262697 -1307648541  -239651256
#
#      Author: C. J. Pickard (cjp20@cam.ac.uk)
#                Space group: Pm
#

%BLOCK LATTICE_ABC
      4.04598      4.93225      8.75563
     90.00000     90.00000    113.69138
%ENDBLOCK LATTICE_ABC

%BLOCK POSITIONS_FRAC
  Li  -0.4373051  -0.3424350  -0.2804787 SPIN=   0.00000
  Li  -0.4373051  -0.3424350   0.2804787 SPIN=   0.00000
   O   0.4393178   0.2157580   0.3572402 SPIN=   0.00000
   O   0.0909269  -0.2839545   0.2182856 SPIN=   0.00000
   O  -0.1304740   0.1129461   0.1910397 SPIN=   0.00000
   P   0.2265397   0.0628481   0.2138367 SPIN=   0.00000
   O   0.4393178   0.2157580  -0.3572402 SPIN=   0.00000
   O   0.0909269  -0.2839545  -0.2182856 SPIN=   0.00000
   O  -0.1304740   0.1129461  -0.1910397 SPIN=   0.00000
   P   0.2265397   0.0628481  -0.2138367 SPIN=   0.00000
   O   0.1461571  -0.2679410   0.5000000 SPIN=   0.00000
   O  -0.5347101  -0.4818992   0.0000000 SPIN=   0.00000
  Fe  -0.0963543   0.3923752   0.0000000 SPIN=   1.61264
  Fe  -0.1266387   0.2552790  -0.5000000 SPIN=   6.38736
%ENDBLOCK POSITIONS_FRAC

# Note: total spin =   8.00

KPOINTS_MP_SPACING 0.07

%BLOCK SPECIES_POT
QC5
%ENDBLOCK SPECIES_POT

%BLOCK HUBBARD_U
Fe d:4.0
%ENDBLOCK HUBBARD_U

SNAP_TO_SYMMETRY
SYMMETRY_GENERATE

