#              Generated by Buildcell
#
# at 19:01:41 (GMT+0.0) 26th November 2020
# in /lustre/scratch/uccabz1/launch_tmp
# on node-c12d-028
# by uccabz1
#
# compiler GCC version 4.9.2
# options -cpp -iprefix /lustre/shared/ucl/apps/gcc/4.9.2/bin/../lib/gcc/x86_64-unknown-linux-gnu/4.9.2/ -mtune=corei7 -march=x86-64 -g -Og
#
# seed  1727116995   908689732 -1737587977  -871113610  -504750361 -1675521416  1670587928 -1390809059  -650840699  1595120991 -1757201152  1476226035
#
#      Author: C. J. Pickard (cjp20@cam.ac.uk)
#                Space group: Cm
#

%BLOCK LATTICE_ABC
      7.45819      7.45819      7.66447
    114.01825    118.41634     95.31771
%ENDBLOCK LATTICE_ABC

%BLOCK POSITIONS_FRAC
  Li   0.6489182  -0.2280863   0.4208319 SPIN=   0.00000
  Li   0.0348729  -0.3045858  -0.2697129 SPIN=   0.00000
  Li  -0.6304785   0.4865908  -0.1438877 SPIN=   0.00000
  Li  -0.2199169   0.3929368   0.1730200 SPIN=   0.00000
   O  -0.3562427  -0.5323361  -0.4950170 SPIN=   0.00000
   O  -0.3292285  -0.5334126  -0.1447724 SPIN=   0.00000
   O  -0.2686503  -0.1957783  -0.1319832 SPIN=   0.00000
   O  -0.6446075  -0.4684696  -0.4046329 SPIN=   0.00000
   P  -0.4002597  -0.4382395  -0.3061035 SPIN=   0.00000
   O   0.0373191  -0.1387743  -0.4950170 SPIN=   0.00000
   O   0.3886403   0.1844562  -0.1447724 SPIN=   0.00000
   O   0.0637952   0.1366672  -0.1319832 SPIN=   0.00000
   O   0.0638367   0.2399746  -0.4046329 SPIN=   0.00000
   P   0.1321360   0.0941562  -0.3061035 SPIN=   0.00000
   O   0.5814084   0.0676018   0.4041975 SPIN=   0.00000
   O   0.7569619   0.1208505   0.1981005 SPIN=   0.00000
   O   0.6419659  -0.2327181   0.1369352 SPIN=   0.00000
   O   0.3587526  -0.0902432  -0.0382516 SPIN=   0.00000
   P   0.5819258  -0.0289054   0.1849165 SPIN=   0.00000
   O   0.3365957  -0.1772109   0.4041975 SPIN=   0.00000
   O   0.0772500  -0.5588614   0.1981005 SPIN=   0.00000
   O   0.3696533  -0.5050307   0.1369352 SPIN=   0.00000
   O   0.0519916  -0.3970042  -0.0382516 SPIN=   0.00000
   P   0.2138219  -0.3970094   0.1849165 SPIN=   0.00000
  Fe  -0.0480093  -0.1412183   0.2005750 SPIN=   6.50528
  Fe   0.3417933   0.2485843   0.2005750 SPIN=   6.50528
  Fe  -0.1623368   0.2903484  -0.2563229 SPIN=   1.49472
  Fe  -0.5466714  -0.0939861  -0.2563229 SPIN=   1.49472
%ENDBLOCK POSITIONS_FRAC

# Note: total spin =  16.00

KPOINTS_MP_SPACING 0.07

%BLOCK SPECIES_POT
QC5
%ENDBLOCK SPECIES_POT

%BLOCK HUBBARD_U
Fe d:4.0
%ENDBLOCK HUBBARD_U

SNAP_TO_SYMMETRY
SYMMETRY_GENERATE

