#              Generated by Buildcell
#
# at 07:34:40 (GMT+0.0) 24th November 2020
# in /lustre/scratch/uccabz1/launch_tmp
# on node-c12p-031
# by uccabz1
#
# compiler GCC version 4.9.2
# options -cpp -iprefix /lustre/shared/ucl/apps/gcc/4.9.2/bin/../lib/gcc/x86_64-unknown-linux-gnu/4.9.2/ -mtune=corei7 -march=x86-64 -g -Og
#
# seed  2092633329  1273473555  -687763727 -1407927746   861260222 -1300631112  1432525169 -1171346585 -1828153590  1702954433    62558188  -187252152
#
#      Author: C. J. Pickard (cjp20@cam.ac.uk)
#                Space group: P-1
#

%BLOCK LATTICE_ABC
      3.91789      4.75893      8.60805
     85.85092     89.74189     88.23379
%ENDBLOCK LATTICE_ABC

%BLOCK POSITIONS_FRAC
  Li   0.2453644  -0.2534231   0.0027955 SPIN=   0.00000
  Li  -0.2453644   0.2534231  -0.0027955 SPIN=   0.00000
   O  -0.5567986   0.0251411  -0.1745782 SPIN=   0.00000
   O  -0.1525770  -0.4124478  -0.1996501 SPIN=   0.00000
   O  -0.5307164  -0.2602251  -0.4207216 SPIN=   0.00000
   O  -0.0366681   0.0347437  -0.3601177 SPIN=   0.00000
   P  -0.3285074  -0.1414835  -0.2835289 SPIN=   0.00000
   O   0.5567986  -0.0251411   0.1745782 SPIN=   0.00000
   O   0.1525770   0.4124478   0.1996501 SPIN=   0.00000
   O   0.5307164   0.2602251   0.4207216 SPIN=   0.00000
   O   0.0366681  -0.0347437   0.3601177 SPIN=   0.00000
   P   0.3285074   0.1414835   0.2835289 SPIN=   0.00000
  Fe   0.2528209   0.3802572  -0.3095624 SPIN=   4.00000
  Fe  -0.2528209  -0.3802572   0.3095624 SPIN=   4.00000
%ENDBLOCK POSITIONS_FRAC

# Note: total spin =   8.00

KPOINTS_MP_SPACING 0.07

%BLOCK SPECIES_POT
QC5
%ENDBLOCK SPECIES_POT

%BLOCK HUBBARD_U
Fe d:4.0
%ENDBLOCK HUBBARD_U

SNAP_TO_SYMMETRY
SYMMETRY_GENERATE

