#              Generated by Buildcell
#
# at 01:34:12 (GMT+0.0) 27th November 2020
# in /scratch/scratch/uccabz1/launch_tmp
# on node-k10c-005
# by uccabz1
#
# compiler GCC version 4.9.2
# options -cpp -iprefix /scratch/UCL/applications/gcc/4.9.2/bin/../lib/gcc/x86_64-unknown-linux-gnu/4.9.2/ -mtune=corei7 -march=x86-64 -g -O2
#
# seed  -933289956   356908446  -908643749  -995119463  -813383664   460561523   772854339 -1562616920  1374221175  1949757054  -941514960  1502373798
#
#      Author: C. J. Pickard (cjp20@cam.ac.uk)
#                Space group: C2
#

%BLOCK LATTICE_ABC
      5.04722      8.52298      8.52298
     68.39948     73.43703     73.43703
%ENDBLOCK LATTICE_ABC

%BLOCK POSITIONS_FRAC
  Li   0.3690180   0.2114838  -0.4341889 SPIN=   0.00000
  Li  -0.3690180   0.4341889  -0.2114838 SPIN=   0.00000
  Li   0.4866653   0.3448909   0.1779011 SPIN=   0.00000
  Li  -0.4866653  -0.1779011  -0.3448909 SPIN=   0.00000
   O   0.1359990   0.3766008   0.3765763 SPIN=   0.00000
   O  -0.2255507   0.2564588   0.6523128 SPIN=   0.00000
   O  -0.3763439   0.3755497   0.3727190 SPIN=   0.00000
   O  -0.0285071   0.0956350   0.4369404 SPIN=   0.00000
   P  -0.1086560   0.2792851   0.4549467 SPIN=   0.00000
   O  -0.1359990  -0.3765763  -0.3766008 SPIN=   0.00000
   O   0.2255507  -0.6523128  -0.2564588 SPIN=   0.00000
   O   0.3763439  -0.3727190  -0.3755497 SPIN=   0.00000
   O   0.0285071  -0.4369404  -0.0956350 SPIN=   0.00000
   P   0.1086560  -0.4549467  -0.2792851 SPIN=   0.00000
   O   0.4727145  -0.3979317  -0.0627085 SPIN=   0.00000
   O   0.6602211  -0.1777288   0.0002656 SPIN=   0.00000
   O   0.1919769  -0.0872644  -0.0777110 SPIN=   0.00000
   O   0.2547559  -0.3029551   0.2095917 SPIN=   0.00000
   P   0.3974054  -0.2505264   0.0153648 SPIN=   0.00000
   O  -0.4727145   0.0627085   0.3979317 SPIN=   0.00000
   O  -0.6602211  -0.0002656   0.1777288 SPIN=   0.00000
   O  -0.1919769   0.0777110   0.0872644 SPIN=   0.00000
   O  -0.2547559  -0.2095917   0.3029551 SPIN=   0.00000
   P  -0.3974054  -0.0153648   0.2505264 SPIN=   0.00000
  Fe  -0.1394384  -0.4036498   0.1852554 SPIN=   4.83434
  Fe   0.1394384  -0.1852554   0.4036498 SPIN=   4.83434
  Fe  -0.1370469  -0.0043355  -0.2133005 SPIN=   3.16566
  Fe   0.1370469   0.2133005   0.0043355 SPIN=   3.16566
%ENDBLOCK POSITIONS_FRAC

# Note: total spin =  16.00

KPOINTS_MP_SPACING 0.07

%BLOCK SPECIES_POT
QC5
%ENDBLOCK SPECIES_POT

%BLOCK HUBBARD_U
Fe d:4.0
%ENDBLOCK HUBBARD_U

SNAP_TO_SYMMETRY
SYMMETRY_GENERATE

