#              Generated by Buildcell
#
# at 00:56:05 (GMT+0.0) 27th November 2020
# in /lustre/scratch/uccabz1/launch_tmp
# on node-c12m-034
# by uccabz1
#
# compiler GCC version 4.9.2
# options -cpp -iprefix /lustre/shared/ucl/apps/gcc/4.9.2/bin/../lib/gcc/x86_64-unknown-linux-gnu/4.9.2/ -mtune=corei7 -march=x86-64 -g -Og
#
# seed    -1159461   584317958    94005648   172742654  2116658671  1123111787   981597369     8611434 -2001990036   417621743 -1449621516 -1920655887
#
#      Author: C. J. Pickard (cjp20@cam.ac.uk)
#                Space group: P2/c
#

%BLOCK LATTICE_ABC
      6.06893      6.21621      8.62314
    100.37085     90.00000     90.00000
%ENDBLOCK LATTICE_ABC

%BLOCK POSITIONS_FRAC
  Li  -0.1936621   0.2413380  -0.2583688 SPIN=   0.00000
  Li  -0.1936621  -0.2413380  -0.2416312 SPIN=   0.00000
  Li   0.1936621  -0.2413380   0.2583688 SPIN=   0.00000
  Li   0.1936621   0.2413380   0.2416312 SPIN=   0.00000
   O   0.1887746  -0.4438122   0.0317620 SPIN=   0.00000
   O   0.3466115  -0.0489067   0.0784423 SPIN=   0.00000
   O   0.5136134  -0.3252278  -0.1301564 SPIN=   0.00000
   O   0.1341179  -0.1855613  -0.1686168 SPIN=   0.00000
   P   0.2881741  -0.2603790  -0.0443745 SPIN=   0.00000
   O   0.1887746   0.4438122  -0.5317620 SPIN=   0.00000
   O   0.3466115   0.0489067  -0.5784423 SPIN=   0.00000
   O   0.5136134   0.3252278  -0.3698436 SPIN=   0.00000
   O   0.1341179   0.1855613  -0.3313832 SPIN=   0.00000
   P   0.2881741   0.2603790  -0.4556255 SPIN=   0.00000
   O  -0.1887746   0.4438122  -0.0317620 SPIN=   0.00000
   O  -0.3466115   0.0489067  -0.0784423 SPIN=   0.00000
   O  -0.5136134   0.3252278   0.1301564 SPIN=   0.00000
   O  -0.1341179   0.1855613   0.1686168 SPIN=   0.00000
   P  -0.2881741   0.2603790   0.0443745 SPIN=   0.00000
   O  -0.1887746  -0.4438122   0.5317620 SPIN=   0.00000
   O  -0.3466115  -0.0489067   0.5784423 SPIN=   0.00000
   O  -0.5136134  -0.3252278   0.3698436 SPIN=   0.00000
   O  -0.1341179  -0.1855613   0.3313832 SPIN=   0.00000
   P  -0.2881741  -0.2603790   0.4556255 SPIN=   0.00000
  Fe   0.3063232   0.2787762  -0.1187256 SPIN=   4.00000
  Fe   0.3063232  -0.2787762  -0.3812744 SPIN=   4.00000
  Fe  -0.3063232  -0.2787762   0.1187256 SPIN=   4.00000
  Fe  -0.3063232   0.2787762   0.3812744 SPIN=   4.00000
%ENDBLOCK POSITIONS_FRAC

# Note: total spin =  16.00

KPOINTS_MP_SPACING 0.07

%BLOCK SPECIES_POT
QC5
%ENDBLOCK SPECIES_POT

%BLOCK HUBBARD_U
Fe d:4.0
%ENDBLOCK HUBBARD_U

SNAP_TO_SYMMETRY
SYMMETRY_GENERATE

