#              Generated by Buildcell
#
# at 22:54:51 (GMT+0.0) 26th November 2020
# in /lustre/scratch/uccabz1/launch_tmp
# on node-c12c-024
# by uccabz1
#
# compiler GCC version 4.9.2
# options -cpp -iprefix /lustre/shared/ucl/apps/gcc/4.9.2/bin/../lib/gcc/x86_64-unknown-linux-gnu/4.9.2/ -mtune=corei7 -march=x86-64 -g -Og
#
# seed  1490787355  -313106499  -189577020   231427451   277497575  1145307244   230384500   993534849  -691354927  1689187322   782790456   476010039
#
#      Author: C. J. Pickard (cjp20@cam.ac.uk)
#                Space group: P-1
#

%BLOCK LATTICE_ABC
      4.15099      7.20455     10.98025
     77.11905     88.52762     89.33043
%ENDBLOCK LATTICE_ABC

%BLOCK POSITIONS_FRAC
  Li  -0.4221698  -0.1647845   0.3136696 SPIN=   0.00000
  Li   0.4221698   0.1647845  -0.3136696 SPIN=   0.00000
  Li   0.0000000   0.0000000  -0.5000000 SPIN=   0.00000
  Li  -0.5000000   0.5000000   0.0000000 SPIN=   0.00000
   O   0.0549799   0.4004701  -0.0781001 SPIN=   0.00000
   O  -0.4552761   0.2543619  -0.1510023 SPIN=   0.00000
   O   0.0073890   0.3307648  -0.2990981 SPIN=   0.00000
   O   0.0491363   0.0579218  -0.1134837 SPIN=   0.00000
   P  -0.0768453   0.2659170  -0.1554839 SPIN=   0.00000
   O  -0.0549799  -0.4004701   0.0781001 SPIN=   0.00000
   O   0.4552761  -0.2543619   0.1510023 SPIN=   0.00000
   O  -0.0073890  -0.3307648   0.2990981 SPIN=   0.00000
   O  -0.0491363  -0.0579218   0.1134837 SPIN=   0.00000
   P   0.0768453  -0.2659170   0.1554839 SPIN=   0.00000
   O  -0.6047536  -0.4266280  -0.2710747 SPIN=   0.00000
   O  -0.0987607  -0.2827272  -0.4006353 SPIN=   0.00000
   O  -0.5859941  -0.3320186  -0.5137177 SPIN=   0.00000
   O  -0.5843064  -0.0758033  -0.3925883 SPIN=   0.00000
   P  -0.4770782  -0.2847376  -0.3879094 SPIN=   0.00000
   O   0.6047536   0.4266280   0.2710747 SPIN=   0.00000
   O   0.0987607   0.2827272   0.4006353 SPIN=   0.00000
   O   0.5859941   0.3320186   0.5137177 SPIN=   0.00000
   O   0.5843064   0.0758033   0.3925883 SPIN=   0.00000
   P   0.4770782   0.2847376   0.3879094 SPIN=   0.00000
  Fe  -0.0107435   0.2630783   0.2123284 SPIN=   3.40957
  Fe   0.0107435  -0.2630783  -0.2123284 SPIN=   3.40957
  Fe   0.5000000  -0.0000000   0.0000000 SPIN=   6.56760
  Fe  -0.0000000  -0.5000000   0.5000000 SPIN=   2.61326
%ENDBLOCK POSITIONS_FRAC

# Note: total spin =  16.00

KPOINTS_MP_SPACING 0.07

%BLOCK SPECIES_POT
QC5
%ENDBLOCK SPECIES_POT

%BLOCK HUBBARD_U
Fe d:4.0
%ENDBLOCK HUBBARD_U

SNAP_TO_SYMMETRY
SYMMETRY_GENERATE

