#              Generated by Buildcell
#
# at 13:14:23 (GMT+0.0) 24th November 2020
# in /lustre/scratch/uccabz1/launch_tmp
# on node-c12n-028
# by uccabz1
#
# compiler GCC version 4.9.2
# options -cpp -iprefix /lustre/shared/ucl/apps/gcc/4.9.2/bin/../lib/gcc/x86_64-unknown-linux-gnu/4.9.2/ -mtune=corei7 -march=x86-64 -g -Og
#
# seed  1504960972   733423343  1868505888  1820013032  -194045463  -136877105 -1879833692 -1237680129  2023200364  1678937841  -123568584  1321857953
#
#      Author: C. J. Pickard (cjp20@cam.ac.uk)
#                Space group: Cc
#

%BLOCK LATTICE_ABC
      4.81594      4.81594      7.96149
     73.99097     73.99097     66.62327
%ENDBLOCK LATTICE_ABC

%BLOCK POSITIONS_FRAC
  Li  -0.0876883   0.2905480   0.1217262 SPIN=   0.00000
  Li   0.2905480  -0.0876883  -0.3782738 SPIN=   0.00000
   O  -0.3960940   0.1222395   0.3275159 SPIN=   0.00000
   O   0.0544973   0.1871318   0.4134609 SPIN=   0.00000
   O  -0.4785369   0.4868841   0.5379177 SPIN=   0.00000
   O  -0.2726114  -0.0838941   0.6441350 SPIN=   0.00000
   P  -0.2797237   0.1720248   0.4745260 SPIN=   0.00000
   O   0.1222395  -0.3960940  -0.1724841 SPIN=   0.00000
   O   0.1871318   0.0544973  -0.0865391 SPIN=   0.00000
   O   0.4868841  -0.4785369   0.0379177 SPIN=   0.00000
   O  -0.0838941  -0.2726114   0.1441350 SPIN=   0.00000
   P   0.1720248  -0.2797237  -0.0254740 SPIN=   0.00000
  Fe  -0.4139918   0.1689392  -0.1511808 SPIN=   4.00000
  Fe   0.1689392  -0.4139918   0.3488192 SPIN=   4.00000
%ENDBLOCK POSITIONS_FRAC

# Note: total spin =   8.00

KPOINTS_MP_SPACING 0.07

%BLOCK SPECIES_POT
QC5
%ENDBLOCK SPECIES_POT

%BLOCK HUBBARD_U
Fe d:4.0
%ENDBLOCK HUBBARD_U

SNAP_TO_SYMMETRY
SYMMETRY_GENERATE

