#              Generated by Buildcell
#
# at 09:34:33 (GMT+0.0) 1st December 2020
# in /lustre/scratch/uccabz1/launch_tmp
# on node-c12d-020
# by uccabz1
#
# compiler GCC version 4.9.2
# options -cpp -iprefix /lustre/shared/ucl/apps/gcc/4.9.2/bin/../lib/gcc/x86_64-unknown-linux-gnu/4.9.2/ -mtune=corei7 -march=x86-64 -g -Og
#
# seed  -931988029  -592492605   381672958   974568084  1857174950  1255640446  2076025225 -2122836176 -2064731176  1612948552    43433215  1219514030
#
#      Author: C. J. Pickard (cjp20@cam.ac.uk)
#                Space group: P-1
#

%BLOCK LATTICE_ABC
      7.17452      7.57713      7.70944
    116.50279     94.17038    115.45279
%ENDBLOCK LATTICE_ABC

%BLOCK POSITIONS_FRAC
  Li  -0.2555679  -0.4197714   0.0534681 SPIN=   0.00000
  Li   0.2555679   0.4197714  -0.0534681 SPIN=   0.00000
  Li   0.5000000   0.5000000   0.5000000 SPIN=   0.00000
  Li  -0.0000000  -0.0000000   0.0000000 SPIN=   0.00000
   O   0.1406437   0.6633286   0.2749586 SPIN=   0.00000
   O  -0.0517411   0.2382292  -0.0295437 SPIN=   0.00000
   O   0.1941136   0.3519293   0.2903582 SPIN=   0.00000
   O  -0.1657333   0.3280026   0.2839691 SPIN=   0.00000
   P   0.0329463   0.4088447   0.2095966 SPIN=   0.00000
   O  -0.1406437  -0.6633286  -0.2749586 SPIN=   0.00000
   O   0.0517411  -0.2382292   0.0295437 SPIN=   0.00000
   O  -0.1941136  -0.3519293  -0.2903582 SPIN=   0.00000
   O   0.1657333  -0.3280026  -0.2839691 SPIN=   0.00000
   P  -0.0329463  -0.4088447  -0.2095966 SPIN=   0.00000
   O  -0.4287333  -0.4558142   0.2566363 SPIN=   0.00000
   O  -0.1684386  -0.0409194   0.5717408 SPIN=   0.00000
   O  -0.3001480  -0.0883116   0.2399790 SPIN=   0.00000
   P  -0.3702187  -0.2033116   0.3691398 SPIN=   0.00000
   O   0.4287333   0.4558142  -0.2566363 SPIN=   0.00000
   O   0.1684386   0.0409194  -0.5717408 SPIN=   0.00000
   O   0.3001480   0.0883116  -0.2399790 SPIN=   0.00000
   P   0.3702187   0.2033116  -0.3691398 SPIN=   0.00000
   O   0.5000000   0.0000000   0.5000000 SPIN=   0.00000
   O   0.5000000   0.0000000  -0.0000000 SPIN=   0.00000
  Fe   0.0094189  -0.2309915  -0.4706373 SPIN=   4.09695
  Fe  -0.0094189   0.2309915   0.4706373 SPIN=   4.09695
  Fe  -0.3735741   0.0419893  -0.2228686 SPIN=   3.90305
  Fe   0.3735741  -0.0419893   0.2228686 SPIN=   3.90305
%ENDBLOCK POSITIONS_FRAC

# Note: total spin =  16.00

KPOINTS_MP_SPACING 0.07

%BLOCK SPECIES_POT
QC5
%ENDBLOCK SPECIES_POT

%BLOCK HUBBARD_U
Fe d:4.0
%ENDBLOCK HUBBARD_U

SNAP_TO_SYMMETRY
SYMMETRY_GENERATE

