#              Generated by Buildcell
#
# at 14:26:50 (GMT+0.0) 24th November 2020
# in /lustre/scratch/uccabz1/launch_tmp
# on node-c12g-025
# by uccabz1
#
# compiler GCC version 4.9.2
# options -cpp -iprefix /lustre/shared/ucl/apps/gcc/4.9.2/bin/../lib/gcc/x86_64-unknown-linux-gnu/4.9.2/ -mtune=corei7 -march=x86-64 -g -Og
#
# seed   728375536   442855857  2055278538  2011557377  1585700814  -303229453  1600912577   161505436 -1463357280 -1759992908   717243286  -634045529
#
#      Author: C. J. Pickard (cjp20@cam.ac.uk)
#                Space group: Pm
#

%BLOCK LATTICE_ABC
      3.91916      5.22628      8.06109
     90.00000     90.00000    104.29494
%ENDBLOCK LATTICE_ABC

%BLOCK POSITIONS_FRAC
  Li   0.1327304   0.4904435   0.2870639 SPIN=   0.00000
  Li   0.1327304   0.4904435  -0.2870639 SPIN=   0.00000
   O  -0.2058743   0.1551253  -0.1818486 SPIN=   0.00000
   O   0.2111189  -0.1589841  -0.1516247 SPIN=   0.00000
   O  -0.3336611  -0.3111528  -0.3156504 SPIN=   0.00000
   P  -0.0487896  -0.0535660  -0.2663949 SPIN=   0.00000
   O  -0.2058743   0.1551253   0.1818486 SPIN=   0.00000
   O   0.2111189  -0.1589841   0.1516247 SPIN=   0.00000
   O  -0.3336611  -0.3111528   0.3156504 SPIN=   0.00000
   P  -0.0487896  -0.0535660   0.2663949 SPIN=   0.00000
   O   0.1771419  -0.2750500  -0.5000000 SPIN=   0.00000
   O  -0.4386797  -0.4201811   0.0000000 SPIN=   0.00000
  Fe   0.4222036   0.1635232   0.0000000 SPIN=   6.48894
  Fe  -0.4949078   0.1031825   0.5000000 SPIN=   1.51106
%ENDBLOCK POSITIONS_FRAC

# Note: total spin =   8.00

KPOINTS_MP_SPACING 0.07

%BLOCK SPECIES_POT
QC5
%ENDBLOCK SPECIES_POT

%BLOCK HUBBARD_U
Fe d:4.0
%ENDBLOCK HUBBARD_U

SNAP_TO_SYMMETRY
SYMMETRY_GENERATE

