#              Generated by Buildcell
#
# at 08:26:48 (GMT+0.0) 24th November 2020
# in /scratch/scratch/uccabz1/launch_tmp
# on node-k10c-005
# by uccabz1
#
# compiler GCC version 4.9.2
# options -cpp -iprefix /scratch/UCL/applications/gcc/4.9.2/bin/../lib/gcc/x86_64-unknown-linux-gnu/4.9.2/ -mtune=corei7 -march=x86-64 -g -O2
#
# seed   759397508  1133620257  1876382666   546197881 -1029598860 -1372805952   760910177 -1516565699 -1862554593  1786383927  -725810594  1192286505
#
#      Author: C. J. Pickard (cjp20@cam.ac.uk)
#                Space group: P-1
#

%BLOCK LATTICE_ABC
      4.36242      5.51083      7.38692
     77.64501     79.62917     68.13053
%ENDBLOCK LATTICE_ABC

%BLOCK POSITIONS_FRAC
  Li   0.1169627  -0.2650542  -0.0677506 SPIN=   0.00000
  Li  -0.1169627   0.2650542   0.0677506 SPIN=   0.00000
   O   0.6356792   0.3682016   0.3287327 SPIN=   0.00000
   O   0.3656538   0.1684355   0.1402717 SPIN=   0.00000
   O   0.1606795   0.1851978   0.4732163 SPIN=   0.00000
   O   0.0348573   0.6060830   0.2430445 SPIN=   0.00000
   P   0.3140126   0.3371428   0.2974136 SPIN=   0.00000
   O  -0.6356792  -0.3682016  -0.3287327 SPIN=   0.00000
   O  -0.3656538  -0.1684355  -0.1402717 SPIN=   0.00000
   O  -0.1606795  -0.1851978  -0.4732163 SPIN=   0.00000
   O  -0.0348573  -0.6060830  -0.2430445 SPIN=   0.00000
   P  -0.3140126  -0.3371428  -0.2974136 SPIN=   0.00000
  Fe  -0.4843509  -0.2193175   0.2886555 SPIN=   4.00000
  Fe   0.4843509   0.2193175  -0.2886555 SPIN=   4.00000
%ENDBLOCK POSITIONS_FRAC

# Note: total spin =   8.00

KPOINTS_MP_SPACING 0.07

%BLOCK SPECIES_POT
QC5
%ENDBLOCK SPECIES_POT

%BLOCK HUBBARD_U
Fe d:4.0
%ENDBLOCK HUBBARD_U

SNAP_TO_SYMMETRY
SYMMETRY_GENERATE

