#              Generated by Buildcell
#
# at 18:17:19 (GMT+0.0) 26th November 2020
# in /lustre/scratch/uccabz1/launch_tmp
# on node-c12d-024
# by uccabz1
#
# compiler GCC version 4.9.2
# options -cpp -iprefix /lustre/shared/ucl/apps/gcc/4.9.2/bin/../lib/gcc/x86_64-unknown-linux-gnu/4.9.2/ -mtune=corei7 -march=x86-64 -g -Og
#
# seed -1663001708  1709435140   340047298 -1361358089   949293093  1974920025 -1967952251  -329625883  -493585736  1670867396   237581736   439283934
#
#      Author: C. J. Pickard (cjp20@cam.ac.uk)
#                Space group: Iba2
#

%BLOCK LATTICE_ABC
      6.31467      7.85235      7.85235
     70.91364     66.29124     66.29124
%ENDBLOCK LATTICE_ABC

%BLOCK POSITIONS_FRAC
  Li   0.0753111   0.0712751   0.1854682 SPIN=   0.00000
  Li   0.3320544  -0.0712751  -0.1854682 SPIN=   0.00000
  Li  -0.1679456  -0.1854682  -0.0712751 SPIN=   0.00000
  Li  -0.4246889   0.1854682   0.0712751 SPIN=   0.00000
   O  -0.1446879  -0.4243519   0.2098378 SPIN=   0.00000
   O  -0.1847118  -0.6813509   0.0943546 SPIN=   0.00000
   O  -0.5410627  -0.5151005   0.3318522 SPIN=   0.00000
   O  -0.4108219  -0.3396974  -0.0023546 SPIN=   0.00000
   P  -0.3120375  -0.4848479   0.1592628 SPIN=   0.00000
   O   0.6407980   0.4243519  -0.2098378 SPIN=   0.00000
   O   0.2282919   0.6813509  -0.0943546 SPIN=   0.00000
   O   0.2756890   0.5151005  -0.3318522 SPIN=   0.00000
   O   0.2471261   0.3396974   0.0023546 SPIN=   0.00000
   P   0.3623774   0.4848479  -0.1592628 SPIN=   0.00000
   O   0.1407980  -0.2098378   0.4243519 SPIN=   0.00000
   O  -0.2717081  -0.0943546   0.6813509 SPIN=   0.00000
   O  -0.2243110  -0.3318522   0.5151005 SPIN=   0.00000
   O  -0.2528739   0.0023546   0.3396974 SPIN=   0.00000
   P  -0.1376226  -0.1592628   0.4848479 SPIN=   0.00000
   O   0.3553121   0.2098378  -0.4243519 SPIN=   0.00000
   O   0.3152882   0.0943546  -0.6813509 SPIN=   0.00000
   O  -0.0410627   0.3318522  -0.5151005 SPIN=   0.00000
   O   0.0891781  -0.0023546  -0.3396974 SPIN=   0.00000
   P   0.1879625   0.1592628  -0.4848479 SPIN=   0.00000
  Fe  -0.3153009   0.2036965  -0.4124637 SPIN=   4.00000
  Fe   0.4759320  -0.2036965   0.4124637 SPIN=   4.00000
  Fe  -0.0240680   0.4124637  -0.2036965 SPIN=   4.00000
  Fe   0.1846991  -0.4124637   0.2036965 SPIN=   4.00000
%ENDBLOCK POSITIONS_FRAC

# Note: total spin =  16.00

KPOINTS_MP_SPACING 0.07

%BLOCK SPECIES_POT
QC5
%ENDBLOCK SPECIES_POT

%BLOCK HUBBARD_U
Fe d:4.0
%ENDBLOCK HUBBARD_U

SNAP_TO_SYMMETRY
SYMMETRY_GENERATE

