#              Generated by Buildcell
#
# at 12:27:29 (GMT+0.0) 24th November 2020
# in /lustre/scratch/uccabz1/launch_tmp
# on node-c12e-029
# by uccabz1
#
# compiler GCC version 4.9.2
# options -cpp -iprefix /lustre/shared/ucl/apps/gcc/4.9.2/bin/../lib/gcc/x86_64-unknown-linux-gnu/4.9.2/ -mtune=corei7 -march=x86-64 -g -Og
#
# seed   143761626  -529806026  1578446027   252003573   973601633 -1429928567   702172492 -1550803542  -666024994 -1630123341   292390077 -1807843107
#
#      Author: C. J. Pickard (cjp20@cam.ac.uk)
#                Space group: Cmc21
#

%BLOCK LATTICE_ABC
      5.32124      5.87933      5.87933
    119.55696     90.00000     90.00000
%ENDBLOCK LATTICE_ABC

%BLOCK POSITIONS_FRAC
  Li   0.1407758  -0.5726441  -0.4273559 SPIN=   0.00000
  Li  -0.3592242   0.5726441   0.4273559 SPIN=   0.00000
   O   0.3173622  -0.1986093  -0.2607474 SPIN=   0.00000
   O  -0.0466591  -0.0076163  -0.4096876 SPIN=   0.00000
   O  -0.1826378   0.1986093   0.2607474 SPIN=   0.00000
   O  -0.5466591   0.0076163   0.4096876 SPIN=   0.00000
   O  -0.1826378  -0.2607474  -0.1986093 SPIN=   0.00000
   O  -0.5466591  -0.4096876  -0.0076163 SPIN=   0.00000
   O   0.3173622   0.2607474   0.1986093 SPIN=   0.00000
   O  -0.0466591   0.4096876   0.0076163 SPIN=   0.00000
   P  -0.3599069  -0.1272231   0.1272231 SPIN=   0.00000
   P   0.1400931   0.1272231  -0.1272231 SPIN=   0.00000
  Fe   0.1400927  -0.2330778   0.2330778 SPIN=   4.00000
  Fe  -0.3599073   0.2330778  -0.2330778 SPIN=   4.00000
%ENDBLOCK POSITIONS_FRAC

# Note: total spin =   8.00

KPOINTS_MP_SPACING 0.07

%BLOCK SPECIES_POT
QC5
%ENDBLOCK SPECIES_POT

%BLOCK HUBBARD_U
Fe d:4.0
%ENDBLOCK HUBBARD_U

SNAP_TO_SYMMETRY
SYMMETRY_GENERATE

