#              Generated by Buildcell
#
# at 09:28:16 (GMT+0.0) 24th November 2020
# in /scratch/scratch/uccabz1/launch_tmp
# on node-a14f-030
# by uccabz1
#
# compiler GCC version 4.9.2
# options -cpp -iprefix /scratch/UCL/applications/gcc/4.9.2/bin/../lib/gcc/x86_64-unknown-linux-gnu/4.9.2/ -mtune=corei7 -march=x86-64 -g -O2
#
# seed -1229513754  1928953724  1568246747 -1574971856  -633958356 -1814550468  -605543154  -706439891  -824388790    53276723  1878007544 -1545128428
#
#      Author: C. J. Pickard (cjp20@cam.ac.uk)
#                Space group: P-1
#

%BLOCK LATTICE_ABC
      5.16508      5.67613      5.97138
     98.73446    112.04626     90.36514
%ENDBLOCK LATTICE_ABC

%BLOCK POSITIONS_FRAC
  Li   0.0935372  -0.2360434   0.0839650 SPIN=   0.00000
  Li  -0.0935372   0.2360434  -0.0839650 SPIN=   0.00000
   O   0.5391468   0.4471697  -0.2539431 SPIN=   0.00000
   O   0.3036412   0.1364610  -0.0994674 SPIN=   0.00000
   O   0.0203851   0.4521237  -0.2950289 SPIN=   0.00000
   O   0.1600652   0.1258258  -0.5509798 SPIN=   0.00000
   P   0.2697660   0.2968004  -0.3003738 SPIN=   0.00000
   O  -0.5391468  -0.4471697   0.2539431 SPIN=   0.00000
   O  -0.3036412  -0.1364610   0.0994674 SPIN=   0.00000
   O  -0.0203851  -0.4521237   0.2950289 SPIN=   0.00000
   O  -0.1600652  -0.1258258   0.5509798 SPIN=   0.00000
   P  -0.2697660  -0.2968004   0.3003738 SPIN=   0.00000
  Fe  -0.3926594   0.2134538   0.3156587 SPIN=   4.00000
  Fe   0.3926594  -0.2134538  -0.3156587 SPIN=   4.00000
%ENDBLOCK POSITIONS_FRAC

# Note: total spin =   8.00

KPOINTS_MP_SPACING 0.07

%BLOCK SPECIES_POT
QC5
%ENDBLOCK SPECIES_POT

%BLOCK HUBBARD_U
Fe d:4.0
%ENDBLOCK HUBBARD_U

SNAP_TO_SYMMETRY
SYMMETRY_GENERATE

