#              Generated by Buildcell
#
# at 11:10:51 (GMT+0.0) 24th November 2020
# in /lustre/scratch/uccabz1/launch_tmp
# on node-c12g-020
# by uccabz1
#
# compiler GCC version 4.9.2
# options -cpp -iprefix /lustre/shared/ucl/apps/gcc/4.9.2/bin/../lib/gcc/x86_64-unknown-linux-gnu/4.9.2/ -mtune=corei7 -march=x86-64 -g -Og
#
# seed    91043901  1165512430  1383367556 -1086845396    36817192  1663963205  -100936153 -1875649479   542052542     1628796   365719388 -1564327955
#
#      Author: C. J. Pickard (cjp20@cam.ac.uk)
#                Space group: C2
#

%BLOCK LATTICE_ABC
      5.31442      5.74327      5.88880
     93.61197    116.82272     90.00000
%ENDBLOCK LATTICE_ABC

%BLOCK POSITIONS_FRAC
  Li  -0.2571152  -0.0155971   0.3653390 SPIN=   0.00000
  Li   0.3775458   0.0155971  -0.3653390 SPIN=   0.00000
   O   0.1388858   0.2807671  -0.2789129 SPIN=   0.00000
   O  -0.1535615   0.6384705  -0.2632565 SPIN=   0.00000
   O  -0.3817526   0.3303713  -0.6112011 SPIN=   0.00000
   O  -0.2746321   0.2484797  -0.1644145 SPIN=   0.00000
   P  -0.1526986   0.3680428  -0.3248080 SPIN=   0.00000
   O   0.4177987  -0.2807671   0.2789129 SPIN=   0.00000
   O   0.1096950  -0.6384705   0.2632565 SPIN=   0.00000
   O   0.2294486  -0.3303713   0.6112011 SPIN=   0.00000
   O  -0.1102176  -0.2484797   0.1644145 SPIN=   0.00000
   P   0.1721095  -0.3680428   0.3248080 SPIN=   0.00000
  Fe   0.0605285   0.0000000   0.0000000 SPIN=   0.50753
  Fe  -0.4407227  -0.5000000   0.0000000 SPIN=   7.49247
%ENDBLOCK POSITIONS_FRAC

# Note: total spin =   8.00

KPOINTS_MP_SPACING 0.07

%BLOCK SPECIES_POT
QC5
%ENDBLOCK SPECIES_POT

%BLOCK HUBBARD_U
Fe d:4.0
%ENDBLOCK HUBBARD_U

SNAP_TO_SYMMETRY
SYMMETRY_GENERATE

