#              Generated by Buildcell
#
# at 14:03:55 (GMT+0.0) 24th November 2020
# in /scratch/scratch/uccabz1/launch_tmp
# on node-a14f-002
# by uccabz1
#
# compiler GCC version 4.9.2
# options -cpp -iprefix /scratch/UCL/applications/gcc/4.9.2/bin/../lib/gcc/x86_64-unknown-linux-gnu/4.9.2/ -mtune=corei7 -march=x86-64 -g -O2
#
# seed  1528964035  -154490907  -219598172  1309055539  -237681768 -1920104224  1964223545 -1351345625   -40349055  1281391564   259118613   383501646
#
#      Author: C. J. Pickard (cjp20@cam.ac.uk)
#                Space group: Cc
#

%BLOCK LATTICE_ABC
      5.18791      5.18791      6.99754
    104.00484    104.01200    110.30384
%ENDBLOCK LATTICE_ABC

%BLOCK POSITIONS_FRAC
  Li   0.1384271  -0.0480938  -0.4878208 SPIN=   0.00000
  Li   0.0602731   0.3737522   0.0121792 SPIN=   0.00000
   O  -0.4275122  -0.2560195  -0.0274346 SPIN=   0.00000
   O   0.0680323   0.1248207   0.2708515 SPIN=   0.00000
   O  -0.0890348  -0.4016589   0.2207696 SPIN=   0.00000
   O   0.0747472  -0.2156963  -0.0479640 SPIN=   0.00000
   P  -0.1092447  -0.1911430   0.0952604 SPIN=   0.00000
   O  -0.2714151  -0.5999224  -0.5274346 SPIN=   0.00000
   O  -0.3539692  -0.7971809  -0.2291485 SPIN=   0.00000
   O   0.1224285  -0.6901956  -0.2792304 SPIN=   0.00000
   O  -0.3322677  -1.1227111  -0.5479640 SPIN=   0.00000
   P  -0.2135965  -0.7954949  -0.4047396 SPIN=   0.00000
  Fe  -0.4959613   0.0774484   0.1588361 SPIN=   4.00000
  Fe  -0.4186123  -0.3452026  -0.3411639 SPIN=   4.00000
%ENDBLOCK POSITIONS_FRAC

# Note: total spin =   8.00

KPOINTS_MP_SPACING 0.07

%BLOCK SPECIES_POT
QC5
%ENDBLOCK SPECIES_POT

%BLOCK HUBBARD_U
Fe d:4.0
%ENDBLOCK HUBBARD_U

SNAP_TO_SYMMETRY
SYMMETRY_GENERATE

