#              Generated by Buildcell
#
# at 14:10:54 (GMT+0.0) 24th November 2020
# in /lustre/scratch/uccabz1/launch_tmp
# on node-c12a-028
# by uccabz1
#
# compiler GCC version 4.9.2
# options -cpp -iprefix /lustre/shared/ucl/apps/gcc/4.9.2/bin/../lib/gcc/x86_64-unknown-linux-gnu/4.9.2/ -mtune=corei7 -march=x86-64 -g -Og
#
# seed  -335025964 -1735169948 -1873784891 -1085986235  -320702012  -193651029  -603616685   268517589  1739805798   849467703  -670845801 -1505084752
#
#      Author: C. J. Pickard (cjp20@cam.ac.uk)
#                Space group: P21212
#

%BLOCK LATTICE_ABC
      5.25619      5.26226      5.78465
     90.00000     90.00000     90.00000
%ENDBLOCK LATTICE_ABC

%BLOCK POSITIONS_FRAC
  Li  -0.5000000  -0.0000000  -0.0031199 SPIN=   0.00000
  Li   0.0000000  -0.5000000   0.0031199 SPIN=   0.00000
   O  -0.1459830   0.6957728  -0.3699008 SPIN=   0.00000
   O  -0.2680926   0.2705045  -0.1705396 SPIN=   0.00000
   O   0.1459830  -0.6957728  -0.3699008 SPIN=   0.00000
   O   0.2680926  -0.2705045  -0.1705396 SPIN=   0.00000
   O   0.3540170  -0.1957728   0.3699008 SPIN=   0.00000
   O   0.2319074   0.2294955   0.1705396 SPIN=   0.00000
   O  -0.3540170   0.1957728   0.3699008 SPIN=   0.00000
   O  -0.2319074  -0.2294955   0.1705396 SPIN=   0.00000
   P   0.0000000  -0.0000000  -0.1243145 SPIN=   0.00000
   P  -0.5000000  -0.5000000   0.1243145 SPIN=   0.00000
  Fe  -0.0000000  -0.0000000   0.3796835 SPIN=   4.00000
  Fe   0.5000000  -0.5000000  -0.3796835 SPIN=   4.00000
%ENDBLOCK POSITIONS_FRAC

# Note: total spin =   8.00

KPOINTS_MP_SPACING 0.07

%BLOCK SPECIES_POT
QC5
%ENDBLOCK SPECIES_POT

%BLOCK HUBBARD_U
Fe d:4.0
%ENDBLOCK HUBBARD_U

SNAP_TO_SYMMETRY
SYMMETRY_GENERATE

