#              Generated by Buildcell
#
# at 12:57:19 (GMT+0.0) 26th November 2020
# in /lustre/scratch/uccabz1/launch_tmp
# on node-c12e-024
# by uccabz1
#
# compiler GCC version 4.9.2
# options -cpp -iprefix /lustre/shared/ucl/apps/gcc/4.9.2/bin/../lib/gcc/x86_64-unknown-linux-gnu/4.9.2/ -mtune=corei7 -march=x86-64 -g -Og
#
# seed  1986880313   378968727   625047201  1043321624   273951142 -1676522886 -1478015029   878038242    29477710 -1177981737  -309355818  1013394840
#
#      Author: C. J. Pickard (cjp20@cam.ac.uk)
#                Space group: P2
#

%BLOCK LATTICE_ABC
      6.39296      6.63164      7.95044
     90.00000    108.30987     90.00000
%ENDBLOCK LATTICE_ABC

%BLOCK POSITIONS_FRAC
  Li   0.2475804  -0.0166548  -0.0497635 SPIN=   0.00000
  Li  -0.2475804  -0.0166548   0.0497635 SPIN=   0.00000
  Li  -0.5000000  -0.1340093  -0.5000000 SPIN=   0.00000
  Li  -0.0000000   0.4518520   0.5000000 SPIN=   0.00000
   O  -0.1617792   0.3003822   0.2180079 SPIN=   0.00000
   O   0.0824138  -0.0122576   0.2162079 SPIN=   0.00000
   O   0.1854223   0.3141452   0.1149180 SPIN=   0.00000
   O   0.2319737   0.2631723   0.4367622 SPIN=   0.00000
   P   0.0731343   0.2213867   0.2472039 SPIN=   0.00000
   O   0.1617792   0.3003822  -0.2180079 SPIN=   0.00000
   O  -0.0824138  -0.0122576  -0.2162079 SPIN=   0.00000
   O  -0.1854223   0.3141452  -0.1149180 SPIN=   0.00000
   O  -0.2319737   0.2631723  -0.4367622 SPIN=   0.00000
   P  -0.0731343   0.2213867  -0.2472039 SPIN=   0.00000
   O   0.4208263  -0.3863914   0.1234655 SPIN=   0.00000
   O   0.8389859  -0.3309699   0.1766644 SPIN=   0.00000
   O   0.6283010  -0.0602918   0.2637043 SPIN=   0.00000
   O   0.7043344  -0.3819898   0.4373460 SPIN=   0.00000
   P   0.6366736  -0.2961345   0.2457494 SPIN=   0.00000
   O  -0.4208263  -0.3863914  -0.1234655 SPIN=   0.00000
   O  -0.8389859  -0.3309699  -0.1766644 SPIN=   0.00000
   O  -0.6283010  -0.0602918  -0.2637043 SPIN=   0.00000
   O  -0.7043344  -0.3819898  -0.4373460 SPIN=   0.00000
   P  -0.6366736  -0.2961345  -0.2457494 SPIN=   0.00000
  Fe  -0.5197677   0.2905805  -0.2621261 SPIN=   4.38891
  Fe   0.5197677   0.2905805   0.2621261 SPIN=   4.38891
  Fe   1.0000000  -0.0575183   0.5000000 SPIN=   7.22219
  Fe   0.0000000  -0.4314255   0.0000000 SPIN=   0.00000
%ENDBLOCK POSITIONS_FRAC

# Note: total spin =  16.00

KPOINTS_MP_SPACING 0.07

%BLOCK SPECIES_POT
QC5
%ENDBLOCK SPECIES_POT

%BLOCK HUBBARD_U
Fe d:4.0
%ENDBLOCK HUBBARD_U

SNAP_TO_SYMMETRY
SYMMETRY_GENERATE

