#              Generated by Buildcell
#
# at 17:25:36 (GMT+0.0) 26th November 2020
# in /scratch/scratch/uccabz1/launch_tmp
# on node-k10g-016
# by uccabz1
#
# compiler GCC version 4.9.2
# options -cpp -iprefix /scratch/UCL/applications/gcc/4.9.2/bin/../lib/gcc/x86_64-unknown-linux-gnu/4.9.2/ -mtune=corei7 -march=x86-64 -g -O2
#
# seed  1726842755  1290239832    78119889  1368130694  -403073660 -2099669112 -1007207228  1093707264   207123977  -561595690 -1702272904  -477611978
#
#      Author: C. J. Pickard (cjp20@cam.ac.uk)
#                Space group: P2/c
#

%BLOCK LATTICE_ABC
      4.29415      7.98715      9.97746
    110.75452     90.00000     90.00000
%ENDBLOCK LATTICE_ABC

%BLOCK POSITIONS_FRAC
  Li   0.2489002   0.4603701  -0.4087782 SPIN=   0.00000
  Li   0.2489002  -0.4603701  -0.0912218 SPIN=   0.00000
  Li  -0.2489002  -0.4603701   0.4087782 SPIN=   0.00000
  Li  -0.2489002   0.4603701   0.0912218 SPIN=   0.00000
   O   0.2231878   0.3916995   0.0461760 SPIN=   0.00000
   O   0.2493746   0.0447576  -0.0371346 SPIN=   0.00000
   O   0.2166574   0.1841433  -0.2216454 SPIN=   0.00000
   O   0.7077587   0.2132268  -0.0797764 SPIN=   0.00000
   P   0.3467636   0.2182698  -0.0668234 SPIN=   0.00000
   O   0.2231878  -0.3916995  -0.5461760 SPIN=   0.00000
   O   0.2493746  -0.0447576  -0.4628654 SPIN=   0.00000
   O   0.2166574  -0.1841433  -0.2783546 SPIN=   0.00000
   O   0.7077587  -0.2132268  -0.4202236 SPIN=   0.00000
   P   0.3467636  -0.2182698  -0.4331766 SPIN=   0.00000
   O  -0.2231878  -0.3916995  -0.0461760 SPIN=   0.00000
   O  -0.2493746  -0.0447576   0.0371346 SPIN=   0.00000
   O  -0.2166574  -0.1841433   0.2216454 SPIN=   0.00000
   O  -0.7077587  -0.2132268   0.0797764 SPIN=   0.00000
   P  -0.3467636  -0.2182698   0.0668234 SPIN=   0.00000
   O  -0.2231878   0.3916995   0.5461760 SPIN=   0.00000
   O  -0.2493746   0.0447576   0.4628654 SPIN=   0.00000
   O  -0.2166574   0.1841433   0.2783546 SPIN=   0.00000
   O  -0.7077587   0.2132268   0.4202236 SPIN=   0.00000
   P  -0.3467636   0.2182698   0.4331766 SPIN=   0.00000
  Fe  -0.2322074  -0.2258775  -0.2152600 SPIN=   4.00000
  Fe  -0.2322074   0.2258775  -0.2847400 SPIN=   4.00000
  Fe   0.2322074   0.2258775   0.2152600 SPIN=   4.00000
  Fe   0.2322074  -0.2258775   0.2847400 SPIN=   4.00000
%ENDBLOCK POSITIONS_FRAC

# Note: total spin =  16.00

KPOINTS_MP_SPACING 0.07

%BLOCK SPECIES_POT
QC5
%ENDBLOCK SPECIES_POT

%BLOCK HUBBARD_U
Fe d:4.0
%ENDBLOCK HUBBARD_U

SNAP_TO_SYMMETRY
SYMMETRY_GENERATE

