#              Generated by Buildcell
#
# at 18:39:59 (GMT+0.0) 26th November 2020
# in /lustre/scratch/uccabz1/launch_tmp
# on node-c12c-020
# by uccabz1
#
# compiler GCC version 4.9.2
# options -cpp -iprefix /lustre/shared/ucl/apps/gcc/4.9.2/bin/../lib/gcc/x86_64-unknown-linux-gnu/4.9.2/ -mtune=corei7 -march=x86-64 -g -Og
#
# seed  2144534501  1212904543 -1959687625  -706569402  1065049036  1007783471   708765760  -794767068    44763321   611709474 -1674908033  1649252874
#
#      Author: C. J. Pickard (cjp20@cam.ac.uk)
#                Space group: Pca21
#

%BLOCK LATTICE_ABC
      5.79563      6.18433      8.92805
     90.00000     90.00000     90.00000
%ENDBLOCK LATTICE_ABC

%BLOCK POSITIONS_FRAC
  Li  -0.3985989   0.1131043   0.4877817 SPIN=   0.00000
  Li   0.1014011  -0.1131043  -0.4877817 SPIN=   0.00000
  Li  -0.3985989  -0.3868957  -0.4877817 SPIN=   0.00000
  Li   0.1014011   0.3868957   0.4877817 SPIN=   0.00000
   O   0.1797895  -0.3706028  -0.3381289 SPIN=   0.00000
   O   0.5718392  -0.5591365  -0.2846773 SPIN=   0.00000
   O   0.4276703  -0.2914181  -0.1019503 SPIN=   0.00000
   O   0.2295765  -0.6497219  -0.1253589 SPIN=   0.00000
   P   0.3415906  -0.4646966  -0.2181878 SPIN=   0.00000
   O  -0.3202105   0.3706028   0.3381289 SPIN=   0.00000
   O   0.0718392   0.5591365   0.2846773 SPIN=   0.00000
   O  -0.0723297   0.2914181   0.1019503 SPIN=   0.00000
   O  -0.2704235   0.6497219   0.1253589 SPIN=   0.00000
   P  -0.1584094   0.4646966   0.2181878 SPIN=   0.00000
   O   0.1797895   0.1293972   0.3381289 SPIN=   0.00000
   O   0.5718392  -0.0591365   0.2846773 SPIN=   0.00000
   O   0.4276703   0.2085819   0.1019503 SPIN=   0.00000
   O   0.2295765  -0.1497219   0.1253589 SPIN=   0.00000
   P   0.3415906   0.0353034   0.2181878 SPIN=   0.00000
   O  -0.3202105  -0.1293972  -0.3381289 SPIN=   0.00000
   O   0.0718392   0.0591365  -0.2846773 SPIN=   0.00000
   O  -0.0723297  -0.2085819  -0.1019503 SPIN=   0.00000
   O  -0.2704235   0.1497219  -0.1253589 SPIN=   0.00000
   P  -0.1584094  -0.0353034  -0.2181878 SPIN=   0.00000
  Fe   0.3647713  -0.4634284   0.1471216 SPIN=   4.00000
  Fe  -0.1352287   0.4634284  -0.1471216 SPIN=   4.00000
  Fe   0.3647713   0.0365716  -0.1471216 SPIN=   4.00000
  Fe  -0.1352287  -0.0365716   0.1471216 SPIN=   4.00000
%ENDBLOCK POSITIONS_FRAC

# Note: total spin =  16.00

KPOINTS_MP_SPACING 0.07

%BLOCK SPECIES_POT
QC5
%ENDBLOCK SPECIES_POT

%BLOCK HUBBARD_U
Fe d:4.0
%ENDBLOCK HUBBARD_U

SNAP_TO_SYMMETRY
SYMMETRY_GENERATE

