#              Generated by Buildcell
#
# at 18:17:25 (GMT+0.0) 26th November 2020
# in /lustre/scratch/uccabz1/launch_tmp
# on node-c12d-024
# by uccabz1
#
# compiler GCC version 4.9.2
# options -cpp -iprefix /lustre/shared/ucl/apps/gcc/4.9.2/bin/../lib/gcc/x86_64-unknown-linux-gnu/4.9.2/ -mtune=corei7 -march=x86-64 -g -Og
#
# seed -1733765526 -1559460578   -31596752 -1913473612   101862580 -1935541548  1361144970   184467860   -63104855  1930709198  -579560488 -1167968751
#
#      Author: C. J. Pickard (cjp20@cam.ac.uk)
#                Space group: Pca21
#

%BLOCK LATTICE_ABC
      6.52769      6.62246      7.40238
     90.00000     90.00000     90.00000
%ENDBLOCK LATTICE_ABC

%BLOCK POSITIONS_FRAC
  Li   0.3877191   0.3258544   0.0386901 SPIN=   0.00000
  Li  -0.3877191  -0.1741456  -0.0386901 SPIN=   0.00000
  Li  -0.3877191   0.3258544  -0.4613099 SPIN=   0.00000
  Li   0.3877191  -0.1741456   0.4613099 SPIN=   0.00000
   O  -0.1803896   0.0682895   0.0170827 SPIN=   0.00000
   O  -0.3163344   0.4241618  -0.0692290 SPIN=   0.00000
   O  -0.1419313   0.2223283  -0.3039214 SPIN=   0.00000
   O  -0.4897442   0.1179809  -0.1958879 SPIN=   0.00000
   P  -0.2791348   0.1996766  -0.1304154 SPIN=   0.00000
   O   0.1803896  -0.4317105  -0.0170827 SPIN=   0.00000
   O   0.3163344  -0.0758382   0.0692290 SPIN=   0.00000
   O   0.1419313  -0.2776717   0.3039214 SPIN=   0.00000
   O   0.4897442  -0.3820191   0.1958879 SPIN=   0.00000
   P   0.2791348  -0.3003234   0.1304154 SPIN=   0.00000
   O   0.1803896   0.0682895   0.5170827 SPIN=   0.00000
   O   0.3163344   0.4241618   0.4307710 SPIN=   0.00000
   O   0.1419313   0.2223283   0.1960786 SPIN=   0.00000
   O   0.4897442   0.1179809   0.3041121 SPIN=   0.00000
   P   0.2791348   0.1996766   0.3695846 SPIN=   0.00000
   O  -0.1803896  -0.4317105  -0.5170827 SPIN=   0.00000
   O  -0.3163344  -0.0758382  -0.4307710 SPIN=   0.00000
   O  -0.1419313  -0.2776717  -0.1960786 SPIN=   0.00000
   O  -0.4897442  -0.3820191  -0.3041121 SPIN=   0.00000
   P  -0.2791348  -0.3003234  -0.3695846 SPIN=   0.00000
  Fe   0.0866601  -0.0327545  -0.1197838 SPIN=   4.00000
  Fe  -0.0866601   0.4672455   0.1197838 SPIN=   4.00000
  Fe  -0.0866601  -0.0327545   0.3802162 SPIN=   4.00000
  Fe   0.0866601   0.4672455  -0.3802162 SPIN=   4.00000
%ENDBLOCK POSITIONS_FRAC

# Note: total spin =  16.00

KPOINTS_MP_SPACING 0.07

%BLOCK SPECIES_POT
QC5
%ENDBLOCK SPECIES_POT

%BLOCK HUBBARD_U
Fe d:4.0
%ENDBLOCK HUBBARD_U

SNAP_TO_SYMMETRY
SYMMETRY_GENERATE

