#              Generated by Buildcell
#
# at 14:04:43 (GMT+0.0) 24th November 2020
# in /scratch/scratch/uccabz1/launch_tmp
# on node-k10c-005
# by uccabz1
#
# compiler GCC version 4.9.2
# options -cpp -iprefix /scratch/UCL/applications/gcc/4.9.2/bin/../lib/gcc/x86_64-unknown-linux-gnu/4.9.2/ -mtune=corei7 -march=x86-64 -g -O2
#
# seed  1055732614 -1876941131   817525497  2055949600  1981141196  -215180383  1377847941  -279458642  1152021049 -1033778648  1528438025  1867744397
#
#      Author: C. J. Pickard (cjp20@cam.ac.uk)
#                Space group: Cm
#

%BLOCK LATTICE_ABC
      4.85335      6.29524      6.29524
     96.01982    111.50682    111.50682
%ENDBLOCK LATTICE_ABC

%BLOCK POSITIONS_FRAC
  Li  -0.2457107  -0.0183909   0.4261575 SPIN=   0.00000
  Li  -0.2457107   0.4261575  -0.0183909 SPIN=   0.00000
   O   0.2626940  -0.0243173   0.6117626 SPIN=   0.00000
   O   0.1195376  -0.1078310   0.1621056 SPIN=   0.00000
   O   0.3675123  -0.3383251   0.3925911 SPIN=   0.00000
   O  -0.2124797  -0.4145246   0.3046453 SPIN=   0.00000
   P   0.1370590  -0.2130447   0.3800222 SPIN=   0.00000
   O   0.2626940   0.6117626  -0.0243173 SPIN=   0.00000
   O   0.1195376   0.1621056  -0.1078310 SPIN=   0.00000
   O   0.3675123   0.3925911  -0.3383251 SPIN=   0.00000
   O  -0.2124797   0.3046453  -0.4145246 SPIN=   0.00000
   P   0.1370590   0.3800222  -0.2130447 SPIN=   0.00000
  Fe  -0.4427413  -0.1419229  -0.1419229 SPIN=   1.02993
  Fe   0.3898155   0.3368164   0.3368164 SPIN=   6.97007
%ENDBLOCK POSITIONS_FRAC

# Note: total spin =   8.00

KPOINTS_MP_SPACING 0.07

%BLOCK SPECIES_POT
QC5
%ENDBLOCK SPECIES_POT

%BLOCK HUBBARD_U
Fe d:4.0
%ENDBLOCK HUBBARD_U

SNAP_TO_SYMMETRY
SYMMETRY_GENERATE

