#              Generated by Buildcell
#
# at 20:47:31 (GMT+0.0) 26th November 2020
# in /lustre/scratch/uccabz1/launch_tmp
# on node-c12f-025
# by uccabz1
#
# compiler GCC version 4.9.2
# options -cpp -iprefix /lustre/shared/ucl/apps/gcc/4.9.2/bin/../lib/gcc/x86_64-unknown-linux-gnu/4.9.2/ -mtune=corei7 -march=x86-64 -g -Og
#
# seed   557675843  1227854915   619564079  1279867690 -1230697790  -203516786 -2110129871  1080799595 -1202219858 -1004020617 -1674422658  -253852840
#
#      Author: C. J. Pickard (cjp20@cam.ac.uk)
#                Space group: P-1
#

%BLOCK LATTICE_ABC
      6.12074      7.33127      7.53820
     74.54176     79.26597     84.72759
%ENDBLOCK LATTICE_ABC

%BLOCK POSITIONS_FRAC
  Li   0.2263207   0.3690065  -0.1634255 SPIN=   0.00000
  Li  -0.2263207  -0.3690065   0.1634255 SPIN=   0.00000
  Li  -0.5000000   0.0000000   0.0000000 SPIN=   0.00000
  Li  -0.0000000  -0.5000000  -0.5000000 SPIN=   0.00000
   O   0.0552565  -0.1631447   0.0764567 SPIN=   0.00000
   O   0.4400161  -0.3432324   0.0913836 SPIN=   0.00000
   O   0.1096778  -0.5279863   0.1271820 SPIN=   0.00000
   O   0.2554819  -0.3161270  -0.1850381 SPIN=   0.00000
   P   0.2070732  -0.3280788   0.0275948 SPIN=   0.00000
   O  -0.0552565   0.1631447  -0.0764567 SPIN=   0.00000
   O  -0.4400161   0.3432324  -0.0913836 SPIN=   0.00000
   O  -0.1096778   0.5279863  -0.1271820 SPIN=   0.00000
   O  -0.2554819   0.3161270   0.1850381 SPIN=   0.00000
   P  -0.2070732   0.3280788  -0.0275948 SPIN=   0.00000
   O  -0.2292071  -0.1427801  -0.4730725 SPIN=   0.00000
   O  -0.2201775  -0.1383025  -0.1310497 SPIN=   0.00000
   O  -0.2006721   0.1656298  -0.3726558 SPIN=   0.00000
   O  -0.5577205  -0.0037280  -0.2729396 SPIN=   0.00000
   O   0.2292071   0.1427801   0.4730725 SPIN=   0.00000
   O   0.2201775   0.1383025   0.1310497 SPIN=   0.00000
   O   0.2006721  -0.1656298   0.3726558 SPIN=   0.00000
   O   0.5577205   0.0037280   0.2729396 SPIN=   0.00000
   P   0.5000000  -0.5000000   0.5000000 SPIN=   0.00000
   P  -0.5000000   0.0000000   0.5000000 SPIN=   0.00000
  Fe  -0.3912908  -0.3275985  -0.2330363 SPIN=   3.45325
  Fe   0.3912908   0.3275985   0.2330363 SPIN=   3.45325
  Fe   0.0769339  -0.0027658  -0.2612209 SPIN=   4.54675
  Fe  -0.0769339   0.0027658   0.2612209 SPIN=   4.54675
%ENDBLOCK POSITIONS_FRAC

# Note: total spin =  16.00

KPOINTS_MP_SPACING 0.07

%BLOCK SPECIES_POT
QC5
%ENDBLOCK SPECIES_POT

%BLOCK HUBBARD_U
Fe d:4.0
%ENDBLOCK HUBBARD_U

SNAP_TO_SYMMETRY
SYMMETRY_GENERATE

