#              Generated by Buildcell
#
# at 21:14:44 (GMT+0.0) 26th November 2020
# in /lustre/scratch/uccabz1/launch_tmp
# on node-c12j-022
# by uccabz1
#
# compiler GCC version 4.9.2
# options -cpp -iprefix /lustre/shared/ucl/apps/gcc/4.9.2/bin/../lib/gcc/x86_64-unknown-linux-gnu/4.9.2/ -mtune=corei7 -march=x86-64 -g -Og
#
# seed  1596090673 -1331594720 -1560236240  -205722087  -312704583  -722947887  1239023701   792107242 -1149008129 -1065135268  1149089078 -1753494122
#
#      Author: C. J. Pickard (cjp20@cam.ac.uk)
#                Space group: Pna21
#

%BLOCK LATTICE_ABC
      4.70980      4.90225     13.85965
     90.00000     90.00000     90.00000
%ENDBLOCK LATTICE_ABC

%BLOCK POSITIONS_FRAC
  Li   0.0733299  -0.2616580   0.0148772 SPIN=   0.00000
  Li  -0.4266701   0.2616580  -0.0148772 SPIN=   0.00000
  Li   0.0733299  -0.2383420  -0.4851228 SPIN=   0.00000
  Li  -0.4266701   0.2383420   0.4851228 SPIN=   0.00000
   O  -0.3596226  -0.3478774  -0.4797008 SPIN=   0.00000
   O  -0.3794172   0.0877741  -0.3731657 SPIN=   0.00000
   O  -0.7408208  -0.2697881  -0.3470496 SPIN=   0.00000
   O  -0.2369614  -0.3562835  -0.2980839 SPIN=   0.00000
   P  -0.4232319  -0.2298604  -0.3791997 SPIN=   0.00000
   O   0.1403774   0.3478774   0.4797008 SPIN=   0.00000
   O   0.1205828  -0.0877741   0.3731657 SPIN=   0.00000
   O  -0.2408208   0.2697881   0.3470496 SPIN=   0.00000
   O   0.2630386   0.3562835   0.2980839 SPIN=   0.00000
   P   0.0767681   0.2298604   0.3791997 SPIN=   0.00000
   O  -0.3596226  -0.1521226   0.0202992 SPIN=   0.00000
   O  -0.3794172  -0.5877741   0.1268343 SPIN=   0.00000
   O  -0.7408208  -0.2302119   0.1529504 SPIN=   0.00000
   O  -0.2369614  -0.1437165   0.2019161 SPIN=   0.00000
   P  -0.4232319  -0.2701396   0.1208003 SPIN=   0.00000
   O   0.1403774   0.1521226  -0.0202992 SPIN=   0.00000
   O   0.1205828   0.5877741  -0.1268343 SPIN=   0.00000
   O  -0.2408208   0.2302119  -0.1529504 SPIN=   0.00000
   O   0.2630386   0.1437165  -0.2019161 SPIN=   0.00000
   P   0.0767681   0.2701396  -0.1208003 SPIN=   0.00000
  Fe   0.0041111   0.2383442   0.1736323 SPIN=   4.00000
  Fe  -0.4958889  -0.2383442  -0.1736323 SPIN=   4.00000
  Fe   0.0041111   0.2616558  -0.3263677 SPIN=   4.00000
  Fe  -0.4958889  -0.2616558   0.3263677 SPIN=   4.00000
%ENDBLOCK POSITIONS_FRAC

# Note: total spin =  16.00

KPOINTS_MP_SPACING 0.07

%BLOCK SPECIES_POT
QC5
%ENDBLOCK SPECIES_POT

%BLOCK HUBBARD_U
Fe d:4.0
%ENDBLOCK HUBBARD_U

SNAP_TO_SYMMETRY
SYMMETRY_GENERATE

