#              Generated by Buildcell
#
# at 14:58:57 (GMT+0.0) 1st December 2020
# in /lustre/scratch/uccabz1/launch_tmp
# on node-c12c-029
# by uccabz1
#
# compiler GCC version 4.9.2
# options -cpp -iprefix /lustre/shared/ucl/apps/gcc/4.9.2/bin/../lib/gcc/x86_64-unknown-linux-gnu/4.9.2/ -mtune=corei7 -march=x86-64 -g -Og
#
# seed   757053173    -8607550  2141094266 -1393984738 -1425582158 -2064316770 -1194599465 -1307126234 -2038314138   -28158405 -1457543919 -1148511907
#
#      Author: C. J. Pickard (cjp20@cam.ac.uk)
#                Space group: Imm2
#

%BLOCK LATTICE_ABC
      4.25312      9.45018      9.49928
    119.82917    102.93615     90.00000
%ENDBLOCK LATTICE_ABC

%BLOCK POSITIONS_FRAC
  Li   0.1543536   0.4234484   0.2267819 SPIN=   0.00000
  Li  -0.0724283  -0.4234484  -0.2267819 SPIN=   0.00000
  Li  -0.0724283   0.1966666  -0.2267819 SPIN=   0.00000
  Li   0.1543536  -0.1966666   0.2267819 SPIN=   0.00000
   O   0.4540811  -0.4764695  -0.2160467 SPIN=   0.00000
   O   0.0751779  -0.4348921  -0.4446733 SPIN=   0.00000
   O   0.2148637  -0.2038962  -0.1509819 SPIN=   0.00000
   O   0.6419945  -0.2849196  -0.3108750 SPIN=   0.00000
   O  -0.3298721   0.4764695   0.2160467 SPIN=   0.00000
   O  -0.4801487   0.4348921   0.4446733 SPIN=   0.00000
   O  -0.6341544   0.2038962   0.1509819 SPIN=   0.00000
   O  -0.0471305   0.2849196   0.3108750 SPIN=   0.00000
   O  -0.3298721  -0.2604228   0.2160467 SPIN=   0.00000
   O  -0.4801487   0.0097813   0.4446733 SPIN=   0.00000
   O  -0.6341544  -0.0529143   0.1509819 SPIN=   0.00000
   O  -0.0471305   0.0259554   0.3108750 SPIN=   0.00000
   O   0.4540811   0.2604228  -0.2160467 SPIN=   0.00000
   O   0.0751779  -0.0097813  -0.4446733 SPIN=   0.00000
   O   0.2148637   0.0529143  -0.1509819 SPIN=   0.00000
   O   0.6419945  -0.0259554  -0.3108750 SPIN=   0.00000
   P  -0.3788500  -0.3233887  -0.6467775 SPIN=   0.00000
   P   0.2679275   0.3233887   0.6467775 SPIN=   0.00000
   P   0.4443120   0.2023367   0.0000000 SPIN=   0.00000
   P   0.4443120  -0.2023367   0.0000000 SPIN=   0.00000
  Fe  -0.3530279   0.2046109   0.4092218 SPIN=   5.33013
  Fe   0.2377503  -0.2046109  -0.4092218 SPIN=   5.33013
  Fe  -0.0563507   0.0000000  -0.0000000 SPIN=   0.79913
  Fe  -0.4526769  -0.5000000  -1.0000000 SPIN=   4.54060
%ENDBLOCK POSITIONS_FRAC

# Note: total spin =  16.00

KPOINTS_MP_SPACING 0.07

%BLOCK SPECIES_POT
QC5
%ENDBLOCK SPECIES_POT

%BLOCK HUBBARD_U
Fe d:4.0
%ENDBLOCK HUBBARD_U

SNAP_TO_SYMMETRY
SYMMETRY_GENERATE

