#              Generated by Buildcell
#
# at 14:18:45 (GMT+0.0) 24th November 2020
# in /scratch/scratch/uccabz1/launch_tmp
# on node-a14f-013
# by uccabz1
#
# compiler GCC version 4.9.2
# options -cpp -iprefix /scratch/UCL/applications/gcc/4.9.2/bin/../lib/gcc/x86_64-unknown-linux-gnu/4.9.2/ -mtune=corei7 -march=x86-64 -g -O2
#
# seed -1805955392   349956801 -1203943021   805495205   271007111   220648184  1467826660 -1745538242  -631250761   636347318  1586220865   871914926
#
#      Author: C. J. Pickard (cjp20@cam.ac.uk)
#                Space group: C2
#

%BLOCK LATTICE_ABC
      5.11335      5.28799      7.19020
    107.35349     90.00000    118.91345
%ENDBLOCK LATTICE_ABC

%BLOCK POSITIONS_FRAC
  Li  -0.0294007   0.1688355   0.3545684 SPIN=   0.00000
  Li  -0.1982362  -0.1688355  -0.3545684 SPIN=   0.00000
   O   0.0127100  -0.2128736   0.3412756 SPIN=   0.00000
   O   0.4839883  -0.0222125   0.1691681 SPIN=   0.00000
   O   0.4559287  -0.3093195   0.3909066 SPIN=   0.00000
   O   0.1070326  -0.5858984   0.0640412 SPIN=   0.00000
   P   0.2496231  -0.2824442   0.2445761 SPIN=   0.00000
   O  -0.7744164   0.2128736  -0.3412756 SPIN=   0.00000
   O  -0.4937992   0.0222125  -0.1691681 SPIN=   0.00000
   O  -0.2347518   0.3093195  -0.3909066 SPIN=   0.00000
   O  -0.3070690   0.5858984  -0.0640412 SPIN=   0.00000
   P  -0.4679327   0.2824442  -0.2445761 SPIN=   0.00000
  Fe  -0.4041160   0.4180347   0.1751371 SPIN=   4.00000
  Fe   0.1778494  -0.4180347  -0.1751371 SPIN=   4.00000
%ENDBLOCK POSITIONS_FRAC

# Note: total spin =   8.00

KPOINTS_MP_SPACING 0.07

%BLOCK SPECIES_POT
QC5
%ENDBLOCK SPECIES_POT

%BLOCK HUBBARD_U
Fe d:4.0
%ENDBLOCK HUBBARD_U

SNAP_TO_SYMMETRY
SYMMETRY_GENERATE

