#              Generated by Buildcell
#
# at 14:49:48 (GMT+0.0) 24th November 2020
# in /scratch/scratch/uccabz1/launch_tmp
# on node-a14e-012
# by uccabz1
#
# compiler GCC version 4.9.2
# options -cpp -iprefix /scratch/UCL/applications/gcc/4.9.2/bin/../lib/gcc/x86_64-unknown-linux-gnu/4.9.2/ -mtune=corei7 -march=x86-64 -g -O2
#
# seed  1641491073 -1062303440   714030205  1161008321  -874456762 -1564156394   588397683    61785119 -1266237748 -1948414293 -1588720483   996641040
#
#      Author: C. J. Pickard (cjp20@cam.ac.uk)
#                Space group: P21/m
#

%BLOCK LATTICE_ABC
      3.91931      5.34446      7.68380
     90.00000     96.22673     90.00000
%ENDBLOCK LATTICE_ABC

%BLOCK POSITIONS_FRAC
  Li   0.2162765   0.2500000   0.0945646 SPIN=   0.00000
  Li  -0.2162765  -0.2500000  -0.0945646 SPIN=   0.00000
   O   0.2088768   0.0189258   0.3913852 SPIN=   0.00000
   O  -0.2165685   0.0187329   0.1074860 SPIN=   0.00000
   O  -0.2088768  -0.4810742  -0.3913852 SPIN=   0.00000
   O   0.2165685  -0.4812671  -0.1074860 SPIN=   0.00000
   O  -0.2088768  -0.0189258  -0.3913852 SPIN=   0.00000
   O   0.2165685  -0.0187329  -0.1074860 SPIN=   0.00000
   O   0.2088768   0.4810742   0.3913852 SPIN=   0.00000
   O  -0.2165685   0.4812671   0.1074860 SPIN=   0.00000
   P   0.1972950  -0.2500000  -0.3547985 SPIN=   0.00000
   P  -0.1972950   0.2500000   0.3547985 SPIN=   0.00000
  Fe   0.4566743   0.2500000  -0.3052900 SPIN=   4.00000
  Fe  -0.4566743  -0.2500000   0.3052900 SPIN=   4.00000
%ENDBLOCK POSITIONS_FRAC

# Note: total spin =   8.00

KPOINTS_MP_SPACING 0.07

%BLOCK SPECIES_POT
QC5
%ENDBLOCK SPECIES_POT

%BLOCK HUBBARD_U
Fe d:4.0
%ENDBLOCK HUBBARD_U

SNAP_TO_SYMMETRY
SYMMETRY_GENERATE

