#              Generated by Buildcell
#
# at 10:39:56 (GMT+0.0) 24th November 2020
# in /scratch/scratch/uccabz1/launch_tmp
# on node-a14a-010
# by uccabz1
#
# compiler GCC version 4.9.2
# options -cpp -iprefix /scratch/UCL/applications/gcc/4.9.2/bin/../lib/gcc/x86_64-unknown-linux-gnu/4.9.2/ -mtune=corei7 -march=x86-64 -g -O2
#
# seed  -622965181  -704448378  -286613228  -926039252 -1974028820  1842077373 -1972402316  1169865159 -1126106218   341849557  1654699181 -1839574140
#
#      Author: C. J. Pickard (cjp20@cam.ac.uk)
#                Space group: P21
#

%BLOCK LATTICE_ABC
      4.56459      5.72605      6.26328
     90.00000     90.00000    102.21095
%ENDBLOCK LATTICE_ABC

%BLOCK POSITIONS_FRAC
  Li  -0.2444669  -0.1763767   0.1551594 SPIN=   0.00000
  Li   0.2444669   0.1763767  -0.3448406 SPIN=   0.00000
   O   0.2046372  -0.2985768   0.1547755 SPIN=   0.00000
   O   0.5152383   0.0623928   0.3633963 SPIN=   0.00000
   O  -0.0219849  -0.0715560   0.4500938 SPIN=   0.00000
   O   0.3381570  -0.3267314   0.5533675 SPIN=   0.00000
   P   0.2570507  -0.1680539   0.3704356 SPIN=   0.00000
   O  -0.2046372   0.2985768  -0.3452245 SPIN=   0.00000
   O  -0.5152383  -0.0623928  -0.1366037 SPIN=   0.00000
   O   0.0219849   0.0715560  -0.0499062 SPIN=   0.00000
   O  -0.3381570   0.3267314   0.0533675 SPIN=   0.00000
   P  -0.2570507   0.1680539  -0.1295644 SPIN=   0.00000
  Fe   0.2287950   0.3413834   0.1574120 SPIN=   4.00000
  Fe  -0.2287950  -0.3413834  -0.3425880 SPIN=   4.00000
%ENDBLOCK POSITIONS_FRAC

# Note: total spin =   8.00

KPOINTS_MP_SPACING 0.07

%BLOCK SPECIES_POT
QC5
%ENDBLOCK SPECIES_POT

%BLOCK HUBBARD_U
Fe d:4.0
%ENDBLOCK HUBBARD_U

SNAP_TO_SYMMETRY
SYMMETRY_GENERATE

