#              Generated by Buildcell
#
# at 19:37:52 (GMT+0.0) 26th November 2020
# in /scratch/scratch/uccabz1/launch_tmp
# on node-k10e-015
# by uccabz1
#
# compiler GCC version 4.9.2
# options -cpp -iprefix /scratch/UCL/applications/gcc/4.9.2/bin/../lib/gcc/x86_64-unknown-linux-gnu/4.9.2/ -mtune=corei7 -march=x86-64 -g -O2
#
# seed   342135127  1654082361  2065591252  1152593774  1953862396   804766798 -1005030642  1878267252  -122433544  2056031398  -449673287   -65339548
#
#      Author: C. J. Pickard (cjp20@cam.ac.uk)
#                Space group: P-1
#

%BLOCK LATTICE_ABC
      5.70496      6.04870      9.39548
     84.52263     83.96691     85.06362
%ENDBLOCK LATTICE_ABC

%BLOCK POSITIONS_FRAC
  Li   0.1695650  -0.2164527   0.2241548 SPIN=   0.00000
  Li  -0.1695650   0.2164527  -0.2241548 SPIN=   0.00000
  Li   0.0000000  -0.0000000   0.5000000 SPIN=   0.00000
  Li   0.0000000  -0.5000000  -0.5000000 SPIN=   0.00000
   O  -0.1070863  -0.1069336  -0.1203708 SPIN=   0.00000
   O   0.3147141  -0.2981417  -0.0985069 SPIN=   0.00000
   O  -0.0024727  -0.5298909  -0.1414946 SPIN=   0.00000
   O   0.1526755  -0.2555369  -0.3380489 SPIN=   0.00000
   P   0.0797387  -0.2869757  -0.1736464 SPIN=   0.00000
   O   0.1070863   0.1069336   0.1203708 SPIN=   0.00000
   O  -0.3147141   0.2981417   0.0985069 SPIN=   0.00000
   O   0.0024727   0.5298909   0.1414946 SPIN=   0.00000
   O  -0.1526755   0.2555369   0.3380489 SPIN=   0.00000
   P  -0.0797387   0.2869757   0.1736464 SPIN=   0.00000
   O   0.2039572   0.1371987  -0.3068186 SPIN=   0.00000
   O   0.5030338   0.4021790  -0.2406770 SPIN=   0.00000
   O   0.6557424   0.0862192  -0.3809290 SPIN=   0.00000
   P   0.4317887   0.2535875  -0.3553765 SPIN=   0.00000
   O  -0.2039572  -0.1371987   0.3068186 SPIN=   0.00000
   O  -0.5030338  -0.4021790   0.2406770 SPIN=   0.00000
   O  -0.6557424  -0.0862192   0.3809290 SPIN=   0.00000
   P  -0.4317887  -0.2535875   0.3553765 SPIN=   0.00000
   O  -0.5000000   0.0000000  -0.0000000 SPIN=   0.00000
   O  -0.5000000   0.5000000   0.5000000 SPIN=   0.00000
  Fe   0.5247503  -0.2294470  -0.3393074 SPIN=   2.56547
  Fe  -0.5247503   0.2294470   0.3393074 SPIN=   2.56547
  Fe  -0.2916011  -0.2914021   0.0559254 SPIN=   5.43453
  Fe   0.2916011   0.2914021  -0.0559254 SPIN=   5.43453
%ENDBLOCK POSITIONS_FRAC

# Note: total spin =  16.00

KPOINTS_MP_SPACING 0.07

%BLOCK SPECIES_POT
QC5
%ENDBLOCK SPECIES_POT

%BLOCK HUBBARD_U
Fe d:4.0
%ENDBLOCK HUBBARD_U

SNAP_TO_SYMMETRY
SYMMETRY_GENERATE

