#              Generated by Buildcell
#
# at 12:54:17 (GMT+0.0) 1st December 2020
# in /lustre/scratch/uccabz1/launch_tmp
# on node-c12g-035
# by uccabz1
#
# compiler GCC version 4.9.2
# options -cpp -iprefix /lustre/shared/ucl/apps/gcc/4.9.2/bin/../lib/gcc/x86_64-unknown-linux-gnu/4.9.2/ -mtune=corei7 -march=x86-64 -g -Og
#
# seed   888141586   159922115 -2118253308 -1183938371  -437768466 -1838271695 -1383135535  -331488378  1294601702  1356847472   496667182   562759411
#
#      Author: C. J. Pickard (cjp20@cam.ac.uk)
#                Space group: C2
#

%BLOCK LATTICE_ABC
      5.57616      5.57616     10.79103
     77.71084     77.71084     89.89211
%ENDBLOCK LATTICE_ABC

%BLOCK POSITIONS_FRAC
  Li  -0.1891603   0.2850561   0.3545077 SPIN=   0.00000
  Li  -0.2850561   0.1891603  -0.3545077 SPIN=   0.00000
  Li   0.3073723  -0.2343277   0.3550733 SPIN=   0.00000
  Li   0.2343277  -0.3073723  -0.3550733 SPIN=   0.00000
   O  -0.0794283  -0.2615549  -0.6181524 SPIN=   0.00000
   O  -0.1164868  -0.1302586  -0.3980638 SPIN=   0.00000
   O  -0.4164567  -0.4428453  -0.4126577 SPIN=   0.00000
   O   0.0206837  -0.5515321  -0.4166366 SPIN=   0.00000
   P  -0.1422853  -0.3444413  -0.4691971 SPIN=   0.00000
   O   0.2615549   0.0794283   0.6181524 SPIN=   0.00000
   O   0.1302586   0.1164868   0.3980638 SPIN=   0.00000
   O   0.4428453   0.4164567   0.4126577 SPIN=   0.00000
   O   0.5515321  -0.0206837   0.4166366 SPIN=   0.00000
   P   0.3444413   0.1422853   0.4691971 SPIN=   0.00000
   O  -0.3657324   0.0898135   0.0918661 SPIN=   0.00000
   O  -0.2081447  -0.0412220  -0.1273401 SPIN=   0.00000
   O  -0.4275000  -0.3536636   0.0608769 SPIN=   0.00000
   O  -0.6607620  -0.0156640  -0.0457109 SPIN=   0.00000
   P  -0.4157769  -0.0703711  -0.0003948 SPIN=   0.00000
   O  -0.0898135   0.3657324  -0.0918661 SPIN=   0.00000
   O   0.0412220   0.2081447   0.1273401 SPIN=   0.00000
   O   0.3536636   0.4275000  -0.0608769 SPIN=   0.00000
   O   0.0156640   0.6607620   0.0457109 SPIN=   0.00000
   P   0.0703711   0.4157769   0.0003948 SPIN=   0.00000
  Fe  -0.1223379  -0.1473841   0.1884206 SPIN=   2.92878
  Fe   0.1473841   0.1223379  -0.1884206 SPIN=   2.92878
  Fe   0.3791006   0.3371276   0.1845897 SPIN=   5.07122
  Fe  -0.3371276  -0.3791006  -0.1845897 SPIN=   5.07122
%ENDBLOCK POSITIONS_FRAC

# Note: total spin =  16.00

KPOINTS_MP_SPACING 0.07

%BLOCK SPECIES_POT
QC5
%ENDBLOCK SPECIES_POT

%BLOCK HUBBARD_U
Fe d:4.0
%ENDBLOCK HUBBARD_U

SNAP_TO_SYMMETRY
SYMMETRY_GENERATE

