#              Generated by Buildcell
#
# at 11:39:13 (GMT+0.0) 26th November 2020
# in /lustre/scratch/uccabz1/launch_tmp
# on node-c12e-026
# by uccabz1
#
# compiler GCC version 4.9.2
# options -cpp -iprefix /lustre/shared/ucl/apps/gcc/4.9.2/bin/../lib/gcc/x86_64-unknown-linux-gnu/4.9.2/ -mtune=corei7 -march=x86-64 -g -Og
#
# seed  1609836422 -1362143430  -555256675  -138242705 -1585873196 -2124325610  1912973162 -1809991056   445463019  -532823058 -2091775402   446343784
#
#      Author: C. J. Pickard (cjp20@cam.ac.uk)
#                Space group: C2
#

%BLOCK LATTICE_ABC
      7.11890      7.52988      7.52988
     62.95357     67.13075     67.13075
%ENDBLOCK LATTICE_ABC

%BLOCK POSITIONS_FRAC
  Li  -0.2821211   0.0284863   0.0684587 SPIN=   0.00000
  Li   0.2821211  -0.0684587  -0.0284863 SPIN=   0.00000
  Li  -0.0000000   0.2879322  -0.2879322 SPIN=   0.00000
  Li   0.0000000  -0.3286653   0.3286653 SPIN=   0.00000
   O   0.2548152   0.1226837   0.1456023 SPIN=   0.00000
   O  -0.0750542  -0.0066456   0.2474028 SPIN=   0.00000
   O  -0.1129947   0.2713543   0.3572596 SPIN=   0.00000
   O  -0.0601263   0.3462349  -0.0163099 SPIN=   0.00000
   P   0.0144101   0.1820952   0.1791136 SPIN=   0.00000
   O  -0.2548152  -0.1456023  -0.1226837 SPIN=   0.00000
   O   0.0750542  -0.2474028   0.0066456 SPIN=   0.00000
   O   0.1129947  -0.3572596  -0.2713543 SPIN=   0.00000
   O   0.0601263   0.0163099  -0.3462349 SPIN=   0.00000
   P  -0.0144101  -0.1791136  -0.1820952 SPIN=   0.00000
   O  -0.8064570   0.4025163   0.2632731 SPIN=   0.00000
   O  -0.6550135   0.1952492   0.5849767 SPIN=   0.00000
   O  -0.4071744   0.2998353   0.2415995 SPIN=   0.00000
   O  -0.6549643   0.5678957   0.3941660 SPIN=   0.00000
   P  -0.6405337   0.3706767   0.3655410 SPIN=   0.00000
   O   0.8064570  -0.2632731  -0.4025163 SPIN=   0.00000
   O   0.6550135  -0.5849767  -0.1952492 SPIN=   0.00000
   O   0.4071744  -0.2415995  -0.2998353 SPIN=   0.00000
   O   0.6549643  -0.3941660  -0.5678957 SPIN=   0.00000
   P   0.6405337  -0.3655410  -0.3706767 SPIN=   0.00000
  Fe   0.6824292   0.0480595  -0.4308261 SPIN=   3.63609
  Fe  -0.6824292   0.4308261  -0.0480595 SPIN=   3.63609
  Fe   0.7011753  -0.4324892   0.1001203 SPIN=   4.36391
  Fe  -0.7011753  -0.1001203   0.4324892 SPIN=   4.36391
%ENDBLOCK POSITIONS_FRAC

# Note: total spin =  16.00

KPOINTS_MP_SPACING 0.07

%BLOCK SPECIES_POT
QC5
%ENDBLOCK SPECIES_POT

%BLOCK HUBBARD_U
Fe d:4.0
%ENDBLOCK HUBBARD_U

SNAP_TO_SYMMETRY
SYMMETRY_GENERATE

