#              Generated by Buildcell
#
# at 12:01:47 (GMT+0.0) 24th November 2020
# in /lustre/scratch/uccabz1/launch_tmp
# on node-c12l-027
# by uccabz1
#
# compiler GCC version 4.9.2
# options -cpp -iprefix /lustre/shared/ucl/apps/gcc/4.9.2/bin/../lib/gcc/x86_64-unknown-linux-gnu/4.9.2/ -mtune=corei7 -march=x86-64 -g -Og
#
# seed -1086725792  1838872031 -1346988823  -134220607 -1371522700  -776539467  1134408461  -671778569  -139587249 -1405955269  -201600085  1788322904
#
#      Author: C. J. Pickard (cjp20@cam.ac.uk)
#                Space group: P4
#

%BLOCK LATTICE_ABC
      5.34534      5.47107      5.47107
     90.00000     90.00000     90.00000
%ENDBLOCK LATTICE_ABC

%BLOCK POSITIONS_FRAC
  Li   0.2613378   0.0000000  -0.0000000 SPIN=   0.00000
  Li  -0.0488352  -0.5000000   0.5000000 SPIN=   0.00000
   O   0.2824602  -0.2019989   0.3804880 SPIN=   0.00000
   O  -0.0741080   0.1103968   0.2995573 SPIN=   0.00000
   O   0.2824602   0.2019989  -0.3804880 SPIN=   0.00000
   O  -0.0741080  -0.1103968  -0.2995573 SPIN=   0.00000
   O   0.2824602  -0.3804880  -0.2019989 SPIN=   0.00000
   O  -0.0741080  -0.2995573   0.1103968 SPIN=   0.00000
   O   0.2824602   0.3804880   0.2019989 SPIN=   0.00000
   O  -0.0741080   0.2995573  -0.1103968 SPIN=   0.00000
   P   0.4499909   0.5000000  -0.5000000 SPIN=   0.00000
   P  -0.2374982   0.0000000   0.0000000 SPIN=   0.00000
  Fe  -0.3937211   0.0000000  -0.5000000 SPIN=   4.00000
  Fe  -0.3937211  -0.5000000  -0.0000000 SPIN=   4.00000
%ENDBLOCK POSITIONS_FRAC

# Note: total spin =   8.00

KPOINTS_MP_SPACING 0.07

%BLOCK SPECIES_POT
QC5
%ENDBLOCK SPECIES_POT

%BLOCK HUBBARD_U
Fe d:4.0
%ENDBLOCK HUBBARD_U

SNAP_TO_SYMMETRY
SYMMETRY_GENERATE

