#              Generated by Buildcell
#
# at 08:22:49 (GMT+0.0) 24th November 2020
# in /lustre/scratch/uccabz1/launch_tmp
# on node-c12n-026
# by uccabz1
#
# compiler GCC version 4.9.2
# options -cpp -iprefix /lustre/shared/ucl/apps/gcc/4.9.2/bin/../lib/gcc/x86_64-unknown-linux-gnu/4.9.2/ -mtune=corei7 -march=x86-64 -g -Og
#
# seed  -934936756   446407488   -99060022 -2104071398   904254687   412531745   479809934   989078936  1208972849 -1863738156  -520224017 -1926263496
#
#      Author: C. J. Pickard (cjp20@cam.ac.uk)
#                Space group: Cc
#

%BLOCK LATTICE_ABC
      5.46521      5.59183      6.46307
    105.32871    104.51671    113.44828
%ENDBLOCK LATTICE_ABC

%BLOCK POSITIONS_FRAC
  Li  -0.1350711  -0.3450667  -0.2366190 SPIN=   0.00000
  Li   0.1015479   0.3915522   0.2366190 SPIN=   0.00000
   O  -0.6122335   0.0853214  -0.0637120 SPIN=   0.00000
   O  -0.3491496   0.1996400  -0.3375266 SPIN=   0.00000
   O  -0.1750860   0.0071431  -0.0668263 SPIN=   0.00000
   O  -0.6562350  -0.3110568  -0.4104185 SPIN=   0.00000
   P  -0.4593666  -0.0035577  -0.2135711 SPIN=   0.00000
   O  -0.5485215  -0.3509666   0.0637120 SPIN=   0.00000
   O  -0.0116230   0.0371666   0.3375266 SPIN=   0.00000
   O  -0.1082597  -0.4260306   0.0668263 SPIN=   0.00000
   O  -0.2458165  -0.4006383   0.4104185 SPIN=   0.00000
   P  -0.2457955  -0.2899866   0.2135711 SPIN=   0.00000
  Fe   0.4623822   0.0371353   0.2538275 SPIN=   4.00000
  Fe   0.2085548   0.2833079  -0.2538275 SPIN=   4.00000
%ENDBLOCK POSITIONS_FRAC

# Note: total spin =   8.00

KPOINTS_MP_SPACING 0.07

%BLOCK SPECIES_POT
QC5
%ENDBLOCK SPECIES_POT

%BLOCK HUBBARD_U
Fe d:4.0
%ENDBLOCK HUBBARD_U

SNAP_TO_SYMMETRY
SYMMETRY_GENERATE

