#              Generated by Buildcell
#
# at 01:09:21 (GMT+0.0) 27th November 2020
# in /scratch/scratch/mmm0366/launch_tmp
# on node-k98b-030
# by mmm0366
#
# compiler GCC version 4.9.2
# options -cpp -iprefix /scratch/UCL/applications/gcc/4.9.2/bin/../lib/gcc/x86_64-unknown-linux-gnu/4.9.2/ -mtune=corei7 -march=x86-64 -g -O2
#
# seed  1984787836   669510679  1809643078    10762623   440870303   -14630346  -443163347  -425974201  -740896630 -1176863842 -1812516915 -1168634192
#
#      Author: C. J. Pickard (cjp20@cam.ac.uk)
#                Space group: P-1
#

%BLOCK LATTICE_ABC
      6.43708      6.50835      8.25259
     95.43983    101.53308    106.79056
%ENDBLOCK LATTICE_ABC

%BLOCK POSITIONS_FRAC
  Li   0.3677527   0.8023960  -0.2227827 SPIN=   0.00000
  Li  -0.3677527  -0.8023960   0.2227827 SPIN=   0.00000
  Li  -0.5000000  -0.5000000   0.0000000 SPIN=   0.00000
  Li   0.0000000   0.5000000  -0.5000000 SPIN=   0.00000
   O   0.6343458   0.3710630  -0.2954692 SPIN=   0.00000
   O   0.2185306   0.3005819  -0.2871168 SPIN=   0.00000
   O   0.3268774  -0.0020180  -0.4106017 SPIN=   0.00000
   O   0.4507079   0.1266114  -0.1006610 SPIN=   0.00000
   P   0.4201962   0.2073630  -0.2725947 SPIN=   0.00000
   O  -0.6343458  -0.3710630   0.2954692 SPIN=   0.00000
   O  -0.2185306  -0.3005819   0.2871168 SPIN=   0.00000
   O  -0.3268774   0.0020180   0.4106017 SPIN=   0.00000
   O  -0.4507079  -0.1266114   0.1006610 SPIN=   0.00000
   P  -0.4201962  -0.2073630   0.2725947 SPIN=   0.00000
   O  -0.3379304  -0.2766472  -0.1406976 SPIN=   0.00000
   O   0.0397366   0.0018199  -0.1494898 SPIN=   0.00000
   O   0.0142961  -0.3856913  -0.1629954 SPIN=   0.00000
   O  -0.1872813  -0.2632379  -0.4083595 SPIN=   0.00000
   P  -0.1303359  -0.2337540  -0.2136861 SPIN=   0.00000
   O   0.3379304   0.2766472   0.1406976 SPIN=   0.00000
   O  -0.0397366  -0.0018199   0.1494898 SPIN=   0.00000
   O  -0.0142961   0.3856913   0.1629954 SPIN=   0.00000
   O   0.1872813   0.2632379   0.4083595 SPIN=   0.00000
   P   0.1303359   0.2337540   0.2136861 SPIN=   0.00000
  Fe   0.1536289  -0.2009624   0.1043265 SPIN=   2.42293
  Fe  -0.1536289   0.2009624  -0.1043265 SPIN=   2.42293
  Fe   0.0000000  -0.0000000   0.5000000 SPIN=   4.60091
  Fe  -0.5000000  -0.5000000  -0.5000000 SPIN=   6.55323
%ENDBLOCK POSITIONS_FRAC

# Note: total spin =  16.00

KPOINTS_MP_SPACING 0.07

%BLOCK SPECIES_POT
QC5
%ENDBLOCK SPECIES_POT

%BLOCK HUBBARD_U
Fe d:4.0
%ENDBLOCK HUBBARD_U

SNAP_TO_SYMMETRY
SYMMETRY_GENERATE

