#              Generated by Buildcell
#
# at 22:20:26 (GMT+0.0) 26th November 2020
# in /scratch/scratch/mmm0366/launch_tmp
# on node-k98p-033
# by mmm0366
#
# compiler GCC version 4.9.2
# options -cpp -iprefix /scratch/UCL/applications/gcc/4.9.2/bin/../lib/gcc/x86_64-unknown-linux-gnu/4.9.2/ -mtune=corei7 -march=x86-64 -g -O2
#
# seed  1318444296  1858626778 -1906894299   217203658  -835490446 -2094620937  1029203489  1687306083  -138879632  1327883277  1860420853 -2114153236
#
#      Author: C. J. Pickard (cjp20@cam.ac.uk)
#                Space group: Pc
#

%BLOCK LATTICE_ABC
      5.12830      6.54856     10.13567
     90.00000     90.00000    109.93013
%ENDBLOCK LATTICE_ABC

%BLOCK POSITIONS_FRAC
  Li   0.2927388   0.4432866   0.1712089 SPIN=   0.00000
  Li  -0.2072612  -0.0567134  -0.1712089 SPIN=   0.00000
  Li  -0.1296099  -0.2308823   0.0931742 SPIN=   0.00000
  Li   0.3703901   0.2691177  -0.0931742 SPIN=   0.00000
   O   0.3224124   0.5754254   0.3623675 SPIN=   0.00000
   O  -0.1261225   0.2530773   0.4175872 SPIN=   0.00000
   O   0.2996307   0.1729906   0.3655765 SPIN=   0.00000
   O   0.2676234   0.3563848   0.5787442 SPIN=   0.00000
   P   0.1987947   0.3522326   0.4291536 SPIN=   0.00000
   O  -0.1775876   0.0754254  -0.3623675 SPIN=   0.00000
   O  -0.6261225  -0.2469227  -0.4175872 SPIN=   0.00000
   O  -0.2003693  -0.3270094  -0.3655765 SPIN=   0.00000
   O  -0.2323766  -0.1436152  -0.5787442 SPIN=   0.00000
   P  -0.3012053  -0.1477674  -0.4291536 SPIN=   0.00000
   O   0.3544008  -0.1836878   0.0673747 SPIN=   0.00000
   O   0.3547996  -0.4101497  -0.1430451 SPIN=   0.00000
   O  -0.0490982  -0.2945656  -0.1025181 SPIN=   0.00000
   O   0.4061072  -0.0176164  -0.1664142 SPIN=   0.00000
   P   0.2728767  -0.2217600  -0.0789234 SPIN=   0.00000
   O   0.8544008   0.3163122  -0.0673747 SPIN=   0.00000
   O   0.8547996   0.0898503   0.1430451 SPIN=   0.00000
   O   0.4509018   0.2054344   0.1025181 SPIN=   0.00000
   O   0.9061072   0.4823836   0.1664142 SPIN=   0.00000
   P   0.7728767   0.2782400   0.0789234 SPIN=   0.00000
  Fe  -0.2167181  -0.4551161   0.3891390 SPIN=   5.25709
  Fe   0.2832819   0.0448839  -0.3891390 SPIN=   5.25709
  Fe   0.4556009  -0.0413018   0.2542462 SPIN=   2.74291
  Fe   0.9556009   0.4586982  -0.2542462 SPIN=   2.74291
%ENDBLOCK POSITIONS_FRAC

# Note: total spin =  16.00

KPOINTS_MP_SPACING 0.07

%BLOCK SPECIES_POT
QC5
%ENDBLOCK SPECIES_POT

%BLOCK HUBBARD_U
Fe d:4.0
%ENDBLOCK HUBBARD_U

SNAP_TO_SYMMETRY
SYMMETRY_GENERATE

