#              Generated by Buildcell
#
# at 08:16:28 (GMT+0.0) 24th November 2020
# in /lustre/scratch/uccabz1/launch_tmp
# on node-c12e-031
# by uccabz1
#
# compiler GCC version 4.9.2
# options -cpp -iprefix /lustre/shared/ucl/apps/gcc/4.9.2/bin/../lib/gcc/x86_64-unknown-linux-gnu/4.9.2/ -mtune=corei7 -march=x86-64 -g -Og
#
# seed -2110351012 -1848246053  1453149643 -1687362695  1036841233  -966837463   292332868    77804697  1479665174 -1348305946 -2041082680  1147705984
#
#      Author: C. J. Pickard (cjp20@cam.ac.uk)
#                Space group: P-1
#

%BLOCK LATTICE_ABC
      4.34120      5.33988      7.15167
    103.37984     95.34630     93.49912
%ENDBLOCK LATTICE_ABC

%BLOCK POSITIONS_FRAC
  Li   0.3301465   0.2353279   0.4838715 SPIN=   0.00000
  Li  -0.3301465  -0.2353279  -0.4838715 SPIN=   0.00000
   O   0.1537750  -0.3339944   0.3578404 SPIN=   0.00000
   O  -0.1953311  -0.3395174   0.0411953 SPIN=   0.00000
   O  -0.2376167   0.0083815   0.3305675 SPIN=   0.00000
   O   0.2406404   0.0069627   0.1598257 SPIN=   0.00000
   P   0.0020211  -0.1715405   0.2288331 SPIN=   0.00000
   O  -0.1537750   0.3339944  -0.3578404 SPIN=   0.00000
   O   0.1953311   0.3395174  -0.0411953 SPIN=   0.00000
   O   0.2376167  -0.0083815  -0.3305675 SPIN=   0.00000
   O  -0.2406404  -0.0069627  -0.1598257 SPIN=   0.00000
   P  -0.0020211   0.1715405  -0.2288331 SPIN=   0.00000
  Fe   0.2169021  -0.2919793  -0.1464780 SPIN=   4.00000
  Fe  -0.2169021   0.2919793   0.1464780 SPIN=   4.00000
%ENDBLOCK POSITIONS_FRAC

# Note: total spin =   8.00

KPOINTS_MP_SPACING 0.07

%BLOCK SPECIES_POT
QC5
%ENDBLOCK SPECIES_POT

%BLOCK HUBBARD_U
Fe d:4.0
%ENDBLOCK HUBBARD_U

SNAP_TO_SYMMETRY
SYMMETRY_GENERATE

