#              Generated by Buildcell
#
# at 17:01:10 (GMT+0.0) 26th November 2020
# in /scratch/scratch/uccabz1/launch_tmp
# on node-k10c-005
# by uccabz1
#
# compiler GCC version 4.9.2
# options -cpp -iprefix /scratch/UCL/applications/gcc/4.9.2/bin/../lib/gcc/x86_64-unknown-linux-gnu/4.9.2/ -mtune=corei7 -march=x86-64 -g -O2
#
# seed   869860561   912502544  2015516030 -1546708078 -2095436218  1447785725 -1310251903  1745574336 -1517591460  -768863349  1922382247  1093942054
#
#      Author: C. J. Pickard (cjp20@cam.ac.uk)
#                Space group: Pm
#

%BLOCK LATTICE_ABC
      5.28128      5.92021     10.24775
     90.00000     90.00000     92.89638
%ENDBLOCK LATTICE_ABC

%BLOCK POSITIONS_FRAC
  Li  -0.4086318  -0.2569642   0.2588376 SPIN=   0.00000
  Li  -0.4086318  -0.2569642  -0.2588376 SPIN=   0.00000
  Li  -0.1491858  -0.3316880   0.0000000 SPIN=   0.00000
  Li  -0.4344871   0.1305528  -0.0000000 SPIN=   0.00000
   O   0.2635664  -0.1790423   0.1188311 SPIN=   0.00000
   O   0.2450677  -0.3517805   0.3519020 SPIN=   0.00000
   O  -0.0671220  -0.0720519   0.2930327 SPIN=   0.00000
   O  -0.1002836  -0.4580505   0.1925890 SPIN=   0.00000
   P   0.0926084  -0.2629177   0.2321368 SPIN=   0.00000
   O   0.2635664  -0.1790423  -0.1188311 SPIN=   0.00000
   O   0.2450677  -0.3517805  -0.3519020 SPIN=   0.00000
   O  -0.0671220  -0.0720519  -0.2930327 SPIN=   0.00000
   O  -0.1002836  -0.4580505  -0.1925890 SPIN=   0.00000
   P   0.0926084  -0.2629177  -0.2321368 SPIN=   0.00000
   O  -0.5868128   0.0762214   0.2939976 SPIN=   0.00000
   O  -0.5583021   0.4519218   0.1625707 SPIN=   0.00000
   O  -0.3646714   0.4471654   0.3818892 SPIN=   0.00000
   P  -0.4245535   0.2913072   0.2603104 SPIN=   0.00000
   O  -0.5868128   0.0762214  -0.2939976 SPIN=   0.00000
   O  -0.5583021   0.4519218  -0.1625707 SPIN=   0.00000
   O  -0.3646714   0.4471654  -0.3818892 SPIN=   0.00000
   P  -0.4245535   0.2913072  -0.2603104 SPIN=   0.00000
   O  -0.0332739   0.0683215   0.0000000 SPIN=   0.00000
   O  -0.2936776  -0.1780363   0.5000000 SPIN=   0.00000
  Fe   0.0700166   0.2095180  -0.1858205 SPIN=   4.19407
  Fe   0.0700166   0.2095180   0.1858205 SPIN=   4.19407
  Fe   0.4436005   0.0760243  -0.5000000 SPIN=   4.19292
  Fe  -0.0375441  -0.4371915   0.5000000 SPIN=   3.41893
%ENDBLOCK POSITIONS_FRAC

# Note: total spin =  16.00

KPOINTS_MP_SPACING 0.07

%BLOCK SPECIES_POT
QC5
%ENDBLOCK SPECIES_POT

%BLOCK HUBBARD_U
Fe d:4.0
%ENDBLOCK HUBBARD_U

SNAP_TO_SYMMETRY
SYMMETRY_GENERATE

