#              Generated by Buildcell
#
# at 01:42:50 (GMT+0.0) 27th November 2020
# in /lustre/scratch/uccabz1/launch_tmp
# on node-c12f-021
# by uccabz1
#
# compiler GCC version 4.9.2
# options -cpp -iprefix /lustre/shared/ucl/apps/gcc/4.9.2/bin/../lib/gcc/x86_64-unknown-linux-gnu/4.9.2/ -mtune=corei7 -march=x86-64 -g -Og
#
# seed  1223504059  1515500399  -669627303  1367266592   654113856 -1442959998 -1038536860   694204824  1723637550  1991258757 -2084390939  -446263640
#
#      Author: C. J. Pickard (cjp20@cam.ac.uk)
#                Space group: P-1
#

%BLOCK LATTICE_ABC
      6.08561      6.28136      8.65524
     75.45956     87.93532     88.51022
%ENDBLOCK LATTICE_ABC

%BLOCK POSITIONS_FRAC
  Li   0.0072476  -0.1183898  -0.2376981 SPIN=   0.00000
  Li  -0.0072476   0.1183898   0.2376981 SPIN=   0.00000
  Li   0.2614186  -0.1632455   0.0625143 SPIN=   0.00000
  Li  -0.2614186   0.1632455  -0.0625143 SPIN=   0.00000
   O  -0.4245638  -0.0933263   0.1304510 SPIN=   0.00000
   O  -0.6790682   0.0874619   0.3108170 SPIN=   0.00000
   O  -0.2900562   0.0139291   0.3818091 SPIN=   0.00000
   O  -0.3846541   0.3115093   0.1400106 SPIN=   0.00000
   P  -0.4428123   0.0734037   0.2337088 SPIN=   0.00000
   O   0.4245638   0.0933263  -0.1304510 SPIN=   0.00000
   O   0.6790682  -0.0874619  -0.3108170 SPIN=   0.00000
   O   0.2900562  -0.0139291  -0.3818091 SPIN=   0.00000
   O   0.3846541  -0.3115093  -0.1400106 SPIN=   0.00000
   P   0.4428123  -0.0734037  -0.2337088 SPIN=   0.00000
   O   0.2324714   0.4524766   0.1356875 SPIN=   0.00000
   O   0.2955113   0.3978167   0.4385442 SPIN=   0.00000
   O   0.1049952   0.7373765   0.2935352 SPIN=   0.00000
   O  -0.0867292   0.3771029   0.3460033 SPIN=   0.00000
   P   0.1390338   0.4877853   0.2950127 SPIN=   0.00000
   O  -0.2324714  -0.4524766  -0.1356875 SPIN=   0.00000
   O  -0.2955113  -0.3978167  -0.4385442 SPIN=   0.00000
   O  -0.1049952  -0.7373765  -0.2935352 SPIN=   0.00000
   O   0.0867292  -0.3771029  -0.3460033 SPIN=   0.00000
   P  -0.1390338  -0.4877853  -0.2950127 SPIN=   0.00000
  Fe   0.2373538   0.3701055  -0.1038500 SPIN=   3.48351
  Fe  -0.2373538  -0.3701055   0.1038500 SPIN=   3.48351
  Fe  -0.3169354   0.2364220  -0.4735763 SPIN=   4.51649
  Fe   0.3169354  -0.2364220   0.4735763 SPIN=   4.51649
%ENDBLOCK POSITIONS_FRAC

# Note: total spin =  16.00

KPOINTS_MP_SPACING 0.07

%BLOCK SPECIES_POT
QC5
%ENDBLOCK SPECIES_POT

%BLOCK HUBBARD_U
Fe d:4.0
%ENDBLOCK HUBBARD_U

SNAP_TO_SYMMETRY
SYMMETRY_GENERATE

