#              Generated by Buildcell
#
# at 08:37:59 (GMT+0.0) 24th November 2020
# in /scratch/scratch/uccabz1/launch_tmp
# on node-a14a-024
# by uccabz1
#
# compiler GCC version 4.9.2
# options -cpp -iprefix /scratch/UCL/applications/gcc/4.9.2/bin/../lib/gcc/x86_64-unknown-linux-gnu/4.9.2/ -mtune=corei7 -march=x86-64 -g -O2
#
# seed   311520772   955519277     7119727   836909881  -415981019 -1394687779 -1803001913  -946365611   853336822 -1308385344   982263080  -879567189
#
#      Author: C. J. Pickard (cjp20@cam.ac.uk)
#                Space group: P21
#

%BLOCK LATTICE_ABC
      4.82363      4.99194      6.73344
     99.31101     90.00000     90.00000
%ENDBLOCK LATTICE_ABC

%BLOCK POSITIONS_FRAC
  Li   0.2279971  -0.1847371   0.0024147 SPIN=   0.00000
  Li  -0.2720029   0.1847371  -0.0024147 SPIN=   0.00000
   O   0.0328643   0.3124851   0.3989860 SPIN=   0.00000
   O   0.5468176   0.3255685   0.2855393 SPIN=   0.00000
   O   0.1798476   0.3428182   0.0320873 SPIN=   0.00000
   O   0.2555689   0.7439196   0.3021875 SPIN=   0.00000
   P   0.2420334   0.4285674   0.2629430 SPIN=   0.00000
   O  -0.4671357  -0.3124851  -0.3989860 SPIN=   0.00000
   O   0.0468176  -0.3255685  -0.2855393 SPIN=   0.00000
   O  -0.3201524  -0.3428182  -0.0320873 SPIN=   0.00000
   O  -0.2444311  -0.7439196  -0.3021875 SPIN=   0.00000
   P  -0.2579666  -0.4285674  -0.2629430 SPIN=   0.00000
  Fe  -0.2566250  -0.2569923   0.3377156 SPIN=   4.00000
  Fe   0.2433750   0.2569923  -0.3377156 SPIN=   4.00000
%ENDBLOCK POSITIONS_FRAC

# Note: total spin =   8.00

KPOINTS_MP_SPACING 0.07

%BLOCK SPECIES_POT
QC5
%ENDBLOCK SPECIES_POT

%BLOCK HUBBARD_U
Fe d:4.0
%ENDBLOCK HUBBARD_U

SNAP_TO_SYMMETRY
SYMMETRY_GENERATE

