#              Generated by Buildcell
#
# at 10:50:17 (GMT+0.0) 24th November 2020
# in /scratch/scratch/uccabz1/launch_tmp
# on node-a14f-010
# by uccabz1
#
# compiler GCC version 4.9.2
# options -cpp -iprefix /scratch/UCL/applications/gcc/4.9.2/bin/../lib/gcc/x86_64-unknown-linux-gnu/4.9.2/ -mtune=corei7 -march=x86-64 -g -O2
#
# seed  -336087590  -393571721  1724161184   583998809    -1145034   -36568338  -307569137 -2003943175   685100348   253521067  -206820339  2091551373
#
#      Author: C. J. Pickard (cjp20@cam.ac.uk)
#                Space group: C2
#

%BLOCK LATTICE_ABC
      5.38720      5.38720      5.99306
     81.08036     81.08036     69.51138
%ENDBLOCK LATTICE_ABC

%BLOCK POSITIONS_FRAC
  Li  -0.4444957   0.4706020   0.2464438 SPIN=   0.00000
  Li  -0.4706020   0.4444957  -0.2464438 SPIN=   0.00000
   O  -0.3603689  -0.1830088   0.0964103 SPIN=   0.00000
   O  -0.2563404  -0.3428975   0.5140750 SPIN=   0.00000
   O   0.1200811  -0.3645326   0.2155477 SPIN=   0.00000
   O  -0.1870304   0.0797037   0.3248339 SPIN=   0.00000
   P  -0.1811924  -0.1983037   0.2779687 SPIN=   0.00000
   O   0.1830088   0.3603689  -0.0964103 SPIN=   0.00000
   O   0.3428975   0.2563404  -0.5140750 SPIN=   0.00000
   O   0.3645326  -0.1200811  -0.2155477 SPIN=   0.00000
   O  -0.0797037   0.1870304  -0.3248339 SPIN=   0.00000
   P   0.1983037   0.1811924  -0.2779687 SPIN=   0.00000
  Fe  -0.1047513  -0.1911997  -0.2066014 SPIN=   4.00000
  Fe   0.1911997   0.1047513   0.2066014 SPIN=   4.00000
%ENDBLOCK POSITIONS_FRAC

# Note: total spin =   8.00

KPOINTS_MP_SPACING 0.07

%BLOCK SPECIES_POT
QC5
%ENDBLOCK SPECIES_POT

%BLOCK HUBBARD_U
Fe d:4.0
%ENDBLOCK HUBBARD_U

SNAP_TO_SYMMETRY
SYMMETRY_GENERATE

