#              Generated by Buildcell
#
# at 22:17:52 (GMT+0.0) 26th November 2020
# in /lustre/scratch/uccabz1/launch_tmp
# on node-c12l-024
# by uccabz1
#
# compiler GCC version 4.9.2
# options -cpp -iprefix /lustre/shared/ucl/apps/gcc/4.9.2/bin/../lib/gcc/x86_64-unknown-linux-gnu/4.9.2/ -mtune=corei7 -march=x86-64 -g -Og
#
# seed  -750273174   460067768  1533837073  -292316070  -767336293   439523504  -721294052   520417984  1693770407 -1788660597 -1307830458   283780707
#
#      Author: C. J. Pickard (cjp20@cam.ac.uk)
#                Space group: Pc
#

%BLOCK LATTICE_ABC
      5.54000      7.64646      7.80133
     90.00000     90.00000    104.46466
%ENDBLOCK LATTICE_ABC

%BLOCK POSITIONS_FRAC
  Li   0.0647284  -0.2551829  -0.4291538 SPIN=   0.00000
  Li  -0.4352716  -0.2551829   0.4291538 SPIN=   0.00000
  Li   0.3867953  -0.2276279  -0.1126694 SPIN=   0.00000
  Li  -0.1132047  -0.2276279   0.1126694 SPIN=   0.00000
   O  -0.7000033  -0.0454472  -0.2895676 SPIN=   0.00000
   O  -0.2600541  -0.0974746  -0.3419162 SPIN=   0.00000
   O  -0.3882435   0.1356811  -0.5131994 SPIN=   0.00000
   O  -0.2972135   0.1886082  -0.2003774 SPIN=   0.00000
   P  -0.4253991   0.0421985  -0.3321751 SPIN=   0.00000
   O  -0.2000033  -0.0454472   0.2895676 SPIN=   0.00000
   O   0.2399459  -0.0974746   0.3419162 SPIN=   0.00000
   O   0.1117565   0.1356811   0.5131994 SPIN=   0.00000
   O   0.2027865   0.1886082   0.2003774 SPIN=   0.00000
   P   0.0746009   0.0421985   0.3321751 SPIN=   0.00000
   O  -0.0352686   0.4024547  -0.4031328 SPIN=   0.00000
   O   0.3315442   0.3142428  -0.2471575 SPIN=   0.00000
   O   0.3902884   0.6298222  -0.3434503 SPIN=   0.00000
   O   0.1034957   0.5147603  -0.0978293 SPIN=   0.00000
   P   0.1840108   0.4625562  -0.2777612 SPIN=   0.00000
   O  -0.5352686   0.4024547   0.4031328 SPIN=   0.00000
   O  -0.1684558   0.3142428   0.2471575 SPIN=   0.00000
   O  -0.1097116   0.6298222   0.3434503 SPIN=   0.00000
   O  -0.3965043   0.5147603   0.0978293 SPIN=   0.00000
   P  -0.3159892   0.4625562   0.2777612 SPIN=   0.00000
  Fe   0.1874510   0.4589070   0.1771582 SPIN=   6.83459
  Fe  -0.3125490   0.4589070  -0.1771582 SPIN=   6.83459
  Fe   0.0530543   0.0875930  -0.1775207 SPIN=   1.16541
  Fe  -0.4469457   0.0875930   0.1775207 SPIN=   1.16541
%ENDBLOCK POSITIONS_FRAC

# Note: total spin =  16.00

KPOINTS_MP_SPACING 0.07

%BLOCK SPECIES_POT
QC5
%ENDBLOCK SPECIES_POT

%BLOCK HUBBARD_U
Fe d:4.0
%ENDBLOCK HUBBARD_U

SNAP_TO_SYMMETRY
SYMMETRY_GENERATE

