#              Generated by Buildcell
#
# at 16:44:03 (GMT+0.0) 26th November 2020
# in /lustre/scratch/uccabz1/launch_tmp
# on node-c12i-025
# by uccabz1
#
# compiler GCC version 4.9.2
# options -cpp -iprefix /lustre/shared/ucl/apps/gcc/4.9.2/bin/../lib/gcc/x86_64-unknown-linux-gnu/4.9.2/ -mtune=corei7 -march=x86-64 -g -Og
#
# seed  2005557801   448953113   545297416   376624429  -793632030   272136644  1599698945   328354749  -676992678    26412103  -281016487 -1956177846
#
#      Author: C. J. Pickard (cjp20@cam.ac.uk)
#                Space group: P-1
#

%BLOCK LATTICE_ABC
      6.61647      6.84140      7.95131
     65.34280     82.73902     78.34290
%ENDBLOCK LATTICE_ABC

%BLOCK POSITIONS_FRAC
  Li   0.3209083  -0.2849342   0.3544035 SPIN=   0.00000
  Li  -0.3209083   0.2849342  -0.3544035 SPIN=   0.00000
  Li   0.0113522   0.1364224   0.2170801 SPIN=   0.00000
  Li  -0.0113522  -0.1364224  -0.2170801 SPIN=   0.00000
   O   0.1735482  -0.6192037   0.1997707 SPIN=   0.00000
   O   0.0611328  -0.1986540   0.0715003 SPIN=   0.00000
   O   0.4316573  -0.3490883   0.1186729 SPIN=   0.00000
   O   0.2618119  -0.3666217  -0.1377430 SPIN=   0.00000
   P   0.2292746  -0.3957498   0.0679604 SPIN=   0.00000
   O  -0.1735482   0.6192037  -0.1997707 SPIN=   0.00000
   O  -0.0611328   0.1986540  -0.0715003 SPIN=   0.00000
   O  -0.4316573   0.3490883  -0.1186729 SPIN=   0.00000
   O  -0.2618119   0.3666217   0.1377430 SPIN=   0.00000
   P  -0.2292746   0.3957498  -0.0679604 SPIN=   0.00000
   O  -0.2418914  -0.0053733   0.5562199 SPIN=   0.00000
   O  -0.2231364  -0.0470931   0.2442196 SPIN=   0.00000
   O   0.0160083  -0.3051283   0.4849278 SPIN=   0.00000
   O  -0.3611892  -0.3288218   0.5312338 SPIN=   0.00000
   P  -0.2065189  -0.1646084   0.4604946 SPIN=   0.00000
   O   0.2418914   0.0053733  -0.5562199 SPIN=   0.00000
   O   0.2231364   0.0470931  -0.2442196 SPIN=   0.00000
   O  -0.0160083   0.3051283  -0.4849278 SPIN=   0.00000
   O   0.3611892   0.3288218  -0.5312338 SPIN=   0.00000
   P   0.2065189   0.1646084  -0.4604946 SPIN=   0.00000
  Fe  -0.1899636  -0.3785785   0.2148766 SPIN=   1.97896
  Fe   0.1899636   0.3785785  -0.2148766 SPIN=   1.97896
  Fe   0.4954967   0.1841043   0.2339061 SPIN=   6.02104
  Fe  -0.4954967  -0.1841043  -0.2339061 SPIN=   6.02104
%ENDBLOCK POSITIONS_FRAC

# Note: total spin =  16.00

KPOINTS_MP_SPACING 0.07

%BLOCK SPECIES_POT
QC5
%ENDBLOCK SPECIES_POT

%BLOCK HUBBARD_U
Fe d:4.0
%ENDBLOCK HUBBARD_U

SNAP_TO_SYMMETRY
SYMMETRY_GENERATE

