#              Generated by Buildcell
#
# at 06:43:35 (GMT+0.0) 24th November 2020
# in /lustre/scratch/uccabz1/launch_tmp
# on node-c12a-028
# by uccabz1
#
# compiler GCC version 4.9.2
# options -cpp -iprefix /lustre/shared/ucl/apps/gcc/4.9.2/bin/../lib/gcc/x86_64-unknown-linux-gnu/4.9.2/ -mtune=corei7 -march=x86-64 -g -Og
#
# seed    52356986  -672828486  -172928015 -1158103854  -545511341 -1807463599  1178627222   180494989 -2099846151  2051696657   791697555 -1980703652
#
#      Author: C. J. Pickard (cjp20@cam.ac.uk)
#                Space group: Pnc2
#

%BLOCK LATTICE_ABC
      3.93194      5.52415      7.36627
     90.00000     90.00000     90.00000
%ENDBLOCK LATTICE_ABC

%BLOCK POSITIONS_FRAC
  Li   0.5000000  -0.0000000  -0.1879808 SPIN=   0.00000
  Li   0.5000000  -0.5000000   0.3120192 SPIN=   0.00000
   O   0.0349633  -0.2776234   0.2465028 SPIN=   0.00000
   O   0.5356828  -0.2771119   0.0163694 SPIN=   0.00000
   O  -0.0349633   0.2776234   0.2465028 SPIN=   0.00000
   O  -0.5356828   0.2771119   0.0163694 SPIN=   0.00000
   O   0.0349633  -0.2223766  -0.2534972 SPIN=   0.00000
   O   0.5356828  -0.2228881  -0.4836306 SPIN=   0.00000
   O  -0.0349633   0.2223766  -0.2534972 SPIN=   0.00000
   O  -0.5356828   0.2228881  -0.4836306 SPIN=   0.00000
   P  -0.0000000   0.0000000   0.0610683 SPIN=   0.00000
   P   0.0000000  -0.5000000  -0.4389317 SPIN=   0.00000
  Fe   0.0000000   0.0000000   0.4506075 SPIN=   4.00000
  Fe  -0.0000000  -0.5000000  -0.0493925 SPIN=   4.00000
%ENDBLOCK POSITIONS_FRAC

# Note: total spin =   8.00

KPOINTS_MP_SPACING 0.07

%BLOCK SPECIES_POT
QC5
%ENDBLOCK SPECIES_POT

%BLOCK HUBBARD_U
Fe d:4.0
%ENDBLOCK HUBBARD_U

SNAP_TO_SYMMETRY
SYMMETRY_GENERATE

