#              Generated by Buildcell
#
# at 00:49:44 (GMT+0.0) 27th November 2020
# in /lustre/scratch/uccabz1/launch_tmp
# on node-c12k-022
# by uccabz1
#
# compiler GCC version 4.9.2
# options -cpp -iprefix /lustre/shared/ucl/apps/gcc/4.9.2/bin/../lib/gcc/x86_64-unknown-linux-gnu/4.9.2/ -mtune=corei7 -march=x86-64 -g -Og
#
# seed  -844701555  1524592185   310025598   698522410   902392231 -1683376715   -88446751  1202098640 -1471695802  2025868999 -1306397809 -1434515709
#
#      Author: C. J. Pickard (cjp20@cam.ac.uk)
#                Space group: Cc
#

%BLOCK LATTICE_ABC
      6.64196      6.64196      7.29789
     89.01949     89.01949     83.82703
%ENDBLOCK LATTICE_ABC

%BLOCK POSITIONS_FRAC
  Li   0.2065982   0.2032938  -0.0743990 SPIN=   0.00000
  Li   0.2032938   0.2065982   0.4256010 SPIN=   0.00000
  Li   0.1991425  -0.3382229   0.2947977 SPIN=   0.00000
  Li  -0.3382229   0.1991425  -0.2052023 SPIN=   0.00000
   O   0.1828852   0.0152645   0.1586194 SPIN=   0.00000
   O   0.4895688  -0.2530698   0.2200603 SPIN=   0.00000
   O   0.5343496   0.0247518  -0.0012128 SPIN=   0.00000
   O   0.4972468   0.0996869   0.3335558 SPIN=   0.00000
   P   0.4139079  -0.0245090   0.1785754 SPIN=   0.00000
   O   0.0152645   0.1828852  -0.3413806 SPIN=   0.00000
   O  -0.2530698   0.4895688  -0.2799397 SPIN=   0.00000
   O   0.0247518   0.5343496  -0.5012128 SPIN=   0.00000
   O   0.0996869   0.4972468  -0.1664442 SPIN=   0.00000
   P  -0.0245090   0.4139079  -0.3214246 SPIN=   0.00000
   O   0.1893816   0.3873969   0.1578043 SPIN=   0.00000
   O  -0.1429390   0.3093174   0.0041036 SPIN=   0.00000
   O  -0.1133904   0.2598988   0.3391718 SPIN=   0.00000
   O  -0.1494198   0.6115019   0.2055503 SPIN=   0.00000
   P  -0.0422531   0.3943721   0.1759946 SPIN=   0.00000
   O   0.3873969   0.1893816  -0.3421957 SPIN=   0.00000
   O   0.3093174  -0.1429390  -0.4958964 SPIN=   0.00000
   O   0.2598988  -0.1133904  -0.1608282 SPIN=   0.00000
   O   0.6115019  -0.1494198  -0.2944497 SPIN=   0.00000
   P   0.3943721  -0.0422531  -0.3240054 SPIN=   0.00000
  Fe   0.0012868  -0.1652627  -0.3143767 SPIN=   3.38839
  Fe  -0.1652627   0.0012868   0.1856233 SPIN=   3.38839
  Fe  -0.3528406  -0.4975000   0.4367839 SPIN=   4.61161
  Fe  -0.4975000  -0.3528406  -0.0632161 SPIN=   4.61161
%ENDBLOCK POSITIONS_FRAC

# Note: total spin =  16.00

KPOINTS_MP_SPACING 0.07

%BLOCK SPECIES_POT
QC5
%ENDBLOCK SPECIES_POT

%BLOCK HUBBARD_U
Fe d:4.0
%ENDBLOCK HUBBARD_U

SNAP_TO_SYMMETRY
SYMMETRY_GENERATE

