#              Generated by Buildcell
#
# at 12:29:36 (GMT+0.0) 24th November 2020
# in /lustre/scratch/uccabz1/launch_tmp
# on node-c12f-031
# by uccabz1
#
# compiler GCC version 4.9.2
# options -cpp -iprefix /lustre/shared/ucl/apps/gcc/4.9.2/bin/../lib/gcc/x86_64-unknown-linux-gnu/4.9.2/ -mtune=corei7 -march=x86-64 -g -Og
#
# seed  -257301155  2141094266 -1189865513  1303625939 -2071847339  -866019802   880534872 -1823088693  1536628273 -1901979872  -345707835    19638348
#
#      Author: C. J. Pickard (cjp20@cam.ac.uk)
#                Space group: Cc
#

%BLOCK LATTICE_ABC
      3.83453      5.16725      8.31893
     89.07540     76.67526     85.98510
%ENDBLOCK LATTICE_ABC

%BLOCK POSITIONS_FRAC
  Li   0.1905866  -0.4170933  -0.0390478 SPIN=   0.00000
  Li  -0.3484612   0.0829067   0.0390478 SPIN=   0.00000
   O  -0.2082010   0.4908753   0.4463412 SPIN=   0.00000
   O  -0.5960183   0.1595795   0.3492082 SPIN=   0.00000
   O  -0.5357981   0.5843080   0.2086541 SPIN=   0.00000
   O  -0.0069352   0.2589947   0.1640640 SPIN=   0.00000
   P  -0.3260021   0.3783416   0.2987707 SPIN=   0.00000
   O   0.7381402  -0.0091247  -0.4463412 SPIN=   0.00000
   O   0.2531900  -0.3404205  -0.3492082 SPIN=   0.00000
   O   0.1728561   0.0843080  -0.2086541 SPIN=   0.00000
   O   0.6571288  -0.2410053  -0.1640640 SPIN=   0.00000
   P   0.4727685  -0.1216584  -0.2987707 SPIN=   0.00000
  Fe   0.0329684  -0.1617926   0.3265485 SPIN=   4.00000
  Fe  -0.1404831   0.3382074  -0.3265485 SPIN=   4.00000
%ENDBLOCK POSITIONS_FRAC

# Note: total spin =   8.00

KPOINTS_MP_SPACING 0.07

%BLOCK SPECIES_POT
QC5
%ENDBLOCK SPECIES_POT

%BLOCK HUBBARD_U
Fe d:4.0
%ENDBLOCK HUBBARD_U

SNAP_TO_SYMMETRY
SYMMETRY_GENERATE

