#              Generated by Buildcell
#
# at 10:36:42 (GMT+0.0) 24th November 2020
# in /scratch/scratch/uccabz1/launch_tmp
# on node-a14e-012
# by uccabz1
#
# compiler GCC version 4.9.2
# options -cpp -iprefix /scratch/UCL/applications/gcc/4.9.2/bin/../lib/gcc/x86_64-unknown-linux-gnu/4.9.2/ -mtune=corei7 -march=x86-64 -g -O2
#
# seed  -717027940 -1429451162  1951747724 -1635327452 -1826896973   818718797  -753917736 -1877372137 -1460396457 -1783948033  2048896401  1139372484
#
#      Author: C. J. Pickard (cjp20@cam.ac.uk)
#                Space group: P21
#

%BLOCK LATTICE_ABC
      3.91938      5.36115      7.62453
     90.00000     92.93026     90.00000
%ENDBLOCK LATTICE_ABC

%BLOCK POSITIONS_FRAC
  Li  -0.2308530  -0.3586940   0.4802452 SPIN=   0.00000
  Li   0.2308530   0.1413060  -0.4802452 SPIN=   0.00000
   O   0.0002454   0.1312092   0.0754456 SPIN=   0.00000
   O  -0.3839929  -0.2424304   0.1557760 SPIN=   0.00000
   O   0.1347482  -0.1573420   0.3438912 SPIN=   0.00000
   O  -0.3623273   0.1356355   0.3489459 SPIN=   0.00000
   P  -0.1471534  -0.0224835   0.2241231 SPIN=   0.00000
   O  -0.0002454   0.6312092  -0.0754456 SPIN=   0.00000
   O   0.3839929   0.2575696  -0.1557760 SPIN=   0.00000
   O  -0.1347482   0.3426580  -0.3438912 SPIN=   0.00000
   O   0.3623273   0.6356355  -0.3489459 SPIN=   0.00000
   P   0.1471534   0.4775165  -0.2241231 SPIN=   0.00000
  Fe   0.2365000   0.4684555   0.1517610 SPIN=   4.00000
  Fe  -0.2365000  -0.0315445  -0.1517610 SPIN=   4.00000
%ENDBLOCK POSITIONS_FRAC

# Note: total spin =   8.00

KPOINTS_MP_SPACING 0.07

%BLOCK SPECIES_POT
QC5
%ENDBLOCK SPECIES_POT

%BLOCK HUBBARD_U
Fe d:4.0
%ENDBLOCK HUBBARD_U

SNAP_TO_SYMMETRY
SYMMETRY_GENERATE

