#              Generated by Buildcell
#
# at 12:04:40 (GMT+0.0) 24th November 2020
# in /lustre/scratch/uccabz1/launch_tmp
# on node-c12k-031
# by uccabz1
#
# compiler GCC version 4.9.2
# options -cpp -iprefix /lustre/shared/ucl/apps/gcc/4.9.2/bin/../lib/gcc/x86_64-unknown-linux-gnu/4.9.2/ -mtune=corei7 -march=x86-64 -g -Og
#
# seed  2130125311  1604916219 -1914399874 -1046508391  -138751198    67246804  -348130637       -7342  -735285462 -1678158094 -1988460883   118936481
#
#      Author: C. J. Pickard (cjp20@cam.ac.uk)
#                Space group: P-1
#

%BLOCK LATTICE_ABC
      4.36188      5.78183      6.61273
     93.14792     91.67042    105.87342
%ENDBLOCK LATTICE_ABC

%BLOCK POSITIONS_FRAC
  Li  -0.5000000  -0.5000000  -0.0000000 SPIN=   0.00000
  Li   0.5000000  -0.5000000   0.5000000 SPIN=   0.00000
   O  -0.1279300  -0.2952820   0.2048280 SPIN=   0.00000
   O   0.3148333   0.0898811   0.1309108 SPIN=   0.00000
   O   0.4393587  -0.1785600   0.3797316 SPIN=   0.00000
   P   0.2306794  -0.1826406   0.1808231 SPIN=   0.00000
   O   0.1279300   0.2952820  -0.2048280 SPIN=   0.00000
   O  -0.3148333  -0.0898811  -0.1309108 SPIN=   0.00000
   O  -0.4393587   0.1785600  -0.3797316 SPIN=   0.00000
   P  -0.2306794   0.1826406  -0.1808231 SPIN=   0.00000
   O  -0.0000000   0.5000000   0.5000000 SPIN=   0.00000
   O  -0.0000000  -0.0000000   0.5000000 SPIN=   0.00000
  Fe  -0.1462882   0.1480764   0.2449835 SPIN=   4.00000
  Fe   0.1462882  -0.1480764  -0.2449835 SPIN=   4.00000
%ENDBLOCK POSITIONS_FRAC

# Note: total spin =   8.00

KPOINTS_MP_SPACING 0.07

%BLOCK SPECIES_POT
QC5
%ENDBLOCK SPECIES_POT

%BLOCK HUBBARD_U
Fe d:4.0
%ENDBLOCK HUBBARD_U

SNAP_TO_SYMMETRY
SYMMETRY_GENERATE

