#              Generated by Buildcell
#
# at 10:34:07 (GMT+0.0) 24th November 2020
# in /scratch/scratch/uccabz1/launch_tmp
# on node-a14e-013
# by uccabz1
#
# compiler GCC version 4.9.2
# options -cpp -iprefix /scratch/UCL/applications/gcc/4.9.2/bin/../lib/gcc/x86_64-unknown-linux-gnu/4.9.2/ -mtune=corei7 -march=x86-64 -g -O2
#
# seed  1886032878  -751051529  1869434933 -1209718632 -1839073808  1512581205  1844804503 -1689045692 -1886702090  1888947959  -857680082 -1554364116
#
#      Author: C. J. Pickard (cjp20@cam.ac.uk)
#                Space group: Cc
#

%BLOCK LATTICE_ABC
      5.01205      6.25772      6.31882
    112.43985    104.77055    106.62236
%ENDBLOCK LATTICE_ABC

%BLOCK POSITIONS_FRAC
  Li  -0.6644517  -0.3864890  -0.2978964 SPIN=   0.00000
  Li   0.6334447   0.4114074   0.2978964 SPIN=   0.00000
   O   0.4910419   0.0233341  -0.0567017 SPIN=   0.00000
   O   0.0874284   0.2072051  -0.0546786 SPIN=   0.00000
   O   0.2181568   0.0867380  -0.4217744 SPIN=   0.00000
   O  -0.0811313  -0.2559164  -0.3514782 SPIN=   0.00000
   P   0.1924270   0.0125647  -0.2139396 SPIN=   0.00000
   O  -0.4522563  -0.4199641   0.0567017 SPIN=   0.00000
   O  -0.8578930  -0.2381164   0.0546786 SPIN=   0.00000
   O  -0.3600688   0.0085125   0.4217744 SPIN=   0.00000
   O  -0.7296531  -0.4044382   0.3514782 SPIN=   0.00000
   P  -0.5936334  -0.2734956   0.2139396 SPIN=   0.00000
  Fe  -0.0320326   0.0185082   0.2188783 SPIN=   4.00000
  Fe   0.7490890   0.2996299   0.7811217 SPIN=   4.00000
%ENDBLOCK POSITIONS_FRAC

# Note: total spin =   8.00

KPOINTS_MP_SPACING 0.07

%BLOCK SPECIES_POT
QC5
%ENDBLOCK SPECIES_POT

%BLOCK HUBBARD_U
Fe d:4.0
%ENDBLOCK HUBBARD_U

SNAP_TO_SYMMETRY
SYMMETRY_GENERATE

