#              Generated by Buildcell
#
# at 10:06:10 (GMT+0.0) 26th November 2020
# in /lustre/scratch/uccabz1/launch_tmp
# on node-c12c-020
# by uccabz1
#
# compiler GCC version 4.9.2
# options -cpp -iprefix /lustre/shared/ucl/apps/gcc/4.9.2/bin/../lib/gcc/x86_64-unknown-linux-gnu/4.9.2/ -mtune=corei7 -march=x86-64 -g -Og
#
# seed -1723505161  1756846240   366964374  -160981026  -334882685  -150021392   -38663014   568213615  1113181815   360026378   -41670339   469421210
#
#      Author: C. J. Pickard (cjp20@cam.ac.uk)
#                Space group: C2
#

%BLOCK LATTICE_ABC
      6.03025      6.03025      9.04095
     80.62175     80.62175     89.29338
%ENDBLOCK LATTICE_ABC

%BLOCK POSITIONS_FRAC
  Li   0.4290321   0.2195384   0.0782096 SPIN=   0.00000
  Li  -0.2195384  -0.4290321  -0.0782096 SPIN=   0.00000
  Li  -0.3270313  -0.3441475   0.3975563 SPIN=   0.00000
  Li   0.3441475   0.3270313  -0.3975563 SPIN=   0.00000
   O  -0.0356225   0.3135240   0.0322253 SPIN=   0.00000
   O   0.3625052   0.4387677  -0.1128293 SPIN=   0.00000
   O   0.2182036   0.0652602  -0.1332699 SPIN=   0.00000
   O   0.0494419   0.4118350  -0.2604799 SPIN=   0.00000
   P   0.1376509   0.3089087  -0.1122328 SPIN=   0.00000
   O  -0.3135240   0.0356225  -0.0322253 SPIN=   0.00000
   O  -0.4387677  -0.3625052   0.1128293 SPIN=   0.00000
   O  -0.0652602  -0.2182036   0.1332699 SPIN=   0.00000
   O  -0.4118350  -0.0494419   0.2604799 SPIN=   0.00000
   P  -0.3089087  -0.1376509   0.1122328 SPIN=   0.00000
   O  -0.0303506  -0.1907699  -0.2440242 SPIN=   0.00000
   O   0.0285557  -0.3389499  -0.5016367 SPIN=   0.00000
   O  -0.3171882  -0.4533986  -0.3185865 SPIN=   0.00000
   O  -0.2698746  -0.0552588  -0.4527431 SPIN=   0.00000
   P  -0.1424395  -0.2535184  -0.3729150 SPIN=   0.00000
   O   0.1907699   0.0303506   0.2440242 SPIN=   0.00000
   O   0.3389499  -0.0285557   0.5016367 SPIN=   0.00000
   O   0.4533986   0.3171882   0.3185865 SPIN=   0.00000
   O   0.0552588   0.2698746   0.4527431 SPIN=   0.00000
   P   0.2535184   0.1424395   0.3729150 SPIN=   0.00000
  Fe  -0.1841193   0.1729096  -0.2826065 SPIN=   4.33781
  Fe  -0.1729096   0.1841193   0.2826065 SPIN=   4.33781
  Fe   0.2360615  -0.3077659   0.2209455 SPIN=   3.66219
  Fe   0.3077659  -0.2360615  -0.2209455 SPIN=   3.66219
%ENDBLOCK POSITIONS_FRAC

# Note: total spin =  16.00

KPOINTS_MP_SPACING 0.07

%BLOCK SPECIES_POT
QC5
%ENDBLOCK SPECIES_POT

%BLOCK HUBBARD_U
Fe d:4.0
%ENDBLOCK HUBBARD_U

SNAP_TO_SYMMETRY
SYMMETRY_GENERATE

