#              Generated by Buildcell
#
# at 14:10:52 (GMT+0.0) 24th November 2020
# in /lustre/scratch/uccabz1/launch_tmp
# on node-c12j-029
# by uccabz1
#
# compiler GCC version 4.9.2
# options -cpp -iprefix /lustre/shared/ucl/apps/gcc/4.9.2/bin/../lib/gcc/x86_64-unknown-linux-gnu/4.9.2/ -mtune=corei7 -march=x86-64 -g -Og
#
# seed   990030498   135911797   750225207   165797902    75702747 -1490021201  -748155912 -2006810183   483655097  -989676438   620909874   885682765
#
#      Author: C. J. Pickard (cjp20@cam.ac.uk)
#                Space group: Cm
#

%BLOCK LATTICE_ABC
      5.19612      6.25594      6.36872
    119.07950    113.68901     90.71959
%ENDBLOCK LATTICE_ABC

%BLOCK POSITIONS_FRAC
  Li   0.2683911   0.2037431  -0.0000000 SPIN=   0.00000
  Li  -0.2622772   0.4928956  -0.0000000 SPIN=   0.00000
   O   0.0449124  -0.1538062   0.2479653 SPIN=   0.00000
   O   0.5462203   0.0862043   0.6810235 SPIN=   0.00000
   O   0.3821210   0.2450652   0.3742932 SPIN=   0.00000
   O   0.1334929   0.2918605   0.6537091 SPIN=   0.00000
   O  -0.2030529  -0.4017715  -0.2479653 SPIN=   0.00000
   O  -0.1348032  -0.5948192  -0.6810235 SPIN=   0.00000
   O   0.0078277  -0.1292280  -0.3742932 SPIN=   0.00000
   O  -0.5202162  -0.3618487  -0.6537091 SPIN=   0.00000
   P  -0.2285495   0.0686392  -0.0000000 SPIN=   0.00000
   P   0.2300736  -0.3727666   0.0000000 SPIN=   0.00000
  Fe   0.7120201   0.0570773   0.4214848 SPIN=   4.00000
  Fe   0.2905353  -0.3644074  -0.4214848 SPIN=   4.00000
%ENDBLOCK POSITIONS_FRAC

# Note: total spin =   8.00

KPOINTS_MP_SPACING 0.07

%BLOCK SPECIES_POT
QC5
%ENDBLOCK SPECIES_POT

%BLOCK HUBBARD_U
Fe d:4.0
%ENDBLOCK HUBBARD_U

SNAP_TO_SYMMETRY
SYMMETRY_GENERATE

