#              Generated by Buildcell
#
# at 14:40:14 (GMT+0.0) 24th November 2020
# in /scratch/scratch/uccabz1/launch_tmp
# on node-a14a-004
# by uccabz1
#
# compiler GCC version 4.9.2
# options -cpp -iprefix /scratch/UCL/applications/gcc/4.9.2/bin/../lib/gcc/x86_64-unknown-linux-gnu/4.9.2/ -mtune=corei7 -march=x86-64 -g -O2
#
# seed   228883916   723457227  -206729695 -1359925285 -1607675263 -1485655901 -1318646682   986492535   467740753   176987087  -718477318  2017909014
#
#      Author: C. J. Pickard (cjp20@cam.ac.uk)
#                Space group: P-1
#

%BLOCK LATTICE_ABC
      4.73778      4.77708      7.34323
     90.10706     94.30987    105.05454
%ENDBLOCK LATTICE_ABC

%BLOCK POSITIONS_FRAC
  Li   0.0000000  -0.0000000   0.5000000 SPIN=   0.00000
  Li   0.0000000   0.0000000   0.0000000 SPIN=   0.00000
   O   0.2379936   0.1122618   0.2589131 SPIN=   0.00000
   O   0.6855479  -0.1055264   0.2498450 SPIN=   0.00000
   O   0.3073413  -0.3146217   0.4607768 SPIN=   0.00000
   O   0.1911760  -0.3987078   0.1235847 SPIN=   0.00000
   P   0.3473179  -0.1638860   0.2707484 SPIN=   0.00000
   O  -0.2379936  -0.1122618  -0.2589131 SPIN=   0.00000
   O  -0.6855479   0.1055264  -0.2498450 SPIN=   0.00000
   O  -0.3073413   0.3146217  -0.4607768 SPIN=   0.00000
   O  -0.1911760   0.3987078  -0.1235847 SPIN=   0.00000
   P  -0.3473179   0.1638860  -0.2707484 SPIN=   0.00000
  Fe   0.3140205  -0.4232526  -0.2354673 SPIN=   4.00000
  Fe  -0.3140205   0.4232526   0.2354673 SPIN=   4.00000
%ENDBLOCK POSITIONS_FRAC

# Note: total spin =   8.00

KPOINTS_MP_SPACING 0.07

%BLOCK SPECIES_POT
QC5
%ENDBLOCK SPECIES_POT

%BLOCK HUBBARD_U
Fe d:4.0
%ENDBLOCK HUBBARD_U

SNAP_TO_SYMMETRY
SYMMETRY_GENERATE

