#              Generated by Buildcell
#
# at 13:19:31 (GMT+0.0) 24th November 2020
# in /lustre/scratch/uccabz1/launch_tmp
# on node-c12e-029
# by uccabz1
#
# compiler GCC version 4.9.2
# options -cpp -iprefix /lustre/shared/ucl/apps/gcc/4.9.2/bin/../lib/gcc/x86_64-unknown-linux-gnu/4.9.2/ -mtune=corei7 -march=x86-64 -g -Og
#
# seed  -695731995 -2051537384  1871413540  -196019546 -2001204335   423285073    14977134  -326782614  1074207168  1496427125 -2073187073  -490938853
#
#      Author: C. J. Pickard (cjp20@cam.ac.uk)
#                Space group: C2/m
#

%BLOCK LATTICE_ABC
      4.37343      4.37343      8.37074
     90.59546     90.59546     91.90477
%ENDBLOCK LATTICE_ABC

%BLOCK POSITIONS_FRAC
  Li   0.0000000  -0.0000000   0.0000000 SPIN=   0.00000
  Li  -0.5000000  -0.5000000   0.0000000 SPIN=   0.00000
   O  -0.1112155   0.3882888  -0.1334926 SPIN=   0.00000
   O   0.2045751   0.5978002  -0.3721722 SPIN=   0.00000
   O  -0.3882888   0.1112155   0.1334926 SPIN=   0.00000
   O  -0.5978002  -0.2045751   0.3721722 SPIN=   0.00000
   O   0.1112155  -0.3882888   0.1334926 SPIN=   0.00000
   O  -0.2045751  -0.5978002   0.3721722 SPIN=   0.00000
   O   0.3882888  -0.1112155  -0.1334926 SPIN=   0.00000
   O   0.5978002   0.2045751  -0.3721722 SPIN=   0.00000
   P   0.2386470   0.2386470  -0.2770084 SPIN=   0.00000
   P  -0.2386470  -0.2386470   0.2770084 SPIN=   0.00000
  Fe   0.2474592   0.2474592   0.3533201 SPIN=   4.00000
  Fe  -0.2474592  -0.2474592  -0.3533201 SPIN=   4.00000
%ENDBLOCK POSITIONS_FRAC

# Note: total spin =   8.00

KPOINTS_MP_SPACING 0.07

%BLOCK SPECIES_POT
QC5
%ENDBLOCK SPECIES_POT

%BLOCK HUBBARD_U
Fe d:4.0
%ENDBLOCK HUBBARD_U

SNAP_TO_SYMMETRY
SYMMETRY_GENERATE

