#              Generated by Buildcell
#
# at 13:25:36 (GMT+0.0) 24th November 2020
# in /lustre/scratch/uccabz1/launch_tmp
# on node-c12f-031
# by uccabz1
#
# compiler GCC version 4.9.2
# options -cpp -iprefix /lustre/shared/ucl/apps/gcc/4.9.2/bin/../lib/gcc/x86_64-unknown-linux-gnu/4.9.2/ -mtune=corei7 -march=x86-64 -g -Og
#
# seed  1292061390   749496141   679272938  -950035633  1985897852 -1841401204  -998860108 -1890915983 -2123202874  -339974566   342457257  -414050100
#
#      Author: C. J. Pickard (cjp20@cam.ac.uk)
#                Space group: Iba2
#

%BLOCK LATTICE_ABC
      5.49957      5.49986      6.56548
    114.76181    114.76040     90.00000
%ENDBLOCK LATTICE_ABC

%BLOCK POSITIONS_FRAC
  Li   0.0649483   0.0649483   0.1298965 SPIN=   0.00000
  Li  -0.4350517  -0.4350517   0.1298965 SPIN=   0.00000
   O  -0.2996126   0.3184253  -0.1568395 SPIN=   0.00000
   O  -0.6155896   0.3844206  -0.5464845 SPIN=   0.00000
   O   0.1427731   0.5247352  -0.1568395 SPIN=   0.00000
   O   0.0691050   0.0690948  -0.5464845 SPIN=   0.00000
   O   0.2003874   0.0247352  -0.1568395 SPIN=   0.00000
   O  -0.1155896  -0.4309052  -0.5464845 SPIN=   0.00000
   O  -0.3572269  -0.1815747  -0.1568395 SPIN=   0.00000
   O  -0.4308950  -0.1155794  -0.5464845 SPIN=   0.00000
   P  -0.1846403  -0.1846403  -0.3692806 SPIN=   0.00000
   P   0.3153597   0.3153597  -0.3692806 SPIN=   0.00000
  Fe   0.2415859  -0.2584141   0.4831718 SPIN=   4.00000
  Fe  -0.2584141   0.2415859   0.4831718 SPIN=   4.00000
%ENDBLOCK POSITIONS_FRAC

# Note: total spin =   8.00

KPOINTS_MP_SPACING 0.07

%BLOCK SPECIES_POT
QC5
%ENDBLOCK SPECIES_POT

%BLOCK HUBBARD_U
Fe d:4.0
%ENDBLOCK HUBBARD_U

SNAP_TO_SYMMETRY
SYMMETRY_GENERATE

