#              Generated by Buildcell
#
# at 23:34:27 (GMT+0.0) 26th November 2020
# in /lustre/scratch/uccabz1/launch_tmp
# on node-c12k-024
# by uccabz1
#
# compiler GCC version 4.9.2
# options -cpp -iprefix /lustre/shared/ucl/apps/gcc/4.9.2/bin/../lib/gcc/x86_64-unknown-linux-gnu/4.9.2/ -mtune=corei7 -march=x86-64 -g -Og
#
# seed  1923344375  2042500812 -1696269400 -1534753260   421328973   383993648    91363689   383690341   287593847  -951632462  2053211070   572221036
#
#      Author: C. J. Pickard (cjp20@cam.ac.uk)
#                Space group: P212121
#

%BLOCK LATTICE_ABC
      5.08324      7.57069      8.31522
     90.00000     90.00000     90.00000
%ENDBLOCK LATTICE_ABC

%BLOCK POSITIONS_FRAC
  Li   0.1310104   0.4226656  -0.4660257 SPIN=   0.00000
  Li  -0.3689896   0.0773344   0.4660257 SPIN=   0.00000
  Li   0.3689896  -0.4226656   0.0339743 SPIN=   0.00000
  Li  -0.1310104  -0.0773344  -0.0339743 SPIN=   0.00000
   O  -0.2883584   0.3412191  -0.0306658 SPIN=   0.00000
   O  -0.1587742   0.6568254  -0.1243641 SPIN=   0.00000
   O   0.1718593   0.4190041  -0.1466665 SPIN=   0.00000
   O  -0.2188019   0.4186979  -0.3301720 SPIN=   0.00000
   P  -0.1334202   0.4521939  -0.1532211 SPIN=   0.00000
   O   0.2116416   0.1587809   0.0306658 SPIN=   0.00000
   O   0.3412258  -0.1568254   0.1243641 SPIN=   0.00000
   O   0.6718593   0.0809959   0.1466665 SPIN=   0.00000
   O   0.2811981   0.0813021   0.3301720 SPIN=   0.00000
   P   0.3665798   0.0478061   0.1532211 SPIN=   0.00000
   O  -0.2116416  -0.3412191   0.4693342 SPIN=   0.00000
   O  -0.3412258  -0.6568254   0.3756359 SPIN=   0.00000
   O  -0.6718593  -0.4190041   0.3533335 SPIN=   0.00000
   O  -0.2811981  -0.4186979   0.1698280 SPIN=   0.00000
   P  -0.3665798  -0.4521939   0.3467789 SPIN=   0.00000
   O   0.2883584  -0.1587809  -0.4693342 SPIN=   0.00000
   O   0.1587742   0.1568254  -0.3756359 SPIN=   0.00000
   O  -0.1718593  -0.0809959  -0.3533335 SPIN=   0.00000
   O   0.2188019  -0.0813021  -0.1698280 SPIN=   0.00000
   P   0.1334202  -0.0478061  -0.3467789 SPIN=   0.00000
  Fe   0.4369354   0.2087969  -0.1751961 SPIN=   4.00000
  Fe  -0.0630646   0.2912031   0.1751961 SPIN=   4.00000
  Fe   0.0630646  -0.2087969   0.3248039 SPIN=   4.00000
  Fe  -0.4369354  -0.2912031  -0.3248039 SPIN=   4.00000
%ENDBLOCK POSITIONS_FRAC

# Note: total spin =  16.00

KPOINTS_MP_SPACING 0.07

%BLOCK SPECIES_POT
QC5
%ENDBLOCK SPECIES_POT

%BLOCK HUBBARD_U
Fe d:4.0
%ENDBLOCK HUBBARD_U

SNAP_TO_SYMMETRY
SYMMETRY_GENERATE

