#              Generated by Buildcell
#
# at 14:26:32 (GMT+0.0) 24th November 2020
# in /scratch/scratch/uccabz1/launch_tmp
# on node-a14f-017
# by uccabz1
#
# compiler GCC version 4.9.2
# options -cpp -iprefix /scratch/UCL/applications/gcc/4.9.2/bin/../lib/gcc/x86_64-unknown-linux-gnu/4.9.2/ -mtune=corei7 -march=x86-64 -g -O2
#
# seed  1253675644 -1852219205  -528365854  1209355766 -1606925315 -1406098257  -467676030  1023668825  1197869565  -558730315  1440404245   816167260
#
#      Author: C. J. Pickard (cjp20@cam.ac.uk)
#                Space group: C2
#

%BLOCK LATTICE_ABC
      4.70812      4.70812      7.85608
     93.41587     93.41587    112.46355
%ENDBLOCK LATTICE_ABC

%BLOCK POSITIONS_FRAC
  Li   0.1273423  -0.1273423   0.0000000 SPIN=   0.00000
  Li   0.1283164  -0.1283164   0.5000000 SPIN=   0.00000
   O  -0.4312579  -0.0390318   0.3752472 SPIN=   0.00000
   O  -0.1708252   0.4050367   0.1846297 SPIN=   0.00000
   O   0.1147993   0.0860169   0.2728192 SPIN=   0.00000
   O  -0.3477046  -0.1427209   0.0593297 SPIN=   0.00000
   O   0.0390318   0.4312579  -0.3752472 SPIN=   0.00000
   O  -0.4050367   0.1708252  -0.1846297 SPIN=   0.00000
   O  -0.0860169  -0.1147993  -0.2728192 SPIN=   0.00000
   O   0.1427209   0.3477046  -0.0593297 SPIN=   0.00000
   P  -0.2455065   0.2455065   0.5000000 SPIN=   0.00000
   P  -0.2348315   0.2348315   0.0000000 SPIN=   0.00000
  Fe  -0.5222206  -0.4588011  -0.2491672 SPIN=   4.00000
  Fe  -0.5411989  -0.4777794   0.2491672 SPIN=   4.00000
%ENDBLOCK POSITIONS_FRAC

# Note: total spin =   8.00

KPOINTS_MP_SPACING 0.07

%BLOCK SPECIES_POT
QC5
%ENDBLOCK SPECIES_POT

%BLOCK HUBBARD_U
Fe d:4.0
%ENDBLOCK HUBBARD_U

SNAP_TO_SYMMETRY
SYMMETRY_GENERATE

