#              Generated by Buildcell
#
# at 20:09:51 (GMT+0.0) 26th November 2020
# in /lustre/scratch/uccabz1/launch_tmp
# on node-c12l-021
# by uccabz1
#
# compiler GCC version 4.9.2
# options -cpp -iprefix /lustre/shared/ucl/apps/gcc/4.9.2/bin/../lib/gcc/x86_64-unknown-linux-gnu/4.9.2/ -mtune=corei7 -march=x86-64 -g -Og
#
# seed -1068489995   341099214 -1495733904 -1996783467 -1528838836  -818485439 -1522663030   415366671  1990511936 -1056884412  -956549852  1416470563
#
#      Author: C. J. Pickard (cjp20@cam.ac.uk)
#                Space group: P2
#

%BLOCK LATTICE_ABC
      3.88636      8.45611     10.26428
    108.44030     90.00000     90.00000
%ENDBLOCK LATTICE_ABC

%BLOCK POSITIONS_FRAC
  Li  -0.0493954   0.2663922   0.4825859 SPIN=   0.00000
  Li  -0.0493954  -0.2663922  -0.4825859 SPIN=   0.00000
  Li  -0.2940328   0.0000000  -0.0000000 SPIN=   0.00000
  Li   0.4495311   0.0000000  -0.5000000 SPIN=   0.00000
   O   0.0265670  -0.1893834  -0.1234282 SPIN=   0.00000
   O  -0.0872008  -0.0491051  -0.3109118 SPIN=   0.00000
   O   0.4154793   0.0437145  -0.1585862 SPIN=   0.00000
   O   0.4197674  -0.2391609  -0.3355117 SPIN=   0.00000
   P   0.1874251  -0.1143334  -0.2275430 SPIN=   0.00000
   O   0.0265670   0.1893834   0.1234282 SPIN=   0.00000
   O  -0.0872008   0.0491051   0.3109118 SPIN=   0.00000
   O   0.4154793  -0.0437145   0.1585862 SPIN=   0.00000
   O   0.4197674   0.2391609   0.3355117 SPIN=   0.00000
   P   0.1874251   0.1143334   0.2275430 SPIN=   0.00000
   O   0.1645880  -0.1941501   0.3566203 SPIN=   0.00000
   O   0.5692002  -0.4195385   0.3957126 SPIN=   0.00000
   O   0.1291314  -0.5078515   0.2133882 SPIN=   0.00000
   O   0.6345064  -0.3398126   0.1818902 SPIN=   0.00000
   O   0.1645880   0.1941501  -0.3566203 SPIN=   0.00000
   O   0.5692002   0.4195385  -0.3957126 SPIN=   0.00000
   O   0.1291314   0.5078515  -0.2133882 SPIN=   0.00000
   O   0.6345064   0.3398126  -0.1818902 SPIN=   0.00000
   P  -0.3940813   0.5000000  -0.0000000 SPIN=   0.00000
   P   0.4299157   0.5000000   0.5000000 SPIN=   0.00000
  Fe   0.1123287   0.2539695  -0.1396078 SPIN=   3.78531
  Fe   0.1123287  -0.2539695   0.1396078 SPIN=   3.78531
  Fe  -0.3386879  -0.3739793  -0.2227071 SPIN=   4.21469
  Fe  -0.3386879   0.3739793   0.2227071 SPIN=   4.21469
%ENDBLOCK POSITIONS_FRAC

# Note: total spin =  16.00

KPOINTS_MP_SPACING 0.07

%BLOCK SPECIES_POT
QC5
%ENDBLOCK SPECIES_POT

%BLOCK HUBBARD_U
Fe d:4.0
%ENDBLOCK HUBBARD_U

SNAP_TO_SYMMETRY
SYMMETRY_GENERATE

