#              Generated by Buildcell
#
# at 11:17:34 (GMT+0.0) 26th November 2020
# in /lustre/scratch/uccabz1/launch_tmp
# on node-c12e-029
# by uccabz1
#
# compiler GCC version 4.9.2
# options -cpp -iprefix /lustre/shared/ucl/apps/gcc/4.9.2/bin/../lib/gcc/x86_64-unknown-linux-gnu/4.9.2/ -mtune=corei7 -march=x86-64 -g -Og
#
# seed   972058874   498951982  -290521637   256689083  -283765108  1746449312  2038955387   -73020814 -2125534334  -254779750 -1795757395  1509435358
#
#      Author: C. J. Pickard (cjp20@cam.ac.uk)
#                Space group: Pcc2
#

%BLOCK LATTICE_ABC
      6.02627      6.46255      8.21669
     90.00000     90.00000     90.00000
%ENDBLOCK LATTICE_ABC

%BLOCK POSITIONS_FRAC
  Li  -0.2499989   0.4661611   0.0232353 SPIN=   0.00000
  Li   0.2499989   0.4661611  -0.0232353 SPIN=   0.00000
  Li  -0.2499989  -0.0338389  -0.0232353 SPIN=   0.00000
  Li   0.2499989  -0.0338389   0.0232353 SPIN=   0.00000
   O   0.3121092   0.3387397   0.4400051 SPIN=   0.00000
   O   0.4953545   0.2456076   0.1633267 SPIN=   0.00000
   O   0.2419942  -0.0085739   0.2892940 SPIN=   0.00000
   O   0.0875480   0.3192246   0.1726940 SPIN=   0.00000
   P   0.2834135   0.2309989   0.2744723 SPIN=   0.00000
   O  -0.3121092   0.3387397  -0.4400051 SPIN=   0.00000
   O  -0.4953545   0.2456076  -0.1633267 SPIN=   0.00000
   O  -0.2419942  -0.0085739  -0.2892940 SPIN=   0.00000
   O  -0.0875480   0.3192246  -0.1726940 SPIN=   0.00000
   P  -0.2834135   0.2309989  -0.2744723 SPIN=   0.00000
   O   0.3121092  -0.1612603  -0.4400051 SPIN=   0.00000
   O   0.4953545  -0.2543924  -0.1633267 SPIN=   0.00000
   O   0.2419942  -0.5085739  -0.2892940 SPIN=   0.00000
   O   0.0875480  -0.1807754  -0.1726940 SPIN=   0.00000
   P   0.2834135  -0.2690011  -0.2744723 SPIN=   0.00000
   O  -0.3121092  -0.1612603   0.4400051 SPIN=   0.00000
   O  -0.4953545  -0.2543924   0.1633267 SPIN=   0.00000
   O  -0.2419942  -0.5085739   0.2892940 SPIN=   0.00000
   O  -0.0875480  -0.1807754   0.1726940 SPIN=   0.00000
   P  -0.2834135  -0.2690011   0.2744723 SPIN=   0.00000
  Fe  -0.2499944   0.1639309   0.3479804 SPIN=   4.00000
  Fe   0.2499944   0.1639309  -0.3479804 SPIN=   4.00000
  Fe  -0.2499944  -0.3360691  -0.3479804 SPIN=   4.00000
  Fe   0.2499944  -0.3360691   0.3479804 SPIN=   4.00000
%ENDBLOCK POSITIONS_FRAC

# Note: total spin =  16.00

KPOINTS_MP_SPACING 0.07

%BLOCK SPECIES_POT
QC5
%ENDBLOCK SPECIES_POT

%BLOCK HUBBARD_U
Fe d:4.0
%ENDBLOCK HUBBARD_U

SNAP_TO_SYMMETRY
SYMMETRY_GENERATE

