#              Generated by Buildcell
#
# at 10:39:32 (GMT+0.0) 24th November 2020
# in /lustre/scratch/uccabz1/launch_tmp
# on node-c12c-021
# by uccabz1
#
# compiler GCC version 4.9.2
# options -cpp -iprefix /lustre/shared/ucl/apps/gcc/4.9.2/bin/../lib/gcc/x86_64-unknown-linux-gnu/4.9.2/ -mtune=corei7 -march=x86-64 -g -Og
#
# seed -1400772956   404011149  2048544235  -434782203  -250323544   508456878  -878594629 -1229394968   -71142348 -1230108947   703029459   -63121643
#
#      Author: C. J. Pickard (cjp20@cam.ac.uk)
#                Space group: P-1
#

%BLOCK LATTICE_ABC
      4.01696      4.98993      8.36091
     77.81247     79.35082     81.63862
%ENDBLOCK LATTICE_ABC

%BLOCK POSITIONS_FRAC
  Li  -0.2176166  -0.2333488  -0.4765015 SPIN=   0.00000
  Li   0.2176166   0.2333488   0.4765015 SPIN=   0.00000
   O   0.0438589   0.1632415  -0.2658317 SPIN=   0.00000
   O  -0.4462196  -0.1500706  -0.1982278 SPIN=   0.00000
   O   0.1316402  -0.3455338  -0.3068621 SPIN=   0.00000
   O   0.0086720  -0.2473030  -0.0188356 SPIN=   0.00000
   P  -0.0588133  -0.1297169  -0.1989731 SPIN=   0.00000
   O  -0.0438589  -0.1632415   0.2658317 SPIN=   0.00000
   O   0.4462196   0.1500706   0.1982278 SPIN=   0.00000
   O  -0.1316402   0.3455338   0.3068621 SPIN=   0.00000
   O  -0.0086720   0.2473030   0.0188356 SPIN=   0.00000
   P   0.0588133   0.1297169   0.1989731 SPIN=   0.00000
  Fe  -0.4071944  -0.3212099   0.1712720 SPIN=   4.00000
  Fe   0.4071944   0.3212099  -0.1712720 SPIN=   4.00000
%ENDBLOCK POSITIONS_FRAC

# Note: total spin =   8.00

KPOINTS_MP_SPACING 0.07

%BLOCK SPECIES_POT
QC5
%ENDBLOCK SPECIES_POT

%BLOCK HUBBARD_U
Fe d:4.0
%ENDBLOCK HUBBARD_U

SNAP_TO_SYMMETRY
SYMMETRY_GENERATE

