#              Generated by Buildcell
#
# at 07:32:40 (GMT+0.0) 24th November 2020
# in /scratch/scratch/uccabz1/launch_tmp
# on node-a14e-019
# by uccabz1
#
# compiler GCC version 4.9.2
# options -cpp -iprefix /scratch/UCL/applications/gcc/4.9.2/bin/../lib/gcc/x86_64-unknown-linux-gnu/4.9.2/ -mtune=corei7 -march=x86-64 -g -O2
#
# seed -1734857002   820799894  -560448241 -1290984525  1355284630  -639439730 -1207529852  2050216858   287804505  -678393593  1545850721   670468007
#
#      Author: C. J. Pickard (cjp20@cam.ac.uk)
#                Space group: Cm
#

%BLOCK LATTICE_ABC
      5.66841      5.66841      6.25030
     64.46361     64.46361     88.96221
%ENDBLOCK LATTICE_ABC

%BLOCK POSITIONS_FRAC
  Li  -0.3042513   0.0784155   0.0580127 SPIN=   0.00000
  Li   0.0784155  -0.3042513   0.0580127 SPIN=   0.00000
   O   0.0632977   0.3776703  -0.1953065 SPIN=   0.00000
   O   0.2860390   0.6218720  -0.7164340 SPIN=   0.00000
   O  -0.1647748   0.3371772  -0.4636739 SPIN=   0.00000
   P   0.0205778   0.5216411  -0.4440103 SPIN=   0.00000
   O   0.3776703   0.0632977  -0.1953065 SPIN=   0.00000
   O   0.6218720   0.2860390  -0.7164340 SPIN=   0.00000
   O   0.3371772  -0.1647748  -0.4636739 SPIN=   0.00000
   P   0.5216411   0.0205778  -0.4440103 SPIN=   0.00000
   O   0.3473734   0.3473734   0.0531350 SPIN=   0.00000
   O  -0.1582661  -0.1582661  -0.1359717 SPIN=   0.00000
  Fe   0.4799098   0.4799098  -0.3571385 SPIN=   5.82816
  Fe  -0.9301887   0.0698113   0.4457700 SPIN=   2.17184
%ENDBLOCK POSITIONS_FRAC

# Note: total spin =   8.00

KPOINTS_MP_SPACING 0.07

%BLOCK SPECIES_POT
QC5
%ENDBLOCK SPECIES_POT

%BLOCK HUBBARD_U
Fe d:4.0
%ENDBLOCK HUBBARD_U

SNAP_TO_SYMMETRY
SYMMETRY_GENERATE

