#              Generated by Buildcell
#
# at 06:03:22 (GMT+0.0) 24th November 2020
# in /scratch/scratch/uccabz1/launch_tmp
# on node-a14e-014
# by uccabz1
#
# compiler GCC version 4.9.2
# options -cpp -iprefix /scratch/UCL/applications/gcc/4.9.2/bin/../lib/gcc/x86_64-unknown-linux-gnu/4.9.2/ -mtune=corei7 -march=x86-64 -g -O2
#
# seed  1054092700  2109619194  1059655872  -635041381 -1834424608  -735740105   475233910  -114868437 -1937377716  -148247049 -1611974087 -1232334921
#
#      Author: C. J. Pickard (cjp20@cam.ac.uk)
#                Space group: I222
#

%BLOCK LATTICE_ABC
      5.42253      6.03583      6.35270
    118.36327    115.26398     90.00000
%ENDBLOCK LATTICE_ABC

%BLOCK POSITIONS_FRAC
  Li  -0.0000000   0.2495421   0.0000000 SPIN=   0.00000
  Li   0.0000000  -0.2495421   0.0000000 SPIN=   0.00000
   O   0.0730815   0.1035428  -0.3366590 SPIN=   0.00000
   O   0.4240439   0.4377043   0.1752088 SPIN=   0.00000
   O  -0.4097405  -0.4402018  -0.3366590 SPIN=   0.00000
   O  -0.2488352  -0.2624955   0.1752088 SPIN=   0.00000
   O   0.4097405  -0.1035428   0.3366590 SPIN=   0.00000
   O   0.2488352  -0.4377043  -0.1752088 SPIN=   0.00000
   O  -0.0730815   0.4402018   0.3366590 SPIN=   0.00000
   O  -0.4240439   0.2624955  -0.1752088 SPIN=   0.00000
   P  -0.2984136  -0.2984136   0.4031728 SPIN=   0.00000
   P   0.2984136   0.2984136  -0.4031728 SPIN=   0.00000
  Fe   0.3003888  -0.1996112  -0.3992223 SPIN=   4.00000
  Fe  -0.3003888   0.1996112   0.3992223 SPIN=   4.00000
%ENDBLOCK POSITIONS_FRAC

# Note: total spin =   8.00

KPOINTS_MP_SPACING 0.07

%BLOCK SPECIES_POT
QC5
%ENDBLOCK SPECIES_POT

%BLOCK HUBBARD_U
Fe d:4.0
%ENDBLOCK HUBBARD_U

SNAP_TO_SYMMETRY
SYMMETRY_GENERATE

