#              Generated by Buildcell
#
# at 08:22:14 (GMT+0.0) 24th November 2020
# in /lustre/scratch/uccabz1/launch_tmp
# on node-c12i-032
# by uccabz1
#
# compiler GCC version 4.9.2
# options -cpp -iprefix /lustre/shared/ucl/apps/gcc/4.9.2/bin/../lib/gcc/x86_64-unknown-linux-gnu/4.9.2/ -mtune=corei7 -march=x86-64 -g -Og
#
# seed   813465364   752100693  1649650446  -990514053   462018378   286206949 -1974682481  1335534600 -1115350450  -221050380   502228714 -2048096101
#
#      Author: C. J. Pickard (cjp20@cam.ac.uk)
#                Space group: Aem2
#

%BLOCK LATTICE_ABC
      4.19446      6.24840      6.24840
    102.30500     90.00000     90.00000
%ENDBLOCK LATTICE_ABC

%BLOCK POSITIONS_FRAC
  Li  -0.0000000   0.2613080   0.2613080 SPIN=   0.00000
  Li   0.0000000  -0.2386920  -0.2386920 SPIN=   0.00000
   O  -0.3819875  -0.5215334   0.2453289 SPIN=   0.00000
   O   0.1353883  -0.3340751   0.4221036 SPIN=   0.00000
   O   0.3819875   0.2453289  -0.5215334 SPIN=   0.00000
   O  -0.1353883   0.4221036  -0.3340751 SPIN=   0.00000
   O  -0.3819875  -0.2546711  -0.0215334 SPIN=   0.00000
   O   0.1353883  -0.0778964   0.1659249 SPIN=   0.00000
   O   0.3819875  -0.0215334  -0.2546711 SPIN=   0.00000
   O  -0.1353883   0.1659249  -0.0778964 SPIN=   0.00000
   P   0.0000009  -0.3421086   0.1578914 SPIN=   0.00000
   P  -0.0000009   0.1578914  -0.3421086 SPIN=   0.00000
  Fe   0.4999991  -0.0920536   0.4079464 SPIN=   4.00000
  Fe  -0.4999991   0.4079464  -0.0920536 SPIN=   4.00000
%ENDBLOCK POSITIONS_FRAC

# Note: total spin =   8.00

KPOINTS_MP_SPACING 0.07

%BLOCK SPECIES_POT
QC5
%ENDBLOCK SPECIES_POT

%BLOCK HUBBARD_U
Fe d:4.0
%ENDBLOCK HUBBARD_U

SNAP_TO_SYMMETRY
SYMMETRY_GENERATE

