#              Generated by Buildcell
#
# at 09:28:50 (GMT+0.0) 24th November 2020
# in /lustre/scratch/uccabz1/launch_tmp
# on node-c12e-032
# by uccabz1
#
# compiler GCC version 4.9.2
# options -cpp -iprefix /lustre/shared/ucl/apps/gcc/4.9.2/bin/../lib/gcc/x86_64-unknown-linux-gnu/4.9.2/ -mtune=corei7 -march=x86-64 -g -Og
#
# seed  -388055537  -177640006  1706881561  1638190475 -1780592723  2052939638   770903307 -1429241166  -489367247 -1352387745   861788741  1234528617
#
#      Author: C. J. Pickard (cjp20@cam.ac.uk)
#                Space group: Cm
#

%BLOCK LATTICE_ABC
      4.94131      6.26986      6.26986
     97.86559    111.40381    111.40381
%ENDBLOCK LATTICE_ABC

%BLOCK POSITIONS_FRAC
  Li  -0.3882097  -0.5530950  -0.1120143 SPIN=   0.00000
  Li   0.6117903   0.8879857   0.4469050 SPIN=   0.00000
   O  -0.3102458   0.1224111  -0.1380720 SPIN=   0.00000
   O   0.1016081   0.0976147  -0.2933834 SPIN=   0.00000
   O  -0.0042837   0.4535997  -0.2874851 SPIN=   0.00000
   O   0.3072842   0.4020963   0.1019692 SPIN=   0.00000
   P   0.0091634   0.2627005  -0.1503582 SPIN=   0.00000
   O  -0.3102458  -0.1380720   0.1224111 SPIN=   0.00000
   O   0.1016081  -0.2933834   0.0976147 SPIN=   0.00000
   O  -0.0042837  -0.2874851   0.4535997 SPIN=   0.00000
   O   0.3072842   0.1019692   0.4020963 SPIN=   0.00000
   P   0.0091634  -0.1503582   0.2627005 SPIN=   0.00000
  Fe   0.2326440  -0.1540122  -0.1540122 SPIN=   5.63585
  Fe   0.0885118   0.3317556   0.3317556 SPIN=   2.36415
%ENDBLOCK POSITIONS_FRAC

# Note: total spin =   8.00

KPOINTS_MP_SPACING 0.07

%BLOCK SPECIES_POT
QC5
%ENDBLOCK SPECIES_POT

%BLOCK HUBBARD_U
Fe d:4.0
%ENDBLOCK HUBBARD_U

SNAP_TO_SYMMETRY
SYMMETRY_GENERATE

