#              Generated by Buildcell
#
# at 11:59:46 (GMT+0.0) 26th November 2020
# in /scratch/scratch/uccabz1/launch_tmp
# on node-a14f-029
# by uccabz1
#
# compiler GCC version 4.9.2
# options -cpp -iprefix /scratch/UCL/applications/gcc/4.9.2/bin/../lib/gcc/x86_64-unknown-linux-gnu/4.9.2/ -mtune=corei7 -march=x86-64 -g -O2
#
# seed  -874078794    16325876  1960162649  1832825835   959721279  1587717721  2138193890  1176426538   102193945  1864179926 -2121681221  -184957553
#
#      Author: C. J. Pickard (cjp20@cam.ac.uk)
#                Space group: P-1
#

%BLOCK LATTICE_ABC
      6.62735      6.82549      8.53970
     67.14570     74.85296     64.82108
%ENDBLOCK LATTICE_ABC

%BLOCK POSITIONS_FRAC
  Li  -0.2599034  -0.0147757  -0.0162480 SPIN=   0.00000
  Li   0.2599034   0.0147757   0.0162480 SPIN=   0.00000
  Li  -0.0577589   0.3370520  -0.2521785 SPIN=   0.00000
  Li   0.0577589  -0.3370520   0.2521785 SPIN=   0.00000
   O  -0.0884410  -0.2715203  -0.5123694 SPIN=   0.00000
   O   0.3444010  -0.4507510  -0.5788210 SPIN=   0.00000
   O   0.1889696  -0.1317952  -0.4596644 SPIN=   0.00000
   O   0.1724064  -0.5138866  -0.2735944 SPIN=   0.00000
   P   0.1416207  -0.3402648  -0.4569538 SPIN=   0.00000
   O   0.0884410   0.2715203   0.5123694 SPIN=   0.00000
   O  -0.3444010   0.4507510   0.5788210 SPIN=   0.00000
   O  -0.1889696   0.1317952   0.4596644 SPIN=   0.00000
   O  -0.1724064   0.5138866   0.2735944 SPIN=   0.00000
   P  -0.1416207   0.3402648   0.4569538 SPIN=   0.00000
   O   0.1758082   0.1907426   0.2397868 SPIN=   0.00000
   O   0.3658917   0.4907830   0.1310605 SPIN=   0.00000
   O   0.6058617   0.0820061   0.2203194 SPIN=   0.00000
   O   0.4254739   0.2523451  -0.0496550 SPIN=   0.00000
   P   0.3820609   0.2505836   0.1387536 SPIN=   0.00000
   O  -0.1758082  -0.1907426  -0.2397868 SPIN=   0.00000
   O  -0.3658917  -0.4907830  -0.1310605 SPIN=   0.00000
   O  -0.6058617  -0.0820061  -0.2203194 SPIN=   0.00000
   O  -0.4254739  -0.2523451   0.0496550 SPIN=   0.00000
   P  -0.3820609  -0.2505836  -0.1387536 SPIN=   0.00000
  Fe   0.4850851   0.1981308  -0.3800755 SPIN=   2.75218
  Fe  -0.4850851  -0.1981308   0.3800755 SPIN=   2.75218
  Fe  -0.2382720   0.3435499   0.1456786 SPIN=   5.24782
  Fe   0.2382720  -0.3435499  -0.1456786 SPIN=   5.24782
%ENDBLOCK POSITIONS_FRAC

# Note: total spin =  16.00

KPOINTS_MP_SPACING 0.07

%BLOCK SPECIES_POT
QC5
%ENDBLOCK SPECIES_POT

%BLOCK HUBBARD_U
Fe d:4.0
%ENDBLOCK HUBBARD_U

SNAP_TO_SYMMETRY
SYMMETRY_GENERATE

