#              Generated by Buildcell
#
# at 06:34:43 (GMT+0.0) 24th November 2020
# in /lustre/scratch/uccabz1/launch_tmp
# on node-c12c-023
# by uccabz1
#
# compiler GCC version 4.9.2
# options -cpp -iprefix /lustre/shared/ucl/apps/gcc/4.9.2/bin/../lib/gcc/x86_64-unknown-linux-gnu/4.9.2/ -mtune=corei7 -march=x86-64 -g -Og
#
# seed -1995203651  -287017600  1278005350 -1201860800 -1085986235 -1528543224 -1749910742  1919266150  1927317943  -708608695 -2140223647  -129018256
#
#      Author: C. J. Pickard (cjp20@cam.ac.uk)
#                Space group: Cm
#

%BLOCK LATTICE_ABC
      5.28986      6.19415      6.26169
    117.29416    112.34539     94.89556
%ENDBLOCK LATTICE_ABC

%BLOCK POSITIONS_FRAC
  Li  -0.0449861   0.4047093   0.0000000 SPIN=   0.00000
  Li   0.2968287  -0.1421578   0.0000000 SPIN=   0.00000
   O  -0.2114618  -0.3838447  -0.7415392 SPIN=   0.00000
   O  -0.2750734   0.0464236  -0.6882015 SPIN=   0.00000
   O  -0.6501573  -0.2409747  -0.7095589 SPIN=   0.00000
   O  -0.1650434  -0.0108639  -0.2950557 SPIN=   0.00000
   O   0.5300773   0.3576944   0.7415392 SPIN=   0.00000
   O   0.4131281   0.7346251   0.6882015 SPIN=   0.00000
   O   0.0594016   0.4685842   0.7095589 SPIN=   0.00000
   O   0.1300123   0.2841918   0.2950557 SPIN=   0.00000
   P  -0.1735140  -0.0191507  -0.0000000 SPIN=   0.00000
   P   0.4585676   0.4585343   0.0000000 SPIN=   0.00000
  Fe  -0.4107719  -0.5302619  -0.5102020 SPIN=   4.00000
  Fe   0.0994301  -0.0200599   0.5102020 SPIN=   4.00000
%ENDBLOCK POSITIONS_FRAC

# Note: total spin =   8.00

KPOINTS_MP_SPACING 0.07

%BLOCK SPECIES_POT
QC5
%ENDBLOCK SPECIES_POT

%BLOCK HUBBARD_U
Fe d:4.0
%ENDBLOCK HUBBARD_U

SNAP_TO_SYMMETRY
SYMMETRY_GENERATE

