#              Generated by Buildcell
#
# at 18:17:39 (GMT+0.0) 26th November 2020
# in /lustre/scratch/uccabz1/launch_tmp
# on node-c12d-024
# by uccabz1
#
# compiler GCC version 4.9.2
# options -cpp -iprefix /lustre/shared/ucl/apps/gcc/4.9.2/bin/../lib/gcc/x86_64-unknown-linux-gnu/4.9.2/ -mtune=corei7 -march=x86-64 -g -Og
#
# seed  -484434551  -997880861  1148865974  -544159002 -2017268475 -1580601442  1612601104  -434437785  -452881145     1392304  1095960753   844723387
#
#      Author: C. J. Pickard (cjp20@cam.ac.uk)
#                Space group: P-1
#

%BLOCK LATTICE_ABC
      6.11473      6.20097      8.83540
     72.91984     87.86385     89.91983
%ENDBLOCK LATTICE_ABC

%BLOCK POSITIONS_FRAC
  Li   0.3056024  -0.6256634   0.4576460 SPIN=   0.00000
  Li  -0.3056024   0.6256634  -0.4576460 SPIN=   0.00000
  Li   0.5000000   0.5000000   0.0000000 SPIN=   0.00000
  Li  -0.5000000  -0.0000000   0.0000000 SPIN=   0.00000
   O   0.6151089   0.3843825  -0.2098640 SPIN=   0.00000
   O   0.2623820   0.2049294  -0.2780174 SPIN=   0.00000
   O   0.2234231   0.4894837  -0.1334833 SPIN=   0.00000
   O   0.3511024   0.6101012  -0.4188168 SPIN=   0.00000
   P   0.3762870   0.4224265  -0.2592471 SPIN=   0.00000
   O  -0.6151089  -0.3843825   0.2098640 SPIN=   0.00000
   O  -0.2623820  -0.2049294   0.2780174 SPIN=   0.00000
   O  -0.2234231  -0.4894837   0.1334833 SPIN=   0.00000
   O  -0.3511024  -0.6101012   0.4188168 SPIN=   0.00000
   P  -0.3762870  -0.4224265   0.2592471 SPIN=   0.00000
   O   0.0300468   0.2566250   0.3251839 SPIN=   0.00000
   O   0.1284738  -0.1444435   0.3100866 SPIN=   0.00000
   O   0.2941193   0.1845309   0.1082950 SPIN=   0.00000
   P   0.2090710   0.1044917   0.2864080 SPIN=   0.00000
   O  -0.0300468  -0.2566250  -0.3251839 SPIN=   0.00000
   O  -0.1284738   0.1444435  -0.3100866 SPIN=   0.00000
   O  -0.2941193  -0.1845309  -0.1082950 SPIN=   0.00000
   P  -0.2090710  -0.1044917  -0.2864080 SPIN=   0.00000
   O  -0.0000000   0.5000000  -0.5000000 SPIN=   0.00000
   O   0.0000000   0.0000000   0.0000000 SPIN=   0.00000
  Fe  -0.0628870   0.3177584  -0.1464205 SPIN=   1.90118
  Fe   0.0628870  -0.3177584   0.1464205 SPIN=   1.90118
  Fe   0.2735891  -0.1238588  -0.2949727 SPIN=   6.09882
  Fe  -0.2735891   0.1238588   0.2949727 SPIN=   6.09882
%ENDBLOCK POSITIONS_FRAC

# Note: total spin =  16.00

KPOINTS_MP_SPACING 0.07

%BLOCK SPECIES_POT
QC5
%ENDBLOCK SPECIES_POT

%BLOCK HUBBARD_U
Fe d:4.0
%ENDBLOCK HUBBARD_U

SNAP_TO_SYMMETRY
SYMMETRY_GENERATE

