#              Generated by Buildcell
#
# at 12:18:27 (GMT+0.0) 24th November 2020
# in /lustre/scratch/uccabz1/launch_tmp
# on node-c12c-027
# by uccabz1
#
# compiler GCC version 4.9.2
# options -cpp -iprefix /lustre/shared/ucl/apps/gcc/4.9.2/bin/../lib/gcc/x86_64-unknown-linux-gnu/4.9.2/ -mtune=corei7 -march=x86-64 -g -Og
#
# seed   876910277  -643224226 -1518433346  -583906993  1203978581   553611141   973491636  1078358709   789154897  2141546172  -461262059 -1347536826
#
#      Author: C. J. Pickard (cjp20@cam.ac.uk)
#                Space group: P-1
#

%BLOCK LATTICE_ABC
      4.56027      4.76082      7.86629
     92.58074     97.25060    108.50318
%ENDBLOCK LATTICE_ABC

%BLOCK POSITIONS_FRAC
  Li   0.1718876  -0.1225453  -0.2599677 SPIN=   0.00000
  Li  -0.1718876   0.1225453   0.2599677 SPIN=   0.00000
   O  -0.0194317  -0.2810161   0.0920258 SPIN=   0.00000
   O   0.5060193  -0.3112581   0.2472687 SPIN=   0.00000
   O   0.3835169   0.1530014   0.2951089 SPIN=   0.00000
   P   0.2226865  -0.1928968   0.2564512 SPIN=   0.00000
   O   0.0194317   0.2810161  -0.0920258 SPIN=   0.00000
   O  -0.5060193   0.3112581  -0.2472687 SPIN=   0.00000
   O  -0.3835169  -0.1530014  -0.2951089 SPIN=   0.00000
   P  -0.2226865   0.1928968  -0.2564512 SPIN=   0.00000
   O  -0.5000000  -0.0000000   0.0000000 SPIN=   0.00000
   O  -1.0000000   0.0000000  -0.5000000 SPIN=   0.00000
  Fe   0.5000000   0.5000000   0.0000000 SPIN=   4.80659
  Fe   0.5000000   0.5000000   0.5000000 SPIN=   3.19341
%ENDBLOCK POSITIONS_FRAC

# Note: total spin =   8.00

KPOINTS_MP_SPACING 0.07

%BLOCK SPECIES_POT
QC5
%ENDBLOCK SPECIES_POT

%BLOCK HUBBARD_U
Fe d:4.0
%ENDBLOCK HUBBARD_U

SNAP_TO_SYMMETRY
SYMMETRY_GENERATE

