#              Generated by Buildcell
#
# at 14:07:39 (GMT+0.0) 26th November 2020
# in /scratch/scratch/uccabz1/launch_tmp
# on node-a14c-005
# by uccabz1
#
# compiler GCC version 4.9.2
# options -cpp -iprefix /scratch/UCL/applications/gcc/4.9.2/bin/../lib/gcc/x86_64-unknown-linux-gnu/4.9.2/ -mtune=corei7 -march=x86-64 -g -O2
#
# seed   374588872  -461889628  1617845099   460684425   906128174 -1686865298  -154773576  -899390295  1540081000  1494630210   552572215  -951209889
#
#      Author: C. J. Pickard (cjp20@cam.ac.uk)
#                Space group: Pcc2
#

%BLOCK LATTICE_ABC
      5.29134      7.32702      8.25386
     90.00000     90.00000     90.00000
%ENDBLOCK LATTICE_ABC

%BLOCK POSITIONS_FRAC
  Li  -0.2446389  -0.4002706   0.2642460 SPIN=   0.00000
  Li   0.2446389   0.4002706   0.2642460 SPIN=   0.00000
  Li   0.2446389  -0.4002706  -0.2357540 SPIN=   0.00000
  Li  -0.2446389   0.4002706  -0.2357540 SPIN=   0.00000
   O  -0.2312417   0.0169295  -0.1241518 SPIN=   0.00000
   O  -0.3607632  -0.1762249   0.1264187 SPIN=   0.00000
   O  -0.4065611  -0.3134221  -0.1453466 SPIN=   0.00000
   P  -0.2393390  -0.1742806  -0.0475230 SPIN=   0.00000
   O   0.2312417  -0.0169295  -0.1241518 SPIN=   0.00000
   O   0.3607632   0.1762249   0.1264187 SPIN=   0.00000
   O   0.4065611   0.3134221  -0.1453466 SPIN=   0.00000
   P   0.2393390   0.1742806  -0.0475230 SPIN=   0.00000
   O   0.2312417   0.0169295   0.3758482 SPIN=   0.00000
   O   0.3607632  -0.1762249   0.6264187 SPIN=   0.00000
   O   0.4065611  -0.3134221   0.3546534 SPIN=   0.00000
   P   0.2393390  -0.1742806   0.4524770 SPIN=   0.00000
   O  -0.2312417  -0.0169295   0.3758482 SPIN=   0.00000
   O  -0.3607632   0.1762249   0.6264187 SPIN=   0.00000
   O  -0.4065611   0.3134221   0.3546534 SPIN=   0.00000
   P  -0.2393390   0.1742806   0.4524770 SPIN=   0.00000
   O   0.0000000  -0.5000000  -0.0502256 SPIN=   0.00000
   O   0.0000000   0.5000000   0.4497744 SPIN=   0.00000
   O   0.5000000  -0.5000000   0.0928517 SPIN=   0.00000
   O   0.5000000  -0.5000000  -0.4071483 SPIN=   0.00000
  Fe  -0.2473621   0.1900100   0.1088922 SPIN=   4.00000
  Fe   0.2473621  -0.1900100   0.1088922 SPIN=   4.00000
  Fe   0.2473621   0.1900100  -0.3911078 SPIN=   4.00000
  Fe  -0.2473621  -0.1900100  -0.3911078 SPIN=   4.00000
%ENDBLOCK POSITIONS_FRAC

# Note: total spin =  16.00

KPOINTS_MP_SPACING 0.07

%BLOCK SPECIES_POT
QC5
%ENDBLOCK SPECIES_POT

%BLOCK HUBBARD_U
Fe d:4.0
%ENDBLOCK HUBBARD_U

SNAP_TO_SYMMETRY
SYMMETRY_GENERATE

