#              Generated by Buildcell
#
# at 00:10:21 (GMT+0.0) 27th November 2020
# in /scratch/scratch/mmm0366/launch_tmp
# on node-k98a-027
# by mmm0366
#
# compiler GCC version 4.9.2
# options -cpp -iprefix /scratch/UCL/applications/gcc/4.9.2/bin/../lib/gcc/x86_64-unknown-linux-gnu/4.9.2/ -mtune=corei7 -march=x86-64 -g -O2
#
# seed  1230034735  1923423709  1829019484   855602342 -1466548809   815052600 -1728762736   158471684  1799550094  -774343708  1703723050 -1338558937
#
#      Author: C. J. Pickard (cjp20@cam.ac.uk)
#                Space group: C2
#

%BLOCK LATTICE_ABC
      5.11081      7.72950      9.28883
    110.56814    100.20610    103.61155
%ENDBLOCK LATTICE_ABC

%BLOCK POSITIONS_FRAC
  Li  -0.3399844  -0.0139209   0.3668845 SPIN=   0.00000
  Li   0.7068690   0.3808055   0.3668845 SPIN=   0.00000
  Li   0.1187334   0.1187334   0.2374668 SPIN=   0.00000
  Li   0.1697226  -0.3302774   0.3394452 SPIN=   0.00000
   O  -0.1436742   0.3307509   0.1062248 SPIN=   0.00000
   O   0.1560289   0.3940165  -0.0797924 SPIN=   0.00000
   O   0.2744690   0.1997642   0.0684113 SPIN=   0.00000
   O  -0.1674685   0.0565485  -0.1587306 SPIN=   0.00000
   P   0.0182716   0.2475944  -0.0111501 SPIN=   0.00000
   O   0.2498990  -0.2245261   0.1062248 SPIN=   0.00000
   O  -0.2358213  -0.4738089  -0.0797924 SPIN=   0.00000
   O  -0.2060577  -0.1313529   0.0684113 SPIN=   0.00000
   O   0.0087379  -0.2152791  -0.1587306 SPIN=   0.00000
   P  -0.0294217  -0.2587445  -0.0111501 SPIN=   0.00000
   O   0.4837262  -0.0882125  -0.4285684 SPIN=   0.00000
   O   0.4805750   0.2220180  -0.4779849 SPIN=   0.00000
   O   0.0503327  -0.0653136  -0.6060123 SPIN=   0.00000
   O   0.1939439   0.1280274  -0.3085109 SPIN=   0.00000
   P   0.3105359   0.0427482  -0.4521155 SPIN=   0.00000
   O   0.0877054   0.6596441  -0.4285684 SPIN=   0.00000
   O   0.0414402   0.2999971  -0.4779849 SPIN=   0.00000
   O   0.3436550   0.4593013  -0.6060123 SPIN=   0.00000
   O   0.4975452   0.5634617  -0.3085109 SPIN=   0.00000
   P   0.2373486   0.5051363  -0.4521155 SPIN=   0.00000
  Fe  -0.5048033  -0.0048033  -0.0096067 SPIN=   0.14564
  Fe  -0.1806463  -0.1806463  -0.3612926 SPIN=   7.45448
  Fe  -0.1412913   0.3587087  -0.2825825 SPIN=   3.10330
  Fe  -0.4538244  -0.4538244   0.0923512 SPIN=   5.29659
%ENDBLOCK POSITIONS_FRAC

# Note: total spin =  16.00

KPOINTS_MP_SPACING 0.07

%BLOCK SPECIES_POT
QC5
%ENDBLOCK SPECIES_POT

%BLOCK HUBBARD_U
Fe d:4.0
%ENDBLOCK HUBBARD_U

SNAP_TO_SYMMETRY
SYMMETRY_GENERATE

