#              Generated by Buildcell
#
# at 23:28:31 (GMT+0.0) 26th November 2020
# in /lustre/scratch/uccabz1/launch_tmp
# on node-c12e-029
# by uccabz1
#
# compiler GCC version 4.9.2
# options -cpp -iprefix /lustre/shared/ucl/apps/gcc/4.9.2/bin/../lib/gcc/x86_64-unknown-linux-gnu/4.9.2/ -mtune=corei7 -march=x86-64 -g -Og
#
# seed  1928909071 -1164837420  -129295505  -188491864  1992747232  1846095827  2047587861 -1368012495   560554735   550640257 -1971938738  -129190794
#
#      Author: C. J. Pickard (cjp20@cam.ac.uk)
#                Space group: P2
#

%BLOCK LATTICE_ABC
      5.25916      7.04619      9.19128
    110.02980     90.00000     90.00000
%ENDBLOCK LATTICE_ABC

%BLOCK POSITIONS_FRAC
  Li  -0.1203662  -0.4132645  -0.1297211 SPIN=   0.00000
  Li  -0.1203662   0.4132645   0.1297211 SPIN=   0.00000
  Li   0.4123565   0.5000000   0.5000000 SPIN=   0.00000
  Li  -0.3517079   0.0000000   0.0000000 SPIN=   0.00000
   O   0.3221120   0.1837840   0.0377950 SPIN=   0.00000
   O   0.5850699   0.3943296   0.2781879 SPIN=   0.00000
   O   0.1182781   0.3833130   0.3038324 SPIN=   0.00000
   O   0.3762388   0.0743986   0.2770381 SPIN=   0.00000
   P   0.3492219   0.2527758   0.2149109 SPIN=   0.00000
   O   0.3221120  -0.1837840  -0.0377950 SPIN=   0.00000
   O   0.5850699  -0.3943296  -0.2781879 SPIN=   0.00000
   O   0.1182781  -0.3833130  -0.3038324 SPIN=   0.00000
   O   0.3762388  -0.0743986  -0.2770381 SPIN=   0.00000
   P   0.3492219  -0.2527758  -0.2149109 SPIN=   0.00000
   O  -0.0265641  -0.0030125   0.1329719 SPIN=   0.00000
   O  -0.1368956  -0.1485212   0.3495817 SPIN=   0.00000
   O  -0.3391717  -0.3020460   0.0934152 SPIN=   0.00000
   O   0.1258492  -0.3554394   0.1237044 SPIN=   0.00000
   P  -0.0879977  -0.1934539   0.1720805 SPIN=   0.00000
   O  -0.0265641   0.0030125  -0.1329719 SPIN=   0.00000
   O  -0.1368956   0.1485212  -0.3495817 SPIN=   0.00000
   O  -0.3391717   0.3020460  -0.0934152 SPIN=   0.00000
   O   0.1258492   0.3554394  -0.1237044 SPIN=   0.00000
   P  -0.0879977   0.1934539  -0.1720805 SPIN=   0.00000
  Fe  -0.0894019   0.2056382   0.4015185 SPIN=   4.80582
  Fe  -0.0894019  -0.2056382  -0.4015185 SPIN=   4.80582
  Fe   0.4122358   0.7781792   0.2815903 SPIN=   3.19418
  Fe   0.4122358  -0.7781792  -0.2815903 SPIN=   3.19418
%ENDBLOCK POSITIONS_FRAC

# Note: total spin =  16.00

KPOINTS_MP_SPACING 0.07

%BLOCK SPECIES_POT
QC5
%ENDBLOCK SPECIES_POT

%BLOCK HUBBARD_U
Fe d:4.0
%ENDBLOCK HUBBARD_U

SNAP_TO_SYMMETRY
SYMMETRY_GENERATE

