#              Generated by Buildcell
#
# at 15:56:03 (GMT+0.0) 26th November 2020
# in /lustre/scratch/uccabz1/launch_tmp
# on node-c12b-023
# by uccabz1
#
# compiler GCC version 4.9.2
# options -cpp -iprefix /lustre/shared/ucl/apps/gcc/4.9.2/bin/../lib/gcc/x86_64-unknown-linux-gnu/4.9.2/ -mtune=corei7 -march=x86-64 -g -Og
#
# seed -1589783069  1649678798  -665328480  -621525158 -1767214617  -925395255   769895673  1377735956  -348785158  -651219071 -1969714991 -1573562863
#
#      Author: C. J. Pickard (cjp20@cam.ac.uk)
#                Space group: Pnn2
#

%BLOCK LATTICE_ABC
      5.32172      6.28655      9.56500
     90.00000     90.00000     90.00000
%ENDBLOCK LATTICE_ABC

%BLOCK POSITIONS_FRAC
  Li   0.0036926   0.2404687  -0.4858072 SPIN=   0.00000
  Li   0.0036926  -0.2404687   0.4858072 SPIN=   0.00000
  Li  -0.4963074  -0.2595313  -0.0141928 SPIN=   0.00000
  Li  -0.4963074   0.2595313   0.0141928 SPIN=   0.00000
   O  -0.3996564   0.7201309  -0.3555644 SPIN=   0.00000
   O  -0.2266875   0.3399418  -0.3099717 SPIN=   0.00000
   O  -0.5516575   0.4812292  -0.1506928 SPIN=   0.00000
   O  -0.6681106   0.3834383  -0.3960982 SPIN=   0.00000
   P  -0.4606715   0.4927542  -0.3069739 SPIN=   0.00000
   O  -0.3996564  -0.7201309   0.3555644 SPIN=   0.00000
   O  -0.2266875  -0.3399418   0.3099717 SPIN=   0.00000
   O  -0.5516575  -0.4812292   0.1506928 SPIN=   0.00000
   O  -0.6681106  -0.3834383   0.3960982 SPIN=   0.00000
   P  -0.4606715  -0.4927542   0.3069739 SPIN=   0.00000
   O   0.1003436   0.2201309  -0.1444356 SPIN=   0.00000
   O   0.2733125  -0.1600582  -0.1900283 SPIN=   0.00000
   O  -0.0516575  -0.0187708  -0.3493072 SPIN=   0.00000
   O  -0.1681106  -0.1165617  -0.1039018 SPIN=   0.00000
   P   0.0393285  -0.0072458  -0.1930261 SPIN=   0.00000
   O   0.1003436  -0.2201309   0.1444356 SPIN=   0.00000
   O   0.2733125   0.1600582   0.1900283 SPIN=   0.00000
   O  -0.0516575   0.0187708   0.3493072 SPIN=   0.00000
   O  -0.1681106   0.1165617   0.1039018 SPIN=   0.00000
   P   0.0393285   0.0072458   0.1930261 SPIN=   0.00000
  Fe  -0.4607237  -0.0379138   0.2981441 SPIN=   4.00000
  Fe  -0.4607237   0.0379138  -0.2981441 SPIN=   4.00000
  Fe   0.0392763   0.4620862   0.2018559 SPIN=   4.00000
  Fe   0.0392763  -0.4620862  -0.2018559 SPIN=   4.00000
%ENDBLOCK POSITIONS_FRAC

# Note: total spin =  16.00

KPOINTS_MP_SPACING 0.07

%BLOCK SPECIES_POT
QC5
%ENDBLOCK SPECIES_POT

%BLOCK HUBBARD_U
Fe d:4.0
%ENDBLOCK HUBBARD_U

SNAP_TO_SYMMETRY
SYMMETRY_GENERATE

