#              Generated by Buildcell
#
# at 11:17:26 (GMT+0.0) 26th November 2020
# in /lustre/scratch/uccabz1/launch_tmp
# on node-c12g-031
# by uccabz1
#
# compiler GCC version 4.9.2
# options -cpp -iprefix /lustre/shared/ucl/apps/gcc/4.9.2/bin/../lib/gcc/x86_64-unknown-linux-gnu/4.9.2/ -mtune=corei7 -march=x86-64 -g -Og
#
# seed  1238816889   603494850 -1460566599 -1164001146  1440880803  1860075284   855466126  -542390228   475357801   762325019 -2054778928   673300490
#
#      Author: C. J. Pickard (cjp20@cam.ac.uk)
#                Space group: Fdd2
#

%BLOCK LATTICE_ABC
      6.78771      7.37507      7.95980
     78.68464     64.76229     62.60129
%ENDBLOCK LATTICE_ABC

%BLOCK POSITIONS_FRAC
  Li   0.4012272  -0.4161125   0.3125857 SPIN=   0.00000
  Li   0.0148854  -0.4161125  -0.3125857 SPIN=   0.00000
  Li   0.4638129   0.0838875   0.1874143 SPIN=   0.00000
  Li   0.4522996   0.0838875  -0.1874143 SPIN=   0.00000
   O   0.1164575   0.2848616   0.5178019 SPIN=   0.00000
   O   0.3173631   0.4027304   0.1846558 SPIN=   0.00000
   O  -0.1034422   0.4529736   0.2907289 SPIN=   0.00000
   O  -0.0084105   0.6660247   0.4274529 SPIN=   0.00000
   P   0.0813578   0.4452969   0.3646729 SPIN=   0.00000
   O   0.5986810   0.2848616  -0.5178019 SPIN=   0.00000
   O   0.2799066   0.4027304  -0.1846558 SPIN=   0.00000
   O   0.6504686   0.4529736  -0.2907289 SPIN=   0.00000
   O   0.3423858   0.6660247  -0.4274529 SPIN=   0.00000
   P   0.4733452   0.4452969  -0.3646729 SPIN=   0.00000
   O   0.3842594  -0.2151384  -0.0178019 SPIN=   0.00000
   O   0.2520188  -0.0972696   0.3153442 SPIN=   0.00000
   O  -0.0627133  -0.0470264   0.2092711 SPIN=   0.00000
   O   0.1690424   0.1660247   0.0725471 SPIN=   0.00000
   P   0.1960307  -0.0547031   0.1353271 SPIN=   0.00000
   O  -0.1691210  -0.2151384   0.0178019 SPIN=   0.00000
   O  -0.1547492  -0.0972696  -0.3153442 SPIN=   0.00000
   O   0.1097397  -0.0470264  -0.2092711 SPIN=   0.00000
   O  -0.3350671   0.1660247  -0.0725471 SPIN=   0.00000
   P  -0.1413276  -0.0547031  -0.1353271 SPIN=   0.00000
  Fe  -0.3839372  -0.2321256   0.5000000 SPIN=   1.37062
  Fe  -0.1339372   0.2678744  -0.0000000 SPIN=   1.37062
  Fe  -0.0597338   0.1194675  -0.5000000 SPIN=   6.62938
  Fe   0.1902662  -0.3805325  -0.0000000 SPIN=   6.62938
%ENDBLOCK POSITIONS_FRAC

# Note: total spin =  16.00

KPOINTS_MP_SPACING 0.07

%BLOCK SPECIES_POT
QC5
%ENDBLOCK SPECIES_POT

%BLOCK HUBBARD_U
Fe d:4.0
%ENDBLOCK HUBBARD_U

SNAP_TO_SYMMETRY
SYMMETRY_GENERATE

