#              Generated by Buildcell
#
# at 14:11:49 (GMT+0.0) 24th November 2020
# in /scratch/scratch/uccabz1/launch_tmp
# on node-k10b-011
# by uccabz1
#
# compiler GCC version 4.9.2
# options -cpp -iprefix /scratch/UCL/applications/gcc/4.9.2/bin/../lib/gcc/x86_64-unknown-linux-gnu/4.9.2/ -mtune=corei7 -march=x86-64 -g -O2
#
# seed -1534849009 -1495601495  -893061155 -1213440712 -1867479083   950618558 -1325776185  -309061203 -1698789997    62531035 -1513615233  1411671345
#
#      Author: C. J. Pickard (cjp20@cam.ac.uk)
#                Space group: P21
#

%BLOCK LATTICE_ABC
      5.10941      5.52985      6.06882
    111.07550     90.00000     90.00000
%ENDBLOCK LATTICE_ABC

%BLOCK POSITIONS_FRAC
  Li  -0.3252942   0.3611092  -0.4671578 SPIN=   0.00000
  Li   0.1747058  -0.3611092   0.4671578 SPIN=   0.00000
   O   0.1432026  -0.2694344   0.1117446 SPIN=   0.00000
   O   0.2859962   0.2138069   0.2719207 SPIN=   0.00000
   O  -0.1833836   0.1129591   0.1927367 SPIN=   0.00000
   O   0.0309851   0.0392303   0.5343467 SPIN=   0.00000
   P   0.0726894   0.0086871   0.2718804 SPIN=   0.00000
   O  -0.3567974   0.2694344  -0.1117446 SPIN=   0.00000
   O  -0.2140038  -0.2138069  -0.2719207 SPIN=   0.00000
   O  -0.6833836  -0.1129591  -0.1927367 SPIN=   0.00000
   O  -0.4690149  -0.0392303  -0.5343467 SPIN=   0.00000
   P  -0.4273106  -0.0086871  -0.2718804 SPIN=   0.00000
  Fe   0.0726247   0.2138762  -0.0987163 SPIN=   4.00000
  Fe  -0.4273753  -0.2138762   0.0987163 SPIN=   4.00000
%ENDBLOCK POSITIONS_FRAC

# Note: total spin =   8.00

KPOINTS_MP_SPACING 0.07

%BLOCK SPECIES_POT
QC5
%ENDBLOCK SPECIES_POT

%BLOCK HUBBARD_U
Fe d:4.0
%ENDBLOCK HUBBARD_U

SNAP_TO_SYMMETRY
SYMMETRY_GENERATE

