#              Generated by Buildcell
#
# at 07:10:36 (GMT+0.0) 26th November 2020
# in /scratch/scratch/mmm0366/launch_tmp
# on node-k98h-018
# by mmm0366
#
# compiler GCC version 4.9.2
# options -cpp -iprefix /scratch/UCL/applications/gcc/4.9.2/bin/../lib/gcc/x86_64-unknown-linux-gnu/4.9.2/ -mtune=corei7 -march=x86-64 -g -O2
#
# seed   736806134  1456296435 -1079465065   237826379 -1495602393 -1768525890  1350431960 -1260228645   165619838  -727732426 -2013312344  -972491948
#
#      Author: C. J. Pickard (cjp20@cam.ac.uk)
#                Space group: P-1
#

%BLOCK LATTICE_ABC
      4.88690      5.00749     13.22322
     82.16957     89.88000     86.60188
%ENDBLOCK LATTICE_ABC

%BLOCK POSITIONS_FRAC
  Li   0.2774914   0.1514476  -0.2739403 SPIN=   0.00000
  Li  -0.2774914  -0.1514476   0.2739403 SPIN=   0.00000
  Li   0.2465513   0.4962324   0.2718243 SPIN=   0.00000
  Li  -0.2465513  -0.4962324  -0.2718243 SPIN=   0.00000
   O  -0.3026607  -0.0700612  -0.2515923 SPIN=   0.00000
   O  -0.0151848   0.1958837  -0.3924195 SPIN=   0.00000
   O  -0.1870114  -0.2388335  -0.4248811 SPIN=   0.00000
   O  -0.5172574   0.1619649  -0.4218581 SPIN=   0.00000
   P  -0.2611268   0.0096234  -0.3668203 SPIN=   0.00000
   O   0.3026607   0.0700612   0.2515923 SPIN=   0.00000
   O   0.0151848  -0.1958837   0.3924195 SPIN=   0.00000
   O   0.1870114   0.2388335   0.4248811 SPIN=   0.00000
   O   0.5172574  -0.1619649   0.4218581 SPIN=   0.00000
   P   0.2611268  -0.0096234   0.3668203 SPIN=   0.00000
   O  -0.2497126  -0.0079885   0.0043001 SPIN=   0.00000
   O  -0.5191940   0.2661534  -0.1486580 SPIN=   0.00000
   O  -0.2255942   0.5102877  -0.0450957 SPIN=   0.00000
   O  -0.0085508   0.1992738  -0.1593540 SPIN=   0.00000
   P  -0.2478486   0.2281212  -0.0831814 SPIN=   0.00000
   O   0.2497126   0.0079885  -0.0043001 SPIN=   0.00000
   O   0.5191940  -0.2661534   0.1486580 SPIN=   0.00000
   O   0.2255942  -0.5102877   0.0450957 SPIN=   0.00000
   O   0.0085508  -0.1992738   0.1593540 SPIN=   0.00000
   P   0.2478486  -0.2281212   0.0831814 SPIN=   0.00000
  Fe   0.2433235  -0.3995799  -0.1133241 SPIN=   3.65251
  Fe  -0.2433235   0.3995799   0.1133241 SPIN=   3.65251
  Fe  -0.2410939   0.2870732   0.4311364 SPIN=   4.34749
  Fe   0.2410939  -0.2870732  -0.4311364 SPIN=   4.34749
%ENDBLOCK POSITIONS_FRAC

# Note: total spin =  16.00

KPOINTS_MP_SPACING 0.07

%BLOCK SPECIES_POT
QC5
%ENDBLOCK SPECIES_POT

%BLOCK HUBBARD_U
Fe d:4.0
%ENDBLOCK HUBBARD_U

SNAP_TO_SYMMETRY
SYMMETRY_GENERATE

