#              Generated by Buildcell
#
# at 12:16:20 (GMT+0.0) 24th November 2020
# in /lustre/scratch/uccabz1/launch_tmp
# on node-c12d-022
# by uccabz1
#
# compiler GCC version 4.9.2
# options -cpp -iprefix /lustre/shared/ucl/apps/gcc/4.9.2/bin/../lib/gcc/x86_64-unknown-linux-gnu/4.9.2/ -mtune=corei7 -march=x86-64 -g -Og
#
# seed    69618746   361317874 -1108017158  1171167319 -1482160751  1475635783   600955567 -2049896666  -662937389 -1695755615  -410703063  -140299829
#
#      Author: C. J. Pickard (cjp20@cam.ac.uk)
#                Space group: P-1
#

%BLOCK LATTICE_ABC
      5.15736      5.85284      6.01226
     96.70541    105.05537    110.31682
%ENDBLOCK LATTICE_ABC

%BLOCK POSITIONS_FRAC
  Li  -0.0199186   0.2513183  -0.4381919 SPIN=   0.00000
  Li   0.0199186  -0.2513183   0.4381919 SPIN=   0.00000
   O  -0.1323199   0.1257044  -0.1479038 SPIN=   0.00000
   O  -0.6710232   0.0491391  -0.1864680 SPIN=   0.00000
   O  -0.2825577   0.4492301   0.0621792 SPIN=   0.00000
   O  -0.4013694   0.3676385  -0.3781808 SPIN=   0.00000
   P  -0.3594142   0.2428329  -0.1643554 SPIN=   0.00000
   O   0.1323199  -0.1257044   0.1479038 SPIN=   0.00000
   O   0.6710232  -0.0491391   0.1864680 SPIN=   0.00000
   O   0.2825577  -0.4492301  -0.0621792 SPIN=   0.00000
   O   0.4013694  -0.3676385   0.3781808 SPIN=   0.00000
   P   0.3594142  -0.2428329   0.1643554 SPIN=   0.00000
  Fe  -0.3775382  -0.2585610  -0.2001277 SPIN=   4.00000
  Fe   0.3775382   0.2585610   0.2001277 SPIN=   4.00000
%ENDBLOCK POSITIONS_FRAC

# Note: total spin =   8.00

KPOINTS_MP_SPACING 0.07

%BLOCK SPECIES_POT
QC5
%ENDBLOCK SPECIES_POT

%BLOCK HUBBARD_U
Fe d:4.0
%ENDBLOCK HUBBARD_U

SNAP_TO_SYMMETRY
SYMMETRY_GENERATE

