#              Generated by Buildcell
#
# at 09:54:32 (GMT+0.0) 24th November 2020
# in /lustre/scratch/uccabz1/launch_tmp
# on node-c12b-025
# by uccabz1
#
# compiler GCC version 4.9.2
# options -cpp -iprefix /lustre/shared/ucl/apps/gcc/4.9.2/bin/../lib/gcc/x86_64-unknown-linux-gnu/4.9.2/ -mtune=corei7 -march=x86-64 -g -Og
#
# seed  -911460387    58608403  1236236803   -26350210 -1643293135  1712582845 -1719359233 -1623696418  -444892332 -1353224547 -1828386587  -591573952
#
#      Author: C. J. Pickard (cjp20@cam.ac.uk)
#                Space group: Pba2
#

%BLOCK LATTICE_ABC
      5.27371      5.50762      5.50877
     90.00000     90.00000     90.00000
%ENDBLOCK LATTICE_ABC

%BLOCK POSITIONS_FRAC
  Li   0.1556549   0.5000000  -0.0000000 SPIN=   0.00000
  Li   0.1556549   0.0000000   0.5000000 SPIN=   0.00000
   O   0.1213565  -0.1571871   0.1572398 SPIN=   0.00000
   O   0.5142267   0.1098056   0.2558197 SPIN=   0.00000
   O   0.1213565   0.1571871  -0.1572398 SPIN=   0.00000
   O   0.5142267  -0.1098056  -0.2558197 SPIN=   0.00000
   O   0.1213565   0.3428129   0.3427602 SPIN=   0.00000
   O   0.5142267   0.6098056   0.2441803 SPIN=   0.00000
   O   0.1213565  -0.3428129  -0.3427602 SPIN=   0.00000
   O   0.5142267  -0.6098056  -0.2441803 SPIN=   0.00000
   P  -0.3452880   0.5000000  -0.0000000 SPIN=   0.00000
   P  -0.3452880  -0.0000000   0.5000000 SPIN=   0.00000
  Fe  -0.2010888  -0.0000000  -0.0000000 SPIN=   4.00000
  Fe  -0.2010888  -0.5000000   0.5000000 SPIN=   4.00000
%ENDBLOCK POSITIONS_FRAC

# Note: total spin =   8.00

KPOINTS_MP_SPACING 0.07

%BLOCK SPECIES_POT
QC5
%ENDBLOCK SPECIES_POT

%BLOCK HUBBARD_U
Fe d:4.0
%ENDBLOCK HUBBARD_U

SNAP_TO_SYMMETRY
SYMMETRY_GENERATE

