#              Generated by Buildcell
#
# at 11:52:23 (GMT+0.0) 24th November 2020
# in /scratch/scratch/uccabz1/launch_tmp
# on node-k10i-019
# by uccabz1
#
# compiler GCC version 4.9.2
# options -cpp -iprefix /scratch/UCL/applications/gcc/4.9.2/bin/../lib/gcc/x86_64-unknown-linux-gnu/4.9.2/ -mtune=corei7 -march=x86-64 -g -O2
#
# seed  1722289498   186849550   520537013 -1692281458  1367298005  1038455818   663067577  1166505444    89978999   284875328 -1084245708  1535880213
#
#      Author: C. J. Pickard (cjp20@cam.ac.uk)
#                Space group: I41
#

%BLOCK LATTICE_ABC
      5.42642      5.42642      6.65189
    114.07208    114.07208     90.00000
%ENDBLOCK LATTICE_ABC

%BLOCK POSITIONS_FRAC
  Li  -0.1817131  -0.1817131  -0.3634262 SPIN=   0.00000
  Li  -0.4317131   0.0682869   0.1365738 SPIN=   0.00000
   O  -0.6560231   0.3728624   0.0851066 SPIN=   0.00000
   O  -0.1399956   0.4408116   0.3795534 SPIN=   0.00000
   O  -0.2588703  -0.2877558   0.0851066 SPIN=   0.00000
   O  -0.4804510  -0.0612581   0.3795534 SPIN=   0.00000
   O   0.1228624  -0.0088703  -0.4148934 SPIN=   0.00000
   O   0.1908116  -0.2304510  -0.1204466 SPIN=   0.00000
   O  -0.5377558  -0.4060231  -0.4148934 SPIN=   0.00000
   O  -0.3112581   0.1100044  -0.1204466 SPIN=   0.00000
   P  -0.1850704   0.3149296  -0.3701408 SPIN=   0.00000
   P   0.0649296   0.0649296   0.1298592 SPIN=   0.00000
  Fe   0.1459073  -0.3540927   0.2918146 SPIN=   4.00000
  Fe   0.3959073   0.3959073  -0.2081854 SPIN=   4.00000
%ENDBLOCK POSITIONS_FRAC

# Note: total spin =   8.00

KPOINTS_MP_SPACING 0.07

%BLOCK SPECIES_POT
QC5
%ENDBLOCK SPECIES_POT

%BLOCK HUBBARD_U
Fe d:4.0
%ENDBLOCK HUBBARD_U

SNAP_TO_SYMMETRY
SYMMETRY_GENERATE

