#              Generated by Buildcell
#
# at 06:45:41 (GMT+0.0) 24th November 2020
# in /lustre/scratch/uccabz1/launch_tmp
# on node-c12e-032
# by uccabz1
#
# compiler GCC version 4.9.2
# options -cpp -iprefix /lustre/shared/ucl/apps/gcc/4.9.2/bin/../lib/gcc/x86_64-unknown-linux-gnu/4.9.2/ -mtune=corei7 -march=x86-64 -g -Og
#
# seed   451648329   908050179   -99622498  1001738286  1291763023   913849459 -1135131226  -420973793   493197160  -668348649   760127592  1826583399
#
#      Author: C. J. Pickard (cjp20@cam.ac.uk)
#                Space group: Amm2
#

%BLOCK LATTICE_ABC
      4.11762      4.11762      9.63278
     90.00000     90.00000    101.57526
%ENDBLOCK LATTICE_ABC

%BLOCK POSITIONS_FRAC
  Li  -0.7471680  -0.2528320   0.5000000 SPIN=   0.00000
  Li  -0.0504180   0.0504180  -0.0000000 SPIN=   0.00000
   O  -0.3098071  -0.1725164  -0.3733967 SPIN=   0.00000
   O  -0.4914124  -0.0268765  -0.1266119 SPIN=   0.00000
   O   0.1725164   0.3098071   0.3733967 SPIN=   0.00000
   O   0.0268765   0.4914124   0.1266119 SPIN=   0.00000
   O   0.1725164   0.3098071  -0.3733967 SPIN=   0.00000
   O   0.0268765   0.4914124  -0.1266119 SPIN=   0.00000
   O  -0.3098071  -0.1725164   0.3733967 SPIN=   0.00000
   O  -0.4914124  -0.0268765   0.1266119 SPIN=   0.00000
   P  -0.1620754   0.1620754  -0.5000000 SPIN=   0.00000
   P  -0.6346210  -0.3653790   0.0000000 SPIN=   0.00000
  Fe   0.6006053   0.3993947  -0.2503491 SPIN=   4.00000
  Fe   0.6006053   0.3993947   0.2503491 SPIN=   4.00000
%ENDBLOCK POSITIONS_FRAC

# Note: total spin =   8.00

KPOINTS_MP_SPACING 0.07

%BLOCK SPECIES_POT
QC5
%ENDBLOCK SPECIES_POT

%BLOCK HUBBARD_U
Fe d:4.0
%ENDBLOCK HUBBARD_U

SNAP_TO_SYMMETRY
SYMMETRY_GENERATE

