#              Generated by Buildcell
#
# at 01:56:52 (GMT+0.0) 27th November 2020
# in /lustre/scratch/uccabz1/launch_tmp
# on node-c12l-024
# by uccabz1
#
# compiler GCC version 4.9.2
# options -cpp -iprefix /lustre/shared/ucl/apps/gcc/4.9.2/bin/../lib/gcc/x86_64-unknown-linux-gnu/4.9.2/ -mtune=corei7 -march=x86-64 -g -Og
#
# seed  1990770874   764027056  1709377603   140560901 -1427219898 -1108437675 -1017858726   466053940  1792632876   922186540  -858733890 -1572889551
#
#      Author: C. J. Pickard (cjp20@cam.ac.uk)
#                Space group: Cm
#

%BLOCK LATTICE_ABC
      6.67662      6.67662      7.38343
     80.48479     80.48479     86.79501
%ENDBLOCK LATTICE_ABC

%BLOCK POSITIONS_FRAC
  Li  -0.2831267  -0.2831267   0.2550389 SPIN=   0.00000
  Li  -0.3120127  -0.3120127  -0.3302979 SPIN=   0.00000
  Li   0.0133736   0.0133736  -0.0700062 SPIN=   0.00000
  Li   0.4826297   0.4826297   0.0458051 SPIN=   0.00000
   O   0.3620969  -0.2432592  -0.0835021 SPIN=   0.00000
   O   0.3441673   0.0325556  -0.3736226 SPIN=   0.00000
   O   0.4059777  -0.3249948  -0.4201021 SPIN=   0.00000
   O   0.0631477  -0.2139723  -0.2690764 SPIN=   0.00000
   P   0.2947588  -0.1907043  -0.2755566 SPIN=   0.00000
   O  -0.2432592   0.3620969  -0.0835021 SPIN=   0.00000
   O   0.0325556   0.3441673  -0.3736226 SPIN=   0.00000
   O  -0.3249948   0.4059777  -0.4201021 SPIN=   0.00000
   O  -0.2139723   0.0631477  -0.2690764 SPIN=   0.00000
   P  -0.1907043   0.2947588  -0.2755566 SPIN=   0.00000
   O   0.1134542  -0.6184479   0.2849465 SPIN=   0.00000
   O   0.0146079  -0.2680696   0.1058410 SPIN=   0.00000
   O  -0.0288753  -0.3127872   0.4487610 SPIN=   0.00000
   O   0.3215844  -0.2984403   0.2639913 SPIN=   0.00000
   P   0.1081863  -0.3865318   0.2762271 SPIN=   0.00000
   O  -0.6184479   0.1134542   0.2849465 SPIN=   0.00000
   O  -0.2680696   0.0146079   0.1058410 SPIN=   0.00000
   O  -0.3127872  -0.0288753   0.4487610 SPIN=   0.00000
   O  -0.2984403   0.3215844   0.2639913 SPIN=   0.00000
   P  -0.3865318   0.1081863   0.2762271 SPIN=   0.00000
  Fe   0.0216617  -0.4957101  -0.0601787 SPIN=   4.35062
  Fe  -0.4957101   0.0216617  -0.0601787 SPIN=   4.35062
  Fe   0.3890797   0.3890797  -0.4984190 SPIN=   3.58081
  Fe   0.0118692   0.0118692   0.4036110 SPIN=   3.71795
%ENDBLOCK POSITIONS_FRAC

# Note: total spin =  16.00

KPOINTS_MP_SPACING 0.07

%BLOCK SPECIES_POT
QC5
%ENDBLOCK SPECIES_POT

%BLOCK HUBBARD_U
Fe d:4.0
%ENDBLOCK HUBBARD_U

SNAP_TO_SYMMETRY
SYMMETRY_GENERATE

