#              Generated by Buildcell
#
# at 23:37:14 (GMT+0.0) 26th November 2020
# in /lustre/scratch/uccabz1/launch_tmp
# on node-c12e-026
# by uccabz1
#
# compiler GCC version 4.9.2
# options -cpp -iprefix /lustre/shared/ucl/apps/gcc/4.9.2/bin/../lib/gcc/x86_64-unknown-linux-gnu/4.9.2/ -mtune=corei7 -march=x86-64 -g -Og
#
# seed  -702408386  1282426117     3356363 -1848885754   645542432  1592813455 -1904253185 -1232587080 -1076743549  -987220567    41052693  1882101675
#
#      Author: C. J. Pickard (cjp20@cam.ac.uk)
#                Space group: P2
#

%BLOCK LATTICE_ABC
      6.43285      6.43318      7.74312
     92.99803     90.00000     90.00000
%ENDBLOCK LATTICE_ABC

%BLOCK POSITIONS_FRAC
  Li  -0.2864481   0.2641578   0.0080451 SPIN=   0.00000
  Li  -0.2864481  -0.2641578  -0.0080451 SPIN=   0.00000
  Li  -0.2495201  -0.2349118  -0.4918695 SPIN=   0.00000
  Li  -0.2495201   0.2349118   0.4918695 SPIN=   0.00000
   O  -0.5447433  -0.3375596   0.4218436 SPIN=   0.00000
   O  -0.2527211  -0.4611379   0.2086004 SPIN=   0.00000
   O  -0.5675248  -0.6785655   0.2276507 SPIN=   0.00000
   O  -0.5898059  -0.3352551   0.0904807 SPIN=   0.00000
   P  -0.4928760  -0.4455849   0.2452474 SPIN=   0.00000
   O  -0.5447433   0.3375596  -0.4218436 SPIN=   0.00000
   O  -0.2527211   0.4611379  -0.2086004 SPIN=   0.00000
   O  -0.5675248   0.6785655  -0.2276507 SPIN=   0.00000
   O  -0.5898059   0.3352551  -0.0904807 SPIN=   0.00000
   P  -0.4928760   0.4455849  -0.2452474 SPIN=   0.00000
   O   0.0204116  -0.1777397  -0.2588666 SPIN=   0.00000
   O  -0.2888027   0.0815890  -0.2647754 SPIN=   0.00000
   O   0.0127905   0.1746314  -0.0790289 SPIN=   0.00000
   O   0.0491920   0.1755081  -0.4010039 SPIN=   0.00000
   P  -0.0465783   0.0519744  -0.2531131 SPIN=   0.00000
   O   0.0204116   0.1777397   0.2588666 SPIN=   0.00000
   O  -0.2888027  -0.0815890   0.2647754 SPIN=   0.00000
   O   0.0127905  -0.1746314   0.0790289 SPIN=   0.00000
   O   0.0491920  -0.1755081   0.4010039 SPIN=   0.00000
   P  -0.0465783  -0.0519744   0.2531131 SPIN=   0.00000
  Fe   0.3960210   0.0002387  -0.2501756 SPIN=   5.11574
  Fe   0.3960210  -0.0002387   0.2501756 SPIN=   5.11574
  Fe   0.0665453  -0.4999709   0.2498533 SPIN=   2.88426
  Fe   0.0665453   0.4999709  -0.2498533 SPIN=   2.88426
%ENDBLOCK POSITIONS_FRAC

# Note: total spin =  16.00

KPOINTS_MP_SPACING 0.07

%BLOCK SPECIES_POT
QC5
%ENDBLOCK SPECIES_POT

%BLOCK HUBBARD_U
Fe d:4.0
%ENDBLOCK HUBBARD_U

SNAP_TO_SYMMETRY
SYMMETRY_GENERATE

