#              Generated by Buildcell
#
# at 17:20:46 (GMT+0.0) 26th November 2020
# in /lustre/scratch/uccabz1/launch_tmp
# on node-c12n-022
# by uccabz1
#
# compiler GCC version 4.9.2
# options -cpp -iprefix /lustre/shared/ucl/apps/gcc/4.9.2/bin/../lib/gcc/x86_64-unknown-linux-gnu/4.9.2/ -mtune=corei7 -march=x86-64 -g -Og
#
# seed  2014072951  1892863755 -1875446965  -298313991 -1026645683 -1472182552   478407404  -505980360 -1522757672  -582032208 -1938135671   138694960
#
#      Author: C. J. Pickard (cjp20@cam.ac.uk)
#                Space group: P21
#

%BLOCK LATTICE_ABC
      5.34395      6.26540      9.76640
    101.87472     90.00000     90.00000
%ENDBLOCK LATTICE_ABC

%BLOCK POSITIONS_FRAC
  Li  -0.3709687  -0.0695575   0.2623142 SPIN=   0.00000
  Li   0.1290313   0.0695575  -0.2623142 SPIN=   0.00000
  Li   0.2859332   0.1202824   0.0695774 SPIN=   0.00000
  Li  -0.2140668  -0.1202824  -0.0695774 SPIN=   0.00000
   O   0.0681626  -0.3464957   0.4596575 SPIN=   0.00000
   O   0.2012413  -0.0840118   0.2985775 SPIN=   0.00000
   O   0.3280238   0.0056658   0.5470152 SPIN=   0.00000
   O   0.5275720  -0.3107181   0.3853302 SPIN=   0.00000
   P   0.2728109  -0.1940446   0.4241754 SPIN=   0.00000
   O  -0.4318374   0.3464957  -0.4596575 SPIN=   0.00000
   O  -0.2987587   0.0840118  -0.2985775 SPIN=   0.00000
   O  -0.1719762  -0.0056658  -0.5470152 SPIN=   0.00000
   O   0.0275720   0.3107181  -0.3853302 SPIN=   0.00000
   P  -0.2271891   0.1940446  -0.4241754 SPIN=   0.00000
   O  -0.0619421   0.4177349   0.2332115 SPIN=   0.00000
   O  -0.3344762   0.1915237   0.0349424 SPIN=   0.00000
   O  -0.5193529   0.3014521   0.2707350 SPIN=   0.00000
   O  -0.4403498   0.5839682   0.1279508 SPIN=   0.00000
   P  -0.3254723   0.3784977   0.1697934 SPIN=   0.00000
   O   0.4380579  -0.4177349  -0.2332115 SPIN=   0.00000
   O   0.1655238  -0.1915237  -0.0349424 SPIN=   0.00000
   O  -0.0193529  -0.3014521  -0.2707350 SPIN=   0.00000
   O   0.0596502  -0.5839682  -0.1279508 SPIN=   0.00000
   P   0.1745277  -0.3784977  -0.1697934 SPIN=   0.00000
  Fe  -0.2979345  -0.2796815  -0.4189036 SPIN=   2.52416
  Fe   0.2020655   0.2796815   0.4189036 SPIN=   2.52416
  Fe  -0.3709802   0.3575442  -0.1387294 SPIN=   5.47584
  Fe   0.1290198  -0.3575442   0.1387294 SPIN=   5.47584
%ENDBLOCK POSITIONS_FRAC

# Note: total spin =  16.00

KPOINTS_MP_SPACING 0.07

%BLOCK SPECIES_POT
QC5
%ENDBLOCK SPECIES_POT

%BLOCK HUBBARD_U
Fe d:4.0
%ENDBLOCK HUBBARD_U

SNAP_TO_SYMMETRY
SYMMETRY_GENERATE

