#              Generated by Buildcell
#
# at 23:34:22 (GMT+0.0) 26th November 2020
# in /lustre/scratch/uccabz1/launch_tmp
# on node-c12i-031
# by uccabz1
#
# compiler GCC version 4.9.2
# options -cpp -iprefix /lustre/shared/ucl/apps/gcc/4.9.2/bin/../lib/gcc/x86_64-unknown-linux-gnu/4.9.2/ -mtune=corei7 -march=x86-64 -g -Og
#
# seed  -420837961 -1300459845  2099516182  -606751439  -276943604  1523026434  -511491235 -1278253309   382992905   230687350  1743672708   660782980
#
#      Author: C. J. Pickard (cjp20@cam.ac.uk)
#                Space group: C2
#

%BLOCK LATTICE_ABC
      6.26091      7.68897      7.68897
    110.83517    102.45369    102.45369
%ENDBLOCK LATTICE_ABC

%BLOCK POSITIONS_FRAC
  Li   0.0636984   0.1341264   0.2347239 SPIN=   0.00000
  Li  -0.0636984  -0.2347239  -0.1341264 SPIN=   0.00000
  Li   0.0000000   0.1564365  -0.1564365 SPIN=   0.00000
  Li   0.0000000   0.3968136  -0.3968136 SPIN=   0.00000
   O  -0.2828184  -0.8872393  -0.0050622 SPIN=   0.00000
   O  -0.2881981  -0.5297674   0.0808959 SPIN=   0.00000
   O  -0.4178465  -0.6948650   0.2803860 SPIN=   0.00000
   O   0.0013471  -0.5934190   0.3110174 SPIN=   0.00000
   P  -0.2458632  -0.6865746   0.1593598 SPIN=   0.00000
   O   0.2828184   0.0050622   0.8872393 SPIN=   0.00000
   O   0.2881981  -0.0808959   0.5297674 SPIN=   0.00000
   O   0.4178465  -0.2803860   0.6948650 SPIN=   0.00000
   O  -0.0013471  -0.3110174   0.5934190 SPIN=   0.00000
   P   0.2458632  -0.1593598   0.6865746 SPIN=   0.00000
   O   0.2901065   0.7505975   0.1788653 SPIN=   0.00000
   O   0.2658292   0.3904418   0.1147764 SPIN=   0.00000
   O  -0.0229439   0.4476183  -0.1149869 SPIN=   0.00000
   O   0.3873543   0.5262878  -0.1130389 SPIN=   0.00000
   P   0.2351383   0.5405205   0.0235267 SPIN=   0.00000
   O  -0.2901065  -0.1788653  -0.7505975 SPIN=   0.00000
   O  -0.2658292  -0.1147764  -0.3904418 SPIN=   0.00000
   O   0.0229439   0.1149869  -0.4476183 SPIN=   0.00000
   O  -0.3873543   0.1130389  -0.5262878 SPIN=   0.00000
   P  -0.2351383  -0.0235267  -0.5405205 SPIN=   0.00000
  Fe   0.5000000   0.9208299   0.0791701 SPIN=   7.14486
  Fe   0.5000000   0.5414775   0.4585225 SPIN=   3.32464
  Fe  -0.5000000  -0.7660870  -0.2339130 SPIN=   3.20982
  Fe   0.0000000  -0.2805266   0.2805266 SPIN=   2.32068
%ENDBLOCK POSITIONS_FRAC

# Note: total spin =  16.00

KPOINTS_MP_SPACING 0.07

%BLOCK SPECIES_POT
QC5
%ENDBLOCK SPECIES_POT

%BLOCK HUBBARD_U
Fe d:4.0
%ENDBLOCK HUBBARD_U

SNAP_TO_SYMMETRY
SYMMETRY_GENERATE

