#              Generated by Buildcell
#
# at 09:15:50 (GMT+0.0) 24th November 2020
# in /lustre/scratch/uccabz1/launch_tmp
# on node-c12f-020
# by uccabz1
#
# compiler GCC version 4.9.2
# options -cpp -iprefix /lustre/shared/ucl/apps/gcc/4.9.2/bin/../lib/gcc/x86_64-unknown-linux-gnu/4.9.2/ -mtune=corei7 -march=x86-64 -g -Og
#
# seed -1131743376 -1384845774  -410276441   747747322 -1838474945 -1587488165 -2064619999  -934980209  -707680307 -1844819372 -1041405783   147726918
#
#      Author: C. J. Pickard (cjp20@cam.ac.uk)
#                Space group: Cm
#

%BLOCK LATTICE_ABC
      4.42548      6.13961      6.13961
     89.73264     78.43226     78.43226
%ENDBLOCK LATTICE_ABC

%BLOCK POSITIONS_FRAC
  Li   0.3803504   0.0432793   0.3932155 SPIN=   0.00000
  Li   0.3803504   0.3932155   0.0432793 SPIN=   0.00000
   O  -0.0744852  -0.4576968   0.2416470 SPIN=   0.00000
   O   0.4026553  -0.2618338   0.1887340 SPIN=   0.00000
   O  -0.1331910  -0.0281145   0.2564761 SPIN=   0.00000
   P   0.0545476  -0.2602948   0.3122626 SPIN=   0.00000
   O  -0.0744852   0.2416470  -0.4576968 SPIN=   0.00000
   O   0.4026553   0.1887340  -0.2618338 SPIN=   0.00000
   O  -0.1331910   0.2564761  -0.0281145 SPIN=   0.00000
   P   0.0545476   0.3122626  -0.2602948 SPIN=   0.00000
   O  -0.0690084  -0.3626775  -0.3626775 SPIN=   0.00000
   O   0.3578397  -0.2311976  -0.2311976 SPIN=   0.00000
  Fe  -0.4331952  -0.4841657  -0.4841657 SPIN=   5.85825
  Fe  -0.1477436  -0.0969514  -0.0969514 SPIN=   2.14175
%ENDBLOCK POSITIONS_FRAC

# Note: total spin =   8.00

KPOINTS_MP_SPACING 0.07

%BLOCK SPECIES_POT
QC5
%ENDBLOCK SPECIES_POT

%BLOCK HUBBARD_U
Fe d:4.0
%ENDBLOCK HUBBARD_U

SNAP_TO_SYMMETRY
SYMMETRY_GENERATE

