#              Generated by Buildcell
#
# at 23:30:32 (GMT+0.0) 26th November 2020
# in /lustre/scratch/uccabz1/launch_tmp
# on node-c12i-035
# by uccabz1
#
# compiler GCC version 4.9.2
# options -cpp -iprefix /lustre/shared/ucl/apps/gcc/4.9.2/bin/../lib/gcc/x86_64-unknown-linux-gnu/4.9.2/ -mtune=corei7 -march=x86-64 -g -Og
#
# seed  -847273136  1471469859    88237197   750211006   974060408   -54492892 -1253795309   417362781  1245845828   -52717384  -392564169 -1642788069
#
#      Author: C. J. Pickard (cjp20@cam.ac.uk)
#                Space group: P21/c
#

%BLOCK LATTICE_ABC
      4.66195      5.01400     13.70972
     90.00000     93.08632     90.00000
%ENDBLOCK LATTICE_ABC

%BLOCK POSITIONS_FRAC
  Li   0.2119559   0.2699537  -0.4902847 SPIN=   0.00000
  Li  -0.2119559  -0.2300463  -0.0097153 SPIN=   0.00000
  Li  -0.2119559  -0.2699537   0.4902847 SPIN=   0.00000
  Li   0.2119559   0.2300463   0.0097153 SPIN=   0.00000
   O  -0.5219063   0.3356210  -0.1791271 SPIN=   0.00000
   O  -0.0898937   0.0139868  -0.1476135 SPIN=   0.00000
   O  -0.0272113   0.4880296  -0.1023231 SPIN=   0.00000
   O  -0.3413703   0.1962055  -0.0051258 SPIN=   0.00000
   P  -0.2609704   0.2618344  -0.1110849 SPIN=   0.00000
   O   0.5219063  -0.1643790  -0.3208729 SPIN=   0.00000
   O   0.0898937  -0.4860132  -0.3523865 SPIN=   0.00000
   O   0.0272113  -0.0119704  -0.3976769 SPIN=   0.00000
   O   0.3413703  -0.3037945  -0.4948742 SPIN=   0.00000
   P   0.2609704  -0.2381656  -0.3889151 SPIN=   0.00000
   O   0.5219063  -0.3356210   0.1791271 SPIN=   0.00000
   O   0.0898937  -0.0139868   0.1476135 SPIN=   0.00000
   O   0.0272113  -0.4880296   0.1023231 SPIN=   0.00000
   O   0.3413703  -0.1962055   0.0051258 SPIN=   0.00000
   P   0.2609704  -0.2618344   0.1110849 SPIN=   0.00000
   O  -0.5219063   0.1643790   0.3208729 SPIN=   0.00000
   O  -0.0898937   0.4860132   0.3523865 SPIN=   0.00000
   O  -0.0272113   0.0119704   0.3976769 SPIN=   0.00000
   O  -0.3413703   0.3037945   0.4948742 SPIN=   0.00000
   P  -0.2609704   0.2381656   0.3889151 SPIN=   0.00000
  Fe  -0.2610449   0.2838380   0.1802420 SPIN=   4.00000
  Fe   0.2610449  -0.2161620   0.3197580 SPIN=   4.00000
  Fe   0.2610449  -0.2838380  -0.1802420 SPIN=   4.00000
  Fe  -0.2610449   0.2161620  -0.3197580 SPIN=   4.00000
%ENDBLOCK POSITIONS_FRAC

# Note: total spin =  16.00

KPOINTS_MP_SPACING 0.07

%BLOCK SPECIES_POT
QC5
%ENDBLOCK SPECIES_POT

%BLOCK HUBBARD_U
Fe d:4.0
%ENDBLOCK HUBBARD_U

SNAP_TO_SYMMETRY
SYMMETRY_GENERATE

