#              Generated by Buildcell
#
# at 22:51:44 (GMT+0.0) 26th November 2020
# in /lustre/scratch/uccabz1/launch_tmp
# on node-c12n-022
# by uccabz1
#
# compiler GCC version 4.9.2
# options -cpp -iprefix /lustre/shared/ucl/apps/gcc/4.9.2/bin/../lib/gcc/x86_64-unknown-linux-gnu/4.9.2/ -mtune=corei7 -march=x86-64 -g -Og
#
# seed  -412576069  1409302661 -1224198449  -474524022  1427022061  1075354555 -2039759155   686201257  -664904151   197305169  -778285972   244363060
#
#      Author: C. J. Pickard (cjp20@cam.ac.uk)
#                Space group: Pc
#

%BLOCK LATTICE_ABC
      4.55262      6.18060     11.94787
     90.00000     90.00000    107.85283
%ENDBLOCK LATTICE_ABC

%BLOCK POSITIONS_FRAC
  Li  -0.0492580   0.4923956  -0.1394087 SPIN=   0.00000
  Li  -0.0492580  -0.0076044   0.1394087 SPIN=   0.00000
  Li   0.0426644   0.4323329   0.3574697 SPIN=   0.00000
  Li   0.0426644  -0.0676671  -0.3574697 SPIN=   0.00000
   O   0.2727854   0.2699756   0.2490523 SPIN=   0.00000
   O   0.5631611   0.3760708   0.4381385 SPIN=   0.00000
   O   0.2304446  -0.0191822   0.4106993 SPIN=   0.00000
   O   0.7262995   0.1230186   0.3041750 SPIN=   0.00000
   P   0.4421164   0.1911031   0.3445669 SPIN=   0.00000
   O   0.2727854  -0.2300244  -0.2490523 SPIN=   0.00000
   O   0.5631611  -0.1239292  -0.4381385 SPIN=   0.00000
   O   0.2304446  -0.5191822  -0.4106993 SPIN=   0.00000
   O   0.7262995  -0.3769814  -0.3041750 SPIN=   0.00000
   P   0.4421164  -0.3088969  -0.3445669 SPIN=   0.00000
   O   0.1537003   0.1044348  -0.1731598 SPIN=   0.00000
   O   0.1831080   0.2602985   0.0298482 SPIN=   0.00000
   O   0.6547714   0.2112515  -0.0538014 SPIN=   0.00000
   O   0.4536671   0.5206042  -0.1240566 SPIN=   0.00000
   P   0.3513473   0.2680194  -0.0857536 SPIN=   0.00000
   O   0.1537003  -0.3955652   0.1731598 SPIN=   0.00000
   O   0.1831080  -0.2397015  -0.0298482 SPIN=   0.00000
   O   0.6547714  -0.2887485   0.0538014 SPIN=   0.00000
   O   0.4536671   0.0206042   0.1240566 SPIN=   0.00000
   P   0.3513473  -0.2319806   0.0857536 SPIN=   0.00000
  Fe  -0.3791297  -0.1007801  -0.1299360 SPIN=   2.91810
  Fe  -0.3791297   0.3992199   0.1299360 SPIN=   2.91810
  Fe  -0.2927553  -0.1697450   0.3956936 SPIN=   5.08190
  Fe  -0.2927553   0.3302550  -0.3956936 SPIN=   5.08190
%ENDBLOCK POSITIONS_FRAC

# Note: total spin =  16.00

KPOINTS_MP_SPACING 0.07

%BLOCK SPECIES_POT
QC5
%ENDBLOCK SPECIES_POT

%BLOCK HUBBARD_U
Fe d:4.0
%ENDBLOCK HUBBARD_U

SNAP_TO_SYMMETRY
SYMMETRY_GENERATE

