#              Generated by Buildcell
#
# at 11:59:37 (GMT+0.0) 24th November 2020
# in /scratch/scratch/uccabz1/launch_tmp
# on node-a14b-010
# by uccabz1
#
# compiler GCC version 4.9.2
# options -cpp -iprefix /scratch/UCL/applications/gcc/4.9.2/bin/../lib/gcc/x86_64-unknown-linux-gnu/4.9.2/ -mtune=corei7 -march=x86-64 -g -O2
#
# seed  -484647881  1909876260  1856399055  -463537693 -1479588661  1641188583  -314300555  1609914884  1045358244   571497337  2095037177  1364578643
#
#      Author: C. J. Pickard (cjp20@cam.ac.uk)
#                Space group: Cm
#

%BLOCK LATTICE_ABC
      4.68483      5.99524      5.99524
     99.62049     99.91443     99.91443
%ENDBLOCK LATTICE_ABC

%BLOCK POSITIONS_FRAC
  Li   0.2452821  -0.4659912  -0.4659912 SPIN=   0.00000
  Li   0.3067663  -0.0205773  -0.0205773 SPIN=   0.00000
   O  -0.0632058  -0.2632094   0.0027858 SPIN=   0.00000
   O   0.3948198  -0.2279628   0.3298298 SPIN=   0.00000
   O   0.0995420   0.0755510   0.3603378 SPIN=   0.00000
   O  -0.1134807  -0.3203635   0.4128998 SPIN=   0.00000
   O  -0.0632058   0.0027858  -0.2632094 SPIN=   0.00000
   O   0.3948198   0.3298298  -0.2279628 SPIN=   0.00000
   O   0.0995420   0.3603378   0.0755510 SPIN=   0.00000
   O  -0.1134807   0.4128998  -0.3203635 SPIN=   0.00000
   P  -0.1806559  -0.2960140  -0.2960140 SPIN=   0.00000
   P  -0.0813319   0.1922022   0.1922022 SPIN=   0.00000
  Fe  -0.4138208  -0.4634273   0.0992267 SPIN=   4.00000
  Fe  -0.4138208   0.0992267  -0.4634273 SPIN=   4.00000
%ENDBLOCK POSITIONS_FRAC

# Note: total spin =   8.00

KPOINTS_MP_SPACING 0.07

%BLOCK SPECIES_POT
QC5
%ENDBLOCK SPECIES_POT

%BLOCK HUBBARD_U
Fe d:4.0
%ENDBLOCK HUBBARD_U

SNAP_TO_SYMMETRY
SYMMETRY_GENERATE

