#              Generated by Buildcell
#
# at 10:48:07 (GMT+0.0) 24th November 2020
# in /scratch/scratch/uccabz1/launch_tmp
# on node-k10i-019
# by uccabz1
#
# compiler GCC version 4.9.2
# options -cpp -iprefix /scratch/UCL/applications/gcc/4.9.2/bin/../lib/gcc/x86_64-unknown-linux-gnu/4.9.2/ -mtune=corei7 -march=x86-64 -g -O2
#
# seed -1378611197   700964403  -275361042  -962005999  -996260036  -448247272 -1725752104  -605978138  -360035350 -1887536881  1825858571 -1519343728
#
#      Author: C. J. Pickard (cjp20@cam.ac.uk)
#                Space group: Pmc21
#

%BLOCK LATTICE_ABC
      4.18170      4.92133      7.77473
     90.00000     90.00000     90.00000
%ENDBLOCK LATTICE_ABC

%BLOCK POSITIONS_FRAC
  Li  -0.2604973   0.0000000   0.2490775 SPIN=   0.00000
  Li   0.2604973   0.0000000  -0.2509225 SPIN=   0.00000
   O   0.1372380  -0.2502543   0.2961990 SPIN=   0.00000
   O   0.4041963  -0.2498194  -0.0055487 SPIN=   0.00000
   O  -0.1372380   0.2502543  -0.2038010 SPIN=   0.00000
   O  -0.4041963   0.2498194  -0.5055487 SPIN=   0.00000
   O  -0.1372380  -0.2502543  -0.2038010 SPIN=   0.00000
   O  -0.4041963  -0.2498194  -0.5055487 SPIN=   0.00000
   O   0.1372380   0.2502543   0.2961990 SPIN=   0.00000
   O   0.4041963   0.2498194  -0.0055487 SPIN=   0.00000
   P  -0.4971954  -0.5000000  -0.2476932 SPIN=   0.00000
   P   0.4971954  -0.5000000   0.2523068 SPIN=   0.00000
  Fe  -0.0009795  -0.5000000   0.0023069 SPIN=   4.00000
  Fe   0.0009795   0.5000000  -0.4976931 SPIN=   4.00000
%ENDBLOCK POSITIONS_FRAC

# Note: total spin =   8.00

KPOINTS_MP_SPACING 0.07

%BLOCK SPECIES_POT
QC5
%ENDBLOCK SPECIES_POT

%BLOCK HUBBARD_U
Fe d:4.0
%ENDBLOCK HUBBARD_U

SNAP_TO_SYMMETRY
SYMMETRY_GENERATE

