#              Generated by Buildcell
#
# at 23:48:59 (GMT+0.0) 26th November 2020
# in /lustre/scratch/uccabz1/launch_tmp
# on node-c12e-026
# by uccabz1
#
# compiler GCC version 4.9.2
# options -cpp -iprefix /lustre/shared/ucl/apps/gcc/4.9.2/bin/../lib/gcc/x86_64-unknown-linux-gnu/4.9.2/ -mtune=corei7 -march=x86-64 -g -Og
#
# seed  -640524892  -144435347   977349778  -259390731   486746587 -1449642436  2062604537  1838663112 -1876020908 -1735839858 -1897635506   487731780
#
#      Author: C. J. Pickard (cjp20@cam.ac.uk)
#                Space group: Pnc2
#

%BLOCK LATTICE_ABC
      3.91572      4.92951     16.57811
     90.00000     90.00000     90.00000
%ENDBLOCK LATTICE_ABC

%BLOCK POSITIONS_FRAC
  Li   0.0000000   0.2607239   0.0000000 SPIN=   0.00000
  Li   0.0000000  -0.2392761  -0.5000000 SPIN=   0.00000
  Li  -0.5000000  -0.2249040   0.0000000 SPIN=   0.00000
  Li  -0.5000000   0.2750960  -0.5000000 SPIN=   0.00000
   O   0.6593807  -0.3867974  -0.4033043 SPIN=   0.00000
   O   0.2502877   0.0275966  -0.3969663 SPIN=   0.00000
   O   0.2417524  -0.3001385  -0.2842845 SPIN=   0.00000
   O   0.7471643   0.0053764  -0.3020814 SPIN=   0.00000
   P   0.4876985  -0.1733879  -0.3491491 SPIN=   0.00000
   O  -0.6593807  -0.3867974   0.4033043 SPIN=   0.00000
   O  -0.2502877   0.0275966   0.3969663 SPIN=   0.00000
   O  -0.2417524  -0.3001385   0.2842845 SPIN=   0.00000
   O  -0.7471643   0.0053764   0.3020814 SPIN=   0.00000
   P  -0.4876985  -0.1733879   0.3491491 SPIN=   0.00000
   O   0.6593807   0.1132026  -0.0966957 SPIN=   0.00000
   O   0.2502877   0.5275966  -0.1030337 SPIN=   0.00000
   O   0.2417524   0.1998615  -0.2157155 SPIN=   0.00000
   O   0.7471643   0.5053764  -0.1979186 SPIN=   0.00000
   P   0.4876985   0.3266121  -0.1508509 SPIN=   0.00000
   O  -0.6593807   0.1132026   0.0966957 SPIN=   0.00000
   O  -0.2502877   0.5275966   0.1030337 SPIN=   0.00000
   O  -0.2417524   0.1998615   0.2157155 SPIN=   0.00000
   O  -0.7471643   0.5053764   0.1979186 SPIN=   0.00000
   P  -0.4876985   0.3266121   0.1508509 SPIN=   0.00000
  Fe  -0.0019853  -0.1444172   0.1586059 SPIN=   4.00000
  Fe   0.0019853  -0.1444172  -0.1586059 SPIN=   4.00000
  Fe  -0.0019853   0.3555828   0.3413941 SPIN=   4.00000
  Fe   0.0019853   0.3555828  -0.3413941 SPIN=   4.00000
%ENDBLOCK POSITIONS_FRAC

# Note: total spin =  16.00

KPOINTS_MP_SPACING 0.07

%BLOCK SPECIES_POT
QC5
%ENDBLOCK SPECIES_POT

%BLOCK HUBBARD_U
Fe d:4.0
%ENDBLOCK HUBBARD_U

SNAP_TO_SYMMETRY
SYMMETRY_GENERATE

