#              Generated by Buildcell
#
# at 15:15:14 (GMT+0.0) 26th November 2020
# in /scratch/scratch/uccabz1/launch_tmp
# on node-a14c-005
# by uccabz1
#
# compiler GCC version 4.9.2
# options -cpp -iprefix /scratch/UCL/applications/gcc/4.9.2/bin/../lib/gcc/x86_64-unknown-linux-gnu/4.9.2/ -mtune=corei7 -march=x86-64 -g -O2
#
# seed  1881597116  -955047833 -1425012766   137615612 -1467318400  -442142359  1345936098   -57534233   876507234 -1203125762  -677110737 -1559101745
#
#      Author: C. J. Pickard (cjp20@cam.ac.uk)
#                Space group: P-1
#

%BLOCK LATTICE_ABC
      5.82143      7.65737      7.68115
     71.02231     88.97675     81.42599
%ENDBLOCK LATTICE_ABC

%BLOCK POSITIONS_FRAC
  Li   0.3479549   0.3601036   0.4535292 SPIN=   0.00000
  Li  -0.3479549  -0.3601036  -0.4535292 SPIN=   0.00000
  Li  -0.4650294  -0.1212715  -0.1293543 SPIN=   0.00000
  Li   0.4650294   0.1212715   0.1293543 SPIN=   0.00000
   O  -0.5988954   0.1624058  -0.1846320 SPIN=   0.00000
   O  -0.2621949   0.3376939  -0.3420626 SPIN=   0.00000
   O  -0.6417050   0.5238879  -0.3252464 SPIN=   0.00000
   O  -0.3961846   0.3606855  -0.0375569 SPIN=   0.00000
   P  -0.4804282   0.3365552  -0.2181838 SPIN=   0.00000
   O   0.5988954  -0.1624058   0.1846320 SPIN=   0.00000
   O   0.2621949  -0.3376939   0.3420626 SPIN=   0.00000
   O   0.6417050  -0.5238879   0.3252464 SPIN=   0.00000
   O   0.3961846  -0.3606855   0.0375569 SPIN=   0.00000
   P   0.4804282  -0.3365552   0.2181838 SPIN=   0.00000
   O   0.2029165  -0.0595418   0.0515553 SPIN=   0.00000
   O  -0.1042729  -0.0133698   0.2885283 SPIN=   0.00000
   O   0.3102586  -0.0338009   0.3682581 SPIN=   0.00000
   O   0.1107539   0.2499238   0.1235374 SPIN=   0.00000
   O  -0.2029165   0.0595418  -0.0515553 SPIN=   0.00000
   O   0.1042729   0.0133698  -0.2885283 SPIN=   0.00000
   O  -0.3102586   0.0338009  -0.3682581 SPIN=   0.00000
   O  -0.1107539  -0.2499238  -0.1235374 SPIN=   0.00000
   P  -0.5000000   0.0000000  -0.5000000 SPIN=   0.00000
   P  -0.0000000   0.5000000   0.0000000 SPIN=   0.00000
  Fe   0.0407181   0.2323940  -0.1798854 SPIN=   5.08497
  Fe  -0.0407181  -0.2323940   0.1798854 SPIN=   5.08497
  Fe   0.1249128  -0.2417245  -0.3324159 SPIN=   2.91503
  Fe  -0.1249128   0.2417245   0.3324159 SPIN=   2.91503
%ENDBLOCK POSITIONS_FRAC

# Note: total spin =  16.00

KPOINTS_MP_SPACING 0.07

%BLOCK SPECIES_POT
QC5
%ENDBLOCK SPECIES_POT

%BLOCK HUBBARD_U
Fe d:4.0
%ENDBLOCK HUBBARD_U

SNAP_TO_SYMMETRY
SYMMETRY_GENERATE

