#              Generated by Buildcell
#
# at 09:28:42 (GMT+0.0) 24th November 2020
# in /lustre/scratch/uccabz1/launch_tmp
# on node-c12l-030
# by uccabz1
#
# compiler GCC version 4.9.2
# options -cpp -iprefix /lustre/shared/ucl/apps/gcc/4.9.2/bin/../lib/gcc/x86_64-unknown-linux-gnu/4.9.2/ -mtune=corei7 -march=x86-64 -g -Og
#
# seed  -728057750 -1628162349   503241638  1188232767  1893921400   987174621 -2095158014   -40631341  -280311495 -2131800193  -881038820 -2019096102
#
#      Author: C. J. Pickard (cjp20@cam.ac.uk)
#                Space group: P-1
#

%BLOCK LATTICE_ABC
      4.89772      6.02035      6.10323
     74.81660     70.14953     74.21383
%ENDBLOCK LATTICE_ABC

%BLOCK POSITIONS_FRAC
  Li   0.2482723   0.4220183   0.2098575 SPIN=   0.00000
  Li  -0.2482723  -0.4220183  -0.2098575 SPIN=   0.00000
   O   0.2312831   0.0248311  -0.4674703 SPIN=   0.00000
   O   0.3341936  -0.2136604  -0.0723131 SPIN=   0.00000
   O  -0.1725713  -0.1418642  -0.1055727 SPIN=   0.00000
   O   0.2349883  -0.4199145  -0.3359147 SPIN=   0.00000
   P   0.1618508  -0.1790793  -0.2582154 SPIN=   0.00000
   O  -0.2312831  -0.0248311   0.4674703 SPIN=   0.00000
   O  -0.3341936   0.2136604   0.0723131 SPIN=   0.00000
   O   0.1725713   0.1418642   0.1055727 SPIN=   0.00000
   O  -0.2349883   0.4199145   0.3359147 SPIN=   0.00000
   P  -0.1618508   0.1790793   0.2582154 SPIN=   0.00000
  Fe  -0.4027484  -0.2126319   0.2782713 SPIN=   4.00000
  Fe   0.4027484   0.2126319  -0.2782713 SPIN=   4.00000
%ENDBLOCK POSITIONS_FRAC

# Note: total spin =   8.00

KPOINTS_MP_SPACING 0.07

%BLOCK SPECIES_POT
QC5
%ENDBLOCK SPECIES_POT

%BLOCK HUBBARD_U
Fe d:4.0
%ENDBLOCK HUBBARD_U

SNAP_TO_SYMMETRY
SYMMETRY_GENERATE

