#              Generated by Buildcell
#
# at 13:05:11 (GMT+0.0) 24th November 2020
# in /scratch/scratch/uccabz1/launch_tmp
# on node-k10i-025
# by uccabz1
#
# compiler GCC version 4.9.2
# options -cpp -iprefix /scratch/UCL/applications/gcc/4.9.2/bin/../lib/gcc/x86_64-unknown-linux-gnu/4.9.2/ -mtune=corei7 -march=x86-64 -g -O2
#
# seed  -722312194  1565576780  1534184128  1519805020 -1040380963   664901389 -1762042923  -717480794  -529983778  -546730364  1231319431  -282220130
#
#      Author: C. J. Pickard (cjp20@cam.ac.uk)
#                Space group: P-1
#

%BLOCK LATTICE_ABC
      5.53826      5.74291      5.98937
     97.40265    109.56766    111.48666
%ENDBLOCK LATTICE_ABC

%BLOCK POSITIONS_FRAC
  Li  -0.4671769  -0.2397632  -0.0960623 SPIN=   0.00000
  Li   0.4671769   0.2397632   0.0960623 SPIN=   0.00000
   O  -0.1015506  -0.3596991  -0.0948669 SPIN=   0.00000
   O  -0.2200940  -0.4694708  -0.5647241 SPIN=   0.00000
   O  -0.3546452  -0.1470133  -0.3910168 SPIN=   0.00000
   O   0.1606445  -0.0293918  -0.2859502 SPIN=   0.00000
   P  -0.1240374  -0.2545406  -0.3208307 SPIN=   0.00000
   O   0.1015506   0.3596991   0.0948669 SPIN=   0.00000
   O   0.2200940   0.4694708   0.5647241 SPIN=   0.00000
   O   0.3546452   0.1470133   0.3910168 SPIN=   0.00000
   O  -0.1606445   0.0293918   0.2859502 SPIN=   0.00000
   P   0.1240374   0.2545406   0.3208307 SPIN=   0.00000
  Fe  -0.1005831  -0.7458485  -0.3114571 SPIN=   4.00000
  Fe   0.1005831   0.7458485   0.3114571 SPIN=   4.00000
%ENDBLOCK POSITIONS_FRAC

# Note: total spin =   8.00

KPOINTS_MP_SPACING 0.07

%BLOCK SPECIES_POT
QC5
%ENDBLOCK SPECIES_POT

%BLOCK HUBBARD_U
Fe d:4.0
%ENDBLOCK HUBBARD_U

SNAP_TO_SYMMETRY
SYMMETRY_GENERATE

