#              Generated by Buildcell
#
# at 19:34:34 (GMT+0.0) 26th November 2020
# in /lustre/scratch/uccabz1/launch_tmp
# on node-c12d-022
# by uccabz1
#
# compiler GCC version 4.9.2
# options -cpp -iprefix /lustre/shared/ucl/apps/gcc/4.9.2/bin/../lib/gcc/x86_64-unknown-linux-gnu/4.9.2/ -mtune=corei7 -march=x86-64 -g -Og
#
# seed  1670294435  1852173704 -1401953881   729598251  1104163009  1180184384  1102749802  1801022736 -1002268596   363167268 -1841025111   964784080
#
#      Author: C. J. Pickard (cjp20@cam.ac.uk)
#                Space group: P-1
#

%BLOCK LATTICE_ABC
      4.96487      6.96584      9.52889
    101.03451     95.79971     94.81165
%ENDBLOCK LATTICE_ABC

%BLOCK POSITIONS_FRAC
  Li   0.2133168  -0.3292336  -0.4906332 SPIN=   0.00000
  Li  -0.2133168   0.3292336   0.4906332 SPIN=   0.00000
  Li  -0.2567857  -0.1156021   0.4169780 SPIN=   0.00000
  Li   0.2567857   0.1156021  -0.4169780 SPIN=   0.00000
   O   0.4395194   0.0713108   0.3917612 SPIN=   0.00000
   O   0.5275178   0.4185601   0.3328059 SPIN=   0.00000
   O   0.3273473   0.1437276   0.1359501 SPIN=   0.00000
   O   0.0474799   0.2739684   0.3302994 SPIN=   0.00000
   P   0.3376079   0.2191634   0.3030969 SPIN=   0.00000
   O  -0.4395194  -0.0713108  -0.3917612 SPIN=   0.00000
   O  -0.5275178  -0.4185601  -0.3328059 SPIN=   0.00000
   O  -0.3273473  -0.1437276  -0.1359501 SPIN=   0.00000
   O  -0.0474799  -0.2739684  -0.3302994 SPIN=   0.00000
   P  -0.3376079  -0.2191634  -0.3030969 SPIN=   0.00000
   O  -0.2259467  -0.5034275   0.0451003 SPIN=   0.00000
   O  -0.0029653  -0.2552436   0.2749236 SPIN=   0.00000
   O   0.0586587  -0.1758414   0.0376666 SPIN=   0.00000
   O  -0.3993252  -0.1649558   0.1258012 SPIN=   0.00000
   P  -0.1498754  -0.2857397   0.1168966 SPIN=   0.00000
   O   0.2259467   0.5034275  -0.0451003 SPIN=   0.00000
   O   0.0029653   0.2552436  -0.2749236 SPIN=   0.00000
   O  -0.0586587   0.1758414  -0.0376666 SPIN=   0.00000
   O   0.3993252   0.1649558  -0.1258012 SPIN=   0.00000
   P   0.1498754   0.2857397  -0.1168966 SPIN=   0.00000
  Fe   0.2105311  -0.1216287  -0.1496694 SPIN=   2.88528
  Fe  -0.2105311   0.1216287   0.1496694 SPIN=   2.88528
  Fe   0.3419442  -0.4429263   0.1772715 SPIN=   5.11472
  Fe  -0.3419442   0.4429263  -0.1772715 SPIN=   5.11472
%ENDBLOCK POSITIONS_FRAC

# Note: total spin =  16.00

KPOINTS_MP_SPACING 0.07

%BLOCK SPECIES_POT
QC5
%ENDBLOCK SPECIES_POT

%BLOCK HUBBARD_U
Fe d:4.0
%ENDBLOCK HUBBARD_U

SNAP_TO_SYMMETRY
SYMMETRY_GENERATE

