#              Generated by Buildcell
#
# at 23:30:09 (GMT+0.0) 26th November 2020
# in /scratch/scratch/mmm0366/launch_tmp
# on node-k98f-026
# by mmm0366
#
# compiler GCC version 4.9.2
# options -cpp -iprefix /scratch/UCL/applications/gcc/4.9.2/bin/../lib/gcc/x86_64-unknown-linux-gnu/4.9.2/ -mtune=corei7 -march=x86-64 -g -O2
#
# seed  -182366292  -288419693  -862594997  1423088362  -111321761 -1640818704  -775156948  -343060904  -841018418   849551986  -337720951  -254569559
#
#      Author: C. J. Pickard (cjp20@cam.ac.uk)
#                Space group: P21
#

%BLOCK LATTICE_ABC
      4.52597      8.16284      8.67649
     90.00000     90.00000     93.36021
%ENDBLOCK LATTICE_ABC

%BLOCK POSITIONS_FRAC
  Li   0.3516761   0.0417593  -0.2303054 SPIN=   0.00000
  Li  -0.3516761  -0.0417593   0.2696946 SPIN=   0.00000
  Li  -0.1311111   0.2966749  -0.2356382 SPIN=   0.00000
  Li   0.1311111  -0.2966749   0.2643618 SPIN=   0.00000
   O   0.0125880  -0.4279371  -0.0765352 SPIN=   0.00000
   O   0.4991006  -0.3150577  -0.2074509 SPIN=   0.00000
   O   0.2900104  -0.5892833  -0.2841509 SPIN=   0.00000
   O   0.0316185  -0.3392795  -0.3623005 SPIN=   0.00000
   P   0.1958217  -0.4174967  -0.2258297 SPIN=   0.00000
   O  -0.0125880   0.4279371   0.4234648 SPIN=   0.00000
   O  -0.4991006   0.3150577   0.2925491 SPIN=   0.00000
   O  -0.2900104   0.5892833   0.2158491 SPIN=   0.00000
   O  -0.0316185   0.3392795   0.1376995 SPIN=   0.00000
   P  -0.1958217   0.4174967   0.2741703 SPIN=   0.00000
   O   0.0787822   0.0635633   0.2309024 SPIN=   0.00000
   O   0.5563374   0.1173220   0.0680340 SPIN=   0.00000
   O   0.2499657  -0.1384461   0.0221424 SPIN=   0.00000
   O   0.0622063   0.1306674  -0.0597796 SPIN=   0.00000
   P   0.2263474   0.0453881   0.0726646 SPIN=   0.00000
   O  -0.0787822  -0.0635633  -0.2690976 SPIN=   0.00000
   O  -0.5563374  -0.1173220  -0.4319660 SPIN=   0.00000
   O  -0.2499657   0.1384461  -0.4778576 SPIN=   0.00000
   O  -0.0622063  -0.1306674  -0.5597796 SPIN=   0.00000
   P  -0.2263474  -0.0453881  -0.4273354 SPIN=   0.00000
  Fe  -0.3786014  -0.3885119  -0.4709531 SPIN=   4.35751
  Fe   0.3786014   0.3885119   0.0290469 SPIN=   4.35751
  Fe  -0.1737667  -0.1985227  -0.0672643 SPIN=   3.64249
  Fe   0.1737667   0.1985227   0.4327357 SPIN=   3.64249
%ENDBLOCK POSITIONS_FRAC

# Note: total spin =  16.00

KPOINTS_MP_SPACING 0.07

%BLOCK SPECIES_POT
QC5
%ENDBLOCK SPECIES_POT

%BLOCK HUBBARD_U
Fe d:4.0
%ENDBLOCK HUBBARD_U

SNAP_TO_SYMMETRY
SYMMETRY_GENERATE

