#              Generated by Buildcell
#
# at 11:44:10 (GMT+0.0) 24th November 2020
# in /lustre/scratch/uccabz1/launch_tmp
# on node-c12a-027
# by uccabz1
#
# compiler GCC version 4.9.2
# options -cpp -iprefix /lustre/shared/ucl/apps/gcc/4.9.2/bin/../lib/gcc/x86_64-unknown-linux-gnu/4.9.2/ -mtune=corei7 -march=x86-64 -g -Og
#
# seed   484538162 -1714532060   943318757  1070392877   869699828  -895930441 -1250593694   -72971488 -1261573811  -524607647   615968596  2001026032
#
#      Author: C. J. Pickard (cjp20@cam.ac.uk)
#                Space group: P-1
#

%BLOCK LATTICE_ABC
      3.89800      5.68241      7.92137
     83.77632     75.75944     70.24862
%ENDBLOCK LATTICE_ABC

%BLOCK POSITIONS_FRAC
  Li  -0.1409237  -0.2154669   0.4966779 SPIN=   0.00000
  Li   0.1409237   0.2154669  -0.4966779 SPIN=   0.00000
   O   0.3228191   0.1916075   0.0862167 SPIN=   0.00000
   O  -0.2327569   0.1438951   0.3314483 SPIN=   0.00000
   O   0.0757666  -0.1850977   0.1127206 SPIN=   0.00000
   O   0.4147393  -0.1445361   0.3330231 SPIN=   0.00000
   P   0.1577840   0.0098683   0.2103325 SPIN=   0.00000
   O  -0.3228191  -0.1916075  -0.0862167 SPIN=   0.00000
   O   0.2327569  -0.1438951  -0.3314483 SPIN=   0.00000
   O  -0.0757666   0.1850977  -0.1127206 SPIN=   0.00000
   O  -0.4147393   0.1445361  -0.3330231 SPIN=   0.00000
   P  -0.1577840  -0.0098683  -0.2103325 SPIN=   0.00000
  Fe   0.6386780  -0.4952578   0.2176339 SPIN=   4.00000
  Fe  -0.6386780   0.4952578  -0.2176339 SPIN=   4.00000
%ENDBLOCK POSITIONS_FRAC

# Note: total spin =   8.00

KPOINTS_MP_SPACING 0.07

%BLOCK SPECIES_POT
QC5
%ENDBLOCK SPECIES_POT

%BLOCK HUBBARD_U
Fe d:4.0
%ENDBLOCK HUBBARD_U

SNAP_TO_SYMMETRY
SYMMETRY_GENERATE

