#              Generated by Buildcell
#
# at 07:37:49 (GMT+0.0) 24th November 2020
# in /lustre/scratch/uccabz1/launch_tmp
# on node-c12g-032
# by uccabz1
#
# compiler GCC version 4.9.2
# options -cpp -iprefix /lustre/shared/ucl/apps/gcc/4.9.2/bin/../lib/gcc/x86_64-unknown-linux-gnu/4.9.2/ -mtune=corei7 -march=x86-64 -g -Og
#
# seed -2133881827  -603992727    -3147348  -767715261  1828094154   456095251  1543998306   475467766 -1055165090  1852642920 -2027688077  -796371394
#
#      Author: C. J. Pickard (cjp20@cam.ac.uk)
#                Space group: P21
#

%BLOCK LATTICE_ABC
      5.01357      5.25129      6.40900
     90.00000     90.00000    108.51564
%ENDBLOCK LATTICE_ABC

%BLOCK POSITIONS_FRAC
  Li  -0.1170514  -0.0095415  -0.4969095 SPIN=   0.00000
  Li   0.1170514   0.0095415   0.0030905 SPIN=   0.00000
   O   0.1593131  -0.1288568  -0.3003084 SPIN=   0.00000
   O   0.1443703  -0.6055232  -0.1796630 SPIN=   0.00000
   O   0.5462408  -0.3415360  -0.3943721 SPIN=   0.00000
   O   0.5036591  -0.2032182  -0.0251297 SPIN=   0.00000
   P   0.3308108  -0.3082421  -0.2265280 SPIN=   0.00000
   O  -0.1593131   0.1288568   0.1996916 SPIN=   0.00000
   O  -0.1443703   0.6055232   0.3203370 SPIN=   0.00000
   O  -0.5462408   0.3415360   0.1056279 SPIN=   0.00000
   O  -0.5036591   0.2032182   0.4748703 SPIN=   0.00000
   P  -0.3308108   0.3082421   0.2734720 SPIN=   0.00000
  Fe  -0.2691294   0.4102341  -0.1670922 SPIN=   4.00000
  Fe   0.2691294  -0.4102341   0.3329078 SPIN=   4.00000
%ENDBLOCK POSITIONS_FRAC

# Note: total spin =   8.00

KPOINTS_MP_SPACING 0.07

%BLOCK SPECIES_POT
QC5
%ENDBLOCK SPECIES_POT

%BLOCK HUBBARD_U
Fe d:4.0
%ENDBLOCK HUBBARD_U

SNAP_TO_SYMMETRY
SYMMETRY_GENERATE

