#              Generated by Buildcell
#
# at 13:54:08 (GMT+0.0) 24th November 2020
# in /lustre/scratch/uccabz1/launch_tmp
# on node-c12l-023
# by uccabz1
#
# compiler GCC version 4.9.2
# options -cpp -iprefix /lustre/shared/ucl/apps/gcc/4.9.2/bin/../lib/gcc/x86_64-unknown-linux-gnu/4.9.2/ -mtune=corei7 -march=x86-64 -g -Og
#
# seed  1417187771 -1515759035  -407850457  1162753155  1552541251   684884298 -1755528178  1734922292   110611456  1946789086 -1396463179  -120789990
#
#      Author: C. J. Pickard (cjp20@cam.ac.uk)
#                Space group: Pcc2
#

%BLOCK LATTICE_ABC
      3.92023      5.20658      7.83891
     90.00000     90.00000     90.00000
%ENDBLOCK LATTICE_ABC

%BLOCK POSITIONS_FRAC
  Li   0.5000000   0.0000000   0.2557922 SPIN=   0.00000
  Li  -0.5000000   0.0000000  -0.2442078 SPIN=   0.00000
   O  -0.0539325   0.2357840   0.3456336 SPIN=   0.00000
   O  -0.5702616   0.2659932   0.5524416 SPIN=   0.00000
   O   0.0539325  -0.2357840   0.3456336 SPIN=   0.00000
   O   0.5702616  -0.2659932   0.5524416 SPIN=   0.00000
   O   0.0539325   0.2357840  -0.1543664 SPIN=   0.00000
   O   0.5702616   0.2659932   0.0524416 SPIN=   0.00000
   O  -0.0539325  -0.2357840  -0.1543664 SPIN=   0.00000
   O  -0.5702616  -0.2659932   0.0524416 SPIN=   0.00000
   P   0.0000000   0.0000000  -0.0091885 SPIN=   0.00000
   P   0.0000000   0.0000000   0.4908115 SPIN=   0.00000
  Fe   0.0000000  -0.5000000   0.1450232 SPIN=   4.00000
  Fe  -0.0000000  -0.5000000  -0.3549768 SPIN=   4.00000
%ENDBLOCK POSITIONS_FRAC

# Note: total spin =   8.00

KPOINTS_MP_SPACING 0.07

%BLOCK SPECIES_POT
QC5
%ENDBLOCK SPECIES_POT

%BLOCK HUBBARD_U
Fe d:4.0
%ENDBLOCK HUBBARD_U

SNAP_TO_SYMMETRY
SYMMETRY_GENERATE

