#              Generated by Buildcell
#
# at 01:54:12 (GMT+0.0) 27th November 2020
# in /lustre/scratch/uccabz1/launch_tmp
# on node-c12g-022
# by uccabz1
#
# compiler GCC version 4.9.2
# options -cpp -iprefix /lustre/shared/ucl/apps/gcc/4.9.2/bin/../lib/gcc/x86_64-unknown-linux-gnu/4.9.2/ -mtune=corei7 -march=x86-64 -g -Og
#
# seed  1880286151    36060234  1429439980    91598630  1408717366 -1175299889  1038294955    93080073  -410597279 -1529901891   501771234   407062002
#
#      Author: C. J. Pickard (cjp20@cam.ac.uk)
#                Space group: P212121
#

%BLOCK LATTICE_ABC
      4.23164      6.07844     12.44082
     90.00000     90.00000     90.00000
%ENDBLOCK LATTICE_ABC

%BLOCK POSITIONS_FRAC
  Li  -0.2548204   0.3877610  -0.0544760 SPIN=   0.00000
  Li  -0.2451796  -0.3877610   0.4455240 SPIN=   0.00000
  Li   0.2548204  -0.1122390  -0.4455240 SPIN=   0.00000
  Li   0.2451796   0.1122390   0.0544760 SPIN=   0.00000
   O   0.2892837  -0.3653543  -0.2366656 SPIN=   0.00000
   O  -0.1815173  -0.2899014  -0.1077929 SPIN=   0.00000
   O   0.2832395  -0.4879208  -0.0366123 SPIN=   0.00000
   O   0.3271414  -0.0869223  -0.0803574 SPIN=   0.00000
   P   0.1871221  -0.3080005  -0.1214031 SPIN=   0.00000
   O   0.2107163   0.3653543   0.2633344 SPIN=   0.00000
   O   0.6815173   0.2899014   0.3922071 SPIN=   0.00000
   O   0.2167605   0.4879208   0.4633877 SPIN=   0.00000
   O   0.1728586   0.0869223   0.4196426 SPIN=   0.00000
   P   0.3128779   0.3080005   0.3785969 SPIN=   0.00000
   O  -0.2892837   0.1346457  -0.2633344 SPIN=   0.00000
   O   0.1815173   0.2100986  -0.3922071 SPIN=   0.00000
   O  -0.2832395   0.0120792  -0.4633877 SPIN=   0.00000
   O  -0.3271414   0.4130777  -0.4196426 SPIN=   0.00000
   P  -0.1871221   0.1919995  -0.3785969 SPIN=   0.00000
   O  -0.2107163  -0.1346457   0.2366656 SPIN=   0.00000
   O  -0.6815173  -0.2100986   0.1077929 SPIN=   0.00000
   O  -0.2167605  -0.0120792   0.0366123 SPIN=   0.00000
   O  -0.1728586  -0.4130777   0.0803574 SPIN=   0.00000
   P  -0.3128779  -0.1919995   0.1214031 SPIN=   0.00000
  Fe   0.2468084   0.1259784  -0.2082840 SPIN=   4.00000
  Fe   0.2531916  -0.1259784   0.2917160 SPIN=   4.00000
  Fe  -0.2468084  -0.3740216  -0.2917160 SPIN=   4.00000
  Fe  -0.2531916   0.3740216   0.2082840 SPIN=   4.00000
%ENDBLOCK POSITIONS_FRAC

# Note: total spin =  16.00

KPOINTS_MP_SPACING 0.07

%BLOCK SPECIES_POT
QC5
%ENDBLOCK SPECIES_POT

%BLOCK HUBBARD_U
Fe d:4.0
%ENDBLOCK HUBBARD_U

SNAP_TO_SYMMETRY
SYMMETRY_GENERATE

