#              Generated by Buildcell
#
# at 14:00:01 (GMT+0.0) 24th November 2020
# in /lustre/scratch/uccabz1/launch_tmp
# on node-c12k-030
# by uccabz1
#
# compiler GCC version 4.9.2
# options -cpp -iprefix /lustre/shared/ucl/apps/gcc/4.9.2/bin/../lib/gcc/x86_64-unknown-linux-gnu/4.9.2/ -mtune=corei7 -march=x86-64 -g -Og
#
# seed  1219239400 -1550125691 -1231540799  -968543096   213397819  1448752993  -687860277 -1002445049  1574031725 -1120113916   499284288 -1425406617
#
#      Author: C. J. Pickard (cjp20@cam.ac.uk)
#                Space group: C2
#

%BLOCK LATTICE_ABC
      5.09649      5.09649      6.60979
     75.02857     75.02857     89.01662
%ENDBLOCK LATTICE_ABC

%BLOCK POSITIONS_FRAC
  Li   0.3797783  -0.3797783  -0.5000000 SPIN=   0.00000
  Li  -0.1199417   0.1199417   0.0000000 SPIN=   0.00000
   O  -0.2494508  -0.1718946   0.3049682 SPIN=   0.00000
   O  -0.0450264  -0.3255795  -0.0462483 SPIN=   0.00000
   O   0.0991113  -0.5483372   0.2835600 SPIN=   0.00000
   O  -0.3742673  -0.6424218   0.2664558 SPIN=   0.00000
   P  -0.1508440  -0.4113388   0.2084151 SPIN=   0.00000
   O   0.1718946   0.2494508  -0.3049682 SPIN=   0.00000
   O   0.3255795   0.0450264   0.0462483 SPIN=   0.00000
   O   0.5483372  -0.0991113  -0.2835600 SPIN=   0.00000
   O   0.6424218   0.3742673  -0.2664558 SPIN=   0.00000
   P   0.4113388   0.1508440  -0.2084151 SPIN=   0.00000
  Fe  -0.0829189   0.0829189   0.5000000 SPIN=   4.39346
  Fe   0.4171249  -0.4171249   0.0000000 SPIN=   3.60654
%ENDBLOCK POSITIONS_FRAC

# Note: total spin =   8.00

KPOINTS_MP_SPACING 0.07

%BLOCK SPECIES_POT
QC5
%ENDBLOCK SPECIES_POT

%BLOCK HUBBARD_U
Fe d:4.0
%ENDBLOCK HUBBARD_U

SNAP_TO_SYMMETRY
SYMMETRY_GENERATE

