#              Generated by Buildcell
#
# at 22:04:20 (GMT+0.0) 26th November 2020
# in /lustre/scratch/uccabz1/launch_tmp
# on node-c12j-020
# by uccabz1
#
# compiler GCC version 4.9.2
# options -cpp -iprefix /lustre/shared/ucl/apps/gcc/4.9.2/bin/../lib/gcc/x86_64-unknown-linux-gnu/4.9.2/ -mtune=corei7 -march=x86-64 -g -Og
#
# seed  1367538550 -1236697679 -1280384347  1898629909 -1931116821 -1471034861   850191806 -2071878914   981507646 -1428961811   227210893  -591922519
#
#      Author: C. J. Pickard (cjp20@cam.ac.uk)
#                Space group: Pna21
#

%BLOCK LATTICE_ABC
      4.02224      7.12330     11.16866
     90.00000     90.00000     90.00000
%ENDBLOCK LATTICE_ABC

%BLOCK POSITIONS_FRAC
  Li   0.3845712   0.0915364   0.0836877 SPIN=   0.00000
  Li  -0.1154288  -0.0915364  -0.0836877 SPIN=   0.00000
  Li   0.3845712  -0.4084636   0.4163123 SPIN=   0.00000
  Li  -0.1154288   0.4084636  -0.4163123 SPIN=   0.00000
   O   0.4076977  -0.2032556  -0.0503866 SPIN=   0.00000
   O  -0.1124804  -0.2896688   0.0760286 SPIN=   0.00000
   O   0.3876606  -0.4888521   0.0941173 SPIN=   0.00000
   O   0.3929683  -0.1637389   0.1794396 SPIN=   0.00000
   P   0.2778119  -0.2805056   0.0693690 SPIN=   0.00000
   O  -0.0923023   0.2032556   0.0503866 SPIN=   0.00000
   O  -0.6124804   0.2896688  -0.0760286 SPIN=   0.00000
   O  -0.1123394   0.4888521  -0.0941173 SPIN=   0.00000
   O  -0.1070317   0.1637389  -0.1794396 SPIN=   0.00000
   P  -0.2221881   0.2805056  -0.0693690 SPIN=   0.00000
   O   0.4076977   0.2967444   0.5503866 SPIN=   0.00000
   O  -0.1124804   0.2103312   0.4239714 SPIN=   0.00000
   O   0.3876606   0.0111479   0.4058827 SPIN=   0.00000
   O   0.3929683   0.3362611   0.3205604 SPIN=   0.00000
   P   0.2778119   0.2194944   0.4306310 SPIN=   0.00000
   O  -0.0923023  -0.2967444  -0.5503866 SPIN=   0.00000
   O  -0.6124804  -0.2103312  -0.4239714 SPIN=   0.00000
   O  -0.1123394  -0.0111479  -0.4058827 SPIN=   0.00000
   O  -0.1070317  -0.3362611  -0.3205604 SPIN=   0.00000
   P  -0.2221881  -0.2194944  -0.4306310 SPIN=   0.00000
  Fe   0.3430321   0.0516006  -0.3230868 SPIN=   4.00000
  Fe  -0.1569679  -0.0516006   0.3230868 SPIN=   4.00000
  Fe   0.3430321  -0.4483994  -0.1769132 SPIN=   4.00000
  Fe  -0.1569679   0.4483994   0.1769132 SPIN=   4.00000
%ENDBLOCK POSITIONS_FRAC

# Note: total spin =  16.00

KPOINTS_MP_SPACING 0.07

%BLOCK SPECIES_POT
QC5
%ENDBLOCK SPECIES_POT

%BLOCK HUBBARD_U
Fe d:4.0
%ENDBLOCK HUBBARD_U

SNAP_TO_SYMMETRY
SYMMETRY_GENERATE

