#              Generated by Buildcell
#
# at 11:47:36 (GMT+0.0) 24th November 2020
# in /scratch/scratch/uccabz1/launch_tmp
# on node-a14a-009
# by uccabz1
#
# compiler GCC version 4.9.2
# options -cpp -iprefix /scratch/UCL/applications/gcc/4.9.2/bin/../lib/gcc/x86_64-unknown-linux-gnu/4.9.2/ -mtune=corei7 -march=x86-64 -g -O2
#
# seed -1700363082   404797895  -608957578   566285535 -1052366662  -763248160  -215520889  1941176442  1336081273  -154773576 -1844607016 -1021550392
#
#      Author: C. J. Pickard (cjp20@cam.ac.uk)
#                Space group: P-1
#

%BLOCK LATTICE_ABC
      3.92062      4.92508      8.91903
    105.40608     90.02534    104.91520
%ENDBLOCK LATTICE_ABC

%BLOCK POSITIONS_FRAC
  Li   0.1923948  -0.1790288   0.0657897 SPIN=   0.00000
  Li  -0.1923948   0.1790288  -0.0657897 SPIN=   0.00000
   O   0.3189647   0.1463929   0.3292666 SPIN=   0.00000
   O   0.1269554   0.5357727   0.2269333 SPIN=   0.00000
   O  -0.2273923   0.0216910   0.1339976 SPIN=   0.00000
   P   0.0071697   0.2471818   0.2796996 SPIN=   0.00000
   O  -0.3189647  -0.1463929  -0.3292666 SPIN=   0.00000
   O  -0.1269554  -0.5357727  -0.2269333 SPIN=   0.00000
   O   0.2273923  -0.0216910  -0.1339976 SPIN=   0.00000
   P  -0.0071697  -0.2471818  -0.2796996 SPIN=   0.00000
   O   0.0000000   0.5000000   0.5000000 SPIN=   0.00000
   O  -0.5000000  -0.5000000   0.0000000 SPIN=   0.00000
  Fe  -0.6551295  -0.7048162  -0.3414486 SPIN=   4.00000
  Fe   0.6551295   0.7048162   0.3414486 SPIN=   4.00000
%ENDBLOCK POSITIONS_FRAC

# Note: total spin =   8.00

KPOINTS_MP_SPACING 0.07

%BLOCK SPECIES_POT
QC5
%ENDBLOCK SPECIES_POT

%BLOCK HUBBARD_U
Fe d:4.0
%ENDBLOCK HUBBARD_U

SNAP_TO_SYMMETRY
SYMMETRY_GENERATE

