#              Generated by Buildcell
#
# at 19:01:09 (GMT+0.0) 26th November 2020
# in /scratch/scratch/uccabz1/launch_tmp
# on node-k10e-036
# by uccabz1
#
# compiler GCC version 4.9.2
# options -cpp -iprefix /scratch/UCL/applications/gcc/4.9.2/bin/../lib/gcc/x86_64-unknown-linux-gnu/4.9.2/ -mtune=corei7 -march=x86-64 -g -O2
#
# seed   -46618988   999997522  1717316550  1805439401   989037761    17267303    36345386  -516043549  1820079432  1183049228  -856075508  2042480718
#
#      Author: C. J. Pickard (cjp20@cam.ac.uk)
#                Space group: C2
#

%BLOCK LATTICE_ABC
      6.90698      6.90698      7.32237
     73.38653     73.38653     88.95333
%ENDBLOCK LATTICE_ABC

%BLOCK POSITIONS_FRAC
  Li  -0.1697488   0.3459006   0.2076432 SPIN=   0.00000
  Li  -0.3459006   0.1697488  -0.2076432 SPIN=   0.00000
  Li  -0.4414730  -0.3919445  -0.2945978 SPIN=   0.00000
  Li   0.3919445   0.4414730   0.2945978 SPIN=   0.00000
   O   0.3917184   0.1355070   0.1428114 SPIN=   0.00000
   O   0.0389834   0.1358371   0.0822158 SPIN=   0.00000
   O   0.1156133   0.3738097   0.2518848 SPIN=   0.00000
   O   0.2901787   0.4320515  -0.1116583 SPIN=   0.00000
   P   0.2198023   0.2640980   0.0916602 SPIN=   0.00000
   O  -0.1355070  -0.3917184  -0.1428114 SPIN=   0.00000
   O  -0.1358371  -0.0389834  -0.0822158 SPIN=   0.00000
   O  -0.3738097  -0.1156133  -0.2518848 SPIN=   0.00000
   O  -0.4320515  -0.2901787   0.1116583 SPIN=   0.00000
   P  -0.2640980  -0.2198023  -0.0916602 SPIN=   0.00000
   O   0.1264090  -0.3480687   0.3985972 SPIN=   0.00000
   O  -0.0986962  -0.3483765   0.1687025 SPIN=   0.00000
   O  -0.2298868  -0.5377805   0.5257567 SPIN=   0.00000
   O  -0.2015506  -0.1585641   0.4221790 SPIN=   0.00000
   P  -0.0900138  -0.3459527   0.3803743 SPIN=   0.00000
   O   0.3480687  -0.1264090  -0.3985972 SPIN=   0.00000
   O   0.3483765   0.0986962  -0.1687025 SPIN=   0.00000
   O   0.5377805   0.2298868  -0.5257567 SPIN=   0.00000
   O   0.1585641   0.2015506  -0.4221790 SPIN=   0.00000
   P   0.3459527   0.0900138  -0.3803743 SPIN=   0.00000
  Fe  -0.4155284  -0.0802661   0.2644722 SPIN=   5.38009
  Fe   0.0802661   0.4155284  -0.2644722 SPIN=   5.38009
  Fe   0.2022893  -0.2022893  -0.0000000 SPIN=   4.68049
  Fe   0.0141150  -0.0141150   0.5000000 SPIN=   0.55933
%ENDBLOCK POSITIONS_FRAC

# Note: total spin =  16.00

KPOINTS_MP_SPACING 0.07

%BLOCK SPECIES_POT
QC5
%ENDBLOCK SPECIES_POT

%BLOCK HUBBARD_U
Fe d:4.0
%ENDBLOCK HUBBARD_U

SNAP_TO_SYMMETRY
SYMMETRY_GENERATE

