#              Generated by Buildcell
#
# at 20:33:40 (GMT+0.0) 26th November 2020
# in /scratch/scratch/mmm0366/launch_tmp
# on node-k98e-027
# by mmm0366
#
# compiler GCC version 4.9.2
# options -cpp -iprefix /scratch/UCL/applications/gcc/4.9.2/bin/../lib/gcc/x86_64-unknown-linux-gnu/4.9.2/ -mtune=corei7 -march=x86-64 -g -O2
#
# seed   108726402 -2023694871  1649320253 -1900280225   989796095 -1009247080  -124441814 -1037767672  2121803883   424674054 -1233622712  -291572139
#
#      Author: C. J. Pickard (cjp20@cam.ac.uk)
#                Space group: C2
#

%BLOCK LATTICE_ABC
      6.07782      6.07782      9.19329
     76.10443     76.10443     87.19247
%ENDBLOCK LATTICE_ABC

%BLOCK POSITIONS_FRAC
  Li  -0.3648993   0.0678995  -0.0435706 SPIN=   0.00000
  Li  -0.0678995   0.3648993   0.0435706 SPIN=   0.00000
  Li   0.0473506  -0.1788223  -0.1668922 SPIN=   0.00000
  Li   0.1788223  -0.0473506   0.1668922 SPIN=   0.00000
   O   0.1810899  -0.6849034   0.4642168 SPIN=   0.00000
   O   0.4169739  -0.4031907   0.2246626 SPIN=   0.00000
   O   0.0391842  -0.5226412   0.2149103 SPIN=   0.00000
   O   0.0691527  -0.2653158   0.3852249 SPIN=   0.00000
   P   0.1755713  -0.4781040   0.3305556 SPIN=   0.00000
   O   0.6849034  -0.1810899  -0.4642168 SPIN=   0.00000
   O   0.4031907  -0.4169739  -0.2246626 SPIN=   0.00000
   O   0.5226412  -0.0391842  -0.2149103 SPIN=   0.00000
   O   0.2653158  -0.0691527  -0.3852249 SPIN=   0.00000
   P   0.4781040  -0.1755713  -0.3305556 SPIN=   0.00000
   O  -0.2427831   0.3194870  -0.3590300 SPIN=   0.00000
   O  -0.2481382   0.4948961  -0.1268496 SPIN=   0.00000
   O   0.0103309   0.1764004  -0.1649072 SPIN=   0.00000
   O   0.0924132   0.5562240  -0.3489330 SPIN=   0.00000
   P  -0.1025684   0.3851703  -0.2569073 SPIN=   0.00000
   O  -0.3194870   0.2427831   0.3590300 SPIN=   0.00000
   O  -0.4948961   0.2481382   0.1268496 SPIN=   0.00000
   O  -0.1764004  -0.0103309   0.1649072 SPIN=   0.00000
   O  -0.5562240  -0.0924132   0.3489330 SPIN=   0.00000
   P  -0.3851703   0.1025684   0.2569073 SPIN=   0.00000
  Fe  -0.2790416  -0.3632918   0.3128617 SPIN=   4.41022
  Fe   0.3632918   0.2790416  -0.3128617 SPIN=   4.41022
  Fe  -0.0569280   0.0569280   0.5000000 SPIN=   2.84744
  Fe   0.4349549  -0.4349549   0.0000000 SPIN=   4.33213
%ENDBLOCK POSITIONS_FRAC

# Note: total spin =  16.00

KPOINTS_MP_SPACING 0.07

%BLOCK SPECIES_POT
QC5
%ENDBLOCK SPECIES_POT

%BLOCK HUBBARD_U
Fe d:4.0
%ENDBLOCK HUBBARD_U

SNAP_TO_SYMMETRY
SYMMETRY_GENERATE

