#              Generated by Buildcell
#
# at 06:33:57 (GMT+0.0) 24th November 2020
# in /scratch/scratch/uccabz1/launch_tmp
# on node-a14e-014
# by uccabz1
#
# compiler GCC version 4.9.2
# options -cpp -iprefix /scratch/UCL/applications/gcc/4.9.2/bin/../lib/gcc/x86_64-unknown-linux-gnu/4.9.2/ -mtune=corei7 -march=x86-64 -g -O2
#
# seed  -188058063  1396531497  -134657112 -1903011929 -1844700616  2062570954   437762475 -1903959191   369411409 -1906151578 -1193045215   641344291
#
#      Author: C. J. Pickard (cjp20@cam.ac.uk)
#                Space group: Fdd2
#

%BLOCK LATTICE_ABC
      5.51498      5.51498      6.42390
    106.64334    106.64334    109.43677
%ENDBLOCK LATTICE_ABC

%BLOCK POSITIONS_FRAC
  Li   0.1374467  -0.1374467   0.0000000 SPIN=   0.00000
  Li   0.3874467   0.6125533   0.5000000 SPIN=   0.00000
   O  -0.1608368   0.9806345   0.7135496 SPIN=   0.00000
   O  -0.5141439   0.8079638   0.2739837 SPIN=   0.00000
   O   0.0193655  -0.8391632  -0.7135496 SPIN=   0.00000
   O   0.1920362  -0.4858561  -0.2739837 SPIN=   0.00000
   O   0.3756135   0.0170848  -0.2135496 SPIN=   0.00000
   O   0.4618724   0.2839801   0.2260163 SPIN=   0.00000
   O  -0.0170848  -0.3756135   0.2135496 SPIN=   0.00000
   O  -0.2839801  -0.4618724  -0.2260163 SPIN=   0.00000
   P  -0.1637437   0.1637437   0.0000000 SPIN=   0.00000
   P   0.0862563   0.9137437   0.5000000 SPIN=   0.00000
  Fe  -0.2401582  -0.7598418  -0.5000000 SPIN=   4.00000
  Fe  -0.4901582   0.4901582   0.0000000 SPIN=   4.00000
%ENDBLOCK POSITIONS_FRAC

# Note: total spin =   8.00

KPOINTS_MP_SPACING 0.07

%BLOCK SPECIES_POT
QC5
%ENDBLOCK SPECIES_POT

%BLOCK HUBBARD_U
Fe d:4.0
%ENDBLOCK HUBBARD_U

SNAP_TO_SYMMETRY
SYMMETRY_GENERATE

