#              Generated by Buildcell
#
# at 12:15:39 (GMT+0.0) 26th November 2020
# in /lustre/scratch/uccabz1/launch_tmp
# on node-c12o-032
# by uccabz1
#
# compiler GCC version 4.9.2
# options -cpp -iprefix /lustre/shared/ucl/apps/gcc/4.9.2/bin/../lib/gcc/x86_64-unknown-linux-gnu/4.9.2/ -mtune=corei7 -march=x86-64 -g -Og
#
# seed    29533193 -1507188442  1497741741 -1215222447 -1830282857   763760311   631154005   996888917 -1960817216   390094123  1902073475  1118431701
#
#      Author: C. J. Pickard (cjp20@cam.ac.uk)
#                Space group: Pc
#

%BLOCK LATTICE_ABC
      4.76151      7.12596      9.43320
     91.21753     90.00000     90.00000
%ENDBLOCK LATTICE_ABC

%BLOCK POSITIONS_FRAC
  Li   0.4584229  -0.2430828  -0.0329085 SPIN=   0.00000
  Li  -0.4584229  -0.2430828   0.4670915 SPIN=   0.00000
  Li  -0.1052037  -0.2621676   0.1996879 SPIN=   0.00000
  Li   0.1052037  -0.2621676  -0.3003121 SPIN=   0.00000
   O  -0.1317527  -0.3061378  -0.1149686 SPIN=   0.00000
   O  -0.1228006  -0.6704740  -0.1317762 SPIN=   0.00000
   O   0.3294720  -0.5007679  -0.1250324 SPIN=   0.00000
   O   0.0311270  -0.5088217   0.0933938 SPIN=   0.00000
   P   0.0181391  -0.4865567  -0.0700883 SPIN=   0.00000
   O   0.1317527  -0.3061378   0.3850314 SPIN=   0.00000
   O   0.1228006  -0.6704740   0.3682238 SPIN=   0.00000
   O  -0.3294720  -0.5007679   0.3749676 SPIN=   0.00000
   O  -0.0311270  -0.5088217   0.5933938 SPIN=   0.00000
   P  -0.0181391  -0.4865567   0.4299117 SPIN=   0.00000
   O   0.3585024   0.2205738  -0.3859947 SPIN=   0.00000
   O   0.4991556  -0.1047839  -0.2890700 SPIN=   0.00000
   O   0.4278243   0.1580362  -0.1179267 SPIN=   0.00000
   O   0.0132739   0.0172540  -0.2442495 SPIN=   0.00000
   P   0.3228144   0.0799847  -0.2658778 SPIN=   0.00000
   O  -0.3585024   0.2205738   0.1140053 SPIN=   0.00000
   O  -0.4991556  -0.1047839   0.2109300 SPIN=   0.00000
   O  -0.4278243   0.1580362   0.3820733 SPIN=   0.00000
   O  -0.0132739   0.0172540   0.2557505 SPIN=   0.00000
   P  -0.3228144   0.0799847   0.2341222 SPIN=   0.00000
  Fe  -0.0409296   0.0783852  -0.0284911 SPIN=   4.83325
  Fe   0.0409296   0.0783852   0.4715089 SPIN=   4.83325
  Fe   0.3915474   0.4269712   0.2105893 SPIN=   3.16675
  Fe  -0.3915474   0.4269712  -0.2894107 SPIN=   3.16675
%ENDBLOCK POSITIONS_FRAC

# Note: total spin =  16.00

KPOINTS_MP_SPACING 0.07

%BLOCK SPECIES_POT
QC5
%ENDBLOCK SPECIES_POT

%BLOCK HUBBARD_U
Fe d:4.0
%ENDBLOCK HUBBARD_U

SNAP_TO_SYMMETRY
SYMMETRY_GENERATE

