#              Generated by Buildcell
#
# at 18:11:24 (GMT+0.0) 26th November 2020
# in /lustre/scratch/uccabz1/launch_tmp
# on node-c12j-030
# by uccabz1
#
# compiler GCC version 4.9.2
# options -cpp -iprefix /lustre/shared/ucl/apps/gcc/4.9.2/bin/../lib/gcc/x86_64-unknown-linux-gnu/4.9.2/ -mtune=corei7 -march=x86-64 -g -Og
#
# seed  -955602032  -688464244 -1282324420  -462456786  -854167090  -665828709   823338755  -704181120  1338878450   746468020 -1132804719  1724491489
#
#      Author: C. J. Pickard (cjp20@cam.ac.uk)
#                Space group: P21
#

%BLOCK LATTICE_ABC
      5.17700      7.86829      7.97681
     99.99174     90.00000     90.00000
%ENDBLOCK LATTICE_ABC

%BLOCK POSITIONS_FRAC
  Li   0.2830083  -0.1711977   0.0136136 SPIN=   0.00000
  Li  -0.2169917   0.1711977  -0.0136136 SPIN=   0.00000
  Li  -0.3433183   0.4441871  -0.4320551 SPIN=   0.00000
  Li   0.1566817  -0.4441871   0.4320551 SPIN=   0.00000
   O  -0.0883767  -0.0451910   0.1849780 SPIN=   0.00000
   O   0.0619195  -0.3561841   0.2045363 SPIN=   0.00000
   O   0.2843438  -0.1112070   0.3821384 SPIN=   0.00000
   O  -0.1703904  -0.1823211   0.4518016 SPIN=   0.00000
   P   0.0137348  -0.1669834   0.3011493 SPIN=   0.00000
   O  -0.5883767   0.0451910  -0.1849780 SPIN=   0.00000
   O  -0.4380805   0.3561841  -0.2045363 SPIN=   0.00000
   O  -0.2156562   0.1112070  -0.3821384 SPIN=   0.00000
   O  -0.6703904   0.1823211  -0.4518016 SPIN=   0.00000
   P  -0.4862652   0.1669834  -0.3011493 SPIN=   0.00000
   O  -0.5181674  -0.2531652  -0.3326882 SPIN=   0.00000
   O  -0.0704531  -0.3832626  -0.2795912 SPIN=   0.00000
   O  -0.1686837  -0.0864598  -0.1356026 SPIN=   0.00000
   O  -0.3953883  -0.3359640  -0.0434951 SPIN=   0.00000
   P  -0.3016844  -0.2649389  -0.2032026 SPIN=   0.00000
   O  -0.0181674   0.2531652   0.3326882 SPIN=   0.00000
   O   0.4295469   0.3832626   0.2795912 SPIN=   0.00000
   O   0.3313163   0.0864598   0.1356026 SPIN=   0.00000
   O   0.1046117   0.3359640   0.0434951 SPIN=   0.00000
   P   0.1983156   0.2649389   0.2032026 SPIN=   0.00000
  Fe   0.0770536  -0.0603155  -0.3391712 SPIN=   5.11442
  Fe  -0.4229464   0.0603155   0.3391712 SPIN=   5.11442
  Fe   0.1556499   0.4355365  -0.1818747 SPIN=   2.88558
  Fe  -0.3443501  -0.4355365   0.1818747 SPIN=   2.88558
%ENDBLOCK POSITIONS_FRAC

# Note: total spin =  16.00

KPOINTS_MP_SPACING 0.07

%BLOCK SPECIES_POT
QC5
%ENDBLOCK SPECIES_POT

%BLOCK HUBBARD_U
Fe d:4.0
%ENDBLOCK HUBBARD_U

SNAP_TO_SYMMETRY
SYMMETRY_GENERATE

