#              Generated by Buildcell
#
# at 17:36:15 (GMT+0.0) 1st December 2020
# in /scratch/scratch/uccabz1/launch_tmp
# on node-a14c-022
# by uccabz1
#
# compiler GCC version 4.9.2
# options -cpp -iprefix /scratch/UCL/applications/gcc/4.9.2/bin/../lib/gcc/x86_64-unknown-linux-gnu/4.9.2/ -mtune=corei7 -march=x86-64 -g -O2
#
# seed   998762449  1617362753  -571461341 -1046638460 -1161306543 -1020413465    12516292   238426965 -2087182880 -1468614760  1677229379   443410700
#
#      Author: C. J. Pickard (cjp20@cam.ac.uk)
#                Space group: Cm
#

%BLOCK LATTICE_ABC
      6.72911      6.72911      7.51780
     96.58875     96.58875    106.68616
%ENDBLOCK LATTICE_ABC

%BLOCK POSITIONS_FRAC
  Li  -0.2248545  -0.2248545   0.4741368 SPIN=   0.00000
  Li  -0.4570355  -0.4570355   0.1084774 SPIN=   0.00000
  Li   0.1649076   0.1649076   0.2478322 SPIN=   0.00000
  Li  -0.1053411  -0.1053411  -0.1177415 SPIN=   0.00000
   O  -0.0822141   0.1724132   0.0538797 SPIN=   0.00000
   O  -0.4018369   0.2249678   0.1949573 SPIN=   0.00000
   O  -0.4040377  -0.1368509   0.0881420 SPIN=   0.00000
   O  -0.1566741   0.0698823   0.3658859 SPIN=   0.00000
   P  -0.2504277   0.0872350   0.1714732 SPIN=   0.00000
   O   0.1724132  -0.0822141   0.0538797 SPIN=   0.00000
   O   0.2249678  -0.4018369   0.1949573 SPIN=   0.00000
   O  -0.1368509  -0.4040377   0.0881420 SPIN=   0.00000
   O   0.0698823  -0.1566741   0.3658859 SPIN=   0.00000
   P   0.0872350  -0.2504277   0.1714732 SPIN=   0.00000
   O   0.2319769   0.4681625  -0.2963983 SPIN=   0.00000
   O  -0.0841162   0.5993075  -0.2323882 SPIN=   0.00000
   O  -0.0720840   0.4572083  -0.5474816 SPIN=   0.00000
   O  -0.1425165   0.2138008  -0.3180732 SPIN=   0.00000
   O   0.4681625   0.2319769  -0.2963983 SPIN=   0.00000
   O   0.5993075  -0.0841162  -0.2323882 SPIN=   0.00000
   O   0.4572083  -0.0720840  -0.5474816 SPIN=   0.00000
   O   0.2138008  -0.1425165  -0.3180732 SPIN=   0.00000
   P  -0.4374682  -0.4374682  -0.2436783 SPIN=   0.00000
   P   0.0994786   0.0994786  -0.3637040 SPIN=   0.00000
  Fe  -0.3691601   0.2666733   0.4838957 SPIN=   1.03554
  Fe   0.2666733  -0.3691601   0.4838957 SPIN=   1.03554
  Fe   0.4086759   0.0519482  -0.0906835 SPIN=   6.96446
  Fe   0.0519482   0.4086759  -0.0906835 SPIN=   6.96446
%ENDBLOCK POSITIONS_FRAC

# Note: total spin =  16.00

KPOINTS_MP_SPACING 0.07

%BLOCK SPECIES_POT
QC5
%ENDBLOCK SPECIES_POT

%BLOCK HUBBARD_U
Fe d:4.0
%ENDBLOCK HUBBARD_U

SNAP_TO_SYMMETRY
SYMMETRY_GENERATE

