#              Generated by Buildcell
#
# at 06:35:12 (GMT+0.0) 24th November 2020
# in /lustre/scratch/uccabz1/launch_tmp
# on node-c12n-028
# by uccabz1
#
# compiler GCC version 4.9.2
# options -cpp -iprefix /lustre/shared/ucl/apps/gcc/4.9.2/bin/../lib/gcc/x86_64-unknown-linux-gnu/4.9.2/ -mtune=corei7 -march=x86-64 -g -Og
#
# seed -1297806272  1867346234   716839280    55987267   387908098 -1608926444  1485731507  -613790658  -565509372  -788875888  1257253933  -872968735
#
#      Author: C. J. Pickard (cjp20@cam.ac.uk)
#                Space group: Cm
#

%BLOCK LATTICE_ABC
      4.04099      6.82741      6.82741
    109.06601    104.74095    104.74095
%ENDBLOCK LATTICE_ABC

%BLOCK POSITIONS_FRAC
  Li   0.4281142   0.3493876  -0.0498196 SPIN=   0.00000
  Li   0.4281142  -0.0498196   0.3493876 SPIN=   0.00000
   O  -0.2685452  -0.5773716  -0.2670218 SPIN=   0.00000
   O   0.0773806  -0.4340773   0.1590927 SPIN=   0.00000
   O   0.4339926  -0.3470535  -0.0667513 SPIN=   0.00000
   P   0.0399955  -0.3874802  -0.0548912 SPIN=   0.00000
   O  -1.2685452  -0.2670218  -0.5773716 SPIN=   0.00000
   O  -0.9226194   0.1590927  -0.4340773 SPIN=   0.00000
   O  -0.5660074  -0.0667513  -0.3470535 SPIN=   0.00000
   P  -0.9600045  -0.0548912  -0.3874802 SPIN=   0.00000
   O   0.3314108   0.0399405   0.0399405 SPIN=   0.00000
   O   0.3088888   0.3464550   0.3464550 SPIN=   0.00000
  Fe   0.8870457   0.4776961   0.4776961 SPIN=   5.35332
  Fe  -0.2375252  -0.0402305  -0.0402305 SPIN=   2.64668
%ENDBLOCK POSITIONS_FRAC

# Note: total spin =   8.00

KPOINTS_MP_SPACING 0.07

%BLOCK SPECIES_POT
QC5
%ENDBLOCK SPECIES_POT

%BLOCK HUBBARD_U
Fe d:4.0
%ENDBLOCK HUBBARD_U

SNAP_TO_SYMMETRY
SYMMETRY_GENERATE

