#              Generated by Buildcell
#
# at 12:36:59 (GMT+0.0) 26th November 2020
# in /lustre/scratch/uccabz1/launch_tmp
# on node-c12i-025
# by uccabz1
#
# compiler GCC version 4.9.2
# options -cpp -iprefix /lustre/shared/ucl/apps/gcc/4.9.2/bin/../lib/gcc/x86_64-unknown-linux-gnu/4.9.2/ -mtune=corei7 -march=x86-64 -g -Og
#
# seed  1782361690  1035700977 -1931546572   165789262  -859203577  1467848845 -1130562159  -984545115  -670123105 -1641312266  -472739341 -1596464868
#
#      Author: C. J. Pickard (cjp20@cam.ac.uk)
#                Space group: P21/c
#

%BLOCK LATTICE_ABC
      4.92898      6.56695      9.95941
     90.00000     96.95131     90.00000
%ENDBLOCK LATTICE_ABC

%BLOCK POSITIONS_FRAC
  Li   0.2242077   0.2522256   0.1023570 SPIN=   0.00000
  Li  -0.2242077  -0.2477744   0.3976430 SPIN=   0.00000
  Li  -0.2242077  -0.2522256  -0.1023570 SPIN=   0.00000
  Li   0.2242077   0.2477744  -0.3976430 SPIN=   0.00000
   O  -0.1745191   0.4783346   0.2581919 SPIN=   0.00000
   O   0.2022983   0.6568447   0.4219274 SPIN=   0.00000
   O   0.2307625   0.2843512   0.3922350 SPIN=   0.00000
   P   0.1301246   0.4839322   0.3142218 SPIN=   0.00000
   O   0.1745191  -0.0216654   0.2418081 SPIN=   0.00000
   O  -0.2022983   0.1568447   0.0780726 SPIN=   0.00000
   O  -0.2307625  -0.2156488   0.1077650 SPIN=   0.00000
   P  -0.1301246  -0.0160678   0.1857782 SPIN=   0.00000
   O   0.1745191  -0.4783346  -0.2581919 SPIN=   0.00000
   O  -0.2022983  -0.6568447  -0.4219274 SPIN=   0.00000
   O  -0.2307625  -0.2843512  -0.3922350 SPIN=   0.00000
   P  -0.1301246  -0.4839322  -0.3142218 SPIN=   0.00000
   O  -0.1745191   0.0216654  -0.2418081 SPIN=   0.00000
   O   0.2022983  -0.1568447  -0.0780726 SPIN=   0.00000
   O   0.2307625   0.2156488  -0.1077650 SPIN=   0.00000
   P   0.1301246   0.0160678  -0.1857782 SPIN=   0.00000
   O  -0.5000000   0.5000000   0.0000000 SPIN=   0.00000
   O  -0.5000000  -0.0000000   0.5000000 SPIN=   0.00000
   O   0.0000000   0.5000000  -0.0000000 SPIN=   0.00000
   O   0.0000000  -0.0000000  -0.5000000 SPIN=   0.00000
  Fe   0.3315663  -0.2493627  -0.3793312 SPIN=   4.00000
  Fe  -0.3315663   0.2506373  -0.1206688 SPIN=   4.00000
  Fe  -0.3315663   0.2493627   0.3793312 SPIN=   4.00000
  Fe   0.3315663  -0.2506373   0.1206688 SPIN=   4.00000
%ENDBLOCK POSITIONS_FRAC

# Note: total spin =  16.00

KPOINTS_MP_SPACING 0.07

%BLOCK SPECIES_POT
QC5
%ENDBLOCK SPECIES_POT

%BLOCK HUBBARD_U
Fe d:4.0
%ENDBLOCK HUBBARD_U

SNAP_TO_SYMMETRY
SYMMETRY_GENERATE

