#              Generated by Buildcell
#
# at 15:18:21 (GMT+0.0) 26th November 2020
# in /lustre/scratch/uccabz1/launch_tmp
# on node-c12i-029
# by uccabz1
#
# compiler GCC version 4.9.2
# options -cpp -iprefix /lustre/shared/ucl/apps/gcc/4.9.2/bin/../lib/gcc/x86_64-unknown-linux-gnu/4.9.2/ -mtune=corei7 -march=x86-64 -g -Og
#
# seed  -844358409  -596995582   246586445 -1075005345    -9201127 -1422650473 -2121401345   474386844 -1073911379  1683054634  -365243844  1521435759
#
#      Author: C. J. Pickard (cjp20@cam.ac.uk)
#                Space group: Fdd2
#

%BLOCK LATTICE_ABC
      5.70422      7.88920      8.14253
     82.72504     69.49596     68.80637
%ENDBLOCK LATTICE_ABC

%BLOCK POSITIONS_FRAC
  Li  -0.4537330  -0.0049341   0.3084623 SPIN=   0.00000
  Li   0.4586672  -0.0049341  -0.3084623 SPIN=   0.00000
  Li  -0.3952707   0.4950659   0.1915377 SPIN=   0.00000
  Li  -0.0997952   0.4950659  -0.1915377 SPIN=   0.00000
   O  -0.0646942   0.2743427   0.2150205 SPIN=   0.00000
   O  -0.3272782   0.1100007   0.4687157 SPIN=   0.00000
   O  -0.4964269   0.4457064   0.4620626 SPIN=   0.00000
   O  -0.5264180   0.2710976   0.2382718 SPIN=   0.00000
   O  -0.2096485   0.2743427  -0.2150205 SPIN=   0.00000
   O   0.2172775   0.1100007  -0.4687157 SPIN=   0.00000
   O   0.0507204   0.4457064  -0.4620626 SPIN=   0.00000
   O   0.2553204   0.2710976  -0.2382718 SPIN=   0.00000
   O  -0.0996737  -0.2256573   0.2849795 SPIN=   0.00000
   O  -0.1085625  -0.3899993   0.0312843 SPIN=   0.00000
   O  -0.2843642  -0.0542936   0.0379374 SPIN=   0.00000
   O  -0.5381462  -0.2289024   0.2617282 SPIN=   0.00000
   O   0.3253310  -0.2256573  -0.2849795 SPIN=   0.00000
   O   0.4985618  -0.3899993  -0.0312843 SPIN=   0.00000
   O   0.3386578  -0.0542936  -0.0379374 SPIN=   0.00000
   O   0.7670486  -0.2289024  -0.2617282 SPIN=   0.00000
   P  -0.4060600  -0.1878800  -0.0000000 SPIN=   0.00000
   P   0.3439400   0.3121200  -0.5000000 SPIN=   0.00000
   P  -0.0913138   0.1826276  -0.0000000 SPIN=   0.00000
   P  -0.3413138  -0.3173724  -0.5000000 SPIN=   0.00000
  Fe   0.1194834  -0.2389669  -0.5000000 SPIN=   4.37935
  Fe   0.3694834   0.2610331  -0.0000000 SPIN=   4.37935
  Fe   0.1083951  -0.2167901  -0.0000000 SPIN=   3.62065
  Fe  -0.1416049   0.2832099   0.5000000 SPIN=   3.62065
%ENDBLOCK POSITIONS_FRAC

# Note: total spin =  16.00

KPOINTS_MP_SPACING 0.07

%BLOCK SPECIES_POT
QC5
%ENDBLOCK SPECIES_POT

%BLOCK HUBBARD_U
Fe d:4.0
%ENDBLOCK HUBBARD_U

SNAP_TO_SYMMETRY
SYMMETRY_GENERATE

