#              Generated by Buildcell
#
# at 16:12:03 (GMT+0.0) 1st December 2020
# in /lustre/scratch/uccabz1/launch_tmp
# on node-c12m-030
# by uccabz1
#
# compiler GCC version 4.9.2
# options -cpp -iprefix /lustre/shared/ucl/apps/gcc/4.9.2/bin/../lib/gcc/x86_64-unknown-linux-gnu/4.9.2/ -mtune=corei7 -march=x86-64 -g -Og
#
# seed   838540595 -1625720144  1460550441   848370370  -518012277 -1989661020  1919703740  -524772307  1093301977   539238263   492643440 -1471119412
#
#      Author: C. J. Pickard (cjp20@cam.ac.uk)
#                Space group: P-1
#

%BLOCK LATTICE_ABC
      4.49064      6.05638     12.48460
    101.16410     93.76059    104.60855
%ENDBLOCK LATTICE_ABC

%BLOCK POSITIONS_FRAC
  Li   0.6720251  -0.0818613   0.3374555 SPIN=   0.00000
  Li  -0.6720251   0.0818613  -0.3374555 SPIN=   0.00000
  Li   0.2628623   0.3045697   0.4204351 SPIN=   0.00000
  Li  -0.2628623  -0.3045697  -0.4204351 SPIN=   0.00000
   O  -0.3455801  -0.8027180  -0.5348251 SPIN=   0.00000
   O  -0.3102220  -0.5747082  -0.3333686 SPIN=   0.00000
   O  -0.1450516  -0.9390040  -0.3657160 SPIN=   0.00000
   O   0.1788835  -0.5828575  -0.4176617 SPIN=   0.00000
   P  -0.1616678  -0.7272941  -0.4194414 SPIN=   0.00000
   O   0.3455801   0.8027180   0.5348251 SPIN=   0.00000
   O   0.3102220   0.5747082   0.3333686 SPIN=   0.00000
   O   0.1450516   0.9390040   0.3657160 SPIN=   0.00000
   O  -0.1788835   0.5828575   0.4176617 SPIN=   0.00000
   P   0.1616678   0.7272941   0.4194414 SPIN=   0.00000
   O   0.4562234   0.5038976   0.1443726 SPIN=   0.00000
   O  -0.1320127   0.3177429   0.0813113 SPIN=   0.00000
   O   0.2415583   0.1514367  -0.0211789 SPIN=   0.00000
   O   0.1730170   0.0930694   0.1697922 SPIN=   0.00000
   P   0.1990161   0.2771278   0.0971785 SPIN=   0.00000
   O  -0.4562234  -0.5038976  -0.1443726 SPIN=   0.00000
   O   0.1320127  -0.3177429  -0.0813113 SPIN=   0.00000
   O  -0.2415583  -0.1514367   0.0211789 SPIN=   0.00000
   O  -0.1730170  -0.0930694  -0.1697922 SPIN=   0.00000
   P  -0.1990161  -0.2771278  -0.0971785 SPIN=   0.00000
  Fe   0.2376898  -0.3960848  -0.2423369 SPIN=   3.75892
  Fe  -0.2376898   0.3960848   0.2423369 SPIN=   3.75892
  Fe  -0.3287692   0.2322537  -0.0825140 SPIN=   4.24108
  Fe   0.3287692  -0.2322537   0.0825140 SPIN=   4.24108
%ENDBLOCK POSITIONS_FRAC

# Note: total spin =  16.00

KPOINTS_MP_SPACING 0.07

%BLOCK SPECIES_POT
QC5
%ENDBLOCK SPECIES_POT

%BLOCK HUBBARD_U
Fe d:4.0
%ENDBLOCK HUBBARD_U

SNAP_TO_SYMMETRY
SYMMETRY_GENERATE

