#              Generated by Buildcell
#
# at 11:14:18 (GMT+0.0) 24th November 2020
# in /scratch/scratch/uccabz1/launch_tmp
# on node-a14e-014
# by uccabz1
#
# compiler GCC version 4.9.2
# options -cpp -iprefix /scratch/UCL/applications/gcc/4.9.2/bin/../lib/gcc/x86_64-unknown-linux-gnu/4.9.2/ -mtune=corei7 -march=x86-64 -g -O2
#
# seed  1510643823  1672567322  -619674323 -1041504608  1048269853  1121088738  -485516687    56768638  -781836459    52599877  1952346016  1515299338
#
#      Author: C. J. Pickard (cjp20@cam.ac.uk)
#                Space group: Cc
#

%BLOCK LATTICE_ABC
      5.38964      5.38964      6.47636
     69.56096     69.56096     70.11012
%ENDBLOCK LATTICE_ABC

%BLOCK POSITIONS_FRAC
  Li  -0.2926909   0.2421873  -0.1655291 SPIN=   0.00000
  Li  -0.7578127  -0.2926909   0.3344709 SPIN=   0.00000
   O   0.0467190   0.3372862   0.5360466 SPIN=   0.00000
   O  -0.1193387   0.3064828   0.2163766 SPIN=   0.00000
   O  -0.4610348   0.5103112   0.5214821 SPIN=   0.00000
   O  -0.1212212   0.7650407   0.2317187 SPIN=   0.00000
   P  -0.1520126   0.4755595   0.3831986 SPIN=   0.00000
   O   0.3372862   0.0467190   0.0360466 SPIN=   0.00000
   O   0.3064828  -0.1193387  -0.2836234 SPIN=   0.00000
   O   0.5103112  -0.4610348   0.0214821 SPIN=   0.00000
   O   0.7650407  -0.1212212  -0.2682813 SPIN=   0.00000
   P   0.4755595  -0.1520126  -0.1168014 SPIN=   0.00000
  Fe  -0.4033983   0.0617243   0.3963365 SPIN=   4.00000
  Fe   0.0617243  -0.4033983  -0.1036635 SPIN=   4.00000
%ENDBLOCK POSITIONS_FRAC

# Note: total spin =   8.00

KPOINTS_MP_SPACING 0.07

%BLOCK SPECIES_POT
QC5
%ENDBLOCK SPECIES_POT

%BLOCK HUBBARD_U
Fe d:4.0
%ENDBLOCK HUBBARD_U

SNAP_TO_SYMMETRY
SYMMETRY_GENERATE

