#              Generated by Buildcell
#
# at 08:24:43 (GMT+0.0) 24th November 2020
# in /lustre/scratch/uccabz1/launch_tmp
# on node-c12c-021
# by uccabz1
#
# compiler GCC version 4.9.2
# options -cpp -iprefix /lustre/shared/ucl/apps/gcc/4.9.2/bin/../lib/gcc/x86_64-unknown-linux-gnu/4.9.2/ -mtune=corei7 -march=x86-64 -g -Og
#
# seed -1997581045 -1861863387  -983760508 -1548727149  -511644601 -1208110836  1691628948   325406377  -478788585  -512868291  1812470054  1781646920
#
#      Author: C. J. Pickard (cjp20@cam.ac.uk)
#                Space group: C2
#

%BLOCK LATTICE_ABC
      4.50223      4.50223      8.53081
     76.43272     76.43272     75.70444
%ENDBLOCK LATTICE_ABC

%BLOCK POSITIONS_FRAC
  Li  -0.3037864  -0.3304211   0.0559155 SPIN=   0.00000
  Li   0.3304211   0.3037864  -0.0559155 SPIN=   0.00000
   O  -0.3817822   0.1102565   0.4379854 SPIN=   0.00000
   O   0.1076061  -0.0485165   0.2198961 SPIN=   0.00000
   O  -0.2926175  -0.3731562   0.3030600 SPIN=   0.00000
   O  -0.4107278   0.1620626   0.1336486 SPIN=   0.00000
   P  -0.2536594  -0.0271265   0.2807455 SPIN=   0.00000
   O  -0.1102565   0.3817822  -0.4379854 SPIN=   0.00000
   O   0.0485165  -0.1076061  -0.2198961 SPIN=   0.00000
   O   0.3731562   0.2926175  -0.3030600 SPIN=   0.00000
   O  -0.1620626   0.4107278  -0.1336486 SPIN=   0.00000
   P   0.0271265   0.2536594  -0.2807455 SPIN=   0.00000
  Fe   0.1529387   0.3715235   0.3294373 SPIN=   4.00000
  Fe  -0.3715235  -0.1529387  -0.3294373 SPIN=   4.00000
%ENDBLOCK POSITIONS_FRAC

# Note: total spin =   8.00

KPOINTS_MP_SPACING 0.07

%BLOCK SPECIES_POT
QC5
%ENDBLOCK SPECIES_POT

%BLOCK HUBBARD_U
Fe d:4.0
%ENDBLOCK HUBBARD_U

SNAP_TO_SYMMETRY
SYMMETRY_GENERATE

