#              Generated by Buildcell
#
# at 08:28:20 (GMT+0.0) 24th November 2020
# in /lustre/scratch/uccabz1/launch_tmp
# on node-c12c-030
# by uccabz1
#
# compiler GCC version 4.9.2
# options -cpp -iprefix /lustre/shared/ucl/apps/gcc/4.9.2/bin/../lib/gcc/x86_64-unknown-linux-gnu/4.9.2/ -mtune=corei7 -march=x86-64 -g -Og
#
# seed -1644265238    21971388  1424553198   192195697  1684322598  1035948907  -362962049   212867615 -1462688534  -445521163   901870773  1694770927
#
#      Author: C. J. Pickard (cjp20@cam.ac.uk)
#                Space group: C2
#

%BLOCK LATTICE_ABC
      5.48217      5.50124      5.50124
     89.31815     79.16441     79.16441
%ENDBLOCK LATTICE_ABC

%BLOCK POSITIONS_FRAC
  Li   0.1603265   0.4218621   0.2014028 SPIN=   0.00000
  Li  -0.1603265  -0.2014028  -0.4218621 SPIN=   0.00000
   O   0.2321987   0.1420800  -0.2330832 SPIN=   0.00000
   O   0.5093327  -0.2928418  -0.2094324 SPIN=   0.00000
   O   0.0450024  -0.2493990  -0.0979442 SPIN=   0.00000
   O   0.2492047  -0.2143597  -0.5408649 SPIN=   0.00000
   P   0.2573963  -0.1386017  -0.2715405 SPIN=   0.00000
   O  -0.2321987   0.2330832  -0.1420800 SPIN=   0.00000
   O  -0.5093327   0.2094324   0.2928418 SPIN=   0.00000
   O  -0.0450024   0.0979442   0.2493990 SPIN=   0.00000
   O  -0.2492047   0.5408649   0.2143597 SPIN=   0.00000
   P  -0.2573963   0.2715405   0.1386017 SPIN=   0.00000
  Fe   0.5000000   0.3598455  -0.3598455 SPIN=   3.81600
  Fe  -0.5000000  -0.1417168   0.1417168 SPIN=   4.18400
%ENDBLOCK POSITIONS_FRAC

# Note: total spin =   8.00

KPOINTS_MP_SPACING 0.07

%BLOCK SPECIES_POT
QC5
%ENDBLOCK SPECIES_POT

%BLOCK HUBBARD_U
Fe d:4.0
%ENDBLOCK HUBBARD_U

SNAP_TO_SYMMETRY
SYMMETRY_GENERATE

