#              Generated by Buildcell
#
# at 07:53:15 (GMT+0.0) 24th November 2020
# in /lustre/scratch/uccabz1/launch_tmp
# on node-c12d-031
# by uccabz1
#
# compiler GCC version 4.9.2
# options -cpp -iprefix /lustre/shared/ucl/apps/gcc/4.9.2/bin/../lib/gcc/x86_64-unknown-linux-gnu/4.9.2/ -mtune=corei7 -march=x86-64 -g -Og
#
# seed -1419186023  -286215131   425435472   566521487  1344742032  -427882543 -1684549007  -181136145  1051147048  -525979099 -1954266419 -1239240608
#
#      Author: C. J. Pickard (cjp20@cam.ac.uk)
#                Space group: Pma2
#

%BLOCK LATTICE_ABC
      3.84716      4.19892      9.90471
     90.00000     90.00000     90.00000
%ENDBLOCK LATTICE_ABC

%BLOCK POSITIONS_FRAC
  Li   0.0000000  -0.4134888   0.0000000 SPIN=   0.00000
  Li   0.0000000  -0.4134888  -0.5000000 SPIN=   0.00000
   O   0.0647453   0.1867786  -0.3745128 SPIN=   0.00000
   O   0.4317661   0.7060914  -0.3783315 SPIN=   0.00000
   O  -0.0647453   0.1867786   0.3745128 SPIN=   0.00000
   O  -0.4317661   0.7060914   0.3783315 SPIN=   0.00000
   O  -0.0647453   0.1867786   0.1254872 SPIN=   0.00000
   O  -0.4317661   0.7060914   0.1216685 SPIN=   0.00000
   O   0.0647453   0.1867786  -0.1254872 SPIN=   0.00000
   O   0.4317661   0.7060914  -0.1216685 SPIN=   0.00000
   P   0.0145260  -0.1806046  -0.2500000 SPIN=   0.00000
   P  -0.0145260  -0.1806046   0.2500000 SPIN=   0.00000
  Fe   0.4857823   0.3171037   0.2500000 SPIN=   4.00000
  Fe  -0.4857823   0.3171037  -0.2500000 SPIN=   4.00000
%ENDBLOCK POSITIONS_FRAC

# Note: total spin =   8.00

KPOINTS_MP_SPACING 0.07

%BLOCK SPECIES_POT
QC5
%ENDBLOCK SPECIES_POT

%BLOCK HUBBARD_U
Fe d:4.0
%ENDBLOCK HUBBARD_U

SNAP_TO_SYMMETRY
SYMMETRY_GENERATE

