#              Generated by Buildcell
#
# at 01:55:01 (GMT+0.0) 27th November 2020
# in /lustre/scratch/uccabz1/launch_tmp
# on node-c12c-023
# by uccabz1
#
# compiler GCC version 4.9.2
# options -cpp -iprefix /lustre/shared/ucl/apps/gcc/4.9.2/bin/../lib/gcc/x86_64-unknown-linux-gnu/4.9.2/ -mtune=corei7 -march=x86-64 -g -Og
#
# seed -1143489794   741984460   618181698  1083845615  1976907854   639980260  -757585554 -1830698547  -560865169   671204122  2109567044  -503008550
#
#      Author: C. J. Pickard (cjp20@cam.ac.uk)
#                Space group: Pna21
#

%BLOCK LATTICE_ABC
      5.47934      7.60772      7.67657
     90.00000     90.00000     90.00000
%ENDBLOCK LATTICE_ABC

%BLOCK POSITIONS_FRAC
  Li  -0.4280711  -0.1662667   0.2867562 SPIN=   0.00000
  Li   0.4280711   0.1662667  -0.2132438 SPIN=   0.00000
  Li   0.0719289  -0.3337333   0.2867562 SPIN=   0.00000
  Li  -0.0719289   0.3337333  -0.2132438 SPIN=   0.00000
   O   0.2771636  -0.5643241  -0.2696413 SPIN=   0.00000
   O  -0.0714674  -0.4650355  -0.4768540 SPIN=   0.00000
   O   0.1009127  -0.2473013  -0.2723394 SPIN=   0.00000
   O   0.3514890  -0.3502771  -0.5253719 SPIN=   0.00000
   P   0.1727283  -0.4144591  -0.3814975 SPIN=   0.00000
   O  -0.2771636   0.5643241   0.2303587 SPIN=   0.00000
   O   0.0714674   0.4650355   0.0231460 SPIN=   0.00000
   O  -0.1009127   0.2473013   0.2276606 SPIN=   0.00000
   O  -0.3514890   0.3502771  -0.0253719 SPIN=   0.00000
   P  -0.1727283   0.4144591   0.1185025 SPIN=   0.00000
   O  -0.2228364   0.0643241  -0.2696413 SPIN=   0.00000
   O  -0.5714674  -0.0349645  -0.4768540 SPIN=   0.00000
   O  -0.3990873  -0.2526987  -0.2723394 SPIN=   0.00000
   O  -0.1485110  -0.1497229  -0.5253719 SPIN=   0.00000
   P  -0.3272717  -0.0855409  -0.3814975 SPIN=   0.00000
   O   0.2228364  -0.0643241   0.2303587 SPIN=   0.00000
   O   0.5714674   0.0349645   0.0231460 SPIN=   0.00000
   O   0.3990873   0.2526987   0.2276606 SPIN=   0.00000
   O   0.1485110   0.1497229  -0.0253719 SPIN=   0.00000
   P   0.3272717   0.0855409   0.1185025 SPIN=   0.00000
  Fe  -0.0843436  -0.0677953  -0.0515890 SPIN=   4.00000
  Fe   0.0843436   0.0677953   0.4484110 SPIN=   4.00000
  Fe   0.4156564  -0.4322047  -0.0515890 SPIN=   4.00000
  Fe  -0.4156564   0.4322047   0.4484110 SPIN=   4.00000
%ENDBLOCK POSITIONS_FRAC

# Note: total spin =  16.00

KPOINTS_MP_SPACING 0.07

%BLOCK SPECIES_POT
QC5
%ENDBLOCK SPECIES_POT

%BLOCK HUBBARD_U
Fe d:4.0
%ENDBLOCK HUBBARD_U

SNAP_TO_SYMMETRY
SYMMETRY_GENERATE

