#              Generated by Buildcell
#
# at 11:52:27 (GMT+0.0) 26th November 2020
# in /lustre/scratch/uccabz1/launch_tmp
# on node-c12i-025
# by uccabz1
#
# compiler GCC version 4.9.2
# options -cpp -iprefix /lustre/shared/ucl/apps/gcc/4.9.2/bin/../lib/gcc/x86_64-unknown-linux-gnu/4.9.2/ -mtune=corei7 -march=x86-64 -g -Og
#
# seed  1095685078  1849111009   528779708  1952368170  1945953153  -126983525 -1234700935  1951457011   882536722 -1793184030    12842602  1387445122
#
#      Author: C. J. Pickard (cjp20@cam.ac.uk)
#                Space group: Iba2
#

%BLOCK LATTICE_ABC
      6.39127      7.35166      8.37296
    116.04084    112.43662     90.00000
%ENDBLOCK LATTICE_ABC

%BLOCK POSITIONS_FRAC
  Li  -0.0243704   0.2326736   0.4653543 SPIN=   0.00000
  Li  -0.4897248  -0.2326736  -0.4653543 SPIN=   0.00000
  Li   0.4756296   0.2326808   0.4653543 SPIN=   0.00000
  Li   0.0102752  -0.2326808  -0.4653543 SPIN=   0.00000
   O   0.0077690   0.0422000   0.1898389 SPIN=   0.00000
   O   0.3196132  -0.0295897   0.4521091 SPIN=   0.00000
   O  -0.0653028  -0.2606340   0.2555829 SPIN=   0.00000
   O   0.1993365  -0.2746654   0.0956619 SPIN=   0.00000
   P   0.1106167  -0.1231669   0.2433843 SPIN=   0.00000
   O  -0.1820699  -0.0422000  -0.1898389 SPIN=   0.00000
   O  -0.1324959   0.0295897  -0.4521091 SPIN=   0.00000
   O  -0.3208857   0.2606340  -0.2555829 SPIN=   0.00000
   O   0.1036746   0.2746654  -0.0956619 SPIN=   0.00000
   P  -0.1327676   0.1231669  -0.2433843 SPIN=   0.00000
   O  -0.4922310   0.1476389   0.1898389 SPIN=   0.00000
   O  -0.1803868   0.4816988   0.4521091 SPIN=   0.00000
   O  -0.5653028   0.5162170   0.2555829 SPIN=   0.00000
   O  -0.3006635   0.3703273   0.0956619 SPIN=   0.00000
   P  -0.3893833   0.3665512   0.2433843 SPIN=   0.00000
   O   0.3179301  -0.1476389  -0.1898389 SPIN=   0.00000
   O   0.3675041  -0.4816988  -0.4521091 SPIN=   0.00000
   O   0.1791143  -0.5162170  -0.2555829 SPIN=   0.00000
   O   0.6036746  -0.3703273  -0.0956619 SPIN=   0.00000
   P   0.3672324  -0.3665512  -0.2433843 SPIN=   0.00000
  Fe   0.4052773   0.2009314  -0.1753487 SPIN=   4.00000
  Fe  -0.4193740  -0.2009314   0.1753487 SPIN=   4.00000
  Fe  -0.0947227  -0.3762801  -0.1753487 SPIN=   4.00000
  Fe   0.0806260   0.3762801   0.1753487 SPIN=   4.00000
%ENDBLOCK POSITIONS_FRAC

# Note: total spin =  16.00

KPOINTS_MP_SPACING 0.07

%BLOCK SPECIES_POT
QC5
%ENDBLOCK SPECIES_POT

%BLOCK HUBBARD_U
Fe d:4.0
%ENDBLOCK HUBBARD_U

SNAP_TO_SYMMETRY
SYMMETRY_GENERATE

