#              Generated by Buildcell
#
# at 21:00:47 (GMT+0.0) 26th November 2020
# in /scratch/scratch/mmm0366/launch_tmp
# on node-k98r-025
# by mmm0366
#
# compiler GCC version 4.9.2
# options -cpp -iprefix /scratch/UCL/applications/gcc/4.9.2/bin/../lib/gcc/x86_64-unknown-linux-gnu/4.9.2/ -mtune=corei7 -march=x86-64 -g -O2
#
# seed -1041829118 -1157095469   186162034  2035070955   -90787738   781587866  -861373793  1702741937   263028217  1595988338  -987421509  1064541987
#
#      Author: C. J. Pickard (cjp20@cam.ac.uk)
#                Space group: P21
#

%BLOCK LATTICE_ABC
      4.62411      5.48326     12.88256
     90.00000     90.00000    101.57239
%ENDBLOCK LATTICE_ABC

%BLOCK POSITIONS_FRAC
  Li  -0.2368118   0.3054292   0.2550475 SPIN=   0.00000
  Li   0.2368118  -0.3054292  -0.2449525 SPIN=   0.00000
  Li  -0.0521801  -0.0766219  -0.0692840 SPIN=   0.00000
  Li   0.0521801   0.0766219   0.4307160 SPIN=   0.00000
   O  -0.2962417  -0.3645644   0.1764885 SPIN=   0.00000
   O   0.0645184  -0.3136347   0.3332053 SPIN=   0.00000
   O   0.1170594   0.0270284   0.2048399 SPIN=   0.00000
   O  -0.3192667  -0.0505076   0.3242012 SPIN=   0.00000
   P  -0.1209674  -0.1840166   0.2560154 SPIN=   0.00000
   O   0.2962417   0.3645644  -0.3235115 SPIN=   0.00000
   O  -0.0645184   0.3136347  -0.1667947 SPIN=   0.00000
   O  -0.1170594  -0.0270284  -0.2951601 SPIN=   0.00000
   O   0.3192667   0.0505076  -0.1757988 SPIN=   0.00000
   P   0.1209674   0.1840166  -0.2439846 SPIN=   0.00000
   O  -0.2382605  -0.1854332  -0.4798502 SPIN=   0.00000
   O   0.0355426  -0.5517429  -0.5034332 SPIN=   0.00000
   O   0.2778029  -0.1876169  -0.4005453 SPIN=   0.00000
   O  -0.1658124  -0.4762587  -0.3284944 SPIN=   0.00000
   P  -0.0358494  -0.3429735  -0.4296620 SPIN=   0.00000
   O   0.2382605   0.1854332   0.0201498 SPIN=   0.00000
   O  -0.0355426   0.5517429  -0.0034332 SPIN=   0.00000
   O  -0.2778029   0.1876169   0.0994547 SPIN=   0.00000
   O   0.1658124   0.4762587   0.1715056 SPIN=   0.00000
   P   0.0358494   0.3429735   0.0703380 SPIN=   0.00000
  Fe  -0.3868709   0.1704101  -0.3779286 SPIN=   4.62402
  Fe   0.3868709  -0.1704101   0.1220714 SPIN=   4.62402
  Fe  -0.4463785   0.3571595  -0.0869806 SPIN=   3.37598
  Fe   0.4463785  -0.3571595   0.4130194 SPIN=   3.37598
%ENDBLOCK POSITIONS_FRAC

# Note: total spin =  16.00

KPOINTS_MP_SPACING 0.07

%BLOCK SPECIES_POT
QC5
%ENDBLOCK SPECIES_POT

%BLOCK HUBBARD_U
Fe d:4.0
%ENDBLOCK HUBBARD_U

SNAP_TO_SYMMETRY
SYMMETRY_GENERATE

