#              Generated by Buildcell
#
# at 06:53:17 (GMT+0.0) 26th November 2020
# in /scratch/scratch/uccabz1/launch_tmp
# on node-a14c-007
# by uccabz1
#
# compiler GCC version 4.9.2
# options -cpp -iprefix /scratch/UCL/applications/gcc/4.9.2/bin/../lib/gcc/x86_64-unknown-linux-gnu/4.9.2/ -mtune=corei7 -march=x86-64 -g -O2
#
# seed -1912494973 -1320023593 -1420572023   594321033  1558133408  -798839968   361245871  1811725751  -608982242  -719446281 -1821322835    38450694
#
#      Author: C. J. Pickard (cjp20@cam.ac.uk)
#                Space group: P-1
#

%BLOCK LATTICE_ABC
      4.59086      6.07152     11.58587
     96.28382     94.46145     90.23180
%ENDBLOCK LATTICE_ABC

%BLOCK POSITIONS_FRAC
  Li   0.4233293   0.2442901   0.0079910 SPIN=   0.00000
  Li  -0.4233293  -0.2442901  -0.0079910 SPIN=   0.00000
  Li   0.0000000  -0.0000000  -0.5000000 SPIN=   0.00000
  Li   0.0000000  -0.5000000  -0.5000000 SPIN=   0.00000
   O   0.4028397   0.4524422  -0.1266503 SPIN=   0.00000
   O  -0.0156494   0.3372538  -0.2861762 SPIN=   0.00000
   O  -0.0584809   0.2305275  -0.0884437 SPIN=   0.00000
   O  -0.1078273   0.6289591  -0.1233925 SPIN=   0.00000
   P   0.0718054   0.4169901  -0.1542074 SPIN=   0.00000
   O  -0.4028397  -0.4524422   0.1266503 SPIN=   0.00000
   O   0.0156494  -0.3372538   0.2861762 SPIN=   0.00000
   O   0.0584809  -0.2305275   0.0884437 SPIN=   0.00000
   O   0.1078273  -0.6289591   0.1233925 SPIN=   0.00000
   P  -0.0718054  -0.4169901   0.1542074 SPIN=   0.00000
   O   0.3704564  -0.0483371   0.4029960 SPIN=   0.00000
   O   0.3088117   0.3716195   0.3839023 SPIN=   0.00000
   O   0.8065880   0.2183208   0.3879822 SPIN=   0.00000
   O   0.4564883   0.1199279   0.2129653 SPIN=   0.00000
   P   0.4791126   0.1534668   0.3483637 SPIN=   0.00000
   O  -0.3704564   0.0483371  -0.4029960 SPIN=   0.00000
   O  -0.3088117  -0.3716195  -0.3839023 SPIN=   0.00000
   O  -0.8065880  -0.2183208  -0.3879822 SPIN=   0.00000
   O  -0.4564883  -0.1199279  -0.2129653 SPIN=   0.00000
   P  -0.4791126  -0.1534668  -0.3483637 SPIN=   0.00000
  Fe  -0.0544046   0.0969304   0.1953724 SPIN=   4.07679
  Fe   0.0544046  -0.0969304  -0.1953724 SPIN=   4.07679
  Fe   0.4740135  -0.3558380   0.3116761 SPIN=   3.92321
  Fe  -0.4740135   0.3558380  -0.3116761 SPIN=   3.92321
%ENDBLOCK POSITIONS_FRAC

# Note: total spin =  16.00

KPOINTS_MP_SPACING 0.07

%BLOCK SPECIES_POT
QC5
%ENDBLOCK SPECIES_POT

%BLOCK HUBBARD_U
Fe d:4.0
%ENDBLOCK HUBBARD_U

SNAP_TO_SYMMETRY
SYMMETRY_GENERATE

