#              Generated by Buildcell
#
# at 08:37:39 (GMT+0.0) 24th November 2020
# in /scratch/scratch/uccabz1/launch_tmp
# on node-a14a-010
# by uccabz1
#
# compiler GCC version 4.9.2
# options -cpp -iprefix /scratch/UCL/applications/gcc/4.9.2/bin/../lib/gcc/x86_64-unknown-linux-gnu/4.9.2/ -mtune=corei7 -march=x86-64 -g -O2
#
# seed  1844461222 -1839073808  1730500072 -1186247712  2054753280   521857058  1999294736 -1793054400  1452840371  -193013904  1835908730   583821464
#
#      Author: C. J. Pickard (cjp20@cam.ac.uk)
#                Space group: C2
#

%BLOCK LATTICE_ABC
      5.37818      5.37818      6.45140
    103.68481    103.68481    109.81697
%ENDBLOCK LATTICE_ABC

%BLOCK POSITIONS_FRAC
  Li   0.4534737  -0.4534737  -0.0000000 SPIN=   0.00000
  Li  -0.8548204  -0.1451796  -0.5000000 SPIN=   0.00000
   O   0.1570872   0.5350601   0.2467178 SPIN=   0.00000
   O  -0.0245638   0.4920886   0.5813685 SPIN=   0.00000
   O  -0.3742093   0.3332948   0.1976934 SPIN=   0.00000
   O  -0.0987723   0.0538245   0.2830176 SPIN=   0.00000
   O  -0.5350601  -0.1570872  -0.2467178 SPIN=   0.00000
   O  -0.4920886   0.0245638  -0.5813685 SPIN=   0.00000
   O  -0.3332948   0.3742093  -0.1976934 SPIN=   0.00000
   O  -0.0538245   0.0987723  -0.2830176 SPIN=   0.00000
   P   0.1498973  -0.1498973   0.0000000 SPIN=   0.00000
   P   0.8413571   0.1586429   0.5000000 SPIN=   0.00000
  Fe  -0.1738891   0.1738891  -0.0000000 SPIN=   1.99409
  Fe  -0.4796591  -0.5203409  -0.5000000 SPIN=   6.00591
%ENDBLOCK POSITIONS_FRAC

# Note: total spin =   8.00

KPOINTS_MP_SPACING 0.07

%BLOCK SPECIES_POT
QC5
%ENDBLOCK SPECIES_POT

%BLOCK HUBBARD_U
Fe d:4.0
%ENDBLOCK HUBBARD_U

SNAP_TO_SYMMETRY
SYMMETRY_GENERATE

