#              Generated by Buildcell
#
# at 07:58:23 (GMT+0.0) 26th November 2020
# in /lustre/scratch/uccabz1/launch_tmp
# on node-c12l-025
# by uccabz1
#
# compiler GCC version 4.9.2
# options -cpp -iprefix /lustre/shared/ucl/apps/gcc/4.9.2/bin/../lib/gcc/x86_64-unknown-linux-gnu/4.9.2/ -mtune=corei7 -march=x86-64 -g -Og
#
# seed -1784543905   381191689   591516717  2005639248  -733404442  1489085280  2131699852   962064377  -154247246 -1752579308  2047592296  -769601964
#
#      Author: C. J. Pickard (cjp20@cam.ac.uk)
#                Space group: P212121
#

%BLOCK LATTICE_ABC
      6.49138      6.75840      7.29406
     90.00000     90.00000     90.00000
%ENDBLOCK LATTICE_ABC

%BLOCK POSITIONS_FRAC
  Li   0.3930368   0.2670148   0.3878469 SPIN=   0.00000
  Li  -0.1069632   0.2329852  -0.3878469 SPIN=   0.00000
  Li   0.1069632  -0.2670148  -0.1121531 SPIN=   0.00000
  Li  -0.3930368  -0.2329852   0.1121531 SPIN=   0.00000
   O   0.2414397   0.2481656   0.0869681 SPIN=   0.00000
   O   0.4118606  -0.0597867  -0.0628690 SPIN=   0.00000
   O   0.4420123  -0.0175525   0.2724194 SPIN=   0.00000
   O   0.1003624  -0.1053662   0.1352479 SPIN=   0.00000
   P   0.2935151   0.0272707   0.1071471 SPIN=   0.00000
   O  -0.2585603   0.2518344  -0.0869681 SPIN=   0.00000
   O  -0.0881394   0.5597867   0.0628690 SPIN=   0.00000
   O  -0.0579877   0.5175525  -0.2724194 SPIN=   0.00000
   O  -0.3996376   0.6053662  -0.1352479 SPIN=   0.00000
   P  -0.2064849   0.4727293  -0.1071471 SPIN=   0.00000
   O   0.2585603  -0.2481656  -0.4130319 SPIN=   0.00000
   O   0.0881394   0.0597867  -0.5628690 SPIN=   0.00000
   O   0.0579877   0.0175525  -0.2275806 SPIN=   0.00000
   O   0.3996376   0.1053662  -0.3647521 SPIN=   0.00000
   P   0.2064849  -0.0272707  -0.3928529 SPIN=   0.00000
   O  -0.2414397  -0.2518344   0.4130319 SPIN=   0.00000
   O  -0.4118606  -0.5597867   0.5628690 SPIN=   0.00000
   O  -0.4420123  -0.5175525   0.2275806 SPIN=   0.00000
   O  -0.1003624  -0.6053662   0.3647521 SPIN=   0.00000
   P  -0.2935151  -0.4727293   0.3928529 SPIN=   0.00000
  Fe  -0.3835528  -0.1749450  -0.3383429 SPIN=   4.00000
  Fe   0.1164472  -0.3250550   0.3383429 SPIN=   4.00000
  Fe  -0.1164472   0.1749450   0.1616571 SPIN=   4.00000
  Fe   0.3835528   0.3250550  -0.1616571 SPIN=   4.00000
%ENDBLOCK POSITIONS_FRAC

# Note: total spin =  16.00

KPOINTS_MP_SPACING 0.07

%BLOCK SPECIES_POT
QC5
%ENDBLOCK SPECIES_POT

%BLOCK HUBBARD_U
Fe d:4.0
%ENDBLOCK HUBBARD_U

SNAP_TO_SYMMETRY
SYMMETRY_GENERATE

