#              Generated by Buildcell
#
# at 01:43:21 (GMT+0.0) 27th November 2020
# in /scratch/scratch/uccabz1/launch_tmp
# on node-k10c-005
# by uccabz1
#
# compiler GCC version 4.9.2
# options -cpp -iprefix /scratch/UCL/applications/gcc/4.9.2/bin/../lib/gcc/x86_64-unknown-linux-gnu/4.9.2/ -mtune=corei7 -march=x86-64 -g -O2
#
# seed  1367127773 -1378771223 -1363881691   815514506  -419996552  1727504292  -207633940  -431990168 -1308495352   512500106  -147208958   325861796
#
#      Author: C. J. Pickard (cjp20@cam.ac.uk)
#                Space group: P21/c
#

%BLOCK LATTICE_ABC
      5.35099      5.91991     10.26793
    100.31913     90.00000     90.00000
%ENDBLOCK LATTICE_ABC

%BLOCK POSITIONS_FRAC
  Li   0.5000000  -0.5000000   0.0000000 SPIN=   0.00000
  Li  -0.0000000  -0.5000000   0.5000000 SPIN=   0.00000
  Li  -0.0000000   0.0000000  -0.0000000 SPIN=   0.00000
  Li  -0.5000000   0.0000000   0.5000000 SPIN=   0.00000
   O  -0.5846144  -0.3361114   0.4087858 SPIN=   0.00000
   O  -0.1401857  -0.4465900   0.3170406 SPIN=   0.00000
   O  -0.2844374  -0.0479509   0.3252510 SPIN=   0.00000
   O  -0.1847545  -0.1852084   0.5363041 SPIN=   0.00000
   O  -0.0846144   0.3361114   0.0912142 SPIN=   0.00000
   O   0.3598143   0.4465900   0.1829594 SPIN=   0.00000
   O   0.2155626   0.0479509   0.1747490 SPIN=   0.00000
   O   0.3152455   0.1852084  -0.0363041 SPIN=   0.00000
   O   0.5846144   0.3361114  -0.4087858 SPIN=   0.00000
   O   0.1401857   0.4465900  -0.3170406 SPIN=   0.00000
   O   0.2844374   0.0479509  -0.3252510 SPIN=   0.00000
   O   0.1847545   0.1852084  -0.5363041 SPIN=   0.00000
   O   0.0846144  -0.3361114  -0.0912142 SPIN=   0.00000
   O  -0.3598143  -0.4465900  -0.1829594 SPIN=   0.00000
   O  -0.2155626  -0.0479509  -0.1747490 SPIN=   0.00000
   O  -0.3152455  -0.1852084   0.0363041 SPIN=   0.00000
   P  -0.5000000   0.0000000  -0.0000000 SPIN=   0.00000
   P  -0.0000000   0.0000000  -0.5000000 SPIN=   0.00000
   P  -0.0000000  -0.5000000   0.0000000 SPIN=   0.00000
   P   0.5000000   0.5000000   0.5000000 SPIN=   0.00000
  Fe   0.3450757  -0.2526924  -0.2496645 SPIN=   4.00000
  Fe  -0.1549243   0.2526924  -0.2503355 SPIN=   4.00000
  Fe  -0.3450757   0.2526924   0.2496645 SPIN=   4.00000
  Fe   0.1549243  -0.2526924   0.2503355 SPIN=   4.00000
%ENDBLOCK POSITIONS_FRAC

# Note: total spin =  16.00

KPOINTS_MP_SPACING 0.07

%BLOCK SPECIES_POT
QC5
%ENDBLOCK SPECIES_POT

%BLOCK HUBBARD_U
Fe d:4.0
%ENDBLOCK HUBBARD_U

SNAP_TO_SYMMETRY
SYMMETRY_GENERATE

