#              Generated by Buildcell
#
# at 22:43:18 (GMT+0.0) 26th November 2020
# in /lustre/scratch/uccabz1/launch_tmp
# on node-c12i-029
# by uccabz1
#
# compiler GCC version 4.9.2
# options -cpp -iprefix /lustre/shared/ucl/apps/gcc/4.9.2/bin/../lib/gcc/x86_64-unknown-linux-gnu/4.9.2/ -mtune=corei7 -march=x86-64 -g -Og
#
# seed  1898683362  -116302477  1801850209   852334400 -1710274303   203820516 -1978507255 -2089134264 -1044835306   579422233  1076032825   593040518
#
#      Author: C. J. Pickard (cjp20@cam.ac.uk)
#                Space group: P42
#

%BLOCK LATTICE_ABC
      4.58783      8.35163      8.35163
     90.00000     90.00000     90.00000
%ENDBLOCK LATTICE_ABC

%BLOCK POSITIONS_FRAC
  Li  -0.4321778  -0.4425591  -0.1698822 SPIN=   0.00000
  Li  -0.4321778   0.4425591   0.1698822 SPIN=   0.00000
  Li   0.0678222   0.1698822  -0.4425591 SPIN=   0.00000
  Li   0.0678222  -0.1698822   0.4425591 SPIN=   0.00000
   O  -0.2321792  -0.4098318   0.3834781 SPIN=   0.00000
   O  -0.7494439  -0.3349327   0.2813877 SPIN=   0.00000
   O  -0.4781321  -0.1356212   0.4411652 SPIN=   0.00000
   O  -0.3143997  -0.1986134   0.1621288 SPIN=   0.00000
   P  -0.4307609  -0.2763690   0.3187493 SPIN=   0.00000
   O  -0.2321792   0.4098318  -0.3834781 SPIN=   0.00000
   O  -0.7494439   0.3349327  -0.2813877 SPIN=   0.00000
   O  -0.4781321   0.1356212  -0.4411652 SPIN=   0.00000
   O  -0.3143997   0.1986134  -0.1621288 SPIN=   0.00000
   P  -0.4307609   0.2763690  -0.3187493 SPIN=   0.00000
   O   0.2678208  -0.3834781  -0.4098318 SPIN=   0.00000
   O  -0.2494439  -0.2813877  -0.3349327 SPIN=   0.00000
   O   0.0218679  -0.4411652  -0.1356212 SPIN=   0.00000
   O   0.1856003  -0.1621288  -0.1986134 SPIN=   0.00000
   P   0.0692391  -0.3187493  -0.2763690 SPIN=   0.00000
   O   0.2678208   0.3834781   0.4098318 SPIN=   0.00000
   O  -0.2494439   0.2813877   0.3349327 SPIN=   0.00000
   O   0.0218679   0.4411652   0.1356212 SPIN=   0.00000
   O   0.1856003   0.1621288   0.1986134 SPIN=   0.00000
   P   0.0692391   0.3187493   0.2763690 SPIN=   0.00000
  Fe  -0.4145340  -0.0595659  -0.2618378 SPIN=   4.00000
  Fe  -0.4145340   0.0595659   0.2618378 SPIN=   4.00000
  Fe   0.0854660   0.2618378  -0.0595659 SPIN=   4.00000
  Fe   0.0854660  -0.2618378   0.0595659 SPIN=   4.00000
%ENDBLOCK POSITIONS_FRAC

# Note: total spin =  16.00

KPOINTS_MP_SPACING 0.07

%BLOCK SPECIES_POT
QC5
%ENDBLOCK SPECIES_POT

%BLOCK HUBBARD_U
Fe d:4.0
%ENDBLOCK HUBBARD_U

SNAP_TO_SYMMETRY
SYMMETRY_GENERATE

