#              Generated by Buildcell
#
# at 06:28:38 (GMT+0.0) 24th November 2020
# in /scratch/scratch/uccabz1/launch_tmp
# on node-k10a-022
# by uccabz1
#
# compiler GCC version 4.9.2
# options -cpp -iprefix /scratch/UCL/applications/gcc/4.9.2/bin/../lib/gcc/x86_64-unknown-linux-gnu/4.9.2/ -mtune=corei7 -march=x86-64 -g -O2
#
# seed  -854349503  1577936871 -1339020073   432470118   251832097 -1065135268 -1202882064   849178041   712371507   613266015  1127738520  -500403348
#
#      Author: C. J. Pickard (cjp20@cam.ac.uk)
#                Space group: Pmc21
#

%BLOCK LATTICE_ABC
      4.91991      5.69875      5.70668
     90.00000     90.00000     90.00000
%ENDBLOCK LATTICE_ABC

%BLOCK POSITIONS_FRAC
  Li   0.0000000  -0.2134507  -0.3720909 SPIN=   0.00000
  Li   0.0000000   0.2865493   0.3720909 SPIN=   0.00000
   O   0.2500025   0.0903133  -0.4001841 SPIN=   0.00000
   O   0.2499915   0.1302507   0.0533335 SPIN=   0.00000
   O  -0.2500025  -0.4096867   0.4001841 SPIN=   0.00000
   O  -0.2499915  -0.3697493  -0.0533335 SPIN=   0.00000
   O   0.2500025  -0.4096867   0.4001841 SPIN=   0.00000
   O   0.2499915  -0.3697493  -0.0533335 SPIN=   0.00000
   O  -0.2500025   0.0903133  -0.4001841 SPIN=   0.00000
   O  -0.2499915   0.1302507   0.0533335 SPIN=   0.00000
   P  -0.5000000  -0.0843336  -0.2358365 SPIN=   0.00000
   P   0.5000000   0.4156664   0.2358365 SPIN=   0.00000
  Fe  -0.5000000  -0.0847051   0.2636277 SPIN=   4.00000
  Fe   0.5000000   0.4152949  -0.2636277 SPIN=   4.00000
%ENDBLOCK POSITIONS_FRAC

# Note: total spin =   8.00

KPOINTS_MP_SPACING 0.07

%BLOCK SPECIES_POT
QC5
%ENDBLOCK SPECIES_POT

%BLOCK HUBBARD_U
Fe d:4.0
%ENDBLOCK HUBBARD_U

SNAP_TO_SYMMETRY
SYMMETRY_GENERATE

