#              Generated by Buildcell
#
# at 12:26:10 (GMT+0.0) 24th November 2020
# in /lustre/scratch/uccabz1/launch_tmp
# on node-c12h-022
# by uccabz1
#
# compiler GCC version 4.9.2
# options -cpp -iprefix /lustre/shared/ucl/apps/gcc/4.9.2/bin/../lib/gcc/x86_64-unknown-linux-gnu/4.9.2/ -mtune=corei7 -march=x86-64 -g -Og
#
# seed   626156331 -1235218888  1526810039   962903656 -1166839885  -993531397 -1294186213  -591495373  1788151229  -244095356  1537935656 -1649511085
#
#      Author: C. J. Pickard (cjp20@cam.ac.uk)
#                Space group: C2
#

%BLOCK LATTICE_ABC
      5.03455      5.21284      6.59639
     90.76209    112.43370     90.00000
%ENDBLOCK LATTICE_ABC

%BLOCK POSITIONS_FRAC
  Li   0.3560244  -0.1713920   0.1958360 SPIN=   0.00000
  Li   0.1601884   0.1713920  -0.1958360 SPIN=   0.00000
   O   0.1434385   0.0242220   0.5024651 SPIN=   0.00000
   O  -0.0389243  -0.3963389   0.6140691 SPIN=   0.00000
   O  -0.2299527  -0.2811614   0.2225516 SPIN=   0.00000
   P   0.0473260  -0.2554187   0.4385950 SPIN=   0.00000
   O  -0.3590266  -0.0242220  -0.5024651 SPIN=   0.00000
   O  -0.6529934   0.3963389  -0.6140691 SPIN=   0.00000
   O  -0.4525043   0.2811614  -0.2225516 SPIN=   0.00000
   P  -0.3912691   0.2554187  -0.4385950 SPIN=   0.00000
   O   0.3159380  -0.5000000   0.0000000 SPIN=   0.00000
   O  -0.0376836   0.0000000   0.0000000 SPIN=   0.00000
  Fe  -0.1288089   0.2470883   0.2441702 SPIN=   4.00000
  Fe  -0.3729791  -0.2470883  -0.2441702 SPIN=   4.00000
%ENDBLOCK POSITIONS_FRAC

# Note: total spin =   8.00

KPOINTS_MP_SPACING 0.07

%BLOCK SPECIES_POT
QC5
%ENDBLOCK SPECIES_POT

%BLOCK HUBBARD_U
Fe d:4.0
%ENDBLOCK HUBBARD_U

SNAP_TO_SYMMETRY
SYMMETRY_GENERATE

