#              Generated by Buildcell
#
# at 14:39:15 (GMT+0.0) 24th November 2020
# in /lustre/scratch/uccabz1/launch_tmp
# on node-c12n-028
# by uccabz1
#
# compiler GCC version 4.9.2
# options -cpp -iprefix /lustre/shared/ucl/apps/gcc/4.9.2/bin/../lib/gcc/x86_64-unknown-linux-gnu/4.9.2/ -mtune=corei7 -march=x86-64 -g -Og
#
# seed  1455996261  -261429829   867781335 -1038077038 -1050984228 -1749779473   519078121  -402888700  1059945346  -238041248 -1095339826  -768208292
#
#      Author: C. J. Pickard (cjp20@cam.ac.uk)
#                Space group: Cm
#

%BLOCK LATTICE_ABC
      3.90599      6.45742      6.45742
     86.13151     82.66304     82.66304
%ENDBLOCK LATTICE_ABC

%BLOCK POSITIONS_FRAC
  Li   0.4325331  -0.1532570   0.2054088 SPIN=   0.00000
  Li   0.4325331   0.2054088  -0.1532570 SPIN=   0.00000
   O  -0.4150172  -0.4931854  -0.2155631 SPIN=   0.00000
   O  -0.5806487  -0.5067131   0.1873709 SPIN=   0.00000
   O  -0.0071438  -0.6809319   0.0447818 SPIN=   0.00000
   O  -0.1176268  -0.2898597   0.0275644 SPIN=   0.00000
   P  -0.2853749  -0.4903064  -0.0008319 SPIN=   0.00000
   O  -0.4150172  -0.2155631  -0.4931854 SPIN=   0.00000
   O  -0.5806487   0.1873709  -0.5067131 SPIN=   0.00000
   O  -0.0071438   0.0447818  -0.6809319 SPIN=   0.00000
   O  -0.1176268   0.0275644  -0.2898597 SPIN=   0.00000
   P  -0.2853749  -0.0008319  -0.4903064 SPIN=   0.00000
  Fe   0.0052751   0.3682184   0.3682184 SPIN=   5.33372
  Fe   0.1997529  -0.2474276  -0.2474276 SPIN=   2.66628
%ENDBLOCK POSITIONS_FRAC

# Note: total spin =   8.00

KPOINTS_MP_SPACING 0.07

%BLOCK SPECIES_POT
QC5
%ENDBLOCK SPECIES_POT

%BLOCK HUBBARD_U
Fe d:4.0
%ENDBLOCK HUBBARD_U

SNAP_TO_SYMMETRY
SYMMETRY_GENERATE

