#              Generated by Buildcell
#
# at 10:11:27 (GMT+0.0) 24th November 2020
# in /lustre/scratch/uccabz1/launch_tmp
# on node-c12g-024
# by uccabz1
#
# compiler GCC version 4.9.2
# options -cpp -iprefix /lustre/shared/ucl/apps/gcc/4.9.2/bin/../lib/gcc/x86_64-unknown-linux-gnu/4.9.2/ -mtune=corei7 -march=x86-64 -g -Og
#
# seed -2124232080   916590432  1701841870 -1093280785  -906296796 -1284909181  1937812167   826532104   310181311  2073428388  1478443483  -519032715
#
#      Author: C. J. Pickard (cjp20@cam.ac.uk)
#                Space group: Pc
#

%BLOCK LATTICE_ABC
      4.89461      5.78786      6.03046
     90.00000     90.00000    110.51908
%ENDBLOCK LATTICE_ABC

%BLOCK POSITIONS_FRAC
  Li  -0.1090248   0.2268943  -0.2948483 SPIN=   0.00000
  Li  -0.1090248  -0.2731057   0.2948483 SPIN=   0.00000
   O   0.4437773  -0.2460378   0.3820749 SPIN=   0.00000
   O   0.1329894  -0.3988748   0.0265445 SPIN=   0.00000
   O   0.5505644  -0.5358740   0.0925703 SPIN=   0.00000
   O   0.1058471  -0.6994493   0.3318477 SPIN=   0.00000
   P   0.3131192  -0.4608380   0.2189726 SPIN=   0.00000
   O   0.4437773   0.2539622  -0.3820749 SPIN=   0.00000
   O   0.1329894   0.1011252  -0.0265445 SPIN=   0.00000
   O   0.5505644  -0.0358740  -0.0925703 SPIN=   0.00000
   O   0.1058471  -0.1994493  -0.3318477 SPIN=   0.00000
   P   0.3131192   0.0391620  -0.2189726 SPIN=   0.00000
  Fe  -0.4429580   0.1280505   0.2189348 SPIN=   4.00000
  Fe  -0.4429580  -0.3719495  -0.2189348 SPIN=   4.00000
%ENDBLOCK POSITIONS_FRAC

# Note: total spin =   8.00

KPOINTS_MP_SPACING 0.07

%BLOCK SPECIES_POT
QC5
%ENDBLOCK SPECIES_POT

%BLOCK HUBBARD_U
Fe d:4.0
%ENDBLOCK HUBBARD_U

SNAP_TO_SYMMETRY
SYMMETRY_GENERATE

