#              Generated by Buildcell
#
# at 01:40:13 (GMT+0.0) 27th November 2020
# in /lustre/scratch/uccabz1/launch_tmp
# on node-c12f-031
# by uccabz1
#
# compiler GCC version 4.9.2
# options -cpp -iprefix /lustre/shared/ucl/apps/gcc/4.9.2/bin/../lib/gcc/x86_64-unknown-linux-gnu/4.9.2/ -mtune=corei7 -march=x86-64 -g -Og
#
# seed    66887875  1121215189  1439138855 -1688184401 -1821583005   -30192497 -1454555565  -298480556    -8968669  1705050582  1269293460  1732946457
#
#      Author: C. J. Pickard (cjp20@cam.ac.uk)
#                Space group: Cc
#

%BLOCK LATTICE_ABC
      6.96841      6.96841      8.05270
    108.77349    112.48060    100.73273
%ENDBLOCK LATTICE_ABC

%BLOCK POSITIONS_FRAC
  Li   0.2929926   0.4105463   0.4932529 SPIN=   0.00000
  Li   0.0827065  -0.2997397  -0.0067471 SPIN=   0.00000
  Li   0.3500453  -0.0894602  -0.2022854 SPIN=   0.00000
  Li  -0.1128252  -0.0523308   0.2977146 SPIN=   0.00000
   O   0.1112771  -0.3402988   0.5156671 SPIN=   0.00000
   O   0.2230817  -0.5040086   0.2431919 SPIN=   0.00000
   O  -0.1609223  -0.5076218   0.1360521 SPIN=   0.00000
   O   0.1520305  -0.1555951   0.2935262 SPIN=   0.00000
   P   0.0837933  -0.3723219   0.3087042 SPIN=   0.00000
   O  -0.1440341  -0.0956100   0.0156671 SPIN=   0.00000
   O  -0.2527995  -0.4798898  -0.2568081 SPIN=   0.00000
   O  -0.3563261  -0.2030255  -0.3639479 SPIN=   0.00000
   O  -0.5508787  -0.3585043  -0.2064738 SPIN=   0.00000
   P  -0.3189740  -0.2750891  -0.1912958 SPIN=   0.00000
   O   0.6013851   0.0271779   0.1546915 SPIN=   0.00000
   O   0.4241518   0.1864862   0.3725662 SPIN=   0.00000
   O   0.5201511   0.3836511   0.1930413 SPIN=   0.00000
   O   0.2021747   0.0297709   0.0008294 SPIN=   0.00000
   P   0.4429494   0.1483726   0.1768018 SPIN=   0.00000
   O   0.1275135   0.0533064  -0.3453085 SPIN=   0.00000
   O   0.1860800   0.4484143  -0.1274338 SPIN=   0.00000
   O  -0.1906099   0.1728902  -0.3069587 SPIN=   0.00000
   O  -0.0289415   0.2986548  -0.4991706 SPIN=   0.00000
   P   0.0284292   0.2338524  -0.3231982 SPIN=   0.00000
  Fe  -0.4922056  -0.0582512   0.4497110 SPIN=   5.36027
  Fe  -0.4920378   0.4419166  -0.0502890 SPIN=   5.36027
  Fe  -0.1922009  -0.4748391  -0.4961976 SPIN=   2.63973
  Fe  -0.0213585   0.1960034   0.0038024 SPIN=   2.63973
%ENDBLOCK POSITIONS_FRAC

# Note: total spin =  16.00

KPOINTS_MP_SPACING 0.07

%BLOCK SPECIES_POT
QC5
%ENDBLOCK SPECIES_POT

%BLOCK HUBBARD_U
Fe d:4.0
%ENDBLOCK HUBBARD_U

SNAP_TO_SYMMETRY
SYMMETRY_GENERATE

