#              Generated by Buildcell
#
# at 23:17:09 (GMT+0.0) 26th November 2020
# in /lustre/scratch/uccabz1/launch_tmp
# on node-c12n-028
# by uccabz1
#
# compiler GCC version 4.9.2
# options -cpp -iprefix /lustre/shared/ucl/apps/gcc/4.9.2/bin/../lib/gcc/x86_64-unknown-linux-gnu/4.9.2/ -mtune=corei7 -march=x86-64 -g -Og
#
# seed  1063038504  -962342425 -1871323527  1679090175  -602925549  1020741849  -177979600   162528497   757171697  1923183195 -1158061813   499791583
#
#      Author: C. J. Pickard (cjp20@cam.ac.uk)
#                Space group: Cm
#

%BLOCK LATTICE_ABC
      4.13280      9.26225      9.72775
    118.42926    100.75910     90.00000
%ENDBLOCK LATTICE_ABC

%BLOCK POSITIONS_FRAC
  Li   0.4790200   0.3457836   0.1511112 SPIN=   0.00000
  Li   0.4790200  -0.1946724   0.1511112 SPIN=   0.00000
  Li   0.0505939   0.0165542  -0.3407663 SPIN=   0.00000
  Li   0.0505939  -0.3573206  -0.3407663 SPIN=   0.00000
   O   0.0111055   0.4126346   0.0899112 SPIN=   0.00000
   O  -0.5315415   0.2288291  -0.0957595 SPIN=   0.00000
   O  -0.0844130   0.2580283  -0.2202208 SPIN=   0.00000
   O  -0.0116168   0.0953046  -0.0738758 SPIN=   0.00000
   P  -0.1436376   0.2556176  -0.0661931 SPIN=   0.00000
   O   0.0111055  -0.3227234   0.0899112 SPIN=   0.00000
   O  -0.5315415  -0.3245886  -0.0957595 SPIN=   0.00000
   O  -0.0844130  -0.4782490  -0.2202208 SPIN=   0.00000
   O  -0.0116168  -0.1691804  -0.0738758 SPIN=   0.00000
   P  -0.1436376  -0.3218108  -0.0661931 SPIN=   0.00000
   O  -0.0186785   0.4651368   0.3635538 SPIN=   0.00000
   O   0.5732754   0.6088565   0.5195025 SPIN=   0.00000
   O   0.3048596   0.4329276   0.6018114 SPIN=   0.00000
   O   0.4937879   0.3022370   0.3423573 SPIN=   0.00000
   O  -0.0186785  -0.1015831   0.3635538 SPIN=   0.00000
   O   0.5732754  -0.0893539   0.5195025 SPIN=   0.00000
   O   0.3048596   0.1688838   0.6018114 SPIN=   0.00000
   O   0.4937879   0.0401204   0.3423573 SPIN=   0.00000
   P   0.2927619   0.0965316   0.1930632 SPIN=   0.00000
   P  -0.4496854  -0.2049154  -0.4098309 SPIN=   0.00000
  Fe   0.3454044   0.4292280  -0.1415440 SPIN=   9.19469
  Fe  -0.0977756   0.2120335   0.4240670 SPIN=   4.19559
  Fe  -0.4196867  -0.0389901  -0.0779802 SPIN=   0.09175
  Fe   0.0453367  -0.3437881   0.3124237 SPIN=   2.51797
%ENDBLOCK POSITIONS_FRAC

# Note: total spin =  16.00

KPOINTS_MP_SPACING 0.07

%BLOCK SPECIES_POT
QC5
%ENDBLOCK SPECIES_POT

%BLOCK HUBBARD_U
Fe d:4.0
%ENDBLOCK HUBBARD_U

SNAP_TO_SYMMETRY
SYMMETRY_GENERATE

