#              Generated by Buildcell
#
# at 13:13:18 (GMT+0.0) 24th November 2020
# in /scratch/scratch/uccabz1/launch_tmp
# on node-a14a-010
# by uccabz1
#
# compiler GCC version 4.9.2
# options -cpp -iprefix /scratch/UCL/applications/gcc/4.9.2/bin/../lib/gcc/x86_64-unknown-linux-gnu/4.9.2/ -mtune=corei7 -march=x86-64 -g -O2
#
# seed   180399674  2032975324  -187153758 -1727226502  1688830978  1381199660 -1230919855  -874778697  -133116150  -498539890   752351170  1418861980
#
#      Author: C. J. Pickard (cjp20@cam.ac.uk)
#                Space group: P-1
#

%BLOCK LATTICE_ABC
      4.25347      6.38284      6.48771
     65.56152     86.39800     89.65636
%ENDBLOCK LATTICE_ABC

%BLOCK POSITIONS_FRAC
  Li   0.2177469   0.3624655   0.4110235 SPIN=   0.00000
  Li  -0.2177469  -0.3624655  -0.4110235 SPIN=   0.00000
   O   0.1414524   0.0852216   0.3108521 SPIN=   0.00000
   O   0.1743396  -0.2588113   0.1952472 SPIN=   0.00000
   O   0.6668560  -0.1091602   0.2722393 SPIN=   0.00000
   O   0.2727195  -0.3249661   0.5938693 SPIN=   0.00000
   P   0.3041777  -0.1413439   0.3442974 SPIN=   0.00000
   O  -0.1414524  -0.0852216  -0.3108521 SPIN=   0.00000
   O  -0.1743396   0.2588113  -0.1952472 SPIN=   0.00000
   O  -0.6668560   0.1091602  -0.2722393 SPIN=   0.00000
   O  -0.2727195   0.3249661  -0.5938693 SPIN=   0.00000
   P  -0.3041777   0.1413439  -0.3442974 SPIN=   0.00000
  Fe   0.2534601   0.2728952  -0.0538494 SPIN=   4.00000
  Fe  -0.2534601  -0.2728952   0.0538494 SPIN=   4.00000
%ENDBLOCK POSITIONS_FRAC

# Note: total spin =   8.00

KPOINTS_MP_SPACING 0.07

%BLOCK SPECIES_POT
QC5
%ENDBLOCK SPECIES_POT

%BLOCK HUBBARD_U
Fe d:4.0
%ENDBLOCK HUBBARD_U

SNAP_TO_SYMMETRY
SYMMETRY_GENERATE

