#              Generated by Buildcell
#
# at 14:48:41 (GMT+0.0) 24th November 2020
# in /scratch/scratch/uccabz1/launch_tmp
# on node-a14c-025
# by uccabz1
#
# compiler GCC version 4.9.2
# options -cpp -iprefix /scratch/UCL/applications/gcc/4.9.2/bin/../lib/gcc/x86_64-unknown-linux-gnu/4.9.2/ -mtune=corei7 -march=x86-64 -g -O2
#
# seed   -77807238  -305852632  -322720174  -143225887  1215519464  1342993217  1236431820   777001255  1838316685  1291267372 -1743845784  -897432878
#
#      Author: C. J. Pickard (cjp20@cam.ac.uk)
#                Space group: C2
#

%BLOCK LATTICE_ABC
      3.90863      6.69188      6.69188
     76.46975     74.48226     74.48226
%ENDBLOCK LATTICE_ABC

%BLOCK POSITIONS_FRAC
  Li  -0.3418088   0.2978217   0.3579898 SPIN=   0.00000
  Li   0.3418088  -0.3579898  -0.2978217 SPIN=   0.00000
   O   0.3389923   0.1705754   0.2326588 SPIN=   0.00000
   O  -0.1228340   0.4072112   0.0119558 SPIN=   0.00000
   O   0.2383828   0.5784765   0.1442901 SPIN=   0.00000
   P   0.2580571   0.3697112   0.0679330 SPIN=   0.00000
   O  -0.3389923  -0.2326588  -0.1705754 SPIN=   0.00000
   O   0.1228340  -0.0119558  -0.4072112 SPIN=   0.00000
   O  -0.2383828  -0.1442901  -0.5784765 SPIN=   0.00000
   P  -0.2580571  -0.0679330  -0.3697112 SPIN=   0.00000
   O   0.0000000  -0.0372108   0.0372108 SPIN=   0.00000
   O  -0.0000000   0.4748412  -0.4748412 SPIN=   0.00000
  Fe   0.5000000  -0.1878828   0.1878828 SPIN=   0.86282
  Fe  -0.0000000   0.2215333  -0.2215333 SPIN=   7.13718
%ENDBLOCK POSITIONS_FRAC

# Note: total spin =   8.00

KPOINTS_MP_SPACING 0.07

%BLOCK SPECIES_POT
QC5
%ENDBLOCK SPECIES_POT

%BLOCK HUBBARD_U
Fe d:4.0
%ENDBLOCK HUBBARD_U

SNAP_TO_SYMMETRY
SYMMETRY_GENERATE

