#              Generated by Buildcell
#
# at 10:18:43 (GMT+0.0) 24th November 2020
# in /scratch/scratch/uccabz1/launch_tmp
# on node-a14b-028
# by uccabz1
#
# compiler GCC version 4.9.2
# options -cpp -iprefix /scratch/UCL/applications/gcc/4.9.2/bin/../lib/gcc/x86_64-unknown-linux-gnu/4.9.2/ -mtune=corei7 -march=x86-64 -g -O2
#
# seed -2147308895   344435082  1657623264 -1522634491   737909182  -551403422  -973436928  -531067813     -960550  -870799400   380050376   163344145
#
#      Author: C. J. Pickard (cjp20@cam.ac.uk)
#                Space group: Fdd2
#

%BLOCK LATTICE_ABC
      5.91597      5.91597      5.98060
    105.94443    105.94443    116.39696
%ENDBLOCK LATTICE_ABC

%BLOCK POSITIONS_FRAC
  Li   0.2260636  -0.2260636   0.0000000 SPIN=   0.00000
  Li  -0.0239364   0.0239364  -0.5000000 SPIN=   0.00000
   O   0.4010719   0.0766061   0.6651409 SPIN=   0.00000
   O   0.1508615   0.0895606   0.2420196 SPIN=   0.00000
   O  -0.0766061  -0.4010719  -0.6651409 SPIN=   0.00000
   O  -0.0895606  -0.1508615  -0.2420196 SPIN=   0.00000
   O  -0.5140690  -0.3385349  -0.1651409 SPIN=   0.00000
   O  -0.3411581   0.0975410   0.2579804 SPIN=   0.00000
   O   0.3385349   0.5140690   0.1651409 SPIN=   0.00000
   O  -0.0975410   0.3411581  -0.2579804 SPIN=   0.00000
   P   0.5312333   0.4687667   0.0000000 SPIN=   0.00000
   P  -0.7187667  -0.2812333  -0.5000000 SPIN=   0.00000
  Fe  -0.1647249   0.1647249   0.0000000 SPIN=   4.00000
  Fe   0.5852751   0.4147249   0.5000000 SPIN=   4.00000
%ENDBLOCK POSITIONS_FRAC

# Note: total spin =   8.00

KPOINTS_MP_SPACING 0.07

%BLOCK SPECIES_POT
QC5
%ENDBLOCK SPECIES_POT

%BLOCK HUBBARD_U
Fe d:4.0
%ENDBLOCK HUBBARD_U

SNAP_TO_SYMMETRY
SYMMETRY_GENERATE

