#              Generated by Buildcell
#
# at 13:29:24 (GMT+0.0) 24th November 2020
# in /lustre/scratch/uccabz1/launch_tmp
# on node-c12g-024
# by uccabz1
#
# compiler GCC version 4.9.2
# options -cpp -iprefix /lustre/shared/ucl/apps/gcc/4.9.2/bin/../lib/gcc/x86_64-unknown-linux-gnu/4.9.2/ -mtune=corei7 -march=x86-64 -g -Og
#
# seed   214753988   718047656   413862775  -147167287 -1334411086  2082731195 -1283600281  1370247807  1012790221   473426763  1312117266  1603472366
#
#      Author: C. J. Pickard (cjp20@cam.ac.uk)
#                Space group: P-1
#

%BLOCK LATTICE_ABC
      4.59512      4.97029      7.73213
     88.98060     79.50600     67.36503
%ENDBLOCK LATTICE_ABC

%BLOCK POSITIONS_FRAC
  Li   0.5000000   0.0000000  -0.5000000 SPIN=   0.00000
  Li   0.5000000  -0.0000000  -0.0000000 SPIN=   0.00000
   O   0.1731818  -0.5521280   0.2860429 SPIN=   0.00000
   O   0.3868513  -0.1363558   0.2561741 SPIN=   0.00000
   O  -0.1087866  -0.0631243   0.1461066 SPIN=   0.00000
   P   0.0853138  -0.2205668   0.2917946 SPIN=   0.00000
   O  -0.1731818   0.5521280  -0.2860429 SPIN=   0.00000
   O  -0.3868513   0.1363558  -0.2561741 SPIN=   0.00000
   O   0.1087866   0.0631243  -0.1461066 SPIN=   0.00000
   P  -0.0853138   0.2205668  -0.2917946 SPIN=   0.00000
   O   0.5000000  -0.5000000   0.0000000 SPIN=   0.00000
   O  -0.5000000  -0.5000000   0.5000000 SPIN=   0.00000
  Fe   0.2415499  -0.4119645  -0.2252685 SPIN=   4.00000
  Fe  -0.2415499   0.4119645   0.2252685 SPIN=   4.00000
%ENDBLOCK POSITIONS_FRAC

# Note: total spin =   8.00

KPOINTS_MP_SPACING 0.07

%BLOCK SPECIES_POT
QC5
%ENDBLOCK SPECIES_POT

%BLOCK HUBBARD_U
Fe d:4.0
%ENDBLOCK HUBBARD_U

SNAP_TO_SYMMETRY
SYMMETRY_GENERATE

