#              Generated by Buildcell
#
# at 11:01:57 (GMT+0.0) 26th November 2020
# in /lustre/scratch/uccabz1/launch_tmp
# on node-c12j-020
# by uccabz1
#
# compiler GCC version 4.9.2
# options -cpp -iprefix /lustre/shared/ucl/apps/gcc/4.9.2/bin/../lib/gcc/x86_64-unknown-linux-gnu/4.9.2/ -mtune=corei7 -march=x86-64 -g -Og
#
# seed  -447874779   509768392 -1028458825  -226019966  1971876878  -501352755 -1618003780  1320666110  1436744152  1178338965  1942230551  1083473466
#
#      Author: C. J. Pickard (cjp20@cam.ac.uk)
#                Space group: P2
#

%BLOCK LATTICE_ABC
      5.84293      7.22746      7.60952
     90.00000     95.24706     90.00000
%ENDBLOCK LATTICE_ABC

%BLOCK POSITIONS_FRAC
  Li  -0.0000000   0.2500693   0.0000000 SPIN=   0.00000
  Li  -0.5000000   0.4139394  -0.5000000 SPIN=   0.00000
  Li   0.0000000   0.2938001  -0.5000000 SPIN=   0.00000
  Li  -0.5000000   0.4044589  -0.0000000 SPIN=   0.00000
   O  -0.6500946  -0.4032182  -0.2537864 SPIN=   0.00000
   O  -0.2257236  -0.5143770  -0.2124826 SPIN=   0.00000
   O  -0.3214131  -0.2474879  -0.4082764 SPIN=   0.00000
   O  -0.3307094  -0.2114585  -0.0816808 SPIN=   0.00000
   P  -0.3956555  -0.3457155  -0.2379836 SPIN=   0.00000
   O   0.6500946  -0.4032182   0.2537864 SPIN=   0.00000
   O   0.2257236  -0.5143770   0.2124826 SPIN=   0.00000
   O   0.3214131  -0.2474879   0.4082764 SPIN=   0.00000
   O   0.3307094  -0.2114585   0.0816808 SPIN=   0.00000
   P   0.3956555  -0.3457155   0.2379836 SPIN=   0.00000
   O   0.0903756   0.1701836   0.2634862 SPIN=   0.00000
   O  -0.3014968   0.0693669   0.1032322 SPIN=   0.00000
   O  -0.0424775  -0.1725305   0.2369544 SPIN=   0.00000
   O  -0.2397232   0.0427478   0.4322895 SPIN=   0.00000
   P  -0.1133253   0.0352229   0.2612750 SPIN=   0.00000
   O  -0.0903756   0.1701836  -0.2634862 SPIN=   0.00000
   O   0.3014968   0.0693669  -0.1032322 SPIN=   0.00000
   O   0.0424775  -0.1725305  -0.2369544 SPIN=   0.00000
   O   0.2397232   0.0427478  -0.4322895 SPIN=   0.00000
   P   0.1133253   0.0352229  -0.2612750 SPIN=   0.00000
  Fe   0.4084339   0.0462874   0.2489749 SPIN=   2.05055
  Fe  -0.4084339   0.0462874  -0.2489749 SPIN=   2.05055
  Fe   0.0000000  -0.3057230   0.0000000 SPIN=   4.76245
  Fe  -0.0000000  -0.2598236   0.5000000 SPIN=   7.13645
%ENDBLOCK POSITIONS_FRAC

# Note: total spin =  16.00

KPOINTS_MP_SPACING 0.07

%BLOCK SPECIES_POT
QC5
%ENDBLOCK SPECIES_POT

%BLOCK HUBBARD_U
Fe d:4.0
%ENDBLOCK HUBBARD_U

SNAP_TO_SYMMETRY
SYMMETRY_GENERATE

