#              Generated by Buildcell
#
# at 12:10:17 (GMT+0.0) 24th November 2020
# in /scratch/scratch/uccabz1/launch_tmp
# on node-a14f-030
# by uccabz1
#
# compiler GCC version 4.9.2
# options -cpp -iprefix /scratch/UCL/applications/gcc/4.9.2/bin/../lib/gcc/x86_64-unknown-linux-gnu/4.9.2/ -mtune=corei7 -march=x86-64 -g -O2
#
# seed  1654049688 -1183529044  -706639741   798131842  -527643177  1974873274  1342020539  2019574209  1942066183 -1336442501   921803299    -3674527
#
#      Author: C. J. Pickard (cjp20@cam.ac.uk)
#                Space group: Cc
#

%BLOCK LATTICE_ABC
      4.87816      5.82906      6.84502
    106.08130    100.28466    114.68039
%ENDBLOCK LATTICE_ABC

%BLOCK POSITIONS_FRAC
  Li  -0.2641891  -0.3075091   0.3420880 SPIN=   0.00000
  Li  -0.6062771  -0.1495971  -0.3420880 SPIN=   0.00000
   O  -0.3314334   0.1498228   0.0068083 SPIN=   0.00000
   O   0.1066424   0.5969500   0.3319590 SPIN=   0.00000
   O  -0.0025923   0.1514817   0.3510341 SPIN=   0.00000
   O   0.2706839   0.3016114   0.0967133 SPIN=   0.00000
   P  -0.0043318   0.2919915   0.1853426 SPIN=   0.00000
   O  -0.3382418  -0.3569855  -0.0068083 SPIN=   0.00000
   O  -0.2253166  -0.2350090  -0.3319590 SPIN=   0.00000
   O  -0.3536264  -0.6995524  -0.3510341 SPIN=   0.00000
   O   0.1739707  -0.2951019  -0.0967133 SPIN=   0.00000
   P  -0.1896744  -0.3933510  -0.1853426 SPIN=   0.00000
  Fe   0.3671680   0.0212438   0.2116570 SPIN=   4.00000
  Fe   0.1555110   0.3095868  -0.2116570 SPIN=   4.00000
%ENDBLOCK POSITIONS_FRAC

# Note: total spin =   8.00

KPOINTS_MP_SPACING 0.07

%BLOCK SPECIES_POT
QC5
%ENDBLOCK SPECIES_POT

%BLOCK HUBBARD_U
Fe d:4.0
%ENDBLOCK HUBBARD_U

SNAP_TO_SYMMETRY
SYMMETRY_GENERATE

