#              Generated by Buildcell
#
# at 15:06:25 (GMT+0.0) 26th November 2020
# in /lustre/scratch/uccabz1/launch_tmp
# on node-c12e-023
# by uccabz1
#
# compiler GCC version 4.9.2
# options -cpp -iprefix /lustre/shared/ucl/apps/gcc/4.9.2/bin/../lib/gcc/x86_64-unknown-linux-gnu/4.9.2/ -mtune=corei7 -march=x86-64 -g -Og
#
# seed -1020597406 -1698611324  2053320218 -1073648636   889174431  -504530116  1602864643   674444074 -1939495876  2021748963   -33216152   -43651852
#
#      Author: C. J. Pickard (cjp20@cam.ac.uk)
#                Space group: P-1
#

%BLOCK LATTICE_ABC
      6.45980      7.31769      7.56986
    108.74954    101.44790    100.63029
%ENDBLOCK LATTICE_ABC

%BLOCK POSITIONS_FRAC
  Li   0.3668457  -0.2499163  -0.0766821 SPIN=   0.00000
  Li  -0.3668457   0.2499163   0.0766821 SPIN=   0.00000
  Li  -0.2784440  -0.4680828  -0.1331834 SPIN=   0.00000
  Li   0.2784440   0.4680828   0.1331834 SPIN=   0.00000
   O   0.5281220   0.1606469   0.4755786 SPIN=   0.00000
   O   0.3422797   0.0871418   0.1135244 SPIN=   0.00000
   O   0.1752474   0.2622466   0.3616266 SPIN=   0.00000
   O   0.5323386   0.4411633   0.3377121 SPIN=   0.00000
   P   0.4032385   0.2360916   0.3304659 SPIN=   0.00000
   O  -0.5281220  -0.1606469  -0.4755786 SPIN=   0.00000
   O  -0.3422797  -0.0871418  -0.1135244 SPIN=   0.00000
   O  -0.1752474  -0.2622466  -0.3616266 SPIN=   0.00000
   O  -0.5323386  -0.4411633  -0.3377121 SPIN=   0.00000
   P  -0.4032385  -0.2360916  -0.3304659 SPIN=   0.00000
   O   0.0832974  -0.1524914   0.4699356 SPIN=   0.00000
   O  -0.1202086  -0.2079854   0.1167792 SPIN=   0.00000
   O   0.2663349  -0.2191239   0.1875853 SPIN=   0.00000
   O  -0.0235333  -0.4970659   0.1897579 SPIN=   0.00000
   P   0.0522819  -0.2656437   0.2525985 SPIN=   0.00000
   O  -0.0832974   0.1524914  -0.4699356 SPIN=   0.00000
   O   0.1202086   0.2079854  -0.1167792 SPIN=   0.00000
   O  -0.2663349   0.2191239  -0.1875853 SPIN=   0.00000
   O   0.0235333   0.4970659  -0.1897579 SPIN=   0.00000
   P  -0.0522819   0.2656437  -0.2525985 SPIN=   0.00000
  Fe  -0.3079148  -0.1256990   0.3598097 SPIN=   3.43679
  Fe   0.3079148   0.1256990  -0.3598097 SPIN=   3.43679
  Fe   0.0000000  -0.0000000   0.0000000 SPIN=   1.54942
  Fe   0.0000000  -0.5000000   0.5000000 SPIN=   7.57700
%ENDBLOCK POSITIONS_FRAC

# Note: total spin =  16.00

KPOINTS_MP_SPACING 0.07

%BLOCK SPECIES_POT
QC5
%ENDBLOCK SPECIES_POT

%BLOCK HUBBARD_U
Fe d:4.0
%ENDBLOCK HUBBARD_U

SNAP_TO_SYMMETRY
SYMMETRY_GENERATE

