#              Generated by Buildcell
#
# at 10:56:18 (GMT+0.0) 24th November 2020
# in /scratch/scratch/uccabz1/launch_tmp
# on node-k10b-024
# by uccabz1
#
# compiler GCC version 4.9.2
# options -cpp -iprefix /scratch/UCL/applications/gcc/4.9.2/bin/../lib/gcc/x86_64-unknown-linux-gnu/4.9.2/ -mtune=corei7 -march=x86-64 -g -O2
#
# seed  -684957086 -1671333834   977815965   396980112 -1331319707  -811416937  -310317598  -687069070   272632357  -136326186 -1561496474  1717882044
#
#      Author: C. J. Pickard (cjp20@cam.ac.uk)
#                Space group: Aea2
#

%BLOCK LATTICE_ABC
      5.24114      5.79193      5.88626
     90.00000    116.43620     90.00000
%ENDBLOCK LATTICE_ABC

%BLOCK POSITIONS_FRAC
  Li   0.1720972  -0.0000000   0.3441944 SPIN=   0.00000
  Li  -0.3279028   0.5000000   0.3441944 SPIN=   0.00000
   O   0.0401289   0.2815792  -0.0104650 SPIN=   0.00000
   O  -0.4325706   0.2756928  -0.4275050 SPIN=   0.00000
   O  -0.0505939  -0.2815792  -0.0104650 SPIN=   0.00000
   O   0.0050656  -0.2756928  -0.4275050 SPIN=   0.00000
   O   0.4494061  -0.2184208  -0.0104650 SPIN=   0.00000
   O   0.5050656  -0.2243072  -0.4275050 SPIN=   0.00000
   O   0.5401289   0.2184208  -0.0104650 SPIN=   0.00000
   O   0.0674294   0.2243072  -0.4275050 SPIN=   0.00000
   P  -0.4246193  -0.0000000   0.1507613 SPIN=   0.00000
   P   0.0753807   0.5000000   0.1507613 SPIN=   0.00000
  Fe  -0.1394234  -0.0000000  -0.2788468 SPIN=   4.00000
  Fe   0.3605766   0.5000000  -0.2788468 SPIN=   4.00000
%ENDBLOCK POSITIONS_FRAC

# Note: total spin =   8.00

KPOINTS_MP_SPACING 0.07

%BLOCK SPECIES_POT
QC5
%ENDBLOCK SPECIES_POT

%BLOCK HUBBARD_U
Fe d:4.0
%ENDBLOCK HUBBARD_U

SNAP_TO_SYMMETRY
SYMMETRY_GENERATE

