#              Generated by Buildcell
#
# at 13:31:52 (GMT+0.0) 24th November 2020
# in /lustre/scratch/uccabz1/launch_tmp
# on node-c12l-030
# by uccabz1
#
# compiler GCC version 4.9.2
# options -cpp -iprefix /lustre/shared/ucl/apps/gcc/4.9.2/bin/../lib/gcc/x86_64-unknown-linux-gnu/4.9.2/ -mtune=corei7 -march=x86-64 -g -Og
#
# seed -1219356500   -60103397  1584545129  1355101955  1639621612   937611184  1170196354  1513577889   245127380  -527709566  1437938736 -1007459155
#
#      Author: C. J. Pickard (cjp20@cam.ac.uk)
#                Space group: Cm
#

%BLOCK LATTICE_ABC
      4.16019      6.22096      6.22096
     85.77929     86.48325     86.48325
%ENDBLOCK LATTICE_ABC

%BLOCK POSITIONS_FRAC
  Li   0.0700690   0.0435072  -0.3238232 SPIN=   0.00000
  Li   0.0700690  -0.3238232   0.0435072 SPIN=   0.00000
   O   0.0139028   0.2357492  -0.0546442 SPIN=   0.00000
   O  -0.3789375   0.3009589  -0.3648546 SPIN=   0.00000
   O  -0.5303276   0.4620269  -0.0190984 SPIN=   0.00000
   P  -0.2276024   0.3956065  -0.1689092 SPIN=   0.00000
   O   0.0139028  -0.0546442   0.2357492 SPIN=   0.00000
   O  -0.3789375  -0.3648546   0.3009589 SPIN=   0.00000
   O  -0.5303276  -0.0190984   0.4620269 SPIN=   0.00000
   P  -0.2276024  -0.1689092   0.3956065 SPIN=   0.00000
   O  -0.1169573  -0.2808771  -0.2808771 SPIN=   0.00000
   O   0.3977226  -0.1051787  -0.1051787 SPIN=   0.00000
  Fe   0.4073083   0.1247709   0.1247709 SPIN=   1.94849
  Fe   0.2818432  -0.4512289  -0.4512289 SPIN=   6.05151
%ENDBLOCK POSITIONS_FRAC

# Note: total spin =   8.00

KPOINTS_MP_SPACING 0.07

%BLOCK SPECIES_POT
QC5
%ENDBLOCK SPECIES_POT

%BLOCK HUBBARD_U
Fe d:4.0
%ENDBLOCK HUBBARD_U

SNAP_TO_SYMMETRY
SYMMETRY_GENERATE

