#              Generated by Buildcell
#
# at 14:15:01 (GMT+0.0) 24th November 2020
# in /lustre/scratch/uccabz1/launch_tmp
# on node-c12c-023
# by uccabz1
#
# compiler GCC version 4.9.2
# options -cpp -iprefix /lustre/shared/ucl/apps/gcc/4.9.2/bin/../lib/gcc/x86_64-unknown-linux-gnu/4.9.2/ -mtune=corei7 -march=x86-64 -g -Og
#
# seed  1423309018  -767715261  -829495580   929401750  1531575055  1353587452  1292713255 -1790956250  1377805344    -9809122   819147709 -1406801494
#
#      Author: C. J. Pickard (cjp20@cam.ac.uk)
#                Space group: Cm
#

%BLOCK LATTICE_ABC
      5.13826      6.16904      6.30583
    115.21335    109.36509     98.91866
%ENDBLOCK LATTICE_ABC

%BLOCK POSITIONS_FRAC
  Li  -0.0782527  -0.4654313   0.0000000 SPIN=   0.00000
  Li   0.0476797   0.0691298  -0.0000000 SPIN=   0.00000
   O   0.0949178   0.0102028   0.3189719 SPIN=   0.00000
   O   0.4652790   0.4190480   0.7605088 SPIN=   0.00000
   O  -0.0048499   0.2010361   0.7269990 SPIN=   0.00000
   O   0.3787141  -0.0051060   0.7327043 SPIN=   0.00000
   P   0.2278492   0.1466118   0.6191354 SPIN=   0.00000
   O  -0.2240541  -0.3087691  -0.3189719 SPIN=   0.00000
   O  -0.2952298  -0.3414609  -0.7605088 SPIN=   0.00000
   O  -0.7318489  -0.5259629  -0.7269990 SPIN=   0.00000
   O  -0.3539901  -0.7378103  -0.7327043 SPIN=   0.00000
   P  -0.3912862  -0.4725236  -0.6191354 SPIN=   0.00000
  Fe  -0.3996547  -0.0094892   0.3803867 SPIN=   4.00000
  Fe  -0.7800414  -0.3898759  -0.3803867 SPIN=   4.00000
%ENDBLOCK POSITIONS_FRAC

# Note: total spin =   8.00

KPOINTS_MP_SPACING 0.07

%BLOCK SPECIES_POT
QC5
%ENDBLOCK SPECIES_POT

%BLOCK HUBBARD_U
Fe d:4.0
%ENDBLOCK HUBBARD_U

SNAP_TO_SYMMETRY
SYMMETRY_GENERATE

