#              Generated by Buildcell
#
# at 07:20:26 (GMT+0.0) 24th November 2020
# in /lustre/scratch/uccabz1/launch_tmp
# on node-c12a-034
# by uccabz1
#
# compiler GCC version 4.9.2
# options -cpp -iprefix /lustre/shared/ucl/apps/gcc/4.9.2/bin/../lib/gcc/x86_64-unknown-linux-gnu/4.9.2/ -mtune=corei7 -march=x86-64 -g -Og
#
# seed   125875388  -133296894  -461763849  1845540513   240087931 -1807043880  1333285454 -1338912625  -929087388   -25250776  1420854442   707666056
#
#      Author: C. J. Pickard (cjp20@cam.ac.uk)
#                Space group: Iba2
#

%BLOCK LATTICE_ABC
      5.43535      5.54373      6.57758
    114.92372    114.40426     90.00000
%ENDBLOCK LATTICE_ABC

%BLOCK POSITIONS_FRAC
  Li  -0.2278358  -0.2278358  -0.4556717 SPIN=   0.00000
  Li   0.2721642   0.2721642   0.5443283 SPIN=   0.00000
   O  -0.0580686   0.4420217  -0.6114830 SPIN=   0.00000
   O   0.1360361   0.4437670  -0.1774934 SPIN=   0.00000
   O  -0.5534144  -0.0535047  -0.6114830 SPIN=   0.00000
   O  -0.3135295   0.3787396  -0.1774934 SPIN=   0.00000
   O  -0.0534144  -0.0579783  -0.6114830 SPIN=   0.00000
   O   0.1864705  -0.0562330  -0.1774934 SPIN=   0.00000
   O  -0.5580686  -0.5535047  -0.6114830 SPIN=   0.00000
   O  -0.3639639  -0.1212604  -0.1774934 SPIN=   0.00000
   P   0.0214659   0.0214659   0.0429317 SPIN=   0.00000
   P  -0.4785341  -0.4785341  -0.9570683 SPIN=   0.00000
  Fe   0.0981088  -0.4018912   0.1962176 SPIN=   4.00000
  Fe  -0.4018912   0.0981088  -0.8037824 SPIN=   4.00000
%ENDBLOCK POSITIONS_FRAC

# Note: total spin =   8.00

KPOINTS_MP_SPACING 0.07

%BLOCK SPECIES_POT
QC5
%ENDBLOCK SPECIES_POT

%BLOCK HUBBARD_U
Fe d:4.0
%ENDBLOCK HUBBARD_U

SNAP_TO_SYMMETRY
SYMMETRY_GENERATE

