#              Generated by Buildcell
#
# at 20:35:09 (GMT+0.0) 26th November 2020
# in /lustre/scratch/uccabz1/launch_tmp
# on node-c12a-036
# by uccabz1
#
# compiler GCC version 4.9.2
# options -cpp -iprefix /lustre/shared/ucl/apps/gcc/4.9.2/bin/../lib/gcc/x86_64-unknown-linux-gnu/4.9.2/ -mtune=corei7 -march=x86-64 -g -Og
#
# seed -1197605153 -1572946980 -1574288088   904854692   642501187  1675371679  -893143218 -1437382735  1968721114   409330878  -147600071  1355592882
#
#      Author: C. J. Pickard (cjp20@cam.ac.uk)
#                Space group: C2
#

%BLOCK LATTICE_ABC
      4.57130      5.02908     15.63225
     91.30463     90.00000    117.03191
%ENDBLOCK LATTICE_ABC

%BLOCK POSITIONS_FRAC
  Li   0.1450429   0.6332235  -0.4339948 SPIN=   0.00000
  Li  -0.4881806  -0.6332235   0.4339948 SPIN=   0.00000
  Li  -0.1701038   0.0000000  -0.5000000 SPIN=   0.00000
  Li  -0.1096877   0.0000000   0.0000000 SPIN=   0.00000
   O   0.2443898   0.2912706   0.3128645 SPIN=   0.00000
   O  -0.2129373  -0.2417727   0.2744503 SPIN=   0.00000
   O  -0.3363392   0.0654767   0.3799278 SPIN=   0.00000
   O  -0.2734234   0.2016498   0.2255496 SPIN=   0.00000
   P  -0.1253875   0.0918957   0.2981216 SPIN=   0.00000
   O  -0.0468808  -0.2912706  -0.3128645 SPIN=   0.00000
   O   0.0288354   0.2417727  -0.2744503 SPIN=   0.00000
   O  -0.4018159  -0.0654767  -0.3799278 SPIN=   0.00000
   O  -0.4750732  -0.2016498  -0.2255496 SPIN=   0.00000
   P  -0.2172831  -0.0918957  -0.2981216 SPIN=   0.00000
   O   0.5289937   0.0293724   0.0782804 SPIN=   0.00000
   O   0.0770783  -0.5110729   0.0455276 SPIN=   0.00000
   O   0.2557688  -0.3631052   0.1957134 SPIN=   0.00000
   O  -0.0746835  -0.1499024   0.1224369 SPIN=   0.00000
   P   0.2112739  -0.2327066   0.1089156 SPIN=   0.00000
   O   0.4996213  -0.0293724  -0.0782804 SPIN=   0.00000
   O   0.5881512   0.5110729  -0.0455276 SPIN=   0.00000
   O   0.6188740   0.3631052  -0.1957134 SPIN=   0.00000
   O   0.0752189   0.1499024  -0.1224369 SPIN=   0.00000
   P   0.4439805   0.2327066  -0.1089156 SPIN=   0.00000
  Fe   0.4662335   0.2741715  -0.3255166 SPIN=   3.68758
  Fe   0.1920620  -0.2741715   0.3255166 SPIN=   3.68758
  Fe   0.1241919   0.6016683  -0.1421566 SPIN=   4.31242
  Fe  -0.4774763  -0.6016683   0.1421566 SPIN=   4.31242
%ENDBLOCK POSITIONS_FRAC

# Note: total spin =  16.00

KPOINTS_MP_SPACING 0.07

%BLOCK SPECIES_POT
QC5
%ENDBLOCK SPECIES_POT

%BLOCK HUBBARD_U
Fe d:4.0
%ENDBLOCK HUBBARD_U

SNAP_TO_SYMMETRY
SYMMETRY_GENERATE

