#              Generated by Buildcell
#
# at 19:48:29 (GMT+0.0) 26th November 2020
# in /scratch/scratch/uccabz1/launch_tmp
# on node-a14c-005
# by uccabz1
#
# compiler GCC version 4.9.2
# options -cpp -iprefix /scratch/UCL/applications/gcc/4.9.2/bin/../lib/gcc/x86_64-unknown-linux-gnu/4.9.2/ -mtune=corei7 -march=x86-64 -g -O2
#
# seed -1487330714 -1261950767 -1841939716   292321306  -923667572 -1327305490   376136506  2069914254  -971496068   803533235   726685598  -772467349
#
#      Author: C. J. Pickard (cjp20@cam.ac.uk)
#                Space group: Pna21
#

%BLOCK LATTICE_ABC
      4.29625      7.08176     10.51766
     90.00000     90.00000     90.00000
%ENDBLOCK LATTICE_ABC

%BLOCK POSITIONS_FRAC
  Li   0.2242011  -0.4005269  -0.0937140 SPIN=   0.00000
  Li  -0.2242011   0.0994731   0.0937140 SPIN=   0.00000
  Li   0.2757989  -0.4005269   0.4062860 SPIN=   0.00000
  Li  -0.2757989   0.0994731  -0.4062860 SPIN=   0.00000
   O   0.4435680   0.3427115  -0.0460420 SPIN=   0.00000
   O   0.4203204   0.4554692   0.1888289 SPIN=   0.00000
   O  -0.0743331   0.3912400   0.0772333 SPIN=   0.00000
   O   0.2742356   0.1219537   0.1367987 SPIN=   0.00000
   P   0.2755030   0.3262055   0.0825652 SPIN=   0.00000
   O  -0.4435680  -0.1572885   0.0460420 SPIN=   0.00000
   O  -0.4203204  -0.0445308  -0.1888289 SPIN=   0.00000
   O   0.0743331  -0.1087600  -0.0772333 SPIN=   0.00000
   O  -0.2742356  -0.3780463  -0.1367987 SPIN=   0.00000
   P  -0.2755030  -0.1737945  -0.0825652 SPIN=   0.00000
   O   0.0564320   0.3427115  -0.5460420 SPIN=   0.00000
   O   0.0796796   0.4554692  -0.3111711 SPIN=   0.00000
   O   0.5743331   0.3912400  -0.4227667 SPIN=   0.00000
   O   0.2257644   0.1219537  -0.3632013 SPIN=   0.00000
   P   0.2244970   0.3262055  -0.4174348 SPIN=   0.00000
   O  -0.0564320  -0.1572885   0.5460420 SPIN=   0.00000
   O  -0.0796796  -0.0445308   0.3111711 SPIN=   0.00000
   O  -0.5743331  -0.1087600   0.4227667 SPIN=   0.00000
   O  -0.2257644  -0.3780463   0.3632013 SPIN=   0.00000
   P  -0.2244970  -0.1737945   0.4174348 SPIN=   0.00000
  Fe  -0.2094111  -0.3549453   0.1642866 SPIN=   4.00000
  Fe   0.2094111   0.1450547  -0.1642866 SPIN=   4.00000
  Fe  -0.2905889  -0.3549453  -0.3357134 SPIN=   4.00000
  Fe   0.2905889   0.1450547   0.3357134 SPIN=   4.00000
%ENDBLOCK POSITIONS_FRAC

# Note: total spin =  16.00

KPOINTS_MP_SPACING 0.07

%BLOCK SPECIES_POT
QC5
%ENDBLOCK SPECIES_POT

%BLOCK HUBBARD_U
Fe d:4.0
%ENDBLOCK HUBBARD_U

SNAP_TO_SYMMETRY
SYMMETRY_GENERATE

