#              Generated by Buildcell
#
# at 08:17:13 (GMT+0.0) 24th November 2020
# in /lustre/scratch/uccabz1/launch_tmp
# on node-c12n-026
# by uccabz1
#
# compiler GCC version 4.9.2
# options -cpp -iprefix /lustre/shared/ucl/apps/gcc/4.9.2/bin/../lib/gcc/x86_64-unknown-linux-gnu/4.9.2/ -mtune=corei7 -march=x86-64 -g -Og
#
# seed  1248336467 -1939428295   970350105 -1060137575  1660590536  -678950058  2074171954   138912310  -160980622     6991020  1286969291  -496874219
#
#      Author: C. J. Pickard (cjp20@cam.ac.uk)
#                Space group: P21/c
#

%BLOCK LATTICE_ABC
      5.35734      5.52302      5.69012
    108.13469     90.00000     90.00000
%ENDBLOCK LATTICE_ABC

%BLOCK POSITIONS_FRAC
  Li   0.0000000  -0.0000000   0.0000000 SPIN=   0.00000
  Li  -0.5000000   0.5000000   0.0000000 SPIN=   0.00000
   O  -0.3512199  -0.3210428   0.5777324 SPIN=   0.00000
   O  -0.1975612  -0.6432502   0.1654085 SPIN=   0.00000
   O   0.1487801  -0.1789572  -0.5777324 SPIN=   0.00000
   O   0.3024388   0.1432502  -0.1654085 SPIN=   0.00000
   O   0.3512199   0.3210428  -0.5777324 SPIN=   0.00000
   O   0.1975612   0.6432502  -0.1654085 SPIN=   0.00000
   O  -0.1487801   0.1789572   0.5777324 SPIN=   0.00000
   O  -0.3024388  -0.1432502   0.1654085 SPIN=   0.00000
   P  -0.5000000  -0.0000000  -0.0000000 SPIN=   0.00000
   P   0.0000000   0.5000000   0.0000000 SPIN=   0.00000
  Fe   0.0000000   0.5000000   0.5000000 SPIN=   4.00000
  Fe  -0.5000000  -0.0000000   0.5000000 SPIN=   4.00000
%ENDBLOCK POSITIONS_FRAC

# Note: total spin =   8.00

KPOINTS_MP_SPACING 0.07

%BLOCK SPECIES_POT
QC5
%ENDBLOCK SPECIES_POT

%BLOCK HUBBARD_U
Fe d:4.0
%ENDBLOCK HUBBARD_U

SNAP_TO_SYMMETRY
SYMMETRY_GENERATE

