#              Generated by Buildcell
#
# at 13:57:14 (GMT+0.0) 24th November 2020
# in /scratch/scratch/uccabz1/launch_tmp
# on node-a14e-012
# by uccabz1
#
# compiler GCC version 4.9.2
# options -cpp -iprefix /scratch/UCL/applications/gcc/4.9.2/bin/../lib/gcc/x86_64-unknown-linux-gnu/4.9.2/ -mtune=corei7 -march=x86-64 -g -O2
#
# seed  1449375905  1417337912  1219818703  1750933801  1971716893   -99653430   710367554 -1607629288  -531149918  -255626113  1238211175   196672359
#
#      Author: C. J. Pickard (cjp20@cam.ac.uk)
#                Space group: Pc
#

%BLOCK LATTICE_ABC
      5.63346      5.68286      5.70108
     90.00000     90.00000    118.76034
%ENDBLOCK LATTICE_ABC

%BLOCK POSITIONS_FRAC
  Li  -0.1863502   0.1829052   0.2354400 SPIN=   0.00000
  Li  -0.1863502  -0.3170948  -0.2354400 SPIN=   0.00000
   O   0.1288390   0.4729275  -0.5574478 SPIN=   0.00000
   O   0.3986959   0.3982002  -0.2229204 SPIN=   0.00000
   O   0.1601027   0.6559583  -0.1345303 SPIN=   0.00000
   O  -0.1079944   0.1608793  -0.2056095 SPIN=   0.00000
   P   0.1410705   0.4216220  -0.2940136 SPIN=   0.00000
   O   0.1288390  -0.0270725   0.5574478 SPIN=   0.00000
   O   0.3986959  -0.1017998   0.2229204 SPIN=   0.00000
   O   0.1601027   0.1559583   0.1345303 SPIN=   0.00000
   O  -0.1079944  -0.3391207   0.2056095 SPIN=   0.00000
   P   0.1410705  -0.0783780   0.2940136 SPIN=   0.00000
  Fe   0.4774005   0.0226513  -0.2640821 SPIN=   4.00000
  Fe  -0.5225995  -0.4773487   0.2640821 SPIN=   4.00000
%ENDBLOCK POSITIONS_FRAC

# Note: total spin =   8.00

KPOINTS_MP_SPACING 0.07

%BLOCK SPECIES_POT
QC5
%ENDBLOCK SPECIES_POT

%BLOCK HUBBARD_U
Fe d:4.0
%ENDBLOCK HUBBARD_U

SNAP_TO_SYMMETRY
SYMMETRY_GENERATE

