#              Generated by Buildcell
#
# at 11:00:49 (GMT+0.0) 26th November 2020
# in /scratch/scratch/uccabz1/launch_tmp
# on node-k10b-011
# by uccabz1
#
# compiler GCC version 4.9.2
# options -cpp -iprefix /scratch/UCL/applications/gcc/4.9.2/bin/../lib/gcc/x86_64-unknown-linux-gnu/4.9.2/ -mtune=corei7 -march=x86-64 -g -O2
#
# seed   814938584 -1578645520 -1024423069  1898683362  1346321290  1434050923  1334600610   703392094 -1744936893    59459764   203480392  1479376428
#
#      Author: C. J. Pickard (cjp20@cam.ac.uk)
#                Space group: C2
#

%BLOCK LATTICE_ABC
      5.84844      6.77747      8.68077
     98.45483    109.68580     90.00000
%ENDBLOCK LATTICE_ABC

%BLOCK POSITIONS_FRAC
  Li  -0.4151303   0.2933962   0.0503624 SPIN=   0.00000
  Li  -0.4654927  -0.2933962  -0.0503624 SPIN=   0.00000
  Li   0.0416864   0.2133302  -0.0360097 SPIN=   0.00000
  Li   0.0776961  -0.2133302   0.0360097 SPIN=   0.00000
   O   0.2674689  -0.1988429   0.2919309 SPIN=   0.00000
   O   0.6513752   0.0340030   0.4566915 SPIN=   0.00000
   O   0.4869067   0.0138116   0.1524622 SPIN=   0.00000
   O   0.2561341   0.1856851   0.3250386 SPIN=   0.00000
   P   0.4057105  -0.0002955   0.3059719 SPIN=   0.00000
   O  -0.0244619   0.1988429  -0.2919309 SPIN=   0.00000
   O   0.1946837  -0.0340030  -0.4566915 SPIN=   0.00000
   O   0.3344444  -0.0138116  -0.1524622 SPIN=   0.00000
   O  -0.0689045  -0.1856851  -0.3250386 SPIN=   0.00000
   P   0.0997386   0.0002955  -0.3059719 SPIN=   0.00000
   O  -0.1476421  -0.3912852   0.1478492 SPIN=   0.00000
   O   0.1121439  -0.3979902   0.4556378 SPIN=   0.00000
   O  -0.3228491  -0.3301798   0.3879323 SPIN=   0.00000
   O  -0.2038171  -0.6735209   0.3041539 SPIN=   0.00000
   P  -0.1416659  -0.4478698   0.3142869 SPIN=   0.00000
   O  -0.2954913   0.3912852  -0.1478492 SPIN=   0.00000
   O  -0.3434938   0.3979902  -0.4556378 SPIN=   0.00000
   O  -0.7107815   0.3301798  -0.3879323 SPIN=   0.00000
   O  -0.5079710   0.6735209  -0.3041539 SPIN=   0.00000
   P  -0.4559527   0.4478698  -0.3142869 SPIN=   0.00000
  Fe  -0.4273766  -0.0294702  -0.3363505 SPIN=   3.88726
  Fe  -0.0910260   0.0294702   0.3363505 SPIN=   3.88726
  Fe   0.0176495  -0.4868852  -0.3338411 SPIN=   4.11274
  Fe   0.3514905   0.4868852   0.3338411 SPIN=   4.11274
%ENDBLOCK POSITIONS_FRAC

# Note: total spin =  16.00

KPOINTS_MP_SPACING 0.07

%BLOCK SPECIES_POT
QC5
%ENDBLOCK SPECIES_POT

%BLOCK HUBBARD_U
Fe d:4.0
%ENDBLOCK HUBBARD_U

SNAP_TO_SYMMETRY
SYMMETRY_GENERATE

