#              Generated by Buildcell
#
# at 06:58:33 (GMT+0.0) 24th November 2020
# in /lustre/scratch/uccabz1/launch_tmp
# on node-c12k-030
# by uccabz1
#
# compiler GCC version 4.9.2
# options -cpp -iprefix /lustre/shared/ucl/apps/gcc/4.9.2/bin/../lib/gcc/x86_64-unknown-linux-gnu/4.9.2/ -mtune=corei7 -march=x86-64 -g -Og
#
# seed  1483165782  1502688382 -1529357426  -850946613  -493433318   787459444     -670352  1043000265   227687334   289531509   -86725008 -2053268295
#
#      Author: C. J. Pickard (cjp20@cam.ac.uk)
#                Space group: C2
#

%BLOCK LATTICE_ABC
      4.64507      5.85301      6.91922
     73.21537     70.38708     66.62110
%ENDBLOCK LATTICE_ABC

%BLOCK POSITIONS_FRAC
  Li   0.1401736  -0.2550615  -0.0719509 SPIN=   0.00000
  Li  -0.1868388   0.2550615   0.0719509 SPIN=   0.00000
   O  -0.2182642  -0.6156337  -0.2457396 SPIN=   0.00000
   O  -0.4917436  -0.1388870  -0.3806468 SPIN=   0.00000
   O  -0.3207363  -0.2589312  -0.0532930 SPIN=   0.00000
   O   0.0995658  -0.3010686  -0.3931044 SPIN=   0.00000
   P  -0.2280987  -0.3435864  -0.2684743 SPIN=   0.00000
   O  -0.0796374   0.6156337   0.2457396 SPIN=   0.00000
   O  -0.0112775   0.1388870   0.3806468 SPIN=   0.00000
   O   0.3670395   0.2589312   0.0532930 SPIN=   0.00000
   O   0.4053928   0.3010686   0.3931044 SPIN=   0.00000
   P   0.1598406   0.3435864   0.2684743 SPIN=   0.00000
  Fe   0.4200140  -0.1938144   0.2850552 SPIN=   4.00000
  Fe  -0.4887453   0.1938144  -0.2850552 SPIN=   4.00000
%ENDBLOCK POSITIONS_FRAC

# Note: total spin =   8.00

KPOINTS_MP_SPACING 0.07

%BLOCK SPECIES_POT
QC5
%ENDBLOCK SPECIES_POT

%BLOCK HUBBARD_U
Fe d:4.0
%ENDBLOCK HUBBARD_U

SNAP_TO_SYMMETRY
SYMMETRY_GENERATE

