#              Generated by Buildcell
#
# at 13:34:40 (GMT+0.0) 26th November 2020
# in /lustre/scratch/uccabz1/launch_tmp
# on node-c12g-031
# by uccabz1
#
# compiler GCC version 4.9.2
# options -cpp -iprefix /lustre/shared/ucl/apps/gcc/4.9.2/bin/../lib/gcc/x86_64-unknown-linux-gnu/4.9.2/ -mtune=corei7 -march=x86-64 -g -Og
#
# seed  -622252742  -320968710  -235745148  1284367781  1333923295  2004589233  1576213914 -1490398100 -1224537809 -1190775582 -1601432771  1537857519
#
#      Author: C. J. Pickard (cjp20@cam.ac.uk)
#                Space group: P-1
#

%BLOCK LATTICE_ABC
      6.47958      6.55034      8.20383
     98.93819     92.40986    110.69510
%ENDBLOCK LATTICE_ABC

%BLOCK POSITIONS_FRAC
  Li  -0.0377999  -0.1232032  -0.3519051 SPIN=   0.00000
  Li   0.0377999   0.1232032   0.3519051 SPIN=   0.00000
  Li   0.2864365   0.2985821  -0.1030275 SPIN=   0.00000
  Li  -0.2864365  -0.2985821   0.1030275 SPIN=   0.00000
   O   0.5575848   0.3272882  -0.5242561 SPIN=   0.00000
   O   0.2255978   0.3399915  -0.3615307 SPIN=   0.00000
   O   0.2122916  -0.0228796  -0.5109560 SPIN=   0.00000
   O   0.4789194   0.1652559  -0.2558932 SPIN=   0.00000
   P   0.3799629   0.2086245  -0.4172184 SPIN=   0.00000
   O  -0.5575848  -0.3272882   0.5242561 SPIN=   0.00000
   O  -0.2255978  -0.3399915   0.3615307 SPIN=   0.00000
   O  -0.2122916   0.0228796   0.5109560 SPIN=   0.00000
   O  -0.4789194  -0.1652559   0.2558932 SPIN=   0.00000
   P  -0.3799629  -0.2086245   0.4172184 SPIN=   0.00000
   O   0.2360918  -0.3841226   0.0044094 SPIN=   0.00000
   O   0.3234616   0.0323219  -0.0055438 SPIN=   0.00000
   O  -0.0478679  -0.2381809  -0.1211427 SPIN=   0.00000
   O   0.0549488  -0.1496717   0.1862756 SPIN=   0.00000
   P   0.1456634  -0.1951043   0.0173919 SPIN=   0.00000
   O  -0.2360918   0.3841226  -0.0044094 SPIN=   0.00000
   O  -0.3234616  -0.0323219   0.0055438 SPIN=   0.00000
   O   0.0478679   0.2381809   0.1211427 SPIN=   0.00000
   O  -0.0549488   0.1496717  -0.1862756 SPIN=   0.00000
   P  -0.1456634   0.1951043  -0.0173919 SPIN=   0.00000
  Fe   0.4539958  -0.2125251  -0.2206040 SPIN=   5.91753
  Fe  -0.4539958   0.2125251   0.2206040 SPIN=   5.91753
  Fe  -0.1516431   0.3495681  -0.3261398 SPIN=   2.08247
  Fe   0.1516431  -0.3495681   0.3261398 SPIN=   2.08247
%ENDBLOCK POSITIONS_FRAC

# Note: total spin =  16.00

KPOINTS_MP_SPACING 0.07

%BLOCK SPECIES_POT
QC5
%ENDBLOCK SPECIES_POT

%BLOCK HUBBARD_U
Fe d:4.0
%ENDBLOCK HUBBARD_U

SNAP_TO_SYMMETRY
SYMMETRY_GENERATE

