#              Generated by Buildcell
#
# at 11:12:07 (GMT+0.0) 24th November 2020
# in /lustre/scratch/uccabz1/launch_tmp
# on node-c12i-031
# by uccabz1
#
# compiler GCC version 4.9.2
# options -cpp -iprefix /lustre/shared/ucl/apps/gcc/4.9.2/bin/../lib/gcc/x86_64-unknown-linux-gnu/4.9.2/ -mtune=corei7 -march=x86-64 -g -Og
#
# seed   285729341   -72948481  1418852848 -1590791536 -1731385286  -506142970   670229389   479282495  2094818075  1231016999 -1503719285   477513579
#
#      Author: C. J. Pickard (cjp20@cam.ac.uk)
#                Space group: Cm
#

%BLOCK LATTICE_ABC
      4.43313      6.32207      6.32207
     92.88073    107.12144    107.12144
%ENDBLOCK LATTICE_ABC

%BLOCK POSITIONS_FRAC
  Li   0.4699775  -0.2762287   0.3731012 SPIN=   0.00000
  Li   0.4699775   0.3731012  -0.2762287 SPIN=   0.00000
   O   0.1020701  -0.4387257   0.0643262 SPIN=   0.00000
   O  -0.3520773  -0.2467841   0.0215759 SPIN=   0.00000
   O  -0.4847365  -0.6391269   0.0917847 SPIN=   0.00000
   O  -0.0758912  -0.3330635   0.3981458 SPIN=   0.00000
   P  -0.1849374  -0.4147588   0.1427178 SPIN=   0.00000
   O   0.1020701   0.0643262  -0.4387257 SPIN=   0.00000
   O  -0.3520773   0.0215759  -0.2467841 SPIN=   0.00000
   O  -0.4847365   0.0917847  -0.6391269 SPIN=   0.00000
   O  -0.0758912   0.3981458  -0.3330635 SPIN=   0.00000
   P  -0.1849374   0.1427178  -0.4147588 SPIN=   0.00000
  Fe   0.0124630   0.1926791   0.1926791 SPIN=   1.37224
  Fe   0.1677387  -0.2164089  -0.2164089 SPIN=   6.62776
%ENDBLOCK POSITIONS_FRAC

# Note: total spin =   8.00

KPOINTS_MP_SPACING 0.07

%BLOCK SPECIES_POT
QC5
%ENDBLOCK SPECIES_POT

%BLOCK HUBBARD_U
Fe d:4.0
%ENDBLOCK HUBBARD_U

SNAP_TO_SYMMETRY
SYMMETRY_GENERATE

