#              Generated by Buildcell
#
# at 17:37:52 (GMT+0.0) 26th November 2020
# in /lustre/scratch/uccabz1/launch_tmp
# on node-c12n-021
# by uccabz1
#
# compiler GCC version 4.9.2
# options -cpp -iprefix /lustre/shared/ucl/apps/gcc/4.9.2/bin/../lib/gcc/x86_64-unknown-linux-gnu/4.9.2/ -mtune=corei7 -march=x86-64 -g -Og
#
# seed   976287730 -1027322255 -1171510921  -215607308   290808433 -1995859041   422906277  1200328223  1052178414  1776132017  -895533224  1971084196
#
#      Author: C. J. Pickard (cjp20@cam.ac.uk)
#                Space group: C2
#

%BLOCK LATTICE_ABC
      5.43208      8.33132      8.33132
     63.88066     73.92008     73.92008
%ENDBLOCK LATTICE_ABC

%BLOCK POSITIONS_FRAC
  Li  -0.1165484  -0.2896627  -0.4358413 SPIN=   0.00000
  Li   0.1165484   0.4358413   0.2896627 SPIN=   0.00000
  Li  -0.2390194  -0.0060526   0.1974527 SPIN=   0.00000
  Li   0.2390194  -0.1974527   0.0060526 SPIN=   0.00000
   O   0.0198407  -0.2585714  -0.2389755 SPIN=   0.00000
   O  -0.1307055  -0.0159870  -0.0988284 SPIN=   0.00000
   O  -0.4568837  -0.0860265  -0.2028976 SPIN=   0.00000
   O  -0.2786149  -0.3160338   0.0747929 SPIN=   0.00000
   P  -0.2000592  -0.1756490  -0.1207424 SPIN=   0.00000
   O  -0.0198407   0.2389755   0.2585714 SPIN=   0.00000
   O   0.1307055   0.0988284   0.0159870 SPIN=   0.00000
   O   0.4568837   0.2028976   0.0860265 SPIN=   0.00000
   O   0.2786149  -0.0747929   0.3160338 SPIN=   0.00000
   P   0.2000592   0.1207424   0.1756490 SPIN=   0.00000
   O   0.4726932  -0.2575432  -0.4069682 SPIN=   0.00000
   O   0.2705702  -0.5502499  -0.2549614 SPIN=   0.00000
   O   0.7292357  -0.5781411  -0.2401811 SPIN=   0.00000
   O   0.3731176  -0.4293795  -0.0584641 SPIN=   0.00000
   P   0.4609633  -0.4430887  -0.2468823 SPIN=   0.00000
   O  -0.4726932   0.4069682   0.2575432 SPIN=   0.00000
   O  -0.2705702   0.2549614   0.5502499 SPIN=   0.00000
   O  -0.7292357   0.2401811   0.5781411 SPIN=   0.00000
   O  -0.3731176   0.0584641   0.4293795 SPIN=   0.00000
   P  -0.4609633   0.2468823   0.4430887 SPIN=   0.00000
  Fe  -0.1771774   0.4262427  -0.0036701 SPIN=   4.00510
  Fe   0.1771774   0.0036701  -0.4262427 SPIN=   4.00510
  Fe   0.5000000   0.1808594  -0.1808594 SPIN=   2.85764
  Fe  -0.5000000  -0.3756077   0.3756077 SPIN=   5.13216
%ENDBLOCK POSITIONS_FRAC

# Note: total spin =  16.00

KPOINTS_MP_SPACING 0.07

%BLOCK SPECIES_POT
QC5
%ENDBLOCK SPECIES_POT

%BLOCK HUBBARD_U
Fe d:4.0
%ENDBLOCK HUBBARD_U

SNAP_TO_SYMMETRY
SYMMETRY_GENERATE

