#              Generated by Buildcell
#
# at 00:48:51 (GMT+0.0) 27th November 2020
# in /lustre/scratch/uccabz1/launch_tmp
# on node-c12d-028
# by uccabz1
#
# compiler GCC version 4.9.2
# options -cpp -iprefix /lustre/shared/ucl/apps/gcc/4.9.2/bin/../lib/gcc/x86_64-unknown-linux-gnu/4.9.2/ -mtune=corei7 -march=x86-64 -g -Og
#
# seed   111617109   299687218  1804757214  1605740601 -1089013775  1323981137  1327068567  2118125197 -1552500503   683577554 -1919877122   734624533
#
#      Author: C. J. Pickard (cjp20@cam.ac.uk)
#                Space group: Pca21
#

%BLOCK LATTICE_ABC
      3.85861      5.93672     13.96925
     90.00000     90.00000     90.00000
%ENDBLOCK LATTICE_ABC

%BLOCK POSITIONS_FRAC
  Li   0.4968965  -0.1565334   0.4933202 SPIN=   0.00000
  Li  -0.4968965   0.3434666  -0.4933202 SPIN=   0.00000
  Li  -0.4968965  -0.1565334  -0.0066798 SPIN=   0.00000
  Li   0.4968965   0.3434666   0.0066798 SPIN=   0.00000
   O   0.3134618  -0.6435327   0.1482524 SPIN=   0.00000
   O   0.3017826  -0.2078559   0.1310125 SPIN=   0.00000
   O  -0.0862117  -0.4334470   0.0281230 SPIN=   0.00000
   O  -0.2084818  -0.4044765   0.2037590 SPIN=   0.00000
   P   0.0891551  -0.4338954   0.1297730 SPIN=   0.00000
   O  -0.3134618  -0.1435327  -0.1482524 SPIN=   0.00000
   O  -0.3017826   0.2921441  -0.1310125 SPIN=   0.00000
   O   0.0862117   0.0665530  -0.0281230 SPIN=   0.00000
   O   0.2084818   0.0955235  -0.2037590 SPIN=   0.00000
   P  -0.0891551   0.0661046  -0.1297730 SPIN=   0.00000
   O  -0.3134618  -0.6435327  -0.3517476 SPIN=   0.00000
   O  -0.3017826  -0.2078559  -0.3689875 SPIN=   0.00000
   O   0.0862117  -0.4334470  -0.4718770 SPIN=   0.00000
   O   0.2084818  -0.4044765  -0.2962410 SPIN=   0.00000
   P  -0.0891551  -0.4338954  -0.3702270 SPIN=   0.00000
   O   0.3134618  -0.1435327   0.3517476 SPIN=   0.00000
   O   0.3017826   0.2921441   0.3689875 SPIN=   0.00000
   O  -0.0862117   0.0665530   0.4718770 SPIN=   0.00000
   O  -0.2084818   0.0955235   0.2962410 SPIN=   0.00000
   P   0.0891551   0.0661046   0.3702270 SPIN=   0.00000
  Fe  -0.0054317  -0.4269269   0.3412685 SPIN=   4.00000
  Fe   0.0054317   0.0730731  -0.3412685 SPIN=   4.00000
  Fe   0.0054317  -0.4269269  -0.1587315 SPIN=   4.00000
  Fe  -0.0054317   0.0730731   0.1587315 SPIN=   4.00000
%ENDBLOCK POSITIONS_FRAC

# Note: total spin =  16.00

KPOINTS_MP_SPACING 0.07

%BLOCK SPECIES_POT
QC5
%ENDBLOCK SPECIES_POT

%BLOCK HUBBARD_U
Fe d:4.0
%ENDBLOCK HUBBARD_U

SNAP_TO_SYMMETRY
SYMMETRY_GENERATE

