#              Generated by Buildcell
#
# at 17:21:10 (GMT+0.0) 26th November 2020
# in /scratch/scratch/uccabz1/launch_tmp
# on node-k10a-018
# by uccabz1
#
# compiler GCC version 4.9.2
# options -cpp -iprefix /scratch/UCL/applications/gcc/4.9.2/bin/../lib/gcc/x86_64-unknown-linux-gnu/4.9.2/ -mtune=corei7 -march=x86-64 -g -O2
#
# seed  1832377042 -1652603528  -198281575  1624565082  1603969158  2034860991 -1143411041  -460364613   207919432 -1680943990 -1391972216  1893002156
#
#      Author: C. J. Pickard (cjp20@cam.ac.uk)
#                Space group: C2221
#

%BLOCK LATTICE_ABC
      5.09827      6.10545     11.31367
     90.00000     90.00000    114.67799
%ENDBLOCK LATTICE_ABC

%BLOCK POSITIONS_FRAC
  Li  -0.2703657  -0.0132797  -0.3317484 SPIN=   0.00000
  Li   0.2703657   0.0132797   0.1682516 SPIN=   0.00000
  Li   0.2570860  -0.0132797  -0.1682516 SPIN=   0.00000
  Li  -0.2570860   0.0132797   0.3317484 SPIN=   0.00000
   O   0.1802168  -0.4338133  -0.4206866 SPIN=   0.00000
   O   0.3617962   0.0285233  -0.3917747 SPIN=   0.00000
   O  -0.1415287  -0.2039679  -0.4568898 SPIN=   0.00000
   P   0.1032427  -0.2272841  -0.3804285 SPIN=   0.00000
   O  -0.1802168   0.4338133   0.0793134 SPIN=   0.00000
   O  -0.3617962  -0.0285233   0.1082253 SPIN=   0.00000
   O   0.1415287   0.2039679   0.0431102 SPIN=   0.00000
   P  -0.1032427   0.2272841   0.1195715 SPIN=   0.00000
   O  -0.6140301  -0.4338133  -0.0793134 SPIN=   0.00000
   O  -0.3332729   0.0285233  -0.1082253 SPIN=   0.00000
   O  -0.0624392  -0.2039679  -0.0431102 SPIN=   0.00000
   P  -0.3305268  -0.2272841  -0.1195715 SPIN=   0.00000
   O   0.6140301   0.4338133   0.4206866 SPIN=   0.00000
   O   0.3332729  -0.0285233   0.3917747 SPIN=   0.00000
   O   0.0624392   0.2039679   0.4568898 SPIN=   0.00000
   P   0.3305268   0.2272841   0.3804285 SPIN=   0.00000
   O   0.2275555   0.4551110   0.2500000 SPIN=   0.00000
   O  -0.2275555  -0.4551110  -0.2500000 SPIN=   0.00000
   O  -0.1217553  -0.2435107   0.2500000 SPIN=   0.00000
   O   0.1217553   0.2435107  -0.2500000 SPIN=   0.00000
  Fe   0.4494554   0.3951187  -0.3803425 SPIN=   4.00000
  Fe  -0.4494554  -0.3951187   0.1196575 SPIN=   4.00000
  Fe  -0.0543368   0.3951187  -0.1196575 SPIN=   4.00000
  Fe   0.0543368  -0.3951187   0.3803425 SPIN=   4.00000
%ENDBLOCK POSITIONS_FRAC

# Note: total spin =  16.00

KPOINTS_MP_SPACING 0.07

%BLOCK SPECIES_POT
QC5
%ENDBLOCK SPECIES_POT

%BLOCK HUBBARD_U
Fe d:4.0
%ENDBLOCK HUBBARD_U

SNAP_TO_SYMMETRY
SYMMETRY_GENERATE

