#              Generated by Buildcell
#
# at 12:02:18 (GMT+0.0) 24th November 2020
# in /scratch/scratch/uccabz1/launch_tmp
# on node-a14f-014
# by uccabz1
#
# compiler GCC version 4.9.2
# options -cpp -iprefix /scratch/UCL/applications/gcc/4.9.2/bin/../lib/gcc/x86_64-unknown-linux-gnu/4.9.2/ -mtune=corei7 -march=x86-64 -g -O2
#
# seed  -552680944  -262813478  -801925313   668583673  -533395117  -680577949  -951960868  1615378721  -362066687  -418625395  -363736675  1323762591
#
#      Author: C. J. Pickard (cjp20@cam.ac.uk)
#                Space group: C2
#

%BLOCK LATTICE_ABC
      5.46629      5.46629      6.15177
     69.41923     69.41923     88.78443
%ENDBLOCK LATTICE_ABC

%BLOCK POSITIONS_FRAC
  Li   0.1598311   0.2192881   0.0027886 SPIN=   0.00000
  Li  -0.2192881  -0.1598311  -0.0027886 SPIN=   0.00000
   O   0.1383788   0.1752254   0.6242495 SPIN=   0.00000
   O   0.0775535   0.4635249   0.2134159 SPIN=   0.00000
   O   0.4663990   0.5812421   0.2883988 SPIN=   0.00000
   O   0.4405621   0.1750164   0.1936400 SPIN=   0.00000
   P   0.2750304   0.3374625   0.3439890 SPIN=   0.00000
   O  -0.1752254  -0.1383788  -0.6242495 SPIN=   0.00000
   O  -0.4635249  -0.0775535  -0.2134159 SPIN=   0.00000
   O  -0.5812421  -0.4663990  -0.2883988 SPIN=   0.00000
   O  -0.1750164  -0.4405621  -0.1936400 SPIN=   0.00000
   P  -0.3374625  -0.2750304  -0.3439890 SPIN=   0.00000
  Fe   0.2202651  -0.2202651  -0.5000000 SPIN=   2.00204
  Fe  -0.2836513   0.2836513  -0.5000000 SPIN=   5.99796
%ENDBLOCK POSITIONS_FRAC

# Note: total spin =   8.00

KPOINTS_MP_SPACING 0.07

%BLOCK SPECIES_POT
QC5
%ENDBLOCK SPECIES_POT

%BLOCK HUBBARD_U
Fe d:4.0
%ENDBLOCK HUBBARD_U

SNAP_TO_SYMMETRY
SYMMETRY_GENERATE

