#              Generated by Buildcell
#
# at 09:16:28 (GMT+0.0) 24th November 2020
# in /lustre/scratch/uccabz1/launch_tmp
# on node-c12n-028
# by uccabz1
#
# compiler GCC version 4.9.2
# options -cpp -iprefix /lustre/shared/ucl/apps/gcc/4.9.2/bin/../lib/gcc/x86_64-unknown-linux-gnu/4.9.2/ -mtune=corei7 -march=x86-64 -g -Og
#
# seed  -152564625   205250359 -1083163278   453741919 -1229425988  1998768771  1715576227  -149134094  -517890886  -740814512   927243768   360800297
#
#      Author: C. J. Pickard (cjp20@cam.ac.uk)
#                Space group: P-1
#

%BLOCK LATTICE_ABC
      3.92007      5.23051      8.08187
    100.12870     96.75886     97.59774
%ENDBLOCK LATTICE_ABC

%BLOCK POSITIONS_FRAC
  Li   0.0000000  -0.5000000   0.0000000 SPIN=   0.00000
  Li   0.5000000   0.0000000  -0.0000000 SPIN=   0.00000
   O   0.7549167  -0.0754796   0.3786630 SPIN=   0.00000
   O   0.5001632  -0.5195898   0.1754105 SPIN=   0.00000
   O   0.1926507  -0.3706314   0.4157657 SPIN=   0.00000
   O   0.1832298  -0.1346982   0.1715370 SPIN=   0.00000
   P   0.4235761  -0.2628141   0.2889697 SPIN=   0.00000
   O  -0.7549167   0.0754796  -0.3786630 SPIN=   0.00000
   O  -0.5001632   0.5195898  -0.1754105 SPIN=   0.00000
   O  -0.1926507   0.3706314  -0.4157657 SPIN=   0.00000
   O  -0.1832298   0.1346982  -0.1715370 SPIN=   0.00000
   P  -0.4235761   0.2628141  -0.2889697 SPIN=   0.00000
  Fe  -0.1398425  -0.2189746  -0.3369451 SPIN=   4.00000
  Fe   0.1398425   0.2189746   0.3369451 SPIN=   4.00000
%ENDBLOCK POSITIONS_FRAC

# Note: total spin =   8.00

KPOINTS_MP_SPACING 0.07

%BLOCK SPECIES_POT
QC5
%ENDBLOCK SPECIES_POT

%BLOCK HUBBARD_U
Fe d:4.0
%ENDBLOCK HUBBARD_U

SNAP_TO_SYMMETRY
SYMMETRY_GENERATE

