#              Generated by Buildcell
#
# at 10:51:24 (GMT+0.0) 24th November 2020
# in /scratch/scratch/uccabz1/launch_tmp
# on node-k10c-005
# by uccabz1
#
# compiler GCC version 4.9.2
# options -cpp -iprefix /scratch/UCL/applications/gcc/4.9.2/bin/../lib/gcc/x86_64-unknown-linux-gnu/4.9.2/ -mtune=corei7 -march=x86-64 -g -O2
#
# seed  1160066793  -861264260  -595402558  -913825052   143350708  2131439746  1156042960  -234356201 -1072467326   958649941  1233357961 -2113008811
#
#      Author: C. J. Pickard (cjp20@cam.ac.uk)
#                Space group: P-1
#

%BLOCK LATTICE_ABC
      3.82788      5.65229      7.69211
     74.77915     86.68057     85.63217
%ENDBLOCK LATTICE_ABC

%BLOCK POSITIONS_FRAC
  Li  -0.0181748  -0.0711825   0.2508438 SPIN=   0.00000
  Li   0.0181748   0.0711825  -0.2508438 SPIN=   0.00000
   O  -0.8984862   0.7528277  -0.4530585 SPIN=   0.00000
   O  -0.9546176   0.6999216  -0.1069248 SPIN=   0.00000
   O  -1.4582662   0.8946917  -0.2906220 SPIN=   0.00000
   O  -1.3044411   0.4445123  -0.2450977 SPIN=   0.00000
   O   0.8984862  -0.7528277   0.4530585 SPIN=   0.00000
   O   0.9546176  -0.6999216   0.1069248 SPIN=   0.00000
   O   1.4582662  -0.8946917   0.2906220 SPIN=   0.00000
   O   1.3044411  -0.4445123   0.2450977 SPIN=   0.00000
   P  -0.5000000   0.0000000   0.0000000 SPIN=   0.00000
   P   1.5000000  -1.0000000   0.5000000 SPIN=   0.00000
  Fe  -0.5000000   0.5000000  -0.0000000 SPIN=   3.88123
  Fe   0.5000000  -0.5000000   0.5000000 SPIN=   4.11877
%ENDBLOCK POSITIONS_FRAC

# Note: total spin =   8.00

KPOINTS_MP_SPACING 0.07

%BLOCK SPECIES_POT
QC5
%ENDBLOCK SPECIES_POT

%BLOCK HUBBARD_U
Fe d:4.0
%ENDBLOCK HUBBARD_U

SNAP_TO_SYMMETRY
SYMMETRY_GENERATE

