#              Generated by Buildcell
#
# at 18:23:56 (GMT+0.0) 26th November 2020
# in /scratch/scratch/uccabz1/launch_tmp
# on node-k10b-006
# by uccabz1
#
# compiler GCC version 4.9.2
# options -cpp -iprefix /scratch/UCL/applications/gcc/4.9.2/bin/../lib/gcc/x86_64-unknown-linux-gnu/4.9.2/ -mtune=corei7 -march=x86-64 -g -O2
#
# seed  -756266533  1976456697  -831684200  -598862685 -1982876089  2097196024  -611093556  -551019065 -1165690052   888865577  1759732578   200637220
#
#      Author: C. J. Pickard (cjp20@cam.ac.uk)
#                Space group: P-1
#

%BLOCK LATTICE_ABC
      4.78320      5.98095     12.29548
     77.74613     85.27784     68.58493
%ENDBLOCK LATTICE_ABC

%BLOCK POSITIONS_FRAC
  Li  -0.4691746   0.4379611  -0.1150704 SPIN=   0.00000
  Li   0.4691746  -0.4379611   0.1150704 SPIN=   0.00000
  Li   0.3422324  -0.3633113   0.3666287 SPIN=   0.00000
  Li  -0.3422324   0.3633113  -0.3666287 SPIN=   0.00000
   O   0.0008036  -0.0763380   0.2164350 SPIN=   0.00000
   O  -0.0319302  -0.3459301   0.0812925 SPIN=   0.00000
   O  -0.4448724  -0.2264877   0.2163106 SPIN=   0.00000
   O  -0.3835962   0.0903234   0.0563873 SPIN=   0.00000
   P  -0.2054045  -0.1335259   0.1455199 SPIN=   0.00000
   O  -0.0008036   0.0763380  -0.2164350 SPIN=   0.00000
   O   0.0319302   0.3459301  -0.0812925 SPIN=   0.00000
   O   0.4448724   0.2264877  -0.2163106 SPIN=   0.00000
   O   0.3835962  -0.0903234  -0.0563873 SPIN=   0.00000
   P   0.2054045   0.1335259  -0.1455199 SPIN=   0.00000
   O   0.1772693  -0.9740142   0.3760912 SPIN=   0.00000
   O   0.0280257  -0.5030969   0.3113128 SPIN=   0.00000
   O  -0.2958375  -0.6591617   0.4493112 SPIN=   0.00000
   O   0.2136572  -0.6978888   0.5057298 SPIN=   0.00000
   P   0.0407368  -0.7225498   0.4098958 SPIN=   0.00000
   O  -0.1772693   0.9740142  -0.3760912 SPIN=   0.00000
   O  -0.0280257   0.5030969  -0.3113128 SPIN=   0.00000
   O   0.2958375   0.6591617  -0.4493112 SPIN=   0.00000
   O  -0.2136572   0.6978888  -0.5057298 SPIN=   0.00000
   P  -0.0407368   0.7225498  -0.4098958 SPIN=   0.00000
  Fe   0.1560927   0.1664197   0.0881665 SPIN=   2.18983
  Fe  -0.1560927  -0.1664197  -0.0881665 SPIN=   2.18983
  Fe   0.3438596  -0.0533545  -0.3476572 SPIN=   5.81017
  Fe  -0.3438596   0.0533545   0.3476572 SPIN=   5.81017
%ENDBLOCK POSITIONS_FRAC

# Note: total spin =  16.00

KPOINTS_MP_SPACING 0.07

%BLOCK SPECIES_POT
QC5
%ENDBLOCK SPECIES_POT

%BLOCK HUBBARD_U
Fe d:4.0
%ENDBLOCK HUBBARD_U

SNAP_TO_SYMMETRY
SYMMETRY_GENERATE

