#              Generated by Buildcell
#
# at 12:03:54 (GMT+0.0) 24th November 2020
# in /lustre/scratch/uccabz1/launch_tmp
# on node-c12i-032
# by uccabz1
#
# compiler GCC version 4.9.2
# options -cpp -iprefix /lustre/shared/ucl/apps/gcc/4.9.2/bin/../lib/gcc/x86_64-unknown-linux-gnu/4.9.2/ -mtune=corei7 -march=x86-64 -g -Og
#
# seed  1840221484  1246668264 -1889571902  -533690077 -1575047893   604686559   243321147 -1377648356 -1618861418  1320180214  1885856289  1128860213
#
#      Author: C. J. Pickard (cjp20@cam.ac.uk)
#                Space group: Iba2
#

%BLOCK LATTICE_ABC
      5.50259      5.51109      6.55745
    114.84820    114.80729     90.00000
%ENDBLOCK LATTICE_ABC

%BLOCK POSITIONS_FRAC
  Li  -0.4278671   0.0721329   0.1442658 SPIN=   0.00000
  Li   0.0721329  -0.4278671  -0.8557342 SPIN=   0.00000
   O   0.1327597  -0.7135464  -0.2088547 SPIN=   0.00000
   O   0.4337909  -0.2514770   0.1820213 SPIN=   0.00000
   O  -0.3416144   0.5046917  -0.2088547 SPIN=   0.00000
   O  -0.2517696   0.4334983   0.1820213 SPIN=   0.00000
   O  -0.3672403   0.0046917  -0.2088547 SPIN=   0.00000
   O  -0.0662091  -0.0665017   0.1820213 SPIN=   0.00000
   O   0.1583856  -0.2135464  -0.2088547 SPIN=   0.00000
   O   0.2482304   0.2485230   0.1820213 SPIN=   0.00000
   P   0.3227035  -0.1772965  -0.3545929 SPIN=   0.00000
   P  -0.1772965   0.3227035   0.6454071 SPIN=   0.00000
  Fe   0.2519095   0.2519095   0.5038190 SPIN=   4.00000
  Fe  -0.2480905  -0.2480905  -0.4961810 SPIN=   4.00000
%ENDBLOCK POSITIONS_FRAC

# Note: total spin =   8.00

KPOINTS_MP_SPACING 0.07

%BLOCK SPECIES_POT
QC5
%ENDBLOCK SPECIES_POT

%BLOCK HUBBARD_U
Fe d:4.0
%ENDBLOCK HUBBARD_U

SNAP_TO_SYMMETRY
SYMMETRY_GENERATE

