#              Generated by Buildcell
#
# at 06:01:25 (GMT+0.0) 24th November 2020
# in /scratch/scratch/uccabz1/launch_tmp
# on node-k10b-011
# by uccabz1
#
# compiler GCC version 4.9.2
# options -cpp -iprefix /scratch/UCL/applications/gcc/4.9.2/bin/../lib/gcc/x86_64-unknown-linux-gnu/4.9.2/ -mtune=corei7 -march=x86-64 -g -O2
#
# seed   396980112   437617962 -1653369412 -1709571912  1147189621   304721698  -192806961  -139498067  1583404070  1224199002   953270490  2038107672
#
#      Author: C. J. Pickard (cjp20@cam.ac.uk)
#                Space group: Pnn2
#

%BLOCK LATTICE_ABC
      4.22107      5.16956      7.33236
     90.00000     90.00000     90.00000
%ENDBLOCK LATTICE_ABC

%BLOCK POSITIONS_FRAC
  Li   0.0000000   0.5000000   0.0930585 SPIN=   0.00000
  Li   0.5000000  -0.0000000  -0.4069415 SPIN=   0.00000
   O  -0.1941858  -0.1786857   0.2320765 SPIN=   0.00000
   O  -0.3058185   0.2555834   0.3984389 SPIN=   0.00000
   O   0.1941858   0.1786857   0.2320765 SPIN=   0.00000
   O   0.3058185  -0.2555834   0.3984389 SPIN=   0.00000
   O   0.3058142   0.6786857  -0.2679235 SPIN=   0.00000
   O   0.1941815   0.2444166  -0.1015611 SPIN=   0.00000
   O  -0.3058142  -0.6786857  -0.2679235 SPIN=   0.00000
   O  -0.1941815  -0.2444166  -0.1015611 SPIN=   0.00000
   P  -0.5000000   0.5000000  -0.1408229 SPIN=   0.00000
   P  -0.0000000  -0.0000000   0.3591771 SPIN=   0.00000
  Fe   0.5000000  -0.0000000   0.0445137 SPIN=   4.00000
  Fe   0.0000000   0.5000000  -0.4554863 SPIN=   4.00000
%ENDBLOCK POSITIONS_FRAC

# Note: total spin =   8.00

KPOINTS_MP_SPACING 0.07

%BLOCK SPECIES_POT
QC5
%ENDBLOCK SPECIES_POT

%BLOCK HUBBARD_U
Fe d:4.0
%ENDBLOCK HUBBARD_U

SNAP_TO_SYMMETRY
SYMMETRY_GENERATE

