#              Generated by Buildcell
#
# at 11:17:37 (GMT+0.0) 26th November 2020
# in /lustre/scratch/uccabz1/launch_tmp
# on node-c12g-031
# by uccabz1
#
# compiler GCC version 4.9.2
# options -cpp -iprefix /lustre/shared/ucl/apps/gcc/4.9.2/bin/../lib/gcc/x86_64-unknown-linux-gnu/4.9.2/ -mtune=corei7 -march=x86-64 -g -Og
#
# seed  1754435994  -648979728 -1819758079  -974413156  -920600323 -2123129281 -1601902302  1253964222 -1065547018 -1645530687  2000300157 -1783336341
#
#      Author: C. J. Pickard (cjp20@cam.ac.uk)
#                Space group: P-1
#

%BLOCK LATTICE_ABC
      5.00382      8.03584      9.09083
    112.46494    102.95345     97.22858
%ENDBLOCK LATTICE_ABC

%BLOCK POSITIONS_FRAC
  Li   0.3140737   0.0528031   0.1778934 SPIN=   0.00000
  Li  -0.3140737  -0.0528031  -0.1778934 SPIN=   0.00000
  Li   0.0144095  -0.2952642  -0.4319533 SPIN=   0.00000
  Li  -0.0144095   0.2952642   0.4319533 SPIN=   0.00000
   O  -0.5990038  -0.3988197  -0.2229941 SPIN=   0.00000
   O  -0.8689052  -0.1869291  -0.0469335 SPIN=   0.00000
   O  -0.6168067  -0.3767371   0.0671866 SPIN=   0.00000
   O  -0.3406233  -0.1064670   0.0491596 SPIN=   0.00000
   P  -0.6028088  -0.2723470  -0.0471911 SPIN=   0.00000
   O   0.5990038   0.3988197   0.2229941 SPIN=   0.00000
   O   0.8689052   0.1869291   0.0469335 SPIN=   0.00000
   O   0.6168067   0.3767371  -0.0671866 SPIN=   0.00000
   O   0.3406233   0.1064670  -0.0491596 SPIN=   0.00000
   P   0.6028088   0.2723470   0.0471911 SPIN=   0.00000
   O  -0.7691710  -0.1722211  -0.6998176 SPIN=   0.00000
   O  -0.6526786  -0.0746803  -0.3809082 SPIN=   0.00000
   O  -0.7108987  -0.4040102  -0.5658126 SPIN=   0.00000
   O  -0.2856604  -0.1698521  -0.5223621 SPIN=   0.00000
   O   0.7691710   0.1722211   0.6998176 SPIN=   0.00000
   O   0.6526786   0.0746803   0.3809082 SPIN=   0.00000
   O   0.7108987   0.4040102   0.5658126 SPIN=   0.00000
   O   0.2856604   0.1698521   0.5223621 SPIN=   0.00000
   P  -0.5000000   0.0000000   0.5000000 SPIN=   0.00000
   P   0.5000000   0.5000000   0.5000000 SPIN=   0.00000
  Fe  -0.1923648  -0.1567194   0.2689068 SPIN=   3.98206
  Fe   0.1923648   0.1567194  -0.2689068 SPIN=   3.98206
  Fe  -0.1893699  -0.4432479  -0.1771805 SPIN=   4.01794
  Fe   0.1893699   0.4432479   0.1771805 SPIN=   4.01794
%ENDBLOCK POSITIONS_FRAC

# Note: total spin =  16.00

KPOINTS_MP_SPACING 0.07

%BLOCK SPECIES_POT
QC5
%ENDBLOCK SPECIES_POT

%BLOCK HUBBARD_U
Fe d:4.0
%ENDBLOCK HUBBARD_U

SNAP_TO_SYMMETRY
SYMMETRY_GENERATE

