#              Generated by Buildcell
#
# at 16:08:19 (GMT+0.0) 26th November 2020
# in /lustre/scratch/uccabz1/launch_tmp
# on node-c12f-025
# by uccabz1
#
# compiler GCC version 4.9.2
# options -cpp -iprefix /lustre/shared/ucl/apps/gcc/4.9.2/bin/../lib/gcc/x86_64-unknown-linux-gnu/4.9.2/ -mtune=corei7 -march=x86-64 -g -Og
#
# seed -1039019301   157308799   368436710 -1282533264  1538550773  -519409265    59471877   832827962  -526572990 -1981073577 -1909385304  1229924172
#
#      Author: C. J. Pickard (cjp20@cam.ac.uk)
#                Space group: P2
#

%BLOCK LATTICE_ABC
      4.35642      8.61793      9.05604
    109.74706     90.00000     90.00000
%ENDBLOCK LATTICE_ABC

%BLOCK POSITIONS_FRAC
  Li  -0.4077284   0.3803690   0.3402045 SPIN=   0.00000
  Li  -0.4077284  -0.3803690  -0.3402045 SPIN=   0.00000
  Li   0.0871930  -0.4222008  -0.1274016 SPIN=   0.00000
  Li   0.0871930   0.4222008   0.1274016 SPIN=   0.00000
   O  -0.0390567  -0.2429215  -0.2249542 SPIN=   0.00000
   O   0.4801813  -0.1447278  -0.0830217 SPIN=   0.00000
   O   0.4290237  -0.1587186  -0.3588625 SPIN=   0.00000
   O   0.1446139   0.0589880  -0.1483846 SPIN=   0.00000
   P   0.2368160  -0.1261577  -0.2042778 SPIN=   0.00000
   O  -0.0390567   0.2429215   0.2249542 SPIN=   0.00000
   O   0.4801813   0.1447278   0.0830217 SPIN=   0.00000
   O   0.4290237   0.1587186   0.3588625 SPIN=   0.00000
   O   0.1446139  -0.0589880   0.1483846 SPIN=   0.00000
   P   0.2368160   0.1261577   0.2042778 SPIN=   0.00000
   O  -0.6205502  -0.3343130   0.0663682 SPIN=   0.00000
   O  -0.6468291  -0.4244698   0.3123796 SPIN=   0.00000
   O  -0.1438991  -0.3432143   0.2357430 SPIN=   0.00000
   O  -0.5467800  -0.1280535   0.3470683 SPIN=   0.00000
   O  -0.6205502   0.3343130  -0.0663682 SPIN=   0.00000
   O  -0.6468291   0.4244698  -0.3123796 SPIN=   0.00000
   O  -0.1438991   0.3432143  -0.2357430 SPIN=   0.00000
   O  -0.5467800   0.1280535  -0.3470683 SPIN=   0.00000
   P  -0.4126662   0.5000000  -0.0000000 SPIN=   0.00000
   P  -0.3764205   0.0000000   0.5000000 SPIN=   0.00000
  Fe   0.0936907  -0.2366561   0.4672382 SPIN=   4.02950
  Fe   0.0936907   0.2366561  -0.4672382 SPIN=   4.02950
  Fe  -0.3194973   0.1336728  -0.1338754 SPIN=   3.97050
  Fe  -0.3194973  -0.1336728   0.1338754 SPIN=   3.97050
%ENDBLOCK POSITIONS_FRAC

# Note: total spin =  16.00

KPOINTS_MP_SPACING 0.07

%BLOCK SPECIES_POT
QC5
%ENDBLOCK SPECIES_POT

%BLOCK HUBBARD_U
Fe d:4.0
%ENDBLOCK HUBBARD_U

SNAP_TO_SYMMETRY
SYMMETRY_GENERATE

