#              Generated by Buildcell
#
# at 13:06:08 (GMT+0.0) 24th November 2020
# in /lustre/scratch/uccabz1/launch_tmp
# on node-c12c-023
# by uccabz1
#
# compiler GCC version 4.9.2
# options -cpp -iprefix /lustre/shared/ucl/apps/gcc/4.9.2/bin/../lib/gcc/x86_64-unknown-linux-gnu/4.9.2/ -mtune=corei7 -march=x86-64 -g -Og
#
# seed -1162408060 -1782127639  2046404035   624207686  -318688093  1998577513  -641174211  -934172295 -1734892528  -271897106  -227867538 -1955771037
#
#      Author: C. J. Pickard (cjp20@cam.ac.uk)
#                Space group: P21
#

%BLOCK LATTICE_ABC
      4.72912      5.68113      6.24461
     90.00000     90.00000    107.50837
%ENDBLOCK LATTICE_ABC

%BLOCK POSITIONS_FRAC
  Li   0.4322575   0.3849898   0.4963828 SPIN=   0.00000
  Li  -0.4322575  -0.3849898  -0.0036172 SPIN=   0.00000
   O  -0.0878795   0.1048290  -0.5104791 SPIN=   0.00000
   O   0.2108519   0.3091883  -0.1748337 SPIN=   0.00000
   O  -0.1894061   0.4688658  -0.3051044 SPIN=   0.00000
   O  -0.3186044   0.0523571  -0.1319376 SPIN=   0.00000
   P  -0.0984372   0.2248011  -0.2910750 SPIN=   0.00000
   O   0.0878795  -0.1048290  -0.0104791 SPIN=   0.00000
   O  -0.2108519  -0.3091883   0.3251663 SPIN=   0.00000
   O   0.1894061  -0.4688658   0.1948956 SPIN=   0.00000
   O   0.3186044  -0.0523571   0.3680624 SPIN=   0.00000
   P   0.0984372  -0.2248011   0.2089250 SPIN=   0.00000
  Fe   0.1387469  -0.1885151  -0.3330326 SPIN=   4.00000
  Fe  -0.1387469   0.1885151   0.1669674 SPIN=   4.00000
%ENDBLOCK POSITIONS_FRAC

# Note: total spin =   8.00

KPOINTS_MP_SPACING 0.07

%BLOCK SPECIES_POT
QC5
%ENDBLOCK SPECIES_POT

%BLOCK HUBBARD_U
Fe d:4.0
%ENDBLOCK HUBBARD_U

SNAP_TO_SYMMETRY
SYMMETRY_GENERATE

