#              Generated by Buildcell
#
# at 14:16:26 (GMT+0.0) 24th November 2020
# in /lustre/scratch/uccabz1/launch_tmp
# on node-c12f-024
# by uccabz1
#
# compiler GCC version 4.9.2
# options -cpp -iprefix /lustre/shared/ucl/apps/gcc/4.9.2/bin/../lib/gcc/x86_64-unknown-linux-gnu/4.9.2/ -mtune=corei7 -march=x86-64 -g -Og
#
# seed   773492077  1921461739  1726847217  1059591414  1793663697  -138215422  1087925246  -826759310  2084573117    71120331  1846276774  -377950864
#
#      Author: C. J. Pickard (cjp20@cam.ac.uk)
#                Space group: P-1
#

%BLOCK LATTICE_ABC
      4.55688      6.06943      6.09576
     99.35542     90.10936    105.64878
%ENDBLOCK LATTICE_ABC

%BLOCK POSITIONS_FRAC
  Li   0.5000000   0.0000000  -0.5000000 SPIN=   0.00000
  Li  -0.5000000  -0.0000000  -0.0000000 SPIN=   0.00000
   O  -0.1646263  -0.0812978  -0.2923838 SPIN=   0.00000
   O   0.3507483   0.2286139  -0.1727030 SPIN=   0.00000
   O  -0.0217754   0.3268244  -0.4075713 SPIN=   0.00000
   O  -0.1298476   0.2925476  -0.0100176 SPIN=   0.00000
   P  -0.0022341   0.1783281  -0.2220014 SPIN=   0.00000
   O   0.1646263   0.0812978   0.2923838 SPIN=   0.00000
   O  -0.3507483  -0.2286139   0.1727030 SPIN=   0.00000
   O   0.0217754  -0.3268244   0.4075713 SPIN=   0.00000
   O   0.1298476  -0.2925476   0.0100176 SPIN=   0.00000
   P   0.0022341  -0.1783281   0.2220014 SPIN=   0.00000
  Fe  -0.2223091  -0.4241999  -0.2378928 SPIN=   4.00000
  Fe   0.2223091   0.4241999   0.2378928 SPIN=   4.00000
%ENDBLOCK POSITIONS_FRAC

# Note: total spin =   8.00

KPOINTS_MP_SPACING 0.07

%BLOCK SPECIES_POT
QC5
%ENDBLOCK SPECIES_POT

%BLOCK HUBBARD_U
Fe d:4.0
%ENDBLOCK HUBBARD_U

SNAP_TO_SYMMETRY
SYMMETRY_GENERATE

