#              Generated by Buildcell
#
# at 12:00:30 (GMT+0.0) 24th November 2020
# in /lustre/scratch/uccabz1/launch_tmp
# on node-c12i-033
# by uccabz1
#
# compiler GCC version 4.9.2
# options -cpp -iprefix /lustre/shared/ucl/apps/gcc/4.9.2/bin/../lib/gcc/x86_64-unknown-linux-gnu/4.9.2/ -mtune=corei7 -march=x86-64 -g -Og
#
# seed   242168916  1472450500  -721224488 -1369694031  1820794652  -771048858   148788484 -2113927557   932185651  -641889648    28075712 -1981698899
#
#      Author: C. J. Pickard (cjp20@cam.ac.uk)
#                Space group: P21/m
#

%BLOCK LATTICE_ABC
      4.33430      6.17801      6.22219
     90.00000    106.19758     90.00000
%ENDBLOCK LATTICE_ABC

%BLOCK POSITIONS_FRAC
  Li  -0.5000000  -0.0000000   0.5000000 SPIN=   0.00000
  Li  -0.5000000   0.5000000   0.5000000 SPIN=   0.00000
   O   0.2703164  -0.0501973   0.1168614 SPIN=   0.00000
   O  -0.1694893   0.0475213   0.3113625 SPIN=   0.00000
   O  -0.2703164   0.4498027  -0.1168614 SPIN=   0.00000
   O   0.1694893   0.5475213  -0.3113625 SPIN=   0.00000
   O  -0.2703164   0.0501973  -0.1168614 SPIN=   0.00000
   O   0.1694893  -0.0475213  -0.3113625 SPIN=   0.00000
   O   0.2703164  -0.4498027   0.1168614 SPIN=   0.00000
   O  -0.1694893  -0.5475213   0.3113625 SPIN=   0.00000
   P  -0.0123163  -0.2500000  -0.2693708 SPIN=   0.00000
   P   0.0123163   0.2500000   0.2693708 SPIN=   0.00000
  Fe  -0.1723129  -0.2500000   0.1477171 SPIN=   4.00000
  Fe   0.1723129   0.2500000  -0.1477171 SPIN=   4.00000
%ENDBLOCK POSITIONS_FRAC

# Note: total spin =   8.00

KPOINTS_MP_SPACING 0.07

%BLOCK SPECIES_POT
QC5
%ENDBLOCK SPECIES_POT

%BLOCK HUBBARD_U
Fe d:4.0
%ENDBLOCK HUBBARD_U

SNAP_TO_SYMMETRY
SYMMETRY_GENERATE

