#              Generated by Buildcell
#
# at 23:41:17 (GMT+0.0) 26th November 2020
# in /lustre/scratch/uccabz1/launch_tmp
# on node-c12d-030
# by uccabz1
#
# compiler GCC version 4.9.2
# options -cpp -iprefix /lustre/shared/ucl/apps/gcc/4.9.2/bin/../lib/gcc/x86_64-unknown-linux-gnu/4.9.2/ -mtune=corei7 -march=x86-64 -g -Og
#
# seed -1928364547  1497161086  -293256760  -958039973 -1024921042 -1187344076 -1171564455  1227566648 -2073338432 -1390536748 -1768161820   986006733
#
#      Author: C. J. Pickard (cjp20@cam.ac.uk)
#                Space group: P-1
#

%BLOCK LATTICE_ABC
      5.25476      7.06977      8.95527
     74.48501     86.62695     89.52265
%ENDBLOCK LATTICE_ABC

%BLOCK POSITIONS_FRAC
  Li  -0.4967127   0.0514533   0.1570591 SPIN=   0.00000
  Li   0.4967127  -0.0514533  -0.1570591 SPIN=   0.00000
  Li  -0.5000000   0.0000000   0.5000000 SPIN=   0.00000
  Li  -0.0000000   0.5000000  -0.0000000 SPIN=   0.00000
   O   0.2372655   0.2793680   0.1135010 SPIN=   0.00000
   O  -0.2141046   0.2006442   0.2502075 SPIN=   0.00000
   O   0.1579144   0.0506952   0.3922872 SPIN=   0.00000
   O   0.0833412   0.4116614   0.3454221 SPIN=   0.00000
   P   0.0754210   0.2400009   0.2675634 SPIN=   0.00000
   O  -0.2372655  -0.2793680  -0.1135010 SPIN=   0.00000
   O   0.2141046  -0.2006442  -0.2502075 SPIN=   0.00000
   O  -0.1579144  -0.0506952  -0.3922872 SPIN=   0.00000
   O  -0.0833412  -0.4116614  -0.3454221 SPIN=   0.00000
   P  -0.0754210  -0.2400009  -0.2675634 SPIN=   0.00000
   O   0.0781276   0.2928589  -0.1620183 SPIN=   0.00000
   O  -0.3654908   0.2364985  -0.2571788 SPIN=   0.00000
   O  -0.2308094   0.0112813  -0.0135442 SPIN=   0.00000
   O  -0.3421110   0.3584708  -0.0202492 SPIN=   0.00000
   P  -0.2009588   0.2299801  -0.1147470 SPIN=   0.00000
   O  -0.0781276  -0.2928589   0.1620183 SPIN=   0.00000
   O   0.3654908  -0.2364985   0.2571788 SPIN=   0.00000
   O   0.2308094  -0.0112813   0.0135442 SPIN=   0.00000
   O   0.3421110  -0.3584708   0.0202492 SPIN=   0.00000
   P   0.2009588  -0.2299801   0.1147470 SPIN=   0.00000
  Fe  -0.4721497   0.4603531   0.2659605 SPIN=   6.12757
  Fe   0.4721497  -0.4603531  -0.2659605 SPIN=   6.12757
  Fe  -0.0051566   0.2240490  -0.4121483 SPIN=   1.87243
  Fe   0.0051566  -0.2240490   0.4121483 SPIN=   1.87243
%ENDBLOCK POSITIONS_FRAC

# Note: total spin =  16.00

KPOINTS_MP_SPACING 0.07

%BLOCK SPECIES_POT
QC5
%ENDBLOCK SPECIES_POT

%BLOCK HUBBARD_U
Fe d:4.0
%ENDBLOCK HUBBARD_U

SNAP_TO_SYMMETRY
SYMMETRY_GENERATE

