#              Generated by Buildcell
#
# at 06:29:37 (GMT+0.0) 24th November 2020
# in /lustre/scratch/uccabz1/launch_tmp
# on node-c12l-031
# by uccabz1
#
# compiler GCC version 4.9.2
# options -cpp -iprefix /lustre/shared/ucl/apps/gcc/4.9.2/bin/../lib/gcc/x86_64-unknown-linux-gnu/4.9.2/ -mtune=corei7 -march=x86-64 -g -Og
#
# seed   712716332   485432634   455791465   341469723 -2136818753 -1075190754   268266375 -1695182749  1380752250 -1500477733  -845451909 -1289387446
#
#      Author: C. J. Pickard (cjp20@cam.ac.uk)
#                Space group: C2/c
#

%BLOCK LATTICE_ABC
      4.38166      5.21196      7.96867
     84.03672     75.69074     65.14354
%ENDBLOCK LATTICE_ABC

%BLOCK POSITIONS_FRAC
  Li  -0.5000000  -0.0000000  -0.0000000 SPIN=   0.00000
  Li   0.5000000   0.0000000  -0.5000000 SPIN=   0.00000
   O   0.1236532   0.0756032  -0.1428585 SPIN=   0.00000
   O  -0.2680613   0.4743056   0.0828010 SPIN=   0.00000
   O   0.8007436   0.0756032  -0.3571415 SPIN=   0.00000
   O   0.7937558   0.4743056  -0.5828010 SPIN=   0.00000
   O  -0.1236532  -0.0756032   0.1428585 SPIN=   0.00000
   O   0.2680613  -0.4743056  -0.0828010 SPIN=   0.00000
   O  -0.8007436  -0.0756032   0.3571415 SPIN=   0.00000
   O  -0.7937558  -0.4743056   0.5828010 SPIN=   0.00000
   P   0.0823941  -0.1647882  -0.2500000 SPIN=   0.00000
   P  -0.0823941   0.1647882   0.2500000 SPIN=   0.00000
  Fe  -0.2206853   0.4413706  -0.2500000 SPIN=   4.00000
  Fe   0.2206853  -0.4413706   0.2500000 SPIN=   4.00000
%ENDBLOCK POSITIONS_FRAC

# Note: total spin =   8.00

KPOINTS_MP_SPACING 0.07

%BLOCK SPECIES_POT
QC5
%ENDBLOCK SPECIES_POT

%BLOCK HUBBARD_U
Fe d:4.0
%ENDBLOCK HUBBARD_U

SNAP_TO_SYMMETRY
SYMMETRY_GENERATE

