#              Generated by Buildcell
#
# at 14:01:32 (GMT+0.0) 24th November 2020
# in /lustre/scratch/uccabz1/launch_tmp
# on node-c12d-032
# by uccabz1
#
# compiler GCC version 4.9.2
# options -cpp -iprefix /lustre/shared/ucl/apps/gcc/4.9.2/bin/../lib/gcc/x86_64-unknown-linux-gnu/4.9.2/ -mtune=corei7 -march=x86-64 -g -Og
#
# seed   955862457   879982052   812496759  1916295392 -2091513112 -1740061931   681537275  1653162482   613824329   832407128  -805540524  1613877432
#
#      Author: C. J. Pickard (cjp20@cam.ac.uk)
#                Space group: Pma2
#

%BLOCK LATTICE_ABC
      3.89713      4.30659      9.53327
     90.00000     90.00000     90.00000
%ENDBLOCK LATTICE_ABC

%BLOCK POSITIONS_FRAC
  Li  -0.1932017   0.4999999   0.2500000 SPIN=   0.00000
  Li  -0.1932017  -0.4999999  -0.2500000 SPIN=   0.00000
   O   0.3647277  -0.3453383  -0.1174433 SPIN=   0.00000
   O   0.0468173  -0.1605267   0.1070808 SPIN=   0.00000
   O   0.3647277   0.3453383   0.1174433 SPIN=   0.00000
   O   0.0468173   0.1605267  -0.1070808 SPIN=   0.00000
   O   0.3647277   0.3453383   0.3825567 SPIN=   0.00000
   O   0.0468173   0.1605267   0.6070808 SPIN=   0.00000
   O   0.3647277  -0.3453383  -0.3825567 SPIN=   0.00000
   O   0.0468173  -0.1605267  -0.6070808 SPIN=   0.00000
   P   0.1245451   0.5000000  -0.0000000 SPIN=   0.00000
   P   0.1245451   0.5000000   0.5000000 SPIN=   0.00000
  Fe  -0.3888969  -0.0000000   0.0000000 SPIN=   4.00000
  Fe  -0.3888969   0.0000000   0.5000000 SPIN=   4.00000
%ENDBLOCK POSITIONS_FRAC

# Note: total spin =   8.00

KPOINTS_MP_SPACING 0.07

%BLOCK SPECIES_POT
QC5
%ENDBLOCK SPECIES_POT

%BLOCK HUBBARD_U
Fe d:4.0
%ENDBLOCK HUBBARD_U

SNAP_TO_SYMMETRY
SYMMETRY_GENERATE

