#              Generated by Buildcell
#
# at 17:13:30 (GMT+0.0) 26th November 2020
# in /lustre/scratch/uccabz1/launch_tmp
# on node-c12e-026
# by uccabz1
#
# compiler GCC version 4.9.2
# options -cpp -iprefix /lustre/shared/ucl/apps/gcc/4.9.2/bin/../lib/gcc/x86_64-unknown-linux-gnu/4.9.2/ -mtune=corei7 -march=x86-64 -g -Og
#
# seed   225656147  1182102968 -1780888883  1042439703  2138783156  -195546229    17231438  1124448231   252295826  1263281200  1157529292  1457826096
#
#      Author: C. J. Pickard (cjp20@cam.ac.uk)
#                Space group: I222
#

%BLOCK LATTICE_ABC
      5.78772      8.00595      8.00595
     76.19537     68.80987     68.80987
%ENDBLOCK LATTICE_ABC

%BLOCK POSITIONS_FRAC
  Li  -0.1384049   0.4422378   0.3026267 SPIN=   0.00000
  Li  -0.3935403  -0.4422378  -0.3026267 SPIN=   0.00000
  Li   0.3935403   0.3026267   0.4422378 SPIN=   0.00000
  Li   0.1384049  -0.3026267  -0.4422378 SPIN=   0.00000
   O  -0.2182446   0.1046521   0.3573345 SPIN=   0.00000
   O   0.1845731   0.1313104   0.0824763 SPIN=   0.00000
   O   0.1982206   0.1329631   0.3868781 SPIN=   0.00000
   O   0.2170505  -0.1529663   0.2994108 SPIN=   0.00000
   P   0.0801355   0.0542451   0.2857725 SPIN=   0.00000
   O   0.2437421  -0.1046521  -0.3573345 SPIN=   0.00000
   O   0.3983599  -0.1313104  -0.0824763 SPIN=   0.00000
   O   0.7180618  -0.1329631  -0.3868781 SPIN=   0.00000
   O   0.3634950   0.1529663  -0.2994108 SPIN=   0.00000
   P   0.4201530  -0.0542451  -0.2857725 SPIN=   0.00000
   O  -0.2437421   0.3573345   0.1046521 SPIN=   0.00000
   O  -0.3983599   0.0824763   0.1313104 SPIN=   0.00000
   O  -0.7180618   0.3868781   0.1329631 SPIN=   0.00000
   O  -0.3634950   0.2994108  -0.1529663 SPIN=   0.00000
   P  -0.4201530   0.2857725   0.0542451 SPIN=   0.00000
   O   0.2182446  -0.3573345  -0.1046521 SPIN=   0.00000
   O  -0.1845731  -0.0824763  -0.1313104 SPIN=   0.00000
   O  -0.1982206  -0.3868781  -0.1329631 SPIN=   0.00000
   O  -0.2170505  -0.2994108   0.1529663 SPIN=   0.00000
   P  -0.0801355  -0.2857725  -0.0542451 SPIN=   0.00000
  Fe   0.1348268   0.3489248  -0.1192604 SPIN=   4.00000
  Fe   0.3644912  -0.3489248   0.1192604 SPIN=   4.00000
  Fe  -0.3644912  -0.1192604   0.3489248 SPIN=   4.00000
  Fe  -0.1348268   0.1192604  -0.3489248 SPIN=   4.00000
%ENDBLOCK POSITIONS_FRAC

# Note: total spin =  16.00

KPOINTS_MP_SPACING 0.07

%BLOCK SPECIES_POT
QC5
%ENDBLOCK SPECIES_POT

%BLOCK HUBBARD_U
Fe d:4.0
%ENDBLOCK HUBBARD_U

SNAP_TO_SYMMETRY
SYMMETRY_GENERATE

