#              Generated by Buildcell
#
# at 08:56:49 (GMT+0.0) 24th November 2020
# in /lustre/scratch/uccabz1/launch_tmp
# on node-c12c-032
# by uccabz1
#
# compiler GCC version 4.9.2
# options -cpp -iprefix /lustre/shared/ucl/apps/gcc/4.9.2/bin/../lib/gcc/x86_64-unknown-linux-gnu/4.9.2/ -mtune=corei7 -march=x86-64 -g -Og
#
# seed -1513847585  -216443705 -1478398998   140235320 -1257948650 -1788560492  1822649974 -1852522035   846965936  2105123797  -964430208  -626977547
#
#      Author: C. J. Pickard (cjp20@cam.ac.uk)
#                Space group: P-1
#

%BLOCK LATTICE_ABC
      4.33158      5.13468      7.73795
     98.74452     94.90645    108.16186
%ENDBLOCK LATTICE_ABC

%BLOCK POSITIONS_FRAC
  Li  -0.1783492   0.1362827  -0.2703784 SPIN=   0.00000
  Li   0.1783492  -0.1362827   0.2703784 SPIN=   0.00000
   O  -0.2133645  -0.4866979   0.2943897 SPIN=   0.00000
   O  -0.3947120  -1.0120561   0.1504695 SPIN=   0.00000
   O   0.1982066  -0.7448629   0.2122839 SPIN=   0.00000
   P  -0.1357072  -0.7608180   0.2830885 SPIN=   0.00000
   O   0.2133645   0.4866979  -0.2943897 SPIN=   0.00000
   O   0.3947120   1.0120561  -0.1504695 SPIN=   0.00000
   O  -0.1982066   0.7448629  -0.2122839 SPIN=   0.00000
   P   0.1357072   0.7608180  -0.2830885 SPIN=   0.00000
   O  -0.0000000   0.5000000   0.0000000 SPIN=   0.00000
   O  -0.0000000  -0.0000000   0.5000000 SPIN=   0.00000
  Fe   0.5000000   0.5000000   0.5000000 SPIN=   4.66161
  Fe   0.5000000   0.5000000   0.0000000 SPIN=   3.33839
%ENDBLOCK POSITIONS_FRAC

# Note: total spin =   8.00

KPOINTS_MP_SPACING 0.07

%BLOCK SPECIES_POT
QC5
%ENDBLOCK SPECIES_POT

%BLOCK HUBBARD_U
Fe d:4.0
%ENDBLOCK HUBBARD_U

SNAP_TO_SYMMETRY
SYMMETRY_GENERATE

