#              Generated by Buildcell
#
# at 23:45:19 (GMT+0.0) 26th November 2020
# in /lustre/scratch/uccabz1/launch_tmp
# on node-c12k-024
# by uccabz1
#
# compiler GCC version 4.9.2
# options -cpp -iprefix /lustre/shared/ucl/apps/gcc/4.9.2/bin/../lib/gcc/x86_64-unknown-linux-gnu/4.9.2/ -mtune=corei7 -march=x86-64 -g -Og
#
# seed -1574700077  1396229585  1583915904   270422057   276447590  -692469206   448306881  1432542322  2051914872 -1717875335  1586213941   179065513
#
#      Author: C. J. Pickard (cjp20@cam.ac.uk)
#                Space group: Cm
#

%BLOCK LATTICE_ABC
      3.90713      9.59063      9.93405
    117.79187     98.99019     94.79943
%ENDBLOCK LATTICE_ABC

%BLOCK POSITIONS_FRAC
  Li   0.1214347   0.1421697   0.4978066 SPIN=   0.00000
  Li  -0.3763718  -0.3556368  -0.4978066 SPIN=   0.00000
  Li   0.1306286  -0.2154759   0.0000000 SPIN=   0.00000
  Li   0.3938660   0.3242150   0.0000000 SPIN=   0.00000
   O   0.2450181  -0.4283659  -0.1663758 SPIN=   0.00000
   O   0.6364753  -0.4785367  -0.3676383 SPIN=   0.00000
   O   0.1653809  -0.3211920  -0.3639599 SPIN=   0.00000
   O   0.6977634  -0.2018781  -0.1435637 SPIN=   0.00000
   P   0.4290694  -0.3594304  -0.2540003 SPIN=   0.00000
   O  -0.5886061  -0.2619901   0.1663758 SPIN=   0.00000
   O   0.0041136  -0.1108984   0.3676383 SPIN=   0.00000
   O  -0.4706593   0.0427679   0.3639599 SPIN=   0.00000
   O  -0.1586729  -0.0583144   0.1435637 SPIN=   0.00000
   P  -0.3169303  -0.1054301   0.2540003 SPIN=   0.00000
   O   0.1955102   0.3085138   0.4083695 SPIN=   0.00000
   O   0.0737295   0.3204029   0.1495551 SPIN=   0.00000
   O  -0.3367519   0.4181705   0.3253394 SPIN=   0.00000
   P   0.0613350   0.4026062   0.3272122 SPIN=   0.00000
   O  -0.2128593  -0.0998557  -0.4083695 SPIN=   0.00000
   O  -0.0758256   0.1708478  -0.1495551 SPIN=   0.00000
   O  -0.6620913   0.0928311  -0.3253394 SPIN=   0.00000
   P  -0.2658773   0.0753940  -0.3272122 SPIN=   0.00000
   O  -0.1878276  -0.4131003   0.0000000 SPIN=   0.00000
   O   0.1590756   0.0407864   0.0000000 SPIN=   0.00000
  Fe   0.0167938   0.6349250   0.2287599 SPIN=   1.35959
  Fe  -0.2119661  -0.5938349  -0.2287599 SPIN=   1.35959
  Fe   0.2486977  -0.0675292  -0.2270729 SPIN=   6.64041
  Fe   0.4757706   0.1595437   0.2270729 SPIN=   6.64041
%ENDBLOCK POSITIONS_FRAC

# Note: total spin =  16.00

KPOINTS_MP_SPACING 0.07

%BLOCK SPECIES_POT
QC5
%ENDBLOCK SPECIES_POT

%BLOCK HUBBARD_U
Fe d:4.0
%ENDBLOCK HUBBARD_U

SNAP_TO_SYMMETRY
SYMMETRY_GENERATE

