#              Generated by Buildcell
#
# at 13:40:15 (GMT+0.0) 24th November 2020
# in /scratch/scratch/uccabz1/launch_tmp
# on node-a14a-027
# by uccabz1
#
# compiler GCC version 4.9.2
# options -cpp -iprefix /scratch/UCL/applications/gcc/4.9.2/bin/../lib/gcc/x86_64-unknown-linux-gnu/4.9.2/ -mtune=corei7 -march=x86-64 -g -O2
#
# seed  -624580685  1155996781   121115158  -493405631   822704819  2110030918 -1362643030  1521531183 -1315941583   -10735960   831396251  -549030996
#
#      Author: C. J. Pickard (cjp20@cam.ac.uk)
#                Space group: P-1
#

%BLOCK LATTICE_ABC
      4.99507      5.81058      5.82219
     92.68996    108.48387     90.97683
%ENDBLOCK LATTICE_ABC

%BLOCK POSITIONS_FRAC
  Li  -0.4545734  -0.1770972  -0.3089468 SPIN=   0.00000
  Li   0.4545734   0.1770972   0.3089468 SPIN=   0.00000
   O   0.0046942  -0.1905757  -0.1857719 SPIN=   0.00000
   O   0.2704380  -0.1608757   0.2776771 SPIN=   0.00000
   O   0.2793123  -0.5280641   0.0489972 SPIN=   0.00000
   P   0.2647148  -0.2603387   0.0201298 SPIN=   0.00000
   O  -0.0046942   0.1905757   0.1857719 SPIN=   0.00000
   O  -0.2704380   0.1608757  -0.2776771 SPIN=   0.00000
   O  -0.2793123   0.5280641  -0.0489972 SPIN=   0.00000
   P  -0.2647148   0.2603387  -0.0201298 SPIN=   0.00000
   O  -0.5000000   0.0000000   0.0000000 SPIN=   0.00000
   O   0.5000000   0.5000000   0.5000000 SPIN=   0.00000
  Fe   0.1430043   0.2621332  -0.2716949 SPIN=   4.00000
  Fe  -0.1430043  -0.2621332   0.2716949 SPIN=   4.00000
%ENDBLOCK POSITIONS_FRAC

# Note: total spin =   8.00

KPOINTS_MP_SPACING 0.07

%BLOCK SPECIES_POT
QC5
%ENDBLOCK SPECIES_POT

%BLOCK HUBBARD_U
Fe d:4.0
%ENDBLOCK HUBBARD_U

SNAP_TO_SYMMETRY
SYMMETRY_GENERATE

