#              Generated by Buildcell
#
# at 08:52:20 (GMT+0.0) 24th November 2020
# in /lustre/scratch/uccabz1/launch_tmp
# on node-c12f-031
# by uccabz1
#
# compiler GCC version 4.9.2
# options -cpp -iprefix /lustre/shared/ucl/apps/gcc/4.9.2/bin/../lib/gcc/x86_64-unknown-linux-gnu/4.9.2/ -mtune=corei7 -march=x86-64 -g -Og
#
# seed  -526266577   982901502  1562145529  1215787356  -383341451 -1905846737   514642345  -294354554 -2092842343 -1444149105  1836330130  -962424664
#
#      Author: C. J. Pickard (cjp20@cam.ac.uk)
#                Space group: C2
#

%BLOCK LATTICE_ABC
      5.43998      5.76470      5.76470
    117.19763     92.96138     92.96138
%ENDBLOCK LATTICE_ABC

%BLOCK POSITIONS_FRAC
  Li   0.2177902   0.8823071   0.4856017 SPIN=   0.00000
  Li  -0.2177902   0.5143983   0.1176929 SPIN=   0.00000
   O  -0.0970892   0.2890978   0.3227899 SPIN=   0.00000
   O  -0.1219898   0.0370002   0.5977367 SPIN=   0.00000
   O  -0.5104050   0.0969580   0.3977799 SPIN=   0.00000
   P  -0.2290242   0.0630654   0.3527483 SPIN=   0.00000
   O   0.0970892  -0.3227899  -0.2890978 SPIN=   0.00000
   O   0.1219898  -0.5977367  -0.0370002 SPIN=   0.00000
   O   0.5104050  -0.3977799  -0.0969580 SPIN=   0.00000
   P   0.2290242  -0.3527483  -0.0630654 SPIN=   0.00000
   O   0.5000000   0.1264172  -0.1264172 SPIN=   0.00000
   O   0.5000000   0.6176421   0.3823579 SPIN=   0.00000
  Fe  -0.2733908  -0.2033862  -0.2535197 SPIN=   4.00000
  Fe   0.2733908   0.2535197   0.2033862 SPIN=   4.00000
%ENDBLOCK POSITIONS_FRAC

# Note: total spin =   8.00

KPOINTS_MP_SPACING 0.07

%BLOCK SPECIES_POT
QC5
%ENDBLOCK SPECIES_POT

%BLOCK HUBBARD_U
Fe d:4.0
%ENDBLOCK HUBBARD_U

SNAP_TO_SYMMETRY
SYMMETRY_GENERATE

