#              Generated by Buildcell
#
# at 12:47:27 (GMT+0.0) 24th November 2020
# in /scratch/scratch/uccabz1/launch_tmp
# on node-a14a-027
# by uccabz1
#
# compiler GCC version 4.9.2
# options -cpp -iprefix /scratch/UCL/applications/gcc/4.9.2/bin/../lib/gcc/x86_64-unknown-linux-gnu/4.9.2/ -mtune=corei7 -march=x86-64 -g -O2
#
# seed  -968422241 -2119069464   949057604 -1991441917  1322679174   670986679  1935654646   596711931   527769411  2065467790  -775079140 -1644580980
#
#      Author: C. J. Pickard (cjp20@cam.ac.uk)
#                Space group: I4
#

%BLOCK LATTICE_ABC
      5.49048      5.49048      6.57598
    114.67464    114.67464     90.00000
%ENDBLOCK LATTICE_ABC

%BLOCK POSITIONS_FRAC
  Li  -0.0026690   0.4973310  -0.0053379 SPIN=   0.00000
  Li   0.4973310  -0.0026690  -0.0053379 SPIN=   0.00000
   O   0.0082249  -0.1524834   0.2969133 SPIN=   0.00000
   O   0.4949502  -0.0067392   0.6746421 SPIN=   0.00000
   O   0.2886885  -0.5506033  -0.7030867 SPIN=   0.00000
   O   0.1796919  -0.3186187  -0.3253579 SPIN=   0.00000
   O  -0.1524834   0.2886885   0.2969133 SPIN=   0.00000
   O  -0.0067392   0.1796919   0.6746421 SPIN=   0.00000
   O  -0.5506033   0.0082249  -0.7030867 SPIN=   0.00000
   O  -0.3186187   0.4949502  -0.3253579 SPIN=   0.00000
   P  -0.2523229   0.2476771  -0.5046459 SPIN=   0.00000
   P   0.2476771  -0.2523229  -0.5046459 SPIN=   0.00000
  Fe  -0.1779760  -0.1779760  -0.3559520 SPIN=   4.42425
  Fe   0.3228152   0.3228152   0.6456303 SPIN=   3.57575
%ENDBLOCK POSITIONS_FRAC

# Note: total spin =   8.00

KPOINTS_MP_SPACING 0.07

%BLOCK SPECIES_POT
QC5
%ENDBLOCK SPECIES_POT

%BLOCK HUBBARD_U
Fe d:4.0
%ENDBLOCK HUBBARD_U

SNAP_TO_SYMMETRY
SYMMETRY_GENERATE

