#              Generated by Buildcell
#
# at 14:42:12 (GMT+0.0) 24th November 2020
# in /scratch/scratch/uccabz1/launch_tmp
# on node-a14b-010
# by uccabz1
#
# compiler GCC version 4.9.2
# options -cpp -iprefix /scratch/UCL/applications/gcc/4.9.2/bin/../lib/gcc/x86_64-unknown-linux-gnu/4.9.2/ -mtune=corei7 -march=x86-64 -g -O2
#
# seed  -815291273   410835319  -712331250   666842181   854732900  1188824886 -1821738641 -1003456120 -1926331990  1225911347  -438202719   -93676062
#
#      Author: C. J. Pickard (cjp20@cam.ac.uk)
#                Space group: P21
#

%BLOCK LATTICE_ABC
      3.97529      5.59004      7.53152
     90.00000     90.00000    107.06143
%ENDBLOCK LATTICE_ABC

%BLOCK POSITIONS_FRAC
  Li  -0.1663034  -0.3410437  -0.0698880 SPIN=   0.00000
  Li   0.1663034   0.3410437   0.4301120 SPIN=   0.00000
   O   0.0071290  -0.3364398   0.4774498 SPIN=   0.00000
   O  -0.4559812  -0.5141150   0.2309316 SPIN=   0.00000
   O  -0.4150775  -0.0978827   0.3556686 SPIN=   0.00000
   O   0.0688777  -0.1506420   0.1609514 SPIN=   0.00000
   P  -0.1846418  -0.2765887   0.3136512 SPIN=   0.00000
   O  -0.0071290   0.3364398  -0.0225502 SPIN=   0.00000
   O   0.4559812   0.5141150  -0.2690684 SPIN=   0.00000
   O   0.4150775   0.0978827  -0.1443314 SPIN=   0.00000
   O  -0.0688777   0.1506420  -0.3390486 SPIN=   0.00000
   P   0.1846418   0.2765887  -0.1863488 SPIN=   0.00000
  Fe   0.4309436  -0.1038595  -0.3775708 SPIN=   4.00000
  Fe  -0.4309436   0.1038595   0.1224292 SPIN=   4.00000
%ENDBLOCK POSITIONS_FRAC

# Note: total spin =   8.00

KPOINTS_MP_SPACING 0.07

%BLOCK SPECIES_POT
QC5
%ENDBLOCK SPECIES_POT

%BLOCK HUBBARD_U
Fe d:4.0
%ENDBLOCK HUBBARD_U

SNAP_TO_SYMMETRY
SYMMETRY_GENERATE

