#              Generated by Buildcell
#
# at 10:44:30 (GMT+0.0) 24th November 2020
# in /scratch/scratch/uccabz1/launch_tmp
# on node-a14c-005
# by uccabz1
#
# compiler GCC version 4.9.2
# options -cpp -iprefix /scratch/UCL/applications/gcc/4.9.2/bin/../lib/gcc/x86_64-unknown-linux-gnu/4.9.2/ -mtune=corei7 -march=x86-64 -g -O2
#
# seed   833723737   896041612  1205843571  1906020281 -1133255003  -917609175   562517205   400824810   581904806  1207975114   477760422  1169438486
#
#      Author: C. J. Pickard (cjp20@cam.ac.uk)
#                Space group: P21
#

%BLOCK LATTICE_ABC
      3.91278      5.74802      7.50010
     90.00000     90.00000    108.46357
%ENDBLOCK LATTICE_ABC

%BLOCK POSITIONS_FRAC
  Li  -0.1145947  -0.3549041   0.4074859 SPIN=   0.00000
  Li   0.1145947   0.3549041  -0.0925141 SPIN=   0.00000
   O  -0.3620683  -0.3707464  -0.0891003 SPIN=   0.00000
   O   0.0374083  -0.4768178  -0.3324594 SPIN=   0.00000
   O  -0.1893070  -0.1276367  -0.3854027 SPIN=   0.00000
   O   0.2864251  -0.0916922  -0.1541652 SPIN=   0.00000
   P  -0.0690835  -0.2701965  -0.2312160 SPIN=   0.00000
   O   0.3620683   0.3707464   0.4108997 SPIN=   0.00000
   O  -0.0374083   0.4768178   0.1675406 SPIN=   0.00000
   O   0.1893070   0.1276367   0.1145973 SPIN=   0.00000
   O  -0.2864251   0.0916922   0.3458348 SPIN=   0.00000
   P   0.0690835   0.2701965   0.2687840 SPIN=   0.00000
  Fe   0.4993636   0.1092582  -0.3997337 SPIN=   4.00000
  Fe  -0.4993636  -0.1092582   0.1002663 SPIN=   4.00000
%ENDBLOCK POSITIONS_FRAC

# Note: total spin =   8.00

KPOINTS_MP_SPACING 0.07

%BLOCK SPECIES_POT
QC5
%ENDBLOCK SPECIES_POT

%BLOCK HUBBARD_U
Fe d:4.0
%ENDBLOCK HUBBARD_U

SNAP_TO_SYMMETRY
SYMMETRY_GENERATE

