#              Generated by Buildcell
#
# at 17:56:23 (GMT+0.0) 26th November 2020
# in /scratch/scratch/uccabz1/launch_tmp
# on node-k10d-022
# by uccabz1
#
# compiler GCC version 4.9.2
# options -cpp -iprefix /scratch/UCL/applications/gcc/4.9.2/bin/../lib/gcc/x86_64-unknown-linux-gnu/4.9.2/ -mtune=corei7 -march=x86-64 -g -O2
#
# seed -1309496153  1069339997   629845446  -432700707   529933122   100793265  1871988172   502195596   963145302   527473212  -821350665  1549016318
#
#      Author: C. J. Pickard (cjp20@cam.ac.uk)
#                Space group: P-1
#

%BLOCK LATTICE_ABC
      4.69336      7.84020      9.31221
    101.26626     90.60253    107.29566
%ENDBLOCK LATTICE_ABC

%BLOCK POSITIONS_FRAC
  Li  -0.3593706  -0.3323858   0.1194608 SPIN=   0.00000
  Li   0.3593706   0.3323858  -0.1194608 SPIN=   0.00000
  Li   0.1342055  -0.3393578  -0.0861134 SPIN=   0.00000
  Li  -0.1342055   0.3393578   0.0861134 SPIN=   0.00000
   O   0.4597155   0.1805487  -0.3834842 SPIN=   0.00000
   O   0.2991127  -0.1663717  -0.3832007 SPIN=   0.00000
   O   0.2583023   0.0472812  -0.1569815 SPIN=   0.00000
   O  -0.0929829  -0.0077634  -0.3772518 SPIN=   0.00000
   P   0.2393891   0.0220722  -0.3289453 SPIN=   0.00000
   O  -0.4597155  -0.1805487   0.3834842 SPIN=   0.00000
   O  -0.2991127   0.1663717   0.3832007 SPIN=   0.00000
   O  -0.2583023  -0.0472812   0.1569815 SPIN=   0.00000
   O   0.0929829   0.0077634   0.3772518 SPIN=   0.00000
   P  -0.2393891  -0.0220722   0.3289453 SPIN=   0.00000
   O  -0.1620202  -0.5838547  -0.2094535 SPIN=   0.00000
   O  -0.6432853  -0.5122417  -0.2824341 SPIN=   0.00000
   O  -0.1605590  -0.2669698  -0.2547580 SPIN=   0.00000
   O  -0.2659949  -0.5323848  -0.4680380 SPIN=   0.00000
   P  -0.2996988  -0.4804099  -0.3005940 SPIN=   0.00000
   O   0.1620202   0.5838547   0.2094535 SPIN=   0.00000
   O   0.6432853   0.5122417   0.2824341 SPIN=   0.00000
   O   0.1605590   0.2669698   0.2547580 SPIN=   0.00000
   O   0.2659949   0.5323848   0.4680380 SPIN=   0.00000
   P   0.2996988   0.4804099   0.3005940 SPIN=   0.00000
  Fe   0.0901450   0.2897305  -0.4562192 SPIN=   3.00915
  Fe  -0.0901450  -0.2897305   0.4562192 SPIN=   3.00915
  Fe   0.2818898   0.0326715   0.1722807 SPIN=   4.99085
  Fe  -0.2818898  -0.0326715  -0.1722807 SPIN=   4.99085
%ENDBLOCK POSITIONS_FRAC

# Note: total spin =  16.00

KPOINTS_MP_SPACING 0.07

%BLOCK SPECIES_POT
QC5
%ENDBLOCK SPECIES_POT

%BLOCK HUBBARD_U
Fe d:4.0
%ENDBLOCK HUBBARD_U

SNAP_TO_SYMMETRY
SYMMETRY_GENERATE

