#              Generated by Buildcell
#
# at 14:01:21 (GMT+0.0) 24th November 2020
# in /lustre/scratch/uccabz1/launch_tmp
# on node-c12g-025
# by uccabz1
#
# compiler GCC version 4.9.2
# options -cpp -iprefix /lustre/shared/ucl/apps/gcc/4.9.2/bin/../lib/gcc/x86_64-unknown-linux-gnu/4.9.2/ -mtune=corei7 -march=x86-64 -g -Og
#
# seed -1834992203   -47503156  1498392627 -1020349199 -1451775543   824328052  1943019451   527453379  -362654630  1788838247  -893896124   883060176
#
#      Author: C. J. Pickard (cjp20@cam.ac.uk)
#                Space group: P21/m
#

%BLOCK LATTICE_ABC
      3.76924      5.06617      8.50819
     90.00000     90.00000     99.99594
%ENDBLOCK LATTICE_ABC

%BLOCK POSITIONS_FRAC
  Li   0.2729616  -0.0133114  -0.2500000 SPIN=   0.00000
  Li  -0.2729616   0.0133114   0.2500000 SPIN=   0.00000
   O  -0.1137556   0.1241512  -0.3932738 SPIN=   0.00000
   O  -0.5058041   0.3216976  -0.5985805 SPIN=   0.00000
   O   0.1137556  -0.1241512   0.1067262 SPIN=   0.00000
   O   0.5058041  -0.3216976  -0.0985805 SPIN=   0.00000
   O   0.1137556  -0.1241512   0.3932738 SPIN=   0.00000
   O   0.5058041  -0.3216976   0.5985805 SPIN=   0.00000
   O  -0.1137556   0.1241512  -0.1067262 SPIN=   0.00000
   O  -0.5058041   0.3216976   0.0985805 SPIN=   0.00000
   P  -0.4953227  -0.4856934  -0.2500000 SPIN=   0.00000
   P   0.4953227   0.4856934   0.2500000 SPIN=   0.00000
  Fe   0.0000000   0.5000000  -0.0000000 SPIN=   4.00000
  Fe   0.0000000   0.5000000  -0.5000000 SPIN=   4.00000
%ENDBLOCK POSITIONS_FRAC

# Note: total spin =   8.00

KPOINTS_MP_SPACING 0.07

%BLOCK SPECIES_POT
QC5
%ENDBLOCK SPECIES_POT

%BLOCK HUBBARD_U
Fe d:4.0
%ENDBLOCK HUBBARD_U

SNAP_TO_SYMMETRY
SYMMETRY_GENERATE

