#              Generated by Buildcell
#
# at 13:21:43 (GMT+0.0) 26th November 2020
# in /lustre/scratch/uccabz1/launch_tmp
# on node-c12i-031
# by uccabz1
#
# compiler GCC version 4.9.2
# options -cpp -iprefix /lustre/shared/ucl/apps/gcc/4.9.2/bin/../lib/gcc/x86_64-unknown-linux-gnu/4.9.2/ -mtune=corei7 -march=x86-64 -g -Og
#
# seed   697705653  1895826462 -1249633234  -983786728  1591267889   954815290 -1714189902   750177872   -60132955   138458457 -1263690805  -812189226
#
#      Author: C. J. Pickard (cjp20@cam.ac.uk)
#                Space group: P2
#

%BLOCK LATTICE_ABC
      6.04631      6.44128      8.46797
     90.00000    103.99781     90.00000
%ENDBLOCK LATTICE_ABC

%BLOCK POSITIONS_FRAC
  Li   0.2680744   0.2416730  -0.4542401 SPIN=   0.00000
  Li  -0.2680744   0.2416730   0.4542401 SPIN=   0.00000
  Li  -0.2465781  -0.2926681  -0.4896429 SPIN=   0.00000
  Li   0.2465781  -0.2926681   0.4896429 SPIN=   0.00000
   O  -0.1718131  -0.0010579  -0.3761285 SPIN=   0.00000
   O  -0.2691191  -0.2862294  -0.1866962 SPIN=   0.00000
   O  -0.2000353   0.0708080  -0.0797346 SPIN=   0.00000
   O  -0.5557516  -0.0080531  -0.2932595 SPIN=   0.00000
   P  -0.2954259  -0.0526333  -0.2422246 SPIN=   0.00000
   O   0.1718131  -0.0010579   0.3761285 SPIN=   0.00000
   O   0.2691191  -0.2862294   0.1866962 SPIN=   0.00000
   O   0.2000353   0.0708080   0.0797346 SPIN=   0.00000
   O   0.5557516  -0.0080531   0.2932595 SPIN=   0.00000
   P   0.2954259  -0.0526333   0.2422246 SPIN=   0.00000
   O  -0.1576589   0.5143676   0.0689242 SPIN=   0.00000
   O  -0.3909186   0.4860616   0.2885471 SPIN=   0.00000
   O   0.0017445   0.3477943   0.3531302 SPIN=   0.00000
   P  -0.1511800   0.5222967   0.2514834 SPIN=   0.00000
   O   0.1576589   0.5143676  -0.0689242 SPIN=   0.00000
   O   0.3909186   0.4860616  -0.2885471 SPIN=   0.00000
   O  -0.0017445   0.3477943  -0.3531302 SPIN=   0.00000
   P   0.1511800   0.5222967  -0.2514834 SPIN=   0.00000
   O   0.5000000  -0.1724506  -0.0000000 SPIN=   0.00000
   O  -0.5000000   0.2921056  -0.0000000 SPIN=   0.00000
  Fe  -0.2780505   0.3889737  -0.1741384 SPIN=   5.48731
  Fe   0.2780505   0.3889737   0.1741384 SPIN=   5.48731
  Fe   0.1985305  -0.0526330  -0.1511540 SPIN=   2.51269
  Fe  -0.1985305  -0.0526330   0.1511540 SPIN=   2.51269
%ENDBLOCK POSITIONS_FRAC

# Note: total spin =  16.00

KPOINTS_MP_SPACING 0.07

%BLOCK SPECIES_POT
QC5
%ENDBLOCK SPECIES_POT

%BLOCK HUBBARD_U
Fe d:4.0
%ENDBLOCK HUBBARD_U

SNAP_TO_SYMMETRY
SYMMETRY_GENERATE

