#              Generated by Buildcell
#
# at 06:32:43 (GMT+0.0) 24th November 2020
# in /lustre/scratch/uccabz1/launch_tmp
# on node-c12m-033
# by uccabz1
#
# compiler GCC version 4.9.2
# options -cpp -iprefix /lustre/shared/ucl/apps/gcc/4.9.2/bin/../lib/gcc/x86_64-unknown-linux-gnu/4.9.2/ -mtune=corei7 -march=x86-64 -g -Og
#
# seed  -101448833  1676432472 -1071749595 -1477192313  -673145704 -1126934218  1717506496 -1524919566 -1548423779  2106223306   243558656  1169287594
#
#      Author: C. J. Pickard (cjp20@cam.ac.uk)
#                Space group: Cc
#

%BLOCK LATTICE_ABC
      4.85325      6.15024      6.15024
     61.26949     84.57052     84.57052
%ENDBLOCK LATTICE_ABC

%BLOCK POSITIONS_FRAC
  Li  -0.2962872  -0.2480623   0.4647521 SPIN=   0.00000
  Li   0.2037128   0.4647521  -0.2480623 SPIN=   0.00000
   O   0.1254800   0.2926541   0.4669372 SPIN=   0.00000
   O   0.0916364  -0.1316158   0.4779135 SPIN=   0.00000
   O   0.5067230   0.1054863   0.2689231 SPIN=   0.00000
   O   0.4388931  -0.0932006   0.7322215 SPIN=   0.00000
   P   0.2836359   0.0549950   0.4883571 SPIN=   0.00000
   O  -0.3745200   0.4669372   0.2926541 SPIN=   0.00000
   O  -0.4083636   0.4779135  -0.1316158 SPIN=   0.00000
   O   0.0067230   0.2689231   0.1054863 SPIN=   0.00000
   O  -0.0611069   0.7322215  -0.0932006 SPIN=   0.00000
   P  -0.2163641   0.4883571   0.0549950 SPIN=   0.00000
  Fe  -0.2489770   0.1515185  -0.3314066 SPIN=   4.00000
  Fe   0.2510230  -0.3314066   0.1515185 SPIN=   4.00000
%ENDBLOCK POSITIONS_FRAC

# Note: total spin =   8.00

KPOINTS_MP_SPACING 0.07

%BLOCK SPECIES_POT
QC5
%ENDBLOCK SPECIES_POT

%BLOCK HUBBARD_U
Fe d:4.0
%ENDBLOCK HUBBARD_U

SNAP_TO_SYMMETRY
SYMMETRY_GENERATE

