#              Generated by Buildcell
#
# at 09:22:23 (GMT+0.0) 24th November 2020
# in /lustre/scratch/uccabz1/launch_tmp
# on node-c12a-028
# by uccabz1
#
# compiler GCC version 4.9.2
# options -cpp -iprefix /lustre/shared/ucl/apps/gcc/4.9.2/bin/../lib/gcc/x86_64-unknown-linux-gnu/4.9.2/ -mtune=corei7 -march=x86-64 -g -Og
#
# seed   -28470725   573548276 -1416258058  -227175502  1522549376  2018348745   560052410  -693018781  1010553383   385926598 -1358990649 -1259858266
#
#      Author: C. J. Pickard (cjp20@cam.ac.uk)
#                Space group: P-1
#

%BLOCK LATTICE_ABC
      3.87495      5.95788      7.73410
    108.35318    104.43199     97.25378
%ENDBLOCK LATTICE_ABC

%BLOCK POSITIONS_FRAC
  Li   0.0469350  -0.2488107  -0.0079225 SPIN=   0.00000
  Li  -0.0469350   0.2488107   0.0079225 SPIN=   0.00000
   O   0.0114811   0.2501137   0.2868245 SPIN=   0.00000
   O   0.6639418   0.3262606   0.5185749 SPIN=   0.00000
   O   0.3828102  -0.0850318   0.2777472 SPIN=   0.00000
   P   0.3911610   0.1902086   0.3107450 SPIN=   0.00000
   O  -0.0114811  -0.2501137  -0.2868245 SPIN=   0.00000
   O  -0.6639418  -0.3262606  -0.5185749 SPIN=   0.00000
   O  -0.3828102   0.0850318  -0.2777472 SPIN=   0.00000
   P  -0.3911610  -0.1902086  -0.3107450 SPIN=   0.00000
   O   1.0000000   1.0000000   0.5000000 SPIN=   0.00000
   O   0.5000000   0.0000000  -0.0000000 SPIN=   0.00000
  Fe  -0.6902120  -0.6562932  -0.3148120 SPIN=   4.00000
  Fe   0.6902120   0.6562932   0.3148120 SPIN=   4.00000
%ENDBLOCK POSITIONS_FRAC

# Note: total spin =   8.00

KPOINTS_MP_SPACING 0.07

%BLOCK SPECIES_POT
QC5
%ENDBLOCK SPECIES_POT

%BLOCK HUBBARD_U
Fe d:4.0
%ENDBLOCK HUBBARD_U

SNAP_TO_SYMMETRY
SYMMETRY_GENERATE

