#              Generated by Buildcell
#
# at 18:17:19 (GMT+0.0) 26th November 2020
# in /lustre/scratch/uccabz1/launch_tmp
# on node-c12j-022
# by uccabz1
#
# compiler GCC version 4.9.2
# options -cpp -iprefix /lustre/shared/ucl/apps/gcc/4.9.2/bin/../lib/gcc/x86_64-unknown-linux-gnu/4.9.2/ -mtune=corei7 -march=x86-64 -g -Og
#
# seed  -290285614   415145977   756519872 -1239829528  1636201223  -902186964   622450928  2007010014  -280452124   242767899  -312740466  -514353943
#
#      Author: C. J. Pickard (cjp20@cam.ac.uk)
#                Space group: C2221
#

%BLOCK LATTICE_ABC
      6.15758      6.15758      9.24947
     90.00000     90.00000    114.15268
%ENDBLOCK LATTICE_ABC

%BLOCK POSITIONS_FRAC
  Li  -0.1068042   0.3331952   0.1416420 SPIN=   0.00000
  Li   0.1068042  -0.3331952  -0.3583580 SPIN=   0.00000
  Li   0.3331952  -0.1068042   0.3583580 SPIN=   0.00000
  Li  -0.3331952   0.1068042  -0.1416420 SPIN=   0.00000
   O   0.3333831   0.6712717  -0.1333392 SPIN=   0.00000
   O   0.0432657   0.2815924  -0.2570320 SPIN=   0.00000
   O   0.1501357   0.2635436  -0.0012883 SPIN=   0.00000
   O  -0.1125286   0.4696587  -0.0666341 SPIN=   0.00000
   P   0.1132506   0.4353829  -0.1150068 SPIN=   0.00000
   O  -0.3333831  -0.6712717   0.3666608 SPIN=   0.00000
   O  -0.0432657  -0.2815924   0.2429680 SPIN=   0.00000
   O  -0.1501357  -0.2635436   0.4987117 SPIN=   0.00000
   O   0.1125286  -0.4696587   0.4333659 SPIN=   0.00000
   P  -0.1132506  -0.4353829   0.3849932 SPIN=   0.00000
   O   0.6712717   0.3333831  -0.3666608 SPIN=   0.00000
   O   0.2815924   0.0432657  -0.2429680 SPIN=   0.00000
   O   0.2635436   0.1501357  -0.4987117 SPIN=   0.00000
   O   0.4696587  -0.1125286  -0.4333659 SPIN=   0.00000
   P   0.4353829   0.1132506  -0.3849932 SPIN=   0.00000
   O  -0.6712717  -0.3333831   0.1333392 SPIN=   0.00000
   O  -0.2815924  -0.0432657   0.2570320 SPIN=   0.00000
   O  -0.2635436  -0.1501357   0.0012883 SPIN=   0.00000
   O  -0.4696587   0.1125286   0.0666341 SPIN=   0.00000
   P  -0.4353829  -0.1132506   0.1150068 SPIN=   0.00000
  Fe  -0.4332065  -0.4332065  -0.2500000 SPIN=   4.85768
  Fe   0.4332065   0.4332065   0.2500000 SPIN=   4.85768
  Fe   0.1247205  -0.1247205   0.0000000 SPIN=   3.14232
  Fe  -0.1247205   0.1247205  -0.5000000 SPIN=   3.14232
%ENDBLOCK POSITIONS_FRAC

# Note: total spin =  16.00

KPOINTS_MP_SPACING 0.07

%BLOCK SPECIES_POT
QC5
%ENDBLOCK SPECIES_POT

%BLOCK HUBBARD_U
Fe d:4.0
%ENDBLOCK HUBBARD_U

SNAP_TO_SYMMETRY
SYMMETRY_GENERATE

