#              Generated by Buildcell
#
# at 14:12:09 (GMT+0.0) 24th November 2020
# in /scratch/scratch/uccabz1/launch_tmp
# on node-k10i-019
# by uccabz1
#
# compiler GCC version 4.9.2
# options -cpp -iprefix /scratch/UCL/applications/gcc/4.9.2/bin/../lib/gcc/x86_64-unknown-linux-gnu/4.9.2/ -mtune=corei7 -march=x86-64 -g -O2
#
# seed  -297091798 -1294754432 -2046387309  -790317458 -1505248085 -1049718282  1715912925  1990438580   317370603  1686953486  -505359787  -531470397
#
#      Author: C. J. Pickard (cjp20@cam.ac.uk)
#                Space group: Cm
#

%BLOCK LATTICE_ABC
      4.68647      6.22140      6.22140
     91.36695    109.19699    109.19699
%ENDBLOCK LATTICE_ABC

%BLOCK POSITIONS_FRAC
  Li   0.3487248  -0.0183905  -0.3961839 SPIN=   0.00000
  Li   0.3487248  -0.3961839  -0.0183905 SPIN=   0.00000
   O  -0.0087753   0.2246810  -0.0920241 SPIN=   0.00000
   O   0.2915681   0.3032063  -0.3825539 SPIN=   0.00000
   O  -0.2540104   0.0039022  -0.5083211 SPIN=   0.00000
   P  -0.0405975   0.2391269  -0.3447946 SPIN=   0.00000
   O  -0.0087753  -0.0920241   0.2246810 SPIN=   0.00000
   O   0.2915681  -0.3825539   0.3032063 SPIN=   0.00000
   O  -0.2540104  -0.5083211   0.0039022 SPIN=   0.00000
   P  -0.0405975  -0.3447946   0.2391269 SPIN=   0.00000
   O  -0.3626829  -0.1845327  -0.1845327 SPIN=   0.00000
   O   0.3049601  -0.0331167  -0.0331167 SPIN=   0.00000
  Fe  -0.3348289  -0.4183579  -0.4183579 SPIN=   4.84353
  Fe  -0.2128329   0.1649839   0.1649839 SPIN=   3.15647
%ENDBLOCK POSITIONS_FRAC

# Note: total spin =   8.00

KPOINTS_MP_SPACING 0.07

%BLOCK SPECIES_POT
QC5
%ENDBLOCK SPECIES_POT

%BLOCK HUBBARD_U
Fe d:4.0
%ENDBLOCK HUBBARD_U

SNAP_TO_SYMMETRY
SYMMETRY_GENERATE

