#              Generated by Buildcell
#
# at 20:56:24 (GMT+0.0) 26th November 2020
# in /lustre/scratch/uccabz1/launch_tmp
# on node-c12k-022
# by uccabz1
#
# compiler GCC version 4.9.2
# options -cpp -iprefix /lustre/shared/ucl/apps/gcc/4.9.2/bin/../lib/gcc/x86_64-unknown-linux-gnu/4.9.2/ -mtune=corei7 -march=x86-64 -g -Og
#
# seed -1457680357  -931107807  -138514871 -1210152788   856369824   220593865  1481195455 -1325675234  1331591230 -1955233473   888433742 -1568490742
#
#      Author: C. J. Pickard (cjp20@cam.ac.uk)
#                Space group: C2
#

%BLOCK LATTICE_ABC
      5.05482      5.05482     14.37525
     92.81675     92.81675    118.91789
%ENDBLOCK LATTICE_ABC

%BLOCK POSITIONS_FRAC
  Li   0.1820740  -0.0945405  -0.2295662 SPIN=   0.00000
  Li   0.0945405  -0.1820740   0.2295662 SPIN=   0.00000
  Li  -0.2212151   0.2212151   0.0000000 SPIN=   0.00000
  Li   0.0726481  -0.0726481   0.5000000 SPIN=   0.00000
   O  -0.4801887   0.1918935   0.2152964 SPIN=   0.00000
   O   0.0165499   0.1809627   0.2631995 SPIN=   0.00000
   O  -0.2740218  -0.0983403   0.1146469 SPIN=   0.00000
   O   0.0031391   0.4696389   0.1280136 SPIN=   0.00000
   P  -0.1972165   0.1896973   0.1815362 SPIN=   0.00000
   O  -0.1918935   0.4801887  -0.2152964 SPIN=   0.00000
   O  -0.1809627  -0.0165499  -0.2631995 SPIN=   0.00000
   O   0.0983403   0.2740218  -0.1146469 SPIN=   0.00000
   O  -0.4696389  -0.0031391  -0.1280136 SPIN=   0.00000
   P  -0.1896973   0.1972165  -0.1815362 SPIN=   0.00000
   O   0.4554729  -0.3082527   0.2631756 SPIN=   0.00000
   O   0.2108862  -0.5276764   0.4157688 SPIN=   0.00000
   O   0.7082651  -0.0604846   0.4291041 SPIN=   0.00000
   O   0.2438041  -0.0416150   0.3699826 SPIN=   0.00000
   O   0.3082527  -0.4554729  -0.2631756 SPIN=   0.00000
   O   0.5276764  -0.2108862  -0.4157688 SPIN=   0.00000
   O   0.0604846  -0.7082651  -0.4291041 SPIN=   0.00000
   O   0.0416150  -0.2438041  -0.3699826 SPIN=   0.00000
   P   0.4456434  -0.4456434  -0.5000000 SPIN=   0.00000
   P   0.1518052  -0.1518052  -0.0000000 SPIN=   0.00000
  Fe  -0.2962844   0.3070096  -0.3666925 SPIN=   5.13311
  Fe  -0.3070096   0.2962844   0.3666925 SPIN=   5.13311
  Fe  -0.4545458  -0.4091706  -0.1301632 SPIN=   2.86689
  Fe   0.4091706   0.4545458   0.1301632 SPIN=   2.86689
%ENDBLOCK POSITIONS_FRAC

# Note: total spin =  16.00

KPOINTS_MP_SPACING 0.07

%BLOCK SPECIES_POT
QC5
%ENDBLOCK SPECIES_POT

%BLOCK HUBBARD_U
Fe d:4.0
%ENDBLOCK HUBBARD_U

SNAP_TO_SYMMETRY
SYMMETRY_GENERATE

