#              Generated by Buildcell
#
# at 20:34:19 (GMT+0.0) 26th November 2020
# in /lustre/scratch/uccabz1/launch_tmp
# on node-c12h-022
# by uccabz1
#
# compiler GCC version 4.9.2
# options -cpp -iprefix /lustre/shared/ucl/apps/gcc/4.9.2/bin/../lib/gcc/x86_64-unknown-linux-gnu/4.9.2/ -mtune=corei7 -march=x86-64 -g -Og
#
# seed   889188851  -957144500   912213946  -568308971 -1344388607  1215867518  1967635595  1021676948 -1200044987  1096454534  -240717018  2007527905
#
#      Author: C. J. Pickard (cjp20@cam.ac.uk)
#                Space group: Cc
#

%BLOCK LATTICE_ABC
      6.87251      6.87251      7.29677
     74.50248     74.50248     86.65908
%ENDBLOCK LATTICE_ABC

%BLOCK POSITIONS_FRAC
  Li  -0.1418022   0.0277862   0.2566586 SPIN=   0.00000
  Li   0.0277862  -0.1418022  -0.2433414 SPIN=   0.00000
  Li  -0.2601057  -0.3344546   0.1497794 SPIN=   0.00000
  Li  -0.3344546  -0.2601057  -0.3502206 SPIN=   0.00000
   O   0.2762725   0.4812947   0.1896062 SPIN=   0.00000
   O  -0.0200446   0.2247329   0.3733925 SPIN=   0.00000
   O  -0.0811177   0.5849313   0.3623243 SPIN=   0.00000
   O  -0.0332513   0.4710650   0.0547394 SPIN=   0.00000
   P   0.0474756   0.4430384   0.2398199 SPIN=   0.00000
   O   0.4812947   0.2762725  -0.3103938 SPIN=   0.00000
   O   0.2247329  -0.0200446  -0.1266075 SPIN=   0.00000
   O   0.5849313  -0.0811177  -0.1376757 SPIN=   0.00000
   O   0.4710650  -0.0332513  -0.4452606 SPIN=   0.00000
   P   0.4430384   0.0474756  -0.2601801 SPIN=   0.00000
   O  -0.3211859   0.5150681  -0.0941869 SPIN=   0.00000
   O  -0.1509031   0.1641441  -0.0412446 SPIN=   0.00000
   O  -0.3377224   0.2753759   0.2519281 SPIN=   0.00000
   O  -0.5282235   0.1816248   0.0387225 SPIN=   0.00000
   P  -0.3360854   0.2951448   0.0317226 SPIN=   0.00000
   O   0.5150681  -0.3211859  -0.5941869 SPIN=   0.00000
   O   0.1641441  -0.1509031  -0.5412446 SPIN=   0.00000
   O   0.2753759  -0.3377224  -0.2480719 SPIN=   0.00000
   O   0.1816248  -0.5282235  -0.4612775 SPIN=   0.00000
   P   0.2951448  -0.3360854  -0.4682774 SPIN=   0.00000
  Fe  -0.2038634   0.2846352  -0.3708705 SPIN=   4.14299
  Fe   0.2846352  -0.2038634   0.1291295 SPIN=   4.14299
  Fe   0.2103279   0.3532861  -0.1211903 SPIN=   3.85701
  Fe   0.3532861   0.2103279   0.3788097 SPIN=   3.85701
%ENDBLOCK POSITIONS_FRAC

# Note: total spin =  16.00

KPOINTS_MP_SPACING 0.07

%BLOCK SPECIES_POT
QC5
%ENDBLOCK SPECIES_POT

%BLOCK HUBBARD_U
Fe d:4.0
%ENDBLOCK HUBBARD_U

SNAP_TO_SYMMETRY
SYMMETRY_GENERATE

