#              Generated by Buildcell
#
# at 23:59:23 (GMT+0.0) 26th November 2020
# in /lustre/scratch/uccabz1/launch_tmp
# on node-c12n-030
# by uccabz1
#
# compiler GCC version 4.9.2
# options -cpp -iprefix /lustre/shared/ucl/apps/gcc/4.9.2/bin/../lib/gcc/x86_64-unknown-linux-gnu/4.9.2/ -mtune=corei7 -march=x86-64 -g -Og
#
# seed -1065804002 -1717425939  1857405126  1102100431   761267719  1355400989  1401785485  1828740072 -1531561833 -1490766416   700056493   245524470
#
#      Author: C. J. Pickard (cjp20@cam.ac.uk)
#                Space group: C2221
#

%BLOCK LATTICE_ABC
      3.89075      5.65872     15.47782
     90.00000     90.00000    110.10756
%ENDBLOCK LATTICE_ABC

%BLOCK POSITIONS_FRAC
  Li   0.3935438  -0.2129124   0.0000000 SPIN=   0.00000
  Li  -0.3935438   0.2129124  -0.5000000 SPIN=   0.00000
  Li  -0.3237762   0.3524475  -0.0000000 SPIN=   0.00000
  Li   0.3237762  -0.3524475  -0.5000000 SPIN=   0.00000
   O   0.1128665   0.4772724  -0.0879079 SPIN=   0.00000
   O   0.2976779   0.0787880  -0.0760889 SPIN=   0.00000
   O  -0.2099384   0.0662381  -0.1738922 SPIN=   0.00000
   O   0.4320305   0.3308738  -0.2127850 SPIN=   0.00000
   P   0.1589795   0.2521101  -0.1359054 SPIN=   0.00000
   O  -0.1128665  -0.4772724   0.4120921 SPIN=   0.00000
   O  -0.2976779  -0.0787880   0.4239111 SPIN=   0.00000
   O   0.2099384  -0.0662381   0.3261078 SPIN=   0.00000
   O  -0.4320305  -0.3308738   0.2872150 SPIN=   0.00000
   P  -0.1589795  -0.2521101   0.3640946 SPIN=   0.00000
   O  -0.3644059  -0.4772724  -0.4120921 SPIN=   0.00000
   O   0.2188898  -0.0787880  -0.4239111 SPIN=   0.00000
   O  -0.2761765  -0.0662381  -0.3261078 SPIN=   0.00000
   O   0.1011567  -0.3308738  -0.2872150 SPIN=   0.00000
   P  -0.0931306  -0.2521101  -0.3640946 SPIN=   0.00000
   O   0.3644059   0.4772724   0.0879079 SPIN=   0.00000
   O  -0.2188898   0.0787880   0.0760889 SPIN=   0.00000
   O   0.2761765   0.0662381   0.1738922 SPIN=   0.00000
   O  -0.1011567   0.3308738   0.2127850 SPIN=   0.00000
   P   0.0931306   0.2521101   0.1359054 SPIN=   0.00000
  Fe   0.1359792   0.2826259   0.3296938 SPIN=   4.00000
  Fe  -0.1359792  -0.2826259  -0.1703062 SPIN=   4.00000
  Fe  -0.1466468  -0.2826259   0.1703062 SPIN=   4.00000
  Fe   0.1466468   0.2826259  -0.3296938 SPIN=   4.00000
%ENDBLOCK POSITIONS_FRAC

# Note: total spin =  16.00

KPOINTS_MP_SPACING 0.07

%BLOCK SPECIES_POT
QC5
%ENDBLOCK SPECIES_POT

%BLOCK HUBBARD_U
Fe d:4.0
%ENDBLOCK HUBBARD_U

SNAP_TO_SYMMETRY
SYMMETRY_GENERATE

