#              Generated by Buildcell
#
# at 16:47:49 (GMT+0.0) 26th November 2020
# in /lustre/scratch/uccabz1/launch_tmp
# on node-c12i-031
# by uccabz1
#
# compiler GCC version 4.9.2
# options -cpp -iprefix /lustre/shared/ucl/apps/gcc/4.9.2/bin/../lib/gcc/x86_64-unknown-linux-gnu/4.9.2/ -mtune=corei7 -march=x86-64 -g -Og
#
# seed  -819773225 -1999424038  1720074256  -307061907 -1115134962  -503501419   279510071  -665515954   -43705408 -1137711174   373024653  -930279444
#
#      Author: C. J. Pickard (cjp20@cam.ac.uk)
#                Space group: P21212
#

%BLOCK LATTICE_ABC
      6.22361      6.47237      7.94409
     90.00000     90.00000     90.00000
%ENDBLOCK LATTICE_ABC

%BLOCK POSITIONS_FRAC
  Li   0.2575826   0.0284265  -0.0174996 SPIN=   0.00000
  Li  -0.2575826  -0.0284265  -0.0174996 SPIN=   0.00000
  Li  -0.2424174   0.4715735   0.0174996 SPIN=   0.00000
  Li   0.2424174  -0.4715735   0.0174996 SPIN=   0.00000
   O  -0.4052383   0.3324114  -0.2206498 SPIN=   0.00000
   O  -0.0102439   0.2577854  -0.1340330 SPIN=   0.00000
   O  -0.2023035  -0.0032070  -0.3037852 SPIN=   0.00000
   O  -0.0945799   0.3322846  -0.4362450 SPIN=   0.00000
   P  -0.1892003   0.2364904  -0.2727732 SPIN=   0.00000
   O   0.4052383  -0.3324114  -0.2206498 SPIN=   0.00000
   O   0.0102439  -0.2577854  -0.1340330 SPIN=   0.00000
   O   0.2023035   0.0032070  -0.3037852 SPIN=   0.00000
   O   0.0945799  -0.3322846  -0.4362450 SPIN=   0.00000
   P   0.1892003  -0.2364904  -0.2727732 SPIN=   0.00000
   O   0.0947617   0.1675886   0.2206498 SPIN=   0.00000
   O   0.4897561   0.2422146   0.1340330 SPIN=   0.00000
   O   0.2976965   0.5032070   0.3037852 SPIN=   0.00000
   O   0.4054201   0.1677154   0.4362450 SPIN=   0.00000
   P   0.3107997   0.2635096   0.2727732 SPIN=   0.00000
   O  -0.0947617  -0.1675886   0.2206498 SPIN=   0.00000
   O  -0.4897561  -0.2422146   0.1340330 SPIN=   0.00000
   O  -0.2976965  -0.5032070   0.3037852 SPIN=   0.00000
   O  -0.4054201  -0.1677154   0.4362450 SPIN=   0.00000
   P  -0.3107997  -0.2635096   0.2727732 SPIN=   0.00000
  Fe  -0.2500764  -0.3165297  -0.3610141 SPIN=   4.00000
  Fe   0.2500764   0.3165297  -0.3610141 SPIN=   4.00000
  Fe   0.2499236  -0.1834703   0.3610141 SPIN=   4.00000
  Fe  -0.2499236   0.1834703   0.3610141 SPIN=   4.00000
%ENDBLOCK POSITIONS_FRAC

# Note: total spin =  16.00

KPOINTS_MP_SPACING 0.07

%BLOCK SPECIES_POT
QC5
%ENDBLOCK SPECIES_POT

%BLOCK HUBBARD_U
Fe d:4.0
%ENDBLOCK HUBBARD_U

SNAP_TO_SYMMETRY
SYMMETRY_GENERATE

