#              Generated by Buildcell
#
# at 13:10:51 (GMT+0.0) 24th November 2020
# in /lustre/scratch/uccabz1/launch_tmp
# on node-c12p-031
# by uccabz1
#
# compiler GCC version 4.9.2
# options -cpp -iprefix /lustre/shared/ucl/apps/gcc/4.9.2/bin/../lib/gcc/x86_64-unknown-linux-gnu/4.9.2/ -mtune=corei7 -march=x86-64 -g -Og
#
# seed -2033375274   927128322  -284962096   690829975  -728006211  -728495591 -1790659139  -465194477  -995055354  -507276519  -326148168 -1395990006
#
#      Author: C. J. Pickard (cjp20@cam.ac.uk)
#                Space group: P-1
#

%BLOCK LATTICE_ABC
      3.91982      5.68476      7.76568
    110.28859     93.79379     97.00455
%ENDBLOCK LATTICE_ABC

%BLOCK POSITIONS_FRAC
  Li  -0.3266747   0.2948813   0.0376735 SPIN=   0.00000
  Li   0.3266747  -0.2948813  -0.0376735 SPIN=   0.00000
   O  -0.6811125   0.4612586  -0.3854439 SPIN=   0.00000
   O  -0.6463997   0.1332853  -0.2232147 SPIN=   0.00000
   O  -0.2205371   0.1587545  -0.4392018 SPIN=   0.00000
   O  -0.1833550   0.5128833  -0.1337410 SPIN=   0.00000
   P  -0.4431255   0.3265677  -0.2982869 SPIN=   0.00000
   O   0.6811125  -0.4612586   0.3854439 SPIN=   0.00000
   O   0.6463997  -0.1332853   0.2232147 SPIN=   0.00000
   O   0.2205371  -0.1587545   0.4392018 SPIN=   0.00000
   O   0.1833550  -0.5128833   0.1337410 SPIN=   0.00000
   P   0.4431255  -0.3265677   0.2982869 SPIN=   0.00000
  Fe  -0.1903331  -0.1684674  -0.3380203 SPIN=   4.00000
  Fe   0.1903331   0.1684674   0.3380203 SPIN=   4.00000
%ENDBLOCK POSITIONS_FRAC

# Note: total spin =   8.00

KPOINTS_MP_SPACING 0.07

%BLOCK SPECIES_POT
QC5
%ENDBLOCK SPECIES_POT

%BLOCK HUBBARD_U
Fe d:4.0
%ENDBLOCK HUBBARD_U

SNAP_TO_SYMMETRY
SYMMETRY_GENERATE

