#              Generated by Buildcell
#
# at 08:14:02 (GMT+0.0) 24th November 2020
# in /scratch/scratch/uccabz1/launch_tmp
# on node-k10e-034
# by uccabz1
#
# compiler GCC version 4.9.2
# options -cpp -iprefix /scratch/UCL/applications/gcc/4.9.2/bin/../lib/gcc/x86_64-unknown-linux-gnu/4.9.2/ -mtune=corei7 -march=x86-64 -g -O2
#
# seed   171945325 -1714102624   685584934  -335492570  1881160530  1883172868   827874790  -982187303   716413137 -1142186528   770198672  1982824089
#
#      Author: C. J. Pickard (cjp20@cam.ac.uk)
#                Space group: Cm
#

%BLOCK LATTICE_ABC
      3.85479      5.53659      7.99225
     69.73441     89.73335     89.23013
%ENDBLOCK LATTICE_ABC

%BLOCK POSITIONS_FRAC
  Li   0.2261554  -0.2575450   0.0000000 SPIN=   0.00000
  Li  -0.2822818   0.1597752  -0.0000000 SPIN=   0.00000
   O  -0.0230199   0.0550769  -0.1982634 SPIN=   0.00000
   O   0.4980483   0.2044975  -0.4154765 SPIN=   0.00000
   O  -0.0056927   0.4992340  -0.4539699 SPIN=   0.00000
   O   0.3848981   0.4170733  -0.1899770 SPIN=   0.00000
   P   0.2029838   0.2827033  -0.3067683 SPIN=   0.00000
   O  -0.0230199  -0.1431865   0.1982634 SPIN=   0.00000
   O   0.4980483  -0.2109790   0.4154765 SPIN=   0.00000
   O  -0.0056927   0.0452641   0.4539699 SPIN=   0.00000
   O   0.3848981   0.2270963   0.1899770 SPIN=   0.00000
   P   0.2029838  -0.0240650   0.3067683 SPIN=   0.00000
  Fe  -0.2699689  -0.2829172  -0.3234367 SPIN=   4.00000
  Fe  -0.2699689   0.3936461   0.3234367 SPIN=   4.00000
%ENDBLOCK POSITIONS_FRAC

# Note: total spin =   8.00

KPOINTS_MP_SPACING 0.07

%BLOCK SPECIES_POT
QC5
%ENDBLOCK SPECIES_POT

%BLOCK HUBBARD_U
Fe d:4.0
%ENDBLOCK HUBBARD_U

SNAP_TO_SYMMETRY
SYMMETRY_GENERATE

