#              Generated by Buildcell
#
# at 11:29:28 (GMT+0.0) 24th November 2020
# in /scratch/scratch/uccabz1/launch_tmp
# on node-a14c-007
# by uccabz1
#
# compiler GCC version 4.9.2
# options -cpp -iprefix /scratch/UCL/applications/gcc/4.9.2/bin/../lib/gcc/x86_64-unknown-linux-gnu/4.9.2/ -mtune=corei7 -march=x86-64 -g -O2
#
# seed  1152714069  -801902371  1943927243  -847318582  1481323781  1491760682   -54144094  -549029606   335094959   547671959  1107143978   437311767
#
#      Author: C. J. Pickard (cjp20@cam.ac.uk)
#                Space group: Pnc2
#

%BLOCK LATTICE_ABC
      5.05646      5.61167      5.63874
     90.00000     90.00000     90.00000
%ENDBLOCK LATTICE_ABC

%BLOCK POSITIONS_FRAC
  Li  -0.5000000  -0.0000000   0.1743556 SPIN=   0.00000
  Li  -0.5000000   0.5000000  -0.3256444 SPIN=   0.00000
   O  -0.2743785  -0.2706183  -0.1076716 SPIN=   0.00000
   O   0.1855932  -0.2359948   0.0947454 SPIN=   0.00000
   O   0.2743785   0.2706183  -0.1076716 SPIN=   0.00000
   O  -0.1855932   0.2359948   0.0947454 SPIN=   0.00000
   O  -0.2743785  -0.2293817   0.3923284 SPIN=   0.00000
   O   0.1855932  -0.2640052   0.5947454 SPIN=   0.00000
   O   0.2743785   0.2293817   0.3923284 SPIN=   0.00000
   O  -0.1855932   0.2640052   0.5947454 SPIN=   0.00000
   P  -0.0000000   0.0000000   0.3084858 SPIN=   0.00000
   P   0.0000000  -0.5000000  -0.1915142 SPIN=   0.00000
  Fe   0.0000000  -0.0000000  -0.1941750 SPIN=   4.00000
  Fe   0.0000000  -0.5000000   0.3058250 SPIN=   4.00000
%ENDBLOCK POSITIONS_FRAC

# Note: total spin =   8.00

KPOINTS_MP_SPACING 0.07

%BLOCK SPECIES_POT
QC5
%ENDBLOCK SPECIES_POT

%BLOCK HUBBARD_U
Fe d:4.0
%ENDBLOCK HUBBARD_U

SNAP_TO_SYMMETRY
SYMMETRY_GENERATE

