#              Generated by Buildcell
#
# at 20:45:35 (GMT+0.0) 26th November 2020
# in /lustre/scratch/uccabz1/launch_tmp
# on node-c12n-022
# by uccabz1
#
# compiler GCC version 4.9.2
# options -cpp -iprefix /lustre/shared/ucl/apps/gcc/4.9.2/bin/../lib/gcc/x86_64-unknown-linux-gnu/4.9.2/ -mtune=corei7 -march=x86-64 -g -Og
#
# seed   516289851  -332959180 -1504797409  -966918895 -1269604249 -1703849988   864279872  -276687696 -1550058712  1449507203   100521827   790509166
#
#      Author: C. J. Pickard (cjp20@cam.ac.uk)
#                Space group: P21
#

%BLOCK LATTICE_ABC
      5.41145      6.45404     10.02001
     90.00000     90.00000    113.87923
%ENDBLOCK LATTICE_ABC

%BLOCK POSITIONS_FRAC
  Li   0.2441015  -0.4116471  -0.1846650 SPIN=   0.00000
  Li  -0.2441015   0.4116471   0.3153350 SPIN=   0.00000
  Li  -0.1903850   0.0086422   0.0195709 SPIN=   0.00000
  Li   0.1903850  -0.0086422  -0.4804291 SPIN=   0.00000
   O   0.5857022   0.6438748   0.1881611 SPIN=   0.00000
   O   0.2615274   0.2611120   0.0845201 SPIN=   0.00000
   O   0.2440614   0.3128261   0.3280600 SPIN=   0.00000
   O   0.0702901   0.5279408   0.1733524 SPIN=   0.00000
   P   0.3035214   0.4485632   0.1929998 SPIN=   0.00000
   O  -0.5857022  -0.6438748  -0.3118389 SPIN=   0.00000
   O  -0.2615274  -0.2611120  -0.4154799 SPIN=   0.00000
   O  -0.2440614  -0.3128261  -0.1719400 SPIN=   0.00000
   O  -0.0702901  -0.5279408  -0.3266476 SPIN=   0.00000
   P  -0.3035214  -0.4485632  -0.3070002 SPIN=   0.00000
   O  -0.5692987  -0.1698248   0.3760036 SPIN=   0.00000
   O  -0.1545728   0.1633567   0.4756227 SPIN=   0.00000
   O  -0.0778926  -0.1421822   0.3584899 SPIN=   0.00000
   O  -0.2093841   0.1278015   0.2273965 SPIN=   0.00000
   P  -0.2691275  -0.0124072   0.3587059 SPIN=   0.00000
   O   0.5692987   0.1698248  -0.1239964 SPIN=   0.00000
   O   0.1545728  -0.1633567  -0.0243773 SPIN=   0.00000
   O   0.0778926   0.1421822  -0.1415101 SPIN=   0.00000
   O   0.2093841  -0.1278015  -0.2726035 SPIN=   0.00000
   P   0.2691275   0.0124072  -0.1412941 SPIN=   0.00000
  Fe   0.2648862  -0.0829371   0.1989441 SPIN=   3.58615
  Fe  -0.2648862   0.0829371  -0.3010559 SPIN=   3.58615
  Fe  -0.3153791   0.4659698  -0.0091650 SPIN=   4.41385
  Fe   0.3153791  -0.4659698   0.4908350 SPIN=   4.41385
%ENDBLOCK POSITIONS_FRAC

# Note: total spin =  16.00

KPOINTS_MP_SPACING 0.07

%BLOCK SPECIES_POT
QC5
%ENDBLOCK SPECIES_POT

%BLOCK HUBBARD_U
Fe d:4.0
%ENDBLOCK HUBBARD_U

SNAP_TO_SYMMETRY
SYMMETRY_GENERATE

