#              Generated by Buildcell
#
# at 14:47:57 (GMT+0.0) 24th November 2020
# in /lustre/scratch/uccabz1/launch_tmp
# on node-c12k-030
# by uccabz1
#
# compiler GCC version 4.9.2
# options -cpp -iprefix /lustre/shared/ucl/apps/gcc/4.9.2/bin/../lib/gcc/x86_64-unknown-linux-gnu/4.9.2/ -mtune=corei7 -march=x86-64 -g -Og
#
# seed    13101443  -754555445 -1290973961  -750252470  -188576766    49309940  1230237353 -1899266728  -955082336   970959464  -950213236 -2041837726
#
#      Author: C. J. Pickard (cjp20@cam.ac.uk)
#                Space group: P21
#

%BLOCK LATTICE_ABC
      4.14174      4.84287      7.97715
     90.00000     90.00000     90.44410
%ENDBLOCK LATTICE_ABC

%BLOCK POSITIONS_FRAC
  Li   0.4126895  -0.0477813   0.1954414 SPIN=   0.00000
  Li  -0.4126895   0.0477813  -0.3045586 SPIN=   0.00000
   O  -0.4004499   0.0452097   0.4313082 SPIN=   0.00000
   O   0.1177185  -0.2394445   0.3755413 SPIN=   0.00000
   O   0.1230774   0.2567455   0.3038774 SPIN=   0.00000
   O   0.1200036   0.1127776   0.6054071 SPIN=   0.00000
   P  -0.0291736   0.0447097   0.4312360 SPIN=   0.00000
   O   0.4004499  -0.0452097  -0.0686918 SPIN=   0.00000
   O  -0.1177185   0.2394445  -0.1244587 SPIN=   0.00000
   O  -0.1230774  -0.2567455  -0.1961226 SPIN=   0.00000
   O  -0.1200036  -0.1127776   0.1054071 SPIN=   0.00000
   P   0.0291736  -0.0447097  -0.0687640 SPIN=   0.00000
  Fe   0.0935274  -0.4547964  -0.3975782 SPIN=   4.00000
  Fe  -0.0935274   0.4547964   0.1024218 SPIN=   4.00000
%ENDBLOCK POSITIONS_FRAC

# Note: total spin =   8.00

KPOINTS_MP_SPACING 0.07

%BLOCK SPECIES_POT
QC5
%ENDBLOCK SPECIES_POT

%BLOCK HUBBARD_U
Fe d:4.0
%ENDBLOCK HUBBARD_U

SNAP_TO_SYMMETRY
SYMMETRY_GENERATE

