#              Generated by Buildcell
#
# at 13:26:03 (GMT+0.0) 24th November 2020
# in /scratch/scratch/uccabz1/launch_tmp
# on node-a14f-010
# by uccabz1
#
# compiler GCC version 4.9.2
# options -cpp -iprefix /scratch/UCL/applications/gcc/4.9.2/bin/../lib/gcc/x86_64-unknown-linux-gnu/4.9.2/ -mtune=corei7 -march=x86-64 -g -O2
#
# seed  -355369085  -593303745  1880988808   229180746 -1805030747   713921611  1687055045  1994514478   419363907 -2129853999  2002566022  1421113044
#
#      Author: C. J. Pickard (cjp20@cam.ac.uk)
#                Space group: Fdd2
#

%BLOCK LATTICE_ABC
      5.55821      5.55821      6.46190
    114.50969    114.50969     92.02914
%ENDBLOCK LATTICE_ABC

%BLOCK POSITIONS_FRAC
  Li   0.3582767   0.3582767  -0.2834467 SPIN=   0.00000
  Li   0.1082767  -0.3917233   0.2165533 SPIN=   0.00000
   O   0.0475560   0.1682774  -0.2521256 SPIN=   0.00000
   O  -0.3886654   0.0436507  -0.2236207 SPIN=   0.00000
   O  -0.2996816  -0.4204030  -0.2521256 SPIN=   0.00000
   O   0.1650447  -0.2672714  -0.2236207 SPIN=   0.00000
   O   0.3295970  -0.0496816   0.2478744 SPIN=   0.00000
   O   0.4827286   0.4150447   0.2763793 SPIN=   0.00000
   O  -0.0817226   0.2975560   0.2478744 SPIN=   0.00000
   O  -0.2063493  -0.1386654   0.2763793 SPIN=   0.00000
   P   0.0989046   0.0989046   0.1978091 SPIN=   0.00000
   P  -0.1510954   0.3489046  -0.3021909 SPIN=   0.00000
  Fe  -0.4686749   0.0313251   0.0626502 SPIN=   4.00000
  Fe  -0.2186749  -0.2186749  -0.4373498 SPIN=   4.00000
%ENDBLOCK POSITIONS_FRAC

# Note: total spin =   8.00

KPOINTS_MP_SPACING 0.07

%BLOCK SPECIES_POT
QC5
%ENDBLOCK SPECIES_POT

%BLOCK HUBBARD_U
Fe d:4.0
%ENDBLOCK HUBBARD_U

SNAP_TO_SYMMETRY
SYMMETRY_GENERATE

