#              Generated by Buildcell
#
# at 09:12:50 (GMT+0.0) 24th November 2020
# in /lustre/scratch/uccabz1/launch_tmp
# on node-c12l-027
# by uccabz1
#
# compiler GCC version 4.9.2
# options -cpp -iprefix /lustre/shared/ucl/apps/gcc/4.9.2/bin/../lib/gcc/x86_64-unknown-linux-gnu/4.9.2/ -mtune=corei7 -march=x86-64 -g -Og
#
# seed  -509643403  -479246547  -484516360  1838947161   166372759   -86888235  -819227473 -1629811258  2060731234 -1348419957   767866943   795193162
#
#      Author: C. J. Pickard (cjp20@cam.ac.uk)
#                Space group: P-1
#

%BLOCK LATTICE_ABC
      3.91401      6.20134      7.22628
    100.02995    104.32156    103.68309
%ENDBLOCK LATTICE_ABC

%BLOCK POSITIONS_FRAC
  Li  -0.0917062   0.2252343   0.0257305 SPIN=   0.00000
  Li   0.0917062  -0.2252343  -0.0257305 SPIN=   0.00000
   O   0.3986772  -0.2113082  -0.5407376 SPIN=   0.00000
   O   0.6296718  -0.1105883  -0.1580306 SPIN=   0.00000
   O   0.1196682   0.0281732  -0.3198460 SPIN=   0.00000
   O   0.0070222  -0.3902678  -0.3355975 SPIN=   0.00000
   P   0.2912877  -0.1757317  -0.3492834 SPIN=   0.00000
   O  -0.3986772   0.2113082   0.5407376 SPIN=   0.00000
   O  -0.6296718   0.1105883   0.1580306 SPIN=   0.00000
   O  -0.1196682  -0.0281732   0.3198460 SPIN=   0.00000
   O  -0.0070222   0.3902678   0.3355975 SPIN=   0.00000
   P  -0.2912877   0.1757317   0.3492834 SPIN=   0.00000
  Fe  -0.3186723  -0.3791906   0.2990658 SPIN=   4.00000
  Fe   0.3186723   0.3791906  -0.2990658 SPIN=   4.00000
%ENDBLOCK POSITIONS_FRAC

# Note: total spin =   8.00

KPOINTS_MP_SPACING 0.07

%BLOCK SPECIES_POT
QC5
%ENDBLOCK SPECIES_POT

%BLOCK HUBBARD_U
Fe d:4.0
%ENDBLOCK HUBBARD_U

SNAP_TO_SYMMETRY
SYMMETRY_GENERATE

