#              Generated by Buildcell
#
# at 12:07:03 (GMT+0.0) 24th November 2020
# in /lustre/scratch/uccabz1/launch_tmp
# on node-c12f-022
# by uccabz1
#
# compiler GCC version 4.9.2
# options -cpp -iprefix /lustre/shared/ucl/apps/gcc/4.9.2/bin/../lib/gcc/x86_64-unknown-linux-gnu/4.9.2/ -mtune=corei7 -march=x86-64 -g -Og
#
# seed  1271245920  1581813800  1780696123 -2076890904  1758164685  1196770068 -1533942703  -631190983   -30053456  -464997604 -1461364826  1485860569
#
#      Author: C. J. Pickard (cjp20@cam.ac.uk)
#                Space group: P-1
#

%BLOCK LATTICE_ABC
      4.18416      4.96048      8.73653
     90.69132    102.00087    114.80040
%ENDBLOCK LATTICE_ABC

%BLOCK POSITIONS_FRAC
  Li  -0.1142046   0.1890760   0.0944267 SPIN=   0.00000
  Li   0.1142046  -0.1890760  -0.0944267 SPIN=   0.00000
   O   0.6997938   0.2657642  -0.3701993 SPIN=   0.00000
   O   0.0669994  -0.1239298  -0.3453299 SPIN=   0.00000
   O   0.6089322  -0.1701303  -0.1965792 SPIN=   0.00000
   O   0.4779360   0.2511745  -0.1144013 SPIN=   0.00000
   O  -0.6997938  -0.2657642   0.3701993 SPIN=   0.00000
   O  -0.0669994   0.1239298   0.3453299 SPIN=   0.00000
   O  -0.6089322   0.1701303   0.1965792 SPIN=   0.00000
   O  -0.4779360  -0.2511745   0.1144013 SPIN=   0.00000
   P  -0.5000000   0.5000000  -0.0000000 SPIN=   0.00000
   P   0.5000000  -0.0000000  -0.5000000 SPIN=   0.00000
  Fe   0.2438343   0.3417577  -0.3341346 SPIN=   4.00000
  Fe  -0.2438343  -0.3417577   0.3341346 SPIN=   4.00000
%ENDBLOCK POSITIONS_FRAC

# Note: total spin =   8.00

KPOINTS_MP_SPACING 0.07

%BLOCK SPECIES_POT
QC5
%ENDBLOCK SPECIES_POT

%BLOCK HUBBARD_U
Fe d:4.0
%ENDBLOCK HUBBARD_U

SNAP_TO_SYMMETRY
SYMMETRY_GENERATE

