#              Generated by Buildcell
#
# at 01:23:45 (GMT+0.0) 27th November 2020
# in /scratch/scratch/mmm0366/launch_tmp
# on node-k98n-026
# by mmm0366
#
# compiler GCC version 4.9.2
# options -cpp -iprefix /scratch/UCL/applications/gcc/4.9.2/bin/../lib/gcc/x86_64-unknown-linux-gnu/4.9.2/ -mtune=corei7 -march=x86-64 -g -O2
#
# seed  1013055559 -1375197438  -447543147    46098858   182653078  2121021104 -1648997042 -1967022468  -635664613   791135937 -2041369460   -24255010
#
#      Author: C. J. Pickard (cjp20@cam.ac.uk)
#                Space group: P21
#

%BLOCK LATTICE_ABC
      5.13939      6.34983     10.25425
     90.00000     90.00000    107.01022
%ENDBLOCK LATTICE_ABC

%BLOCK POSITIONS_FRAC
  Li   0.2959087  -0.0567208  -0.0994061 SPIN=   0.00000
  Li  -0.2959087   0.0567208   0.4005939 SPIN=   0.00000
  Li   0.3715056  -0.3644456   0.2424610 SPIN=   0.00000
  Li  -0.3715056   0.3644456  -0.2575390 SPIN=   0.00000
   O  -0.3465077  -0.5255997   0.5472393 SPIN=   0.00000
   O  -0.2641144  -0.2568369   0.3502336 SPIN=   0.00000
   O  -0.0102510  -0.5321320   0.3591539 SPIN=   0.00000
   O  -0.5113080  -0.6554638   0.3147646 SPIN=   0.00000
   P  -0.2891181  -0.4961931   0.4001470 SPIN=   0.00000
   O   0.3465077   0.5255997   0.0472393 SPIN=   0.00000
   O   0.2641144   0.2568369  -0.1497664 SPIN=   0.00000
   O   0.0102510   0.5321320  -0.1408461 SPIN=   0.00000
   O   0.5113080   0.6554638  -0.1852354 SPIN=   0.00000
   P   0.2891181   0.4961931  -0.0998530 SPIN=   0.00000
   O   0.3191824  -0.1866889  -0.5650479 SPIN=   0.00000
   O   0.0812011   0.0885602  -0.4700685 SPIN=   0.00000
   O   0.1137664  -0.2211942  -0.3317563 SPIN=   0.00000
   O   0.5341924   0.0865470  -0.3809973 SPIN=   0.00000
   P   0.2683368  -0.0633276  -0.4431267 SPIN=   0.00000
   O  -0.3191824   0.1866889  -0.0650479 SPIN=   0.00000
   O  -0.0812011  -0.0885602   0.0299315 SPIN=   0.00000
   O  -0.1137664   0.2211942   0.1682437 SPIN=   0.00000
   O  -0.5341924  -0.0865470   0.1190027 SPIN=   0.00000
   P  -0.2683368   0.0633276   0.0568733 SPIN=   0.00000
  Fe   0.2181789   0.0989218   0.2016281 SPIN=   3.77633
  Fe  -0.2181789  -0.0989218  -0.2983719 SPIN=   3.77633
  Fe   0.1749012   0.4617067  -0.4592118 SPIN=   4.22367
  Fe  -0.1749012  -0.4617067   0.0407882 SPIN=   4.22367
%ENDBLOCK POSITIONS_FRAC

# Note: total spin =  16.00

KPOINTS_MP_SPACING 0.07

%BLOCK SPECIES_POT
QC5
%ENDBLOCK SPECIES_POT

%BLOCK HUBBARD_U
Fe d:4.0
%ENDBLOCK HUBBARD_U

SNAP_TO_SYMMETRY
SYMMETRY_GENERATE

