#              Generated by Buildcell
#
# at 18:41:21 (GMT+0.0) 26th November 2020
# in /lustre/scratch/uccabz1/launch_tmp
# on node-c12k-022
# by uccabz1
#
# compiler GCC version 4.9.2
# options -cpp -iprefix /lustre/shared/ucl/apps/gcc/4.9.2/bin/../lib/gcc/x86_64-unknown-linux-gnu/4.9.2/ -mtune=corei7 -march=x86-64 -g -Og
#
# seed   730104967  2132157278 -1242178272   703327161 -1657714644  1377832504  2059416865  1613982116   455082738  1442323751   779973366   187804651
#
#      Author: C. J. Pickard (cjp20@cam.ac.uk)
#                Space group: P-1
#

%BLOCK LATTICE_ABC
      6.31741      6.47449      8.73016
     68.70874     80.31410     74.79348
%ENDBLOCK LATTICE_ABC

%BLOCK POSITIONS_FRAC
  Li   0.0000000   0.5000000  -0.5000000 SPIN=   0.00000
  Li   0.5000000   0.0000000  -0.5000000 SPIN=   0.00000
  Li   0.5000000  -0.5000000  -0.5000000 SPIN=   0.00000
  Li   0.0000000   0.0000000   0.5000000 SPIN=   0.00000
   O  -0.1529823   0.4260096   0.2869504 SPIN=   0.00000
   O  -0.5431766   0.3397911   0.3409198 SPIN=   0.00000
   O  -0.3355136   0.3503684   0.0728375 SPIN=   0.00000
   O  -0.2137616   0.0291824   0.3287223 SPIN=   0.00000
   P  -0.3017741   0.2907400   0.2597754 SPIN=   0.00000
   O   0.1529823  -0.4260096  -0.2869504 SPIN=   0.00000
   O   0.5431766  -0.3397911  -0.3409198 SPIN=   0.00000
   O   0.3355136  -0.3503684  -0.0728375 SPIN=   0.00000
   O   0.2137616  -0.0291824  -0.3287223 SPIN=   0.00000
   P   0.3017741  -0.2907400  -0.2597754 SPIN=   0.00000
   O  -0.4842177   0.2709463  -0.1417314 SPIN=   0.00000
   O  -0.2202617  -0.1048032  -0.1570432 SPIN=   0.00000
   O  -0.2123674   0.2457858  -0.3963860 SPIN=   0.00000
   P  -0.2556767   0.1597291  -0.2031120 SPIN=   0.00000
   O   0.4842177  -0.2709463   0.1417314 SPIN=   0.00000
   O   0.2202617   0.1048032   0.1570432 SPIN=   0.00000
   O   0.2123674  -0.2457858   0.3963860 SPIN=   0.00000
   P   0.2556767  -0.1597291   0.2031120 SPIN=   0.00000
   O  -0.0000000   0.0000000  -0.0000000 SPIN=   0.00000
   O  -0.0000000  -0.5000000  -0.0000000 SPIN=   0.00000
  Fe  -0.2485339  -0.4211135  -0.1555532 SPIN=   2.61499
  Fe   0.2485339   0.4211135   0.1555532 SPIN=   2.61499
  Fe  -0.2742808  -0.1002853   0.1558002 SPIN=   5.38501
  Fe   0.2742808   0.1002853  -0.1558002 SPIN=   5.38501
%ENDBLOCK POSITIONS_FRAC

# Note: total spin =  16.00

KPOINTS_MP_SPACING 0.07

%BLOCK SPECIES_POT
QC5
%ENDBLOCK SPECIES_POT

%BLOCK HUBBARD_U
Fe d:4.0
%ENDBLOCK HUBBARD_U

SNAP_TO_SYMMETRY
SYMMETRY_GENERATE

