#              Generated by Buildcell
#
# at 16:36:45 (GMT+0.0) 26th November 2020
# in /scratch/scratch/uccabz1/launch_tmp
# on node-k10b-007
# by uccabz1
#
# compiler GCC version 4.9.2
# options -cpp -iprefix /scratch/UCL/applications/gcc/4.9.2/bin/../lib/gcc/x86_64-unknown-linux-gnu/4.9.2/ -mtune=corei7 -march=x86-64 -g -O2
#
# seed   136778272 -2115967091 -1850691580  1733007791   599305249   275954248   890696300 -1802652204   560147149  1545555612 -2040487473    27899426
#
#      Author: C. J. Pickard (cjp20@cam.ac.uk)
#                Space group: P2/c
#

%BLOCK LATTICE_ABC
      6.20518      6.42555      8.13112
     90.00000     90.00000     99.23475
%ENDBLOCK LATTICE_ABC

%BLOCK POSITIONS_FRAC
  Li  -0.2427510  -0.2386776  -0.0128309 SPIN=   0.00000
  Li   0.2427510  -0.2613224  -0.0128309 SPIN=   0.00000
  Li   0.2427510   0.2386776   0.0128309 SPIN=   0.00000
  Li  -0.2427510   0.2613224   0.0128309 SPIN=   0.00000
   O   0.1965577  -0.1767097   0.4161593 SPIN=   0.00000
   O   0.2957701   0.2074007   0.3084503 SPIN=   0.00000
   O   0.4413766  -0.0753971   0.1600748 SPIN=   0.00000
   O   0.0421689  -0.0555279   0.1437013 SPIN=   0.00000
   P   0.2390625  -0.0334927   0.2642276 SPIN=   0.00000
   O  -0.1965577  -0.3232903   0.4161593 SPIN=   0.00000
   O  -0.2957701  -0.7074007   0.3084503 SPIN=   0.00000
   O  -0.4413766  -0.4246029   0.1600748 SPIN=   0.00000
   O  -0.0421689  -0.4444721   0.1437013 SPIN=   0.00000
   P  -0.2390625  -0.4665073   0.2642276 SPIN=   0.00000
   O  -0.1965577   0.1767097  -0.4161593 SPIN=   0.00000
   O  -0.2957701  -0.2074007  -0.3084503 SPIN=   0.00000
   O  -0.4413766   0.0753971  -0.1600748 SPIN=   0.00000
   O  -0.0421689   0.0555279  -0.1437013 SPIN=   0.00000
   P  -0.2390625   0.0334927  -0.2642276 SPIN=   0.00000
   O   0.1965577   0.3232903  -0.4161593 SPIN=   0.00000
   O   0.2957701   0.7074007  -0.3084503 SPIN=   0.00000
   O   0.4413766   0.4246029  -0.1600748 SPIN=   0.00000
   O   0.0421689   0.4444721  -0.1437013 SPIN=   0.00000
   P   0.2390625   0.4665073  -0.2642276 SPIN=   0.00000
  Fe  -0.2526916  -0.0193311   0.3543154 SPIN=   4.00000
  Fe   0.2526916  -0.4806689   0.3543154 SPIN=   4.00000
  Fe   0.2526916   0.0193311  -0.3543154 SPIN=   4.00000
  Fe  -0.2526916   0.4806689  -0.3543154 SPIN=   4.00000
%ENDBLOCK POSITIONS_FRAC

# Note: total spin =  16.00

KPOINTS_MP_SPACING 0.07

%BLOCK SPECIES_POT
QC5
%ENDBLOCK SPECIES_POT

%BLOCK HUBBARD_U
Fe d:4.0
%ENDBLOCK HUBBARD_U

SNAP_TO_SYMMETRY
SYMMETRY_GENERATE

