#              Generated by Buildcell
#
# at 16:23:16 (GMT+0.0) 26th November 2020
# in /lustre/scratch/uccabz1/launch_tmp
# on node-c12e-024
# by uccabz1
#
# compiler GCC version 4.9.2
# options -cpp -iprefix /lustre/shared/ucl/apps/gcc/4.9.2/bin/../lib/gcc/x86_64-unknown-linux-gnu/4.9.2/ -mtune=corei7 -march=x86-64 -g -Og
#
# seed   377361904 -1198760347  1446481738  -889507972  -449542206 -1469341535   869611650  1894023432  1683407317  1277148269  1252499515  -253837364
#
#      Author: C. J. Pickard (cjp20@cam.ac.uk)
#                Space group: P21
#

%BLOCK LATTICE_ABC
      4.79972      8.00100      8.46158
    100.00974     90.00000     90.00000
%ENDBLOCK LATTICE_ABC

%BLOCK POSITIONS_FRAC
  Li  -0.2284311  -0.1130273  -0.1380704 SPIN=   0.00000
  Li   0.2715689   0.1130273   0.1380704 SPIN=   0.00000
  Li  -0.2686223  -0.3014286   0.3289499 SPIN=   0.00000
  Li   0.2313777   0.3014286  -0.3289499 SPIN=   0.00000
   O   0.2795635  -0.1230922  -0.0964580 SPIN=   0.00000
   O   0.5754193   0.0848004  -0.2315142 SPIN=   0.00000
   O   0.1418516  -0.0304622  -0.3653703 SPIN=   0.00000
   O   0.1141970   0.1812168  -0.1103549 SPIN=   0.00000
   P   0.2759238   0.0218714  -0.1942932 SPIN=   0.00000
   O  -0.2204365   0.1230922   0.0964580 SPIN=   0.00000
   O   0.0754193  -0.0848004   0.2315142 SPIN=   0.00000
   O  -0.3581484   0.0304622   0.3653703 SPIN=   0.00000
   O  -0.3858030  -0.1812168   0.1103549 SPIN=   0.00000
   P  -0.2240762  -0.0218714   0.1942932 SPIN=   0.00000
   O   0.3239943   0.6086311   0.3556693 SPIN=   0.00000
   O   0.1970469   0.2942803   0.3623800 SPIN=   0.00000
   O  -0.1136905   0.4598249   0.2152949 SPIN=   0.00000
   O   0.3590540   0.3746169   0.1043708 SPIN=   0.00000
   P   0.2006266   0.4429137   0.2627233 SPIN=   0.00000
   O  -0.1760057  -0.6086311  -0.3556693 SPIN=   0.00000
   O  -0.3029531  -0.2942803  -0.3623800 SPIN=   0.00000
   O  -0.6136905  -0.4598249  -0.2152949 SPIN=   0.00000
   O  -0.1409460  -0.3746169  -0.1043708 SPIN=   0.00000
   P  -0.2993734  -0.4429137  -0.2627233 SPIN=   0.00000
  Fe  -0.2689310   0.3009139   0.4021697 SPIN=   5.01430
  Fe   0.2310690  -0.3009139  -0.4021697 SPIN=   5.01430
  Fe  -0.2686427   0.3058065  -0.0594430 SPIN=   2.98570
  Fe   0.2313573  -0.3058065   0.0594430 SPIN=   2.98570
%ENDBLOCK POSITIONS_FRAC

# Note: total spin =  16.00

KPOINTS_MP_SPACING 0.07

%BLOCK SPECIES_POT
QC5
%ENDBLOCK SPECIES_POT

%BLOCK HUBBARD_U
Fe d:4.0
%ENDBLOCK HUBBARD_U

SNAP_TO_SYMMETRY
SYMMETRY_GENERATE

