#              Generated by Buildcell
#
# at 07:06:55 (GMT+0.0) 24th November 2020
# in /lustre/scratch/uccabz1/launch_tmp
# on node-c12a-028
# by uccabz1
#
# compiler GCC version 4.9.2
# options -cpp -iprefix /lustre/shared/ucl/apps/gcc/4.9.2/bin/../lib/gcc/x86_64-unknown-linux-gnu/4.9.2/ -mtune=corei7 -march=x86-64 -g -Og
#
# seed -1484881964  -742787464 -1973407036 -1273802425 -2130668048   290535720  -144153988  -526281771  -514224189  1902555540 -1443355757 -1081227276
#
#      Author: C. J. Pickard (cjp20@cam.ac.uk)
#                Space group: C222
#

%BLOCK LATTICE_ABC
      5.35474      5.47616      5.47616
     94.86941     90.00000     90.00000
%ENDBLOCK LATTICE_ABC

%BLOCK POSITIONS_FRAC
  Li   0.0000000  -0.5000000  -0.5000000 SPIN=   0.00000
  Li   0.0000000   0.0000000   0.0000000 SPIN=   0.00000
   O   0.2485607   0.2255154   0.2164402 SPIN=   0.00000
   O   0.2244227   0.3208228  -0.2397014 SPIN=   0.00000
   O   0.2485607  -0.2255154  -0.2164402 SPIN=   0.00000
   O   0.2244227  -0.3208228   0.2397014 SPIN=   0.00000
   O  -0.2485607  -0.2164402  -0.2255154 SPIN=   0.00000
   O  -0.2244227   0.2397014  -0.3208228 SPIN=   0.00000
   O  -0.2485607   0.2164402   0.2255154 SPIN=   0.00000
   O  -0.2244227  -0.2397014   0.3208228 SPIN=   0.00000
   P  -0.5000000  -0.5000000  -0.5000000 SPIN=   0.00000
   P  -0.5000000   0.0000000   0.0000000 SPIN=   0.00000
  Fe   0.3452623   1.0000000   0.5000000 SPIN=   4.00000
  Fe  -0.3452623   0.5000000  -0.0000000 SPIN=   4.00000
%ENDBLOCK POSITIONS_FRAC

# Note: total spin =   8.00

KPOINTS_MP_SPACING 0.07

%BLOCK SPECIES_POT
QC5
%ENDBLOCK SPECIES_POT

%BLOCK HUBBARD_U
Fe d:4.0
%ENDBLOCK HUBBARD_U

SNAP_TO_SYMMETRY
SYMMETRY_GENERATE

