#              Generated by Buildcell
#
# at 09:50:50 (GMT+0.0) 24th November 2020
# in /scratch/scratch/uccabz1/launch_tmp
# on node-a14f-014
# by uccabz1
#
# compiler GCC version 4.9.2
# options -cpp -iprefix /scratch/UCL/applications/gcc/4.9.2/bin/../lib/gcc/x86_64-unknown-linux-gnu/4.9.2/ -mtune=corei7 -march=x86-64 -g -O2
#
# seed  1330062594  1016123027   681724726 -2099460721 -1751854992   950866559  1447704437  1014218105 -1279517471  -861258389  2014306440  -735301585
#
#      Author: C. J. Pickard (cjp20@cam.ac.uk)
#                Space group: P-1
#

%BLOCK LATTICE_ABC
      3.89810      5.51191      8.00236
    108.58914     94.52890     97.96740
%ENDBLOCK LATTICE_ABC

%BLOCK POSITIONS_FRAC
  Li  -0.4624709  -0.2812945   0.4227638 SPIN=   0.00000
  Li   0.4624709   0.2812945  -0.4227638 SPIN=   0.00000
   O   0.6390447  -0.2700333   0.0539878 SPIN=   0.00000
   O   0.1207341  -0.3859898   0.2157925 SPIN=   0.00000
   O   0.3606503   0.0774000   0.2778435 SPIN=   0.00000
   P   0.3007395  -0.1947014   0.1262080 SPIN=   0.00000
   O  -0.6390447   0.2700333  -0.0539878 SPIN=   0.00000
   O  -0.1207341   0.3859898  -0.2157925 SPIN=   0.00000
   O  -0.3606503  -0.0774000  -0.2778435 SPIN=   0.00000
   P  -0.3007395   0.1947014  -0.1262080 SPIN=   0.00000
   O   0.0000000   0.0000000   0.5000000 SPIN=   0.00000
   O  -0.0000000   0.5000000  -0.5000000 SPIN=   0.00000
  Fe  -0.1028569   0.2125962   0.2304019 SPIN=   4.00000
  Fe   0.1028569  -0.2125962  -0.2304019 SPIN=   4.00000
%ENDBLOCK POSITIONS_FRAC

# Note: total spin =   8.00

KPOINTS_MP_SPACING 0.07

%BLOCK SPECIES_POT
QC5
%ENDBLOCK SPECIES_POT

%BLOCK HUBBARD_U
Fe d:4.0
%ENDBLOCK HUBBARD_U

SNAP_TO_SYMMETRY
SYMMETRY_GENERATE

