#              Generated by Buildcell
#
# at 13:54:31 (GMT+0.0) 26th November 2020
# in /lustre/scratch/uccabz1/launch_tmp
# on node-c12i-031
# by uccabz1
#
# compiler GCC version 4.9.2
# options -cpp -iprefix /lustre/shared/ucl/apps/gcc/4.9.2/bin/../lib/gcc/x86_64-unknown-linux-gnu/4.9.2/ -mtune=corei7 -march=x86-64 -g -Og
#
# seed -1213337124  1662005631  1050529574 -1637276986  -409752440 -1927299677  1577468794 -1560184157 -1391524363 -1160338782  1602401570   -33920513
#
#      Author: C. J. Pickard (cjp20@cam.ac.uk)
#                Space group: Pc
#

%BLOCK LATTICE_ABC
      4.51506      7.39118      9.58901
     90.00000     90.00000     90.15936
%ENDBLOCK LATTICE_ABC

%BLOCK POSITIONS_FRAC
  Li  -0.3950736   0.4597675   0.2873525 SPIN=   0.00000
  Li  -0.3950736  -0.0402325  -0.2873525 SPIN=   0.00000
  Li   0.1047856   0.1570663  -0.4271597 SPIN=   0.00000
  Li   0.1047856  -0.3429337   0.4271597 SPIN=   0.00000
   O  -0.2627487   0.1981095  -0.1283340 SPIN=   0.00000
   O  -0.7257468   0.1053486   0.0160869 SPIN=   0.00000
   O  -0.4101290  -0.1363139  -0.0809334 SPIN=   0.00000
   O  -0.2206455   0.0538064   0.1161636 SPIN=   0.00000
   P  -0.3950797   0.0628280  -0.0234641 SPIN=   0.00000
   O  -0.2627487  -0.3018905   0.1283340 SPIN=   0.00000
   O  -0.7257468  -0.3946514  -0.0160869 SPIN=   0.00000
   O  -0.4101290  -0.6363139   0.0809334 SPIN=   0.00000
   O  -0.2206455  -0.4461936  -0.1161636 SPIN=   0.00000
   P  -0.3950797  -0.4371720   0.0234641 SPIN=   0.00000
   O   0.0894744   0.3964739   0.1813206 SPIN=   0.00000
   O  -0.2063613   0.2258970   0.3732086 SPIN=   0.00000
   O   0.2322304   0.0768600   0.2713615 SPIN=   0.00000
   O   0.3003710   0.3444593   0.4284351 SPIN=   0.00000
   P   0.1054772   0.2691258   0.3078946 SPIN=   0.00000
   O   0.0894744  -0.1035261  -0.1813206 SPIN=   0.00000
   O  -0.2063613  -0.2741030  -0.3732086 SPIN=   0.00000
   O   0.2322304  -0.4231400  -0.2713615 SPIN=   0.00000
   O   0.3003710  -0.1555407  -0.4284351 SPIN=   0.00000
   P   0.1054772  -0.2308742  -0.3078946 SPIN=   0.00000
  Fe  -0.3956562  -0.0310840   0.3703718 SPIN=   2.29145
  Fe  -0.3956562   0.4689160  -0.3703718 SPIN=   2.29145
  Fe   0.1010074   0.3480831  -0.0560677 SPIN=   5.70855
  Fe   0.1010074  -0.1519169   0.0560677 SPIN=   5.70855
%ENDBLOCK POSITIONS_FRAC

# Note: total spin =  16.00

KPOINTS_MP_SPACING 0.07

%BLOCK SPECIES_POT
QC5
%ENDBLOCK SPECIES_POT

%BLOCK HUBBARD_U
Fe d:4.0
%ENDBLOCK HUBBARD_U

SNAP_TO_SYMMETRY
SYMMETRY_GENERATE

