#              Generated by Buildcell
#
# at 11:39:31 (GMT+0.0) 24th November 2020
# in /lustre/scratch/uccabz1/launch_tmp
# on node-c12p-031
# by uccabz1
#
# compiler GCC version 4.9.2
# options -cpp -iprefix /lustre/shared/ucl/apps/gcc/4.9.2/bin/../lib/gcc/x86_64-unknown-linux-gnu/4.9.2/ -mtune=corei7 -march=x86-64 -g -Og
#
# seed -1510715245 -1239208539 -1207332541  -931572269  1416045158 -2062411165 -1572321136  -890514799 -1872999880  1607619778  -853926251 -1308077089
#
#      Author: C. J. Pickard (cjp20@cam.ac.uk)
#                Space group: P-1
#

%BLOCK LATTICE_ABC
      3.91962      6.26311      7.25778
    111.19182     95.94807    101.18535
%ENDBLOCK LATTICE_ABC

%BLOCK POSITIONS_FRAC
  Li  -0.0982564  -0.2725447  -0.4870893 SPIN=   0.00000
  Li   0.0982564   0.2725447   0.4870893 SPIN=   0.00000
   O  -0.0988452  -0.1997733  -0.0003409 SPIN=   0.00000
   O  -0.2517843  -0.5272052  -0.3616231 SPIN=   0.00000
   O  -0.7054462  -0.5099128  -0.1480568 SPIN=   0.00000
   O  -0.5518223  -0.1948422  -0.2829037 SPIN=   0.00000
   P  -0.3876027  -0.3475875  -0.1886937 SPIN=   0.00000
   O   0.0988452   0.1997733   0.0003409 SPIN=   0.00000
   O   0.2517843   0.5272052   0.3616231 SPIN=   0.00000
   O   0.7054462   0.5099128   0.1480568 SPIN=   0.00000
   O   0.5518223   0.1948422   0.2829037 SPIN=   0.00000
   P   0.3876027   0.3475875   0.1886937 SPIN=   0.00000
  Fe   0.3693790  -0.1736353   0.1845505 SPIN=   4.00000
  Fe  -0.3693790   0.1736353  -0.1845505 SPIN=   4.00000
%ENDBLOCK POSITIONS_FRAC

# Note: total spin =   8.00

KPOINTS_MP_SPACING 0.07

%BLOCK SPECIES_POT
QC5
%ENDBLOCK SPECIES_POT

%BLOCK HUBBARD_U
Fe d:4.0
%ENDBLOCK HUBBARD_U

SNAP_TO_SYMMETRY
SYMMETRY_GENERATE

