#              Generated by Buildcell
#
# at 07:03:11 (GMT+0.0) 24th November 2020
# in /lustre/scratch/uccabz1/launch_tmp
# on node-c12g-021
# by uccabz1
#
# compiler GCC version 4.9.2
# options -cpp -iprefix /lustre/shared/ucl/apps/gcc/4.9.2/bin/../lib/gcc/x86_64-unknown-linux-gnu/4.9.2/ -mtune=corei7 -march=x86-64 -g -Og
#
# seed   -60604011 -1947018689 -1750234016  1882923219 -2102109682   699108474 -1715587225   842662534  1738883740  1691788627   626776085    62840620
#
#      Author: C. J. Pickard (cjp20@cam.ac.uk)
#                Space group: Pnn2
#

%BLOCK LATTICE_ABC
      4.52561      4.83308      7.31509
     90.00000     90.00000     90.00000
%ENDBLOCK LATTICE_ABC

%BLOCK POSITIONS_FRAC
  Li   0.5000000   0.0000000   0.0172459 SPIN=   0.00000
  Li  -0.0000000  -0.5000000  -0.4827541 SPIN=   0.00000
   O  -0.2909601  -0.2850009  -0.6576745 SPIN=   0.00000
   O  -0.2808826  -0.2684053  -0.3027328 SPIN=   0.00000
   O   0.2909601   0.2850009  -0.6576745 SPIN=   0.00000
   O   0.2808826   0.2684053  -0.3027328 SPIN=   0.00000
   O   0.2090399  -0.2149991  -0.1576745 SPIN=   0.00000
   O   0.2191174  -0.2315947   0.1972672 SPIN=   0.00000
   O  -0.2090399   0.2149991  -0.1576745 SPIN=   0.00000
   O  -0.2191174   0.2315947   0.1972672 SPIN=   0.00000
   P  -0.5000000   0.5000000   0.2565166 SPIN=   0.00000
   P  -0.0000000   0.0000000  -0.2434834 SPIN=   0.00000
  Fe  -0.0000000   0.5000000   0.0158713 SPIN=   4.00000
  Fe   0.5000000  -0.0000000  -0.4841287 SPIN=   4.00000
%ENDBLOCK POSITIONS_FRAC

# Note: total spin =   8.00

KPOINTS_MP_SPACING 0.07

%BLOCK SPECIES_POT
QC5
%ENDBLOCK SPECIES_POT

%BLOCK HUBBARD_U
Fe d:4.0
%ENDBLOCK HUBBARD_U

SNAP_TO_SYMMETRY
SYMMETRY_GENERATE

