#              Generated by Buildcell
#
# at 19:46:28 (GMT+0.0) 26th November 2020
# in /lustre/scratch/uccabz1/launch_tmp
# on node-c12d-028
# by uccabz1
#
# compiler GCC version 4.9.2
# options -cpp -iprefix /lustre/shared/ucl/apps/gcc/4.9.2/bin/../lib/gcc/x86_64-unknown-linux-gnu/4.9.2/ -mtune=corei7 -march=x86-64 -g -Og
#
# seed  -129884173   846333302  1611972879   324149304  1145605938  1334932643 -2071085163  -930290357 -1217999434 -1358556527   648198593  1337251071
#
#      Author: C. J. Pickard (cjp20@cam.ac.uk)
#                Space group: I222
#

%BLOCK LATTICE_ABC
      6.78000      7.89343      7.92600
    119.86417    115.32208     90.00000
%ENDBLOCK LATTICE_ABC

%BLOCK POSITIONS_FRAC
  Li   0.2209355  -0.2790645  -0.5581291 SPIN=   0.00000
  Li  -0.2209355   0.2790645   0.5581291 SPIN=   0.00000
  Li   0.2236987   0.2236987   0.4473973 SPIN=   0.00000
  Li  -0.2236987  -0.2236987  -0.4473973 SPIN=   0.00000
   O  -0.1004126  -0.2873532  -0.7919294 SPIN=   0.00000
   O  -0.4515611  -0.1538656  -0.7956729 SPIN=   0.00000
   O  -0.0869244   0.0242242  -0.4415583 SPIN=   0.00000
   O  -0.1363862   0.0529178  -0.7572657 SPIN=   0.00000
   P  -0.1881698  -0.0997744  -0.7023979 SPIN=   0.00000
   O   0.3084832   0.4954238   1.2080706 SPIN=   0.00000
   O   0.6558882   0.3581927   1.2043271 SPIN=   0.00000
   O   0.6453661   0.5342175   1.5584417 SPIN=   0.00000
   O   0.3791205   0.1898165   1.2427343 SPIN=   0.00000
   P   0.4857719   0.3973765   1.2976021 SPIN=   0.00000
   O  -0.3084832   0.2873532  -0.2080706 SPIN=   0.00000
   O  -0.6558882   0.1538656  -0.2043271 SPIN=   0.00000
   O  -0.6453661  -0.0242242  -0.5584417 SPIN=   0.00000
   O  -0.3791205  -0.0529178  -0.2427343 SPIN=   0.00000
   P  -0.4857719   0.0997744  -0.2976021 SPIN=   0.00000
   O   0.1004126  -0.4954238  -0.2080706 SPIN=   0.00000
   O   0.4515611  -0.3581927  -0.2043271 SPIN=   0.00000
   O   0.0869244  -0.5342175  -0.5584417 SPIN=   0.00000
   O   0.1363862  -0.1898165  -0.2427343 SPIN=   0.00000
   P   0.1881698  -0.3973765  -0.2976021 SPIN=   0.00000
  Fe  -0.0000000   0.2486571  -0.0000000 SPIN=   0.89070
  Fe   0.0000000  -0.2486571   0.0000000 SPIN=   0.89070
  Fe  -0.5000000  -0.0000000  -0.0000000 SPIN=   9.59840
  Fe  -0.5000000  -0.5000000  -1.0000000 SPIN=   4.62020
%ENDBLOCK POSITIONS_FRAC

# Note: total spin =  16.00

KPOINTS_MP_SPACING 0.07

%BLOCK SPECIES_POT
QC5
%ENDBLOCK SPECIES_POT

%BLOCK HUBBARD_U
Fe d:4.0
%ENDBLOCK HUBBARD_U

SNAP_TO_SYMMETRY
SYMMETRY_GENERATE

