#              Generated by Buildcell
#
# at 10:50:04 (GMT+0.0) 24th November 2020
# in /scratch/scratch/uccabz1/launch_tmp
# on node-a14e-012
# by uccabz1
#
# compiler GCC version 4.9.2
# options -cpp -iprefix /scratch/UCL/applications/gcc/4.9.2/bin/../lib/gcc/x86_64-unknown-linux-gnu/4.9.2/ -mtune=corei7 -march=x86-64 -g -O2
#
# seed -1232006575   281474521  -556790339  1878551345    92027431 -2052341682 -1273556769 -1117358028  -546904203  1165787484  1933987049 -1347668505
#
#      Author: C. J. Pickard (cjp20@cam.ac.uk)
#                Space group: P-1
#

%BLOCK LATTICE_ABC
      4.78335      5.10537      7.23039
     85.01600     75.79949     69.18097
%ENDBLOCK LATTICE_ABC

%BLOCK POSITIONS_FRAC
  Li  -0.1757646   0.4248435   0.3771461 SPIN=   0.00000
  Li   0.1757646  -0.4248435  -0.3771461 SPIN=   0.00000
   O  -0.7131052   0.1572305   0.3006376 SPIN=   0.00000
   O  -0.2226433  -0.1160826   0.0505911 SPIN=   0.00000
   O  -0.3109351   0.3771041   0.1166942 SPIN=   0.00000
   O  -0.1695789   0.0104538   0.3640544 SPIN=   0.00000
   O   0.7131052  -0.1572305  -0.3006376 SPIN=   0.00000
   O   0.2226433   0.1160826  -0.0505911 SPIN=   0.00000
   O   0.3109351  -0.3771041  -0.1166942 SPIN=   0.00000
   O   0.1695789  -0.0104538  -0.3640544 SPIN=   0.00000
   P   0.0000000  -0.5000000   0.0000000 SPIN=   0.00000
   P   0.5000000  -0.0000000   0.5000000 SPIN=   0.00000
  Fe  -0.2565371   0.1903420  -0.1790651 SPIN=   4.00000
  Fe   0.2565371  -0.1903420   0.1790651 SPIN=   4.00000
%ENDBLOCK POSITIONS_FRAC

# Note: total spin =   8.00

KPOINTS_MP_SPACING 0.07

%BLOCK SPECIES_POT
QC5
%ENDBLOCK SPECIES_POT

%BLOCK HUBBARD_U
Fe d:4.0
%ENDBLOCK HUBBARD_U

SNAP_TO_SYMMETRY
SYMMETRY_GENERATE

