#              Generated by Buildcell
#
# at 13:27:10 (GMT+0.0) 1st December 2020
# in /lustre/scratch/uccabz1/launch_tmp
# on node-c12f-024
# by uccabz1
#
# compiler GCC version 4.9.2
# options -cpp -iprefix /lustre/shared/ucl/apps/gcc/4.9.2/bin/../lib/gcc/x86_64-unknown-linux-gnu/4.9.2/ -mtune=corei7 -march=x86-64 -g -Og
#
# seed  1353969060  -853804854 -1944418214  2075807190   255457596  -236196369   994387884    -5937560  -149149037  1072635191 -1029107991   758263440
#
#      Author: C. J. Pickard (cjp20@cam.ac.uk)
#                Space group: P2
#

%BLOCK LATTICE_ABC
      4.04570      7.85475     10.14129
     96.80360     90.00000     90.00000
%ENDBLOCK LATTICE_ABC

%BLOCK POSITIONS_FRAC
  Li  -0.4640456   0.0691000  -0.2133710 SPIN=   0.00000
  Li  -0.4640456  -0.0691000   0.2133710 SPIN=   0.00000
  Li   0.0286957  -0.2156416  -0.2200218 SPIN=   0.00000
  Li   0.0286957   0.2156416   0.2200218 SPIN=   0.00000
   O  -0.1956677  -0.0672402  -0.3694864 SPIN=   0.00000
   O  -0.2000784  -0.2676599  -0.5924982 SPIN=   0.00000
   O  -0.1980386  -0.3996327  -0.3832082 SPIN=   0.00000
   O  -0.7060763  -0.2484451  -0.4492525 SPIN=   0.00000
   P  -0.3225783  -0.2362718  -0.4444059 SPIN=   0.00000
   O  -0.1956677   0.0672402   0.3694864 SPIN=   0.00000
   O  -0.2000784   0.2676599   0.5924982 SPIN=   0.00000
   O  -0.1980386   0.3996327   0.3832082 SPIN=   0.00000
   O  -0.7060763   0.2484451   0.4492525 SPIN=   0.00000
   P  -0.3225783   0.2362718   0.4444059 SPIN=   0.00000
   O   0.3206787   0.4058179   0.1148578 SPIN=   0.00000
   O   0.6491778   0.1196007   0.0905233 SPIN=   0.00000
   O   0.1475192   0.1383088  -0.0458237 SPIN=   0.00000
   O   0.6548539   0.3014019  -0.0963351 SPIN=   0.00000
   P   0.4390408   0.2507525   0.0197562 SPIN=   0.00000
   O   0.3206787  -0.4058179  -0.1148578 SPIN=   0.00000
   O   0.6491778  -0.1196007  -0.0905233 SPIN=   0.00000
   O   0.1475192  -0.1383088   0.0458237 SPIN=   0.00000
   O   0.6548539  -0.3014019   0.0963351 SPIN=   0.00000
   P   0.4390408  -0.2507525  -0.0197562 SPIN=   0.00000
  Fe   0.4383216  -0.4385987   0.3236710 SPIN=   3.29062
  Fe   0.4383216   0.4385987  -0.3236710 SPIN=   3.29062
  Fe   0.1706282  -0.0000000   0.5000000 SPIN=   5.85577
  Fe  -0.0593056   0.5000000   0.0000000 SPIN=   3.56299
%ENDBLOCK POSITIONS_FRAC

# Note: total spin =  16.00

KPOINTS_MP_SPACING 0.07

%BLOCK SPECIES_POT
QC5
%ENDBLOCK SPECIES_POT

%BLOCK HUBBARD_U
Fe d:4.0
%ENDBLOCK HUBBARD_U

SNAP_TO_SYMMETRY
SYMMETRY_GENERATE

