#              Generated by Buildcell
#
# at 11:17:40 (GMT+0.0) 26th November 2020
# in /lustre/scratch/uccabz1/launch_tmp
# on node-c12e-029
# by uccabz1
#
# compiler GCC version 4.9.2
# options -cpp -iprefix /lustre/shared/ucl/apps/gcc/4.9.2/bin/../lib/gcc/x86_64-unknown-linux-gnu/4.9.2/ -mtune=corei7 -march=x86-64 -g -Og
#
# seed   266672515  1147916809  1762004969   487600033   348628872   478685653  -777310388     6452796  1125268520  1820578212  1680867160  -725869691
#
#      Author: C. J. Pickard (cjp20@cam.ac.uk)
#                Space group: Aem2
#

%BLOCK LATTICE_ABC
      6.68468      7.32849      7.32849
    116.95871     90.00000     90.00000
%ENDBLOCK LATTICE_ABC

%BLOCK POSITIONS_FRAC
  Li   0.0000000  -0.1603350  -0.1603350 SPIN=   0.00000
  Li  -0.0000000   0.3396650   0.3396650 SPIN=   0.00000
  Li  -0.5000000  -0.1334560  -0.1334560 SPIN=   0.00000
  Li  -0.5000000   0.3665440   0.3665440 SPIN=   0.00000
   O   0.4746403  -0.4542549  -0.2615985 SPIN=   0.00000
   O   0.1118481  -0.4089514  -0.1204675 SPIN=   0.00000
   O   0.1759133  -0.3510753  -0.4221298 SPIN=   0.00000
   O   0.1914026  -0.7071930  -0.4577797 SPIN=   0.00000
   P   0.2504718  -0.4816550  -0.3143033 SPIN=   0.00000
   O  -0.4746403  -0.2615985  -0.4542549 SPIN=   0.00000
   O  -0.1118481  -0.1204675  -0.4089514 SPIN=   0.00000
   O  -0.1759133  -0.4221298  -0.3510753 SPIN=   0.00000
   O  -0.1914026  -0.4577797  -0.7071930 SPIN=   0.00000
   P  -0.2504718  -0.3143033  -0.4816550 SPIN=   0.00000
   O   0.4746403   0.2384015   0.0457451 SPIN=   0.00000
   O   0.1118481   0.3795325   0.0910486 SPIN=   0.00000
   O   0.1759133   0.0778702   0.1489247 SPIN=   0.00000
   O   0.1914026   0.0422203  -0.2071930 SPIN=   0.00000
   P   0.2504718   0.1856967   0.0183450 SPIN=   0.00000
   O  -0.4746403   0.0457451   0.2384015 SPIN=   0.00000
   O  -0.1118481   0.0910486   0.3795325 SPIN=   0.00000
   O  -0.1759133   0.1489247   0.0778702 SPIN=   0.00000
   O  -0.1914026  -0.2071930   0.0422203 SPIN=   0.00000
   P  -0.2504718   0.0183450   0.1856967 SPIN=   0.00000
  Fe   0.4988337   0.9904380   0.4904380 SPIN=   4.18199
  Fe  -0.4988337   0.4904380  -0.0095620 SPIN=   4.18199
  Fe   0.0039248   0.7350518   0.2350518 SPIN=   3.81801
  Fe  -0.0039248   0.2350518  -0.2649482 SPIN=   3.81801
%ENDBLOCK POSITIONS_FRAC

# Note: total spin =  16.00

KPOINTS_MP_SPACING 0.07

%BLOCK SPECIES_POT
QC5
%ENDBLOCK SPECIES_POT

%BLOCK HUBBARD_U
Fe d:4.0
%ENDBLOCK HUBBARD_U

SNAP_TO_SYMMETRY
SYMMETRY_GENERATE

