#              Generated by Buildcell
#
# at 20:18:10 (GMT+0.0) 26th November 2020
# in /lustre/scratch/uccabz1/launch_tmp
# on node-c12j-022
# by uccabz1
#
# compiler GCC version 4.9.2
# options -cpp -iprefix /lustre/shared/ucl/apps/gcc/4.9.2/bin/../lib/gcc/x86_64-unknown-linux-gnu/4.9.2/ -mtune=corei7 -march=x86-64 -g -Og
#
# seed   687757792   -99862396   103844841  1462947014   -66229816  1696726616   431191407 -1115088592 -2130586942  -871052875  1554457170   -54148845
#
#      Author: C. J. Pickard (cjp20@cam.ac.uk)
#                Space group: Cc
#

%BLOCK LATTICE_ABC
      4.97650      8.44757      8.95968
    114.27533    100.09952    102.54032
%ENDBLOCK LATTICE_ABC

%BLOCK POSITIONS_FRAC
  Li   0.7348628   0.3204541   0.4772650 SPIN=   0.00000
  Li  -0.2424022  -0.1568109  -0.4772650 SPIN=   0.00000
  Li  -0.4971841  -0.3146725   0.1074397 SPIN=   0.00000
  Li  -0.1046237  -0.4221122  -0.1074397 SPIN=   0.00000
   O  -0.1978164   0.3043531  -0.2923051 SPIN=   0.00000
   O   0.1110018   0.0863243  -0.3542313 SPIN=   0.00000
   O   0.3348940   0.4071691  -0.2900708 SPIN=   0.00000
   O   0.2262068   0.3393180  -0.0559789 SPIN=   0.00000
   P   0.1029956   0.2860087  -0.2482300 SPIN=   0.00000
   O  -0.4055113  -0.4033418   0.2923051 SPIN=   0.00000
   O  -0.0347669  -0.5594444   0.3542313 SPIN=   0.00000
   O   0.1249648  -0.3027600   0.2900708 SPIN=   0.00000
   O  -0.2178143  -0.6047031   0.0559789 SPIN=   0.00000
   P  -0.1487744  -0.4657613   0.2482300 SPIN=   0.00000
   O  -0.2168766  -0.3211286  -0.3178361 SPIN=   0.00000
   O   0.2935550  -0.0861506  -0.2185495 SPIN=   0.00000
   O  -0.1039069   0.0311694  -0.1449477 SPIN=   0.00000
   O   0.0882709  -0.1359950   0.0005761 SPIN=   0.00000
   P   0.0037621  -0.1384020  -0.1760356 SPIN=   0.00000
   O  -0.3990405  -0.0032924   0.3178361 SPIN=   0.00000
   O   0.0121045   0.1323989   0.2185495 SPIN=   0.00000
   O  -0.4589592   0.1761171   0.1449477 SPIN=   0.00000
   O  -0.4123052  -0.1365710  -0.0005761 SPIN=   0.00000
   P  -0.3202024   0.0376336   0.1760356 SPIN=   0.00000
  Fe   0.5707349   0.1565385  -0.1909260 SPIN=   6.30159
  Fe   0.2616610   0.3474646   0.1909260 SPIN=   6.30159
  Fe  -0.6457324  -0.3558763  -0.3139131 SPIN=   1.69841
  Fe   0.1681808  -0.0419631   0.3139131 SPIN=   1.69841
%ENDBLOCK POSITIONS_FRAC

# Note: total spin =  16.00

KPOINTS_MP_SPACING 0.07

%BLOCK SPECIES_POT
QC5
%ENDBLOCK SPECIES_POT

%BLOCK HUBBARD_U
Fe d:4.0
%ENDBLOCK HUBBARD_U

SNAP_TO_SYMMETRY
SYMMETRY_GENERATE

