#              Generated by Buildcell
#
# at 22:13:26 (GMT+0.0) 26th November 2020
# in /scratch/scratch/mmm0366/launch_tmp
# on node-k98j-013
# by mmm0366
#
# compiler GCC version 4.9.2
# options -cpp -iprefix /scratch/UCL/applications/gcc/4.9.2/bin/../lib/gcc/x86_64-unknown-linux-gnu/4.9.2/ -mtune=corei7 -march=x86-64 -g -O2
#
# seed   141604295   838786071 -1404161082  1090038882   524214312 -1675235749  -455789965  -343100707  1419520927  -433768776   231382461 -1150890301
#
#      Author: C. J. Pickard (cjp20@cam.ac.uk)
#                Space group: Pm
#

%BLOCK LATTICE_ABC
      5.30258      7.08851      9.14351
     90.00000     90.00000    111.39345
%ENDBLOCK LATTICE_ABC

%BLOCK POSITIONS_FRAC
  Li  -0.2752018  -0.3533598   0.2303259 SPIN=   0.00000
  Li  -0.2752018  -0.3533598  -0.2303259 SPIN=   0.00000
  Li  -0.1472723  -0.0258941  -0.0000000 SPIN=   0.00000
  Li   0.3880512  -0.3687565  -0.5000000 SPIN=   0.00000
   O  -0.1732826   0.3235300  -0.1539027 SPIN=   0.00000
   O   0.3489362   0.5011668  -0.1319619 SPIN=   0.00000
   O   0.1563883   0.1278562  -0.1499257 SPIN=   0.00000
   O   0.1487724   0.3376718  -0.3690532 SPIN=   0.00000
   P   0.1049140   0.3227865  -0.2006727 SPIN=   0.00000
   O  -0.1732826   0.3235300   0.1539027 SPIN=   0.00000
   O   0.3489362   0.5011668   0.1319619 SPIN=   0.00000
   O   0.1563883   0.1278562   0.1499257 SPIN=   0.00000
   O   0.1487724   0.3376718   0.3690532 SPIN=   0.00000
   P   0.1049140   0.3227865   0.2006727 SPIN=   0.00000
   O   0.1851415  -0.2657336  -0.3234518 SPIN=   0.00000
   O   0.4408897   0.1198189  -0.3651735 SPIN=   0.00000
   O   0.5142994  -0.0301480  -0.1327242 SPIN=   0.00000
   O   0.7021686  -0.1117106  -0.3653704 SPIN=   0.00000
   P   0.4488071  -0.0827310  -0.2989161 SPIN=   0.00000
   O   0.1851415  -0.2657336   0.3234518 SPIN=   0.00000
   O   0.4408897   0.1198189   0.3651735 SPIN=   0.00000
   O   0.5142994  -0.0301480   0.1327242 SPIN=   0.00000
   O   0.7021686  -0.1117106   0.3653704 SPIN=   0.00000
   P   0.4488071  -0.0827310   0.2989161 SPIN=   0.00000
  Fe  -0.2515906   0.3464491   0.5000000 SPIN=   3.95264
  Fe   0.0442272  -0.0673608  -0.5000000 SPIN=   5.48800
  Fe   0.2125033  -0.3147857  -0.0000000 SPIN=   0.19944
  Fe   0.4997225   0.2648790   0.0000000 SPIN=   6.35993
%ENDBLOCK POSITIONS_FRAC

# Note: total spin =  16.00

KPOINTS_MP_SPACING 0.07

%BLOCK SPECIES_POT
QC5
%ENDBLOCK SPECIES_POT

%BLOCK HUBBARD_U
Fe d:4.0
%ENDBLOCK HUBBARD_U

SNAP_TO_SYMMETRY
SYMMETRY_GENERATE

