#              Generated by Buildcell
#
# at 14:23:18 (GMT+0.0) 24th November 2020
# in /lustre/scratch/uccabz1/launch_tmp
# on node-c12e-020
# by uccabz1
#
# compiler GCC version 4.9.2
# options -cpp -iprefix /lustre/shared/ucl/apps/gcc/4.9.2/bin/../lib/gcc/x86_64-unknown-linux-gnu/4.9.2/ -mtune=corei7 -march=x86-64 -g -Og
#
# seed   764878201  -142553073  1134985296  -967317236  -801911880  1536495998  1610880377   -18589386  1824244117   -67006879   642358045 -1291881698
#
#      Author: C. J. Pickard (cjp20@cam.ac.uk)
#                Space group: P21212
#

%BLOCK LATTICE_ABC
      4.47266      5.42198      6.59775
     90.00000     90.00000     90.00000
%ENDBLOCK LATTICE_ABC

%BLOCK POSITIONS_FRAC
  Li   0.0000000  -0.0000000  -0.3719803 SPIN=   0.00000
  Li   0.5000000  -0.5000000   0.3719803 SPIN=   0.00000
   O   0.1110207   0.2915313  -0.5702486 SPIN=   0.00000
   O   0.1111655   0.2917808  -0.1764675 SPIN=   0.00000
   O  -0.1110207  -0.2915313  -0.5702486 SPIN=   0.00000
   O  -0.1111655  -0.2917808  -0.1764675 SPIN=   0.00000
   O   0.3889793  -0.2084687   0.5702486 SPIN=   0.00000
   O   0.3888345  -0.2082192   0.1764675 SPIN=   0.00000
   O  -0.3889793   0.2084687   0.5702486 SPIN=   0.00000
   O  -0.3888345   0.2082192   0.1764675 SPIN=   0.00000
   P  -0.0000000  -0.5000000  -0.4015008 SPIN=   0.00000
   P  -0.5000000  -0.0000000   0.4015008 SPIN=   0.00000
  Fe   0.0000000  -0.0000000   0.1288347 SPIN=   4.00000
  Fe   0.5000000  -0.5000000  -0.1288347 SPIN=   4.00000
%ENDBLOCK POSITIONS_FRAC

# Note: total spin =   8.00

KPOINTS_MP_SPACING 0.07

%BLOCK SPECIES_POT
QC5
%ENDBLOCK SPECIES_POT

%BLOCK HUBBARD_U
Fe d:4.0
%ENDBLOCK HUBBARD_U

SNAP_TO_SYMMETRY
SYMMETRY_GENERATE

