#              Generated by Buildcell
#
# at 12:08:31 (GMT+0.0) 24th November 2020
# in /lustre/scratch/uccabz1/launch_tmp
# on node-c12a-034
# by uccabz1
#
# compiler GCC version 4.9.2
# options -cpp -iprefix /lustre/shared/ucl/apps/gcc/4.9.2/bin/../lib/gcc/x86_64-unknown-linux-gnu/4.9.2/ -mtune=corei7 -march=x86-64 -g -Og
#
# seed   139693584   736392306  -493701518 -1870903801  -856368387  -297843409  -209000945 -1778954668  1817774942    62952303   789671838    -2252017
#
#      Author: C. J. Pickard (cjp20@cam.ac.uk)
#                Space group: Pmn21
#

%BLOCK LATTICE_ABC
      3.85907      4.92064      8.42589
     90.00000     90.00000     90.00000
%ENDBLOCK LATTICE_ABC

%BLOCK POSITIONS_FRAC
  Li  -0.4602992   0.0000000  -0.0285855 SPIN=   0.00000
  Li   0.4602992  -0.5000000   0.4714145 SPIN=   0.00000
   O   0.4017011  -0.2500869   0.1649174 SPIN=   0.00000
   O   0.1405144  -0.2499131  -0.1192759 SPIN=   0.00000
   O  -0.4017011  -0.2499131  -0.3350826 SPIN=   0.00000
   O  -0.1405144  -0.2500869  -0.6192759 SPIN=   0.00000
   O  -0.4017011   0.2499131  -0.3350826 SPIN=   0.00000
   O  -0.1405144   0.2500869  -0.6192759 SPIN=   0.00000
   O   0.4017011   0.2500869   0.1649174 SPIN=   0.00000
   O   0.1405144   0.2499131  -0.1192759 SPIN=   0.00000
   P   0.1966409   0.0000000   0.2951491 SPIN=   0.00000
   P  -0.1966409  -0.5000000  -0.2048509 SPIN=   0.00000
  Fe   0.0398395   0.0000000  -0.3477969 SPIN=   4.00000
  Fe  -0.0398395  -0.5000000   0.1522031 SPIN=   4.00000
%ENDBLOCK POSITIONS_FRAC

# Note: total spin =   8.00

KPOINTS_MP_SPACING 0.07

%BLOCK SPECIES_POT
QC5
%ENDBLOCK SPECIES_POT

%BLOCK HUBBARD_U
Fe d:4.0
%ENDBLOCK HUBBARD_U

SNAP_TO_SYMMETRY
SYMMETRY_GENERATE

