#              Generated by Buildcell
#
# at 18:48:57 (GMT+0.0) 26th November 2020
# in /lustre/scratch/uccabz1/launch_tmp
# on node-c12f-021
# by uccabz1
#
# compiler GCC version 4.9.2
# options -cpp -iprefix /lustre/shared/ucl/apps/gcc/4.9.2/bin/../lib/gcc/x86_64-unknown-linux-gnu/4.9.2/ -mtune=corei7 -march=x86-64 -g -Og
#
# seed  2009115714  2109169550  1166807179  -395995961   869757795   175763601 -2123063780  1020625378  -448964807   -35539292   645464669   789735919
#
#      Author: C. J. Pickard (cjp20@cam.ac.uk)
#                Space group: I4
#

%BLOCK LATTICE_ABC
      7.52815      7.52815      7.52815
    104.48248    104.48248    119.98890
%ENDBLOCK LATTICE_ABC

%BLOCK POSITIONS_FRAC
  Li   0.4148228  -0.0851772  -0.5000000 SPIN=   0.00000
  Li  -0.0851772   0.4148228  -0.5000000 SPIN=   0.00000
  Li  -0.3840932  -0.3840932  -0.0000000 SPIN=   0.00000
  Li   0.2162989   0.2162989   0.0000000 SPIN=   0.00000
   O  -0.1198143  -0.0384091   0.2515238 SPIN=   0.00000
   O  -0.5470996  -0.2765081   0.1812020 SPIN=   0.00000
   O  -0.2566070   0.0497727   0.5234525 SPIN=   0.00000
   O  -0.3510845   0.1247049   0.2201132 SPIN=   0.00000
   P  -0.3084470  -0.0333996   0.2909345 SPIN=   0.00000
   O  -0.2899329   0.6286619  -0.2515238 SPIN=   0.00000
   O  -0.4577101   0.2716983  -0.1812020 SPIN=   0.00000
   O  -0.4736798   0.2199405  -0.5234525 SPIN=   0.00000
   O  -0.0954083   0.4288024  -0.2201132 SPIN=   0.00000
   P  -0.3243341   0.4006185  -0.2909345 SPIN=   0.00000
   O   0.6286619  -0.1198143  -0.0814052 SPIN=   0.00000
   O   0.2716983  -0.5470996  -0.2705916 SPIN=   0.00000
   O   0.2199405  -0.2566070  -0.3063797 SPIN=   0.00000
   O   0.4288024  -0.3510845  -0.4757893 SPIN=   0.00000
   P   0.4006185  -0.3084470  -0.2750474 SPIN=   0.00000
   O  -0.0384091  -0.2899329   0.0814052 SPIN=   0.00000
   O  -0.2765081  -0.4577101   0.2705916 SPIN=   0.00000
   O   0.0497727  -0.4736798   0.3063797 SPIN=   0.00000
   O   0.1247049  -0.0954083   0.4757893 SPIN=   0.00000
   P  -0.0333996  -0.3243341   0.2750474 SPIN=   0.00000
  Fe  -0.2173781   0.2258026  -0.0084423 SPIN=   4.00000
  Fe   0.2342450  -0.2089357   0.0084423 SPIN=   4.00000
  Fe  -0.2089357  -0.2173781  -0.4431807 SPIN=   4.00000
  Fe   0.2258026   0.2342450   0.4431807 SPIN=   4.00000
%ENDBLOCK POSITIONS_FRAC

# Note: total spin =  16.00

KPOINTS_MP_SPACING 0.07

%BLOCK SPECIES_POT
QC5
%ENDBLOCK SPECIES_POT

%BLOCK HUBBARD_U
Fe d:4.0
%ENDBLOCK HUBBARD_U

SNAP_TO_SYMMETRY
SYMMETRY_GENERATE

