#              Generated by Buildcell
#
# at 11:32:10 (GMT+0.0) 24th November 2020
# in /lustre/scratch/uccabz1/launch_tmp
# on node-c12n-022
# by uccabz1
#
# compiler GCC version 4.9.2
# options -cpp -iprefix /lustre/shared/ucl/apps/gcc/4.9.2/bin/../lib/gcc/x86_64-unknown-linux-gnu/4.9.2/ -mtune=corei7 -march=x86-64 -g -Og
#
# seed  -310040366   439215734  -303507207  -958129923  1276761162  1215810893  -739655324 -1240094459  -229652031   736025260   654227320 -2104081326
#
#      Author: C. J. Pickard (cjp20@cam.ac.uk)
#                Space group: Pc
#

%BLOCK LATTICE_ABC
      5.60801      5.65205      5.66101
     90.00000    116.91426     90.00000
%ENDBLOCK LATTICE_ABC

%BLOCK POSITIONS_FRAC
  Li   0.1514976  -0.2432969  -0.4012118 SPIN=   0.00000
  Li  -0.3485024   0.2432969  -0.4012118 SPIN=   0.00000
   O  -0.4869231  -0.3648728  -0.0915070 SPIN=   0.00000
   O  -0.2745482   0.0502169  -0.0569275 SPIN=   0.00000
   O   0.0231923  -0.2850336   0.1722995 SPIN=   0.00000
   O  -0.1945713  -0.2655573  -0.3232536 SPIN=   0.00000
   P  -0.2462655  -0.2248029  -0.0786657 SPIN=   0.00000
   O   0.0130769   0.3648728  -0.0915070 SPIN=   0.00000
   O   0.2254518  -0.0502169  -0.0569275 SPIN=   0.00000
   O   0.5231923   0.2850336   0.1722995 SPIN=   0.00000
   O   0.3054287   0.2655573  -0.3232536 SPIN=   0.00000
   P   0.2537345   0.2248029  -0.0786657 SPIN=   0.00000
  Fe  -0.0051123   0.2585746   0.2556718 SPIN=   4.00000
  Fe   0.4948877  -0.2585746   0.2556718 SPIN=   4.00000
%ENDBLOCK POSITIONS_FRAC

# Note: total spin =   8.00

KPOINTS_MP_SPACING 0.07

%BLOCK SPECIES_POT
QC5
%ENDBLOCK SPECIES_POT

%BLOCK HUBBARD_U
Fe d:4.0
%ENDBLOCK HUBBARD_U

SNAP_TO_SYMMETRY
SYMMETRY_GENERATE

