#              Generated by Buildcell
#
# at 08:32:08 (GMT+0.0) 24th November 2020
# in /lustre/scratch/uccabz1/launch_tmp
# on node-c12p-031
# by uccabz1
#
# compiler GCC version 4.9.2
# options -cpp -iprefix /lustre/shared/ucl/apps/gcc/4.9.2/bin/../lib/gcc/x86_64-unknown-linux-gnu/4.9.2/ -mtune=corei7 -march=x86-64 -g -Og
#
# seed -1399384292  1615262066   764133695 -1727065443 -1994780162  -305991361 -1189994979 -1608303861   577096534   908689732  1381259025   -92221974
#
#      Author: C. J. Pickard (cjp20@cam.ac.uk)
#                Space group: C2
#

%BLOCK LATTICE_ABC
      5.51752      5.51752      5.57649
    101.89170    101.89170     97.27858
%ENDBLOCK LATTICE_ABC

%BLOCK POSITIONS_FRAC
  Li  -0.7594054  -0.2405946  -0.5000000 SPIN=   0.00000
  Li  -0.1226886  -0.8773114  -0.5000000 SPIN=   0.00000
   O   0.0779460   0.5317255   0.1386377 SPIN=   0.00000
   O   0.0814211   0.0992603  -0.1518867 SPIN=   0.00000
   O  -0.3002444   0.2898456  -0.2295273 SPIN=   0.00000
   O   0.0923874   0.4813787  -0.3288166 SPIN=   0.00000
   O  -0.5317255  -0.0779460  -0.1386377 SPIN=   0.00000
   O  -0.0992603  -0.0814211   0.1518867 SPIN=   0.00000
   O  -0.2898456   0.3002444   0.2295273 SPIN=   0.00000
   O  -0.4813787  -0.0923874   0.3288166 SPIN=   0.00000
   P   0.3561381  -0.3561381   0.0000000 SPIN=   0.00000
   P  -0.1921579   0.1921579  -0.0000000 SPIN=   0.00000
  Fe  -0.2096931  -0.3278400  -0.2056992 SPIN=   4.00000
  Fe   0.3278400   0.2096931   0.2056992 SPIN=   4.00000
%ENDBLOCK POSITIONS_FRAC

# Note: total spin =   8.00

KPOINTS_MP_SPACING 0.07

%BLOCK SPECIES_POT
QC5
%ENDBLOCK SPECIES_POT

%BLOCK HUBBARD_U
Fe d:4.0
%ENDBLOCK HUBBARD_U

SNAP_TO_SYMMETRY
SYMMETRY_GENERATE

