#              Generated by Buildcell
#
# at 20:13:14 (GMT+0.0) 26th November 2020
# in /scratch/scratch/mmm0366/launch_tmp
# on node-k98p-014
# by mmm0366
#
# compiler GCC version 4.9.2
# options -cpp -iprefix /scratch/UCL/applications/gcc/4.9.2/bin/../lib/gcc/x86_64-unknown-linux-gnu/4.9.2/ -mtune=corei7 -march=x86-64 -g -O2
#
# seed  1116561858    30494385   412043556 -2105187030 -1926766728  1416663936   976134463  -566559154  -957450210  1952314460  1725445486  -185925702
#
#      Author: C. J. Pickard (cjp20@cam.ac.uk)
#                Space group: P-1
#

%BLOCK LATTICE_ABC
      6.31472      7.36444      7.99732
     68.05349     83.12027     68.10776
%ENDBLOCK LATTICE_ABC

%BLOCK POSITIONS_FRAC
  Li  -0.4845626   0.2781053   0.0378268 SPIN=   0.00000
  Li   0.4845626  -0.2781053  -0.0378268 SPIN=   0.00000
  Li  -0.0196454   0.2559565   0.3403843 SPIN=   0.00000
  Li   0.0196454  -0.2559565  -0.3403843 SPIN=   0.00000
   O  -0.0031121   0.0539207   0.1730442 SPIN=   0.00000
   O  -0.3838010  -0.0160221   0.2474685 SPIN=   0.00000
   O  -0.0329429  -0.2890880   0.4133989 SPIN=   0.00000
   O  -0.2052469   0.0453350   0.4749768 SPIN=   0.00000
   P  -0.1486985  -0.0447100   0.3207565 SPIN=   0.00000
   O   0.0031121  -0.0539207  -0.1730442 SPIN=   0.00000
   O   0.3838010   0.0160221  -0.2474685 SPIN=   0.00000
   O   0.0329429   0.2890880  -0.4133989 SPIN=   0.00000
   O   0.2052469  -0.0453350  -0.4749768 SPIN=   0.00000
   P   0.1486985   0.0447100  -0.3207565 SPIN=   0.00000
   O   0.7320423  -0.3358427  -0.2315383 SPIN=   0.00000
   O   0.6511849  -0.4358510  -0.4900812 SPIN=   0.00000
   O   0.7340049  -0.7052524  -0.1841272 SPIN=   0.00000
   O   0.3628026  -0.4020473  -0.2491084 SPIN=   0.00000
   P   0.6229386  -0.4618196  -0.2852021 SPIN=   0.00000
   O  -0.7320423   0.3358427   0.2315383 SPIN=   0.00000
   O  -0.6511849   0.4358510   0.4900812 SPIN=   0.00000
   O  -0.7340049   0.7052524   0.1841272 SPIN=   0.00000
   O  -0.3628026   0.4020473   0.2491084 SPIN=   0.00000
   P  -0.6229386   0.4618196   0.2852021 SPIN=   0.00000
  Fe  -0.3920833   0.1809668  -0.3400774 SPIN=   3.85958
  Fe   0.3920833  -0.1809668   0.3400774 SPIN=   3.85958
  Fe   0.0367957   0.2704614  -0.0797438 SPIN=   4.14042
  Fe  -0.0367957  -0.2704614   0.0797438 SPIN=   4.14042
%ENDBLOCK POSITIONS_FRAC

# Note: total spin =  16.00

KPOINTS_MP_SPACING 0.07

%BLOCK SPECIES_POT
QC5
%ENDBLOCK SPECIES_POT

%BLOCK HUBBARD_U
Fe d:4.0
%ENDBLOCK HUBBARD_U

SNAP_TO_SYMMETRY
SYMMETRY_GENERATE

