#              Generated by Buildcell
#
# at 06:11:36 (GMT+0.0) 24th November 2020
# in /lustre/scratch/uccabz1/launch_tmp
# on node-c12i-027
# by uccabz1
#
# compiler GCC version 4.9.2
# options -cpp -iprefix /lustre/shared/ucl/apps/gcc/4.9.2/bin/../lib/gcc/x86_64-unknown-linux-gnu/4.9.2/ -mtune=corei7 -march=x86-64 -g -Og
#
# seed  1112619702 -1188367321   838930401  1470087857   328780399 -2015369361 -1349329396  -143838307  1972009002 -1786017748   789501990   679316463
#
#      Author: C. J. Pickard (cjp20@cam.ac.uk)
#                Space group: C2/m
#

%BLOCK LATTICE_ABC
      5.35378      5.52630      6.11647
     99.41294    115.95420     90.00000
%ENDBLOCK LATTICE_ABC

%BLOCK POSITIONS_FRAC
  Li   0.5000000   0.0000000  -0.0000000 SPIN=   0.00000
  Li   0.0000000   0.5000000  -0.0000000 SPIN=   0.00000
   O  -0.1064339  -0.1510137   0.2508939 SPIN=   0.00000
   O  -0.3805239  -0.2927196  -0.2248095 SPIN=   0.00000
   O  -0.3573278   0.1510137  -0.2508939 SPIN=   0.00000
   O  -0.1557144   0.2927196   0.2248095 SPIN=   0.00000
   O   0.1064339   0.1510137  -0.2508939 SPIN=   0.00000
   O   0.3805239   0.2927196   0.2248095 SPIN=   0.00000
   O   0.3573278  -0.1510137   0.2508939 SPIN=   0.00000
   O   0.1557144  -0.2927196  -0.2248095 SPIN=   0.00000
   P  -0.0000000   0.0000000   0.0000000 SPIN=   0.00000
   P  -0.5000000  -0.5000000  -1.0000000 SPIN=   0.00000
  Fe  -0.2499978  -0.2500029  -0.4999956 SPIN=   4.00000
  Fe   0.2499978   0.2500029   0.4999956 SPIN=   4.00000
%ENDBLOCK POSITIONS_FRAC

# Note: total spin =   8.00

KPOINTS_MP_SPACING 0.07

%BLOCK SPECIES_POT
QC5
%ENDBLOCK SPECIES_POT

%BLOCK HUBBARD_U
Fe d:4.0
%ENDBLOCK HUBBARD_U

SNAP_TO_SYMMETRY
SYMMETRY_GENERATE

