#              Generated by Buildcell
#
# at 12:10:22 (GMT+0.0) 24th November 2020
# in /scratch/scratch/uccabz1/launch_tmp
# on node-k10i-019
# by uccabz1
#
# compiler GCC version 4.9.2
# options -cpp -iprefix /scratch/UCL/applications/gcc/4.9.2/bin/../lib/gcc/x86_64-unknown-linux-gnu/4.9.2/ -mtune=corei7 -march=x86-64 -g -O2
#
# seed -1286716351  -294934289 -1938634324  -929243991   907641247  -837674246   -66840379  -494277472 -1070928750   903193391  -177865907  1474979794
#
#      Author: C. J. Pickard (cjp20@cam.ac.uk)
#                Space group: C2
#

%BLOCK LATTICE_ABC
      5.31420      5.31420      6.91302
     99.18121    105.94119    115.79527
%ENDBLOCK LATTICE_ABC

%BLOCK POSITIONS_FRAC
  Li  -0.3721914  -0.3721914   0.0000000 SPIN=   0.00000
  Li  -0.2760573  -0.7760573  -0.5000000 SPIN=   0.00000
   O   0.3097982  -0.0331121   0.2363064 SPIN=   0.00000
   O   0.2788401   0.2071210   0.5805973 SPIN=   0.00000
   O  -0.1426570   0.0394913   0.2377906 SPIN=   0.00000
   P   0.1030718  -0.0339734   0.3545172 SPIN=   0.00000
   O  -0.2694185   0.0734918  -0.2363064 SPIN=   0.00000
   O  -0.3734763  -0.3017572  -0.5805973 SPIN=   0.00000
   O  -0.1982993  -0.3804476  -0.2377906 SPIN=   0.00000
   P  -0.3884906  -0.2514454  -0.3545172 SPIN=   0.00000
   O   0.2575366   0.2575366   0.0000000 SPIN=   0.00000
   O   0.1822461  -0.3177539  -0.5000000 SPIN=   0.00000
  Fe   0.1227453   0.4440113   0.2078744 SPIN=   4.00000
  Fe   0.2361368  -0.0851292  -0.2078744 SPIN=   4.00000
%ENDBLOCK POSITIONS_FRAC

# Note: total spin =   8.00

KPOINTS_MP_SPACING 0.07

%BLOCK SPECIES_POT
QC5
%ENDBLOCK SPECIES_POT

%BLOCK HUBBARD_U
Fe d:4.0
%ENDBLOCK HUBBARD_U

SNAP_TO_SYMMETRY
SYMMETRY_GENERATE

