#              Generated by Buildcell
#
# at 10:59:15 (GMT+0.0) 24th November 2020
# in /scratch/scratch/uccabz1/launch_tmp
# on node-k10e-028
# by uccabz1
#
# compiler GCC version 4.9.2
# options -cpp -iprefix /scratch/UCL/applications/gcc/4.9.2/bin/../lib/gcc/x86_64-unknown-linux-gnu/4.9.2/ -mtune=corei7 -march=x86-64 -g -O2
#
# seed    40766251  -809227685 -1884997660 -1293083690 -2105187030  1484153725   248666256  -655338588  -897373405  1372337428    78725884  1439836873
#
#      Author: C. J. Pickard (cjp20@cam.ac.uk)
#                Space group: Imm2
#

%BLOCK LATTICE_ABC
      5.23096      5.78213      6.57134
    116.10073    113.45404     90.00000
%ENDBLOCK LATTICE_ABC

%BLOCK POSITIONS_FRAC
  Li   0.3441509   0.3441509   0.6883019 SPIN=   0.00000
  Li  -0.1109138  -0.1109138  -0.2218277 SPIN=   0.00000
   O   0.0447202   0.0198263   0.5874025 SPIN=   0.00000
   O  -0.1889980  -0.2204722   0.0964393 SPIN=   0.00000
   O   0.5426822   0.5675762   0.5874025 SPIN=   0.00000
   O   0.2854373   0.3169115   0.0964393 SPIN=   0.00000
   O   0.5426822   0.0198263   0.5874025 SPIN=   0.00000
   O   0.2854373  -0.2204722   0.0964393 SPIN=   0.00000
   O   0.0447202   0.5675762   0.5874025 SPIN=   0.00000
   O  -0.1889980   0.3169115   0.0964393 SPIN=   0.00000
   P  -0.4033046  -0.4033046  -0.8066091 SPIN=   0.00000
   P  -0.1499963   0.3500037   0.7000074 SPIN=   0.00000
  Fe  -0.4205120   0.0794880   0.1589761 SPIN=   3.28022
  Fe   0.1986793  -0.3013207  -0.6026415 SPIN=   4.71978
%ENDBLOCK POSITIONS_FRAC

# Note: total spin =   8.00

KPOINTS_MP_SPACING 0.07

%BLOCK SPECIES_POT
QC5
%ENDBLOCK SPECIES_POT

%BLOCK HUBBARD_U
Fe d:4.0
%ENDBLOCK HUBBARD_U

SNAP_TO_SYMMETRY
SYMMETRY_GENERATE

