#              Generated by Buildcell
#
# at 10:00:05 (GMT+0.0) 24th November 2020
# in /lustre/scratch/uccabz1/launch_tmp
# on node-c12i-033
# by uccabz1
#
# compiler GCC version 4.9.2
# options -cpp -iprefix /lustre/shared/ucl/apps/gcc/4.9.2/bin/../lib/gcc/x86_64-unknown-linux-gnu/4.9.2/ -mtune=corei7 -march=x86-64 -g -Og
#
# seed  1432589505  1459074762  -948276150  1523312752 -1442136439  -574047682   734829862  1463392434   756263100 -1717043619 -1265407715   671141605
#
#      Author: C. J. Pickard (cjp20@cam.ac.uk)
#                Space group: P-4
#

%BLOCK LATTICE_ABC
      5.37030      5.45834      5.45834
     90.00000     90.00000     90.00000
%ENDBLOCK LATTICE_ABC

%BLOCK POSITIONS_FRAC
  Li  -0.0000000   0.0000000  -0.0000000 SPIN=   0.00000
  Li  -0.0000000  -0.5000000   0.5000000 SPIN=   0.00000
   O   0.1749204   0.2395901   0.2557392 SPIN=   0.00000
   O   0.6492510   0.3258016   0.2191940 SPIN=   0.00000
   O   0.1749204  -0.2395901  -0.2557392 SPIN=   0.00000
   O   0.6492510  -0.3258016  -0.2191940 SPIN=   0.00000
   O  -0.1749204  -0.2557392   0.2395901 SPIN=   0.00000
   O  -0.6492510  -0.2191940   0.3258016 SPIN=   0.00000
   O  -0.1749204   0.2557392  -0.2395901 SPIN=   0.00000
   O  -0.6492510   0.2191940  -0.3258016 SPIN=   0.00000
   P   0.5000000   0.0000000   0.0000000 SPIN=   0.00000
   P   0.5000000   0.5000000  -0.5000000 SPIN=   0.00000
  Fe   0.3445271  -0.5000000  -0.0000000 SPIN=   4.00000
  Fe  -0.3445271  -0.0000000   0.5000000 SPIN=   4.00000
%ENDBLOCK POSITIONS_FRAC

# Note: total spin =   8.00

KPOINTS_MP_SPACING 0.07

%BLOCK SPECIES_POT
QC5
%ENDBLOCK SPECIES_POT

%BLOCK HUBBARD_U
Fe d:4.0
%ENDBLOCK HUBBARD_U

SNAP_TO_SYMMETRY
SYMMETRY_GENERATE

