#              Generated by Buildcell
#
# at 13:42:25 (GMT+0.0) 24th November 2020
# in /lustre/scratch/uccabz1/launch_tmp
# on node-c12c-032
# by uccabz1
#
# compiler GCC version 4.9.2
# options -cpp -iprefix /lustre/shared/ucl/apps/gcc/4.9.2/bin/../lib/gcc/x86_64-unknown-linux-gnu/4.9.2/ -mtune=corei7 -march=x86-64 -g -Og
#
# seed  2061128254  1037114044 -1294444340   792326172   418423323  1980044357  2078148641  1948459755  1188463969  -307177448  1971039044  2002161967
#
#      Author: C. J. Pickard (cjp20@cam.ac.uk)
#                Space group: Iba2
#

%BLOCK LATTICE_ABC
      5.49724      5.50088      6.56621
    114.76377    114.74629     90.00000
%ENDBLOCK LATTICE_ABC

%BLOCK POSITIONS_FRAC
  Li  -0.2777462  -0.2777462  -0.5554923 SPIN=   0.00000
  Li   0.2222538   0.2222538   0.4445077 SPIN=   0.00000
   O   0.2264191  -0.4582527  -0.2319597 SPIN=   0.00000
   O   0.6967959  -0.1816862   0.1579428 SPIN=   0.00000
   O  -0.4583789   0.2262930  -0.2319597 SPIN=   0.00000
   O  -0.5388531   0.3396290   0.1579428 SPIN=   0.00000
   O  -0.2735809  -0.2737070  -0.2319597 SPIN=   0.00000
   O   0.1967959  -0.1603710   0.1579428 SPIN=   0.00000
   O   0.0416211   0.0417473  -0.2319597 SPIN=   0.00000
   O  -0.0388531   0.3183138   0.1579428 SPIN=   0.00000
   P  -0.0273275  -0.0273275  -0.0546550 SPIN=   0.00000
   P   0.4726725   0.4726725   0.9453450 SPIN=   0.00000
  Fe   0.3988569  -0.1011431  -0.2022862 SPIN=   4.00000
  Fe  -0.1011431   0.3988569   0.7977138 SPIN=   4.00000
%ENDBLOCK POSITIONS_FRAC

# Note: total spin =   8.00

KPOINTS_MP_SPACING 0.07

%BLOCK SPECIES_POT
QC5
%ENDBLOCK SPECIES_POT

%BLOCK HUBBARD_U
Fe d:4.0
%ENDBLOCK HUBBARD_U

SNAP_TO_SYMMETRY
SYMMETRY_GENERATE

