#              Generated by Buildcell
#
# at 08:22:27 (GMT+0.0) 24th November 2020
# in /lustre/scratch/uccabz1/launch_tmp
# on node-c12c-023
# by uccabz1
#
# compiler GCC version 4.9.2
# options -cpp -iprefix /lustre/shared/ucl/apps/gcc/4.9.2/bin/../lib/gcc/x86_64-unknown-linux-gnu/4.9.2/ -mtune=corei7 -march=x86-64 -g -Og
#
# seed   619722039  -782010638 -1897258874 -1354534470   668831606  -311648674   711331419   -78195293  1861124704  -338894849 -1531683960  -930323220
#
#      Author: C. J. Pickard (cjp20@cam.ac.uk)
#                Space group: Imm2
#

%BLOCK LATTICE_ABC
      5.26044      5.77538      6.55684
    116.12996    113.64955     90.00000
%ENDBLOCK LATTICE_ABC

%BLOCK POSITIONS_FRAC
  Li  -0.2460044  -0.5000000  -0.0000000 SPIN=   0.00000
  Li  -0.4319310  -0.0000000  -0.0000000 SPIN=   0.00000
   O  -0.3854222  -0.3508297   0.7326951 SPIN=   0.00000
   O  -0.5961090  -0.5938733   0.2406449 SPIN=   0.00000
   O  -0.1181173   0.3508297  -0.7326951 SPIN=   0.00000
   O   0.1632461   0.5938733  -0.2406449 SPIN=   0.00000
   O  -0.1181173  -0.0835248  -0.7326951 SPIN=   0.00000
   O   0.1632461   0.1654818  -0.2406449 SPIN=   0.00000
   O  -0.3854222   0.0835248   0.7326951 SPIN=   0.00000
   O  -0.5961090  -0.1654818   0.2406449 SPIN=   0.00000
   P   0.2695399  -0.2986424   0.4027151 SPIN=   0.00000
   P  -0.1331753   0.2986424  -0.4027151 SPIN=   0.00000
  Fe  -0.1222028  -0.1903196  -0.3806393 SPIN=   4.00000
  Fe   0.2584364   0.1903196   0.3806393 SPIN=   4.00000
%ENDBLOCK POSITIONS_FRAC

# Note: total spin =   8.00

KPOINTS_MP_SPACING 0.07

%BLOCK SPECIES_POT
QC5
%ENDBLOCK SPECIES_POT

%BLOCK HUBBARD_U
Fe d:4.0
%ENDBLOCK HUBBARD_U

SNAP_TO_SYMMETRY
SYMMETRY_GENERATE

