#              Generated by Buildcell
#
# at 14:27:11 (GMT+0.0) 24th November 2020
# in /scratch/scratch/uccabz1/launch_tmp
# on node-a14f-014
# by uccabz1
#
# compiler GCC version 4.9.2
# options -cpp -iprefix /scratch/UCL/applications/gcc/4.9.2/bin/../lib/gcc/x86_64-unknown-linux-gnu/4.9.2/ -mtune=corei7 -march=x86-64 -g -O2
#
# seed  1305331880   461107710 -1743148426  1657092292   177802088  1812857345  1574142011 -1448288915  1995955586  1491665650  1211657206  -929829711
#
#      Author: C. J. Pickard (cjp20@cam.ac.uk)
#                Space group: P2
#

%BLOCK LATTICE_ABC
      3.83643      4.77405      8.81499
     90.00000     97.68274     90.00000
%ENDBLOCK LATTICE_ABC

%BLOCK POSITIONS_FRAC
  Li  -0.0059568  -0.3167269  -0.1683694 SPIN=   0.00000
  Li   0.0059568  -0.3167269   0.1683694 SPIN=   0.00000
   O  -0.2217313   0.0542541  -0.4138417 SPIN=   0.00000
   O  -0.1068872   0.2575324  -0.1382848 SPIN=   0.00000
   O   0.3602136  -0.0249968  -0.2315738 SPIN=   0.00000
   O   0.2240971   0.4530598  -0.3406604 SPIN=   0.00000
   P   0.0506036   0.1811667  -0.2888615 SPIN=   0.00000
   O   0.2217313   0.0542541   0.4138417 SPIN=   0.00000
   O   0.1068872   0.2575324   0.1382848 SPIN=   0.00000
   O  -0.3602136  -0.0249968   0.2315738 SPIN=   0.00000
   O  -0.2240971   0.4530598   0.3406604 SPIN=   0.00000
   P  -0.0506036   0.1811667   0.2888615 SPIN=   0.00000
  Fe  -0.5000000   0.1826470   0.0000000 SPIN=   2.78736
  Fe   0.5000000  -0.3465215   0.5000000 SPIN=   5.21264
%ENDBLOCK POSITIONS_FRAC

# Note: total spin =   8.00

KPOINTS_MP_SPACING 0.07

%BLOCK SPECIES_POT
QC5
%ENDBLOCK SPECIES_POT

%BLOCK HUBBARD_U
Fe d:4.0
%ENDBLOCK HUBBARD_U

SNAP_TO_SYMMETRY
SYMMETRY_GENERATE

