#              Generated by Buildcell
#
# at 07:53:25 (GMT+0.0) 24th November 2020
# in /scratch/scratch/uccabz1/launch_tmp
# on node-a14f-014
# by uccabz1
#
# compiler GCC version 4.9.2
# options -cpp -iprefix /scratch/UCL/applications/gcc/4.9.2/bin/../lib/gcc/x86_64-unknown-linux-gnu/4.9.2/ -mtune=corei7 -march=x86-64 -g -O2
#
# seed -1029659980 -1029656467  1311936992 -1869320904   165382413   993387330   368166425     1471248   186823930  1747211802   175028935  1791657227
#
#      Author: C. J. Pickard (cjp20@cam.ac.uk)
#                Space group: I222
#

%BLOCK LATTICE_ABC
      4.92738      5.96257      6.67950
    116.50872    111.64434     90.00000
%ENDBLOCK LATTICE_ABC

%BLOCK POSITIONS_FRAC
  Li   0.0000000   0.0000000  -0.0000000 SPIN=   0.00000
  Li   0.0000000  -0.5000000  -0.0000000 SPIN=   0.00000
   O   0.1905328   0.1734669  -0.1520090 SPIN=   0.00000
   O  -0.3864333   0.0979447  -0.3634013 SPIN=   0.00000
   O   0.3425418  -0.1734669   0.1520090 SPIN=   0.00000
   O  -0.0230320  -0.0979447   0.3634013 SPIN=   0.00000
   O  -0.1905328   0.3254759   0.1520090 SPIN=   0.00000
   O   0.3864333   0.4613460   0.3634013 SPIN=   0.00000
   O  -0.3425418  -0.3254759  -0.1520090 SPIN=   0.00000
   O   0.0230320  -0.4613460  -0.3634013 SPIN=   0.00000
   P   0.3308392   0.3308392  -0.3383215 SPIN=   0.00000
   P  -0.3308392  -0.3308392   0.3383215 SPIN=   0.00000
  Fe   0.3016200  -0.1983800  -0.3967600 SPIN=   4.00000
  Fe  -0.3016200   0.1983800   0.3967600 SPIN=   4.00000
%ENDBLOCK POSITIONS_FRAC

# Note: total spin =   8.00

KPOINTS_MP_SPACING 0.07

%BLOCK SPECIES_POT
QC5
%ENDBLOCK SPECIES_POT

%BLOCK HUBBARD_U
Fe d:4.0
%ENDBLOCK HUBBARD_U

SNAP_TO_SYMMETRY
SYMMETRY_GENERATE

