#              Generated by Buildcell
#
# at 15:06:16 (GMT+0.0) 26th November 2020
# in /lustre/scratch/uccabz1/launch_tmp
# on node-c12e-023
# by uccabz1
#
# compiler GCC version 4.9.2
# options -cpp -iprefix /lustre/shared/ucl/apps/gcc/4.9.2/bin/../lib/gcc/x86_64-unknown-linux-gnu/4.9.2/ -mtune=corei7 -march=x86-64 -g -Og
#
# seed  1484125358   162417818   475629192  1131381140    75309922 -1504484516   438149215 -1106018793  -272075065  -150046160  1431346200  -289178268
#
#      Author: C. J. Pickard (cjp20@cam.ac.uk)
#                Space group: P21
#

%BLOCK LATTICE_ABC
      5.84022      6.53356      8.38641
     90.28730     90.00000     90.00000
%ENDBLOCK LATTICE_ABC

%BLOCK POSITIONS_FRAC
  Li  -0.4145523  -0.0651888  -0.0033380 SPIN=   0.00000
  Li   0.0854477   0.0651888   0.0033380 SPIN=   0.00000
  Li  -0.3036316  -0.3642730  -0.4001486 SPIN=   0.00000
  Li   0.1963684   0.3642730   0.4001486 SPIN=   0.00000
   O  -0.1583713   0.3030673   0.0135027 SPIN=   0.00000
   O  -0.5116427   0.3852344  -0.1632413 SPIN=   0.00000
   O  -0.2515973   0.6682478  -0.0890910 SPIN=   0.00000
   O  -0.1194388   0.4008603  -0.2832979 SPIN=   0.00000
   P  -0.2531754   0.4316417  -0.1246656 SPIN=   0.00000
   O   0.3416287  -0.3030673  -0.0135027 SPIN=   0.00000
   O  -0.0116427  -0.3852344   0.1632413 SPIN=   0.00000
   O   0.2484027  -0.6682478   0.0890910 SPIN=   0.00000
   O   0.3805612  -0.4008603   0.2832979 SPIN=   0.00000
   P   0.2468246  -0.4316417   0.1246656 SPIN=   0.00000
   O  -0.4676219   0.2484298   0.3796244 SPIN=   0.00000
   O  -0.4090856  -0.1385679   0.4365364 SPIN=   0.00000
   O  -0.6298606  -0.0400971   0.1977135 SPIN=   0.00000
   O  -0.2065288   0.0203446   0.2048849 SPIN=   0.00000
   P  -0.4277524   0.0345298   0.3075019 SPIN=   0.00000
   O   0.0323781  -0.2484298  -0.3796244 SPIN=   0.00000
   O   0.0909144   0.1385679  -0.4365364 SPIN=   0.00000
   O  -0.1298606   0.0400971  -0.1977135 SPIN=   0.00000
   O   0.2934712  -0.0203446  -0.2048849 SPIN=   0.00000
   P   0.0722476  -0.0345298  -0.3075019 SPIN=   0.00000
  Fe  -0.3032354   0.4411576   0.2162496 SPIN=   1.29048
  Fe   0.1967646  -0.4411576  -0.2162496 SPIN=   1.29048
  Fe  -0.3769539   0.1359962  -0.3627691 SPIN=   6.70952
  Fe   0.1230461  -0.1359962   0.3627691 SPIN=   6.70952
%ENDBLOCK POSITIONS_FRAC

# Note: total spin =  16.00

KPOINTS_MP_SPACING 0.07

%BLOCK SPECIES_POT
QC5
%ENDBLOCK SPECIES_POT

%BLOCK HUBBARD_U
Fe d:4.0
%ENDBLOCK HUBBARD_U

SNAP_TO_SYMMETRY
SYMMETRY_GENERATE

