#              Generated by Buildcell
#
# at 10:26:52 (GMT+0.0) 24th November 2020
# in /scratch/scratch/uccabz1/launch_tmp
# on node-a14f-030
# by uccabz1
#
# compiler GCC version 4.9.2
# options -cpp -iprefix /scratch/UCL/applications/gcc/4.9.2/bin/../lib/gcc/x86_64-unknown-linux-gnu/4.9.2/ -mtune=corei7 -march=x86-64 -g -O2
#
# seed -1335689806    15780752 -1130171347   519487614  1116092567  -324227907  2068657042   -20013674  1178994956  -575904255   961863036 -1730300918
#
#      Author: C. J. Pickard (cjp20@cam.ac.uk)
#                Space group: C2
#

%BLOCK LATTICE_ABC
      3.88776      3.88776     10.66864
     85.70046     85.70046     85.93062
%ENDBLOCK LATTICE_ABC

%BLOCK POSITIONS_FRAC
  Li  -0.4641003  -0.0736326  -0.4244459 SPIN=   0.00000
  Li   0.0736326   0.4641003   0.4244459 SPIN=   0.00000
   O   0.4170432  -0.0331860   0.1017804 SPIN=   0.00000
   O   0.3976852   0.4577916   0.2549919 SPIN=   0.00000
   O  -0.0785048   0.0647623   0.2752854 SPIN=   0.00000
   P   0.3191876   0.0742795   0.2363088 SPIN=   0.00000
   O   0.0331860  -0.4170432  -0.1017804 SPIN=   0.00000
   O  -0.4577916  -0.3976852  -0.2549919 SPIN=   0.00000
   O  -0.0647623   0.0785048  -0.2752854 SPIN=   0.00000
   P  -0.0742795  -0.3191876  -0.2363088 SPIN=   0.00000
   O  -0.4403829   0.4403829   0.5000000 SPIN=   0.00000
   O   0.0499224  -0.0499224   0.5000000 SPIN=   0.00000
  Fe  -0.1658663  -0.4097529   0.1343420 SPIN=   4.00000
  Fe   0.4097529   0.1658663  -0.1343420 SPIN=   4.00000
%ENDBLOCK POSITIONS_FRAC

# Note: total spin =   8.00

KPOINTS_MP_SPACING 0.07

%BLOCK SPECIES_POT
QC5
%ENDBLOCK SPECIES_POT

%BLOCK HUBBARD_U
Fe d:4.0
%ENDBLOCK HUBBARD_U

SNAP_TO_SYMMETRY
SYMMETRY_GENERATE

