#              Generated by Buildcell
#
# at 10:47:53 (GMT+0.0) 24th November 2020
# in /scratch/scratch/uccabz1/launch_tmp
# on node-k10b-011
# by uccabz1
#
# compiler GCC version 4.9.2
# options -cpp -iprefix /scratch/UCL/applications/gcc/4.9.2/bin/../lib/gcc/x86_64-unknown-linux-gnu/4.9.2/ -mtune=corei7 -march=x86-64 -g -O2
#
# seed  1429439980 -1310996989  -438642128 -1264518059 -1699136004  -124631185  1917769975 -1997392951   922698632  -830646039  1760027701 -1211385228
#
#      Author: C. J. Pickard (cjp20@cam.ac.uk)
#                Space group: P2
#

%BLOCK LATTICE_ABC
      4.45567      5.78562      6.62960
    110.57700     90.00000     90.00000
%ENDBLOCK LATTICE_ABC

%BLOCK POSITIONS_FRAC
  Li  -0.3349046   0.0973423   0.2398250 SPIN=   0.00000
  Li  -0.3349046  -0.0973423  -0.2398250 SPIN=   0.00000
   O   0.0973550   0.3051605   0.0361051 SPIN=   0.00000
   O   0.4166260   0.2985446  -0.2938022 SPIN=   0.00000
   O   0.2019571  -0.0942209  -0.2917279 SPIN=   0.00000
   P   0.1386667   0.1914008  -0.2094822 SPIN=   0.00000
   O   0.0973550  -0.3051605  -0.0361051 SPIN=   0.00000
   O   0.4166260  -0.2985446   0.2938022 SPIN=   0.00000
   O   0.2019571   0.0942209   0.2917279 SPIN=   0.00000
   P   0.1386667  -0.1914008   0.2094822 SPIN=   0.00000
   O  -0.2971803  -0.5000000  -0.5000000 SPIN=   0.00000
   O  -0.2030125  -0.0000000  -0.5000000 SPIN=   0.00000
  Fe  -0.3654087  -0.5000000  -0.0000000 SPIN=   5.70757
  Fe   0.1694519  -0.5000000  -0.5000000 SPIN=   2.29243
%ENDBLOCK POSITIONS_FRAC

# Note: total spin =   8.00

KPOINTS_MP_SPACING 0.07

%BLOCK SPECIES_POT
QC5
%ENDBLOCK SPECIES_POT

%BLOCK HUBBARD_U
Fe d:4.0
%ENDBLOCK HUBBARD_U

SNAP_TO_SYMMETRY
SYMMETRY_GENERATE

