#              Generated by Buildcell
#
# at 15:37:03 (GMT+0.0) 26th November 2020
# in /lustre/scratch/uccabz1/launch_tmp
# on node-c12g-027
# by uccabz1
#
# compiler GCC version 4.9.2
# options -cpp -iprefix /lustre/shared/ucl/apps/gcc/4.9.2/bin/../lib/gcc/x86_64-unknown-linux-gnu/4.9.2/ -mtune=corei7 -march=x86-64 -g -Og
#
# seed  -677873701   831939503  1658633407 -1559648677  1471255655  -220882975 -1931758056 -1760147019 -1723373324   923415574  2087217900   251432077
#
#      Author: C. J. Pickard (cjp20@cam.ac.uk)
#                Space group: Pna21
#

%BLOCK LATTICE_ABC
      3.94797      7.65212     10.59239
     90.00000     90.00000     90.00000
%ENDBLOCK LATTICE_ABC

%BLOCK POSITIONS_FRAC
  Li   0.0213038   0.2228539   0.3583777 SPIN=   0.00000
  Li  -0.0213038  -0.2771461  -0.3583777 SPIN=   0.00000
  Li  -0.4786962   0.2228539   0.1416223 SPIN=   0.00000
  Li   0.4786962  -0.2771461  -0.1416223 SPIN=   0.00000
   O  -0.5592525   0.2441512  -0.1800735 SPIN=   0.00000
   O  -0.6338240   0.4989468  -0.0203645 SPIN=   0.00000
   O  -0.1349132   0.3066344   0.0018853 SPIN=   0.00000
   O  -0.1676277   0.5145403  -0.1803021 SPIN=   0.00000
   P  -0.3813390   0.3847027  -0.1002687 SPIN=   0.00000
   O   0.5592525  -0.2558488   0.1800735 SPIN=   0.00000
   O   0.6338240  -0.0010532   0.0203645 SPIN=   0.00000
   O   0.1349132  -0.1933656  -0.0018853 SPIN=   0.00000
   O   0.1676277   0.0145403   0.1803021 SPIN=   0.00000
   P   0.3813390  -0.1152973   0.1002687 SPIN=   0.00000
   O  -0.0592525   0.2441512  -0.3199265 SPIN=   0.00000
   O  -0.1338240   0.4989468  -0.4796355 SPIN=   0.00000
   O   0.3650868   0.3066344  -0.5018853 SPIN=   0.00000
   O   0.3323723   0.5145403  -0.3196979 SPIN=   0.00000
   P   0.1186610   0.3847027  -0.3997313 SPIN=   0.00000
   O   0.0592525  -0.2558488   0.3199265 SPIN=   0.00000
   O   0.1338240  -0.0010532   0.4796355 SPIN=   0.00000
   O  -0.3650868  -0.1933656   0.5018853 SPIN=   0.00000
   O  -0.3323723   0.0145403   0.3196979 SPIN=   0.00000
   P  -0.1186610  -0.1152973   0.3997313 SPIN=   0.00000
  Fe  -0.0409249  -0.4178652   0.0912163 SPIN=   4.00000
  Fe   0.0409249   0.0821348  -0.0912163 SPIN=   4.00000
  Fe   0.4590751  -0.4178652   0.4087837 SPIN=   4.00000
  Fe  -0.4590751   0.0821348  -0.4087837 SPIN=   4.00000
%ENDBLOCK POSITIONS_FRAC

# Note: total spin =  16.00

KPOINTS_MP_SPACING 0.07

%BLOCK SPECIES_POT
QC5
%ENDBLOCK SPECIES_POT

%BLOCK HUBBARD_U
Fe d:4.0
%ENDBLOCK HUBBARD_U

SNAP_TO_SYMMETRY
SYMMETRY_GENERATE

