#              Generated by Buildcell
#
# at 18:17:39 (GMT+0.0) 26th November 2020
# in /lustre/scratch/uccabz1/launch_tmp
# on node-c12g-033
# by uccabz1
#
# compiler GCC version 4.9.2
# options -cpp -iprefix /lustre/shared/ucl/apps/gcc/4.9.2/bin/../lib/gcc/x86_64-unknown-linux-gnu/4.9.2/ -mtune=corei7 -march=x86-64 -g -Og
#
# seed -1363436711 -1625077245 -2031081044  1961539808 -1426783502 -1276631453 -1083264410   841637420 -1401199725 -1916586325 -2088350584  -722968463
#
#      Author: C. J. Pickard (cjp20@cam.ac.uk)
#                Space group: Pca21
#

%BLOCK LATTICE_ABC
      3.91911      7.28709     11.20492
     90.00000     90.00000     90.00000
%ENDBLOCK LATTICE_ABC

%BLOCK POSITIONS_FRAC
  Li   0.3480949  -0.0164733  -0.4211885 SPIN=   0.00000
  Li  -0.3480949   0.4835267   0.4211885 SPIN=   0.00000
  Li  -0.3480949  -0.0164733   0.0788115 SPIN=   0.00000
  Li   0.3480949   0.4835267  -0.0788115 SPIN=   0.00000
   O  -0.5725376  -0.2835768   0.3414845 SPIN=   0.00000
   O  -0.0513928  -0.0985648   0.2636388 SPIN=   0.00000
   O  -0.4338590   0.0485674   0.4104076 SPIN=   0.00000
   O  -0.0539479  -0.2091537   0.4752550 SPIN=   0.00000
   P  -0.2909772  -0.1444237   0.3722449 SPIN=   0.00000
   O   0.5725376   0.2164232  -0.3414845 SPIN=   0.00000
   O   0.0513928   0.4014352  -0.2636388 SPIN=   0.00000
   O   0.4338590   0.5485674  -0.4104076 SPIN=   0.00000
   O   0.0539479   0.2908463  -0.4752550 SPIN=   0.00000
   P   0.2909772   0.3555763  -0.3722449 SPIN=   0.00000
   O   0.5725376  -0.2835768  -0.1585155 SPIN=   0.00000
   O   0.0513928  -0.0985648  -0.2363612 SPIN=   0.00000
   O   0.4338590   0.0485674  -0.0895924 SPIN=   0.00000
   O   0.0539479  -0.2091537  -0.0247450 SPIN=   0.00000
   P   0.2909772  -0.1444237  -0.1277551 SPIN=   0.00000
   O  -0.5725376   0.2164232   0.1585155 SPIN=   0.00000
   O  -0.0513928   0.4014352   0.2363612 SPIN=   0.00000
   O  -0.4338590   0.5485674   0.0895924 SPIN=   0.00000
   O  -0.0539479   0.2908463   0.0247450 SPIN=   0.00000
   P  -0.2909772   0.3555763   0.1277551 SPIN=   0.00000
  Fe  -0.1518759   0.1563733  -0.1855759 SPIN=   4.00000
  Fe   0.1518759  -0.3436267   0.1855759 SPIN=   4.00000
  Fe   0.1518759   0.1563733   0.3144241 SPIN=   4.00000
  Fe  -0.1518759  -0.3436267  -0.3144241 SPIN=   4.00000
%ENDBLOCK POSITIONS_FRAC

# Note: total spin =  16.00

KPOINTS_MP_SPACING 0.07

%BLOCK SPECIES_POT
QC5
%ENDBLOCK SPECIES_POT

%BLOCK HUBBARD_U
Fe d:4.0
%ENDBLOCK HUBBARD_U

SNAP_TO_SYMMETRY
SYMMETRY_GENERATE

