#              Generated by Buildcell
#
# at 13:18:56 (GMT+0.0) 24th November 2020
# in /lustre/scratch/uccabz1/launch_tmp
# on node-c12g-020
# by uccabz1
#
# compiler GCC version 4.9.2
# options -cpp -iprefix /lustre/shared/ucl/apps/gcc/4.9.2/bin/../lib/gcc/x86_64-unknown-linux-gnu/4.9.2/ -mtune=corei7 -march=x86-64 -g -Og
#
# seed  2005197887 -1928364547  1406512657  -718255898  1914348652 -1049606418 -1616571013 -2081985269  2100137788  1273850796   231690778  -699359356
#
#      Author: C. J. Pickard (cjp20@cam.ac.uk)
#                Space group: P-1
#

%BLOCK LATTICE_ABC
      4.23096      4.69648      8.29211
     94.14310    103.02220     91.15489
%ENDBLOCK LATTICE_ABC

%BLOCK POSITIONS_FRAC
  Li  -0.1965452   0.2468390   0.0473917 SPIN=   0.00000
  Li   0.1965452  -0.2468390  -0.0473917 SPIN=   0.00000
   O  -0.5918332   0.2462645   0.4710399 SPIN=   0.00000
   O  -0.1446566   0.0840739   0.3187638 SPIN=   0.00000
   O  -0.7149828   0.0568087   0.1602381 SPIN=   0.00000
   O  -0.4309066   0.5350327   0.2464156 SPIN=   0.00000
   P  -0.4765817   0.2349752   0.3076466 SPIN=   0.00000
   O   0.5918332  -0.2462645  -0.4710399 SPIN=   0.00000
   O   0.1446566  -0.0840739  -0.3187638 SPIN=   0.00000
   O   0.7149828  -0.0568087  -0.1602381 SPIN=   0.00000
   O   0.4309066  -0.5350327  -0.2464156 SPIN=   0.00000
   P   0.4765817  -0.2349752  -0.3076466 SPIN=   0.00000
  Fe  -0.1574426   0.2668383  -0.3456835 SPIN=   4.00000
  Fe   0.1574426  -0.2668383   0.3456835 SPIN=   4.00000
%ENDBLOCK POSITIONS_FRAC

# Note: total spin =   8.00

KPOINTS_MP_SPACING 0.07

%BLOCK SPECIES_POT
QC5
%ENDBLOCK SPECIES_POT

%BLOCK HUBBARD_U
Fe d:4.0
%ENDBLOCK HUBBARD_U

SNAP_TO_SYMMETRY
SYMMETRY_GENERATE

