#              Generated by Buildcell
#
# at 23:41:06 (GMT+0.0) 26th November 2020
# in /lustre/scratch/uccabz1/launch_tmp
# on node-c12d-022
# by uccabz1
#
# compiler GCC version 4.9.2
# options -cpp -iprefix /lustre/shared/ucl/apps/gcc/4.9.2/bin/../lib/gcc/x86_64-unknown-linux-gnu/4.9.2/ -mtune=corei7 -march=x86-64 -g -Og
#
# seed  -340375622 -1508333601   657489840 -1844071297  -730599297  1059816465  -178522804 -1117535371  2132890966   105110153  1851743001  1522303385
#
#      Author: C. J. Pickard (cjp20@cam.ac.uk)
#                Space group: Pnc2
#

%BLOCK LATTICE_ABC
      5.98393      6.01687      8.88777
     90.00000     90.00000     90.00000
%ENDBLOCK LATTICE_ABC

%BLOCK POSITIONS_FRAC
  Li   0.1458452   0.2501338   0.4976276 SPIN=   0.00000
  Li   0.1458452  -0.2501338  -0.4976276 SPIN=   0.00000
  Li  -0.3541548   0.2498662   0.4976276 SPIN=   0.00000
  Li  -0.3541548  -0.2498662  -0.4976276 SPIN=   0.00000
   O   0.1006795  -0.0105135  -0.3308129 SPIN=   0.00000
   O  -0.1485079  -0.2058720  -0.1312835 SPIN=   0.00000
   O  -0.2590185   0.1673607  -0.2199035 SPIN=   0.00000
   P  -0.1384526  -0.0509437  -0.2736763 SPIN=   0.00000
   O   0.1006795   0.0105135   0.3308129 SPIN=   0.00000
   O  -0.1485079   0.2058720   0.1312835 SPIN=   0.00000
   O  -0.2590185  -0.1673607   0.2199035 SPIN=   0.00000
   P  -0.1384526   0.0509437   0.2736763 SPIN=   0.00000
   O   0.6006795  -0.4894865  -0.3308129 SPIN=   0.00000
   O   0.3514921  -0.2941280  -0.1312835 SPIN=   0.00000
   O   0.2409815  -0.6673607  -0.2199035 SPIN=   0.00000
   P   0.3615474  -0.4490563  -0.2736763 SPIN=   0.00000
   O   0.6006795   0.4894865   0.3308129 SPIN=   0.00000
   O   0.3514921   0.2941280   0.1312835 SPIN=   0.00000
   O   0.2409815   0.6673607   0.2199035 SPIN=   0.00000
   P   0.3615474   0.4490563   0.2736763 SPIN=   0.00000
   O   0.1455733  -0.0000000   0.0000000 SPIN=   0.00000
   O  -0.3544267  -0.5000000   0.0000000 SPIN=   0.00000
   O   0.0562836  -0.5000000   0.0000000 SPIN=   0.00000
   O  -0.4437164  -0.0000000   0.0000000 SPIN=   0.00000
  Fe  -0.0987684   0.4752718  -0.2141430 SPIN=   4.00000
  Fe  -0.0987684  -0.4752718   0.2141430 SPIN=   4.00000
  Fe   0.4012316   0.0247282  -0.2141430 SPIN=   4.00000
  Fe   0.4012316  -0.0247282   0.2141430 SPIN=   4.00000
%ENDBLOCK POSITIONS_FRAC

# Note: total spin =  16.00

KPOINTS_MP_SPACING 0.07

%BLOCK SPECIES_POT
QC5
%ENDBLOCK SPECIES_POT

%BLOCK HUBBARD_U
Fe d:4.0
%ENDBLOCK HUBBARD_U

SNAP_TO_SYMMETRY
SYMMETRY_GENERATE

