#              Generated by Buildcell
#
# at 06:00:30 (GMT+0.0) 24th November 2020
# in /scratch/scratch/uccabz1/launch_tmp
# on node-k10c-005
# by uccabz1
#
# compiler GCC version 4.9.2
# options -cpp -iprefix /scratch/UCL/applications/gcc/4.9.2/bin/../lib/gcc/x86_64-unknown-linux-gnu/4.9.2/ -mtune=corei7 -march=x86-64 -g -O2
#
# seed -2135301038 -2094263364 -2141910035  -911621792  1259614465  1376459900 -1268897615   206827204   973982309  -928049092   694747518  1734016512
#
#      Author: C. J. Pickard (cjp20@cam.ac.uk)
#                Space group: Pc
#

%BLOCK LATTICE_ABC
      4.70110      5.64271      6.03546
     90.00000     90.00000     92.04801
%ENDBLOCK LATTICE_ABC

%BLOCK POSITIONS_FRAC
  Li   0.4242916  -0.1667624  -0.0978922 SPIN=   0.00000
  Li   0.4242916   0.3332376   0.0978922 SPIN=   0.00000
   O  -0.3235425   0.5978326   0.3570419 SPIN=   0.00000
   O   0.0554433   0.2820222   0.4259839 SPIN=   0.00000
   O  -0.1356294   0.3244666   0.0473883 SPIN=   0.00000
   O   0.1884806   0.6441616   0.2039163 SPIN=   0.00000
   P  -0.0653145   0.4714950   0.2631800 SPIN=   0.00000
   O  -0.3235425   0.0978326  -0.3570419 SPIN=   0.00000
   O   0.0554433  -0.2179778  -0.4259839 SPIN=   0.00000
   O  -0.1356294  -0.1755334  -0.0473883 SPIN=   0.00000
   O   0.1884806   0.1441616  -0.2039163 SPIN=   0.00000
   P  -0.0653145  -0.0285050  -0.2631800 SPIN=   0.00000
  Fe  -0.0869935   0.4694136  -0.2692528 SPIN=   4.00000
  Fe  -0.0869935  -0.0305864   0.2692528 SPIN=   4.00000
%ENDBLOCK POSITIONS_FRAC

# Note: total spin =   8.00

KPOINTS_MP_SPACING 0.07

%BLOCK SPECIES_POT
QC5
%ENDBLOCK SPECIES_POT

%BLOCK HUBBARD_U
Fe d:4.0
%ENDBLOCK HUBBARD_U

SNAP_TO_SYMMETRY
SYMMETRY_GENERATE

