#              Generated by Buildcell
#
# at 11:03:49 (GMT+0.0) 24th November 2020
# in /lustre/scratch/uccabz1/launch_tmp
# on node-c12e-032
# by uccabz1
#
# compiler GCC version 4.9.2
# options -cpp -iprefix /lustre/shared/ucl/apps/gcc/4.9.2/bin/../lib/gcc/x86_64-unknown-linux-gnu/4.9.2/ -mtune=corei7 -march=x86-64 -g -Og
#
# seed  1453042403 -1300062844  1751456716  -921875985 -1154408320  1420338072   127837283  1420094164  1755173786 -1621504866 -1455130315   300937092
#
#      Author: C. J. Pickard (cjp20@cam.ac.uk)
#                Space group: Cm
#

%BLOCK LATTICE_ABC
      5.70645      5.71267      6.27175
    114.98954    114.95594     94.15671
%ENDBLOCK LATTICE_ABC

%BLOCK POSITIONS_FRAC
  Li   0.1453247   0.2023591   0.4997225 SPIN=   0.00000
  Li  -0.3543977  -0.2973634  -0.4997225 SPIN=   0.00000
   O  -0.5647839  -1.1091493  -0.7137126 SPIN=   0.00000
   O  -0.5528945  -0.9025633  -0.2509233 SPIN=   0.00000
   O  -0.1226514  -0.8074019  -0.2490847 SPIN=   0.00000
   O  -0.4741274  -0.5957344  -0.4205834 SPIN=   0.00000
   O   0.1489287  -0.3954366   0.7137126 SPIN=   0.00000
   O  -0.3019712  -0.6516400   0.2509233 SPIN=   0.00000
   O   0.1264333  -0.5583171   0.2490847 SPIN=   0.00000
   O  -0.0535439  -0.1751510   0.4205834 SPIN=   0.00000
   P   0.2703697   0.5809623   0.0000000 SPIN=   0.00000
   P  -0.2327761   0.0779308  -0.0000000 SPIN=   0.00000
  Fe  -0.2294210  -0.4224161  -0.0000000 SPIN=   2.42503
  Fe   0.2680153   0.0802808   0.0000000 SPIN=   5.57497
%ENDBLOCK POSITIONS_FRAC

# Note: total spin =   8.00

KPOINTS_MP_SPACING 0.07

%BLOCK SPECIES_POT
QC5
%ENDBLOCK SPECIES_POT

%BLOCK HUBBARD_U
Fe d:4.0
%ENDBLOCK HUBBARD_U

SNAP_TO_SYMMETRY
SYMMETRY_GENERATE

