#              Generated by Buildcell
#
# at 12:18:49 (GMT+0.0) 26th November 2020
# in /lustre/scratch/uccabz1/launch_tmp
# on node-c12d-021
# by uccabz1
#
# compiler GCC version 4.9.2
# options -cpp -iprefix /lustre/shared/ucl/apps/gcc/4.9.2/bin/../lib/gcc/x86_64-unknown-linux-gnu/4.9.2/ -mtune=corei7 -march=x86-64 -g -Og
#
# seed -1307044741 -1016909925  2077072435   637909666 -1122233313  -649995624  1684720422  1800734115   359664591  1582734385  -931993255  1201861562
#
#      Author: C. J. Pickard (cjp20@cam.ac.uk)
#                Space group: P-1
#

%BLOCK LATTICE_ABC
      5.72062      7.77208      8.00316
     87.85880     70.88252     72.54952
%ENDBLOCK LATTICE_ABC

%BLOCK POSITIONS_FRAC
  Li   0.0810910  -0.1730207  -0.2111315 SPIN=   0.00000
  Li  -0.0810910   0.1730207   0.2111315 SPIN=   0.00000
  Li  -0.3656464  -0.2975203  -0.2110716 SPIN=   0.00000
  Li   0.3656464   0.2975203   0.2110716 SPIN=   0.00000
   O   0.1110021   0.0602761   0.6548872 SPIN=   0.00000
   O   0.2333316   0.0790689   0.3136249 SPIN=   0.00000
   O  -0.1102292   0.3351057   0.5064227 SPIN=   0.00000
   O   0.3523070   0.2806480   0.4873083 SPIN=   0.00000
   O  -0.1110021  -0.0602761  -0.6548872 SPIN=   0.00000
   O  -0.2333316  -0.0790689  -0.3136249 SPIN=   0.00000
   O   0.1102292  -0.3351057  -0.5064227 SPIN=   0.00000
   O  -0.3523070  -0.2806480  -0.4873083 SPIN=   0.00000
   O  -0.0974789  -0.4865103   0.2458328 SPIN=   0.00000
   O  -0.3126663  -0.4549129   0.0017384 SPIN=   0.00000
   O  -0.5385425  -0.2471125   0.2708070 SPIN=   0.00000
   O  -0.1295809  -0.2136318   0.0509350 SPIN=   0.00000
   O   0.0974789   0.4865103  -0.2458328 SPIN=   0.00000
   O   0.3126663   0.4549129  -0.0017384 SPIN=   0.00000
   O   0.5385425   0.2471125  -0.2708070 SPIN=   0.00000
   O   0.1295809   0.2136318  -0.0509350 SPIN=   0.00000
   P  -0.5000000   0.0000000   0.0000000 SPIN=   0.00000
   P   0.0000000  -0.0000000  -0.5000000 SPIN=   0.00000
   P   0.0000000   0.5000000  -0.5000000 SPIN=   0.00000
   P   0.0000000  -0.5000000   0.0000000 SPIN=   0.00000
  Fe  -0.1722829   0.2676915  -0.1677586 SPIN=   2.18679
  Fe   0.1722829  -0.2676915   0.1677586 SPIN=   2.18679
  Fe   0.5000000   0.0000000  -0.5000000 SPIN=   8.87471
  Fe  -0.5000000   0.5000000   0.5000000 SPIN=   2.75172
%ENDBLOCK POSITIONS_FRAC

# Note: total spin =  16.00

KPOINTS_MP_SPACING 0.07

%BLOCK SPECIES_POT
QC5
%ENDBLOCK SPECIES_POT

%BLOCK HUBBARD_U
Fe d:4.0
%ENDBLOCK HUBBARD_U

SNAP_TO_SYMMETRY
SYMMETRY_GENERATE

