#              Generated by Buildcell
#
# at 15:15:30 (GMT+0.0) 26th November 2020
# in /lustre/scratch/uccabz1/launch_tmp
# on node-c12k-029
# by uccabz1
#
# compiler GCC version 4.9.2
# options -cpp -iprefix /lustre/shared/ucl/apps/gcc/4.9.2/bin/../lib/gcc/x86_64-unknown-linux-gnu/4.9.2/ -mtune=corei7 -march=x86-64 -g -Og
#
# seed   402634495   646816816  1777863154 -1911757440   977651581 -1814230015 -1519360826 -1822235489  -110371786  -714477643  1810465460   201516562
#
#      Author: C. J. Pickard (cjp20@cam.ac.uk)
#                Space group: P21212
#

%BLOCK LATTICE_ABC
      5.07848      5.37207     11.72936
     90.00000     90.00000     90.00000
%ENDBLOCK LATTICE_ABC

%BLOCK POSITIONS_FRAC
  Li   0.0881686   0.2502216   0.4407777 SPIN=   0.00000
  Li   0.0881686  -0.2502216  -0.4407777 SPIN=   0.00000
  Li  -0.0881686   0.2497784  -0.0592223 SPIN=   0.00000
  Li  -0.0881686  -0.2497784   0.0592223 SPIN=   0.00000
   O   0.5791302   0.5329807  -0.1306317 SPIN=   0.00000
   O   0.3064992   0.2295949  -0.0048479 SPIN=   0.00000
   O   0.1566301   0.3089688  -0.2018561 SPIN=   0.00000
   O   0.5662313   0.0596095  -0.1687987 SPIN=   0.00000
   P   0.4134841   0.2934762  -0.1272506 SPIN=   0.00000
   O   0.5791302  -0.5329807   0.1306317 SPIN=   0.00000
   O   0.3064992  -0.2295949   0.0048479 SPIN=   0.00000
   O   0.1566301  -0.3089688   0.2018561 SPIN=   0.00000
   O   0.5662313  -0.0596095   0.1687987 SPIN=   0.00000
   P   0.4134841  -0.2934762   0.1272506 SPIN=   0.00000
   O  -0.5791302  -0.0329807   0.3693683 SPIN=   0.00000
   O  -0.3064992   0.2704051   0.4951521 SPIN=   0.00000
   O  -0.1566301   0.1910312   0.2981439 SPIN=   0.00000
   O  -0.5662313   0.4403905   0.3312013 SPIN=   0.00000
   P  -0.4134841   0.2065238   0.3727494 SPIN=   0.00000
   O  -0.5791302   0.0329807  -0.3693683 SPIN=   0.00000
   O  -0.3064992  -0.2704051  -0.4951521 SPIN=   0.00000
   O  -0.1566301  -0.1910312  -0.2981439 SPIN=   0.00000
   O  -0.5662313  -0.4403905  -0.3312013 SPIN=   0.00000
   P  -0.4134841  -0.2065238  -0.3727494 SPIN=   0.00000
  Fe   0.2641733  -0.2064329  -0.1731095 SPIN=   4.00000
  Fe   0.2641733   0.2064329   0.1731095 SPIN=   4.00000
  Fe  -0.2641733  -0.2935671   0.3268905 SPIN=   4.00000
  Fe  -0.2641733   0.2935671  -0.3268905 SPIN=   4.00000
%ENDBLOCK POSITIONS_FRAC

# Note: total spin =  16.00

KPOINTS_MP_SPACING 0.07

%BLOCK SPECIES_POT
QC5
%ENDBLOCK SPECIES_POT

%BLOCK HUBBARD_U
Fe d:4.0
%ENDBLOCK HUBBARD_U

SNAP_TO_SYMMETRY
SYMMETRY_GENERATE

