#              Generated by Buildcell
#
# at 10:58:54 (GMT+0.0) 24th November 2020
# in /scratch/scratch/uccabz1/launch_tmp
# on node-a14f-013
# by uccabz1
#
# compiler GCC version 4.9.2
# options -cpp -iprefix /scratch/UCL/applications/gcc/4.9.2/bin/../lib/gcc/x86_64-unknown-linux-gnu/4.9.2/ -mtune=corei7 -march=x86-64 -g -O2
#
# seed  -161108626   165164347 -1436992640   881752438   971264725  -636234162   846129930 -1040039933 -1783645600   106574829  -168844605 -1686365501
#
#      Author: C. J. Pickard (cjp20@cam.ac.uk)
#                Space group: Cm
#

%BLOCK LATTICE_ABC
      5.73935      5.88056      5.88056
     82.56594     64.05181     64.05181
%ENDBLOCK LATTICE_ABC

%BLOCK POSITIONS_FRAC
  Li  -0.0449354   0.2109338   0.2109338 SPIN=   0.00000
  Li  -0.0510559  -0.2857524  -0.2857524 SPIN=   0.00000
   O   0.0554573  -0.4368916   0.0222186 SPIN=   0.00000
   O   0.3201741  -0.2137025   0.1000892 SPIN=   0.00000
   O  -0.2000826  -0.0643553   0.3646214 SPIN=   0.00000
   P   0.0783150  -0.3101211   0.2197104 SPIN=   0.00000
   O   0.0554573   0.0222186  -0.4368916 SPIN=   0.00000
   O   0.3201741   0.1000892  -0.2137025 SPIN=   0.00000
   O  -0.2000826   0.3646214  -0.0643553 SPIN=   0.00000
   P   0.0783150   0.2197104  -0.3101211 SPIN=   0.00000
   O   0.1621187  -0.6112039   0.3887961 SPIN=   0.00000
   O  -0.4682757   0.4665523   0.4665523 SPIN=   0.00000
  Fe  -0.4921464   0.3197838  -0.1828938 SPIN=   4.00000
  Fe  -0.4921464   0.8171062   0.3197838 SPIN=   4.00000
%ENDBLOCK POSITIONS_FRAC

# Note: total spin =   8.00

KPOINTS_MP_SPACING 0.07

%BLOCK SPECIES_POT
QC5
%ENDBLOCK SPECIES_POT

%BLOCK HUBBARD_U
Fe d:4.0
%ENDBLOCK HUBBARD_U

SNAP_TO_SYMMETRY
SYMMETRY_GENERATE

