#              Generated by Buildcell
#
# at 10:35:32 (GMT+0.0) 24th November 2020
# in /lustre/scratch/uccabz1/launch_tmp
# on node-c12e-032
# by uccabz1
#
# compiler GCC version 4.9.2
# options -cpp -iprefix /lustre/shared/ucl/apps/gcc/4.9.2/bin/../lib/gcc/x86_64-unknown-linux-gnu/4.9.2/ -mtune=corei7 -march=x86-64 -g -Og
#
# seed  1557348470  1560059357  -572044761   529506766  1651278633 -1087488080 -1914503581  1897378495  -764726511   463329662   536237587  -765712575
#
#      Author: C. J. Pickard (cjp20@cam.ac.uk)
#                Space group: P-1
#

%BLOCK LATTICE_ABC
      4.26906      6.00764      6.75044
     73.88632     75.45970     80.02921
%ENDBLOCK LATTICE_ABC

%BLOCK POSITIONS_FRAC
  Li  -0.3830744   0.3400122   0.3331705 SPIN=   0.00000
  Li   0.3830744  -0.3400122  -0.3331705 SPIN=   0.00000
   O   0.1562977   0.4875746   0.1545008 SPIN=   0.00000
   O  -0.0827413   0.1373786   0.1136791 SPIN=   0.00000
   O   0.4772500   0.2107698  -0.0807948 SPIN=   0.00000
   O   0.3632043   0.0604207   0.3124433 SPIN=   0.00000
   P   0.2262477   0.2361372   0.1287427 SPIN=   0.00000
   O  -0.1562977  -0.4875746  -0.1545008 SPIN=   0.00000
   O   0.0827413  -0.1373786  -0.1136791 SPIN=   0.00000
   O  -0.4772500  -0.2107698   0.0807948 SPIN=   0.00000
   O  -0.3632043  -0.0604207  -0.3124433 SPIN=   0.00000
   P  -0.2262477  -0.2361372  -0.1287427 SPIN=   0.00000
  Fe  -0.0107866   0.2147333  -0.2727912 SPIN=   4.00000
  Fe   0.0107866  -0.2147333   0.2727912 SPIN=   4.00000
%ENDBLOCK POSITIONS_FRAC

# Note: total spin =   8.00

KPOINTS_MP_SPACING 0.07

%BLOCK SPECIES_POT
QC5
%ENDBLOCK SPECIES_POT

%BLOCK HUBBARD_U
Fe d:4.0
%ENDBLOCK HUBBARD_U

SNAP_TO_SYMMETRY
SYMMETRY_GENERATE

