#              Generated by Buildcell
#
# at 06:59:27 (GMT+0.0) 26th November 2020
# in /lustre/scratch/uccabz1/launch_tmp
# on node-c12d-021
# by uccabz1
#
# compiler GCC version 4.9.2
# options -cpp -iprefix /lustre/shared/ucl/apps/gcc/4.9.2/bin/../lib/gcc/x86_64-unknown-linux-gnu/4.9.2/ -mtune=corei7 -march=x86-64 -g -Og
#
# seed -1892874668  1934590013 -1934746984 -1444575952   -84653724   747023028  -364843004   797354486  -580323751  1421662787   324495548   187206702
#
#      Author: C. J. Pickard (cjp20@cam.ac.uk)
#                Space group: C2/c
#

%BLOCK LATTICE_ABC
      7.17305      7.17305      7.78274
     63.54734     63.54734     74.86641
%ENDBLOCK LATTICE_ABC

%BLOCK POSITIONS_FRAC
  Li  -0.1370893   0.4994766  -0.2667180 SPIN=   0.00000
  Li   0.5005234   0.1370893  -0.2332820 SPIN=   0.00000
  Li   0.1370893  -0.4994766   0.2667180 SPIN=   0.00000
  Li  -0.5005234  -0.1370893   0.2332820 SPIN=   0.00000
   O   0.3320739   0.1169166  -0.6191609 SPIN=   0.00000
   O   0.2923903  -0.0206744  -0.2350990 SPIN=   0.00000
   O   0.3788066   0.3442707  -0.4603503 SPIN=   0.00000
   O   0.0215901   0.2435897  -0.3493663 SPIN=   0.00000
   P   0.2574855   0.1690009  -0.4260254 SPIN=   0.00000
   O  -0.1169166  -0.3320739   0.1191609 SPIN=   0.00000
   O   0.0206744  -0.2923903  -0.2649010 SPIN=   0.00000
   O  -0.3442707  -0.3788066  -0.0396497 SPIN=   0.00000
   O  -0.2435897  -0.0215901  -0.1506337 SPIN=   0.00000
   P  -0.1690009  -0.2574855  -0.0739746 SPIN=   0.00000
   O  -0.3320739  -0.1169166   0.6191609 SPIN=   0.00000
   O  -0.2923903   0.0206744   0.2350990 SPIN=   0.00000
   O  -0.3788066  -0.3442707   0.4603503 SPIN=   0.00000
   O  -0.0215901  -0.2435897   0.3493663 SPIN=   0.00000
   P  -0.2574855  -0.1690009   0.4260254 SPIN=   0.00000
   O   0.1169166   0.3320739  -0.1191609 SPIN=   0.00000
   O  -0.0206744   0.2923903   0.2649010 SPIN=   0.00000
   O   0.3442707   0.3788066   0.0396497 SPIN=   0.00000
   O   0.2435897   0.0215901   0.1506337 SPIN=   0.00000
   P   0.1690009   0.2574855   0.0739746 SPIN=   0.00000
  Fe  -0.0000000   0.0000000   0.0000000 SPIN=   0.60637
  Fe  -1.0000000   0.0000000   0.5000000 SPIN=   0.60637
  Fe  -0.3824408   0.3824408   0.2500000 SPIN=   7.39363
  Fe   0.3824408  -0.3824408  -0.2500000 SPIN=   7.39363
%ENDBLOCK POSITIONS_FRAC

# Note: total spin =  16.00

KPOINTS_MP_SPACING 0.07

%BLOCK SPECIES_POT
QC5
%ENDBLOCK SPECIES_POT

%BLOCK HUBBARD_U
Fe d:4.0
%ENDBLOCK HUBBARD_U

SNAP_TO_SYMMETRY
SYMMETRY_GENERATE

