#              Generated by Buildcell
#
# at 16:10:27 (GMT+0.0) 26th November 2020
# in /lustre/scratch/uccabz1/launch_tmp
# on node-c12n-022
# by uccabz1
#
# compiler GCC version 4.9.2
# options -cpp -iprefix /lustre/shared/ucl/apps/gcc/4.9.2/bin/../lib/gcc/x86_64-unknown-linux-gnu/4.9.2/ -mtune=corei7 -march=x86-64 -g -Og
#
# seed   -59147108  2134681969    -9185900 -1782365544   754013608  1053397985  1378384662  2082731195  1606523016  1591474683  2066950189  -566430506
#
#      Author: C. J. Pickard (cjp20@cam.ac.uk)
#                Space group: P-1
#

%BLOCK LATTICE_ABC
      4.98403      7.32193      9.65545
     71.43439     82.12956     73.60109
%ENDBLOCK LATTICE_ABC

%BLOCK POSITIONS_FRAC
  Li  -0.4135963   0.2278147   0.3862435 SPIN=   0.00000
  Li   0.4135963  -0.2278147  -0.3862435 SPIN=   0.00000
  Li   0.0782413  -0.1844896  -0.1071073 SPIN=   0.00000
  Li  -0.0782413   0.1844896   0.1071073 SPIN=   0.00000
   O  -0.7165111   0.5031174   0.3325074 SPIN=   0.00000
   O  -0.9913382   0.4610755   0.1394124 SPIN=   0.00000
   O  -0.9056943   0.1927091   0.3730838 SPIN=   0.00000
   O  -1.2450123   0.5195553   0.3700603 SPIN=   0.00000
   P  -0.9547361   0.4247724   0.3060786 SPIN=   0.00000
   O   0.7165111  -0.5031174  -0.3325074 SPIN=   0.00000
   O   0.9913382  -0.4610755  -0.1394124 SPIN=   0.00000
   O   0.9056943  -0.1927091  -0.3730838 SPIN=   0.00000
   O   1.2450123  -0.5195553  -0.3700603 SPIN=   0.00000
   P   0.9547361  -0.4247724  -0.3060786 SPIN=   0.00000
   O   0.7353149   0.0758571  -0.1762000 SPIN=   0.00000
   O   0.4439506   0.0446133  -0.3671542 SPIN=   0.00000
   O   0.5266275  -0.2261184  -0.1345428 SPIN=   0.00000
   O   0.2036291   0.1052327  -0.1345906 SPIN=   0.00000
   P   0.4878837   0.0051838  -0.2008797 SPIN=   0.00000
   O  -0.7353149  -0.0758571   0.1762000 SPIN=   0.00000
   O  -0.4439506  -0.0446133   0.3671542 SPIN=   0.00000
   O  -0.5266275   0.2261184   0.1345428 SPIN=   0.00000
   O  -0.2036291  -0.1052327   0.1345906 SPIN=   0.00000
   P  -0.4878837  -0.0051838   0.2008797 SPIN=   0.00000
  Fe   0.5929971  -0.3592806   0.1186772 SPIN=   4.07949
  Fe  -0.5929971   0.3592806  -0.1186772 SPIN=   4.07949
  Fe   0.0301901   0.2207954  -0.3874052 SPIN=   3.92051
  Fe  -0.0301901  -0.2207954   0.3874052 SPIN=   3.92051
%ENDBLOCK POSITIONS_FRAC

# Note: total spin =  16.00

KPOINTS_MP_SPACING 0.07

%BLOCK SPECIES_POT
QC5
%ENDBLOCK SPECIES_POT

%BLOCK HUBBARD_U
Fe d:4.0
%ENDBLOCK HUBBARD_U

SNAP_TO_SYMMETRY
SYMMETRY_GENERATE

