#              Generated by Buildcell
#
# at 17:15:07 (GMT+0.0) 26th November 2020
# in /lustre/scratch/uccabz1/launch_tmp
# on node-c12l-025
# by uccabz1
#
# compiler GCC version 4.9.2
# options -cpp -iprefix /lustre/shared/ucl/apps/gcc/4.9.2/bin/../lib/gcc/x86_64-unknown-linux-gnu/4.9.2/ -mtune=corei7 -march=x86-64 -g -Og
#
# seed -1891814617  1410691046   296567268  1513613391  1738196567   -23485271   -10466843  2099851937  1848886841  1574788007 -2124288808 -1950679341
#
#      Author: C. J. Pickard (cjp20@cam.ac.uk)
#                Space group: Cc
#

%BLOCK LATTICE_ABC
      6.66375      6.72004      8.23078
     89.34304     88.67489     60.27670
%ENDBLOCK LATTICE_ABC

%BLOCK POSITIONS_FRAC
  Li  -0.0714082  -0.1617889   0.3447210 SPIN=   0.00000
  Li   0.2668030   0.1617889  -0.1552790 SPIN=   0.00000
  Li   0.1299263  -0.3981453  -0.3377880 SPIN=   0.00000
  Li   0.2317811  -0.6018547   0.1622120 SPIN=   0.00000
   O  -0.1738483   0.6896556  -0.4652144 SPIN=   0.00000
   O  -0.2610904   0.7177381  -0.1544414 SPIN=   0.00000
   O  -0.4526604   1.0718549  -0.3181067 SPIN=   0.00000
   O  -0.5705836   0.7736004  -0.3468412 SPIN=   0.00000
   P  -0.3568235   0.8061660  -0.3291248 SPIN=   0.00000
   O   0.0158073   0.3103444   0.0347856 SPIN=   0.00000
   O  -0.0433523   0.2822619   0.3455586 SPIN=   0.00000
   O   0.1191945  -0.0718549   0.1818933 SPIN=   0.00000
   O  -0.2969832   0.2263996   0.1531588 SPIN=   0.00000
   P  -0.0506575   0.1938340   0.1708752 SPIN=   0.00000
   O  -0.4826850   0.6448788   0.2563588 SPIN=   0.00000
   O  -0.4337175   0.9930300   0.3303520 SPIN=   0.00000
   O  -0.1571203   0.7098817   0.1333870 SPIN=   0.00000
   O  -0.5663954   0.9706885   0.0523816 SPIN=   0.00000
   P  -0.4156967   0.8214480   0.1948262 SPIN=   0.00000
   O  -0.3378062   0.3551212  -0.2436412 SPIN=   0.00000
   O   0.0593125   0.0069700  -0.1696480 SPIN=   0.00000
   O   0.0527615   0.2901183  -0.3666130 SPIN=   0.00000
   O  -0.0957069   0.0293115  -0.4476184 SPIN=   0.00000
   P  -0.0942486   0.1785520  -0.3051738 SPIN=   0.00000
  Fe  -0.1859026  -0.0480987  -0.0433897 SPIN=   3.93628
  Fe   0.2659987   0.0480987   0.4566103 SPIN=   3.93628
  Fe  -0.4006500   0.3860184   0.4292546 SPIN=   4.06372
  Fe   0.4853685  -0.3860184  -0.0707454 SPIN=   4.06372
%ENDBLOCK POSITIONS_FRAC

# Note: total spin =  16.00

KPOINTS_MP_SPACING 0.07

%BLOCK SPECIES_POT
QC5
%ENDBLOCK SPECIES_POT

%BLOCK HUBBARD_U
Fe d:4.0
%ENDBLOCK HUBBARD_U

SNAP_TO_SYMMETRY
SYMMETRY_GENERATE

