#              Generated by Buildcell
#
# at 13:51:40 (GMT+0.0) 24th November 2020
# in /scratch/scratch/uccabz1/launch_tmp
# on node-a14f-013
# by uccabz1
#
# compiler GCC version 4.9.2
# options -cpp -iprefix /scratch/UCL/applications/gcc/4.9.2/bin/../lib/gcc/x86_64-unknown-linux-gnu/4.9.2/ -mtune=corei7 -march=x86-64 -g -O2
#
# seed  1977242595   -36610014   205895298 -1058624341  1597147917   865053444  -889385987  1569557729  1545846113 -1441025666  1036725108   384049979
#
#      Author: C. J. Pickard (cjp20@cam.ac.uk)
#                Space group: Cm
#

%BLOCK LATTICE_ABC
      3.86329      5.64285      7.90161
     69.07967     87.83930     83.93893
%ENDBLOCK LATTICE_ABC

%BLOCK POSITIONS_FRAC
  Li   0.3987089   0.2742652  -0.0000000 SPIN=   0.00000
  Li  -0.1655632  -0.3131320   0.0000000 SPIN=   0.00000
   O  -0.7496397   0.2072120   0.3973398 SPIN=   0.00000
   O  -0.6769907   0.6619334   0.1672713 SPIN=   0.00000
   O  -0.2715380   0.4814828   0.4264695 SPIN=   0.00000
   O  -0.2278787   0.3030085   0.1773627 SPIN=   0.00000
   P  -0.4927952   0.4011274   0.2963596 SPIN=   0.00000
   O  -0.7496397  -0.3954481  -0.3973398 SPIN=   0.00000
   O  -0.6769907  -0.1707953  -0.1672713 SPIN=   0.00000
   O  -0.2715380  -0.0920477  -0.4264695 SPIN=   0.00000
   O  -0.2278787  -0.5196288  -0.1773627 SPIN=   0.00000
   P  -0.4927952  -0.3025130  -0.2963596 SPIN=   0.00000
  Fe  -0.0673058   0.2325616  -0.3231590 SPIN=   4.00000
  Fe  -0.0673058  -0.0905975   0.3231590 SPIN=   4.00000
%ENDBLOCK POSITIONS_FRAC

# Note: total spin =   8.00

KPOINTS_MP_SPACING 0.07

%BLOCK SPECIES_POT
QC5
%ENDBLOCK SPECIES_POT

%BLOCK HUBBARD_U
Fe d:4.0
%ENDBLOCK HUBBARD_U

SNAP_TO_SYMMETRY
SYMMETRY_GENERATE

