#              Generated by Buildcell
#
# at 08:16:37 (GMT+0.0) 26th November 2020
# in /lustre/scratch/uccabz1/launch_tmp
# on node-c12j-020
# by uccabz1
#
# compiler GCC version 4.9.2
# options -cpp -iprefix /lustre/shared/ucl/apps/gcc/4.9.2/bin/../lib/gcc/x86_64-unknown-linux-gnu/4.9.2/ -mtune=corei7 -march=x86-64 -g -Og
#
# seed    66367389   978734609   992906945  -802077633   309308705   561349462    66399242 -1470457342  -724235554  1510489306  -985758759 -1609407282
#
#      Author: C. J. Pickard (cjp20@cam.ac.uk)
#                Space group: P-1
#

%BLOCK LATTICE_ABC
      5.51460      6.02362      9.64998
     87.13039     88.65120     88.81255
%ENDBLOCK LATTICE_ABC

%BLOCK POSITIONS_FRAC
  Li   0.1836945  -0.0168454   0.3863157 SPIN=   0.00000
  Li  -0.1836945   0.0168454  -0.3863157 SPIN=   0.00000
  Li   0.0000000   0.5000000  -0.0000000 SPIN=   0.00000
  Li  -0.0000000  -0.0000000   0.0000000 SPIN=   0.00000
   O  -0.0950429  -0.4360621   0.2058060 SPIN=   0.00000
   O  -0.2909107  -0.8016485   0.3036442 SPIN=   0.00000
   O   0.0978971  -0.8274775   0.1725165 SPIN=   0.00000
   O   0.0893549  -0.6733900   0.4088913 SPIN=   0.00000
   P  -0.0504503  -0.6712759   0.2707590 SPIN=   0.00000
   O   0.0950429   0.4360621  -0.2058060 SPIN=   0.00000
   O   0.2909107   0.8016485  -0.3036442 SPIN=   0.00000
   O  -0.0978971   0.8274775  -0.1725165 SPIN=   0.00000
   O  -0.0893549   0.6733900  -0.4088913 SPIN=   0.00000
   P   0.0504503   0.6712759  -0.2707590 SPIN=   0.00000
   O   0.2933985  -0.3172278   0.3024379 SPIN=   0.00000
   O   0.5894734  -0.0934461   0.1382097 SPIN=   0.00000
   O   0.3379425  -0.3771094   0.0382275 SPIN=   0.00000
   P   0.3358321  -0.2072362   0.1568730 SPIN=   0.00000
   O  -0.2933985   0.3172278  -0.3024379 SPIN=   0.00000
   O  -0.5894734   0.0934461  -0.1382097 SPIN=   0.00000
   O  -0.3379425   0.3771094  -0.0382275 SPIN=   0.00000
   P  -0.3358321   0.2072362  -0.1568730 SPIN=   0.00000
   O  -0.5000000   1.0000000  -0.5000000 SPIN=   0.00000
   O  -0.5000000   0.5000000  -0.5000000 SPIN=   0.00000
  Fe   0.3077554   0.2927660  -0.3604629 SPIN=   1.81803
  Fe  -0.3077554  -0.2927660   0.3604629 SPIN=   1.81803
  Fe   0.4786318   0.2427560   0.1341133 SPIN=   6.18197
  Fe  -0.4786318  -0.2427560  -0.1341133 SPIN=   6.18197
%ENDBLOCK POSITIONS_FRAC

# Note: total spin =  16.00

KPOINTS_MP_SPACING 0.07

%BLOCK SPECIES_POT
QC5
%ENDBLOCK SPECIES_POT

%BLOCK HUBBARD_U
Fe d:4.0
%ENDBLOCK HUBBARD_U

SNAP_TO_SYMMETRY
SYMMETRY_GENERATE

