#              Generated by Buildcell
#
# at 20:06:16 (GMT+0.0) 26th November 2020
# in /scratch/scratch/mmm0366/launch_tmp
# on node-k98i-023
# by mmm0366
#
# compiler GCC version 4.9.2
# options -cpp -iprefix /scratch/UCL/applications/gcc/4.9.2/bin/../lib/gcc/x86_64-unknown-linux-gnu/4.9.2/ -mtune=corei7 -march=x86-64 -g -O2
#
# seed  1382533641  -353674454  1694466540    91601403 -1382268708   823662547  1067533846   191057448  1852161177 -1965101391     4355399  1762210138
#
#      Author: C. J. Pickard (cjp20@cam.ac.uk)
#                Space group: P2
#

%BLOCK LATTICE_ABC
      4.91907      6.08451     10.69645
     91.72833     90.00000     90.00000
%ENDBLOCK LATTICE_ABC

%BLOCK POSITIONS_FRAC
  Li   0.1552334  -0.2509366  -0.0190088 SPIN=   0.00000
  Li   0.1552334   0.2509366   0.0190088 SPIN=   0.00000
  Li  -0.3549900  -0.2299876  -0.4515634 SPIN=   0.00000
  Li  -0.3549900   0.2299876   0.4515634 SPIN=   0.00000
   O   0.3708765  -0.1944349   0.3235386 SPIN=   0.00000
   O   0.1623780   0.1695193   0.4133285 SPIN=   0.00000
   O   0.0448835   0.0509454   0.1971508 SPIN=   0.00000
   O  -0.1395518  -0.1575449   0.3767970 SPIN=   0.00000
   P   0.1206150  -0.0429520   0.3280613 SPIN=   0.00000
   O   0.3708765   0.1944349  -0.3235386 SPIN=   0.00000
   O   0.1623780  -0.1695193  -0.4133285 SPIN=   0.00000
   O   0.0448835  -0.0509454  -0.1971508 SPIN=   0.00000
   O  -0.1395518   0.1575449  -0.3767970 SPIN=   0.00000
   P   0.1206150   0.0429520  -0.3280613 SPIN=   0.00000
   O  -0.1979940  -0.5673822  -0.2046151 SPIN=   0.00000
   O  -0.2679120  -0.2349176  -0.0498164 SPIN=   0.00000
   O  -0.4664746  -0.2164387  -0.2613329 SPIN=   0.00000
   P  -0.3920384  -0.3845908  -0.1578571 SPIN=   0.00000
   O  -0.1979940   0.5673822   0.2046151 SPIN=   0.00000
   O  -0.2679120   0.2349176   0.0498164 SPIN=   0.00000
   O  -0.4664746   0.2164387   0.2613329 SPIN=   0.00000
   P  -0.3920384   0.3845908   0.1578571 SPIN=   0.00000
   O  -0.1045407  -0.5000000  -0.5000000 SPIN=   0.00000
   O   0.3947848  -0.5000000  -0.5000000 SPIN=   0.00000
  Fe   0.1444485   0.4859372   0.3111680 SPIN=   4.21116
  Fe   0.1444485  -0.4859372  -0.3111680 SPIN=   4.21116
  Fe  -0.3557038  -0.0841058   0.1745433 SPIN=   3.78884
  Fe  -0.3557038   0.0841058  -0.1745433 SPIN=   3.78884
%ENDBLOCK POSITIONS_FRAC

# Note: total spin =  16.00

KPOINTS_MP_SPACING 0.07

%BLOCK SPECIES_POT
QC5
%ENDBLOCK SPECIES_POT

%BLOCK HUBBARD_U
Fe d:4.0
%ENDBLOCK HUBBARD_U

SNAP_TO_SYMMETRY
SYMMETRY_GENERATE

