#              Generated by Buildcell
#
# at 13:37:26 (GMT+0.0) 24th November 2020
# in /scratch/scratch/uccabz1/launch_tmp
# on node-a14e-012
# by uccabz1
#
# compiler GCC version 4.9.2
# options -cpp -iprefix /scratch/UCL/applications/gcc/4.9.2/bin/../lib/gcc/x86_64-unknown-linux-gnu/4.9.2/ -mtune=corei7 -march=x86-64 -g -O2
#
# seed   284678790   468802512 -1491355396  1415285828  -592831726 -1077461851   823574245 -1818402182  -554814448 -1852084023  -827950385 -1469604798
#
#      Author: C. J. Pickard (cjp20@cam.ac.uk)
#                Space group: C2
#

%BLOCK LATTICE_ABC
      4.63026      6.20960      6.39032
    119.06881     94.29682     90.00000
%ENDBLOCK LATTICE_ABC

%BLOCK POSITIONS_FRAC
  Li  -0.2332567  -0.1494058   0.1690227 SPIN=   0.00000
  Li   0.2332567  -0.3184286  -0.1690227 SPIN=   0.00000
   O   0.1525514   0.2852160   0.6492046 SPIN=   0.00000
   O   0.5531898   0.2147944   0.3611686 SPIN=   0.00000
   O   0.2139940  -0.1336736   0.2665443 SPIN=   0.00000
   O   0.0355062   0.2235828   0.2215162 SPIN=   0.00000
   P   0.2318183   0.1557118   0.3874227 SPIN=   0.00000
   O  -0.1525514  -0.3639886  -0.6492046 SPIN=   0.00000
   O  -0.5531898  -0.1463742  -0.3611686 SPIN=   0.00000
   O  -0.2139940  -0.4002179  -0.2665443 SPIN=   0.00000
   O  -0.0355062   0.0020666  -0.2215162 SPIN=   0.00000
   P  -0.2318183  -0.2317109  -0.3874227 SPIN=   0.00000
  Fe  -0.2784530   0.2646341   0.7248195 SPIN=   4.00000
  Fe   0.2784530  -0.4601854  -0.7248195 SPIN=   4.00000
%ENDBLOCK POSITIONS_FRAC

# Note: total spin =   8.00

KPOINTS_MP_SPACING 0.07

%BLOCK SPECIES_POT
QC5
%ENDBLOCK SPECIES_POT

%BLOCK HUBBARD_U
Fe d:4.0
%ENDBLOCK HUBBARD_U

SNAP_TO_SYMMETRY
SYMMETRY_GENERATE

