#              Generated by Buildcell
#
# at 10:42:29 (GMT+0.0) 24th November 2020
# in /lustre/scratch/uccabz1/launch_tmp
# on node-c12o-027
# by uccabz1
#
# compiler GCC version 4.9.2
# options -cpp -iprefix /lustre/shared/ucl/apps/gcc/4.9.2/bin/../lib/gcc/x86_64-unknown-linux-gnu/4.9.2/ -mtune=corei7 -march=x86-64 -g -Og
#
# seed  2145556193   250862175   101419941 -1729978594  1797022414  -791125145  2120044701 -1296096947   723679579  1118257652  -232197845   538443299
#
#      Author: C. J. Pickard (cjp20@cam.ac.uk)
#                Space group: Cc
#

%BLOCK LATTICE_ABC
      5.11949      5.11949      6.75523
    100.78263    100.78263    107.66409
%ENDBLOCK LATTICE_ABC

%BLOCK POSITIONS_FRAC
  Li  -0.0400592   0.0561717   0.4325520 SPIN=   0.00000
  Li   0.0561717  -0.0400592  -0.0674480 SPIN=   0.00000
   O   0.1859529  -0.2122019  -0.3711103 SPIN=   0.00000
   O   0.3577842  -0.2347303   0.0102906 SPIN=   0.00000
   O   0.1840084  -0.6787884  -0.2713818 SPIN=   0.00000
   O   0.6487362  -0.3049845  -0.2409786 SPIN=   0.00000
   P   0.3392936  -0.3493086  -0.2266993 SPIN=   0.00000
   O  -0.2122019   0.1859529   0.1288897 SPIN=   0.00000
   O  -0.2347303   0.3577842   0.5102906 SPIN=   0.00000
   O  -0.6787884   0.1840084   0.2286182 SPIN=   0.00000
   O  -0.3049845   0.6487362   0.2590214 SPIN=   0.00000
   P  -0.3493086   0.3392936   0.2733007 SPIN=   0.00000
  Fe   0.2339382  -0.4036322   0.2510784 SPIN=   4.00000
  Fe  -0.4036322   0.2339382  -0.2489216 SPIN=   4.00000
%ENDBLOCK POSITIONS_FRAC

# Note: total spin =   8.00

KPOINTS_MP_SPACING 0.07

%BLOCK SPECIES_POT
QC5
%ENDBLOCK SPECIES_POT

%BLOCK HUBBARD_U
Fe d:4.0
%ENDBLOCK HUBBARD_U

SNAP_TO_SYMMETRY
SYMMETRY_GENERATE

