#              Generated by Buildcell
#
# at 12:11:22 (GMT+0.0) 24th November 2020
# in /scratch/scratch/uccabz1/launch_tmp
# on node-a14f-024
# by uccabz1
#
# compiler GCC version 4.9.2
# options -cpp -iprefix /scratch/UCL/applications/gcc/4.9.2/bin/../lib/gcc/x86_64-unknown-linux-gnu/4.9.2/ -mtune=corei7 -march=x86-64 -g -O2
#
# seed   695493420   982939808  -363577249  -425376467  1586532332  1521860666 -1016831441   663402448   496990349  1417136629  2061108004 -1430444033
#
#      Author: C. J. Pickard (cjp20@cam.ac.uk)
#                Space group: Pnc2
#

%BLOCK LATTICE_ABC
      5.31662      5.31962      5.65723
     90.00000     90.00000     90.00000
%ENDBLOCK LATTICE_ABC

%BLOCK POSITIONS_FRAC
  Li   0.0000000  -0.5000000   0.4129286 SPIN=   0.00000
  Li   0.5000000  -0.5000000  -0.0870714 SPIN=   0.00000
   O   0.3881902  -0.2264381  -0.4063240 SPIN=   0.00000
   O   0.1826980  -0.6471358  -0.2754788 SPIN=   0.00000
   O  -0.3881902   0.2264381  -0.4063240 SPIN=   0.00000
   O  -0.1826980   0.6471358  -0.2754788 SPIN=   0.00000
   O   0.1118098  -0.2264381   0.0936760 SPIN=   0.00000
   O   0.3173020  -0.6471358   0.2245212 SPIN=   0.00000
   O  -0.1118098   0.2264381   0.0936760 SPIN=   0.00000
   O  -0.3173020   0.6471358   0.2245212 SPIN=   0.00000
   P   0.0000000  -0.5000000  -0.0601544 SPIN=   0.00000
   P   0.5000000  -0.5000000   0.4398456 SPIN=   0.00000
  Fe  -0.5000000   0.0000000   0.2572446 SPIN=   4.00000
  Fe  -0.0000000   0.0000000  -0.2427554 SPIN=   4.00000
%ENDBLOCK POSITIONS_FRAC

# Note: total spin =   8.00

KPOINTS_MP_SPACING 0.07

%BLOCK SPECIES_POT
QC5
%ENDBLOCK SPECIES_POT

%BLOCK HUBBARD_U
Fe d:4.0
%ENDBLOCK HUBBARD_U

SNAP_TO_SYMMETRY
SYMMETRY_GENERATE

