#              Generated by Buildcell
#
# at 10:46:32 (GMT+0.0) 24th November 2020
# in /scratch/scratch/uccabz1/launch_tmp
# on node-k10i-025
# by uccabz1
#
# compiler GCC version 4.9.2
# options -cpp -iprefix /scratch/UCL/applications/gcc/4.9.2/bin/../lib/gcc/x86_64-unknown-linux-gnu/4.9.2/ -mtune=corei7 -march=x86-64 -g -O2
#
# seed   888182384 -1621241541  1365360604 -1073560831  -597166481 -1776366784 -1678177326 -1801809899 -1639237236 -1713965448  -485516687  2080297538
#
#      Author: C. J. Pickard (cjp20@cam.ac.uk)
#                Space group: Pc
#

%BLOCK LATTICE_ABC
      5.20644      5.72669      5.95887
     90.00000     90.00000    115.76859
%ENDBLOCK LATTICE_ABC

%BLOCK POSITIONS_FRAC
  Li   0.0193605   0.4126522   0.1909815 SPIN=   0.00000
  Li  -0.4806395   0.4126522  -0.1909815 SPIN=   0.00000
   O   0.3048579  -0.2452917   0.0369751 SPIN=   0.00000
   O  -0.0427272  -0.5022973  -0.2825241 SPIN=   0.00000
   O   0.2023593  -0.0247398  -0.3103648 SPIN=   0.00000
   O   0.4820173  -0.2831713  -0.3601409 SPIN=   0.00000
   P   0.2431556  -0.2631133  -0.2163985 SPIN=   0.00000
   O  -0.1951421  -0.2452917  -0.0369751 SPIN=   0.00000
   O  -0.5427272  -0.5022973   0.2825241 SPIN=   0.00000
   O  -0.2976407  -0.0247398   0.3103648 SPIN=   0.00000
   O  -0.0179827  -0.2831713   0.3601409 SPIN=   0.00000
   P  -0.2568444  -0.2631133   0.2163985 SPIN=   0.00000
  Fe   0.3438778   0.0458070   0.2609455 SPIN=   4.00000
  Fe  -0.1561222   0.0458070  -0.2609455 SPIN=   4.00000
%ENDBLOCK POSITIONS_FRAC

# Note: total spin =   8.00

KPOINTS_MP_SPACING 0.07

%BLOCK SPECIES_POT
QC5
%ENDBLOCK SPECIES_POT

%BLOCK HUBBARD_U
Fe d:4.0
%ENDBLOCK HUBBARD_U

SNAP_TO_SYMMETRY
SYMMETRY_GENERATE

