#              Generated by Buildcell
#
# at 06:17:47 (GMT+0.0) 24th November 2020
# in /scratch/scratch/uccabz1/launch_tmp
# on node-a14a-001
# by uccabz1
#
# compiler GCC version 4.9.2
# options -cpp -iprefix /scratch/UCL/applications/gcc/4.9.2/bin/../lib/gcc/x86_64-unknown-linux-gnu/4.9.2/ -mtune=corei7 -march=x86-64 -g -O2
#
# seed -1798048657  -708963022   801987028  1693632411  -729459382 -1402676569  -387820790  1158630886  -983275503   613767450   497347459  1857462874
#
#      Author: C. J. Pickard (cjp20@cam.ac.uk)
#                Space group: Cc
#

%BLOCK LATTICE_ABC
      4.54639      4.54639      8.11814
     91.64864     91.64864    107.32202
%ENDBLOCK LATTICE_ABC

%BLOCK POSITIONS_FRAC
  Li   0.2206803   0.4331607  -0.1683250 SPIN=   0.00000
  Li  -0.0668393  -0.2793197   0.3316750 SPIN=   0.00000
   O   0.3793839   0.0378580   0.3322568 SPIN=   0.00000
   O   0.3284932   0.5203336   0.4943335 SPIN=   0.00000
   O   0.4624582   0.5701429   0.2016274 SPIN=   0.00000
   O  -0.0700671   0.2635907   0.2742656 SPIN=   0.00000
   P   0.2765484   0.3304729   0.3253682 SPIN=   0.00000
   O  -0.4621420  -0.1206161  -0.1677432 SPIN=   0.00000
   O   0.0203336  -0.1715068  -0.0056665 SPIN=   0.00000
   O   0.0701429  -0.0375418  -0.2983726 SPIN=   0.00000
   O  -0.2364093  -0.5700671  -0.2257344 SPIN=   0.00000
   P  -0.1695271  -0.2234516  -0.1746318 SPIN=   0.00000
  Fe  -0.4564670   0.0489191  -0.4224376 SPIN=   4.00000
  Fe  -0.4510809   0.0435330   0.0775624 SPIN=   4.00000
%ENDBLOCK POSITIONS_FRAC

# Note: total spin =   8.00

KPOINTS_MP_SPACING 0.07

%BLOCK SPECIES_POT
QC5
%ENDBLOCK SPECIES_POT

%BLOCK HUBBARD_U
Fe d:4.0
%ENDBLOCK HUBBARD_U

SNAP_TO_SYMMETRY
SYMMETRY_GENERATE

