#              Generated by Buildcell
#
# at 11:46:35 (GMT+0.0) 24th November 2020
# in /lustre/scratch/uccabz1/launch_tmp
# on node-c12o-023
# by uccabz1
#
# compiler GCC version 4.9.2
# options -cpp -iprefix /lustre/shared/ucl/apps/gcc/4.9.2/bin/../lib/gcc/x86_64-unknown-linux-gnu/4.9.2/ -mtune=corei7 -march=x86-64 -g -Og
#
# seed -2093753874  2021074733 -1151186434   312005715  1009439498  -530517554  1245725561  -232188738  1724890450   571046300  -822908430  1239415509
#
#      Author: C. J. Pickard (cjp20@cam.ac.uk)
#                Space group: P2
#

%BLOCK LATTICE_ABC
      4.35979      5.83509      6.39499
    100.42860     90.00000     90.00000
%ENDBLOCK LATTICE_ABC

%BLOCK POSITIONS_FRAC
  Li  -0.1876555  -0.2446549   0.3711254 SPIN=   0.00000
  Li  -0.1876555   0.2446549  -0.3711254 SPIN=   0.00000
   O   0.5505623  -0.0631920  -0.3288677 SPIN=   0.00000
   O   0.0610473   0.1198829  -0.1352663 SPIN=   0.00000
   O   0.5642591   0.2895379  -0.0161044 SPIN=   0.00000
   O   0.3539795   0.3444456  -0.3681197 SPIN=   0.00000
   O   0.5505623   0.0631920   0.3288677 SPIN=   0.00000
   O   0.0610473  -0.1198829   0.1352663 SPIN=   0.00000
   O   0.5642591  -0.2895379   0.0161044 SPIN=   0.00000
   O   0.3539795  -0.3444456   0.3681197 SPIN=   0.00000
   P   0.3125865  -0.0000000  -0.5000000 SPIN=   0.00000
   P  -0.2698933   0.0000000   0.0000000 SPIN=   0.00000
  Fe   0.2117785  -0.2909363  -0.2018250 SPIN=   4.00000
  Fe   0.2117785   0.2909363   0.2018250 SPIN=   4.00000
%ENDBLOCK POSITIONS_FRAC

# Note: total spin =   8.00

KPOINTS_MP_SPACING 0.07

%BLOCK SPECIES_POT
QC5
%ENDBLOCK SPECIES_POT

%BLOCK HUBBARD_U
Fe d:4.0
%ENDBLOCK HUBBARD_U

SNAP_TO_SYMMETRY
SYMMETRY_GENERATE

