#              Generated by Buildcell
#
# at 12:24:41 (GMT+0.0) 24th November 2020
# in /scratch/scratch/uccabz1/launch_tmp
# on node-k10h-026
# by uccabz1
#
# compiler GCC version 4.9.2
# options -cpp -iprefix /scratch/UCL/applications/gcc/4.9.2/bin/../lib/gcc/x86_64-unknown-linux-gnu/4.9.2/ -mtune=corei7 -march=x86-64 -g -O2
#
# seed   -47712160  1694437697  -862594997 -1930351980  1622946980  -762528263   245220608 -1945241230 -1171180783  -168647687   508792075 -1347279688
#
#      Author: C. J. Pickard (cjp20@cam.ac.uk)
#                Space group: P-1
#

%BLOCK LATTICE_ABC
      4.20161      4.96597      8.76185
     74.56613     88.64734     65.81804
%ENDBLOCK LATTICE_ABC

%BLOCK POSITIONS_FRAC
  Li   0.2279795  -0.0168219   0.2232713 SPIN=   0.00000
  Li  -0.2279795   0.0168219  -0.2232713 SPIN=   0.00000
   O   0.2864878   0.0275587  -0.2931471 SPIN=   0.00000
   O   0.1305971  -0.4327902  -0.2798307 SPIN=   0.00000
   O   0.3398323  -0.2130657  -0.5272768 SPIN=   0.00000
   P   0.3786035  -0.2691511  -0.3419955 SPIN=   0.00000
   O  -0.2864878  -0.0275587   0.2931471 SPIN=   0.00000
   O  -0.1305971   0.4327902   0.2798307 SPIN=   0.00000
   O  -0.3398323   0.2130657   0.5272768 SPIN=   0.00000
   P  -0.3786035   0.2691511   0.3419955 SPIN=   0.00000
   O   0.0000000  -0.5000000   0.0000000 SPIN=   0.00000
   O   0.0000000   0.0000000   0.0000000 SPIN=   0.00000
  Fe   0.5000000   0.5000000   0.0000000 SPIN=   6.54712
  Fe   0.0000000  -0.5000000  -0.5000000 SPIN=   1.45288
%ENDBLOCK POSITIONS_FRAC

# Note: total spin =   8.00

KPOINTS_MP_SPACING 0.07

%BLOCK SPECIES_POT
QC5
%ENDBLOCK SPECIES_POT

%BLOCK HUBBARD_U
Fe d:4.0
%ENDBLOCK HUBBARD_U

SNAP_TO_SYMMETRY
SYMMETRY_GENERATE

