#              Generated by Buildcell
#
# at 14:19:38 (GMT+0.0) 24th November 2020
# in /scratch/scratch/uccabz1/launch_tmp
# on node-a14b-007
# by uccabz1
#
# compiler GCC version 4.9.2
# options -cpp -iprefix /scratch/UCL/applications/gcc/4.9.2/bin/../lib/gcc/x86_64-unknown-linux-gnu/4.9.2/ -mtune=corei7 -march=x86-64 -g -O2
#
# seed   934135479   892788624  1345914896  1714918295  1718551703   655105634  -884227241 -1598099165   529080825  2024730513  1319928098  1327974515
#
#      Author: C. J. Pickard (cjp20@cam.ac.uk)
#                Space group: Fdd2
#

%BLOCK LATTICE_ABC
      5.89140      5.89140      6.00857
    105.85291    105.85291    116.28247
%ENDBLOCK LATTICE_ABC

%BLOCK POSITIONS_FRAC
  Li  -0.3035182   0.3035182   0.5000000 SPIN=   0.00000
  Li   0.4464818  -0.4464818   0.0000000 SPIN=   0.00000
   O  -0.6004548  -0.1402082  -0.7547327 SPIN=   0.00000
   O  -1.0976148  -0.3935894  -0.7679242 SPIN=   0.00000
   O   0.1402082  -0.3995452  -0.2452673 SPIN=   0.00000
   O   0.3935894   0.0976148  -0.2320758 SPIN=   0.00000
   O   0.4042779   0.3645245   0.2547327 SPIN=   0.00000
   O  -0.0796906   0.1243348   0.2679242 SPIN=   0.00000
   O  -0.3645245  -0.4042779  -0.2547327 SPIN=   0.00000
   O  -0.1243348   0.0796906  -0.2679242 SPIN=   0.00000
   P   0.0054870  -0.0054870  -0.5000000 SPIN=   0.00000
   P  -0.2445130   0.2445130  -0.0000000 SPIN=   0.00000
  Fe   0.0586045  -0.0586045  -0.0000000 SPIN=   4.00000
  Fe   0.3086045  -0.3086045  -0.5000000 SPIN=   4.00000
%ENDBLOCK POSITIONS_FRAC

# Note: total spin =   8.00

KPOINTS_MP_SPACING 0.07

%BLOCK SPECIES_POT
QC5
%ENDBLOCK SPECIES_POT

%BLOCK HUBBARD_U
Fe d:4.0
%ENDBLOCK HUBBARD_U

SNAP_TO_SYMMETRY
SYMMETRY_GENERATE

