#              Generated by Buildcell
#
# at 09:05:53 (GMT+0.0) 24th November 2020
# in /lustre/scratch/uccabz1/launch_tmp
# on node-c12g-025
# by uccabz1
#
# compiler GCC version 4.9.2
# options -cpp -iprefix /lustre/shared/ucl/apps/gcc/4.9.2/bin/../lib/gcc/x86_64-unknown-linux-gnu/4.9.2/ -mtune=corei7 -march=x86-64 -g -Og
#
# seed  1122314015 -1989244773 -1089093311 -1994946164  -631986309 -2079829079  2007619197 -1522632302   -90908510   173119043  2089455754   552909691
#
#      Author: C. J. Pickard (cjp20@cam.ac.uk)
#                Space group: Cm
#

%BLOCK LATTICE_ABC
      4.27795      6.28990      6.28990
     78.81937     78.08679     78.08679
%ENDBLOCK LATTICE_ABC

%BLOCK POSITIONS_FRAC
  Li  -0.4021820   0.0304983   0.4560065 SPIN=   0.00000
  Li  -0.4021820   0.4560065   0.0304983 SPIN=   0.00000
   O   0.4364560   0.3079745  -0.3832901 SPIN=   0.00000
   O   0.0846821   0.5344578  -0.0871650 SPIN=   0.00000
   O  -0.1221513   0.2242855  -0.1657579 SPIN=   0.00000
   P   0.2028826   0.3020404  -0.1615665 SPIN=   0.00000
   O   0.4364560  -0.3832901   0.3079745 SPIN=   0.00000
   O   0.0846821  -0.0871650   0.5344578 SPIN=   0.00000
   O  -0.1221513  -0.1657579   0.2242855 SPIN=   0.00000
   P   0.2028826  -0.1615665   0.3020404 SPIN=   0.00000
   O  -0.3686814  -0.2816664  -0.2816664 SPIN=   0.00000
   O   0.4603555  -0.0084966  -0.0084966 SPIN=   0.00000
  Fe  -0.1661755   0.4913646   0.4913646 SPIN=   6.87406
  Fe  -0.0132752  -0.1207604  -0.1207604 SPIN=   1.12594
%ENDBLOCK POSITIONS_FRAC

# Note: total spin =   8.00

KPOINTS_MP_SPACING 0.07

%BLOCK SPECIES_POT
QC5
%ENDBLOCK SPECIES_POT

%BLOCK HUBBARD_U
Fe d:4.0
%ENDBLOCK HUBBARD_U

SNAP_TO_SYMMETRY
SYMMETRY_GENERATE

