#              Generated by Buildcell
#
# at 07:44:12 (GMT+0.0) 26th November 2020
# in /lustre/scratch/uccabz1/launch_tmp
# on node-c12h-026
# by uccabz1
#
# compiler GCC version 4.9.2
# options -cpp -iprefix /lustre/shared/ucl/apps/gcc/4.9.2/bin/../lib/gcc/x86_64-unknown-linux-gnu/4.9.2/ -mtune=corei7 -march=x86-64 -g -Og
#
# seed   216265476 -1059397531 -1374148568 -1288127142   168274207   154104116  -489416761  1535172998 -1647011518   792114980  1997271121  2012826527
#
#      Author: C. J. Pickard (cjp20@cam.ac.uk)
#                Space group: Pc
#

%BLOCK LATTICE_ABC
      4.98968      6.76884      9.57977
     90.00000     90.00000     98.49638
%ENDBLOCK LATTICE_ABC

%BLOCK POSITIONS_FRAC
  Li   0.1131798  -0.2188976  -0.3430988 SPIN=   0.00000
  Li   0.1131798   0.2811024   0.3430988 SPIN=   0.00000
  Li  -0.3497679  -0.0147973  -0.2432106 SPIN=   0.00000
  Li  -0.3497679   0.4852027   0.2432106 SPIN=   0.00000
   O   0.0697023  -0.2445524   0.0440342 SPIN=   0.00000
   O   0.5794213  -0.1861317  -0.0237946 SPIN=   0.00000
   O   0.2590765  -0.3997905  -0.1764058 SPIN=   0.00000
   O   0.2487301  -0.0311552  -0.1690868 SPIN=   0.00000
   P   0.2770657  -0.2147849  -0.0756749 SPIN=   0.00000
   O   0.0697023   0.2554476  -0.0440342 SPIN=   0.00000
   O   0.5794213   0.3138683   0.0237946 SPIN=   0.00000
   O   0.2590765   0.1002095   0.1764058 SPIN=   0.00000
   O   0.2487301   0.4688448   0.1690868 SPIN=   0.00000
   P   0.2770657   0.2852151   0.0756749 SPIN=   0.00000
   O  -0.5954034  -0.4763044  -0.5062674 SPIN=   0.00000
   O  -0.2926360  -0.6701128  -0.3528117 SPIN=   0.00000
   O  -0.0692425  -0.4125579  -0.5143004 SPIN=   0.00000
   O  -0.3078389  -0.3088560  -0.3025514 SPIN=   0.00000
   P  -0.3310425  -0.4655897  -0.4222562 SPIN=   0.00000
   O  -0.5954034   0.0236956   0.5062674 SPIN=   0.00000
   O  -0.2926360  -0.1701128   0.3528117 SPIN=   0.00000
   O  -0.0692425   0.0874421   0.5143004 SPIN=   0.00000
   O  -0.3078389   0.1911440   0.3025514 SPIN=   0.00000
   P  -0.3310425   0.0344103   0.4222562 SPIN=   0.00000
  Fe  -0.2533041  -0.4355185  -0.0917187 SPIN=   3.37995
  Fe  -0.2533041   0.0644815   0.0917187 SPIN=   3.37995
  Fe   0.2020978   0.2770765  -0.3227262 SPIN=   4.62005
  Fe   0.2020978  -0.2229235   0.3227262 SPIN=   4.62005
%ENDBLOCK POSITIONS_FRAC

# Note: total spin =  16.00

KPOINTS_MP_SPACING 0.07

%BLOCK SPECIES_POT
QC5
%ENDBLOCK SPECIES_POT

%BLOCK HUBBARD_U
Fe d:4.0
%ENDBLOCK HUBBARD_U

SNAP_TO_SYMMETRY
SYMMETRY_GENERATE

