#              Generated by Buildcell
#
# at 09:11:14 (GMT+0.0) 24th November 2020
# in /scratch/scratch/uccabz1/launch_tmp
# on node-a14e-014
# by uccabz1
#
# compiler GCC version 4.9.2
# options -cpp -iprefix /scratch/UCL/applications/gcc/4.9.2/bin/../lib/gcc/x86_64-unknown-linux-gnu/4.9.2/ -mtune=corei7 -march=x86-64 -g -O2
#
# seed -1732060150  -541291630   973276619   464862835   764878201   640668380  2007495014   801691263   642279538  -520476481  1558968058 -1388355277
#
#      Author: C. J. Pickard (cjp20@cam.ac.uk)
#                Space group: Cmc21
#

%BLOCK LATTICE_ABC
      4.93946      5.32754      6.86203
     90.00000     90.00000    117.61820
%ENDBLOCK LATTICE_ABC

%BLOCK POSITIONS_FRAC
  Li   0.0214182   0.0428365   0.1495200 SPIN=   0.00000
  Li  -0.0214182  -0.0428365  -0.3504800 SPIN=   0.00000
   O   0.2218582  -0.0562833  -0.0903057 SPIN=   0.00000
   O  -0.0240377  -0.5480751   0.0796788 SPIN=   0.00000
   O  -0.2218582   0.0562833   0.4096943 SPIN=   0.00000
   O   0.0240377   0.5480751   0.5796788 SPIN=   0.00000
   O   0.2781415   0.0562833   0.4096943 SPIN=   0.00000
   O   0.5240374   0.5480751   0.5796788 SPIN=   0.00000
   O  -0.2781415  -0.0562833  -0.0903057 SPIN=   0.00000
   O  -0.5240374  -0.5480751   0.0796788 SPIN=   0.00000
   P   0.3771109  -0.2457782   0.2548196 SPIN=   0.00000
   P  -0.3771109   0.2457782  -0.2451804 SPIN=   0.00000
  Fe   0.2970132  -0.4059736  -0.1486509 SPIN=   4.00000
  Fe  -0.2970132   0.4059736   0.3513491 SPIN=   4.00000
%ENDBLOCK POSITIONS_FRAC

# Note: total spin =   8.00

KPOINTS_MP_SPACING 0.07

%BLOCK SPECIES_POT
QC5
%ENDBLOCK SPECIES_POT

%BLOCK HUBBARD_U
Fe d:4.0
%ENDBLOCK HUBBARD_U

SNAP_TO_SYMMETRY
SYMMETRY_GENERATE

