#              Generated by Buildcell
#
# at 14:40:35 (GMT+0.0) 24th November 2020
# in /lustre/scratch/uccabz1/launch_tmp
# on node-c12f-022
# by uccabz1
#
# compiler GCC version 4.9.2
# options -cpp -iprefix /lustre/shared/ucl/apps/gcc/4.9.2/bin/../lib/gcc/x86_64-unknown-linux-gnu/4.9.2/ -mtune=corei7 -march=x86-64 -g -Og
#
# seed   146098023 -1125751445   958955185  -812833068  -429648073  1860763782    92694068 -1966244523 -1941538922  -473618577   -65223773  -564239254
#
#      Author: C. J. Pickard (cjp20@cam.ac.uk)
#                Space group: P-1
#

%BLOCK LATTICE_ABC
      4.35921      5.51527      7.12247
     94.22475    101.65086    105.64626
%ENDBLOCK LATTICE_ABC

%BLOCK POSITIONS_FRAC
  Li  -0.5000000  -0.5000000  -0.5000000 SPIN=   0.00000
  Li   0.5000000   0.5000000   0.0000000 SPIN=   0.00000
   O   0.1930358  -0.0083745   0.3962975 SPIN=   0.00000
   O  -0.0482224  -0.4995144   0.3225909 SPIN=   0.00000
   O  -0.0071212  -0.2538734   0.0477563 SPIN=   0.00000
   O   0.5032857  -0.2938701   0.2620730 SPIN=   0.00000
   P   0.1660387  -0.2506558   0.2646445 SPIN=   0.00000
   O  -0.1930358   0.0083745  -0.3962975 SPIN=   0.00000
   O   0.0482224   0.4995144  -0.3225909 SPIN=   0.00000
   O   0.0071212   0.2538734  -0.0477563 SPIN=   0.00000
   O  -0.5032857   0.2938701  -0.2620730 SPIN=   0.00000
   P  -0.1660387   0.2506558  -0.2646445 SPIN=   0.00000
  Fe   0.2136983  -0.1020022  -0.2621082 SPIN=   4.00000
  Fe  -0.2136983   0.1020022   0.2621082 SPIN=   4.00000
%ENDBLOCK POSITIONS_FRAC

# Note: total spin =   8.00

KPOINTS_MP_SPACING 0.07

%BLOCK SPECIES_POT
QC5
%ENDBLOCK SPECIES_POT

%BLOCK HUBBARD_U
Fe d:4.0
%ENDBLOCK HUBBARD_U

SNAP_TO_SYMMETRY
SYMMETRY_GENERATE

