#              Generated by Buildcell
#
# at 21:15:24 (GMT+0.0) 26th November 2020
# in /lustre/scratch/uccabz1/launch_tmp
# on node-c12b-021
# by uccabz1
#
# compiler GCC version 4.9.2
# options -cpp -iprefix /lustre/shared/ucl/apps/gcc/4.9.2/bin/../lib/gcc/x86_64-unknown-linux-gnu/4.9.2/ -mtune=corei7 -march=x86-64 -g -Og
#
# seed  -507663099 -1069761043 -1514913633   164281446 -1753251514 -1494491082   734175273  1980462447  1480421190   613077601  1348117627  1796636688
#
#      Author: C. J. Pickard (cjp20@cam.ac.uk)
#                Space group: Pc
#

%BLOCK LATTICE_ABC
      6.73011      6.91848      6.96772
     99.48146     90.00000     90.00000
%ENDBLOCK LATTICE_ABC

%BLOCK POSITIONS_FRAC
  Li  -0.2442986  -0.0587246   0.0717063 SPIN=   0.00000
  Li   0.2442986  -0.0587246  -0.4282937 SPIN=   0.00000
  Li  -0.1171132   0.3628484   0.2205423 SPIN=   0.00000
  Li   0.1171132   0.3628484  -0.2794577 SPIN=   0.00000
   O  -0.5103788  -0.2101204   0.1019661 SPIN=   0.00000
   O  -0.2199363  -0.4457597  -0.0206813 SPIN=   0.00000
   O  -0.3144839  -0.4078266   0.3260264 SPIN=   0.00000
   O  -0.5421865  -0.5859148   0.0724145 SPIN=   0.00000
   P  -0.4045131  -0.4036823   0.1184141 SPIN=   0.00000
   O   0.5103788  -0.2101204  -0.3980339 SPIN=   0.00000
   O   0.2199363  -0.4457597  -0.5206813 SPIN=   0.00000
   O   0.3144839  -0.4078266  -0.1739736 SPIN=   0.00000
   O   0.5421865  -0.5859148  -0.4275855 SPIN=   0.00000
   P   0.4045131  -0.4036823  -0.3815859 SPIN=   0.00000
   O   0.0320957   0.2380225   0.4363793 SPIN=   0.00000
   O  -0.1866717   0.0438667   0.6459227 SPIN=   0.00000
   O  -0.3246102   0.1170424   0.3373062 SPIN=   0.00000
   O  -0.0500854  -0.1285416   0.3291583 SPIN=   0.00000
   P  -0.1225932   0.0743571   0.4358735 SPIN=   0.00000
   O  -0.0320957   0.2380225  -0.0636207 SPIN=   0.00000
   O   0.1866717   0.0438667   0.1459227 SPIN=   0.00000
   O   0.3246102   0.1170424  -0.1626938 SPIN=   0.00000
   O   0.0500854  -0.1285416  -0.1708417 SPIN=   0.00000
   P   0.1225932   0.0743571  -0.0641265 SPIN=   0.00000
  Fe   0.1864214  -0.2787115   0.0911028 SPIN=   3.78580
  Fe  -0.1864214  -0.2787115  -0.4088972 SPIN=   3.78580
  Fe  -0.3705628   0.2630246  -0.2040699 SPIN=   4.21420
  Fe   0.3705628   0.2630246   0.2959301 SPIN=   4.21420
%ENDBLOCK POSITIONS_FRAC

# Note: total spin =  16.00

KPOINTS_MP_SPACING 0.07

%BLOCK SPECIES_POT
QC5
%ENDBLOCK SPECIES_POT

%BLOCK HUBBARD_U
Fe d:4.0
%ENDBLOCK HUBBARD_U

SNAP_TO_SYMMETRY
SYMMETRY_GENERATE

