#              Generated by Buildcell
#
# at 15:06:15 (GMT+0.0) 26th November 2020
# in /lustre/scratch/uccabz1/launch_tmp
# on node-c12g-031
# by uccabz1
#
# compiler GCC version 4.9.2
# options -cpp -iprefix /lustre/shared/ucl/apps/gcc/4.9.2/bin/../lib/gcc/x86_64-unknown-linux-gnu/4.9.2/ -mtune=corei7 -march=x86-64 -g -Og
#
# seed  1471262474  -855761476  2060941139  -752236155  -267496134 -2005070156  -399656809  1109388132  2031746787    93496615 -1920580518  1721314286
#
#      Author: C. J. Pickard (cjp20@cam.ac.uk)
#                Space group: Pna21
#

%BLOCK LATTICE_ABC
      4.07202      7.83591     10.02885
     90.00000     90.00000     90.00000
%ENDBLOCK LATTICE_ABC

%BLOCK POSITIONS_FRAC
  Li  -0.3556394  -0.3823452   0.4229682 SPIN=   0.00000
  Li   0.1443606   0.3823452  -0.4229682 SPIN=   0.00000
  Li  -0.3556394   0.1176548   0.0770318 SPIN=   0.00000
  Li   0.1443606  -0.1176548  -0.0770318 SPIN=   0.00000
   O   0.2064968  -0.0135349  -0.3821640 SPIN=   0.00000
   O   0.1693025  -0.3348852  -0.3201867 SPIN=   0.00000
   O  -0.3130776  -0.1981730  -0.4245223 SPIN=   0.00000
   O   0.1920792  -0.2507277  -0.5609123 SPIN=   0.00000
   P   0.0728185  -0.1900441  -0.4214680 SPIN=   0.00000
   O  -0.2935032   0.0135349   0.3821640 SPIN=   0.00000
   O  -0.3306975   0.3348852   0.3201867 SPIN=   0.00000
   O  -0.8130776   0.1981730   0.4245223 SPIN=   0.00000
   O  -0.3079208   0.2507277   0.5609123 SPIN=   0.00000
   P  -0.4271815   0.1900441   0.4214680 SPIN=   0.00000
   O   0.2064968   0.4864651  -0.1178360 SPIN=   0.00000
   O   0.1693025   0.1651148  -0.1798133 SPIN=   0.00000
   O  -0.3130776   0.3018270  -0.0754777 SPIN=   0.00000
   O   0.1920792   0.2492723   0.0609123 SPIN=   0.00000
   P   0.0728185   0.3099559  -0.0785320 SPIN=   0.00000
   O  -0.2935032  -0.4864651   0.1178360 SPIN=   0.00000
   O  -0.3306975  -0.1651148   0.1798133 SPIN=   0.00000
   O  -0.8130776  -0.3018270   0.0754777 SPIN=   0.00000
   O  -0.3079208  -0.2492723  -0.0609123 SPIN=   0.00000
   P  -0.4271815  -0.3099559   0.0785320 SPIN=   0.00000
  Fe  -0.3554057   0.1255142  -0.2549601 SPIN=   4.00000
  Fe   0.1445943  -0.1255142   0.2549601 SPIN=   4.00000
  Fe  -0.3554057  -0.3744858  -0.2450399 SPIN=   4.00000
  Fe   0.1445943   0.3744858   0.2450399 SPIN=   4.00000
%ENDBLOCK POSITIONS_FRAC

# Note: total spin =  16.00

KPOINTS_MP_SPACING 0.07

%BLOCK SPECIES_POT
QC5
%ENDBLOCK SPECIES_POT

%BLOCK HUBBARD_U
Fe d:4.0
%ENDBLOCK HUBBARD_U

SNAP_TO_SYMMETRY
SYMMETRY_GENERATE

