#              Generated by Buildcell
#
# at 14:19:58 (GMT+0.0) 24th November 2020
# in /lustre/scratch/uccabz1/launch_tmp
# on node-c12i-033
# by uccabz1
#
# compiler GCC version 4.9.2
# options -cpp -iprefix /lustre/shared/ucl/apps/gcc/4.9.2/bin/../lib/gcc/x86_64-unknown-linux-gnu/4.9.2/ -mtune=corei7 -march=x86-64 -g -Og
#
# seed -1804987026  1762500578 -1684125912  1384536458  -919780120 -1325249704   127396266   260274369   568068118  -145779581  -775023242    33484029
#
#      Author: C. J. Pickard (cjp20@cam.ac.uk)
#                Space group: P-1
#

%BLOCK LATTICE_ABC
      4.14156      5.39764      7.81933
     78.97645     78.57074     70.48015
%ENDBLOCK LATTICE_ABC

%BLOCK POSITIONS_FRAC
  Li   0.3357290  -0.2104789   0.0936183 SPIN=   0.00000
  Li  -0.3357290   0.2104789  -0.0936183 SPIN=   0.00000
   O  -0.1483277  -0.2739452   0.1246712 SPIN=   0.00000
   O  -0.7031582   0.0727807   0.2550883 SPIN=   0.00000
   O  -0.6241169  -0.4022995   0.3606443 SPIN=   0.00000
   O  -0.2475431  -0.1807735   0.4460180 SPIN=   0.00000
   O   0.1483277   0.2739452  -0.1246712 SPIN=   0.00000
   O   0.7031582  -0.0727807  -0.2550883 SPIN=   0.00000
   O   0.6241169   0.4022995  -0.3606443 SPIN=   0.00000
   O   0.2475431   0.1807735  -0.4460180 SPIN=   0.00000
   P   0.0000000  -0.5000000   0.0000000 SPIN=   0.00000
   P   0.0000000  -0.5000000  -0.5000000 SPIN=   0.00000
  Fe   0.2793973  -0.2208184  -0.3202848 SPIN=   4.00000
  Fe  -0.2793973   0.2208184   0.3202848 SPIN=   4.00000
%ENDBLOCK POSITIONS_FRAC

# Note: total spin =   8.00

KPOINTS_MP_SPACING 0.07

%BLOCK SPECIES_POT
QC5
%ENDBLOCK SPECIES_POT

%BLOCK HUBBARD_U
Fe d:4.0
%ENDBLOCK HUBBARD_U

SNAP_TO_SYMMETRY
SYMMETRY_GENERATE

