#              Generated by Buildcell
#
# at 06:35:29 (GMT+0.0) 24th November 2020
# in /lustre/scratch/uccabz1/launch_tmp
# on node-c12e-031
# by uccabz1
#
# compiler GCC version 4.9.2
# options -cpp -iprefix /lustre/shared/ucl/apps/gcc/4.9.2/bin/../lib/gcc/x86_64-unknown-linux-gnu/4.9.2/ -mtune=corei7 -march=x86-64 -g -Og
#
# seed -1905726707  1769910642  1079773739   243585995  2006059560  -498172036 -1720070424 -1222527161  1810114322  -685199570   601440008   361153298
#
#      Author: C. J. Pickard (cjp20@cam.ac.uk)
#                Space group: Cc
#

%BLOCK LATTICE_ABC
      5.28966      5.72098      5.72098
     82.38641     74.21719     74.21719
%ENDBLOCK LATTICE_ABC

%BLOCK POSITIONS_FRAC
  Li  -0.3867680  -0.4432657   0.3595385 SPIN=   0.00000
  Li   0.1132320   0.3595385  -0.4432657 SPIN=   0.00000
   O   0.3509678  -0.0562312   0.5267337 SPIN=   0.00000
   O   0.4517409  -0.1170156   0.0653296 SPIN=   0.00000
   O   0.0346562  -0.2078242   0.3373550 SPIN=   0.00000
   O   0.0678703   0.2248767   0.2484682 SPIN=   0.00000
   P   0.2310766  -0.0368488   0.3062955 SPIN=   0.00000
   O  -0.1490322   0.5267337  -0.0562312 SPIN=   0.00000
   O  -0.0482591   0.0653296  -0.1170156 SPIN=   0.00000
   O  -0.4653438   0.3373550  -0.2078242 SPIN=   0.00000
   O  -0.4321297   0.2484682   0.2248767 SPIN=   0.00000
   P  -0.2689234   0.3062955  -0.0368488 SPIN=   0.00000
  Fe   0.1995470  -0.3804761   0.0006570 SPIN=   4.00000
  Fe  -0.3004530   0.0006570  -0.3804761 SPIN=   4.00000
%ENDBLOCK POSITIONS_FRAC

# Note: total spin =   8.00

KPOINTS_MP_SPACING 0.07

%BLOCK SPECIES_POT
QC5
%ENDBLOCK SPECIES_POT

%BLOCK HUBBARD_U
Fe d:4.0
%ENDBLOCK HUBBARD_U

SNAP_TO_SYMMETRY
SYMMETRY_GENERATE

