#              Generated by Buildcell
#
# at 08:47:22 (GMT+0.0) 24th November 2020
# in /scratch/scratch/uccabz1/launch_tmp
# on node-a14f-030
# by uccabz1
#
# compiler GCC version 4.9.2
# options -cpp -iprefix /scratch/UCL/applications/gcc/4.9.2/bin/../lib/gcc/x86_64-unknown-linux-gnu/4.9.2/ -mtune=corei7 -march=x86-64 -g -O2
#
# seed  -743133574   547678570   525990499 -1299437352 -1182790044   868466650  2006744617  -635087649  -705253875  1579722446  1540323126    32125370
#
#      Author: C. J. Pickard (cjp20@cam.ac.uk)
#                Space group: P-1
#

%BLOCK LATTICE_ABC
      5.22351      6.20564      6.20771
     60.52515     75.15240     66.32346
%ENDBLOCK LATTICE_ABC

%BLOCK POSITIONS_FRAC
  Li  -0.0318160  -0.2359498   0.2397073 SPIN=   0.00000
  Li   0.0318160   0.2359498  -0.2397073 SPIN=   0.00000
   O   0.0172505  -0.3607459  -0.3854851 SPIN=   0.00000
   O   0.4968015  -0.6092460  -0.1892165 SPIN=   0.00000
   O   0.4172360  -0.1604904  -0.5275208 SPIN=   0.00000
   O   0.1604933  -0.2282380  -0.1107999 SPIN=   0.00000
   P   0.2580038  -0.3394867  -0.3053627 SPIN=   0.00000
   O  -0.0172505   0.3607459   0.3854851 SPIN=   0.00000
   O  -0.4968015   0.6092460   0.1892165 SPIN=   0.00000
   O  -0.4172360   0.1604904   0.5275208 SPIN=   0.00000
   O  -0.1604933   0.2282380   0.1107999 SPIN=   0.00000
   P  -0.2580038   0.3394867   0.3053627 SPIN=   0.00000
  Fe  -0.6652010   0.2184475   0.1787508 SPIN=   4.00000
  Fe   0.6652010  -0.2184475  -0.1787508 SPIN=   4.00000
%ENDBLOCK POSITIONS_FRAC

# Note: total spin =   8.00

KPOINTS_MP_SPACING 0.07

%BLOCK SPECIES_POT
QC5
%ENDBLOCK SPECIES_POT

%BLOCK HUBBARD_U
Fe d:4.0
%ENDBLOCK HUBBARD_U

SNAP_TO_SYMMETRY
SYMMETRY_GENERATE

