#              Generated by Buildcell
#
# at 14:08:37 (GMT+0.0) 26th November 2020
# in /lustre/scratch/uccabz1/launch_tmp
# on node-c12d-021
# by uccabz1
#
# compiler GCC version 4.9.2
# options -cpp -iprefix /lustre/shared/ucl/apps/gcc/4.9.2/bin/../lib/gcc/x86_64-unknown-linux-gnu/4.9.2/ -mtune=corei7 -march=x86-64 -g -Og
#
# seed   511918393  1641514717 -2147269839  1545865986    53248920 -1586443421   374408723 -1227789439   653445825  -702414695 -1155766452  -655401035
#
#      Author: C. J. Pickard (cjp20@cam.ac.uk)
#                Space group: P212121
#

%BLOCK LATTICE_ABC
      5.62342      7.22777      7.87308
     90.00000     90.00000     90.00000
%ENDBLOCK LATTICE_ABC

%BLOCK POSITIONS_FRAC
  Li   0.1159581   0.3748345   0.1239478 SPIN=   0.00000
  Li  -0.1159581   0.1251655  -0.3760522 SPIN=   0.00000
  Li  -0.3840419  -0.3748345   0.3760522 SPIN=   0.00000
  Li   0.3840419  -0.1251655  -0.1239478 SPIN=   0.00000
   O   0.1808876  -0.0473073  -0.3362755 SPIN=   0.00000
   O   0.4211212  -0.1268860  -0.6085179 SPIN=   0.00000
   O   0.1501688   0.1419567  -0.6159630 SPIN=   0.00000
   O   0.5244076   0.1587205  -0.4442234 SPIN=   0.00000
   P   0.3142070   0.0289183  -0.4917882 SPIN=   0.00000
   O  -0.1808876   0.5473073   0.1637245 SPIN=   0.00000
   O  -0.4211212   0.6268860  -0.1085179 SPIN=   0.00000
   O  -0.1501688   0.3580433  -0.1159630 SPIN=   0.00000
   O  -0.5244076   0.3412795   0.0557766 SPIN=   0.00000
   P  -0.3142070   0.4710817   0.0082118 SPIN=   0.00000
   O  -0.3191124   0.0473073  -0.1637245 SPIN=   0.00000
   O  -0.0788788   0.1268860   0.1085179 SPIN=   0.00000
   O  -0.3498312  -0.1419567   0.1159630 SPIN=   0.00000
   O   0.0244076  -0.1587205  -0.0557766 SPIN=   0.00000
   P  -0.1857930  -0.0289183  -0.0082118 SPIN=   0.00000
   O   0.3191124  -0.5473073   0.3362755 SPIN=   0.00000
   O   0.0788788  -0.6268860   0.6085179 SPIN=   0.00000
   O   0.3498312  -0.3580433   0.6159630 SPIN=   0.00000
   O  -0.0244076  -0.3412795   0.4442234 SPIN=   0.00000
   P   0.1857930  -0.4710817   0.4917882 SPIN=   0.00000
  Fe   0.1160222  -0.1880792   0.2420456 SPIN=   4.00000
  Fe  -0.1160222  -0.3119208  -0.2579544 SPIN=   4.00000
  Fe  -0.3839778   0.1880792   0.2579544 SPIN=   4.00000
  Fe   0.3839778   0.3119208  -0.2420456 SPIN=   4.00000
%ENDBLOCK POSITIONS_FRAC

# Note: total spin =  16.00

KPOINTS_MP_SPACING 0.07

%BLOCK SPECIES_POT
QC5
%ENDBLOCK SPECIES_POT

%BLOCK HUBBARD_U
Fe d:4.0
%ENDBLOCK HUBBARD_U

SNAP_TO_SYMMETRY
SYMMETRY_GENERATE

