#              Generated by Buildcell
#
# at 09:54:52 (GMT+0.0) 24th November 2020
# in /lustre/scratch/uccabz1/launch_tmp
# on node-c12l-027
# by uccabz1
#
# compiler GCC version 4.9.2
# options -cpp -iprefix /lustre/shared/ucl/apps/gcc/4.9.2/bin/../lib/gcc/x86_64-unknown-linux-gnu/4.9.2/ -mtune=corei7 -march=x86-64 -g -Og
#
# seed  -950830387 -1693294116 -1913569773   684254800 -1129222899 -1878525417  1757895273   213291691  1739256486  1881427555   594714948  1437454869
#
#      Author: C. J. Pickard (cjp20@cam.ac.uk)
#                Space group: P21
#

%BLOCK LATTICE_ABC
      3.92685      5.10895      8.23724
    104.48940     90.00000     90.00000
%ENDBLOCK LATTICE_ABC

%BLOCK POSITIONS_FRAC
  Li  -0.0242700   0.2243689  -0.0293844 SPIN=   0.00000
  Li   0.4757300  -0.2243689   0.0293844 SPIN=   0.00000
   O  -0.1130739  -0.3920677   0.1338440 SPIN=   0.00000
   O   0.3979916  -0.5753502   0.2727615 SPIN=   0.00000
   O   0.3597337  -0.0833188   0.3013492 SPIN=   0.00000
   O  -0.0545086  -0.3062675   0.4551999 SPIN=   0.00000
   P   0.1312752  -0.3416741   0.2843723 SPIN=   0.00000
   O  -0.6130739   0.3920677  -0.1338440 SPIN=   0.00000
   O  -0.1020084   0.5753502  -0.2727615 SPIN=   0.00000
   O  -0.1402663   0.0833188  -0.3013492 SPIN=   0.00000
   O  -0.5545086   0.3062675  -0.4551999 SPIN=   0.00000
   P  -0.3687248   0.3416741  -0.2843723 SPIN=   0.00000
  Fe   0.3237188  -0.1935472  -0.3602945 SPIN=   4.00000
  Fe  -0.1762812   0.1935472   0.3602945 SPIN=   4.00000
%ENDBLOCK POSITIONS_FRAC

# Note: total spin =   8.00

KPOINTS_MP_SPACING 0.07

%BLOCK SPECIES_POT
QC5
%ENDBLOCK SPECIES_POT

%BLOCK HUBBARD_U
Fe d:4.0
%ENDBLOCK HUBBARD_U

SNAP_TO_SYMMETRY
SYMMETRY_GENERATE

