#              Generated by Buildcell
#
# at 07:44:26 (GMT+0.0) 24th November 2020
# in /lustre/scratch/uccabz1/launch_tmp
# on node-c12p-030
# by uccabz1
#
# compiler GCC version 4.9.2
# options -cpp -iprefix /lustre/shared/ucl/apps/gcc/4.9.2/bin/../lib/gcc/x86_64-unknown-linux-gnu/4.9.2/ -mtune=corei7 -march=x86-64 -g -Og
#
# seed  -681700920  1217083142   757113044 -2011042333  1886829885 -1560290724 -1137536875  -933429642   626779417   670080423 -1539832412  -856978638
#
#      Author: C. J. Pickard (cjp20@cam.ac.uk)
#                Space group: P21212
#

%BLOCK LATTICE_ABC
      5.20728      5.31904      5.77665
     90.00000     90.00000     90.00000
%ENDBLOCK LATTICE_ABC

%BLOCK POSITIONS_FRAC
  Li  -0.0000000  -0.0000000  -0.0390246 SPIN=   0.00000
  Li   0.5000000  -0.5000000   0.0390246 SPIN=   0.00000
   O  -0.3562818   0.3153025  -0.6164408 SPIN=   0.00000
   O  -0.2911808   0.2418653  -0.1756890 SPIN=   0.00000
   O   0.3562818  -0.3153025  -0.6164408 SPIN=   0.00000
   O   0.2911808  -0.2418653  -0.1756890 SPIN=   0.00000
   O   0.1437182   0.1846975   0.6164408 SPIN=   0.00000
   O   0.2088192   0.2581347   0.1756890 SPIN=   0.00000
   O  -0.1437182  -0.1846975   0.6164408 SPIN=   0.00000
   O  -0.2088192  -0.2581347   0.1756890 SPIN=   0.00000
   P  -0.0000000  -0.5000000  -0.1104533 SPIN=   0.00000
   P  -0.5000000  -0.0000000   0.1104533 SPIN=   0.00000
  Fe   0.0000000   0.5000000   0.3927486 SPIN=   4.00000
  Fe  -0.5000000  -0.0000000  -0.3927486 SPIN=   4.00000
%ENDBLOCK POSITIONS_FRAC

# Note: total spin =   8.00

KPOINTS_MP_SPACING 0.07

%BLOCK SPECIES_POT
QC5
%ENDBLOCK SPECIES_POT

%BLOCK HUBBARD_U
Fe d:4.0
%ENDBLOCK HUBBARD_U

SNAP_TO_SYMMETRY
SYMMETRY_GENERATE

