#              Generated by Buildcell
#
# at 13:28:00 (GMT+0.0) 24th November 2020
# in /scratch/scratch/uccabz1/launch_tmp
# on node-a14c-005
# by uccabz1
#
# compiler GCC version 4.9.2
# options -cpp -iprefix /scratch/UCL/applications/gcc/4.9.2/bin/../lib/gcc/x86_64-unknown-linux-gnu/4.9.2/ -mtune=corei7 -march=x86-64 -g -O2
#
# seed -2110351012 -1564242042  1552237328   604024419 -1417549636  1340571087  1221030172 -1635449392   361672389   361256775   364757709   430035591
#
#      Author: C. J. Pickard (cjp20@cam.ac.uk)
#                Space group: P21
#

%BLOCK LATTICE_ABC
      4.30995      5.41612      6.87495
     94.44878     90.00000     90.00000
%ENDBLOCK LATTICE_ABC

%BLOCK POSITIONS_FRAC
  Li   0.3705562   0.1989905  -0.0006458 SPIN=   0.00000
  Li  -0.1294438  -0.1989905   0.0006458 SPIN=   0.00000
   O  -0.1487004   0.3887024   0.0011626 SPIN=   0.00000
   O  -0.4564707   0.2566924  -0.3148546 SPIN=   0.00000
   O   0.0345998   0.4857789  -0.3447470 SPIN=   0.00000
   O   0.0481335   0.0476245  -0.2523965 SPIN=   0.00000
   P  -0.1294634   0.2967890  -0.2158139 SPIN=   0.00000
   O   0.3512996  -0.3887024  -0.0011626 SPIN=   0.00000
   O   0.0435293  -0.2566924   0.3148546 SPIN=   0.00000
   O   0.5345998  -0.4857789   0.3447470 SPIN=   0.00000
   O   0.5481335  -0.0476245   0.2523965 SPIN=   0.00000
   P   0.3705366  -0.2967890   0.2158139 SPIN=   0.00000
  Fe  -0.1293982   0.2367906   0.3657889 SPIN=   4.00000
  Fe   0.3706018  -0.2367906  -0.3657889 SPIN=   4.00000
%ENDBLOCK POSITIONS_FRAC

# Note: total spin =   8.00

KPOINTS_MP_SPACING 0.07

%BLOCK SPECIES_POT
QC5
%ENDBLOCK SPECIES_POT

%BLOCK HUBBARD_U
Fe d:4.0
%ENDBLOCK HUBBARD_U

SNAP_TO_SYMMETRY
SYMMETRY_GENERATE

