#              Generated by Buildcell
#
# at 00:02:07 (GMT+0.0) 27th November 2020
# in /lustre/scratch/uccabz1/launch_tmp
# on node-c12j-022
# by uccabz1
#
# compiler GCC version 4.9.2
# options -cpp -iprefix /lustre/shared/ucl/apps/gcc/4.9.2/bin/../lib/gcc/x86_64-unknown-linux-gnu/4.9.2/ -mtune=corei7 -march=x86-64 -g -Og
#
# seed   945433716   404594782   189499848 -1272161347  -692028991  -679017738 -1709124364  1623452783 -1990014715   833932747  1732094090  1832055027
#
#      Author: C. J. Pickard (cjp20@cam.ac.uk)
#                Space group: Pm
#

%BLOCK LATTICE_ABC
      5.14539      6.86112      9.43289
     90.00000     90.00000    106.06903
%ENDBLOCK LATTICE_ABC

%BLOCK POSITIONS_FRAC
  Li  -0.2273371  -0.3172246   0.2124888 SPIN=   0.00000
  Li  -0.2273371  -0.3172246  -0.2124888 SPIN=   0.00000
  Li   0.1084350   0.1199299   0.1822019 SPIN=   0.00000
  Li   0.1084350   0.1199299  -0.1822019 SPIN=   0.00000
   O  -0.3649621   0.2791166   0.2209324 SPIN=   0.00000
   O  -0.6996701  -0.0476045   0.3212846 SPIN=   0.00000
   O  -0.3909341  -0.0824470   0.1284163 SPIN=   0.00000
   O  -0.2045797   0.0194667   0.3709649 SPIN=   0.00000
   P  -0.4098867   0.0544836   0.2596029 SPIN=   0.00000
   O  -0.3649621   0.2791166  -0.2209324 SPIN=   0.00000
   O  -0.6996701  -0.0476045  -0.3212846 SPIN=   0.00000
   O  -0.3909341  -0.0824470  -0.1284163 SPIN=   0.00000
   O  -0.2045797   0.0194667  -0.3709649 SPIN=   0.00000
   P  -0.4098867   0.0544836  -0.2596029 SPIN=   0.00000
   O   0.2274608   0.4925521  -0.1387848 SPIN=   0.00000
   O   0.4733235   0.6516874  -0.3691531 SPIN=   0.00000
   O   0.2289511   0.2869799  -0.3699427 SPIN=   0.00000
   O  -0.0330514   0.5448366  -0.3631652 SPIN=   0.00000
   P   0.2213107   0.4945360  -0.3017555 SPIN=   0.00000
   O   0.2274608   0.4925521   0.1387848 SPIN=   0.00000
   O   0.4733235   0.6516874   0.3691531 SPIN=   0.00000
   O   0.2289511   0.2869799   0.3699427 SPIN=   0.00000
   O  -0.0330514   0.5448366   0.3631652 SPIN=   0.00000
   P   0.2213107   0.4945360   0.3017555 SPIN=   0.00000
  Fe   0.2960842  -0.2611188   0.0000000 SPIN=   4.19269
  Fe  -0.3303369   0.2930302   0.0000000 SPIN=   0.99983
  Fe   0.0538551  -0.0908754   0.5000000 SPIN=   3.63309
  Fe  -0.2923858   0.3400154   0.5000000 SPIN=   7.17439
%ENDBLOCK POSITIONS_FRAC

# Note: total spin =  16.00

KPOINTS_MP_SPACING 0.07

%BLOCK SPECIES_POT
QC5
%ENDBLOCK SPECIES_POT

%BLOCK HUBBARD_U
Fe d:4.0
%ENDBLOCK HUBBARD_U

SNAP_TO_SYMMETRY
SYMMETRY_GENERATE

