#              Generated by Buildcell
#
# at 01:36:06 (GMT+0.0) 27th November 2020
# in /lustre/scratch/uccabz1/launch_tmp
# on node-c12d-029
# by uccabz1
#
# compiler GCC version 4.9.2
# options -cpp -iprefix /lustre/shared/ucl/apps/gcc/4.9.2/bin/../lib/gcc/x86_64-unknown-linux-gnu/4.9.2/ -mtune=corei7 -march=x86-64 -g -Og
#
# seed  2116979033 -1256520873   -83491358 -1969287953 -1872831131  -441000747  2015210638 -1415929172 -1700471078  1239580563   875467798  -577252997
#
#      Author: C. J. Pickard (cjp20@cam.ac.uk)
#                Space group: I4
#

%BLOCK LATTICE_ABC
      5.09434      8.32484      8.32484
     84.62816     72.18334     72.18334
%ENDBLOCK LATTICE_ABC

%BLOCK POSITIONS_FRAC
  Li   0.1277408  -0.3100871   0.4857309 SPIN=   0.00000
  Li   0.3033846   0.3100871  -0.4857309 SPIN=   0.00000
  Li  -0.1823463   0.4857309   0.3100871 SPIN=   0.00000
  Li  -0.3865283  -0.4857309  -0.3100871 SPIN=   0.00000
   O   0.4124379  -0.3789499   0.2426497 SPIN=   0.00000
   O   0.2842877  -0.4580457  -0.0126251 SPIN=   0.00000
   O  -0.0161997  -0.1923029   0.1391213 SPIN=   0.00000
   O   0.4888607  -0.2155908  -0.0391301 SPIN=   0.00000
   P   0.3010600  -0.3136999   0.0895955 SPIN=   0.00000
   O   0.2761378   0.3789499  -0.2426497 SPIN=   0.00000
   O  -0.1863831   0.4580457   0.0126251 SPIN=   0.00000
   O  -0.0693813   0.1923029  -0.1391213 SPIN=   0.00000
   O   0.2341398   0.2155908   0.0391301 SPIN=   0.00000
   P   0.0769556   0.3136999  -0.0895955 SPIN=   0.00000
   O   0.0334880   0.2426497   0.3789499 SPIN=   0.00000
   O  -0.1737580  -0.0126251   0.4580457 SPIN=   0.00000
   O  -0.2085026   0.1391213   0.1923029 SPIN=   0.00000
   O   0.2732699  -0.0391301   0.2155908 SPIN=   0.00000
   P  -0.0126399   0.0895955   0.3136999 SPIN=   0.00000
   O   0.6550876  -0.2426497  -0.3789499 SPIN=   0.00000
   O   0.2716626   0.0126251  -0.4580457 SPIN=   0.00000
   O   0.1229216  -0.1391213  -0.1923029 SPIN=   0.00000
   O   0.4497306   0.0391301  -0.2155908 SPIN=   0.00000
   P   0.3906555  -0.0895955  -0.3136999 SPIN=   0.00000
  Fe  -0.1692369   0.1003101  -0.3300392 SPIN=   4.00000
  Fe  -0.3989660  -0.1003101   0.3300392 SPIN=   4.00000
  Fe  -0.0689268  -0.3300392  -0.1003101 SPIN=   4.00000
  Fe  -0.4992761   0.3300392   0.1003101 SPIN=   4.00000
%ENDBLOCK POSITIONS_FRAC

# Note: total spin =  16.00

KPOINTS_MP_SPACING 0.07

%BLOCK SPECIES_POT
QC5
%ENDBLOCK SPECIES_POT

%BLOCK HUBBARD_U
Fe d:4.0
%ENDBLOCK HUBBARD_U

SNAP_TO_SYMMETRY
SYMMETRY_GENERATE

