#              Generated by Buildcell
#
# at 09:58:23 (GMT+0.0) 24th November 2020
# in /lustre/scratch/uccabz1/launch_tmp
# on node-c12c-026
# by uccabz1
#
# compiler GCC version 4.9.2
# options -cpp -iprefix /lustre/shared/ucl/apps/gcc/4.9.2/bin/../lib/gcc/x86_64-unknown-linux-gnu/4.9.2/ -mtune=corei7 -march=x86-64 -g -Og
#
# seed  -524971365   625436151   -91301689 -1125846448   766593962 -1596984357 -1991262691  1589767680 -1738096420   992535537   395862069  1394981223
#
#      Author: C. J. Pickard (cjp20@cam.ac.uk)
#                Space group: Cm
#

%BLOCK LATTICE_ABC
      4.54752      6.01347      6.01347
    101.51022     94.30686     94.30686
%ENDBLOCK LATTICE_ABC

%BLOCK POSITIONS_FRAC
  Li   0.2814758  -0.4526439  -0.4526439 SPIN=   0.00000
  Li   0.4840971   0.0256537   0.0256537 SPIN=   0.00000
   O  -0.7374153  -0.2425604   0.2243375 SPIN=   0.00000
   O  -0.2403037  -0.2904669   0.4447213 SPIN=   0.00000
   O  -0.4540705  -0.6042673   0.1305632 SPIN=   0.00000
   O  -0.2414090  -0.2391158   0.0415073 SPIN=   0.00000
   P  -0.4332035  -0.3374570   0.2090390 SPIN=   0.00000
   O  -0.7374153   0.2243375  -0.2425604 SPIN=   0.00000
   O  -0.2403037   0.4447213  -0.2904669 SPIN=   0.00000
   O  -0.4540705   0.1305632  -0.6042673 SPIN=   0.00000
   O  -0.2414090   0.0415073  -0.2391158 SPIN=   0.00000
   P  -0.4332035   0.2090390  -0.3374570 SPIN=   0.00000
  Fe   0.0228328   0.0044285   0.4195237 SPIN=   4.00000
  Fe   0.0228328   0.4195237   0.0044285 SPIN=   4.00000
%ENDBLOCK POSITIONS_FRAC

# Note: total spin =   8.00

KPOINTS_MP_SPACING 0.07

%BLOCK SPECIES_POT
QC5
%ENDBLOCK SPECIES_POT

%BLOCK HUBBARD_U
Fe d:4.0
%ENDBLOCK HUBBARD_U

SNAP_TO_SYMMETRY
SYMMETRY_GENERATE

