#              Generated by Buildcell
#
# at 13:06:55 (GMT+0.0) 26th November 2020
# in /lustre/scratch/uccabz1/launch_tmp
# on node-c12k-026
# by uccabz1
#
# compiler GCC version 4.9.2
# options -cpp -iprefix /lustre/shared/ucl/apps/gcc/4.9.2/bin/../lib/gcc/x86_64-unknown-linux-gnu/4.9.2/ -mtune=corei7 -march=x86-64 -g -Og
#
# seed  1563029497  1209571706  -960741595  -185823035  -109150080    10762623   736856749    28806146   403725006 -1504999456  1873587427  -639781706
#
#      Author: C. J. Pickard (cjp20@cam.ac.uk)
#                Space group: P21
#

%BLOCK LATTICE_ABC
      4.70922      7.89470      8.68806
     90.00000     90.00000     97.81931
%ENDBLOCK LATTICE_ABC

%BLOCK POSITIONS_FRAC
  Li  -0.1727603   0.4797766   0.4753844 SPIN=   0.00000
  Li   0.1727603  -0.4797766  -0.0246156 SPIN=   0.00000
  Li   0.1714344   0.0225963  -0.3984970 SPIN=   0.00000
  Li  -0.1714344  -0.0225963   0.1015030 SPIN=   0.00000
   O   0.6108425   0.4735756  -0.2752251 SPIN=   0.00000
   O   0.2151443   0.5995965  -0.4289318 SPIN=   0.00000
   O   0.3631036   0.3273805  -0.5172967 SPIN=   0.00000
   O   0.0820750   0.3337482  -0.2731381 SPIN=   0.00000
   P   0.3306132   0.4345270  -0.3672213 SPIN=   0.00000
   O  -0.6108425  -0.4735756   0.2247749 SPIN=   0.00000
   O  -0.2151443  -0.5995965   0.0710682 SPIN=   0.00000
   O  -0.3631036  -0.3273805  -0.0172967 SPIN=   0.00000
   O  -0.0820750  -0.3337482   0.2268619 SPIN=   0.00000
   P  -0.3306132  -0.4345270   0.1327787 SPIN=   0.00000
   O   0.2967578  -0.1142760   0.0581894 SPIN=   0.00000
   O   0.0738391  -0.2857848  -0.1777346 SPIN=   0.00000
   O  -0.0454855   0.0058171  -0.1357037 SPIN=   0.00000
   O   0.4493800  -0.0336483  -0.2207771 SPIN=   0.00000
   P   0.2021325  -0.1064966  -0.1107727 SPIN=   0.00000
   O  -0.2967578   0.1142760   0.5581894 SPIN=   0.00000
   O  -0.0738391   0.2857848   0.3222654 SPIN=   0.00000
   O   0.0454855  -0.0058171   0.3642963 SPIN=   0.00000
   O  -0.4493800   0.0336483   0.2792229 SPIN=   0.00000
   P  -0.2021325   0.1064966   0.3892273 SPIN=   0.00000
  Fe  -0.3465166   0.2391891  -0.1694453 SPIN=   2.41599
  Fe   0.3465166  -0.2391891   0.3305547 SPIN=   2.41599
  Fe  -0.3423206  -0.2586720  -0.2513689 SPIN=   5.58401
  Fe   0.3423206   0.2586720   0.2486311 SPIN=   5.58401
%ENDBLOCK POSITIONS_FRAC

# Note: total spin =  16.00

KPOINTS_MP_SPACING 0.07

%BLOCK SPECIES_POT
QC5
%ENDBLOCK SPECIES_POT

%BLOCK HUBBARD_U
Fe d:4.0
%ENDBLOCK HUBBARD_U

SNAP_TO_SYMMETRY
SYMMETRY_GENERATE

