#              Generated by Buildcell
#
# at 09:24:46 (GMT+0.0) 24th November 2020
# in /scratch/scratch/uccabz1/launch_tmp
# on node-a14e-014
# by uccabz1
#
# compiler GCC version 4.9.2
# options -cpp -iprefix /scratch/UCL/applications/gcc/4.9.2/bin/../lib/gcc/x86_64-unknown-linux-gnu/4.9.2/ -mtune=corei7 -march=x86-64 -g -O2
#
# seed -1046342482  1353548276   812501509  1579802540  -576966999   596617892  -755354376  1909229949   -65487796  1564010154  1065252542  -484034429
#
#      Author: C. J. Pickard (cjp20@cam.ac.uk)
#                Space group: Cc
#

%BLOCK LATTICE_ABC
      4.42626      4.94617      8.17306
     89.57424     89.04842     63.42022
%ENDBLOCK LATTICE_ABC

%BLOCK POSITIONS_FRAC
  Li  -0.2001178   0.3241677   0.2618272 SPIN=   0.00000
  Li   0.1240500  -0.3241677  -0.2381728 SPIN=   0.00000
   O  -0.1569794  -0.1151057   0.2944894 SPIN=   0.00000
   O   0.4525359  -0.3125235   0.4044657 SPIN=   0.00000
   O   0.0724874  -0.4975414   0.5345173 SPIN=   0.00000
   O   0.2954748  -0.6659887   0.2505431 SPIN=   0.00000
   P   0.1502184  -0.3859033   0.3655083 SPIN=   0.00000
   O  -0.2720851   0.1151057  -0.2055106 SPIN=   0.00000
   O   0.1400124   0.3125235  -0.0955343 SPIN=   0.00000
   O  -0.4250540   0.4975414   0.0345173 SPIN=   0.00000
   O  -0.3705139   0.6659887  -0.2494569 SPIN=   0.00000
   P  -0.2356849   0.3859033  -0.1344917 SPIN=   0.00000
  Fe   0.4435984   0.0506725  -0.4606636 SPIN=   4.00000
  Fe   0.4942709  -0.0506725   0.0393364 SPIN=   4.00000
%ENDBLOCK POSITIONS_FRAC

# Note: total spin =   8.00

KPOINTS_MP_SPACING 0.07

%BLOCK SPECIES_POT
QC5
%ENDBLOCK SPECIES_POT

%BLOCK HUBBARD_U
Fe d:4.0
%ENDBLOCK HUBBARD_U

SNAP_TO_SYMMETRY
SYMMETRY_GENERATE

