#              Generated by Buildcell
#
# at 09:59:31 (GMT+0.0) 24th November 2020
# in /scratch/scratch/uccabz1/launch_tmp
# on node-a14f-010
# by uccabz1
#
# compiler GCC version 4.9.2
# options -cpp -iprefix /scratch/UCL/applications/gcc/4.9.2/bin/../lib/gcc/x86_64-unknown-linux-gnu/4.9.2/ -mtune=corei7 -march=x86-64 -g -O2
#
# seed    39831214  -233399412  1693592705  -430523671 -1993820701 -1085932803  1179280233  1500393969 -1470349777   -39415529    81622666  1548530344
#
#      Author: C. J. Pickard (cjp20@cam.ac.uk)
#                Space group: P2/c
#

%BLOCK LATTICE_ABC
      3.83669      4.30957      9.67709
     90.48454     90.00000     90.00000
%ENDBLOCK LATTICE_ABC

%BLOCK POSITIONS_FRAC
  Li   0.0000000  -0.0000000  -0.0000000 SPIN=   0.00000
  Li  -0.0000000   0.0000000   0.5000000 SPIN=   0.00000
   O  -0.3032470  -0.2875467  -0.1450158 SPIN=   0.00000
   O  -0.6055901  -0.2125542  -0.3826309 SPIN=   0.00000
   O  -0.3032470   0.2875467  -0.3549842 SPIN=   0.00000
   O  -0.6055901   0.2125542  -0.1173691 SPIN=   0.00000
   O   0.3032470   0.2875467   0.1450158 SPIN=   0.00000
   O   0.6055901   0.2125542   0.3826309 SPIN=   0.00000
   O   0.3032470  -0.2875467   0.3549842 SPIN=   0.00000
   O   0.6055901  -0.2125542   0.1173691 SPIN=   0.00000
   P  -0.5000000   0.5000000  -0.5000000 SPIN=   0.00000
   P  -0.5000000  -0.5000000  -0.0000000 SPIN=   0.00000
  Fe   0.1110405   0.5000000  -0.2500000 SPIN=   4.00000
  Fe  -0.1110405   0.5000000   0.2500000 SPIN=   4.00000
%ENDBLOCK POSITIONS_FRAC

# Note: total spin =   8.00

KPOINTS_MP_SPACING 0.07

%BLOCK SPECIES_POT
QC5
%ENDBLOCK SPECIES_POT

%BLOCK HUBBARD_U
Fe d:4.0
%ENDBLOCK HUBBARD_U

SNAP_TO_SYMMETRY
SYMMETRY_GENERATE

