#              Generated by Buildcell
#
# at 00:32:04 (GMT+0.0) 27th November 2020
# in /lustre/scratch/uccabz1/launch_tmp
# on node-c12l-024
# by uccabz1
#
# compiler GCC version 4.9.2
# options -cpp -iprefix /lustre/shared/ucl/apps/gcc/4.9.2/bin/../lib/gcc/x86_64-unknown-linux-gnu/4.9.2/ -mtune=corei7 -march=x86-64 -g -Og
#
# seed  1050019035 -1152719652 -1964309266   465149693 -1132175379  1708633318  -716930172   449463280   362801399 -1323356427 -1056193329  1956831454
#
#      Author: C. J. Pickard (cjp20@cam.ac.uk)
#                Space group: C222
#

%BLOCK LATTICE_ABC
      5.85255      6.93109      8.41392
     90.00000    110.35218     90.00000
%ENDBLOCK LATTICE_ABC

%BLOCK POSITIONS_FRAC
  Li   0.2556875   0.5000000  -0.4886250 SPIN=   0.00000
  Li  -0.2556875  -0.5000000   0.4886250 SPIN=   0.00000
  Li  -0.2238439  -0.0000000  -0.4476879 SPIN=   0.00000
  Li   0.2238439   0.0000000   0.4476879 SPIN=   0.00000
   O   0.2810505   0.3507005  -0.0808963 SPIN=   0.00000
   O  -0.0835836   0.2711315  -0.3548540 SPIN=   0.00000
   O   0.3319569   0.1914294  -0.3461246 SPIN=   0.00000
   O   0.1447005   0.0006162  -0.1701282 SPIN=   0.00000
   P   0.1742409   0.2089149  -0.2288347 SPIN=   0.00000
   O  -0.2810505   0.3507005   0.0808963 SPIN=   0.00000
   O   0.0835836   0.2711315   0.3548540 SPIN=   0.00000
   O  -0.3319569   0.1914294   0.3461246 SPIN=   0.00000
   O  -0.1447005   0.0006162   0.1701282 SPIN=   0.00000
   P  -0.1742409   0.2089149   0.2288347 SPIN=   0.00000
   O  -0.3619468  -0.3507005  -0.0808963 SPIN=   0.00000
   O  -0.2712704  -0.2711315  -0.3548540 SPIN=   0.00000
   O  -0.6780815  -0.1914294  -0.3461246 SPIN=   0.00000
   O  -0.3148287  -0.0006162  -0.1701282 SPIN=   0.00000
   P  -0.4030757  -0.2089149  -0.2288347 SPIN=   0.00000
   O   0.3619468  -0.3507005   0.0808963 SPIN=   0.00000
   O   0.2712704  -0.2711315   0.3548540 SPIN=   0.00000
   O   0.6780815  -0.1914294   0.3461246 SPIN=   0.00000
   O   0.3148287  -0.0006162   0.1701282 SPIN=   0.00000
   P   0.4030757  -0.2089149   0.2288347 SPIN=   0.00000
  Fe  -0.3212214   0.2995071  -0.1725448 SPIN=   4.00000
  Fe   0.3212214   0.2995071   0.1725448 SPIN=   4.00000
  Fe   0.1486765  -0.2995071  -0.1725448 SPIN=   4.00000
  Fe  -0.1486765  -0.2995071   0.1725448 SPIN=   4.00000
%ENDBLOCK POSITIONS_FRAC

# Note: total spin =  16.00

KPOINTS_MP_SPACING 0.07

%BLOCK SPECIES_POT
QC5
%ENDBLOCK SPECIES_POT

%BLOCK HUBBARD_U
Fe d:4.0
%ENDBLOCK HUBBARD_U

SNAP_TO_SYMMETRY
SYMMETRY_GENERATE

