#              Generated by Buildcell
#
# at 06:53:22 (GMT+0.0) 26th November 2020
# in /lustre/scratch/uccabz1/launch_tmp
# on node-c12b-021
# by uccabz1
#
# compiler GCC version 4.9.2
# options -cpp -iprefix /lustre/shared/ucl/apps/gcc/4.9.2/bin/../lib/gcc/x86_64-unknown-linux-gnu/4.9.2/ -mtune=corei7 -march=x86-64 -g -Og
#
# seed  -207714684 -1974506643 -1049280812  1006075761    81785197  1064047620   369794480   -20506444 -1069538526 -1346258318 -2008002487   604163605
#
#      Author: C. J. Pickard (cjp20@cam.ac.uk)
#                Space group: Pma2
#

%BLOCK LATTICE_ABC
      4.22979      4.42865     17.08283
     90.00000     90.00000     90.00000
%ENDBLOCK LATTICE_ABC

%BLOCK POSITIONS_FRAC
  Li  -0.1529540   0.4436921   0.2500000 SPIN=   0.00000
  Li   0.1529540   0.4436921  -0.2500000 SPIN=   0.00000
  Li   0.3329018  -0.0353157   0.2500000 SPIN=   0.00000
  Li  -0.3329018  -0.0353157  -0.2500000 SPIN=   0.00000
   O  -0.1954054   0.1842627  -0.1469313 SPIN=   0.00000
   O  -0.6688499   0.3322445  -0.0579573 SPIN=   0.00000
   O  -0.1891953   0.6500660  -0.0544890 SPIN=   0.00000
   O  -0.5360563   0.6575157  -0.1732833 SPIN=   0.00000
   P  -0.3882594   0.4439302  -0.1109978 SPIN=   0.00000
   O   0.1954054   0.1842627   0.1469313 SPIN=   0.00000
   O   0.6688499   0.3322445   0.0579573 SPIN=   0.00000
   O   0.1891953   0.6500660   0.0544890 SPIN=   0.00000
   O   0.5360563   0.6575157   0.1732833 SPIN=   0.00000
   P   0.3882594   0.4439302   0.1109978 SPIN=   0.00000
   O   0.1954054   0.1842627   0.3530687 SPIN=   0.00000
   O   0.6688499   0.3322445   0.4420427 SPIN=   0.00000
   O   0.1891953   0.6500660   0.4455110 SPIN=   0.00000
   O   0.5360563   0.6575157   0.3267167 SPIN=   0.00000
   P   0.3882594   0.4439302   0.3890022 SPIN=   0.00000
   O  -0.1954054   0.1842627  -0.3530687 SPIN=   0.00000
   O  -0.6688499   0.3322445  -0.4420427 SPIN=   0.00000
   O  -0.1891953   0.6500660  -0.4455110 SPIN=   0.00000
   O  -0.5360563   0.6575157  -0.3267167 SPIN=   0.00000
   P  -0.3882594   0.4439302  -0.3890022 SPIN=   0.00000
  Fe  -0.1710376  -0.0768901   0.3968220 SPIN=   4.00000
  Fe   0.1710376  -0.0768901  -0.3968220 SPIN=   4.00000
  Fe   0.1710376  -0.0768901  -0.1031780 SPIN=   4.00000
  Fe  -0.1710376  -0.0768901   0.1031780 SPIN=   4.00000
%ENDBLOCK POSITIONS_FRAC

# Note: total spin =  16.00

KPOINTS_MP_SPACING 0.07

%BLOCK SPECIES_POT
QC5
%ENDBLOCK SPECIES_POT

%BLOCK HUBBARD_U
Fe d:4.0
%ENDBLOCK HUBBARD_U

SNAP_TO_SYMMETRY
SYMMETRY_GENERATE

