#              Generated by Buildcell
#
# at 01:11:59 (GMT+0.0) 27th November 2020
# in /scratch/scratch/uccabz1/launch_tmp
# on node-a14b-028
# by uccabz1
#
# compiler GCC version 4.9.2
# options -cpp -iprefix /scratch/UCL/applications/gcc/4.9.2/bin/../lib/gcc/x86_64-unknown-linux-gnu/4.9.2/ -mtune=corei7 -march=x86-64 -g -O2
#
# seed   427365298   501498735  1562417487   987408230  -817797935  -307815993 -1401981308  1017848846  1413364144  1960931967 -1747424922 -1321193255
#
#      Author: C. J. Pickard (cjp20@cam.ac.uk)
#                Space group: P21
#

%BLOCK LATTICE_ABC
      4.36473      7.57433      9.86983
     90.00000    101.27376     90.00000
%ENDBLOCK LATTICE_ABC

%BLOCK POSITIONS_FRAC
  Li  -0.3767704  -0.3080274   0.3023125 SPIN=   0.00000
  Li   0.3767704   0.1919726  -0.3023125 SPIN=   0.00000
  Li  -0.0309912   0.1328591  -0.0873238 SPIN=   0.00000
  Li   0.0309912  -0.3671409   0.0873238 SPIN=   0.00000
   O  -0.6658281   0.4469423  -0.1359816 SPIN=   0.00000
   O  -0.1206918   0.3794305   0.0146432 SPIN=   0.00000
   O  -0.1986854   0.3284997  -0.2369589 SPIN=   0.00000
   O  -0.1808916   0.6380153  -0.1465165 SPIN=   0.00000
   P  -0.3101485   0.4503936  -0.1269638 SPIN=   0.00000
   O   0.6658281  -0.0530577   0.1359816 SPIN=   0.00000
   O   0.1206918  -0.1205695  -0.0146432 SPIN=   0.00000
   O   0.1986854  -0.1715003   0.2369589 SPIN=   0.00000
   O   0.1808916   0.1380153   0.1465165 SPIN=   0.00000
   P   0.3101485  -0.0496064   0.1269638 SPIN=   0.00000
   O  -0.0196278   0.0345828  -0.2971227 SPIN=   0.00000
   O  -0.1180399  -0.2304265  -0.4672138 SPIN=   0.00000
   O  -0.5492747  -0.1320168  -0.3563545 SPIN=   0.00000
   O  -0.3830137   0.0580465  -0.5366839 SPIN=   0.00000
   P  -0.2556549  -0.0605395  -0.4095460 SPIN=   0.00000
   O   0.0196278   0.5345828   0.2971227 SPIN=   0.00000
   O   0.1180399   0.2695735   0.4672138 SPIN=   0.00000
   O   0.5492747   0.3679832   0.3563545 SPIN=   0.00000
   O   0.3830137   0.5580465   0.5366839 SPIN=   0.00000
   P   0.2556549   0.4394605   0.4095460 SPIN=   0.00000
  Fe   0.1389117   0.0128593   0.3891707 SPIN=   3.12135
  Fe  -0.1389117  -0.4871407  -0.3891707 SPIN=   3.12135
  Fe  -0.4473812   0.3101825   0.1359707 SPIN=   4.87865
  Fe   0.4473812  -0.1898175  -0.1359707 SPIN=   4.87865
%ENDBLOCK POSITIONS_FRAC

# Note: total spin =  16.00

KPOINTS_MP_SPACING 0.07

%BLOCK SPECIES_POT
QC5
%ENDBLOCK SPECIES_POT

%BLOCK HUBBARD_U
Fe d:4.0
%ENDBLOCK HUBBARD_U

SNAP_TO_SYMMETRY
SYMMETRY_GENERATE

