#              Generated by Buildcell
#
# at 06:22:04 (GMT+0.0) 24th November 2020
# in /scratch/scratch/uccabz1/launch_tmp
# on node-a14f-010
# by uccabz1
#
# compiler GCC version 4.9.2
# options -cpp -iprefix /scratch/UCL/applications/gcc/4.9.2/bin/../lib/gcc/x86_64-unknown-linux-gnu/4.9.2/ -mtune=corei7 -march=x86-64 -g -O2
#
# seed   533860516 -1941179905   939488843  1509728407 -1437475624   202719588  1601352977   857710723   812964666   890539008 -1580096809  1870985254
#
#      Author: C. J. Pickard (cjp20@cam.ac.uk)
#                Space group: P21
#

%BLOCK LATTICE_ABC
      3.98531      5.86892      7.26785
     90.00000     90.00000    109.74139
%ENDBLOCK LATTICE_ABC

%BLOCK POSITIONS_FRAC
  Li  -0.1355753  -0.2796359  -0.2976999 SPIN=   0.00000
  Li   0.1355753   0.2796359   0.2023001 SPIN=   0.00000
   O   0.3816055  -0.2729457  -0.1906340 SPIN=   0.00000
   O   0.0885529  -0.1177835   0.0789287 SPIN=   0.00000
   O  -0.1307221  -0.5555226   0.0096198 SPIN=   0.00000
   O   0.4746791  -0.3663129   0.1490911 SPIN=   0.00000
   P   0.2162104  -0.3256527   0.0025962 SPIN=   0.00000
   O  -0.3816055   0.2729457  -0.6906340 SPIN=   0.00000
   O  -0.0885529   0.1177835  -0.4210713 SPIN=   0.00000
   O   0.1307221   0.5555226  -0.4903802 SPIN=   0.00000
   O  -0.4746791   0.3663129  -0.3509089 SPIN=   0.00000
   P  -0.2162104   0.3256527  -0.4974038 SPIN=   0.00000
  Fe  -0.4285860   0.1414697  -0.1391049 SPIN=   4.00000
  Fe   0.4285860  -0.1414697   0.3608951 SPIN=   4.00000
%ENDBLOCK POSITIONS_FRAC

# Note: total spin =   8.00

KPOINTS_MP_SPACING 0.07

%BLOCK SPECIES_POT
QC5
%ENDBLOCK SPECIES_POT

%BLOCK HUBBARD_U
Fe d:4.0
%ENDBLOCK HUBBARD_U

SNAP_TO_SYMMETRY
SYMMETRY_GENERATE

