#              Generated by Buildcell
#
# at 13:25:42 (GMT+0.0) 24th November 2020
# in /scratch/scratch/uccabz1/launch_tmp
# on node-a14f-030
# by uccabz1
#
# compiler GCC version 4.9.2
# options -cpp -iprefix /scratch/UCL/applications/gcc/4.9.2/bin/../lib/gcc/x86_64-unknown-linux-gnu/4.9.2/ -mtune=corei7 -march=x86-64 -g -O2
#
# seed -2144530687  -917937229   696657089  1601221746   244397720 -1924259927    87783149 -1956478753  -615276115  1508835246  -739933666  1428466482
#
#      Author: C. J. Pickard (cjp20@cam.ac.uk)
#                Space group: Fdd2
#

%BLOCK LATTICE_ABC
      5.70378      5.70378      6.16683
    108.14171    108.14171    109.06910
%ENDBLOCK LATTICE_ABC

%BLOCK POSITIONS_FRAC
  Li   0.4620454  -0.0379546  -0.0759093 SPIN=   0.00000
  Li   0.2120454   0.2120454   0.4240907 SPIN=   0.00000
   O   0.0748221  -0.1882077  -0.0731931 SPIN=   0.00000
   O  -0.4043601  -0.6150864  -0.2469324 SPIN=   0.00000
   O  -0.1480153   0.1150145  -0.0731931 SPIN=   0.00000
   O   0.1574277   0.3681540  -0.2469324 SPIN=   0.00000
   O   0.3650145  -0.3980153   0.4268069 SPIN=   0.00000
   O   0.6181540  -0.0925723   0.2530676 SPIN=   0.00000
   O   0.0617923  -0.1751779   0.4268069 SPIN=   0.00000
   O  -0.3650864  -0.6543601   0.2530676 SPIN=   0.00000
   P  -0.4925533  -0.4925533   0.0148933 SPIN=   0.00000
   P  -0.2425533   0.2574467  -0.4851067 SPIN=   0.00000
  Fe  -0.1993187  -0.1993187  -0.3986374 SPIN=   4.00000
  Fe   0.0506813  -0.4493187   0.1013626 SPIN=   4.00000
%ENDBLOCK POSITIONS_FRAC

# Note: total spin =   8.00

KPOINTS_MP_SPACING 0.07

%BLOCK SPECIES_POT
QC5
%ENDBLOCK SPECIES_POT

%BLOCK HUBBARD_U
Fe d:4.0
%ENDBLOCK HUBBARD_U

SNAP_TO_SYMMETRY
SYMMETRY_GENERATE

