#              Generated by Buildcell
#
# at 01:28:07 (GMT+0.0) 27th November 2020
# in /lustre/scratch/uccabz1/launch_tmp
# on node-c12k-032
# by uccabz1
#
# compiler GCC version 4.9.2
# options -cpp -iprefix /lustre/shared/ucl/apps/gcc/4.9.2/bin/../lib/gcc/x86_64-unknown-linux-gnu/4.9.2/ -mtune=corei7 -march=x86-64 -g -Og
#
# seed   316406915   663490009    28556963  1422011260  2007056568  1665764584   551814148  1181948623   646042486 -2101668179  -638321003   -92139623
#
#      Author: C. J. Pickard (cjp20@cam.ac.uk)
#                Space group: Pm
#

%BLOCK LATTICE_ABC
      4.34573      6.78594     10.89711
     90.00000     90.00000     95.26280
%ENDBLOCK LATTICE_ABC

%BLOCK POSITIONS_FRAC
  Li  -0.1922706   0.0377274  -0.2702038 SPIN=   0.00000
  Li  -0.1922706   0.0377274   0.2702038 SPIN=   0.00000
  Li  -0.2059566  -0.4011025   0.1986450 SPIN=   0.00000
  Li  -0.2059566  -0.4011025  -0.1986450 SPIN=   0.00000
   O   0.1490194  -0.4387018   0.3234476 SPIN=   0.00000
   O   0.6592421  -0.2350896   0.3874546 SPIN=   0.00000
   O   0.4434981  -0.1764936   0.1823532 SPIN=   0.00000
   O   0.1743467  -0.0641925   0.3695109 SPIN=   0.00000
   P   0.3433279  -0.2378648   0.3167397 SPIN=   0.00000
   O   0.1490194  -0.4387018  -0.3234476 SPIN=   0.00000
   O   0.6592421  -0.2350896  -0.3874546 SPIN=   0.00000
   O   0.4434981  -0.1764936  -0.1823532 SPIN=   0.00000
   O   0.1743467  -0.0641925  -0.3695109 SPIN=   0.00000
   P   0.3433279  -0.2378648  -0.3167397 SPIN=   0.00000
   O   0.3514966   0.4755467   0.1191174 SPIN=   0.00000
   O   0.4241847   0.2615858   0.3128740 SPIN=   0.00000
   O   0.1458612   0.1047148   0.1353835 SPIN=   0.00000
   P   0.4100211   0.2701678   0.1687559 SPIN=   0.00000
   O   0.3514966   0.4755467  -0.1191174 SPIN=   0.00000
   O   0.4241847   0.2615858  -0.3128740 SPIN=   0.00000
   O   0.1458612   0.1047148  -0.1353835 SPIN=   0.00000
   P   0.4100211   0.2701678  -0.1687559 SPIN=   0.00000
   O   0.4588276   0.4654719  -0.5000000 SPIN=   0.00000
   O  -0.1378426   0.1863851  -0.5000000 SPIN=   0.00000
  Fe   0.3605232   0.1353062   0.5000000 SPIN=   4.81074
  Fe  -0.0958397   0.2474761   0.0000000 SPIN=   5.52676
  Fe   0.3217821  -0.2269070   0.0000000 SPIN=   3.77076
  Fe  -0.0706068  -0.3962339  -0.5000000 SPIN=   1.89174
%ENDBLOCK POSITIONS_FRAC

# Note: total spin =  16.00

KPOINTS_MP_SPACING 0.07

%BLOCK SPECIES_POT
QC5
%ENDBLOCK SPECIES_POT

%BLOCK HUBBARD_U
Fe d:4.0
%ENDBLOCK HUBBARD_U

SNAP_TO_SYMMETRY
SYMMETRY_GENERATE

