#              Generated by Buildcell
#
# at 22:16:53 (GMT+0.0) 26th November 2020
# in /lustre/scratch/uccabz1/launch_tmp
# on node-c12e-023
# by uccabz1
#
# compiler GCC version 4.9.2
# options -cpp -iprefix /lustre/shared/ucl/apps/gcc/4.9.2/bin/../lib/gcc/x86_64-unknown-linux-gnu/4.9.2/ -mtune=corei7 -march=x86-64 -g -Og
#
# seed -1350326564   198592995 -1261735028  1902128389 -1998295207  2066427795 -2079427055  1011035331  -827323048  -170886400 -1190695331 -1221833148
#
#      Author: C. J. Pickard (cjp20@cam.ac.uk)
#                Space group: P21
#

%BLOCK LATTICE_ABC
      5.32885      5.89499     10.45872
     90.00000     90.00000    103.09598
%ENDBLOCK LATTICE_ABC

%BLOCK POSITIONS_FRAC
  Li   0.1528715   0.2919949   0.1347120 SPIN=   0.00000
  Li  -0.1528715  -0.2919949  -0.3652880 SPIN=   0.00000
  Li   0.0892528  -0.0310999   0.3967978 SPIN=   0.00000
  Li  -0.0892528   0.0310999  -0.1032022 SPIN=   0.00000
   O   0.0865452  -0.3335691  -0.2106834 SPIN=   0.00000
   O   0.4594137  -0.4593155  -0.3310588 SPIN=   0.00000
   O   0.5521384  -0.2673116  -0.1209474 SPIN=   0.00000
   O   0.2797862  -0.6731813  -0.1324897 SPIN=   0.00000
   P   0.3299743  -0.4308622  -0.1986454 SPIN=   0.00000
   O  -0.0865452   0.3335691   0.2893166 SPIN=   0.00000
   O  -0.4594137   0.4593155   0.1689412 SPIN=   0.00000
   O  -0.5521384   0.2673116   0.3790526 SPIN=   0.00000
   O  -0.2797862   0.6731813   0.3675103 SPIN=   0.00000
   P  -0.3299743   0.4308622   0.3013546 SPIN=   0.00000
   O   0.1643230   0.1272215  -0.4225604 SPIN=   0.00000
   O  -0.1432399   0.3965567  -0.4802207 SPIN=   0.00000
   O  -0.3213644  -0.0282948  -0.4737123 SPIN=   0.00000
   O  -0.1945465   0.1893841  -0.2695035 SPIN=   0.00000
   P  -0.1092067   0.1690887  -0.4104125 SPIN=   0.00000
   O  -0.1643230  -0.1272215   0.0774396 SPIN=   0.00000
   O   0.1432399  -0.3965567   0.0197793 SPIN=   0.00000
   O   0.3213644   0.0282948   0.0262877 SPIN=   0.00000
   O   0.1945465  -0.1893841   0.2304965 SPIN=   0.00000
   P   0.1092067  -0.1690887   0.0895875 SPIN=   0.00000
  Fe  -0.4097682  -0.0388866   0.2161736 SPIN=   4.13730
  Fe   0.4097682   0.0388866  -0.2838264 SPIN=   4.13730
  Fe  -0.2999339   0.4859873  -0.0184154 SPIN=   3.86270
  Fe   0.2999339  -0.4859873   0.4815846 SPIN=   3.86270
%ENDBLOCK POSITIONS_FRAC

# Note: total spin =  16.00

KPOINTS_MP_SPACING 0.07

%BLOCK SPECIES_POT
QC5
%ENDBLOCK SPECIES_POT

%BLOCK HUBBARD_U
Fe d:4.0
%ENDBLOCK HUBBARD_U

SNAP_TO_SYMMETRY
SYMMETRY_GENERATE

