#              Generated by Buildcell
#
# at 19:08:25 (GMT+0.0) 26th November 2020
# in /lustre/scratch/uccabz1/launch_tmp
# on node-c12i-029
# by uccabz1
#
# compiler GCC version 4.9.2
# options -cpp -iprefix /lustre/shared/ucl/apps/gcc/4.9.2/bin/../lib/gcc/x86_64-unknown-linux-gnu/4.9.2/ -mtune=corei7 -march=x86-64 -g -Og
#
# seed  2012840724  1318136580 -1126204484 -1089007061  1020291792 -1529111236 -1760163415  1023133373 -1366953064  -625887857 -1874555895   958740376
#
#      Author: C. J. Pickard (cjp20@cam.ac.uk)
#                Space group: Pcc2
#

%BLOCK LATTICE_ABC
      3.90540      8.39293      9.76271
     90.00000     90.00000     90.00000
%ENDBLOCK LATTICE_ABC

%BLOCK POSITIONS_FRAC
  Li   0.0000000  -0.1500853   0.5000000 SPIN=   0.00000
  Li   0.0000000   0.3499147   0.5000000 SPIN=   0.00000
  Li  -0.0000000   0.0349994  -0.0000000 SPIN=   0.00000
  Li   0.0000000  -0.4650006   0.0000000 SPIN=   0.00000
   O   0.4475609   0.2626453  -0.1737227 SPIN=   0.00000
   O  -0.0631174   0.4579787  -0.2035188 SPIN=   0.00000
   O  -0.0763674   0.2027963  -0.3294346 SPIN=   0.00000
   P   0.0584324   0.2797393  -0.1927736 SPIN=   0.00000
   O  -0.4475609   0.2626453   0.1737227 SPIN=   0.00000
   O   0.0631174   0.4579787   0.2035188 SPIN=   0.00000
   O   0.0763674   0.2027963   0.3294346 SPIN=   0.00000
   P  -0.0584324   0.2797393   0.1927736 SPIN=   0.00000
   O   0.4475609  -0.2373547   0.1737227 SPIN=   0.00000
   O  -0.0631174  -0.0420213   0.2035188 SPIN=   0.00000
   O  -0.0763674  -0.2972037   0.3294346 SPIN=   0.00000
   P   0.0584324  -0.2202607   0.1927736 SPIN=   0.00000
   O  -0.4475609  -0.2373547  -0.1737227 SPIN=   0.00000
   O   0.0631174  -0.0420213  -0.2035188 SPIN=   0.00000
   O   0.0763674  -0.2972037  -0.3294346 SPIN=   0.00000
   P  -0.0584324  -0.2202607  -0.1927736 SPIN=   0.00000
   O  -0.5000000  -0.0377566   0.5000000 SPIN=   0.00000
   O  -0.5000000   0.4622434   0.5000000 SPIN=   0.00000
   O   0.0000000  -0.2150064   0.0000000 SPIN=   0.00000
   O  -0.0000000   0.2849936   0.0000000 SPIN=   0.00000
  Fe  -0.4707606  -0.4565975   0.2797736 SPIN=   4.00000
  Fe   0.4707606  -0.4565975  -0.2797736 SPIN=   4.00000
  Fe  -0.4707606   0.0434025  -0.2797736 SPIN=   4.00000
  Fe   0.4707606   0.0434025   0.2797736 SPIN=   4.00000
%ENDBLOCK POSITIONS_FRAC

# Note: total spin =  16.00

KPOINTS_MP_SPACING 0.07

%BLOCK SPECIES_POT
QC5
%ENDBLOCK SPECIES_POT

%BLOCK HUBBARD_U
Fe d:4.0
%ENDBLOCK HUBBARD_U

SNAP_TO_SYMMETRY
SYMMETRY_GENERATE

