#              Generated by Buildcell
#
# at 16:24:09 (GMT+0.0) 26th November 2020
# in /lustre/scratch/uccabz1/launch_tmp
# on node-c12e-030
# by uccabz1
#
# compiler GCC version 4.9.2
# options -cpp -iprefix /lustre/shared/ucl/apps/gcc/4.9.2/bin/../lib/gcc/x86_64-unknown-linux-gnu/4.9.2/ -mtune=corei7 -march=x86-64 -g -Og
#
# seed -1779383816 -1430095938 -1660384355  1988549926   416760923  -491291322    55440375 -1894427089   611343692 -1287096067   765370452   774690220
#
#      Author: C. J. Pickard (cjp20@cam.ac.uk)
#                Space group: P-1
#

%BLOCK LATTICE_ABC
      6.14548      7.52377      7.87949
    103.69477    106.55213    104.01487
%ENDBLOCK LATTICE_ABC

%BLOCK POSITIONS_FRAC
  Li  -0.7219435  -0.4655756  -0.1065976 SPIN=   0.00000
  Li   0.7219435   0.4655756   0.1065976 SPIN=   0.00000
  Li  -1.0000000  -0.5000000  -0.5000000 SPIN=   0.00000
  Li  -1.5000000  -0.5000000  -0.5000000 SPIN=   0.00000
   O  -0.1585989  -0.2913474   0.5689472 SPIN=   0.00000
   O  -0.3200236  -0.0416881   0.4414464 SPIN=   0.00000
   O  -0.0573390  -0.1788790   0.3048559 SPIN=   0.00000
   O  -0.4764598  -0.3896249   0.2371961 SPIN=   0.00000
   P  -0.2507092  -0.2308352   0.3959591 SPIN=   0.00000
   O   0.1585989   0.2913474  -0.5689472 SPIN=   0.00000
   O   0.3200236   0.0416881  -0.4414464 SPIN=   0.00000
   O   0.0573390   0.1788790  -0.3048559 SPIN=   0.00000
   O   0.4764598   0.3896249  -0.2371961 SPIN=   0.00000
   P   0.2507092   0.2308352  -0.3959591 SPIN=   0.00000
   O   0.0499608  -0.1768845  -0.0385592 SPIN=   0.00000
   O  -0.3670488  -0.2826360  -0.0060075 SPIN=   0.00000
   O  -0.3230289  -0.1098273  -0.2309988 SPIN=   0.00000
   P  -0.2248210  -0.2531704  -0.1401690 SPIN=   0.00000
   O  -0.0499608   0.1768845   0.0385592 SPIN=   0.00000
   O   0.3670488   0.2826360   0.0060075 SPIN=   0.00000
   O   0.3230289   0.1098273   0.2309988 SPIN=   0.00000
   P   0.2248210   0.2531704   0.1401690 SPIN=   0.00000
   O   0.0000000   0.5000000  -0.0000000 SPIN=   0.00000
   O  -0.5000000  -0.0000000  -0.0000000 SPIN=   0.00000
  Fe   0.2656890  -0.2252359   0.2963753 SPIN=   1.48923
  Fe  -0.2656890   0.2252359  -0.2963753 SPIN=   1.48923
  Fe  -0.1784731   0.0568522   0.2180980 SPIN=   6.51077
  Fe   0.1784731  -0.0568522  -0.2180980 SPIN=   6.51077
%ENDBLOCK POSITIONS_FRAC

# Note: total spin =  16.00

KPOINTS_MP_SPACING 0.07

%BLOCK SPECIES_POT
QC5
%ENDBLOCK SPECIES_POT

%BLOCK HUBBARD_U
Fe d:4.0
%ENDBLOCK HUBBARD_U

SNAP_TO_SYMMETRY
SYMMETRY_GENERATE

