#              Generated by Buildcell
#
# at 22:20:07 (GMT+0.0) 26th November 2020
# in /lustre/scratch/uccabz1/launch_tmp
# on node-c12g-022
# by uccabz1
#
# compiler GCC version 4.9.2
# options -cpp -iprefix /lustre/shared/ucl/apps/gcc/4.9.2/bin/../lib/gcc/x86_64-unknown-linux-gnu/4.9.2/ -mtune=corei7 -march=x86-64 -g -Og
#
# seed  1512626699 -1880317785   673151177   276178542 -1595953445  -250540447   555183488  1297626279 -1646814276   115726881   476635715  1989676972
#
#      Author: C. J. Pickard (cjp20@cam.ac.uk)
#                Space group: Aea2
#

%BLOCK LATTICE_ABC
      4.47113      6.24254     12.27932
     90.00000     90.00000    110.98466
%ENDBLOCK LATTICE_ABC

%BLOCK POSITIONS_FRAC
  Li   0.1487186  -0.3954448   0.1680475 SPIN=   0.00000
  Li  -0.4558366   0.3954448  -0.1680475 SPIN=   0.00000
  Li   0.0441634   0.3954448  -0.3319525 SPIN=   0.00000
  Li  -0.3512814  -0.3954448   0.3319525 SPIN=   0.00000
   O  -0.0787333  -0.2040278   0.4620849 SPIN=   0.00000
   O   0.5099897  -0.0597073   0.3935591 SPIN=   0.00000
   O   0.3411656  -0.3748068   0.5280005 SPIN=   0.00000
   O   0.1357898  -0.4486104   0.3366759 SPIN=   0.00000
   P   0.2096944  -0.2702668   0.4306819 SPIN=   0.00000
   O   0.1252945   0.2040278  -0.4620849 SPIN=   0.00000
   O   0.5696970   0.0597073  -0.3935591 SPIN=   0.00000
   O   0.7159724   0.3748068  -0.5280005 SPIN=   0.00000
   O   0.5844002   0.4486104  -0.3366759 SPIN=   0.00000
   P   0.4799612   0.2702668  -0.4306819 SPIN=   0.00000
   O  -0.3747055   0.2040278  -0.0379151 SPIN=   0.00000
   O   0.0696970   0.0597073  -0.1064409 SPIN=   0.00000
   O   0.2159724   0.3748068   0.0280005 SPIN=   0.00000
   O   0.0844002   0.4486104  -0.1633241 SPIN=   0.00000
   P  -0.0200388   0.2702668  -0.0693181 SPIN=   0.00000
   O  -0.5787333  -0.2040278   0.0379151 SPIN=   0.00000
   O   0.0099897  -0.0597073   0.1064409 SPIN=   0.00000
   O  -0.1588344  -0.3748068  -0.0280005 SPIN=   0.00000
   O  -0.3642102  -0.4486104   0.1633241 SPIN=   0.00000
   P  -0.2903056  -0.2702668   0.0693181 SPIN=   0.00000
  Fe   0.2500896  -0.2044724  -0.1213131 SPIN=   4.00000
  Fe   0.4545620   0.2044724   0.1213131 SPIN=   4.00000
  Fe  -0.0454380   0.2044724   0.3786869 SPIN=   4.00000
  Fe  -0.2499104  -0.2044724  -0.3786869 SPIN=   4.00000
%ENDBLOCK POSITIONS_FRAC

# Note: total spin =  16.00

KPOINTS_MP_SPACING 0.07

%BLOCK SPECIES_POT
QC5
%ENDBLOCK SPECIES_POT

%BLOCK HUBBARD_U
Fe d:4.0
%ENDBLOCK HUBBARD_U

SNAP_TO_SYMMETRY
SYMMETRY_GENERATE

