#              Generated by Buildcell
#
# at 10:51:23 (GMT+0.0) 24th November 2020
# in /scratch/scratch/uccabz1/launch_tmp
# on node-k10c-005
# by uccabz1
#
# compiler GCC version 4.9.2
# options -cpp -iprefix /scratch/UCL/applications/gcc/4.9.2/bin/../lib/gcc/x86_64-unknown-linux-gnu/4.9.2/ -mtune=corei7 -march=x86-64 -g -O2
#
# seed  1760427945  -158464183  1728381746  2061061329  -765084605 -2108115690  -702083495  1727049785 -1109108020  1215842264   -77541505  -908428264
#
#      Author: C. J. Pickard (cjp20@cam.ac.uk)
#                Space group: C2
#

%BLOCK LATTICE_ABC
      5.27764      5.27764      6.12041
     99.49920     99.49920    103.20646
%ENDBLOCK LATTICE_ABC

%BLOCK POSITIONS_FRAC
  Li   0.4550150  -0.0140684  -0.3450770 SPIN=   0.00000
  Li   0.0140684  -0.4550150   0.3450770 SPIN=   0.00000
   O   0.3968229   0.3145656   0.1697444 SPIN=   0.00000
   O   0.3076642  -0.1348300   0.3019155 SPIN=   0.00000
   O   0.2439210   0.2583028   0.5452752 SPIN=   0.00000
   P   0.2239088   0.1308854   0.2898005 SPIN=   0.00000
   O  -0.3145656  -0.3968229  -0.1697444 SPIN=   0.00000
   O   0.1348300  -0.3076642  -0.3019155 SPIN=   0.00000
   O  -0.2583028  -0.2439210  -0.5452752 SPIN=   0.00000
   P  -0.1308854  -0.2239088  -0.2898005 SPIN=   0.00000
   O  -0.2300891   0.2300891   0.0000000 SPIN=   0.00000
   O  -0.2642360   0.2642360   0.5000000 SPIN=   0.00000
  Fe   0.0713189   0.3442474  -0.1752183 SPIN=   4.00000
  Fe  -0.3442474  -0.0713189   0.1752183 SPIN=   4.00000
%ENDBLOCK POSITIONS_FRAC

# Note: total spin =   8.00

KPOINTS_MP_SPACING 0.07

%BLOCK SPECIES_POT
QC5
%ENDBLOCK SPECIES_POT

%BLOCK HUBBARD_U
Fe d:4.0
%ENDBLOCK HUBBARD_U

SNAP_TO_SYMMETRY
SYMMETRY_GENERATE

