#              Generated by Buildcell
#
# at 13:47:47 (GMT+0.0) 24th November 2020
# in /lustre/scratch/uccabz1/launch_tmp
# on node-c12d-031
# by uccabz1
#
# compiler GCC version 4.9.2
# options -cpp -iprefix /lustre/shared/ucl/apps/gcc/4.9.2/bin/../lib/gcc/x86_64-unknown-linux-gnu/4.9.2/ -mtune=corei7 -march=x86-64 -g -Og
#
# seed -1150520672 -1978766600  -857636650 -1541413586  1704375663 -1990463718   800454756  1110008522 -1285040346  1988785917  -471161658  -128232027
#
#      Author: C. J. Pickard (cjp20@cam.ac.uk)
#                Space group: Pc
#

%BLOCK LATTICE_ABC
      4.09712      5.54957      7.10882
     90.00000     98.15644     90.00000
%ENDBLOCK LATTICE_ABC

%BLOCK POSITIONS_FRAC
  Li   0.1971028  -0.2136550   0.0187164 SPIN=   0.00000
  Li   0.1971028   0.2136550  -0.4812836 SPIN=   0.00000
   O   0.2591129   0.4610377  -0.2536430 SPIN=   0.00000
   O  -0.2097821   0.5285946  -0.0486207 SPIN=   0.00000
   O  -0.2668763   0.1946026  -0.2806222 SPIN=   0.00000
   O   0.1522424   0.1650888   0.0113356 SPIN=   0.00000
   P   0.0003293   0.3418851  -0.1469647 SPIN=   0.00000
   O   0.2591129  -0.4610377   0.2463570 SPIN=   0.00000
   O  -0.2097821  -0.5285946   0.4513793 SPIN=   0.00000
   O  -0.2668763  -0.1946026   0.2193778 SPIN=   0.00000
   O   0.1522424  -0.1650888   0.5113356 SPIN=   0.00000
   P   0.0003293  -0.3418851   0.3530353 SPIN=   0.00000
  Fe  -0.3927460  -0.2853422  -0.3463570 SPIN=   4.00000
  Fe  -0.3927460   0.2853422   0.1536430 SPIN=   4.00000
%ENDBLOCK POSITIONS_FRAC

# Note: total spin =   8.00

KPOINTS_MP_SPACING 0.07

%BLOCK SPECIES_POT
QC5
%ENDBLOCK SPECIES_POT

%BLOCK HUBBARD_U
Fe d:4.0
%ENDBLOCK HUBBARD_U

SNAP_TO_SYMMETRY
SYMMETRY_GENERATE

