#              Generated by Buildcell
#
# at 08:35:32 (GMT+0.0) 24th November 2020
# in /lustre/scratch/uccabz1/launch_tmp
# on node-c12h-023
# by uccabz1
#
# compiler GCC version 4.9.2
# options -cpp -iprefix /lustre/shared/ucl/apps/gcc/4.9.2/bin/../lib/gcc/x86_64-unknown-linux-gnu/4.9.2/ -mtune=corei7 -march=x86-64 -g -Og
#
# seed  1934935655  1314782111   913693729    29581360  -862092320  -277882403 -1282331515   168539759   481730394  1446897737 -1237190473 -1891456168
#
#      Author: C. J. Pickard (cjp20@cam.ac.uk)
#                Space group: Cm
#

%BLOCK LATTICE_ABC
      3.88298      6.54063      6.54063
     85.91454     79.03747     79.03747
%ENDBLOCK LATTICE_ABC

%BLOCK POSITIONS_FRAC
  Li   0.0542287  -0.3634119   0.2983462 SPIN=   0.00000
  Li   0.0542287   0.2983462  -0.3634119 SPIN=   0.00000
   O  -0.0966196  -0.2741435   0.0087746 SPIN=   0.00000
   O   0.1339116  -0.6712611  -0.0339795 SPIN=   0.00000
   O  -0.4686003  -0.5560339   0.1695011 SPIN=   0.00000
   P  -0.1936881  -0.4864114  -0.0192249 SPIN=   0.00000
   O  -0.0966196   0.0087746  -0.2741435 SPIN=   0.00000
   O   0.1339116  -0.0339795  -0.6712611 SPIN=   0.00000
   O  -0.4686003   0.1695011  -0.5560339 SPIN=   0.00000
   P  -0.1936881  -0.0192249  -0.4864114 SPIN=   0.00000
   O   0.3495606  -0.0477308  -0.0477308 SPIN=   0.00000
   O  -0.1107093  -0.3737556  -0.3737556 SPIN=   0.00000
  Fe  -0.3646074   0.1107908   0.1107908 SPIN=   0.65267
  Fe   0.3184805  -0.2710660  -0.2710660 SPIN=   7.34733
%ENDBLOCK POSITIONS_FRAC

# Note: total spin =   8.00

KPOINTS_MP_SPACING 0.07

%BLOCK SPECIES_POT
QC5
%ENDBLOCK SPECIES_POT

%BLOCK HUBBARD_U
Fe d:4.0
%ENDBLOCK HUBBARD_U

SNAP_TO_SYMMETRY
SYMMETRY_GENERATE

