#              Generated by Buildcell
#
# at 12:31:35 (GMT+0.0) 26th November 2020
# in /lustre/scratch/uccabz1/launch_tmp
# on node-c12e-030
# by uccabz1
#
# compiler GCC version 4.9.2
# options -cpp -iprefix /lustre/shared/ucl/apps/gcc/4.9.2/bin/../lib/gcc/x86_64-unknown-linux-gnu/4.9.2/ -mtune=corei7 -march=x86-64 -g -Og
#
# seed -1533287015   896696963   156338515  -205257385   -69583253  1132596644   727678184  -550207111   822680274  1816212178  1060558514   704794508
#
#      Author: C. J. Pickard (cjp20@cam.ac.uk)
#                Space group: Pc
#

%BLOCK LATTICE_ABC
      4.39226      8.41379      8.68103
     94.07877     90.00000     90.00000
%ENDBLOCK LATTICE_ABC

%BLOCK POSITIONS_FRAC
  Li  -0.3498623   0.2954597  -0.4680989 SPIN=   0.00000
  Li   0.3498623   0.2954597   0.0319011 SPIN=   0.00000
  Li  -0.1518298   0.1662994  -0.1750986 SPIN=   0.00000
  Li   0.1518298   0.1662994   0.3249014 SPIN=   0.00000
   O  -0.3342352  -0.2124641   0.2722858 SPIN=   0.00000
   O   0.1848644  -0.1507593   0.4070338 SPIN=   0.00000
   O  -0.2159976   0.0555265   0.4281155 SPIN=   0.00000
   O  -0.2762184  -0.1920970   0.5691188 SPIN=   0.00000
   P  -0.1710195  -0.1304007   0.4130892 SPIN=   0.00000
   O   0.3342352  -0.2124641  -0.2277142 SPIN=   0.00000
   O  -0.1848644  -0.1507593  -0.0929662 SPIN=   0.00000
   O   0.2159976   0.0555265  -0.0718845 SPIN=   0.00000
   O   0.2762184  -0.1920970   0.0691188 SPIN=   0.00000
   P   0.1710195  -0.1304007  -0.0869108 SPIN=   0.00000
   O  -0.4744223   0.5291082   0.0528255 SPIN=   0.00000
   O   0.0429010   0.5840296   0.1916651 SPIN=   0.00000
   O  -0.1394718   0.3060741   0.1572673 SPIN=   0.00000
   O   0.0387986   0.4438920  -0.0726831 SPIN=   0.00000
   P  -0.1491971   0.4688899   0.0788724 SPIN=   0.00000
   O   0.4744223   0.5291082  -0.4471745 SPIN=   0.00000
   O  -0.0429010   0.5840296  -0.3083349 SPIN=   0.00000
   O   0.1394718   0.3060741  -0.3427327 SPIN=   0.00000
   O  -0.0387986   0.4438920  -0.5726831 SPIN=   0.00000
   P   0.1491971   0.4688899  -0.4211276 SPIN=   0.00000
  Fe   0.3408866  -0.0399351  -0.3858664 SPIN=   4.15703
  Fe  -0.3408866  -0.0399351   0.1141336 SPIN=   4.15703
  Fe  -0.4441662  -0.4215826  -0.1825444 SPIN=   3.84297
  Fe   0.4441662  -0.4215826   0.3174556 SPIN=   3.84297
%ENDBLOCK POSITIONS_FRAC

# Note: total spin =  16.00

KPOINTS_MP_SPACING 0.07

%BLOCK SPECIES_POT
QC5
%ENDBLOCK SPECIES_POT

%BLOCK HUBBARD_U
Fe d:4.0
%ENDBLOCK HUBBARD_U

SNAP_TO_SYMMETRY
SYMMETRY_GENERATE

