#              Generated by Buildcell
#
# at 11:15:21 (GMT+0.0) 24th November 2020
# in /scratch/scratch/uccabz1/launch_tmp
# on node-a14f-014
# by uccabz1
#
# compiler GCC version 4.9.2
# options -cpp -iprefix /scratch/UCL/applications/gcc/4.9.2/bin/../lib/gcc/x86_64-unknown-linux-gnu/4.9.2/ -mtune=corei7 -march=x86-64 -g -O2
#
# seed  1086989862  1577771435   774571936    85139822 -1487591025  1201679301   477074187   436771210   601192831   -62739909 -1466550081  2140039201
#
#      Author: C. J. Pickard (cjp20@cam.ac.uk)
#                Space group: C2
#

%BLOCK LATTICE_ABC
      4.76387      5.00262      7.68485
     95.75761     90.00000    118.43341
%ENDBLOCK LATTICE_ABC

%BLOCK POSITIONS_FRAC
  Li  -0.1527980  -0.3974956   0.2791471 SPIN=   0.00000
  Li   0.2446976   0.3974956  -0.2791471 SPIN=   0.00000
   O  -0.1863739  -0.0495795  -0.3011560 SPIN=   0.00000
   O  -0.1337424  -0.5096661  -0.4541920 SPIN=   0.00000
   O   0.2628318  -0.1742642  -0.2159782 SPIN=   0.00000
   O  -0.3004419  -0.5219706  -0.1447603 SPIN=   0.00000
   P  -0.0970835  -0.3022538  -0.2786158 SPIN=   0.00000
   O  -0.1367944   0.0495795   0.3011560 SPIN=   0.00000
   O   0.3759237   0.5096661   0.4541920 SPIN=   0.00000
   O   0.4370960   0.1742642   0.2159782 SPIN=   0.00000
   O   0.2215287   0.5219706   0.1447603 SPIN=   0.00000
   P   0.2051703   0.3022538   0.2786158 SPIN=   0.00000
  Fe  -0.4545999  -0.0000000  -0.5000000 SPIN=   4.86662
  Fe  -0.2801479   0.0000000  -0.0000000 SPIN=   3.13338
%ENDBLOCK POSITIONS_FRAC

# Note: total spin =   8.00

KPOINTS_MP_SPACING 0.07

%BLOCK SPECIES_POT
QC5
%ENDBLOCK SPECIES_POT

%BLOCK HUBBARD_U
Fe d:4.0
%ENDBLOCK HUBBARD_U

SNAP_TO_SYMMETRY
SYMMETRY_GENERATE

