#              Generated by Buildcell
#
# at 22:03:23 (GMT+0.0) 26th November 2020
# in /lustre/scratch/uccabz1/launch_tmp
# on node-c12e-029
# by uccabz1
#
# compiler GCC version 4.9.2
# options -cpp -iprefix /lustre/shared/ucl/apps/gcc/4.9.2/bin/../lib/gcc/x86_64-unknown-linux-gnu/4.9.2/ -mtune=corei7 -march=x86-64 -g -Og
#
# seed  -284653240  1005222387  -413358340  -134228734  -703996026 -1586414941    23384573 -1483709769  -466465470   318180672  1431793215  -964609377
#
#      Author: C. J. Pickard (cjp20@cam.ac.uk)
#                Space group: Pc
#

%BLOCK LATTICE_ABC
      6.00099      6.43559      8.39531
     90.00000     90.00000     99.26089
%ENDBLOCK LATTICE_ABC

%BLOCK POSITIONS_FRAC
  Li  -0.4526628  -0.0773591   0.4579704 SPIN=   0.00000
  Li   0.0473372  -0.0773591  -0.4579704 SPIN=   0.00000
  Li   0.0111960   0.4303200   0.0313566 SPIN=   0.00000
  Li  -0.4888040   0.4303200  -0.0313566 SPIN=   0.00000
   O   0.2484530   0.0282784  -0.0754674 SPIN=   0.00000
   O  -0.0525142  -0.2456937  -0.2166133 SPIN=   0.00000
   O   0.3269930  -0.1632716  -0.3370085 SPIN=   0.00000
   O   0.2757966  -0.3680769  -0.0823562 SPIN=   0.00000
   P   0.2031771  -0.1778530  -0.1712823 SPIN=   0.00000
   O  -0.2515470   0.0282784   0.0754674 SPIN=   0.00000
   O  -0.5525142  -0.2456937   0.2166133 SPIN=   0.00000
   O  -0.1730070  -0.1632716   0.3370085 SPIN=   0.00000
   O  -0.2242034  -0.3680769   0.0823562 SPIN=   0.00000
   P  -0.2968229  -0.1778530   0.1712823 SPIN=   0.00000
   O   0.2251244   0.5267585   0.4160856 SPIN=   0.00000
   O   0.2839730   0.1355645   0.4124095 SPIN=   0.00000
   O  -0.0750685   0.2226843   0.3088881 SPIN=   0.00000
   O   0.2818233   0.3306551   0.1544477 SPIN=   0.00000
   P   0.1826348   0.3160964   0.3259277 SPIN=   0.00000
   O  -0.2748756   0.5267585  -0.4160856 SPIN=   0.00000
   O  -0.2160270   0.1355645  -0.4124095 SPIN=   0.00000
   O  -0.5750685   0.2226843  -0.3088881 SPIN=   0.00000
   O  -0.2181767   0.3306551  -0.1544477 SPIN=   0.00000
   P  -0.3173652   0.3160964  -0.3259277 SPIN=   0.00000
  Fe  -0.3137467  -0.0735103  -0.1603738 SPIN=   4.94283
  Fe   0.1862533  -0.0735103   0.1603738 SPIN=   4.94283
  Fe  -0.3226728   0.4347346   0.3447455 SPIN=   3.05717
  Fe   0.1773272   0.4347346  -0.3447455 SPIN=   3.05717
%ENDBLOCK POSITIONS_FRAC

# Note: total spin =  16.00

KPOINTS_MP_SPACING 0.07

%BLOCK SPECIES_POT
QC5
%ENDBLOCK SPECIES_POT

%BLOCK HUBBARD_U
Fe d:4.0
%ENDBLOCK HUBBARD_U

SNAP_TO_SYMMETRY
SYMMETRY_GENERATE

