#              Generated by Buildcell
#
# at 20:02:10 (GMT+0.0) 26th November 2020
# in /lustre/scratch/uccabz1/launch_tmp
# on node-c12i-025
# by uccabz1
#
# compiler GCC version 4.9.2
# options -cpp -iprefix /lustre/shared/ucl/apps/gcc/4.9.2/bin/../lib/gcc/x86_64-unknown-linux-gnu/4.9.2/ -mtune=corei7 -march=x86-64 -g -Og
#
# seed -1312161838 -2039594953 -1727928811   496628580 -1200317562  -490769301  1391758284   211796607  1494855836  1724631813  1372702736  -255696407
#
#      Author: C. J. Pickard (cjp20@cam.ac.uk)
#                Space group: Cc
#

%BLOCK LATTICE_ABC
      5.80730      7.44408      8.73333
    114.34916    108.34102     92.39457
%ENDBLOCK LATTICE_ABC

%BLOCK POSITIONS_FRAC
  Li   0.0103987   0.0742287   0.4078952 SPIN=   0.00000
  Li  -0.3974965   0.1663334  -0.4078952 SPIN=   0.00000
  Li  -0.0966399  -0.1924995  -0.4268874 SPIN=   0.00000
  Li   0.3302474  -0.2656121   0.4268874 SPIN=   0.00000
   O  -0.3910032  -0.3711569  -0.4295341 SPIN=   0.00000
   O  -0.6898144  -0.6476888  -0.4379784 SPIN=   0.00000
   O  -0.2663552  -0.5310792  -0.2086336 SPIN=   0.00000
   O  -0.5707020  -0.3020658  -0.1795800 SPIN=   0.00000
   P  -0.4758351  -0.4562085  -0.3185013 SPIN=   0.00000
   O   0.0385309   0.5583771   0.4295341 SPIN=   0.00000
   O  -0.2518360   0.2902896   0.4379784 SPIN=   0.00000
   O  -0.0577216   0.1775544   0.2086336 SPIN=   0.00000
   O  -0.3911220   0.3775141   0.1795800 SPIN=   0.00000
   P  -0.1573337   0.3622928   0.3185013 SPIN=   0.00000
   O   0.2528268  -0.3299092   0.0631087 SPIN=   0.00000
   O   0.5196639  -0.0068160   0.1143969 SPIN=   0.00000
   O   0.3221114   0.0195004   0.3333309 SPIN=   0.00000
   O   0.6758524  -0.1607656   0.3243731 SPIN=   0.00000
   P   0.4352609  -0.1311880   0.2024088 SPIN=   0.00000
   O   0.1897181   0.1069820  -0.0631087 SPIN=   0.00000
   O   0.4052670   0.3787872  -0.1143969 SPIN=   0.00000
   O  -0.0112195   0.1861695  -0.3333309 SPIN=   0.00000
   O   0.3514793   0.0148613  -0.3243731 SPIN=   0.00000
   P   0.2328521   0.1664033  -0.2024088 SPIN=   0.00000
  Fe  -0.2361378  -0.4056796   0.1199493 SPIN=   3.89204
  Fe  -0.3560872  -0.0256289  -0.1199493 SPIN=   3.89204
  Fe   0.0993596  -0.4735944  -0.2202363 SPIN=   4.10796
  Fe   0.3195959   0.2466419   0.2202363 SPIN=   4.10796
%ENDBLOCK POSITIONS_FRAC

# Note: total spin =  16.00

KPOINTS_MP_SPACING 0.07

%BLOCK SPECIES_POT
QC5
%ENDBLOCK SPECIES_POT

%BLOCK HUBBARD_U
Fe d:4.0
%ENDBLOCK HUBBARD_U

SNAP_TO_SYMMETRY
SYMMETRY_GENERATE

