#              Generated by Buildcell
#
# at 11:55:26 (GMT+0.0) 24th November 2020
# in /lustre/scratch/uccabz1/launch_tmp
# on node-c12e-031
# by uccabz1
#
# compiler GCC version 4.9.2
# options -cpp -iprefix /lustre/shared/ucl/apps/gcc/4.9.2/bin/../lib/gcc/x86_64-unknown-linux-gnu/4.9.2/ -mtune=corei7 -march=x86-64 -g -Og
#
# seed -2014408533  -203217176 -1279104851  1302306786   429030721 -2061366403 -1807046549 -1413480146 -1360396610  1048574013 -1342337754  -479662485
#
#      Author: C. J. Pickard (cjp20@cam.ac.uk)
#                Space group: Cm
#

%BLOCK LATTICE_ABC
      4.57193      6.37019      6.37019
    113.04595    101.09154    101.09154
%ENDBLOCK LATTICE_ABC

%BLOCK POSITIONS_FRAC
  Li   0.0486792  -0.2730820  -0.2730820 SPIN=   0.00000
  Li  -0.4240879   0.3043316   0.3043316 SPIN=   0.00000
   O   0.3584837  -0.4045245   0.3624610 SPIN=   0.00000
   O   0.5836140   0.0056792   0.3691869 SPIN=   0.00000
   O   0.2861943  -0.0095073   0.6508168 SPIN=   0.00000
   P   0.5065312  -0.1340053   0.5174985 SPIN=   0.00000
   O   0.3584837   0.3624610  -0.4045245 SPIN=   0.00000
   O   0.5836140   0.3691869   0.0056792 SPIN=   0.00000
   O   0.2861943   0.6508168  -0.0095073 SPIN=   0.00000
   P   0.5065312   0.5174985  -0.1340053 SPIN=   0.00000
   O   0.1686769   0.0450496   0.0450496 SPIN=   0.00000
   O  -0.3648107  -0.2058470  -0.2058470 SPIN=   0.00000
  Fe  -0.0388718  -0.0913660   0.2669458 SPIN=   4.00000
  Fe  -0.0388718   0.2669458  -0.0913660 SPIN=   4.00000
%ENDBLOCK POSITIONS_FRAC

# Note: total spin =   8.00

KPOINTS_MP_SPACING 0.07

%BLOCK SPECIES_POT
QC5
%ENDBLOCK SPECIES_POT

%BLOCK HUBBARD_U
Fe d:4.0
%ENDBLOCK HUBBARD_U

SNAP_TO_SYMMETRY
SYMMETRY_GENERATE

