#              Generated by Buildcell
#
# at 07:33:51 (GMT+0.0) 24th November 2020
# in /scratch/scratch/uccabz1/launch_tmp
# on node-a14a-009
# by uccabz1
#
# compiler GCC version 4.9.2
# options -cpp -iprefix /scratch/UCL/applications/gcc/4.9.2/bin/../lib/gcc/x86_64-unknown-linux-gnu/4.9.2/ -mtune=corei7 -march=x86-64 -g -O2
#
# seed  -641134457  1476294224  1175475307 -2020432741 -2034757601   -76991312  -893582127 -1745982558 -1362704344  1536401645  1772232227  -230315272
#
#      Author: C. J. Pickard (cjp20@cam.ac.uk)
#                Space group: P-1
#

%BLOCK LATTICE_ABC
      3.89004      4.65483      9.15356
     76.09293     86.72476     84.30428
%ENDBLOCK LATTICE_ABC

%BLOCK POSITIONS_FRAC
  Li   0.0000000   1.0000000  -0.5000000 SPIN=   0.00000
  Li   0.0000000   0.5000000  -0.0000000 SPIN=   0.00000
   O   0.3844490  -0.7073673   0.4173314 SPIN=   0.00000
   O  -0.0551457  -0.2444352   0.3386019 SPIN=   0.00000
   O   0.3664312  -0.3698615   0.1463631 SPIN=   0.00000
   O  -0.1140275  -0.6946134   0.2405553 SPIN=   0.00000
   P   0.1550916  -0.5171426   0.2921880 SPIN=   0.00000
   O  -0.3844490   0.7073673  -0.4173314 SPIN=   0.00000
   O   0.0551457   0.2444352  -0.3386019 SPIN=   0.00000
   O  -0.3664312   0.3698615  -0.1463631 SPIN=   0.00000
   O   0.1140275   0.6946134  -0.2405553 SPIN=   0.00000
   P  -0.1550916   0.5171426  -0.2921880 SPIN=   0.00000
  Fe   0.4608211   0.0078032  -0.2100757 SPIN=   4.00000
  Fe  -0.4608211  -0.0078032   0.2100757 SPIN=   4.00000
%ENDBLOCK POSITIONS_FRAC

# Note: total spin =   8.00

KPOINTS_MP_SPACING 0.07

%BLOCK SPECIES_POT
QC5
%ENDBLOCK SPECIES_POT

%BLOCK HUBBARD_U
Fe d:4.0
%ENDBLOCK HUBBARD_U

SNAP_TO_SYMMETRY
SYMMETRY_GENERATE

