#              Generated by Buildcell
#
# at 11:27:36 (GMT+0.0) 26th November 2020
# in /lustre/scratch/uccabz1/launch_tmp
# on node-c12e-023
# by uccabz1
#
# compiler GCC version 4.9.2
# options -cpp -iprefix /lustre/shared/ucl/apps/gcc/4.9.2/bin/../lib/gcc/x86_64-unknown-linux-gnu/4.9.2/ -mtune=corei7 -march=x86-64 -g -Og
#
# seed  1567461881  1554226780   661581585  -632544163 -2135041148 -1634988105  -963228845   364207477  -804617839  -724379630  1967428548  -781647084
#
#      Author: C. J. Pickard (cjp20@cam.ac.uk)
#                Space group: Cm
#

%BLOCK LATTICE_ABC
      7.08133      7.08133      7.55432
     66.96261     66.96261     84.64534
%ENDBLOCK LATTICE_ABC

%BLOCK POSITIONS_FRAC
  Li  -0.0712197  -0.0712197   0.1779620 SPIN=   0.00000
  Li   0.2962878   0.2962878  -0.4700883 SPIN=   0.00000
  Li   0.3648672   0.3648672  -0.1290550 SPIN=   0.00000
  Li  -0.0400880  -0.0400880  -0.2791290 SPIN=   0.00000
   O  -0.1868591   0.1214591  -0.0442018 SPIN=   0.00000
   O  -0.5856502   0.1171009   0.1139692 SPIN=   0.00000
   O  -0.4108933   0.1906543  -0.2626081 SPIN=   0.00000
   O  -0.4204088  -0.1652404  -0.0023200 SPIN=   0.00000
   P  -0.3897830   0.0662179  -0.0479974 SPIN=   0.00000
   O   0.1214591  -0.1868591  -0.0442018 SPIN=   0.00000
   O   0.1171009  -0.5856502   0.1139692 SPIN=   0.00000
   O   0.1906543  -0.4108933  -0.2626081 SPIN=   0.00000
   O  -0.1652404  -0.4204088  -0.0023200 SPIN=   0.00000
   P   0.0662179  -0.3897830  -0.0479974 SPIN=   0.00000
   O  -0.3717610   0.2546061   0.2292996 SPIN=   0.00000
   O  -0.6554047  -0.0089625   0.5507691 SPIN=   0.00000
   O  -0.3917775  -0.1342167   0.2999044 SPIN=   0.00000
   O  -0.2933714  -0.0240998   0.5313272 SPIN=   0.00000
   O   0.2546061  -0.3717610   0.2292996 SPIN=   0.00000
   O  -0.0089625  -0.6554047   0.5507691 SPIN=   0.00000
   O  -0.1342167  -0.3917775   0.2999044 SPIN=   0.00000
   O  -0.0240998  -0.2933714   0.5313272 SPIN=   0.00000
   P  -0.4938751  -0.4938751   0.1228645 SPIN=   0.00000
   P  -0.3642999  -0.3642999  -0.4894303 SPIN=   0.00000
  Fe   0.4401446  -0.1528728  -0.2033554 SPIN=   4.47362
  Fe  -0.1528728   0.4401446  -0.2033554 SPIN=   4.47362
  Fe   0.2998335  -0.1716742   0.3541854 SPIN=   3.52638
  Fe  -0.1716742   0.2998335   0.3541854 SPIN=   3.52638
%ENDBLOCK POSITIONS_FRAC

# Note: total spin =  16.00

KPOINTS_MP_SPACING 0.07

%BLOCK SPECIES_POT
QC5
%ENDBLOCK SPECIES_POT

%BLOCK HUBBARD_U
Fe d:4.0
%ENDBLOCK HUBBARD_U

SNAP_TO_SYMMETRY
SYMMETRY_GENERATE

