#              Generated by Buildcell
#
# at 08:42:31 (GMT+0.0) 24th November 2020
# in /scratch/scratch/uccabz1/launch_tmp
# on node-a14b-007
# by uccabz1
#
# compiler GCC version 4.9.2
# options -cpp -iprefix /scratch/UCL/applications/gcc/4.9.2/bin/../lib/gcc/x86_64-unknown-linux-gnu/4.9.2/ -mtune=corei7 -march=x86-64 -g -O2
#
# seed  1138776425 -1119513367  1910749237  1669142807 -1320834824 -2069742087  1791426829  1327106365  -828385473 -1093385767  -154582722  1241763792
#
#      Author: C. J. Pickard (cjp20@cam.ac.uk)
#                Space group: Fdd2
#

%BLOCK LATTICE_ABC
      5.33548      5.33548      6.74092
    112.60449    112.60449     91.64856
%ENDBLOCK LATTICE_ABC

%BLOCK POSITIONS_FRAC
  Li  -0.4629878   0.0370122   0.0740243 SPIN=   0.00000
  Li   0.2870122   0.2870122  -0.4259757 SPIN=   0.00000
   O   0.2095282  -0.3141627  -0.2733749 SPIN=   0.00000
   O  -0.1930623  -0.5404165  -0.6988262 SPIN=   0.00000
   O  -0.4829031   0.0407878  -0.2733749 SPIN=   0.00000
   O  -0.5057639  -0.1584097  -0.6988262 SPIN=   0.00000
   O  -0.0641627  -0.0404718   0.2266251 SPIN=   0.00000
   O  -0.2904165  -0.4430623  -0.1988262 SPIN=   0.00000
   O   0.2907878   0.2670969   0.2266251 SPIN=   0.00000
   O   0.0915903   0.2442361  -0.1988262 SPIN=   0.00000
   P  -0.4749247  -0.4749247   0.0501506 SPIN=   0.00000
   P  -0.2249247   0.2750753  -0.4498494 SPIN=   0.00000
  Fe  -0.1350896  -0.1350896  -0.2701792 SPIN=   4.00000
  Fe   0.1149104  -0.3850896   0.2298208 SPIN=   4.00000
%ENDBLOCK POSITIONS_FRAC

# Note: total spin =   8.00

KPOINTS_MP_SPACING 0.07

%BLOCK SPECIES_POT
QC5
%ENDBLOCK SPECIES_POT

%BLOCK HUBBARD_U
Fe d:4.0
%ENDBLOCK HUBBARD_U

SNAP_TO_SYMMETRY
SYMMETRY_GENERATE

