#              Generated by Buildcell
#
# at 10:25:26 (GMT+0.0) 26th November 2020
# in /lustre/scratch/uccabz1/launch_tmp
# on node-c12e-026
# by uccabz1
#
# compiler GCC version 4.9.2
# options -cpp -iprefix /lustre/shared/ucl/apps/gcc/4.9.2/bin/../lib/gcc/x86_64-unknown-linux-gnu/4.9.2/ -mtune=corei7 -march=x86-64 -g -Og
#
# seed  2076218855 -1574971856  1371451067 -2019970835  1750634728  1136320626  1557494171  1505007745  1687800016   642548632 -1605563277 -1442482595
#
#      Author: C. J. Pickard (cjp20@cam.ac.uk)
#                Space group: Cc
#

%BLOCK LATTICE_ABC
      7.04729      7.67310      7.80633
     63.96372     63.16754     62.66320
%ENDBLOCK LATTICE_ABC

%BLOCK POSITIONS_FRAC
  Li  -0.1396965  -0.4083687   0.3300260 SPIN=   0.00000
  Li   0.2180392   0.0916313  -0.1699740 SPIN=   0.00000
  Li   0.2064921  -0.4807646  -0.2069731 SPIN=   0.00000
  Li   0.4812456   0.0192354   0.2930269 SPIN=   0.00000
   O  -0.1511407   0.4721087   0.0017397 SPIN=   0.00000
   O  -0.0579652   0.0785330   0.1696297 SPIN=   0.00000
   O   0.2534303   0.2224578  -0.0031054 SPIN=   0.00000
   O  -0.0285498   0.2900294   0.3205305 SPIN=   0.00000
   P  -0.0046973   0.2770542   0.1181253 SPIN=   0.00000
   O  -0.3227076  -0.0278913  -0.4982603 SPIN=   0.00000
   O  -0.1901975  -0.4214670  -0.3303703 SPIN=   0.00000
   O  -0.4727827  -0.2775422  -0.5031054 SPIN=   0.00000
   O  -0.5820100  -0.2099706  -0.1794695 SPIN=   0.00000
   P  -0.3904822  -0.2229458  -0.3818747 SPIN=   0.00000
   O   0.2003618   0.0718990  -0.4533329 SPIN=   0.00000
   O  -0.0040593  -0.1912030  -0.3253138 SPIN=   0.00000
   O  -0.0200063  -0.0614987  -0.0784912 SPIN=   0.00000
   O  -0.2328285   0.1729082  -0.3248177 SPIN=   0.00000
   P  -0.0052931   0.0040235  -0.3042394 SPIN=   0.00000
   O   0.1810721   0.5718990   0.0466671 SPIN=   0.00000
   O   0.5205761   0.3087970   0.1746862 SPIN=   0.00000
   O   0.1599962   0.4385013   0.4215088 SPIN=   0.00000
   O   0.3847379   0.6729082   0.1751823 SPIN=   0.00000
   P   0.3055090   0.5040235   0.1957606 SPIN=   0.00000
  Fe  -0.3106337   0.3316602  -0.1299539 SPIN=   3.46998
  Fe   0.1089274  -0.1683398   0.3700461 SPIN=   3.46998
  Fe  -0.3217535  -0.2031698  -0.0557012 SPIN=   4.53002
  Fe  -0.4193755   0.2968302   0.4442988 SPIN=   4.53002
%ENDBLOCK POSITIONS_FRAC

# Note: total spin =  16.00

KPOINTS_MP_SPACING 0.07

%BLOCK SPECIES_POT
QC5
%ENDBLOCK SPECIES_POT

%BLOCK HUBBARD_U
Fe d:4.0
%ENDBLOCK HUBBARD_U

SNAP_TO_SYMMETRY
SYMMETRY_GENERATE

