#              Generated by Buildcell
#
# at 12:44:13 (GMT+0.0) 24th November 2020
# in /lustre/scratch/uccabz1/launch_tmp
# on node-c12b-025
# by uccabz1
#
# compiler GCC version 4.9.2
# options -cpp -iprefix /lustre/shared/ucl/apps/gcc/4.9.2/bin/../lib/gcc/x86_64-unknown-linux-gnu/4.9.2/ -mtune=corei7 -march=x86-64 -g -Og
#
# seed   782944252  -627581377   618253690  1947251156   463896382  -203661175  1859363508  -525812188  2031700228   222831848  1136856141  2016810519
#
#      Author: C. J. Pickard (cjp20@cam.ac.uk)
#                Space group: P21
#

%BLOCK LATTICE_ABC
      5.16281      5.81883      5.92923
    116.07019     90.00000     90.00000
%ENDBLOCK LATTICE_ABC

%BLOCK POSITIONS_FRAC
  Li  -0.1017075  -0.3866821  -0.3599760 SPIN=   0.00000
  Li   0.3982925   0.3866821   0.3599760 SPIN=   0.00000
   O   0.1277676   0.3834862  -0.2454094 SPIN=   0.00000
   O  -0.0999311   0.2271282   0.0527968 SPIN=   0.00000
   O  -0.3723115   0.3562143  -0.2145421 SPIN=   0.00000
   O  -0.1139801  -0.0485410  -0.4113464 SPIN=   0.00000
   P  -0.1017007   0.2344851  -0.2092363 SPIN=   0.00000
   O   0.6277676  -0.3834862   0.2454094 SPIN=   0.00000
   O   0.4000689  -0.2271282  -0.0527968 SPIN=   0.00000
   O   0.1276885  -0.3562143   0.2145421 SPIN=   0.00000
   O   0.3860199   0.0485410   0.4113464 SPIN=   0.00000
   P   0.3982993  -0.2344851   0.2092363 SPIN=   0.00000
  Fe   0.3982969   0.0040472  -0.2496145 SPIN=   4.00000
  Fe  -0.1017031  -0.0040472   0.2496145 SPIN=   4.00000
%ENDBLOCK POSITIONS_FRAC

# Note: total spin =   8.00

KPOINTS_MP_SPACING 0.07

%BLOCK SPECIES_POT
QC5
%ENDBLOCK SPECIES_POT

%BLOCK HUBBARD_U
Fe d:4.0
%ENDBLOCK HUBBARD_U

SNAP_TO_SYMMETRY
SYMMETRY_GENERATE

