#              Generated by Buildcell
#
# at 00:20:54 (GMT+0.0) 27th November 2020
# in /lustre/scratch/uccabz1/launch_tmp
# on node-c12n-030
# by uccabz1
#
# compiler GCC version 4.9.2
# options -cpp -iprefix /lustre/shared/ucl/apps/gcc/4.9.2/bin/../lib/gcc/x86_64-unknown-linux-gnu/4.9.2/ -mtune=corei7 -march=x86-64 -g -Og
#
# seed   -46716834 -1219356500  2029176272   350209869  1373190747   912650279  -384616947  -524879352 -1399159831    82733947  2141330229  1271723377
#
#      Author: C. J. Pickard (cjp20@cam.ac.uk)
#                Space group: Pca21
#

%BLOCK LATTICE_ABC
      6.09604      6.84652      7.66712
     90.00000     90.00000     90.00000
%ENDBLOCK LATTICE_ABC

%BLOCK POSITIONS_FRAC
  Li  -0.3979618  -0.2106127  -0.3984469 SPIN=   0.00000
  Li   0.3979618   0.2106127   0.1015531 SPIN=   0.00000
  Li   0.3979618   0.2893873  -0.3984469 SPIN=   0.00000
  Li  -0.3979618  -0.2893873   0.1015531 SPIN=   0.00000
   O   0.1572169  -0.1031912  -0.3432805 SPIN=   0.00000
   O   0.3395763  -0.1636792  -0.0418092 SPIN=   0.00000
   O   0.5257384   0.0562062  -0.2499432 SPIN=   0.00000
   O   0.1773132   0.1644830  -0.1064231 SPIN=   0.00000
   P   0.2909134  -0.0143477  -0.1928407 SPIN=   0.00000
   O  -0.1572169   0.1031912   0.1567195 SPIN=   0.00000
   O  -0.3395763   0.1636792   0.4581908 SPIN=   0.00000
   O  -0.5257384  -0.0562062   0.2500568 SPIN=   0.00000
   O  -0.1773132  -0.1644830   0.3935769 SPIN=   0.00000
   P  -0.2909134   0.0143477   0.3071593 SPIN=   0.00000
   O  -0.1572169   0.3968088  -0.3432805 SPIN=   0.00000
   O  -0.3395763   0.3363208  -0.0418092 SPIN=   0.00000
   O  -0.5257384   0.5562062  -0.2499432 SPIN=   0.00000
   O  -0.1773132   0.6644830  -0.1064231 SPIN=   0.00000
   P  -0.2909134   0.4856523  -0.1928407 SPIN=   0.00000
   O   0.1572169  -0.3968088   0.1567195 SPIN=   0.00000
   O   0.3395763  -0.3363208   0.4581908 SPIN=   0.00000
   O   0.5257384  -0.5562062   0.2500568 SPIN=   0.00000
   O   0.1773132  -0.6644830   0.3935769 SPIN=   0.00000
   P   0.2909134  -0.4856523   0.3071593 SPIN=   0.00000
  Fe   0.1565865  -0.0908080   0.3791692 SPIN=   4.00000
  Fe  -0.1565865   0.0908080  -0.1208308 SPIN=   4.00000
  Fe  -0.1565865   0.4091920   0.3791692 SPIN=   4.00000
  Fe   0.1565865  -0.4091920  -0.1208308 SPIN=   4.00000
%ENDBLOCK POSITIONS_FRAC

# Note: total spin =  16.00

KPOINTS_MP_SPACING 0.07

%BLOCK SPECIES_POT
QC5
%ENDBLOCK SPECIES_POT

%BLOCK HUBBARD_U
Fe d:4.0
%ENDBLOCK HUBBARD_U

SNAP_TO_SYMMETRY
SYMMETRY_GENERATE

