#              Generated by Buildcell
#
# at 14:23:35 (GMT+0.0) 24th November 2020
# in /lustre/scratch/uccabz1/launch_tmp
# on node-c12d-032
# by uccabz1
#
# compiler GCC version 4.9.2
# options -cpp -iprefix /lustre/shared/ucl/apps/gcc/4.9.2/bin/../lib/gcc/x86_64-unknown-linux-gnu/4.9.2/ -mtune=corei7 -march=x86-64 -g -Og
#
# seed  1154114782   205765055 -1067851994  1216288261   770340855  1145864848  1684361087  -670724757 -2011273817   783064777 -1082582156 -1886655652
#
#      Author: C. J. Pickard (cjp20@cam.ac.uk)
#                Space group: C2
#

%BLOCK LATTICE_ABC
      4.47150      4.47150      8.37990
     90.02132     90.02132    107.26594
%ENDBLOCK LATTICE_ABC

%BLOCK POSITIONS_FRAC
  Li   0.0693536  -0.0693536  -0.5000000 SPIN=   0.00000
  Li   0.0708269  -0.0708269  -0.0000000 SPIN=   0.00000
   O   0.0076935  -0.0680748  -0.2495398 SPIN=   0.00000
   O  -0.4290609   0.1996005  -0.2089673 SPIN=   0.00000
   O   0.0937654   0.4537842  -0.0942965 SPIN=   0.00000
   O   0.0202498   0.4489416  -0.3906704 SPIN=   0.00000
   O   0.0680748  -0.0076935   0.2495398 SPIN=   0.00000
   O  -0.1996005   0.4290609   0.2089673 SPIN=   0.00000
   O  -0.4537842  -0.0937654   0.0942965 SPIN=   0.00000
   O  -0.4489416  -0.0202498   0.3906704 SPIN=   0.00000
   P  -0.3025799   0.3025799  -0.0000000 SPIN=   0.00000
   P  -0.3051248   0.3051248  -0.5000000 SPIN=   0.00000
  Fe   0.3692836  -0.4827083   0.2498553 SPIN=   4.00000
  Fe   0.4827083  -0.3692836  -0.2498553 SPIN=   4.00000
%ENDBLOCK POSITIONS_FRAC

# Note: total spin =   8.00

KPOINTS_MP_SPACING 0.07

%BLOCK SPECIES_POT
QC5
%ENDBLOCK SPECIES_POT

%BLOCK HUBBARD_U
Fe d:4.0
%ENDBLOCK HUBBARD_U

SNAP_TO_SYMMETRY
SYMMETRY_GENERATE

