#              Generated by Buildcell
#
# at 23:34:53 (GMT+0.0) 26th November 2020
# in /lustre/scratch/uccabz1/launch_tmp
# on node-c12g-023
# by uccabz1
#
# compiler GCC version 4.9.2
# options -cpp -iprefix /lustre/shared/ucl/apps/gcc/4.9.2/bin/../lib/gcc/x86_64-unknown-linux-gnu/4.9.2/ -mtune=corei7 -march=x86-64 -g -Og
#
# seed -1960260537 -1057852263 -1721671156   268968025   279462952  1907957587   112742650  1452367609  -144495116  1468920831  -332902960  1947089968
#
#      Author: C. J. Pickard (cjp20@cam.ac.uk)
#                Space group: Pc
#

%BLOCK LATTICE_ABC
      4.56070      5.83353     12.02840
     90.00000     90.00000     90.56017
%ENDBLOCK LATTICE_ABC

%BLOCK POSITIONS_FRAC
  Li  -0.2327373   0.4057461   0.4496754 SPIN=   0.00000
  Li   0.2672627  -0.0942539  -0.4496754 SPIN=   0.00000
  Li   0.2770913   0.4427180   0.0503265 SPIN=   0.00000
  Li  -0.2229087  -0.0572820  -0.0503265 SPIN=   0.00000
   O   0.0911970   0.3980239  -0.1099680 SPIN=   0.00000
   O   0.6055260   0.2207548  -0.1400415 SPIN=   0.00000
   O   0.2340499  -0.0047128  -0.0367326 SPIN=   0.00000
   O   0.1736454   0.0548432  -0.2416163 SPIN=   0.00000
   P   0.2650501   0.1781898  -0.1322043 SPIN=   0.00000
   O  -0.4088030  -0.1019761   0.1099680 SPIN=   0.00000
   O   0.1055260  -0.2792452   0.1400415 SPIN=   0.00000
   O  -0.2659501  -0.5047128   0.0367326 SPIN=   0.00000
   O  -0.3263546  -0.4451568   0.2416163 SPIN=   0.00000
   P  -0.2349499  -0.3218102   0.1322043 SPIN=   0.00000
   O  -0.3660489  -0.1651568  -0.2754423 SPIN=   0.00000
   O  -0.4419747  -0.5517307  -0.3792759 SPIN=   0.00000
   O  -0.3081051  -0.2087962  -0.4892505 SPIN=   0.00000
   O   0.0644857  -0.3851746  -0.3634017 SPIN=   0.00000
   P  -0.2645387  -0.3197373  -0.3712849 SPIN=   0.00000
   O   0.1339511   0.3348432   0.2754423 SPIN=   0.00000
   O   0.0580253  -0.0517307   0.3792759 SPIN=   0.00000
   O   0.1918949   0.2912038   0.4892505 SPIN=   0.00000
   O   0.5644857   0.1148254   0.3634017 SPIN=   0.00000
   P   0.2354613   0.1802627   0.3712849 SPIN=   0.00000
  Fe  -0.2287152   0.1750854  -0.3009677 SPIN=   1.81099
  Fe   0.2712848  -0.3249146   0.3009677 SPIN=   1.81099
  Fe   0.2725553  -0.3260415  -0.1993851 SPIN=   6.18901
  Fe  -0.2274447   0.1739585   0.1993851 SPIN=   6.18901
%ENDBLOCK POSITIONS_FRAC

# Note: total spin =  16.00

KPOINTS_MP_SPACING 0.07

%BLOCK SPECIES_POT
QC5
%ENDBLOCK SPECIES_POT

%BLOCK HUBBARD_U
Fe d:4.0
%ENDBLOCK HUBBARD_U

SNAP_TO_SYMMETRY
SYMMETRY_GENERATE

