#              Generated by Buildcell
#
# at 18:44:39 (GMT+0.0) 26th November 2020
# in /lustre/scratch/uccabz1/launch_tmp
# on node-c12p-029
# by uccabz1
#
# compiler GCC version 4.9.2
# options -cpp -iprefix /lustre/shared/ucl/apps/gcc/4.9.2/bin/../lib/gcc/x86_64-unknown-linux-gnu/4.9.2/ -mtune=corei7 -march=x86-64 -g -Og
#
# seed  -863766412  -490983085  2001310057  -522659956  -547579751   537109870   932164455 -1710790021   490584322   647296350 -1842057615 -1782955707
#
#      Author: C. J. Pickard (cjp20@cam.ac.uk)
#                Space group: P2
#

%BLOCK LATTICE_ABC
      5.09799      7.67756      8.17824
     91.41100     90.00000     90.00000
%ENDBLOCK LATTICE_ABC

%BLOCK POSITIONS_FRAC
  Li   0.1210514  -0.4646492  -0.3202645 SPIN=   0.00000
  Li   0.1210514   0.4646492   0.3202645 SPIN=   0.00000
  Li  -0.3903086   0.0393573  -0.1795174 SPIN=   0.00000
  Li  -0.3903086  -0.0393573   0.1795174 SPIN=   0.00000
   O   0.3944370  -0.2475549  -0.2467939 SPIN=   0.00000
   O  -0.0192038  -0.0756262  -0.1511640 SPIN=   0.00000
   O   0.2888433   0.0660550  -0.3393615 SPIN=   0.00000
   O   0.0110114  -0.1822536  -0.4424261 SPIN=   0.00000
   P   0.1789257  -0.1180318  -0.2941135 SPIN=   0.00000
   O   0.3944370   0.2475549   0.2467939 SPIN=   0.00000
   O  -0.0192038   0.0756262   0.1511640 SPIN=   0.00000
   O   0.2888433  -0.0660550   0.3393615 SPIN=   0.00000
   O   0.0110114   0.1822536   0.4424261 SPIN=   0.00000
   P   0.1789257   0.1180318   0.2941135 SPIN=   0.00000
   O  -0.1220380   0.2484358  -0.2423405 SPIN=   0.00000
   O  -0.4952440   0.4433063  -0.3533866 SPIN=   0.00000
   O  -0.5199636   0.3512538  -0.0665258 SPIN=   0.00000
   O  -0.1810658   0.5692358  -0.1468846 SPIN=   0.00000
   P  -0.3167748   0.3967861  -0.2037634 SPIN=   0.00000
   O  -0.1220380  -0.2484358   0.2423405 SPIN=   0.00000
   O  -0.4952440  -0.4433063   0.3533866 SPIN=   0.00000
   O  -0.5199636  -0.3512538   0.0665258 SPIN=   0.00000
   O  -0.1810658  -0.5692358   0.1468846 SPIN=   0.00000
   P  -0.3167748  -0.3967861   0.2037634 SPIN=   0.00000
  Fe   0.1071330  -0.2493985   0.0267711 SPIN=   4.97186
  Fe   0.1071330   0.2493985  -0.0267711 SPIN=   4.97186
  Fe  -0.3820991  -0.2506510  -0.4755148 SPIN=   3.02814
  Fe  -0.3820991   0.2506510   0.4755148 SPIN=   3.02814
%ENDBLOCK POSITIONS_FRAC

# Note: total spin =  16.00

KPOINTS_MP_SPACING 0.07

%BLOCK SPECIES_POT
QC5
%ENDBLOCK SPECIES_POT

%BLOCK HUBBARD_U
Fe d:4.0
%ENDBLOCK HUBBARD_U

SNAP_TO_SYMMETRY
SYMMETRY_GENERATE

