#              Generated by Buildcell
#
# at 00:32:00 (GMT+0.0) 27th November 2020
# in /lustre/scratch/uccabz1/launch_tmp
# on node-c12b-023
# by uccabz1
#
# compiler GCC version 4.9.2
# options -cpp -iprefix /lustre/shared/ucl/apps/gcc/4.9.2/bin/../lib/gcc/x86_64-unknown-linux-gnu/4.9.2/ -mtune=corei7 -march=x86-64 -g -Og
#
# seed  1279412858  1036416491   254811023  1830988199   458907178  1823324060  -588419228   -32864730 -1759169950   120084751 -1136865052  1044827330
#
#      Author: C. J. Pickard (cjp20@cam.ac.uk)
#                Space group: Ccc2
#

%BLOCK LATTICE_ABC
      6.07489      6.22310      9.01835
    110.18327     90.00000     90.00000
%ENDBLOCK LATTICE_ABC

%BLOCK POSITIONS_FRAC
  Li   0.4136377   0.2498401  -0.4876517 SPIN=   0.00000
  Li   0.4136377  -0.2498401   0.4876517 SPIN=   0.00000
  Li  -0.0863623  -0.2625082   0.4876517 SPIN=   0.00000
  Li  -0.0863623   0.2625082  -0.4876517 SPIN=   0.00000
   O   0.2179082  -0.2886649   0.0545492 SPIN=   0.00000
   O   0.5284499   0.0111337   0.1650764 SPIN=   0.00000
   O   0.2376767  -0.0205517   0.3478654 SPIN=   0.00000
   O   0.5149734  -0.3351090   0.2461765 SPIN=   0.00000
   P   0.3680557  -0.1673259   0.1959950 SPIN=   0.00000
   O   0.2179082   0.2886649  -0.0545492 SPIN=   0.00000
   O   0.5284499  -0.0111337  -0.1650764 SPIN=   0.00000
   O   0.2376767   0.0205517  -0.3478654 SPIN=   0.00000
   O   0.5149734   0.3351090  -0.2461765 SPIN=   0.00000
   P   0.3680557   0.1673259  -0.1959950 SPIN=   0.00000
   O  -0.2820918  -0.3432141  -0.0545492 SPIN=   0.00000
   O   0.0284499  -0.1539427  -0.1650764 SPIN=   0.00000
   O  -0.2623233  -0.3684171  -0.3478654 SPIN=   0.00000
   O   0.0149734  -0.5812855  -0.2461765 SPIN=   0.00000
   P  -0.1319443  -0.3633209  -0.1959950 SPIN=   0.00000
   O  -0.2820918   0.3432141   0.0545492 SPIN=   0.00000
   O   0.0284499   0.1539427   0.1650764 SPIN=   0.00000
   O  -0.2623233   0.3684171   0.3478654 SPIN=   0.00000
   O   0.0149734   0.5812855   0.2461765 SPIN=   0.00000
   P  -0.1319443   0.3633209   0.1959950 SPIN=   0.00000
  Fe  -0.0991190   0.1670917  -0.1486880 SPIN=   4.00000
  Fe  -0.0991190  -0.1670917   0.1486880 SPIN=   4.00000
  Fe   0.4008810   0.3157796   0.1486880 SPIN=   4.00000
  Fe   0.4008810  -0.3157796  -0.1486880 SPIN=   4.00000
%ENDBLOCK POSITIONS_FRAC

# Note: total spin =  16.00

KPOINTS_MP_SPACING 0.07

%BLOCK SPECIES_POT
QC5
%ENDBLOCK SPECIES_POT

%BLOCK HUBBARD_U
Fe d:4.0
%ENDBLOCK HUBBARD_U

SNAP_TO_SYMMETRY
SYMMETRY_GENERATE

