#              Generated by Buildcell
#
# at 21:58:03 (GMT+0.0) 26th November 2020
# in /lustre/scratch/uccabz1/launch_tmp
# on node-c12a-032
# by uccabz1
#
# compiler GCC version 4.9.2
# options -cpp -iprefix /lustre/shared/ucl/apps/gcc/4.9.2/bin/../lib/gcc/x86_64-unknown-linux-gnu/4.9.2/ -mtune=corei7 -march=x86-64 -g -Og
#
# seed   970124565 -1231501381  -935165165  -857399777  1251991222 -2000405017   551596123 -1470363001 -1803938929   625420575   956355913   456648251
#
#      Author: C. J. Pickard (cjp20@cam.ac.uk)
#                Space group: C2/c
#

%BLOCK LATTICE_ABC
      5.71320      7.92678      7.92678
     77.66033     71.41599     71.41599
%ENDBLOCK LATTICE_ABC

%BLOCK POSITIONS_FRAC
  Li  -0.1642821  -0.3118922  -0.4329802 SPIN=   0.00000
  Li  -0.3357179   0.4329802   0.3118922 SPIN=   0.00000
  Li   0.1642821   0.3118922   0.4329802 SPIN=   0.00000
  Li   0.3357179  -0.4329802  -0.3118922 SPIN=   0.00000
   O  -0.3976251  -0.3069330   0.1689857 SPIN=   0.00000
   O  -0.3605347  -0.0854780  -0.1256362 SPIN=   0.00000
   O  -0.0225804  -0.3717437  -0.1190646 SPIN=   0.00000
   O  -0.4616435  -0.3729965  -0.1161511 SPIN=   0.00000
   P  -0.3170124  -0.2865404  -0.0372196 SPIN=   0.00000
   O  -0.1023749  -0.1689857   0.3069330 SPIN=   0.00000
   O  -0.1394653   0.1256362   0.0854780 SPIN=   0.00000
   O  -0.4774196   0.1190646   0.3717437 SPIN=   0.00000
   O  -0.0383565   0.1161511   0.3729965 SPIN=   0.00000
   P  -0.1829876   0.0372196   0.2865404 SPIN=   0.00000
   O   0.3976251   0.3069330  -0.1689857 SPIN=   0.00000
   O   0.3605347   0.0854780   0.1256362 SPIN=   0.00000
   O   0.0225804   0.3717437   0.1190646 SPIN=   0.00000
   O   0.4616435   0.3729965   0.1161511 SPIN=   0.00000
   P   0.3170124   0.2865404   0.0372196 SPIN=   0.00000
   O   0.1023749   0.1689857  -0.3069330 SPIN=   0.00000
   O   0.1394653  -0.1256362  -0.0854780 SPIN=   0.00000
   O   0.4774196  -0.1190646  -0.3717437 SPIN=   0.00000
   O   0.0383565  -0.1161511  -0.3729965 SPIN=   0.00000
   P   0.1829876  -0.0372196  -0.2865404 SPIN=   0.00000
  Fe  -0.1054092   0.3478945  -0.1102704 SPIN=   4.00000
  Fe  -0.3945908   0.1102704  -0.3478945 SPIN=   4.00000
  Fe   0.1054092  -0.3478945   0.1102704 SPIN=   4.00000
  Fe   0.3945908  -0.1102704   0.3478945 SPIN=   4.00000
%ENDBLOCK POSITIONS_FRAC

# Note: total spin =  16.00

KPOINTS_MP_SPACING 0.07

%BLOCK SPECIES_POT
QC5
%ENDBLOCK SPECIES_POT

%BLOCK HUBBARD_U
Fe d:4.0
%ENDBLOCK HUBBARD_U

SNAP_TO_SYMMETRY
SYMMETRY_GENERATE

