#              Generated by Buildcell
#
# at 11:02:48 (GMT+0.0) 24th November 2020
# in /scratch/scratch/uccabz1/launch_tmp
# on node-a14c-007
# by uccabz1
#
# compiler GCC version 4.9.2
# options -cpp -iprefix /scratch/UCL/applications/gcc/4.9.2/bin/../lib/gcc/x86_64-unknown-linux-gnu/4.9.2/ -mtune=corei7 -march=x86-64 -g -O2
#
# seed  -534451110  -863909150  -508966522 -1044269607  -520789636 -1866657127   438330902  -535156041   740973720    -4333091  1395686299 -1555958652
#
#      Author: C. J. Pickard (cjp20@cam.ac.uk)
#                Space group: F222
#

%BLOCK LATTICE_ABC
      5.57206      5.57206      6.36962
    112.53406    112.53406     97.11298
%ENDBLOCK LATTICE_ABC

%BLOCK POSITIONS_FRAC
  Li   0.3187505  -0.3187505  -0.0000000 SPIN=   0.00000
  Li  -0.3187505   0.3187505   0.0000000 SPIN=   0.00000
   O   0.2975177   0.0934576  -0.3190784 SPIN=   0.00000
   O  -0.0235074   0.2292070  -0.1185089 SPIN=   0.00000
   O  -0.6165961  -0.4125360  -0.3190784 SPIN=   0.00000
   O  -0.0950016  -0.3477160  -0.1185089 SPIN=   0.00000
   O   0.4125360   0.6165961   0.3190784 SPIN=   0.00000
   O   0.3477160   0.0950016   0.1185089 SPIN=   0.00000
   O  -0.0934576  -0.2975177   0.3190784 SPIN=   0.00000
   O  -0.2292070   0.0235074   0.1185089 SPIN=   0.00000
   P   0.2500000  -0.2500000  -0.5000000 SPIN=   0.00000
   P  -0.2500000   0.2500000   0.5000000 SPIN=   0.00000
  Fe  -0.1884049  -0.1884049  -0.3768098 SPIN=   4.00000
  Fe   0.1884049   0.1884049   0.3768098 SPIN=   4.00000
%ENDBLOCK POSITIONS_FRAC

# Note: total spin =   8.00

KPOINTS_MP_SPACING 0.07

%BLOCK SPECIES_POT
QC5
%ENDBLOCK SPECIES_POT

%BLOCK HUBBARD_U
Fe d:4.0
%ENDBLOCK HUBBARD_U

SNAP_TO_SYMMETRY
SYMMETRY_GENERATE

