#              Generated by Buildcell
#
# at 14:25:47 (GMT+0.0) 26th November 2020
# in /lustre/scratch/uccabz1/launch_tmp
# on node-c12g-020
# by uccabz1
#
# compiler GCC version 4.9.2
# options -cpp -iprefix /lustre/shared/ucl/apps/gcc/4.9.2/bin/../lib/gcc/x86_64-unknown-linux-gnu/4.9.2/ -mtune=corei7 -march=x86-64 -g -Og
#
# seed  1188361289  -477597792  1367523287  2115334284  -157212568  -743398607  1791569621 -1380280353  -518707883  1049293557   152032794   826645260
#
#      Author: C. J. Pickard (cjp20@cam.ac.uk)
#                Space group: P2/c
#

%BLOCK LATTICE_ABC
      5.35073      6.39152      9.35702
     90.00000     90.00000     90.26269
%ENDBLOCK LATTICE_ABC

%BLOCK POSITIONS_FRAC
  Li  -0.2511912   0.1416766  -0.4858766 SPIN=   0.00000
  Li   0.2511912   0.3583234  -0.4858766 SPIN=   0.00000
  Li   0.2511912  -0.1416766   0.4858766 SPIN=   0.00000
  Li  -0.2511912  -0.3583234   0.4858766 SPIN=   0.00000
   O   0.2412905   0.0541107  -0.0866461 SPIN=   0.00000
   O   0.2413404  -0.2614450  -0.2616725 SPIN=   0.00000
   O   0.0214855   0.0605095  -0.3341780 SPIN=   0.00000
   O   0.4891467   0.0593461  -0.3235043 SPIN=   0.00000
   P   0.2507838  -0.0168657  -0.2435723 SPIN=   0.00000
   O  -0.2412905  -0.5541107  -0.0866461 SPIN=   0.00000
   O  -0.2413404  -0.2385550  -0.2616725 SPIN=   0.00000
   O  -0.0214855  -0.5605095  -0.3341780 SPIN=   0.00000
   O  -0.4891467  -0.5593461  -0.3235043 SPIN=   0.00000
   P  -0.2507838  -0.4831343  -0.2435723 SPIN=   0.00000
   O  -0.2412905  -0.0541107   0.0866461 SPIN=   0.00000
   O  -0.2413404   0.2614450   0.2616725 SPIN=   0.00000
   O  -0.0214855  -0.0605095   0.3341780 SPIN=   0.00000
   O  -0.4891467  -0.0593461   0.3235043 SPIN=   0.00000
   P  -0.2507838   0.0168657   0.2435723 SPIN=   0.00000
   O   0.2412905   0.5541107   0.0866461 SPIN=   0.00000
   O   0.2413404   0.2385550   0.2616725 SPIN=   0.00000
   O   0.0214855   0.5605095   0.3341780 SPIN=   0.00000
   O   0.4891467   0.5593461   0.3235043 SPIN=   0.00000
   P   0.2507838   0.4831343   0.2435723 SPIN=   0.00000
  Fe  -0.2499321   0.0347912  -0.1442274 SPIN=   4.00000
  Fe   0.2499321   0.4652088  -0.1442274 SPIN=   4.00000
  Fe   0.2499321  -0.0347912   0.1442274 SPIN=   4.00000
  Fe  -0.2499321  -0.4652088   0.1442274 SPIN=   4.00000
%ENDBLOCK POSITIONS_FRAC

# Note: total spin =  16.00

KPOINTS_MP_SPACING 0.07

%BLOCK SPECIES_POT
QC5
%ENDBLOCK SPECIES_POT

%BLOCK HUBBARD_U
Fe d:4.0
%ENDBLOCK HUBBARD_U

SNAP_TO_SYMMETRY
SYMMETRY_GENERATE

