#              Generated by Buildcell
#
# at 12:17:26 (GMT+0.0) 26th November 2020
# in /scratch/scratch/uccabz1/launch_tmp
# on node-k10g-006
# by uccabz1
#
# compiler GCC version 4.9.2
# options -cpp -iprefix /scratch/UCL/applications/gcc/4.9.2/bin/../lib/gcc/x86_64-unknown-linux-gnu/4.9.2/ -mtune=corei7 -march=x86-64 -g -O2
#
# seed   -57692934  1645720050  -695849253  -993214023  2081374420  1118017105  1485905028   232548303 -1051554301 -1599116966   605367069   639550930
#
#      Author: C. J. Pickard (cjp20@cam.ac.uk)
#                Space group: P21
#

%BLOCK LATTICE_ABC
      4.37413      6.92760     10.57328
     92.84266     90.00000     90.00000
%ENDBLOCK LATTICE_ABC

%BLOCK POSITIONS_FRAC
  Li   0.4106257   0.4691030   0.2448935 SPIN=   0.00000
  Li  -0.0893743  -0.4691030  -0.2448935 SPIN=   0.00000
  Li  -0.4966742  -0.2941737  -0.4598625 SPIN=   0.00000
  Li   0.0033258   0.2941737   0.4598625 SPIN=   0.00000
   O   0.0242536  -0.0852214   0.4752746 SPIN=   0.00000
   O   0.1832720  -0.2018361   0.2473710 SPIN=   0.00000
   O   0.1925983  -0.4375395   0.4151148 SPIN=   0.00000
   O  -0.3099884  -0.3186126   0.3364276 SPIN=   0.00000
   P   0.0187013  -0.2521358   0.3738507 SPIN=   0.00000
   O  -0.4757464   0.0852214  -0.4752746 SPIN=   0.00000
   O  -0.3167280   0.2018361  -0.2473710 SPIN=   0.00000
   O  -0.3074017   0.4375395  -0.4151148 SPIN=   0.00000
   O  -0.8099884   0.3186126  -0.3364276 SPIN=   0.00000
   P  -0.4812987   0.2521358  -0.3738507 SPIN=   0.00000
   O  -0.0513157   0.1184670   0.2926314 SPIN=   0.00000
   O   0.3901462   0.1950695   0.1385595 SPIN=   0.00000
   O  -0.0767431   0.0400531   0.0500111 SPIN=   0.00000
   O  -0.0957348   0.3854679   0.1315710 SPIN=   0.00000
   P   0.0350210   0.1836029   0.1603625 SPIN=   0.00000
   O  -0.5513157  -0.1184670  -0.2926314 SPIN=   0.00000
   O  -0.1098538  -0.1950695  -0.1385595 SPIN=   0.00000
   O  -0.5767431  -0.0400531  -0.0500111 SPIN=   0.00000
   O  -0.5957348  -0.3854679  -0.1315710 SPIN=   0.00000
   P  -0.4649790  -0.1836029  -0.1603625 SPIN=   0.00000
  Fe   0.0032914  -0.0090115  -0.3078983 SPIN=   4.96837
  Fe  -0.4967086   0.0090115   0.3078983 SPIN=   4.96837
  Fe   0.0334766  -0.2709294   0.0418884 SPIN=   3.03163
  Fe  -0.4665234   0.2709294  -0.0418884 SPIN=   3.03163
%ENDBLOCK POSITIONS_FRAC

# Note: total spin =  16.00

KPOINTS_MP_SPACING 0.07

%BLOCK SPECIES_POT
QC5
%ENDBLOCK SPECIES_POT

%BLOCK HUBBARD_U
Fe d:4.0
%ENDBLOCK HUBBARD_U

SNAP_TO_SYMMETRY
SYMMETRY_GENERATE

