#              Generated by Buildcell
#
# at 13:08:20 (GMT+0.0) 24th November 2020
# in /scratch/scratch/uccabz1/launch_tmp
# on node-a14b-028
# by uccabz1
#
# compiler GCC version 4.9.2
# options -cpp -iprefix /scratch/UCL/applications/gcc/4.9.2/bin/../lib/gcc/x86_64-unknown-linux-gnu/4.9.2/ -mtune=corei7 -march=x86-64 -g -O2
#
# seed -1796410998  -833777114   168398561 -2007993134  2051103462 -2129322654   958558631   -17321929  -407585224  -286242323  1161211678  -396874315
#
#      Author: C. J. Pickard (cjp20@cam.ac.uk)
#                Space group: C2
#

%BLOCK LATTICE_ABC
      5.40423      5.40423      5.78358
     76.88780     76.88780     89.90241
%ENDBLOCK LATTICE_ABC

%BLOCK POSITIONS_FRAC
  Li  -0.3888939  -0.1983713   0.4055246 SPIN=   0.00000
  Li   0.1983713   0.3888939  -0.4055246 SPIN=   0.00000
   O  -0.4819262  -0.1505704   0.0668991 SPIN=   0.00000
   O  -0.0645198   0.0823926  -0.2158898 SPIN=   0.00000
   O  -0.2109973  -0.3177777  -0.2925957 SPIN=   0.00000
   O  -0.4521026   0.0748176  -0.3837139 SPIN=   0.00000
   P  -0.3137129  -0.0798591  -0.1938706 SPIN=   0.00000
   O   0.1505704   0.4819262  -0.0668991 SPIN=   0.00000
   O  -0.0823926   0.0645198   0.2158898 SPIN=   0.00000
   O   0.3177777   0.2109973   0.2925957 SPIN=   0.00000
   O  -0.0748176   0.4521026   0.3837139 SPIN=   0.00000
   P   0.0798591   0.3137129   0.1938706 SPIN=   0.00000
  Fe  -0.3574172   0.3574172   0.0000000 SPIN=   3.42229
  Fe   0.1480927  -0.1480927   0.0000000 SPIN=   4.57771
%ENDBLOCK POSITIONS_FRAC

# Note: total spin =   8.00

KPOINTS_MP_SPACING 0.07

%BLOCK SPECIES_POT
QC5
%ENDBLOCK SPECIES_POT

%BLOCK HUBBARD_U
Fe d:4.0
%ENDBLOCK HUBBARD_U

SNAP_TO_SYMMETRY
SYMMETRY_GENERATE

