#              Generated by Buildcell
#
# at 11:56:24 (GMT+0.0) 24th November 2020
# in /scratch/scratch/uccabz1/launch_tmp
# on node-k10e-028
# by uccabz1
#
# compiler GCC version 4.9.2
# options -cpp -iprefix /scratch/UCL/applications/gcc/4.9.2/bin/../lib/gcc/x86_64-unknown-linux-gnu/4.9.2/ -mtune=corei7 -march=x86-64 -g -O2
#
# seed   510124862  1772220452 -1973523292  1268153833  -819060698 -1252769881 -2088439687  1897743523   884875785  2124115448  -464335984   609851845
#
#      Author: C. J. Pickard (cjp20@cam.ac.uk)
#                Space group: C2
#

%BLOCK LATTICE_ABC
      5.69964      5.71401      6.32930
    116.83312    116.11490     90.00000
%ENDBLOCK LATTICE_ABC

%BLOCK POSITIONS_FRAC
  Li   0.0884841  -0.0485452  -0.5066096 SPIN=   0.00000
  Li  -0.0884841   0.4580644   0.5066096 SPIN=   0.00000
   O   0.3442694   0.2127994   0.1180187 SPIN=   0.00000
   O   0.7278843   0.0777252   0.4240802 SPIN=   0.00000
   O   0.3778268   0.2289910   0.5475099 SPIN=   0.00000
   O   0.2592961  -0.2209148   0.1348544 SPIN=   0.00000
   O  -0.3442694   0.0947807  -0.1180187 SPIN=   0.00000
   O  -0.7278843  -0.3463550  -0.4240802 SPIN=   0.00000
   O  -0.3778268  -0.3185189  -0.5475099 SPIN=   0.00000
   O  -0.2592961  -0.3557692  -0.1348544 SPIN=   0.00000
   P   0.0000000  -0.1410914   0.0000000 SPIN=   0.00000
   P   0.5000000   0.3721396   0.0000000 SPIN=   0.00000
  Fe  -0.5000000  -0.1276972   0.0000000 SPIN=   4.19842
  Fe  -0.0000000   0.3577272  -0.0000000 SPIN=   3.80158
%ENDBLOCK POSITIONS_FRAC

# Note: total spin =   8.00

KPOINTS_MP_SPACING 0.07

%BLOCK SPECIES_POT
QC5
%ENDBLOCK SPECIES_POT

%BLOCK HUBBARD_U
Fe d:4.0
%ENDBLOCK HUBBARD_U

SNAP_TO_SYMMETRY
SYMMETRY_GENERATE

