#              Generated by Buildcell
#
# at 12:42:14 (GMT+0.0) 24th November 2020
# in /lustre/scratch/uccabz1/launch_tmp
# on node-c12p-023
# by uccabz1
#
# compiler GCC version 4.9.2
# options -cpp -iprefix /lustre/shared/ucl/apps/gcc/4.9.2/bin/../lib/gcc/x86_64-unknown-linux-gnu/4.9.2/ -mtune=corei7 -march=x86-64 -g -Og
#
# seed  1490613997  1790597893  1373640127  -988838243  -488482762  1685807643   -27717046  -998139678 -1113497725 -2119697197 -1084683336   201944904
#
#      Author: C. J. Pickard (cjp20@cam.ac.uk)
#                Space group: Cm
#

%BLOCK LATTICE_ABC
      4.00287      5.07700      8.29794
     72.18654     88.54943     85.25339
%ENDBLOCK LATTICE_ABC

%BLOCK POSITIONS_FRAC
  Li   0.1413236   0.3085931  -0.0000000 SPIN=   0.00000
  Li   0.5925144  -0.2436617  -0.0000000 SPIN=   0.00000
   O   0.9384607  -0.5279658  -0.4437942 SPIN=   0.00000
   O   0.5146939  -0.6751769  -0.1962320 SPIN=   0.00000
   O   0.9207431  -0.3403157  -0.1851766 SPIN=   0.00000
   O   0.4528648  -0.1916480  -0.3963883 SPIN=   0.00000
   P   0.7160358  -0.4359344  -0.3138405 SPIN=   0.00000
   O  -0.0615393   0.0282400   0.4437942 SPIN=   0.00000
   O  -0.4853061   0.1285911   0.1962320 SPIN=   0.00000
   O  -0.0792569   0.4745076   0.1851766 SPIN=   0.00000
   O  -0.5471352   0.4119636   0.3963883 SPIN=   0.00000
   P  -0.2839642   0.2502251   0.3138405 SPIN=   0.00000
  Fe   0.0768057   0.0531997  -0.3160565 SPIN=   4.00000
  Fe   0.0768057  -0.2628569   0.3160565 SPIN=   4.00000
%ENDBLOCK POSITIONS_FRAC

# Note: total spin =   8.00

KPOINTS_MP_SPACING 0.07

%BLOCK SPECIES_POT
QC5
%ENDBLOCK SPECIES_POT

%BLOCK HUBBARD_U
Fe d:4.0
%ENDBLOCK HUBBARD_U

SNAP_TO_SYMMETRY
SYMMETRY_GENERATE

