#              Generated by Buildcell
#
# at 07:48:42 (GMT+0.0) 24th November 2020
# in /lustre/scratch/uccabz1/launch_tmp
# on node-c12b-025
# by uccabz1
#
# compiler GCC version 4.9.2
# options -cpp -iprefix /lustre/shared/ucl/apps/gcc/4.9.2/bin/../lib/gcc/x86_64-unknown-linux-gnu/4.9.2/ -mtune=corei7 -march=x86-64 -g -Og
#
# seed   200594517 -1256635168  1236895419  2015071470  -626673934 -1452893342   515390723  -141569348 -1671678354   -73544359  1179211779  -828354246
#
#      Author: C. J. Pickard (cjp20@cam.ac.uk)
#                Space group: P21
#

%BLOCK LATTICE_ABC
      4.13798      4.23818      9.13798
     90.00000     90.00000     93.24813
%ENDBLOCK LATTICE_ABC

%BLOCK POSITIONS_FRAC
  Li  -0.3087905  -0.4264139  -0.3699255 SPIN=   0.00000
  Li   0.3087905   0.4264139   0.1300745 SPIN=   0.00000
   O  -0.2379129   0.2222789  -0.0708371 SPIN=   0.00000
   O  -0.0586052  -0.2867757   0.0569419 SPIN=   0.00000
   O  -0.5446079  -0.0396492   0.1498464 SPIN=   0.00000
   O  -0.5655621  -0.3126258  -0.0933129 SPIN=   0.00000
   P  -0.3481390  -0.0892697   0.0050933 SPIN=   0.00000
   O   0.2379129  -0.2222789  -0.5708371 SPIN=   0.00000
   O   0.0586052   0.2867757  -0.4430581 SPIN=   0.00000
   O   0.5446079   0.0396492  -0.3501536 SPIN=   0.00000
   O   0.5655621   0.3126258  -0.5933129 SPIN=   0.00000
   P   0.3481390   0.0892697  -0.4949067 SPIN=   0.00000
  Fe   0.1641353   0.0988289  -0.1932606 SPIN=   4.00000
  Fe  -0.1641353  -0.0988289   0.3067394 SPIN=   4.00000
%ENDBLOCK POSITIONS_FRAC

# Note: total spin =   8.00

KPOINTS_MP_SPACING 0.07

%BLOCK SPECIES_POT
QC5
%ENDBLOCK SPECIES_POT

%BLOCK HUBBARD_U
Fe d:4.0
%ENDBLOCK HUBBARD_U

SNAP_TO_SYMMETRY
SYMMETRY_GENERATE

