#              Generated by Buildcell
#
# at 07:33:40 (GMT+0.0) 24th November 2020
# in /lustre/scratch/uccabz1/launch_tmp
# on node-c12n-022
# by uccabz1
#
# compiler GCC version 4.9.2
# options -cpp -iprefix /lustre/shared/ucl/apps/gcc/4.9.2/bin/../lib/gcc/x86_64-unknown-linux-gnu/4.9.2/ -mtune=corei7 -march=x86-64 -g -Og
#
# seed   563585080 -2059237843  -382336974 -2007991582 -2036155688   -99456404  2031402217  1180543706  1166661752  1200397649 -1106388123  1917390887
#
#      Author: C. J. Pickard (cjp20@cam.ac.uk)
#                Space group: P21/m
#

%BLOCK LATTICE_ABC
      4.24816      5.13331      7.34446
     90.00000     90.00000     92.57256
%ENDBLOCK LATTICE_ABC

%BLOCK POSITIONS_FRAC
  Li   0.5667097   0.1001948   0.2500000 SPIN=   0.00000
  Li  -0.5667097  -0.1001948  -0.2500000 SPIN=   0.00000
   O  -0.7117543  -0.1348761   0.0728172 SPIN=   0.00000
   O  -0.7624914  -0.6149200  -0.0393643 SPIN=   0.00000
   O   0.7117543   0.1348761  -0.4271828 SPIN=   0.00000
   O   0.7624914   0.6149200  -0.5393643 SPIN=   0.00000
   O   0.7117543   0.1348761  -0.0728172 SPIN=   0.00000
   O   0.7624914   0.6149200   0.0393643 SPIN=   0.00000
   O  -0.7117543  -0.1348761   0.4271828 SPIN=   0.00000
   O  -0.7624914  -0.6149200   0.5393643 SPIN=   0.00000
   P  -0.0000000  -0.0000000  -0.0000000 SPIN=   0.00000
   P  -0.0000000  -0.0000000   0.5000000 SPIN=   0.00000
  Fe  -0.9081067  -0.4165527   0.2500000 SPIN=   4.00000
  Fe   0.9081067   0.4165527  -0.2500000 SPIN=   4.00000
%ENDBLOCK POSITIONS_FRAC

# Note: total spin =   8.00

KPOINTS_MP_SPACING 0.07

%BLOCK SPECIES_POT
QC5
%ENDBLOCK SPECIES_POT

%BLOCK HUBBARD_U
Fe d:4.0
%ENDBLOCK HUBBARD_U

SNAP_TO_SYMMETRY
SYMMETRY_GENERATE

