#              Generated by Buildcell
#
# at 18:17:20 (GMT+0.0) 26th November 2020
# in /lustre/scratch/uccabz1/launch_tmp
# on node-c12j-022
# by uccabz1
#
# compiler GCC version 4.9.2
# options -cpp -iprefix /lustre/shared/ucl/apps/gcc/4.9.2/bin/../lib/gcc/x86_64-unknown-linux-gnu/4.9.2/ -mtune=corei7 -march=x86-64 -g -Og
#
# seed  1691085113  1603472366  1280631990  1471685895   610102788 -2100594432  1242823315  -624881787  -492456697   537886693  1106821821  -983479828
#
#      Author: C. J. Pickard (cjp20@cam.ac.uk)
#                Space group: P21/c
#

%BLOCK LATTICE_ABC
      5.08468      7.72358      8.15655
     90.00000     92.57506     90.00000
%ENDBLOCK LATTICE_ABC

%BLOCK POSITIONS_FRAC
  Li  -0.1829269  -0.4641227  -0.3409435 SPIN=   0.00000
  Li  -0.3170731   0.0358773  -0.1590565 SPIN=   0.00000
  Li   0.1829269   0.4641227   0.3409435 SPIN=   0.00000
  Li   0.3170731  -0.0358773   0.1590565 SPIN=   0.00000
   O  -0.4656146  -0.1004619   0.3837887 SPIN=   0.00000
   O  -0.0993337  -0.1768203   0.6042830 SPIN=   0.00000
   O  -0.2191492  -0.3952063   0.3926727 SPIN=   0.00000
   O   0.0231373  -0.1276313   0.3139696 SPIN=   0.00000
   P  -0.2023843  -0.1938741   0.4202599 SPIN=   0.00000
   O  -0.0343854   0.3995381   0.1162113 SPIN=   0.00000
   O  -0.4006663   0.3231797  -0.1042830 SPIN=   0.00000
   O  -0.2808508   0.1047937   0.1073273 SPIN=   0.00000
   O  -0.5231373   0.3723687   0.1860304 SPIN=   0.00000
   P  -0.2976157   0.3061259   0.0797401 SPIN=   0.00000
   O   0.4656146   0.1004619  -0.3837887 SPIN=   0.00000
   O   0.0993337   0.1768203  -0.6042830 SPIN=   0.00000
   O   0.2191492   0.3952063  -0.3926727 SPIN=   0.00000
   O  -0.0231373   0.1276313  -0.3139696 SPIN=   0.00000
   P   0.2023843   0.1938741  -0.4202599 SPIN=   0.00000
   O   0.0343854  -0.3995381  -0.1162113 SPIN=   0.00000
   O   0.4006663  -0.3231797   0.1042830 SPIN=   0.00000
   O   0.2808508  -0.1047937  -0.1073273 SPIN=   0.00000
   O   0.5231373  -0.3723687  -0.1860304 SPIN=   0.00000
   P   0.2976157  -0.3061259  -0.0797401 SPIN=   0.00000
  Fe   0.1906141   0.3003393  -0.0835712 SPIN=   4.00000
  Fe   0.3093859  -0.1996607  -0.4164288 SPIN=   4.00000
  Fe  -0.1906141  -0.3003393   0.0835712 SPIN=   4.00000
  Fe  -0.3093859   0.1996607   0.4164288 SPIN=   4.00000
%ENDBLOCK POSITIONS_FRAC

# Note: total spin =  16.00

KPOINTS_MP_SPACING 0.07

%BLOCK SPECIES_POT
QC5
%ENDBLOCK SPECIES_POT

%BLOCK HUBBARD_U
Fe d:4.0
%ENDBLOCK HUBBARD_U

SNAP_TO_SYMMETRY
SYMMETRY_GENERATE

