#              Generated by Buildcell
#
# at 06:06:20 (GMT+0.0) 24th November 2020
# in /scratch/scratch/uccabz1/launch_tmp
# on node-a14f-014
# by uccabz1
#
# compiler GCC version 4.9.2
# options -cpp -iprefix /scratch/UCL/applications/gcc/4.9.2/bin/../lib/gcc/x86_64-unknown-linux-gnu/4.9.2/ -mtune=corei7 -march=x86-64 -g -O2
#
# seed -1563357368  1201400226  1443146870 -1929333536   489727047   565907813  1851666599  -914088360 -1459894166  1506280650 -1834333558  1522456912
#
#      Author: C. J. Pickard (cjp20@cam.ac.uk)
#                Space group: Cc
#

%BLOCK LATTICE_ABC
      5.07998      5.89030      6.47481
    110.44544    105.65858    105.60805
%ENDBLOCK LATTICE_ABC

%BLOCK POSITIONS_FRAC
  Li   0.3182327   0.0529553  -0.2065613 SPIN=   0.00000
  Li   0.0247940   0.2595166   0.2065613 SPIN=   0.00000
   O  -0.2836655  -0.3827932   0.0743657 SPIN=   0.00000
   O  -0.5706510  -0.4088772   0.3479289 SPIN=   0.00000
   O  -0.4328118  -0.7802217   0.1700377 SPIN=   0.00000
   O  -0.0338981  -0.3438539   0.4966668 SPIN=   0.00000
   P  -0.3242785  -0.4722232   0.2643618 SPIN=   0.00000
   O   0.1419688   0.5428411  -0.0743657 SPIN=   0.00000
   O  -0.4185799   0.2431939  -0.3479289 SPIN=   0.00000
   O  -0.1028495   0.0497406  -0.1700377 SPIN=   0.00000
   O  -0.0305648   0.1594793  -0.4966668 SPIN=   0.00000
   P  -0.0886403   0.2634150  -0.2643618 SPIN=   0.00000
  Fe   0.4352682  -0.0829584   0.2680984 SPIN=   4.00000
  Fe  -0.3328302  -0.3510568  -0.2680984 SPIN=   4.00000
%ENDBLOCK POSITIONS_FRAC

# Note: total spin =   8.00

KPOINTS_MP_SPACING 0.07

%BLOCK SPECIES_POT
QC5
%ENDBLOCK SPECIES_POT

%BLOCK HUBBARD_U
Fe d:4.0
%ENDBLOCK HUBBARD_U

SNAP_TO_SYMMETRY
SYMMETRY_GENERATE

