#              Generated by Buildcell
#
# at 13:30:36 (GMT+0.0) 24th November 2020
# in /scratch/scratch/uccabz1/launch_tmp
# on node-a14f-010
# by uccabz1
#
# compiler GCC version 4.9.2
# options -cpp -iprefix /scratch/UCL/applications/gcc/4.9.2/bin/../lib/gcc/x86_64-unknown-linux-gnu/4.9.2/ -mtune=corei7 -march=x86-64 -g -O2
#
# seed  -288172246  -838593621  1190328873  1294566600 -1332237439 -1771069907   195193658  1203168991 -1481307243  -867291842  1887047825   438779512
#
#      Author: C. J. Pickard (cjp20@cam.ac.uk)
#                Space group: C2
#

%BLOCK LATTICE_ABC
      4.43170      5.17604      8.00490
     83.47943     74.61720     64.65313
%ENDBLOCK LATTICE_ABC

%BLOCK POSITIONS_FRAC
  Li   0.3913266  -0.7826533  -0.0000000 SPIN=   0.00000
  Li  -0.6010314   0.2020627   0.5000000 SPIN=   0.00000
   O  -0.2924060   0.1643248  -0.3319705 SPIN=   0.00000
   O  -0.5014469   0.5772324  -0.1145250 SPIN=   0.00000
   O   0.1113157   0.2384567  -0.1773818 SPIN=   0.00000
   O  -0.1163216   0.5871831  -0.4052307 SPIN=   0.00000
   P  -0.2036660   0.3819931  -0.2630000 SPIN=   0.00000
   O   0.1280812   0.1643248   0.3319705 SPIN=   0.00000
   O  -0.0757854   0.5772324   0.1145250 SPIN=   0.00000
   O  -0.3497723   0.2384567   0.1773818 SPIN=   0.00000
   O  -0.4708616   0.5871831   0.4052307 SPIN=   0.00000
   P  -0.1783271   0.3819931   0.2630000 SPIN=   0.00000
  Fe   0.1310787  -0.2306063   0.2531622 SPIN=   4.00000
  Fe   0.0995276  -0.2306063  -0.2531622 SPIN=   4.00000
%ENDBLOCK POSITIONS_FRAC

# Note: total spin =   8.00

KPOINTS_MP_SPACING 0.07

%BLOCK SPECIES_POT
QC5
%ENDBLOCK SPECIES_POT

%BLOCK HUBBARD_U
Fe d:4.0
%ENDBLOCK HUBBARD_U

SNAP_TO_SYMMETRY
SYMMETRY_GENERATE

