#              Generated by Buildcell
#
# at 19:03:25 (GMT+0.0) 26th November 2020
# in /lustre/scratch/uccabz1/launch_tmp
# on node-c12e-023
# by uccabz1
#
# compiler GCC version 4.9.2
# options -cpp -iprefix /lustre/shared/ucl/apps/gcc/4.9.2/bin/../lib/gcc/x86_64-unknown-linux-gnu/4.9.2/ -mtune=corei7 -march=x86-64 -g -Og
#
# seed   327285518 -1252970161  1622790718 -1916616569 -1400420556   218495000 -2015473211 -1882020144  -833036200 -1970168881   492782278   -75753940
#
#      Author: C. J. Pickard (cjp20@cam.ac.uk)
#                Space group: Pc
#

%BLOCK LATTICE_ABC
      5.81052      7.31179      7.78919
     90.00000    104.76432     90.00000
%ENDBLOCK LATTICE_ABC

%BLOCK POSITIONS_FRAC
  Li  -0.0065030   0.2600148  -0.2666767 SPIN=   0.00000
  Li   0.4934970  -0.2600148   0.2333233 SPIN=   0.00000
  Li  -0.1312523   0.4428845   0.3178604 SPIN=   0.00000
  Li   0.3687477  -0.4428845  -0.1821396 SPIN=   0.00000
   O   0.2962866   0.3023816  -0.0546252 SPIN=   0.00000
   O   0.2311970   0.5335820   0.1818936 SPIN=   0.00000
   O  -0.1196503   0.3754976  -0.0051523 SPIN=   0.00000
   O   0.1742487   0.1991127   0.2268281 SPIN=   0.00000
   P   0.1538871   0.3481555   0.0813300 SPIN=   0.00000
   O  -0.2037134  -0.3023816  -0.5546252 SPIN=   0.00000
   O  -0.2688030  -0.5335820  -0.3181064 SPIN=   0.00000
   O  -0.6196503  -0.3754976  -0.5051523 SPIN=   0.00000
   O  -0.3257513  -0.1991127  -0.2731719 SPIN=   0.00000
   P  -0.3461129  -0.3481555  -0.4186700 SPIN=   0.00000
   O   0.4850085  -0.1719591  -0.0249545 SPIN=   0.00000
   O   0.0938224   0.0077572  -0.0430273 SPIN=   0.00000
   O   0.3052054   0.0592987  -0.2766374 SPIN=   0.00000
   O   0.0973653  -0.2388460  -0.2654682 SPIN=   0.00000
   P   0.2563646  -0.0923220  -0.1470624 SPIN=   0.00000
   O  -0.0149915   0.1719591   0.4750455 SPIN=   0.00000
   O  -0.4061776  -0.0077572   0.4569727 SPIN=   0.00000
   O  -0.1947946  -0.0592987   0.2233626 SPIN=   0.00000
   O  -0.4026347   0.2388460   0.2345318 SPIN=   0.00000
   P  -0.2436354   0.0923220   0.3529376 SPIN=   0.00000
  Fe  -0.3751046   0.1695342  -0.0200143 SPIN=   7.09647
  Fe   0.1248954  -0.1695342   0.4799857 SPIN=   7.09647
  Fe  -0.0770946  -0.3082125  -0.0219757 SPIN=   0.90353
  Fe   0.4229054   0.3082125   0.4780243 SPIN=   0.90353
%ENDBLOCK POSITIONS_FRAC

# Note: total spin =  16.00

KPOINTS_MP_SPACING 0.07

%BLOCK SPECIES_POT
QC5
%ENDBLOCK SPECIES_POT

%BLOCK HUBBARD_U
Fe d:4.0
%ENDBLOCK HUBBARD_U

SNAP_TO_SYMMETRY
SYMMETRY_GENERATE

