#              Generated by Buildcell
#
# at 10:51:49 (GMT+0.0) 24th November 2020
# in /lustre/scratch/uccabz1/launch_tmp
# on node-c12d-022
# by uccabz1
#
# compiler GCC version 4.9.2
# options -cpp -iprefix /lustre/shared/ucl/apps/gcc/4.9.2/bin/../lib/gcc/x86_64-unknown-linux-gnu/4.9.2/ -mtune=corei7 -march=x86-64 -g -Og
#
# seed  1135384353  -900091205 -1195781080   896278660  1985020865   244848347  -303507207  -895885353 -2131148079  -497145404   624107682 -1690546841
#
#      Author: C. J. Pickard (cjp20@cam.ac.uk)
#                Space group: P-1
#

%BLOCK LATTICE_ABC
      4.50304      6.21584      6.24157
     69.73206     80.11008     79.45058
%ENDBLOCK LATTICE_ABC

%BLOCK POSITIONS_FRAC
  Li  -0.3538768   0.2349996  -0.1064938 SPIN=   0.00000
  Li   0.3538768  -0.2349996   0.1064938 SPIN=   0.00000
   O  -0.4573012   0.1110643   0.2546775 SPIN=   0.00000
   O  -0.1374907  -0.1758888   0.0570739 SPIN=   0.00000
   O   0.0871321  -0.0879100   0.3465243 SPIN=   0.00000
   O  -0.3423821  -0.3261714   0.4728451 SPIN=   0.00000
   P  -0.2270770  -0.1098743   0.2835268 SPIN=   0.00000
   O   0.4573012  -0.1110643  -0.2546775 SPIN=   0.00000
   O   0.1374907   0.1758888  -0.0570739 SPIN=   0.00000
   O  -0.0871321   0.0879100  -0.3465243 SPIN=   0.00000
   O   0.3423821   0.3261714  -0.4728451 SPIN=   0.00000
   P   0.2270770   0.1098743  -0.2835268 SPIN=   0.00000
  Fe   0.1206920  -0.3303884  -0.3234750 SPIN=   4.00000
  Fe  -0.1206920   0.3303884   0.3234750 SPIN=   4.00000
%ENDBLOCK POSITIONS_FRAC

# Note: total spin =   8.00

KPOINTS_MP_SPACING 0.07

%BLOCK SPECIES_POT
QC5
%ENDBLOCK SPECIES_POT

%BLOCK HUBBARD_U
Fe d:4.0
%ENDBLOCK HUBBARD_U

SNAP_TO_SYMMETRY
SYMMETRY_GENERATE

