#              Generated by Buildcell
#
# at 07:02:37 (GMT+0.0) 24th November 2020
# in /lustre/scratch/uccabz1/launch_tmp
# on node-c12k-031
# by uccabz1
#
# compiler GCC version 4.9.2
# options -cpp -iprefix /lustre/shared/ucl/apps/gcc/4.9.2/bin/../lib/gcc/x86_64-unknown-linux-gnu/4.9.2/ -mtune=corei7 -march=x86-64 -g -Og
#
# seed  1352883753  1261008664  2050760171 -1160702364 -2088939184  -387727429  1495022288  1411555698 -1356230303   952516273  -277477287  1152244384
#
#      Author: C. J. Pickard (cjp20@cam.ac.uk)
#                Space group: P-1
#

%BLOCK LATTICE_ABC
      4.66117      5.00291      7.02921
     79.41781     83.43169     87.12093
%ENDBLOCK LATTICE_ABC

%BLOCK POSITIONS_FRAC
  Li   0.4879229   0.0816743  -0.3038997 SPIN=   0.00000
  Li  -0.4879229  -0.0816743   0.3038997 SPIN=   0.00000
   O   0.0506482  -0.1365971   0.2068962 SPIN=   0.00000
   O  -0.2276821   0.2360337   0.3739519 SPIN=   0.00000
   O   0.2907039   0.2966183   0.2619568 SPIN=   0.00000
   P   0.0129423   0.1691891   0.2121046 SPIN=   0.00000
   O  -0.0506482   0.1365971  -0.2068962 SPIN=   0.00000
   O   0.2276821  -0.2360337  -0.3739519 SPIN=   0.00000
   O  -0.2907039  -0.2966183  -0.2619568 SPIN=   0.00000
   P  -0.0129423  -0.1691891  -0.2121046 SPIN=   0.00000
   O   0.5000000  -0.0000000   0.0000000 SPIN=   0.00000
   O   1.0000000   0.5000000   0.0000000 SPIN=   0.00000
  Fe  -0.5000000  -0.5000000   0.0000000 SPIN=   4.18082
  Fe   0.0000000   0.5000000   0.5000000 SPIN=   3.81918
%ENDBLOCK POSITIONS_FRAC

# Note: total spin =   8.00

KPOINTS_MP_SPACING 0.07

%BLOCK SPECIES_POT
QC5
%ENDBLOCK SPECIES_POT

%BLOCK HUBBARD_U
Fe d:4.0
%ENDBLOCK HUBBARD_U

SNAP_TO_SYMMETRY
SYMMETRY_GENERATE

