#              Generated by Buildcell
#
# at 12:42:32 (GMT+0.0) 26th November 2020
# in /lustre/scratch/uccabz1/launch_tmp
# on node-c12g-020
# by uccabz1
#
# compiler GCC version 4.9.2
# options -cpp -iprefix /lustre/shared/ucl/apps/gcc/4.9.2/bin/../lib/gcc/x86_64-unknown-linux-gnu/4.9.2/ -mtune=corei7 -march=x86-64 -g -Og
#
# seed -1730345486  -465457886 -2024627044 -1511191791  1284367781  -816993747 -1109650612 -1170705122   802664444 -1889753939  1576372094  -248654546
#
#      Author: C. J. Pickard (cjp20@cam.ac.uk)
#                Space group: C2
#

%BLOCK LATTICE_ABC
      6.57775      6.57775      8.64494
    106.10552    106.36245    105.37675
%ENDBLOCK LATTICE_ABC

%BLOCK POSITIONS_FRAC
  Li  -0.3602496  -0.3663226   0.1981440 SPIN=   0.00000
  Li   0.4355334   0.4416065  -0.1981440 SPIN=   0.00000
  Li   0.0435442  -0.0259707   0.1898360 SPIN=   0.00000
  Li  -0.2158067  -0.1462918  -0.1898360 SPIN=   0.00000
   O  -0.4973395   0.2781915   0.0579414 SPIN=   0.00000
   O  -0.1529089   0.1526308   0.0668930 SPIN=   0.00000
   O  -0.3864287   0.1590200  -0.2097448 SPIN=   0.00000
   O  -0.1330624   0.5271931   0.0420697 SPIN=   0.00000
   P  -0.3014643   0.2821279  -0.0064319 SPIN=   0.00000
   O   0.2202501  -0.5552809  -0.0579414 SPIN=   0.00000
   O   0.0857378  -0.2198018  -0.0668930 SPIN=   0.00000
   O   0.3687648  -0.1766840   0.2097448 SPIN=   0.00000
   O   0.4851234  -0.1751321  -0.0420697 SPIN=   0.00000
   P   0.2885598  -0.2950323   0.0064319 SPIN=   0.00000
   O   0.3658130   0.1878370  -0.6152727 SPIN=   0.00000
   O   0.3121523   0.5276195  -0.4142005 SPIN=   0.00000
   O   0.6963023   0.5093301  -0.3383467 SPIN=   0.00000
   O   0.5344002   0.5989860  -0.5988396 SPIN=   0.00000
   P   0.4719133   0.4433559  -0.4995111 SPIN=   0.00000
   O  -0.1968903  -0.0189143   0.6152727 SPIN=   0.00000
   O  -0.0581800  -0.2736472   0.4142005 SPIN=   0.00000
   O  -0.1523232   0.0346490   0.3383467 SPIN=   0.00000
   O   0.1978255   0.1332398   0.5988396 SPIN=   0.00000
   P  -0.0571330  -0.0285756   0.4995111 SPIN=   0.00000
  Fe   0.2810702  -0.1030430  -0.2548790 SPIN=   4.91000
  Fe   0.1518360  -0.4640507   0.2548790 SPIN=   4.91000
  Fe  -0.1039478   0.3321125  -0.2535369 SPIN=   3.09000
  Fe  -0.4143506   0.1495891   0.2535369 SPIN=   3.09000
%ENDBLOCK POSITIONS_FRAC

# Note: total spin =  16.00

KPOINTS_MP_SPACING 0.07

%BLOCK SPECIES_POT
QC5
%ENDBLOCK SPECIES_POT

%BLOCK HUBBARD_U
Fe d:4.0
%ENDBLOCK HUBBARD_U

SNAP_TO_SYMMETRY
SYMMETRY_GENERATE

