#              Generated by Buildcell
#
# at 14:30:41 (GMT+0.0) 24th November 2020
# in /lustre/scratch/uccabz1/launch_tmp
# on node-c12g-032
# by uccabz1
#
# compiler GCC version 4.9.2
# options -cpp -iprefix /lustre/shared/ucl/apps/gcc/4.9.2/bin/../lib/gcc/x86_64-unknown-linux-gnu/4.9.2/ -mtune=corei7 -march=x86-64 -g -Og
#
# seed   123700059  -712031976   890866894 -1335259629  1593917804 -1281756341 -1915490008  1589070175 -1288157531   192712942  -286317852   137873155
#
#      Author: C. J. Pickard (cjp20@cam.ac.uk)
#                Space group: Pnn2
#

%BLOCK LATTICE_ABC
      4.89443      4.93826      6.61978
     90.00000     90.00000     90.00000
%ENDBLOCK LATTICE_ABC

%BLOCK POSITIONS_FRAC
  Li   0.0000000  -0.5000000   0.2664103 SPIN=   0.00000
  Li  -0.5000000   0.0000000  -0.2335897 SPIN=   0.00000
   O   0.1768754  -0.2299207  -0.4538918 SPIN=   0.00000
   O   0.1977186  -0.2002918  -0.0623474 SPIN=   0.00000
   O  -0.1768754   0.2299207  -0.4538918 SPIN=   0.00000
   O  -0.1977186   0.2002918  -0.0623474 SPIN=   0.00000
   O  -0.3231246  -0.2700793   0.0461082 SPIN=   0.00000
   O  -0.3022814  -0.2997082   0.4376526 SPIN=   0.00000
   O   0.3231246   0.2700793   0.0461082 SPIN=   0.00000
   O   0.3022814   0.2997082   0.4376526 SPIN=   0.00000
   P   0.0000000   0.0000000   0.0399159 SPIN=   0.00000
   P  -0.5000000  -0.5000000  -0.4600841 SPIN=   0.00000
  Fe   0.0000000  -0.5000000  -0.2335868 SPIN=   4.00000
  Fe   0.5000000   0.0000000   0.2664132 SPIN=   4.00000
%ENDBLOCK POSITIONS_FRAC

# Note: total spin =   8.00

KPOINTS_MP_SPACING 0.07

%BLOCK SPECIES_POT
QC5
%ENDBLOCK SPECIES_POT

%BLOCK HUBBARD_U
Fe d:4.0
%ENDBLOCK HUBBARD_U

SNAP_TO_SYMMETRY
SYMMETRY_GENERATE

