#              Generated by Buildcell
#
# at 13:26:13 (GMT+0.0) 26th November 2020
# in /scratch/scratch/uccabz1/launch_tmp
# on node-k10e-015
# by uccabz1
#
# compiler GCC version 4.9.2
# options -cpp -iprefix /scratch/UCL/applications/gcc/4.9.2/bin/../lib/gcc/x86_64-unknown-linux-gnu/4.9.2/ -mtune=corei7 -march=x86-64 -g -O2
#
# seed  -440083722   734158665   184440828  -429037897 -1186705609 -1271878061 -1939441923 -1545501302   -44452398  1860885522  2119489522  -354125772
#
#      Author: C. J. Pickard (cjp20@cam.ac.uk)
#                Space group: P-1
#

%BLOCK LATTICE_ABC
      4.01385      8.42545      9.54747
     94.36398     95.88163     91.79922
%ENDBLOCK LATTICE_ABC

%BLOCK POSITIONS_FRAC
  Li  -0.3332113  -0.4935309   0.1505861 SPIN=   0.00000
  Li   0.3332113   0.4935309  -0.1505861 SPIN=   0.00000
  Li   0.2257091  -0.4566955   0.3905341 SPIN=   0.00000
  Li  -0.2257091   0.4566955  -0.3905341 SPIN=   0.00000
   O  -0.6307686  -0.3155085   0.2332348 SPIN=   0.00000
   O  -0.2014750  -0.2525603   0.4547954 SPIN=   0.00000
   O  -0.2342848  -0.0627445   0.2695005 SPIN=   0.00000
   O  -0.7044383  -0.0856138   0.4210722 SPIN=   0.00000
   P  -0.4558415  -0.1852662   0.3396203 SPIN=   0.00000
   O   0.6307686   0.3155085  -0.2332348 SPIN=   0.00000
   O   0.2014750   0.2525603  -0.4547954 SPIN=   0.00000
   O   0.2342848   0.0627445  -0.2695005 SPIN=   0.00000
   O   0.7044383   0.0856138  -0.4210722 SPIN=   0.00000
   P   0.4558415   0.1852662  -0.3396203 SPIN=   0.00000
   O   0.1911472   0.0502787   0.1319070 SPIN=   0.00000
   O   0.2002104   0.3334561   0.0416650 SPIN=   0.00000
   O   0.2615183   0.3097999   0.2992242 SPIN=   0.00000
   O   0.7297888   0.2306074   0.1574867 SPIN=   0.00000
   P   0.3419719   0.2214061   0.1562032 SPIN=   0.00000
   O  -0.1911472  -0.0502787  -0.1319070 SPIN=   0.00000
   O  -0.2002104  -0.3334561  -0.0416650 SPIN=   0.00000
   O  -0.2615183  -0.3097999  -0.2992242 SPIN=   0.00000
   O  -0.7297888  -0.2306074  -0.1574867 SPIN=   0.00000
   P  -0.3419719  -0.2214061  -0.1562032 SPIN=   0.00000
  Fe  -0.2127374   0.1901619  -0.0592956 SPIN=   3.70267
  Fe   0.2127374  -0.1901619   0.0592956 SPIN=   3.70267
  Fe  -0.1198224   0.1669641   0.3663929 SPIN=   4.29733
  Fe   0.1198224  -0.1669641  -0.3663929 SPIN=   4.29733
%ENDBLOCK POSITIONS_FRAC

# Note: total spin =  16.00

KPOINTS_MP_SPACING 0.07

%BLOCK SPECIES_POT
QC5
%ENDBLOCK SPECIES_POT

%BLOCK HUBBARD_U
Fe d:4.0
%ENDBLOCK HUBBARD_U

SNAP_TO_SYMMETRY
SYMMETRY_GENERATE

