#              Generated by Buildcell
#
# at 12:28:45 (GMT+0.0) 24th November 2020
# in /lustre/scratch/uccabz1/launch_tmp
# on node-c12c-035
# by uccabz1
#
# compiler GCC version 4.9.2
# options -cpp -iprefix /lustre/shared/ucl/apps/gcc/4.9.2/bin/../lib/gcc/x86_64-unknown-linux-gnu/4.9.2/ -mtune=corei7 -march=x86-64 -g -Og
#
# seed   974070101     8380754   636312983 -1809877197 -1194181437  -590389709  -427738383   323876850 -1007002391   690376922  1058270472  -569679482
#
#      Author: C. J. Pickard (cjp20@cam.ac.uk)
#                Space group: P-1
#

%BLOCK LATTICE_ABC
      4.23083      5.98415      6.55705
     96.00567    102.06923     96.21075
%ENDBLOCK LATTICE_ABC

%BLOCK POSITIONS_FRAC
  Li  -0.0000000   0.0000000   0.0000000 SPIN=   0.00000
  Li   0.0000000  -0.5000000   0.0000000 SPIN=   0.00000
   O  -0.0651099  -0.0232924   0.3062418 SPIN=   0.00000
   O  -0.5191752  -0.3615977   0.1481839 SPIN=   0.00000
   O   0.0216738  -0.4442290   0.3271346 SPIN=   0.00000
   P  -0.2177912  -0.2610832   0.3314899 SPIN=   0.00000
   O   0.0651099   0.0232924  -0.3062418 SPIN=   0.00000
   O   0.5191752   0.3615977  -0.1481839 SPIN=   0.00000
   O  -0.0216738   0.4442290  -0.3271346 SPIN=   0.00000
   P   0.2177912   0.2610832  -0.3314899 SPIN=   0.00000
   O   0.5000000   0.0000000  -0.0000000 SPIN=   0.00000
   O   0.5000000   0.0000000   0.5000000 SPIN=   0.00000
  Fe  -0.6535942  -0.2609004  -0.3411012 SPIN=   4.00000
  Fe   0.6535942   0.2609004   0.3411012 SPIN=   4.00000
%ENDBLOCK POSITIONS_FRAC

# Note: total spin =   8.00

KPOINTS_MP_SPACING 0.07

%BLOCK SPECIES_POT
QC5
%ENDBLOCK SPECIES_POT

%BLOCK HUBBARD_U
Fe d:4.0
%ENDBLOCK HUBBARD_U

SNAP_TO_SYMMETRY
SYMMETRY_GENERATE

