#              Generated by Buildcell
#
# at 12:01:17 (GMT+0.0) 24th November 2020
# in /lustre/scratch/uccabz1/launch_tmp
# on node-c12c-034
# by uccabz1
#
# compiler GCC version 4.9.2
# options -cpp -iprefix /lustre/shared/ucl/apps/gcc/4.9.2/bin/../lib/gcc/x86_64-unknown-linux-gnu/4.9.2/ -mtune=corei7 -march=x86-64 -g -Og
#
# seed -1685116715  -590856198   616284620 -1766315021 -1610557089 -1110838654  1653046917  1662321124  1693332638   823225631   -34454825 -1245957789
#
#      Author: C. J. Pickard (cjp20@cam.ac.uk)
#                Space group: C2
#

%BLOCK LATTICE_ABC
      4.97994      5.82140      6.75315
     69.34240     68.36374     64.67661
%ENDBLOCK LATTICE_ABC

%BLOCK POSITIONS_FRAC
  Li   0.3110595  -0.4967697   0.1917844 SPIN=   0.00000
  Li   0.0060741   0.4967697  -0.1917844 SPIN=   0.00000
   O   0.5483737  -0.2313595  -0.0340924 SPIN=   0.00000
   O   0.4732776   0.0243316  -0.4232301 SPIN=   0.00000
   O   0.5679085  -0.4500401  -0.3168977 SPIN=   0.00000
   O   0.0640416  -0.1468169  -0.1447068 SPIN=   0.00000
   P   0.4164642  -0.2019501  -0.2183115 SPIN=   0.00000
   O   0.2829219   0.2313595   0.0340924 SPIN=   0.00000
   O   0.0743792  -0.0243316   0.4232301 SPIN=   0.00000
   O  -0.1990293   0.4500401   0.3168977 SPIN=   0.00000
   O  -0.2274821   0.1468169   0.1447068 SPIN=   0.00000
   P  -0.0037974   0.2019501   0.2183115 SPIN=   0.00000
  Fe  -0.4282955  -0.1434533   0.3171829 SPIN=   4.00000
  Fe  -0.2545659   0.1434533  -0.3171829 SPIN=   4.00000
%ENDBLOCK POSITIONS_FRAC

# Note: total spin =   8.00

KPOINTS_MP_SPACING 0.07

%BLOCK SPECIES_POT
QC5
%ENDBLOCK SPECIES_POT

%BLOCK HUBBARD_U
Fe d:4.0
%ENDBLOCK HUBBARD_U

SNAP_TO_SYMMETRY
SYMMETRY_GENERATE

