#              Generated by Buildcell
#
# at 07:37:37 (GMT+0.0) 24th November 2020
# in /lustre/scratch/uccabz1/launch_tmp
# on node-c12b-026
# by uccabz1
#
# compiler GCC version 4.9.2
# options -cpp -iprefix /lustre/shared/ucl/apps/gcc/4.9.2/bin/../lib/gcc/x86_64-unknown-linux-gnu/4.9.2/ -mtune=corei7 -march=x86-64 -g -Og
#
# seed  -845901651 -1296428810   462736780 -1952035300 -1187996532 -2070859617  1329326970  1333881372   432621187 -1625563643 -1256784548 -2119193339
#
#      Author: C. J. Pickard (cjp20@cam.ac.uk)
#                Space group: P-1
#

%BLOCK LATTICE_ABC
      4.36664      4.64739      8.14904
     98.95017    101.41880     90.42901
%ENDBLOCK LATTICE_ABC

%BLOCK POSITIONS_FRAC
  Li   0.0000000   0.0000000  -0.5000000 SPIN=   0.00000
  Li   0.5000000   0.5000000  -0.5000000 SPIN=   0.00000
   O  -0.2660059  -0.1161352  -0.0451133 SPIN=   0.00000
   O  -0.4692230   0.3686484  -0.1392475 SPIN=   0.00000
   O  -0.0147858   0.1546855  -0.2445330 SPIN=   0.00000
   O  -0.5454069  -0.0892982  -0.3525929 SPIN=   0.00000
   P  -0.3233898   0.0670682  -0.1892265 SPIN=   0.00000
   O   0.2660059   0.1161352   0.0451133 SPIN=   0.00000
   O   0.4692230  -0.3686484   0.1392475 SPIN=   0.00000
   O   0.0147858  -0.1546855   0.2445330 SPIN=   0.00000
   O   0.5454069   0.0892982   0.3525929 SPIN=   0.00000
   P   0.3233898  -0.0670682   0.1892265 SPIN=   0.00000
  Fe  -0.1830201   0.3231206   0.1624824 SPIN=   4.00000
  Fe   0.1830201  -0.3231206  -0.1624824 SPIN=   4.00000
%ENDBLOCK POSITIONS_FRAC

# Note: total spin =   8.00

KPOINTS_MP_SPACING 0.07

%BLOCK SPECIES_POT
QC5
%ENDBLOCK SPECIES_POT

%BLOCK HUBBARD_U
Fe d:4.0
%ENDBLOCK HUBBARD_U

SNAP_TO_SYMMETRY
SYMMETRY_GENERATE

