#              Generated by Buildcell
#
# at 06:49:58 (GMT+0.0) 24th November 2020
# in /lustre/scratch/uccabz1/launch_tmp
# on node-c12n-022
# by uccabz1
#
# compiler GCC version 4.9.2
# options -cpp -iprefix /lustre/shared/ucl/apps/gcc/4.9.2/bin/../lib/gcc/x86_64-unknown-linux-gnu/4.9.2/ -mtune=corei7 -march=x86-64 -g -Og
#
# seed  -566528825 -1294788873  -866928793  1986655783  1144411568  1215017436 -2012344285 -1183063159   439002229   453355637   187789324  -551683959
#
#      Author: C. J. Pickard (cjp20@cam.ac.uk)
#                Space group: P-1
#

%BLOCK LATTICE_ABC
      4.78734      5.88228      6.52317
     82.24750     69.79093     68.15110
%ENDBLOCK LATTICE_ABC

%BLOCK POSITIONS_FRAC
  Li  -0.1457175  -0.2289504   0.0540829 SPIN=   0.00000
  Li   0.1457175   0.2289504  -0.0540829 SPIN=   0.00000
   O  -0.1994232  -0.0892972  -0.2504860 SPIN=   0.00000
   O  -0.3304893   0.2808894  -0.0133242 SPIN=   0.00000
   O   0.0700413   0.2383067  -0.3802076 SPIN=   0.00000
   O  -0.5036703   0.3545007  -0.3448897 SPIN=   0.00000
   P  -0.2417789   0.1827732  -0.2485529 SPIN=   0.00000
   O   0.1994232   0.0892972   0.2504860 SPIN=   0.00000
   O   0.3304893  -0.2808894   0.0133242 SPIN=   0.00000
   O  -0.0700413  -0.2383067   0.3802076 SPIN=   0.00000
   O   0.5036703  -0.3545007   0.3448897 SPIN=   0.00000
   P   0.2417789  -0.1827732   0.2485529 SPIN=   0.00000
  Fe  -0.4250284  -0.2986022  -0.3231717 SPIN=   4.00000
  Fe   0.4250284   0.2986022   0.3231717 SPIN=   4.00000
%ENDBLOCK POSITIONS_FRAC

# Note: total spin =   8.00

KPOINTS_MP_SPACING 0.07

%BLOCK SPECIES_POT
QC5
%ENDBLOCK SPECIES_POT

%BLOCK HUBBARD_U
Fe d:4.0
%ENDBLOCK HUBBARD_U

SNAP_TO_SYMMETRY
SYMMETRY_GENERATE

