#              Generated by Buildcell
#
# at 08:06:52 (GMT+0.0) 24th November 2020
# in /scratch/scratch/uccabz1/launch_tmp
# on node-a14c-007
# by uccabz1
#
# compiler GCC version 4.9.2
# options -cpp -iprefix /scratch/UCL/applications/gcc/4.9.2/bin/../lib/gcc/x86_64-unknown-linux-gnu/4.9.2/ -mtune=corei7 -march=x86-64 -g -O2
#
# seed -1678948231   401986681  1230457557  -271111790  2111286957  1874398537 -1612482902  -619915449 -1333495718 -1892432015 -1857765127  1678817928
#
#      Author: C. J. Pickard (cjp20@cam.ac.uk)
#                Space group: P2
#

%BLOCK LATTICE_ABC
      4.08818      4.25384      9.38692
     90.00000    101.43994     90.00000
%ENDBLOCK LATTICE_ABC

%BLOCK POSITIONS_FRAC
  Li  -0.1111058   0.4168311  -0.1746777 SPIN=   0.00000
  Li   0.1111058   0.4168311   0.1746777 SPIN=   0.00000
   O  -0.5501175   0.0306393   0.2101330 SPIN=   0.00000
   O   0.0442716   0.0505692   0.3716891 SPIN=   0.00000
   O  -0.2436251   0.5520910   0.2970055 SPIN=   0.00000
   P  -0.3140010   0.2009806   0.3340614 SPIN=   0.00000
   O   0.5501175   0.0306393  -0.2101330 SPIN=   0.00000
   O  -0.0442716   0.0505692  -0.3716891 SPIN=   0.00000
   O   0.2436251   0.5520910  -0.2970055 SPIN=   0.00000
   P   0.3140010   0.2009806  -0.3340614 SPIN=   0.00000
   O   0.0000000   0.0974629   0.0000000 SPIN=   0.00000
   O  -0.5000000   0.4214948  -0.0000000 SPIN=   0.00000
  Fe  -0.5000000  -0.0854453  -0.0000000 SPIN=   4.44521
  Fe  -0.5000000  -0.2988482  -0.5000000 SPIN=   3.55479
%ENDBLOCK POSITIONS_FRAC

# Note: total spin =   8.00

KPOINTS_MP_SPACING 0.07

%BLOCK SPECIES_POT
QC5
%ENDBLOCK SPECIES_POT

%BLOCK HUBBARD_U
Fe d:4.0
%ENDBLOCK HUBBARD_U

SNAP_TO_SYMMETRY
SYMMETRY_GENERATE

