#              Generated by Buildcell
#
# at 18:17:19 (GMT+0.0) 26th November 2020
# in /lustre/scratch/uccabz1/launch_tmp
# on node-c12f-031
# by uccabz1
#
# compiler GCC version 4.9.2
# options -cpp -iprefix /lustre/shared/ucl/apps/gcc/4.9.2/bin/../lib/gcc/x86_64-unknown-linux-gnu/4.9.2/ -mtune=corei7 -march=x86-64 -g -Og
#
# seed  1284796724  1279706400  -691083986  -389219758   118729976    -5530792   724657605  2017652044  1621038597  -141190890   612889303 -1395006842
#
#      Author: C. J. Pickard (cjp20@cam.ac.uk)
#                Space group: P21212
#

%BLOCK LATTICE_ABC
      5.41821      5.56298     10.61664
     90.00000     90.00000     90.00000
%ENDBLOCK LATTICE_ABC

%BLOCK POSITIONS_FRAC
  Li  -0.1098843  -0.2480024  -0.2046759 SPIN=   0.00000
  Li  -0.1098843   0.2480024   0.2046759 SPIN=   0.00000
  Li   0.1098843   0.2519976  -0.2953241 SPIN=   0.00000
  Li   0.1098843  -0.2519976   0.2953241 SPIN=   0.00000
   O  -0.1758092  -0.2207647   0.5078457 SPIN=   0.00000
   O  -0.3658524  -0.0142719   0.3109388 SPIN=   0.00000
   O  -0.2367600  -0.4388266   0.2936893 SPIN=   0.00000
   O  -0.6075907  -0.3327647   0.4230678 SPIN=   0.00000
   P  -0.3404956  -0.2509692   0.3909481 SPIN=   0.00000
   O  -0.1758092   0.2207647  -0.5078457 SPIN=   0.00000
   O  -0.3658524   0.0142719  -0.3109388 SPIN=   0.00000
   O  -0.2367600   0.4388266  -0.2936893 SPIN=   0.00000
   O  -0.6075907   0.3327647  -0.4230678 SPIN=   0.00000
   P  -0.3404956   0.2509692  -0.3909481 SPIN=   0.00000
   O   0.1758092   0.2792353  -0.0078457 SPIN=   0.00000
   O   0.3658524   0.4857281   0.1890612 SPIN=   0.00000
   O   0.2367600   0.0611734   0.2063107 SPIN=   0.00000
   O   0.6075907   0.1672353   0.0769322 SPIN=   0.00000
   P   0.3404956   0.2490308   0.1090519 SPIN=   0.00000
   O   0.1758092  -0.2792353   0.0078457 SPIN=   0.00000
   O   0.3658524  -0.4857281  -0.1890612 SPIN=   0.00000
   O   0.2367600  -0.0611734  -0.2063107 SPIN=   0.00000
   O   0.6075907  -0.1672353  -0.0769322 SPIN=   0.00000
   P   0.3404956  -0.2490308  -0.1090519 SPIN=   0.00000
  Fe   0.3912842  -0.2499738  -0.3760879 SPIN=   4.00000
  Fe   0.3912842   0.2499738   0.3760879 SPIN=   4.00000
  Fe  -0.3912842   0.2500262  -0.1239121 SPIN=   4.00000
  Fe  -0.3912842  -0.2500262   0.1239121 SPIN=   4.00000
%ENDBLOCK POSITIONS_FRAC

# Note: total spin =  16.00

KPOINTS_MP_SPACING 0.07

%BLOCK SPECIES_POT
QC5
%ENDBLOCK SPECIES_POT

%BLOCK HUBBARD_U
Fe d:4.0
%ENDBLOCK HUBBARD_U

SNAP_TO_SYMMETRY
SYMMETRY_GENERATE

