#              Generated by Buildcell
#
# at 09:52:58 (GMT+0.0) 24th November 2020
# in /lustre/scratch/uccabz1/launch_tmp
# on node-c12g-025
# by uccabz1
#
# compiler GCC version 4.9.2
# options -cpp -iprefix /lustre/shared/ucl/apps/gcc/4.9.2/bin/../lib/gcc/x86_64-unknown-linux-gnu/4.9.2/ -mtune=corei7 -march=x86-64 -g -Og
#
# seed -1874378771  -643913414  1425254613 -1904075924  -849155608  -181292855  1159660946 -1668867187  -897567684   -18961478 -1602735802 -1286949586
#
#      Author: C. J. Pickard (cjp20@cam.ac.uk)
#                Space group: P-1
#

%BLOCK LATTICE_ABC
      4.14412      4.95540      8.18032
     97.34149    103.76321     96.54556
%ENDBLOCK LATTICE_ABC

%BLOCK POSITIONS_FRAC
  Li   1.0000000   0.5000000   0.5000000 SPIN=   0.00000
  Li   0.5000000  -0.0000000   0.5000000 SPIN=   0.00000
   O  -0.0357388   0.2603195   0.0291894 SPIN=   0.00000
   O   0.5781716   0.3182975   0.2151927 SPIN=   0.00000
   O   0.2046452   0.6361108   0.2967966 SPIN=   0.00000
   O   0.1061604   0.1423403   0.3343354 SPIN=   0.00000
   P   0.1987846   0.3327395   0.2101411 SPIN=   0.00000
   O   0.0357388  -0.2603195  -0.0291894 SPIN=   0.00000
   O  -0.5781716  -0.3182975  -0.2151927 SPIN=   0.00000
   O  -0.2046452  -0.6361108  -0.2967966 SPIN=   0.00000
   O  -0.1061604  -0.1423403  -0.3343354 SPIN=   0.00000
   P  -0.1987846  -0.3327395  -0.2101411 SPIN=   0.00000
  Fe   0.2162836   0.1904936  -0.1634841 SPIN=   4.00000
  Fe  -0.2162836  -0.1904936   0.1634841 SPIN=   4.00000
%ENDBLOCK POSITIONS_FRAC

# Note: total spin =   8.00

KPOINTS_MP_SPACING 0.07

%BLOCK SPECIES_POT
QC5
%ENDBLOCK SPECIES_POT

%BLOCK HUBBARD_U
Fe d:4.0
%ENDBLOCK HUBBARD_U

SNAP_TO_SYMMETRY
SYMMETRY_GENERATE

