#              Generated by Buildcell
#
# at 12:02:59 (GMT+0.0) 24th November 2020
# in /scratch/scratch/uccabz1/launch_tmp
# on node-a14a-027
# by uccabz1
#
# compiler GCC version 4.9.2
# options -cpp -iprefix /scratch/UCL/applications/gcc/4.9.2/bin/../lib/gcc/x86_64-unknown-linux-gnu/4.9.2/ -mtune=corei7 -march=x86-64 -g -O2
#
# seed -1670260513  1582843244 -1980574971  -932682198 -1605067588    99448707   984502884  -874965497   685119986  -637585221 -1759237673   765336408
#
#      Author: C. J. Pickard (cjp20@cam.ac.uk)
#                Space group: Pc
#

%BLOCK LATTICE_ABC
      3.90078      6.22488      6.65925
     90.00000     98.31388     90.00000
%ENDBLOCK LATTICE_ABC

%BLOCK POSITIONS_FRAC
  Li   0.0765102  -0.0778112  -0.2081721 SPIN=   0.00000
  Li   0.0765102   0.0778112   0.2918279 SPIN=   0.00000
   O  -0.2488152  -0.3639664  -0.0707778 SPIN=   0.00000
   O   0.3118570  -0.1636448   0.0841391 SPIN=   0.00000
   O  -0.1367163  -0.2315284   0.3029486 SPIN=   0.00000
   O   0.2110159  -0.5390398   0.1975713 SPIN=   0.00000
   P   0.0213440  -0.3291751   0.1186768 SPIN=   0.00000
   O  -0.2488152   0.3639664  -0.5707778 SPIN=   0.00000
   O   0.3118570   0.1636448  -0.4158609 SPIN=   0.00000
   O  -0.1367163   0.2315284  -0.1970514 SPIN=   0.00000
   O   0.2110159   0.5390398  -0.3024287 SPIN=   0.00000
   P   0.0213440   0.3291751  -0.3813232 SPIN=   0.00000
  Fe  -0.4941515  -0.3457319   0.4821313 SPIN=   4.00000
  Fe  -0.4941515   0.3457319  -0.0178687 SPIN=   4.00000
%ENDBLOCK POSITIONS_FRAC

# Note: total spin =   8.00

KPOINTS_MP_SPACING 0.07

%BLOCK SPECIES_POT
QC5
%ENDBLOCK SPECIES_POT

%BLOCK HUBBARD_U
Fe d:4.0
%ENDBLOCK HUBBARD_U

SNAP_TO_SYMMETRY
SYMMETRY_GENERATE

