#              Generated by Buildcell
#
# at 01:14:13 (GMT+0.0) 27th November 2020
# in /lustre/scratch/uccabz1/launch_tmp
# on node-c12d-024
# by uccabz1
#
# compiler GCC version 4.9.2
# options -cpp -iprefix /lustre/shared/ucl/apps/gcc/4.9.2/bin/../lib/gcc/x86_64-unknown-linux-gnu/4.9.2/ -mtune=corei7 -march=x86-64 -g -Og
#
# seed  -183067719  2029777753  -892203004  -501188159  2121322643 -2027211306   947965176  -512638581 -2046279514 -1858132623 -1765614512  1372140757
#
#      Author: C. J. Pickard (cjp20@cam.ac.uk)
#                Space group: P21212
#

%BLOCK LATTICE_ABC
      5.66906      5.83066      9.68103
     90.00000     90.00000     90.00000
%ENDBLOCK LATTICE_ABC

%BLOCK POSITIONS_FRAC
  Li  -0.1556814   0.2499313   0.0427330 SPIN=   0.00000
  Li  -0.1556814  -0.2499313  -0.0427330 SPIN=   0.00000
  Li   0.1556814   0.2500687  -0.4572670 SPIN=   0.00000
  Li   0.1556814  -0.2500687   0.4572670 SPIN=   0.00000
   O   0.0953995  -0.4874693  -0.1636940 SPIN=   0.00000
   O   0.2908944  -0.2128326  -0.3413338 SPIN=   0.00000
   O   0.1374536  -0.0486919  -0.1239676 SPIN=   0.00000
   O   0.4987910  -0.2956279  -0.1185964 SPIN=   0.00000
   P   0.2499724  -0.2736123  -0.1848564 SPIN=   0.00000
   O   0.0953995   0.4874693   0.1636940 SPIN=   0.00000
   O   0.2908944   0.2128326   0.3413338 SPIN=   0.00000
   O   0.1374536   0.0486919   0.1239676 SPIN=   0.00000
   O   0.4987910   0.2956279   0.1185964 SPIN=   0.00000
   P   0.2499724   0.2736123   0.1848564 SPIN=   0.00000
   O  -0.0953995  -0.0125307   0.3363060 SPIN=   0.00000
   O  -0.2908944  -0.2871674   0.1586662 SPIN=   0.00000
   O  -0.1374536  -0.4513081   0.3760324 SPIN=   0.00000
   O  -0.4987910  -0.2043721   0.3814036 SPIN=   0.00000
   P  -0.2499724  -0.2263877   0.3151436 SPIN=   0.00000
   O  -0.0953995   0.0125307  -0.3363060 SPIN=   0.00000
   O  -0.2908944   0.2871674  -0.1586662 SPIN=   0.00000
   O  -0.1374536   0.4513081  -0.3760324 SPIN=   0.00000
   O  -0.4987910   0.2043721  -0.3814036 SPIN=   0.00000
   P  -0.2499724   0.2263877  -0.3151436 SPIN=   0.00000
  Fe   0.3435074   0.2498648  -0.1345458 SPIN=   4.00000
  Fe   0.3435074  -0.2498648   0.1345458 SPIN=   4.00000
  Fe  -0.3435074   0.2501352   0.3654542 SPIN=   4.00000
  Fe  -0.3435074  -0.2501352  -0.3654542 SPIN=   4.00000
%ENDBLOCK POSITIONS_FRAC

# Note: total spin =  16.00

KPOINTS_MP_SPACING 0.07

%BLOCK SPECIES_POT
QC5
%ENDBLOCK SPECIES_POT

%BLOCK HUBBARD_U
Fe d:4.0
%ENDBLOCK HUBBARD_U

SNAP_TO_SYMMETRY
SYMMETRY_GENERATE

