#              Generated by Buildcell
#
# at 14:42:12 (GMT+0.0) 24th November 2020
# in /scratch/scratch/uccabz1/launch_tmp
# on node-a14f-029
# by uccabz1
#
# compiler GCC version 4.9.2
# options -cpp -iprefix /scratch/UCL/applications/gcc/4.9.2/bin/../lib/gcc/x86_64-unknown-linux-gnu/4.9.2/ -mtune=corei7 -march=x86-64 -g -O2
#
# seed  1926988960  1829990971  1672567322   800567351  1534733486  -553526091   648868719 -1735249268  1357047380  -246447390 -1936927408 -1252395057
#
#      Author: C. J. Pickard (cjp20@cam.ac.uk)
#                Space group: P21
#

%BLOCK LATTICE_ABC
      3.88514      5.67498      7.29554
     90.00000     95.90261     90.00000
%ENDBLOCK LATTICE_ABC

%BLOCK POSITIONS_FRAC
  Li   0.3885240   0.0089411  -0.0467285 SPIN=   0.00000
  Li  -0.3885240  -0.4910589   0.0467285 SPIN=   0.00000
   O  -0.1918274  -0.2084035  -0.0972369 SPIN=   0.00000
   O  -0.3693158  -0.2060152  -0.4504343 SPIN=   0.00000
   O   0.1547063   0.0134532  -0.3299368 SPIN=   0.00000
   O   0.1609008  -0.4277952  -0.3255277 SPIN=   0.00000
   P  -0.0657063  -0.2098582  -0.2902381 SPIN=   0.00000
   O   0.1918274   0.2915965   0.0972369 SPIN=   0.00000
   O   0.3693158   0.2939848   0.4504343 SPIN=   0.00000
   O  -0.1547063   0.5134532   0.3299368 SPIN=   0.00000
   O  -0.1609008   0.0722048   0.3255277 SPIN=   0.00000
   P   0.0657063   0.2901418   0.2902381 SPIN=   0.00000
  Fe   0.1976008  -0.2051729   0.3524879 SPIN=   4.00000
  Fe  -0.1976008   0.2948271  -0.3524879 SPIN=   4.00000
%ENDBLOCK POSITIONS_FRAC

# Note: total spin =   8.00

KPOINTS_MP_SPACING 0.07

%BLOCK SPECIES_POT
QC5
%ENDBLOCK SPECIES_POT

%BLOCK HUBBARD_U
Fe d:4.0
%ENDBLOCK HUBBARD_U

SNAP_TO_SYMMETRY
SYMMETRY_GENERATE

