#              Generated by Buildcell
#
# at 09:32:50 (GMT+0.0) 24th November 2020
# in /lustre/scratch/uccabz1/launch_tmp
# on node-c12j-029
# by uccabz1
#
# compiler GCC version 4.9.2
# options -cpp -iprefix /lustre/shared/ucl/apps/gcc/4.9.2/bin/../lib/gcc/x86_64-unknown-linux-gnu/4.9.2/ -mtune=corei7 -march=x86-64 -g -Og
#
# seed  -406021756  -807019767  -711588260  -126991799 -1682596025  1069031492  -907380321 -1226644590 -1450599882  1202727842  2130714659   619547383
#
#      Author: C. J. Pickard (cjp20@cam.ac.uk)
#                Space group: C222
#

%BLOCK LATTICE_ABC
      4.58851      4.58851      7.59935
     90.00000     90.00000     90.06538
%ENDBLOCK LATTICE_ABC

%BLOCK POSITIONS_FRAC
  Li   0.5000000  -0.5000000  -0.5000000 SPIN=   0.00000
  Li  -0.5000000   0.5000000   0.0000000 SPIN=   0.00000
   O   0.7361967  -0.2327060  -0.3230895 SPIN=   0.00000
   O   0.7547605  -0.7450791  -0.1780473 SPIN=   0.00000
   O  -0.7361967   0.2327060  -0.3230895 SPIN=   0.00000
   O  -0.7547605   0.7450791  -0.1780473 SPIN=   0.00000
   O  -0.7672940   0.2638033   0.3230895 SPIN=   0.00000
   O  -0.2549209   0.2452395   0.1780473 SPIN=   0.00000
   O   0.7672940  -0.2638033   0.3230895 SPIN=   0.00000
   O   0.2549209  -0.2452395   0.1780473 SPIN=   0.00000
   P  -0.0000000   0.5000000   0.2281207 SPIN=   0.00000
   P   0.5000000   0.0000000  -0.2281207 SPIN=   0.00000
  Fe  -0.0000000  -0.0000000   0.0000000 SPIN=   5.64362
  Fe   0.0000000   0.0000000   0.5000000 SPIN=   2.35638
%ENDBLOCK POSITIONS_FRAC

# Note: total spin =   8.00

KPOINTS_MP_SPACING 0.07

%BLOCK SPECIES_POT
QC5
%ENDBLOCK SPECIES_POT

%BLOCK HUBBARD_U
Fe d:4.0
%ENDBLOCK HUBBARD_U

SNAP_TO_SYMMETRY
SYMMETRY_GENERATE

