#              Generated by Buildcell
#
# at 12:52:44 (GMT+0.0) 24th November 2020
# in /lustre/scratch/uccabz1/launch_tmp
# on node-c12l-023
# by uccabz1
#
# compiler GCC version 4.9.2
# options -cpp -iprefix /lustre/shared/ucl/apps/gcc/4.9.2/bin/../lib/gcc/x86_64-unknown-linux-gnu/4.9.2/ -mtune=corei7 -march=x86-64 -g -Og
#
# seed   136824124  -945413968  -819644186  -117392516 -2123738175 -1390949408  1448972543 -1215562625  -150755856  1896750201 -1461063046   318826178
#
#      Author: C. J. Pickard (cjp20@cam.ac.uk)
#                Space group: P21
#

%BLOCK LATTICE_ABC
      3.83155      6.26173      6.81807
     90.00000    102.00891     90.00000
%ENDBLOCK LATTICE_ABC

%BLOCK POSITIONS_FRAC
  Li   0.0490800  -0.3229475  -0.0453702 SPIN=   0.00000
  Li  -0.0490800   0.1770525   0.0453702 SPIN=   0.00000
   O   0.2195538   0.0230062   0.3065475 SPIN=   0.00000
   O   0.0844034  -0.3834235   0.2718315 SPIN=   0.00000
   O  -0.2432698  -0.1663830   0.4765538 SPIN=   0.00000
   O  -0.3776854  -0.1228147   0.1032638 SPIN=   0.00000
   P  -0.0668616  -0.1520644   0.2882558 SPIN=   0.00000
   O  -0.2195538   0.5230062  -0.3065475 SPIN=   0.00000
   O  -0.0844034   0.1165765  -0.2718315 SPIN=   0.00000
   O   0.2432698   0.3336170  -0.4765538 SPIN=   0.00000
   O   0.3776854   0.3771853  -0.1032638 SPIN=   0.00000
   P   0.0668616   0.3479356  -0.2882558 SPIN=   0.00000
  Fe  -0.4210084   0.4609441   0.3474093 SPIN=   4.00000
  Fe   0.4210084  -0.0390559  -0.3474093 SPIN=   4.00000
%ENDBLOCK POSITIONS_FRAC

# Note: total spin =   8.00

KPOINTS_MP_SPACING 0.07

%BLOCK SPECIES_POT
QC5
%ENDBLOCK SPECIES_POT

%BLOCK HUBBARD_U
Fe d:4.0
%ENDBLOCK HUBBARD_U

SNAP_TO_SYMMETRY
SYMMETRY_GENERATE

