#              Generated by Buildcell
#
# at 15:51:32 (GMT+0.0) 1st December 2020
# in /lustre/scratch/uccabz1/launch_tmp
# on node-c12g-035
# by uccabz1
#
# compiler GCC version 4.9.2
# options -cpp -iprefix /lustre/shared/ucl/apps/gcc/4.9.2/bin/../lib/gcc/x86_64-unknown-linux-gnu/4.9.2/ -mtune=corei7 -march=x86-64 -g -Og
#
# seed   879628027 -1120306361  1703874057  1475462531  2102165087 -1336630843  1078484908 -1848040222   562450594 -1048559684   158028121 -1131914102
#
#      Author: C. J. Pickard (cjp20@cam.ac.uk)
#                Space group: P21212
#

%BLOCK LATTICE_ABC
      4.60900      6.32640     10.97456
     90.00000     90.00000     90.00000
%ENDBLOCK LATTICE_ABC

%BLOCK POSITIONS_FRAC
  Li   0.2494190   0.4765428   0.0896520 SPIN=   0.00000
  Li  -0.2494190   0.4765428  -0.0896520 SPIN=   0.00000
  Li   0.2505810  -0.4765428  -0.4103480 SPIN=   0.00000
  Li  -0.2505810  -0.4765428   0.4103480 SPIN=   0.00000
   O  -0.2378699  -0.5162960  -0.3193585 SPIN=   0.00000
   O  -0.3913904  -0.1453734  -0.3978883 SPIN=   0.00000
   O  -0.3056215  -0.1914828  -0.1773211 SPIN=   0.00000
   O   0.1152953  -0.1993173  -0.3215602 SPIN=   0.00000
   P  -0.2028737  -0.2758450  -0.3050550 SPIN=   0.00000
   O   0.2378699  -0.5162960   0.3193585 SPIN=   0.00000
   O   0.3913904  -0.1453734   0.3978883 SPIN=   0.00000
   O   0.3056215  -0.1914828   0.1773211 SPIN=   0.00000
   O  -0.1152953  -0.1993173   0.3215602 SPIN=   0.00000
   P   0.2028737  -0.2758450   0.3050550 SPIN=   0.00000
   O  -0.2621301   0.5162960   0.1806415 SPIN=   0.00000
   O  -0.1086096   0.1453734   0.1021117 SPIN=   0.00000
   O  -0.1943785   0.1914828   0.3226789 SPIN=   0.00000
   O  -0.6152953   0.1993173   0.1784398 SPIN=   0.00000
   P  -0.2971263   0.2758450   0.1949450 SPIN=   0.00000
   O   0.2621301   0.5162960  -0.1806415 SPIN=   0.00000
   O   0.1086096   0.1453734  -0.1021117 SPIN=   0.00000
   O   0.1943785   0.1914828  -0.3226789 SPIN=   0.00000
   O   0.6152953   0.1993173  -0.1784398 SPIN=   0.00000
   P   0.2971263   0.2758450  -0.1949450 SPIN=   0.00000
  Fe   0.2492307   0.1616983   0.3588530 SPIN=   4.00000
  Fe  -0.2492307   0.1616983  -0.3588530 SPIN=   4.00000
  Fe   0.2507693  -0.1616983  -0.1411470 SPIN=   4.00000
  Fe  -0.2507693  -0.1616983   0.1411470 SPIN=   4.00000
%ENDBLOCK POSITIONS_FRAC

# Note: total spin =  16.00

KPOINTS_MP_SPACING 0.07

%BLOCK SPECIES_POT
QC5
%ENDBLOCK SPECIES_POT

%BLOCK HUBBARD_U
Fe d:4.0
%ENDBLOCK HUBBARD_U

SNAP_TO_SYMMETRY
SYMMETRY_GENERATE

