#              Generated by Buildcell
#
# at 13:44:21 (GMT+0.0) 24th November 2020
# in /scratch/scratch/uccabz1/launch_tmp
# on node-a14b-028
# by uccabz1
#
# compiler GCC version 4.9.2
# options -cpp -iprefix /scratch/UCL/applications/gcc/4.9.2/bin/../lib/gcc/x86_64-unknown-linux-gnu/4.9.2/ -mtune=corei7 -march=x86-64 -g -O2
#
# seed -1497215416   932781895  1339967164 -1624966959   360272179 -1680764527  1473883893   859862848  1940285700  1627015150 -1719208668  1723620693
#
#      Author: C. J. Pickard (cjp20@cam.ac.uk)
#                Space group: P21
#

%BLOCK LATTICE_ABC
      4.36510      5.47392      6.96319
     90.00000     90.00000    105.91774
%ENDBLOCK LATTICE_ABC

%BLOCK POSITIONS_FRAC
  Li   0.3668091  -0.0634048  -0.0246177 SPIN=   0.00000
  Li  -0.3668091   0.0634048   0.4753823 SPIN=   0.00000
   O  -0.1619014  -0.4565713  -0.1551787 SPIN=   0.00000
   O  -0.3325181  -0.3100772  -0.4834415 SPIN=   0.00000
   O  -0.2400453  -0.0083855  -0.2118554 SPIN=   0.00000
   O   0.2234979  -0.1191593  -0.3649885 SPIN=   0.00000
   P  -0.1254155  -0.2347238  -0.2966705 SPIN=   0.00000
   O   0.1619014   0.4565713   0.3448213 SPIN=   0.00000
   O   0.3325181   0.3100772   0.0165585 SPIN=   0.00000
   O   0.2400453   0.0083855   0.2881446 SPIN=   0.00000
   O  -0.2234979   0.1191593   0.1350115 SPIN=   0.00000
   P   0.1254155   0.2347238   0.2033295 SPIN=   0.00000
  Fe  -0.2529785  -0.4116994   0.2170143 SPIN=   4.00000
  Fe   0.2529785   0.4116994  -0.2829857 SPIN=   4.00000
%ENDBLOCK POSITIONS_FRAC

# Note: total spin =   8.00

KPOINTS_MP_SPACING 0.07

%BLOCK SPECIES_POT
QC5
%ENDBLOCK SPECIES_POT

%BLOCK HUBBARD_U
Fe d:4.0
%ENDBLOCK HUBBARD_U

SNAP_TO_SYMMETRY
SYMMETRY_GENERATE

