#              Generated by Buildcell
#
# at 13:20:57 (GMT+0.0) 24th November 2020
# in /scratch/scratch/uccabz1/launch_tmp
# on node-a14e-012
# by uccabz1
#
# compiler GCC version 4.9.2
# options -cpp -iprefix /scratch/UCL/applications/gcc/4.9.2/bin/../lib/gcc/x86_64-unknown-linux-gnu/4.9.2/ -mtune=corei7 -march=x86-64 -g -O2
#
# seed -1557703730  1299439215  -306059693  -993346810 -1915517207  -760509837  1213928504   -23746971  -573670116  1118472954   261344379 -1144504079
#
#      Author: C. J. Pickard (cjp20@cam.ac.uk)
#                Space group: Pm
#

%BLOCK LATTICE_ABC
      4.13968      4.18841      9.31779
     90.00000     90.00000     97.96381
%ENDBLOCK LATTICE_ABC

%BLOCK POSITIONS_FRAC
  Li  -0.2057812   0.0952782   0.0000000 SPIN=   0.00000
  Li  -0.1015656   0.3773279   0.5000000 SPIN=   0.00000
   O   0.2313799   0.0706210  -0.3675327 SPIN=   0.00000
   O  -0.0145237  -0.2279258  -0.1397975 SPIN=   0.00000
   O  -0.2629436   0.2376779  -0.2285890 SPIN=   0.00000
   O  -0.3346979  -0.2775767  -0.3686778 SPIN=   0.00000
   P  -0.0806341  -0.0456096  -0.2821069 SPIN=   0.00000
   O   0.2313799   0.0706210   0.3675327 SPIN=   0.00000
   O  -0.0145237  -0.2279258   0.1397975 SPIN=   0.00000
   O  -0.2629436   0.2376779   0.2285890 SPIN=   0.00000
   O  -0.3346979  -0.2775767   0.3686778 SPIN=   0.00000
   P  -0.0806341  -0.0456096   0.2821069 SPIN=   0.00000
  Fe   0.3560875  -0.4871076   0.2072492 SPIN=   4.00000
  Fe   0.3560875  -0.4871076  -0.2072492 SPIN=   4.00000
%ENDBLOCK POSITIONS_FRAC

# Note: total spin =   8.00

KPOINTS_MP_SPACING 0.07

%BLOCK SPECIES_POT
QC5
%ENDBLOCK SPECIES_POT

%BLOCK HUBBARD_U
Fe d:4.0
%ENDBLOCK HUBBARD_U

SNAP_TO_SYMMETRY
SYMMETRY_GENERATE

