#              Generated by Buildcell
#
# at 18:34:51 (GMT+0.0) 26th November 2020
# in /lustre/scratch/uccabz1/launch_tmp
# on node-c12k-022
# by uccabz1
#
# compiler GCC version 4.9.2
# options -cpp -iprefix /lustre/shared/ucl/apps/gcc/4.9.2/bin/../lib/gcc/x86_64-unknown-linux-gnu/4.9.2/ -mtune=corei7 -march=x86-64 -g -Og
#
# seed  1917613494  1974885271 -1840122470 -1818340784  2030965070 -1285266418  -881576623  -831472959   695571698 -1892440175 -1335096680  -709009071
#
#      Author: C. J. Pickard (cjp20@cam.ac.uk)
#                Space group: P2
#

%BLOCK LATTICE_ABC
      6.28437      7.26000      7.60496
     90.00000     90.00000    112.74070
%ENDBLOCK LATTICE_ABC

%BLOCK POSITIONS_FRAC
  Li   0.0733120  -0.2547829   0.4750767 SPIN=   0.00000
  Li  -0.0733120   0.2547829   0.4750767 SPIN=   0.00000
  Li   0.5873786   0.2248239  -0.1638149 SPIN=   0.00000
  Li  -0.5873786  -0.2248239  -0.1638149 SPIN=   0.00000
   O   0.6264282   0.2988626  -0.4526674 SPIN=   0.00000
   O   0.3174497   0.3520769  -0.2554098 SPIN=   0.00000
   O   0.2797539   0.3680517  -0.5777692 SPIN=   0.00000
   O   0.2074744   0.0389942  -0.4338851 SPIN=   0.00000
   O  -0.6264282  -0.2988626  -0.4526674 SPIN=   0.00000
   O  -0.3174497  -0.3520769  -0.2554098 SPIN=   0.00000
   O  -0.2797539  -0.3680517  -0.5777692 SPIN=   0.00000
   O  -0.2074744  -0.0389942  -0.4338851 SPIN=   0.00000
   O  -0.3372525   0.2855831   0.1462294 SPIN=   0.00000
   O  -0.0574516   0.3101536  -0.1124069 SPIN=   0.00000
   O   0.0201965   0.1914330   0.1755192 SPIN=   0.00000
   O  -0.3180173  -0.0272074  -0.0029927 SPIN=   0.00000
   O   0.3372525  -0.2855831   0.1462294 SPIN=   0.00000
   O   0.0574516  -0.3101536  -0.1124069 SPIN=   0.00000
   O  -0.0201965  -0.1914330   0.1755192 SPIN=   0.00000
   O   0.3180173   0.0272074  -0.0029927 SPIN=   0.00000
   P   0.5000000   0.5000000  -0.4848881 SPIN=   0.00000
   P   0.0000000   0.5000000  -0.2522633 SPIN=   0.00000
   P  -0.5000000   0.0000000  -0.4550737 SPIN=   0.00000
   P   0.5000000   0.5000000   0.0212077 SPIN=   0.00000
  Fe  -0.3279470  -0.1650972   0.2515447 SPIN=   4.39680
  Fe   0.3279470   0.1650972   0.2515447 SPIN=   4.39680
  Fe   0.0000000   0.5000000   0.1113717 SPIN=   6.61052
  Fe  -0.0000000  -0.0000000  -0.1904349 SPIN=   0.59587
%ENDBLOCK POSITIONS_FRAC

# Note: total spin =  16.00

KPOINTS_MP_SPACING 0.07

%BLOCK SPECIES_POT
QC5
%ENDBLOCK SPECIES_POT

%BLOCK HUBBARD_U
Fe d:4.0
%ENDBLOCK HUBBARD_U

SNAP_TO_SYMMETRY
SYMMETRY_GENERATE

