#              Generated by Buildcell
#
# at 13:18:52 (GMT+0.0) 24th November 2020
# in /lustre/scratch/uccabz1/launch_tmp
# on node-c12a-034
# by uccabz1
#
# compiler GCC version 4.9.2
# options -cpp -iprefix /lustre/shared/ucl/apps/gcc/4.9.2/bin/../lib/gcc/x86_64-unknown-linux-gnu/4.9.2/ -mtune=corei7 -march=x86-64 -g -Og
#
# seed -1908521333  1355418274 -1416579936 -1822914319 -1410889896  1883087693  2136530206   295636179 -1707130284  1254034359   320105301  -499763110
#
#      Author: C. J. Pickard (cjp20@cam.ac.uk)
#                Space group: Cc
#

%BLOCK LATTICE_ABC
      5.29312      5.29312      6.45698
    100.58232    100.58232    110.82101
%ENDBLOCK LATTICE_ABC

%BLOCK POSITIONS_FRAC
  Li  -0.2657589   0.2960009   0.4175837 SPIN=   0.00000
  Li  -0.2039991   0.2342411  -0.0824163 SPIN=   0.00000
   O  -0.4748193  -0.4470325  -0.2919519 SPIN=   0.00000
   O  -0.4369296   0.0069378  -0.4080180 SPIN=   0.00000
   O  -0.2608206  -0.3103424  -0.6070290 SPIN=   0.00000
   O  -0.7785166  -0.4595425  -0.6589492 SPIN=   0.00000
   P  -0.4905130  -0.3120441  -0.4828390 SPIN=   0.00000
   O   0.0529675   0.0251807   0.2080481 SPIN=   0.00000
   O   0.5069378   0.0630704   0.0919820 SPIN=   0.00000
   O   0.1896576   0.2391794  -0.1070290 SPIN=   0.00000
   O   0.0404575  -0.2785166  -0.1589492 SPIN=   0.00000
   P   0.1879559   0.0094870   0.0171610 SPIN=   0.00000
  Fe   0.4793960  -0.3507911   0.0633923 SPIN=   4.00000
  Fe   0.1492089  -0.0206040  -0.4366077 SPIN=   4.00000
%ENDBLOCK POSITIONS_FRAC

# Note: total spin =   8.00

KPOINTS_MP_SPACING 0.07

%BLOCK SPECIES_POT
QC5
%ENDBLOCK SPECIES_POT

%BLOCK HUBBARD_U
Fe d:4.0
%ENDBLOCK HUBBARD_U

SNAP_TO_SYMMETRY
SYMMETRY_GENERATE

