#              Generated by Buildcell
#
# at 10:33:14 (GMT+0.0) 24th November 2020
# in /scratch/scratch/uccabz1/launch_tmp
# on node-a14e-014
# by uccabz1
#
# compiler GCC version 4.9.2
# options -cpp -iprefix /scratch/UCL/applications/gcc/4.9.2/bin/../lib/gcc/x86_64-unknown-linux-gnu/4.9.2/ -mtune=corei7 -march=x86-64 -g -O2
#
# seed   852644735 -1506640269   656946667   970283869  -744609268  2098801654 -1686279930  -746326225 -1740406643 -1318022559   599256899  -276198617
#
#      Author: C. J. Pickard (cjp20@cam.ac.uk)
#                Space group: Cm
#

%BLOCK LATTICE_ABC
      3.83119      5.46561      8.32441
    107.08304    100.41959     98.63029
%ENDBLOCK LATTICE_ABC

%BLOCK POSITIONS_FRAC
  Li   0.0396589   0.1976424   0.0000000 SPIN=   0.00000
  Li   0.3477901  -0.2738413  -0.0000000 SPIN=   0.00000
   O   0.0777916   0.0784344  -0.2765661 SPIN=   0.00000
   O  -0.0131004  -0.4019128  -0.2758206 SPIN=   0.00000
   O   0.3292373  -0.2802613  -0.4754829 SPIN=   0.00000
   O   0.6079218  -0.1095777  -0.1567608 SPIN=   0.00000
   P   0.2454871  -0.1638466  -0.2934694 SPIN=   0.00000
   O  -0.6456423   0.3550005   0.2765661 SPIN=   0.00000
   O  -0.7372798  -0.1260922   0.2758206 SPIN=   0.00000
   O  -0.1952799   0.1952216   0.4754829 SPIN=   0.00000
   O  -0.2353174   0.0471830   0.1567608 SPIN=   0.00000
   P  -0.4610435   0.1296227   0.2934694 SPIN=   0.00000
  Fe  -0.1590002  -0.3334557   0.3459448 SPIN=   4.00000
  Fe   0.4950550   0.3205996  -0.3459448 SPIN=   4.00000
%ENDBLOCK POSITIONS_FRAC

# Note: total spin =   8.00

KPOINTS_MP_SPACING 0.07

%BLOCK SPECIES_POT
QC5
%ENDBLOCK SPECIES_POT

%BLOCK HUBBARD_U
Fe d:4.0
%ENDBLOCK HUBBARD_U

SNAP_TO_SYMMETRY
SYMMETRY_GENERATE

