#              Generated by Buildcell
#
# at 21:09:01 (GMT+0.0) 26th November 2020
# in /lustre/scratch/uccabz1/launch_tmp
# on node-c12i-029
# by uccabz1
#
# compiler GCC version 4.9.2
# options -cpp -iprefix /lustre/shared/ucl/apps/gcc/4.9.2/bin/../lib/gcc/x86_64-unknown-linux-gnu/4.9.2/ -mtune=corei7 -march=x86-64 -g -Og
#
# seed  -882512501  -988674524   920400657  1035822506 -1930026513  -523674236     6931398  -388089983 -1150980912  1123706942 -1933789533   929386771
#
#      Author: C. J. Pickard (cjp20@cam.ac.uk)
#                Space group: P-1
#

%BLOCK LATTICE_ABC
      4.82738      6.68022     10.36299
     75.78406     81.07369     87.09170
%ENDBLOCK LATTICE_ABC

%BLOCK POSITIONS_FRAC
  Li  -0.2008547  -0.4327618   0.2580412 SPIN=   0.00000
  Li   0.2008547   0.4327618  -0.2580412 SPIN=   0.00000
  Li   0.6922655   0.1716272  -0.3388737 SPIN=   0.00000
  Li  -0.6922655  -0.1716272   0.3388737 SPIN=   0.00000
   O  -0.2933536   0.2521918   0.1908073 SPIN=   0.00000
   O  -0.3381901  -0.0641041   0.3966176 SPIN=   0.00000
   O   0.1130392   0.1185196   0.3285857 SPIN=   0.00000
   O  -0.3052307   0.2899521   0.4337600 SPIN=   0.00000
   P  -0.2117603   0.1562886   0.3307717 SPIN=   0.00000
   O   0.2933536  -0.2521918  -0.1908073 SPIN=   0.00000
   O   0.3381901   0.0641041  -0.3966176 SPIN=   0.00000
   O  -0.1130392  -0.1185196  -0.3285857 SPIN=   0.00000
   O   0.3052307  -0.2899521  -0.4337600 SPIN=   0.00000
   P   0.2117603  -0.1562886  -0.3307717 SPIN=   0.00000
   O   0.4796951  -0.3057411   0.1440604 SPIN=   0.00000
   O   0.2593710  -0.0072249  -0.0224617 SPIN=   0.00000
   O   0.0363223  -0.3491027   0.0403403 SPIN=   0.00000
   O   0.0030214  -0.1368012   0.2106850 SPIN=   0.00000
   P   0.2075214  -0.2046202   0.0972534 SPIN=   0.00000
   O  -0.4796951   0.3057411  -0.1440604 SPIN=   0.00000
   O  -0.2593710   0.0072249   0.0224617 SPIN=   0.00000
   O  -0.0363223   0.3491027  -0.0403403 SPIN=   0.00000
   O  -0.0030214   0.1368012  -0.2106850 SPIN=   0.00000
   P  -0.2075214   0.2046202  -0.0972534 SPIN=   0.00000
  Fe   0.7412888  -0.3020760  -0.4394283 SPIN=   4.73641
  Fe  -0.7412888   0.3020760   0.4394283 SPIN=   4.73641
  Fe   0.2771702   0.2285058   0.0771529 SPIN=   3.26359
  Fe  -0.2771702  -0.2285058  -0.0771529 SPIN=   3.26359
%ENDBLOCK POSITIONS_FRAC

# Note: total spin =  16.00

KPOINTS_MP_SPACING 0.07

%BLOCK SPECIES_POT
QC5
%ENDBLOCK SPECIES_POT

%BLOCK HUBBARD_U
Fe d:4.0
%ENDBLOCK HUBBARD_U

SNAP_TO_SYMMETRY
SYMMETRY_GENERATE

