#              Generated by Buildcell
#
# at 07:14:25 (GMT+0.0) 24th November 2020
# in /scratch/scratch/uccabz1/launch_tmp
# on node-a14a-004
# by uccabz1
#
# compiler GCC version 4.9.2
# options -cpp -iprefix /scratch/UCL/applications/gcc/4.9.2/bin/../lib/gcc/x86_64-unknown-linux-gnu/4.9.2/ -mtune=corei7 -march=x86-64 -g -O2
#
# seed -1640949693  -383137923    79514222  -580633085   932828709   616185205  -283368620 -1739902458   726509746    47229026 -1286206006 -1074899741
#
#      Author: C. J. Pickard (cjp20@cam.ac.uk)
#                Space group: Pmn21
#

%BLOCK LATTICE_ABC
      5.35077      5.45430      5.48233
     90.00000     90.00000     90.00000
%ENDBLOCK LATTICE_ABC

%BLOCK POSITIONS_FRAC
  Li   0.4996441  -0.1069994  -0.0000000 SPIN=   0.00000
  Li  -0.4996441   0.3930006   0.5000000 SPIN=   0.00000
   O   0.1381212   0.5983695  -0.2280803 SPIN=   0.00000
   O   0.3179625   0.1559310  -0.2320263 SPIN=   0.00000
   O  -0.1381212   0.0983695  -0.2719197 SPIN=   0.00000
   O  -0.3179625  -0.3440690  -0.2679737 SPIN=   0.00000
   O  -0.1381212   0.0983695   0.2719197 SPIN=   0.00000
   O  -0.3179625  -0.3440690   0.2679737 SPIN=   0.00000
   O   0.1381212   0.5983695   0.2280803 SPIN=   0.00000
   O   0.3179625   0.1559310   0.2320263 SPIN=   0.00000
   P   0.0003270  -0.1070040  -0.0000000 SPIN=   0.00000
   P  -0.0003270   0.3929960  -0.5000000 SPIN=   0.00000
  Fe  -0.1545270   0.3929959  -0.0000000 SPIN=   4.00000
  Fe   0.1545270  -0.1070041  -0.5000000 SPIN=   4.00000
%ENDBLOCK POSITIONS_FRAC

# Note: total spin =   8.00

KPOINTS_MP_SPACING 0.07

%BLOCK SPECIES_POT
QC5
%ENDBLOCK SPECIES_POT

%BLOCK HUBBARD_U
Fe d:4.0
%ENDBLOCK HUBBARD_U

SNAP_TO_SYMMETRY
SYMMETRY_GENERATE

