#              Generated by Buildcell
#
# at 21:43:39 (GMT+0.0) 26th November 2020
# in /lustre/scratch/uccabz1/launch_tmp
# on node-c12i-031
# by uccabz1
#
# compiler GCC version 4.9.2
# options -cpp -iprefix /lustre/shared/ucl/apps/gcc/4.9.2/bin/../lib/gcc/x86_64-unknown-linux-gnu/4.9.2/ -mtune=corei7 -march=x86-64 -g -Og
#
# seed  2071446828  2004058964  2043986256  1649937370  -630507763  -347322585  -188751392   653373609 -2145913112 -1328884156   216520849   351424231
#
#      Author: C. J. Pickard (cjp20@cam.ac.uk)
#                Space group: Pm
#

%BLOCK LATTICE_ABC
      5.30690      6.21514      9.79258
     90.00000     90.00000     97.80212
%ENDBLOCK LATTICE_ABC

%BLOCK POSITIONS_FRAC
  Li  -0.3615377   0.1723507  -0.5000000 SPIN=   0.00000
  Li   0.0117738   0.1773869   0.0000000 SPIN=   0.00000
  Li  -0.4394468  -0.3233706   0.5000000 SPIN=   0.00000
  Li   0.1601766  -0.3031954   0.0000000 SPIN=   0.00000
   O  -0.5432518  -0.2879172   0.1482290 SPIN=   0.00000
   O  -0.3045041  -0.0719933   0.3474336 SPIN=   0.00000
   O  -0.0789095  -0.0945980   0.1283647 SPIN=   0.00000
   O  -0.4356018   0.1299862   0.1438409 SPIN=   0.00000
   P  -0.3524803  -0.0896495   0.1890703 SPIN=   0.00000
   O  -0.5432518  -0.2879172  -0.1482290 SPIN=   0.00000
   O  -0.3045041  -0.0719933  -0.3474336 SPIN=   0.00000
   O  -0.0789095  -0.0945980  -0.1283647 SPIN=   0.00000
   O  -0.4356018   0.1299862  -0.1438409 SPIN=   0.00000
   P  -0.3524803  -0.0896495  -0.1890703 SPIN=   0.00000
   O   0.3610939   0.2772454   0.3435438 SPIN=   0.00000
   O  -0.1117583   0.3420976   0.3564214 SPIN=   0.00000
   O   0.2217591   0.6592150   0.3743046 SPIN=   0.00000
   P   0.1650825   0.4284876   0.3062226 SPIN=   0.00000
   O   0.3610939   0.2772454  -0.3435438 SPIN=   0.00000
   O  -0.1117583   0.3420976  -0.3564214 SPIN=   0.00000
   O   0.2217591   0.6592150  -0.3743046 SPIN=   0.00000
   P   0.1650825   0.4284876  -0.3062226 SPIN=   0.00000
   O   0.3616875   0.3839500   0.0000000 SPIN=   0.00000
   O   0.0572777   0.0532504   0.5000000 SPIN=   0.00000
  Fe  -0.3304119   0.4547029  -0.1996334 SPIN=   3.44305
  Fe  -0.3304119   0.4547029   0.1996334 SPIN=   3.44305
  Fe   0.1595042  -0.0355343   0.2998965 SPIN=   4.55695
  Fe   0.1595042  -0.0355343  -0.2998965 SPIN=   4.55695
%ENDBLOCK POSITIONS_FRAC

# Note: total spin =  16.00

KPOINTS_MP_SPACING 0.07

%BLOCK SPECIES_POT
QC5
%ENDBLOCK SPECIES_POT

%BLOCK HUBBARD_U
Fe d:4.0
%ENDBLOCK HUBBARD_U

SNAP_TO_SYMMETRY
SYMMETRY_GENERATE

