#              Generated by Buildcell
#
# at 21:53:30 (GMT+0.0) 26th November 2020
# in /lustre/scratch/uccabz1/launch_tmp
# on node-c12l-026
# by uccabz1
#
# compiler GCC version 4.9.2
# options -cpp -iprefix /lustre/shared/ucl/apps/gcc/4.9.2/bin/../lib/gcc/x86_64-unknown-linux-gnu/4.9.2/ -mtune=corei7 -march=x86-64 -g -Og
#
# seed   385523122 -1403482306 -1479606925   311125958  1335492396 -1790864432   764941251  1603511742 -1373050424   554832225  -328143213 -1438079722
#
#      Author: C. J. Pickard (cjp20@cam.ac.uk)
#                Space group: Pc
#

%BLOCK LATTICE_ABC
      4.89458      8.02166      8.15074
     90.00000     90.63446     90.00000
%ENDBLOCK LATTICE_ABC

%BLOCK POSITIONS_FRAC
  Li   0.3279374  -0.1018611  -0.1545945 SPIN=   0.00000
  Li   0.3279374   0.1018611   0.3454055 SPIN=   0.00000
  Li  -0.0798245   0.4437823   0.3508323 SPIN=   0.00000
  Li  -0.0798245  -0.4437823  -0.1491677 SPIN=   0.00000
   O   0.4613570  -0.1312461   0.4353999 SPIN=   0.00000
   O   0.0166289  -0.3061439   0.4067250 SPIN=   0.00000
   O   0.4599649  -0.4505540   0.3820166 SPIN=   0.00000
   O   0.3142015  -0.3432295   0.6559815 SPIN=   0.00000
   P   0.3209490  -0.2988113   0.4703812 SPIN=   0.00000
   O   0.4613570   0.1312461  -0.0646001 SPIN=   0.00000
   O   0.0166289   0.3061439  -0.0932750 SPIN=   0.00000
   O   0.4599649   0.4505540  -0.1179834 SPIN=   0.00000
   O   0.3142015   0.3432295   0.1559815 SPIN=   0.00000
   P   0.3209490   0.2988113  -0.0296188 SPIN=   0.00000
   O   0.2122242  -0.1587039   0.1239824 SPIN=   0.00000
   O  -0.3004821  -0.0934219   0.1724800 SPIN=   0.00000
   O  -0.1622392  -0.1889519  -0.1024664 SPIN=   0.00000
   O  -0.1547543  -0.3898230   0.1327533 SPIN=   0.00000
   P  -0.0852492  -0.2072640   0.0845420 SPIN=   0.00000
   O   0.2122242   0.1587039  -0.3760176 SPIN=   0.00000
   O  -0.3004821   0.0934219  -0.3275200 SPIN=   0.00000
   O  -0.1622392   0.1889519  -0.6024664 SPIN=   0.00000
   O  -0.1547543   0.3898230  -0.3672467 SPIN=   0.00000
   P  -0.0852492   0.2072640  -0.4154580 SPIN=   0.00000
  Fe   0.4162152   0.3888431  -0.3672528 SPIN=   3.33149
  Fe   0.4162152  -0.3888431   0.1327472 SPIN=   3.33149
  Fe  -0.1770064   0.1458283   0.0755596 SPIN=   4.66851
  Fe  -0.1770064  -0.1458283  -0.4244404 SPIN=   4.66851
%ENDBLOCK POSITIONS_FRAC

# Note: total spin =  16.00

KPOINTS_MP_SPACING 0.07

%BLOCK SPECIES_POT
QC5
%ENDBLOCK SPECIES_POT

%BLOCK HUBBARD_U
Fe d:4.0
%ENDBLOCK HUBBARD_U

SNAP_TO_SYMMETRY
SYMMETRY_GENERATE

