#              Generated by Buildcell
#
# at 17:18:19 (GMT+0.0) 1st December 2020
# in /lustre/scratch/uccabz1/launch_tmp
# on node-c12c-029
# by uccabz1
#
# compiler GCC version 4.9.2
# options -cpp -iprefix /lustre/shared/ucl/apps/gcc/4.9.2/bin/../lib/gcc/x86_64-unknown-linux-gnu/4.9.2/ -mtune=corei7 -march=x86-64 -g -Og
#
# seed  -270702684   145929506 -1451767492    -7807315   882792712  1209046949    61367142  -282771467 -1275808305  2012570710    30697691 -1328719832
#
#      Author: C. J. Pickard (cjp20@cam.ac.uk)
#                Space group: Pna21
#

%BLOCK LATTICE_ABC
      4.20626      7.77899      9.77982
     90.00000     90.00000     90.00000
%ENDBLOCK LATTICE_ABC

%BLOCK POSITIONS_FRAC
  Li   0.2128153  -0.2104290   0.4612457 SPIN=   0.00000
  Li  -0.2128153   0.2104290  -0.0387543 SPIN=   0.00000
  Li   0.2871847   0.2895710   0.4612457 SPIN=   0.00000
  Li  -0.2871847  -0.2895710  -0.0387543 SPIN=   0.00000
   O   0.0744482   0.4842051   0.0167995 SPIN=   0.00000
   O   0.5936411   0.3592126   0.1208412 SPIN=   0.00000
   O   0.1728470   0.4585862   0.2782701 SPIN=   0.00000
   O   0.0880602   0.1910127   0.1406211 SPIN=   0.00000
   P   0.2221455   0.3770111   0.1326369 SPIN=   0.00000
   O  -0.0744482  -0.4842051  -0.4832005 SPIN=   0.00000
   O  -0.5936411  -0.3592126  -0.3791588 SPIN=   0.00000
   O  -0.1728470  -0.4585862  -0.2217299 SPIN=   0.00000
   O  -0.0880602  -0.1910127  -0.3593789 SPIN=   0.00000
   P  -0.2221455  -0.3770111  -0.3673631 SPIN=   0.00000
   O   0.4255518  -0.0157949   0.0167995 SPIN=   0.00000
   O  -0.0936411  -0.1407874   0.1208412 SPIN=   0.00000
   O   0.3271530  -0.0414138   0.2782701 SPIN=   0.00000
   O   0.4119398  -0.3089873   0.1406211 SPIN=   0.00000
   P   0.2778545  -0.1229889   0.1326369 SPIN=   0.00000
   O  -0.4255518   0.0157949  -0.4832005 SPIN=   0.00000
   O   0.0936411   0.1407874  -0.3791588 SPIN=   0.00000
   O  -0.3271530   0.0414138  -0.2217299 SPIN=   0.00000
   O  -0.4119398   0.3089873  -0.3593789 SPIN=   0.00000
   P  -0.2778545   0.1229889  -0.3673631 SPIN=   0.00000
  Fe   0.2115249  -0.0593934  -0.2236747 SPIN=   4.00000
  Fe  -0.2115249   0.0593934   0.2763253 SPIN=   4.00000
  Fe   0.2884751   0.4406066  -0.2236747 SPIN=   4.00000
  Fe  -0.2884751  -0.4406066   0.2763253 SPIN=   4.00000
%ENDBLOCK POSITIONS_FRAC

# Note: total spin =  16.00

KPOINTS_MP_SPACING 0.07

%BLOCK SPECIES_POT
QC5
%ENDBLOCK SPECIES_POT

%BLOCK HUBBARD_U
Fe d:4.0
%ENDBLOCK HUBBARD_U

SNAP_TO_SYMMETRY
SYMMETRY_GENERATE

