#              Generated by Buildcell
#
# at 11:51:30 (GMT+0.0) 24th November 2020
# in /lustre/scratch/uccabz1/launch_tmp
# on node-c12h-032
# by uccabz1
#
# compiler GCC version 4.9.2
# options -cpp -iprefix /lustre/shared/ucl/apps/gcc/4.9.2/bin/../lib/gcc/x86_64-unknown-linux-gnu/4.9.2/ -mtune=corei7 -march=x86-64 -g -Og
#
# seed  -480132638  -861309673   891460437 -1198009790   926613080  -491392174  1856891754   536711589   683250326 -2029938464 -1409790152   934902170
#
#      Author: C. J. Pickard (cjp20@cam.ac.uk)
#                Space group: P21212
#

%BLOCK LATTICE_ABC
      5.33890      5.47435      5.47439
     90.00000     90.00000     90.00000
%ENDBLOCK LATTICE_ABC

%BLOCK POSITIONS_FRAC
  Li   0.3465232   0.0000000   0.0000000 SPIN=   0.00000
  Li  -0.3465232   0.5000000  -0.5000000 SPIN=   0.00000
   O  -0.4226293   0.3113305   0.1656690 SPIN=   0.00000
   O  -0.1354460   0.2012471  -0.2013071 SPIN=   0.00000
   O  -0.4226293  -0.3113305  -0.1656690 SPIN=   0.00000
   O  -0.1354460  -0.2012471   0.2013071 SPIN=   0.00000
   O   0.4226293   0.1886695   0.6656690 SPIN=   0.00000
   O   0.1354460   0.2987529   0.2986929 SPIN=   0.00000
   O   0.4226293  -0.1886695  -0.6656690 SPIN=   0.00000
   O   0.1354460  -0.2987529  -0.2986929 SPIN=   0.00000
   P  -0.1543528  -0.0000000   0.0000000 SPIN=   0.00000
   P   0.1543528  -0.5000000  -0.5000000 SPIN=   0.00000
  Fe  -0.0000514  -0.5000000   0.0000000 SPIN=   4.00000
  Fe   0.0000514   0.0000000  -0.5000000 SPIN=   4.00000
%ENDBLOCK POSITIONS_FRAC

# Note: total spin =   8.00

KPOINTS_MP_SPACING 0.07

%BLOCK SPECIES_POT
QC5
%ENDBLOCK SPECIES_POT

%BLOCK HUBBARD_U
Fe d:4.0
%ENDBLOCK HUBBARD_U

SNAP_TO_SYMMETRY
SYMMETRY_GENERATE

