#              Generated by Buildcell
#
# at 01:45:21 (GMT+0.0) 27th November 2020
# in /lustre/scratch/uccabz1/launch_tmp
# on node-c12f-024
# by uccabz1
#
# compiler GCC version 4.9.2
# options -cpp -iprefix /lustre/shared/ucl/apps/gcc/4.9.2/bin/../lib/gcc/x86_64-unknown-linux-gnu/4.9.2/ -mtune=corei7 -march=x86-64 -g -Og
#
# seed -1817194926  1160696963  -911923269   334614728 -1219357223   696127663   154810230   448303831   590546626 -1225513408 -1178422590  1821690936
#
#      Author: C. J. Pickard (cjp20@cam.ac.uk)
#                Space group: P21/c
#

%BLOCK LATTICE_ABC
      5.86023      7.46118      7.46244
     90.00000    101.26749     90.00000
%ENDBLOCK LATTICE_ABC

%BLOCK POSITIONS_FRAC
  Li  -0.2999398  -0.4117019  -0.3367935 SPIN=   0.00000
  Li   0.2999398   0.0882981  -0.1632065 SPIN=   0.00000
  Li   0.2999398   0.4117019   0.3367935 SPIN=   0.00000
  Li  -0.2999398  -0.0882981   0.1632065 SPIN=   0.00000
   O  -0.1408304  -0.2387016  -0.0522471 SPIN=   0.00000
   O  -0.3343754   0.0759440  -0.0867270 SPIN=   0.00000
   O  -0.0424275   0.0048190  -0.2741812 SPIN=   0.00000
   O  -0.4323416  -0.1447529  -0.3430913 SPIN=   0.00000
   P  -0.2346463  -0.0851686  -0.1835946 SPIN=   0.00000
   O   0.1408304   0.2612984  -0.4477529 SPIN=   0.00000
   O   0.3343754   0.5759440  -0.4132730 SPIN=   0.00000
   O   0.0424275   0.5048190  -0.2258188 SPIN=   0.00000
   O   0.4323416   0.3552471  -0.1569087 SPIN=   0.00000
   P   0.2346463   0.4148314  -0.3164054 SPIN=   0.00000
   O   0.1408304   0.2387016   0.0522471 SPIN=   0.00000
   O   0.3343754  -0.0759440   0.0867270 SPIN=   0.00000
   O   0.0424275  -0.0048190   0.2741812 SPIN=   0.00000
   O   0.4323416   0.1447529   0.3430913 SPIN=   0.00000
   P   0.2346463   0.0851686   0.1835946 SPIN=   0.00000
   O  -0.1408304  -0.2612984   0.4477529 SPIN=   0.00000
   O  -0.3343754  -0.5759440   0.4132730 SPIN=   0.00000
   O  -0.0424275  -0.5048190   0.2258188 SPIN=   0.00000
   O  -0.4323416  -0.3552471   0.1569087 SPIN=   0.00000
   P  -0.2346463  -0.4148314   0.3164054 SPIN=   0.00000
  Fe   0.2427125  -0.1713355   0.4711888 SPIN=   4.00000
  Fe  -0.2427125   0.3286645   0.0288112 SPIN=   4.00000
  Fe  -0.2427125   0.1713355  -0.4711888 SPIN=   4.00000
  Fe   0.2427125  -0.3286645  -0.0288112 SPIN=   4.00000
%ENDBLOCK POSITIONS_FRAC

# Note: total spin =  16.00

KPOINTS_MP_SPACING 0.07

%BLOCK SPECIES_POT
QC5
%ENDBLOCK SPECIES_POT

%BLOCK HUBBARD_U
Fe d:4.0
%ENDBLOCK HUBBARD_U

SNAP_TO_SYMMETRY
SYMMETRY_GENERATE

