#              Generated by Buildcell
#
# at 22:57:25 (GMT+0.0) 26th November 2020
# in /lustre/scratch/uccabz1/launch_tmp
# on node-c12f-023
# by uccabz1
#
# compiler GCC version 4.9.2
# options -cpp -iprefix /lustre/shared/ucl/apps/gcc/4.9.2/bin/../lib/gcc/x86_64-unknown-linux-gnu/4.9.2/ -mtune=corei7 -march=x86-64 -g -Og
#
# seed  1826995389 -1398870874  1056803991   803270155  -154221406 -1557130842   805658558  1526209019    82928684 -1293144919  -189477921   701569277
#
#      Author: C. J. Pickard (cjp20@cam.ac.uk)
#                Space group: P21212
#

%BLOCK LATTICE_ABC
      5.70982      6.23419      8.98973
     90.00000     90.00000     90.00000
%ENDBLOCK LATTICE_ABC

%BLOCK POSITIONS_FRAC
  Li   0.1172004   0.2704223   0.4469112 SPIN=   0.00000
  Li   0.1172004  -0.2704223  -0.4469112 SPIN=   0.00000
  Li  -0.1172004   0.2295777  -0.0530888 SPIN=   0.00000
  Li  -0.1172004  -0.2295777   0.0530888 SPIN=   0.00000
   O  -0.2738180   0.1706080   0.2429089 SPIN=   0.00000
   O  -0.1006946   0.5140138   0.3642320 SPIN=   0.00000
   O   0.0488972   0.4029376   0.1182040 SPIN=   0.00000
   O  -0.3579658   0.5496621   0.1399677 SPIN=   0.00000
   P  -0.1785830   0.3982523   0.2168423 SPIN=   0.00000
   O  -0.2738180  -0.1706080  -0.2429089 SPIN=   0.00000
   O  -0.1006946  -0.5140138  -0.3642320 SPIN=   0.00000
   O   0.0488972  -0.4029376  -0.1182040 SPIN=   0.00000
   O  -0.3579658  -0.5496621  -0.1399677 SPIN=   0.00000
   P  -0.1785830  -0.3982523  -0.2168423 SPIN=   0.00000
   O   0.2738180   0.3293920  -0.2570911 SPIN=   0.00000
   O   0.1006946  -0.0140138  -0.1357680 SPIN=   0.00000
   O  -0.0488972   0.0970624  -0.3817960 SPIN=   0.00000
   O   0.3579658  -0.0496621  -0.3600323 SPIN=   0.00000
   P   0.1785830   0.1017477  -0.2831577 SPIN=   0.00000
   O   0.2738180  -0.3293920   0.2570911 SPIN=   0.00000
   O   0.1006946   0.0140138   0.1357680 SPIN=   0.00000
   O  -0.0488972  -0.0970624   0.3817960 SPIN=   0.00000
   O   0.3579658   0.0496621   0.3600323 SPIN=   0.00000
   P   0.1785830  -0.1017477   0.2831577 SPIN=   0.00000
  Fe   0.3789829  -0.2496472  -0.1258145 SPIN=   4.00000
  Fe   0.3789829   0.2496472   0.1258145 SPIN=   4.00000
  Fe  -0.3789829  -0.2503528   0.3741855 SPIN=   4.00000
  Fe  -0.3789829   0.2503528  -0.3741855 SPIN=   4.00000
%ENDBLOCK POSITIONS_FRAC

# Note: total spin =  16.00

KPOINTS_MP_SPACING 0.07

%BLOCK SPECIES_POT
QC5
%ENDBLOCK SPECIES_POT

%BLOCK HUBBARD_U
Fe d:4.0
%ENDBLOCK HUBBARD_U

SNAP_TO_SYMMETRY
SYMMETRY_GENERATE

