#              Generated by Buildcell
#
# at 19:24:32 (GMT+0.0) 26th November 2020
# in /scratch/scratch/uccabz1/launch_tmp
# on node-k10e-001
# by uccabz1
#
# compiler GCC version 4.9.2
# options -cpp -iprefix /scratch/UCL/applications/gcc/4.9.2/bin/../lib/gcc/x86_64-unknown-linux-gnu/4.9.2/ -mtune=corei7 -march=x86-64 -g -O2
#
# seed  1654392634   213402619 -1084493171  -549341482 -2102835758    17388527   369258988   -90886346   323810774  1877978326   861723332   133996734
#
#      Author: C. J. Pickard (cjp20@cam.ac.uk)
#                Space group: C2
#

%BLOCK LATTICE_ABC
      4.24879      7.44713     10.58148
     94.11260     90.00000    106.57459
%ENDBLOCK LATTICE_ABC

%BLOCK POSITIONS_FRAC
  Li   0.0522980   0.4783650  -0.3989562 SPIN=   0.00000
  Li  -0.4260670  -0.4783650   0.3989562 SPIN=   0.00000
  Li  -0.0966000   0.1733226  -0.0727572 SPIN=   0.00000
  Li  -0.2699226  -0.1733226   0.0727572 SPIN=   0.00000
   O   0.0745085  -0.4444335   0.3623392 SPIN=   0.00000
   O   0.5684330  -0.1799851   0.4625769 SPIN=   0.00000
   O   0.1105166  -0.0898384   0.3670262 SPIN=   0.00000
   O   0.0257730  -0.2499023   0.5697049 SPIN=   0.00000
   P   0.1864077  -0.2519741   0.4377806 SPIN=   0.00000
   O   0.5189419   0.4444335  -0.3623392 SPIN=   0.00000
   O   0.7484181   0.1799851  -0.4625769 SPIN=   0.00000
   O   0.2003550   0.0898384  -0.3670262 SPIN=   0.00000
   O   0.2756753   0.2499023  -0.5697049 SPIN=   0.00000
   P   0.4383818   0.2519741  -0.4377806 SPIN=   0.00000
   O   0.3980841  -0.0178108  -0.1172866 SPIN=   0.00000
   O  -0.2119506  -0.2201231  -0.1236855 SPIN=   0.00000
   O   0.2022790  -0.3602407  -0.2190224 SPIN=   0.00000
   O   0.1915785  -0.3032192   0.0168700 SPIN=   0.00000
   P   0.1590230  -0.2152170  -0.1096211 SPIN=   0.00000
   O   0.4158949   0.0178108   0.1172866 SPIN=   0.00000
   O   0.0081725   0.2201231   0.1236855 SPIN=   0.00000
   O   0.5625198   0.3602407   0.2190224 SPIN=   0.00000
   O   0.4947977   0.3032192  -0.0168700 SPIN=   0.00000
   P   0.3742401   0.2152170   0.1096211 SPIN=   0.00000
  Fe  -0.4842122  -0.0714439  -0.3270072 SPIN=   2.74757
  Fe  -0.4127683   0.0714439   0.3270072 SPIN=   2.74757
  Fe   0.0700947  -0.4907233   0.1595939 SPIN=   5.25243
  Fe  -0.4391820   0.4907233  -0.1595939 SPIN=   5.25243
%ENDBLOCK POSITIONS_FRAC

# Note: total spin =  16.00

KPOINTS_MP_SPACING 0.07

%BLOCK SPECIES_POT
QC5
%ENDBLOCK SPECIES_POT

%BLOCK HUBBARD_U
Fe d:4.0
%ENDBLOCK HUBBARD_U

SNAP_TO_SYMMETRY
SYMMETRY_GENERATE

