#              Generated by Buildcell
#
# at 20:16:12 (GMT+0.0) 26th November 2020
# in /lustre/scratch/uccabz1/launch_tmp
# on node-c12j-030
# by uccabz1
#
# compiler GCC version 4.9.2
# options -cpp -iprefix /lustre/shared/ucl/apps/gcc/4.9.2/bin/../lib/gcc/x86_64-unknown-linux-gnu/4.9.2/ -mtune=corei7 -march=x86-64 -g -Og
#
# seed -1601447431  2028550103   540542119   429783815  -399395888   144588183   -69583253  1906529915   928877809 -1619012653 -1151594395 -2069970699
#
#      Author: C. J. Pickard (cjp20@cam.ac.uk)
#                Space group: Pc
#

%BLOCK LATTICE_ABC
      6.51154      6.67760      7.52804
    102.14834     90.00000     90.00000
%ENDBLOCK LATTICE_ABC

%BLOCK POSITIONS_FRAC
  Li  -0.0074521   0.1955719   0.3938806 SPIN=   0.00000
  Li   0.0074521   0.1955719  -0.1061194 SPIN=   0.00000
  Li   0.2539018  -0.2668754   0.0349812 SPIN=   0.00000
  Li  -0.2539018  -0.2668754  -0.4650188 SPIN=   0.00000
   O   0.0900947  -0.6759739   0.1746944 SPIN=   0.00000
   O   0.0462849  -0.2804695   0.2551570 SPIN=   0.00000
   O  -0.1380036  -0.4766125  -0.0123519 SPIN=   0.00000
   O  -0.2502868  -0.5034675   0.2999604 SPIN=   0.00000
   P  -0.0570378  -0.4945737   0.1805395 SPIN=   0.00000
   O  -0.0900947  -0.6759739  -0.3253056 SPIN=   0.00000
   O  -0.0462849  -0.2804695  -0.2448430 SPIN=   0.00000
   O   0.1380036  -0.4766125  -0.5123519 SPIN=   0.00000
   O   0.2502868  -0.5034675  -0.2000396 SPIN=   0.00000
   P   0.0570378  -0.4945737  -0.3194605 SPIN=   0.00000
   O   0.3422434   0.0439812   0.0896111 SPIN=   0.00000
   O   0.5076702  -0.1744189  -0.2016854 SPIN=   0.00000
   O   0.2957294   0.1235926  -0.2312694 SPIN=   0.00000
   O   0.6392214   0.1802087  -0.0793323 SPIN=   0.00000
   P   0.4429578   0.0449902  -0.0949605 SPIN=   0.00000
   O  -0.3422434   0.0439812   0.5896111 SPIN=   0.00000
   O  -0.5076702  -0.1744189   0.2983146 SPIN=   0.00000
   O  -0.2957294   0.1235926   0.2687306 SPIN=   0.00000
   O  -0.6392214   0.1802087   0.4206677 SPIN=   0.00000
   P  -0.4429578   0.0449902   0.4050395 SPIN=   0.00000
  Fe  -0.4161792   0.3605339  -0.2717125 SPIN=   4.25537
  Fe   0.4161792   0.3605339   0.2282875 SPIN=   4.25537
  Fe   0.2393103  -0.1463003  -0.4252749 SPIN=   3.74463
  Fe  -0.2393103  -0.1463003   0.0747251 SPIN=   3.74463
%ENDBLOCK POSITIONS_FRAC

# Note: total spin =  16.00

KPOINTS_MP_SPACING 0.07

%BLOCK SPECIES_POT
QC5
%ENDBLOCK SPECIES_POT

%BLOCK HUBBARD_U
Fe d:4.0
%ENDBLOCK HUBBARD_U

SNAP_TO_SYMMETRY
SYMMETRY_GENERATE

