#              Generated by Buildcell
#
# at 17:22:56 (GMT+0.0) 26th November 2020
# in /scratch/scratch/uccabz1/launch_tmp
# on node-a14b-028
# by uccabz1
#
# compiler GCC version 4.9.2
# options -cpp -iprefix /scratch/UCL/applications/gcc/4.9.2/bin/../lib/gcc/x86_64-unknown-linux-gnu/4.9.2/ -mtune=corei7 -march=x86-64 -g -O2
#
# seed   319422274    26194163   309446262   626680702 -1985727192  1247681169   -76409200  1375583349  1721381906  1136613487  -720024895  -362766702
#
#      Author: C. J. Pickard (cjp20@cam.ac.uk)
#                Space group: Pnc2
#

%BLOCK LATTICE_ABC
      3.88488      8.85092      9.30644
     90.00000     90.00000     90.00000
%ENDBLOCK LATTICE_ABC

%BLOCK POSITIONS_FRAC
  Li  -0.5000000  -0.5000000   0.0407318 SPIN=   0.00000
  Li  -0.5000000  -0.0000000  -0.4592682 SPIN=   0.00000
  Li  -0.5000000   0.0000000  -0.1329818 SPIN=   0.00000
  Li  -0.5000000  -0.5000000   0.3670182 SPIN=   0.00000
   O  -0.0907165  -0.1556620   0.5397369 SPIN=   0.00000
   O   0.3899587  -0.3596882   0.5444407 SPIN=   0.00000
   O  -0.0069994  -0.3542930   0.3371843 SPIN=   0.00000
   O   0.4286077  -0.1480224   0.3665905 SPIN=   0.00000
   P   0.1687184  -0.2479026   0.4509777 SPIN=   0.00000
   O   0.0907165   0.1556620   0.5397369 SPIN=   0.00000
   O  -0.3899587   0.3596882   0.5444407 SPIN=   0.00000
   O   0.0069994   0.3542930   0.3371843 SPIN=   0.00000
   O  -0.4286077   0.1480224   0.3665905 SPIN=   0.00000
   P  -0.1687184   0.2479026   0.4509777 SPIN=   0.00000
   O  -0.0907165  -0.3443380   0.0397369 SPIN=   0.00000
   O   0.3899587  -0.1403118   0.0444407 SPIN=   0.00000
   O  -0.0069994  -0.1457070  -0.1628157 SPIN=   0.00000
   O   0.4286077  -0.3519776  -0.1334095 SPIN=   0.00000
   P   0.1687184  -0.2520974  -0.0490223 SPIN=   0.00000
   O   0.0907165   0.3443380   0.0397369 SPIN=   0.00000
   O  -0.3899587   0.1403118   0.0444407 SPIN=   0.00000
   O   0.0069994   0.1457070  -0.1628157 SPIN=   0.00000
   O  -0.4286077   0.3519776  -0.1334095 SPIN=   0.00000
   P  -0.1687184   0.2520974  -0.0490223 SPIN=   0.00000
  Fe  -0.2326734  -0.3084665  -0.3002847 SPIN=   4.00000
  Fe   0.2326734   0.3084665  -0.3002847 SPIN=   4.00000
  Fe  -0.2326734  -0.1915335   0.1997153 SPIN=   4.00000
  Fe   0.2326734   0.1915335   0.1997153 SPIN=   4.00000
%ENDBLOCK POSITIONS_FRAC

# Note: total spin =  16.00

KPOINTS_MP_SPACING 0.07

%BLOCK SPECIES_POT
QC5
%ENDBLOCK SPECIES_POT

%BLOCK HUBBARD_U
Fe d:4.0
%ENDBLOCK HUBBARD_U

SNAP_TO_SYMMETRY
SYMMETRY_GENERATE

