#              Generated by Buildcell
#
# at 11:26:29 (GMT+0.0) 1st December 2020
# in /lustre/scratch/uccabz1/launch_tmp
# on node-c12f-027
# by uccabz1
#
# compiler GCC version 4.9.2
# options -cpp -iprefix /lustre/shared/ucl/apps/gcc/4.9.2/bin/../lib/gcc/x86_64-unknown-linux-gnu/4.9.2/ -mtune=corei7 -march=x86-64 -g -Og
#
# seed  1728024675  -845060229 -1806282812  -443076635  1857381709    49846813  -388721100   887497742   -45606029  1521051880 -1830362715  1706224353
#
#      Author: C. J. Pickard (cjp20@cam.ac.uk)
#                Space group: Pca21
#

%BLOCK LATTICE_ABC
      5.06273      6.27952     10.06559
     90.00000     90.00000     90.00000
%ENDBLOCK LATTICE_ABC

%BLOCK POSITIONS_FRAC
  Li   0.4728213  -0.3837849  -0.4586226 SPIN=   0.00000
  Li  -0.0271787   0.3837849   0.4586226 SPIN=   0.00000
  Li   0.4728213   0.1162151   0.4586226 SPIN=   0.00000
  Li  -0.0271787  -0.1162151  -0.4586226 SPIN=   0.00000
   O   0.1239164  -0.3408912   0.3655671 SPIN=   0.00000
   O   0.2027277  -0.6655381   0.2105465 SPIN=   0.00000
   O   0.4453112  -0.3323761   0.1644134 SPIN=   0.00000
   O   0.5636778  -0.5494107   0.3644791 SPIN=   0.00000
   P   0.3254387  -0.4659832   0.2820483 SPIN=   0.00000
   O  -0.3760836   0.3408912  -0.3655671 SPIN=   0.00000
   O  -0.2972723   0.6655381  -0.2105465 SPIN=   0.00000
   O  -0.0546888   0.3323761  -0.1644134 SPIN=   0.00000
   O   0.0636778   0.5494107  -0.3644791 SPIN=   0.00000
   P  -0.1745613   0.4659832  -0.2820483 SPIN=   0.00000
   O   0.1239164   0.1591088  -0.3655671 SPIN=   0.00000
   O   0.2027277  -0.1655381  -0.2105465 SPIN=   0.00000
   O   0.4453112   0.1676239  -0.1644134 SPIN=   0.00000
   O   0.5636778  -0.0494107  -0.3644791 SPIN=   0.00000
   P   0.3254387   0.0340168  -0.2820483 SPIN=   0.00000
   O  -0.3760836  -0.1591088   0.3655671 SPIN=   0.00000
   O  -0.2972723   0.1655381   0.2105465 SPIN=   0.00000
   O  -0.0546888  -0.1676239   0.1644134 SPIN=   0.00000
   O   0.0636778   0.0494107   0.3644791 SPIN=   0.00000
   P  -0.1745613  -0.0340168   0.2820483 SPIN=   0.00000
  Fe   0.3254212  -0.0117022   0.1484386 SPIN=   4.00000
  Fe  -0.1745788   0.0117022  -0.1484386 SPIN=   4.00000
  Fe   0.3254212   0.4882978  -0.1484386 SPIN=   4.00000
  Fe  -0.1745788  -0.4882978   0.1484386 SPIN=   4.00000
%ENDBLOCK POSITIONS_FRAC

# Note: total spin =  16.00

KPOINTS_MP_SPACING 0.07

%BLOCK SPECIES_POT
QC5
%ENDBLOCK SPECIES_POT

%BLOCK HUBBARD_U
Fe d:4.0
%ENDBLOCK HUBBARD_U

SNAP_TO_SYMMETRY
SYMMETRY_GENERATE

