#              Generated by Buildcell
#
# at 14:19:19 (GMT+0.0) 24th November 2020
# in /lustre/scratch/uccabz1/launch_tmp
# on node-c12b-025
# by uccabz1
#
# compiler GCC version 4.9.2
# options -cpp -iprefix /lustre/shared/ucl/apps/gcc/4.9.2/bin/../lib/gcc/x86_64-unknown-linux-gnu/4.9.2/ -mtune=corei7 -march=x86-64 -g -Og
#
# seed  1494099650 -1873974484   -88037032 -1924190914  1710665681  -136413079  1301636511 -1900054817  1735515090   469413505  1604658279  1999661330
#
#      Author: C. J. Pickard (cjp20@cam.ac.uk)
#                Space group: C2/m
#

%BLOCK LATTICE_ABC
      5.05743      5.97077      6.48545
    114.66140    109.81980     96.34130
%ENDBLOCK LATTICE_ABC

%BLOCK POSITIONS_FRAC
  Li  -0.0000000   0.5000000  -0.0000000 SPIN=   0.00000
  Li   0.0000000   0.0000000   0.0000000 SPIN=   0.00000
   O  -0.2484690   0.1331300   0.6709088 SPIN=   0.00000
   O  -0.2447094  -0.0702607   0.2315043 SPIN=   0.00000
   O   0.9193777   0.5377787   0.6709088 SPIN=   0.00000
   O   0.4762137   0.3017650   0.2315043 SPIN=   0.00000
   O   0.2484690  -0.1331300  -0.6709088 SPIN=   0.00000
   O   0.2447094   0.0702607  -0.2315043 SPIN=   0.00000
   O  -0.9193777  -0.5377787  -0.6709088 SPIN=   0.00000
   O  -0.4762137  -0.3017650  -0.2315043 SPIN=   0.00000
   P   0.6796682   0.1796682   0.3593363 SPIN=   0.00000
   P  -0.6796682  -0.1796682  -0.3593363 SPIN=   0.00000
  Fe  -0.3064946  -0.3064946  -0.6129892 SPIN=   4.00000
  Fe   0.3064946   0.3064946   0.6129892 SPIN=   4.00000
%ENDBLOCK POSITIONS_FRAC

# Note: total spin =   8.00

KPOINTS_MP_SPACING 0.07

%BLOCK SPECIES_POT
QC5
%ENDBLOCK SPECIES_POT

%BLOCK HUBBARD_U
Fe d:4.0
%ENDBLOCK HUBBARD_U

SNAP_TO_SYMMETRY
SYMMETRY_GENERATE

