#              Generated by Buildcell
#
# at 06:40:14 (GMT+0.0) 24th November 2020
# in /lustre/scratch/uccabz1/launch_tmp
# on node-c12h-032
# by uccabz1
#
# compiler GCC version 4.9.2
# options -cpp -iprefix /lustre/shared/ucl/apps/gcc/4.9.2/bin/../lib/gcc/x86_64-unknown-linux-gnu/4.9.2/ -mtune=corei7 -march=x86-64 -g -Og
#
# seed   803263154 -1979861283  -907099364   695127541  1363284212   646307086   615410830  2033610968   604187676 -1107472934  1365678601 -1970176216
#
#      Author: C. J. Pickard (cjp20@cam.ac.uk)
#                Space group: Pm
#

%BLOCK LATTICE_ABC
      3.89090      4.51925      9.16925
     90.00000     90.00000     97.08648
%ENDBLOCK LATTICE_ABC

%BLOCK POSITIONS_FRAC
  Li  -0.4294467   0.0659263   0.1846512 SPIN=   0.00000
  Li  -0.4294467   0.0659263  -0.1846512 SPIN=   0.00000
   O  -0.0051359  -0.6838375  -0.2865140 SPIN=   0.00000
   O   0.2500236  -0.1406894  -0.3501452 SPIN=   0.00000
   O   0.5233128  -0.3991784  -0.1520579 SPIN=   0.00000
   P   0.3243695  -0.4598374  -0.3004857 SPIN=   0.00000
   O  -0.0051359  -0.6838375   0.2865140 SPIN=   0.00000
   O   0.2500236  -0.1406894   0.3501452 SPIN=   0.00000
   O   0.5233128  -0.3991784   0.1520579 SPIN=   0.00000
   P   0.3243695  -0.4598374   0.3004857 SPIN=   0.00000
   O   0.2278951   0.0736203  -0.0000000 SPIN=   0.00000
   O   0.3835632   0.3170256  -0.5000000 SPIN=   0.00000
  Fe  -0.1618985  -0.1878109  -0.5000000 SPIN=   0.39130
  Fe   0.1190940  -0.4695767   0.0000000 SPIN=   7.60870
%ENDBLOCK POSITIONS_FRAC

# Note: total spin =   8.00

KPOINTS_MP_SPACING 0.07

%BLOCK SPECIES_POT
QC5
%ENDBLOCK SPECIES_POT

%BLOCK HUBBARD_U
Fe d:4.0
%ENDBLOCK HUBBARD_U

SNAP_TO_SYMMETRY
SYMMETRY_GENERATE

