#              Generated by Buildcell
#
# at 08:42:42 (GMT+0.0) 24th November 2020
# in /scratch/scratch/uccabz1/launch_tmp
# on node-a14a-004
# by uccabz1
#
# compiler GCC version 4.9.2
# options -cpp -iprefix /scratch/UCL/applications/gcc/4.9.2/bin/../lib/gcc/x86_64-unknown-linux-gnu/4.9.2/ -mtune=corei7 -march=x86-64 -g -O2
#
# seed  1586008970  1671131523  -777392088  -271570576   299230576 -1158005489 -1582701619  -136393102   463981920  -599067987  -723201007 -1572171813
#
#      Author: C. J. Pickard (cjp20@cam.ac.uk)
#                Space group: Cc
#

%BLOCK LATTICE_ABC
      5.20656      6.03282      6.03282
     89.04433     67.55083     67.55083
%ENDBLOCK LATTICE_ABC

%BLOCK POSITIONS_FRAC
  Li  -1.0488999   0.2861576   0.4670029 SPIN=   0.00000
  Li  -0.5488999   0.4670029   0.2861576 SPIN=   0.00000
   O   0.0448943  -0.0713493  -0.1808663 SPIN=   0.00000
   O   0.4310766   0.0771189  -0.4877634 SPIN=   0.00000
   O   0.5919340  -0.3626134  -0.4726127 SPIN=   0.00000
   O   0.2074087  -0.1526268  -0.6435100 SPIN=   0.00000
   P   0.3029279  -0.1246830  -0.4343897 SPIN=   0.00000
   O   0.5448943  -0.1808663  -0.0713493 SPIN=   0.00000
   O   0.9310766  -0.4877634   0.0771189 SPIN=   0.00000
   O   1.0919340  -0.4726127  -0.3626134 SPIN=   0.00000
   O   0.7074087  -0.6435100  -0.1526268 SPIN=   0.00000
   P   0.8029279  -0.4343897  -0.1246830 SPIN=   0.00000
  Fe  -0.1388302  -0.1382584   0.2039189 SPIN=   4.00000
  Fe   0.3611698   0.2039189  -0.1382584 SPIN=   4.00000
%ENDBLOCK POSITIONS_FRAC

# Note: total spin =   8.00

KPOINTS_MP_SPACING 0.07

%BLOCK SPECIES_POT
QC5
%ENDBLOCK SPECIES_POT

%BLOCK HUBBARD_U
Fe d:4.0
%ENDBLOCK HUBBARD_U

SNAP_TO_SYMMETRY
SYMMETRY_GENERATE

