#              Generated by Buildcell
#
# at 07:25:27 (GMT+0.0) 24th November 2020
# in /lustre/scratch/uccabz1/launch_tmp
# on node-c12c-035
# by uccabz1
#
# compiler GCC version 4.9.2
# options -cpp -iprefix /lustre/shared/ucl/apps/gcc/4.9.2/bin/../lib/gcc/x86_64-unknown-linux-gnu/4.9.2/ -mtune=corei7 -march=x86-64 -g -Og
#
# seed  1498669203  -594459330  -862871378   266070525   206384322  1655986556  1574025891 -1528944546  1336405845  2044644582   993035467    -3786102
#
#      Author: C. J. Pickard (cjp20@cam.ac.uk)
#                Space group: Cc
#

%BLOCK LATTICE_ABC
      4.34159      4.99105      8.25493
     87.12943     83.38813     64.21865
%ENDBLOCK LATTICE_ABC

%BLOCK POSITIONS_FRAC
  Li  -0.2128359   0.4831340   0.3772988 SPIN=   0.00000
  Li  -0.2297020  -0.4831340  -0.1227012 SPIN=   0.00000
   O   0.2394132   0.2179480   0.2324824 SPIN=   0.00000
   O   0.6795282   0.4248819   0.1239866 SPIN=   0.00000
   O   0.7552006  -0.0544593   0.0152463 SPIN=   0.00000
   O   0.2651448   0.4173509  -0.0611607 SPIN=   0.00000
   P   0.4691625   0.2516057   0.0842454 SPIN=   0.00000
   O  -0.0426388  -0.2179480  -0.2675176 SPIN=   0.00000
   O   0.6044101  -0.4248819  -0.3760134 SPIN=   0.00000
   O   0.2007413   0.0544593  -0.4847537 SPIN=   0.00000
   O   0.1824957  -0.4173509  -0.5611607 SPIN=   0.00000
   P   0.2207682  -0.2516057  -0.4157546 SPIN=   0.00000
  Fe  -0.4896369   0.1335243  -0.3365920 SPIN=   4.00000
  Fe   0.1438874  -0.1335243   0.1634080 SPIN=   4.00000
%ENDBLOCK POSITIONS_FRAC

# Note: total spin =   8.00

KPOINTS_MP_SPACING 0.07

%BLOCK SPECIES_POT
QC5
%ENDBLOCK SPECIES_POT

%BLOCK HUBBARD_U
Fe d:4.0
%ENDBLOCK HUBBARD_U

SNAP_TO_SYMMETRY
SYMMETRY_GENERATE

