#              Generated by Buildcell
#
# at 07:56:07 (GMT+0.0) 24th November 2020
# in /scratch/scratch/uccabz1/launch_tmp
# on node-a14f-010
# by uccabz1
#
# compiler GCC version 4.9.2
# options -cpp -iprefix /scratch/UCL/applications/gcc/4.9.2/bin/../lib/gcc/x86_64-unknown-linux-gnu/4.9.2/ -mtune=corei7 -march=x86-64 -g -O2
#
# seed -1418682893 -1550954851  -733265741  1728408970   563485306  -391254310  1386397188  -497603062 -2145437617  1611978432   401795742  1263241029
#
#      Author: C. J. Pickard (cjp20@cam.ac.uk)
#                Space group: P-1
#

%BLOCK LATTICE_ABC
      4.20275      5.13704      7.87493
    106.58126     91.95616     99.71524
%ENDBLOCK LATTICE_ABC

%BLOCK POSITIONS_FRAC
  Li   0.0994511  -0.1381927  -0.1923428 SPIN=   0.00000
  Li  -0.0994511   0.1381927   0.1923428 SPIN=   0.00000
   O   0.0338244   0.2841205  -0.1120920 SPIN=   0.00000
   O  -0.2332450  -0.0583953  -0.4132388 SPIN=   0.00000
   O  -0.4812668   0.3465187  -0.2767359 SPIN=   0.00000
   P  -0.1444608   0.2506586  -0.2930099 SPIN=   0.00000
   O  -0.0338244  -0.2841205   0.1120920 SPIN=   0.00000
   O   0.2332450   0.0583953   0.4132388 SPIN=   0.00000
   O   0.4812668  -0.3465187   0.2767359 SPIN=   0.00000
   P   0.1444608  -0.2506586   0.2930099 SPIN=   0.00000
   O   0.5000000  -0.0000000  -0.0000000 SPIN=   0.00000
   O  -0.0000000  -0.5000000   0.5000000 SPIN=   0.00000
  Fe   0.5000000   0.5000000   0.5000000 SPIN=   2.34356
  Fe   0.5000000  -0.5000000   0.0000000 SPIN=   5.65644
%ENDBLOCK POSITIONS_FRAC

# Note: total spin =   8.00

KPOINTS_MP_SPACING 0.07

%BLOCK SPECIES_POT
QC5
%ENDBLOCK SPECIES_POT

%BLOCK HUBBARD_U
Fe d:4.0
%ENDBLOCK HUBBARD_U

SNAP_TO_SYMMETRY
SYMMETRY_GENERATE

