#              Generated by Buildcell
#
# at 17:12:41 (GMT+0.0) 26th November 2020
# in /lustre/scratch/uccabz1/launch_tmp
# on node-c12i-031
# by uccabz1
#
# compiler GCC version 4.9.2
# options -cpp -iprefix /lustre/shared/ucl/apps/gcc/4.9.2/bin/../lib/gcc/x86_64-unknown-linux-gnu/4.9.2/ -mtune=corei7 -march=x86-64 -g -Og
#
# seed -1516333577  1527020968 -1947811237  1679920073  1417656517 -1472634287  -363300400   504631560   512014879 -1846845264  1017977477  -599088308
#
#      Author: C. J. Pickard (cjp20@cam.ac.uk)
#                Space group: C2
#

%BLOCK LATTICE_ABC
      5.66300      5.66300     10.54802
     76.56554     76.56554     87.35557
%ENDBLOCK LATTICE_ABC

%BLOCK POSITIONS_FRAC
  Li  -0.0023803   0.3606480   0.1726793 SPIN=   0.00000
  Li  -0.3606480   0.0023803  -0.1726793 SPIN=   0.00000
  Li   0.1455218  -0.2175214   0.3119514 SPIN=   0.00000
  Li   0.2175214  -0.1455218  -0.3119514 SPIN=   0.00000
   O  -0.3991674  -0.2229987   0.0429784 SPIN=   0.00000
   O  -0.6485608   0.1124206   0.1447287 SPIN=   0.00000
   O  -0.4747771  -0.2152858   0.2945324 SPIN=   0.00000
   O  -0.1988772   0.0971255   0.1242478 SPIN=   0.00000
   P  -0.4259540  -0.0641924   0.1455141 SPIN=   0.00000
   O   0.2229987   0.3991674  -0.0429784 SPIN=   0.00000
   O  -0.1124206   0.6485608  -0.1447287 SPIN=   0.00000
   O   0.2152858   0.4747771  -0.2945324 SPIN=   0.00000
   O  -0.0971255   0.1988772  -0.1242478 SPIN=   0.00000
   P   0.0641924   0.4259540  -0.1455141 SPIN=   0.00000
   O  -0.4444039  -0.2015211  -0.4771466 SPIN=   0.00000
   O  -0.5230691   0.1272038  -0.3368794 SPIN=   0.00000
   O  -0.4987946  -0.3012155  -0.2188125 SPIN=   0.00000
   O  -0.1220867  -0.0836977  -0.3646540 SPIN=   0.00000
   O   0.2015211   0.4444039   0.4771466 SPIN=   0.00000
   O  -0.1272038   0.5230691   0.3368794 SPIN=   0.00000
   O   0.3012155   0.4987946   0.2188125 SPIN=   0.00000
   O   0.0836977   0.1220867   0.3646540 SPIN=   0.00000
   P   0.4068589  -0.4068589  -0.5000000 SPIN=   0.00000
   P  -0.1013853   0.1013853  -0.5000000 SPIN=   0.00000
  Fe   0.4783951   0.1734925   0.3866339 SPIN=   5.13542
  Fe  -0.1734925  -0.4783951  -0.3866339 SPIN=   5.13542
  Fe  -0.4309953   0.4309953  -0.0000000 SPIN=   0.37904
  Fe   0.0691418  -0.0691418   0.0000000 SPIN=   5.35011
%ENDBLOCK POSITIONS_FRAC

# Note: total spin =  16.00

KPOINTS_MP_SPACING 0.07

%BLOCK SPECIES_POT
QC5
%ENDBLOCK SPECIES_POT

%BLOCK HUBBARD_U
Fe d:4.0
%ENDBLOCK HUBBARD_U

SNAP_TO_SYMMETRY
SYMMETRY_GENERATE

