#              Generated by Buildcell
#
# at 09:34:23 (GMT+0.0) 24th November 2020
# in /lustre/scratch/uccabz1/launch_tmp
# on node-c12c-030
# by uccabz1
#
# compiler GCC version 4.9.2
# options -cpp -iprefix /lustre/shared/ucl/apps/gcc/4.9.2/bin/../lib/gcc/x86_64-unknown-linux-gnu/4.9.2/ -mtune=corei7 -march=x86-64 -g -Og
#
# seed  -854287370  -751396384  1985335611   -28443879 -1191812109 -1907712033 -1863423748 -1743839305  -223127360 -1950720729   104303139   486095046
#
#      Author: C. J. Pickard (cjp20@cam.ac.uk)
#                Space group: Pmc21
#

%BLOCK LATTICE_ABC
      5.28425      5.32286      5.68843
     90.00000     90.00000     90.00000
%ENDBLOCK LATTICE_ABC

%BLOCK POSITIONS_FRAC
  Li   0.5000000  -0.2776391  -0.1738675 SPIN=   0.00000
  Li  -0.5000000   0.2776391   0.3261325 SPIN=   0.00000
   O   0.2414182  -0.0035232  -0.0354903 SPIN=   0.00000
   O   0.2541122   0.4798706   0.0266505 SPIN=   0.00000
   O  -0.2414182   0.0035232   0.4645097 SPIN=   0.00000
   O  -0.2541122  -0.4798706   0.5266505 SPIN=   0.00000
   O   0.2414182   0.0035232   0.4645097 SPIN=   0.00000
   O   0.2541122  -0.4798706   0.5266505 SPIN=   0.00000
   O  -0.2414182  -0.0035232  -0.0354903 SPIN=   0.00000
   O  -0.2541122   0.4798706   0.0266505 SPIN=   0.00000
   P   0.5000000   0.2225730  -0.1413625 SPIN=   0.00000
   P  -0.5000000  -0.2225730   0.3586375 SPIN=   0.00000
  Fe  -0.0000000   0.2500981  -0.3286508 SPIN=   4.00000
  Fe   0.0000000  -0.2500981   0.1713492 SPIN=   4.00000
%ENDBLOCK POSITIONS_FRAC

# Note: total spin =   8.00

KPOINTS_MP_SPACING 0.07

%BLOCK SPECIES_POT
QC5
%ENDBLOCK SPECIES_POT

%BLOCK HUBBARD_U
Fe d:4.0
%ENDBLOCK HUBBARD_U

SNAP_TO_SYMMETRY
SYMMETRY_GENERATE

