#              Generated by Buildcell
#
# at 15:11:33 (GMT+0.0) 26th November 2020
# in /lustre/scratch/uccabz1/launch_tmp
# on node-c12k-029
# by uccabz1
#
# compiler GCC version 4.9.2
# options -cpp -iprefix /lustre/shared/ucl/apps/gcc/4.9.2/bin/../lib/gcc/x86_64-unknown-linux-gnu/4.9.2/ -mtune=corei7 -march=x86-64 -g -Og
#
# seed  -795857380  1270462475  1330238785    23002195  -533515110  -352012698  -672337764  1815509251  -186876305   227871347 -1739887770  2125109664
#
#      Author: C. J. Pickard (cjp20@cam.ac.uk)
#                Space group: Cm
#

%BLOCK LATTICE_ABC
      6.98121      7.07204      7.07204
    105.46618    100.79842    100.79842
%ENDBLOCK LATTICE_ABC

%BLOCK POSITIONS_FRAC
  Li  -0.2909758   0.2230880   0.2230880 SPIN=   0.00000
  Li  -0.0966190  -0.0492065  -0.0492065 SPIN=   0.00000
  Li   0.1918088  -0.2520919  -0.2520919 SPIN=   0.00000
  Li   0.3781399   0.4707104   0.4707104 SPIN=   0.00000
   O   0.0030903   0.3223072   0.5418753 SPIN=   0.00000
   O   0.3000495   0.1664649   0.4669131 SPIN=   0.00000
   O   0.0860132   0.0234398   0.6616737 SPIN=   0.00000
   O  -0.0539582  -0.0359359   0.2919285 SPIN=   0.00000
   P   0.0778757   0.1280612   0.4909834 SPIN=   0.00000
   O   0.0030903   0.5418753   0.3223072 SPIN=   0.00000
   O   0.3000495   0.4669131   0.1664649 SPIN=   0.00000
   O   0.0860132   0.6616737   0.0234398 SPIN=   0.00000
   O  -0.0539582   0.2919285  -0.0359359 SPIN=   0.00000
   P   0.0778757   0.4909834   0.1280612 SPIN=   0.00000
   O  -0.4449826  -0.1393098   0.1038857 SPIN=   0.00000
   O  -0.6368836  -0.4583626  -0.2023399 SPIN=   0.00000
   O  -0.2661331  -0.3520261  -0.1319642 SPIN=   0.00000
   P  -0.4429185  -0.3522296  -0.0229360 SPIN=   0.00000
   O  -0.4449826   0.1038857  -0.1393098 SPIN=   0.00000
   O  -0.6368836  -0.2023399  -0.4583626 SPIN=   0.00000
   O  -0.2661331  -0.1319642  -0.3520261 SPIN=   0.00000
   P  -0.4429185  -0.0229360  -0.3522296 SPIN=   0.00000
   O  -0.3239104   0.4600943   0.4600943 SPIN=   0.00000
   O   0.2089082   0.0957169   0.0957169 SPIN=   0.00000
  Fe  -0.1990892   0.3769007  -0.2765188 SPIN=   5.92221
  Fe  -0.1990892  -0.2765188   0.3769007 SPIN=   5.92221
  Fe   0.3106907   0.2494809  -0.0970531 SPIN=   2.07779
  Fe   0.3106907  -0.0970531   0.2494809 SPIN=   2.07779
%ENDBLOCK POSITIONS_FRAC

# Note: total spin =  16.00

KPOINTS_MP_SPACING 0.07

%BLOCK SPECIES_POT
QC5
%ENDBLOCK SPECIES_POT

%BLOCK HUBBARD_U
Fe d:4.0
%ENDBLOCK HUBBARD_U

SNAP_TO_SYMMETRY
SYMMETRY_GENERATE

