#              Generated by Buildcell
#
# at 20:09:15 (GMT+0.0) 26th November 2020
# in /scratch/scratch/mmm0366/launch_tmp
# on node-k98n-029
# by mmm0366
#
# compiler GCC version 4.9.2
# options -cpp -iprefix /scratch/UCL/applications/gcc/4.9.2/bin/../lib/gcc/x86_64-unknown-linux-gnu/4.9.2/ -mtune=corei7 -march=x86-64 -g -O2
#
# seed  1105416545   873024489   355709812 -1843057913   882234936 -1394234110 -1335259629  1543749338  -205722087 -1904462222  2099212544 -1199415385
#
#      Author: C. J. Pickard (cjp20@cam.ac.uk)
#                Space group: C2
#

%BLOCK LATTICE_ABC
      6.50850      6.50850      7.73767
     91.42465     91.42465    102.29705
%ENDBLOCK LATTICE_ABC

%BLOCK POSITIONS_FRAC
  Li  -0.4544349  -0.0528669  -0.0145467 SPIN=   0.00000
  Li   0.0528669   0.4544349   0.0145467 SPIN=   0.00000
  Li   0.3522223  -0.1996229   0.3247938 SPIN=   0.00000
  Li   0.1996229  -0.3522223  -0.3247938 SPIN=   0.00000
   O  -0.5138563  -0.3725428  -0.2010224 SPIN=   0.00000
   O  -0.3647439   0.0167581  -0.2757973 SPIN=   0.00000
   O  -0.1206392  -0.2261616  -0.2649554 SPIN=   0.00000
   O  -0.3903912  -0.2647891  -0.5067710 SPIN=   0.00000
   P  -0.3567775  -0.2208755  -0.3085172 SPIN=   0.00000
   O   0.3725428   0.5138563   0.2010224 SPIN=   0.00000
   O  -0.0167581   0.3647439   0.2757973 SPIN=   0.00000
   O   0.2261616   0.1206392   0.2649554 SPIN=   0.00000
   O   0.2647891   0.3903912   0.5067710 SPIN=   0.00000
   P   0.2208755   0.3567775   0.3085172 SPIN=   0.00000
   O  -0.2461720  -0.2590452   0.0354850 SPIN=   0.00000
   O  -0.0672394  -0.2738662   0.3374889 SPIN=   0.00000
   O  -0.2586089   0.0096787   0.2869356 SPIN=   0.00000
   P  -0.2598931  -0.2248758   0.2318601 SPIN=   0.00000
   O   0.2590452   0.2461720  -0.0354850 SPIN=   0.00000
   O   0.2738662   0.0672394  -0.3374889 SPIN=   0.00000
   O  -0.0096787   0.2586089  -0.2869356 SPIN=   0.00000
   P   0.2248758   0.2598931  -0.2318601 SPIN=   0.00000
   O  -0.2376409   0.2376409   0.0000000 SPIN=   0.00000
   O   0.2497292  -0.2497292  -0.0000000 SPIN=   0.00000
  Fe   0.0458750  -0.0458750  -0.0000000 SPIN=   5.82221
  Fe  -0.3931494   0.3931494   0.5000000 SPIN=   2.86290
  Fe  -0.0117912   0.0117912  -0.5000000 SPIN=   5.92565
  Fe  -0.4446438   0.4446438   0.0000000 SPIN=   1.38924
%ENDBLOCK POSITIONS_FRAC

# Note: total spin =  16.00

KPOINTS_MP_SPACING 0.07

%BLOCK SPECIES_POT
QC5
%ENDBLOCK SPECIES_POT

%BLOCK HUBBARD_U
Fe d:4.0
%ENDBLOCK HUBBARD_U

SNAP_TO_SYMMETRY
SYMMETRY_GENERATE

