#              Generated by Buildcell
#
# at 21:08:24 (GMT+0.0) 26th November 2020
# in /lustre/scratch/uccabz1/launch_tmp
# on node-c12d-024
# by uccabz1
#
# compiler GCC version 4.9.2
# options -cpp -iprefix /lustre/shared/ucl/apps/gcc/4.9.2/bin/../lib/gcc/x86_64-unknown-linux-gnu/4.9.2/ -mtune=corei7 -march=x86-64 -g -Og
#
# seed   498494041   172104987  1792408723  -909255792  1906390442  1684209210  -639182662 -1910178867  1713705948 -1942547384 -2140828663 -2094641607
#
#      Author: C. J. Pickard (cjp20@cam.ac.uk)
#                Space group: P-1
#

%BLOCK LATTICE_ABC
      5.26436      7.69726      8.89346
    107.97697    106.34283     97.15265
%ENDBLOCK LATTICE_ABC

%BLOCK POSITIONS_FRAC
  Li   0.2647280  -0.2743017   0.4939573 SPIN=   0.00000
  Li  -0.2647280   0.2743017  -0.4939573 SPIN=   0.00000
  Li  -0.5000000  -0.0000000  -0.0000000 SPIN=   0.00000
  Li   0.0000000  -0.5000000   0.0000000 SPIN=   0.00000
   O   0.2180773  -0.2837664   0.2453870 SPIN=   0.00000
   O  -0.0473453  -0.1484427   0.0313603 SPIN=   0.00000
   O   0.0355934   0.0169704   0.3329623 SPIN=   0.00000
   O   0.4249007   0.0263403   0.2238816 SPIN=   0.00000
   P   0.1641676  -0.1056988   0.2105500 SPIN=   0.00000
   O  -0.2180773   0.2837664  -0.2453870 SPIN=   0.00000
   O   0.0473453   0.1484427  -0.0313603 SPIN=   0.00000
   O  -0.0355934  -0.0169704  -0.3329623 SPIN=   0.00000
   O  -0.4249007  -0.0263403  -0.2238816 SPIN=   0.00000
   P  -0.1641676   0.1056988  -0.2105500 SPIN=   0.00000
   O   0.0953740  -0.4728984  -0.3471392 SPIN=   0.00000
   O   0.2865147  -0.5994507  -0.1093974 SPIN=   0.00000
   O   0.6124119  -0.4247952  -0.1942542 SPIN=   0.00000
   P   0.3201539  -0.4372190  -0.1798807 SPIN=   0.00000
   O  -0.0953740   0.4728984   0.3471392 SPIN=   0.00000
   O  -0.2865147   0.5994507   0.1093974 SPIN=   0.00000
   O  -0.6124119   0.4247952   0.1942542 SPIN=   0.00000
   P  -0.3201539   0.4372190   0.1798807 SPIN=   0.00000
   O  -0.5000000   0.5000000   0.5000000 SPIN=   0.00000
   O   0.5000000   0.0000000   0.5000000 SPIN=   0.00000
  Fe  -0.3056003  -0.1736192   0.3083661 SPIN=   5.13636
  Fe   0.3056003   0.1736192  -0.3083661 SPIN=   5.13636
  Fe   0.1247908   0.2727930   0.2719498 SPIN=   2.86364
  Fe  -0.1247908  -0.2727930  -0.2719498 SPIN=   2.86364
%ENDBLOCK POSITIONS_FRAC

# Note: total spin =  16.00

KPOINTS_MP_SPACING 0.07

%BLOCK SPECIES_POT
QC5
%ENDBLOCK SPECIES_POT

%BLOCK HUBBARD_U
Fe d:4.0
%ENDBLOCK HUBBARD_U

SNAP_TO_SYMMETRY
SYMMETRY_GENERATE

