#              Generated by Buildcell
#
# at 12:11:24 (GMT+0.0) 24th November 2020
# in /scratch/scratch/uccabz1/launch_tmp
# on node-a14b-028
# by uccabz1
#
# compiler GCC version 4.9.2
# options -cpp -iprefix /scratch/UCL/applications/gcc/4.9.2/bin/../lib/gcc/x86_64-unknown-linux-gnu/4.9.2/ -mtune=corei7 -march=x86-64 -g -O2
#
# seed  1361937861  1778667808 -1297466613  1225623339   830740615   538335249 -1983099006   136230561  1335907323  -602248075  -278987773  -324070120
#
#      Author: C. J. Pickard (cjp20@cam.ac.uk)
#                Space group: P21/m
#

%BLOCK LATTICE_ABC
      3.83897      4.60348      9.08621
     90.00000     90.00000     94.86000
%ENDBLOCK LATTICE_ABC

%BLOCK POSITIONS_FRAC
  Li  -0.5000000   0.5000000   0.0000000 SPIN=   0.00000
  Li  -0.5000000   0.5000000  -0.5000000 SPIN=   0.00000
   O   0.2435651   0.1446176   0.1143448 SPIN=   0.00000
   O  -0.0347772   0.6397554   0.1141220 SPIN=   0.00000
   O  -0.2435651  -0.1446176  -0.3856552 SPIN=   0.00000
   O   0.0347772  -0.6397554  -0.3858780 SPIN=   0.00000
   O  -0.2435651  -0.1446176  -0.1143448 SPIN=   0.00000
   O   0.0347772  -0.6397554  -0.1141220 SPIN=   0.00000
   O   0.2435651   0.1446176   0.3856552 SPIN=   0.00000
   O  -0.0347772   0.6397554   0.3858780 SPIN=   0.00000
   P  -0.1347157   0.4885088  -0.2500000 SPIN=   0.00000
   P   0.1347157  -0.4885088   0.2500000 SPIN=   0.00000
  Fe   0.3560975  -0.0090713  -0.2500000 SPIN=   4.00000
  Fe  -0.3560975   0.0090713   0.2500000 SPIN=   4.00000
%ENDBLOCK POSITIONS_FRAC

# Note: total spin =   8.00

KPOINTS_MP_SPACING 0.07

%BLOCK SPECIES_POT
QC5
%ENDBLOCK SPECIES_POT

%BLOCK HUBBARD_U
Fe d:4.0
%ENDBLOCK HUBBARD_U

SNAP_TO_SYMMETRY
SYMMETRY_GENERATE

