#              Generated by Buildcell
#
# at 01:59:33 (GMT+0.0) 27th November 2020
# in /lustre/scratch/uccabz1/launch_tmp
# on node-c12g-031
# by uccabz1
#
# compiler GCC version 4.9.2
# options -cpp -iprefix /lustre/shared/ucl/apps/gcc/4.9.2/bin/../lib/gcc/x86_64-unknown-linux-gnu/4.9.2/ -mtune=corei7 -march=x86-64 -g -Og
#
# seed -1488789426  -463532232  1658786561  -440346087  1714192033   989178763 -2104251601   802077138  -208966418 -1545022625   974568084 -1242866881
#
#      Author: C. J. Pickard (cjp20@cam.ac.uk)
#                Space group: Pc
#

%BLOCK LATTICE_ABC
      5.63160      6.76788      8.84439
     90.00000    108.32539     90.00000
%ENDBLOCK LATTICE_ABC

%BLOCK POSITIONS_FRAC
  Li  -0.0334451  -0.2582830   0.2094228 SPIN=   0.00000
  Li  -0.5334451   0.2582830  -0.2905772 SPIN=   0.00000
  Li  -0.3617369   0.0813272   0.0402834 SPIN=   0.00000
  Li  -0.8617369  -0.0813272  -0.4597166 SPIN=   0.00000
   O   0.4832476   0.5186186   0.3175206 SPIN=   0.00000
   O   0.1459827   0.6362083   0.4414035 SPIN=   0.00000
   O   0.2559494   0.2818116   0.4579675 SPIN=   0.00000
   O   0.5640297   0.5266967   0.6215563 SPIN=   0.00000
   P   0.3711227   0.4927365   0.4539574 SPIN=   0.00000
   O  -0.0167524  -0.5186186  -0.1824794 SPIN=   0.00000
   O  -0.3540173  -0.6362083  -0.0585965 SPIN=   0.00000
   O  -0.2440506  -0.2818116  -0.0420325 SPIN=   0.00000
   O   0.0640297  -0.5266967   0.1215563 SPIN=   0.00000
   P  -0.1288773  -0.4927365  -0.0460426 SPIN=   0.00000
   O   0.7571600   0.0589485   0.2905122 SPIN=   0.00000
   O   0.7859503  -0.2157491   0.5007330 SPIN=   0.00000
   O   0.6695321   0.1213992   0.5579284 SPIN=   0.00000
   O   0.3658644  -0.0801027   0.3464295 SPIN=   0.00000
   P   0.6473288  -0.0248044   0.4158842 SPIN=   0.00000
   O   0.2571600  -0.0589485  -0.2094878 SPIN=   0.00000
   O   0.2859503   0.2157491   0.0007330 SPIN=   0.00000
   O   0.1695321  -0.1213992   0.0579284 SPIN=   0.00000
   O  -0.1341356   0.0801027  -0.1535705 SPIN=   0.00000
   P   0.1473288   0.0248044  -0.0841158 SPIN=   0.00000
  Fe  -0.1250344   0.3586358  -0.4874407 SPIN=   3.87553
  Fe   0.3749656  -0.3586358   0.0125593 SPIN=   3.87553
  Fe   0.2249381   0.1826233   0.2250453 SPIN=   4.12447
  Fe  -0.2750619  -0.1826233  -0.2749547 SPIN=   4.12447
%ENDBLOCK POSITIONS_FRAC

# Note: total spin =  16.00

KPOINTS_MP_SPACING 0.07

%BLOCK SPECIES_POT
QC5
%ENDBLOCK SPECIES_POT

%BLOCK HUBBARD_U
Fe d:4.0
%ENDBLOCK HUBBARD_U

SNAP_TO_SYMMETRY
SYMMETRY_GENERATE

