#              Generated by Buildcell
#
# at 10:16:25 (GMT+0.0) 24th November 2020
# in /lustre/scratch/uccabz1/launch_tmp
# on node-c12b-020
# by uccabz1
#
# compiler GCC version 4.9.2
# options -cpp -iprefix /lustre/shared/ucl/apps/gcc/4.9.2/bin/../lib/gcc/x86_64-unknown-linux-gnu/4.9.2/ -mtune=corei7 -march=x86-64 -g -Og
#
# seed -1094428636  2064958248  1142392645  -376784438 -1579327293  1252703088  1677352314 -1038937935  -984561244  2116106436   545336113    71409173
#
#      Author: C. J. Pickard (cjp20@cam.ac.uk)
#                Space group: Cc
#

%BLOCK LATTICE_ABC
      5.53672      5.53672      5.93617
    104.23352    104.23352    105.70719
%ENDBLOCK LATTICE_ABC

%BLOCK POSITIONS_FRAC
  Li  -0.0975633  -0.1706160   0.2894067 SPIN=   0.00000
  Li  -0.1706160  -0.0975633  -0.2105933 SPIN=   0.00000
   O  -0.6583122   0.1647552  -0.5531153 SPIN=   0.00000
   O  -0.1975174   0.1072700  -0.4668478 SPIN=   0.00000
   O  -0.2194501   0.5445210  -0.4762141 SPIN=   0.00000
   O  -0.2910113   0.3937649  -0.1254035 SPIN=   0.00000
   P  -0.3578409   0.2963155  -0.4099563 SPIN=   0.00000
   O   0.1647552  -0.6583122  -0.0531153 SPIN=   0.00000
   O   0.1072700  -0.1975174   0.0331522 SPIN=   0.00000
   O   0.5445210  -0.2194501   0.0237859 SPIN=   0.00000
   O   0.3937649  -0.2910113   0.3745965 SPIN=   0.00000
   P   0.2963155  -0.3578409   0.0900437 SPIN=   0.00000
  Fe   0.1915178   0.4811131  -0.4325851 SPIN=   4.00000
  Fe   0.4811131   0.1915178   0.0674149 SPIN=   4.00000
%ENDBLOCK POSITIONS_FRAC

# Note: total spin =   8.00

KPOINTS_MP_SPACING 0.07

%BLOCK SPECIES_POT
QC5
%ENDBLOCK SPECIES_POT

%BLOCK HUBBARD_U
Fe d:4.0
%ENDBLOCK HUBBARD_U

SNAP_TO_SYMMETRY
SYMMETRY_GENERATE

