#              Generated by Buildcell
#
# at 08:43:53 (GMT+0.0) 24th November 2020
# in /scratch/scratch/uccabz1/launch_tmp
# on node-k10h-026
# by uccabz1
#
# compiler GCC version 4.9.2
# options -cpp -iprefix /scratch/UCL/applications/gcc/4.9.2/bin/../lib/gcc/x86_64-unknown-linux-gnu/4.9.2/ -mtune=corei7 -march=x86-64 -g -O2
#
# seed   365617727 -1570397992  -294834114    14488586  2035758474   931270014  1528746774   514976859   321691032   803270155   712561733  1742559525
#
#      Author: C. J. Pickard (cjp20@cam.ac.uk)
#                Space group: C2
#

%BLOCK LATTICE_ABC
      5.23858      5.23858      6.99680
     98.24877    108.28670    112.91044
%ENDBLOCK LATTICE_ABC

%BLOCK POSITIONS_FRAC
  Li   0.3197539  -0.4729371   0.1734300 SPIN=   0.00000
  Li  -0.6463671   0.1463239  -0.1734300 SPIN=   0.00000
   O   0.7073796   0.4289700   0.2649381 SPIN=   0.00000
   O   0.5823474  -0.0595845   0.0137392 SPIN=   0.00000
   O   0.7004391  -0.0155698   0.3912309 SPIN=   0.00000
   P   0.5545431   0.0956268   0.2104862 SPIN=   0.00000
   O   0.1640320   0.4424415  -0.2649381 SPIN=   0.00000
   O  -0.0733237   0.5686082  -0.0137392 SPIN=   0.00000
   O  -0.4068007   0.3092082  -0.3912309 SPIN=   0.00000
   P  -0.1148595   0.3440569  -0.2104862 SPIN=   0.00000
   O  -0.7538185  -0.2538185  -0.5000000 SPIN=   0.00000
   O   0.0821145   0.0821145   0.0000000 SPIN=   0.00000
  Fe  -0.3662336  -0.2720837  -0.3102407 SPIN=   4.00000
  Fe   0.0381570  -0.0559929   0.3102407 SPIN=   4.00000
%ENDBLOCK POSITIONS_FRAC

# Note: total spin =   8.00

KPOINTS_MP_SPACING 0.07

%BLOCK SPECIES_POT
QC5
%ENDBLOCK SPECIES_POT

%BLOCK HUBBARD_U
Fe d:4.0
%ENDBLOCK HUBBARD_U

SNAP_TO_SYMMETRY
SYMMETRY_GENERATE

