#              Generated by Buildcell
#
# at 13:21:33 (GMT+0.0) 26th November 2020
# in /lustre/scratch/uccabz1/launch_tmp
# on node-c12i-031
# by uccabz1
#
# compiler GCC version 4.9.2
# options -cpp -iprefix /lustre/shared/ucl/apps/gcc/4.9.2/bin/../lib/gcc/x86_64-unknown-linux-gnu/4.9.2/ -mtune=corei7 -march=x86-64 -g -Og
#
# seed  -763248160 -1619747572  1535323574  -236584322 -1824672639   647429454  -791777183   207513148  -211208070  -878698594   -65468261 -1774338298
#
#      Author: C. J. Pickard (cjp20@cam.ac.uk)
#                Space group: Pc
#

%BLOCK LATTICE_ABC
      4.92441      7.56173      8.59600
     90.00000     90.00000     91.35557
%ENDBLOCK LATTICE_ABC

%BLOCK POSITIONS_FRAC
  Li  -0.3514962   0.0769288   0.4495893 SPIN=   0.00000
  Li   0.1485038  -0.4230712  -0.4495893 SPIN=   0.00000
  Li  -0.4344919   0.1321387   0.0565713 SPIN=   0.00000
  Li   0.0655081  -0.3678613  -0.0565713 SPIN=   0.00000
   O  -0.3119300  -0.0412309  -0.3294598 SPIN=   0.00000
   O  -0.6940437  -0.2698198  -0.2581914 SPIN=   0.00000
   O  -0.4372119  -0.3136857  -0.5014183 SPIN=   0.00000
   O  -0.2087285  -0.3604554  -0.2449046 SPIN=   0.00000
   P  -0.4051878  -0.2367263  -0.3322333 SPIN=   0.00000
   O   0.1880700   0.4587691   0.3294598 SPIN=   0.00000
   O  -0.1940437   0.2301802   0.2581914 SPIN=   0.00000
   O   0.0627881   0.1863143   0.5014183 SPIN=   0.00000
   O   0.2912715   0.1395446   0.2449046 SPIN=   0.00000
   P   0.0948122   0.2632737   0.3322333 SPIN=   0.00000
   O  -0.2847540  -0.1498530   0.2645887 SPIN=   0.00000
   O  -0.6594006  -0.1907847   0.0539813 SPIN=   0.00000
   O  -0.1938869  -0.1096360  -0.0311745 SPIN=   0.00000
   O  -0.2925438  -0.4134988   0.0734655 SPIN=   0.00000
   P  -0.3529969  -0.2147555   0.0993021 SPIN=   0.00000
   O   0.2152460   0.3501470  -0.2645887 SPIN=   0.00000
   O  -0.1594006   0.3092153  -0.0539813 SPIN=   0.00000
   O   0.3061131   0.3903640   0.0311745 SPIN=   0.00000
   O   0.2074562   0.0865012  -0.0734655 SPIN=   0.00000
   P   0.1470031   0.2852445  -0.0993021 SPIN=   0.00000
  Fe  -0.3750969   0.4761198   0.2929389 SPIN=   4.88821
  Fe   0.1249031  -0.0238802  -0.2929389 SPIN=   4.88821
  Fe  -0.3595913   0.3780506  -0.2600874 SPIN=   3.11179
  Fe   0.1404087  -0.1219494   0.2600874 SPIN=   3.11179
%ENDBLOCK POSITIONS_FRAC

# Note: total spin =  16.00

KPOINTS_MP_SPACING 0.07

%BLOCK SPECIES_POT
QC5
%ENDBLOCK SPECIES_POT

%BLOCK HUBBARD_U
Fe d:4.0
%ENDBLOCK HUBBARD_U

SNAP_TO_SYMMETRY
SYMMETRY_GENERATE

