#              Generated by Buildcell
#
# at 22:16:28 (GMT+0.0) 26th November 2020
# in /lustre/scratch/uccabz1/launch_tmp
# on node-c12d-029
# by uccabz1
#
# compiler GCC version 4.9.2
# options -cpp -iprefix /lustre/shared/ucl/apps/gcc/4.9.2/bin/../lib/gcc/x86_64-unknown-linux-gnu/4.9.2/ -mtune=corei7 -march=x86-64 -g -Og
#
# seed   491211906  -937742144   -30306485  -613399019 -1674863668   868738630   218943372  1098003778 -1114119617  2071342440 -1654894972  1582503126
#
#      Author: C. J. Pickard (cjp20@cam.ac.uk)
#                Space group: P21
#

%BLOCK LATTICE_ABC
      4.88724      6.20858     10.69135
     99.45363     90.00000     90.00000
%ENDBLOCK LATTICE_ABC

%BLOCK POSITIONS_FRAC
  Li  -0.4219322  -0.4874470   0.3315464 SPIN=   0.00000
  Li   0.0780678   0.4874470  -0.3315464 SPIN=   0.00000
  Li  -0.4495157  -0.0057127   0.1283257 SPIN=   0.00000
  Li   0.0504843   0.0057127  -0.1283257 SPIN=   0.00000
   O   0.0880348  -0.0681489   0.0626499 SPIN=   0.00000
   O   0.3239491   0.2850325   0.1769147 SPIN=   0.00000
   O  -0.0365285   0.3198266   0.0195389 SPIN=   0.00000
   O  -0.1643938   0.2129360   0.2277557 SPIN=   0.00000
   P   0.0520806   0.1741054   0.1198213 SPIN=   0.00000
   O  -0.4119652   0.0681489  -0.0626499 SPIN=   0.00000
   O  -0.1760509  -0.2850325  -0.1769147 SPIN=   0.00000
   O  -0.5365285  -0.3198266  -0.0195389 SPIN=   0.00000
   O  -0.6643938  -0.2129360  -0.2277557 SPIN=   0.00000
   P  -0.4479194  -0.1741054  -0.1198213 SPIN=   0.00000
   O   0.3602261  -0.2036016   0.4361205 SPIN=   0.00000
   O  -0.1534191  -0.1469440   0.3879636 SPIN=   0.00000
   O  -0.0124325  -0.4978138   0.4484328 SPIN=   0.00000
   O  -0.0086898  -0.1584439   0.6114752 SPIN=   0.00000
   P   0.0624793  -0.2480392   0.4707988 SPIN=   0.00000
   O  -0.1397739   0.2036016  -0.4361205 SPIN=   0.00000
   O  -0.6534191   0.1469440  -0.3879636 SPIN=   0.00000
   O  -0.5124325   0.4978138  -0.4484328 SPIN=   0.00000
   O  -0.5086898   0.1584439  -0.6114752 SPIN=   0.00000
   P  -0.4375207   0.2480392  -0.4707988 SPIN=   0.00000
  Fe  -0.4378623  -0.1684940  -0.3883161 SPIN=   3.25111
  Fe   0.0621377   0.1684940   0.3883161 SPIN=   3.25111
  Fe  -0.4496244   0.3622790  -0.1336276 SPIN=   4.74889
  Fe   0.0503756  -0.3622790   0.1336276 SPIN=   4.74889
%ENDBLOCK POSITIONS_FRAC

# Note: total spin =  16.00

KPOINTS_MP_SPACING 0.07

%BLOCK SPECIES_POT
QC5
%ENDBLOCK SPECIES_POT

%BLOCK HUBBARD_U
Fe d:4.0
%ENDBLOCK HUBBARD_U

SNAP_TO_SYMMETRY
SYMMETRY_GENERATE

