#              Generated by Buildcell
#
# at 22:52:10 (GMT+0.0) 26th November 2020
# in /scratch/scratch/uccabz1/launch_tmp
# on node-k10e-027
# by uccabz1
#
# compiler GCC version 4.9.2
# options -cpp -iprefix /scratch/UCL/applications/gcc/4.9.2/bin/../lib/gcc/x86_64-unknown-linux-gnu/4.9.2/ -mtune=corei7 -march=x86-64 -g -O2
#
# seed  1778382486  -342545770   312001891   269481523  1384164353  1200377998 -1537878383  2071738200   784793014  1595379232  -523021698  -109556573
#
#      Author: C. J. Pickard (cjp20@cam.ac.uk)
#                Space group: Iba2
#

%BLOCK LATTICE_ABC
      6.04714      7.91122      7.91122
     74.58579     67.53075     67.53075
%ENDBLOCK LATTICE_ABC

%BLOCK POSITIONS_FRAC
  Li   0.3028135  -0.1068941  -0.0924011 SPIN=   0.00000
  Li  -0.3028135   0.0924011   0.1068941 SPIN=   0.00000
  Li   0.1035183  -0.4075989  -0.3931059 SPIN=   0.00000
  Li  -0.1035183   0.3931059   0.4075989 SPIN=   0.00000
   O  -0.2139439  -0.1904429   0.2148940 SPIN=   0.00000
   O   0.1139672  -0.2753384  -0.1021484 SPIN=   0.00000
   O  -0.1695769  -0.4638658   0.0682298 SPIN=   0.00000
   O  -0.3444976  -0.1396129  -0.0743816 SPIN=   0.00000
   P  -0.1589843  -0.2617149   0.0354793 SPIN=   0.00000
   O   0.2139439  -0.2148940   0.1904429 SPIN=   0.00000
   O  -0.1139672   0.1021484   0.2753384 SPIN=   0.00000
   O   0.1695769  -0.0682298   0.4638658 SPIN=   0.00000
   O   0.3444976   0.0743816   0.1396129 SPIN=   0.00000
   P   0.1589843  -0.0354793   0.2617149 SPIN=   0.00000
   O   0.8105072   0.2851060  -0.3095571 SPIN=   0.00000
   O   0.7364804   0.6021484  -0.2246616 SPIN=   0.00000
   O   0.4347871   0.4317702  -0.0361342 SPIN=   0.00000
   O   0.4415079   0.5743816  -0.3603871 SPIN=   0.00000
   P   0.6147801   0.4645207  -0.2382851 SPIN=   0.00000
   O   0.1894928   0.3095571  -0.2851060 SPIN=   0.00000
   O   0.2635196   0.2246616  -0.6021484 SPIN=   0.00000
   O   0.5652129   0.0361342  -0.4317702 SPIN=   0.00000
   O   0.5584921   0.3603871  -0.5743816 SPIN=   0.00000
   P   0.3852199   0.2382851  -0.4645207 SPIN=   0.00000
  Fe  -0.1749117   0.0189072  -0.3088568 SPIN=   4.00000
  Fe   0.1749117   0.3088568  -0.0189072 SPIN=   4.00000
  Fe  -0.4648613  -0.1911432   0.4810928 SPIN=   4.00000
  Fe  -0.5351387  -0.4810928   0.1911432 SPIN=   4.00000
%ENDBLOCK POSITIONS_FRAC

# Note: total spin =  16.00

KPOINTS_MP_SPACING 0.07

%BLOCK SPECIES_POT
QC5
%ENDBLOCK SPECIES_POT

%BLOCK HUBBARD_U
Fe d:4.0
%ENDBLOCK HUBBARD_U

SNAP_TO_SYMMETRY
SYMMETRY_GENERATE

