#              Generated by Buildcell
#
# at 13:07:41 (GMT+0.0) 24th November 2020
# in /scratch/scratch/uccabz1/launch_tmp
# on node-a14a-027
# by uccabz1
#
# compiler GCC version 4.9.2
# options -cpp -iprefix /scratch/UCL/applications/gcc/4.9.2/bin/../lib/gcc/x86_64-unknown-linux-gnu/4.9.2/ -mtune=corei7 -march=x86-64 -g -O2
#
# seed  -953329853  1855630811  1871286110  1003966666 -1916150153   661962896 -2125777834  -612035821 -1192637830   478200493 -1571159665  2006440706
#
#      Author: C. J. Pickard (cjp20@cam.ac.uk)
#                Space group: Cm
#

%BLOCK LATTICE_ABC
      5.23625      6.20973      6.32774
    118.19608    113.09070     92.51902
%ENDBLOCK LATTICE_ABC

%BLOCK POSITIONS_FRAC
  Li  -0.2096626   0.4975910   0.0000000 SPIN=   0.00000
  Li  -0.3407509  -0.0305670  -0.0000000 SPIN=   0.00000
   O   0.2349871  -0.3271489   0.3019152 SPIN=   0.00000
   O   0.6850653  -0.1992891   0.2615061 SPIN=   0.00000
   O   0.3361038   0.0553733   0.2521000 SPIN=   0.00000
   P   0.4662141  -0.1070049   0.3752193 SPIN=   0.00000
   O  -0.0669281  -0.6290641  -0.3019152 SPIN=   0.00000
   O   0.4235591  -0.4607952  -0.2615061 SPIN=   0.00000
   O   0.0840038  -0.1967267  -0.2521000 SPIN=   0.00000
   P   0.0909948  -0.4822242  -0.3752193 SPIN=   0.00000
   O  -0.5332639   0.2608809   0.0000000 SPIN=   0.00000
   O  -0.0136421   0.2082782   0.0000000 SPIN=   0.00000
  Fe  -0.5209460   0.4425155   0.3965323 SPIN=   4.00000
  Fe  -0.9174784   0.0459832  -0.3965323 SPIN=   4.00000
%ENDBLOCK POSITIONS_FRAC

# Note: total spin =   8.00

KPOINTS_MP_SPACING 0.07

%BLOCK SPECIES_POT
QC5
%ENDBLOCK SPECIES_POT

%BLOCK HUBBARD_U
Fe d:4.0
%ENDBLOCK HUBBARD_U

SNAP_TO_SYMMETRY
SYMMETRY_GENERATE

