#              Generated by Buildcell
#
# at 14:15:45 (GMT+0.0) 24th November 2020
# in /scratch/scratch/uccabz1/launch_tmp
# on node-a14c-007
# by uccabz1
#
# compiler GCC version 4.9.2
# options -cpp -iprefix /scratch/UCL/applications/gcc/4.9.2/bin/../lib/gcc/x86_64-unknown-linux-gnu/4.9.2/ -mtune=corei7 -march=x86-64 -g -O2
#
# seed -1429334384  -532378764  -579515215 -1294010547   388077360   727678184  -771308433  1136890830  1005580575  1239702154  1059226597  1225640651
#
#      Author: C. J. Pickard (cjp20@cam.ac.uk)
#                Space group: P-1
#

%BLOCK LATTICE_ABC
      4.56069      6.07675      6.22153
     84.01654     69.59231     82.84221
%ENDBLOCK LATTICE_ABC

%BLOCK POSITIONS_FRAC
  Li   0.0000000   0.0000000  -0.0000000 SPIN=   0.00000
  Li  -0.0000000   0.5000000  -0.0000000 SPIN=   0.00000
   O  -0.6884248  -0.0055990   0.2028093 SPIN=   0.00000
   O  -0.4855717  -0.4240758   0.1726642 SPIN=   0.00000
   O  -0.7690420  -0.2871210   0.5581201 SPIN=   0.00000
   O  -1.0645663  -0.3134091   0.2911204 SPIN=   0.00000
   P  -0.7522112  -0.2447952   0.3004968 SPIN=   0.00000
   O   0.6884248   0.0055990  -0.2028093 SPIN=   0.00000
   O   0.4855717   0.4240758  -0.1726642 SPIN=   0.00000
   O   0.7690420   0.2871210  -0.5581201 SPIN=   0.00000
   O   1.0645663   0.3134091  -0.2911204 SPIN=   0.00000
   P   0.7522112   0.2447952  -0.3004968 SPIN=   0.00000
  Fe  -0.6370903   0.2778075   0.3583775 SPIN=   4.00000
  Fe   0.6370903  -0.2778075  -0.3583775 SPIN=   4.00000
%ENDBLOCK POSITIONS_FRAC

# Note: total spin =   8.00

KPOINTS_MP_SPACING 0.07

%BLOCK SPECIES_POT
QC5
%ENDBLOCK SPECIES_POT

%BLOCK HUBBARD_U
Fe d:4.0
%ENDBLOCK HUBBARD_U

SNAP_TO_SYMMETRY
SYMMETRY_GENERATE

