#              Generated by Buildcell
#
# at 19:24:18 (GMT+0.0) 26th November 2020
# in /lustre/scratch/uccabz1/launch_tmp
# on node-c12c-020
# by uccabz1
#
# compiler GCC version 4.9.2
# options -cpp -iprefix /lustre/shared/ucl/apps/gcc/4.9.2/bin/../lib/gcc/x86_64-unknown-linux-gnu/4.9.2/ -mtune=corei7 -march=x86-64 -g -Og
#
# seed  1882687177  1211197173  -700729720 -1871727346 -1137867977  1529861487  -446061928 -1857226337 -1475518061   794007229  -586295087 -1494520848
#
#      Author: C. J. Pickard (cjp20@cam.ac.uk)
#                Space group: P2
#

%BLOCK LATTICE_ABC
      4.24695      8.56486      9.09190
    104.62365     90.00000     90.00000
%ENDBLOCK LATTICE_ABC

%BLOCK POSITIONS_FRAC
  Li  -0.0675318  -0.2584001   0.4690378 SPIN=   0.00000
  Li  -0.0675318   0.2584001  -0.4690378 SPIN=   0.00000
  Li   0.4342416  -0.5000000   0.5000000 SPIN=   0.00000
  Li   0.4319833  -0.0000000   0.5000000 SPIN=   0.00000
   O  -0.6417487   0.1433505   0.1279545 SPIN=   0.00000
   O  -0.6240154   0.2336254   0.4229517 SPIN=   0.00000
   O  -0.1223895   0.1694489   0.2832796 SPIN=   0.00000
   O  -0.4171639   0.4196656   0.2728279 SPIN=   0.00000
   P  -0.4610651   0.2383977   0.2687843 SPIN=   0.00000
   O  -0.6417487  -0.1433505  -0.1279545 SPIN=   0.00000
   O  -0.6240154  -0.2336254  -0.4229517 SPIN=   0.00000
   O  -0.1223895  -0.1694489  -0.2832796 SPIN=   0.00000
   O  -0.4171639  -0.4196656  -0.2728279 SPIN=   0.00000
   P  -0.4610651  -0.2383977  -0.2687843 SPIN=   0.00000
   O  -0.6948597   0.3195210  -0.2991012 SPIN=   0.00000
   O  -0.4869586   0.1324103  -0.1359080 SPIN=   0.00000
   O  -0.1766519   0.3744095  -0.1426606 SPIN=   0.00000
   P  -0.5247831   0.3099232  -0.1523261 SPIN=   0.00000
   O  -0.6948597  -0.3195210   0.2991012 SPIN=   0.00000
   O  -0.4869586  -0.1324103   0.1359080 SPIN=   0.00000
   O  -0.1766519  -0.3744095   0.1426606 SPIN=   0.00000
   P  -0.5247831  -0.3099232   0.1523261 SPIN=   0.00000
   O  -0.0635959   0.5000000  -0.5000000 SPIN=   0.00000
   O   0.3524104   0.5000000  -0.0000000 SPIN=   0.00000
  Fe  -0.0138141  -0.0737280   0.1917252 SPIN=   3.54466
  Fe  -0.0138141   0.0737280  -0.1917252 SPIN=   3.54466
  Fe   0.0376657  -0.4189583  -0.1807395 SPIN=   4.45534
  Fe   0.0376657   0.4189583   0.1807395 SPIN=   4.45534
%ENDBLOCK POSITIONS_FRAC

# Note: total spin =  16.00

KPOINTS_MP_SPACING 0.07

%BLOCK SPECIES_POT
QC5
%ENDBLOCK SPECIES_POT

%BLOCK HUBBARD_U
Fe d:4.0
%ENDBLOCK HUBBARD_U

SNAP_TO_SYMMETRY
SYMMETRY_GENERATE

