#              Generated by Buildcell
#
# at 20:02:54 (GMT+0.0) 26th November 2020
# in /scratch/scratch/mmm0366/launch_tmp
# on node-k98c-016
# by mmm0366
#
# compiler GCC version 4.9.2
# options -cpp -iprefix /scratch/UCL/applications/gcc/4.9.2/bin/../lib/gcc/x86_64-unknown-linux-gnu/4.9.2/ -mtune=corei7 -march=x86-64 -g -O2
#
# seed  -532056185 -1139598799  1715577981  2133184700  1090038882  -590165416  -943408015 -1964763656 -1316437853 -2102874696  1723312761   616731007
#
#      Author: C. J. Pickard (cjp20@cam.ac.uk)
#                Space group: C2
#

%BLOCK LATTICE_ABC
      5.43688      5.43688     12.01171
     82.20644     82.20644     65.96016
%ENDBLOCK LATTICE_ABC

%BLOCK POSITIONS_FRAC
  Li  -0.1646138   0.1188041  -0.3301062 SPIN=   0.00000
  Li  -0.1188041   0.1646138   0.3301062 SPIN=   0.00000
  Li   0.7948876  -0.4289607   0.4907539 SPIN=   0.00000
  Li  -0.5710393   0.2051124  -0.4907539 SPIN=   0.00000
   O  -0.3972072   0.6267682   0.0410466 SPIN=   0.00000
   O   0.0202095   0.1771261   0.0746198 SPIN=   0.00000
   O  -0.1188526   0.5138697   0.2143216 SPIN=   0.00000
   O  -0.4071402   0.2604481   0.2007158 SPIN=   0.00000
   P  -0.2370176   0.4053347   0.1286001 SPIN=   0.00000
   O  -0.6267682   0.3972072  -0.0410466 SPIN=   0.00000
   O  -0.1771261  -0.0202095  -0.0746198 SPIN=   0.00000
   O  -0.5138697   0.1188526  -0.2143216 SPIN=   0.00000
   O  -0.2604481   0.4071402  -0.2007158 SPIN=   0.00000
   P  -0.4053347   0.2370176  -0.1286001 SPIN=   0.00000
   O  -0.0699866  -0.1774865  -0.4417792 SPIN=   0.00000
   O   0.0994696  -0.6854769  -0.3677838 SPIN=   0.00000
   O   0.4192980  -0.4614954  -0.3868128 SPIN=   0.00000
   O   0.0363330  -0.3426812  -0.2349973 SPIN=   0.00000
   P   0.1100921  -0.4031691  -0.3608627 SPIN=   0.00000
   O   0.1774865   0.0699866   0.4417792 SPIN=   0.00000
   O   0.6854769  -0.0994696   0.3677838 SPIN=   0.00000
   O   0.4614954  -0.4192980   0.3868128 SPIN=   0.00000
   O   0.3426812  -0.0363330   0.2349973 SPIN=   0.00000
   P   0.4031691  -0.1100921   0.3608627 SPIN=   0.00000
  Fe   0.2291202  -0.4561963   0.2691541 SPIN=   3.59597
  Fe   0.4561963  -0.2291202  -0.2691541 SPIN=   3.59597
  Fe   0.0361300   0.3600340  -0.0899211 SPIN=   4.40403
  Fe  -0.3600340  -0.0361300   0.0899211 SPIN=   4.40403
%ENDBLOCK POSITIONS_FRAC

# Note: total spin =  16.00

KPOINTS_MP_SPACING 0.07

%BLOCK SPECIES_POT
QC5
%ENDBLOCK SPECIES_POT

%BLOCK HUBBARD_U
Fe d:4.0
%ENDBLOCK HUBBARD_U

SNAP_TO_SYMMETRY
SYMMETRY_GENERATE

