#              Generated by Buildcell
#
# at 11:38:26 (GMT+0.0) 26th November 2020
# in /scratch/scratch/uccabz1/launch_tmp
# on node-k10g-021
# by uccabz1
#
# compiler GCC version 4.9.2
# options -cpp -iprefix /scratch/UCL/applications/gcc/4.9.2/bin/../lib/gcc/x86_64-unknown-linux-gnu/4.9.2/ -mtune=corei7 -march=x86-64 -g -O2
#
# seed   563526819 -1745917093  1006075761 -1146799105 -1113991407   299699075   899589286   489196533  -992782894 -2059108787  1803921449  -830333588
#
#      Author: C. J. Pickard (cjp20@cam.ac.uk)
#                Space group: P-1
#

%BLOCK LATTICE_ABC
      5.28432      7.53449      8.69734
     74.30309     83.86497     73.83452
%ENDBLOCK LATTICE_ABC

%BLOCK POSITIONS_FRAC
  Li   0.4171677  -0.2988473   0.0224707 SPIN=   0.00000
  Li  -0.4171677   0.2988473  -0.0224707 SPIN=   0.00000
  Li  -0.5000000  -0.0000000   0.5000000 SPIN=   0.00000
  Li   0.0000000   0.5000000   0.0000000 SPIN=   0.00000
   O   0.0552719   0.5567228   0.2163901 SPIN=   0.00000
   O   0.3009122   0.2917827   0.4509082 SPIN=   0.00000
   O   0.5658321   0.4402999   0.2275375 SPIN=   0.00000
   O   0.3142137   0.6299363   0.4169786 SPIN=   0.00000
   P   0.2956055   0.4855604   0.3230640 SPIN=   0.00000
   O  -0.0552719  -0.5567228  -0.2163901 SPIN=   0.00000
   O  -0.3009122  -0.2917827  -0.4509082 SPIN=   0.00000
   O  -0.5658321  -0.4402999  -0.2275375 SPIN=   0.00000
   O  -0.3142137  -0.6299363  -0.4169786 SPIN=   0.00000
   P  -0.2956055  -0.4855604  -0.3230640 SPIN=   0.00000
   O   0.0605996  -0.0545681  -0.2803744 SPIN=   0.00000
   O  -0.4489405   0.0742106  -0.2910445 SPIN=   0.00000
   O  -0.2619110  -0.2565827  -0.1360668 SPIN=   0.00000
   O  -0.2289925   0.0167827  -0.0344138 SPIN=   0.00000
   P  -0.2049890  -0.0541667  -0.1887451 SPIN=   0.00000
   O  -0.0605996   0.0545681   0.2803744 SPIN=   0.00000
   O   0.4489405  -0.0742106   0.2910445 SPIN=   0.00000
   O   0.2619110   0.2565827   0.1360668 SPIN=   0.00000
   O   0.2289925  -0.0167827   0.0344138 SPIN=   0.00000
   P   0.2049890   0.0541667   0.1887451 SPIN=   0.00000
  Fe  -0.1173572   0.2944975   0.3782959 SPIN=   2.60860
  Fe   0.1173572  -0.2944975  -0.3782959 SPIN=   2.60860
  Fe   0.1680573   0.1613112  -0.1969122 SPIN=   5.39140
  Fe  -0.1680573  -0.1613112   0.1969122 SPIN=   5.39140
%ENDBLOCK POSITIONS_FRAC

# Note: total spin =  16.00

KPOINTS_MP_SPACING 0.07

%BLOCK SPECIES_POT
QC5
%ENDBLOCK SPECIES_POT

%BLOCK HUBBARD_U
Fe d:4.0
%ENDBLOCK HUBBARD_U

SNAP_TO_SYMMETRY
SYMMETRY_GENERATE

