#              Generated by Buildcell
#
# at 08:46:51 (GMT+0.0) 24th November 2020
# in /lustre/scratch/uccabz1/launch_tmp
# on node-c12e-025
# by uccabz1
#
# compiler GCC version 4.9.2
# options -cpp -iprefix /lustre/shared/ucl/apps/gcc/4.9.2/bin/../lib/gcc/x86_64-unknown-linux-gnu/4.9.2/ -mtune=corei7 -march=x86-64 -g -Og
#
# seed  1840119778 -1439216752  1404653800 -1491716917  -771485980   577747782   179296221 -1408378193  1603432508  1028380997   170411948 -1947375437
#
#      Author: C. J. Pickard (cjp20@cam.ac.uk)
#                Space group: Aea2
#

%BLOCK LATTICE_ABC
      5.61765      5.61839      5.79551
     90.00000    118.98992     90.00000
%ENDBLOCK LATTICE_ABC

%BLOCK POSITIONS_FRAC
  Li   0.3694293   0.0000000  -0.2611414 SPIN=   0.00000
  Li  -0.1305707  -0.5000000  -0.2611414 SPIN=   0.00000
   O  -0.2065765  -0.1285599  -0.0036693 SPIN=   0.00000
   O   0.0427409   0.1593883   0.3933769 SPIN=   0.00000
   O   0.2029072   0.1285599  -0.0036693 SPIN=   0.00000
   O   0.3506359  -0.1593883   0.3933769 SPIN=   0.00000
   O  -0.2970928  -0.6285599  -0.0036693 SPIN=   0.00000
   O  -0.1493641  -0.3406117   0.3933769 SPIN=   0.00000
   O   0.2934235   0.6285599  -0.0036693 SPIN=   0.00000
   O   0.5427409   0.3406117   0.3933769 SPIN=   0.00000
   P   0.0836470   0.0000000   0.1672940 SPIN=   0.00000
   P  -0.4163530   0.5000000   0.1672940 SPIN=   0.00000
  Fe  -0.3036668   0.0000000   0.3926665 SPIN=   4.00000
  Fe   0.1963332  -0.5000000   0.3926665 SPIN=   4.00000
%ENDBLOCK POSITIONS_FRAC

# Note: total spin =   8.00

KPOINTS_MP_SPACING 0.07

%BLOCK SPECIES_POT
QC5
%ENDBLOCK SPECIES_POT

%BLOCK HUBBARD_U
Fe d:4.0
%ENDBLOCK HUBBARD_U

SNAP_TO_SYMMETRY
SYMMETRY_GENERATE

