#              Generated by Buildcell
#
# at 13:19:33 (GMT+0.0) 26th November 2020
# in /lustre/scratch/uccabz1/launch_tmp
# on node-c12g-023
# by uccabz1
#
# compiler GCC version 4.9.2
# options -cpp -iprefix /lustre/shared/ucl/apps/gcc/4.9.2/bin/../lib/gcc/x86_64-unknown-linux-gnu/4.9.2/ -mtune=corei7 -march=x86-64 -g -Og
#
# seed  2066959528  -632801997 -1807894531 -1548840804  -955497616  -121797821  -623324700  2058268332  1113692875 -1226973179   672847086  1315084406
#
#      Author: C. J. Pickard (cjp20@cam.ac.uk)
#                Space group: Aea2
#

%BLOCK LATTICE_ABC
      6.04748      6.07811      9.22096
    109.24336     90.00000     90.00000
%ENDBLOCK LATTICE_ABC

%BLOCK POSITIONS_FRAC
  Li  -0.2499992  -0.4914916   0.0177321 SPIN=   0.00000
  Li   0.2499992   0.4907763  -0.0177321 SPIN=   0.00000
  Li   0.2500008  -0.0092237  -0.0177321 SPIN=   0.00000
  Li  -0.2500008   0.0085084   0.0177321 SPIN=   0.00000
   O   0.5522536   0.2065013   0.2034298 SPIN=   0.00000
   O   0.6332246  -0.0765595   0.3553251 SPIN=   0.00000
   O   0.2897657   0.1560593   0.4133011 SPIN=   0.00000
   O   0.3253092  -0.1690299   0.1629839 SPIN=   0.00000
   P   0.4541023   0.0363411   0.2780575 SPIN=   0.00000
   O  -0.5522536   0.0030715  -0.2034298 SPIN=   0.00000
   O  -0.6332246  -0.4318845  -0.3553251 SPIN=   0.00000
   O  -0.2897657  -0.2572418  -0.4133011 SPIN=   0.00000
   O  -0.3253092  -0.3320138  -0.1629839 SPIN=   0.00000
   P  -0.4541023  -0.2417164  -0.2780575 SPIN=   0.00000
   O   0.0522536   0.5030715  -0.2034298 SPIN=   0.00000
   O   0.1332246   0.0681155  -0.3553251 SPIN=   0.00000
   O  -0.2102343   0.2427582  -0.4133011 SPIN=   0.00000
   O  -0.1746908   0.1679862  -0.1629839 SPIN=   0.00000
   P  -0.0458977   0.2582836  -0.2780575 SPIN=   0.00000
   O  -0.0522536  -0.2934987   0.2034298 SPIN=   0.00000
   O  -0.1332246  -0.5765595   0.3553251 SPIN=   0.00000
   O   0.2102343  -0.3439407   0.4133011 SPIN=   0.00000
   O   0.1746908  -0.6690299   0.1629839 SPIN=   0.00000
   P   0.0458977  -0.4636589   0.2780575 SPIN=   0.00000
  Fe   0.4614825   0.1928161  -0.3567346 SPIN=   4.00000
  Fe  -0.4614825  -0.4504494   0.3567346 SPIN=   4.00000
  Fe  -0.0385175   0.0495506   0.3567346 SPIN=   4.00000
  Fe   0.0385175  -0.3071839  -0.3567346 SPIN=   4.00000
%ENDBLOCK POSITIONS_FRAC

# Note: total spin =  16.00

KPOINTS_MP_SPACING 0.07

%BLOCK SPECIES_POT
QC5
%ENDBLOCK SPECIES_POT

%BLOCK HUBBARD_U
Fe d:4.0
%ENDBLOCK HUBBARD_U

SNAP_TO_SYMMETRY
SYMMETRY_GENERATE

