#              Generated by Buildcell
#
# at 10:24:30 (GMT+0.0) 26th November 2020
# in /lustre/scratch/uccabz1/launch_tmp
# on node-c12o-032
# by uccabz1
#
# compiler GCC version 4.9.2
# options -cpp -iprefix /lustre/shared/ucl/apps/gcc/4.9.2/bin/../lib/gcc/x86_64-unknown-linux-gnu/4.9.2/ -mtune=corei7 -march=x86-64 -g -Og
#
# seed  -179397495  -294611755  1174645227  -976242847 -1024290460  1635779147  -724498346   282388879   -66092044 -1367531204  1490247344  -849466905
#
#      Author: C. J. Pickard (cjp20@cam.ac.uk)
#                Space group: Cc
#

%BLOCK LATTICE_ABC
      6.29439      6.29439      8.85493
    106.52481    106.52481     91.83715
%ENDBLOCK LATTICE_ABC

%BLOCK POSITIONS_FRAC
  Li   0.1567386  -0.1611771  -0.4810978 SPIN=   0.00000
  Li  -0.1611771   0.1567386   0.0189022 SPIN=   0.00000
  Li   0.1803652  -0.1714889   0.0486535 SPIN=   0.00000
  Li  -0.1714889   0.1803652  -0.4513465 SPIN=   0.00000
   O  -0.4619012   0.2245118   0.0729605 SPIN=   0.00000
   O  -0.5183122  -0.0395761   0.2403669 SPIN=   0.00000
   O  -0.1347502   0.1237451   0.2857719 SPIN=   0.00000
   O  -0.4024827   0.3688259   0.3875599 SPIN=   0.00000
   P  -0.3840293   0.1746660   0.2390786 SPIN=   0.00000
   O   0.2245118  -0.4619012  -0.4270395 SPIN=   0.00000
   O  -0.0395761  -0.5183122  -0.2596331 SPIN=   0.00000
   O   0.1237451  -0.1347502  -0.2142281 SPIN=   0.00000
   O   0.3688259  -0.4024827  -0.1124401 SPIN=   0.00000
   P   0.1746660  -0.3840293  -0.2609214 SPIN=   0.00000
   O  -0.5835272   0.2100357  -0.3238987 SPIN=   0.00000
   O  -0.4420401  -0.1571892  -0.4602605 SPIN=   0.00000
   O  -0.1727540   0.1295807  -0.2263695 SPIN=   0.00000
   O  -0.4716041  -0.0857349  -0.1743565 SPIN=   0.00000
   P  -0.4269612   0.0327723  -0.2962569 SPIN=   0.00000
   O   0.2100357  -0.5835272   0.1761013 SPIN=   0.00000
   O  -0.1571892  -0.4420401   0.0397395 SPIN=   0.00000
   O   0.1295807  -0.1727540   0.2736305 SPIN=   0.00000
   O  -0.0857349  -0.4716041   0.3256435 SPIN=   0.00000
   P   0.0327723  -0.4269612   0.2037431 SPIN=   0.00000
  Fe   0.2593958   0.2325921  -0.1218653 SPIN=   2.52756
  Fe   0.2325921   0.2593958   0.3781347 SPIN=   2.52756
  Fe  -0.3817005  -0.3221138   0.2886764 SPIN=   5.47244
  Fe  -0.3221138  -0.3817005  -0.2113236 SPIN=   5.47244
%ENDBLOCK POSITIONS_FRAC

# Note: total spin =  16.00

KPOINTS_MP_SPACING 0.07

%BLOCK SPECIES_POT
QC5
%ENDBLOCK SPECIES_POT

%BLOCK HUBBARD_U
Fe d:4.0
%ENDBLOCK HUBBARD_U

SNAP_TO_SYMMETRY
SYMMETRY_GENERATE

