#              Generated by Buildcell
#
# at 14:40:05 (GMT+0.0) 24th November 2020
# in /scratch/scratch/uccabz1/launch_tmp
# on node-a14a-027
# by uccabz1
#
# compiler GCC version 4.9.2
# options -cpp -iprefix /scratch/UCL/applications/gcc/4.9.2/bin/../lib/gcc/x86_64-unknown-linux-gnu/4.9.2/ -mtune=corei7 -march=x86-64 -g -O2
#
# seed   144266579  1009128138 -1584295501  -197070572   -54820499 -1450942522  1730104999   949352550 -1841303789 -1569230969  2094446370   744342342
#
#      Author: C. J. Pickard (cjp20@cam.ac.uk)
#                Space group: P21
#

%BLOCK LATTICE_ABC
      4.95193      5.47032      6.27677
     90.00000    109.77747     90.00000
%ENDBLOCK LATTICE_ABC

%BLOCK POSITIONS_FRAC
  Li  -0.0818452   0.1838137  -0.1028856 SPIN=   0.00000
  Li   0.0818452  -0.3161863   0.1028856 SPIN=   0.00000
   O  -0.5495109  -0.0061624   0.3108319 SPIN=   0.00000
   O  -0.3953136  -0.1430574  -0.0274648 SPIN=   0.00000
   O  -0.1214496   0.1874144   0.2204659 SPIN=   0.00000
   O  -0.0780960  -0.2415576   0.3676391 SPIN=   0.00000
   P  -0.2976637  -0.0507126   0.2245853 SPIN=   0.00000
   O   0.5495109   0.4938376  -0.3108319 SPIN=   0.00000
   O   0.3953136   0.3569426   0.0274648 SPIN=   0.00000
   O   0.1214496   0.6874144  -0.2204659 SPIN=   0.00000
   O   0.0780960   0.2584424  -0.3676391 SPIN=   0.00000
   P   0.2976637   0.4492874  -0.2245853 SPIN=   0.00000
  Fe   0.2967412  -0.0630699  -0.3909807 SPIN=   4.00000
  Fe  -0.2967412   0.4369301   0.3909807 SPIN=   4.00000
%ENDBLOCK POSITIONS_FRAC

# Note: total spin =   8.00

KPOINTS_MP_SPACING 0.07

%BLOCK SPECIES_POT
QC5
%ENDBLOCK SPECIES_POT

%BLOCK HUBBARD_U
Fe d:4.0
%ENDBLOCK HUBBARD_U

SNAP_TO_SYMMETRY
SYMMETRY_GENERATE

