#              Generated by Buildcell
#
# at 12:58:23 (GMT+0.0) 24th November 2020
# in /lustre/scratch/uccabz1/launch_tmp
# on node-c12e-029
# by uccabz1
#
# compiler GCC version 4.9.2
# options -cpp -iprefix /lustre/shared/ucl/apps/gcc/4.9.2/bin/../lib/gcc/x86_64-unknown-linux-gnu/4.9.2/ -mtune=corei7 -march=x86-64 -g -Og
#
# seed   -83524966  1873038738   332010584 -1035563423  1500393969  -958598509 -1913086884   498180331 -1582078708 -1899281733  -111164504   508936397
#
#      Author: C. J. Pickard (cjp20@cam.ac.uk)
#                Space group: P21212
#

%BLOCK LATTICE_ABC
      4.17440      5.49549      6.97460
     90.00000     90.00000     90.00000
%ENDBLOCK LATTICE_ABC

%BLOCK POSITIONS_FRAC
  Li  -0.0000000   0.0000000  -0.3400746 SPIN=   0.00000
  Li   0.5000000   0.5000000   0.3400746 SPIN=   0.00000
   O  -0.2931937  -0.1601462  -0.0755154 SPIN=   0.00000
   O  -0.2845231  -0.3230016  -0.4251825 SPIN=   0.00000
   O   0.2931937   0.1601462  -0.0755154 SPIN=   0.00000
   O   0.2845231   0.3230016  -0.4251825 SPIN=   0.00000
   O   0.2068063  -0.3398538   0.0755154 SPIN=   0.00000
   O   0.2154769  -0.1769984   0.4251825 SPIN=   0.00000
   O  -0.2068063   0.3398538   0.0755154 SPIN=   0.00000
   O  -0.2154769   0.1769984   0.4251825 SPIN=   0.00000
   P  -0.5000000   0.0000000   0.4101314 SPIN=   0.00000
   P  -0.0000000  -0.5000000  -0.4101314 SPIN=   0.00000
  Fe   0.0000000   0.0000000   0.1327345 SPIN=   4.00000
  Fe   0.5000000   0.5000000  -0.1327345 SPIN=   4.00000
%ENDBLOCK POSITIONS_FRAC

# Note: total spin =   8.00

KPOINTS_MP_SPACING 0.07

%BLOCK SPECIES_POT
QC5
%ENDBLOCK SPECIES_POT

%BLOCK HUBBARD_U
Fe d:4.0
%ENDBLOCK HUBBARD_U

SNAP_TO_SYMMETRY
SYMMETRY_GENERATE

