#              Generated by Buildcell
#
# at 09:07:24 (GMT+0.0) 24th November 2020
# in /scratch/scratch/uccabz1/launch_tmp
# on node-a14b-028
# by uccabz1
#
# compiler GCC version 4.9.2
# options -cpp -iprefix /scratch/UCL/applications/gcc/4.9.2/bin/../lib/gcc/x86_64-unknown-linux-gnu/4.9.2/ -mtune=corei7 -march=x86-64 -g -O2
#
# seed -1746771903   701386293   135890562  -982630326 -2035777270   546933221 -1459081539  -512324717  1924855528   981189227  1737026559  -520133808
#
#      Author: C. J. Pickard (cjp20@cam.ac.uk)
#                Space group: P21
#

%BLOCK LATTICE_ABC
      3.90273      4.83560      8.63834
     90.00000    101.05103     90.00000
%ENDBLOCK LATTICE_ABC

%BLOCK POSITIONS_FRAC
  Li   0.7668552   0.0886336   0.4917035 SPIN=   0.00000
  Li  -0.7668552  -0.4113664  -0.4917035 SPIN=   0.00000
   O  -0.4607469  -0.1255150  -0.3429461 SPIN=   0.00000
   O  -0.4791140   0.0584753  -0.0620787 SPIN=   0.00000
   O  -0.9568090   0.1893576  -0.2809951 SPIN=   0.00000
   O  -0.9132301  -0.2991340  -0.1828735 SPIN=   0.00000
   P  -0.6920913  -0.0515419  -0.2235121 SPIN=   0.00000
   O   0.4607469   0.3744850   0.3429461 SPIN=   0.00000
   O   0.4791140   0.5584753   0.0620787 SPIN=   0.00000
   O   0.9568090   0.6893576   0.2809951 SPIN=   0.00000
   O   0.9132301   0.2008660   0.1828735 SPIN=   0.00000
   P   0.6920913   0.4484581   0.2235121 SPIN=   0.00000
  Fe  -0.3117218   0.4443765  -0.1390455 SPIN=   4.00000
  Fe   0.3117218  -0.0556235   0.1390455 SPIN=   4.00000
%ENDBLOCK POSITIONS_FRAC

# Note: total spin =   8.00

KPOINTS_MP_SPACING 0.07

%BLOCK SPECIES_POT
QC5
%ENDBLOCK SPECIES_POT

%BLOCK HUBBARD_U
Fe d:4.0
%ENDBLOCK HUBBARD_U

SNAP_TO_SYMMETRY
SYMMETRY_GENERATE

