#              Generated by Buildcell
#
# at 14:50:32 (GMT+0.0) 26th November 2020
# in /lustre/scratch/uccabz1/launch_tmp
# on node-c12d-022
# by uccabz1
#
# compiler GCC version 4.9.2
# options -cpp -iprefix /lustre/shared/ucl/apps/gcc/4.9.2/bin/../lib/gcc/x86_64-unknown-linux-gnu/4.9.2/ -mtune=corei7 -march=x86-64 -g -Og
#
# seed  1683529249  1809002894 -1540159270 -1047449938  1463749453 -1677591779 -1540426607 -1367517049 -1205076735  1516427698   573807818   562365436
#
#      Author: C. J. Pickard (cjp20@cam.ac.uk)
#                Space group: Aea2
#

%BLOCK LATTICE_ABC
      6.29427      6.29427      8.13663
     90.00000     90.00000     96.93051
%ENDBLOCK LATTICE_ABC

%BLOCK POSITIONS_FRAC
  Li   0.0956216   0.0839001   0.3146828 SPIN=   0.00000
  Li   0.0839001   0.0956216  -0.3146828 SPIN=   0.00000
  Li  -0.4160999  -0.4043784  -0.1853172 SPIN=   0.00000
  Li  -0.4043784  -0.4160999   0.1853172 SPIN=   0.00000
   O   0.4056106   0.1951922   0.2175496 SPIN=   0.00000
   O   0.2945531  -0.2101469   0.2700561 SPIN=   0.00000
   O   0.5886175  -0.1040664   0.0746733 SPIN=   0.00000
   O   0.6476959  -0.0380158   0.3756687 SPIN=   0.00000
   P   0.4818694  -0.0267612   0.2352512 SPIN=   0.00000
   O   0.1951922   0.4056106  -0.2175496 SPIN=   0.00000
   O  -0.2101469   0.2945531  -0.2700561 SPIN=   0.00000
   O  -0.1040664   0.5886175  -0.0746733 SPIN=   0.00000
   O  -0.0380158   0.6476959  -0.3756687 SPIN=   0.00000
   P  -0.0267612   0.4818694  -0.2352512 SPIN=   0.00000
   O   0.6951922  -0.0943894  -0.2824504 SPIN=   0.00000
   O   0.2898531  -0.2054469  -0.2299439 SPIN=   0.00000
   O   0.3959336   0.0886175  -0.4253267 SPIN=   0.00000
   O   0.4619842   0.1476959  -0.1243313 SPIN=   0.00000
   P   0.4732388  -0.0181306  -0.2647488 SPIN=   0.00000
   O  -0.0943894   0.6951922   0.2824504 SPIN=   0.00000
   O  -0.2054469   0.2898531   0.2299439 SPIN=   0.00000
   O   0.0886175   0.3959336   0.4253267 SPIN=   0.00000
   O   0.1476959   0.4619842   0.1243313 SPIN=   0.00000
   P  -0.0181306   0.4732388   0.2647488 SPIN=   0.00000
  Fe   0.2625615  -0.3227369  -0.4890066 SPIN=   4.00000
  Fe  -0.3227369   0.2625615   0.4890066 SPIN=   4.00000
  Fe   0.1772631  -0.2374385   0.0109934 SPIN=   4.00000
  Fe  -0.2374385   0.1772631  -0.0109934 SPIN=   4.00000
%ENDBLOCK POSITIONS_FRAC

# Note: total spin =  16.00

KPOINTS_MP_SPACING 0.07

%BLOCK SPECIES_POT
QC5
%ENDBLOCK SPECIES_POT

%BLOCK HUBBARD_U
Fe d:4.0
%ENDBLOCK HUBBARD_U

SNAP_TO_SYMMETRY
SYMMETRY_GENERATE

