#              Generated by Buildcell
#
# at 13:21:07 (GMT+0.0) 24th November 2020
# in /scratch/scratch/uccabz1/launch_tmp
# on node-a14c-025
# by uccabz1
#
# compiler GCC version 4.9.2
# options -cpp -iprefix /scratch/UCL/applications/gcc/4.9.2/bin/../lib/gcc/x86_64-unknown-linux-gnu/4.9.2/ -mtune=corei7 -march=x86-64 -g -O2
#
# seed -1657369866  1123719297     6142850   182264754 -1318544124  1383037339   682603085   449381748  1373246730  1100788456   978287048  1233653018
#
#      Author: C. J. Pickard (cjp20@cam.ac.uk)
#                Space group: Pm
#

%BLOCK LATTICE_ABC
      3.81806      4.45828      9.40066
     90.00000     90.00000     90.85781
%ENDBLOCK LATTICE_ABC

%BLOCK POSITIONS_FRAC
  Li   0.4104983   0.0895593   0.1591473 SPIN=   0.00000
  Li   0.4104983   0.0895593  -0.1591473 SPIN=   0.00000
   O   0.3150368  -0.4459966  -0.1480531 SPIN=   0.00000
   O   0.2874970  -0.0924254  -0.3673299 SPIN=   0.00000
   O   0.7814157  -0.4419245  -0.3493206 SPIN=   0.00000
   P   0.3841497  -0.4108463  -0.3083846 SPIN=   0.00000
   O   0.3150368  -0.4459966   0.1480531 SPIN=   0.00000
   O   0.2874970  -0.0924254   0.3673299 SPIN=   0.00000
   O   0.7814157  -0.4419245   0.3493206 SPIN=   0.00000
   P   0.3841497  -0.4108463   0.3083846 SPIN=   0.00000
   O  -0.0604003   0.0906867   0.0000000 SPIN=   0.00000
   O   0.2868805   0.3888102  -0.5000000 SPIN=   0.00000
  Fe  -0.3018555   0.0610972  -0.5000000 SPIN=   3.96424
  Fe  -0.0926146  -0.4090015   0.0000000 SPIN=   4.03576
%ENDBLOCK POSITIONS_FRAC

# Note: total spin =   8.00

KPOINTS_MP_SPACING 0.07

%BLOCK SPECIES_POT
QC5
%ENDBLOCK SPECIES_POT

%BLOCK HUBBARD_U
Fe d:4.0
%ENDBLOCK HUBBARD_U

SNAP_TO_SYMMETRY
SYMMETRY_GENERATE

