#              Generated by Buildcell
#
# at 01:58:32 (GMT+0.0) 27th November 2020
# in /lustre/scratch/uccabz1/launch_tmp
# on node-c12d-030
# by uccabz1
#
# compiler GCC version 4.9.2
# options -cpp -iprefix /lustre/shared/ucl/apps/gcc/4.9.2/bin/../lib/gcc/x86_64-unknown-linux-gnu/4.9.2/ -mtune=corei7 -march=x86-64 -g -Og
#
# seed  1159744358  -532818645  -877322101  1431943243 -1469383188 -1388355277   661680244 -1412087346 -1821037941   722132491 -1669929620 -1034138080
#
#      Author: C. J. Pickard (cjp20@cam.ac.uk)
#                Space group: C2221
#

%BLOCK LATTICE_ABC
      5.99492      6.62718      9.03103
     90.00000     90.00000    116.89121
%ENDBLOCK LATTICE_ABC

%BLOCK POSITIONS_FRAC
  Li  -0.3463250  -0.1920804   0.0168601 SPIN=   0.00000
  Li   0.3463250   0.1920804  -0.4831399 SPIN=   0.00000
  Li  -0.1542446   0.1920804   0.4831399 SPIN=   0.00000
  Li   0.1542446  -0.1920804  -0.0168601 SPIN=   0.00000
   O  -0.4860914  -0.4607029   0.4518096 SPIN=   0.00000
   O  -0.2690506  -0.3963211   0.1950433 SPIN=   0.00000
   O  -0.5350209  -0.2086537   0.2467198 SPIN=   0.00000
   O  -0.1234497  -0.0761949   0.3764562 SPIN=   0.00000
   P  -0.3577544  -0.2923289   0.3253538 SPIN=   0.00000
   O   0.4860914   0.4607029  -0.0481904 SPIN=   0.00000
   O   0.2690506   0.3963211  -0.3049567 SPIN=   0.00000
   O   0.5350209   0.2086537  -0.2532802 SPIN=   0.00000
   O   0.1234497   0.0761949  -0.1235438 SPIN=   0.00000
   P   0.3577544   0.2923289  -0.1746462 SPIN=   0.00000
   O  -0.0253885   0.4607029   0.0481904 SPIN=   0.00000
   O   0.1272706   0.3963211   0.3049567 SPIN=   0.00000
   O  -0.3263671   0.2086537   0.2532802 SPIN=   0.00000
   O  -0.0472549   0.0761949   0.1235438 SPIN=   0.00000
   P  -0.0654255   0.2923289   0.1746462 SPIN=   0.00000
   O   0.0253885  -0.4607029  -0.4518096 SPIN=   0.00000
   O  -0.1272706  -0.3963211  -0.1950433 SPIN=   0.00000
   O   0.3263671  -0.2086537  -0.2467198 SPIN=   0.00000
   O   0.0472549  -0.0761949  -0.3764562 SPIN=   0.00000
   P   0.0654255  -0.2923289  -0.3253538 SPIN=   0.00000
  Fe   0.1153927  -0.2966667   0.3424833 SPIN=   4.00000
  Fe  -0.1153927   0.2966667  -0.1575167 SPIN=   4.00000
  Fe   0.4120595   0.2966667   0.1575167 SPIN=   4.00000
  Fe  -0.4120595  -0.2966667  -0.3424833 SPIN=   4.00000
%ENDBLOCK POSITIONS_FRAC

# Note: total spin =  16.00

KPOINTS_MP_SPACING 0.07

%BLOCK SPECIES_POT
QC5
%ENDBLOCK SPECIES_POT

%BLOCK HUBBARD_U
Fe d:4.0
%ENDBLOCK HUBBARD_U

SNAP_TO_SYMMETRY
SYMMETRY_GENERATE

