#              Generated by Buildcell
#
# at 22:48:27 (GMT+0.0) 26th November 2020
# in /lustre/scratch/uccabz1/launch_tmp
# on node-c12p-029
# by uccabz1
#
# compiler GCC version 4.9.2
# options -cpp -iprefix /lustre/shared/ucl/apps/gcc/4.9.2/bin/../lib/gcc/x86_64-unknown-linux-gnu/4.9.2/ -mtune=corei7 -march=x86-64 -g -Og
#
# seed   -93877114  1964029299   782704871    48849451    97104565  -820358497 -2143286278   680262735  2096073481  -778737169  1155151775 -2024874134
#
#      Author: C. J. Pickard (cjp20@cam.ac.uk)
#                Space group: Cc
#

%BLOCK LATTICE_ABC
      6.28241      7.70736      7.70736
     96.35772    109.70287    109.70287
%ENDBLOCK LATTICE_ABC

%BLOCK POSITIONS_FRAC
  Li  -0.2735262   0.0118090  -0.3157234 SPIN=   0.00000
  Li   0.2264738  -0.3157234   0.0118090 SPIN=   0.00000
  Li  -0.2933140  -0.3297118  -0.1491364 SPIN=   0.00000
  Li   0.2066860  -0.1491364  -0.3297118 SPIN=   0.00000
   O   0.0073685  -0.1603180   0.3847938 SPIN=   0.00000
   O   0.2676716  -0.3614046   0.3912577 SPIN=   0.00000
   O  -0.1623719  -0.5243843   0.3567319 SPIN=   0.00000
   O  -0.0803056  -0.4063435   0.0861443 SPIN=   0.00000
   P   0.0070091  -0.3528250   0.3064153 SPIN=   0.00000
   O  -0.4926315   0.3847938  -0.1603180 SPIN=   0.00000
   O  -0.2323284   0.3912577  -0.3614046 SPIN=   0.00000
   O  -0.6623719   0.3567319  -0.5243843 SPIN=   0.00000
   O  -0.5803056   0.0861443  -0.4063435 SPIN=   0.00000
   P  -0.4929909   0.3064153  -0.3528250 SPIN=   0.00000
   O   0.2041081   0.0824526  -0.1586949 SPIN=   0.00000
   O   0.3873955   0.3222867   0.1709513 SPIN=   0.00000
   O   0.1437638   0.3990989  -0.1122049 SPIN=   0.00000
   O  -0.0695260   0.1347897   0.0101579 SPIN=   0.00000
   P   0.1656567   0.2253743  -0.0293173 SPIN=   0.00000
   O  -0.2958919  -0.1586949   0.0824526 SPIN=   0.00000
   O  -0.1126045   0.1709513   0.3222867 SPIN=   0.00000
   O  -0.3562362  -0.1122049   0.3990989 SPIN=   0.00000
   O  -0.5695260   0.0101579   0.1347897 SPIN=   0.00000
   P  -0.3343433  -0.0293173   0.2253743 SPIN=   0.00000
  Fe  -0.2892316   0.2784628   0.0432086 SPIN=   2.70390
  Fe   0.2107684   0.0432086   0.2784628 SPIN=   2.70390
  Fe  -0.4170304  -0.3991522   0.3906458 SPIN=   5.29610
  Fe   0.0829696   0.3906458  -0.3991522 SPIN=   5.29610
%ENDBLOCK POSITIONS_FRAC

# Note: total spin =  16.00

KPOINTS_MP_SPACING 0.07

%BLOCK SPECIES_POT
QC5
%ENDBLOCK SPECIES_POT

%BLOCK HUBBARD_U
Fe d:4.0
%ENDBLOCK HUBBARD_U

SNAP_TO_SYMMETRY
SYMMETRY_GENERATE

