#              Generated by Buildcell
#
# at 21:58:06 (GMT+0.0) 26th November 2020
# in /lustre/scratch/uccabz1/launch_tmp
# on node-c12l-022
# by uccabz1
#
# compiler GCC version 4.9.2
# options -cpp -iprefix /lustre/shared/ucl/apps/gcc/4.9.2/bin/../lib/gcc/x86_64-unknown-linux-gnu/4.9.2/ -mtune=corei7 -march=x86-64 -g -Og
#
# seed  -866213673   -88105096 -1228172727 -1614329059 -1427219898 -1311549576  1915143300  1093702544 -1607776707   -11774500  2060885103  -212697977
#
#      Author: C. J. Pickard (cjp20@cam.ac.uk)
#                Space group: Pca21
#

%BLOCK LATTICE_ABC
      6.74457      6.80679      6.97032
     90.00000     90.00000     90.00000
%ENDBLOCK LATTICE_ABC

%BLOCK POSITIONS_FRAC
  Li   0.1857298   0.3257513  -0.0565979 SPIN=   0.00000
  Li  -0.3142702  -0.3257513   0.0565979 SPIN=   0.00000
  Li   0.1857298  -0.1742487   0.0565979 SPIN=   0.00000
  Li  -0.3142702   0.1742487  -0.0565979 SPIN=   0.00000
   O   0.1171977  -0.5053315  -0.3015618 SPIN=   0.00000
   O  -0.0578113  -0.2146553  -0.1292864 SPIN=   0.00000
   O  -0.1960077  -0.3316569  -0.4369110 SPIN=   0.00000
   O  -0.2272224  -0.5417280  -0.1434945 SPIN=   0.00000
   P  -0.0814855  -0.4057316  -0.2541189 SPIN=   0.00000
   O   0.6171977   0.5053315   0.3015618 SPIN=   0.00000
   O   0.4421887   0.2146553   0.1292864 SPIN=   0.00000
   O   0.3039923   0.3316569   0.4369110 SPIN=   0.00000
   O   0.2727776   0.5417280   0.1434945 SPIN=   0.00000
   P   0.4185145   0.4057316   0.2541189 SPIN=   0.00000
   O   0.1171977  -0.0053315   0.3015618 SPIN=   0.00000
   O  -0.0578113   0.2853447   0.1292864 SPIN=   0.00000
   O  -0.1960077   0.1683431   0.4369110 SPIN=   0.00000
   O  -0.2272224  -0.0417280   0.1434945 SPIN=   0.00000
   P  -0.0814855   0.0942684   0.2541189 SPIN=   0.00000
   O   0.6171977   0.0053315  -0.3015618 SPIN=   0.00000
   O   0.4421887  -0.2853447  -0.1292864 SPIN=   0.00000
   O   0.3039923  -0.1683431  -0.4369110 SPIN=   0.00000
   O   0.2727776   0.0417280  -0.1434945 SPIN=   0.00000
   P   0.4185145  -0.0942684  -0.2541189 SPIN=   0.00000
  Fe   0.0157885   0.4904544   0.3581700 SPIN=   4.00000
  Fe  -0.4842115  -0.4904544  -0.3581700 SPIN=   4.00000
  Fe   0.0157885  -0.0095456  -0.3581700 SPIN=   4.00000
  Fe  -0.4842115   0.0095456   0.3581700 SPIN=   4.00000
%ENDBLOCK POSITIONS_FRAC

# Note: total spin =  16.00

KPOINTS_MP_SPACING 0.07

%BLOCK SPECIES_POT
QC5
%ENDBLOCK SPECIES_POT

%BLOCK HUBBARD_U
Fe d:4.0
%ENDBLOCK HUBBARD_U

SNAP_TO_SYMMETRY
SYMMETRY_GENERATE

