#              Generated by Buildcell
#
# at 11:26:49 (GMT+0.0) 24th November 2020
# in /lustre/scratch/uccabz1/launch_tmp
# on node-c12f-022
# by uccabz1
#
# compiler GCC version 4.9.2
# options -cpp -iprefix /lustre/shared/ucl/apps/gcc/4.9.2/bin/../lib/gcc/x86_64-unknown-linux-gnu/4.9.2/ -mtune=corei7 -march=x86-64 -g -Og
#
# seed  1694934089  -316959287  1526938963  1803590043  1338512261   221840144   333727451  -842618370    97912712  1621324505   463907499   121869910
#
#      Author: C. J. Pickard (cjp20@cam.ac.uk)
#                Space group: I222
#

%BLOCK LATTICE_ABC
      5.07466      6.03722      6.54402
    117.46958    112.81348     90.00000
%ENDBLOCK LATTICE_ABC

%BLOCK POSITIONS_FRAC
  Li   0.0000000  -0.5000000   0.0000000 SPIN=   0.00000
  Li  -0.0000000  -0.0000000  -0.0000000 SPIN=   0.00000
   O   0.5832271   0.2489781  -0.1861990 SPIN=   0.00000
   O   0.3496330  -0.1193938  -0.6598568 SPIN=   0.00000
   O   0.4167729   0.4351771   0.1861990 SPIN=   0.00000
   O   0.6503670   0.5404630   0.6598568 SPIN=   0.00000
   O  -0.7694261  -0.4351771  -0.1861990 SPIN=   0.00000
   O  -1.0094898  -0.5404630  -0.6598568 SPIN=   0.00000
   O  -0.2305739  -0.2489781   0.1861990 SPIN=   0.00000
   O   0.0094898   0.1193938   0.6598568 SPIN=   0.00000
   P   0.3194306   0.3194306   0.6388612 SPIN=   0.00000
   P  -0.3194306  -0.3194306  -0.6388612 SPIN=   0.00000
  Fe  -0.3083114   0.1916886   0.3833772 SPIN=   4.00000
  Fe   0.3083114  -0.1916886  -0.3833772 SPIN=   4.00000
%ENDBLOCK POSITIONS_FRAC

# Note: total spin =   8.00

KPOINTS_MP_SPACING 0.07

%BLOCK SPECIES_POT
QC5
%ENDBLOCK SPECIES_POT

%BLOCK HUBBARD_U
Fe d:4.0
%ENDBLOCK HUBBARD_U

SNAP_TO_SYMMETRY
SYMMETRY_GENERATE

