#              Generated by Buildcell
#
# at 21:18:08 (GMT+0.0) 26th November 2020
# in /scratch/scratch/uccabz1/launch_tmp
# on node-k10e-027
# by uccabz1
#
# compiler GCC version 4.9.2
# options -cpp -iprefix /scratch/UCL/applications/gcc/4.9.2/bin/../lib/gcc/x86_64-unknown-linux-gnu/4.9.2/ -mtune=corei7 -march=x86-64 -g -O2
#
# seed  1463061919 -1782124235 -1447405735  -120261034 -1715298206   -14673935   -33106241   724581629  -874799075  1220196236   797988850   609851845
#
#      Author: C. J. Pickard (cjp20@cam.ac.uk)
#                Space group: C2
#

%BLOCK LATTICE_ABC
      6.20010      7.61915      7.61915
     73.61163     72.49184     72.49184
%ENDBLOCK LATTICE_ABC

%BLOCK POSITIONS_FRAC
  Li  -0.3556611  -0.1170223  -0.3346902 SPIN=   0.00000
  Li   0.3556611   0.3346902   0.1170223 SPIN=   0.00000
  Li   0.2399056   0.1229564  -0.1104529 SPIN=   0.00000
  Li  -0.2399056   0.1104529  -0.1229564 SPIN=   0.00000
   O   0.5284735   0.0302285   0.1972148 SPIN=   0.00000
   O   0.5282408   0.1511333   0.4838318 SPIN=   0.00000
   O   0.1501429   0.1681610   0.4267070 SPIN=   0.00000
   O   0.3996000  -0.1458084   0.5400145 SPIN=   0.00000
   P   0.4083452   0.0475047   0.4020203 SPIN=   0.00000
   O  -0.5284735  -0.1972148  -0.0302285 SPIN=   0.00000
   O  -0.5282408  -0.4838318  -0.1511333 SPIN=   0.00000
   O  -0.1501429  -0.4267070  -0.1681610 SPIN=   0.00000
   O  -0.3996000  -0.5400145   0.1458084 SPIN=   0.00000
   P  -0.4083452  -0.4020203  -0.0475047 SPIN=   0.00000
   O   0.0237216  -0.6383122   0.0874435 SPIN=   0.00000
   O   0.1561976  -0.4384086   0.2427772 SPIN=   0.00000
   O  -0.1752545  -0.2865410   0.0929413 SPIN=   0.00000
   O  -0.2248742  -0.5285911   0.3934072 SPIN=   0.00000
   O  -0.0237216  -0.0874435   0.6383122 SPIN=   0.00000
   O  -0.1561976  -0.2427772   0.4384086 SPIN=   0.00000
   O   0.1752545  -0.0929413   0.2865410 SPIN=   0.00000
   O   0.2248742  -0.3934072   0.5285911 SPIN=   0.00000
   P  -0.5000000   0.3813586  -0.3813586 SPIN=   0.00000
   P  -0.0000000  -0.2350534   0.2350534 SPIN=   0.00000
  Fe   0.1660035  -0.2746988  -0.1704574 SPIN=   0.96581
  Fe  -0.1660035   0.1704574   0.2746988 SPIN=   0.96581
  Fe  -0.5000000  -0.3056625   0.3056625 SPIN=   7.21303
  Fe   0.0000000   0.4359551  -0.4359551 SPIN=   6.85536
%ENDBLOCK POSITIONS_FRAC

# Note: total spin =  16.00

KPOINTS_MP_SPACING 0.07

%BLOCK SPECIES_POT
QC5
%ENDBLOCK SPECIES_POT

%BLOCK HUBBARD_U
Fe d:4.0
%ENDBLOCK HUBBARD_U

SNAP_TO_SYMMETRY
SYMMETRY_GENERATE

