#              Generated by Buildcell
#
# at 09:52:54 (GMT+0.0) 24th November 2020
# in /scratch/scratch/uccabz1/launch_tmp
# on node-a14b-007
# by uccabz1
#
# compiler GCC version 4.9.2
# options -cpp -iprefix /scratch/UCL/applications/gcc/4.9.2/bin/../lib/gcc/x86_64-unknown-linux-gnu/4.9.2/ -mtune=corei7 -march=x86-64 -g -O2
#
# seed  1890002257    50429621  -932544096  2044218736  -298357749    80654324    49385266 -1717948387  1168034355 -1129916815 -1623939021  1623402884
#
#      Author: C. J. Pickard (cjp20@cam.ac.uk)
#                Space group: Pmn21
#

%BLOCK LATTICE_ABC
      4.34090      5.44594      6.76811
     90.00000     90.00000     90.00000
%ENDBLOCK LATTICE_ABC

%BLOCK POSITIONS_FRAC
  Li   0.2843758   0.0000000   0.3569567 SPIN=   0.00000
  Li  -0.2156242   0.5000000  -0.3569567 SPIN=   0.00000
   O  -0.3011293   0.2562084   0.3763720 SPIN=   0.00000
   O   0.1325242   0.2323153   0.1125028 SPIN=   0.00000
   O   0.1988707   0.2437916  -0.3763720 SPIN=   0.00000
   O   0.6325242   0.2676847  -0.1125028 SPIN=   0.00000
   O   0.1988707  -0.2437916  -0.3763720 SPIN=   0.00000
   O   0.6325242  -0.2676847  -0.1125028 SPIN=   0.00000
   O  -0.3011293  -0.2562084   0.3763720 SPIN=   0.00000
   O   0.1325242  -0.2323153   0.1125028 SPIN=   0.00000
   P  -0.2167318  -0.0000000  -0.4076345 SPIN=   0.00000
   P   0.2832682   0.5000000   0.4076345 SPIN=   0.00000
  Fe   0.2831216   0.0000000  -0.1317810 SPIN=   4.00000
  Fe  -0.2168784   0.5000000   0.1317810 SPIN=   4.00000
%ENDBLOCK POSITIONS_FRAC

# Note: total spin =   8.00

KPOINTS_MP_SPACING 0.07

%BLOCK SPECIES_POT
QC5
%ENDBLOCK SPECIES_POT

%BLOCK HUBBARD_U
Fe d:4.0
%ENDBLOCK HUBBARD_U

SNAP_TO_SYMMETRY
SYMMETRY_GENERATE

