#              Generated by Buildcell
#
# at 09:44:57 (GMT+0.0) 24th November 2020
# in /scratch/scratch/uccabz1/launch_tmp
# on node-a14c-007
# by uccabz1
#
# compiler GCC version 4.9.2
# options -cpp -iprefix /scratch/UCL/applications/gcc/4.9.2/bin/../lib/gcc/x86_64-unknown-linux-gnu/4.9.2/ -mtune=corei7 -march=x86-64 -g -O2
#
# seed   141047938  -245698965   477345821  -690795410  1213665914  -846691707  1358556337  -583725600   217198121  -305604219 -1468265608 -2088598801
#
#      Author: C. J. Pickard (cjp20@cam.ac.uk)
#                Space group: Cc
#

%BLOCK LATTICE_ABC
      5.43624      5.82796      6.36369
     72.60837     64.71445     62.19957
%ENDBLOCK LATTICE_ABC

%BLOCK POSITIONS_FRAC
  Li  -0.4544675   0.3241965  -0.2510942 SPIN=   0.00000
  Li  -0.1186347  -0.1758035   0.2489058 SPIN=   0.00000
   O   0.1079534   0.1615988   0.0343697 SPIN=   0.00000
   O   0.2777541   0.4977859   0.0617666 SPIN=   0.00000
   O  -0.0909101   0.3718518   0.4119805 SPIN=   0.00000
   O   0.4333399   0.0482946   0.2802869 SPIN=   0.00000
   P   0.1810556   0.2615022   0.1894179 SPIN=   0.00000
   O   0.1960781  -0.3384012  -0.4656303 SPIN=   0.00000
   O  -0.3373065  -0.0022141  -0.4382334 SPIN=   0.00000
   O  -0.1929222  -0.1281482  -0.0880195 SPIN=   0.00000
   O  -0.2619214  -0.4517054  -0.2197131 SPIN=   0.00000
   P  -0.1319758  -0.2384978  -0.3105821 SPIN=   0.00000
  Fe   0.2496444  -0.0291369  -0.3057649 SPIN=   4.00000
  Fe  -0.4147426   0.4708631   0.1942351 SPIN=   4.00000
%ENDBLOCK POSITIONS_FRAC

# Note: total spin =   8.00

KPOINTS_MP_SPACING 0.07

%BLOCK SPECIES_POT
QC5
%ENDBLOCK SPECIES_POT

%BLOCK HUBBARD_U
Fe d:4.0
%ENDBLOCK HUBBARD_U

SNAP_TO_SYMMETRY
SYMMETRY_GENERATE

