#              Generated by Buildcell
#
# at 10:42:48 (GMT+0.0) 24th November 2020
# in /lustre/scratch/uccabz1/launch_tmp
# on node-c12f-031
# by uccabz1
#
# compiler GCC version 4.9.2
# options -cpp -iprefix /lustre/shared/ucl/apps/gcc/4.9.2/bin/../lib/gcc/x86_64-unknown-linux-gnu/4.9.2/ -mtune=corei7 -march=x86-64 -g -Og
#
# seed   -46913487  -594775800 -2102597859  -527632325 -1348042781   319753322  1460049293 -1831241192 -2097101054  1779049874 -1485376338    52165926
#
#      Author: C. J. Pickard (cjp20@cam.ac.uk)
#                Space group: C2
#

%BLOCK LATTICE_ABC
      4.80374      4.80374      7.57532
     90.05740     90.05740    113.75250
%ENDBLOCK LATTICE_ABC

%BLOCK POSITIONS_FRAC
  Li   0.2710715   0.2290151  -0.4022311 SPIN=   0.00000
  Li  -0.2290151  -0.2710715   0.4022311 SPIN=   0.00000
   O  -0.4398644  -0.0020032  -0.4296816 SPIN=   0.00000
   O  -0.5564594   0.1413826  -0.1158568 SPIN=   0.00000
   O  -0.6388081  -0.3922249  -0.1738811 SPIN=   0.00000
   O  -0.1076396   0.0086479  -0.1593260 SPIN=   0.00000
   P  -0.4320436  -0.0570829  -0.2301552 SPIN=   0.00000
   O   0.0020032   0.4398644   0.4296816 SPIN=   0.00000
   O  -0.1413826   0.5564594   0.1158568 SPIN=   0.00000
   O   0.3922249   0.6388081   0.1738811 SPIN=   0.00000
   O  -0.0086479   0.1076396   0.1593260 SPIN=   0.00000
   P   0.0570829   0.4320436   0.2301552 SPIN=   0.00000
  Fe   0.4158249   0.0841449   0.1892988 SPIN=   4.00000
  Fe  -0.0841449  -0.4158249  -0.1892988 SPIN=   4.00000
%ENDBLOCK POSITIONS_FRAC

# Note: total spin =   8.00

KPOINTS_MP_SPACING 0.07

%BLOCK SPECIES_POT
QC5
%ENDBLOCK SPECIES_POT

%BLOCK HUBBARD_U
Fe d:4.0
%ENDBLOCK HUBBARD_U

SNAP_TO_SYMMETRY
SYMMETRY_GENERATE

