#              Generated by Buildcell
#
# at 22:21:49 (GMT+0.0) 26th November 2020
# in /lustre/scratch/uccabz1/launch_tmp
# on node-c12m-034
# by uccabz1
#
# compiler GCC version 4.9.2
# options -cpp -iprefix /lustre/shared/ucl/apps/gcc/4.9.2/bin/../lib/gcc/x86_64-unknown-linux-gnu/4.9.2/ -mtune=corei7 -march=x86-64 -g -Og
#
# seed  1082681941    60522707  1763751269   404779206  1931088837 -1952783911  2023568565  1913653236  -597559999  -265150326   944687396  1234911141
#
#      Author: C. J. Pickard (cjp20@cam.ac.uk)
#                Space group: P21
#

%BLOCK LATTICE_ABC
      5.26113      6.74130      9.02306
     90.00000     90.00000     90.62635
%ENDBLOCK LATTICE_ABC

%BLOCK POSITIONS_FRAC
  Li  -0.1451184   0.1118052  -0.1709500 SPIN=   0.00000
  Li   0.1451184  -0.1118052   0.3290500 SPIN=   0.00000
  Li   0.4310366   0.4057276  -0.2259765 SPIN=   0.00000
  Li  -0.4310366  -0.4057276   0.2740235 SPIN=   0.00000
   O   0.3823571  -0.2685005  -0.2588262 SPIN=   0.00000
   O   0.0690197  -0.0084329  -0.3637035 SPIN=   0.00000
   O   0.4964808   0.1056480  -0.2861635 SPIN=   0.00000
   O   0.4487295  -0.1030331  -0.5143011 SPIN=   0.00000
   P   0.3520902  -0.0796310  -0.3524590 SPIN=   0.00000
   O  -0.3823571   0.2685005   0.2411738 SPIN=   0.00000
   O  -0.0690197   0.0084329   0.1362965 SPIN=   0.00000
   O  -0.4964808  -0.1056480   0.2138365 SPIN=   0.00000
   O  -0.4487295   0.1030331  -0.0143011 SPIN=   0.00000
   P  -0.3520902   0.0796310   0.1475410 SPIN=   0.00000
   O  -0.2153282  -0.1915625  -0.1280243 SPIN=   0.00000
   O   0.0759657  -0.3916652   0.0484809 SPIN=   0.00000
   O  -0.3838705  -0.4695321   0.0468090 SPIN=   0.00000
   O  -0.1169646  -0.5614670  -0.1719691 SPIN=   0.00000
   P  -0.1624842  -0.3941325  -0.0566932 SPIN=   0.00000
   O   0.2153282   0.1915625   0.3719757 SPIN=   0.00000
   O  -0.0759657   0.3916652   0.5484809 SPIN=   0.00000
   O   0.3838705   0.4695321   0.5468090 SPIN=   0.00000
   O   0.1169646   0.5614670   0.3280309 SPIN=   0.00000
   P   0.1624842   0.3941325   0.4433068 SPIN=   0.00000
  Fe   0.3483346  -0.1792917  -0.0367869 SPIN=   4.51441
  Fe  -0.3483346   0.1792917   0.4632131 SPIN=   4.51441
  Fe   0.1019625   0.3186068   0.1322044 SPIN=   3.48559
  Fe  -0.1019625  -0.3186068  -0.3677956 SPIN=   3.48559
%ENDBLOCK POSITIONS_FRAC

# Note: total spin =  16.00

KPOINTS_MP_SPACING 0.07

%BLOCK SPECIES_POT
QC5
%ENDBLOCK SPECIES_POT

%BLOCK HUBBARD_U
Fe d:4.0
%ENDBLOCK HUBBARD_U

SNAP_TO_SYMMETRY
SYMMETRY_GENERATE

