#              Generated by Buildcell
#
# at 23:19:56 (GMT+0.0) 26th November 2020
# in /scratch/scratch/uccabz1/launch_tmp
# on node-k10d-022
# by uccabz1
#
# compiler GCC version 4.9.2
# options -cpp -iprefix /scratch/UCL/applications/gcc/4.9.2/bin/../lib/gcc/x86_64-unknown-linux-gnu/4.9.2/ -mtune=corei7 -march=x86-64 -g -O2
#
# seed   535700373  -667562165 -1319161868  1027640838  1856856302  2012840724  -720627312   892933359   567809091  1994763776 -1184820735 -1537547500
#
#      Author: C. J. Pickard (cjp20@cam.ac.uk)
#                Space group: C2221
#

%BLOCK LATTICE_ABC
      5.15369      5.15369     13.53105
     90.00000     90.00000    117.07738
%ENDBLOCK LATTICE_ABC

%BLOCK POSITIONS_FRAC
  Li   0.2425498   0.2952502  -0.4399121 SPIN=   0.00000
  Li  -0.2425498  -0.2952502   0.0600879 SPIN=   0.00000
  Li   0.2952502   0.2425498  -0.0600879 SPIN=   0.00000
  Li  -0.2952502  -0.2425498   0.4399121 SPIN=   0.00000
   O   0.5220313   0.0303171   0.4840029 SPIN=   0.00000
   O   0.0889559  -0.1442206   0.3606243 SPIN=   0.00000
   O   0.4635140   0.3699732   0.3535832 SPIN=   0.00000
   O   0.5876060  -0.0228870   0.2970721 SPIN=   0.00000
   O  -0.5220313  -0.0303171  -0.0159971 SPIN=   0.00000
   O  -0.0889559   0.1442206  -0.1393757 SPIN=   0.00000
   O  -0.4635140  -0.3699732  -0.1464168 SPIN=   0.00000
   O  -0.5876060   0.0228870  -0.2029279 SPIN=   0.00000
   O   0.0303171   0.5220313   0.0159971 SPIN=   0.00000
   O  -0.1442206   0.0889559   0.1393757 SPIN=   0.00000
   O   0.3699732   0.4635140   0.1464168 SPIN=   0.00000
   O  -0.0228870   0.5876060   0.2029279 SPIN=   0.00000
   O  -0.0303171  -0.5220313  -0.4840029 SPIN=   0.00000
   O   0.1442206  -0.0889559  -0.3606243 SPIN=   0.00000
   O  -0.3699732  -0.4635140  -0.3535832 SPIN=   0.00000
   O   0.0228870  -0.5876060  -0.2970721 SPIN=   0.00000
   P  -0.2106615   0.2106615   0.0000000 SPIN=   0.00000
   P   0.2106615  -0.2106615   0.5000000 SPIN=   0.00000
   P  -0.1598277  -0.1598277   0.2500000 SPIN=   0.00000
   P   0.1598277   0.1598277  -0.2500000 SPIN=   0.00000
  Fe  -0.4021589  -0.0547911  -0.3383396 SPIN=   4.00000
  Fe   0.4021589   0.0547911   0.1616604 SPIN=   4.00000
  Fe  -0.0547911  -0.4021589  -0.1616604 SPIN=   4.00000
  Fe   0.0547911   0.4021589   0.3383396 SPIN=   4.00000
%ENDBLOCK POSITIONS_FRAC

# Note: total spin =  16.00

KPOINTS_MP_SPACING 0.07

%BLOCK SPECIES_POT
QC5
%ENDBLOCK SPECIES_POT

%BLOCK HUBBARD_U
Fe d:4.0
%ENDBLOCK HUBBARD_U

SNAP_TO_SYMMETRY
SYMMETRY_GENERATE

