#              Generated by Buildcell
#
# at 12:58:23 (GMT+0.0) 24th November 2020
# in /lustre/scratch/uccabz1/launch_tmp
# on node-c12d-031
# by uccabz1
#
# compiler GCC version 4.9.2
# options -cpp -iprefix /lustre/shared/ucl/apps/gcc/4.9.2/bin/../lib/gcc/x86_64-unknown-linux-gnu/4.9.2/ -mtune=corei7 -march=x86-64 -g -Og
#
# seed  1314755399   434776663  -742166391 -1996774441 -2075731998  -306333924  1841341171 -1702235907   800461941   832317268 -1816810097   224962717
#
#      Author: C. J. Pickard (cjp20@cam.ac.uk)
#                Space group: P-1
#

%BLOCK LATTICE_ABC
      5.58946      5.61782      5.63380
     73.23109     83.97714     70.85138
%ENDBLOCK LATTICE_ABC

%BLOCK POSITIONS_FRAC
  Li   0.2821041   0.3091541  -0.0083885 SPIN=   0.00000
  Li  -0.2821041  -0.3091541   0.0083885 SPIN=   0.00000
   O  -0.3028749   0.0633329   0.0371379 SPIN=   0.00000
   O  -0.5210876   0.4519985   0.2283490 SPIN=   0.00000
   O  -0.2896649   0.0252292   0.5065826 SPIN=   0.00000
   O  -0.0474484   0.2875598   0.2050900 SPIN=   0.00000
   P  -0.2880746   0.2003293   0.2327974 SPIN=   0.00000
   O   0.3028749  -0.0633329  -0.0371379 SPIN=   0.00000
   O   0.5210876  -0.4519985  -0.2283490 SPIN=   0.00000
   O   0.2896649  -0.0252292  -0.5065826 SPIN=   0.00000
   O   0.0474484  -0.2875598  -0.2050900 SPIN=   0.00000
   P   0.2880746  -0.2003293  -0.2327974 SPIN=   0.00000
  Fe   0.1662575  -0.2474649   0.3039709 SPIN=   4.00000
  Fe  -0.1662575   0.2474649  -0.3039709 SPIN=   4.00000
%ENDBLOCK POSITIONS_FRAC

# Note: total spin =   8.00

KPOINTS_MP_SPACING 0.07

%BLOCK SPECIES_POT
QC5
%ENDBLOCK SPECIES_POT

%BLOCK HUBBARD_U
Fe d:4.0
%ENDBLOCK HUBBARD_U

SNAP_TO_SYMMETRY
SYMMETRY_GENERATE

