#              Generated by Buildcell
#
# at 06:16:25 (GMT+0.0) 24th November 2020
# in /lustre/scratch/uccabz1/launch_tmp
# on node-c12c-026
# by uccabz1
#
# compiler GCC version 4.9.2
# options -cpp -iprefix /lustre/shared/ucl/apps/gcc/4.9.2/bin/../lib/gcc/x86_64-unknown-linux-gnu/4.9.2/ -mtune=corei7 -march=x86-64 -g -Og
#
# seed   649476829  -913350555  -748773883 -1550121298  1038055683  -279625457    19737896  1927285524 -1670142294  1979253129  1544602013   420352478
#
#      Author: C. J. Pickard (cjp20@cam.ac.uk)
#                Space group: P-1
#

%BLOCK LATTICE_ABC
      4.72839      4.73701      7.74075
     82.75095     86.68200     68.48711
%ENDBLOCK LATTICE_ABC

%BLOCK POSITIONS_FRAC
  Li   0.0948553   0.1842450  -0.2477008 SPIN=   0.00000
  Li  -0.0948553  -0.1842450   0.2477008 SPIN=   0.00000
   O   0.5049378   0.1497624  -0.1407764 SPIN=   0.00000
   O   0.5676454  -0.3529472  -0.2670415 SPIN=   0.00000
   O   0.7285327   0.0300177  -0.4492237 SPIN=   0.00000
   P   0.7012022  -0.0974068  -0.2537690 SPIN=   0.00000
   O  -0.5049378  -0.1497624   0.1407764 SPIN=   0.00000
   O  -0.5676454   0.3529472   0.2670415 SPIN=   0.00000
   O  -0.7285327  -0.0300177   0.4492237 SPIN=   0.00000
   P  -0.7012022   0.0974068   0.2537690 SPIN=   0.00000
   O  -0.0000000  -0.0000000   0.0000000 SPIN=   0.00000
   O   0.0000000  -0.5000000   0.5000000 SPIN=   0.00000
  Fe   0.5000000   0.5000000  -0.5000000 SPIN=   4.13525
  Fe   0.5000000   0.5000000  -0.0000000 SPIN=   3.86475
%ENDBLOCK POSITIONS_FRAC

# Note: total spin =   8.00

KPOINTS_MP_SPACING 0.07

%BLOCK SPECIES_POT
QC5
%ENDBLOCK SPECIES_POT

%BLOCK HUBBARD_U
Fe d:4.0
%ENDBLOCK HUBBARD_U

SNAP_TO_SYMMETRY
SYMMETRY_GENERATE

