#              Generated by Buildcell
#
# at 10:38:31 (GMT+0.0) 24th November 2020
# in /lustre/scratch/uccabz1/launch_tmp
# on node-c12k-031
# by uccabz1
#
# compiler GCC version 4.9.2
# options -cpp -iprefix /lustre/shared/ucl/apps/gcc/4.9.2/bin/../lib/gcc/x86_64-unknown-linux-gnu/4.9.2/ -mtune=corei7 -march=x86-64 -g -Og
#
# seed  1634779720 -1551063376  1825590044  -807078486  -176869733 -1762379665  1401487053 -1559209187  -964324260  2076501173  1359697040 -1936002438
#
#      Author: C. J. Pickard (cjp20@cam.ac.uk)
#                Space group: Cmc21
#

%BLOCK LATTICE_ABC
      3.89659      3.89659     10.67376
     90.00000     90.00000     99.15486
%ENDBLOCK LATTICE_ABC

%BLOCK POSITIONS_FRAC
  Li   0.3288252   0.3288252   0.2525150 SPIN=   0.00000
  Li  -0.3288252  -0.3288252  -0.2474850 SPIN=   0.00000
   O  -0.3425435   0.0837299  -0.1144284 SPIN=   0.00000
   O  -0.1137559   0.3486894   0.0988454 SPIN=   0.00000
   O   0.3425435  -0.0837299   0.3855716 SPIN=   0.00000
   O   0.1137559  -0.3486894   0.5988454 SPIN=   0.00000
   O  -0.0837299   0.3425435   0.3855716 SPIN=   0.00000
   O  -0.3486894   0.1137559   0.5988454 SPIN=   0.00000
   O   0.0837299  -0.3425435  -0.1144284 SPIN=   0.00000
   O   0.3486894  -0.1137559   0.0988454 SPIN=   0.00000
   P  -0.1712665  -0.1712665   0.1664110 SPIN=   0.00000
   P   0.1712665   0.1712665  -0.3335890 SPIN=   0.00000
  Fe   0.1711772   0.1711772  -0.0479328 SPIN=   4.00000
  Fe  -0.1711772  -0.1711772   0.4520672 SPIN=   4.00000
%ENDBLOCK POSITIONS_FRAC

# Note: total spin =   8.00

KPOINTS_MP_SPACING 0.07

%BLOCK SPECIES_POT
QC5
%ENDBLOCK SPECIES_POT

%BLOCK HUBBARD_U
Fe d:4.0
%ENDBLOCK HUBBARD_U

SNAP_TO_SYMMETRY
SYMMETRY_GENERATE

