#              Generated by Buildcell
#
# at 17:52:08 (GMT+0.0) 26th November 2020
# in /lustre/scratch/uccabz1/launch_tmp
# on node-c12g-027
# by uccabz1
#
# compiler GCC version 4.9.2
# options -cpp -iprefix /lustre/shared/ucl/apps/gcc/4.9.2/bin/../lib/gcc/x86_64-unknown-linux-gnu/4.9.2/ -mtune=corei7 -march=x86-64 -g -Og
#
# seed -1569865217 -2137519202   372078843   144316175  1377116820  2117567860  -769427333  1396236742  2002903455  1984003700 -1088849632   -62552729
#
#      Author: C. J. Pickard (cjp20@cam.ac.uk)
#                Space group: P21
#

%BLOCK LATTICE_ABC
      3.93484      5.36893     15.15556
     90.00000     90.00000     91.89361
%ENDBLOCK LATTICE_ABC

%BLOCK POSITIONS_FRAC
  Li  -0.1120059   0.1907400  -0.2577466 SPIN=   0.00000
  Li   0.1120059  -0.1907400   0.2422534 SPIN=   0.00000
  Li  -0.1327254  -0.0755902  -0.0797980 SPIN=   0.00000
  Li   0.1327254   0.0755902   0.4202020 SPIN=   0.00000
   O   0.5019932  -0.2389886   0.3395322 SPIN=   0.00000
   O  -0.0244854  -0.2958749   0.4418989 SPIN=   0.00000
   O   0.0849497  -0.6238113   0.3321750 SPIN=   0.00000
   O   0.4706307  -0.5712530   0.4627705 SPIN=   0.00000
   P   0.2737550  -0.4238170   0.3919995 SPIN=   0.00000
   O  -0.5019932   0.2389886  -0.1604678 SPIN=   0.00000
   O   0.0244854   0.2958749  -0.0581011 SPIN=   0.00000
   O  -0.0849497   0.6238113  -0.1678250 SPIN=   0.00000
   O  -0.4706307   0.5712530  -0.0372295 SPIN=   0.00000
   P  -0.2737550   0.4238170  -0.1080005 SPIN=   0.00000
   O  -0.0016600   0.2263443   0.1675276 SPIN=   0.00000
   O   0.0533923  -0.1201616   0.0492103 SPIN=   0.00000
   O  -0.4072074  -0.1647805   0.1593705 SPIN=   0.00000
   O  -0.4400540   0.1620480   0.0420571 SPIN=   0.00000
   P  -0.1912272   0.0381444   0.1071577 SPIN=   0.00000
   O   0.0016600  -0.2263443  -0.3324724 SPIN=   0.00000
   O  -0.0533923   0.1201616  -0.4507897 SPIN=   0.00000
   O   0.4072074   0.1647805  -0.3406295 SPIN=   0.00000
   O   0.4400540  -0.1620480  -0.4579429 SPIN=   0.00000
   P   0.1912272  -0.0381444  -0.3928423 SPIN=   0.00000
  Fe  -0.1454597  -0.4980668  -0.4444475 SPIN=   3.18423
  Fe   0.1454597   0.4980668   0.0555525 SPIN=   3.18423
  Fe   0.3669340  -0.2973973  -0.2355160 SPIN=   4.81577
  Fe  -0.3669340   0.2973973   0.2644840 SPIN=   4.81577
%ENDBLOCK POSITIONS_FRAC

# Note: total spin =  16.00

KPOINTS_MP_SPACING 0.07

%BLOCK SPECIES_POT
QC5
%ENDBLOCK SPECIES_POT

%BLOCK HUBBARD_U
Fe d:4.0
%ENDBLOCK HUBBARD_U

SNAP_TO_SYMMETRY
SYMMETRY_GENERATE

