#              Generated by Buildcell
#
# at 12:53:35 (GMT+0.0) 24th November 2020
# in /lustre/scratch/uccabz1/launch_tmp
# on node-c12k-029
# by uccabz1
#
# compiler GCC version 4.9.2
# options -cpp -iprefix /lustre/shared/ucl/apps/gcc/4.9.2/bin/../lib/gcc/x86_64-unknown-linux-gnu/4.9.2/ -mtune=corei7 -march=x86-64 -g -Og
#
# seed  -401286330   790271427  1454019118   665509516   954237524  1633319108  1465772790  1725846868 -1616513658 -1970483458  1105410064 -1626629355
#
#      Author: C. J. Pickard (cjp20@cam.ac.uk)
#                Space group: P-1
#

%BLOCK LATTICE_ABC
      3.91557      6.35857      7.19674
    100.71925    104.39138    106.43998
%ENDBLOCK LATTICE_ABC

%BLOCK POSITIONS_FRAC
  Li   0.3304937  -0.3134487  -0.0111434 SPIN=   0.00000
  Li  -0.3304937   0.3134487   0.0111434 SPIN=   0.00000
   O   0.5547750   0.5715740  -0.2797212 SPIN=   0.00000
   O  -0.0852010   0.2912403  -0.5312381 SPIN=   0.00000
   O   0.3549449   0.1312073  -0.3483832 SPIN=   0.00000
   O   0.0289138   0.3397338  -0.1651177 SPIN=   0.00000
   P   0.2293602   0.3461926  -0.3264197 SPIN=   0.00000
   O  -0.5547750  -0.5715740   0.2797212 SPIN=   0.00000
   O   0.0852010  -0.2912403   0.5312381 SPIN=   0.00000
   O  -0.3549449  -0.1312073   0.3483832 SPIN=   0.00000
   O  -0.0289138  -0.3397338   0.1651177 SPIN=   0.00000
   P  -0.2293602  -0.3461926   0.3264197 SPIN=   0.00000
  Fe   0.1969015   0.0926487   0.2919868 SPIN=   4.00000
  Fe  -0.1969015  -0.0926487  -0.2919868 SPIN=   4.00000
%ENDBLOCK POSITIONS_FRAC

# Note: total spin =   8.00

KPOINTS_MP_SPACING 0.07

%BLOCK SPECIES_POT
QC5
%ENDBLOCK SPECIES_POT

%BLOCK HUBBARD_U
Fe d:4.0
%ENDBLOCK HUBBARD_U

SNAP_TO_SYMMETRY
SYMMETRY_GENERATE

