#              Generated by Buildcell
#
# at 01:59:39 (GMT+0.0) 27th November 2020
# in /scratch/scratch/mmm0366/launch_tmp
# on node-k98k-028
# by mmm0366
#
# compiler GCC version 4.9.2
# options -cpp -iprefix /scratch/UCL/applications/gcc/4.9.2/bin/../lib/gcc/x86_64-unknown-linux-gnu/4.9.2/ -mtune=corei7 -march=x86-64 -g -O2
#
# seed -1830581878   257603327  -458916447  -702057668   345881417  1125242908   854771042 -1864506841  -541244971  1571875290 -2016073999  1380466305
#
#      Author: C. J. Pickard (cjp20@cam.ac.uk)
#                Space group: P21212
#

%BLOCK LATTICE_ABC
      6.25618      6.69345      7.64171
     90.00000     90.00000     90.00000
%ENDBLOCK LATTICE_ABC

%BLOCK POSITIONS_FRAC
  Li   0.2600638  -0.0349801   0.4777060 SPIN=   0.00000
  Li  -0.2600638   0.0349801   0.4777060 SPIN=   0.00000
  Li   0.2399362   0.4650199  -0.4777060 SPIN=   0.00000
  Li  -0.2399362  -0.4650199  -0.4777060 SPIN=   0.00000
   O   0.4687391  -0.2310300  -0.3898744 SPIN=   0.00000
   O   0.0894738  -0.1644203  -0.2642737 SPIN=   0.00000
   O   0.2685736  -0.4817248  -0.1885848 SPIN=   0.00000
   O   0.4041587  -0.1608540  -0.0617399 SPIN=   0.00000
   P   0.3174468  -0.2568268  -0.2328976 SPIN=   0.00000
   O  -0.4687391   0.2310300  -0.3898744 SPIN=   0.00000
   O  -0.0894738   0.1644203  -0.2642737 SPIN=   0.00000
   O  -0.2685736   0.4817248  -0.1885848 SPIN=   0.00000
   O  -0.4041587   0.1608540  -0.0617399 SPIN=   0.00000
   P  -0.3174468   0.2568268  -0.2328976 SPIN=   0.00000
   O   0.0312609   0.2689700   0.3898744 SPIN=   0.00000
   O   0.4105262   0.3355797   0.2642737 SPIN=   0.00000
   O   0.2314264   0.0182752   0.1885848 SPIN=   0.00000
   O   0.0958413   0.3391460   0.0617399 SPIN=   0.00000
   P   0.1825532   0.2431732   0.2328976 SPIN=   0.00000
   O  -0.0312609  -0.2689700   0.3898744 SPIN=   0.00000
   O  -0.4105262  -0.3355797   0.2642737 SPIN=   0.00000
   O  -0.2314264  -0.0182752   0.1885848 SPIN=   0.00000
   O  -0.0958413  -0.3391460   0.0617399 SPIN=   0.00000
   P  -0.1825532  -0.2431732   0.2328976 SPIN=   0.00000
  Fe   0.2499010  -0.3277176   0.1330668 SPIN=   4.00000
  Fe  -0.2499010   0.3277176   0.1330668 SPIN=   4.00000
  Fe   0.2500990   0.1722824  -0.1330668 SPIN=   4.00000
  Fe  -0.2500990  -0.1722824  -0.1330668 SPIN=   4.00000
%ENDBLOCK POSITIONS_FRAC

# Note: total spin =  16.00

KPOINTS_MP_SPACING 0.07

%BLOCK SPECIES_POT
QC5
%ENDBLOCK SPECIES_POT

%BLOCK HUBBARD_U
Fe d:4.0
%ENDBLOCK HUBBARD_U

SNAP_TO_SYMMETRY
SYMMETRY_GENERATE

