#              Generated by Buildcell
#
# at 11:56:01 (GMT+0.0) 26th November 2020
# in /scratch/scratch/uccabz1/launch_tmp
# on node-k10c-005
# by uccabz1
#
# compiler GCC version 4.9.2
# options -cpp -iprefix /scratch/UCL/applications/gcc/4.9.2/bin/../lib/gcc/x86_64-unknown-linux-gnu/4.9.2/ -mtune=corei7 -march=x86-64 -g -O2
#
# seed  -676289065  1176796927  -631105015 -1736737364 -1834566971  1814894548  1488763418 -1562964785 -1146910275   366062740  -932978819  -814506471
#
#      Author: C. J. Pickard (cjp20@cam.ac.uk)
#                Space group: P-1
#

%BLOCK LATTICE_ABC
      5.55219      7.64944      8.31378
    105.42769    108.98722     90.63787
%ENDBLOCK LATTICE_ABC

%BLOCK POSITIONS_FRAC
  Li   0.4634852   0.0355431  -0.3210857 SPIN=   0.00000
  Li  -0.4634852  -0.0355431   0.3210857 SPIN=   0.00000
  Li  -0.4813173   0.4188765   0.3112946 SPIN=   0.00000
  Li   0.4813173  -0.4188765  -0.3112946 SPIN=   0.00000
   O  -0.0918600   0.4157365  -0.4222930 SPIN=   0.00000
   O  -0.5452577   0.2371251  -0.5470633 SPIN=   0.00000
   O  -0.1792809   0.0945219  -0.3902415 SPIN=   0.00000
   O  -0.3332400   0.3631517  -0.2181026 SPIN=   0.00000
   P  -0.2775385   0.2859963  -0.3938282 SPIN=   0.00000
   O   0.0918600  -0.4157365   0.4222930 SPIN=   0.00000
   O   0.5452577  -0.2371251   0.5470633 SPIN=   0.00000
   O   0.1792809  -0.0945219   0.3902415 SPIN=   0.00000
   O   0.3332400  -0.3631517   0.2181026 SPIN=   0.00000
   P   0.2775385  -0.2859963   0.3938282 SPIN=   0.00000
   O  -0.1233264   0.3865708   0.1180139 SPIN=   0.00000
   O  -0.3718650   0.1603067   0.2073782 SPIN=   0.00000
   O  -0.5860398   0.2361598  -0.0725768 SPIN=   0.00000
   O  -0.2216325   0.0433624  -0.0510371 SPIN=   0.00000
   O   0.1233264  -0.3865708  -0.1180139 SPIN=   0.00000
   O   0.3718650  -0.1603067  -0.2073782 SPIN=   0.00000
   O   0.5860398  -0.2361598   0.0725768 SPIN=   0.00000
   O   0.2216325  -0.0433624   0.0510371 SPIN=   0.00000
   P   0.5000000  -0.5000000   0.0000000 SPIN=   0.00000
   P  -0.5000000   0.0000000   0.0000000 SPIN=   0.00000
  Fe  -0.0622980  -0.2346345  -0.4087810 SPIN=   2.97361
  Fe   0.0622980   0.2346345   0.4087810 SPIN=   2.97361
  Fe   0.0413572   0.2401949  -0.0634703 SPIN=   5.02639
  Fe  -0.0413572  -0.2401949   0.0634703 SPIN=   5.02639
%ENDBLOCK POSITIONS_FRAC

# Note: total spin =  16.00

KPOINTS_MP_SPACING 0.07

%BLOCK SPECIES_POT
QC5
%ENDBLOCK SPECIES_POT

%BLOCK HUBBARD_U
Fe d:4.0
%ENDBLOCK HUBBARD_U

SNAP_TO_SYMMETRY
SYMMETRY_GENERATE

