#              Generated by Buildcell
#
# at 10:15:07 (GMT+0.0) 26th November 2020
# in /lustre/scratch/uccabz1/launch_tmp
# on node-c12k-022
# by uccabz1
#
# compiler GCC version 4.9.2
# options -cpp -iprefix /lustre/shared/ucl/apps/gcc/4.9.2/bin/../lib/gcc/x86_64-unknown-linux-gnu/4.9.2/ -mtune=corei7 -march=x86-64 -g -Og
#
# seed -1266118137  1277776289  -681918885  1418377117 -1552372942   -12640465 -1743313042 -1409790152   626209686  -939631116  -232039802 -2022684469
#
#      Author: C. J. Pickard (cjp20@cam.ac.uk)
#                Space group: Pmn21
#

%BLOCK LATTICE_ABC
      3.92812      7.83241     10.40087
     90.00000     90.00000     90.00000
%ENDBLOCK LATTICE_ABC

%BLOCK POSITIONS_FRAC
  Li   0.0887233   0.3059359   0.1192743 SPIN=   0.00000
  Li  -0.0887233   0.1940641  -0.3807257 SPIN=   0.00000
  Li  -0.0887233  -0.1940641  -0.3807257 SPIN=   0.00000
  Li   0.0887233  -0.3059359   0.1192743 SPIN=   0.00000
   O  -0.2998642  -0.1581131   0.4262359 SPIN=   0.00000
   O  -0.7790285  -0.3325235   0.3148923 SPIN=   0.00000
   O  -0.3986438  -0.1575735   0.1792444 SPIN=   0.00000
   P  -0.4035195  -0.2634199   0.3077549 SPIN=   0.00000
   O   0.2998642  -0.3418869  -0.0737641 SPIN=   0.00000
   O   0.7790285  -0.1674765  -0.1851077 SPIN=   0.00000
   O   0.3986438  -0.3424265  -0.3207556 SPIN=   0.00000
   P   0.4035195  -0.2365801  -0.1922451 SPIN=   0.00000
   O   0.2998642   0.3418869  -0.0737641 SPIN=   0.00000
   O   0.7790285   0.1674765  -0.1851077 SPIN=   0.00000
   O   0.3986438   0.3424265  -0.3207556 SPIN=   0.00000
   P   0.4035195   0.2365801  -0.1922451 SPIN=   0.00000
   O  -0.2998642   0.1581131   0.4262359 SPIN=   0.00000
   O  -0.7790285   0.3325235   0.3148923 SPIN=   0.00000
   O  -0.3986438   0.1575735   0.1792444 SPIN=   0.00000
   P  -0.4035195   0.2634199   0.3077549 SPIN=   0.00000
   O  -0.0978069  -0.5000000  -0.4096783 SPIN=   0.00000
   O   0.0978069  -0.0000000   0.0903217 SPIN=   0.00000
   O  -0.4637275  -0.5000000   0.1340584 SPIN=   0.00000
   O   0.4637275   0.0000000  -0.3659416 SPIN=   0.00000
  Fe  -0.0958996  -0.5000000  -0.1555263 SPIN=   3.84460
  Fe   0.0958996   0.0000000   0.3444737 SPIN=   3.84460
  Fe  -0.4112660  -0.0000000   0.0072713 SPIN=   4.15540
  Fe   0.4112660  -0.5000000  -0.4927287 SPIN=   4.15540
%ENDBLOCK POSITIONS_FRAC

# Note: total spin =  16.00

KPOINTS_MP_SPACING 0.07

%BLOCK SPECIES_POT
QC5
%ENDBLOCK SPECIES_POT

%BLOCK HUBBARD_U
Fe d:4.0
%ENDBLOCK HUBBARD_U

SNAP_TO_SYMMETRY
SYMMETRY_GENERATE

