#              Generated by Buildcell
#
# at 22:03:45 (GMT+0.0) 26th November 2020
# in /lustre/scratch/uccabz1/launch_tmp
# on node-c12j-025
# by uccabz1
#
# compiler GCC version 4.9.2
# options -cpp -iprefix /lustre/shared/ucl/apps/gcc/4.9.2/bin/../lib/gcc/x86_64-unknown-linux-gnu/4.9.2/ -mtune=corei7 -march=x86-64 -g -Og
#
# seed -1764663550 -1199290182   703544468   213041766  1453281146   -51337262  -279574453 -2090411310  2065256755 -1791457749  1243835607   897632488
#
#      Author: C. J. Pickard (cjp20@cam.ac.uk)
#                Space group: Cm
#

%BLOCK LATTICE_ABC
      5.09560      7.92628      7.92628
     91.62293     90.26512     90.26512
%ENDBLOCK LATTICE_ABC

%BLOCK POSITIONS_FRAC
  Li   0.1076624   0.4267781   0.0338715 SPIN=   0.00000
  Li   0.1076624   0.0338715   0.4267781 SPIN=   0.00000
  Li   0.3500573  -0.3478399  -0.3478399 SPIN=   0.00000
  Li   0.0559363   0.4135515   0.4135515 SPIN=   0.00000
   O  -0.3835924  -0.2830685   0.0129511 SPIN=   0.00000
   O  -0.6196108  -0.5247352  -0.1571088 SPIN=   0.00000
   O  -0.1373851  -0.5014369  -0.1780049 SPIN=   0.00000
   O  -0.3393353  -0.5958441   0.0910897 SPIN=   0.00000
   P  -0.3703440  -0.4673952  -0.0522461 SPIN=   0.00000
   O  -0.3835924   0.0129511  -0.2830685 SPIN=   0.00000
   O  -0.6196108  -0.1571088  -0.5247352 SPIN=   0.00000
   O  -0.1373851  -0.1780049  -0.5014369 SPIN=   0.00000
   O  -0.3393353   0.0910897  -0.5958441 SPIN=   0.00000
   P  -0.3703440  -0.0522461  -0.4673952 SPIN=   0.00000
   O   0.3652914  -0.0726034   0.1800668 SPIN=   0.00000
   O   0.1358873  -0.2901593  -0.0235070 SPIN=   0.00000
   O   0.1171816  -0.3374081   0.2828924 SPIN=   0.00000
   P   0.1297945  -0.1922692   0.1518401 SPIN=   0.00000
   O   0.3652914   0.1800668  -0.0726034 SPIN=   0.00000
   O   0.1358873  -0.0235070  -0.2901593 SPIN=   0.00000
   O   0.1171816   0.2828924  -0.3374081 SPIN=   0.00000
   P   0.1297945   0.1518401  -0.1922692 SPIN=   0.00000
   O   0.4626358   0.3788409   0.3788409 SPIN=   0.00000
   O   0.1383865   0.2018821   0.2018821 SPIN=   0.00000
  Fe  -0.3802025  -0.3144902   0.2778549 SPIN=   1.80396
  Fe  -0.3802025   0.2778549  -0.3144902 SPIN=   1.80396
  Fe  -0.4433921   0.1610286   0.1610286 SPIN=   2.62077
  Fe  -0.1456435  -0.1603699  -0.1603699 SPIN=   9.77131
%ENDBLOCK POSITIONS_FRAC

# Note: total spin =  16.00

KPOINTS_MP_SPACING 0.07

%BLOCK SPECIES_POT
QC5
%ENDBLOCK SPECIES_POT

%BLOCK HUBBARD_U
Fe d:4.0
%ENDBLOCK HUBBARD_U

SNAP_TO_SYMMETRY
SYMMETRY_GENERATE

