#              Generated by Buildcell
#
# at 07:04:56 (GMT+0.0) 24th November 2020
# in /scratch/scratch/uccabz1/launch_tmp
# on node-a14e-014
# by uccabz1
#
# compiler GCC version 4.9.2
# options -cpp -iprefix /scratch/UCL/applications/gcc/4.9.2/bin/../lib/gcc/x86_64-unknown-linux-gnu/4.9.2/ -mtune=corei7 -march=x86-64 -g -O2
#
# seed  -948443922  -890404938  1300324711   247500306    21269308  2139731591   367343261  1735474838    40982997   907662191  -586292566  -154504514
#
#      Author: C. J. Pickard (cjp20@cam.ac.uk)
#                Space group: P-1
#

%BLOCK LATTICE_ABC
      4.04558      4.84627      8.46756
     81.99308     76.93964     85.85094
%ENDBLOCK LATTICE_ABC

%BLOCK POSITIONS_FRAC
  Li   0.0000000   0.5000000   0.0000000 SPIN=   0.00000
  Li   0.5000000  -0.0000000   0.0000000 SPIN=   0.00000
   O   0.0687913  -0.0709340  -0.1475515 SPIN=   0.00000
   O   0.0924385   0.4592088  -0.2512261 SPIN=   0.00000
   O   0.6306988   0.1762353  -0.2828885 SPIN=   0.00000
   O   0.2184339   0.1163809  -0.4548658 SPIN=   0.00000
   P   0.2424011   0.1567470  -0.2788755 SPIN=   0.00000
   O  -0.0687913   0.0709340   0.1475515 SPIN=   0.00000
   O  -0.0924385  -0.4592088   0.2512261 SPIN=   0.00000
   O  -0.6306988  -0.1762353   0.2828885 SPIN=   0.00000
   O  -0.2184339  -0.1163809   0.4548658 SPIN=   0.00000
   P  -0.2424011  -0.1567470   0.2788755 SPIN=   0.00000
  Fe   0.3625772   0.3600730   0.3173427 SPIN=   4.00000
  Fe  -0.3625772  -0.3600730  -0.3173427 SPIN=   4.00000
%ENDBLOCK POSITIONS_FRAC

# Note: total spin =   8.00

KPOINTS_MP_SPACING 0.07

%BLOCK SPECIES_POT
QC5
%ENDBLOCK SPECIES_POT

%BLOCK HUBBARD_U
Fe d:4.0
%ENDBLOCK HUBBARD_U

SNAP_TO_SYMMETRY
SYMMETRY_GENERATE

