#              Generated by Buildcell
#
# at 11:08:30 (GMT+0.0) 24th November 2020
# in /scratch/scratch/uccabz1/launch_tmp
# on node-a14a-027
# by uccabz1
#
# compiler GCC version 4.9.2
# options -cpp -iprefix /scratch/UCL/applications/gcc/4.9.2/bin/../lib/gcc/x86_64-unknown-linux-gnu/4.9.2/ -mtune=corei7 -march=x86-64 -g -O2
#
# seed  1808661338 -1727794967  -223590043 -1280125819  1997458882   504410030  2074899453  2127081300   920943601  -971281363 -1796164016    35161460
#
#      Author: C. J. Pickard (cjp20@cam.ac.uk)
#                Space group: P2
#

%BLOCK LATTICE_ABC
      4.26783      4.54641      8.54890
    105.29716     90.00000     90.00000
%ENDBLOCK LATTICE_ABC

%BLOCK POSITIONS_FRAC
  Li   0.2478312   0.0000000   0.0000000 SPIN=   0.00000
  Li  -0.2231647   0.5000000   0.0000000 SPIN=   0.00000
   O  -0.3516956   0.1867089   0.1341215 SPIN=   0.00000
   O  -0.3408684   0.2216306   0.4423514 SPIN=   0.00000
   O  -0.2150786  -0.2723811   0.2492849 SPIN=   0.00000
   O   0.1641880   0.1612417   0.2879863 SPIN=   0.00000
   P  -0.1905624   0.0813113   0.2708647 SPIN=   0.00000
   O  -0.3516956  -0.1867089  -0.1341215 SPIN=   0.00000
   O  -0.3408684  -0.2216306  -0.4423514 SPIN=   0.00000
   O  -0.2150786   0.2723811  -0.2492849 SPIN=   0.00000
   O   0.1641880  -0.1612417  -0.2879863 SPIN=   0.00000
   P  -0.1905624  -0.0813113  -0.2708647 SPIN=   0.00000
  Fe   0.2782229   0.6521899   0.3063977 SPIN=   4.00000
  Fe   0.2782229  -0.6521899  -0.3063977 SPIN=   4.00000
%ENDBLOCK POSITIONS_FRAC

# Note: total spin =   8.00

KPOINTS_MP_SPACING 0.07

%BLOCK SPECIES_POT
QC5
%ENDBLOCK SPECIES_POT

%BLOCK HUBBARD_U
Fe d:4.0
%ENDBLOCK HUBBARD_U

SNAP_TO_SYMMETRY
SYMMETRY_GENERATE

