#              Generated by Buildcell
#
# at 14:18:37 (GMT+0.0) 24th November 2020
# in /scratch/scratch/uccabz1/launch_tmp
# on node-a14e-012
# by uccabz1
#
# compiler GCC version 4.9.2
# options -cpp -iprefix /scratch/UCL/applications/gcc/4.9.2/bin/../lib/gcc/x86_64-unknown-linux-gnu/4.9.2/ -mtune=corei7 -march=x86-64 -g -O2
#
# seed  1117357960   727906590 -1305807854   232964270  1693995330  1697354244  1205294814 -2001837240   579438684  -610145031  -983543752  1100646094
#
#      Author: C. J. Pickard (cjp20@cam.ac.uk)
#                Space group: Pm
#

%BLOCK LATTICE_ABC
      4.43873      4.54715      8.80093
     90.00000     90.00000    115.74600
%ENDBLOCK LATTICE_ABC

%BLOCK POSITIONS_FRAC
  Li  -0.0106724  -0.2302586  -0.2421363 SPIN=   0.00000
  Li  -0.0106724  -0.2302586   0.2421363 SPIN=   0.00000
   O   0.3430396   0.2188576   0.1489218 SPIN=   0.00000
   O   0.4961595   0.7940799   0.2620325 SPIN=   0.00000
   O  -0.0345785   0.3372067   0.3413217 SPIN=   0.00000
   P   0.3313798   0.4146048   0.2894541 SPIN=   0.00000
   O   0.3430396   0.2188576  -0.1489218 SPIN=   0.00000
   O   0.4961595   0.7940799  -0.2620325 SPIN=   0.00000
   O  -0.0345785   0.3372067  -0.3413217 SPIN=   0.00000
   P   0.3313798   0.4146048  -0.2894541 SPIN=   0.00000
   O   0.0715925  -0.0949241  -0.5000000 SPIN=   0.00000
   O   0.4801400   0.4861079  -0.5000000 SPIN=   0.00000
  Fe  -0.3987668   0.0248780  -0.5000000 SPIN=   4.51767
  Fe  -0.3201329   0.1534948  -0.0000000 SPIN=   3.48233
%ENDBLOCK POSITIONS_FRAC

# Note: total spin =   8.00

KPOINTS_MP_SPACING 0.07

%BLOCK SPECIES_POT
QC5
%ENDBLOCK SPECIES_POT

%BLOCK HUBBARD_U
Fe d:4.0
%ENDBLOCK HUBBARD_U

SNAP_TO_SYMMETRY
SYMMETRY_GENERATE

