#              Generated by Buildcell
#
# at 10:56:13 (GMT+0.0) 24th November 2020
# in /lustre/scratch/uccabz1/launch_tmp
# on node-c12a-028
# by uccabz1
#
# compiler GCC version 4.9.2
# options -cpp -iprefix /lustre/shared/ucl/apps/gcc/4.9.2/bin/../lib/gcc/x86_64-unknown-linux-gnu/4.9.2/ -mtune=corei7 -march=x86-64 -g -Og
#
# seed  1364626533  -593829117  1232442755   -35659556    31478890  1583396453 -1385570303   673382861 -1753910692  -129801382 -2073286176  -602266049
#
#      Author: C. J. Pickard (cjp20@cam.ac.uk)
#                Space group: Pc
#

%BLOCK LATTICE_ABC
      4.02533      5.67352      7.34167
     90.00000     90.00000    107.39446
%ENDBLOCK LATTICE_ABC

%BLOCK POSITIONS_FRAC
  Li  -0.1190709  -0.4010613  -0.4106309 SPIN=   0.00000
  Li   0.3809291   0.0989387   0.4106309 SPIN=   0.00000
   O  -0.1663631   0.1061276   0.2657721 SPIN=   0.00000
   O  -0.0190834   0.4274395   0.0030112 SPIN=   0.00000
   O   0.0488497   0.5801900   0.3200199 SPIN=   0.00000
   O   0.4642184   0.3688684   0.1951629 SPIN=   0.00000
   P   0.0731980   0.3565504   0.1996972 SPIN=   0.00000
   O  -0.6663631  -0.3938724  -0.2657721 SPIN=   0.00000
   O  -0.5190834  -0.0725605  -0.0030112 SPIN=   0.00000
   O  -0.4511503   0.0801900  -0.3200199 SPIN=   0.00000
   O  -0.0357816  -0.1311316  -0.1951629 SPIN=   0.00000
   P  -0.4268020  -0.1434496  -0.1996972 SPIN=   0.00000
  Fe  -0.2671493  -0.2561779   0.1708222 SPIN=   4.00000
  Fe   0.2328507   0.2438221  -0.1708222 SPIN=   4.00000
%ENDBLOCK POSITIONS_FRAC

# Note: total spin =   8.00

KPOINTS_MP_SPACING 0.07

%BLOCK SPECIES_POT
QC5
%ENDBLOCK SPECIES_POT

%BLOCK HUBBARD_U
Fe d:4.0
%ENDBLOCK HUBBARD_U

SNAP_TO_SYMMETRY
SYMMETRY_GENERATE

