#              Generated by Buildcell
#
# at 21:57:59 (GMT+0.0) 26th November 2020
# in /lustre/scratch/uccabz1/launch_tmp
# on node-c12a-032
# by uccabz1
#
# compiler GCC version 4.9.2
# options -cpp -iprefix /lustre/shared/ucl/apps/gcc/4.9.2/bin/../lib/gcc/x86_64-unknown-linux-gnu/4.9.2/ -mtune=corei7 -march=x86-64 -g -Og
#
# seed  -452458188  1462229288 -1806173672  1624740627  2132949193 -1064427229 -1539819579   616855170   553887631  1180392578   442453483 -2047403455
#
#      Author: C. J. Pickard (cjp20@cam.ac.uk)
#                Space group: P212121
#

%BLOCK LATTICE_ABC
      3.93866      5.75872     14.10833
     90.00000     90.00000     90.00000
%ENDBLOCK LATTICE_ABC

%BLOCK POSITIONS_FRAC
  Li  -0.4337805   0.4863986  -0.0242913 SPIN=   0.00000
  Li   0.0662195  -0.4863986  -0.4757087 SPIN=   0.00000
  Li  -0.0662195  -0.0136014   0.0242913 SPIN=   0.00000
  Li   0.4337805   0.0136014   0.4757087 SPIN=   0.00000
   O  -0.2233644   0.3407172   0.2868176 SPIN=   0.00000
   O  -0.1032275   0.1928829   0.4575384 SPIN=   0.00000
   O   0.2781962   0.0661211   0.3285634 SPIN=   0.00000
   O   0.2950560   0.4794158   0.3835950 SPIN=   0.00000
   P   0.0492429   0.2760350   0.3602419 SPIN=   0.00000
   O  -0.7233644  -0.3407172   0.2131824 SPIN=   0.00000
   O  -0.6032275  -0.1928829   0.0424616 SPIN=   0.00000
   O  -0.2218038  -0.0661211   0.1714366 SPIN=   0.00000
   O  -0.2049440  -0.4794158   0.1164050 SPIN=   0.00000
   P  -0.4507571  -0.2760350   0.1397581 SPIN=   0.00000
   O   0.7233644  -0.1592828  -0.2868176 SPIN=   0.00000
   O   0.6032275  -0.3071171  -0.4575384 SPIN=   0.00000
   O   0.2218038  -0.4338789  -0.3285634 SPIN=   0.00000
   O   0.2049440  -0.0205842  -0.3835950 SPIN=   0.00000
   P   0.4507571  -0.2239650  -0.3602419 SPIN=   0.00000
   O   0.2233644   0.1592828  -0.2131824 SPIN=   0.00000
   O   0.1032275   0.3071171  -0.0424616 SPIN=   0.00000
   O  -0.2781962   0.4338789  -0.1714366 SPIN=   0.00000
   O  -0.2950560   0.0205842  -0.1164050 SPIN=   0.00000
   P  -0.0492429   0.2239650  -0.1397581 SPIN=   0.00000
  Fe  -0.4142861   0.2532020  -0.3153720 SPIN=   4.00000
  Fe   0.0857139  -0.2532020  -0.1846280 SPIN=   4.00000
  Fe  -0.0857139  -0.2467980   0.3153720 SPIN=   4.00000
  Fe   0.4142861   0.2467980   0.1846280 SPIN=   4.00000
%ENDBLOCK POSITIONS_FRAC

# Note: total spin =  16.00

KPOINTS_MP_SPACING 0.07

%BLOCK SPECIES_POT
QC5
%ENDBLOCK SPECIES_POT

%BLOCK HUBBARD_U
Fe d:4.0
%ENDBLOCK HUBBARD_U

SNAP_TO_SYMMETRY
SYMMETRY_GENERATE

