#              Generated by Buildcell
#
# at 09:45:36 (GMT+0.0) 24th November 2020
# in /scratch/scratch/uccabz1/launch_tmp
# on node-a14a-010
# by uccabz1
#
# compiler GCC version 4.9.2
# options -cpp -iprefix /scratch/UCL/applications/gcc/4.9.2/bin/../lib/gcc/x86_64-unknown-linux-gnu/4.9.2/ -mtune=corei7 -march=x86-64 -g -O2
#
# seed  -207964018  1525026773 -1056027939  1934598409 -2059629159  1260228875  -171554990   724009015 -1573694895   696000383   420892162 -1735528622
#
#      Author: C. J. Pickard (cjp20@cam.ac.uk)
#                Space group: P-1
#

%BLOCK LATTICE_ABC
      3.90653      5.43077      7.89686
     98.89670     99.47481     99.69255
%ENDBLOCK LATTICE_ABC

%BLOCK POSITIONS_FRAC
  Li  -0.5000000  -0.5000000   0.5000000 SPIN=   0.00000
  Li  -0.0000000  -0.0000000   0.5000000 SPIN=   0.00000
   O   1.0333228   0.5301136   0.3320437 SPIN=   0.00000
   O   0.5041491   0.3192490   0.0774233 SPIN=   0.00000
   O   0.9701986   0.0762659   0.1522070 SPIN=   0.00000
   O   0.5569255   0.1523830   0.3570533 SPIN=   0.00000
   P   0.7779056   0.2819970   0.2366352 SPIN=   0.00000
   O  -1.0333228  -0.5301136  -0.3320437 SPIN=   0.00000
   O  -0.5041491  -0.3192490  -0.0774233 SPIN=   0.00000
   O  -0.9701986  -0.0762659  -0.1522070 SPIN=   0.00000
   O  -0.5569255  -0.1523830  -0.3570533 SPIN=   0.00000
   P  -0.7779056  -0.2819970  -0.2366352 SPIN=   0.00000
  Fe  -0.6728418  -0.2129136   0.1585989 SPIN=   4.00000
  Fe   0.6728418   0.2129136  -0.1585989 SPIN=   4.00000
%ENDBLOCK POSITIONS_FRAC

# Note: total spin =   8.00

KPOINTS_MP_SPACING 0.07

%BLOCK SPECIES_POT
QC5
%ENDBLOCK SPECIES_POT

%BLOCK HUBBARD_U
Fe d:4.0
%ENDBLOCK HUBBARD_U

SNAP_TO_SYMMETRY
SYMMETRY_GENERATE

