#              Generated by Buildcell
#
# at 13:10:27 (GMT+0.0) 24th November 2020
# in /scratch/scratch/uccabz1/launch_tmp
# on node-a14e-019
# by uccabz1
#
# compiler GCC version 4.9.2
# options -cpp -iprefix /scratch/UCL/applications/gcc/4.9.2/bin/../lib/gcc/x86_64-unknown-linux-gnu/4.9.2/ -mtune=corei7 -march=x86-64 -g -O2
#
# seed   948897879 -1687334430   283767632  1126347939 -1992425622  -404823999 -1323763312 -1885806201  1458154502   183870321  -499510088  -347302980
#
#      Author: C. J. Pickard (cjp20@cam.ac.uk)
#                Space group: C2
#

%BLOCK LATTICE_ABC
      5.34101      6.00838      6.00838
     62.33198     72.60125     72.60125
%ENDBLOCK LATTICE_ABC

%BLOCK POSITIONS_FRAC
  Li  -0.5000000  -0.1204231   0.1204231 SPIN=   0.00000
  Li   0.5000000   0.3684928  -0.3684928 SPIN=   0.00000
   O   0.2255149   0.2074118  -0.4271984 SPIN=   0.00000
   O  -0.0816021  -0.1276299  -0.1480534 SPIN=   0.00000
   O   0.2671258  -0.1974388  -0.4991933 SPIN=   0.00000
   O   0.3997325  -0.2475060  -0.1099400 SPIN=   0.00000
   P   0.2062332  -0.0772298  -0.3008799 SPIN=   0.00000
   O  -0.2255149   0.4271984  -0.2074118 SPIN=   0.00000
   O   0.0816021   0.1480534   0.1276299 SPIN=   0.00000
   O  -0.2671258   0.4991933   0.1974388 SPIN=   0.00000
   O  -0.3997325   0.1099400   0.2475060 SPIN=   0.00000
   P  -0.2062332   0.3008799   0.0772298 SPIN=   0.00000
  Fe  -0.2206971  -0.1767988  -0.4283847 SPIN=   4.00000
  Fe   0.2206971   0.4283847   0.1767988 SPIN=   4.00000
%ENDBLOCK POSITIONS_FRAC

# Note: total spin =   8.00

KPOINTS_MP_SPACING 0.07

%BLOCK SPECIES_POT
QC5
%ENDBLOCK SPECIES_POT

%BLOCK HUBBARD_U
Fe d:4.0
%ENDBLOCK HUBBARD_U

SNAP_TO_SYMMETRY
SYMMETRY_GENERATE

