#              Generated by Buildcell
#
# at 11:02:45 (GMT+0.0) 24th November 2020
# in /lustre/scratch/uccabz1/launch_tmp
# on node-c12b-020
# by uccabz1
#
# compiler GCC version 4.9.2
# options -cpp -iprefix /lustre/shared/ucl/apps/gcc/4.9.2/bin/../lib/gcc/x86_64-unknown-linux-gnu/4.9.2/ -mtune=corei7 -march=x86-64 -g -Og
#
# seed -1948299333  1056998763  1069633950    19541094 -1510325773  2137303427  1605002551 -1237844678 -1826702387  -939738627 -1575459495  1045201278
#
#      Author: C. J. Pickard (cjp20@cam.ac.uk)
#                Space group: Cm
#

%BLOCK LATTICE_ABC
      4.52921      6.35143      6.35143
     92.66236    109.40361    109.40361
%ENDBLOCK LATTICE_ABC

%BLOCK POSITIONS_FRAC
  Li  -0.3798338  -0.2671630   0.0603817 SPIN=   0.00000
  Li  -0.3798338   0.0603817  -0.2671630 SPIN=   0.00000
   O   0.1930056   0.4787611  -0.1807411 SPIN=   0.00000
   O  -0.1130683   0.1804908  -0.5524757 SPIN=   0.00000
   O   0.5089904   0.3373879  -0.3954017 SPIN=   0.00000
   O   0.1968883   0.0726476  -0.1945188 SPIN=   0.00000
   P   0.1962755   0.2762826  -0.3211872 SPIN=   0.00000
   O   0.1930056  -0.1807411   0.4787611 SPIN=   0.00000
   O  -0.1130683  -0.5524757   0.1804908 SPIN=   0.00000
   O   0.5089904  -0.3954017   0.3373879 SPIN=   0.00000
   O   0.1968883  -0.1945188   0.0726476 SPIN=   0.00000
   P   0.1962755  -0.3211872   0.2762826 SPIN=   0.00000
  Fe  -0.1085394  -0.3461276  -0.3461276 SPIN=   4.12724
  Fe   0.3379021   0.1570081   0.1570081 SPIN=   3.87276
%ENDBLOCK POSITIONS_FRAC

# Note: total spin =   8.00

KPOINTS_MP_SPACING 0.07

%BLOCK SPECIES_POT
QC5
%ENDBLOCK SPECIES_POT

%BLOCK HUBBARD_U
Fe d:4.0
%ENDBLOCK HUBBARD_U

SNAP_TO_SYMMETRY
SYMMETRY_GENERATE

