#              Generated by Buildcell
#
# at 20:08:26 (GMT+0.0) 26th November 2020
# in /scratch/scratch/mmm0366/launch_tmp
# on node-k98p-014
# by mmm0366
#
# compiler GCC version 4.9.2
# options -cpp -iprefix /scratch/UCL/applications/gcc/4.9.2/bin/../lib/gcc/x86_64-unknown-linux-gnu/4.9.2/ -mtune=corei7 -march=x86-64 -g -O2
#
# seed  -192772759 -1414616690 -1115319448    21322452  1686529578    51174116  1021451395  1594779664  -857780025   111127434  -875296212    83915645
#
#      Author: C. J. Pickard (cjp20@cam.ac.uk)
#                Space group: Pc
#

%BLOCK LATTICE_ABC
      6.03538      6.71558      7.99431
     90.00000     90.00000     99.03261
%ENDBLOCK LATTICE_ABC

%BLOCK POSITIONS_FRAC
  Li   0.4484673   0.1654644   0.2781094 SPIN=   0.00000
  Li  -0.0515327  -0.3345356  -0.2781094 SPIN=   0.00000
  Li  -0.1759871  -0.4890873   0.3124683 SPIN=   0.00000
  Li   0.3240129   0.0109127  -0.3124683 SPIN=   0.00000
   O   0.0837047  -0.2849469   0.2018449 SPIN=   0.00000
   O   0.2836774  -0.3375883  -0.0788225 SPIN=   0.00000
   O   0.1921604  -0.6285916   0.1115241 SPIN=   0.00000
   O  -0.1172153  -0.4957318  -0.0399433 SPIN=   0.00000
   P   0.1064625  -0.4293302   0.0557621 SPIN=   0.00000
   O  -0.4162953   0.2150531  -0.2018449 SPIN=   0.00000
   O  -0.2163226   0.1624117   0.0788225 SPIN=   0.00000
   O  -0.3078396  -0.1285916  -0.1115241 SPIN=   0.00000
   O  -0.6172153   0.0042682   0.0399433 SPIN=   0.00000
   P  -0.3935375   0.0706698  -0.0557621 SPIN=   0.00000
   O   0.2004785   0.2990195  -0.1908124 SPIN=   0.00000
   O   0.1354023   0.5199797  -0.4474982 SPIN=   0.00000
   O   0.5098051   0.5715909  -0.3150862 SPIN=   0.00000
   O   0.3829495   0.2557953  -0.4780819 SPIN=   0.00000
   P   0.3023730   0.4037636  -0.3503933 SPIN=   0.00000
   O  -0.2995215  -0.2009805   0.1908124 SPIN=   0.00000
   O  -0.3645977   0.0199797   0.4474982 SPIN=   0.00000
   O   0.0098051   0.0715909   0.3150862 SPIN=   0.00000
   O  -0.1170505  -0.2442047   0.4780819 SPIN=   0.00000
   P  -0.1976270  -0.0962364   0.3503933 SPIN=   0.00000
  Fe  -0.4680744   0.4785546  -0.0394321 SPIN=   3.31210
  Fe   0.0319256  -0.0214454   0.0394321 SPIN=   3.31210
  Fe  -0.1453668   0.1882985  -0.3829255 SPIN=   4.68790
  Fe   0.3546332  -0.3117015   0.3829255 SPIN=   4.68790
%ENDBLOCK POSITIONS_FRAC

# Note: total spin =  16.00

KPOINTS_MP_SPACING 0.07

%BLOCK SPECIES_POT
QC5
%ENDBLOCK SPECIES_POT

%BLOCK HUBBARD_U
Fe d:4.0
%ENDBLOCK HUBBARD_U

SNAP_TO_SYMMETRY
SYMMETRY_GENERATE

