#              Generated by Buildcell
#
# at 21:58:00 (GMT+0.0) 26th November 2020
# in /lustre/scratch/uccabz1/launch_tmp
# on node-c12m-036
# by uccabz1
#
# compiler GCC version 4.9.2
# options -cpp -iprefix /lustre/shared/ucl/apps/gcc/4.9.2/bin/../lib/gcc/x86_64-unknown-linux-gnu/4.9.2/ -mtune=corei7 -march=x86-64 -g -Og
#
# seed  1338163060 -1084461461 -2058794530  1940138330  -212127987 -1554808721 -1975829315 -1695036956 -1730483144  2042252251  1935695198  -300703172
#
#      Author: C. J. Pickard (cjp20@cam.ac.uk)
#                Space group: Pmn21
#

%BLOCK LATTICE_ABC
      5.08904      6.24289     10.07229
     90.00000     90.00000     90.00000
%ENDBLOCK LATTICE_ABC

%BLOCK POSITIONS_FRAC
  Li   0.1205554  -0.0500868  -0.0000000 SPIN=   0.00000
  Li  -0.3794446   0.0500868  -0.5000000 SPIN=   0.00000
  Li   0.0327541   0.4683443  -0.0000000 SPIN=   0.00000
  Li  -0.4672459  -0.4683443  -0.5000000 SPIN=   0.00000
   O  -0.7576557  -0.3063783   0.1227430 SPIN=   0.00000
   O  -0.2998001  -0.4904682   0.1235141 SPIN=   0.00000
   O  -0.3207334  -0.0995080   0.1596309 SPIN=   0.00000
   P  -0.4810282  -0.3112902   0.1840989 SPIN=   0.00000
   O  -0.2576557   0.3063783   0.3772570 SPIN=   0.00000
   O   0.2001999   0.4904682   0.3764859 SPIN=   0.00000
   O   0.1792666   0.0995080   0.3403691 SPIN=   0.00000
   P   0.0189718   0.3112902   0.3159011 SPIN=   0.00000
   O  -0.2576557   0.3063783  -0.3772570 SPIN=   0.00000
   O   0.2001999   0.4904682  -0.3764859 SPIN=   0.00000
   O   0.1792666   0.0995080  -0.3403691 SPIN=   0.00000
   P   0.0189718   0.3112902  -0.3159011 SPIN=   0.00000
   O  -0.7576557  -0.3063783  -0.1227430 SPIN=   0.00000
   O  -0.2998001  -0.4904682  -0.1235141 SPIN=   0.00000
   O  -0.3207334  -0.0995080  -0.1596309 SPIN=   0.00000
   P  -0.4810282  -0.3112902  -0.1840989 SPIN=   0.00000
   O  -0.1832111   0.1798798  -0.0000000 SPIN=   0.00000
   O   0.3167889  -0.1798798  -0.5000000 SPIN=   0.00000
   O   0.3368763   0.2386115  -0.0000000 SPIN=   0.00000
   O  -0.1631237  -0.2386115  -0.5000000 SPIN=   0.00000
  Fe  -0.4810355   0.2292973  -0.1945156 SPIN=   4.00000
  Fe   0.0189645  -0.2292973  -0.3054844 SPIN=   4.00000
  Fe   0.0189645  -0.2292973   0.3054844 SPIN=   4.00000
  Fe  -0.4810355   0.2292973   0.1945156 SPIN=   4.00000
%ENDBLOCK POSITIONS_FRAC

# Note: total spin =  16.00

KPOINTS_MP_SPACING 0.07

%BLOCK SPECIES_POT
QC5
%ENDBLOCK SPECIES_POT

%BLOCK HUBBARD_U
Fe d:4.0
%ENDBLOCK HUBBARD_U

SNAP_TO_SYMMETRY
SYMMETRY_GENERATE

