#              Generated by Buildcell
#
# at 06:08:38 (GMT+0.0) 24th November 2020
# in /lustre/scratch/uccabz1/launch_tmp
# on node-c12k-029
# by uccabz1
#
# compiler GCC version 4.9.2
# options -cpp -iprefix /lustre/shared/ucl/apps/gcc/4.9.2/bin/../lib/gcc/x86_64-unknown-linux-gnu/4.9.2/ -mtune=corei7 -march=x86-64 -g -Og
#
# seed  1904308508 -1083661804  -601154129 -1902932117   680688513  -245945716  -592930936  1646781501  1674031136   701000688 -2051157061 -1528106789
#
#      Author: C. J. Pickard (cjp20@cam.ac.uk)
#                Space group: P-1
#

%BLOCK LATTICE_ABC
      4.41307      4.48527      8.21571
     86.03903     83.83638     82.36867
%ENDBLOCK LATTICE_ABC

%BLOCK POSITIONS_FRAC
  Li  -0.4884064  -0.2672041   0.1238718 SPIN=   0.00000
  Li   0.4884064   0.2672041  -0.1238718 SPIN=   0.00000
   O   0.3357358  -0.0999186  -0.2241807 SPIN=   0.00000
   O   0.3602260   0.4321187  -0.3677601 SPIN=   0.00000
   O  -0.0933678   0.1761966  -0.3931110 SPIN=   0.00000
   O  -0.0205380   0.3690636  -0.1229118 SPIN=   0.00000
   O  -0.3357358   0.0999186   0.2241807 SPIN=   0.00000
   O  -0.3602260  -0.4321187   0.3677601 SPIN=   0.00000
   O   0.0933678  -0.1761966   0.3931110 SPIN=   0.00000
   O   0.0205380  -0.3690636   0.1229118 SPIN=   0.00000
   P   0.5000000  -0.0000000  -0.5000000 SPIN=   0.00000
   P   0.0000000   0.0000000   0.0000000 SPIN=   0.00000
  Fe   0.0375158   0.2739457   0.3021407 SPIN=   4.00000
  Fe  -0.0375158  -0.2739457  -0.3021407 SPIN=   4.00000
%ENDBLOCK POSITIONS_FRAC

# Note: total spin =   8.00

KPOINTS_MP_SPACING 0.07

%BLOCK SPECIES_POT
QC5
%ENDBLOCK SPECIES_POT

%BLOCK HUBBARD_U
Fe d:4.0
%ENDBLOCK HUBBARD_U

SNAP_TO_SYMMETRY
SYMMETRY_GENERATE

