#              Generated by Buildcell
#
# at 10:00:23 (GMT+0.0) 26th November 2020
# in /lustre/scratch/uccabz1/launch_tmp
# on node-c12k-029
# by uccabz1
#
# compiler GCC version 4.9.2
# options -cpp -iprefix /lustre/shared/ucl/apps/gcc/4.9.2/bin/../lib/gcc/x86_64-unknown-linux-gnu/4.9.2/ -mtune=corei7 -march=x86-64 -g -Og
#
# seed    52891818  -338227310 -1649298898  -122581952   207249913 -1809877197  1535949289   490305485   500066251 -1785456737 -1527759295 -1817064594
#
#      Author: C. J. Pickard (cjp20@cam.ac.uk)
#                Space group: Pc
#

%BLOCK LATTICE_ABC
      4.86646      6.34931     10.36568
     90.00000     92.41988     90.00000
%ENDBLOCK LATTICE_ABC

%BLOCK POSITIONS_FRAC
  Li   0.1355657   0.1192483  -0.2275420 SPIN=   0.00000
  Li   0.1355657  -0.1192483   0.2724580 SPIN=   0.00000
  Li  -0.3489644  -0.3443130   0.3876039 SPIN=   0.00000
  Li  -0.3489644   0.3443130  -0.1123961 SPIN=   0.00000
   O  -0.1727046   0.0639435   0.0075347 SPIN=   0.00000
   O   0.3389914  -0.0391469  -0.0173384 SPIN=   0.00000
   O   0.2085449   0.3350994  -0.0419607 SPIN=   0.00000
   O   0.2085563   0.1672289   0.1766673 SPIN=   0.00000
   P   0.1296258   0.1285875   0.0316807 SPIN=   0.00000
   O  -0.1727046  -0.0639435  -0.4924653 SPIN=   0.00000
   O   0.3389914   0.0391469  -0.5173384 SPIN=   0.00000
   O   0.2085449  -0.3350994  -0.5419607 SPIN=   0.00000
   O   0.2085563  -0.1672289  -0.3233327 SPIN=   0.00000
   P   0.1296258  -0.1285875  -0.4683193 SPIN=   0.00000
   O  -0.3950230   0.1086700  -0.3095990 SPIN=   0.00000
   O  -0.2981160   0.3106310  -0.5208714 SPIN=   0.00000
   O  -0.5574137   0.4926389  -0.3540882 SPIN=   0.00000
   O  -0.0550581   0.4207331  -0.3140013 SPIN=   0.00000
   P  -0.3268542   0.3222482  -0.3704613 SPIN=   0.00000
   O  -0.3950230  -0.1086700   0.1904010 SPIN=   0.00000
   O  -0.2981160  -0.3106310  -0.0208714 SPIN=   0.00000
   O  -0.5574137  -0.4926389   0.1459118 SPIN=   0.00000
   O  -0.0550581  -0.4207331   0.1859987 SPIN=   0.00000
   P  -0.3268542  -0.3222482   0.1295387 SPIN=   0.00000
  Fe  -0.3660450  -0.2210128  -0.3031727 SPIN=   5.13680
  Fe  -0.3660450   0.2210128   0.1968273 SPIN=   5.13680
  Fe   0.1597224   0.3395385   0.4838575 SPIN=   2.86320
  Fe   0.1597224  -0.3395385  -0.0161425 SPIN=   2.86320
%ENDBLOCK POSITIONS_FRAC

# Note: total spin =  16.00

KPOINTS_MP_SPACING 0.07

%BLOCK SPECIES_POT
QC5
%ENDBLOCK SPECIES_POT

%BLOCK HUBBARD_U
Fe d:4.0
%ENDBLOCK HUBBARD_U

SNAP_TO_SYMMETRY
SYMMETRY_GENERATE

