#              Generated by Buildcell
#
# at 13:53:25 (GMT+0.0) 24th November 2020
# in /scratch/scratch/uccabz1/launch_tmp
# on node-a14a-027
# by uccabz1
#
# compiler GCC version 4.9.2
# options -cpp -iprefix /scratch/UCL/applications/gcc/4.9.2/bin/../lib/gcc/x86_64-unknown-linux-gnu/4.9.2/ -mtune=corei7 -march=x86-64 -g -O2
#
# seed   257822501  1324750404  -314292897   866305556 -1817097122  1480656209  -327701091   731330874   229694054 -1288147108 -1204603668  1637859238
#
#      Author: C. J. Pickard (cjp20@cam.ac.uk)
#                Space group: Fdd2
#

%BLOCK LATTICE_ABC
      5.60944      5.60944      6.27943
    110.28541    110.28541    102.93159
%ENDBLOCK LATTICE_ABC

%BLOCK POSITIONS_FRAC
  Li  -0.3619416   0.1380584   0.2761168 SPIN=   0.00000
  Li   0.3880584  -0.6119416  -0.2238832 SPIN=   0.00000
   O   0.4932964   0.5228799   0.4138555 SPIN=   0.00000
   O   0.3473544   0.1421444  -0.0407423 SPIN=   0.00000
   O  -0.0794409  -0.1090244   0.4138555 SPIN=   0.00000
   O  -0.3880966  -0.1828867  -0.0407423 SPIN=   0.00000
   O  -0.2271201   0.2432964  -0.0861445 SPIN=   0.00000
   O  -0.6078556   0.0973544  -0.5407423 SPIN=   0.00000
   O   0.1409756  -0.3294409  -0.0861445 SPIN=   0.00000
   O   0.0671133  -0.6380966  -0.5407423 SPIN=   0.00000
   P  -0.1050509  -0.6050509  -0.2101018 SPIN=   0.00000
   P  -0.3550509   0.6449491   0.2898982 SPIN=   0.00000
  Fe  -0.0545219  -0.0545219  -0.1090438 SPIN=   4.00000
  Fe   0.1954781   0.6954781   0.3909562 SPIN=   4.00000
%ENDBLOCK POSITIONS_FRAC

# Note: total spin =   8.00

KPOINTS_MP_SPACING 0.07

%BLOCK SPECIES_POT
QC5
%ENDBLOCK SPECIES_POT

%BLOCK HUBBARD_U
Fe d:4.0
%ENDBLOCK HUBBARD_U

SNAP_TO_SYMMETRY
SYMMETRY_GENERATE

