#              Generated by Buildcell
#
# at 06:45:16 (GMT+0.0) 24th November 2020
# in /lustre/scratch/uccabz1/launch_tmp
# on node-c12l-027
# by uccabz1
#
# compiler GCC version 4.9.2
# options -cpp -iprefix /lustre/shared/ucl/apps/gcc/4.9.2/bin/../lib/gcc/x86_64-unknown-linux-gnu/4.9.2/ -mtune=corei7 -march=x86-64 -g -Og
#
# seed  -991218246  -840554003  1960472584 -1256701854  -755405075 -2073492259  1819389237   332318192 -1318093102 -1993865514 -2138124252  -171821918
#
#      Author: C. J. Pickard (cjp20@cam.ac.uk)
#                Space group: P21
#

%BLOCK LATTICE_ABC
      4.52737      5.83133      6.42842
    109.47899     90.00000     90.00000
%ENDBLOCK LATTICE_ABC

%BLOCK POSITIONS_FRAC
  Li   0.2062101   0.1730475   0.1070947 SPIN=   0.00000
  Li  -0.2937899  -0.1730475  -0.1070947 SPIN=   0.00000
   O  -0.5810815   0.0485222   0.3940180 SPIN=   0.00000
   O  -0.3452023   0.2761843   0.1500947 SPIN=   0.00000
   O  -0.1277715   0.3352399   0.5167160 SPIN=   0.00000
   O  -0.0671463  -0.0651626   0.2147850 SPIN=   0.00000
   P  -0.2938001   0.1408384   0.3216742 SPIN=   0.00000
   O  -0.0810815  -0.0485222  -0.3940180 SPIN=   0.00000
   O   0.1547977  -0.2761843  -0.1500947 SPIN=   0.00000
   O   0.3722285  -0.3352399  -0.5167160 SPIN=   0.00000
   O   0.4328537   0.0651626  -0.2147850 SPIN=   0.00000
   P   0.2061999  -0.1408384  -0.3216742 SPIN=   0.00000
  Fe   0.2850024   0.3435971  -0.3319615 SPIN=   4.00000
  Fe  -0.2149976  -0.3435971   0.3319615 SPIN=   4.00000
%ENDBLOCK POSITIONS_FRAC

# Note: total spin =   8.00

KPOINTS_MP_SPACING 0.07

%BLOCK SPECIES_POT
QC5
%ENDBLOCK SPECIES_POT

%BLOCK HUBBARD_U
Fe d:4.0
%ENDBLOCK HUBBARD_U

SNAP_TO_SYMMETRY
SYMMETRY_GENERATE

