#              Generated by Buildcell
#
# at 12:59:32 (GMT+0.0) 26th November 2020
# in /lustre/scratch/uccabz1/launch_tmp
# on node-c12f-021
# by uccabz1
#
# compiler GCC version 4.9.2
# options -cpp -iprefix /lustre/shared/ucl/apps/gcc/4.9.2/bin/../lib/gcc/x86_64-unknown-linux-gnu/4.9.2/ -mtune=corei7 -march=x86-64 -g -Og
#
# seed -1265747450  1098758304  -544757277   386530850   637205421   441460258  -495234653   457703365   955010337   241759315 -1116433536  1013721628
#
#      Author: C. J. Pickard (cjp20@cam.ac.uk)
#                Space group: P21212
#

%BLOCK LATTICE_ABC
      4.76920      7.81667      8.58385
     90.00000     90.00000     90.00000
%ENDBLOCK LATTICE_ABC

%BLOCK POSITIONS_FRAC
  Li  -0.4838116   0.3079478  -0.0078994 SPIN=   0.00000
  Li  -0.4838116  -0.3079478   0.0078994 SPIN=   0.00000
  Li   0.4838116  -0.1920522  -0.4921006 SPIN=   0.00000
  Li   0.4838116   0.1920522   0.4921006 SPIN=   0.00000
   O   0.6318138   0.0830179  -0.1182908 SPIN=   0.00000
   O   0.2375305  -0.1461078  -0.1090375 SPIN=   0.00000
   O   0.3187625   0.0077040  -0.3563094 SPIN=   0.00000
   O   0.6727603  -0.2056095  -0.2630167 SPIN=   0.00000
   P   0.4765364  -0.0590108  -0.2072980 SPIN=   0.00000
   O   0.6318138  -0.0830179   0.1182908 SPIN=   0.00000
   O   0.2375305   0.1461078   0.1090375 SPIN=   0.00000
   O   0.3187625  -0.0077040   0.3563094 SPIN=   0.00000
   O   0.6727603   0.2056095   0.2630167 SPIN=   0.00000
   P   0.4765364   0.0590108   0.2072980 SPIN=   0.00000
   O  -0.6318138   0.5830179  -0.3817092 SPIN=   0.00000
   O  -0.2375305   0.3538922  -0.3909625 SPIN=   0.00000
   O  -0.3187625   0.5077040  -0.1436906 SPIN=   0.00000
   O  -0.6727603   0.2943905  -0.2369833 SPIN=   0.00000
   P  -0.4765364   0.4409892  -0.2927020 SPIN=   0.00000
   O  -0.6318138  -0.5830179   0.3817092 SPIN=   0.00000
   O  -0.2375305  -0.3538922   0.3909625 SPIN=   0.00000
   O  -0.3187625  -0.5077040   0.1436906 SPIN=   0.00000
   O  -0.6727603  -0.2943905   0.2369833 SPIN=   0.00000
   P  -0.4765364  -0.4409892   0.2927020 SPIN=   0.00000
  Fe  -0.0196141   0.1350485  -0.2527298 SPIN=   4.00000
  Fe  -0.0196141  -0.1350485   0.2527298 SPIN=   4.00000
  Fe   0.0196141  -0.3649515  -0.2472702 SPIN=   4.00000
  Fe   0.0196141   0.3649515   0.2472702 SPIN=   4.00000
%ENDBLOCK POSITIONS_FRAC

# Note: total spin =  16.00

KPOINTS_MP_SPACING 0.07

%BLOCK SPECIES_POT
QC5
%ENDBLOCK SPECIES_POT

%BLOCK HUBBARD_U
Fe d:4.0
%ENDBLOCK HUBBARD_U

SNAP_TO_SYMMETRY
SYMMETRY_GENERATE

