#              Generated by Buildcell
#
# at 15:53:34 (GMT+0.0) 1st December 2020
# in /lustre/scratch/uccabz1/launch_tmp
# on node-c12e-023
# by uccabz1
#
# compiler GCC version 4.9.2
# options -cpp -iprefix /lustre/shared/ucl/apps/gcc/4.9.2/bin/../lib/gcc/x86_64-unknown-linux-gnu/4.9.2/ -mtune=corei7 -march=x86-64 -g -Og
#
# seed  1881581425 -1896439711  1388944411    93221724 -1897924542  -165147630  1184510655   274408275  2094911095 -1130852828  -149929981  1685962893
#
#      Author: C. J. Pickard (cjp20@cam.ac.uk)
#                Space group: P21/c
#

%BLOCK LATTICE_ABC
      6.57901      6.87291      7.19471
     90.00000    100.37881     90.00000
%ENDBLOCK LATTICE_ABC

%BLOCK POSITIONS_FRAC
  Li  -0.2039328   0.2379277   0.0024294 SPIN=   0.00000
  Li  -0.2960672  -0.2620723   0.4975706 SPIN=   0.00000
  Li   0.2039328  -0.2379277  -0.0024294 SPIN=   0.00000
  Li   0.2960672   0.2620723  -0.4975706 SPIN=   0.00000
   O  -0.5083804   0.2679278  -0.2308878 SPIN=   0.00000
   O  -0.5827114   0.6298516  -0.1631600 SPIN=   0.00000
   O  -0.2194087   0.5203291  -0.1146810 SPIN=   0.00000
   P  -0.4370089   0.4802064  -0.2400917 SPIN=   0.00000
   O   0.0083804  -0.2320722  -0.2691122 SPIN=   0.00000
   O   0.0827114   0.1298516  -0.3368400 SPIN=   0.00000
   O  -0.2805913   0.0203291  -0.3853190 SPIN=   0.00000
   P  -0.0629911  -0.0197936  -0.2599083 SPIN=   0.00000
   O   0.5083804  -0.2679278   0.2308878 SPIN=   0.00000
   O   0.5827114  -0.6298516   0.1631600 SPIN=   0.00000
   O   0.2194087  -0.5203291   0.1146810 SPIN=   0.00000
   P   0.4370089  -0.4802064   0.2400917 SPIN=   0.00000
   O  -0.0083804   0.2320722   0.2691122 SPIN=   0.00000
   O  -0.0827114  -0.1298516   0.3368400 SPIN=   0.00000
   O   0.2805913  -0.0203291   0.3853190 SPIN=   0.00000
   P   0.0629911   0.0197936   0.2599083 SPIN=   0.00000
   O   0.5000000  -0.0000000  -0.0000000 SPIN=   0.00000
   O  -0.0000000  -0.5000000  -0.5000000 SPIN=   0.00000
   O  -0.0000000  -0.0000000  -0.0000000 SPIN=   0.00000
   O   0.5000000  -0.5000000   0.5000000 SPIN=   0.00000
  Fe   0.2872670   0.2332877  -0.0404930 SPIN=   4.00000
  Fe   0.2127330  -0.2667123  -0.4595070 SPIN=   4.00000
  Fe  -0.2872670  -0.2332877   0.0404930 SPIN=   4.00000
  Fe  -0.2127330   0.2667123   0.4595070 SPIN=   4.00000
%ENDBLOCK POSITIONS_FRAC

# Note: total spin =  16.00

KPOINTS_MP_SPACING 0.07

%BLOCK SPECIES_POT
QC5
%ENDBLOCK SPECIES_POT

%BLOCK HUBBARD_U
Fe d:4.0
%ENDBLOCK HUBBARD_U

SNAP_TO_SYMMETRY
SYMMETRY_GENERATE

