#              Generated by Buildcell
#
# at 11:54:32 (GMT+0.0) 24th November 2020
# in /scratch/scratch/uccabz1/launch_tmp
# on node-a14c-023
# by uccabz1
#
# compiler GCC version 4.9.2
# options -cpp -iprefix /scratch/UCL/applications/gcc/4.9.2/bin/../lib/gcc/x86_64-unknown-linux-gnu/4.9.2/ -mtune=corei7 -march=x86-64 -g -O2
#
# seed  -917649161  1599520829  -275578658  1257795596 -1448859501   202413366 -1116083939 -1851244687  -302060490   277331527   657895839 -2109591567
#
#      Author: C. J. Pickard (cjp20@cam.ac.uk)
#                Space group: C2
#

%BLOCK LATTICE_ABC
      4.91217      4.91217      7.58796
     99.93018    105.18031    109.21519
%ENDBLOCK LATTICE_ABC

%BLOCK POSITIONS_FRAC
  Li   0.3806207   0.3104181   0.4484855 SPIN=   0.00000
  Li  -0.1380674  -0.0678648  -0.4484855 SPIN=   0.00000
   O   0.4390937  -0.4490831   0.1596852 SPIN=   0.00000
   O   0.2473965  -0.0555453   0.0436484 SPIN=   0.00000
   O   0.1896021  -0.1615944   0.3413939 SPIN=   0.00000
   O   0.7134063   0.1186091   0.3351848 SPIN=   0.00000
   P   0.4033255  -0.1505101   0.2181273 SPIN=   0.00000
   O  -0.6087683   0.2794086  -0.1596852 SPIN=   0.00000
   O  -0.0991937   0.2037481  -0.0436484 SPIN=   0.00000
   O  -0.5029883  -0.1517918  -0.3413939 SPIN=   0.00000
   O  -0.2165757   0.3782215  -0.3351848 SPIN=   0.00000
   P  -0.3686374   0.1851982  -0.2181273 SPIN=   0.00000
  Fe   0.2494886  -0.3668055  -0.1824548 SPIN=   4.00000
  Fe  -0.1843507   0.4319433   0.1824548 SPIN=   4.00000
%ENDBLOCK POSITIONS_FRAC

# Note: total spin =   8.00

KPOINTS_MP_SPACING 0.07

%BLOCK SPECIES_POT
QC5
%ENDBLOCK SPECIES_POT

%BLOCK HUBBARD_U
Fe d:4.0
%ENDBLOCK HUBBARD_U

SNAP_TO_SYMMETRY
SYMMETRY_GENERATE

