#              Generated by Buildcell
#
# at 06:07:15 (GMT+0.0) 24th November 2020
# in /lustre/scratch/uccabz1/launch_tmp
# on node-c12c-023
# by uccabz1
#
# compiler GCC version 4.9.2
# options -cpp -iprefix /lustre/shared/ucl/apps/gcc/4.9.2/bin/../lib/gcc/x86_64-unknown-linux-gnu/4.9.2/ -mtune=corei7 -march=x86-64 -g -Og
#
# seed  1620881616   -11374520   371015118 -1141061640  -532017942 -1266374211   207222245  1048682570 -1740698470  -933539871  -414670374   837461729
#
#      Author: C. J. Pickard (cjp20@cam.ac.uk)
#                Space group: Pma2
#

%BLOCK LATTICE_ABC
      3.82260      5.33089      7.85167
     90.00000     90.00000     90.00000
%ENDBLOCK LATTICE_ABC

%BLOCK POSITIONS_FRAC
  Li  -0.0373888   0.3802344   0.2500000 SPIN=   0.00000
  Li  -0.0373888  -0.3802344  -0.2500000 SPIN=   0.00000
   O   0.1155986  -0.3172802   0.0948881 SPIN=   0.00000
   O  -0.4111633  -0.1855962  -0.0941305 SPIN=   0.00000
   O   0.1155986   0.3172802  -0.0948881 SPIN=   0.00000
   O  -0.4111633   0.1855962   0.0941305 SPIN=   0.00000
   O   0.1155986   0.3172802  -0.4051119 SPIN=   0.00000
   O  -0.4111633   0.1855962  -0.5941305 SPIN=   0.00000
   O   0.1155986  -0.3172802   0.4051119 SPIN=   0.00000
   O  -0.4111633  -0.1855962   0.5941305 SPIN=   0.00000
   P   0.4131311   0.5000000  -0.0000000 SPIN=   0.00000
   P   0.4131311  -0.5000000  -0.5000000 SPIN=   0.00000
  Fe   0.4641179  -0.1181239   0.2500000 SPIN=   4.00000
  Fe   0.4641179   0.1181239  -0.2500000 SPIN=   4.00000
%ENDBLOCK POSITIONS_FRAC

# Note: total spin =   8.00

KPOINTS_MP_SPACING 0.07

%BLOCK SPECIES_POT
QC5
%ENDBLOCK SPECIES_POT

%BLOCK HUBBARD_U
Fe d:4.0
%ENDBLOCK HUBBARD_U

SNAP_TO_SYMMETRY
SYMMETRY_GENERATE

