#              Generated by Buildcell
#
# at 00:43:12 (GMT+0.0) 27th November 2020
# in /lustre/scratch/uccabz1/launch_tmp
# on node-c12l-021
# by uccabz1
#
# compiler GCC version 4.9.2
# options -cpp -iprefix /lustre/shared/ucl/apps/gcc/4.9.2/bin/../lib/gcc/x86_64-unknown-linux-gnu/4.9.2/ -mtune=corei7 -march=x86-64 -g -Og
#
# seed  1847400433  1453021362  -832983708   266154114 -1697172999  -404325405   646503023 -1374858311  -765660415  1452061009  -763529784  2065753260
#
#      Author: C. J. Pickard (cjp20@cam.ac.uk)
#                Space group: P21
#

%BLOCK LATTICE_ABC
      4.94926      6.67224      9.69751
     90.00000     92.20595     90.00000
%ENDBLOCK LATTICE_ABC

%BLOCK POSITIONS_FRAC
  Li   0.0505008  -0.1330949  -0.3890075 SPIN=   0.00000
  Li  -0.0505008   0.3669051   0.3890075 SPIN=   0.00000
  Li  -0.4384906   0.0188208  -0.2408125 SPIN=   0.00000
  Li   0.4384906  -0.4811792   0.2408125 SPIN=   0.00000
   O   0.1765342  -0.1428049  -0.1502476 SPIN=   0.00000
   O   0.4275348  -0.3933689   0.0149010 SPIN=   0.00000
   O   0.2488484  -0.5179308  -0.2104744 SPIN=   0.00000
   O   0.6470197  -0.2860363  -0.2014889 SPIN=   0.00000
   P   0.3676281  -0.3242216  -0.1383051 SPIN=   0.00000
   O  -0.1765342   0.3571951   0.1502476 SPIN=   0.00000
   O  -0.4275348   0.1066311  -0.0149010 SPIN=   0.00000
   O  -0.2488484  -0.0179308   0.2104744 SPIN=   0.00000
   O  -0.6470197   0.2139637   0.2014889 SPIN=   0.00000
   P  -0.3676281   0.1757784   0.1383051 SPIN=   0.00000
   O   0.1219125  -0.2621781   0.1888314 SPIN=   0.00000
   O  -0.2449841  -0.3053071   0.3710567 SPIN=   0.00000
   O   0.2281268  -0.3885377   0.4384731 SPIN=   0.00000
   O   0.0958966  -0.0297976   0.4009278 SPIN=   0.00000
   P   0.0545930  -0.2447355   0.3418534 SPIN=   0.00000
   O  -0.1219125   0.2378219  -0.1888314 SPIN=   0.00000
   O   0.2449841   0.1946929  -0.3710567 SPIN=   0.00000
   O  -0.2281268   0.1114623  -0.4384731 SPIN=   0.00000
   O  -0.0958966   0.4702024  -0.4009278 SPIN=   0.00000
   P  -0.0545930   0.2552645  -0.3418534 SPIN=   0.00000
  Fe  -0.4587749  -0.0230251   0.3945475 SPIN=   6.65546
  Fe   0.4587749   0.4769749  -0.3945475 SPIN=   6.65546
  Fe  -0.1869604  -0.2044820   0.0401263 SPIN=   1.34454
  Fe   0.1869604   0.2955180  -0.0401263 SPIN=   1.34454
%ENDBLOCK POSITIONS_FRAC

# Note: total spin =  16.00

KPOINTS_MP_SPACING 0.07

%BLOCK SPECIES_POT
QC5
%ENDBLOCK SPECIES_POT

%BLOCK HUBBARD_U
Fe d:4.0
%ENDBLOCK HUBBARD_U

SNAP_TO_SYMMETRY
SYMMETRY_GENERATE

