#              Generated by Buildcell
#
# at 09:38:57 (GMT+0.0) 24th November 2020
# in /lustre/scratch/uccabz1/launch_tmp
# on node-c12b-026
# by uccabz1
#
# compiler GCC version 4.9.2
# options -cpp -iprefix /lustre/shared/ucl/apps/gcc/4.9.2/bin/../lib/gcc/x86_64-unknown-linux-gnu/4.9.2/ -mtune=corei7 -march=x86-64 -g -Og
#
# seed  -422529116 -1430247064 -1529752835 -1425191386  1578949401 -1848040139 -1889816958 -1890991921  -345148408  2120459148  2048771423  1525186139
#
#      Author: C. J. Pickard (cjp20@cam.ac.uk)
#                Space group: Pmn21
#

%BLOCK LATTICE_ABC
      5.14355      5.44402      5.71396
     90.00000     90.00000     90.00000
%ENDBLOCK LATTICE_ABC

%BLOCK POSITIONS_FRAC
  Li  -0.4149858   0.0000000   0.2010259 SPIN=   0.00000
  Li   0.4149858  -0.5000000  -0.2989741 SPIN=   0.00000
   O  -0.1117468   0.2380402   0.0702262 SPIN=   0.00000
   O  -0.6091826   0.2703115  -0.0025098 SPIN=   0.00000
   O   0.1117468   0.2619598  -0.4297738 SPIN=   0.00000
   O   0.6091826   0.2296885  -0.5025098 SPIN=   0.00000
   O   0.1117468  -0.2619598  -0.4297738 SPIN=   0.00000
   O   0.6091826  -0.2296885  -0.5025098 SPIN=   0.00000
   O  -0.1117468  -0.2380402   0.0702262 SPIN=   0.00000
   O  -0.6091826  -0.2703115  -0.0025098 SPIN=   0.00000
   P  -0.0861358  -0.5000000  -0.1609580 SPIN=   0.00000
   P   0.0861358   0.0000000   0.3390420 SPIN=   0.00000
  Fe   0.0850189   0.0000000  -0.1612160 SPIN=   4.00000
  Fe  -0.0850189  -0.5000000   0.3387840 SPIN=   4.00000
%ENDBLOCK POSITIONS_FRAC

# Note: total spin =   8.00

KPOINTS_MP_SPACING 0.07

%BLOCK SPECIES_POT
QC5
%ENDBLOCK SPECIES_POT

%BLOCK HUBBARD_U
Fe d:4.0
%ENDBLOCK HUBBARD_U

SNAP_TO_SYMMETRY
SYMMETRY_GENERATE

