#              Generated by Buildcell
#
# at 17:05:44 (GMT+0.0) 26th November 2020
# in /lustre/scratch/uccabz1/launch_tmp
# on node-c12e-030
# by uccabz1
#
# compiler GCC version 4.9.2
# options -cpp -iprefix /lustre/shared/ucl/apps/gcc/4.9.2/bin/../lib/gcc/x86_64-unknown-linux-gnu/4.9.2/ -mtune=corei7 -march=x86-64 -g -Og
#
# seed -1040709619 -1179327151   270990181 -1625220452  1520696110   738460248 -1136066765   567171926  1517328066  -909056235  -250766470 -1333745078
#
#      Author: C. J. Pickard (cjp20@cam.ac.uk)
#                Space group: P-1
#

%BLOCK LATTICE_ABC
      6.37880      7.68714      8.05406
     64.74306     68.72031     67.26182
%ENDBLOCK LATTICE_ABC

%BLOCK POSITIONS_FRAC
  Li  -0.2525034   0.5160863  -0.0735317 SPIN=   0.00000
  Li   0.2525034  -0.5160863   0.0735317 SPIN=   0.00000
  Li  -0.2137968   0.1142517  -0.0816955 SPIN=   0.00000
  Li   0.2137968  -0.1142517   0.0816955 SPIN=   0.00000
   O   0.3546771  -0.6907374   0.4531949 SPIN=   0.00000
   O   0.0422760  -0.3573285   0.3397184 SPIN=   0.00000
   O   0.3260400  -0.3582408   0.4827677 SPIN=   0.00000
   O   0.4618225  -0.3928349   0.1621955 SPIN=   0.00000
   P   0.3012717  -0.4619428   0.3621315 SPIN=   0.00000
   O  -0.3546771   0.6907374  -0.4531949 SPIN=   0.00000
   O  -0.0422760   0.3573285  -0.3397184 SPIN=   0.00000
   O  -0.3260400   0.3582408  -0.4827677 SPIN=   0.00000
   O  -0.4618225   0.3928349  -0.1621955 SPIN=   0.00000
   P  -0.3012717   0.4619428  -0.3621315 SPIN=   0.00000
   O   0.0723583   0.3004213   0.3166960 SPIN=   0.00000
   O   0.2956241   0.1603570   0.0389277 SPIN=   0.00000
   O   0.4412958  -0.0045689   0.3300018 SPIN=   0.00000
   O   0.0657290  -0.0407315   0.3337973 SPIN=   0.00000
   P   0.2091512   0.1126285   0.2590799 SPIN=   0.00000
   O  -0.0723583  -0.3004213  -0.3166960 SPIN=   0.00000
   O  -0.2956241  -0.1603570  -0.0389277 SPIN=   0.00000
   O  -0.4412958   0.0045689  -0.3300018 SPIN=   0.00000
   O  -0.0657290   0.0407315  -0.3337973 SPIN=   0.00000
   P  -0.2091512  -0.1126285  -0.2590799 SPIN=   0.00000
  Fe   0.2966582   0.3097709  -0.2482857 SPIN=   3.43111
  Fe  -0.2966582  -0.3097709   0.2482857 SPIN=   3.43111
  Fe  -0.2735974   0.1463847   0.3286347 SPIN=   4.56889
  Fe   0.2735974  -0.1463847  -0.3286347 SPIN=   4.56889
%ENDBLOCK POSITIONS_FRAC

# Note: total spin =  16.00

KPOINTS_MP_SPACING 0.07

%BLOCK SPECIES_POT
QC5
%ENDBLOCK SPECIES_POT

%BLOCK HUBBARD_U
Fe d:4.0
%ENDBLOCK HUBBARD_U

SNAP_TO_SYMMETRY
SYMMETRY_GENERATE

