#              Generated by Buildcell
#
# at 07:40:43 (GMT+0.0) 24th November 2020
# in /lustre/scratch/uccabz1/launch_tmp
# on node-c12k-029
# by uccabz1
#
# compiler GCC version 4.9.2
# options -cpp -iprefix /lustre/shared/ucl/apps/gcc/4.9.2/bin/../lib/gcc/x86_64-unknown-linux-gnu/4.9.2/ -mtune=corei7 -march=x86-64 -g -Og
#
# seed -1590110629  -815494101 -1665696279  1710740239  -658606083   387023348  1959890607   772766525 -1647779838   598460870   499690643  -236764343
#
#      Author: C. J. Pickard (cjp20@cam.ac.uk)
#                Space group: Pmn21
#

%BLOCK LATTICE_ABC
      5.23490      5.33613      5.72777
     90.00000     90.00000     90.00000
%ENDBLOCK LATTICE_ABC

%BLOCK POSITIONS_FRAC
  Li  -0.1348641   0.0000000   0.4749542 SPIN=   0.00000
  Li   0.3651359  -0.5000000  -0.4749542 SPIN=   0.00000
   O   0.1141378  -0.2314393  -0.3313887 SPIN=   0.00000
   O  -0.3079752  -0.2685607  -0.0953483 SPIN=   0.00000
   O   0.6141378  -0.2685607   0.3313887 SPIN=   0.00000
   O   0.1920248  -0.2314393   0.0953483 SPIN=   0.00000
   O   0.6141378   0.2685607   0.3313887 SPIN=   0.00000
   O   0.1920248   0.2314393   0.0953483 SPIN=   0.00000
   O   0.1141378   0.2314393  -0.3313887 SPIN=   0.00000
   O  -0.3079752   0.2685607  -0.0953483 SPIN=   0.00000
   P   0.3651332   0.0000000   0.3666643 SPIN=   0.00000
   P  -0.1348668   0.5000000  -0.3666643 SPIN=   0.00000
  Fe  -0.0997191   0.5000000   0.1333329 SPIN=   4.00000
  Fe   0.4002809   0.0000000  -0.1333329 SPIN=   4.00000
%ENDBLOCK POSITIONS_FRAC

# Note: total spin =   8.00

KPOINTS_MP_SPACING 0.07

%BLOCK SPECIES_POT
QC5
%ENDBLOCK SPECIES_POT

%BLOCK HUBBARD_U
Fe d:4.0
%ENDBLOCK HUBBARD_U

SNAP_TO_SYMMETRY
SYMMETRY_GENERATE

