#              Generated by Buildcell
#
# at 08:57:56 (GMT+0.0) 26th November 2020
# in /lustre/scratch/uccabz1/launch_tmp
# on node-c12c-020
# by uccabz1
#
# compiler GCC version 4.9.2
# options -cpp -iprefix /lustre/shared/ucl/apps/gcc/4.9.2/bin/../lib/gcc/x86_64-unknown-linux-gnu/4.9.2/ -mtune=corei7 -march=x86-64 -g -Og
#
# seed  -924094917  1509867161 -1413079599   604854990  -454744102  -184925599  1138976228 -2138292556   -42371698   336778571   217392714 -1707221975
#
#      Author: C. J. Pickard (cjp20@cam.ac.uk)
#                Space group: C2/c
#

%BLOCK LATTICE_ABC
      5.30372      8.18629      8.18629
     82.80191     71.63108     71.63108
%ENDBLOCK LATTICE_ABC

%BLOCK POSITIONS_FRAC
  Li   0.0729734  -0.0878341  -0.2301748 SPIN=   0.00000
  Li  -0.5729734   0.2301748   0.0878341 SPIN=   0.00000
  Li  -0.0729734   0.0878341   0.2301748 SPIN=   0.00000
  Li   0.5729734  -0.2301748  -0.0878341 SPIN=   0.00000
   O  -0.6390575  -0.0118758   0.1492658 SPIN=   0.00000
   O  -0.6024103  -0.2644316   0.3752643 SPIN=   0.00000
   O  -0.3437979  -0.0566409   0.3601335 SPIN=   0.00000
   P  -0.6164361  -0.0696911   0.3315273 SPIN=   0.00000
   O   0.1390575  -0.1492658   0.0118758 SPIN=   0.00000
   O   0.1024103  -0.3752643   0.2644316 SPIN=   0.00000
   O  -0.1562021  -0.3601335   0.0566409 SPIN=   0.00000
   P   0.1164361  -0.3315273   0.0696911 SPIN=   0.00000
   O   0.6390575   0.0118758  -0.1492658 SPIN=   0.00000
   O   0.6024103   0.2644316  -0.3752643 SPIN=   0.00000
   O   0.3437979   0.0566409  -0.3601335 SPIN=   0.00000
   P   0.6164361   0.0696911  -0.3315273 SPIN=   0.00000
   O  -0.1390575   0.1492658  -0.0118758 SPIN=   0.00000
   O  -0.1024103   0.3752643  -0.2644316 SPIN=   0.00000
   O   0.1562021   0.3601335  -0.0566409 SPIN=   0.00000
   P  -0.1164361   0.3315273  -0.0696911 SPIN=   0.00000
   O  -0.2500000  -0.4837301   0.4837301 SPIN=   0.00000
   O   0.2500000   0.4837301  -0.4837301 SPIN=   0.00000
   O  -0.5000000   0.5000000   0.0000000 SPIN=   0.00000
   O  -1.0000000  -0.0000000   0.5000000 SPIN=   0.00000
  Fe  -0.1189533  -0.2460921   0.4954637 SPIN=   4.00000
  Fe   0.6189533  -0.4954637   0.2460921 SPIN=   4.00000
  Fe   0.1189533   0.2460921  -0.4954637 SPIN=   4.00000
  Fe  -0.6189533   0.4954637  -0.2460921 SPIN=   4.00000
%ENDBLOCK POSITIONS_FRAC

# Note: total spin =  16.00

KPOINTS_MP_SPACING 0.07

%BLOCK SPECIES_POT
QC5
%ENDBLOCK SPECIES_POT

%BLOCK HUBBARD_U
Fe d:4.0
%ENDBLOCK HUBBARD_U

SNAP_TO_SYMMETRY
SYMMETRY_GENERATE

