#              Generated by Buildcell
#
# at 07:42:52 (GMT+0.0) 24th November 2020
# in /scratch/scratch/uccabz1/launch_tmp
# on node-a14e-014
# by uccabz1
#
# compiler GCC version 4.9.2
# options -cpp -iprefix /scratch/UCL/applications/gcc/4.9.2/bin/../lib/gcc/x86_64-unknown-linux-gnu/4.9.2/ -mtune=corei7 -march=x86-64 -g -O2
#
# seed   -79339535 -1024796544  1766223058  -754618454   510171113 -1630123341  1492553592  -856410496 -1667281613   491753126  1107547513 -1238194278
#
#      Author: C. J. Pickard (cjp20@cam.ac.uk)
#                Space group: Cm
#

%BLOCK LATTICE_ABC
      3.97597      6.44183      6.44183
     93.93912     99.22367     99.22367
%ENDBLOCK LATTICE_ABC

%BLOCK POSITIONS_FRAC
  Li   0.3708978   0.4314537   0.4314537 SPIN=   0.00000
  Li   0.1722699   0.0035678   0.0035678 SPIN=   0.00000
   O  -0.3269574   0.1887527  -0.5505370 SPIN=   0.00000
   O  -0.7746790   0.2546111  -0.3115456 SPIN=   0.00000
   O  -0.2690091   0.1019429  -0.1598068 SPIN=   0.00000
   O  -0.1862779   0.4803685  -0.2382696 SPIN=   0.00000
   O  -0.3269574  -0.5505370   0.1887527 SPIN=   0.00000
   O  -0.7746790  -0.3115456   0.2546111 SPIN=   0.00000
   O  -0.2690091  -0.1598068   0.1019429 SPIN=   0.00000
   O  -0.1862779  -0.2382696   0.4803685 SPIN=   0.00000
   P  -0.2224357   0.2135466   0.2135466 SPIN=   0.00000
   P  -0.1902876  -0.2906144  -0.2906144 SPIN=   0.00000
  Fe   0.3148523  -0.4930934  -0.0661161 SPIN=   4.00000
  Fe   0.3148523  -0.0661161  -0.4930934 SPIN=   4.00000
%ENDBLOCK POSITIONS_FRAC

# Note: total spin =   8.00

KPOINTS_MP_SPACING 0.07

%BLOCK SPECIES_POT
QC5
%ENDBLOCK SPECIES_POT

%BLOCK HUBBARD_U
Fe d:4.0
%ENDBLOCK HUBBARD_U

SNAP_TO_SYMMETRY
SYMMETRY_GENERATE

