#              Generated by Buildcell
#
# at 15:11:54 (GMT+0.0) 26th November 2020
# in /scratch/scratch/uccabz1/launch_tmp
# on node-k10b-007
# by uccabz1
#
# compiler GCC version 4.9.2
# options -cpp -iprefix /scratch/UCL/applications/gcc/4.9.2/bin/../lib/gcc/x86_64-unknown-linux-gnu/4.9.2/ -mtune=corei7 -march=x86-64 -g -O2
#
# seed -1005652108  1836564344 -2134320657 -1895151449  1352883753  1873675259  -178588195   362992583  -814247824   625639574 -1815337642  1883750738
#
#      Author: C. J. Pickard (cjp20@cam.ac.uk)
#                Space group: Cc
#

%BLOCK LATTICE_ABC
      6.19256      6.19256      9.45622
     87.83227     87.83227     62.04469
%ENDBLOCK LATTICE_ABC

%BLOCK POSITIONS_FRAC
  Li   0.1339121   0.3491465  -0.0688930 SPIN=   0.00000
  Li   0.3491465   0.1339121   0.4311070 SPIN=   0.00000
  Li   0.4914073  -0.4808731   0.4998108 SPIN=   0.00000
  Li  -0.4808731   0.4914073  -0.0001892 SPIN=   0.00000
   O   0.1731102  -0.3878885   0.1000114 SPIN=   0.00000
   O   0.1473363  -0.4560763   0.3716080 SPIN=   0.00000
   O   0.4943680  -0.4011200   0.2738147 SPIN=   0.00000
   O   0.0736153  -0.0444372   0.2771413 SPIN=   0.00000
   P   0.2177462  -0.3225885   0.2476109 SPIN=   0.00000
   O  -0.3878885   0.1731102  -0.3999886 SPIN=   0.00000
   O  -0.4560763   0.1473363  -0.1283920 SPIN=   0.00000
   O  -0.4011200   0.4943680  -0.2261853 SPIN=   0.00000
   O  -0.0444372   0.0736153  -0.2228587 SPIN=   0.00000
   P  -0.3225885   0.2177462  -0.2523891 SPIN=   0.00000
   O   0.1702011  -0.3014075  -0.3756807 SPIN=   0.00000
   O  -0.1189854  -0.3409403  -0.1820089 SPIN=   0.00000
   O  -0.1766026  -0.4076387  -0.4306420 SPIN=   0.00000
   O   0.1918300  -0.7172277  -0.3029238 SPIN=   0.00000
   P   0.0268565  -0.4375784  -0.3253940 SPIN=   0.00000
   O  -0.3014075   0.1702011   0.1243193 SPIN=   0.00000
   O  -0.3409403  -0.1189854   0.3179911 SPIN=   0.00000
   O  -0.4076387  -0.1766026   0.0693580 SPIN=   0.00000
   O  -0.7172277   0.1918300   0.1970762 SPIN=   0.00000
   P  -0.4375784   0.0268565   0.1746060 SPIN=   0.00000
  Fe  -0.0416398  -0.0689800  -0.0182760 SPIN=   3.29402
  Fe  -0.0689800  -0.0416398   0.4817240 SPIN=   3.29402
  Fe   0.4955631  -0.1291556  -0.2548563 SPIN=   4.70598
  Fe  -0.1291556   0.4955631   0.2451437 SPIN=   4.70598
%ENDBLOCK POSITIONS_FRAC

# Note: total spin =  16.00

KPOINTS_MP_SPACING 0.07

%BLOCK SPECIES_POT
QC5
%ENDBLOCK SPECIES_POT

%BLOCK HUBBARD_U
Fe d:4.0
%ENDBLOCK HUBBARD_U

SNAP_TO_SYMMETRY
SYMMETRY_GENERATE

