#              Generated by Buildcell
#
# at 10:03:23 (GMT+0.0) 24th November 2020
# in /lustre/scratch/uccabz1/launch_tmp
# on node-c12h-022
# by uccabz1
#
# compiler GCC version 4.9.2
# options -cpp -iprefix /lustre/shared/ucl/apps/gcc/4.9.2/bin/../lib/gcc/x86_64-unknown-linux-gnu/4.9.2/ -mtune=corei7 -march=x86-64 -g -Og
#
# seed  -273552963 -1523579919  -759458897  -414906270 -1808195976 -1213847274   159158931 -1504363395   854145000  -633708233  -894501062  -297109976
#
#      Author: C. J. Pickard (cjp20@cam.ac.uk)
#                Space group: P21212
#

%BLOCK LATTICE_ABC
      4.48562      5.38371      6.62534
     90.00000     90.00000     90.00000
%ENDBLOCK LATTICE_ABC

%BLOCK POSITIONS_FRAC
  Li  -0.5000000   0.0000000  -0.1120082 SPIN=   0.00000
  Li  -0.0000000  -0.5000000   0.1120082 SPIN=   0.00000
   O   0.3713794   0.2976723   0.1944658 SPIN=   0.00000
   O   0.1524220   0.6891724   0.3693703 SPIN=   0.00000
   O  -0.3713794  -0.2976723   0.1944658 SPIN=   0.00000
   O  -0.1524220  -0.6891724   0.3693703 SPIN=   0.00000
   O  -0.1286206   0.2023277  -0.1944658 SPIN=   0.00000
   O  -0.3475780  -0.1891724  -0.3693703 SPIN=   0.00000
   O   0.1286206  -0.2023277  -0.1944658 SPIN=   0.00000
   O   0.3475780   0.1891724  -0.3693703 SPIN=   0.00000
   P  -0.0000000  -0.0000000   0.1088991 SPIN=   0.00000
   P   0.5000000  -0.5000000  -0.1088991 SPIN=   0.00000
  Fe  -0.0000000  -0.5000000  -0.3765279 SPIN=   4.00000
  Fe   0.5000000   0.0000000   0.3765279 SPIN=   4.00000
%ENDBLOCK POSITIONS_FRAC

# Note: total spin =   8.00

KPOINTS_MP_SPACING 0.07

%BLOCK SPECIES_POT
QC5
%ENDBLOCK SPECIES_POT

%BLOCK HUBBARD_U
Fe d:4.0
%ENDBLOCK HUBBARD_U

SNAP_TO_SYMMETRY
SYMMETRY_GENERATE

