#              Generated by Buildcell
#
# at 16:23:15 (GMT+0.0) 26th November 2020
# in /scratch/scratch/uccabz1/launch_tmp
# on node-a14f-014
# by uccabz1
#
# compiler GCC version 4.9.2
# options -cpp -iprefix /scratch/UCL/applications/gcc/4.9.2/bin/../lib/gcc/x86_64-unknown-linux-gnu/4.9.2/ -mtune=corei7 -march=x86-64 -g -O2
#
# seed -1715504152  -790301233  -313763282   228626810    99873652  -708531710  -384616947  2076844427  2017986869 -1761047223 -1812338539  -783664363
#
#      Author: C. J. Pickard (cjp20@cam.ac.uk)
#                Space group: Cc
#

%BLOCK LATTICE_ABC
      6.29161      7.84590      8.17150
    118.12452    111.97109     91.29312
%ENDBLOCK LATTICE_ABC

%BLOCK POSITIONS_FRAC
  Li  -0.0055021  -0.4369550  -0.4757330 SPIN=   0.00000
  Li   0.4702310  -0.4612220   0.4757330 SPIN=   0.00000
  Li   0.4036381   0.2357995   0.0458434 SPIN=   0.00000
  Li   0.3577947  -0.3100439  -0.0458434 SPIN=   0.00000
   O  -0.2700335  -0.5701897   0.1655766 SPIN=   0.00000
   O  -0.2637903  -0.2726550   0.4973266 SPIN=   0.00000
   O  -0.2765292  -0.2162130   0.2212309 SPIN=   0.00000
   O  -0.6331851  -0.4232973   0.1663559 SPIN=   0.00000
   P  -0.3592606  -0.3818385   0.2563193 SPIN=   0.00000
   O   0.5643899  -0.2357663  -0.1655766 SPIN=   0.00000
   O   0.2388831  -0.2699815  -0.4973266 SPIN=   0.00000
   O   0.5022398   0.0625561  -0.2212309 SPIN=   0.00000
   O   0.2004590  -0.0896531  -0.1663559 SPIN=   0.00000
   P   0.3844201  -0.1381578  -0.2563193 SPIN=   0.00000
   O  -0.2009990   0.4446688  -0.2087290 SPIN=   0.00000
   O   0.1680619   0.3381002  -0.2598898 SPIN=   0.00000
   O   0.0529254   0.2667246  -0.0366208 SPIN=   0.00000
   O  -0.1982904   0.0754747  -0.4183856 SPIN=   0.00000
   P  -0.0547183   0.2875155  -0.2319379 SPIN=   0.00000
   O   0.0077300   0.1533977   0.2087290 SPIN=   0.00000
   O   0.4279517   0.0979900   0.2598898 SPIN=   0.00000
   O   0.0895461  -0.1966547   0.0366208 SPIN=   0.00000
   O   0.2200952  -0.0061398   0.4183856 SPIN=   0.00000
   P   0.1772196   0.0194534   0.2319379 SPIN=   0.00000
  Fe  -0.2182837   0.0888994   0.3262962 SPIN=   4.62592
  Fe   0.4554201   0.2626032  -0.3262962 SPIN=   4.62592
  Fe   0.0354873  -0.3796812   0.1628367 SPIN=   3.37408
  Fe  -0.1273494  -0.0425180  -0.1628367 SPIN=   3.37408
%ENDBLOCK POSITIONS_FRAC

# Note: total spin =  16.00

KPOINTS_MP_SPACING 0.07

%BLOCK SPECIES_POT
QC5
%ENDBLOCK SPECIES_POT

%BLOCK HUBBARD_U
Fe d:4.0
%ENDBLOCK HUBBARD_U

SNAP_TO_SYMMETRY
SYMMETRY_GENERATE

