#              Generated by Buildcell
#
# at 10:34:38 (GMT+0.0) 24th November 2020
# in /scratch/scratch/uccabz1/launch_tmp
# on node-k10c-005
# by uccabz1
#
# compiler GCC version 4.9.2
# options -cpp -iprefix /scratch/UCL/applications/gcc/4.9.2/bin/../lib/gcc/x86_64-unknown-linux-gnu/4.9.2/ -mtune=corei7 -march=x86-64 -g -O2
#
# seed  1639431297 -1180549626  1341089179  1302803832  -242735319 -1150337430 -1478997448  1336324555  -243474911 -2014603584   341394974 -1715680712
#
#      Author: C. J. Pickard (cjp20@cam.ac.uk)
#                Space group: C2
#

%BLOCK LATTICE_ABC
      5.13861      5.13861      6.24256
     92.34330     92.34330    103.40020
%ENDBLOCK LATTICE_ABC

%BLOCK POSITIONS_FRAC
  Li  -0.4939263   0.3133966  -0.2305383 SPIN=   0.00000
  Li  -0.3133966   0.4939263   0.2305383 SPIN=   0.00000
   O  -0.1120305  -0.5057158  -0.4690970 SPIN=   0.00000
   O  -0.0865843  -0.5538806  -0.0565628 SPIN=   0.00000
   O   0.1701148  -0.1368222  -0.2017646 SPIN=   0.00000
   O  -0.3305246  -0.2277890  -0.2074004 SPIN=   0.00000
   O   0.5057158   0.1120305   0.4690970 SPIN=   0.00000
   O   0.5538806   0.0865843   0.0565628 SPIN=   0.00000
   O   0.1368222  -0.1701148   0.2017646 SPIN=   0.00000
   O   0.2277890   0.3305246   0.2074004 SPIN=   0.00000
   P  -0.1534819   0.1534819   0.5000000 SPIN=   0.00000
   P   0.3148967  -0.3148967   0.0000000 SPIN=   0.00000
  Fe  -0.0490754   0.0490754  -0.0000000 SPIN=   0.51766
  Fe   0.2645497  -0.2645497  -0.5000000 SPIN=   7.48234
%ENDBLOCK POSITIONS_FRAC

# Note: total spin =   8.00

KPOINTS_MP_SPACING 0.07

%BLOCK SPECIES_POT
QC5
%ENDBLOCK SPECIES_POT

%BLOCK HUBBARD_U
Fe d:4.0
%ENDBLOCK HUBBARD_U

SNAP_TO_SYMMETRY
SYMMETRY_GENERATE

