#              Generated by Buildcell
#
# at 10:42:07 (GMT+0.0) 24th November 2020
# in /scratch/scratch/uccabz1/launch_tmp
# on node-a14b-007
# by uccabz1
#
# compiler GCC version 4.9.2
# options -cpp -iprefix /scratch/UCL/applications/gcc/4.9.2/bin/../lib/gcc/x86_64-unknown-linux-gnu/4.9.2/ -mtune=corei7 -march=x86-64 -g -O2
#
# seed  -951657100  1782718667  -480809205   285315570   535895961 -1103998858  1606571644  1576757768 -1495547610   346587649 -1051043818 -1943363753
#
#      Author: C. J. Pickard (cjp20@cam.ac.uk)
#                Space group: Fdd2
#

%BLOCK LATTICE_ABC
      5.63798      5.63798      6.36582
    104.08044    104.08044    116.78334
%ENDBLOCK LATTICE_ABC

%BLOCK POSITIONS_FRAC
  Li   0.1957454  -0.1957454  -0.0000000 SPIN=   0.00000
  Li  -0.5542546  -0.4457454   0.5000000 SPIN=   0.00000
   O   0.1429309   0.5912694   0.2477366 SPIN=   0.00000
   O   0.1228638   0.3792572  -0.1717316 SPIN=   0.00000
   O  -0.5912694  -0.1429309  -0.2477366 SPIN=   0.00000
   O  -0.3792572  -0.1228638   0.1717316 SPIN=   0.00000
   O  -0.0935328  -0.1451944  -0.2522634 SPIN=   0.00000
   O  -0.3009888  -0.5445954  -0.6717316 SPIN=   0.00000
   O   0.1451944   0.0935328   0.2522634 SPIN=   0.00000
   O   0.5445954   0.3009888   0.6717316 SPIN=   0.00000
   P   0.5436107   0.4563893  -0.0000000 SPIN=   0.00000
   P  -0.2063893   0.2063893   0.5000000 SPIN=   0.00000
  Fe  -0.1489029   0.1489029  -0.0000000 SPIN=   4.00000
  Fe   0.1010971  -0.1010971  -0.5000000 SPIN=   4.00000
%ENDBLOCK POSITIONS_FRAC

# Note: total spin =   8.00

KPOINTS_MP_SPACING 0.07

%BLOCK SPECIES_POT
QC5
%ENDBLOCK SPECIES_POT

%BLOCK HUBBARD_U
Fe d:4.0
%ENDBLOCK HUBBARD_U

SNAP_TO_SYMMETRY
SYMMETRY_GENERATE

