#              Generated by Buildcell
#
# at 14:33:05 (GMT+0.0) 26th November 2020
# in /lustre/scratch/uccabz1/launch_tmp
# on node-c12n-022
# by uccabz1
#
# compiler GCC version 4.9.2
# options -cpp -iprefix /lustre/shared/ucl/apps/gcc/4.9.2/bin/../lib/gcc/x86_64-unknown-linux-gnu/4.9.2/ -mtune=corei7 -march=x86-64 -g -Og
#
# seed -1804986284 -2076808833   440750505 -2036428138   283331982 -1286940948  2000490499   453355637  1518138992  1863392233   276254148  -256112297
#
#      Author: C. J. Pickard (cjp20@cam.ac.uk)
#                Space group: C2
#

%BLOCK LATTICE_ABC
      6.05769      6.77531      8.96028
    112.21447    108.42585     90.00000
%ENDBLOCK LATTICE_ABC

%BLOCK POSITIONS_FRAC
  Li  -0.2631613  -0.1119824  -0.0922722 SPIN=   0.00000
  Li   0.2631613  -0.0197102   0.0922722 SPIN=   0.00000
  Li  -0.1203886   0.3596470   0.1500677 SPIN=   0.00000
  Li   0.1203886   0.2095793  -0.1500677 SPIN=   0.00000
   O  -0.1992848   0.6405030   0.0084005 SPIN=   0.00000
   O  -0.2987982   0.4095569  -0.3169435 SPIN=   0.00000
   O  -0.2105279   0.2250938  -0.1181811 SPIN=   0.00000
   O  -0.5871310   0.3820857  -0.1754257 SPIN=   0.00000
   P  -0.3204045   0.4259732  -0.1423685 SPIN=   0.00000
   O   0.1992848  -0.3678975  -0.0084005 SPIN=   0.00000
   O   0.2987982  -0.2734997   0.3169435 SPIN=   0.00000
   O   0.2105279  -0.6567251   0.1181811 SPIN=   0.00000
   O   0.5871310  -0.4424886   0.1754257 SPIN=   0.00000
   P   0.3204045  -0.4316582   0.1423685 SPIN=   0.00000
   O  -0.0667238   0.0850484   0.2072332 SPIN=   0.00000
   O   0.1198157   0.1920135   0.5357222 SPIN=   0.00000
   O   0.3799619   0.1053768   0.3623034 SPIN=   0.00000
   O   0.1988827   0.4463283   0.4101250 SPIN=   0.00000
   P   0.1465022   0.2035103   0.3700776 SPIN=   0.00000
   O   0.0667238  -0.1221848  -0.2072332 SPIN=   0.00000
   O  -0.1198157  -0.3437088  -0.5357222 SPIN=   0.00000
   O  -0.3799619  -0.2569266  -0.3623034 SPIN=   0.00000
   O  -0.1988827   0.0362033  -0.4101250 SPIN=   0.00000
   P  -0.1465022  -0.1665673  -0.3700776 SPIN=   0.00000
  Fe  -0.2177476  -0.1349606   0.2769321 SPIN=   3.04368
  Fe   0.2177476  -0.4118927  -0.2769321 SPIN=   3.04368
  Fe  -0.5703189   0.0228264  -0.4066562 SPIN=   4.95632
  Fe   0.5703189   0.4294827   0.4066562 SPIN=   4.95632
%ENDBLOCK POSITIONS_FRAC

# Note: total spin =  16.00

KPOINTS_MP_SPACING 0.07

%BLOCK SPECIES_POT
QC5
%ENDBLOCK SPECIES_POT

%BLOCK HUBBARD_U
Fe d:4.0
%ENDBLOCK HUBBARD_U

SNAP_TO_SYMMETRY
SYMMETRY_GENERATE

