#              Generated by Buildcell
#
# at 18:43:12 (GMT+0.0) 26th November 2020
# in /lustre/scratch/uccabz1/launch_tmp
# on node-c12k-029
# by uccabz1
#
# compiler GCC version 4.9.2
# options -cpp -iprefix /lustre/shared/ucl/apps/gcc/4.9.2/bin/../lib/gcc/x86_64-unknown-linux-gnu/4.9.2/ -mtune=corei7 -march=x86-64 -g -Og
#
# seed  -866213673 -1102727451  -675558898  2118484642  -944314194  1525842598 -1997801904  1561197096  1271470316   701857529  1211850665  -901201220
#
#      Author: C. J. Pickard (cjp20@cam.ac.uk)
#                Space group: C2
#

%BLOCK LATTICE_ABC
      5.82674      7.87719      7.87719
     71.72577     72.92871     72.92871
%ENDBLOCK LATTICE_ABC

%BLOCK POSITIONS_FRAC
  Li   0.0502219   0.1820779  -0.4310805 SPIN=   0.00000
  Li  -0.0502219   0.4310805  -0.1820779 SPIN=   0.00000
  Li   0.5000000   0.3159703  -0.3159703 SPIN=   0.00000
  Li  -0.5000000  -0.1055386   0.1055386 SPIN=   0.00000
   O  -0.7173978   0.1610524   0.0347646 SPIN=   0.00000
   O  -0.4451867   0.1978693   0.2239626 SPIN=   0.00000
   O  -0.3024752   0.2632038  -0.1130110 SPIN=   0.00000
   O  -0.6658715   0.4779988   0.0278435 SPIN=   0.00000
   P  -0.5441365   0.2713575   0.0427473 SPIN=   0.00000
   O   0.7173978  -0.0347646  -0.1610524 SPIN=   0.00000
   O   0.4451867  -0.2239626  -0.1978693 SPIN=   0.00000
   O   0.3024752   0.1130110  -0.2632038 SPIN=   0.00000
   O   0.6658715  -0.0278435  -0.4779988 SPIN=   0.00000
   P   0.5441365  -0.0427473  -0.2713575 SPIN=   0.00000
   O  -1.0564674   0.6803294   0.1524468 SPIN=   0.00000
   O  -1.2631361   0.4686733   0.0793213 SPIN=   0.00000
   O  -0.9720694   0.3270394   0.2844990 SPIN=   0.00000
   P  -1.1654392   0.5086447   0.2258433 SPIN=   0.00000
   O   1.0564674  -0.1524468  -0.6803294 SPIN=   0.00000
   O   1.2631361  -0.0793213  -0.4686733 SPIN=   0.00000
   O   0.9720694  -0.2844990  -0.3270394 SPIN=   0.00000
   P   1.1654392  -0.2258433  -0.5086447 SPIN=   0.00000
   O   0.0000000  -0.0055592   0.0055592 SPIN=   0.00000
   O  -0.0000000   0.4800085  -0.4800085 SPIN=   0.00000
  Fe  -0.6667773   0.4984309   0.2893203 SPIN=   3.69109
  Fe   0.6667773  -0.2893203  -0.4984309 SPIN=   3.69109
  Fe  -0.0657276   0.1286177   0.2102137 SPIN=   4.30891
  Fe   0.0657276  -0.2102137  -0.1286177 SPIN=   4.30891
%ENDBLOCK POSITIONS_FRAC

# Note: total spin =  16.00

KPOINTS_MP_SPACING 0.07

%BLOCK SPECIES_POT
QC5
%ENDBLOCK SPECIES_POT

%BLOCK HUBBARD_U
Fe d:4.0
%ENDBLOCK HUBBARD_U

SNAP_TO_SYMMETRY
SYMMETRY_GENERATE

