#              Generated by Buildcell
#
# at 09:46:14 (GMT+0.0) 24th November 2020
# in /lustre/scratch/uccabz1/launch_tmp
# on node-c12m-033
# by uccabz1
#
# compiler GCC version 4.9.2
# options -cpp -iprefix /lustre/shared/ucl/apps/gcc/4.9.2/bin/../lib/gcc/x86_64-unknown-linux-gnu/4.9.2/ -mtune=corei7 -march=x86-64 -g -Og
#
# seed  -858465641   556385398  -510256331  -801306720 -1230187311 -1460253833 -1232072728    97382859  1922045483   773932449  1967183990   805683731
#
#      Author: C. J. Pickard (cjp20@cam.ac.uk)
#                Space group: P21
#

%BLOCK LATTICE_ABC
      4.43568      5.80589      6.25911
     90.00000     90.00000     96.97032
%ENDBLOCK LATTICE_ABC

%BLOCK POSITIONS_FRAC
  Li  -0.4275276   0.0520992  -0.4078834 SPIN=   0.00000
  Li   0.4275276  -0.0520992   0.0921166 SPIN=   0.00000
   O  -0.2041306   0.0637947  -0.1097657 SPIN=   0.00000
   O   0.2456677  -0.1562434  -0.2248207 SPIN=   0.00000
   O  -0.0803244  -0.3152124   0.0733054 SPIN=   0.00000
   O  -0.2869070  -0.3339356  -0.2994877 SPIN=   0.00000
   P  -0.0903820  -0.1738837  -0.1404520 SPIN=   0.00000
   O   0.2041306  -0.0637947   0.3902343 SPIN=   0.00000
   O  -0.2456677   0.1562434   0.2751793 SPIN=   0.00000
   O   0.0803244   0.3152124   0.5733054 SPIN=   0.00000
   O   0.2869070   0.3339356   0.2005123 SPIN=   0.00000
   P   0.0903820   0.1738837   0.3595480 SPIN=   0.00000
  Fe  -0.2388703  -0.4303740   0.3756911 SPIN=   4.00000
  Fe   0.2388703   0.4303740  -0.1243089 SPIN=   4.00000
%ENDBLOCK POSITIONS_FRAC

# Note: total spin =   8.00

KPOINTS_MP_SPACING 0.07

%BLOCK SPECIES_POT
QC5
%ENDBLOCK SPECIES_POT

%BLOCK HUBBARD_U
Fe d:4.0
%ENDBLOCK HUBBARD_U

SNAP_TO_SYMMETRY
SYMMETRY_GENERATE

