#              Generated by Buildcell
#
# at 09:06:41 (GMT+0.0) 24th November 2020
# in /scratch/scratch/uccabz1/launch_tmp
# on node-k10h-028
# by uccabz1
#
# compiler GCC version 4.9.2
# options -cpp -iprefix /scratch/UCL/applications/gcc/4.9.2/bin/../lib/gcc/x86_64-unknown-linux-gnu/4.9.2/ -mtune=corei7 -march=x86-64 -g -O2
#
# seed  1654946747  -909417586  -272234077   970357085     1869195 -1332380143    74503392 -1456923135  -448100525  -975666408 -2055366876  1613654241
#
#      Author: C. J. Pickard (cjp20@cam.ac.uk)
#                Space group: P21212
#

%BLOCK LATTICE_ABC
      5.25238      5.30597      5.74115
     90.00000     90.00000     90.00000
%ENDBLOCK LATTICE_ABC

%BLOCK POSITIONS_FRAC
  Li   0.0000000   0.0000000   0.0225074 SPIN=   0.00000
  Li  -0.5000000   0.5000000  -0.0225074 SPIN=   0.00000
   O  -0.2001740   0.2807179  -0.1626294 SPIN=   0.00000
   O  -0.2749842   0.6778211  -0.4183878 SPIN=   0.00000
   O   0.2001740  -0.2807179  -0.1626294 SPIN=   0.00000
   O   0.2749842  -0.6778211  -0.4183878 SPIN=   0.00000
   O  -0.2998260  -0.2192821   0.1626294 SPIN=   0.00000
   O  -0.2250158   0.1778211   0.4183878 SPIN=   0.00000
   O   0.2998260   0.2192821   0.1626294 SPIN=   0.00000
   O   0.2250158  -0.1778211   0.4183878 SPIN=   0.00000
   P   0.0000000   0.5000000  -0.1342469 SPIN=   0.00000
   P   0.5000000   0.0000000   0.1342469 SPIN=   0.00000
  Fe   0.0000000   0.5000000   0.3662273 SPIN=   4.00000
  Fe  -0.5000000   0.0000000  -0.3662273 SPIN=   4.00000
%ENDBLOCK POSITIONS_FRAC

# Note: total spin =   8.00

KPOINTS_MP_SPACING 0.07

%BLOCK SPECIES_POT
QC5
%ENDBLOCK SPECIES_POT

%BLOCK HUBBARD_U
Fe d:4.0
%ENDBLOCK HUBBARD_U

SNAP_TO_SYMMETRY
SYMMETRY_GENERATE

