#              Generated by Buildcell
#
# at 11:22:01 (GMT+0.0) 24th November 2020
# in /lustre/scratch/uccabz1/launch_tmp
# on node-c12c-026
# by uccabz1
#
# compiler GCC version 4.9.2
# options -cpp -iprefix /lustre/shared/ucl/apps/gcc/4.9.2/bin/../lib/gcc/x86_64-unknown-linux-gnu/4.9.2/ -mtune=corei7 -march=x86-64 -g -Og
#
# seed   375359527  -693449527   120148821 -1929945251  1916557772 -1930870499 -1951260227  -432894080   305750084  1054705999  -687520268  -739403594
#
#      Author: C. J. Pickard (cjp20@cam.ac.uk)
#                Space group: Aea2
#

%BLOCK LATTICE_ABC
      5.45214      5.64672      5.91444
    118.51360     90.00000     90.00000
%ENDBLOCK LATTICE_ABC

%BLOCK POSITIONS_FRAC
  Li   0.5000000   0.0239677   0.0479354 SPIN=   0.00000
  Li  -0.0000000  -0.4760323  -0.9520646 SPIN=   0.00000
   O   0.1842485   0.1161508   0.4962487 SPIN=   0.00000
   O   0.1531756   0.2187141   0.1131805 SPIN=   0.00000
   O  -0.1842485   0.3800979   0.4962487 SPIN=   0.00000
   O  -0.1531756  -0.1055337   0.1131805 SPIN=   0.00000
   O  -0.3157515  -0.1199021  -0.5037513 SPIN=   0.00000
   O  -0.3468244  -0.6055337  -0.8868195 SPIN=   0.00000
   O   0.3157515  -0.3838492  -0.5037513 SPIN=   0.00000
   O   0.3468244  -0.2812859  -0.8868195 SPIN=   0.00000
   P   0.0000000   0.1454939   0.2909878 SPIN=   0.00000
   P   0.5000000  -0.3545061  -0.7090122 SPIN=   0.00000
  Fe   0.0000000  -0.1572589  -0.3145178 SPIN=   4.00000
  Fe  -0.5000000   0.3427411   0.6854822 SPIN=   4.00000
%ENDBLOCK POSITIONS_FRAC

# Note: total spin =   8.00

KPOINTS_MP_SPACING 0.07

%BLOCK SPECIES_POT
QC5
%ENDBLOCK SPECIES_POT

%BLOCK HUBBARD_U
Fe d:4.0
%ENDBLOCK HUBBARD_U

SNAP_TO_SYMMETRY
SYMMETRY_GENERATE

