#              Generated by Buildcell
#
# at 16:50:00 (GMT+0.0) 26th November 2020
# in /scratch/scratch/uccabz1/launch_tmp
# on node-k10b-011
# by uccabz1
#
# compiler GCC version 4.9.2
# options -cpp -iprefix /scratch/UCL/applications/gcc/4.9.2/bin/../lib/gcc/x86_64-unknown-linux-gnu/4.9.2/ -mtune=corei7 -march=x86-64 -g -O2
#
# seed -1593421249  1975551427 -1829349602 -1983806018  -484039486 -1954870053  -265423719   969509284  -178440283   368295526   393812622  -668781298
#
#      Author: C. J. Pickard (cjp20@cam.ac.uk)
#                Space group: P212121
#

%BLOCK LATTICE_ABC
      4.52813      7.65421      9.23273
     90.00000     90.00000     90.00000
%ENDBLOCK LATTICE_ABC

%BLOCK POSITIONS_FRAC
  Li  -0.4745547   0.3391274  -0.0819037 SPIN=   0.00000
  Li   0.0254453   0.1608726   0.0819037 SPIN=   0.00000
  Li  -0.0254453  -0.3391274   0.4180963 SPIN=   0.00000
  Li   0.4745547  -0.1608726  -0.4180963 SPIN=   0.00000
   O  -0.4148741   0.0757210   0.0572227 SPIN=   0.00000
   O  -0.4203123   0.1018476  -0.2233275 SPIN=   0.00000
   O  -0.3295879  -0.1881562  -0.1147604 SPIN=   0.00000
   O  -0.8337595  -0.0550571  -0.0986739 SPIN=   0.00000
   P  -0.4990635  -0.0119616  -0.0868305 SPIN=   0.00000
   O   0.0851259  -0.5757210  -0.0572227 SPIN=   0.00000
   O   0.0796877  -0.6018476   0.2233275 SPIN=   0.00000
   O   0.1704121  -0.3118438   0.1147604 SPIN=   0.00000
   O  -0.3337595  -0.4449429   0.0986739 SPIN=   0.00000
   P   0.0009365  -0.4880384   0.0868305 SPIN=   0.00000
   O  -0.0851259  -0.0757210   0.5572227 SPIN=   0.00000
   O  -0.0796877  -0.1018476   0.2766725 SPIN=   0.00000
   O  -0.1704121   0.1881562   0.3852396 SPIN=   0.00000
   O   0.3337595   0.0550571   0.4013261 SPIN=   0.00000
   P  -0.0009365   0.0119616   0.4131695 SPIN=   0.00000
   O   0.4148741   0.5757210  -0.5572227 SPIN=   0.00000
   O   0.4203123   0.6018476  -0.2766725 SPIN=   0.00000
   O   0.3295879   0.3118438  -0.3852396 SPIN=   0.00000
   O   0.8337595   0.4449429  -0.4013261 SPIN=   0.00000
   P   0.4990635   0.4880384  -0.4131695 SPIN=   0.00000
  Fe  -0.4841504   0.3585498   0.2952247 SPIN=   4.00000
  Fe   0.0158496   0.1414502  -0.2952247 SPIN=   4.00000
  Fe  -0.0158496  -0.3585498  -0.2047753 SPIN=   4.00000
  Fe   0.4841504  -0.1414502   0.2047753 SPIN=   4.00000
%ENDBLOCK POSITIONS_FRAC

# Note: total spin =  16.00

KPOINTS_MP_SPACING 0.07

%BLOCK SPECIES_POT
QC5
%ENDBLOCK SPECIES_POT

%BLOCK HUBBARD_U
Fe d:4.0
%ENDBLOCK HUBBARD_U

SNAP_TO_SYMMETRY
SYMMETRY_GENERATE

