#              Generated by Buildcell
#
# at 06:05:15 (GMT+0.0) 24th November 2020
# in /lustre/scratch/uccabz1/launch_tmp
# on node-c12i-027
# by uccabz1
#
# compiler GCC version 4.9.2
# options -cpp -iprefix /lustre/shared/ucl/apps/gcc/4.9.2/bin/../lib/gcc/x86_64-unknown-linux-gnu/4.9.2/ -mtune=corei7 -march=x86-64 -g -Og
#
# seed  -548073002  -740363730  1937730261  -516043549  -856760249 -1056154578 -1225888805  -350286974 -1198386794  2112769980  -926230943   -23248727
#
#      Author: C. J. Pickard (cjp20@cam.ac.uk)
#                Space group: P21
#

%BLOCK LATTICE_ABC
      4.75741      4.78086      8.04045
     90.00000     90.00000    118.96578
%ENDBLOCK LATTICE_ABC

%BLOCK POSITIONS_FRAC
  Li  -0.0295185   0.0075198   0.1113862 SPIN=   0.00000
  Li   0.0295185  -0.0075198  -0.3886138 SPIN=   0.00000
   O   0.2838155  -0.0998305  -0.2016661 SPIN=   0.00000
   O  -0.0206116  -0.5879189  -0.3975512 SPIN=   0.00000
   O   0.5594801  -0.3845654  -0.3513172 SPIN=   0.00000
   O   0.1707124  -0.6677217  -0.1205232 SPIN=   0.00000
   P   0.2493213  -0.4199088  -0.2625074 SPIN=   0.00000
   O  -0.2838155   0.0998305   0.2983339 SPIN=   0.00000
   O   0.0206116   0.5879189   0.1024488 SPIN=   0.00000
   O  -0.5594801   0.3845654   0.1486828 SPIN=   0.00000
   O  -0.1707124   0.6677217   0.3794768 SPIN=   0.00000
   P  -0.2493213   0.4199088   0.2374926 SPIN=   0.00000
  Fe  -0.3653843   0.3440694  -0.1121860 SPIN=   4.00000
  Fe   0.3653843  -0.3440694   0.3878140 SPIN=   4.00000
%ENDBLOCK POSITIONS_FRAC

# Note: total spin =   8.00

KPOINTS_MP_SPACING 0.07

%BLOCK SPECIES_POT
QC5
%ENDBLOCK SPECIES_POT

%BLOCK HUBBARD_U
Fe d:4.0
%ENDBLOCK HUBBARD_U

SNAP_TO_SYMMETRY
SYMMETRY_GENERATE

