#              Generated by Buildcell
#
# at 11:54:42 (GMT+0.0) 24th November 2020
# in /scratch/scratch/uccabz1/launch_tmp
# on node-a14b-010
# by uccabz1
#
# compiler GCC version 4.9.2
# options -cpp -iprefix /scratch/UCL/applications/gcc/4.9.2/bin/../lib/gcc/x86_64-unknown-linux-gnu/4.9.2/ -mtune=corei7 -march=x86-64 -g -O2
#
# seed -1607052785   397213515   141914408 -1950239572  -500966189  -297259073  -849332610  -980791384  1657907538   665681016 -1021084319   289414525
#
#      Author: C. J. Pickard (cjp20@cam.ac.uk)
#                Space group: P21/c
#

%BLOCK LATTICE_ABC
      5.28304      5.60082      5.64497
     90.00000    106.68352     90.00000
%ENDBLOCK LATTICE_ABC

%BLOCK POSITIONS_FRAC
  Li   0.0000000  -0.0000000   0.0000000 SPIN=   0.00000
  Li   0.0000000  -0.5000000   0.5000000 SPIN=   0.00000
   O   0.2738282  -0.3034669   0.3491763 SPIN=   0.00000
   O   0.7250137  -0.2499609   0.2573254 SPIN=   0.00000
   O  -0.2738282   0.1965331   0.1508237 SPIN=   0.00000
   O  -0.7250137   0.2500391   0.2426746 SPIN=   0.00000
   O  -0.2738282   0.3034669  -0.3491763 SPIN=   0.00000
   O  -0.7250137   0.2499609  -0.2573254 SPIN=   0.00000
   O   0.2738282  -0.1965331  -0.1508237 SPIN=   0.00000
   O   0.7250137  -0.2500391  -0.2426746 SPIN=   0.00000
   P   0.5000000  -0.0000000   0.0000000 SPIN=   0.00000
   P   0.5000000  -0.5000000  -0.5000000 SPIN=   0.00000
  Fe   0.5000000  -0.0000000  -0.5000000 SPIN=   4.00000
  Fe  -0.5000000  -0.5000000   0.0000000 SPIN=   4.00000
%ENDBLOCK POSITIONS_FRAC

# Note: total spin =   8.00

KPOINTS_MP_SPACING 0.07

%BLOCK SPECIES_POT
QC5
%ENDBLOCK SPECIES_POT

%BLOCK HUBBARD_U
Fe d:4.0
%ENDBLOCK HUBBARD_U

SNAP_TO_SYMMETRY
SYMMETRY_GENERATE

