#              Generated by Buildcell
#
# at 11:53:42 (GMT+0.0) 24th November 2020
# in /lustre/scratch/uccabz1/launch_tmp
# on node-c12h-023
# by uccabz1
#
# compiler GCC version 4.9.2
# options -cpp -iprefix /lustre/shared/ucl/apps/gcc/4.9.2/bin/../lib/gcc/x86_64-unknown-linux-gnu/4.9.2/ -mtune=corei7 -march=x86-64 -g -Og
#
# seed -1716123820  1805241485   523378509  2014159699  1598191964 -1857270073  -210636374  -313870006  1215380179  2064005214  1834038527   119011298
#
#      Author: C. J. Pickard (cjp20@cam.ac.uk)
#                Space group: C2
#

%BLOCK LATTICE_ABC
      4.45143      4.45143      8.49905
     79.52967     79.52967     77.69597
%ENDBLOCK LATTICE_ABC

%BLOCK POSITIONS_FRAC
  Li   0.0175272   0.3587647  -0.4372950 SPIN=   0.00000
  Li  -0.3587647  -0.0175272   0.4372950 SPIN=   0.00000
   O   0.4651779   0.2099835   0.2102859 SPIN=   0.00000
   O   0.0197555  -0.0320785   0.1547952 SPIN=   0.00000
   O   0.5614482  -0.2605165   0.0542240 SPIN=   0.00000
   O   0.3695773  -0.3332016   0.3519522 SPIN=   0.00000
   P   0.3600938  -0.0899431   0.1956226 SPIN=   0.00000
   O  -0.2099835  -0.4651779  -0.2102859 SPIN=   0.00000
   O   0.0320785  -0.0197555  -0.1547952 SPIN=   0.00000
   O   0.2605165  -0.5614482  -0.0542240 SPIN=   0.00000
   O   0.3332016  -0.3695773  -0.3519522 SPIN=   0.00000
   P   0.0899431  -0.3600938  -0.1956226 SPIN=   0.00000
  Fe  -0.0432733  -0.4933115   0.1646738 SPIN=   4.00000
  Fe   0.4933115   0.0432733  -0.1646738 SPIN=   4.00000
%ENDBLOCK POSITIONS_FRAC

# Note: total spin =   8.00

KPOINTS_MP_SPACING 0.07

%BLOCK SPECIES_POT
QC5
%ENDBLOCK SPECIES_POT

%BLOCK HUBBARD_U
Fe d:4.0
%ENDBLOCK HUBBARD_U

SNAP_TO_SYMMETRY
SYMMETRY_GENERATE

