#              Generated by Buildcell
#
# at 02:03:22 (GMT+0.0) 27th November 2020
# in /lustre/scratch/uccabz1/launch_tmp
# on node-c12k-032
# by uccabz1
#
# compiler GCC version 4.9.2
# options -cpp -iprefix /lustre/shared/ucl/apps/gcc/4.9.2/bin/../lib/gcc/x86_64-unknown-linux-gnu/4.9.2/ -mtune=corei7 -march=x86-64 -g -Og
#
# seed   836988894   -31862882   384380791   526218043 -1647850001   241762534  1328952979  -243290892 -2058469736 -1500205798  1415285828  1103338302
#
#      Author: C. J. Pickard (cjp20@cam.ac.uk)
#                Space group: Iba2
#

%BLOCK LATTICE_ABC
      7.54025      7.54025      7.54025
     98.52365    112.05449    118.44364
%ENDBLOCK LATTICE_ABC

%BLOCK POSITIONS_FRAC
  Li   0.0000000  -0.1164426  -0.1164426 SPIN=   0.00000
  Li   0.0000000   0.3835574   0.3835574 SPIN=   0.00000
  Li   0.5000000  -0.1170093   0.3829907 SPIN=   0.00000
  Li   0.5000000   0.3829907  -0.1170093 SPIN=   0.00000
   O   0.3970275   0.2896175   0.0956945 SPIN=   0.00000
   O   0.2799833  -0.0791312   0.1380980 SPIN=   0.00000
   O   0.4777212   0.0262424  -0.0636253 SPIN=   0.00000
   P   0.4643230   0.1284379   0.1245144 SPIN=   0.00000
   O  -0.3970275  -0.3013331  -0.1074100 SPIN=   0.00000
   O  -0.2799833  -0.1418853  -0.3591145 SPIN=   0.00000
   O  -0.4777212  -0.5413466  -0.4514788 SPIN=   0.00000
   P  -0.4643230  -0.3398086  -0.3358851 SPIN=   0.00000
   O   0.1939230  -0.2103825   0.3925900 SPIN=   0.00000
   O  -0.2172292  -0.5791312   0.1408855 SPIN=   0.00000
   O   0.0898677  -0.4737576   0.0485212 SPIN=   0.00000
   P   0.0039235  -0.3715621   0.1641149 SPIN=   0.00000
   O  -0.1939230   0.1986669  -0.4043055 SPIN=   0.00000
   O   0.2172292   0.3581147  -0.3619020 SPIN=   0.00000
   O  -0.0898677  -0.0413466  -0.5636253 SPIN=   0.00000
   P  -0.0039235   0.1601914  -0.3754856 SPIN=   0.00000
   O  -0.5000000   0.1655412  -0.3344588 SPIN=   0.00000
   O  -0.5000000  -0.3344588   0.1655412 SPIN=   0.00000
   O  -0.0000000   0.1178601   0.1178601 SPIN=   0.00000
   O  -0.0000000  -0.3821399  -0.3821399 SPIN=   0.00000
  Fe  -0.1914570   0.1923951  -0.1163476 SPIN=   4.00000
  Fe   0.1914570   0.0751094   0.3838521 SPIN=   4.00000
  Fe   0.3087426  -0.3076049  -0.1161479 SPIN=   4.00000
  Fe  -0.3087426  -0.4248906   0.3836524 SPIN=   4.00000
%ENDBLOCK POSITIONS_FRAC

# Note: total spin =  16.00

KPOINTS_MP_SPACING 0.07

%BLOCK SPECIES_POT
QC5
%ENDBLOCK SPECIES_POT

%BLOCK HUBBARD_U
Fe d:4.0
%ENDBLOCK HUBBARD_U

SNAP_TO_SYMMETRY
SYMMETRY_GENERATE

