#              Generated by Buildcell
#
# at 05:59:54 (GMT+0.0) 24th November 2020
# in /scratch/scratch/uccabz1/launch_tmp
# on node-k10e-028
# by uccabz1
#
# compiler GCC version 4.9.2
# options -cpp -iprefix /scratch/UCL/applications/gcc/4.9.2/bin/../lib/gcc/x86_64-unknown-linux-gnu/4.9.2/ -mtune=corei7 -march=x86-64 -g -O2
#
# seed -1913582595  -857328988  -790070117 -1055641914 -1541688528  -312221872   189152080  -261501786 -1166370236 -2031218249  1239792324 -1059709795
#
#      Author: C. J. Pickard (cjp20@cam.ac.uk)
#                Space group: P2/c
#

%BLOCK LATTICE_ABC
      3.91210      5.70018      7.24490
     90.00000     90.00000     97.96506
%ENDBLOCK LATTICE_ABC

%BLOCK POSITIONS_FRAC
  Li  -0.2500000   0.2500000  -0.1207475 SPIN=   0.00000
  Li   0.2500000  -0.2500000   0.1207475 SPIN=   0.00000
   O  -0.2153760  -0.0290004   0.1291901 SPIN=   0.00000
   O   0.2463888  -0.0334636   0.3864284 SPIN=   0.00000
   O   0.7153760   0.5290004   0.1291901 SPIN=   0.00000
   O   0.2536112   0.5334636   0.3864284 SPIN=   0.00000
   O   0.2153760   0.0290004  -0.1291901 SPIN=   0.00000
   O  -0.2463888   0.0334636  -0.3864284 SPIN=   0.00000
   O  -0.7153760  -0.5290004  -0.1291901 SPIN=   0.00000
   O  -0.2536112  -0.5334636  -0.3864284 SPIN=   0.00000
   P   0.2500000   0.2500000  -0.3749309 SPIN=   0.00000
   P  -0.2500000  -0.2500000   0.3749309 SPIN=   0.00000
  Fe  -0.2500000   0.2500000   0.3353982 SPIN=   4.00000
  Fe   0.2500000   0.7500000  -0.3353982 SPIN=   4.00000
%ENDBLOCK POSITIONS_FRAC

# Note: total spin =   8.00

KPOINTS_MP_SPACING 0.07

%BLOCK SPECIES_POT
QC5
%ENDBLOCK SPECIES_POT

%BLOCK HUBBARD_U
Fe d:4.0
%ENDBLOCK HUBBARD_U

SNAP_TO_SYMMETRY
SYMMETRY_GENERATE

