#              Generated by Buildcell
#
# at 12:13:38 (GMT+0.0) 24th November 2020
# in /lustre/scratch/uccabz1/launch_tmp
# on node-c12d-031
# by uccabz1
#
# compiler GCC version 4.9.2
# options -cpp -iprefix /lustre/shared/ucl/apps/gcc/4.9.2/bin/../lib/gcc/x86_64-unknown-linux-gnu/4.9.2/ -mtune=corei7 -march=x86-64 -g -Og
#
# seed  -983121364  -112587802   790164498  1341958904  1889802052 -2131776057  -830118913 -1018912454  1756371169 -1663367990  -329811597   459851083
#
#      Author: C. J. Pickard (cjp20@cam.ac.uk)
#                Space group: Pma2
#

%BLOCK LATTICE_ABC
      3.88538      4.31724      9.53849
     90.00000     90.00000     90.00000
%ENDBLOCK LATTICE_ABC

%BLOCK POSITIONS_FRAC
  Li   0.0825905   0.4986777   0.2500000 SPIN=   0.00000
  Li   0.0825905  -0.4986777  -0.2500000 SPIN=   0.00000
   O  -0.6691383  -0.1306177  -0.3839721 SPIN=   0.00000
   O  -0.3278041  -0.6480004  -0.3794668 SPIN=   0.00000
   O  -0.6691383   0.1306177   0.3839721 SPIN=   0.00000
   O  -0.3278041   0.6480004   0.3794668 SPIN=   0.00000
   O  -0.6691383   0.1306177   0.1160279 SPIN=   0.00000
   O  -0.3278041   0.6480004   0.1205332 SPIN=   0.00000
   O  -0.6691383  -0.1306177  -0.1160279 SPIN=   0.00000
   O  -0.3278041  -0.6480004  -0.1205332 SPIN=   0.00000
   P   0.4931733   0.0025937  -0.2500000 SPIN=   0.00000
   P   0.4931733  -0.0025937   0.2500000 SPIN=   0.00000
  Fe  -0.1032162   0.0000000  -0.0000000 SPIN=   4.00000
  Fe  -0.1032162   0.0000000  -0.5000000 SPIN=   4.00000
%ENDBLOCK POSITIONS_FRAC

# Note: total spin =   8.00

KPOINTS_MP_SPACING 0.07

%BLOCK SPECIES_POT
QC5
%ENDBLOCK SPECIES_POT

%BLOCK HUBBARD_U
Fe d:4.0
%ENDBLOCK HUBBARD_U

SNAP_TO_SYMMETRY
SYMMETRY_GENERATE

