#              Generated by Buildcell
#
# at 00:44:12 (GMT+0.0) 27th November 2020
# in /lustre/scratch/uccabz1/launch_tmp
# on node-c12g-027
# by uccabz1
#
# compiler GCC version 4.9.2
# options -cpp -iprefix /lustre/shared/ucl/apps/gcc/4.9.2/bin/../lib/gcc/x86_64-unknown-linux-gnu/4.9.2/ -mtune=corei7 -march=x86-64 -g -Og
#
# seed  -577317820   531145337   946233470  1275518397  1397492872   730584310  -748231198 -1501384678  2048881018 -1948012192   193278598  -593955545
#
#      Author: C. J. Pickard (cjp20@cam.ac.uk)
#                Space group: P-1
#

%BLOCK LATTICE_ABC
      4.44620      7.08127     10.47212
     77.39385     85.68692     84.99141
%ENDBLOCK LATTICE_ABC

%BLOCK POSITIONS_FRAC
  Li  -0.2825970  -0.1606142  -0.0331683 SPIN=   0.00000
  Li   0.2825970   0.1606142   0.0331683 SPIN=   0.00000
  Li  -0.1180453  -0.3072023  -0.4785207 SPIN=   0.00000
  Li   0.1180453   0.3072023   0.4785207 SPIN=   0.00000
   O  -0.5208348   0.2792742   0.2140639 SPIN=   0.00000
   O  -0.3214964   0.1501483   0.4463345 SPIN=   0.00000
   O  -0.0393290   0.3956459   0.2902118 SPIN=   0.00000
   O  -0.5472300   0.4921164   0.3865006 SPIN=   0.00000
   P  -0.3681764   0.3285542   0.3284932 SPIN=   0.00000
   O   0.5208348  -0.2792742  -0.2140639 SPIN=   0.00000
   O   0.3214964  -0.1501483  -0.4463345 SPIN=   0.00000
   O   0.0393290  -0.3956459  -0.2902118 SPIN=   0.00000
   O   0.5472300  -0.4921164  -0.3865006 SPIN=   0.00000
   P   0.3681764  -0.3285542  -0.3284932 SPIN=   0.00000
   O   0.4251807   0.0570421  -0.1518472 SPIN=   0.00000
   O  -0.1213406   0.1470734  -0.0671473 SPIN=   0.00000
   O   0.0233377   0.2627114  -0.3018469 SPIN=   0.00000
   O  -0.0398524  -0.0908242  -0.2139280 SPIN=   0.00000
   P   0.0893275   0.0898517  -0.1823535 SPIN=   0.00000
   O  -0.4251807  -0.0570421   0.1518472 SPIN=   0.00000
   O   0.1213406  -0.1470734   0.0671473 SPIN=   0.00000
   O  -0.0233377  -0.2627114   0.3018469 SPIN=   0.00000
   O   0.0398524   0.0908242   0.2139280 SPIN=   0.00000
   P  -0.0893275  -0.0898517   0.1823535 SPIN=   0.00000
  Fe  -0.2327030   0.4408629  -0.1452355 SPIN=   4.80678
  Fe   0.2327030  -0.4408629   0.1452355 SPIN=   4.80678
  Fe  -0.3780348   0.0446804  -0.3382632 SPIN=   3.19322
  Fe   0.3780348  -0.0446804   0.3382632 SPIN=   3.19322
%ENDBLOCK POSITIONS_FRAC

# Note: total spin =  16.00

KPOINTS_MP_SPACING 0.07

%BLOCK SPECIES_POT
QC5
%ENDBLOCK SPECIES_POT

%BLOCK HUBBARD_U
Fe d:4.0
%ENDBLOCK HUBBARD_U

SNAP_TO_SYMMETRY
SYMMETRY_GENERATE

