#              Generated by Buildcell
#
# at 10:34:06 (GMT+0.0) 24th November 2020
# in /lustre/scratch/uccabz1/launch_tmp
# on node-c12p-030
# by uccabz1
#
# compiler GCC version 4.9.2
# options -cpp -iprefix /lustre/shared/ucl/apps/gcc/4.9.2/bin/../lib/gcc/x86_64-unknown-linux-gnu/4.9.2/ -mtune=corei7 -march=x86-64 -g -Og
#
# seed  1396316333 -1276772470   327611184  -662660733 -1658474070   723574928  1451076264   989172433  1380650728   580173740  1091225706   893351920
#
#      Author: C. J. Pickard (cjp20@cam.ac.uk)
#                Space group: Cmc21
#

%BLOCK LATTICE_ABC
      5.23522      5.23522      6.04979
     90.00000     90.00000    105.21211
%ENDBLOCK LATTICE_ABC

%BLOCK POSITIONS_FRAC
  Li   0.4765621  -0.4765621  -0.0300083 SPIN=   0.00000
  Li  -0.4765621   0.4765621   0.4699917 SPIN=   0.00000
   O   0.0462539   0.5602068  -0.0471009 SPIN=   0.00000
   O   0.2562723   0.2621612  -0.2926138 SPIN=   0.00000
   O  -0.0462539  -0.5602068   0.4528991 SPIN=   0.00000
   O  -0.2562723  -0.2621612   0.2073862 SPIN=   0.00000
   O   0.5602068   0.0462539   0.4528991 SPIN=   0.00000
   O   0.2621612   0.2562723   0.2073862 SPIN=   0.00000
   O  -0.5602068  -0.0462539  -0.0471009 SPIN=   0.00000
   O  -0.2621612  -0.2562723  -0.2926138 SPIN=   0.00000
   P  -0.1945393   0.1945393  -0.3124768 SPIN=   0.00000
   P   0.1945393  -0.1945393   0.1875232 SPIN=   0.00000
  Fe  -0.1497932   0.1497932   0.1579051 SPIN=   4.00000
  Fe   0.1497932  -0.1497932  -0.3420949 SPIN=   4.00000
%ENDBLOCK POSITIONS_FRAC

# Note: total spin =   8.00

KPOINTS_MP_SPACING 0.07

%BLOCK SPECIES_POT
QC5
%ENDBLOCK SPECIES_POT

%BLOCK HUBBARD_U
Fe d:4.0
%ENDBLOCK HUBBARD_U

SNAP_TO_SYMMETRY
SYMMETRY_GENERATE

