#              Generated by Buildcell
#
# at 16:09:30 (GMT+0.0) 26th November 2020
# in /scratch/scratch/uccabz1/launch_tmp
# on node-k10e-036
# by uccabz1
#
# compiler GCC version 4.9.2
# options -cpp -iprefix /scratch/UCL/applications/gcc/4.9.2/bin/../lib/gcc/x86_64-unknown-linux-gnu/4.9.2/ -mtune=corei7 -march=x86-64 -g -O2
#
# seed  2017375385   410796037 -1765077067  1034388371  1575039739 -1145546091  -965021704   438237443  -799450248   219323711  -426542163  1075407460
#
#      Author: C. J. Pickard (cjp20@cam.ac.uk)
#                Space group: Aea2
#

%BLOCK LATTICE_ABC
      6.08621      7.76352      7.80601
    119.82008     90.00000     90.00000
%ENDBLOCK LATTICE_ABC

%BLOCK POSITIONS_FRAC
  Li  -0.0000000  -0.0575758   0.0000000 SPIN=   0.00000
  Li   0.5000000   0.4424242   0.0000000 SPIN=   0.00000
  Li   0.0000000   0.3992456   0.0000000 SPIN=   0.00000
  Li  -0.5000000  -0.1007544   0.0000000 SPIN=   0.00000
   O  -0.4731786  -0.0739141   0.2849349 SPIN=   0.00000
   O  -0.2080976  -0.3541376   0.0483969 SPIN=   0.00000
   O  -0.0512633  -0.0255881   0.2801687 SPIN=   0.00000
   O  -0.1980006  -0.2398613   0.4101091 SPIN=   0.00000
   P  -0.2450341  -0.1688641   0.2592680 SPIN=   0.00000
   O   0.4731786  -0.3588490  -0.2849349 SPIN=   0.00000
   O   0.2080976  -0.4025345  -0.0483969 SPIN=   0.00000
   O   0.0512633  -0.3057568  -0.2801687 SPIN=   0.00000
   O   0.1980006  -0.6499704  -0.4101091 SPIN=   0.00000
   P   0.2450341  -0.4281321  -0.2592680 SPIN=   0.00000
   O   0.0268214   0.1411510  -0.2849349 SPIN=   0.00000
   O   0.2919024   0.0974655  -0.0483969 SPIN=   0.00000
   O   0.4487367   0.1942432  -0.2801687 SPIN=   0.00000
   O   0.3019994  -0.1499704  -0.4101091 SPIN=   0.00000
   P   0.2549659   0.0718679  -0.2592680 SPIN=   0.00000
   O  -0.0268214   0.4260859   0.2849349 SPIN=   0.00000
   O  -0.2919024   0.1458624   0.0483969 SPIN=   0.00000
   O  -0.4487367   0.4744119   0.2801687 SPIN=   0.00000
   O  -0.3019994   0.2601387   0.4101091 SPIN=   0.00000
   P  -0.2549659   0.3311359   0.2592680 SPIN=   0.00000
  Fe  -0.2827918   0.0094233  -0.3206224 SPIN=   4.00000
  Fe   0.2827918   0.3300457   0.3206224 SPIN=   4.00000
  Fe   0.2172082  -0.1699543   0.3206224 SPIN=   4.00000
  Fe  -0.2172082  -0.4905767  -0.3206224 SPIN=   4.00000
%ENDBLOCK POSITIONS_FRAC

# Note: total spin =  16.00

KPOINTS_MP_SPACING 0.07

%BLOCK SPECIES_POT
QC5
%ENDBLOCK SPECIES_POT

%BLOCK HUBBARD_U
Fe d:4.0
%ENDBLOCK HUBBARD_U

SNAP_TO_SYMMETRY
SYMMETRY_GENERATE

