#              Generated by Buildcell
#
# at 09:16:58 (GMT+0.0) 24th November 2020
# in /lustre/scratch/uccabz1/launch_tmp
# on node-c12l-027
# by uccabz1
#
# compiler GCC version 4.9.2
# options -cpp -iprefix /lustre/shared/ucl/apps/gcc/4.9.2/bin/../lib/gcc/x86_64-unknown-linux-gnu/4.9.2/ -mtune=corei7 -march=x86-64 -g -Og
#
# seed   879791305   456227235  1871093237  -910537801  1404147546   911827803   295873311   232092875  1454162265  1249442611  1222495125 -1631890887
#
#      Author: C. J. Pickard (cjp20@cam.ac.uk)
#                Space group: I222
#

%BLOCK LATTICE_ABC
      5.46879      5.46908      6.60091
    114.47316    114.47177     90.00000
%ENDBLOCK LATTICE_ABC

%BLOCK POSITIONS_FRAC
  Li   0.5000000   0.0000000   1.0000000 SPIN=   0.00000
  Li   0.0000000   0.5000000  -0.0000000 SPIN=   0.00000
   O  -0.3182779  -0.3233853  -0.1645809 SPIN=   0.00000
   O   0.0383380  -0.4944338  -0.3280431 SPIN=   0.00000
   O   0.3182779  -0.1588044   0.1645809 SPIN=   0.00000
   O  -0.0383380  -0.1663908   0.3280431 SPIN=   0.00000
   O  -0.1536970   0.3233853   0.1645809 SPIN=   0.00000
   O   0.3663811   0.4944338   0.3280431 SPIN=   0.00000
   O   0.1536970   0.1588044  -0.1645809 SPIN=   0.00000
   O  -0.3663811   0.1663908  -0.3280431 SPIN=   0.00000
   P  -0.2499934   0.2500066  -0.4999867 SPIN=   0.00000
   P   0.2499934  -0.2500066   0.4999867 SPIN=   0.00000
  Fe   0.1800297   0.1800297   0.3600594 SPIN=   4.00000
  Fe  -0.1800297  -0.1800297  -0.3600594 SPIN=   4.00000
%ENDBLOCK POSITIONS_FRAC

# Note: total spin =   8.00

KPOINTS_MP_SPACING 0.07

%BLOCK SPECIES_POT
QC5
%ENDBLOCK SPECIES_POT

%BLOCK HUBBARD_U
Fe d:4.0
%ENDBLOCK HUBBARD_U

SNAP_TO_SYMMETRY
SYMMETRY_GENERATE

