#              Generated by Buildcell
#
# at 10:43:10 (GMT+0.0) 24th November 2020
# in /lustre/scratch/uccabz1/launch_tmp
# on node-c12o-036
# by uccabz1
#
# compiler GCC version 4.9.2
# options -cpp -iprefix /lustre/shared/ucl/apps/gcc/4.9.2/bin/../lib/gcc/x86_64-unknown-linux-gnu/4.9.2/ -mtune=corei7 -march=x86-64 -g -Og
#
# seed  -709647415 -2126803484 -1024290460 -1400355544  1174609500   299239976  1107145088  -699812966  -690533352  1420712757   559194057   298198000
#
#      Author: C. J. Pickard (cjp20@cam.ac.uk)
#                Space group: P-1
#

%BLOCK LATTICE_ABC
      5.08496      5.54841      6.52206
    111.84405     92.26109    107.94144
%ENDBLOCK LATTICE_ABC

%BLOCK POSITIONS_FRAC
  Li   0.1539777   0.0376637  -0.2196111 SPIN=   0.00000
  Li  -0.1539777  -0.0376637   0.2196111 SPIN=   0.00000
   O  -0.3229851  -0.1564624  -0.5049664 SPIN=   0.00000
   O  -0.1983712  -0.1987123  -0.1325490 SPIN=   0.00000
   O  -0.4123068   0.1488774  -0.1211786 SPIN=   0.00000
   O  -0.7036869  -0.3555751  -0.3029235 SPIN=   0.00000
   P  -0.4082133  -0.1438582  -0.2786027 SPIN=   0.00000
   O   0.3229851   0.1564624   0.5049664 SPIN=   0.00000
   O   0.1983712   0.1987123   0.1325490 SPIN=   0.00000
   O   0.4123068  -0.1488774   0.1211786 SPIN=   0.00000
   O   0.7036869   0.3555751   0.3029235 SPIN=   0.00000
   P   0.4082133   0.1438582   0.2786027 SPIN=   0.00000
  Fe  -0.2300816  -0.6108833  -0.2956918 SPIN=   4.00000
  Fe   0.2300816   0.6108833   0.2956918 SPIN=   4.00000
%ENDBLOCK POSITIONS_FRAC

# Note: total spin =   8.00

KPOINTS_MP_SPACING 0.07

%BLOCK SPECIES_POT
QC5
%ENDBLOCK SPECIES_POT

%BLOCK HUBBARD_U
Fe d:4.0
%ENDBLOCK HUBBARD_U

SNAP_TO_SYMMETRY
SYMMETRY_GENERATE

