#              Generated by Buildcell
#
# at 01:41:59 (GMT+0.0) 27th November 2020
# in /lustre/scratch/uccabz1/launch_tmp
# on node-c12l-026
# by uccabz1
#
# compiler GCC version 4.9.2
# options -cpp -iprefix /lustre/shared/ucl/apps/gcc/4.9.2/bin/../lib/gcc/x86_64-unknown-linux-gnu/4.9.2/ -mtune=corei7 -march=x86-64 -g -Og
#
# seed  1869260178  1346342321 -1849935840   879420208  1143245821  -410788936  1994439932 -1190642016   454770785  1985270681   236798384    37791583
#
#      Author: C. J. Pickard (cjp20@cam.ac.uk)
#                Space group: Cc
#

%BLOCK LATTICE_ABC
      5.16092      5.78221     12.33467
     78.85197     77.92430     63.49502
%ENDBLOCK LATTICE_ABC

%BLOCK POSITIONS_FRAC
  Li   0.4386138   0.4659300   0.4740496 SPIN=   0.00000
  Li  -0.3785934  -0.0340700  -0.0259504 SPIN=   0.00000
  Li   0.1269780   0.2576118  -0.3247987 SPIN=   0.00000
  Li  -0.0597911  -0.2423882   0.1752013 SPIN=   0.00000
   O  -0.6670450   0.6156314   0.2431412 SPIN=   0.00000
   O  -0.2874277   0.1641776   0.3172453 SPIN=   0.00000
   O  -0.4337426   0.2133212   0.1328579 SPIN=   0.00000
   O  -0.1237823   0.4277324   0.1558254 SPIN=   0.00000
   P  -0.3903896   0.3699373   0.2132453 SPIN=   0.00000
   O  -0.1917276   0.1156314  -0.2568588 SPIN=   0.00000
   O  -0.1939953  -0.3358224  -0.1827547 SPIN=   0.00000
   O   0.0875636  -0.2866788  -0.3671421 SPIN=   0.00000
   O  -0.4597755  -0.0722676  -0.3441746 SPIN=   0.00000
   P  -0.1927929  -0.1300627  -0.2867547 SPIN=   0.00000
   O   0.2470579  -0.0683670  -0.1595120 SPIN=   0.00000
   O   0.0302055  -0.3567890  -0.0198417 SPIN=   0.00000
   O   0.5199258  -0.4036910  -0.0023990 SPIN=   0.00000
   O   0.0782919   0.0005900   0.0488319 SPIN=   0.00000
   P   0.2187121  -0.1972288  -0.0389856 SPIN=   0.00000
   O  -0.0191789   0.4316330   0.3404880 SPIN=   0.00000
   O   0.3464252   0.1432110   0.4801583 SPIN=   0.00000
   O  -0.1138359   0.0963090   0.4976010 SPIN=   0.00000
   O  -0.1277138   0.5005900   0.5488319 SPIN=   0.00000
   P   0.0175023   0.3027712   0.4610144 SPIN=   0.00000
  Fe   0.2315935   0.1216744   0.2248104 SPIN=   4.35804
  Fe   0.4219218  -0.3783256  -0.2751896 SPIN=   4.35804
  Fe  -0.0533196   0.3495973  -0.0583920 SPIN=   3.64196
  Fe  -0.2378856  -0.1504027   0.4416080 SPIN=   3.64196
%ENDBLOCK POSITIONS_FRAC

# Note: total spin =  16.00

KPOINTS_MP_SPACING 0.07

%BLOCK SPECIES_POT
QC5
%ENDBLOCK SPECIES_POT

%BLOCK HUBBARD_U
Fe d:4.0
%ENDBLOCK HUBBARD_U

SNAP_TO_SYMMETRY
SYMMETRY_GENERATE

