#              Generated by Buildcell
#
# at 08:17:09 (GMT+0.0) 24th November 2020
# in /lustre/scratch/uccabz1/launch_tmp
# on node-c12f-026
# by uccabz1
#
# compiler GCC version 4.9.2
# options -cpp -iprefix /lustre/shared/ucl/apps/gcc/4.9.2/bin/../lib/gcc/x86_64-unknown-linux-gnu/4.9.2/ -mtune=corei7 -march=x86-64 -g -Og
#
# seed   602577449  1796174681   611354195 -1911724635   518170700  -576966999 -1757542380  1922041319 -1704322368   574566364 -1983393888  1729031871
#
#      Author: C. J. Pickard (cjp20@cam.ac.uk)
#                Space group: P-1
#

%BLOCK LATTICE_ABC
      3.92689      4.86053      8.51445
     94.40138     90.27009     99.03595
%ENDBLOCK LATTICE_ABC

%BLOCK POSITIONS_FRAC
  Li   0.2914438  -0.2809758  -0.0418331 SPIN=   0.00000
  Li  -0.2914438   0.2809758   0.0418331 SPIN=   0.00000
   O  -0.4455309  -0.0265431   0.3578863 SPIN=   0.00000
   O  -0.6100549  -0.4814566   0.1747721 SPIN=   0.00000
   O  -0.0520252  -0.1834460   0.1348919 SPIN=   0.00000
   O  -0.1332040  -0.4533915   0.3745255 SPIN=   0.00000
   P  -0.3153205  -0.2743563   0.2670487 SPIN=   0.00000
   O   0.4455309   0.0265431  -0.3578863 SPIN=   0.00000
   O   0.6100549   0.4814566  -0.1747721 SPIN=   0.00000
   O   0.0520252   0.1834460  -0.1348919 SPIN=   0.00000
   O   0.1332040   0.4533915  -0.3745255 SPIN=   0.00000
   P   0.3153205   0.2743563  -0.2670487 SPIN=   0.00000
  Fe  -0.2032538  -0.2529505  -0.3487519 SPIN=   4.00000
  Fe   0.2032538   0.2529505   0.3487519 SPIN=   4.00000
%ENDBLOCK POSITIONS_FRAC

# Note: total spin =   8.00

KPOINTS_MP_SPACING 0.07

%BLOCK SPECIES_POT
QC5
%ENDBLOCK SPECIES_POT

%BLOCK HUBBARD_U
Fe d:4.0
%ENDBLOCK HUBBARD_U

SNAP_TO_SYMMETRY
SYMMETRY_GENERATE

