#              Generated by Buildcell
#
# at 06:36:22 (GMT+0.0) 24th November 2020
# in /lustre/scratch/uccabz1/launch_tmp
# on node-c12o-022
# by uccabz1
#
# compiler GCC version 4.9.2
# options -cpp -iprefix /lustre/shared/ucl/apps/gcc/4.9.2/bin/../lib/gcc/x86_64-unknown-linux-gnu/4.9.2/ -mtune=corei7 -march=x86-64 -g -Og
#
# seed  1072750243  1929514589  -899754148  1889325548   799143016 -1991262691 -1538604789   498831114   219063295  1084429064  2069245725  1130882611
#
#      Author: C. J. Pickard (cjp20@cam.ac.uk)
#                Space group: C2
#

%BLOCK LATTICE_ABC
      5.30750      5.50116      5.50116
     91.05718     93.44583     93.44583
%ENDBLOCK LATTICE_ABC

%BLOCK POSITIONS_FRAC
  Li   0.0268658   0.3609587   0.0825568 SPIN=   0.00000
  Li  -0.0268658  -0.0825568  -0.3609587 SPIN=   0.00000
   O  -0.2555980  -0.4064093  -0.4215137 SPIN=   0.00000
   O   0.0853557  -0.2985357  -0.0712112 SPIN=   0.00000
   O  -0.2971723  -0.0635759  -0.0978120 SPIN=   0.00000
   O  -0.3310714  -0.4989915   0.0278411 SPIN=   0.00000
   O   0.2555980   0.4215137   0.4064093 SPIN=   0.00000
   O  -0.0853557   0.0712112   0.2985357 SPIN=   0.00000
   O   0.2971723   0.0978120   0.0635759 SPIN=   0.00000
   O   0.3310714  -0.0278411   0.4989915 SPIN=   0.00000
   P  -0.0000000   0.4043662  -0.4043662 SPIN=   0.00000
   P   0.0000000  -0.1232282   0.1232282 SPIN=   0.00000
  Fe   0.5000000   0.2578467  -0.2578467 SPIN=   3.15454
  Fe   0.5000000  -0.2475210   0.2475210 SPIN=   4.84546
%ENDBLOCK POSITIONS_FRAC

# Note: total spin =   8.00

KPOINTS_MP_SPACING 0.07

%BLOCK SPECIES_POT
QC5
%ENDBLOCK SPECIES_POT

%BLOCK HUBBARD_U
Fe d:4.0
%ENDBLOCK HUBBARD_U

SNAP_TO_SYMMETRY
SYMMETRY_GENERATE

