#              Generated by Buildcell
#
# at 17:37:13 (GMT+0.0) 26th November 2020
# in /lustre/scratch/uccabz1/launch_tmp
# on node-c12l-024
# by uccabz1
#
# compiler GCC version 4.9.2
# options -cpp -iprefix /lustre/shared/ucl/apps/gcc/4.9.2/bin/../lib/gcc/x86_64-unknown-linux-gnu/4.9.2/ -mtune=corei7 -march=x86-64 -g -Og
#
# seed  -486894142 -1201311566 -1885980404  1333885609  -895049434 -1063042047  1530806342  -617308783  1405215955 -1821018604   659209287   781114942
#
#      Author: C. J. Pickard (cjp20@cam.ac.uk)
#                Space group: P21/c
#

%BLOCK LATTICE_ABC
      4.23671      8.58160      8.80144
     90.00000     90.00000     90.12624
%ENDBLOCK LATTICE_ABC

%BLOCK POSITIONS_FRAC
  Li   0.4995251  -0.3484805   0.2504069 SPIN=   0.00000
  Li   0.0004749  -0.1515195  -0.2495931 SPIN=   0.00000
  Li  -0.4995251   0.3484805  -0.2504069 SPIN=   0.00000
  Li  -0.0004749   0.1515195   0.2495931 SPIN=   0.00000
   O   0.6065154   0.2566980   0.3561390 SPIN=   0.00000
   O   0.4041913   0.2259794   0.0790727 SPIN=   0.00000
   O   0.1971706   0.4432945   0.2334602 SPIN=   0.00000
   P   0.5007233   0.3407386   0.2105388 SPIN=   0.00000
   O  -0.1065154   0.2433020  -0.1438610 SPIN=   0.00000
   O   0.0958087   0.2740206  -0.4209273 SPIN=   0.00000
   O   0.3028294   0.0567055  -0.2665398 SPIN=   0.00000
   P  -0.0007233   0.1592614  -0.2894612 SPIN=   0.00000
   O  -0.6065154  -0.2566980  -0.3561390 SPIN=   0.00000
   O  -0.4041913  -0.2259794  -0.0790727 SPIN=   0.00000
   O  -0.1971706  -0.4432945  -0.2334602 SPIN=   0.00000
   P  -0.5007233  -0.3407386  -0.2105388 SPIN=   0.00000
   O   0.1065154  -0.2433020   0.1438610 SPIN=   0.00000
   O  -0.0958087  -0.2740206   0.4209273 SPIN=   0.00000
   O  -0.3028294  -0.0567055   0.2665398 SPIN=   0.00000
   P   0.0007233  -0.1592614   0.2894612 SPIN=   0.00000
   O  -0.0000000  -0.0000000  -0.0000000 SPIN=   0.00000
   O   0.5000000   0.5000000  -0.5000000 SPIN=   0.00000
   O   0.5000000   0.5000000  -0.0000000 SPIN=   0.00000
   O  -0.0000000  -0.0000000  -0.5000000 SPIN=   0.00000
  Fe   0.5000000  -0.0000000   0.0000000 SPIN=   3.08066
  Fe  -0.0000000   0.5000000  -0.5000000 SPIN=   3.08066
  Fe   0.5000000  -0.0000000  -0.5000000 SPIN=   4.91934
  Fe  -0.0000000   0.5000000  -0.0000000 SPIN=   4.91934
%ENDBLOCK POSITIONS_FRAC

# Note: total spin =  16.00

KPOINTS_MP_SPACING 0.07

%BLOCK SPECIES_POT
QC5
%ENDBLOCK SPECIES_POT

%BLOCK HUBBARD_U
Fe d:4.0
%ENDBLOCK HUBBARD_U

SNAP_TO_SYMMETRY
SYMMETRY_GENERATE

