#              Generated by Buildcell
#
# at 07:58:06 (GMT+0.0) 24th November 2020
# in /scratch/scratch/uccabz1/launch_tmp
# on node-k10a-022
# by uccabz1
#
# compiler GCC version 4.9.2
# options -cpp -iprefix /scratch/UCL/applications/gcc/4.9.2/bin/../lib/gcc/x86_64-unknown-linux-gnu/4.9.2/ -mtune=corei7 -march=x86-64 -g -O2
#
# seed   351429942  1883370671  1047866214  -145983259   433900777 -1213374830  1156952209   501343113  -289127316  -218818219 -1060829371 -1958780613
#
#      Author: C. J. Pickard (cjp20@cam.ac.uk)
#                Space group: F222
#

%BLOCK LATTICE_ABC
      5.61027      5.61027      6.43937
    115.62396    115.62396     90.41568
%ENDBLOCK LATTICE_ABC

%BLOCK POSITIONS_FRAC
  Li  -0.1888855   0.1888855   0.0000000 SPIN=   0.00000
  Li   0.1888855  -0.1888855   0.0000000 SPIN=   0.00000
   O  -0.1270537   0.1251981  -0.3127863 SPIN=   0.00000
   O   0.3883037   0.1422869  -0.1482724 SPIN=   0.00000
   O   0.4379843   0.1857326   0.3127863 SPIN=   0.00000
   O   0.2905593   0.5365761   0.1482724 SPIN=   0.00000
   O  -0.1251981   0.1270537   0.3127863 SPIN=   0.00000
   O  -0.1422869  -0.3883037   0.1482724 SPIN=   0.00000
   O  -0.1857326  -0.4379843  -0.3127863 SPIN=   0.00000
   O  -0.5365761  -0.2905593  -0.1482724 SPIN=   0.00000
   P  -0.2500000   0.2500000   0.5000000 SPIN=   0.00000
   P   0.2500000  -0.2500000  -0.5000000 SPIN=   0.00000
  Fe   0.2904722  -0.7095278  -0.4190557 SPIN=   4.00000
  Fe  -0.2904722   0.7095278   0.4190557 SPIN=   4.00000
%ENDBLOCK POSITIONS_FRAC

# Note: total spin =   8.00

KPOINTS_MP_SPACING 0.07

%BLOCK SPECIES_POT
QC5
%ENDBLOCK SPECIES_POT

%BLOCK HUBBARD_U
Fe d:4.0
%ENDBLOCK HUBBARD_U

SNAP_TO_SYMMETRY
SYMMETRY_GENERATE

