#              Generated by Buildcell
#
# at 09:30:49 (GMT+0.0) 1st December 2020
# in /lustre/scratch/uccabz1/launch_tmp
# on node-c12g-022
# by uccabz1
#
# compiler GCC version 4.9.2
# options -cpp -iprefix /lustre/shared/ucl/apps/gcc/4.9.2/bin/../lib/gcc/x86_64-unknown-linux-gnu/4.9.2/ -mtune=corei7 -march=x86-64 -g -Og
#
# seed -1953051333 -1020489543  -145752975   800208728   397659035 -1377239976   563914067  2094984865  1889718954  1975551427 -1468207731 -1995548060
#
#      Author: C. J. Pickard (cjp20@cam.ac.uk)
#                Space group: P21
#

%BLOCK LATTICE_ABC
      5.59726      6.38924      9.09367
     90.00000     90.00000    100.26977
%ENDBLOCK LATTICE_ABC

%BLOCK POSITIONS_FRAC
  Li   0.4742137  -0.1468024  -0.4446259 SPIN=   0.00000
  Li  -0.4742137   0.1468024   0.0553741 SPIN=   0.00000
  Li  -0.0010580  -0.4976015  -0.2216539 SPIN=   0.00000
  Li   0.0010580   0.4976015   0.2783461 SPIN=   0.00000
   O  -0.3135480   0.3263383  -0.1241765 SPIN=   0.00000
   O  -0.5814016   0.1829019  -0.3482563 SPIN=   0.00000
   O  -0.1550756   0.1296863  -0.3437548 SPIN=   0.00000
   O  -0.4558356  -0.0755984  -0.1697130 SPIN=   0.00000
   P  -0.3740519   0.1481552  -0.2390575 SPIN=   0.00000
   O   0.3135480  -0.3263383   0.3758235 SPIN=   0.00000
   O   0.5814016  -0.1829019   0.1517437 SPIN=   0.00000
   O   0.1550756  -0.1296863   0.1562452 SPIN=   0.00000
   O   0.4558356   0.0755984   0.3302870 SPIN=   0.00000
   P   0.3740519  -0.1481552   0.2609425 SPIN=   0.00000
   O  -0.2468367  -0.3253577  -0.6235867 SPIN=   0.00000
   O   0.0130065  -0.5207141  -0.4521869 SPIN=   0.00000
   O   0.0810579  -0.1280904  -0.4456641 SPIN=   0.00000
   O  -0.3031667  -0.3364524  -0.3416128 SPIN=   0.00000
   P  -0.1232910  -0.3276353  -0.4727009 SPIN=   0.00000
   O   0.2468367   0.3253577  -0.1235867 SPIN=   0.00000
   O  -0.0130065   0.5207141   0.0478131 SPIN=   0.00000
   O  -0.0810579   0.1280904   0.0543359 SPIN=   0.00000
   O   0.3031667   0.3364524   0.1583872 SPIN=   0.00000
   P   0.1232910   0.3276353   0.0272991 SPIN=   0.00000
  Fe   0.4642802   0.3544312   0.4537527 SPIN=   3.34779
  Fe  -0.4642802  -0.3544312  -0.0462473 SPIN=   3.34779
  Fe   0.1113514   0.0193339  -0.2027767 SPIN=   4.65221
  Fe  -0.1113514  -0.0193339   0.2972233 SPIN=   4.65221
%ENDBLOCK POSITIONS_FRAC

# Note: total spin =  16.00

KPOINTS_MP_SPACING 0.07

%BLOCK SPECIES_POT
QC5
%ENDBLOCK SPECIES_POT

%BLOCK HUBBARD_U
Fe d:4.0
%ENDBLOCK HUBBARD_U

SNAP_TO_SYMMETRY
SYMMETRY_GENERATE

