#              Generated by Buildcell
#
# at 14:48:36 (GMT+0.0) 24th November 2020
# in /scratch/scratch/uccabz1/launch_tmp
# on node-a14c-005
# by uccabz1
#
# compiler GCC version 4.9.2
# options -cpp -iprefix /scratch/UCL/applications/gcc/4.9.2/bin/../lib/gcc/x86_64-unknown-linux-gnu/4.9.2/ -mtune=corei7 -march=x86-64 -g -O2
#
# seed  2062886301 -1163795778  1902031094 -2064860705  1500333504  1067838153 -1113925647 -1547264034   190886915   -49843623 -1483626959  1985577137
#
#      Author: C. J. Pickard (cjp20@cam.ac.uk)
#                Space group: C2
#

%BLOCK LATTICE_ABC
      4.41604      6.42953      6.42953
     66.97354     75.26024     75.26024
%ENDBLOCK LATTICE_ABC

%BLOCK POSITIONS_FRAC
  Li   0.0000000   0.0445404  -0.0445404 SPIN=   0.00000
  Li   0.5000000   0.3319719  -0.3319719 SPIN=   0.00000
   O  -0.8508530   0.1688693   0.5504140 SPIN=   0.00000
   O  -0.7640470   0.3274248   0.1047997 SPIN=   0.00000
   O  -1.2900933   0.2320945   0.3183907 SPIN=   0.00000
   P  -0.9993656   0.3201097   0.3358893 SPIN=   0.00000
   O   0.8508530  -0.5504140  -0.1688693 SPIN=   0.00000
   O   0.7640470  -0.1047997  -0.3274248 SPIN=   0.00000
   O   1.2900933  -0.3183907  -0.2320945 SPIN=   0.00000
   P   0.9993656  -0.3358893  -0.3201097 SPIN=   0.00000
   O  -0.5000000  -0.3719041   0.3719041 SPIN=   0.00000
   O  -0.5000000  -0.0254991   0.0254991 SPIN=   0.00000
  Fe  -0.5094387  -0.0736067   0.4359864 SPIN=   4.00000
  Fe   0.5094387  -0.4359864   0.0736067 SPIN=   4.00000
%ENDBLOCK POSITIONS_FRAC

# Note: total spin =   8.00

KPOINTS_MP_SPACING 0.07

%BLOCK SPECIES_POT
QC5
%ENDBLOCK SPECIES_POT

%BLOCK HUBBARD_U
Fe d:4.0
%ENDBLOCK HUBBARD_U

SNAP_TO_SYMMETRY
SYMMETRY_GENERATE

