#              Generated by Buildcell
#
# at 19:01:40 (GMT+0.0) 26th November 2020
# in /lustre/scratch/uccabz1/launch_tmp
# on node-c12l-021
# by uccabz1
#
# compiler GCC version 4.9.2
# options -cpp -iprefix /lustre/shared/ucl/apps/gcc/4.9.2/bin/../lib/gcc/x86_64-unknown-linux-gnu/4.9.2/ -mtune=corei7 -march=x86-64 -g -Og
#
# seed   563526819   366071190  -357826000   908064557 -1805205715  1117716927  1628790900  1427503762  -954809021 -1044566655  1578091014  1202840533
#
#      Author: C. J. Pickard (cjp20@cam.ac.uk)
#                Space group: Pc
#

%BLOCK LATTICE_ABC
      5.33218      6.67087      9.06390
     90.00000     90.00000     97.00312
%ENDBLOCK LATTICE_ABC

%BLOCK POSITIONS_FRAC
  Li  -0.0308909  -0.2738920   0.4318736 SPIN=   0.00000
  Li  -0.0308909   0.2261080  -0.4318736 SPIN=   0.00000
  Li  -0.0273661   0.2677020   0.2328058 SPIN=   0.00000
  Li  -0.0273661  -0.2322980  -0.2328058 SPIN=   0.00000
   O   0.5047152   0.0818467   0.0893738 SPIN=   0.00000
   O   0.0999306  -0.0190628   0.2451079 SPIN=   0.00000
   O   0.0812524  -0.0835090  -0.0232519 SPIN=   0.00000
   O   0.3305484  -0.2906276   0.1384445 SPIN=   0.00000
   P   0.2683571  -0.0718469   0.1114987 SPIN=   0.00000
   O   0.5047152   0.5818467  -0.0893738 SPIN=   0.00000
   O   0.0999306   0.4809372  -0.2451079 SPIN=   0.00000
   O   0.0812524   0.4164910   0.0232519 SPIN=   0.00000
   O   0.3305484   0.2093724  -0.1384445 SPIN=   0.00000
   P   0.2683571   0.4281531  -0.1114987 SPIN=   0.00000
   O  -0.4211733   0.2074771  -0.3664760 SPIN=   0.00000
   O  -0.6800793  -0.1460233  -0.3358533 SPIN=   0.00000
   O  -0.2318944  -0.1286754  -0.4093436 SPIN=   0.00000
   O  -0.3412881  -0.0322303  -0.1523449 SPIN=   0.00000
   P  -0.4178329  -0.0125789  -0.3167605 SPIN=   0.00000
   O  -0.4211733   0.7074771   0.3664760 SPIN=   0.00000
   O  -0.6800793   0.3539767   0.3358533 SPIN=   0.00000
   O  -0.2318944   0.3713246   0.4093436 SPIN=   0.00000
   O  -0.3412881   0.4677697   0.1523449 SPIN=   0.00000
   P  -0.4178329   0.4874211   0.3167605 SPIN=   0.00000
  Fe   0.4440042   0.0773902   0.3914441 SPIN=   2.28974
  Fe   0.4440042  -0.4226098  -0.3914441 SPIN=   2.28974
  Fe  -0.2530823  -0.2252487   0.0995926 SPIN=   5.71026
  Fe  -0.2530823   0.2747513  -0.0995926 SPIN=   5.71026
%ENDBLOCK POSITIONS_FRAC

# Note: total spin =  16.00

KPOINTS_MP_SPACING 0.07

%BLOCK SPECIES_POT
QC5
%ENDBLOCK SPECIES_POT

%BLOCK HUBBARD_U
Fe d:4.0
%ENDBLOCK HUBBARD_U

SNAP_TO_SYMMETRY
SYMMETRY_GENERATE

