#              Generated by Buildcell
#
# at 14:47:51 (GMT+0.0) 24th November 2020
# in /lustre/scratch/uccabz1/launch_tmp
# on node-c12a-034
# by uccabz1
#
# compiler GCC version 4.9.2
# options -cpp -iprefix /lustre/shared/ucl/apps/gcc/4.9.2/bin/../lib/gcc/x86_64-unknown-linux-gnu/4.9.2/ -mtune=corei7 -march=x86-64 -g -Og
#
# seed -1906774067  1841893209 -1822806858   786303070  1382897657   -37151044   -24858608   865850156 -1006443738   868068052 -1574774681   282800180
#
#      Author: C. J. Pickard (cjp20@cam.ac.uk)
#                Space group: Pm
#

%BLOCK LATTICE_ABC
      4.03047      4.22996      9.68451
     90.00000     90.00000    104.29009
%ENDBLOCK LATTICE_ABC

%BLOCK POSITIONS_FRAC
  Li  -0.1225823  -0.2239442   0.2987345 SPIN=   0.00000
  Li  -0.1225823  -0.2239442  -0.2987345 SPIN=   0.00000
   O   0.0709637   0.0707662  -0.1274255 SPIN=   0.00000
   O   0.1858569   0.4601288  -0.3390270 SPIN=   0.00000
   O   0.5507237   0.6088926  -0.1325364 SPIN=   0.00000
   O   0.6109848   0.1386097  -0.2791877 SPIN=   0.00000
   P   0.3425535   0.3042143  -0.2153432 SPIN=   0.00000
   O   0.0709637   0.0707662   0.1274255 SPIN=   0.00000
   O   0.1858569   0.4601288   0.3390270 SPIN=   0.00000
   O   0.5507237   0.6088926   0.1325364 SPIN=   0.00000
   O   0.6109848   0.1386097   0.2791877 SPIN=   0.00000
   P   0.3425535   0.3042143   0.2153432 SPIN=   0.00000
  Fe   0.4788118   0.1871525   0.5000000 SPIN=   4.76288
  Fe  -0.3595810   0.0122195  -0.0000000 SPIN=   3.23712
%ENDBLOCK POSITIONS_FRAC

# Note: total spin =   8.00

KPOINTS_MP_SPACING 0.07

%BLOCK SPECIES_POT
QC5
%ENDBLOCK SPECIES_POT

%BLOCK HUBBARD_U
Fe d:4.0
%ENDBLOCK HUBBARD_U

SNAP_TO_SYMMETRY
SYMMETRY_GENERATE

