#              Generated by Buildcell
#
# at 18:30:41 (GMT+0.0) 26th November 2020
# in /scratch/scratch/uccabz1/launch_tmp
# on node-k10g-006
# by uccabz1
#
# compiler GCC version 4.9.2
# options -cpp -iprefix /scratch/UCL/applications/gcc/4.9.2/bin/../lib/gcc/x86_64-unknown-linux-gnu/4.9.2/ -mtune=corei7 -march=x86-64 -g -O2
#
# seed   329593991  -630404278   857901656   741311207 -1473795275 -1849803601  -576618947   777898319 -1966679304  -659530030    45801923   962303719
#
#      Author: C. J. Pickard (cjp20@cam.ac.uk)
#                Space group: Cc
#

%BLOCK LATTICE_ABC
      7.03764      7.03764      7.81533
    109.17630    109.17630    103.14326
%ENDBLOCK LATTICE_ABC

%BLOCK POSITIONS_FRAC
  Li  -0.4343277   0.2689271  -0.0607327 SPIN=   0.00000
  Li   0.2689271  -0.4343277   0.4392673 SPIN=   0.00000
  Li  -0.3591934   0.4546194   0.3757873 SPIN=   0.00000
  Li   0.4546194  -0.3591934  -0.1242127 SPIN=   0.00000
   O   0.3022425  -0.1993150   0.0329602 SPIN=   0.00000
   O   0.3653455   0.1753716   0.3000395 SPIN=   0.00000
   O   0.6335052   0.1517355   0.1625728 SPIN=   0.00000
   O   0.2636230   0.1159394  -0.0573546 SPIN=   0.00000
   P   0.3849383   0.0477251   0.1035065 SPIN=   0.00000
   O  -0.1993150   0.3022425  -0.4670398 SPIN=   0.00000
   O   0.1753716   0.3653455  -0.1999605 SPIN=   0.00000
   O   0.1517355   0.6335052  -0.3374272 SPIN=   0.00000
   O   0.1159394   0.2636230  -0.5573546 SPIN=   0.00000
   P   0.0477251   0.3849383  -0.3964935 SPIN=   0.00000
   O  -0.0506682  -0.3646173   0.3408758 SPIN=   0.00000
   O  -0.4606136  -0.4482991   0.1445784 SPIN=   0.00000
   O  -0.2017885  -0.0698655   0.3001557 SPIN=   0.00000
   O  -0.2063094  -0.3486718  -0.0007267 SPIN=   0.00000
   P  -0.2200269  -0.3113669   0.2015988 SPIN=   0.00000
   O  -0.3646173  -0.0506682  -0.1591242 SPIN=   0.00000
   O  -0.4482991  -0.4606136  -0.3554216 SPIN=   0.00000
   O  -0.0698655  -0.2017885  -0.1998443 SPIN=   0.00000
   O  -0.3486718  -0.2063094  -0.5007267 SPIN=   0.00000
   P  -0.3113669  -0.2200269  -0.2984012 SPIN=   0.00000
  Fe   0.0661229  -0.0859838  -0.3651672 SPIN=   7.28925
  Fe  -0.0859838   0.0661229   0.1348328 SPIN=   7.28925
  Fe  -0.4583548   0.0434952   0.4877245 SPIN=   0.71075
  Fe   0.0434952  -0.4583548  -0.0122755 SPIN=   0.71075
%ENDBLOCK POSITIONS_FRAC

# Note: total spin =  16.00

KPOINTS_MP_SPACING 0.07

%BLOCK SPECIES_POT
QC5
%ENDBLOCK SPECIES_POT

%BLOCK HUBBARD_U
Fe d:4.0
%ENDBLOCK HUBBARD_U

SNAP_TO_SYMMETRY
SYMMETRY_GENERATE

