#              Generated by Buildcell
#
# at 09:55:36 (GMT+0.0) 26th November 2020
# in /lustre/scratch/uccabz1/launch_tmp
# on node-c12j-029
# by uccabz1
#
# compiler GCC version 4.9.2
# options -cpp -iprefix /lustre/shared/ucl/apps/gcc/4.9.2/bin/../lib/gcc/x86_64-unknown-linux-gnu/4.9.2/ -mtune=corei7 -march=x86-64 -g -Og
#
# seed  -822139056  -489749966  -257843881  1943148822 -1817873950 -1841594233 -1892553814 -1364243940  1541846925   289755074 -1586233789  2033468905
#
#      Author: C. J. Pickard (cjp20@cam.ac.uk)
#                Space group: C2
#

%BLOCK LATTICE_ABC
      5.85440      5.85440     10.33538
     81.17564     81.17564     66.78060
%ENDBLOCK LATTICE_ABC

%BLOCK POSITIONS_FRAC
  Li  -0.0144925   0.0856029  -0.3637483 SPIN=   0.00000
  Li  -0.0856029   0.0144925   0.3637483 SPIN=   0.00000
  Li  -0.5486417   0.1799583  -0.4521908 SPIN=   0.00000
  Li   0.8200417  -0.4513583   0.4521908 SPIN=   0.00000
   O   0.5674668   0.1381102   0.2889427 SPIN=   0.00000
   O   0.2920867  -0.0722253   0.2225662 SPIN=   0.00000
   O   0.4481406  -0.2024638   0.4416910 SPIN=   0.00000
   O   0.1175463   0.2224254   0.3970699 SPIN=   0.00000
   P   0.3647355   0.0300442   0.3356806 SPIN=   0.00000
   O  -0.1381102  -0.5674668  -0.2889427 SPIN=   0.00000
   O   0.0722253  -0.2920867  -0.2225662 SPIN=   0.00000
   O   0.2024638  -0.4481406  -0.4416910 SPIN=   0.00000
   O  -0.2224254  -0.1175463  -0.3970699 SPIN=   0.00000
   P  -0.0300442  -0.3647355  -0.3356806 SPIN=   0.00000
   O   0.3807464   0.2452890  -0.1631275 SPIN=   0.00000
   O   0.4440418  -0.2123158  -0.0721334 SPIN=   0.00000
   O   0.0198248   0.0819846  -0.1182436 SPIN=   0.00000
   O   0.3494116  -0.0650180  -0.3056788 SPIN=   0.00000
   P   0.3034858   0.0239660  -0.1663696 SPIN=   0.00000
   O  -0.2452890  -0.3807464   0.1631275 SPIN=   0.00000
   O   0.2123158  -0.4440418   0.0721334 SPIN=   0.00000
   O  -0.0819846  -0.0198248   0.1182436 SPIN=   0.00000
   O   0.0650180  -0.3494116   0.3056788 SPIN=   0.00000
   P  -0.0239660  -0.3034858   0.1663696 SPIN=   0.00000
  Fe  -0.2149194  -0.1196566  -0.0795837 SPIN=   3.49763
  Fe   0.1196566   0.2149194   0.0795837 SPIN=   3.49763
  Fe   0.4731586  -0.4524755  -0.2536717 SPIN=   4.50237
  Fe   0.4524755  -0.4731586   0.2536717 SPIN=   4.50237
%ENDBLOCK POSITIONS_FRAC

# Note: total spin =  16.00

KPOINTS_MP_SPACING 0.07

%BLOCK SPECIES_POT
QC5
%ENDBLOCK SPECIES_POT

%BLOCK HUBBARD_U
Fe d:4.0
%ENDBLOCK HUBBARD_U

SNAP_TO_SYMMETRY
SYMMETRY_GENERATE

