#              Generated by Buildcell
#
# at 07:10:12 (GMT+0.0) 26th November 2020
# in /scratch/scratch/mmm0366/launch_tmp
# on node-k98j-013
# by mmm0366
#
# compiler GCC version 4.9.2
# options -cpp -iprefix /scratch/UCL/applications/gcc/4.9.2/bin/../lib/gcc/x86_64-unknown-linux-gnu/4.9.2/ -mtune=corei7 -march=x86-64 -g -O2
#
# seed -1938634324 -1390273236   426948429  1615262066 -1826160142  -356649074   264053701  -356069389  -770320376  1628488811  -356283734  1411680585
#
#      Author: C. J. Pickard (cjp20@cam.ac.uk)
#                Space group: P-1
#

%BLOCK LATTICE_ABC
      5.18435      6.70377      9.41020
     92.17240     91.47828    101.55820
%ENDBLOCK LATTICE_ABC

%BLOCK POSITIONS_FRAC
  Li  -0.2998293  -0.1089125  -0.4365544 SPIN=   0.00000
  Li   0.2998293   0.1089125   0.4365544 SPIN=   0.00000
  Li   0.2157478  -0.0703367  -0.2732388 SPIN=   0.00000
  Li  -0.2157478   0.0703367   0.2732388 SPIN=   0.00000
   O   0.2564676   0.4998023   0.0404532 SPIN=   0.00000
   O  -0.0274979   0.1420290   0.0811219 SPIN=   0.00000
   O   0.4390697   0.1663379   0.0223803 SPIN=   0.00000
   O   0.3272923   0.2969553   0.2611385 SPIN=   0.00000
   P   0.2501653   0.2884265   0.0999217 SPIN=   0.00000
   O  -0.2564676  -0.4998023  -0.0404532 SPIN=   0.00000
   O   0.0274979  -0.1420290  -0.0811219 SPIN=   0.00000
   O  -0.4390697  -0.1663379  -0.0223803 SPIN=   0.00000
   O  -0.3272923  -0.2969553  -0.2611385 SPIN=   0.00000
   P  -0.2501653  -0.2884265  -0.0999217 SPIN=   0.00000
   O  -0.0567798   0.1694515  -0.4868563 SPIN=   0.00000
   O  -0.0472505   0.3948026  -0.2552418 SPIN=   0.00000
   O  -0.2569653   0.4949828  -0.4726548 SPIN=   0.00000
   O  -0.4772094   0.1851715  -0.3490383 SPIN=   0.00000
   P  -0.2045756   0.3020738  -0.3955599 SPIN=   0.00000
   O   0.0567798  -0.1694515   0.4868563 SPIN=   0.00000
   O   0.0472505  -0.3948026   0.2552418 SPIN=   0.00000
   O   0.2569653  -0.4949828   0.4726548 SPIN=   0.00000
   O   0.4772094  -0.1851715   0.3490383 SPIN=   0.00000
   P   0.2045756  -0.3020738   0.3955599 SPIN=   0.00000
  Fe  -0.3474747  -0.4708382   0.3125794 SPIN=   4.62787
  Fe   0.3474747   0.4708382  -0.3125794 SPIN=   4.62787
  Fe  -0.2233087   0.1470508  -0.1144412 SPIN=   3.37213
  Fe   0.2233087  -0.1470508   0.1144412 SPIN=   3.37213
%ENDBLOCK POSITIONS_FRAC

# Note: total spin =  16.00

KPOINTS_MP_SPACING 0.07

%BLOCK SPECIES_POT
QC5
%ENDBLOCK SPECIES_POT

%BLOCK HUBBARD_U
Fe d:4.0
%ENDBLOCK HUBBARD_U

SNAP_TO_SYMMETRY
SYMMETRY_GENERATE

