#              Generated by Buildcell
#
# at 07:26:31 (GMT+0.0) 24th November 2020
# in /lustre/scratch/uccabz1/launch_tmp
# on node-c12f-031
# by uccabz1
#
# compiler GCC version 4.9.2
# options -cpp -iprefix /lustre/shared/ucl/apps/gcc/4.9.2/bin/../lib/gcc/x86_64-unknown-linux-gnu/4.9.2/ -mtune=corei7 -march=x86-64 -g -Og
#
# seed   948385382 -1258496093 -1374935039  -154140593  1099453585   760315529   551286099   519112735 -1055107093   462743665 -1167785831 -1321166632
#
#      Author: C. J. Pickard (cjp20@cam.ac.uk)
#                Space group: P2/c
#

%BLOCK LATTICE_ABC
      5.08167      5.63655      5.66667
     90.00000     90.00000     99.68032
%ENDBLOCK LATTICE_ABC

%BLOCK POSITIONS_FRAC
  Li  -0.0000000  -0.2500000   0.3942358 SPIN=   0.00000
  Li   0.0000000   0.2500000  -0.3942358 SPIN=   0.00000
   O  -0.7272078  -0.4765629   0.2969011 SPIN=   0.00000
   O  -0.2453779  -0.4362377   0.1303913 SPIN=   0.00000
   O   0.7272078  -0.0234371   0.2969011 SPIN=   0.00000
   O   0.2453779  -0.0637623   0.1303913 SPIN=   0.00000
   O   0.7272078   0.4765629  -0.2969011 SPIN=   0.00000
   O   0.2453779   0.4362377  -0.1303913 SPIN=   0.00000
   O  -0.7272078   0.0234371  -0.2969011 SPIN=   0.00000
   O  -0.2453779   0.0637623  -0.1303913 SPIN=   0.00000
   P  -0.5000000   0.2500000  -0.2595651 SPIN=   0.00000
   P   0.5000000  -0.2500000   0.2595651 SPIN=   0.00000
  Fe  -0.5000000   0.2500000   0.2388246 SPIN=   4.00000
  Fe   0.5000000  -0.2500000  -0.2388246 SPIN=   4.00000
%ENDBLOCK POSITIONS_FRAC

# Note: total spin =   8.00

KPOINTS_MP_SPACING 0.07

%BLOCK SPECIES_POT
QC5
%ENDBLOCK SPECIES_POT

%BLOCK HUBBARD_U
Fe d:4.0
%ENDBLOCK HUBBARD_U

SNAP_TO_SYMMETRY
SYMMETRY_GENERATE

