#              Generated by Buildcell
#
# at 08:35:07 (GMT+0.0) 24th November 2020
# in /lustre/scratch/uccabz1/launch_tmp
# on node-c12l-030
# by uccabz1
#
# compiler GCC version 4.9.2
# options -cpp -iprefix /lustre/shared/ucl/apps/gcc/4.9.2/bin/../lib/gcc/x86_64-unknown-linux-gnu/4.9.2/ -mtune=corei7 -march=x86-64 -g -Og
#
# seed  -103703413  1798590906 -1582532950   -26046537  2024418265  -201117950  1130759755  1496868259  -284166931   721835096  1001704876  -114546574
#
#      Author: C. J. Pickard (cjp20@cam.ac.uk)
#                Space group: Cc
#

%BLOCK LATTICE_ABC
      5.65787      5.65787      6.38823
     97.76222    110.54082    116.82937
%ENDBLOCK LATTICE_ABC

%BLOCK POSITIONS_FRAC
  Li   0.3974354  -0.4293678  -0.3683689 SPIN=   0.00000
  Li  -0.4390011   0.2341957   0.1316311 SPIN=   0.00000
   O  -0.0738286  -0.4554661   0.0095414 SPIN=   0.00000
   O   0.4340554  -0.3669787   0.0471565 SPIN=   0.00000
   O   0.4295034  -0.1314718   0.3993812 SPIN=   0.00000
   O   0.2018765  -0.6553370   0.2644787 SPIN=   0.00000
   P   0.2302280  -0.4081295   0.1720512 SPIN=   0.00000
   O  -0.0349925   0.0833700  -0.4904586 SPIN=   0.00000
   O  -0.0858647  -0.3868989  -0.4528435 SPIN=   0.00000
   O   0.0308530  -0.0301222  -0.1006188 SPIN=   0.00000
   O   0.4198157   0.0626022  -0.2355213 SPIN=   0.00000
   P   0.0801807  -0.0581768  -0.3279488 SPIN=   0.00000
  Fe  -0.2193504   0.2433797  -0.3124132 SPIN=   4.00000
  Fe  -0.0557929  -0.0930628   0.1875868 SPIN=   4.00000
%ENDBLOCK POSITIONS_FRAC

# Note: total spin =   8.00

KPOINTS_MP_SPACING 0.07

%BLOCK SPECIES_POT
QC5
%ENDBLOCK SPECIES_POT

%BLOCK HUBBARD_U
Fe d:4.0
%ENDBLOCK HUBBARD_U

SNAP_TO_SYMMETRY
SYMMETRY_GENERATE

