#              Generated by Buildcell
#
# at 11:56:16 (GMT+0.0) 24th November 2020
# in /lustre/scratch/uccabz1/launch_tmp
# on node-c12g-024
# by uccabz1
#
# compiler GCC version 4.9.2
# options -cpp -iprefix /lustre/shared/ucl/apps/gcc/4.9.2/bin/../lib/gcc/x86_64-unknown-linux-gnu/4.9.2/ -mtune=corei7 -march=x86-64 -g -Og
#
# seed   760144279   296890153   587107840  1949328205  1543851015 -1513370594  -528822237  1960837032  2018443930 -2056045868 -1362905230  -285785358
#
#      Author: C. J. Pickard (cjp20@cam.ac.uk)
#                Space group: Cc
#

%BLOCK LATTICE_ABC
      4.57565      4.64243      8.67015
     88.40619     86.76454     60.47473
%ENDBLOCK LATTICE_ABC

%BLOCK POSITIONS_FRAC
  Li   0.3022219  -0.2780545  -0.0846924 SPIN=   0.00000
  Li   0.0241674   0.2780545   0.4153076 SPIN=   0.00000
   O   0.4699391  -0.1703361   0.5534366 SPIN=   0.00000
   O   0.0968955  -0.2071862   0.3484097 SPIN=   0.00000
   O   0.5665780  -0.7271557   0.4434527 SPIN=   0.00000
   O   0.0607869  -0.3940921   0.6190835 SPIN=   0.00000
   P   0.3048696  -0.3640404   0.4959254 SPIN=   0.00000
   O   0.2996030   0.1703361   0.0534366 SPIN=   0.00000
   O  -0.1102906   0.2071862  -0.1515903 SPIN=   0.00000
   O  -0.1605777   0.7271557  -0.0565473 SPIN=   0.00000
   O  -0.3333052   0.3940921   0.1190835 SPIN=   0.00000
   P  -0.0591709   0.3640404  -0.0040746 SPIN=   0.00000
  Fe  -0.2854418  -0.0613862   0.1922559 SPIN=   4.00000
  Fe  -0.3468280   0.0613862  -0.3077441 SPIN=   4.00000
%ENDBLOCK POSITIONS_FRAC

# Note: total spin =   8.00

KPOINTS_MP_SPACING 0.07

%BLOCK SPECIES_POT
QC5
%ENDBLOCK SPECIES_POT

%BLOCK HUBBARD_U
Fe d:4.0
%ENDBLOCK HUBBARD_U

SNAP_TO_SYMMETRY
SYMMETRY_GENERATE

