#              Generated by Buildcell
#
# at 21:58:04 (GMT+0.0) 26th November 2020
# in /lustre/scratch/uccabz1/launch_tmp
# on node-c12l-022
# by uccabz1
#
# compiler GCC version 4.9.2
# options -cpp -iprefix /lustre/shared/ucl/apps/gcc/4.9.2/bin/../lib/gcc/x86_64-unknown-linux-gnu/4.9.2/ -mtune=corei7 -march=x86-64 -g -Og
#
# seed -2039628720 -1920572879   -35273092  -247134909  1492948106   334801668  1850125251  1551778192  -264771441 -2131667117   448113385  1885512671
#
#      Author: C. J. Pickard (cjp20@cam.ac.uk)
#                Space group: Pc
#

%BLOCK LATTICE_ABC
      4.75640      7.83584      8.59683
     90.00000     90.00000     92.88830
%ENDBLOCK LATTICE_ABC

%BLOCK POSITIONS_FRAC
  Li   0.3538243  -0.3621993  -0.3470408 SPIN=   0.00000
  Li   0.3538243   0.1378007   0.3470408 SPIN=   0.00000
  Li  -0.1642947   0.0323586  -0.1734028 SPIN=   0.00000
  Li  -0.1642947  -0.4676414   0.1734028 SPIN=   0.00000
   O  -0.0847499   0.1151030   0.3090349 SPIN=   0.00000
   O  -0.5158343  -0.0725879   0.2126432 SPIN=   0.00000
   O  -0.3124126   0.1504426   0.0369686 SPIN=   0.00000
   O  -0.0439239  -0.1097861   0.0916046 SPIN=   0.00000
   P  -0.2287001   0.0242734   0.1695244 SPIN=   0.00000
   O  -0.0847499  -0.3848970  -0.3090349 SPIN=   0.00000
   O  -0.5158343  -0.5725879  -0.2126432 SPIN=   0.00000
   O  -0.3124126  -0.3495574  -0.0369686 SPIN=   0.00000
   O  -0.0439239  -0.6097861  -0.0916046 SPIN=   0.00000
   P  -0.2287001  -0.4757266  -0.1695244 SPIN=   0.00000
   O   0.4532710  -0.1066778  -0.2193362 SPIN=   0.00000
   O   0.1141960   0.0936183  -0.3584628 SPIN=   0.00000
   O   0.6155021   0.1090458  -0.4347242 SPIN=   0.00000
   O   0.3098903  -0.1483051  -0.5071572 SPIN=   0.00000
   P   0.3767301  -0.0196591  -0.3728713 SPIN=   0.00000
   O   0.4532710   0.3933222   0.2193362 SPIN=   0.00000
   O   0.1141960   0.5936183   0.3584628 SPIN=   0.00000
   O   0.6155021   0.6090458   0.4347242 SPIN=   0.00000
   O   0.3098903   0.3516949   0.5071572 SPIN=   0.00000
   P   0.3767301   0.4803409   0.3728713 SPIN=   0.00000
  Fe  -0.1299566  -0.1608505   0.4570511 SPIN=   3.21375
  Fe  -0.1299566   0.3391495  -0.4570511 SPIN=   3.21375
  Fe   0.3308745   0.2876896  -0.0138814 SPIN=   4.78625
  Fe   0.3308745  -0.2123104   0.0138814 SPIN=   4.78625
%ENDBLOCK POSITIONS_FRAC

# Note: total spin =  16.00

KPOINTS_MP_SPACING 0.07

%BLOCK SPECIES_POT
QC5
%ENDBLOCK SPECIES_POT

%BLOCK HUBBARD_U
Fe d:4.0
%ENDBLOCK HUBBARD_U

SNAP_TO_SYMMETRY
SYMMETRY_GENERATE

