#              Generated by Buildcell
#
# at 09:57:58 (GMT+0.0) 24th November 2020
# in /lustre/scratch/uccabz1/launch_tmp
# on node-c12f-026
# by uccabz1
#
# compiler GCC version 4.9.2
# options -cpp -iprefix /lustre/shared/ucl/apps/gcc/4.9.2/bin/../lib/gcc/x86_64-unknown-linux-gnu/4.9.2/ -mtune=corei7 -march=x86-64 -g -Og
#
# seed  -908522824   411552410  1308247721  1168433553  1039511710  1364873268  -720458728  1330062594 -1892874074  1052825403 -2135139448  -286613228
#
#      Author: C. J. Pickard (cjp20@cam.ac.uk)
#                Space group: P21/m
#

%BLOCK LATTICE_ABC
      4.43067      5.62738      6.50060
     90.00000     99.18888     90.00000
%ENDBLOCK LATTICE_ABC

%BLOCK POSITIONS_FRAC
  Li  -0.3761451   0.2500000  -0.3570021 SPIN=   0.00000
  Li   0.3761451  -0.2500000   0.3570021 SPIN=   0.00000
   O   0.1898777   0.0290852   0.1598899 SPIN=   0.00000
   O  -0.2451340  -0.0197117   0.3813942 SPIN=   0.00000
   O  -0.1898777  -0.4709148  -0.1598899 SPIN=   0.00000
   O   0.2451340  -0.5197117  -0.3813942 SPIN=   0.00000
   O  -0.1898777  -0.0290852  -0.1598899 SPIN=   0.00000
   O   0.2451340   0.0197117  -0.3813942 SPIN=   0.00000
   O   0.1898777   0.4709148   0.1598899 SPIN=   0.00000
   O  -0.2451340   0.5197117   0.3813942 SPIN=   0.00000
   P   0.1781412   0.2500000  -0.1227661 SPIN=   0.00000
   P  -0.1781412  -0.2500000   0.1227661 SPIN=   0.00000
  Fe  -0.2558382   0.2500000   0.1577498 SPIN=   4.00000
  Fe   0.2558382  -0.2500000  -0.1577498 SPIN=   4.00000
%ENDBLOCK POSITIONS_FRAC

# Note: total spin =   8.00

KPOINTS_MP_SPACING 0.07

%BLOCK SPECIES_POT
QC5
%ENDBLOCK SPECIES_POT

%BLOCK HUBBARD_U
Fe d:4.0
%ENDBLOCK HUBBARD_U

SNAP_TO_SYMMETRY
SYMMETRY_GENERATE

