#              Generated by Buildcell
#
# at 01:17:25 (GMT+0.0) 27th November 2020
# in /lustre/scratch/uccabz1/launch_tmp
# on node-c12p-029
# by uccabz1
#
# compiler GCC version 4.9.2
# options -cpp -iprefix /lustre/shared/ucl/apps/gcc/4.9.2/bin/../lib/gcc/x86_64-unknown-linux-gnu/4.9.2/ -mtune=corei7 -march=x86-64 -g -Og
#
# seed  1304080659  2038274582   223860655  1440906668  1343820090  1960161698   490012247 -1408028985   582985504  2095199124   516265069  -967892390
#
#      Author: C. J. Pickard (cjp20@cam.ac.uk)
#                Space group: P212121
#

%BLOCK LATTICE_ABC
      4.62309      6.32616     10.94151
     90.00000     90.00000     90.00000
%ENDBLOCK LATTICE_ABC

%BLOCK POSITIONS_FRAC
  Li  -0.3197256  -0.2495586  -0.0900458 SPIN=   0.00000
  Li   0.3197256   0.2504414  -0.4099542 SPIN=   0.00000
  Li   0.1802744  -0.2504414   0.0900458 SPIN=   0.00000
  Li  -0.1802744   0.2495586   0.4099542 SPIN=   0.00000
   O   0.3723744   0.2095540   0.3797096 SPIN=   0.00000
   O   0.0836029   0.5576441   0.4111792 SPIN=   0.00000
   O   0.5836164   0.5813881   0.3328393 SPIN=   0.00000
   O   0.1931242   0.4357908   0.1983789 SPIN=   0.00000
   P   0.3102397   0.4333780   0.3315860 SPIN=   0.00000
   O  -0.3723744  -0.2904460   0.1202904 SPIN=   0.00000
   O  -0.0836029   0.0576441   0.0888208 SPIN=   0.00000
   O  -0.5836164   0.0813881   0.1671607 SPIN=   0.00000
   O  -0.1931242  -0.0642092   0.3016211 SPIN=   0.00000
   P  -0.3102397  -0.0666220   0.1684140 SPIN=   0.00000
   O  -0.1276256   0.2904460  -0.3797096 SPIN=   0.00000
   O  -0.4163971  -0.0576441  -0.4111792 SPIN=   0.00000
   O   0.0836164  -0.0813881  -0.3328393 SPIN=   0.00000
   O  -0.3068758   0.0642092  -0.1983789 SPIN=   0.00000
   P  -0.1897603   0.0666220  -0.3315860 SPIN=   0.00000
   O   0.1276256  -0.2095540  -0.1202904 SPIN=   0.00000
   O   0.4163971  -0.5576441  -0.0888208 SPIN=   0.00000
   O  -0.0836164  -0.5813881  -0.1671607 SPIN=   0.00000
   O   0.3068758  -0.4357908  -0.3016211 SPIN=   0.00000
   P   0.1897603  -0.4333780  -0.1684140 SPIN=   0.00000
  Fe   0.3197012  -0.1200237   0.3766291 SPIN=   4.00000
  Fe  -0.3197012   0.3799763   0.1233709 SPIN=   4.00000
  Fe  -0.1802988  -0.3799763  -0.3766291 SPIN=   4.00000
  Fe   0.1802988   0.1200237  -0.1233709 SPIN=   4.00000
%ENDBLOCK POSITIONS_FRAC

# Note: total spin =  16.00

KPOINTS_MP_SPACING 0.07

%BLOCK SPECIES_POT
QC5
%ENDBLOCK SPECIES_POT

%BLOCK HUBBARD_U
Fe d:4.0
%ENDBLOCK HUBBARD_U

SNAP_TO_SYMMETRY
SYMMETRY_GENERATE

