#              Generated by Buildcell
#
# at 10:38:15 (GMT+0.0) 24th November 2020
# in /lustre/scratch/uccabz1/launch_tmp
# on node-c12i-032
# by uccabz1
#
# compiler GCC version 4.9.2
# options -cpp -iprefix /lustre/shared/ucl/apps/gcc/4.9.2/bin/../lib/gcc/x86_64-unknown-linux-gnu/4.9.2/ -mtune=corei7 -march=x86-64 -g -Og
#
# seed  1312848463  -449893916   105920724 -1209486743 -1439490720  -618617878   303136181  -215443182 -1864568191 -1672997992   118885073  -489917109
#
#      Author: C. J. Pickard (cjp20@cam.ac.uk)
#                Space group: Cm
#

%BLOCK LATTICE_ABC
      5.62539      6.07592      6.21217
    118.44487    116.04219     91.60988
%ENDBLOCK LATTICE_ABC

%BLOCK POSITIONS_FRAC
  Li  -0.2163372  -0.3705151   0.0000000 SPIN=   0.00000
  Li   0.0372563   0.0693883   0.0000000 SPIN=   0.00000
   O  -0.2309468  -0.1810031  -0.6233184 SPIN=   0.00000
   O  -0.1186751  -0.3891512  -0.3225183 SPIN=   0.00000
   O  -0.0536126  -0.5897887  -0.7365740 SPIN=   0.00000
   O   0.2705154  -0.1514631  -0.3006608 SPIN=   0.00000
   P  -0.0401260  -0.3179510  -0.5002568 SPIN=   0.00000
   O   0.3923716   0.4423152   0.6233184 SPIN=   0.00000
   O   0.2038432  -0.0666329   0.3225183 SPIN=   0.00000
   O   0.6829614   0.1467853   0.7365740 SPIN=   0.00000
   O   0.5711762   0.1491977   0.3006608 SPIN=   0.00000
   P   0.4601308   0.1823058   0.5002568 SPIN=   0.00000
  Fe  -0.0004459   0.2545232   0.5739261 SPIN=   4.00000
  Fe  -0.5743720  -0.3194029  -0.5739261 SPIN=   4.00000
%ENDBLOCK POSITIONS_FRAC

# Note: total spin =   8.00

KPOINTS_MP_SPACING 0.07

%BLOCK SPECIES_POT
QC5
%ENDBLOCK SPECIES_POT

%BLOCK HUBBARD_U
Fe d:4.0
%ENDBLOCK HUBBARD_U

SNAP_TO_SYMMETRY
SYMMETRY_GENERATE

