#              Generated by Buildcell
#
# at 07:55:23 (GMT+0.0) 24th November 2020
# in /scratch/scratch/uccabz1/launch_tmp
# on node-a14a-017
# by uccabz1
#
# compiler GCC version 4.9.2
# options -cpp -iprefix /scratch/UCL/applications/gcc/4.9.2/bin/../lib/gcc/x86_64-unknown-linux-gnu/4.9.2/ -mtune=corei7 -march=x86-64 -g -O2
#
# seed -1024127046  1520403959  1355423258 -1982200841 -1162888765  -131009208  1071946464   529292499   370332786  1784735171  1617846395  1759723864
#
#      Author: C. J. Pickard (cjp20@cam.ac.uk)
#                Space group: Cm
#

%BLOCK LATTICE_ABC
      5.23796      6.19241      6.19241
    102.27773    111.30674    111.30674
%ENDBLOCK LATTICE_ABC

%BLOCK POSITIONS_FRAC
  Li   0.2071129   0.9668445   0.4836216 SPIN=   0.00000
  Li   0.2071129  -0.5163784  -0.0331555 SPIN=   0.00000
   O  -0.5022490  -0.6431758  -0.3888138 SPIN=   0.00000
   O  -0.2508525  -0.7987751  -0.0539390 SPIN=   0.00000
   O  -0.0592470  -0.3402711   0.0697816 SPIN=   0.00000
   P  -0.3626075  -0.6030191  -0.1088877 SPIN=   0.00000
   O   0.4977510   0.6111862   0.3568242 SPIN=   0.00000
   O   0.7491475   0.9460610   0.2012249 SPIN=   0.00000
   O   0.9407530   1.0697816   0.6597289 SPIN=   0.00000
   P   0.6373925   0.8911123   0.3969809 SPIN=   0.00000
   O  -0.6885903  -0.2678700  -0.2678700 SPIN=   0.00000
   O   0.2957486   0.1527832   0.1527832 SPIN=   0.00000
  Fe  -0.1722920  -0.1095160  -0.1095160 SPIN=   0.66327
  Fe   0.7827709   0.3733374   0.3733374 SPIN=   7.33673
%ENDBLOCK POSITIONS_FRAC

# Note: total spin =   8.00

KPOINTS_MP_SPACING 0.07

%BLOCK SPECIES_POT
QC5
%ENDBLOCK SPECIES_POT

%BLOCK HUBBARD_U
Fe d:4.0
%ENDBLOCK HUBBARD_U

SNAP_TO_SYMMETRY
SYMMETRY_GENERATE

