#              Generated by Buildcell
#
# at 08:30:19 (GMT+0.0) 24th November 2020
# in /scratch/scratch/uccabz1/launch_tmp
# on node-a14a-009
# by uccabz1
#
# compiler GCC version 4.9.2
# options -cpp -iprefix /scratch/UCL/applications/gcc/4.9.2/bin/../lib/gcc/x86_64-unknown-linux-gnu/4.9.2/ -mtune=corei7 -march=x86-64 -g -O2
#
# seed -1147738621  -263243221  1789740686  -837291556  1558023911 -1443462360 -1233622712  -454858756 -1706377524   770026376 -1910916331  -106347212
#
#      Author: C. J. Pickard (cjp20@cam.ac.uk)
#                Space group: Pba2
#

%BLOCK LATTICE_ABC
      5.28539      5.50078      5.50325
     90.00000     90.00000     90.00000
%ENDBLOCK LATTICE_ABC

%BLOCK POSITIONS_FRAC
  Li   0.0288549   0.0000000   0.0000000 SPIN=   0.00000
  Li   0.0288549  -0.5000000   0.5000000 SPIN=   0.00000
   O  -0.3250502  -0.6032179  -0.2728281 SPIN=   0.00000
   O   0.0669299  -0.3426405  -0.1574495 SPIN=   0.00000
   O  -0.3250502   0.6032179   0.2728281 SPIN=   0.00000
   O   0.0669299   0.3426405   0.1574495 SPIN=   0.00000
   O  -0.3250502   0.1032179   0.2271719 SPIN=   0.00000
   O   0.0669299  -0.1573595   0.3425505 SPIN=   0.00000
   O  -0.3250502  -0.1032179  -0.2271719 SPIN=   0.00000
   O   0.0669299   0.1573595  -0.3425505 SPIN=   0.00000
   P  -0.4698351  -0.0000000   0.0000000 SPIN=   0.00000
   P  -0.4698351  -0.5000000  -0.5000000 SPIN=   0.00000
  Fe   0.3881131   0.0000000  -0.5000000 SPIN=   4.00000
  Fe   0.3881131   0.5000000   0.0000000 SPIN=   4.00000
%ENDBLOCK POSITIONS_FRAC

# Note: total spin =   8.00

KPOINTS_MP_SPACING 0.07

%BLOCK SPECIES_POT
QC5
%ENDBLOCK SPECIES_POT

%BLOCK HUBBARD_U
Fe d:4.0
%ENDBLOCK HUBBARD_U

SNAP_TO_SYMMETRY
SYMMETRY_GENERATE

