#              Generated by Buildcell
#
# at 20:08:20 (GMT+0.0) 26th November 2020
# in /scratch/scratch/mmm0366/launch_tmp
# on node-k98p-014
# by mmm0366
#
# compiler GCC version 4.9.2
# options -cpp -iprefix /scratch/UCL/applications/gcc/4.9.2/bin/../lib/gcc/x86_64-unknown-linux-gnu/4.9.2/ -mtune=corei7 -march=x86-64 -g -O2
#
# seed  1883314623 -1086981380   -32328242 -1379480769   283373317  2024323094    74544276   343644065 -1742448968  2066954000  1260601155  1965742478
#
#      Author: C. J. Pickard (cjp20@cam.ac.uk)
#                Space group: Pnc2
#

%BLOCK LATTICE_ABC
      5.25458      7.76947      7.83827
     90.00000     90.00000     90.00000
%ENDBLOCK LATTICE_ABC

%BLOCK POSITIONS_FRAC
  Li   0.5000000  -0.2159511  -0.5000000 SPIN=   0.00000
  Li  -0.5000000   0.2840489  -0.0000000 SPIN=   0.00000
  Li   0.5000000  -0.2664863   0.0000000 SPIN=   0.00000
  Li  -0.5000000   0.2335137  -0.5000000 SPIN=   0.00000
   O  -0.6996472  -0.4517160   0.2508788 SPIN=   0.00000
   O  -0.2461077  -0.4387060   0.1195097 SPIN=   0.00000
   O  -0.2875563  -0.4361517   0.4333900 SPIN=   0.00000
   P  -0.4200248  -0.5075222   0.2679191 SPIN=   0.00000
   O   0.6996472  -0.4517160  -0.2508788 SPIN=   0.00000
   O   0.2461077  -0.4387060  -0.1195097 SPIN=   0.00000
   O   0.2875563  -0.4361517  -0.4333900 SPIN=   0.00000
   P   0.4200248  -0.5075222  -0.2679191 SPIN=   0.00000
   O  -0.6996472   0.0482840   0.2491212 SPIN=   0.00000
   O  -0.2461077   0.0612940   0.3804903 SPIN=   0.00000
   O  -0.2875563   0.0638483   0.0666100 SPIN=   0.00000
   P  -0.4200248  -0.0075222   0.2320809 SPIN=   0.00000
   O   0.6996472   0.0482840  -0.2491212 SPIN=   0.00000
   O   0.2461077   0.0612940  -0.3804903 SPIN=   0.00000
   O   0.2875563   0.0638483  -0.0666100 SPIN=   0.00000
   P   0.4200248  -0.0075222  -0.2320809 SPIN=   0.00000
   O  -0.0000000   0.3202148   0.0000000 SPIN=   0.00000
   O  -0.0000000  -0.1797852  -0.5000000 SPIN=   0.00000
   O   0.0000000  -0.1782120  -0.0000000 SPIN=   0.00000
   O   0.0000000   0.3217880  -0.5000000 SPIN=   0.00000
  Fe   0.0007227  -0.2733349   0.2505637 SPIN=   4.00000
  Fe  -0.0007227  -0.2733349  -0.2505637 SPIN=   4.00000
  Fe   0.0007227   0.2266651   0.2494363 SPIN=   4.00000
  Fe  -0.0007227   0.2266651  -0.2494363 SPIN=   4.00000
%ENDBLOCK POSITIONS_FRAC

# Note: total spin =  16.00

KPOINTS_MP_SPACING 0.07

%BLOCK SPECIES_POT
QC5
%ENDBLOCK SPECIES_POT

%BLOCK HUBBARD_U
Fe d:4.0
%ENDBLOCK HUBBARD_U

SNAP_TO_SYMMETRY
SYMMETRY_GENERATE

