#              Generated by Buildcell
#
# at 12:57:31 (GMT+0.0) 26th November 2020
# in /lustre/scratch/uccabz1/launch_tmp
# on node-c12f-029
# by uccabz1
#
# compiler GCC version 4.9.2
# options -cpp -iprefix /lustre/shared/ucl/apps/gcc/4.9.2/bin/../lib/gcc/x86_64-unknown-linux-gnu/4.9.2/ -mtune=corei7 -march=x86-64 -g -Og
#
# seed    82411995   744988802  1551340195  1382893207 -1112444630    72582541  -283465121  1075044548   675440285 -1895548055  1574448745 -1574678836
#
#      Author: C. J. Pickard (cjp20@cam.ac.uk)
#                Space group: P-1
#

%BLOCK LATTICE_ABC
      5.77274      6.34067      8.79874
     84.94143     89.33948     85.94863
%ENDBLOCK LATTICE_ABC

%BLOCK POSITIONS_FRAC
  Li   0.1837818   0.3194513  -0.2788796 SPIN=   0.00000
  Li  -0.1837818  -0.3194513   0.2788796 SPIN=   0.00000
  Li   0.2451819  -0.3253249   0.4743098 SPIN=   0.00000
  Li  -0.2451819   0.3253249  -0.4743098 SPIN=   0.00000
   O  -0.4559532   0.3285604   0.2453607 SPIN=   0.00000
   O  -0.0992853   0.3040992   0.0633757 SPIN=   0.00000
   O  -0.0341742   0.3725032   0.3310707 SPIN=   0.00000
   O  -0.1451353   0.0140873   0.2716080 SPIN=   0.00000
   P  -0.1976821   0.2558984   0.2293023 SPIN=   0.00000
   O   0.4559532  -0.3285604  -0.2453607 SPIN=   0.00000
   O   0.0992853  -0.3040992  -0.0633757 SPIN=   0.00000
   O   0.0341742  -0.3725032  -0.3310707 SPIN=   0.00000
   O   0.1451353  -0.0140873  -0.2716080 SPIN=   0.00000
   P   0.1976821  -0.2558984  -0.2293023 SPIN=   0.00000
   O   0.5724802  -0.2061967   0.0712312 SPIN=   0.00000
   O   0.2443773   0.0553672   0.1631786 SPIN=   0.00000
   O   0.2031828  -0.3294645   0.2147645 SPIN=   0.00000
   O   0.5010112  -0.1566239   0.3566211 SPIN=   0.00000
   P   0.3919225  -0.1616995   0.1963466 SPIN=   0.00000
   O  -0.5724802   0.2061967  -0.0712312 SPIN=   0.00000
   O  -0.2443773  -0.0553672  -0.1631786 SPIN=   0.00000
   O  -0.2031828   0.3294645  -0.2147645 SPIN=   0.00000
   O  -0.5010112   0.1566239  -0.3566211 SPIN=   0.00000
   P  -0.3919225   0.1616995  -0.1963466 SPIN=   0.00000
  Fe   0.2759268   0.1861500   0.3719909 SPIN=   4.34875
  Fe  -0.2759268  -0.1861500  -0.3719909 SPIN=   4.34875
  Fe  -0.0000000  -0.0000000  -0.0000000 SPIN=   6.30242
  Fe   0.5000000  -0.5000000   0.0000000 SPIN=   1.00009
%ENDBLOCK POSITIONS_FRAC

# Note: total spin =  16.00

KPOINTS_MP_SPACING 0.07

%BLOCK SPECIES_POT
QC5
%ENDBLOCK SPECIES_POT

%BLOCK HUBBARD_U
Fe d:4.0
%ENDBLOCK HUBBARD_U

SNAP_TO_SYMMETRY
SYMMETRY_GENERATE

