#              Generated by Buildcell
#
# at 07:28:15 (GMT+0.0) 24th November 2020
# in /lustre/scratch/uccabz1/launch_tmp
# on node-c12n-028
# by uccabz1
#
# compiler GCC version 4.9.2
# options -cpp -iprefix /lustre/shared/ucl/apps/gcc/4.9.2/bin/../lib/gcc/x86_64-unknown-linux-gnu/4.9.2/ -mtune=corei7 -march=x86-64 -g -Og
#
# seed -1511596388  -533476524  -370531596  -395735203  -922181424  1017574481  1115696224  1871805687  -918675139  1701226496  -528941246 -1772591060
#
#      Author: C. J. Pickard (cjp20@cam.ac.uk)
#                Space group: Cc
#

%BLOCK LATTICE_ABC
      4.15470      6.04693      7.45081
    112.89655     90.00000    110.09256
%ENDBLOCK LATTICE_ABC

%BLOCK POSITIONS_FRAC
  Li  -0.4242098   0.2637595  -0.0066804 SPIN=   0.00000
  Li  -0.3120307   0.2637595   0.4933196 SPIN=   0.00000
   O   0.3895640  -0.6231406   0.3030326 SPIN=   0.00000
   O   0.4884248  -0.3885330   0.0688977 SPIN=   0.00000
   O  -0.0287739  -0.4191334   0.2356421 SPIN=   0.00000
   O   0.5603253  -0.1286677   0.4327901 SPIN=   0.00000
   P   0.3568186  -0.3992068   0.2644151 SPIN=   0.00000
   O  -0.0127045  -0.6231406  -0.1969674 SPIN=   0.00000
   O   0.1230422  -0.3885330  -0.4311023 SPIN=   0.00000
   O   0.6096405  -0.4191334  -0.2643579 SPIN=   0.00000
   O   0.3110070  -0.1286677  -0.0672099 SPIN=   0.00000
   P   0.2439746  -0.3992068  -0.2355849 SPIN=   0.00000
  Fe   0.0053823  -0.1146867   0.1568350 SPIN=   4.00000
  Fe  -0.1200690  -0.1146867  -0.3431650 SPIN=   4.00000
%ENDBLOCK POSITIONS_FRAC

# Note: total spin =   8.00

KPOINTS_MP_SPACING 0.07

%BLOCK SPECIES_POT
QC5
%ENDBLOCK SPECIES_POT

%BLOCK HUBBARD_U
Fe d:4.0
%ENDBLOCK HUBBARD_U

SNAP_TO_SYMMETRY
SYMMETRY_GENERATE

