#              Generated by Buildcell
#
# at 00:50:19 (GMT+0.0) 27th November 2020
# in /lustre/scratch/uccabz1/launch_tmp
# on node-c12g-020
# by uccabz1
#
# compiler GCC version 4.9.2
# options -cpp -iprefix /lustre/shared/ucl/apps/gcc/4.9.2/bin/../lib/gcc/x86_64-unknown-linux-gnu/4.9.2/ -mtune=corei7 -march=x86-64 -g -Og
#
# seed  -437460237 -1295861022   961202199   241762534  1606791467  1968314589   -94792537  -500780695   670070848  1012667389   954621075 -1230187311
#
#      Author: C. J. Pickard (cjp20@cam.ac.uk)
#                Space group: Pnn2
#

%BLOCK LATTICE_ABC
      5.05159      7.70230      8.22434
     90.00000     90.00000     90.00000
%ENDBLOCK LATTICE_ABC

%BLOCK POSITIONS_FRAC
  Li  -0.3960812  -0.4636151  -0.3204492 SPIN=   0.00000
  Li  -0.3960812   0.4636151   0.3204492 SPIN=   0.00000
  Li   0.1039188   0.0363849  -0.1795508 SPIN=   0.00000
  Li   0.1039188  -0.0363849   0.1795508 SPIN=   0.00000
   O  -0.0153201   0.4339343  -0.3538684 SPIN=   0.00000
   O   0.0006777   0.3171581  -0.0576662 SPIN=   0.00000
   O   0.3754960   0.2512050  -0.2403624 SPIN=   0.00000
   O   0.3104528   0.5552525  -0.1401296 SPIN=   0.00000
   P   0.1597581   0.3937168  -0.2056225 SPIN=   0.00000
   O  -0.0153201  -0.4339343   0.3538684 SPIN=   0.00000
   O   0.0006777  -0.3171581   0.0576662 SPIN=   0.00000
   O   0.3754960  -0.2512050   0.2403624 SPIN=   0.00000
   O   0.3104528  -0.5552525   0.1401296 SPIN=   0.00000
   P   0.1597581  -0.3937168   0.2056225 SPIN=   0.00000
   O  -0.5153201  -0.0660657  -0.1461316 SPIN=   0.00000
   O  -0.4993223  -0.1828419  -0.4423338 SPIN=   0.00000
   O  -0.1245040  -0.2487950  -0.2596376 SPIN=   0.00000
   O  -0.1895472   0.0552525  -0.3598704 SPIN=   0.00000
   P  -0.3402419  -0.1062832  -0.2943775 SPIN=   0.00000
   O  -0.5153201   0.0660657   0.1461316 SPIN=   0.00000
   O  -0.4993223   0.1828419   0.4423338 SPIN=   0.00000
   O  -0.1245040   0.2487950   0.2596376 SPIN=   0.00000
   O  -0.1895472  -0.0552525   0.3598704 SPIN=   0.00000
   P  -0.3402419   0.1062832   0.2943775 SPIN=   0.00000
  Fe   0.1025434  -0.2492935  -0.4749308 SPIN=   4.00000
  Fe   0.1025434   0.2492935   0.4749308 SPIN=   4.00000
  Fe  -0.3974566   0.2507065  -0.0250692 SPIN=   4.00000
  Fe  -0.3974566  -0.2507065   0.0250692 SPIN=   4.00000
%ENDBLOCK POSITIONS_FRAC

# Note: total spin =  16.00

KPOINTS_MP_SPACING 0.07

%BLOCK SPECIES_POT
QC5
%ENDBLOCK SPECIES_POT

%BLOCK HUBBARD_U
Fe d:4.0
%ENDBLOCK HUBBARD_U

SNAP_TO_SYMMETRY
SYMMETRY_GENERATE

