#              Generated by Buildcell
#
# at 13:40:48 (GMT+0.0) 24th November 2020
# in /lustre/scratch/uccabz1/launch_tmp
# on node-c12p-023
# by uccabz1
#
# compiler GCC version 4.9.2
# options -cpp -iprefix /lustre/shared/ucl/apps/gcc/4.9.2/bin/../lib/gcc/x86_64-unknown-linux-gnu/4.9.2/ -mtune=corei7 -march=x86-64 -g -Og
#
# seed   634123183  1702374341 -1251508658  -755468382 -1810211030  1947214197  -305145988 -1554859217  1962099903 -1750143221 -1345926985  -836692949
#
#      Author: C. J. Pickard (cjp20@cam.ac.uk)
#                Space group: P21
#

%BLOCK LATTICE_ABC
      4.39784      5.94653      6.40594
     90.00000     90.00000    107.24083
%ENDBLOCK LATTICE_ABC

%BLOCK POSITIONS_FRAC
  Li  -0.0797012  -0.1640110   0.1598061 SPIN=   0.00000
  Li   0.0797012   0.1640110  -0.3401939 SPIN=   0.00000
   O   0.6641139  -0.1704213  -0.1560995 SPIN=   0.00000
   O   0.2770523   0.0709695  -0.0646146 SPIN=   0.00000
   O   0.1981334  -0.1492919  -0.3970219 SPIN=   0.00000
   O   0.0755122  -0.3695224  -0.0591492 SPIN=   0.00000
   P   0.3202002  -0.1579474  -0.1672237 SPIN=   0.00000
   O  -0.6641139   0.1704213   0.3439005 SPIN=   0.00000
   O  -0.2770523  -0.0709695   0.4353854 SPIN=   0.00000
   O  -0.1981334   0.1492919   0.1029781 SPIN=   0.00000
   O  -0.0755122   0.3695224   0.4408508 SPIN=   0.00000
   P  -0.3202002   0.1579474   0.3327763 SPIN=   0.00000
  Fe  -0.2498835  -0.4060622  -0.3755468 SPIN=   4.00000
  Fe   0.2498835   0.4060622   0.1244532 SPIN=   4.00000
%ENDBLOCK POSITIONS_FRAC

# Note: total spin =   8.00

KPOINTS_MP_SPACING 0.07

%BLOCK SPECIES_POT
QC5
%ENDBLOCK SPECIES_POT

%BLOCK HUBBARD_U
Fe d:4.0
%ENDBLOCK HUBBARD_U

SNAP_TO_SYMMETRY
SYMMETRY_GENERATE

