#              Generated by Buildcell
#
# at 12:43:52 (GMT+0.0) 24th November 2020
# in /lustre/scratch/uccabz1/launch_tmp
# on node-c12h-026
# by uccabz1
#
# compiler GCC version 4.9.2
# options -cpp -iprefix /lustre/shared/ucl/apps/gcc/4.9.2/bin/../lib/gcc/x86_64-unknown-linux-gnu/4.9.2/ -mtune=corei7 -march=x86-64 -g -Og
#
# seed  1846224799   928124954 -1406047231  -936656397 -1582092822  1423200615  1318745954   909927558   597044898   762700903  -705101024   988736198
#
#      Author: C. J. Pickard (cjp20@cam.ac.uk)
#                Space group: P21/m
#

%BLOCK LATTICE_ABC
      3.88580      5.60977      7.53705
     90.00000     90.00000    103.13099
%ENDBLOCK LATTICE_ABC

%BLOCK POSITIONS_FRAC
  Li  -0.0000000   0.0000000  -0.0000000 SPIN=   0.00000
  Li   0.0000000   0.0000000   0.5000000 SPIN=   0.00000
   O  -0.1567575  -0.3665993   0.0864605 SPIN=   0.00000
   O   0.4232627  -0.1904035  -0.0868037 SPIN=   0.00000
   O   0.1567575   0.3665993   0.5864605 SPIN=   0.00000
   O  -0.4232627   0.1904035   0.4131963 SPIN=   0.00000
   O   0.1567575   0.3665993  -0.0864605 SPIN=   0.00000
   O  -0.4232627   0.1904035   0.0868037 SPIN=   0.00000
   O  -0.1567575  -0.3665993  -0.5864605 SPIN=   0.00000
   O   0.4232627  -0.1904035  -0.4131963 SPIN=   0.00000
   P   0.4886026  -0.0177025  -0.2500000 SPIN=   0.00000
   P  -0.4886026   0.0177025   0.2500000 SPIN=   0.00000
  Fe  -0.3183232  -0.4893337  -0.2500000 SPIN=   4.00000
  Fe   0.3183232   0.4893337   0.2500000 SPIN=   4.00000
%ENDBLOCK POSITIONS_FRAC

# Note: total spin =   8.00

KPOINTS_MP_SPACING 0.07

%BLOCK SPECIES_POT
QC5
%ENDBLOCK SPECIES_POT

%BLOCK HUBBARD_U
Fe d:4.0
%ENDBLOCK HUBBARD_U

SNAP_TO_SYMMETRY
SYMMETRY_GENERATE

