#              Generated by Buildcell
#
# at 08:27:01 (GMT+0.0) 24th November 2020
# in /lustre/scratch/uccabz1/launch_tmp
# on node-c12l-023
# by uccabz1
#
# compiler GCC version 4.9.2
# options -cpp -iprefix /lustre/shared/ucl/apps/gcc/4.9.2/bin/../lib/gcc/x86_64-unknown-linux-gnu/4.9.2/ -mtune=corei7 -march=x86-64 -g -Og
#
# seed  1011757071   497648485 -1674871125 -1183354010  -195092340 -1184324566 -1827930721   103352978   733718944    44755489 -1866597988 -1511648093
#
#      Author: C. J. Pickard (cjp20@cam.ac.uk)
#                Space group: P-1
#

%BLOCK LATTICE_ABC
      4.71748      5.02326      6.93642
    102.04615     95.38266     90.20032
%ENDBLOCK LATTICE_ABC

%BLOCK POSITIONS_FRAC
  Li   0.0267302  -0.0856098   0.1942544 SPIN=   0.00000
  Li  -0.0267302   0.0856098  -0.1942544 SPIN=   0.00000
   O   0.4269665   0.1489836  -0.2703221 SPIN=   0.00000
   O   0.7096672  -0.2222406  -0.1291146 SPIN=   0.00000
   O   0.1935987  -0.3001108  -0.2244839 SPIN=   0.00000
   P   0.4627553  -0.1575514  -0.2800424 SPIN=   0.00000
   O  -0.4269665  -0.1489836   0.2703221 SPIN=   0.00000
   O  -0.7096672   0.2222406   0.1291146 SPIN=   0.00000
   O  -0.1935987   0.3001108   0.2244839 SPIN=   0.00000
   P  -0.4627553   0.1575514   0.2800424 SPIN=   0.00000
   O  -0.0000000   0.0000000   0.5000000 SPIN=   0.00000
   O   0.5000000  -0.5000000  -0.5000000 SPIN=   0.00000
  Fe   0.0000000  -0.5000000  -0.5000000 SPIN=   7.48800
  Fe  -0.5000000   0.5000000   0.0000000 SPIN=   0.51200
%ENDBLOCK POSITIONS_FRAC

# Note: total spin =   8.00

KPOINTS_MP_SPACING 0.07

%BLOCK SPECIES_POT
QC5
%ENDBLOCK SPECIES_POT

%BLOCK HUBBARD_U
Fe d:4.0
%ENDBLOCK HUBBARD_U

SNAP_TO_SYMMETRY
SYMMETRY_GENERATE

