#              Generated by Buildcell
#
# at 17:30:11 (GMT+0.0) 26th November 2020
# in /lustre/scratch/uccabz1/launch_tmp
# on node-c12k-026
# by uccabz1
#
# compiler GCC version 4.9.2
# options -cpp -iprefix /lustre/shared/ucl/apps/gcc/4.9.2/bin/../lib/gcc/x86_64-unknown-linux-gnu/4.9.2/ -mtune=corei7 -march=x86-64 -g -Og
#
# seed -1157753835  1804738417 -1526647691 -1548305113 -1735820917 -1858945967   653802928  1174645227  1661062898 -1848841558  -786542729   112501285
#
#      Author: C. J. Pickard (cjp20@cam.ac.uk)
#                Space group: P2
#

%BLOCK LATTICE_ABC
      4.59197      7.66916      9.13456
     90.00000     95.87204     90.00000
%ENDBLOCK LATTICE_ABC

%BLOCK POSITIONS_FRAC
  Li   0.4701727   0.0139898  -0.1646047 SPIN=   0.00000
  Li  -0.4701727   0.0139898   0.1646047 SPIN=   0.00000
  Li  -0.0248142  -0.3683902   0.3350456 SPIN=   0.00000
  Li   0.0248142  -0.3683902  -0.3350456 SPIN=   0.00000
   O   0.2020178   0.0297212  -0.4002640 SPIN=   0.00000
   O  -0.3032916   0.1667364  -0.3645131 SPIN=   0.00000
   O  -0.2249523  -0.1449351  -0.3047261 SPIN=   0.00000
   O   0.0331900   0.0822380  -0.1427073 SPIN=   0.00000
   P  -0.0573457   0.0338180  -0.3063364 SPIN=   0.00000
   O  -0.2020178   0.0297212   0.4002640 SPIN=   0.00000
   O   0.3032916   0.1667364   0.3645131 SPIN=   0.00000
   O   0.2249523  -0.1449351   0.3047261 SPIN=   0.00000
   O  -0.0331900   0.0822380   0.1427073 SPIN=   0.00000
   P   0.0573457   0.0338180   0.3063364 SPIN=   0.00000
   O  -0.5937785   0.2722247   0.1209384 SPIN=   0.00000
   O  -0.6084661   0.5391455   0.2951710 SPIN=   0.00000
   O  -0.1613947   0.3580736   0.3133218 SPIN=   0.00000
   O  -0.2811729   0.5477398   0.0921711 SPIN=   0.00000
   P  -0.4193898   0.4223304   0.1995672 SPIN=   0.00000
   O   0.5937785   0.2722247  -0.1209384 SPIN=   0.00000
   O   0.6084661   0.5391455  -0.2951710 SPIN=   0.00000
   O   0.1613947   0.3580736  -0.3133218 SPIN=   0.00000
   O   0.2811729   0.5477398  -0.0921711 SPIN=   0.00000
   P   0.4193898   0.4223304  -0.1995672 SPIN=   0.00000
  Fe   0.5000000  -0.1305044   0.5000000 SPIN=   0.02916
  Fe   0.0000000  -0.2164592  -0.0000000 SPIN=   8.63555
  Fe  -0.5000000   0.3688259   0.5000000 SPIN=   5.69177
  Fe   0.0000000   0.2903718   0.0000000 SPIN=   1.64352
%ENDBLOCK POSITIONS_FRAC

# Note: total spin =  16.00

KPOINTS_MP_SPACING 0.07

%BLOCK SPECIES_POT
QC5
%ENDBLOCK SPECIES_POT

%BLOCK HUBBARD_U
Fe d:4.0
%ENDBLOCK HUBBARD_U

SNAP_TO_SYMMETRY
SYMMETRY_GENERATE

