#              Generated by Buildcell
#
# at 18:30:36 (GMT+0.0) 26th November 2020
# in /lustre/scratch/uccabz1/launch_tmp
# on node-c12j-025
# by uccabz1
#
# compiler GCC version 4.9.2
# options -cpp -iprefix /lustre/shared/ucl/apps/gcc/4.9.2/bin/../lib/gcc/x86_64-unknown-linux-gnu/4.9.2/ -mtune=corei7 -march=x86-64 -g -Og
#
# seed -1326234340    86561054 -1456245451  -680612537  -683590957   323421278 -2012317810 -1210553463  -920290790 -1571929533   640301671 -1649865605
#
#      Author: C. J. Pickard (cjp20@cam.ac.uk)
#                Space group: P21
#

%BLOCK LATTICE_ABC
      5.90063      5.96314      9.11842
     90.00000     90.00000     94.15483
%ENDBLOCK LATTICE_ABC

%BLOCK POSITIONS_FRAC
  Li   0.2648314  -0.3906826   0.1027474 SPIN=   0.00000
  Li  -0.2648314   0.3906826  -0.3972526 SPIN=   0.00000
  Li  -0.0836633   0.0799722  -0.1688467 SPIN=   0.00000
  Li   0.0836633  -0.0799722   0.3311533 SPIN=   0.00000
   O  -0.0880849   0.0036241   0.1056607 SPIN=   0.00000
   O   0.1951299   0.2925468   0.2357042 SPIN=   0.00000
   O   0.3399124   0.0590115   0.0377168 SPIN=   0.00000
   O   0.0830187   0.3616535  -0.0243942 SPIN=   0.00000
   P   0.1201654   0.1720130   0.0882421 SPIN=   0.00000
   O   0.0880849  -0.0036241  -0.3943393 SPIN=   0.00000
   O  -0.1951299  -0.2925468  -0.2642958 SPIN=   0.00000
   O  -0.3399124  -0.0590115  -0.4622832 SPIN=   0.00000
   O  -0.0830187  -0.3616535  -0.5243942 SPIN=   0.00000
   P  -0.1201654  -0.1720130  -0.4117579 SPIN=   0.00000
   O  -0.4662029  -0.2922066   0.3252981 SPIN=   0.00000
   O  -0.2979621  -0.6804526   0.3546080 SPIN=   0.00000
   O  -0.4465533  -0.5791567   0.1120838 SPIN=   0.00000
   O  -0.0863719  -0.3811482   0.2054249 SPIN=   0.00000
   P  -0.3290221  -0.4718646   0.2528790 SPIN=   0.00000
   O   0.4662029   0.2922066  -0.1747019 SPIN=   0.00000
   O   0.2979621   0.6804526  -0.1453920 SPIN=   0.00000
   O   0.4465533   0.5791567  -0.3879162 SPIN=   0.00000
   O   0.0863719   0.3811482  -0.2945751 SPIN=   0.00000
   P   0.3290221   0.4718646  -0.2471210 SPIN=   0.00000
  Fe  -0.2379580  -0.4322500  -0.0545933 SPIN=   5.83653
  Fe   0.2379580   0.4322500   0.4454067 SPIN=   5.83653
  Fe   0.4056952  -0.0559109  -0.3015817 SPIN=   2.16347
  Fe  -0.4056952   0.0559109   0.1984183 SPIN=   2.16347
%ENDBLOCK POSITIONS_FRAC

# Note: total spin =  16.00

KPOINTS_MP_SPACING 0.07

%BLOCK SPECIES_POT
QC5
%ENDBLOCK SPECIES_POT

%BLOCK HUBBARD_U
Fe d:4.0
%ENDBLOCK HUBBARD_U

SNAP_TO_SYMMETRY
SYMMETRY_GENERATE

