#              Generated by Buildcell
#
# at 12:40:39 (GMT+0.0) 24th November 2020
# in /lustre/scratch/uccabz1/launch_tmp
# on node-c12e-031
# by uccabz1
#
# compiler GCC version 4.9.2
# options -cpp -iprefix /lustre/shared/ucl/apps/gcc/4.9.2/bin/../lib/gcc/x86_64-unknown-linux-gnu/4.9.2/ -mtune=corei7 -march=x86-64 -g -Og
#
# seed -2033375274 -2133062092   415252774  1712363581  -669073226 -1834540305  -129310408  -292664738  1407562804 -1077691191 -1766549652  -195123342
#
#      Author: C. J. Pickard (cjp20@cam.ac.uk)
#                Space group: P21
#

%BLOCK LATTICE_ABC
      4.32312      5.57299      6.81795
     90.00000    103.08153     90.00000
%ENDBLOCK LATTICE_ABC

%BLOCK POSITIONS_FRAC
  Li   0.2192086   0.1057031  -0.4272503 SPIN=   0.00000
  Li  -0.2192086  -0.3942969   0.4272503 SPIN=   0.00000
   O   0.1630863   0.7068874   0.3029241 SPIN=   0.00000
   O   0.4669852   0.3028837   0.3769697 SPIN=   0.00000
   O  -0.0972662   0.2925488   0.1973817 SPIN=   0.00000
   O   0.3098998   0.4509330   0.0214603 SPIN=   0.00000
   P   0.2093133   0.4527624   0.2264516 SPIN=   0.00000
   O  -0.1630863   0.2068874  -0.3029241 SPIN=   0.00000
   O  -0.4669852  -0.1971163  -0.3769697 SPIN=   0.00000
   O   0.0972662  -0.2074512  -0.1973817 SPIN=   0.00000
   O  -0.3098998  -0.0490670  -0.0214603 SPIN=   0.00000
   P  -0.2093133  -0.0472376  -0.2264516 SPIN=   0.00000
  Fe  -0.2988997   0.4682388  -0.1207997 SPIN=   4.00000
  Fe   0.2988997  -0.0317612   0.1207997 SPIN=   4.00000
%ENDBLOCK POSITIONS_FRAC

# Note: total spin =   8.00

KPOINTS_MP_SPACING 0.07

%BLOCK SPECIES_POT
QC5
%ENDBLOCK SPECIES_POT

%BLOCK HUBBARD_U
Fe d:4.0
%ENDBLOCK HUBBARD_U

SNAP_TO_SYMMETRY
SYMMETRY_GENERATE

