#              Generated by Buildcell
#
# at 11:19:24 (GMT+0.0) 26th November 2020
# in /lustre/scratch/uccabz1/launch_tmp
# on node-c12d-021
# by uccabz1
#
# compiler GCC version 4.9.2
# options -cpp -iprefix /lustre/shared/ucl/apps/gcc/4.9.2/bin/../lib/gcc/x86_64-unknown-linux-gnu/4.9.2/ -mtune=corei7 -march=x86-64 -g -Og
#
# seed  -756630059   302548494 -1265829630   263679938  -118417634  -532759217  -267296367  -463899986  1793934018 -1809397628 -1603071708  -362907045
#
#      Author: C. J. Pickard (cjp20@cam.ac.uk)
#                Space group: P-1
#

%BLOCK LATTICE_ABC
      4.64704      7.85889      8.79518
     86.01849     88.21054     87.51418
%ENDBLOCK LATTICE_ABC

%BLOCK POSITIONS_FRAC
  Li  -0.3960726   0.2062643   0.3725178 SPIN=   0.00000
  Li   0.3960726  -0.2062643  -0.3725178 SPIN=   0.00000
  Li   0.1239469  -0.0374808   0.3434312 SPIN=   0.00000
  Li  -0.1239469   0.0374808  -0.3434312 SPIN=   0.00000
   O   0.2290138   0.6447433   0.2503415 SPIN=   0.00000
   O   0.0956703   0.3911589   0.0953879 SPIN=   0.00000
   O   0.5900509   0.3950653   0.1900173 SPIN=   0.00000
   O   0.1787243   0.3397375   0.3750926 SPIN=   0.00000
   P   0.2698864   0.4522205   0.2306541 SPIN=   0.00000
   O  -0.2290138  -0.6447433  -0.2503415 SPIN=   0.00000
   O  -0.0956703  -0.3911589  -0.0953879 SPIN=   0.00000
   O  -0.5900509  -0.3950653  -0.1900173 SPIN=   0.00000
   O  -0.1787243  -0.3397375  -0.3750926 SPIN=   0.00000
   P  -0.2698864  -0.4522205  -0.2306541 SPIN=   0.00000
   O  -0.6543451  -0.0111700   0.1167220 SPIN=   0.00000
   O  -0.4015976  -0.1269443   0.3645439 SPIN=   0.00000
   O  -0.1874011  -0.2053592   0.1171994 SPIN=   0.00000
   O  -0.1638087   0.0953500   0.1919463 SPIN=   0.00000
   P  -0.3656794  -0.0574655   0.1932297 SPIN=   0.00000
   O   0.6543451   0.0111700  -0.1167220 SPIN=   0.00000
   O   0.4015976   0.1269443  -0.3645439 SPIN=   0.00000
   O   0.1874011   0.2053592  -0.1171994 SPIN=   0.00000
   O   0.1638087  -0.0953500  -0.1919463 SPIN=   0.00000
   P   0.3656794   0.0574655  -0.1932297 SPIN=   0.00000
  Fe   0.2486450   0.3859037  -0.3458388 SPIN=   4.71112
  Fe  -0.2486450  -0.3859037   0.3458388 SPIN=   4.71112
  Fe   0.2625893  -0.2614441  -0.0018375 SPIN=   3.28888
  Fe  -0.2625893   0.2614441   0.0018375 SPIN=   3.28888
%ENDBLOCK POSITIONS_FRAC

# Note: total spin =  16.00

KPOINTS_MP_SPACING 0.07

%BLOCK SPECIES_POT
QC5
%ENDBLOCK SPECIES_POT

%BLOCK HUBBARD_U
Fe d:4.0
%ENDBLOCK HUBBARD_U

SNAP_TO_SYMMETRY
SYMMETRY_GENERATE

