#              Generated by Buildcell
#
# at 11:52:25 (GMT+0.0) 26th November 2020
# in /lustre/scratch/uccabz1/launch_tmp
# on node-c12k-026
# by uccabz1
#
# compiler GCC version 4.9.2
# options -cpp -iprefix /lustre/shared/ucl/apps/gcc/4.9.2/bin/../lib/gcc/x86_64-unknown-linux-gnu/4.9.2/ -mtune=corei7 -march=x86-64 -g -Og
#
# seed -1664467656  -485661374  -224183576   987508365  1393727666    28984943 -1797538257   610829578  1256855319  2072022936  -223055234  -537395722
#
#      Author: C. J. Pickard (cjp20@cam.ac.uk)
#                Space group: C2
#

%BLOCK LATTICE_ABC
      7.43004      7.43004      7.76728
     94.99826    113.45551    119.52591
%ENDBLOCK LATTICE_ABC

%BLOCK POSITIONS_FRAC
  Li   0.3040179   0.4081354  -0.2179541 SPIN=   0.00000
  Li  -0.3739106  -0.4780280   0.2179541 SPIN=   0.00000
  Li  -0.1775933  -0.2609052  -0.1896053 SPIN=   0.00000
  Li  -0.0712998   0.0120120   0.1896053 SPIN=   0.00000
   O   0.4952322  -0.2651497   0.0378996 SPIN=   0.00000
   O   0.4420300   0.0202835  -0.1036830 SPIN=   0.00000
   O   0.7408116  -0.0318523  -0.1162154 SPIN=   0.00000
   O   0.3020452  -0.3313607  -0.3415235 SPIN=   0.00000
   P   0.4927631  -0.1601598  -0.1243797 SPIN=   0.00000
   O  -0.3030493  -0.5426673  -0.0378996 SPIN=   0.00000
   O   0.1239665  -0.4542870   0.1036830 SPIN=   0.00000
   O   0.0843631  -0.1429730   0.1162154 SPIN=   0.00000
   O   0.0101628  -0.3564313   0.3415235 SPIN=   0.00000
   P  -0.0357801  -0.3828572   0.1243797 SPIN=   0.00000
   O  -0.0178500   0.1186817   0.7234007 SPIN=   0.00000
   O  -0.4624064  -0.1239940   0.4321240 SPIN=   0.00000
   O  -0.1643000   0.1928249   0.3911661 SPIN=   0.00000
   O  -0.1550738  -0.1399672   0.3857901 SPIN=   0.00000
   P  -0.1896848   0.0157806   0.4947654 SPIN=   0.00000
   O  -0.6047190   0.2587493  -0.7234007 SPIN=   0.00000
   O  -0.5561180   0.1054696  -0.4321240 SPIN=   0.00000
   O  -0.1983412   0.4445340  -0.3911661 SPIN=   0.00000
   O  -0.5257573   0.4591361  -0.3857901 SPIN=   0.00000
   P  -0.4789847   0.3155498  -0.4947654 SPIN=   0.00000
  Fe   0.3010703  -0.4532015   0.3925156 SPIN=   1.74708
  Fe   0.1542829  -0.0914454  -0.3925156 SPIN=   1.74708
  Fe  -0.1650321   0.2597869  -0.1796772 SPIN=   6.25292
  Fe   0.4394641   0.0146452   0.1796772 SPIN=   6.25292
%ENDBLOCK POSITIONS_FRAC

# Note: total spin =  16.00

KPOINTS_MP_SPACING 0.07

%BLOCK SPECIES_POT
QC5
%ENDBLOCK SPECIES_POT

%BLOCK HUBBARD_U
Fe d:4.0
%ENDBLOCK HUBBARD_U

SNAP_TO_SYMMETRY
SYMMETRY_GENERATE

