#              Generated by Buildcell
#
# at 14:45:02 (GMT+0.0) 24th November 2020
# in /lustre/scratch/uccabz1/launch_tmp
# on node-c12g-020
# by uccabz1
#
# compiler GCC version 4.9.2
# options -cpp -iprefix /lustre/shared/ucl/apps/gcc/4.9.2/bin/../lib/gcc/x86_64-unknown-linux-gnu/4.9.2/ -mtune=corei7 -march=x86-64 -g -Og
#
# seed  2044693956 -1507676907   133126607   884023933  -717238168   588784294  1832292677  1461635805   -56095448 -1092595792   111610787  -981328614
#
#      Author: C. J. Pickard (cjp20@cam.ac.uk)
#                Space group: Pmn21
#

%BLOCK LATTICE_ABC
      5.16228      5.34993      5.79335
     90.00000     90.00000     90.00000
%ENDBLOCK LATTICE_ABC

%BLOCK POSITIONS_FRAC
  Li   0.0000000   0.3620934  -0.4896047 SPIN=   0.00000
  Li   0.5000000  -0.1379066   0.4896047 SPIN=   0.00000
   O   0.2428457  -0.3295504   0.1467408 SPIN=   0.00000
   O   0.2590886  -0.3900914  -0.2979819 SPIN=   0.00000
   O   0.2571543   0.1704496  -0.1467408 SPIN=   0.00000
   O   0.2409114   0.1099086   0.2979819 SPIN=   0.00000
   O  -0.2571543   0.1704496  -0.1467408 SPIN=   0.00000
   O  -0.2409114   0.1099086   0.2979819 SPIN=   0.00000
   O  -0.2428457  -0.3295504   0.1467408 SPIN=   0.00000
   O  -0.2590886  -0.3900914  -0.2979819 SPIN=   0.00000
   P   0.0000000  -0.1306654   0.3550931 SPIN=   0.00000
   P   0.5000000   0.3693346  -0.3550931 SPIN=   0.00000
  Fe   0.0000000  -0.1352806  -0.1402800 SPIN=   4.00000
  Fe   0.5000000   0.3647194   0.1402800 SPIN=   4.00000
%ENDBLOCK POSITIONS_FRAC

# Note: total spin =   8.00

KPOINTS_MP_SPACING 0.07

%BLOCK SPECIES_POT
QC5
%ENDBLOCK SPECIES_POT

%BLOCK HUBBARD_U
Fe d:4.0
%ENDBLOCK HUBBARD_U

SNAP_TO_SYMMETRY
SYMMETRY_GENERATE

