#              Generated by Buildcell
#
# at 19:06:29 (GMT+0.0) 26th November 2020
# in /scratch/scratch/uccabz1/launch_tmp
# on node-k10e-027
# by uccabz1
#
# compiler GCC version 4.9.2
# options -cpp -iprefix /scratch/UCL/applications/gcc/4.9.2/bin/../lib/gcc/x86_64-unknown-linux-gnu/4.9.2/ -mtune=corei7 -march=x86-64 -g -O2
#
# seed  -158166545 -1827740432 -1224436883 -2080234469   417859381 -1315099121  -206552128 -1659482964  1928426051 -2140163476 -1693630631  1099596589
#
#      Author: C. J. Pickard (cjp20@cam.ac.uk)
#                Space group: P212121
#

%BLOCK LATTICE_ABC
      3.92833      9.01503      9.03598
     90.00000     90.00000     90.00000
%ENDBLOCK LATTICE_ABC

%BLOCK POSITIONS_FRAC
  Li  -0.1376443   0.2871850   0.3770873 SPIN=   0.00000
  Li   0.1376443  -0.2128150   0.1229127 SPIN=   0.00000
  Li   0.3623557   0.2128150  -0.3770873 SPIN=   0.00000
  Li  -0.3623557  -0.2871850  -0.1229127 SPIN=   0.00000
   O  -0.4807819  -0.4667382   0.4046888 SPIN=   0.00000
   O  -0.0014663  -0.4578359   0.2067750 SPIN=   0.00000
   O  -0.3879654  -0.2428027   0.2282589 SPIN=   0.00000
   O   0.0377058  -0.2921847   0.4286116 SPIN=   0.00000
   P  -0.2197433  -0.3694553   0.3230643 SPIN=   0.00000
   O   0.4807819   0.0332618   0.0953112 SPIN=   0.00000
   O   0.0014663   0.0421641   0.2932250 SPIN=   0.00000
   O   0.3879654   0.2571973   0.2717411 SPIN=   0.00000
   O  -0.0377058   0.2078153   0.0713884 SPIN=   0.00000
   P   0.2197433   0.1305447   0.1769357 SPIN=   0.00000
   O   0.0192181  -0.0332618  -0.4046888 SPIN=   0.00000
   O   0.4985337  -0.0421641  -0.2067750 SPIN=   0.00000
   O   0.1120346  -0.2571973  -0.2282589 SPIN=   0.00000
   O   0.5377058  -0.2078153  -0.4286116 SPIN=   0.00000
   P   0.2802567  -0.1305447  -0.3230643 SPIN=   0.00000
   O  -0.0192181   0.4667382  -0.0953112 SPIN=   0.00000
   O  -0.4985337   0.4578359  -0.2932250 SPIN=   0.00000
   O  -0.1120346   0.2428027  -0.2717411 SPIN=   0.00000
   O  -0.5377058   0.2921847  -0.0713884 SPIN=   0.00000
   P  -0.2802567   0.3694553  -0.1769357 SPIN=   0.00000
  Fe  -0.0785584   0.0580984  -0.1057686 SPIN=   4.00000
  Fe   0.0785584  -0.4419016  -0.3942314 SPIN=   4.00000
  Fe   0.4214416   0.4419016   0.1057686 SPIN=   4.00000
  Fe  -0.4214416  -0.0580984   0.3942314 SPIN=   4.00000
%ENDBLOCK POSITIONS_FRAC

# Note: total spin =  16.00

KPOINTS_MP_SPACING 0.07

%BLOCK SPECIES_POT
QC5
%ENDBLOCK SPECIES_POT

%BLOCK HUBBARD_U
Fe d:4.0
%ENDBLOCK HUBBARD_U

SNAP_TO_SYMMETRY
SYMMETRY_GENERATE

