#              Generated by Buildcell
#
# at 20:09:44 (GMT+0.0) 26th November 2020
# in /lustre/scratch/uccabz1/launch_tmp
# on node-c12i-029
# by uccabz1
#
# compiler GCC version 4.9.2
# options -cpp -iprefix /lustre/shared/ucl/apps/gcc/4.9.2/bin/../lib/gcc/x86_64-unknown-linux-gnu/4.9.2/ -mtune=corei7 -march=x86-64 -g -Og
#
# seed -1127218159  -120451063 -1215491757  -381858061  -754927108 -1013112270 -1570796989   200229535   633196505  -738013924  1291349342 -1217697866
#
#      Author: C. J. Pickard (cjp20@cam.ac.uk)
#                Space group: Pc
#

%BLOCK LATTICE_ABC
      5.96960      7.17653      7.54715
     98.22692     90.00000     90.00000
%ENDBLOCK LATTICE_ABC

%BLOCK POSITIONS_FRAC
  Li   0.1046074  -0.4268020  -0.4051095 SPIN=   0.00000
  Li  -0.1046074  -0.4268020   0.0948905 SPIN=   0.00000
  Li  -0.0786710   0.2611859  -0.2188081 SPIN=   0.00000
  Li   0.0786710   0.2611859   0.2811919 SPIN=   0.00000
   O   0.2400726   0.6226016  -0.1446698 SPIN=   0.00000
   O   0.5902996   0.4608955  -0.0302733 SPIN=   0.00000
   O   0.2418003   0.4694840   0.1471268 SPIN=   0.00000
   O   0.2634745   0.2625705  -0.1491650 SPIN=   0.00000
   P   0.3280841   0.4606133  -0.0508306 SPIN=   0.00000
   O  -0.2400726   0.6226016   0.3553302 SPIN=   0.00000
   O  -0.5902996   0.4608955   0.4697267 SPIN=   0.00000
   O  -0.2418003   0.4694840   0.6471268 SPIN=   0.00000
   O  -0.2634745   0.2625705   0.3508350 SPIN=   0.00000
   P  -0.3280841   0.4606133   0.4491694 SPIN=   0.00000
   O   0.1943428  -0.0733505  -0.2569662 SPIN=   0.00000
   O   0.0457244   0.1378664  -0.4835171 SPIN=   0.00000
   O   0.1127733  -0.1990109  -0.5908554 SPIN=   0.00000
   O  -0.2080542  -0.1047227  -0.3835023 SPIN=   0.00000
   P   0.0417347  -0.0610558  -0.4190322 SPIN=   0.00000
   O  -0.1943428  -0.0733505   0.2430338 SPIN=   0.00000
   O  -0.0457244   0.1378664   0.0164829 SPIN=   0.00000
   O  -0.1127733  -0.1990109  -0.0908554 SPIN=   0.00000
   O   0.2080542  -0.1047227   0.1164977 SPIN=   0.00000
   P  -0.0417347  -0.0610558   0.0809678 SPIN=   0.00000
  Fe  -0.4220781   0.1836620   0.1034993 SPIN=   5.85055
  Fe   0.4220781   0.1836620  -0.3965007 SPIN=   5.85055
  Fe   0.4081948  -0.2873684   0.2722744 SPIN=   2.14945
  Fe  -0.4081948  -0.2873684  -0.2277256 SPIN=   2.14945
%ENDBLOCK POSITIONS_FRAC

# Note: total spin =  16.00

KPOINTS_MP_SPACING 0.07

%BLOCK SPECIES_POT
QC5
%ENDBLOCK SPECIES_POT

%BLOCK HUBBARD_U
Fe d:4.0
%ENDBLOCK HUBBARD_U

SNAP_TO_SYMMETRY
SYMMETRY_GENERATE

