#              Generated by Buildcell
#
# at 13:21:43 (GMT+0.0) 26th November 2020
# in /lustre/scratch/uccabz1/launch_tmp
# on node-c12i-031
# by uccabz1
#
# compiler GCC version 4.9.2
# options -cpp -iprefix /lustre/shared/ucl/apps/gcc/4.9.2/bin/../lib/gcc/x86_64-unknown-linux-gnu/4.9.2/ -mtune=corei7 -march=x86-64 -g -Og
#
# seed      843228 -1793843642 -1967850422   450308357  1059589857   949857913   486680469  1537288975  1440449744 -1430812573 -2113908591  2079383250
#
#      Author: C. J. Pickard (cjp20@cam.ac.uk)
#                Space group: Iba2
#

%BLOCK LATTICE_ABC
      7.52733      7.53949      7.53949
     71.60612     60.05332     60.05332
%ENDBLOCK LATTICE_ABC

%BLOCK POSITIONS_FRAC
  Li  -0.2073888  -0.0083341   0.0251086 SPIN=   0.00000
  Li   0.2073888  -0.0251086   0.0083341 SPIN=   0.00000
  Li   0.1906143   0.4916659  -0.4748914 SPIN=   0.00000
  Li   0.8093857   0.4748914  -0.4916659 SPIN=   0.00000
   O   0.0915765  -0.6102286  -0.1269851 SPIN=   0.00000
   O  -0.2838632  -0.2908144   0.0159575 SPIN=   0.00000
   O   0.0531475  -0.3242560   0.0288668 SPIN=   0.00000
   O   0.0322291  -0.2452878  -0.3104626 SPIN=   0.00000
   P  -0.0197327  -0.3791190  -0.1021963 SPIN=   0.00000
   O  -0.0915765   0.1269851   0.6102286 SPIN=   0.00000
   O   0.2838632  -0.0159575   0.2908144 SPIN=   0.00000
   O  -0.0531475  -0.0288668   0.3242560 SPIN=   0.00000
   O  -0.0322291   0.3104626   0.2452878 SPIN=   0.00000
   P   0.0197327   0.1021963   0.3791190 SPIN=   0.00000
   O  -0.3543628  -0.1102286   0.3730149 SPIN=   0.00000
   O  -0.4412798   0.2091856   0.5159575 SPIN=   0.00000
   O  -0.7577584   0.1757440   0.5288668 SPIN=   0.00000
   O  -0.4764787   0.2547122   0.1895374 SPIN=   0.00000
   P  -0.4989520   0.1208810   0.3978037 SPIN=   0.00000
   O   0.3543628  -0.3730149   0.1102286 SPIN=   0.00000
   O   0.4412798  -0.5159575  -0.2091856 SPIN=   0.00000
   O   0.7577584  -0.5288668  -0.1757440 SPIN=   0.00000
   O   0.4764787  -0.1895374  -0.2547122 SPIN=   0.00000
   P   0.4989520  -0.3978037  -0.1208810 SPIN=   0.00000
  Fe   0.7213043  -0.0871121  -0.3324734 SPIN=   4.00000
  Fe   0.2786957   0.3324734   0.0871121 SPIN=   4.00000
  Fe  -0.3017188   0.4128879   0.1675266 SPIN=   4.00000
  Fe   0.3017188  -0.1675266  -0.4128879 SPIN=   4.00000
%ENDBLOCK POSITIONS_FRAC

# Note: total spin =  16.00

KPOINTS_MP_SPACING 0.07

%BLOCK SPECIES_POT
QC5
%ENDBLOCK SPECIES_POT

%BLOCK HUBBARD_U
Fe d:4.0
%ENDBLOCK HUBBARD_U

SNAP_TO_SYMMETRY
SYMMETRY_GENERATE

