#              Generated by Buildcell
#
# at 07:25:29 (GMT+0.0) 24th November 2020
# in /scratch/scratch/uccabz1/launch_tmp
# on node-a14f-002
# by uccabz1
#
# compiler GCC version 4.9.2
# options -cpp -iprefix /scratch/UCL/applications/gcc/4.9.2/bin/../lib/gcc/x86_64-unknown-linux-gnu/4.9.2/ -mtune=corei7 -march=x86-64 -g -O2
#
# seed   131722356   776031831   277007765    65837985  1985800407 -1386590350 -1948699969  -128516704 -1569195680  1299348363  1530840220  -861966070
#
#      Author: C. J. Pickard (cjp20@cam.ac.uk)
#                Space group: Pnc2
#

%BLOCK LATTICE_ABC
      5.06432      5.59999      5.64172
     90.00000     90.00000     90.00000
%ENDBLOCK LATTICE_ABC

%BLOCK POSITIONS_FRAC
  Li  -0.0000000  -0.0000000   0.1776392 SPIN=   0.00000
  Li  -0.0000000  -0.5000000  -0.3223608 SPIN=   0.00000
   O   0.2510570  -0.6057878  -0.0296407 SPIN=   0.00000
   O   0.3606467  -0.1859835   0.1399288 SPIN=   0.00000
   O  -0.2510570   0.6057878  -0.0296407 SPIN=   0.00000
   O  -0.3606467   0.1859835   0.1399288 SPIN=   0.00000
   O   0.2510570   0.1057878  -0.5296407 SPIN=   0.00000
   O   0.3606467  -0.3140165  -0.3600712 SPIN=   0.00000
   O  -0.2510570  -0.1057878  -0.5296407 SPIN=   0.00000
   O  -0.3606467   0.3140165  -0.3600712 SPIN=   0.00000
   P  -0.5000000  -0.5000000  -0.1884589 SPIN=   0.00000
   P  -0.5000000  -0.0000000   0.3115411 SPIN=   0.00000
  Fe  -0.5000000  -0.0000000  -0.1908074 SPIN=   4.00000
  Fe  -0.5000000   0.5000000   0.3091926 SPIN=   4.00000
%ENDBLOCK POSITIONS_FRAC

# Note: total spin =   8.00

KPOINTS_MP_SPACING 0.07

%BLOCK SPECIES_POT
QC5
%ENDBLOCK SPECIES_POT

%BLOCK HUBBARD_U
Fe d:4.0
%ENDBLOCK HUBBARD_U

SNAP_TO_SYMMETRY
SYMMETRY_GENERATE

