#              Generated by Buildcell
#
# at 08:25:04 (GMT+0.0) 24th November 2020
# in /lustre/scratch/uccabz1/launch_tmp
# on node-c12a-034
# by uccabz1
#
# compiler GCC version 4.9.2
# options -cpp -iprefix /lustre/shared/ucl/apps/gcc/4.9.2/bin/../lib/gcc/x86_64-unknown-linux-gnu/4.9.2/ -mtune=corei7 -march=x86-64 -g -Og
#
# seed  -744679113  -231929580 -1956347049   292676920 -1082000159 -1297755558  -981415272 -1367232849 -1882242843  -382197901  -605331866   753210927
#
#      Author: C. J. Pickard (cjp20@cam.ac.uk)
#                Space group: Fdd2
#

%BLOCK LATTICE_ABC
      5.74408      5.74408      6.16426
    105.96216    105.96216    114.18987
%ENDBLOCK LATTICE_ABC

%BLOCK POSITIONS_FRAC
  Li   0.3972586  -0.3972586   0.5000000 SPIN=   0.00000
  Li  -0.3527414   0.3527414   0.0000000 SPIN=   0.00000
   O   0.0768183  -0.3540590   0.2682355 SPIN=   0.00000
   O   0.3625892   0.1798606   0.3692261 SPIN=   0.00000
   O   0.3540590  -0.0768183  -0.2682355 SPIN=   0.00000
   O  -0.1798606  -0.3625892  -0.3692261 SPIN=   0.00000
   O  -0.4414172  -0.3722946   0.2317645 SPIN=   0.00000
   O  -0.2566368   0.0606345   0.1307739 SPIN=   0.00000
   O   0.3722946   0.4414172  -0.2317645 SPIN=   0.00000
   O  -0.0606345   0.2566368  -0.1307739 SPIN=   0.00000
   P   0.1008530  -0.1008530  -0.5000000 SPIN=   0.00000
   P   0.3508530  -0.3508530   0.0000000 SPIN=   0.00000
  Fe   0.0264789  -0.0264789   0.0000000 SPIN=   4.00000
  Fe  -0.2235211   0.2235211   0.5000000 SPIN=   4.00000
%ENDBLOCK POSITIONS_FRAC

# Note: total spin =   8.00

KPOINTS_MP_SPACING 0.07

%BLOCK SPECIES_POT
QC5
%ENDBLOCK SPECIES_POT

%BLOCK HUBBARD_U
Fe d:4.0
%ENDBLOCK HUBBARD_U

SNAP_TO_SYMMETRY
SYMMETRY_GENERATE

