#              Generated by Buildcell
#
# at 17:57:45 (GMT+0.0) 26th November 2020
# in /lustre/scratch/uccabz1/launch_tmp
# on node-c12n-022
# by uccabz1
#
# compiler GCC version 4.9.2
# options -cpp -iprefix /lustre/shared/ucl/apps/gcc/4.9.2/bin/../lib/gcc/x86_64-unknown-linux-gnu/4.9.2/ -mtune=corei7 -march=x86-64 -g -Og
#
# seed -1502252089  -102014828 -1985125455  -347186023   330886628 -1468705284 -1879180907  -552461185 -1399192446   256222045 -1366998430  1524760024
#
#      Author: C. J. Pickard (cjp20@cam.ac.uk)
#                Space group: Pmc21
#

%BLOCK LATTICE_ABC
      5.93992      5.98304      9.00425
     90.00000     90.00000     90.00000
%ENDBLOCK LATTICE_ABC

%BLOCK POSITIONS_FRAC
  Li  -0.4635596   0.4445768  -0.5000000 SPIN=   0.00000
  Li   0.0364404  -0.4445768  -0.5000000 SPIN=   0.00000
  Li  -0.1205638   0.0664202   0.5000000 SPIN=   0.00000
  Li   0.3794362  -0.0664202   0.5000000 SPIN=   0.00000
   O  -0.4054729   0.0736978  -0.3381950 SPIN=   0.00000
   O  -0.4805429   0.3762526  -0.1372338 SPIN=   0.00000
   O  -0.1121702   0.1847335  -0.1372619 SPIN=   0.00000
   O  -0.2037479   0.4561280  -0.3402088 SPIN=   0.00000
   P  -0.3049321   0.2642715  -0.2447513 SPIN=   0.00000
   O   0.0945271  -0.0736978   0.3381950 SPIN=   0.00000
   O   0.0194571  -0.3762526   0.1372338 SPIN=   0.00000
   O   0.3878298  -0.1847335   0.1372619 SPIN=   0.00000
   O   0.2962521  -0.4561280   0.3402088 SPIN=   0.00000
   P   0.1950679  -0.2642715   0.2447513 SPIN=   0.00000
   O   0.0945271  -0.0736978  -0.3381950 SPIN=   0.00000
   O   0.0194571  -0.3762526  -0.1372338 SPIN=   0.00000
   O   0.3878298  -0.1847335  -0.1372619 SPIN=   0.00000
   O   0.2962521  -0.4561280  -0.3402088 SPIN=   0.00000
   P   0.1950679  -0.2642715  -0.2447513 SPIN=   0.00000
   O  -0.4054729   0.0736978   0.3381950 SPIN=   0.00000
   O  -0.4805429   0.3762526   0.1372338 SPIN=   0.00000
   O  -0.1121702   0.1847335   0.1372619 SPIN=   0.00000
   O  -0.2037479   0.4561280   0.3402088 SPIN=   0.00000
   P  -0.3049321   0.2642715   0.2447513 SPIN=   0.00000
  Fe   0.2138063   0.2477344  -0.2176807 SPIN=   4.00000
  Fe  -0.2861937  -0.2477344   0.2176807 SPIN=   4.00000
  Fe  -0.2861937  -0.2477344  -0.2176807 SPIN=   4.00000
  Fe   0.2138063   0.2477344   0.2176807 SPIN=   4.00000
%ENDBLOCK POSITIONS_FRAC

# Note: total spin =  16.00

KPOINTS_MP_SPACING 0.07

%BLOCK SPECIES_POT
QC5
%ENDBLOCK SPECIES_POT

%BLOCK HUBBARD_U
Fe d:4.0
%ENDBLOCK HUBBARD_U

SNAP_TO_SYMMETRY
SYMMETRY_GENERATE

