#              Generated by Buildcell
#
# at 01:44:23 (GMT+0.0) 27th November 2020
# in /scratch/scratch/mmm0366/launch_tmp
# on node-k98c-017
# by mmm0366
#
# compiler GCC version 4.9.2
# options -cpp -iprefix /scratch/UCL/applications/gcc/4.9.2/bin/../lib/gcc/x86_64-unknown-linux-gnu/4.9.2/ -mtune=corei7 -march=x86-64 -g -O2
#
# seed  1730339534 -1898436718    38063096   770411484  1590611277   856709919  1984477465  1147243214 -1073405403   579058234 -2038001888 -1762712775
#
#      Author: C. J. Pickard (cjp20@cam.ac.uk)
#                Space group: C2/c
#

%BLOCK LATTICE_ABC
      5.76052      7.99441      7.99441
     67.20378     73.88511     73.88511
%ENDBLOCK LATTICE_ABC

%BLOCK POSITIONS_FRAC
  Li  -0.0065514  -0.1616005  -0.0529510 SPIN=   0.00000
  Li  -0.4934486   0.0529510   0.1616005 SPIN=   0.00000
  Li   0.0065514   0.1616005   0.0529510 SPIN=   0.00000
  Li   0.4934486  -0.0529510  -0.1616005 SPIN=   0.00000
   O  -0.1721206   0.6514014  -0.1119777 SPIN=   0.00000
   O  -0.3293771   0.5595749  -0.3331492 SPIN=   0.00000
   O   0.0530776   0.3718673  -0.2228611 SPIN=   0.00000
   O  -0.3513696   0.3555841  -0.0018459 SPIN=   0.00000
   P  -0.2002528   0.4919653  -0.1625500 SPIN=   0.00000
   O  -0.3278794   0.1119777  -0.6514014 SPIN=   0.00000
   O  -0.1706229   0.3331492  -0.5595749 SPIN=   0.00000
   O  -0.5530776   0.2228611  -0.3718673 SPIN=   0.00000
   O  -0.1486304   0.0018459  -0.3555841 SPIN=   0.00000
   P  -0.2997472   0.1625500  -0.4919653 SPIN=   0.00000
   O   0.1721206  -0.6514014   0.1119777 SPIN=   0.00000
   O   0.3293771  -0.5595749   0.3331492 SPIN=   0.00000
   O  -0.0530776  -0.3718673   0.2228611 SPIN=   0.00000
   O   0.3513696  -0.3555841   0.0018459 SPIN=   0.00000
   P   0.2002528  -0.4919653   0.1625500 SPIN=   0.00000
   O   0.3278794  -0.1119777   0.6514014 SPIN=   0.00000
   O   0.1706229  -0.3331492   0.5595749 SPIN=   0.00000
   O   0.5530776  -0.2228611   0.3718673 SPIN=   0.00000
   O   0.1486304  -0.0018459   0.3555841 SPIN=   0.00000
   P   0.2997472  -0.1625500   0.4919653 SPIN=   0.00000
  Fe  -0.3207066  -0.4940166   0.2055676 SPIN=   4.00000
  Fe  -0.1792934  -0.2055676   0.4940166 SPIN=   4.00000
  Fe   0.3207066   0.4940166  -0.2055676 SPIN=   4.00000
  Fe   0.1792934   0.2055676  -0.4940166 SPIN=   4.00000
%ENDBLOCK POSITIONS_FRAC

# Note: total spin =  16.00

KPOINTS_MP_SPACING 0.07

%BLOCK SPECIES_POT
QC5
%ENDBLOCK SPECIES_POT

%BLOCK HUBBARD_U
Fe d:4.0
%ENDBLOCK HUBBARD_U

SNAP_TO_SYMMETRY
SYMMETRY_GENERATE

