#              Generated by Buildcell
#
# at 10:08:04 (GMT+0.0) 26th November 2020
# in /lustre/scratch/uccabz1/launch_tmp
# on node-c12d-021
# by uccabz1
#
# compiler GCC version 4.9.2
# options -cpp -iprefix /lustre/shared/ucl/apps/gcc/4.9.2/bin/../lib/gcc/x86_64-unknown-linux-gnu/4.9.2/ -mtune=corei7 -march=x86-64 -g -Og
#
# seed  -743533983   603290779  -880119011  -995319075 -1792353962  -787037772   873164257 -2087589167  1060520153  1665412587  -982734907   690516885
#
#      Author: C. J. Pickard (cjp20@cam.ac.uk)
#                Space group: P21/c
#

%BLOCK LATTICE_ABC
      4.26133      7.04559     10.65831
     90.00000     90.09250     90.00000
%ENDBLOCK LATTICE_ABC

%BLOCK POSITIONS_FRAC
  Li  -0.2482854  -0.0070693   0.0993288 SPIN=   0.00000
  Li   0.2482854   0.4929307   0.4006712 SPIN=   0.00000
  Li   0.2482854   0.0070693  -0.0993288 SPIN=   0.00000
  Li  -0.2482854  -0.4929307  -0.4006712 SPIN=   0.00000
   O   0.2575516  -0.4807597  -0.3737488 SPIN=   0.00000
   O   0.6100325  -0.1856608  -0.3347227 SPIN=   0.00000
   O   0.1077281  -0.1407895  -0.4468190 SPIN=   0.00000
   O   0.1040801  -0.2167736  -0.2172891 SPIN=   0.00000
   P   0.2672371  -0.2675006  -0.3432891 SPIN=   0.00000
   O  -0.2575516   0.0192403  -0.1262512 SPIN=   0.00000
   O  -0.6100325   0.3143392  -0.1652773 SPIN=   0.00000
   O  -0.1077281   0.3592105  -0.0531810 SPIN=   0.00000
   O  -0.1040801   0.2832264  -0.2827109 SPIN=   0.00000
   P  -0.2672371   0.2324994  -0.1567109 SPIN=   0.00000
   O  -0.2575516   0.4807597   0.3737488 SPIN=   0.00000
   O  -0.6100325   0.1856608   0.3347227 SPIN=   0.00000
   O  -0.1077281   0.1407895   0.4468190 SPIN=   0.00000
   O  -0.1040801   0.2167736   0.2172891 SPIN=   0.00000
   P  -0.2672371   0.2675006   0.3432891 SPIN=   0.00000
   O   0.2575516  -0.0192403   0.1262512 SPIN=   0.00000
   O   0.6100325  -0.3143392   0.1652773 SPIN=   0.00000
   O   0.1077281  -0.3592105   0.0531810 SPIN=   0.00000
   O   0.1040801  -0.2832264   0.2827109 SPIN=   0.00000
   P   0.2672371  -0.2324994   0.1567109 SPIN=   0.00000
  Fe   0.2518299   0.3462331   0.1120277 SPIN=   4.00000
  Fe  -0.2518299  -0.1537669   0.3879723 SPIN=   4.00000
  Fe  -0.2518299  -0.3462331  -0.1120277 SPIN=   4.00000
  Fe   0.2518299   0.1537669  -0.3879723 SPIN=   4.00000
%ENDBLOCK POSITIONS_FRAC

# Note: total spin =  16.00

KPOINTS_MP_SPACING 0.07

%BLOCK SPECIES_POT
QC5
%ENDBLOCK SPECIES_POT

%BLOCK HUBBARD_U
Fe d:4.0
%ENDBLOCK HUBBARD_U

SNAP_TO_SYMMETRY
SYMMETRY_GENERATE

