#              Generated by Buildcell
#
# at 06:44:29 (GMT+0.0) 24th November 2020
# in /lustre/scratch/uccabz1/launch_tmp
# on node-c12e-025
# by uccabz1
#
# compiler GCC version 4.9.2
# options -cpp -iprefix /lustre/shared/ucl/apps/gcc/4.9.2/bin/../lib/gcc/x86_64-unknown-linux-gnu/4.9.2/ -mtune=corei7 -march=x86-64 -g -Og
#
# seed  -117865140  1100222781 -1738360979  -625107198 -1821639162  1392735222 -1063331833 -1586001024  1215326280   195387479 -2124903089   762885539
#
#      Author: C. J. Pickard (cjp20@cam.ac.uk)
#                Space group: P-1
#

%BLOCK LATTICE_ABC
      4.13440      5.70817      7.32666
     96.10651     98.39670    108.55039
%ENDBLOCK LATTICE_ABC

%BLOCK POSITIONS_FRAC
  Li   0.6501690   0.8271200   0.3896718 SPIN=   0.00000
  Li  -0.6501690  -0.8271200  -0.3896718 SPIN=   0.00000
   O  -0.1607584   0.1861316  -0.4473680 SPIN=   0.00000
   O  -0.2994083   0.1412479  -0.1155684 SPIN=   0.00000
   O   0.0717152  -0.0817547  -0.2323211 SPIN=   0.00000
   O   0.3052280   0.3857303  -0.1474955 SPIN=   0.00000
   O   0.1607584  -0.1861316   0.4473680 SPIN=   0.00000
   O   0.2994083  -0.1412479   0.1155684 SPIN=   0.00000
   O  -0.0717152   0.0817547   0.2323211 SPIN=   0.00000
   O  -0.3052280  -0.3857303   0.1474955 SPIN=   0.00000
   P   0.0000000  -0.5000000  -0.0000000 SPIN=   0.00000
   P  -0.0000000   0.5000000   0.5000000 SPIN=   0.00000
  Fe  -0.4249438  -0.2471728  -0.1761782 SPIN=   4.00000
  Fe   0.4249438   0.2471728   0.1761782 SPIN=   4.00000
%ENDBLOCK POSITIONS_FRAC

# Note: total spin =   8.00

KPOINTS_MP_SPACING 0.07

%BLOCK SPECIES_POT
QC5
%ENDBLOCK SPECIES_POT

%BLOCK HUBBARD_U
Fe d:4.0
%ENDBLOCK HUBBARD_U

SNAP_TO_SYMMETRY
SYMMETRY_GENERATE

