#              Generated by Buildcell
#
# at 06:31:32 (GMT+0.0) 24th November 2020
# in /scratch/scratch/uccabz1/launch_tmp
# on node-a14e-019
# by uccabz1
#
# compiler GCC version 4.9.2
# options -cpp -iprefix /scratch/UCL/applications/gcc/4.9.2/bin/../lib/gcc/x86_64-unknown-linux-gnu/4.9.2/ -mtune=corei7 -march=x86-64 -g -O2
#
# seed  -422639530  -663816559 -1162808317  2128673495  1262744976  1079554279  -343450460 -1570976959  -921281555    56183312 -1783706430  -902274572
#
#      Author: C. J. Pickard (cjp20@cam.ac.uk)
#                Space group: C2
#

%BLOCK LATTICE_ABC
      4.01432      6.04132      7.51884
    113.68735    105.19208     90.00000
%ENDBLOCK LATTICE_ABC

%BLOCK POSITIONS_FRAC
  Li   0.0000000   0.4017704  -0.0000000 SPIN=   0.00000
  Li   0.0000000  -0.0982395   0.0000000 SPIN=   0.00000
   O  -0.5244864  -0.6357872  -0.1829022 SPIN=   0.00000
   O  -0.7085873  -0.5755974  -0.5170090 SPIN=   0.00000
   O  -1.1031219  -0.4736417  -0.2998581 SPIN=   0.00000
   O  -0.5401315  -0.2092225  -0.1846221 SPIN=   0.00000
   P  -0.7066087  -0.4790804  -0.2887552 SPIN=   0.00000
   O   0.5244864  -0.4528851   0.1829022 SPIN=   0.00000
   O   0.7085873  -0.0585884   0.5170090 SPIN=   0.00000
   O   1.1031219  -0.1737835   0.2998581 SPIN=   0.00000
   O   0.5401315  -0.0246004   0.1846221 SPIN=   0.00000
   P   0.7066087  -0.1903252   0.2887552 SPIN=   0.00000
  Fe   0.7077006   0.3487541   0.3554548 SPIN=   4.00000
  Fe  -0.7077006  -0.0067007  -0.3554548 SPIN=   4.00000
%ENDBLOCK POSITIONS_FRAC

# Note: total spin =   8.00

KPOINTS_MP_SPACING 0.07

%BLOCK SPECIES_POT
QC5
%ENDBLOCK SPECIES_POT

%BLOCK HUBBARD_U
Fe d:4.0
%ENDBLOCK HUBBARD_U

SNAP_TO_SYMMETRY
SYMMETRY_GENERATE

