#              Generated by Buildcell
#
# at 23:42:37 (GMT+0.0) 26th November 2020
# in /lustre/scratch/uccabz1/launch_tmp
# on node-c12f-029
# by uccabz1
#
# compiler GCC version 4.9.2
# options -cpp -iprefix /lustre/shared/ucl/apps/gcc/4.9.2/bin/../lib/gcc/x86_64-unknown-linux-gnu/4.9.2/ -mtune=corei7 -march=x86-64 -g -Og
#
# seed   822203289 -2036171716   881945572   604442943   165977211 -1347254066  2090315565   -57240198 -1881777059  -541734002  1195597800  1906121329
#
#      Author: C. J. Pickard (cjp20@cam.ac.uk)
#                Space group: P-1
#

%BLOCK LATTICE_ABC
      5.08288      8.42071      8.50399
    112.38649    106.44358     90.48470
%ENDBLOCK LATTICE_ABC

%BLOCK POSITIONS_FRAC
  Li   0.1841830  -0.3886775  -0.1314089 SPIN=   0.00000
  Li  -0.1841830   0.3886775   0.1314089 SPIN=   0.00000
  Li  -0.0285525  -0.2655354   0.4508405 SPIN=   0.00000
  Li   0.0285525   0.2655354  -0.4508405 SPIN=   0.00000
   O  -0.8614688  -0.2079287  -0.2508791 SPIN=   0.00000
   O  -0.3460534  -0.2602976  -0.1785810 SPIN=   0.00000
   O  -0.5675247  -0.2272515  -0.4611156 SPIN=   0.00000
   O  -0.4641985   0.0304635  -0.1697918 SPIN=   0.00000
   P  -0.5747448  -0.1661511  -0.2632105 SPIN=   0.00000
   O   0.8614688   0.2079287   0.2508791 SPIN=   0.00000
   O   0.3460534   0.2602976   0.1785810 SPIN=   0.00000
   O   0.5675247   0.2272515   0.4611156 SPIN=   0.00000
   O   0.4641985  -0.0304635   0.1697918 SPIN=   0.00000
   P   0.5747448   0.1661511   0.2632105 SPIN=   0.00000
   O   0.1229461  -0.2426605   0.2477028 SPIN=   0.00000
   O   0.2512549  -0.5260000   0.0375581 SPIN=   0.00000
   O   0.6238174  -0.2834541   0.2352844 SPIN=   0.00000
   P   0.3397552  -0.3688565   0.2251627 SPIN=   0.00000
   O  -0.1229461   0.2426605  -0.2477028 SPIN=   0.00000
   O  -0.2512549   0.5260000  -0.0375581 SPIN=   0.00000
   O  -0.6238174   0.2834541  -0.2352844 SPIN=   0.00000
   P  -0.3397552   0.3688565  -0.2251627 SPIN=   0.00000
   O  -0.0000000  -0.0000000   0.0000000 SPIN=   0.00000
   O   0.0000000  -0.5000000  -0.5000000 SPIN=   0.00000
  Fe  -0.1923475  -0.1444925   0.1015007 SPIN=   3.05334
  Fe   0.1923475   0.1444925  -0.1015007 SPIN=   3.05334
  Fe  -0.5000000   0.5000000  -0.5000000 SPIN=   6.00078
  Fe  -0.5000000   0.0000000  -0.5000000 SPIN=   3.89253
%ENDBLOCK POSITIONS_FRAC

# Note: total spin =  16.00

KPOINTS_MP_SPACING 0.07

%BLOCK SPECIES_POT
QC5
%ENDBLOCK SPECIES_POT

%BLOCK HUBBARD_U
Fe d:4.0
%ENDBLOCK HUBBARD_U

SNAP_TO_SYMMETRY
SYMMETRY_GENERATE

