#              Generated by Buildcell
#
# at 14:44:56 (GMT+0.0) 24th November 2020
# in /scratch/scratch/uccabz1/launch_tmp
# on node-a14a-009
# by uccabz1
#
# compiler GCC version 4.9.2
# options -cpp -iprefix /scratch/UCL/applications/gcc/4.9.2/bin/../lib/gcc/x86_64-unknown-linux-gnu/4.9.2/ -mtune=corei7 -march=x86-64 -g -O2
#
# seed   749597630   342483352  -411158122    39678031  1730185726 -1150749466  1213877856  2021987506  -480051373  -964152456  2132625798   835741670
#
#      Author: C. J. Pickard (cjp20@cam.ac.uk)
#                Space group: Pm
#

%BLOCK LATTICE_ABC
      4.13044      4.26518      9.37487
     90.00000     90.00000    104.35680
%ENDBLOCK LATTICE_ABC

%BLOCK POSITIONS_FRAC
  Li   0.4774479  -0.3689244   0.2081873 SPIN=   0.00000
  Li   0.4774479  -0.3689244  -0.2081873 SPIN=   0.00000
   O  -0.1871479   0.3721083   0.1311013 SPIN=   0.00000
   O  -0.4555950   0.1016214   0.3653813 SPIN=   0.00000
   O  -0.0108885  -0.1075128   0.2525620 SPIN=   0.00000
   O   0.1351690   0.4371139   0.3697441 SPIN=   0.00000
   P  -0.1295542   0.2127407   0.2728479 SPIN=   0.00000
   O  -0.1871479   0.3721083  -0.1311013 SPIN=   0.00000
   O  -0.4555950   0.1016214  -0.3653813 SPIN=   0.00000
   O  -0.0108885  -0.1075128  -0.2525620 SPIN=   0.00000
   O   0.1351690   0.4371139  -0.3697441 SPIN=   0.00000
   P  -0.1295542   0.2127407  -0.2728479 SPIN=   0.00000
  Fe   0.0810765   0.0361054   0.0000000 SPIN=   3.30529
  Fe   0.0616132  -0.1683792   0.5000000 SPIN=   4.69471
%ENDBLOCK POSITIONS_FRAC

# Note: total spin =   8.00

KPOINTS_MP_SPACING 0.07

%BLOCK SPECIES_POT
QC5
%ENDBLOCK SPECIES_POT

%BLOCK HUBBARD_U
Fe d:4.0
%ENDBLOCK HUBBARD_U

SNAP_TO_SYMMETRY
SYMMETRY_GENERATE

