#              Generated by Buildcell
#
# at 07:17:14 (GMT+0.0) 24th November 2020
# in /lustre/scratch/uccabz1/launch_tmp
# on node-c12l-027
# by uccabz1
#
# compiler GCC version 4.9.2
# options -cpp -iprefix /lustre/shared/ucl/apps/gcc/4.9.2/bin/../lib/gcc/x86_64-unknown-linux-gnu/4.9.2/ -mtune=corei7 -march=x86-64 -g -Og
#
# seed  1761188384  -179674641  -865415272 -1249112785 -1262092929  1386954436  -318696787 -1379453223 -1206367177 -1593853518  -620060747 -1789210915
#
#      Author: C. J. Pickard (cjp20@cam.ac.uk)
#                Space group: Imm2
#

%BLOCK LATTICE_ABC
      5.50170      5.57880      6.52094
    115.32552    114.95136     90.00000
%ENDBLOCK LATTICE_ABC

%BLOCK POSITIONS_FRAC
  Li   0.1187013  -0.3812987  -0.7625973 SPIN=   0.00000
  Li   0.3787500   0.3787500   0.7575000 SPIN=   0.00000
   O  -0.4659280  -0.4584632  -0.4742405 SPIN=   0.00000
   O  -0.2665854  -0.2696950   0.0178967 SPIN=   0.00000
   O  -0.0083125  -0.0157773  -0.4742405 SPIN=   0.00000
   O   0.2844821   0.2875917   0.0178967 SPIN=   0.00000
   O  -0.4659280  -0.0157773  -0.4742405 SPIN=   0.00000
   O  -0.2665854   0.2875917   0.0178967 SPIN=   0.00000
   O  -0.0083125  -0.4584632  -0.4742405 SPIN=   0.00000
   O   0.2844821  -0.2696950   0.0178967 SPIN=   0.00000
   P  -0.3628746  -0.3628746  -0.7257493 SPIN=   0.00000
   P   0.3760531  -0.1239469  -0.2478938 SPIN=   0.00000
  Fe  -0.2983876   0.2016124   0.4032248 SPIN=   2.31753
  Fe  -0.0504581  -0.0504581  -0.1009163 SPIN=   5.68247
%ENDBLOCK POSITIONS_FRAC

# Note: total spin =   8.00

KPOINTS_MP_SPACING 0.07

%BLOCK SPECIES_POT
QC5
%ENDBLOCK SPECIES_POT

%BLOCK HUBBARD_U
Fe d:4.0
%ENDBLOCK HUBBARD_U

SNAP_TO_SYMMETRY
SYMMETRY_GENERATE

