#              Generated by Buildcell
#
# at 10:13:04 (GMT+0.0) 24th November 2020
# in /lustre/scratch/uccabz1/launch_tmp
# on node-c12e-020
# by uccabz1
#
# compiler GCC version 4.9.2
# options -cpp -iprefix /lustre/shared/ucl/apps/gcc/4.9.2/bin/../lib/gcc/x86_64-unknown-linux-gnu/4.9.2/ -mtune=corei7 -march=x86-64 -g -Og
#
# seed  1551768755  1584316158 -1687875860   756182788  -592831597  -915794265  1600016078   750211006   316690528  -804821287 -1400699866 -1447055463
#
#      Author: C. J. Pickard (cjp20@cam.ac.uk)
#                Space group: P-1
#

%BLOCK LATTICE_ABC
      5.56528      5.60691      6.17237
     66.67118     82.11879     64.86629
%ENDBLOCK LATTICE_ABC

%BLOCK POSITIONS_FRAC
  Li  -0.4311909   0.0122933  -0.2500931 SPIN=   0.00000
  Li   0.4311909  -0.0122933   0.2500931 SPIN=   0.00000
   O  -0.0279200  -0.3777367   0.1378082 SPIN=   0.00000
   O   0.0881107  -0.1805510   0.4067859 SPIN=   0.00000
   O   0.4128083  -0.6383421   0.3884265 SPIN=   0.00000
   O   0.3386028  -0.1869714   0.0382451 SPIN=   0.00000
   P   0.1922118  -0.3457199   0.2348111 SPIN=   0.00000
   O   0.0279200   0.3777367  -0.1378082 SPIN=   0.00000
   O  -0.0881107   0.1805510  -0.4067859 SPIN=   0.00000
   O  -0.4128083   0.6383421  -0.3884265 SPIN=   0.00000
   O  -0.3386028   0.1869714  -0.0382451 SPIN=   0.00000
   P  -0.1922118   0.3457199  -0.2348111 SPIN=   0.00000
  Fe  -0.2202197  -0.6549496   0.2402249 SPIN=   4.00000
  Fe   0.2202197   0.6549496  -0.2402249 SPIN=   4.00000
%ENDBLOCK POSITIONS_FRAC

# Note: total spin =   8.00

KPOINTS_MP_SPACING 0.07

%BLOCK SPECIES_POT
QC5
%ENDBLOCK SPECIES_POT

%BLOCK HUBBARD_U
Fe d:4.0
%ENDBLOCK HUBBARD_U

SNAP_TO_SYMMETRY
SYMMETRY_GENERATE

