#              Generated by Buildcell
#
# at 08:24:53 (GMT+0.0) 24th November 2020
# in /lustre/scratch/uccabz1/launch_tmp
# on node-c12c-021
# by uccabz1
#
# compiler GCC version 4.9.2
# options -cpp -iprefix /lustre/shared/ucl/apps/gcc/4.9.2/bin/../lib/gcc/x86_64-unknown-linux-gnu/4.9.2/ -mtune=corei7 -march=x86-64 -g -Og
#
# seed  -804258566  -968568570  1379582935    94660955   -87645816  1745708461 -1482560189  2026983666  1683135992 -1057335901  -255326417  -337051804
#
#      Author: C. J. Pickard (cjp20@cam.ac.uk)
#                Space group: C2
#

%BLOCK LATTICE_ABC
      5.49886      5.55127      5.55127
     97.26740    101.68957    101.68957
%ENDBLOCK LATTICE_ABC

%BLOCK POSITIONS_FRAC
  Li   0.5000000   0.3938286  -0.3938286 SPIN=   0.00000
  Li   0.5000000  -0.2419830   0.2419830 SPIN=   0.00000
   O   0.1596873   0.4367839   0.3932673 SPIN=   0.00000
   O  -0.1199734   0.0036076   0.4071814 SPIN=   0.00000
   O   0.3316744   0.0341064   0.3951519 SPIN=   0.00000
   O   0.2258770   0.2255913   0.7825240 SPIN=   0.00000
   O  -0.1596873  -0.3932673  -0.4367839 SPIN=   0.00000
   O   0.1199734  -0.4071814  -0.0036076 SPIN=   0.00000
   O  -0.3316744  -0.3951519  -0.0341064 SPIN=   0.00000
   O  -0.2258770  -0.7825240  -0.2255913 SPIN=   0.00000
   P  -0.0000000   0.3295121  -0.3295121 SPIN=   0.00000
   P   0.0000000  -0.1294956   0.1294956 SPIN=   0.00000
  Fe  -0.2039080   0.3067472   0.1541035 SPIN=   4.00000
  Fe   0.2039080  -0.1541035  -0.3067472 SPIN=   4.00000
%ENDBLOCK POSITIONS_FRAC

# Note: total spin =   8.00

KPOINTS_MP_SPACING 0.07

%BLOCK SPECIES_POT
QC5
%ENDBLOCK SPECIES_POT

%BLOCK HUBBARD_U
Fe d:4.0
%ENDBLOCK HUBBARD_U

SNAP_TO_SYMMETRY
SYMMETRY_GENERATE

