#              Generated by Buildcell
#
# at 17:34:38 (GMT+0.0) 26th November 2020
# in /lustre/scratch/uccabz1/launch_tmp
# on node-c12k-029
# by uccabz1
#
# compiler GCC version 4.9.2
# options -cpp -iprefix /lustre/shared/ucl/apps/gcc/4.9.2/bin/../lib/gcc/x86_64-unknown-linux-gnu/4.9.2/ -mtune=corei7 -march=x86-64 -g -Og
#
# seed   956534031   574964803  1648697162   887270542   139284186  2097308623  -150740207   539052211  -537434727   293513220 -1894735567 -1647707245
#
#      Author: C. J. Pickard (cjp20@cam.ac.uk)
#                Space group: P-1
#

%BLOCK LATTICE_ABC
      6.11059      6.85034      7.77629
     91.91678     91.31151    100.25077
%ENDBLOCK LATTICE_ABC

%BLOCK POSITIONS_FRAC
  Li   0.2148724   0.0087605   0.1722524 SPIN=   0.00000
  Li  -0.2148724  -0.0087605  -0.1722524 SPIN=   0.00000
  Li  -0.3510473   0.2977478   0.1465471 SPIN=   0.00000
  Li   0.3510473  -0.2977478  -0.1465471 SPIN=   0.00000
   O   0.2561213   0.3985206  -0.2185311 SPIN=   0.00000
   O  -0.0774085   0.2977726  -0.0191322 SPIN=   0.00000
   O   0.1303619   0.0389830  -0.1180392 SPIN=   0.00000
   O   0.3097529   0.3035277   0.0963285 SPIN=   0.00000
   P   0.1619364   0.2676097  -0.0711246 SPIN=   0.00000
   O  -0.2561213  -0.3985206   0.2185311 SPIN=   0.00000
   O   0.0774085  -0.2977726   0.0191322 SPIN=   0.00000
   O  -0.1303619  -0.0389830   0.1180392 SPIN=   0.00000
   O  -0.3097529  -0.3035277  -0.0963285 SPIN=   0.00000
   P  -0.1619364  -0.2676097   0.0711246 SPIN=   0.00000
   O  -0.2151149   0.4583606   0.5058118 SPIN=   0.00000
   O   0.0112426   0.2509084   0.3166268 SPIN=   0.00000
   O  -0.0751479   0.1452512   0.6117724 SPIN=   0.00000
   P  -0.1701657   0.2500042   0.4570244 SPIN=   0.00000
   O   0.2151149  -0.4583606  -0.5058118 SPIN=   0.00000
   O  -0.0112426  -0.2509084  -0.3166268 SPIN=   0.00000
   O   0.0751479  -0.1452512  -0.6117724 SPIN=   0.00000
   P   0.1701657  -0.2500042  -0.4570244 SPIN=   0.00000
   O  -0.5000000   0.0000000  -0.0000000 SPIN=   0.00000
   O   0.5000000   0.0000000  -0.5000000 SPIN=   0.00000
  Fe  -0.1650090   0.4720080  -0.2237789 SPIN=   5.54156
  Fe   0.1650090  -0.4720080   0.2237789 SPIN=   5.54156
  Fe  -0.2720147  -0.1739172   0.4149951 SPIN=   2.45844
  Fe   0.2720147   0.1739172  -0.4149951 SPIN=   2.45844
%ENDBLOCK POSITIONS_FRAC

# Note: total spin =  16.00

KPOINTS_MP_SPACING 0.07

%BLOCK SPECIES_POT
QC5
%ENDBLOCK SPECIES_POT

%BLOCK HUBBARD_U
Fe d:4.0
%ENDBLOCK HUBBARD_U

SNAP_TO_SYMMETRY
SYMMETRY_GENERATE

