#              Generated by Buildcell
#
# at 11:56:01 (GMT+0.0) 26th November 2020
# in /scratch/scratch/uccabz1/launch_tmp
# on node-k10c-005
# by uccabz1
#
# compiler GCC version 4.9.2
# options -cpp -iprefix /scratch/UCL/applications/gcc/4.9.2/bin/../lib/gcc/x86_64-unknown-linux-gnu/4.9.2/ -mtune=corei7 -march=x86-64 -g -O2
#
# seed  -957871810 -1504390021  1465120106   693002823 -1084286952 -1397616261   241327766  1838397655   709140723  1138379736 -1367352102 -1686515470
#
#      Author: C. J. Pickard (cjp20@cam.ac.uk)
#                Space group: Cm
#

%BLOCK LATTICE_ABC
      5.27423      7.92422      7.92422
     76.32648     85.23677     85.23677
%ENDBLOCK LATTICE_ABC

%BLOCK POSITIONS_FRAC
  Li   0.3230746  -0.0593675  -0.0593675 SPIN=   0.00000
  Li  -0.2341415   0.1502561   0.1502561 SPIN=   0.00000
  Li   0.0246190   0.3805296   0.3805296 SPIN=   0.00000
  Li  -0.4419689  -0.2901061  -0.2901061 SPIN=   0.00000
   O  -0.7591266  -0.0494749   0.2010686 SPIN=   0.00000
   O  -0.5097044  -0.3270379   0.3679295 SPIN=   0.00000
   O  -0.3007343  -0.1495727   0.1021064 SPIN=   0.00000
   O  -0.3684099  -0.0339943   0.3716365 SPIN=   0.00000
   P  -0.4977467  -0.1339477   0.2588203 SPIN=   0.00000
   O  -0.7591266   0.2010686  -0.0494749 SPIN=   0.00000
   O  -0.5097044   0.3679295  -0.3270379 SPIN=   0.00000
   O  -0.3007343   0.1021064  -0.1495727 SPIN=   0.00000
   O  -0.3684099   0.3716365  -0.0339943 SPIN=   0.00000
   P  -0.4977467   0.2588203  -0.1339477 SPIN=   0.00000
   O  -0.1799521  -0.3448626  -0.0955170 SPIN=   0.00000
   O   0.0971647  -0.5774682   0.1116897 SPIN=   0.00000
   O   0.3024796  -0.3202585  -0.0685978 SPIN=   0.00000
   P   0.0397363  -0.3789252   0.0267303 SPIN=   0.00000
   O  -0.1799521  -0.0955170  -0.3448626 SPIN=   0.00000
   O   0.0971647   0.1116897  -0.5774682 SPIN=   0.00000
   O   0.3024796  -0.0685978  -0.3202585 SPIN=   0.00000
   P   0.0397363   0.0267303  -0.3789252 SPIN=   0.00000
   O  -0.1513118  -0.4607489  -0.4607489 SPIN=   0.00000
   O   0.2132199  -0.3574158  -0.3574158 SPIN=   0.00000
  Fe  -0.4671723   0.1503425  -0.4529182 SPIN=   1.46754
  Fe  -0.4671723  -0.4529182   0.1503425 SPIN=   1.46754
  Fe   0.0009508  -0.2085342   0.3948519 SPIN=   6.53246
  Fe   0.0009508   0.3948519  -0.2085342 SPIN=   6.53246
%ENDBLOCK POSITIONS_FRAC

# Note: total spin =  16.00

KPOINTS_MP_SPACING 0.07

%BLOCK SPECIES_POT
QC5
%ENDBLOCK SPECIES_POT

%BLOCK HUBBARD_U
Fe d:4.0
%ENDBLOCK HUBBARD_U

SNAP_TO_SYMMETRY
SYMMETRY_GENERATE

