#              Generated by Buildcell
#
# at 10:31:13 (GMT+0.0) 24th November 2020
# in /scratch/scratch/uccabz1/launch_tmp
# on node-a14c-005
# by uccabz1
#
# compiler GCC version 4.9.2
# options -cpp -iprefix /scratch/UCL/applications/gcc/4.9.2/bin/../lib/gcc/x86_64-unknown-linux-gnu/4.9.2/ -mtune=corei7 -march=x86-64 -g -O2
#
# seed  1153443611   455100098  1632293478  -224695658  1230534683 -1120133568  1129312636   936699228   156613943  1834828553  -443813470   703217841
#
#      Author: C. J. Pickard (cjp20@cam.ac.uk)
#                Space group: P-1
#

%BLOCK LATTICE_ABC
      4.40590      5.65016      6.94325
     71.13092     78.19752     84.33430
%ENDBLOCK LATTICE_ABC

%BLOCK POSITIONS_FRAC
  Li  -0.2104682   0.2467913   0.1001014 SPIN=   0.00000
  Li   0.2104682  -0.2467913  -0.1001014 SPIN=   0.00000
   O   0.3256208   0.1891477   0.5014924 SPIN=   0.00000
   O   0.4077426   0.5672982   0.1642049 SPIN=   0.00000
   O   0.2525558   0.1681485   0.1455000 SPIN=   0.00000
   O  -0.1303759   0.4202617   0.3265424 SPIN=   0.00000
   P   0.2157725   0.3293754   0.2964891 SPIN=   0.00000
   O  -0.3256208  -0.1891477  -0.5014924 SPIN=   0.00000
   O  -0.4077426  -0.5672982  -0.1642049 SPIN=   0.00000
   O  -0.2525558  -0.1681485  -0.1455000 SPIN=   0.00000
   O   0.1303759  -0.4202617  -0.3265424 SPIN=   0.00000
   P  -0.2157725  -0.3293754  -0.2964891 SPIN=   0.00000
  Fe  -0.2848679   0.1972095  -0.3499997 SPIN=   4.00000
  Fe   0.2848679  -0.1972095   0.3499997 SPIN=   4.00000
%ENDBLOCK POSITIONS_FRAC

# Note: total spin =   8.00

KPOINTS_MP_SPACING 0.07

%BLOCK SPECIES_POT
QC5
%ENDBLOCK SPECIES_POT

%BLOCK HUBBARD_U
Fe d:4.0
%ENDBLOCK HUBBARD_U

SNAP_TO_SYMMETRY
SYMMETRY_GENERATE

