#              Generated by Buildcell
#
# at 12:07:22 (GMT+0.0) 24th November 2020
# in /lustre/scratch/uccabz1/launch_tmp
# on node-c12a-028
# by uccabz1
#
# compiler GCC version 4.9.2
# options -cpp -iprefix /lustre/shared/ucl/apps/gcc/4.9.2/bin/../lib/gcc/x86_64-unknown-linux-gnu/4.9.2/ -mtune=corei7 -march=x86-64 -g -Og
#
# seed   952057001    68249566  1798619732 -2033375274   345881417 -1432658817 -1959237299   466604450 -1851726636 -1465349869  -171754482   773879448
#
#      Author: C. J. Pickard (cjp20@cam.ac.uk)
#                Space group: P-1
#

%BLOCK LATTICE_ABC
      3.85453      5.46065      8.26806
    108.54020    103.02282     91.01041
%ENDBLOCK LATTICE_ABC

%BLOCK POSITIONS_FRAC
  Li   0.1705982  -0.2401110   0.0162483 SPIN=   0.00000
  Li  -0.1705982   0.2401110  -0.0162483 SPIN=   0.00000
   O   0.0025161   0.3584071   0.3128803 SPIN=   0.00000
   O  -0.4751845   0.1453087   0.4165759 SPIN=   0.00000
   O  -0.6232670   0.1533205   0.1117897 SPIN=   0.00000
   O  -0.1723591  -0.1364098   0.1968251 SPIN=   0.00000
   P  -0.2983492   0.1391641   0.2616192 SPIN=   0.00000
   O  -0.0025161  -0.3584071  -0.3128803 SPIN=   0.00000
   O   0.4751845  -0.1453087  -0.4165759 SPIN=   0.00000
   O   0.6232670  -0.1533205  -0.1117897 SPIN=   0.00000
   O   0.1723591   0.1364098  -0.1968251 SPIN=   0.00000
   P   0.2983492  -0.1391641  -0.2616192 SPIN=   0.00000
  Fe  -0.3109086  -0.3142781   0.3669861 SPIN=   4.00000
  Fe   0.3109086   0.3142781  -0.3669861 SPIN=   4.00000
%ENDBLOCK POSITIONS_FRAC

# Note: total spin =   8.00

KPOINTS_MP_SPACING 0.07

%BLOCK SPECIES_POT
QC5
%ENDBLOCK SPECIES_POT

%BLOCK HUBBARD_U
Fe d:4.0
%ENDBLOCK HUBBARD_U

SNAP_TO_SYMMETRY
SYMMETRY_GENERATE

