#              Generated by Buildcell
#
# at 07:00:38 (GMT+0.0) 24th November 2020
# in /lustre/scratch/uccabz1/launch_tmp
# on node-c12c-023
# by uccabz1
#
# compiler GCC version 4.9.2
# options -cpp -iprefix /lustre/shared/ucl/apps/gcc/4.9.2/bin/../lib/gcc/x86_64-unknown-linux-gnu/4.9.2/ -mtune=corei7 -march=x86-64 -g -Og
#
# seed   674333834 -1737578139  -761930277 -1570916773  -436254299  1049926043  1727213963  -751485734 -1495754933   334461469 -1534263670  1570930522
#
#      Author: C. J. Pickard (cjp20@cam.ac.uk)
#                Space group: Cm
#

%BLOCK LATTICE_ABC
      4.81548      6.23313      6.23313
     88.21338     68.18150     68.18150
%ENDBLOCK LATTICE_ABC

%BLOCK POSITIONS_FRAC
  Li   0.0224303   0.2651253  -0.1564291 SPIN=   0.00000
  Li   0.0224303  -0.1564291   0.2651253 SPIN=   0.00000
   O   0.4642022  -0.4350228   0.0731698 SPIN=   0.00000
   O   0.7391454  -0.3713079   0.3401563 SPIN=   0.00000
   O   1.0301102  -0.4087030  -0.0859305 SPIN=   0.00000
   P   0.6779591  -0.3194099   0.1094630 SPIN=   0.00000
   O   0.4642022   0.0731698  -0.4350228 SPIN=   0.00000
   O   0.7391454   0.3401563  -0.3713079 SPIN=   0.00000
   O   1.0301102  -0.0859305  -0.4087030 SPIN=   0.00000
   P   0.6779591   0.1094630  -0.3194099 SPIN=   0.00000
   O  -0.2469908   0.0179636   0.0179636 SPIN=   0.00000
   O   0.1095214   0.1405087   0.1405087 SPIN=   0.00000
  Fe  -0.6421011   0.2761377   0.2761377 SPIN=   0.85433
  Fe   0.4867172  -0.2970199  -0.2970199 SPIN=   7.14567
%ENDBLOCK POSITIONS_FRAC

# Note: total spin =   8.00

KPOINTS_MP_SPACING 0.07

%BLOCK SPECIES_POT
QC5
%ENDBLOCK SPECIES_POT

%BLOCK HUBBARD_U
Fe d:4.0
%ENDBLOCK HUBBARD_U

SNAP_TO_SYMMETRY
SYMMETRY_GENERATE

