#              Generated by Buildcell
#
# at 09:47:03 (GMT+0.0) 24th November 2020
# in /scratch/scratch/uccabz1/launch_tmp
# on node-a14e-014
# by uccabz1
#
# compiler GCC version 4.9.2
# options -cpp -iprefix /scratch/UCL/applications/gcc/4.9.2/bin/../lib/gcc/x86_64-unknown-linux-gnu/4.9.2/ -mtune=corei7 -march=x86-64 -g -O2
#
# seed -2071986650 -1796788244  1513788182  1755486044   -42744333  -575206705  1515059832    59160566  -968809524   757837540  1501699878  -277489992
#
#      Author: C. J. Pickard (cjp20@cam.ac.uk)
#                Space group: Cm
#

%BLOCK LATTICE_ABC
      3.93113      6.42050      6.42050
     85.94894     84.01995     84.01995
%ENDBLOCK LATTICE_ABC

%BLOCK POSITIONS_FRAC
  Li   1.1296493  -0.3984111  -0.3984111 SPIN=   0.00000
  Li  -0.1419458   0.2437844   0.2437844 SPIN=   0.00000
   O   0.0591295   0.2103527  -0.0716427 SPIN=   0.00000
   O  -0.2639072   0.5791917  -0.1388298 SPIN=   0.00000
   O  -0.2648599   0.3162532  -0.4015730 SPIN=   0.00000
   P  -0.2547286   0.3359684  -0.1595381 SPIN=   0.00000
   O   0.0591295  -0.0716427   0.2103527 SPIN=   0.00000
   O  -0.2639072  -0.1388298   0.5791917 SPIN=   0.00000
   O  -0.2648599  -0.4015730   0.3162532 SPIN=   0.00000
   P  -0.2547286  -0.1595381   0.3359684 SPIN=   0.00000
   O   0.5618595  -0.0533664  -0.0533664 SPIN=   0.00000
   O  -0.7338454   0.3670070   0.3670070 SPIN=   0.00000
  Fe   0.3177742   0.0869436  -0.3605089 SPIN=   4.00000
  Fe   0.3177742  -0.3605089   0.0869436 SPIN=   4.00000
%ENDBLOCK POSITIONS_FRAC

# Note: total spin =   8.00

KPOINTS_MP_SPACING 0.07

%BLOCK SPECIES_POT
QC5
%ENDBLOCK SPECIES_POT

%BLOCK HUBBARD_U
Fe d:4.0
%ENDBLOCK HUBBARD_U

SNAP_TO_SYMMETRY
SYMMETRY_GENERATE

