#              Generated by Buildcell
#
# at 13:35:11 (GMT+0.0) 26th November 2020
# in /lustre/scratch/uccabz1/launch_tmp
# on node-c12f-023
# by uccabz1
#
# compiler GCC version 4.9.2
# options -cpp -iprefix /lustre/shared/ucl/apps/gcc/4.9.2/bin/../lib/gcc/x86_64-unknown-linux-gnu/4.9.2/ -mtune=corei7 -march=x86-64 -g -Og
#
# seed -1039486983  -178372889  -485661374 -1259157524  -215520889  -231063196 -1265037138   454727361  -184430656 -1157898190  2146288728 -1951626892
#
#      Author: C. J. Pickard (cjp20@cam.ac.uk)
#                Space group: P41
#

%BLOCK LATTICE_ABC
      5.66495      5.66495      9.97143
     90.00000     90.00000     90.00000
%ENDBLOCK LATTICE_ABC

%BLOCK POSITIONS_FRAC
  Li  -0.3258013   0.2695472  -0.4159760 SPIN=   0.00000
  Li   0.3258013  -0.2695472   0.0840240 SPIN=   0.00000
  Li   0.2695472   0.3258013   0.3340240 SPIN=   0.00000
  Li  -0.2695472  -0.3258013  -0.1659760 SPIN=   0.00000
   O  -0.1142877   0.2659846   0.3976642 SPIN=   0.00000
   O  -0.1633623   0.0371705   0.1735854 SPIN=   0.00000
   O  -0.4828246   0.0115197   0.3415327 SPIN=   0.00000
   O  -0.4175388   0.3904701   0.2176236 SPIN=   0.00000
   P  -0.2863597   0.1835898   0.2879612 SPIN=   0.00000
   O   0.1142877  -0.2659846  -0.1023358 SPIN=   0.00000
   O   0.1633623  -0.0371705  -0.3264146 SPIN=   0.00000
   O   0.4828246  -0.0115197  -0.1584673 SPIN=   0.00000
   O   0.4175388  -0.3904701  -0.2823764 SPIN=   0.00000
   P   0.2863597  -0.1835898  -0.2120388 SPIN=   0.00000
   O   0.2659846   0.1142877   0.1476642 SPIN=   0.00000
   O   0.0371705   0.1633623  -0.0764146 SPIN=   0.00000
   O   0.0115197   0.4828246   0.0915327 SPIN=   0.00000
   O   0.3904701   0.4175388  -0.0323764 SPIN=   0.00000
   P   0.1835898   0.2863597   0.0379612 SPIN=   0.00000
   O  -0.2659846  -0.1142877  -0.3523358 SPIN=   0.00000
   O  -0.0371705  -0.1633623  -0.5764146 SPIN=   0.00000
   O  -0.0115197  -0.4828246  -0.4084673 SPIN=   0.00000
   O  -0.3904701  -0.4175388  -0.5323764 SPIN=   0.00000
   P  -0.1835898  -0.2863597  -0.4620388 SPIN=   0.00000
  Fe  -0.1733817  -0.3273011   0.2512773 SPIN=   4.00000
  Fe   0.1733817   0.3273011  -0.2487227 SPIN=   4.00000
  Fe  -0.3273011   0.1733817   0.0012773 SPIN=   4.00000
  Fe   0.3273011  -0.1733817  -0.4987227 SPIN=   4.00000
%ENDBLOCK POSITIONS_FRAC

# Note: total spin =  16.00

KPOINTS_MP_SPACING 0.07

%BLOCK SPECIES_POT
QC5
%ENDBLOCK SPECIES_POT

%BLOCK HUBBARD_U
Fe d:4.0
%ENDBLOCK HUBBARD_U

SNAP_TO_SYMMETRY
SYMMETRY_GENERATE

