#              Generated by Buildcell
#
# at 21:43:46 (GMT+0.0) 26th November 2020
# in /lustre/scratch/uccabz1/launch_tmp
# on node-c12f-025
# by uccabz1
#
# compiler GCC version 4.9.2
# options -cpp -iprefix /lustre/shared/ucl/apps/gcc/4.9.2/bin/../lib/gcc/x86_64-unknown-linux-gnu/4.9.2/ -mtune=corei7 -march=x86-64 -g -Og
#
# seed  -854349503 -1982279874  1144686194 -1336939361  1269700909  -197845907 -1115561462  1082874819   768669749  1392274607   882664483  1882002354
#
#      Author: C. J. Pickard (cjp20@cam.ac.uk)
#                Space group: C2
#

%BLOCK LATTICE_ABC
      5.71300      7.33086      8.61426
    115.18277    100.33951     90.00000
%ENDBLOCK LATTICE_ABC

%BLOCK POSITIONS_FRAC
  Li  -0.1890793  -0.4522301  -0.8345029 SPIN=   0.00000
  Li   0.1890793   0.3822728   0.8345029 SPIN=   0.00000
  Li   0.2683854   0.1637454   0.0677825 SPIN=   0.00000
  Li  -0.2683854   0.0959628  -0.0677825 SPIN=   0.00000
   O   0.3078581  -0.4107355  -0.3311184 SPIN=   0.00000
   O  -0.0743025  -0.2298253  -0.2525814 SPIN=   0.00000
   O   0.2807584  -0.1510054  -0.0166109 SPIN=   0.00000
   O   0.2843989  -0.0294225  -0.2474417 SPIN=   0.00000
   P   0.2064380  -0.2141135  -0.2187029 SPIN=   0.00000
   O  -0.3078581  -0.0796171   0.3311184 SPIN=   0.00000
   O   0.0743025   0.0227561   0.2525814 SPIN=   0.00000
   O  -0.2807584  -0.1343945   0.0166109 SPIN=   0.00000
   O  -0.2843989   0.2180192   0.2474417 SPIN=   0.00000
   P  -0.2064380   0.0045894   0.2187029 SPIN=   0.00000
   O  -0.5934544  -0.5294350  -0.7633969 SPIN=   0.00000
   O  -0.1640159  -0.4174528  -0.5759678 SPIN=   0.00000
   O  -0.4841892  -0.1944895  -0.4791123 SPIN=   0.00000
   P  -0.4398054  -0.4237695  -0.5780239 SPIN=   0.00000
   O   0.5934544   0.2339620   0.7633969 SPIN=   0.00000
   O   0.1640159   0.1585150   0.5759678 SPIN=   0.00000
   O   0.4841892   0.2846228   0.4791123 SPIN=   0.00000
   P   0.4398054   0.1542545   0.5780239 SPIN=   0.00000
   O   0.0000000  -0.3948522   0.0000000 SPIN=   0.00000
   O   0.5000000  -0.4360956  -0.0000000 SPIN=   0.00000
  Fe   0.3264688  -0.1932797   0.2122942 SPIN=   3.96238
  Fe  -0.3264688  -0.4055738  -0.2122942 SPIN=   3.96238
  Fe  -0.0807214  -0.0666626  -0.4417860 SPIN=   4.03762
  Fe   0.0807214   0.3751234   0.4417860 SPIN=   4.03762
%ENDBLOCK POSITIONS_FRAC

# Note: total spin =  16.00

KPOINTS_MP_SPACING 0.07

%BLOCK SPECIES_POT
QC5
%ENDBLOCK SPECIES_POT

%BLOCK HUBBARD_U
Fe d:4.0
%ENDBLOCK HUBBARD_U

SNAP_TO_SYMMETRY
SYMMETRY_GENERATE

