#              Generated by Buildcell
#
# at 07:51:50 (GMT+0.0) 24th November 2020
# in /lustre/scratch/uccabz1/launch_tmp
# on node-c12e-025
# by uccabz1
#
# compiler GCC version 4.9.2
# options -cpp -iprefix /lustre/shared/ucl/apps/gcc/4.9.2/bin/../lib/gcc/x86_64-unknown-linux-gnu/4.9.2/ -mtune=corei7 -march=x86-64 -g -Og
#
# seed   680104772 -1464824232 -1014305811  1389644832 -1810636354  1083448301   -20269403  -536277456   367514440  -935458434  -998118512  -830367833
#
#      Author: C. J. Pickard (cjp20@cam.ac.uk)
#                Space group: Pm
#

%BLOCK LATTICE_ABC
      4.06917      4.18740      9.39038
     90.00000     90.00000     90.44790
%ENDBLOCK LATTICE_ABC

%BLOCK POSITIONS_FRAC
  Li  -0.2297759   0.4160523   0.1688293 SPIN=   0.00000
  Li  -0.2297759   0.4160523  -0.1688293 SPIN=   0.00000
   O   0.0911038  -0.4233221   0.3578628 SPIN=   0.00000
   O   0.3918641   0.0955421   0.2772413 SPIN=   0.00000
   O  -0.1097244  -0.0707036   0.1480152 SPIN=   0.00000
   P   0.0538710  -0.0822483   0.2996765 SPIN=   0.00000
   O   0.0911038  -0.4233221  -0.3578628 SPIN=   0.00000
   O   0.3918641   0.0955421  -0.2772413 SPIN=   0.00000
   O  -0.1097244  -0.0707036  -0.1480152 SPIN=   0.00000
   P   0.0538710  -0.0822483  -0.2996765 SPIN=   0.00000
   O  -0.4205428  -0.2761331  -0.5000000 SPIN=   0.00000
   O   0.0706194   0.0728430  -0.5000000 SPIN=   0.00000
  Fe   0.2761280  -0.0876646  -0.0000000 SPIN=   4.12402
  Fe  -0.4362177   0.2238045   0.5000000 SPIN=   3.87598
%ENDBLOCK POSITIONS_FRAC

# Note: total spin =   8.00

KPOINTS_MP_SPACING 0.07

%BLOCK SPECIES_POT
QC5
%ENDBLOCK SPECIES_POT

%BLOCK HUBBARD_U
Fe d:4.0
%ENDBLOCK HUBBARD_U

SNAP_TO_SYMMETRY
SYMMETRY_GENERATE

