#              Generated by Buildcell
#
# at 13:46:41 (GMT+0.0) 24th November 2020
# in /lustre/scratch/uccabz1/launch_tmp
# on node-c12e-031
# by uccabz1
#
# compiler GCC version 4.9.2
# options -cpp -iprefix /lustre/shared/ucl/apps/gcc/4.9.2/bin/../lib/gcc/x86_64-unknown-linux-gnu/4.9.2/ -mtune=corei7 -march=x86-64 -g -Og
#
# seed  1855034704    69778465   635777573   629738737 -1826557719 -1840044097    55877265 -1499466964   927243768   180470237 -1159183828 -1144925476
#
#      Author: C. J. Pickard (cjp20@cam.ac.uk)
#                Space group: P-1
#

%BLOCK LATTICE_ABC
      4.08300      5.18387      7.93315
     80.14073     80.63928     77.27774
%ENDBLOCK LATTICE_ABC

%BLOCK POSITIONS_FRAC
  Li  -0.8033096  -0.2765026   0.4722617 SPIN=   0.00000
  Li   0.8033096   0.2765026  -0.4722617 SPIN=   0.00000
   O   0.2805262   0.3086435  -0.3878488 SPIN=   0.00000
   O   0.2387063   0.1115748  -0.0628998 SPIN=   0.00000
   O   0.1261361   0.6021876  -0.1408297 SPIN=   0.00000
   O  -0.2909875   0.3420798  -0.1895291 SPIN=   0.00000
   P   0.0943352   0.3394034  -0.2054625 SPIN=   0.00000
   O  -0.2805262  -0.3086435   0.3878488 SPIN=   0.00000
   O  -0.2387063  -0.1115748   0.0628998 SPIN=   0.00000
   O  -0.1261361  -0.6021876   0.1408297 SPIN=   0.00000
   O   0.2909875  -0.3420798   0.1895291 SPIN=   0.00000
   P  -0.0943352  -0.3394034   0.2054625 SPIN=   0.00000
  Fe   0.5429207  -0.2079321  -0.1895953 SPIN=   4.00000
  Fe  -0.5429207   0.2079321   0.1895953 SPIN=   4.00000
%ENDBLOCK POSITIONS_FRAC

# Note: total spin =   8.00

KPOINTS_MP_SPACING 0.07

%BLOCK SPECIES_POT
QC5
%ENDBLOCK SPECIES_POT

%BLOCK HUBBARD_U
Fe d:4.0
%ENDBLOCK HUBBARD_U

SNAP_TO_SYMMETRY
SYMMETRY_GENERATE

