#              Generated by Buildcell
#
# at 13:18:42 (GMT+0.0) 24th November 2020
# in /scratch/scratch/uccabz1/launch_tmp
# on node-a14f-002
# by uccabz1
#
# compiler GCC version 4.9.2
# options -cpp -iprefix /scratch/UCL/applications/gcc/4.9.2/bin/../lib/gcc/x86_64-unknown-linux-gnu/4.9.2/ -mtune=corei7 -march=x86-64 -g -O2
#
# seed  -753059882   -85115034 -1965596196   961914563  -619119890   394839613  1306529589 -1804003249 -1020198025  1935404920   622746632   525496897
#
#      Author: C. J. Pickard (cjp20@cam.ac.uk)
#                Space group: Cc
#

%BLOCK LATTICE_ABC
      4.53373      5.95699      6.35137
     88.88936     69.08945     86.88685
%ENDBLOCK LATTICE_ABC

%BLOCK POSITIONS_FRAC
  Li  -0.3775240   0.4969984   0.1486292 SPIN=   0.00000
  Li  -0.2288947  -0.0030016  -0.1486292 SPIN=   0.00000
   O   0.4438431   0.2701690  -0.0246178 SPIN=   0.00000
   O   0.1580558   0.1318756   0.3849022 SPIN=   0.00000
   O  -0.0094572   0.5029369   0.2737632 SPIN=   0.00000
   O  -0.1350574   0.1532889   0.1167430 SPIN=   0.00000
   P   0.1289469   0.2635526   0.1755556 SPIN=   0.00000
   O   0.4192253  -0.2298310   0.0246178 SPIN=   0.00000
   O   0.5429579  -0.3681244  -0.3849022 SPIN=   0.00000
   O   0.2643060   0.0029369  -0.2737632 SPIN=   0.00000
   O  -0.0183143  -0.3467111  -0.1167430 SPIN=   0.00000
   P   0.3045025  -0.2364474  -0.1755556 SPIN=   0.00000
  Fe  -0.4158192  -0.0202802   0.3971563 SPIN=   4.00000
  Fe  -0.0186629   0.4797198  -0.3971563 SPIN=   4.00000
%ENDBLOCK POSITIONS_FRAC

# Note: total spin =   8.00

KPOINTS_MP_SPACING 0.07

%BLOCK SPECIES_POT
QC5
%ENDBLOCK SPECIES_POT

%BLOCK HUBBARD_U
Fe d:4.0
%ENDBLOCK HUBBARD_U

SNAP_TO_SYMMETRY
SYMMETRY_GENERATE

