#              Generated by Buildcell
#
# at 11:35:47 (GMT+0.0) 24th November 2020
# in /scratch/scratch/uccabz1/launch_tmp
# on node-a14f-014
# by uccabz1
#
# compiler GCC version 4.9.2
# options -cpp -iprefix /scratch/UCL/applications/gcc/4.9.2/bin/../lib/gcc/x86_64-unknown-linux-gnu/4.9.2/ -mtune=corei7 -march=x86-64 -g -O2
#
# seed  1967974343 -1868472470   768856431  -607171233  -631493846   386921771   562852089  1914363693 -2099136171  1396933897 -1981314020  -862541287
#
#      Author: C. J. Pickard (cjp20@cam.ac.uk)
#                Space group: Pba2
#

%BLOCK LATTICE_ABC
      5.29921      5.49240      5.49727
     90.00000     90.00000     90.00000
%ENDBLOCK LATTICE_ABC

%BLOCK POSITIONS_FRAC
  Li  -0.4812200   0.5000000  -0.0000000 SPIN=   0.00000
  Li  -0.4812200  -0.0000000  -0.5000000 SPIN=   0.00000
   O  -0.4162835   0.1583747   0.1582925 SPIN=   0.00000
   O   0.0490016   0.3021651   0.1976705 SPIN=   0.00000
   O  -0.4162835  -0.1583747  -0.1582925 SPIN=   0.00000
   O   0.0490016  -0.3021651  -0.1976705 SPIN=   0.00000
   O  -0.4162835   0.3416253  -0.3417075 SPIN=   0.00000
   O   0.0490016   0.1978349  -0.3023295 SPIN=   0.00000
   O  -0.4162835  -0.3416253   0.3417075 SPIN=   0.00000
   O   0.0490016  -0.1978349   0.3023295 SPIN=   0.00000
   P   0.0186136   0.5000000  -0.0000000 SPIN=   0.00000
   P   0.0186136  -0.0000000  -0.5000000 SPIN=   0.00000
  Fe   0.1742778  -0.0000000  -0.0000000 SPIN=   4.00000
  Fe   0.1742778   0.5000000  -0.5000000 SPIN=   4.00000
%ENDBLOCK POSITIONS_FRAC

# Note: total spin =   8.00

KPOINTS_MP_SPACING 0.07

%BLOCK SPECIES_POT
QC5
%ENDBLOCK SPECIES_POT

%BLOCK HUBBARD_U
Fe d:4.0
%ENDBLOCK HUBBARD_U

SNAP_TO_SYMMETRY
SYMMETRY_GENERATE

