#              Generated by Buildcell
#
# at 07:31:02 (GMT+0.0) 24th November 2020
# in /scratch/scratch/uccabz1/launch_tmp
# on node-a14a-017
# by uccabz1
#
# compiler GCC version 4.9.2
# options -cpp -iprefix /scratch/UCL/applications/gcc/4.9.2/bin/../lib/gcc/x86_64-unknown-linux-gnu/4.9.2/ -mtune=corei7 -march=x86-64 -g -O2
#
# seed   -97804443  -177773440  2073896569   660698121 -1582092822  -920894497  -342209256   511619696   352207249 -1542608070  1636485648   723639426
#
#      Author: C. J. Pickard (cjp20@cam.ac.uk)
#                Space group: P42
#

%BLOCK LATTICE_ABC
      4.54143      4.54143      7.75774
     90.00000     90.00000     90.00000
%ENDBLOCK LATTICE_ABC

%BLOCK POSITIONS_FRAC
  Li   0.5000000  -0.5000000   0.2881924 SPIN=   0.00000
  Li   0.5000000  -0.5000000  -0.2118076 SPIN=   0.00000
   O   0.2542197  -0.3466271   0.0080037 SPIN=   0.00000
   O  -0.2374302  -0.1566245   0.1381917 SPIN=   0.00000
   O  -0.2542197   0.3466271   0.0080037 SPIN=   0.00000
   O   0.2374302   0.1566245   0.1381917 SPIN=   0.00000
   O  -0.3466271  -0.2542197  -0.4919963 SPIN=   0.00000
   O  -0.1566245   0.2374302  -0.3618083 SPIN=   0.00000
   O   0.3466271   0.2542197  -0.4919963 SPIN=   0.00000
   O   0.1566245  -0.2374302  -0.3618083 SPIN=   0.00000
   P   0.0000000  -0.5000000   0.1048568 SPIN=   0.00000
   P  -0.5000000   0.0000000  -0.3951432 SPIN=   0.00000
  Fe   0.0000000  -0.0000000  -0.1191559 SPIN=   4.00000
  Fe  -0.0000000   0.0000000   0.3808441 SPIN=   4.00000
%ENDBLOCK POSITIONS_FRAC

# Note: total spin =   8.00

KPOINTS_MP_SPACING 0.07

%BLOCK SPECIES_POT
QC5
%ENDBLOCK SPECIES_POT

%BLOCK HUBBARD_U
Fe d:4.0
%ENDBLOCK HUBBARD_U

SNAP_TO_SYMMETRY
SYMMETRY_GENERATE

