#              Generated by Buildcell
#
# at 12:15:21 (GMT+0.0) 26th November 2020
# in /lustre/scratch/uccabz1/launch_tmp
# on node-c12d-029
# by uccabz1
#
# compiler GCC version 4.9.2
# options -cpp -iprefix /lustre/shared/ucl/apps/gcc/4.9.2/bin/../lib/gcc/x86_64-unknown-linux-gnu/4.9.2/ -mtune=corei7 -march=x86-64 -g -Og
#
# seed -1205211462   644937208  1148275531   566094612  1193066064  1328304188   614505150   550189275   554854724 -1336115479 -1958947842 -1428443157
#
#      Author: C. J. Pickard (cjp20@cam.ac.uk)
#                Space group: P-1
#

%BLOCK LATTICE_ABC
      6.03811      6.58879      8.60838
     99.74025     91.20117    108.01885
%ENDBLOCK LATTICE_ABC

%BLOCK POSITIONS_FRAC
  Li   0.1789932   0.3406127   0.4515506 SPIN=   0.00000
  Li  -0.1789932  -0.3406127  -0.4515506 SPIN=   0.00000
  Li  -0.4022738  -0.3772484  -0.1397026 SPIN=   0.00000
  Li   0.4022738   0.3772484   0.1397026 SPIN=   0.00000
   O  -0.1797831  -0.4961971   0.1462895 SPIN=   0.00000
   O  -0.1595095  -0.1496905   0.0335953 SPIN=   0.00000
   O  -0.4735830  -0.2818619   0.2063409 SPIN=   0.00000
   O  -0.0600428  -0.1152752   0.3227915 SPIN=   0.00000
   P  -0.2143157  -0.2715754   0.1773231 SPIN=   0.00000
   O   0.1797831   0.4961971  -0.1462895 SPIN=   0.00000
   O   0.1595095   0.1496905  -0.0335953 SPIN=   0.00000
   O   0.4735830   0.2818619  -0.2063409 SPIN=   0.00000
   O   0.0600428   0.1152752  -0.3227915 SPIN=   0.00000
   P   0.2143157   0.2715754  -0.1773231 SPIN=   0.00000
   O   0.6172881  -0.1309261  -0.5038379 SPIN=   0.00000
   O   0.5045406  -0.0832286  -0.2134266 SPIN=   0.00000
   O   0.1877808  -0.2287600  -0.4277648 SPIN=   0.00000
   O   0.4297270  -0.4583394  -0.3691164 SPIN=   0.00000
   P   0.4444887  -0.2230378  -0.3850969 SPIN=   0.00000
   O  -0.6172881   0.1309261   0.5038379 SPIN=   0.00000
   O  -0.5045406   0.0832286   0.2134266 SPIN=   0.00000
   O  -0.1877808   0.2287600   0.4277648 SPIN=   0.00000
   O  -0.4297270   0.4583394   0.3691164 SPIN=   0.00000
   P  -0.4444887   0.2230378   0.3850969 SPIN=   0.00000
  Fe   0.2439798  -0.2096835   0.3138023 SPIN=   3.30570
  Fe  -0.2439798   0.2096835  -0.3138023 SPIN=   3.30570
  Fe  -0.1720732   0.1619744   0.1264784 SPIN=   4.69430
  Fe   0.1720732  -0.1619744  -0.1264784 SPIN=   4.69430
%ENDBLOCK POSITIONS_FRAC

# Note: total spin =  16.00

KPOINTS_MP_SPACING 0.07

%BLOCK SPECIES_POT
QC5
%ENDBLOCK SPECIES_POT

%BLOCK HUBBARD_U
Fe d:4.0
%ENDBLOCK HUBBARD_U

SNAP_TO_SYMMETRY
SYMMETRY_GENERATE

