#              Generated by Buildcell
#
# at 07:23:41 (GMT+0.0) 24th November 2020
# in /lustre/scratch/uccabz1/launch_tmp
# on node-c12c-029
# by uccabz1
#
# compiler GCC version 4.9.2
# options -cpp -iprefix /lustre/shared/ucl/apps/gcc/4.9.2/bin/../lib/gcc/x86_64-unknown-linux-gnu/4.9.2/ -mtune=corei7 -march=x86-64 -g -Og
#
# seed  1512801030  -484173764 -1210718838   383628119   275534134  1506397000 -1981083423  1517496439 -2011998241  -228706585  1493766094  1711431106
#
#      Author: C. J. Pickard (cjp20@cam.ac.uk)
#                Space group: Cc
#

%BLOCK LATTICE_ABC
      5.09269      5.63709      6.26806
     87.88071     85.30413     63.14637
%ENDBLOCK LATTICE_ABC

%BLOCK POSITIONS_FRAC
  Li  -0.1168859   0.1420821  -0.0183702 SPIN=   0.00000
  Li   0.0251961  -0.1420821   0.4816298 SPIN=   0.00000
   O  -0.0917622  -0.2558472   0.2024339 SPIN=   0.00000
   O   0.1538120  -0.6577821  -0.0584039 SPIN=   0.00000
   O   0.0865063  -0.2175550  -0.1918880 SPIN=   0.00000
   O   0.4610739  -0.4583381   0.0739587 SPIN=   0.00000
   P   0.1430493  -0.3905641   0.0177522 SPIN=   0.00000
   O  -0.3476093   0.2558472  -0.2975661 SPIN=   0.00000
   O  -0.5039701   0.6577821  -0.5584039 SPIN=   0.00000
   O  -0.1310487   0.2175550  -0.6918880 SPIN=   0.00000
   O   0.0027358   0.4583381  -0.4260413 SPIN=   0.00000
   P  -0.2475148   0.3905641  -0.4822478 SPIN=   0.00000
  Fe   0.3502924   0.2298161   0.3516161 SPIN=   4.00000
  Fe  -0.4198915  -0.2298161  -0.1483839 SPIN=   4.00000
%ENDBLOCK POSITIONS_FRAC

# Note: total spin =   8.00

KPOINTS_MP_SPACING 0.07

%BLOCK SPECIES_POT
QC5
%ENDBLOCK SPECIES_POT

%BLOCK HUBBARD_U
Fe d:4.0
%ENDBLOCK HUBBARD_U

SNAP_TO_SYMMETRY
SYMMETRY_GENERATE

