#              Generated by Buildcell
#
# at 01:27:07 (GMT+0.0) 27th November 2020
# in /lustre/scratch/uccabz1/launch_tmp
# on node-c12e-029
# by uccabz1
#
# compiler GCC version 4.9.2
# options -cpp -iprefix /lustre/shared/ucl/apps/gcc/4.9.2/bin/../lib/gcc/x86_64-unknown-linux-gnu/4.9.2/ -mtune=corei7 -march=x86-64 -g -Og
#
# seed -1555799695     8571302 -1578476293 -1638807410  1823770542  1257788913  2014831602  1854198873   904528452  2063998211  -463327743   129767532
#
#      Author: C. J. Pickard (cjp20@cam.ac.uk)
#                Space group: P21212
#

%BLOCK LATTICE_ABC
      6.33487      6.33827      7.96969
     90.00000     90.00000     90.00000
%ENDBLOCK LATTICE_ABC

%BLOCK POSITIONS_FRAC
  Li   0.4978114  -0.2606764  -0.4795032 SPIN=   0.00000
  Li  -0.4978114   0.2606764  -0.4795032 SPIN=   0.00000
  Li   0.0021886   0.2393236   0.4795032 SPIN=   0.00000
  Li  -0.0021886  -0.2393236   0.4795032 SPIN=   0.00000
   O  -0.4227404  -0.1777415   0.2726817 SPIN=   0.00000
   O  -0.0323061  -0.2251806   0.1802985 SPIN=   0.00000
   O  -0.1947811  -0.5019099   0.3561866 SPIN=   0.00000
   O  -0.3096352  -0.4605006   0.0573134 SPIN=   0.00000
   P  -0.2504262  -0.3340290   0.2177250 SPIN=   0.00000
   O   0.4227404   0.1777415   0.2726817 SPIN=   0.00000
   O   0.0323061   0.2251806   0.1802985 SPIN=   0.00000
   O   0.1947811   0.5019099   0.3561866 SPIN=   0.00000
   O   0.3096352   0.4605006   0.0573134 SPIN=   0.00000
   P   0.2504262   0.3340290   0.2177250 SPIN=   0.00000
   O  -0.0772596   0.3222585  -0.2726817 SPIN=   0.00000
   O  -0.4676939   0.2748194  -0.1802985 SPIN=   0.00000
   O  -0.3052189  -0.0019099  -0.3561866 SPIN=   0.00000
   O  -0.1903648   0.0394994  -0.0573134 SPIN=   0.00000
   P  -0.2495738   0.1659710  -0.2177250 SPIN=   0.00000
   O   0.0772596  -0.3222585  -0.2726817 SPIN=   0.00000
   O   0.4676939  -0.2748194  -0.1802985 SPIN=   0.00000
   O   0.3052189   0.0019099  -0.3561866 SPIN=   0.00000
   O   0.1903648  -0.0394994  -0.0573134 SPIN=   0.00000
   P   0.2495738  -0.1659710  -0.2177250 SPIN=   0.00000
  Fe   0.2947947  -0.2273555   0.1414112 SPIN=   4.00000
  Fe  -0.2947947   0.2273555   0.1414112 SPIN=   4.00000
  Fe   0.2052053   0.2726445  -0.1414112 SPIN=   4.00000
  Fe  -0.2052053  -0.2726445  -0.1414112 SPIN=   4.00000
%ENDBLOCK POSITIONS_FRAC

# Note: total spin =  16.00

KPOINTS_MP_SPACING 0.07

%BLOCK SPECIES_POT
QC5
%ENDBLOCK SPECIES_POT

%BLOCK HUBBARD_U
Fe d:4.0
%ENDBLOCK HUBBARD_U

SNAP_TO_SYMMETRY
SYMMETRY_GENERATE

