#              Generated by Buildcell
#
# at 14:18:34 (GMT+0.0) 24th November 2020
# in /lustre/scratch/uccabz1/launch_tmp
# on node-c12o-027
# by uccabz1
#
# compiler GCC version 4.9.2
# options -cpp -iprefix /lustre/shared/ucl/apps/gcc/4.9.2/bin/../lib/gcc/x86_64-unknown-linux-gnu/4.9.2/ -mtune=corei7 -march=x86-64 -g -Og
#
# seed  -895436700  1873095763   403410903  1449119653  -165030746   584879480   -13610015 -1790371052  -377779284  1562940919   -38851705   554783956
#
#      Author: C. J. Pickard (cjp20@cam.ac.uk)
#                Space group: C2
#

%BLOCK LATTICE_ABC
      5.59586      6.18036      6.18036
     61.74521     63.10197     63.10197
%ENDBLOCK LATTICE_ABC

%BLOCK POSITIONS_FRAC
  Li  -0.1397198  -0.4758488  -0.0245681 SPIN=   0.00000
  Li   0.1397198   0.0245681   0.4758488 SPIN=   0.00000
   O   0.3396567   0.2214881   0.0945522 SPIN=   0.00000
   O   0.4126149   0.5807349   0.1432002 SPIN=   0.00000
   O   0.7212478   0.4475324  -0.2388846 SPIN=   0.00000
   O   0.2139025   0.6964313  -0.2016362 SPIN=   0.00000
   O  -0.3396567  -0.0945522  -0.2214881 SPIN=   0.00000
   O  -0.4126149  -0.1432002  -0.5807349 SPIN=   0.00000
   O  -0.7212478   0.2388846  -0.4475324 SPIN=   0.00000
   O  -0.2139025   0.2016362  -0.6964313 SPIN=   0.00000
   P  -0.5000000  -0.0280001   0.0280001 SPIN=   0.00000
   P  -0.0000000   0.4726965  -0.4726965 SPIN=   0.00000
  Fe   0.0000000  -0.0830632   0.0830632 SPIN=   4.26240
  Fe   0.5000000   0.4169368  -0.4169368 SPIN=   3.73760
%ENDBLOCK POSITIONS_FRAC

# Note: total spin =   8.00

KPOINTS_MP_SPACING 0.07

%BLOCK SPECIES_POT
QC5
%ENDBLOCK SPECIES_POT

%BLOCK HUBBARD_U
Fe d:4.0
%ENDBLOCK HUBBARD_U

SNAP_TO_SYMMETRY
SYMMETRY_GENERATE

