#              Generated by Buildcell
#
# at 18:17:36 (GMT+0.0) 26th November 2020
# in /lustre/scratch/uccabz1/launch_tmp
# on node-c12d-024
# by uccabz1
#
# compiler GCC version 4.9.2
# options -cpp -iprefix /lustre/shared/ucl/apps/gcc/4.9.2/bin/../lib/gcc/x86_64-unknown-linux-gnu/4.9.2/ -mtune=corei7 -march=x86-64 -g -Og
#
# seed  -226067172  -226450393  -780643529    99695291  -192339962 -1104120669  -405014558  1066933105  1051109825  -301545684 -1652117807 -1528198119
#
#      Author: C. J. Pickard (cjp20@cam.ac.uk)
#                Space group: Cc
#

%BLOCK LATTICE_ABC
      6.21331      6.35628      8.82176
    111.11625     99.38805     90.00000
%ENDBLOCK LATTICE_ABC

%BLOCK POSITIONS_FRAC
  Li  -0.3691982   0.1672694  -0.3036649 SPIN=   0.00000
  Li   0.1308018  -0.4709343  -0.3036649 SPIN=   0.00000
  Li   0.0977925  -0.1656449   0.0444753 SPIN=   0.00000
  Li  -0.4022075   0.2101201   0.0444753 SPIN=   0.00000
   O  -0.1280964   0.3585671  -0.0945121 SPIN=   0.00000
   O   0.2574094   0.3141551   0.0525370 SPIN=   0.00000
   O   0.0171479   0.5777207   0.2172816 SPIN=   0.00000
   O  -0.0728992   0.1606833   0.1171980 SPIN=   0.00000
   P   0.0095134   0.3508226   0.0647203 SPIN=   0.00000
   O  -0.6280964  -0.4530792  -0.0945121 SPIN=   0.00000
   O  -0.2425906  -0.2616181   0.0525370 SPIN=   0.00000
   O  -0.4828521  -0.3604392   0.2172816 SPIN=   0.00000
   O  -0.5728992  -0.0434853   0.1171980 SPIN=   0.00000
   P  -0.4904866  -0.2861023   0.0647203 SPIN=   0.00000
   O  -0.2548786   0.7278604   0.4916957 SPIN=   0.00000
   O   0.0233646   0.4152221   0.4401679 SPIN=   0.00000
   O  -0.2578101   0.4040404   0.6058330 SPIN=   0.00000
   O  -0.3676354   0.3134318   0.3020182 SPIN=   0.00000
   P  -0.2182139   0.4773370   0.4597566 SPIN=   0.00000
   O   0.2451214  -0.2361647   0.4916957 SPIN=   0.00000
   O   0.5233646   0.0249458   0.4401679 SPIN=   0.00000
   O   0.2421899   0.2017925   0.6058330 SPIN=   0.00000
   O   0.1323646  -0.0114136   0.3020182 SPIN=   0.00000
   P   0.2817861  -0.0175804   0.4597566 SPIN=   0.00000
  Fe   0.3118489   0.3563908   0.3438814 SPIN=   4.18503
  Fe  -0.1881511  -0.0125094   0.3438814 SPIN=   4.18503
  Fe   0.1483408   0.0674426  -0.2280371 SPIN=   3.81497
  Fe  -0.3516592  -0.2954797  -0.2280371 SPIN=   3.81497
%ENDBLOCK POSITIONS_FRAC

# Note: total spin =  16.00

KPOINTS_MP_SPACING 0.07

%BLOCK SPECIES_POT
QC5
%ENDBLOCK SPECIES_POT

%BLOCK HUBBARD_U
Fe d:4.0
%ENDBLOCK HUBBARD_U

SNAP_TO_SYMMETRY
SYMMETRY_GENERATE

