#              Generated by Buildcell
#
# at 08:08:51 (GMT+0.0) 24th November 2020
# in /lustre/scratch/uccabz1/launch_tmp
# on node-c12e-029
# by uccabz1
#
# compiler GCC version 4.9.2
# options -cpp -iprefix /lustre/shared/ucl/apps/gcc/4.9.2/bin/../lib/gcc/x86_64-unknown-linux-gnu/4.9.2/ -mtune=corei7 -march=x86-64 -g -Og
#
# seed  1764035745  -916676182 -1860659302  -622390249  1951190856 -1298813989 -1154272639  1176634586  1567780583  1033570486   891980913 -1866734661
#
#      Author: C. J. Pickard (cjp20@cam.ac.uk)
#                Space group: P-1
#

%BLOCK LATTICE_ABC
      3.87567      6.41115      7.05781
     68.85582     88.58485     78.39721
%ENDBLOCK LATTICE_ABC

%BLOCK POSITIONS_FRAC
  Li  -0.4804645   0.4434290  -0.1894801 SPIN=   0.00000
  Li   0.4804645  -0.4434290   0.1894801 SPIN=   0.00000
   O  -0.0230934  -0.2775235   0.2323657 SPIN=   0.00000
   O  -0.0982852  -0.3038860   0.6066108 SPIN=   0.00000
   O  -0.3736321   0.0552756   0.3314170 SPIN=   0.00000
   P  -0.2694889  -0.2103245   0.3843025 SPIN=   0.00000
   O   0.0230934   0.2775235  -0.2323657 SPIN=   0.00000
   O   0.0982852   0.3038860  -0.6066108 SPIN=   0.00000
   O   0.3736321  -0.0552756  -0.3314170 SPIN=   0.00000
   P   0.2694889   0.2103245  -0.3843025 SPIN=   0.00000
   O   0.5000000  -0.0000000  -0.0000000 SPIN=   0.00000
   O  -0.5000000   0.5000000   0.5000000 SPIN=   0.00000
  Fe   0.1220649   0.1317700   0.1907387 SPIN=   4.00000
  Fe  -0.1220649  -0.1317700  -0.1907387 SPIN=   4.00000
%ENDBLOCK POSITIONS_FRAC

# Note: total spin =   8.00

KPOINTS_MP_SPACING 0.07

%BLOCK SPECIES_POT
QC5
%ENDBLOCK SPECIES_POT

%BLOCK HUBBARD_U
Fe d:4.0
%ENDBLOCK HUBBARD_U

SNAP_TO_SYMMETRY
SYMMETRY_GENERATE

