#              Generated by Buildcell
#
# at 14:03:44 (GMT+0.0) 24th November 2020
# in /scratch/scratch/uccabz1/launch_tmp
# on node-a14a-009
# by uccabz1
#
# compiler GCC version 4.9.2
# options -cpp -iprefix /scratch/UCL/applications/gcc/4.9.2/bin/../lib/gcc/x86_64-unknown-linux-gnu/4.9.2/ -mtune=corei7 -march=x86-64 -g -O2
#
# seed  -434748392  1766945803  -244080801  2116146883  -490690961   -26473447   861657744  -932049116   596283134  -789019207  -650509835  1210138276
#
#      Author: C. J. Pickard (cjp20@cam.ac.uk)
#                Space group: C2
#

%BLOCK LATTICE_ABC
      5.47015      5.47015      5.81345
     85.60624     85.60624     67.47566
%ENDBLOCK LATTICE_ABC

%BLOCK POSITIONS_FRAC
  Li  -0.0968654   0.0968654  -0.5000000 SPIN=   0.00000
  Li  -0.2447239   0.2447239  -0.0000000 SPIN=   0.00000
   O  -0.7237684  -0.1576080   0.2055735 SPIN=   0.00000
   O  -0.2659702  -0.1908184   0.0186288 SPIN=   0.00000
   O  -0.3673040  -0.0809634   0.4282494 SPIN=   0.00000
   O  -0.2878144  -0.5392360   0.3159203 SPIN=   0.00000
   P  -0.4264000  -0.2411605   0.2410197 SPIN=   0.00000
   O   0.1576080   0.7237684  -0.2055735 SPIN=   0.00000
   O   0.1908184   0.2659702  -0.0186288 SPIN=   0.00000
   O   0.0809634   0.3673040  -0.4282494 SPIN=   0.00000
   O   0.5392360   0.2878144  -0.3159203 SPIN=   0.00000
   P   0.2411605   0.4264000  -0.2410197 SPIN=   0.00000
  Fe   0.4759671  -0.1494185  -0.2437041 SPIN=   4.00000
  Fe   0.1494185  -0.4759671   0.2437041 SPIN=   4.00000
%ENDBLOCK POSITIONS_FRAC

# Note: total spin =   8.00

KPOINTS_MP_SPACING 0.07

%BLOCK SPECIES_POT
QC5
%ENDBLOCK SPECIES_POT

%BLOCK HUBBARD_U
Fe d:4.0
%ENDBLOCK HUBBARD_U

SNAP_TO_SYMMETRY
SYMMETRY_GENERATE

