#              Generated by Buildcell
#
# at 11:23:55 (GMT+0.0) 24th November 2020
# in /scratch/scratch/uccabz1/launch_tmp
# on node-a14a-004
# by uccabz1
#
# compiler GCC version 4.9.2
# options -cpp -iprefix /scratch/UCL/applications/gcc/4.9.2/bin/../lib/gcc/x86_64-unknown-linux-gnu/4.9.2/ -mtune=corei7 -march=x86-64 -g -O2
#
# seed   221019672 -2116835160 -1290768741    13024273 -1916058213   985382531  1413065893  1996058805 -1514171184    68340254   213194845 -2068443492
#
#      Author: C. J. Pickard (cjp20@cam.ac.uk)
#                Space group: P-1
#

%BLOCK LATTICE_ABC
      4.03114      5.39178      7.86625
    103.52723     93.02264    104.25943
%ENDBLOCK LATTICE_ABC

%BLOCK POSITIONS_FRAC
  Li   0.3547478  -0.3675014  -0.3028148 SPIN=   0.00000
  Li  -0.3547478   0.3675014   0.3028148 SPIN=   0.00000
   O  -0.4565060   0.2529199  -0.4163402 SPIN=   0.00000
   O  -0.4617752   0.0832245  -0.1331230 SPIN=   0.00000
   O   0.0993451   0.2997303  -0.2151383 SPIN=   0.00000
   O  -0.3043366   0.5714238  -0.1052212 SPIN=   0.00000
   P  -0.2904503   0.3024022  -0.2267208 SPIN=   0.00000
   O   0.4565060  -0.2529199   0.4163402 SPIN=   0.00000
   O   0.4617752  -0.0832245   0.1331230 SPIN=   0.00000
   O  -0.0993451  -0.2997303   0.2151383 SPIN=   0.00000
   O   0.3043366  -0.5714238   0.1052212 SPIN=   0.00000
   P   0.2904503  -0.3024022   0.2267208 SPIN=   0.00000
  Fe   0.0000000   0.0000000  -0.5000000 SPIN=   7.52725
  Fe   0.0000000   0.0000000   0.0000000 SPIN=   0.47275
%ENDBLOCK POSITIONS_FRAC

# Note: total spin =   8.00

KPOINTS_MP_SPACING 0.07

%BLOCK SPECIES_POT
QC5
%ENDBLOCK SPECIES_POT

%BLOCK HUBBARD_U
Fe d:4.0
%ENDBLOCK HUBBARD_U

SNAP_TO_SYMMETRY
SYMMETRY_GENERATE

