#              Generated by Buildcell
#
# at 09:10:00 (GMT+0.0) 24th November 2020
# in /lustre/scratch/uccabz1/launch_tmp
# on node-c12o-032
# by uccabz1
#
# compiler GCC version 4.9.2
# options -cpp -iprefix /lustre/shared/ucl/apps/gcc/4.9.2/bin/../lib/gcc/x86_64-unknown-linux-gnu/4.9.2/ -mtune=corei7 -march=x86-64 -g -Og
#
# seed  -795219634   524463612 -1647254327 -1686728484 -1116537776  2029662811  1822304786   411863581  1252971587   -11965006 -1904796200  -602971626
#
#      Author: C. J. Pickard (cjp20@cam.ac.uk)
#                Space group: P-1
#

%BLOCK LATTICE_ABC
      4.27958      5.78327      7.20217
    112.13711    101.66523     93.16063
%ENDBLOCK LATTICE_ABC

%BLOCK POSITIONS_FRAC
  Li  -0.5602571   0.2042560   0.3855075 SPIN=   0.00000
  Li   0.5602571  -0.2042560  -0.3855075 SPIN=   0.00000
   O   0.3052744  -0.4975570  -0.3464373 SPIN=   0.00000
   O  -0.1454323  -0.4603202  -0.1475205 SPIN=   0.00000
   O   0.3982489  -0.2274886   0.0464475 SPIN=   0.00000
   O   0.0600318  -0.0862273  -0.2066813 SPIN=   0.00000
   O  -0.3052744   0.4975570   0.3464373 SPIN=   0.00000
   O   0.1454323   0.4603202   0.1475205 SPIN=   0.00000
   O  -0.3982489   0.2274886  -0.0464475 SPIN=   0.00000
   O  -0.0600318   0.0862273   0.2066813 SPIN=   0.00000
   P  -0.0000000   0.5000000   0.5000000 SPIN=   0.00000
   P  -0.5000000   0.0000000  -0.0000000 SPIN=   0.00000
  Fe   0.1528950   0.2629248  -0.2172789 SPIN=   4.00000
  Fe  -0.1528950  -0.2629248   0.2172789 SPIN=   4.00000
%ENDBLOCK POSITIONS_FRAC

# Note: total spin =   8.00

KPOINTS_MP_SPACING 0.07

%BLOCK SPECIES_POT
QC5
%ENDBLOCK SPECIES_POT

%BLOCK HUBBARD_U
Fe d:4.0
%ENDBLOCK HUBBARD_U

SNAP_TO_SYMMETRY
SYMMETRY_GENERATE

