#              Generated by Buildcell
#
# at 18:48:36 (GMT+0.0) 26th November 2020
# in /lustre/scratch/uccabz1/launch_tmp
# on node-c12l-024
# by uccabz1
#
# compiler GCC version 4.9.2
# options -cpp -iprefix /lustre/shared/ucl/apps/gcc/4.9.2/bin/../lib/gcc/x86_64-unknown-linux-gnu/4.9.2/ -mtune=corei7 -march=x86-64 -g -Og
#
# seed  1004351993  1288332802   -42770248  1657254370 -1100762443 -1370955531  1148780414   -67240470  1789288761 -2145756928   916356248 -1339586751
#
#      Author: C. J. Pickard (cjp20@cam.ac.uk)
#                Space group: C2
#

%BLOCK LATTICE_ABC
      4.81827      8.31329      9.00560
    117.48798     90.19042     90.00000
%ENDBLOCK LATTICE_ABC

%BLOCK POSITIONS_FRAC
  Li  -0.2300803   0.1784340  -0.1270249 SPIN=   0.00000
  Li   0.2300803   0.3054589   0.1270249 SPIN=   0.00000
  Li   0.2262822   0.1629919   0.4788299 SPIN=   0.00000
  Li  -0.2262822  -0.3158381  -0.4788299 SPIN=   0.00000
   O  -0.2502631  -0.4691770   0.0288242 SPIN=   0.00000
   O  -0.3359433  -0.6946347   0.1495627 SPIN=   0.00000
   O   0.0174642  -0.4550373   0.2854906 SPIN=   0.00000
   O  -0.4859925  -0.3714579   0.3148190 SPIN=   0.00000
   P  -0.2655926  -0.4945763   0.1872613 SPIN=   0.00000
   O   0.2502631   0.5019987  -0.0288242 SPIN=   0.00000
   O   0.3359433   0.1558026  -0.1495627 SPIN=   0.00000
   O  -0.0174642   0.2594722  -0.2854906 SPIN=   0.00000
   O   0.4859925   0.3137231  -0.3148190 SPIN=   0.00000
   P   0.2655926   0.3181625  -0.1872613 SPIN=   0.00000
   O   0.3997433   0.3389165  -0.6050386 SPIN=   0.00000
   O  -0.0522248   0.4757127  -0.4375036 SPIN=   0.00000
   O   0.3963953   0.6129980  -0.3070249 SPIN=   0.00000
   P   0.2485675   0.5123540  -0.4823901 SPIN=   0.00000
   O  -0.3997433  -0.0560448   0.6050386 SPIN=   0.00000
   O   0.0522248  -0.0867837   0.4375036 SPIN=   0.00000
   O  -0.3963953  -0.0799771   0.3070249 SPIN=   0.00000
   P  -0.2485675  -0.0052559   0.4823901 SPIN=   0.00000
   O  -0.0000000  -0.2287601   0.0000000 SPIN=   0.00000
   O   0.0000000   0.0641592  -0.0000000 SPIN=   0.00000
  Fe   0.2213294  -0.2712685   0.2069196 SPIN=   3.62699
  Fe  -0.2213294  -0.4781881  -0.2069196 SPIN=   3.62699
  Fe  -0.2732059   0.0906042   0.2056389 SPIN=   4.37301
  Fe   0.2732059  -0.1150347  -0.2056389 SPIN=   4.37301
%ENDBLOCK POSITIONS_FRAC

# Note: total spin =  16.00

KPOINTS_MP_SPACING 0.07

%BLOCK SPECIES_POT
QC5
%ENDBLOCK SPECIES_POT

%BLOCK HUBBARD_U
Fe d:4.0
%ENDBLOCK HUBBARD_U

SNAP_TO_SYMMETRY
SYMMETRY_GENERATE

