#              Generated by Buildcell
#
# at 09:29:50 (GMT+0.0) 24th November 2020
# in /scratch/scratch/uccabz1/launch_tmp
# on node-k10h-028
# by uccabz1
#
# compiler GCC version 4.9.2
# options -cpp -iprefix /scratch/UCL/applications/gcc/4.9.2/bin/../lib/gcc/x86_64-unknown-linux-gnu/4.9.2/ -mtune=corei7 -march=x86-64 -g -O2
#
# seed   789889469 -1312984831  1837927142 -1368653148 -1333530890 -1724285569  1355221458 -2054531782  1821797545  -853926251  -376393141  1168400729
#
#      Author: C. J. Pickard (cjp20@cam.ac.uk)
#                Space group: C2/m
#

%BLOCK LATTICE_ABC
      4.49505      5.65663      7.24487
    112.72723    107.76619     90.74699
%ENDBLOCK LATTICE_ABC

%BLOCK POSITIONS_FRAC
  Li  -0.1226857   0.2503286   0.0000000 SPIN=   0.00000
  Li   0.1226857  -0.2503286  -0.0000000 SPIN=   0.00000
   O  -0.6185869  -0.1949939   0.3349049 SPIN=   0.00000
   O  -0.1682867  -0.1341258   0.1948654 SPIN=   0.00000
   O   0.9534918   0.5298989   0.3349049 SPIN=   0.00000
   O   0.3631521   0.3289912   0.1948654 SPIN=   0.00000
   O   0.6185869   0.1949939  -0.3349049 SPIN=   0.00000
   O   0.1682867   0.1341258  -0.1948654 SPIN=   0.00000
   O  -0.9534918  -0.5298989  -0.3349049 SPIN=   0.00000
   O  -0.3631521  -0.3289912  -0.1948654 SPIN=   0.00000
   P   0.3531203   0.3531203  -0.2937595 SPIN=   0.00000
   P  -0.3531203  -0.3531203   0.2937595 SPIN=   0.00000
  Fe   0.3050420  -0.1949580  -0.3899159 SPIN=   4.00000
  Fe  -0.3050420   0.1949580   0.3899159 SPIN=   4.00000
%ENDBLOCK POSITIONS_FRAC

# Note: total spin =   8.00

KPOINTS_MP_SPACING 0.07

%BLOCK SPECIES_POT
QC5
%ENDBLOCK SPECIES_POT

%BLOCK HUBBARD_U
Fe d:4.0
%ENDBLOCK HUBBARD_U

SNAP_TO_SYMMETRY
SYMMETRY_GENERATE

