#              Generated by Buildcell
#
# at 19:48:44 (GMT+0.0) 26th November 2020
# in /lustre/scratch/uccabz1/launch_tmp
# on node-c12d-021
# by uccabz1
#
# compiler GCC version 4.9.2
# options -cpp -iprefix /lustre/shared/ucl/apps/gcc/4.9.2/bin/../lib/gcc/x86_64-unknown-linux-gnu/4.9.2/ -mtune=corei7 -march=x86-64 -g -Og
#
# seed  1756188949 -1269983125  1102733956 -1116901327  -297312675  2054125746    29729327  -905114036  -507831801   845040524 -2102056671  -448587954
#
#      Author: C. J. Pickard (cjp20@cam.ac.uk)
#                Space group: I-4
#

%BLOCK LATTICE_ABC
      7.41068      7.41068      7.83653
    118.21808    118.21808     90.00000
%ENDBLOCK LATTICE_ABC

%BLOCK POSITIONS_FRAC
  Li  -0.3745320   0.2336103  -0.2502598 SPIN=   0.00000
  Li   0.1242722  -0.4838701  -0.2502598 SPIN=   0.00000
  Li  -0.2336103  -0.1242722  -0.7497402 SPIN=   0.00000
  Li   0.4838701   0.3745320   1.2502598 SPIN=   0.00000
   O   0.4602497  -0.2134116   0.3602718 SPIN=   0.00000
   O   0.1275035  -0.1835349   0.0562015 SPIN=   0.00000
   O   0.4664627   0.1041846   0.3034641 SPIN=   0.00000
   O   0.4317341  -0.2567386   0.0006398 SPIN=   0.00000
   P   0.3769246  -0.1428323   0.1876168 SPIN=   0.00000
   O  -0.0999779   0.5736833   0.3602718 SPIN=   0.00000
   O  -0.0713021   0.2397363   0.0562015 SPIN=   0.00000
   O  -0.1629987   0.1992794   0.3034641 SPIN=   0.00000
   O  -0.4310943   0.2573784   0.0006398 SPIN=   0.00000
   P  -0.1893078   0.3304491   0.1876168 SPIN=   0.00000
   O   0.2134116   0.0999779   0.6397282 SPIN=   0.00000
   O   0.1835349   0.0713021   0.9437985 SPIN=   0.00000
   O  -0.1041846   0.1629987   0.6965359 SPIN=   0.00000
   O   0.2567386   0.4310943   0.9993602 SPIN=   0.00000
   P   0.1428323   0.1893078   0.8123832 SPIN=   0.00000
   O  -0.5736833  -0.4602497  -1.3602718 SPIN=   0.00000
   O  -0.2397363  -0.1275035  -1.0562015 SPIN=   0.00000
   O  -0.1992794  -0.4664627  -1.3034641 SPIN=   0.00000
   O  -0.2573784  -0.4317341  -1.0006398 SPIN=   0.00000
   P  -0.3304491  -0.3769246  -1.1876168 SPIN=   0.00000
  Fe   0.4147720  -0.0852280  -0.1704561 SPIN=   4.71358
  Fe   0.0852280  -0.4147720   0.1704561 SPIN=   4.71358
  Fe   0.1652356   0.1652356   0.3304712 SPIN=   3.28642
  Fe  -0.1652356  -0.1652356  -0.3304712 SPIN=   3.28642
%ENDBLOCK POSITIONS_FRAC

# Note: total spin =  16.00

KPOINTS_MP_SPACING 0.07

%BLOCK SPECIES_POT
QC5
%ENDBLOCK SPECIES_POT

%BLOCK HUBBARD_U
Fe d:4.0
%ENDBLOCK HUBBARD_U

SNAP_TO_SYMMETRY
SYMMETRY_GENERATE

