#              Generated by Buildcell
#
# at 06:56:18 (GMT+0.0) 24th November 2020
# in /lustre/scratch/uccabz1/launch_tmp
# on node-c12c-030
# by uccabz1
#
# compiler GCC version 4.9.2
# options -cpp -iprefix /lustre/shared/ucl/apps/gcc/4.9.2/bin/../lib/gcc/x86_64-unknown-linux-gnu/4.9.2/ -mtune=corei7 -march=x86-64 -g -Og
#
# seed  1603833871   155201551 -1601593529  -803273125  1050992372  1928435895  1936782399  -983111142 -1784214436 -1972018778   690772674 -1901654665
#
#      Author: C. J. Pickard (cjp20@cam.ac.uk)
#                Space group: P2
#

%BLOCK LATTICE_ABC
      4.78348      5.61822      6.20523
    106.37367     90.00000     90.00000
%ENDBLOCK LATTICE_ABC

%BLOCK POSITIONS_FRAC
  Li   0.4689091  -0.4031220  -0.2045680 SPIN=   0.00000
  Li   0.4689091   0.4031220   0.2045680 SPIN=   0.00000
   O   0.0328194  -0.5698194   0.2191554 SPIN=   0.00000
   O   0.1374468  -0.1032810   0.2707801 SPIN=   0.00000
   O  -0.3298324  -0.2641243   0.1339927 SPIN=   0.00000
   O  -0.1967844  -0.2223621   0.5333021 SPIN=   0.00000
   P  -0.0838676  -0.3040042   0.2884517 SPIN=   0.00000
   O   0.0328194   0.5698194  -0.2191554 SPIN=   0.00000
   O   0.1374468   0.1032810  -0.2707801 SPIN=   0.00000
   O  -0.3298324   0.2641243  -0.1339927 SPIN=   0.00000
   O  -0.1967844   0.2223621  -0.5333021 SPIN=   0.00000
   P  -0.0838676   0.3040042  -0.2884517 SPIN=   0.00000
  Fe   0.4636487   0.0000000   0.5000000 SPIN=   1.70884
  Fe  -0.0324853   0.0000000  -0.0000000 SPIN=   6.29116
%ENDBLOCK POSITIONS_FRAC

# Note: total spin =   8.00

KPOINTS_MP_SPACING 0.07

%BLOCK SPECIES_POT
QC5
%ENDBLOCK SPECIES_POT

%BLOCK HUBBARD_U
Fe d:4.0
%ENDBLOCK HUBBARD_U

SNAP_TO_SYMMETRY
SYMMETRY_GENERATE

