#              Generated by Buildcell
#
# at 15:47:16 (GMT+0.0) 26th November 2020
# in /lustre/scratch/uccabz1/launch_tmp
# on node-c12c-023
# by uccabz1
#
# compiler GCC version 4.9.2
# options -cpp -iprefix /lustre/shared/ucl/apps/gcc/4.9.2/bin/../lib/gcc/x86_64-unknown-linux-gnu/4.9.2/ -mtune=corei7 -march=x86-64 -g -Og
#
# seed  -189477921  -193906328   258647841   539264768   717430375   276319126   717772184   726545553 -1163635406 -2021345979  2019163611 -1972186662
#
#      Author: C. J. Pickard (cjp20@cam.ac.uk)
#                Space group: P21
#

%BLOCK LATTICE_ABC
      5.37155      7.83144      8.01924
     90.00000     90.00000    108.45321
%ENDBLOCK LATTICE_ABC

%BLOCK POSITIONS_FRAC
  Li   0.3479143  -0.1718725  -0.3351044 SPIN=   0.00000
  Li  -0.3479143   0.1718725   0.1648956 SPIN=   0.00000
  Li   0.3959913   0.3619977  -0.3157943 SPIN=   0.00000
  Li  -0.3959913  -0.3619977   0.1842057 SPIN=   0.00000
   O   0.2574123   0.4478443   0.2743880 SPIN=   0.00000
   O   0.2332711   0.1166631   0.2160093 SPIN=   0.00000
   O   0.0016717   0.2621883   0.0245737 SPIN=   0.00000
   O   0.4929742   0.3598684   0.0236255 SPIN=   0.00000
   P   0.2498330   0.3054380   0.1407793 SPIN=   0.00000
   O  -0.2574123  -0.4478443  -0.2256120 SPIN=   0.00000
   O  -0.2332711  -0.1166631  -0.2839907 SPIN=   0.00000
   O  -0.0016717  -0.2621883  -0.4754263 SPIN=   0.00000
   O  -0.4929742  -0.3598684  -0.4763745 SPIN=   0.00000
   P  -0.2498330  -0.3054380  -0.3592207 SPIN=   0.00000
   O   0.4144048   0.0219646  -0.1090191 SPIN=   0.00000
   O   0.6915547  -0.0931108   0.1023150 SPIN=   0.00000
   O   0.2094234  -0.1963550   0.1342616 SPIN=   0.00000
   O   0.4126138  -0.3082203  -0.1058555 SPIN=   0.00000
   P   0.4308337  -0.1370361  -0.0019813 SPIN=   0.00000
   O  -0.4144048  -0.0219646  -0.6090191 SPIN=   0.00000
   O  -0.6915547   0.0931108  -0.3976850 SPIN=   0.00000
   O  -0.2094234   0.1963550  -0.3657384 SPIN=   0.00000
   O  -0.4126138   0.3082203  -0.6058555 SPIN=   0.00000
   P  -0.4308337   0.1370361  -0.5019813 SPIN=   0.00000
  Fe  -0.0274951   0.4740775   0.4428645 SPIN=   4.35447
  Fe   0.0274951  -0.4740775  -0.0571355 SPIN=   4.35447
  Fe   0.0172584   0.0228004  -0.0933890 SPIN=   3.64553
  Fe  -0.0172584  -0.0228004   0.4066110 SPIN=   3.64553
%ENDBLOCK POSITIONS_FRAC

# Note: total spin =  16.00

KPOINTS_MP_SPACING 0.07

%BLOCK SPECIES_POT
QC5
%ENDBLOCK SPECIES_POT

%BLOCK HUBBARD_U
Fe d:4.0
%ENDBLOCK HUBBARD_U

SNAP_TO_SYMMETRY
SYMMETRY_GENERATE

