#              Generated by Buildcell
#
# at 07:23:06 (GMT+0.0) 24th November 2020
# in /lustre/scratch/uccabz1/launch_tmp
# on node-c12l-030
# by uccabz1
#
# compiler GCC version 4.9.2
# options -cpp -iprefix /lustre/shared/ucl/apps/gcc/4.9.2/bin/../lib/gcc/x86_64-unknown-linux-gnu/4.9.2/ -mtune=corei7 -march=x86-64 -g -Og
#
# seed  -294611755  1737684147   785916586   111617109  -700633439    28816442  1579655519  -244439519   945690461  -974721277   420792421  1732323895
#
#      Author: C. J. Pickard (cjp20@cam.ac.uk)
#                Space group: Pcc2
#

%BLOCK LATTICE_ABC
      4.19838      4.86308      7.83660
     90.00000     90.00000     90.00000
%ENDBLOCK LATTICE_ABC

%BLOCK POSITIONS_FRAC
  Li   0.0000000   0.5000000  -0.0611257 SPIN=   0.00000
  Li   0.0000000   0.5000000   0.4388743 SPIN=   0.00000
   O   0.2821580  -0.1966116   0.3198108 SPIN=   0.00000
   O   0.2217026  -0.6715566   0.1714988 SPIN=   0.00000
   O  -0.2821580   0.1966116   0.3198108 SPIN=   0.00000
   O  -0.2217026   0.6715566   0.1714988 SPIN=   0.00000
   O  -0.2821580  -0.1966116  -0.1801892 SPIN=   0.00000
   O  -0.2217026  -0.6715566  -0.3285012 SPIN=   0.00000
   O   0.2821580   0.1966116  -0.1801892 SPIN=   0.00000
   O   0.2217026   0.6715566  -0.3285012 SPIN=   0.00000
   P   0.0000000   0.0000000   0.2900541 SPIN=   0.00000
   P   0.0000000   0.0000000  -0.2099459 SPIN=   0.00000
  Fe  -0.5000000   0.0000000   0.0403531 SPIN=   4.00000
  Fe   0.5000000   0.0000000  -0.4596469 SPIN=   4.00000
%ENDBLOCK POSITIONS_FRAC

# Note: total spin =   8.00

KPOINTS_MP_SPACING 0.07

%BLOCK SPECIES_POT
QC5
%ENDBLOCK SPECIES_POT

%BLOCK HUBBARD_U
Fe d:4.0
%ENDBLOCK HUBBARD_U

SNAP_TO_SYMMETRY
SYMMETRY_GENERATE

