#              Generated by Buildcell
#
# at 08:30:35 (GMT+0.0) 24th November 2020
# in /lustre/scratch/uccabz1/launch_tmp
# on node-c12a-027
# by uccabz1
#
# compiler GCC version 4.9.2
# options -cpp -iprefix /lustre/shared/ucl/apps/gcc/4.9.2/bin/../lib/gcc/x86_64-unknown-linux-gnu/4.9.2/ -mtune=corei7 -march=x86-64 -g -Og
#
# seed  -684924518  -470060832  -422346491   156730055 -1195277081  -942374397 -1147268104  -213796023 -2050071301   439332701 -2001139093   465525214
#
#      Author: C. J. Pickard (cjp20@cam.ac.uk)
#                Space group: I41
#

%BLOCK LATTICE_ABC
      5.33775      5.33775      6.76622
    113.23114    113.23114     90.00000
%ENDBLOCK LATTICE_ABC

%BLOCK POSITIONS_FRAC
  Li   0.2544867   0.2544867  -0.4910266 SPIN=   0.00000
  Li  -0.4955133   0.0044867   0.0089734 SPIN=   0.00000
   O  -0.1045716  -0.0567443   0.3270259 SPIN=   0.00000
   O   0.4106567  -0.1170843   0.4671558 SPIN=   0.00000
   O   0.4315975   0.3837703   0.3270259 SPIN=   0.00000
   O   0.0564991   0.5842401   0.4671558 SPIN=   0.00000
   O  -0.3662297  -0.3545716  -0.1729741 SPIN=   0.00000
   O  -0.1657599   0.1606567  -0.0328442 SPIN=   0.00000
   O   0.1932557   0.1815975  -0.1729741 SPIN=   0.00000
   O   0.1329157  -0.1935009  -0.0328442 SPIN=   0.00000
   P  -0.2571656   0.2428344   0.4856688 SPIN=   0.00000
   P   0.4928344   0.4928344  -0.0143312 SPIN=   0.00000
  Fe  -0.1676313  -0.1676313  -0.3352627 SPIN=   4.00000
  Fe   0.0823687  -0.4176313   0.1647373 SPIN=   4.00000
%ENDBLOCK POSITIONS_FRAC

# Note: total spin =   8.00

KPOINTS_MP_SPACING 0.07

%BLOCK SPECIES_POT
QC5
%ENDBLOCK SPECIES_POT

%BLOCK HUBBARD_U
Fe d:4.0
%ENDBLOCK HUBBARD_U

SNAP_TO_SYMMETRY
SYMMETRY_GENERATE

