#              Generated by Buildcell
#
# at 14:14:05 (GMT+0.0) 24th November 2020
# in /scratch/scratch/uccabz1/launch_tmp
# on node-k10c-005
# by uccabz1
#
# compiler GCC version 4.9.2
# options -cpp -iprefix /scratch/UCL/applications/gcc/4.9.2/bin/../lib/gcc/x86_64-unknown-linux-gnu/4.9.2/ -mtune=corei7 -march=x86-64 -g -O2
#
# seed  -830984269  -306306238 -1031076480   277153869 -1131101737  -455727682 -1489962204  1100300755  -313387996  1483018134   691276842  1010329947
#
#      Author: C. J. Pickard (cjp20@cam.ac.uk)
#                Space group: P-1
#

%BLOCK LATTICE_ABC
      5.05439      5.53314      6.62649
     92.03674    109.40330    111.49892
%ENDBLOCK LATTICE_ABC

%BLOCK POSITIONS_FRAC
  Li  -0.0928882  -0.0161471  -0.3039194 SPIN=   0.00000
  Li   0.0928882   0.0161471   0.3039194 SPIN=   0.00000
   O   0.2542898  -0.1656755  -0.0061292 SPIN=   0.00000
   O  -0.1051881  -0.3858869  -0.4057724 SPIN=   0.00000
   O   0.4535318  -0.1952471  -0.3166949 SPIN=   0.00000
   O   0.2140332  -0.6074108  -0.1836641 SPIN=   0.00000
   P   0.2069519  -0.3325229  -0.2157242 SPIN=   0.00000
   O  -0.2542898   0.1656755   0.0061292 SPIN=   0.00000
   O   0.1051881   0.3858869   0.4057724 SPIN=   0.00000
   O  -0.4535318   0.1952471   0.3166949 SPIN=   0.00000
   O  -0.2140332   0.6074108   0.1836641 SPIN=   0.00000
   P  -0.2069519   0.3325229   0.2157242 SPIN=   0.00000
  Fe  -0.3988737   0.3819527  -0.2285866 SPIN=   4.00000
  Fe   0.3988737  -0.3819527   0.2285866 SPIN=   4.00000
%ENDBLOCK POSITIONS_FRAC

# Note: total spin =   8.00

KPOINTS_MP_SPACING 0.07

%BLOCK SPECIES_POT
QC5
%ENDBLOCK SPECIES_POT

%BLOCK HUBBARD_U
Fe d:4.0
%ENDBLOCK HUBBARD_U

SNAP_TO_SYMMETRY
SYMMETRY_GENERATE

