#              Generated by Buildcell
#
# at 15:59:43 (GMT+0.0) 26th November 2020
# in /lustre/scratch/uccabz1/launch_tmp
# on node-c12m-034
# by uccabz1
#
# compiler GCC version 4.9.2
# options -cpp -iprefix /lustre/shared/ucl/apps/gcc/4.9.2/bin/../lib/gcc/x86_64-unknown-linux-gnu/4.9.2/ -mtune=corei7 -march=x86-64 -g -Og
#
# seed -1872597445   481852993   509722738   238325596   167246931    76991399  2011372282  1551098581  1355723067 -1118065656  1613697755  1999043007
#
#      Author: C. J. Pickard (cjp20@cam.ac.uk)
#                Space group: Pna21
#

%BLOCK LATTICE_ABC
      6.00234      6.46677      8.24407
     90.00000     90.00000     90.00000
%ENDBLOCK LATTICE_ABC

%BLOCK POSITIONS_FRAC
  Li   0.2781766   0.0823236   0.2087288 SPIN=   0.00000
  Li  -0.2218234  -0.0823236  -0.2087288 SPIN=   0.00000
  Li   0.2781766  -0.4176764   0.2912712 SPIN=   0.00000
  Li  -0.2218234   0.4176764  -0.2912712 SPIN=   0.00000
   O   0.0055736   0.3536927   0.3838202 SPIN=   0.00000
   O  -0.1031998   0.0492111   0.5735547 SPIN=   0.00000
   O  -0.3919862   0.3058605   0.5026629 SPIN=   0.00000
   O  -0.2553145   0.0590256   0.2907904 SPIN=   0.00000
   P  -0.1768343   0.1989910   0.4331041 SPIN=   0.00000
   O   0.5055736  -0.3536927  -0.3838202 SPIN=   0.00000
   O   0.3968002  -0.0492111  -0.5735547 SPIN=   0.00000
   O   0.1080138  -0.3058605  -0.5026629 SPIN=   0.00000
   O   0.2446855  -0.0590256  -0.2907904 SPIN=   0.00000
   P   0.3231657  -0.1989910  -0.4331041 SPIN=   0.00000
   O   0.0055736  -0.1463073   0.1161798 SPIN=   0.00000
   O  -0.1031998  -0.4507889  -0.0735547 SPIN=   0.00000
   O  -0.3919862  -0.1941395  -0.0026629 SPIN=   0.00000
   O  -0.2553145  -0.4409744   0.2092096 SPIN=   0.00000
   P  -0.1768343  -0.3010090   0.0668959 SPIN=   0.00000
   O   0.5055736   0.1463073  -0.1161798 SPIN=   0.00000
   O   0.3968002   0.4507889   0.0735547 SPIN=   0.00000
   O   0.1080138   0.1941395   0.0026629 SPIN=   0.00000
   O   0.2446855   0.4409744  -0.2092096 SPIN=   0.00000
   P   0.3231657   0.3010090  -0.0668959 SPIN=   0.00000
  Fe  -0.2304502   0.2590040   0.0903939 SPIN=   4.00000
  Fe   0.2695498  -0.2590040  -0.0903939 SPIN=   4.00000
  Fe  -0.2304502  -0.2409960   0.4096061 SPIN=   4.00000
  Fe   0.2695498   0.2409960  -0.4096061 SPIN=   4.00000
%ENDBLOCK POSITIONS_FRAC

# Note: total spin =  16.00

KPOINTS_MP_SPACING 0.07

%BLOCK SPECIES_POT
QC5
%ENDBLOCK SPECIES_POT

%BLOCK HUBBARD_U
Fe d:4.0
%ENDBLOCK HUBBARD_U

SNAP_TO_SYMMETRY
SYMMETRY_GENERATE

