#              Generated by Buildcell
#
# at 06:58:53 (GMT+0.0) 24th November 2020
# in /lustre/scratch/uccabz1/launch_tmp
# on node-c12j-029
# by uccabz1
#
# compiler GCC version 4.9.2
# options -cpp -iprefix /lustre/shared/ucl/apps/gcc/4.9.2/bin/../lib/gcc/x86_64-unknown-linux-gnu/4.9.2/ -mtune=corei7 -march=x86-64 -g -Og
#
# seed   935759092 -1990702403  1614596247  1082377410  -841859099  -427293649   655019915   782134878   773712695 -1877491192 -1069106386 -1598461717
#
#      Author: C. J. Pickard (cjp20@cam.ac.uk)
#                Space group: Cc
#

%BLOCK LATTICE_ABC
      4.84866      6.28337      6.28337
     93.93256    111.87587    111.87587
%ENDBLOCK LATTICE_ABC

%BLOCK POSITIONS_FRAC
  Li   0.0357675  -0.1800959   0.0156134 SPIN=   0.00000
  Li  -0.4642325   0.0156134  -0.1800959 SPIN=   0.00000
   O  -0.3675922   0.4401750  -0.1673134 SPIN=   0.00000
   O  -0.0210269   0.2224458  -0.2084085 SPIN=   0.00000
   O  -0.3305953   0.3320714  -0.5592832 SPIN=   0.00000
   O   0.1635673   0.6483109  -0.2219500 SPIN=   0.00000
   P  -0.1475183   0.4151209  -0.2819527 SPIN=   0.00000
   O   0.1324078  -0.1673134   0.4401750 SPIN=   0.00000
   O   0.4789731  -0.2084085   0.2224458 SPIN=   0.00000
   O   0.1694047  -0.5592832   0.3320714 SPIN=   0.00000
   O   0.6635673  -0.2219500   0.6483109 SPIN=   0.00000
   P   0.3524817  -0.2819527   0.4151209 SPIN=   0.00000
  Fe   0.4244560   0.4240075   0.0905691 SPIN=   4.00000
  Fe   0.9244560   0.0905691   0.4240075 SPIN=   4.00000
%ENDBLOCK POSITIONS_FRAC

# Note: total spin =   8.00

KPOINTS_MP_SPACING 0.07

%BLOCK SPECIES_POT
QC5
%ENDBLOCK SPECIES_POT

%BLOCK HUBBARD_U
Fe d:4.0
%ENDBLOCK HUBBARD_U

SNAP_TO_SYMMETRY
SYMMETRY_GENERATE

