#              Generated by Buildcell
#
# at 14:32:38 (GMT+0.0) 26th November 2020
# in /scratch/scratch/uccabz1/launch_tmp
# on node-k10h-025
# by uccabz1
#
# compiler GCC version 4.9.2
# options -cpp -iprefix /scratch/UCL/applications/gcc/4.9.2/bin/../lib/gcc/x86_64-unknown-linux-gnu/4.9.2/ -mtune=corei7 -march=x86-64 -g -O2
#
# seed  -808386641  1472333953   152431934   543771295  -131145009  1346047629   287214278   -88708376   446907466 -1651445275  -694111865 -1182862689
#
#      Author: C. J. Pickard (cjp20@cam.ac.uk)
#                Space group: P21
#

%BLOCK LATTICE_ABC
      4.39421      4.64489     15.67816
     90.00000     90.00000     90.13781
%ENDBLOCK LATTICE_ABC

%BLOCK POSITIONS_FRAC
  Li   0.3769824  -0.2258614   0.4879731 SPIN=   0.00000
  Li  -0.3769824   0.2258614  -0.0120269 SPIN=   0.00000
  Li  -0.1054574   0.2206131  -0.1898294 SPIN=   0.00000
  Li   0.1054574  -0.2206131   0.3101706 SPIN=   0.00000
   O  -0.1738665  -0.2683438  -0.2393405 SPIN=   0.00000
   O   0.1093989   0.1651591  -0.3079833 SPIN=   0.00000
   O   0.2554550  -0.3261031  -0.3519415 SPIN=   0.00000
   O  -0.2485180  -0.1274240  -0.3973163 SPIN=   0.00000
   P  -0.0256374  -0.1459166  -0.3204934 SPIN=   0.00000
   O   0.1738665   0.2683438   0.2606595 SPIN=   0.00000
   O  -0.1093989  -0.1651591   0.1920167 SPIN=   0.00000
   O  -0.2554550   0.3261031   0.1480585 SPIN=   0.00000
   O   0.2485180   0.1274240   0.1026837 SPIN=   0.00000
   P   0.0256374   0.1459166   0.1795066 SPIN=   0.00000
   O  -0.4193680  -0.2404297  -0.0065457 SPIN=   0.00000
   O   0.0111123  -0.4817515  -0.0945820 SPIN=   0.00000
   O   0.0861752   0.0189205  -0.0456955 SPIN=   0.00000
   O   0.0952453  -0.3831534   0.0606904 SPIN=   0.00000
   P  -0.0742254  -0.2712601  -0.0197649 SPIN=   0.00000
   O   0.4193680   0.2404297   0.4934543 SPIN=   0.00000
   O  -0.0111123   0.4817515   0.4054180 SPIN=   0.00000
   O  -0.0861752  -0.0189205   0.4543045 SPIN=   0.00000
   O  -0.0952453   0.3831534   0.5606904 SPIN=   0.00000
   P   0.0742254   0.2712601   0.4802351 SPIN=   0.00000
  Fe  -0.4842445   0.2759367  -0.3690018 SPIN=   3.64139
  Fe   0.4842445  -0.2759367   0.1309982 SPIN=   3.64139
  Fe   0.3949044  -0.2777630  -0.1463179 SPIN=   4.35861
  Fe  -0.3949044   0.2777630   0.3536821 SPIN=   4.35861
%ENDBLOCK POSITIONS_FRAC

# Note: total spin =  16.00

KPOINTS_MP_SPACING 0.07

%BLOCK SPECIES_POT
QC5
%ENDBLOCK SPECIES_POT

%BLOCK HUBBARD_U
Fe d:4.0
%ENDBLOCK HUBBARD_U

SNAP_TO_SYMMETRY
SYMMETRY_GENERATE

