#              Generated by Buildcell
#
# at 12:45:27 (GMT+0.0) 24th November 2020
# in /lustre/scratch/uccabz1/launch_tmp
# on node-c12k-030
# by uccabz1
#
# compiler GCC version 4.9.2
# options -cpp -iprefix /lustre/shared/ucl/apps/gcc/4.9.2/bin/../lib/gcc/x86_64-unknown-linux-gnu/4.9.2/ -mtune=corei7 -march=x86-64 -g -Og
#
# seed -2145844189   826386551  -815447389  -401067505   279878391 -1165162878  1153742224   -77205245   957233440   756770011  -218390047   476996988
#
#      Author: C. J. Pickard (cjp20@cam.ac.uk)
#                Space group: Imm2
#

%BLOCK LATTICE_ABC
      5.19113      5.83772      6.56755
    116.38734    113.27910     90.00000
%ENDBLOCK LATTICE_ABC

%BLOCK POSITIONS_FRAC
  Li  -0.3141397  -0.0000000  -0.0000000 SPIN=   0.00000
  Li  -0.4680995  -0.5000000  -1.0000000 SPIN=   0.00000
   O   0.0518193   0.3844448   0.2360509 SPIN=   0.00000
   O   0.5794060   0.4271629   0.2987458 SPIN=   0.00000
   O  -0.1842316  -0.3844448  -0.2360509 SPIN=   0.00000
   O   0.2806602  -0.4271629  -0.2987458 SPIN=   0.00000
   O  -0.1842316   0.1483940  -0.2360509 SPIN=   0.00000
   O   0.2806602   0.1284171  -0.2987458 SPIN=   0.00000
   O   0.0518193  -0.1483940   0.2360509 SPIN=   0.00000
   O   0.5794060  -0.1284171   0.2987458 SPIN=   0.00000
   P  -0.0064381   0.3132334   0.6264668 SPIN=   0.00000
   P   0.3670951  -0.3132334   0.3735332 SPIN=   0.00000
  Fe   0.3783737   0.1955611   0.3911223 SPIN=   4.00000
  Fe  -0.0127486  -0.1955611  -0.3911223 SPIN=   4.00000
%ENDBLOCK POSITIONS_FRAC

# Note: total spin =   8.00

KPOINTS_MP_SPACING 0.07

%BLOCK SPECIES_POT
QC5
%ENDBLOCK SPECIES_POT

%BLOCK HUBBARD_U
Fe d:4.0
%ENDBLOCK HUBBARD_U

SNAP_TO_SYMMETRY
SYMMETRY_GENERATE

