#              Generated by Buildcell
#
# at 06:33:07 (GMT+0.0) 24th November 2020
# in /scratch/scratch/uccabz1/launch_tmp
# on node-k10c-005
# by uccabz1
#
# compiler GCC version 4.9.2
# options -cpp -iprefix /scratch/UCL/applications/gcc/4.9.2/bin/../lib/gcc/x86_64-unknown-linux-gnu/4.9.2/ -mtune=corei7 -march=x86-64 -g -O2
#
# seed  1069339997  1644277526 -1292849337 -1308696499    44675554 -1086308231 -1420181523  1673549828  -313351301   237016656  1595072973  -724962701
#
#      Author: C. J. Pickard (cjp20@cam.ac.uk)
#                Space group: I222
#

%BLOCK LATTICE_ABC
      4.91860      5.97530      6.67918
    116.57108    111.60490     90.00000
%ENDBLOCK LATTICE_ABC

%BLOCK POSITIONS_FRAC
  Li   0.5000000   0.0000000   0.0000000 SPIN=   0.00000
  Li  -0.5000000  -0.5000000  -1.0000000 SPIN=   0.00000
   O  -0.1910438   0.3479457   0.2811134 SPIN=   0.00000
   O   0.2638542   0.3524274   0.1723064 SPIN=   0.00000
   O   0.1910438   0.0668324  -0.2811134 SPIN=   0.00000
   O  -0.2638542   0.1801210  -0.1723064 SPIN=   0.00000
   O   0.4721572  -0.0668324   0.2811134 SPIN=   0.00000
   O  -0.0915479  -0.1801210   0.1723064 SPIN=   0.00000
   O  -0.4721572  -0.3479457  -0.2811134 SPIN=   0.00000
   O   0.0915479  -0.3524274  -0.1723064 SPIN=   0.00000
   P   0.1689551  -0.3310449  -0.6620897 SPIN=   0.00000
   P  -0.1689551   0.3310449   0.6620897 SPIN=   0.00000
  Fe   0.1984062   0.1984062   0.3968124 SPIN=   4.00000
  Fe  -0.1984062  -0.1984062  -0.3968124 SPIN=   4.00000
%ENDBLOCK POSITIONS_FRAC

# Note: total spin =   8.00

KPOINTS_MP_SPACING 0.07

%BLOCK SPECIES_POT
QC5
%ENDBLOCK SPECIES_POT

%BLOCK HUBBARD_U
Fe d:4.0
%ENDBLOCK HUBBARD_U

SNAP_TO_SYMMETRY
SYMMETRY_GENERATE

