#              Generated by Buildcell
#
# at 15:57:51 (GMT+0.0) 26th November 2020
# in /scratch/scratch/uccabz1/launch_tmp
# on node-a14e-008
# by uccabz1
#
# compiler GCC version 4.9.2
# options -cpp -iprefix /scratch/UCL/applications/gcc/4.9.2/bin/../lib/gcc/x86_64-unknown-linux-gnu/4.9.2/ -mtune=corei7 -march=x86-64 -g -O2
#
# seed   800480382   726468436 -1372835610  1224731089   951261231  -987497549  1971953304   494842601 -1136698283 -1275799921   -79294297  1873703840
#
#      Author: C. J. Pickard (cjp20@cam.ac.uk)
#                Space group: C2
#

%BLOCK LATTICE_ABC
      7.10782      7.45140      7.45140
     73.66470     64.65415     64.65415
%ENDBLOCK LATTICE_ABC

%BLOCK POSITIONS_FRAC
  Li  -0.3194823   0.4269303  -0.0638091 SPIN=   0.00000
  Li   0.3194823   0.0638091  -0.4269303 SPIN=   0.00000
  Li   0.7915052  -0.2884469  -0.4378689 SPIN=   0.00000
  Li  -0.7915052   0.4378689   0.2884469 SPIN=   0.00000
   O  -0.5577888   0.3462349   0.4781718 SPIN=   0.00000
   O  -0.4758834   0.2328965   0.1446339 SPIN=   0.00000
   O  -0.1838973   0.3035284   0.1782200 SPIN=   0.00000
   O  -0.2749914  -0.0006833   0.3737901 SPIN=   0.00000
   P  -0.3818136   0.2245791   0.3044711 SPIN=   0.00000
   O   0.5577888  -0.4781718  -0.3462349 SPIN=   0.00000
   O   0.4758834  -0.1446339  -0.2328965 SPIN=   0.00000
   O   0.1838973  -0.1782200  -0.3035284 SPIN=   0.00000
   O   0.2749914  -0.3737901   0.0006833 SPIN=   0.00000
   P   0.3818136  -0.3044711  -0.2245791 SPIN=   0.00000
   O  -0.7564463   0.0648372   0.0517337 SPIN=   0.00000
   O  -0.8995702  -0.1413500   0.3914947 SPIN=   0.00000
   O  -0.5615269  -0.0708084   0.3134579 SPIN=   0.00000
   O  -0.9322733   0.2076438   0.3885536 SPIN=   0.00000
   P  -0.7875122   0.0200024   0.2750265 SPIN=   0.00000
   O   0.7564463  -0.0517337  -0.0648372 SPIN=   0.00000
   O   0.8995702  -0.3914947   0.1413500 SPIN=   0.00000
   O   0.5615269  -0.3134579   0.0708084 SPIN=   0.00000
   O   0.9322733  -0.3885536  -0.2076438 SPIN=   0.00000
   P   0.7875122  -0.2750265  -0.0200024 SPIN=   0.00000
  Fe  -0.1814219   0.1154753  -0.3749786 SPIN=   4.57647
  Fe   0.1814219   0.3749786  -0.1154753 SPIN=   4.57647
  Fe   0.5000000  -0.3774019   0.3774019 SPIN=   3.52152
  Fe   0.0000000  -0.0939406   0.0939406 SPIN=   3.32554
%ENDBLOCK POSITIONS_FRAC

# Note: total spin =  16.00

KPOINTS_MP_SPACING 0.07

%BLOCK SPECIES_POT
QC5
%ENDBLOCK SPECIES_POT

%BLOCK HUBBARD_U
Fe d:4.0
%ENDBLOCK HUBBARD_U

SNAP_TO_SYMMETRY
SYMMETRY_GENERATE

