#              Generated by Buildcell
#
# at 15:12:22 (GMT+0.0) 1st December 2020
# in /lustre/scratch/uccabz1/launch_tmp
# on node-c12n-032
# by uccabz1
#
# compiler GCC version 4.9.2
# options -cpp -iprefix /lustre/shared/ucl/apps/gcc/4.9.2/bin/../lib/gcc/x86_64-unknown-linux-gnu/4.9.2/ -mtune=corei7 -march=x86-64 -g -Og
#
# seed  1690778743   305424514  1795954240  1668262793  -868237844   386715220  1953075909  -289845179   643708318  1952699956 -1642987277  1323952383
#
#      Author: C. J. Pickard (cjp20@cam.ac.uk)
#                Space group: Cc
#

%BLOCK LATTICE_ABC
      6.25349      7.33066      7.76183
     99.79172    113.75560     90.00000
%ENDBLOCK LATTICE_ABC

%BLOCK POSITIONS_FRAC
  Li  -0.1119094   0.3112320   0.1888027 SPIN=   0.00000
  Li   0.3007121  -0.1887680   0.1888027 SPIN=   0.00000
  Li  -0.0849813  -0.3247235  -0.1972208 SPIN=   0.00000
  Li  -0.1122395   0.1752765  -0.1972208 SPIN=   0.00000
   O  -0.0690711  -0.1849802   0.0685649 SPIN=   0.00000
   O  -0.0603229  -0.4030650   0.3020873 SPIN=   0.00000
   O  -0.4433606  -0.3088600   0.0927289 SPIN=   0.00000
   O  -0.2272392  -0.5292404  -0.0504885 SPIN=   0.00000
   P  -0.1933487  -0.3494400   0.0995639 SPIN=   0.00000
   O   0.1376360   0.3150198   0.0685649 SPIN=   0.00000
   O   0.3624102   0.0969350   0.3020873 SPIN=   0.00000
   O   0.5360895   0.1911400   0.0927289 SPIN=   0.00000
   O   0.1767508  -0.0292404  -0.0504885 SPIN=   0.00000
   P   0.2929125   0.1505600   0.0995639 SPIN=   0.00000
   O  -0.2498764  -0.1084241  -0.3640265 SPIN=   0.00000
   O  -0.5122529  -0.3435253  -0.3048426 SPIN=   0.00000
   O  -0.7041663  -0.1136610  -0.5059092 SPIN=   0.00000
   O  -0.5144682  -0.3727661  -0.6317662 SPIN=   0.00000
   P  -0.4823566  -0.2295068  -0.4490971 SPIN=   0.00000
   O  -0.1141502   0.3915759  -0.3640265 SPIN=   0.00000
   O   0.2074102   0.1564747  -0.3048426 SPIN=   0.00000
   O   0.1982571   0.3863390  -0.5059092 SPIN=   0.00000
   O  -0.1172981   0.1272339  -0.6317662 SPIN=   0.00000
   P   0.0332595   0.2704932  -0.4490971 SPIN=   0.00000
  Fe   0.3719588   0.4347587  -0.0797107 SPIN=   4.03205
  Fe  -0.4516695  -0.0652413  -0.0797107 SPIN=   4.03205
  Fe  -0.4829158   0.3750906   0.4666002 SPIN=   3.96795
  Fe  -0.0504839  -0.1249094   0.4666002 SPIN=   3.96795
%ENDBLOCK POSITIONS_FRAC

# Note: total spin =  16.00

KPOINTS_MP_SPACING 0.07

%BLOCK SPECIES_POT
QC5
%ENDBLOCK SPECIES_POT

%BLOCK HUBBARD_U
Fe d:4.0
%ENDBLOCK HUBBARD_U

SNAP_TO_SYMMETRY
SYMMETRY_GENERATE

