#              Generated by Buildcell
#
# at 14:18:30 (GMT+0.0) 24th November 2020
# in /lustre/scratch/uccabz1/launch_tmp
# on node-c12f-031
# by uccabz1
#
# compiler GCC version 4.9.2
# options -cpp -iprefix /lustre/shared/ucl/apps/gcc/4.9.2/bin/../lib/gcc/x86_64-unknown-linux-gnu/4.9.2/ -mtune=corei7 -march=x86-64 -g -Og
#
# seed  1969928681  -286108371   335764926   264223649  1020271935  1018257997  1910935123 -1344326746  -177387490   293430580 -1498289442  -289338598
#
#      Author: C. J. Pickard (cjp20@cam.ac.uk)
#                Space group: C2
#

%BLOCK LATTICE_ABC
      5.01714      5.01714      6.37494
     92.52002     92.52002     92.42833
%ENDBLOCK LATTICE_ABC

%BLOCK POSITIONS_FRAC
  Li   0.1389875  -0.1389875   0.5000000 SPIN=   0.00000
  Li  -0.4085997   0.4085997  -0.5000000 SPIN=   0.00000
   O  -0.6242251  -0.2135425  -0.2290805 SPIN=   0.00000
   O  -0.1150698  -0.2667580  -0.1623502 SPIN=   0.00000
   O  -0.2815573  -0.1760679  -0.5214429 SPIN=   0.00000
   O  -0.2816340   0.1845337  -0.2370470 SPIN=   0.00000
   P  -0.3410016  -0.1194783  -0.2837755 SPIN=   0.00000
   O   0.2135425   0.6242251   0.2290805 SPIN=   0.00000
   O   0.2667580   0.1150698   0.1623502 SPIN=   0.00000
   O   0.1760679   0.2815573   0.5214429 SPIN=   0.00000
   O  -0.1845337   0.2816340   0.2370470 SPIN=   0.00000
   P   0.1194783   0.3410016   0.2837755 SPIN=   0.00000
  Fe   0.1084597   0.3796551  -0.1628604 SPIN=   4.00000
  Fe  -0.3796551  -0.1084597   0.1628604 SPIN=   4.00000
%ENDBLOCK POSITIONS_FRAC

# Note: total spin =   8.00

KPOINTS_MP_SPACING 0.07

%BLOCK SPECIES_POT
QC5
%ENDBLOCK SPECIES_POT

%BLOCK HUBBARD_U
Fe d:4.0
%ENDBLOCK HUBBARD_U

SNAP_TO_SYMMETRY
SYMMETRY_GENERATE

