#              Generated by Buildcell
#
# at 09:34:00 (GMT+0.0) 24th November 2020
# in /lustre/scratch/uccabz1/launch_tmp
# on node-c12n-028
# by uccabz1
#
# compiler GCC version 4.9.2
# options -cpp -iprefix /lustre/shared/ucl/apps/gcc/4.9.2/bin/../lib/gcc/x86_64-unknown-linux-gnu/4.9.2/ -mtune=corei7 -march=x86-64 -g -Og
#
# seed  -873687897  1352807808   887360839  -749240444 -1516987135  -467348487  1545711005  1198228958  -111512454  -416711240 -1388361951  -947346700
#
#      Author: C. J. Pickard (cjp20@cam.ac.uk)
#                Space group: Cm
#

%BLOCK LATTICE_ABC
      4.60343      5.97581      5.97581
    100.17775     95.48124     95.48124
%ENDBLOCK LATTICE_ABC

%BLOCK POSITIONS_FRAC
  Li   0.4605117   0.3725039   0.3725039 SPIN=   0.00000
  Li  -0.4739319  -0.2195633  -0.2195633 SPIN=   0.00000
   O  -0.1800596   0.4633379   0.2006109 SPIN=   0.00000
   O  -0.4223115   0.1409149  -0.1336620 SPIN=   0.00000
   O  -0.6755967   0.4855873  -0.0374434 SPIN=   0.00000
   O  -0.2101398   0.5131951  -0.2213042 SPIN=   0.00000
   P  -0.3598951   0.4054177  -0.0367608 SPIN=   0.00000
   O  -0.1800596   0.2006109   0.4633379 SPIN=   0.00000
   O  -0.4223115  -0.1336620   0.1409149 SPIN=   0.00000
   O  -0.6755967  -0.0374434   0.4855873 SPIN=   0.00000
   O  -0.2101398  -0.2213042   0.5131951 SPIN=   0.00000
   P  -0.3598951  -0.0367608   0.4054177 SPIN=   0.00000
  Fe   0.0886435   0.1793408  -0.2423853 SPIN=   4.00000
  Fe   0.0886435  -0.2423853   0.1793408 SPIN=   4.00000
%ENDBLOCK POSITIONS_FRAC

# Note: total spin =   8.00

KPOINTS_MP_SPACING 0.07

%BLOCK SPECIES_POT
QC5
%ENDBLOCK SPECIES_POT

%BLOCK HUBBARD_U
Fe d:4.0
%ENDBLOCK HUBBARD_U

SNAP_TO_SYMMETRY
SYMMETRY_GENERATE

