#              Generated by Buildcell
#
# at 07:45:37 (GMT+0.0) 24th November 2020
# in /lustre/scratch/uccabz1/launch_tmp
# on node-c12l-027
# by uccabz1
#
# compiler GCC version 4.9.2
# options -cpp -iprefix /lustre/shared/ucl/apps/gcc/4.9.2/bin/../lib/gcc/x86_64-unknown-linux-gnu/4.9.2/ -mtune=corei7 -march=x86-64 -g -Og
#
# seed   229037806  -759433041 -1986021391  -562862457  1226400572 -1705097565  -978426150  1101319513  1977741144  2119158220  -301062213     2323141
#
#      Author: C. J. Pickard (cjp20@cam.ac.uk)
#                Space group: P21
#

%BLOCK LATTICE_ABC
      4.75299      5.66527      6.45675
     90.00000     90.00000    113.03344
%ENDBLOCK LATTICE_ABC

%BLOCK POSITIONS_FRAC
  Li  -0.0797335  -0.0731330   0.2812581 SPIN=   0.00000
  Li   0.0797335   0.0731330  -0.2187419 SPIN=   0.00000
   O  -0.7036510   0.2232764   0.4161633 SPIN=   0.00000
   O  -0.5195891  -0.0860897   0.2134584 SPIN=   0.00000
   O  -0.5005845   0.3074940   0.0383427 SPIN=   0.00000
   O  -0.1349715   0.3409660   0.3270105 SPIN=   0.00000
   P  -0.4735309   0.1995480   0.2585817 SPIN=   0.00000
   O   0.7036510  -0.2232764  -0.0838367 SPIN=   0.00000
   O   0.5195891   0.0860897  -0.2865416 SPIN=   0.00000
   O   0.5005845  -0.3074940  -0.4616573 SPIN=   0.00000
   O   0.1349715  -0.3409660  -0.1729895 SPIN=   0.00000
   P   0.4735309  -0.1995480  -0.2414183 SPIN=   0.00000
  Fe   0.2372006  -0.4698240   0.1320587 SPIN=   4.00000
  Fe  -0.2372006   0.4698240  -0.3679413 SPIN=   4.00000
%ENDBLOCK POSITIONS_FRAC

# Note: total spin =   8.00

KPOINTS_MP_SPACING 0.07

%BLOCK SPECIES_POT
QC5
%ENDBLOCK SPECIES_POT

%BLOCK HUBBARD_U
Fe d:4.0
%ENDBLOCK HUBBARD_U

SNAP_TO_SYMMETRY
SYMMETRY_GENERATE

