#              Generated by Buildcell
#
# at 12:10:00 (GMT+0.0) 24th November 2020
# in /lustre/scratch/uccabz1/launch_tmp
# on node-c12f-020
# by uccabz1
#
# compiler GCC version 4.9.2
# options -cpp -iprefix /lustre/shared/ucl/apps/gcc/4.9.2/bin/../lib/gcc/x86_64-unknown-linux-gnu/4.9.2/ -mtune=corei7 -march=x86-64 -g -Og
#
# seed -1727827864  1293712262  1197922417  1927679130  -756945961 -2002843647 -1472139403   473455347 -1747694495  -454989360 -1013093728  -757080627
#
#      Author: C. J. Pickard (cjp20@cam.ac.uk)
#                Space group: P2/c
#

%BLOCK LATTICE_ABC
      3.85607      4.41056      9.48886
     90.00000     97.50205     90.00000
%ENDBLOCK LATTICE_ABC

%BLOCK POSITIONS_FRAC
  Li   0.5000000  -0.5000000   0.0000000 SPIN=   0.00000
  Li   0.0000000   0.5000000  -0.5000000 SPIN=   0.00000
   O  -0.2716518   0.1518561  -0.1094838 SPIN=   0.00000
   O   0.0343370  -0.3634625  -0.1421897 SPIN=   0.00000
   O  -0.2283482   0.1518561  -0.3905162 SPIN=   0.00000
   O  -0.5343370  -0.3634625  -0.3578103 SPIN=   0.00000
   O   0.2716518  -0.1518561   0.1094838 SPIN=   0.00000
   O  -0.0343370   0.3634625   0.1421897 SPIN=   0.00000
   O   0.2283482  -0.1518561   0.3905162 SPIN=   0.00000
   O   0.5343370   0.3634625   0.3578103 SPIN=   0.00000
   P   0.2500000  -0.4902475   0.2500000 SPIN=   0.00000
   P  -0.2500000   0.4902475  -0.2500000 SPIN=   0.00000
  Fe  -0.2500000   0.0000739   0.2500000 SPIN=   4.00000
  Fe   0.2500000  -0.0000739  -0.2500000 SPIN=   4.00000
%ENDBLOCK POSITIONS_FRAC

# Note: total spin =   8.00

KPOINTS_MP_SPACING 0.07

%BLOCK SPECIES_POT
QC5
%ENDBLOCK SPECIES_POT

%BLOCK HUBBARD_U
Fe d:4.0
%ENDBLOCK HUBBARD_U

SNAP_TO_SYMMETRY
SYMMETRY_GENERATE

