#              Generated by Buildcell
#
# at 14:43:15 (GMT+0.0) 24th November 2020
# in /lustre/scratch/uccabz1/launch_tmp
# on node-c12d-032
# by uccabz1
#
# compiler GCC version 4.9.2
# options -cpp -iprefix /lustre/shared/ucl/apps/gcc/4.9.2/bin/../lib/gcc/x86_64-unknown-linux-gnu/4.9.2/ -mtune=corei7 -march=x86-64 -g -Og
#
# seed   258646393   -48566973 -2049018327 -1011020113  1489778840   624426325  -578423526   614211810   640084546  -266841235   544678952  1773690720
#
#      Author: C. J. Pickard (cjp20@cam.ac.uk)
#                Space group: P42
#

%BLOCK LATTICE_ABC
      4.54109      4.54109      7.75890
     90.00000     90.00000     90.00000
%ENDBLOCK LATTICE_ABC

%BLOCK POSITIONS_FRAC
  Li  -0.5000000   0.5000000   0.1546857 SPIN=   0.00000
  Li   0.5000000  -0.5000000  -0.3453143 SPIN=   0.00000
   O   0.7360533  -0.1509744   0.2778139 SPIN=   0.00000
   O   0.2566347  -0.3286585   0.4280744 SPIN=   0.00000
   O  -0.7360533   0.1509744   0.2778139 SPIN=   0.00000
   O  -0.2566347   0.3286585   0.4280744 SPIN=   0.00000
   O   0.1509744   0.7360533  -0.2221861 SPIN=   0.00000
   O   0.3286585   0.2566347  -0.0719256 SPIN=   0.00000
   O  -0.1509744  -0.7360533  -0.2221861 SPIN=   0.00000
   O  -0.3286585  -0.2566347  -0.0719256 SPIN=   0.00000
   P  -0.5000000  -0.0000000  -0.1617811 SPIN=   0.00000
   P   0.0000000  -0.5000000   0.3382189 SPIN=   0.00000
  Fe  -0.0000000   0.0000000   0.0620518 SPIN=   4.00000
  Fe  -0.0000000  -0.0000000  -0.4379482 SPIN=   4.00000
%ENDBLOCK POSITIONS_FRAC

# Note: total spin =   8.00

KPOINTS_MP_SPACING 0.07

%BLOCK SPECIES_POT
QC5
%ENDBLOCK SPECIES_POT

%BLOCK HUBBARD_U
Fe d:4.0
%ENDBLOCK HUBBARD_U

SNAP_TO_SYMMETRY
SYMMETRY_GENERATE

