#              Generated by Buildcell
#
# at 01:30:47 (GMT+0.0) 27th November 2020
# in /lustre/scratch/uccabz1/launch_tmp
# on node-c12f-023
# by uccabz1
#
# compiler GCC version 4.9.2
# options -cpp -iprefix /lustre/shared/ucl/apps/gcc/4.9.2/bin/../lib/gcc/x86_64-unknown-linux-gnu/4.9.2/ -mtune=corei7 -march=x86-64 -g -Og
#
# seed -1309055526  1592516729 -1345351646 -1542585486  1041010941   489305126  1954138484 -1522206410 -2136221870 -1247012077  -776891929  1946374194
#
#      Author: C. J. Pickard (cjp20@cam.ac.uk)
#                Space group: Pmn21
#

%BLOCK LATTICE_ABC
      5.97354      7.16097      7.48077
     90.00000     90.00000     90.00000
%ENDBLOCK LATTICE_ABC

%BLOCK POSITIONS_FRAC
  Li  -0.1820374  -0.0360435  -0.2003026 SPIN=   0.00000
  Li   0.1820374   0.4639565  -0.2996974 SPIN=   0.00000
  Li   0.1820374   0.4639565   0.2996974 SPIN=   0.00000
  Li  -0.1820374  -0.0360435   0.2003026 SPIN=   0.00000
   O   0.2632481  -0.1090833  -0.3084087 SPIN=   0.00000
   O   0.4179291   0.2294878  -0.3263450 SPIN=   0.00000
   O   0.0082759   0.1835213  -0.3350591 SPIN=   0.00000
   P   0.2283555   0.0963163  -0.2553077 SPIN=   0.00000
   O  -0.2632481  -0.6090833  -0.1915913 SPIN=   0.00000
   O  -0.4179291  -0.2705122  -0.1736550 SPIN=   0.00000
   O  -0.0082759  -0.3164787  -0.1649409 SPIN=   0.00000
   P  -0.2283555  -0.4036837  -0.2446923 SPIN=   0.00000
   O  -0.2632481  -0.6090833   0.1915913 SPIN=   0.00000
   O  -0.4179291  -0.2705122   0.1736550 SPIN=   0.00000
   O  -0.0082759  -0.3164787   0.1649409 SPIN=   0.00000
   P  -0.2283555  -0.4036837   0.2446923 SPIN=   0.00000
   O   0.2632481  -0.1090833   0.3084087 SPIN=   0.00000
   O   0.4179291   0.2294878   0.3263450 SPIN=   0.00000
   O   0.0082759   0.1835213   0.3350591 SPIN=   0.00000
   P   0.2283555   0.0963163   0.2553077 SPIN=   0.00000
   O   0.2183473   0.4410080  -0.0000000 SPIN=   0.00000
   O  -0.2183473  -0.0589920  -0.5000000 SPIN=   0.00000
   O   0.2514857   0.0900211  -0.0000000 SPIN=   0.00000
   O  -0.2514857  -0.4099789  -0.5000000 SPIN=   0.00000
  Fe   0.2646601  -0.2092285  -0.0000000 SPIN=   4.28304
  Fe  -0.2646601   0.2907715  -0.5000000 SPIN=   4.28304
  Fe  -0.4828729   0.2864915  -0.0000000 SPIN=   3.71696
  Fe   0.4828729  -0.2135085  -0.5000000 SPIN=   3.71696
%ENDBLOCK POSITIONS_FRAC

# Note: total spin =  16.00

KPOINTS_MP_SPACING 0.07

%BLOCK SPECIES_POT
QC5
%ENDBLOCK SPECIES_POT

%BLOCK HUBBARD_U
Fe d:4.0
%ENDBLOCK HUBBARD_U

SNAP_TO_SYMMETRY
SYMMETRY_GENERATE

