#              Generated by Buildcell
#
# at 12:44:45 (GMT+0.0) 24th November 2020
# in /scratch/scratch/uccabz1/launch_tmp
# on node-a14e-012
# by uccabz1
#
# compiler GCC version 4.9.2
# options -cpp -iprefix /scratch/UCL/applications/gcc/4.9.2/bin/../lib/gcc/x86_64-unknown-linux-gnu/4.9.2/ -mtune=corei7 -march=x86-64 -g -O2
#
# seed  1271995141  1048264813 -1579845999  -162342024  2140150877   372874903   677582053 -1824570992  -605048862 -1111096125 -1924004072 -1169872427
#
#      Author: C. J. Pickard (cjp20@cam.ac.uk)
#                Space group: P-1
#

%BLOCK LATTICE_ABC
      4.67566      4.92449      7.49325
     74.83589     80.20808     75.18060
%ENDBLOCK LATTICE_ABC

%BLOCK POSITIONS_FRAC
  Li   0.0777784  -0.4700210   0.1813727 SPIN=   0.00000
  Li  -0.0777784   0.4700210  -0.1813727 SPIN=   0.00000
   O   0.4508342  -0.3604477  -0.2523573 SPIN=   0.00000
   O  -0.0802900  -0.0829170  -0.1536422 SPIN=   0.00000
   O   0.3195059   0.1869212  -0.2576625 SPIN=   0.00000
   P   0.2158696  -0.0753899  -0.2888028 SPIN=   0.00000
   O  -0.4508342   0.3604477   0.2523573 SPIN=   0.00000
   O   0.0802900   0.0829170   0.1536422 SPIN=   0.00000
   O  -0.3195059  -0.1869212   0.2576625 SPIN=   0.00000
   P  -0.2158696   0.0753899   0.2888028 SPIN=   0.00000
   O   0.0000000   0.5000000   0.5000000 SPIN=   0.00000
   O   0.0000000   0.0000000  -0.5000000 SPIN=   0.00000
  Fe  -0.5000000   0.0000000   0.0000000 SPIN=   4.17376
  Fe  -0.5000000  -0.5000000   0.5000000 SPIN=   3.82624
%ENDBLOCK POSITIONS_FRAC

# Note: total spin =   8.00

KPOINTS_MP_SPACING 0.07

%BLOCK SPECIES_POT
QC5
%ENDBLOCK SPECIES_POT

%BLOCK HUBBARD_U
Fe d:4.0
%ENDBLOCK HUBBARD_U

SNAP_TO_SYMMETRY
SYMMETRY_GENERATE

