#              Generated by Buildcell
#
# at 06:26:26 (GMT+0.0) 24th November 2020
# in /scratch/scratch/uccabz1/launch_tmp
# on node-a14e-012
# by uccabz1
#
# compiler GCC version 4.9.2
# options -cpp -iprefix /scratch/UCL/applications/gcc/4.9.2/bin/../lib/gcc/x86_64-unknown-linux-gnu/4.9.2/ -mtune=corei7 -march=x86-64 -g -O2
#
# seed   900748486 -1980406357  2131924417  1849983921  1828419720  1921771781  1683299106   552942616  1426870603   598621918   438489272  -327555178
#
#      Author: C. J. Pickard (cjp20@cam.ac.uk)
#                Space group: P21
#

%BLOCK LATTICE_ABC
      3.88214      4.29828     10.04987
     90.00000     90.00000    107.42673
%ENDBLOCK LATTICE_ABC

%BLOCK POSITIONS_FRAC
  Li  -0.0036124  -0.1946199   0.0313042 SPIN=   0.00000
  Li   0.0036124   0.1946199  -0.4686958 SPIN=   0.00000
   O  -0.6276880  -0.0501071  -0.4085655 SPIN=   0.00000
   O  -0.3109463  -0.4828016  -0.4722128 SPIN=   0.00000
   O  -0.1536903  -0.1943319  -0.2577805 SPIN=   0.00000
   O  -0.7627021  -0.6028862  -0.2868075 SPIN=   0.00000
   P  -0.4760131  -0.3206845  -0.3583017 SPIN=   0.00000
   O   0.6276880   0.0501071   0.0914345 SPIN=   0.00000
   O   0.3109463   0.4828016   0.0277872 SPIN=   0.00000
   O   0.1536903   0.1943319   0.2422195 SPIN=   0.00000
   O   0.7627021   0.6028862   0.2131925 SPIN=   0.00000
   P   0.4760131   0.3206845   0.1416983 SPIN=   0.00000
  Fe   0.3723031  -0.2077014   0.3243060 SPIN=   4.00000
  Fe  -0.3723031   0.2077014  -0.1756940 SPIN=   4.00000
%ENDBLOCK POSITIONS_FRAC

# Note: total spin =   8.00

KPOINTS_MP_SPACING 0.07

%BLOCK SPECIES_POT
QC5
%ENDBLOCK SPECIES_POT

%BLOCK HUBBARD_U
Fe d:4.0
%ENDBLOCK HUBBARD_U

SNAP_TO_SYMMETRY
SYMMETRY_GENERATE

