#              Generated by Buildcell
#
# at 07:03:27 (GMT+0.0) 24th November 2020
# in /lustre/scratch/uccabz1/launch_tmp
# on node-c12e-024
# by uccabz1
#
# compiler GCC version 4.9.2
# options -cpp -iprefix /lustre/shared/ucl/apps/gcc/4.9.2/bin/../lib/gcc/x86_64-unknown-linux-gnu/4.9.2/ -mtune=corei7 -march=x86-64 -g -Og
#
# seed  2094478477  -527169871 -1462313143   -82242867 -1374809065   952057001  1701002664  -916443490  1899738701   -30570582  1092756983 -2145844189
#
#      Author: C. J. Pickard (cjp20@cam.ac.uk)
#                Space group: C2/m
#

%BLOCK LATTICE_ABC
      4.18046      4.18046      9.53408
     78.56184     78.56184     89.34651
%ENDBLOCK LATTICE_ABC

%BLOCK POSITIONS_FRAC
  Li  -0.0677738  -0.0677738  -0.3332219 SPIN=   0.00000
  Li   0.0677738   0.0677738   0.3332219 SPIN=   0.00000
   O  -0.5515301  -0.1313225  -0.3608531 SPIN=   0.00000
   O  -0.3794669   0.0420263  -0.1387772 SPIN=   0.00000
   O  -0.8686775  -0.4484699   0.3608531 SPIN=   0.00000
   O  -1.0420263  -0.6205331   0.1387772 SPIN=   0.00000
   O   0.5515301   0.1313225   0.3608531 SPIN=   0.00000
   O   0.3794669  -0.0420263   0.1387772 SPIN=   0.00000
   O   0.8686775   0.4484699  -0.3608531 SPIN=   0.00000
   O   1.0420263   0.6205331  -0.1387772 SPIN=   0.00000
   P  -0.4724310  -0.4724310   0.1889748 SPIN=   0.00000
   P   0.4724310   0.4724310  -0.1889748 SPIN=   0.00000
  Fe   0.0000000  -0.0000000  -0.0000000 SPIN=   5.78795
  Fe   0.5000000   0.5000000  -0.5000000 SPIN=   2.21205
%ENDBLOCK POSITIONS_FRAC

# Note: total spin =   8.00

KPOINTS_MP_SPACING 0.07

%BLOCK SPECIES_POT
QC5
%ENDBLOCK SPECIES_POT

%BLOCK HUBBARD_U
Fe d:4.0
%ENDBLOCK HUBBARD_U

SNAP_TO_SYMMETRY
SYMMETRY_GENERATE

