#              Generated by Buildcell
#
# at 11:28:27 (GMT+0.0) 24th November 2020
# in /lustre/scratch/uccabz1/launch_tmp
# on node-c12g-020
# by uccabz1
#
# compiler GCC version 4.9.2
# options -cpp -iprefix /lustre/shared/ucl/apps/gcc/4.9.2/bin/../lib/gcc/x86_64-unknown-linux-gnu/4.9.2/ -mtune=corei7 -march=x86-64 -g -Og
#
# seed  1154712311 -1834507909  -618518123  -215180383  1175475307  1381438578   694191750 -1777623513  -622039264 -1051954591  -300891309  1162079738
#
#      Author: C. J. Pickard (cjp20@cam.ac.uk)
#                Space group: P-1
#

%BLOCK LATTICE_ABC
      4.25992      5.95434      6.50739
     78.91849     81.03081     88.01989
%ENDBLOCK LATTICE_ABC

%BLOCK POSITIONS_FRAC
  Li   0.1674807  -0.1674145  -0.1289110 SPIN=   0.00000
  Li  -0.1674807   0.1674145   0.1289110 SPIN=   0.00000
   O  -0.5459617  -0.4829683  -0.3091707 SPIN=   0.00000
   O  -0.2547651  -0.1171219  -0.5274858 SPIN=   0.00000
   O  -0.3296537  -0.1728483  -0.1369492 SPIN=   0.00000
   P  -0.2797565  -0.3101612  -0.3233726 SPIN=   0.00000
   O   0.5459617   0.4829683   0.3091707 SPIN=   0.00000
   O   0.2547651   0.1171219   0.5274858 SPIN=   0.00000
   O   0.3296537   0.1728483   0.1369492 SPIN=   0.00000
   P   0.2797565   0.3101612   0.3233726 SPIN=   0.00000
   O  -0.0000000  -0.5000000   0.0000000 SPIN=   0.00000
   O  -0.0000000   0.5000000   0.5000000 SPIN=   0.00000
  Fe  -0.2967953   0.2198849  -0.3679732 SPIN=   4.00000
  Fe   0.2967953  -0.2198849   0.3679732 SPIN=   4.00000
%ENDBLOCK POSITIONS_FRAC

# Note: total spin =   8.00

KPOINTS_MP_SPACING 0.07

%BLOCK SPECIES_POT
QC5
%ENDBLOCK SPECIES_POT

%BLOCK HUBBARD_U
Fe d:4.0
%ENDBLOCK HUBBARD_U

SNAP_TO_SYMMETRY
SYMMETRY_GENERATE

