#              Generated by Buildcell
#
# at 09:48:52 (GMT+0.0) 24th November 2020
# in /lustre/scratch/uccabz1/launch_tmp
# on node-c12n-026
# by uccabz1
#
# compiler GCC version 4.9.2
# options -cpp -iprefix /lustre/shared/ucl/apps/gcc/4.9.2/bin/../lib/gcc/x86_64-unknown-linux-gnu/4.9.2/ -mtune=corei7 -march=x86-64 -g -Og
#
# seed  -131785643 -1691689122  1810086177   402753538   681414751  -454867800  -409386183 -1467040273   399272627   623550453  1757965566  -840069882
#
#      Author: C. J. Pickard (cjp20@cam.ac.uk)
#                Space group: P-1
#

%BLOCK LATTICE_ABC
      3.82422      5.92007      7.63970
     75.10040     75.76512     77.85221
%ENDBLOCK LATTICE_ABC

%BLOCK POSITIONS_FRAC
  Li   0.0857636  -0.2581277  -0.0071566 SPIN=   0.00000
  Li  -0.0857636   0.2581277   0.0071566 SPIN=   0.00000
   O  -0.6418248  -0.5572855  -0.1065639 SPIN=   0.00000
   O  -0.5358712  -0.2957324  -0.4390769 SPIN=   0.00000
   O  -0.1741102  -0.2633520  -0.2221160 SPIN=   0.00000
   O  -0.0479130  -0.6304215  -0.3473767 SPIN=   0.00000
   P  -0.3619077  -0.4454047  -0.2704230 SPIN=   0.00000
   O   0.6418248   0.5572855   0.1065639 SPIN=   0.00000
   O   0.5358712   0.2957324   0.4390769 SPIN=   0.00000
   O   0.1741102   0.2633520   0.2221160 SPIN=   0.00000
   O   0.0479130   0.6304215   0.3473767 SPIN=   0.00000
   P   0.3619077   0.4454047   0.2704230 SPIN=   0.00000
  Fe   0.3826411  -0.0946668   0.3024858 SPIN=   4.00000
  Fe  -0.3826411   0.0946668  -0.3024858 SPIN=   4.00000
%ENDBLOCK POSITIONS_FRAC

# Note: total spin =   8.00

KPOINTS_MP_SPACING 0.07

%BLOCK SPECIES_POT
QC5
%ENDBLOCK SPECIES_POT

%BLOCK HUBBARD_U
Fe d:4.0
%ENDBLOCK HUBBARD_U

SNAP_TO_SYMMETRY
SYMMETRY_GENERATE

