#              Generated by Buildcell
#
# at 14:12:58 (GMT+0.0) 24th November 2020
# in /lustre/scratch/uccabz1/launch_tmp
# on node-c12a-034
# by uccabz1
#
# compiler GCC version 4.9.2
# options -cpp -iprefix /lustre/shared/ucl/apps/gcc/4.9.2/bin/../lib/gcc/x86_64-unknown-linux-gnu/4.9.2/ -mtune=corei7 -march=x86-64 -g -Og
#
# seed  1377040127 -2072958744 -1897527429     6725747  1993478204  -112222222  1088994757 -1874378771  -371726203 -1224434537  -678302639   484004611
#
#      Author: C. J. Pickard (cjp20@cam.ac.uk)
#                Space group: P21
#

%BLOCK LATTICE_ABC
      4.96188      5.73498      6.12772
    113.42560     90.00000     90.00000
%ENDBLOCK LATTICE_ABC

%BLOCK POSITIONS_FRAC
  Li   0.2703742  -0.4909447  -0.1398531 SPIN=   0.00000
  Li  -0.2296258   0.4909447   0.1398531 SPIN=   0.00000
   O   0.0458080  -0.2039737   0.2668184 SPIN=   0.00000
   O   0.5443630  -0.2129003   0.3928426 SPIN=   0.00000
   O   0.1966020  -0.3965219   0.5660029 SPIN=   0.00000
   O   0.3190486  -0.6207971   0.1359926 SPIN=   0.00000
   P   0.2646772  -0.3534127   0.3340831 SPIN=   0.00000
   O  -0.4541920   0.2039737  -0.2668184 SPIN=   0.00000
   O   0.0443630   0.2129003  -0.3928426 SPIN=   0.00000
   O  -0.3033980   0.3965219  -0.5660029 SPIN=   0.00000
   O  -0.1809514   0.6207971  -0.1359926 SPIN=   0.00000
   P  -0.2353228   0.3534127  -0.3340831 SPIN=   0.00000
  Fe   0.3727168   0.1218621   0.2985357 SPIN=   4.00000
  Fe  -0.1272832  -0.1218621  -0.2985357 SPIN=   4.00000
%ENDBLOCK POSITIONS_FRAC

# Note: total spin =   8.00

KPOINTS_MP_SPACING 0.07

%BLOCK SPECIES_POT
QC5
%ENDBLOCK SPECIES_POT

%BLOCK HUBBARD_U
Fe d:4.0
%ENDBLOCK HUBBARD_U

SNAP_TO_SYMMETRY
SYMMETRY_GENERATE

