#              Generated by Buildcell
#
# at 19:33:56 (GMT+0.0) 26th November 2020
# in /lustre/scratch/uccabz1/launch_tmp
# on node-c12f-025
# by uccabz1
#
# compiler GCC version 4.9.2
# options -cpp -iprefix /lustre/shared/ucl/apps/gcc/4.9.2/bin/../lib/gcc/x86_64-unknown-linux-gnu/4.9.2/ -mtune=corei7 -march=x86-64 -g -Og
#
# seed -1310380169  1700494618   668082593  1144653246  1460065548   714852816  -164306670 -1316456922   606669093 -1162770616 -1372637687 -1264076029
#
#      Author: C. J. Pickard (cjp20@cam.ac.uk)
#                Space group: P21/c
#

%BLOCK LATTICE_ABC
      5.69812      5.74887     10.15315
    105.81780     90.00000     90.00000
%ENDBLOCK LATTICE_ABC

%BLOCK POSITIONS_FRAC
  Li  -0.4276151   0.2121045   0.4469800 SPIN=   0.00000
  Li   0.0723849   0.2878955  -0.4469800 SPIN=   0.00000
  Li   0.4276151  -0.2121045  -0.4469800 SPIN=   0.00000
  Li  -0.0723849  -0.2878955   0.4469800 SPIN=   0.00000
   O  -0.1759235  -0.0110471  -0.1387868 SPIN=   0.00000
   O  -0.2342732   0.1681710  -0.3453786 SPIN=   0.00000
   O   0.1015929   0.3114650  -0.1907572 SPIN=   0.00000
   O   0.1047216  -0.1095868  -0.3464229 SPIN=   0.00000
   P  -0.0557864   0.0820311  -0.2502056 SPIN=   0.00000
   O   0.3240765   0.5110471   0.1387868 SPIN=   0.00000
   O   0.2657268   0.3318290   0.3453786 SPIN=   0.00000
   O   0.6015929   0.1885350   0.1907572 SPIN=   0.00000
   O   0.6047216   0.6095868   0.3464229 SPIN=   0.00000
   P   0.4442136   0.4179689   0.2502056 SPIN=   0.00000
   O   0.1759235   0.0110471   0.1387868 SPIN=   0.00000
   O   0.2342732  -0.1681710   0.3453786 SPIN=   0.00000
   O  -0.1015929  -0.3114650   0.1907572 SPIN=   0.00000
   O  -0.1047216   0.1095868   0.3464229 SPIN=   0.00000
   P   0.0557864  -0.0820311   0.2502056 SPIN=   0.00000
   O  -0.3240765  -0.5110471  -0.1387868 SPIN=   0.00000
   O  -0.2657268  -0.3318290  -0.3453786 SPIN=   0.00000
   O  -0.6015929  -0.1885350  -0.1907572 SPIN=   0.00000
   O  -0.6047216  -0.6095868  -0.3464229 SPIN=   0.00000
   P  -0.4442136  -0.4179689  -0.2502056 SPIN=   0.00000
  Fe   0.0179031  -0.3197221  -0.1376430 SPIN=   4.00000
  Fe  -0.4820969  -0.1802779   0.1376430 SPIN=   4.00000
  Fe  -0.0179031   0.3197221   0.1376430 SPIN=   4.00000
  Fe   0.4820969   0.1802779  -0.1376430 SPIN=   4.00000
%ENDBLOCK POSITIONS_FRAC

# Note: total spin =  16.00

KPOINTS_MP_SPACING 0.07

%BLOCK SPECIES_POT
QC5
%ENDBLOCK SPECIES_POT

%BLOCK HUBBARD_U
Fe d:4.0
%ENDBLOCK HUBBARD_U

SNAP_TO_SYMMETRY
SYMMETRY_GENERATE

