#              Generated by Buildcell
#
# at 14:29:09 (GMT+0.0) 24th November 2020
# in /lustre/scratch/uccabz1/launch_tmp
# on node-c12c-032
# by uccabz1
#
# compiler GCC version 4.9.2
# options -cpp -iprefix /lustre/shared/ucl/apps/gcc/4.9.2/bin/../lib/gcc/x86_64-unknown-linux-gnu/4.9.2/ -mtune=corei7 -march=x86-64 -g -Og
#
# seed  -937930778  -118453150   144546920   145214237  -708963022  1533260905   871663213  1973818010  1962922926 -1333927734  -932197588   936785780
#
#      Author: C. J. Pickard (cjp20@cam.ac.uk)
#                Space group: Cc
#

%BLOCK LATTICE_ABC
      4.87049      5.97140      6.26868
     61.55668     88.30787     86.44550
%ENDBLOCK LATTICE_ABC

%BLOCK POSITIONS_FRAC
  Li  -0.1764512  -0.3345717   0.1585666 SPIN=   0.00000
  Li   0.3235488  -0.1760051  -0.1585666 SPIN=   0.00000
   O  -0.2788009  -0.4706883  -0.0925199 SPIN=   0.00000
   O  -0.1242560  -0.0122139  -0.2342821 SPIN=   0.00000
   O   0.1278083  -0.2763297  -0.3898927 SPIN=   0.00000
   O  -0.3535574  -0.1086282  -0.5314012 SPIN=   0.00000
   P  -0.1659933  -0.2291960  -0.3029253 SPIN=   0.00000
   O   0.2211991   0.4367918   0.0925199 SPIN=   0.00000
   O   0.3757440   0.7535040   0.2342821 SPIN=   0.00000
   O   0.6278083   0.3337776   0.3898927 SPIN=   0.00000
   O   0.1464426   0.3599706   0.5314012 SPIN=   0.00000
   P   0.3340067   0.4678786   0.3029253 SPIN=   0.00000
  Fe  -0.3410738   0.3180828  -0.2723368 SPIN=   4.00000
  Fe   0.1589262   0.0457461   0.2723368 SPIN=   4.00000
%ENDBLOCK POSITIONS_FRAC

# Note: total spin =   8.00

KPOINTS_MP_SPACING 0.07

%BLOCK SPECIES_POT
QC5
%ENDBLOCK SPECIES_POT

%BLOCK HUBBARD_U
Fe d:4.0
%ENDBLOCK HUBBARD_U

SNAP_TO_SYMMETRY
SYMMETRY_GENERATE

