#              Generated by Buildcell
#
# at 08:21:32 (GMT+0.0) 24th November 2020
# in /lustre/scratch/uccabz1/launch_tmp
# on node-c12p-030
# by uccabz1
#
# compiler GCC version 4.9.2
# options -cpp -iprefix /lustre/shared/ucl/apps/gcc/4.9.2/bin/../lib/gcc/x86_64-unknown-linux-gnu/4.9.2/ -mtune=corei7 -march=x86-64 -g -Og
#
# seed   885218165 -1200776275   625167226  1178180666  1159163045  -196444923   485281321 -1960964103   668134939  1667250583   832709828  1471430149
#
#      Author: C. J. Pickard (cjp20@cam.ac.uk)
#                Space group: Pm
#

%BLOCK LATTICE_ABC
      3.93607      4.99752      8.47856
     90.00000     90.00000    106.39108
%ENDBLOCK LATTICE_ABC

%BLOCK POSITIONS_FRAC
  Li  -0.1116731   0.2551001   0.2419756 SPIN=   0.00000
  Li  -0.1116731   0.2551001  -0.2419756 SPIN=   0.00000
   O  -0.5867584  -0.6261425   0.3263377 SPIN=   0.00000
   O  -0.4621277  -0.0894380   0.3546826 SPIN=   0.00000
   O  -0.0295715  -0.2704562   0.2095384 SPIN=   0.00000
   P  -0.4363512  -0.3399341   0.2475487 SPIN=   0.00000
   O  -0.5867584  -0.6261425  -0.3263377 SPIN=   0.00000
   O  -0.4621277  -0.0894380  -0.3546826 SPIN=   0.00000
   O  -0.0295715  -0.2704562  -0.2095384 SPIN=   0.00000
   P  -0.4363512  -0.3399341  -0.2475487 SPIN=   0.00000
   O  -0.1865498   0.0956588   0.0000000 SPIN=   0.00000
   O  -0.1023516   0.3304766  -0.5000000 SPIN=   0.00000
  Fe   0.2361951  -0.1128734   0.0000000 SPIN=   5.16188
  Fe   0.0701588  -0.2092719  -0.5000000 SPIN=   2.83812
%ENDBLOCK POSITIONS_FRAC

# Note: total spin =   8.00

KPOINTS_MP_SPACING 0.07

%BLOCK SPECIES_POT
QC5
%ENDBLOCK SPECIES_POT

%BLOCK HUBBARD_U
Fe d:4.0
%ENDBLOCK HUBBARD_U

SNAP_TO_SYMMETRY
SYMMETRY_GENERATE

