#              Generated by Buildcell
#
# at 14:55:43 (GMT+0.0) 26th November 2020
# in /lustre/scratch/uccabz1/launch_tmp
# on node-c12d-030
# by uccabz1
#
# compiler GCC version 4.9.2
# options -cpp -iprefix /lustre/shared/ucl/apps/gcc/4.9.2/bin/../lib/gcc/x86_64-unknown-linux-gnu/4.9.2/ -mtune=corei7 -march=x86-64 -g -Og
#
# seed   562749976  1424073001  -397169185  -587218607 -1202831221 -2125957927  1370434492  1029044202 -1372355954 -1550693314 -1247184965  1049272722
#
#      Author: C. J. Pickard (cjp20@cam.ac.uk)
#                Space group: Cc
#

%BLOCK LATTICE_ABC
      7.12999      7.47140      7.47140
     83.86431     64.04484     64.04484
%ENDBLOCK LATTICE_ABC

%BLOCK POSITIONS_FRAC
  Li  -0.3703606  -0.4049741   0.3461911 SPIN=   0.00000
  Li   0.1296394   0.3461911  -0.4049741 SPIN=   0.00000
  Li   0.1795925  -0.1390434  -0.3070020 SPIN=   0.00000
  Li  -0.3204075  -0.3070020  -0.1390434 SPIN=   0.00000
   O  -0.0864235  -0.2808073  -0.6620482 SPIN=   0.00000
   O  -0.2645340  -0.0764564  -0.3206473 SPIN=   0.00000
   O  -0.4652304   0.0515437  -0.5379126 SPIN=   0.00000
   O  -0.4680174  -0.2555773  -0.3680382 SPIN=   0.00000
   P  -0.3102929  -0.1491645  -0.4810433 SPIN=   0.00000
   O   0.4135765  -0.6620482  -0.2808073 SPIN=   0.00000
   O   0.2354660  -0.3206473  -0.0764564 SPIN=   0.00000
   O   0.0347696  -0.5379126   0.0515437 SPIN=   0.00000
   O   0.0319826  -0.3680382  -0.2555773 SPIN=   0.00000
   P   0.1897071  -0.4810433  -0.1491645 SPIN=   0.00000
   O   0.4778965  -0.1022144   0.1331047 SPIN=   0.00000
   O   0.2696538  -0.2770777   0.4165280 SPIN=   0.00000
   O   0.1665305   0.0776883   0.4875145 SPIN=   0.00000
   O   0.0448695  -0.0139258   0.2568398 SPIN=   0.00000
   P   0.2501187  -0.0793582   0.3125727 SPIN=   0.00000
   O  -0.0221035   0.1331047  -0.1022144 SPIN=   0.00000
   O  -0.2303462   0.4165280  -0.2770777 SPIN=   0.00000
   O  -0.3334695   0.4875145   0.0776883 SPIN=   0.00000
   O  -0.4551305   0.2568398  -0.0139258 SPIN=   0.00000
   P  -0.2498813   0.3125727  -0.0793582 SPIN=   0.00000
  Fe  -0.2247065   0.1805678  -0.4374370 SPIN=   3.35257
  Fe   0.2752935  -0.4374370   0.1805678 SPIN=   3.35257
  Fe  -0.2737036  -0.0240992   0.1342614 SPIN=   4.64743
  Fe   0.2262964   0.1342614  -0.0240992 SPIN=   4.64743
%ENDBLOCK POSITIONS_FRAC

# Note: total spin =  16.00

KPOINTS_MP_SPACING 0.07

%BLOCK SPECIES_POT
QC5
%ENDBLOCK SPECIES_POT

%BLOCK HUBBARD_U
Fe d:4.0
%ENDBLOCK HUBBARD_U

SNAP_TO_SYMMETRY
SYMMETRY_GENERATE

