#              Generated by Buildcell
#
# at 16:03:58 (GMT+0.0) 26th November 2020
# in /scratch/scratch/uccabz1/launch_tmp
# on node-k10g-001
# by uccabz1
#
# compiler GCC version 4.9.2
# options -cpp -iprefix /scratch/UCL/applications/gcc/4.9.2/bin/../lib/gcc/x86_64-unknown-linux-gnu/4.9.2/ -mtune=corei7 -march=x86-64 -g -O2
#
# seed  1926988960 -1736572043  1334880852    60663219   218876982 -1155285266 -1507029979  -551269961   872247991   -42289450 -1106313043  -181594107
#
#      Author: C. J. Pickard (cjp20@cam.ac.uk)
#                Space group: C2
#

%BLOCK LATTICE_ABC
      5.79543      5.79543      9.98808
     78.30045     78.30045     82.01867
%ENDBLOCK LATTICE_ABC

%BLOCK POSITIONS_FRAC
  Li  -0.4079242   0.3460892   0.2396281 SPIN=   0.00000
  Li   0.6539108   0.4079242  -0.2396281 SPIN=   0.00000
  Li   0.2501631   0.1385769  -0.2501293 SPIN=   0.00000
  Li  -0.1385769  -0.2501631   0.2501293 SPIN=   0.00000
   O  -0.7379852   0.3140014   0.3734384 SPIN=   0.00000
   O  -0.8201152  -0.0271525   0.5846938 SPIN=   0.00000
   O  -0.4526909  -0.0710830   0.4124267 SPIN=   0.00000
   O  -0.4931772   0.2224178   0.5705712 SPIN=   0.00000
   P  -0.6303879   0.1217642   0.4803339 SPIN=   0.00000
   O   0.6859986  -0.2620148  -0.3734384 SPIN=   0.00000
   O   1.0271525  -0.1798848  -0.5846938 SPIN=   0.00000
   O   1.0710830  -0.5473091  -0.4124267 SPIN=   0.00000
   O   0.7775822  -0.5068228  -0.5705712 SPIN=   0.00000
   P   0.8782358  -0.3696121  -0.4803339 SPIN=   0.00000
   O  -0.1585434   0.0725517  -0.1939132 SPIN=   0.00000
   O  -0.5379269  -0.1363651  -0.0812251 SPIN=   0.00000
   O  -0.2702588  -0.0835208   0.0713055 SPIN=   0.00000
   O  -0.5114667   0.2697336  -0.0388704 SPIN=   0.00000
   O  -0.0725517   0.1585434   0.1939132 SPIN=   0.00000
   O   0.1363651   0.5379269   0.0812251 SPIN=   0.00000
   O   0.0835208   0.2702588  -0.0713055 SPIN=   0.00000
   O  -0.2697336   0.5114667   0.0388704 SPIN=   0.00000
   P  -0.0670673   0.0670673   0.0000000 SPIN=   0.00000
   P   0.4495915  -0.4495915  -0.0000000 SPIN=   0.00000
  Fe   0.0221285  -0.3601982  -0.1101002 SPIN=   5.44639
  Fe   0.3601982  -0.0221285   0.1101002 SPIN=   5.44639
  Fe  -0.6252161  -0.3747839   0.5000000 SPIN=   4.80434
  Fe  -0.1271382   0.1271382   0.5000000 SPIN=   0.30288
%ENDBLOCK POSITIONS_FRAC

# Note: total spin =  16.00

KPOINTS_MP_SPACING 0.07

%BLOCK SPECIES_POT
QC5
%ENDBLOCK SPECIES_POT

%BLOCK HUBBARD_U
Fe d:4.0
%ENDBLOCK HUBBARD_U

SNAP_TO_SYMMETRY
SYMMETRY_GENERATE

