#              Generated by Buildcell
#
# at 06:20:27 (GMT+0.0) 24th November 2020
# in /lustre/scratch/uccabz1/launch_tmp
# on node-c12c-026
# by uccabz1
#
# compiler GCC version 4.9.2
# options -cpp -iprefix /lustre/shared/ucl/apps/gcc/4.9.2/bin/../lib/gcc/x86_64-unknown-linux-gnu/4.9.2/ -mtune=corei7 -march=x86-64 -g -Og
#
# seed  2021293266  -419298261   151348710  2110101066  1708379075  1053593787   -23951738  1391256782 -2015639987   615874058 -2059437090  -108700325
#
#      Author: C. J. Pickard (cjp20@cam.ac.uk)
#                Space group: C2
#

%BLOCK LATTICE_ABC
      4.32496      4.32496      8.85013
     96.31669     96.31669    101.08835
%ENDBLOCK LATTICE_ABC

%BLOCK POSITIONS_FRAC
  Li   0.0867772  -0.0867772   0.5000000 SPIN=   0.00000
  Li   0.2102607  -0.2102607  -0.0000000 SPIN=   0.00000
   O  -0.2906574  -0.1923827   0.0402191 SPIN=   0.00000
   O   0.1771202  -0.1068456   0.2616347 SPIN=   0.00000
   O  -0.1060455   0.3310820   0.2297075 SPIN=   0.00000
   P  -0.1599636  -0.0421676   0.2061676 SPIN=   0.00000
   O   0.1923827   0.2906574  -0.0402191 SPIN=   0.00000
   O   0.1068456  -0.1771202  -0.2616347 SPIN=   0.00000
   O  -0.3310820   0.1060455  -0.2297075 SPIN=   0.00000
   P   0.0421676   0.1599636  -0.2061676 SPIN=   0.00000
   O  -0.2286514   0.2286514   0.5000000 SPIN=   0.00000
   O   0.4022031  -0.4022031   0.5000000 SPIN=   0.00000
  Fe   0.4404997   0.3967626   0.2765159 SPIN=   4.00000
  Fe  -0.3967626  -0.4404997  -0.2765159 SPIN=   4.00000
%ENDBLOCK POSITIONS_FRAC

# Note: total spin =   8.00

KPOINTS_MP_SPACING 0.07

%BLOCK SPECIES_POT
QC5
%ENDBLOCK SPECIES_POT

%BLOCK HUBBARD_U
Fe d:4.0
%ENDBLOCK HUBBARD_U

SNAP_TO_SYMMETRY
SYMMETRY_GENERATE

