#              Generated by Buildcell
#
# at 07:48:06 (GMT+0.0) 24th November 2020
# in /lustre/scratch/uccabz1/launch_tmp
# on node-c12i-033
# by uccabz1
#
# compiler GCC version 4.9.2
# options -cpp -iprefix /lustre/shared/ucl/apps/gcc/4.9.2/bin/../lib/gcc/x86_64-unknown-linux-gnu/4.9.2/ -mtune=corei7 -march=x86-64 -g -Og
#
# seed   989656855  1533367609   -48902964   408168717 -1611589747 -1992866922  1933812003 -1133428561 -1489993297   -27440201   938542340   446633283
#
#      Author: C. J. Pickard (cjp20@cam.ac.uk)
#                Space group: P-1
#

%BLOCK LATTICE_ABC
      4.01714      5.38692      7.80659
     92.41672     92.00141    108.34457
%ENDBLOCK LATTICE_ABC

%BLOCK POSITIONS_FRAC
  Li  -0.1939714   0.0591499  -0.1908776 SPIN=   0.00000
  Li   0.1939714  -0.0591499   0.1908776 SPIN=   0.00000
   O  -1.0021497  -0.2620038  -0.0629174 SPIN=   0.00000
   O  -0.9428983  -0.1208199  -0.3774858 SPIN=   0.00000
   O  -0.5206665  -0.3247068  -0.2580761 SPIN=   0.00000
   O  -1.1469989  -0.5986055  -0.3223304 SPIN=   0.00000
   P  -0.9113255  -0.3263088  -0.2457564 SPIN=   0.00000
   O   1.0021497   0.2620038   0.0629174 SPIN=   0.00000
   O   0.9428983   0.1208199   0.3774858 SPIN=   0.00000
   O   0.5206665   0.3247068   0.2580761 SPIN=   0.00000
   O   1.1469989   0.5986055   0.3223304 SPIN=   0.00000
   P   0.9113255   0.3263088   0.2457564 SPIN=   0.00000
  Fe  -0.5000000  -0.5000000  -0.5000000 SPIN=   7.58022
  Fe   0.5000000   0.5000000   0.0000000 SPIN=   0.41978
%ENDBLOCK POSITIONS_FRAC

# Note: total spin =   8.00

KPOINTS_MP_SPACING 0.07

%BLOCK SPECIES_POT
QC5
%ENDBLOCK SPECIES_POT

%BLOCK HUBBARD_U
Fe d:4.0
%ENDBLOCK HUBBARD_U

SNAP_TO_SYMMETRY
SYMMETRY_GENERATE

