#              Generated by Buildcell
#
# at 01:41:23 (GMT+0.0) 27th November 2020
# in /lustre/scratch/uccabz1/launch_tmp
# on node-c12k-022
# by uccabz1
#
# compiler GCC version 4.9.2
# options -cpp -iprefix /lustre/shared/ucl/apps/gcc/4.9.2/bin/../lib/gcc/x86_64-unknown-linux-gnu/4.9.2/ -mtune=corei7 -march=x86-64 -g -Og
#
# seed  1522883199   774525444  -754672126 -1013112270  -961302431   135490640 -1417431646   -15844089 -1384194275 -1546934483   470665727  -363008604
#
#      Author: C. J. Pickard (cjp20@cam.ac.uk)
#                Space group: Pba2
#

%BLOCK LATTICE_ABC
      4.59075      8.01884      8.69271
     90.00000     90.00000     90.00000
%ENDBLOCK LATTICE_ABC

%BLOCK POSITIONS_FRAC
  Li  -0.4918892   0.1732996  -0.0576022 SPIN=   0.00000
  Li  -0.4918892  -0.1732996   0.0576022 SPIN=   0.00000
  Li  -0.4918892  -0.3267004  -0.4423978 SPIN=   0.00000
  Li  -0.4918892   0.3267004   0.4423978 SPIN=   0.00000
   O   0.7562411  -0.3722601   0.2109989 SPIN=   0.00000
   O   0.2400040  -0.3816562   0.0888305 SPIN=   0.00000
   O   0.4633501  -0.6464746   0.1733750 SPIN=   0.00000
   O   0.2961881  -0.4396419   0.3703613 SPIN=   0.00000
   P   0.4541555  -0.4550957   0.2127791 SPIN=   0.00000
   O   0.7562411   0.3722601  -0.2109989 SPIN=   0.00000
   O   0.2400040   0.3816562  -0.0888305 SPIN=   0.00000
   O   0.4633501   0.6464746  -0.1733750 SPIN=   0.00000
   O   0.2961881   0.4396419  -0.3703613 SPIN=   0.00000
   P   0.4541555   0.4550957  -0.2127791 SPIN=   0.00000
   O   0.7562411   0.1277399   0.2890011 SPIN=   0.00000
   O   0.2400040   0.1183438   0.4111695 SPIN=   0.00000
   O   0.4633501  -0.1464746   0.3266250 SPIN=   0.00000
   O   0.2961881   0.0603581   0.1296387 SPIN=   0.00000
   P   0.4541555   0.0449043   0.2872209 SPIN=   0.00000
   O   0.7562411  -0.1277399  -0.2890011 SPIN=   0.00000
   O   0.2400040  -0.1183438  -0.4111695 SPIN=   0.00000
   O   0.4633501   0.1464746  -0.3266250 SPIN=   0.00000
   O   0.2961881  -0.0603581  -0.1296387 SPIN=   0.00000
   P   0.4541555  -0.0449043  -0.2872209 SPIN=   0.00000
  Fe   0.0039212   0.1907156  -0.3244113 SPIN=   4.00000
  Fe   0.0039212  -0.1907156   0.3244113 SPIN=   4.00000
  Fe   0.0039212  -0.3092844  -0.1755887 SPIN=   4.00000
  Fe   0.0039212   0.3092844   0.1755887 SPIN=   4.00000
%ENDBLOCK POSITIONS_FRAC

# Note: total spin =  16.00

KPOINTS_MP_SPACING 0.07

%BLOCK SPECIES_POT
QC5
%ENDBLOCK SPECIES_POT

%BLOCK HUBBARD_U
Fe d:4.0
%ENDBLOCK HUBBARD_U

SNAP_TO_SYMMETRY
SYMMETRY_GENERATE

