#              Generated by Buildcell
#
# at 11:58:21 (GMT+0.0) 24th November 2020
# in /scratch/scratch/uccabz1/launch_tmp
# on node-a14a-010
# by uccabz1
#
# compiler GCC version 4.9.2
# options -cpp -iprefix /scratch/UCL/applications/gcc/4.9.2/bin/../lib/gcc/x86_64-unknown-linux-gnu/4.9.2/ -mtune=corei7 -march=x86-64 -g -O2
#
# seed  -644818164  -896989449  -597166481  1582539941  -598300978   519705742  1246440327  -493090746 -1782013539  2004086349 -1633487471   622954390
#
#      Author: C. J. Pickard (cjp20@cam.ac.uk)
#                Space group: Iba2
#

%BLOCK LATTICE_ABC
      5.47807      5.48667      6.58529
    114.61916    114.57806     90.00000
%ENDBLOCK LATTICE_ABC

%BLOCK POSITIONS_FRAC
  Li  -0.4948028   0.0051972   0.0103945 SPIN=   0.00000
  Li   0.0051972  -0.4948028  -0.9896055 SPIN=   0.00000
   O   0.1905654  -0.3355482  -0.1450232 SPIN=   0.00000
   O   0.3633438   0.1033287   0.2822066 SPIN=   0.00000
   O  -0.3355886   0.1905250  -0.1450232 SPIN=   0.00000
   O  -0.0811373   0.1788779   0.2822066 SPIN=   0.00000
   O   0.1644114   0.1644518  -0.1450232 SPIN=   0.00000
   O   0.4188627   0.6033287   0.2822066 SPIN=   0.00000
   O  -0.3094346  -0.3094750  -0.1450232 SPIN=   0.00000
   O  -0.1366562  -0.3211221   0.2822066 SPIN=   0.00000
   P  -0.2451547   0.2548453   0.5096905 SPIN=   0.00000
   P   0.2548453  -0.2451547  -0.4903095 SPIN=   0.00000
  Fe  -0.1680695  -0.1680695  -0.3361390 SPIN=   4.00000
  Fe   0.3319305   0.3319305   0.6638610 SPIN=   4.00000
%ENDBLOCK POSITIONS_FRAC

# Note: total spin =   8.00

KPOINTS_MP_SPACING 0.07

%BLOCK SPECIES_POT
QC5
%ENDBLOCK SPECIES_POT

%BLOCK HUBBARD_U
Fe d:4.0
%ENDBLOCK HUBBARD_U

SNAP_TO_SYMMETRY
SYMMETRY_GENERATE

