#              Generated by Buildcell
#
# at 12:57:12 (GMT+0.0) 26th November 2020
# in /lustre/scratch/uccabz1/launch_tmp
# on node-c12e-026
# by uccabz1
#
# compiler GCC version 4.9.2
# options -cpp -iprefix /lustre/shared/ucl/apps/gcc/4.9.2/bin/../lib/gcc/x86_64-unknown-linux-gnu/4.9.2/ -mtune=corei7 -march=x86-64 -g -Og
#
# seed  1882011468   935080598  1085130187 -1206942995  -125347309   115110412 -1250268589  -143916640  1764616216   225215566 -1328199314  1786738776
#
#      Author: C. J. Pickard (cjp20@cam.ac.uk)
#                Space group: C2
#

%BLOCK LATTICE_ABC
      5.36413      7.09803      9.30777
    101.81031     90.00000    112.20124
%ENDBLOCK LATTICE_ABC

%BLOCK POSITIONS_FRAC
  Li   0.4133038   0.0955025   0.1688827 SPIN=   0.00000
  Li   0.3178013  -0.0955025  -0.1688827 SPIN=   0.00000
  Li   0.4578674  -0.4648984  -0.2766266 SPIN=   0.00000
  Li  -0.0772342   0.4648984   0.2766266 SPIN=   0.00000
   O  -0.0652431  -0.0687497  -0.1352142 SPIN=   0.00000
   O  -0.4463607  -0.1817760  -0.3448446 SPIN=   0.00000
   O  -0.0024851   0.0874906  -0.3682383 SPIN=   0.00000
   O  -0.0492004  -0.2825951  -0.3928728 SPIN=   0.00000
   P  -0.1357169  -0.1111565  -0.3019450 SPIN=   0.00000
   O   0.0035066   0.0687497   0.1352142 SPIN=   0.00000
   O  -0.2645847   0.1817760   0.3448446 SPIN=   0.00000
   O  -0.0899756  -0.0874906   0.3682383 SPIN=   0.00000
   O   0.2333947   0.2825951   0.3928728 SPIN=   0.00000
   P  -0.0245604   0.1111565   0.3019450 SPIN=   0.00000
   O   0.0389333  -0.4624181   0.0728942 SPIN=   0.00000
   O   0.3154005  -0.1464198   0.2831666 SPIN=   0.00000
   O   0.5016774  -0.4145333   0.1938370 SPIN=   0.00000
   O   0.4868938  -0.1757427   0.0326692 SPIN=   0.00000
   P   0.3217074  -0.3069744   0.1404351 SPIN=   0.00000
   O  -0.4986486   0.4624181  -0.0728942 SPIN=   0.00000
   O  -0.5381797   0.1464198  -0.2831666 SPIN=   0.00000
   O  -0.0837893   0.4145333  -0.1938370 SPIN=   0.00000
   O  -0.3373636   0.1757427  -0.0326692 SPIN=   0.00000
   P  -0.3713181   0.3069744  -0.1404351 SPIN=   0.00000
  Fe  -0.1626848   0.2944679  -0.4220219 SPIN=   1.82918
  Fe  -0.4571527  -0.2944679   0.4220219 SPIN=   1.82918
  Fe  -0.1697602  -0.2775913   0.0389633 SPIN=   6.17082
  Fe   0.1078311   0.2775913  -0.0389633 SPIN=   6.17082
%ENDBLOCK POSITIONS_FRAC

# Note: total spin =  16.00

KPOINTS_MP_SPACING 0.07

%BLOCK SPECIES_POT
QC5
%ENDBLOCK SPECIES_POT

%BLOCK HUBBARD_U
Fe d:4.0
%ENDBLOCK HUBBARD_U

SNAP_TO_SYMMETRY
SYMMETRY_GENERATE

