#              Generated by Buildcell
#
# at 13:53:06 (GMT+0.0) 26th November 2020
# in /lustre/scratch/uccabz1/launch_tmp
# on node-c12j-020
# by uccabz1
#
# compiler GCC version 4.9.2
# options -cpp -iprefix /lustre/shared/ucl/apps/gcc/4.9.2/bin/../lib/gcc/x86_64-unknown-linux-gnu/4.9.2/ -mtune=corei7 -march=x86-64 -g -Og
#
# seed  -826240675 -2020130522    56458737 -1186412908  1376188370  1126526115  -544400738    28218241 -1938087203  1242229932  1319431444 -2138046147
#
#      Author: C. J. Pickard (cjp20@cam.ac.uk)
#                Space group: P-1
#

%BLOCK LATTICE_ABC
      6.78707      6.95505      7.94665
    114.84230    101.42950     99.70725
%ENDBLOCK LATTICE_ABC

%BLOCK POSITIONS_FRAC
  Li  -0.4882180   0.0268908  -0.2267074 SPIN=   0.00000
  Li   0.4882180  -0.0268908   0.2267074 SPIN=   0.00000
  Li  -0.1059758   0.2879898   0.2907439 SPIN=   0.00000
  Li   0.1059758  -0.2879898  -0.2907439 SPIN=   0.00000
   O  -0.4374591  -0.2851232  -0.3019003 SPIN=   0.00000
   O  -0.3613634  -0.4579763  -0.0714551 SPIN=   0.00000
   O  -0.2882672  -0.0523921   0.0738733 SPIN=   0.00000
   O  -0.6601247  -0.2903958  -0.0744576 SPIN=   0.00000
   P  -0.4394739  -0.2724221  -0.1043575 SPIN=   0.00000
   O   0.4374591   0.2851232   0.3019003 SPIN=   0.00000
   O   0.3613634   0.4579763   0.0714551 SPIN=   0.00000
   O   0.2882672   0.0523921  -0.0738733 SPIN=   0.00000
   O   0.6601247   0.2903958   0.0744576 SPIN=   0.00000
   P   0.4394739   0.2724221   0.1043575 SPIN=   0.00000
   O   0.0133164  -0.4611636   0.1689001 SPIN=   0.00000
   O   0.3926864  -0.2172727   0.3806237 SPIN=   0.00000
   O   0.1027645  -0.1431210   0.5204989 SPIN=   0.00000
   O   0.2075645  -0.4872614   0.4694242 SPIN=   0.00000
   P   0.1705928  -0.3362262   0.3743608 SPIN=   0.00000
   O  -0.0133164   0.4611636  -0.1689001 SPIN=   0.00000
   O  -0.3926864   0.2172727  -0.3806237 SPIN=   0.00000
   O  -0.1027645   0.1431210  -0.5204989 SPIN=   0.00000
   O  -0.2075645   0.4872614  -0.4694242 SPIN=   0.00000
   P  -0.1705928   0.3362262  -0.3743608 SPIN=   0.00000
  Fe   0.3331053   0.3126484  -0.4280029 SPIN=   4.07041
  Fe  -0.3331053  -0.3126484   0.4280029 SPIN=   4.07041
  Fe  -0.0238309  -0.2036209   0.1050775 SPIN=   3.92959
  Fe   0.0238309   0.2036209  -0.1050775 SPIN=   3.92959
%ENDBLOCK POSITIONS_FRAC

# Note: total spin =  16.00

KPOINTS_MP_SPACING 0.07

%BLOCK SPECIES_POT
QC5
%ENDBLOCK SPECIES_POT

%BLOCK HUBBARD_U
Fe d:4.0
%ENDBLOCK HUBBARD_U

SNAP_TO_SYMMETRY
SYMMETRY_GENERATE

