#              Generated by Buildcell
#
# at 07:57:28 (GMT+0.0) 26th November 2020
# in /lustre/scratch/uccabz1/launch_tmp
# on node-c12j-029
# by uccabz1
#
# compiler GCC version 4.9.2
# options -cpp -iprefix /lustre/shared/ucl/apps/gcc/4.9.2/bin/../lib/gcc/x86_64-unknown-linux-gnu/4.9.2/ -mtune=corei7 -march=x86-64 -g -Og
#
# seed -2122047100 -1473626135   694288836  -345097131  -643997023  1395402041  2111776797 -1959705122 -1739044472   706741539  1257203539 -1947956018
#
#      Author: C. J. Pickard (cjp20@cam.ac.uk)
#                Space group: Aea2
#

%BLOCK LATTICE_ABC
      5.50945      5.50945     11.58544
     90.00000     90.00000    114.50050
%ENDBLOCK LATTICE_ABC

%BLOCK POSITIONS_FRAC
  Li  -0.2456062  -0.2321233  -0.3531623 SPIN=   0.00000
  Li   0.2321233   0.2456062   0.3531623 SPIN=   0.00000
  Li  -0.2678767  -0.2543938   0.1468377 SPIN=   0.00000
  Li   0.2543938   0.2678767  -0.1468377 SPIN=   0.00000
   O   0.2689234   0.7086821  -0.3173855 SPIN=   0.00000
   O  -0.2184233   0.4016063  -0.3750314 SPIN=   0.00000
   O   0.1438693   0.4448145  -0.5102489 SPIN=   0.00000
   O   0.0966164   0.1956808  -0.3247928 SPIN=   0.00000
   P   0.0834735   0.4492686  -0.3777579 SPIN=   0.00000
   O  -0.7086821  -0.2689234   0.3173855 SPIN=   0.00000
   O  -0.4016063   0.2184233   0.3750314 SPIN=   0.00000
   O  -0.4448145  -0.1438693   0.5102489 SPIN=   0.00000
   O  -0.1956808  -0.0966164   0.3247928 SPIN=   0.00000
   P  -0.4492686  -0.0834735   0.3777579 SPIN=   0.00000
   O  -0.2086821   0.2310766   0.1826145 SPIN=   0.00000
   O   0.0983937   0.7184233   0.1249686 SPIN=   0.00000
   O   0.0551855   0.3561307  -0.0102489 SPIN=   0.00000
   O   0.3043192   0.4033836   0.1752072 SPIN=   0.00000
   P   0.0507314   0.4165265   0.1222421 SPIN=   0.00000
   O  -0.2310766   0.2086821  -0.1826145 SPIN=   0.00000
   O  -0.7184233  -0.0983937  -0.1249686 SPIN=   0.00000
   O  -0.3561307  -0.0551855   0.0102489 SPIN=   0.00000
   O  -0.4033836  -0.3043192  -0.1752072 SPIN=   0.00000
   P  -0.4165265  -0.0507314  -0.1222421 SPIN=   0.00000
  Fe   0.3979206   0.1010748  -0.3949030 SPIN=   4.00000
  Fe  -0.1010748  -0.3979206   0.3949030 SPIN=   4.00000
  Fe   0.3989252   0.1020794   0.1050970 SPIN=   4.00000
  Fe  -0.1020794  -0.3989252  -0.1050970 SPIN=   4.00000
%ENDBLOCK POSITIONS_FRAC

# Note: total spin =  16.00

KPOINTS_MP_SPACING 0.07

%BLOCK SPECIES_POT
QC5
%ENDBLOCK SPECIES_POT

%BLOCK HUBBARD_U
Fe d:4.0
%ENDBLOCK HUBBARD_U

SNAP_TO_SYMMETRY
SYMMETRY_GENERATE

