#              Generated by Buildcell
#
# at 14:35:22 (GMT+0.0) 24th November 2020
# in /lustre/scratch/uccabz1/launch_tmp
# on node-c12h-022
# by uccabz1
#
# compiler GCC version 4.9.2
# options -cpp -iprefix /lustre/shared/ucl/apps/gcc/4.9.2/bin/../lib/gcc/x86_64-unknown-linux-gnu/4.9.2/ -mtune=corei7 -march=x86-64 -g -Og
#
# seed -2142870910   514004520 -2049381157   312510123 -1746633729   -35205613  -974701532 -1327305490  -255135529   156516465 -1474538826  1018622927
#
#      Author: C. J. Pickard (cjp20@cam.ac.uk)
#                Space group: Fdd2
#

%BLOCK LATTICE_ABC
      5.34701      5.34701      6.66955
    111.09267    111.09267     95.86700
%ENDBLOCK LATTICE_ABC

%BLOCK POSITIONS_FRAC
  Li   0.1646064   0.1646064   0.3292128 SPIN=   0.00000
  Li   0.4146064  -0.0853936  -0.1707872 SPIN=   0.00000
   O  -0.0377218   0.1516806  -0.4060425 SPIN=   0.00000
   O   0.0956548   0.5849375  -0.4748978 SPIN=   0.00000
   O  -0.3683208   0.4422768  -0.4060425 SPIN=   0.00000
   O  -0.5705526  -0.0598353  -0.4748978 SPIN=   0.00000
   O  -0.5983194  -0.2877218   0.0939575 SPIN=   0.00000
   O  -0.1650625  -0.1543452   0.0251022 SPIN=   0.00000
   O   0.6922768   0.3816792   0.0939575 SPIN=   0.00000
   O   0.1901647   0.1794474   0.0251022 SPIN=   0.00000
   P   0.4028956   0.4028956  -0.1942089 SPIN=   0.00000
   P  -0.3471044   0.1528956   0.3057911 SPIN=   0.00000
  Fe  -0.2573678  -0.2573678   0.4852644 SPIN=   4.00000
  Fe  -0.0073678   0.4926322  -0.0147356 SPIN=   4.00000
%ENDBLOCK POSITIONS_FRAC

# Note: total spin =   8.00

KPOINTS_MP_SPACING 0.07

%BLOCK SPECIES_POT
QC5
%ENDBLOCK SPECIES_POT

%BLOCK HUBBARD_U
Fe d:4.0
%ENDBLOCK HUBBARD_U

SNAP_TO_SYMMETRY
SYMMETRY_GENERATE

