#              Generated by Buildcell
#
# at 22:53:31 (GMT+0.0) 26th November 2020
# in /lustre/scratch/uccabz1/launch_tmp
# on node-c12f-024
# by uccabz1
#
# compiler GCC version 4.9.2
# options -cpp -iprefix /lustre/shared/ucl/apps/gcc/4.9.2/bin/../lib/gcc/x86_64-unknown-linux-gnu/4.9.2/ -mtune=corei7 -march=x86-64 -g -Og
#
# seed  1125714614  1923081637  -560736195  -404016104  1918980089  1991270309  -367738190 -1622345422  1868326827 -1875193475   476088401   489978715
#
#      Author: C. J. Pickard (cjp20@cam.ac.uk)
#                Space group: P-1
#

%BLOCK LATTICE_ABC
      6.30310      7.30987      8.20549
     70.51500     71.46742     66.83890
%ENDBLOCK LATTICE_ABC

%BLOCK POSITIONS_FRAC
  Li   0.0902691   0.3522243  -0.1188950 SPIN=   0.00000
  Li  -0.0902691  -0.3522243   0.1188950 SPIN=   0.00000
  Li  -0.2624114  -0.1741312   0.4413889 SPIN=   0.00000
  Li   0.2624114   0.1741312  -0.4413889 SPIN=   0.00000
   O  -0.7112134   0.5378990   0.0954072 SPIN=   0.00000
   O  -0.8154976   0.5543818   0.4241383 SPIN=   0.00000
   O  -0.4879999   0.2583912   0.3319358 SPIN=   0.00000
   O  -0.4364417   0.6046430   0.2291320 SPIN=   0.00000
   P  -0.6159478   0.4928083   0.2603649 SPIN=   0.00000
   O   0.7112134  -0.5378990  -0.0954072 SPIN=   0.00000
   O   0.8154976  -0.5543818  -0.4241383 SPIN=   0.00000
   O   0.4879999  -0.2583912  -0.3319358 SPIN=   0.00000
   O   0.4364417  -0.6046430  -0.2291320 SPIN=   0.00000
   P   0.6159478  -0.4928083  -0.2603649 SPIN=   0.00000
   O   0.0378702  -0.0408307   0.2789392 SPIN=   0.00000
   O   0.1237677   0.2544662   0.3278910 SPIN=   0.00000
   O   0.4407301  -0.0792404   0.3305754 SPIN=   0.00000
   O   0.3236444   0.1406366   0.0450236 SPIN=   0.00000
   P   0.2222805   0.0637711   0.2450149 SPIN=   0.00000
   O  -0.0378702   0.0408307  -0.2789392 SPIN=   0.00000
   O  -0.1237677  -0.2544662  -0.3278910 SPIN=   0.00000
   O  -0.4407301   0.0792404  -0.3305754 SPIN=   0.00000
   O  -0.3236444  -0.1406366  -0.0450236 SPIN=   0.00000
   P  -0.2222805  -0.0637711  -0.2450149 SPIN=   0.00000
  Fe   0.2303359  -0.2685060  -0.4373501 SPIN=   3.44537
  Fe  -0.2303359   0.2685060   0.4373501 SPIN=   3.44537
  Fe  -0.3560613   0.1673056   0.0436588 SPIN=   4.55463
  Fe   0.3560613  -0.1673056  -0.0436588 SPIN=   4.55463
%ENDBLOCK POSITIONS_FRAC

# Note: total spin =  16.00

KPOINTS_MP_SPACING 0.07

%BLOCK SPECIES_POT
QC5
%ENDBLOCK SPECIES_POT

%BLOCK HUBBARD_U
Fe d:4.0
%ENDBLOCK HUBBARD_U

SNAP_TO_SYMMETRY
SYMMETRY_GENERATE

