#              Generated by Buildcell
#
# at 12:21:20 (GMT+0.0) 24th November 2020
# in /lustre/scratch/uccabz1/launch_tmp
# on node-c12a-034
# by uccabz1
#
# compiler GCC version 4.9.2
# options -cpp -iprefix /lustre/shared/ucl/apps/gcc/4.9.2/bin/../lib/gcc/x86_64-unknown-linux-gnu/4.9.2/ -mtune=corei7 -march=x86-64 -g -Og
#
# seed   635655421  1674368543  -498868896  1135403359  1541367408  -540413990  1700183510   944292522    51624107  -143680230 -2126129325  2145216534
#
#      Author: C. J. Pickard (cjp20@cam.ac.uk)
#                Space group: Cm
#

%BLOCK LATTICE_ABC
      4.89931      6.16210      6.16210
     77.11793     68.40049     68.40049
%ENDBLOCK LATTICE_ABC

%BLOCK POSITIONS_FRAC
  Li  -0.5770055   0.4747757   0.4747757 SPIN=   0.00000
  Li   0.3343751   0.0268202   0.0268202 SPIN=   0.00000
   O  -0.2821743  -0.3356121   0.0874302 SPIN=   0.00000
   O   0.2944068  -0.4869852  -0.1659571 SPIN=   0.00000
   O   0.1618546  -0.2592615   0.1619443 SPIN=   0.00000
   P   0.0563935  -0.4343294   0.0850128 SPIN=   0.00000
   O  -0.2821743   0.0874302  -0.3356121 SPIN=   0.00000
   O   0.2944068  -0.1659571  -0.4869852 SPIN=   0.00000
   O   0.1618546   0.1619443  -0.2592615 SPIN=   0.00000
   P   0.0563935   0.0850128  -0.4343294 SPIN=   0.00000
   O  -0.2725500   0.0665819   0.0665819 SPIN=   0.00000
   O  -0.7634075   0.3152743   0.3152743 SPIN=   0.00000
  Fe  -0.2877879  -0.0921626   0.4080311 SPIN=   4.00000
  Fe  -0.2877879   0.4080311  -0.0921626 SPIN=   4.00000
%ENDBLOCK POSITIONS_FRAC

# Note: total spin =   8.00

KPOINTS_MP_SPACING 0.07

%BLOCK SPECIES_POT
QC5
%ENDBLOCK SPECIES_POT

%BLOCK HUBBARD_U
Fe d:4.0
%ENDBLOCK HUBBARD_U

SNAP_TO_SYMMETRY
SYMMETRY_GENERATE

