#              Generated by Buildcell
#
# at 16:21:57 (GMT+0.0) 26th November 2020
# in /lustre/scratch/uccabz1/launch_tmp
# on node-c12d-028
# by uccabz1
#
# compiler GCC version 4.9.2
# options -cpp -iprefix /lustre/shared/ucl/apps/gcc/4.9.2/bin/../lib/gcc/x86_64-unknown-linux-gnu/4.9.2/ -mtune=corei7 -march=x86-64 -g -Og
#
# seed -1894527225 -1781653164 -2064731176  -419644208  -448492230 -1846508702  1358153197   -56859073  -458332653   -54895116 -1620105263 -2144337032
#
#      Author: C. J. Pickard (cjp20@cam.ac.uk)
#                Space group: P21
#

%BLOCK LATTICE_ABC
      4.84559      6.57733     10.37922
    104.67878     90.00000     90.00000
%ENDBLOCK LATTICE_ABC

%BLOCK POSITIONS_FRAC
  Li  -0.0301702  -0.2574688  -0.3754877 SPIN=   0.00000
  Li   0.4698298   0.2574688   0.3754877 SPIN=   0.00000
  Li  -0.0301705  -0.0088917   0.2646210 SPIN=   0.00000
  Li   0.4698295   0.0088917  -0.2646210 SPIN=   0.00000
   O  -0.3658641   0.2747518  -0.1276830 SPIN=   0.00000
   O  -0.0736208   0.0075039  -0.0394369 SPIN=   0.00000
   O   0.0348691   0.0572036  -0.2619727 SPIN=   0.00000
   O   0.1445533   0.3437366  -0.0586589 SPIN=   0.00000
   P  -0.0785612   0.1783748  -0.1214970 SPIN=   0.00000
   O   0.1341359  -0.2747518   0.1276830 SPIN=   0.00000
   O   0.4263792  -0.0075039   0.0394369 SPIN=   0.00000
   O   0.5348691  -0.0572036   0.2619727 SPIN=   0.00000
   O   0.6445533  -0.3437366   0.0586589 SPIN=   0.00000
   P   0.4214388  -0.1783748   0.1214970 SPIN=   0.00000
   O  -0.6329173  -0.6580668  -0.3335119 SPIN=   0.00000
   O  -0.5679791  -0.2918515  -0.1682186 SPIN=   0.00000
   O  -0.1522056  -0.4926480  -0.2621287 SPIN=   0.00000
   O  -0.4522092  -0.3372479  -0.4090109 SPIN=   0.00000
   P  -0.4610070  -0.4550297  -0.2967295 SPIN=   0.00000
   O  -0.1329173   0.6580668   0.3335119 SPIN=   0.00000
   O  -0.0679791   0.2918515   0.1682186 SPIN=   0.00000
   O   0.3477944   0.4926480   0.2621287 SPIN=   0.00000
   O   0.0477908   0.3372479   0.4090109 SPIN=   0.00000
   P   0.0389930   0.4550297   0.2967295 SPIN=   0.00000
  Fe  -0.0301590   0.2276206  -0.4127783 SPIN=   5.06789
  Fe   0.4698410  -0.2276206   0.4127783 SPIN=   5.06789
  Fe  -0.0186724  -0.3176932  -0.0684425 SPIN=   2.93211
  Fe   0.4813276   0.3176932   0.0684425 SPIN=   2.93211
%ENDBLOCK POSITIONS_FRAC

# Note: total spin =  16.00

KPOINTS_MP_SPACING 0.07

%BLOCK SPECIES_POT
QC5
%ENDBLOCK SPECIES_POT

%BLOCK HUBBARD_U
Fe d:4.0
%ENDBLOCK HUBBARD_U

SNAP_TO_SYMMETRY
SYMMETRY_GENERATE

