#              Generated by Buildcell
#
# at 06:47:53 (GMT+0.0) 24th November 2020
# in /scratch/scratch/uccabz1/launch_tmp
# on node-a14b-028
# by uccabz1
#
# compiler GCC version 4.9.2
# options -cpp -iprefix /scratch/UCL/applications/gcc/4.9.2/bin/../lib/gcc/x86_64-unknown-linux-gnu/4.9.2/ -mtune=corei7 -march=x86-64 -g -O2
#
# seed   389459552   846793551  1983148095 -2003654912 -1606762091 -1245535410  1524746216  -227754719  -735064245  -428808190 -1116070387  1757912168
#
#      Author: C. J. Pickard (cjp20@cam.ac.uk)
#                Space group: Cc
#

%BLOCK LATTICE_ABC
      5.46514      5.57308      6.43137
    106.50102    105.82460    110.56395
%ENDBLOCK LATTICE_ABC

%BLOCK POSITIONS_FRAC
  Li  -0.1625999  -0.1896173  -0.2857334 SPIN=   0.00000
  Li   0.1231334  -0.4038839   0.2857334 SPIN=   0.00000
   O  -0.5955664   0.1010956  -0.1352611 SPIN=   0.00000
   O  -0.5147548   0.3841459  -0.3903214 SPIN=   0.00000
   O  -0.0895788   0.4286427  -0.0878589 SPIN=   0.00000
   O  -0.4055775  -0.0246837  -0.4555966 SPIN=   0.00000
   P  -0.4117591   0.2129319  -0.2624538 SPIN=   0.00000
   O  -0.4603053  -0.2636434   0.1352611 SPIN=   0.00000
   O  -0.1244334   0.2744673   0.3903214 SPIN=   0.00000
   O  -0.0017200   0.0165016   0.0878589 SPIN=   0.00000
   O   0.0500190  -0.0690871   0.4555966 SPIN=   0.00000
   P  -0.1493053  -0.0246143   0.2624538 SPIN=   0.00000
  Fe   0.4470793   0.1946085   0.2448495 SPIN=   4.00000
  Fe   0.2022299   0.4497590  -0.2448495 SPIN=   4.00000
%ENDBLOCK POSITIONS_FRAC

# Note: total spin =   8.00

KPOINTS_MP_SPACING 0.07

%BLOCK SPECIES_POT
QC5
%ENDBLOCK SPECIES_POT

%BLOCK HUBBARD_U
Fe d:4.0
%ENDBLOCK HUBBARD_U

SNAP_TO_SYMMETRY
SYMMETRY_GENERATE

