#              Generated by Buildcell
#
# at 22:23:41 (GMT+0.0) 26th November 2020
# in /lustre/scratch/uccabz1/launch_tmp
# on node-c12n-028
# by uccabz1
#
# compiler GCC version 4.9.2
# options -cpp -iprefix /lustre/shared/ucl/apps/gcc/4.9.2/bin/../lib/gcc/x86_64-unknown-linux-gnu/4.9.2/ -mtune=corei7 -march=x86-64 -g -Og
#
# seed   640123480 -1782624223 -1804446779 -1086843377 -1097158942  1211027578 -1624421659  1216439817  1700426186 -1941941770  -863592990  1583396453
#
#      Author: C. J. Pickard (cjp20@cam.ac.uk)
#                Space group: P-1
#

%BLOCK LATTICE_ABC
      3.87254      8.52941     10.49266
     70.46813     80.15099     81.03653
%ENDBLOCK LATTICE_ABC

%BLOCK POSITIONS_FRAC
  Li  -0.4100205  -0.4083680   0.3148275 SPIN=   0.00000
  Li   0.4100205   0.4083680  -0.3148275 SPIN=   0.00000
  Li   0.9684862  -0.3091322  -0.4995283 SPIN=   0.00000
  Li  -0.9684862   0.3091322   0.4995283 SPIN=   0.00000
   O   0.2004800  -0.2348390  -0.3054454 SPIN=   0.00000
   O   0.1882583  -0.5363114  -0.1348307 SPIN=   0.00000
   O  -0.2947868  -0.3215127  -0.1025476 SPIN=   0.00000
   O  -0.2557791  -0.4286164  -0.3001345 SPIN=   0.00000
   P  -0.0301692  -0.3731437  -0.2168371 SPIN=   0.00000
   O  -0.2004800   0.2348390   0.3054454 SPIN=   0.00000
   O  -0.1882583   0.5363114   0.1348307 SPIN=   0.00000
   O   0.2947868   0.3215127   0.1025476 SPIN=   0.00000
   O   0.2557791   0.4286164   0.3001345 SPIN=   0.00000
   P   0.0301692   0.3731437   0.2168371 SPIN=   0.00000
   O   0.0594923   0.0486588   0.1701380 SPIN=   0.00000
   O  -0.3005055  -0.1071468   0.0720948 SPIN=   0.00000
   O   0.2028543  -0.2664457   0.1920614 SPIN=   0.00000
   O  -0.3441551  -0.1734737   0.3251730 SPIN=   0.00000
   P  -0.0902552  -0.1159533   0.1904131 SPIN=   0.00000
   O  -0.0594923  -0.0486588  -0.1701380 SPIN=   0.00000
   O   0.3005055   0.1071468  -0.0720948 SPIN=   0.00000
   O  -0.2028543   0.2664457  -0.1920614 SPIN=   0.00000
   O   0.3441551   0.1734737  -0.3251730 SPIN=   0.00000
   P   0.0902552   0.1159533  -0.1904131 SPIN=   0.00000
  Fe   0.6795606  -0.0398301  -0.3307480 SPIN=   3.28925
  Fe  -0.6795606   0.0398301   0.3307480 SPIN=   3.28925
  Fe  -0.1744581   0.3018771  -0.0063908 SPIN=   4.71075
  Fe   0.1744581  -0.3018771   0.0063908 SPIN=   4.71075
%ENDBLOCK POSITIONS_FRAC

# Note: total spin =  16.00

KPOINTS_MP_SPACING 0.07

%BLOCK SPECIES_POT
QC5
%ENDBLOCK SPECIES_POT

%BLOCK HUBBARD_U
Fe d:4.0
%ENDBLOCK HUBBARD_U

SNAP_TO_SYMMETRY
SYMMETRY_GENERATE

