#              Generated by Buildcell
#
# at 13:26:06 (GMT+0.0) 24th November 2020
# in /lustre/scratch/uccabz1/launch_tmp
# on node-c12c-023
# by uccabz1
#
# compiler GCC version 4.9.2
# options -cpp -iprefix /lustre/shared/ucl/apps/gcc/4.9.2/bin/../lib/gcc/x86_64-unknown-linux-gnu/4.9.2/ -mtune=corei7 -march=x86-64 -g -Og
#
# seed -1096592008 -1782132169  -317511008  -167845755   862045670 -1346988823  1364676262   559006240     7404388  1864870235  -611318338 -1066919430
#
#      Author: C. J. Pickard (cjp20@cam.ac.uk)
#                Space group: C2
#

%BLOCK LATTICE_ABC
      5.17205      5.17205      6.43833
     93.90433     93.90433    110.65214
%ENDBLOCK LATTICE_ABC

%BLOCK POSITIONS_FRAC
  Li  -0.0196187   0.4379403  -0.3430686 SPIN=   0.00000
  Li  -0.4379403   0.0196187   0.3430686 SPIN=   0.00000
   O  -0.3400404  -0.6198613   0.1909371 SPIN=   0.00000
   O  -0.2402903  -0.2244995   0.4904720 SPIN=   0.00000
   O   0.1535128  -0.2602668   0.3094422 SPIN=   0.00000
   O  -0.1970192  -0.1045807   0.1209058 SPIN=   0.00000
   P  -0.1662453  -0.3168772   0.2714537 SPIN=   0.00000
   O   0.6198613   0.3400404  -0.1909371 SPIN=   0.00000
   O   0.2244995   0.2402903  -0.4904720 SPIN=   0.00000
   O   0.2602668  -0.1535128  -0.3094422 SPIN=   0.00000
   O   0.1045807   0.1970192  -0.1209058 SPIN=   0.00000
   P   0.3168772   0.1662453  -0.2714537 SPIN=   0.00000
  Fe  -0.3661701  -0.1798840  -0.1927334 SPIN=   4.00000
  Fe   0.1798840   0.3661701   0.1927334 SPIN=   4.00000
%ENDBLOCK POSITIONS_FRAC

# Note: total spin =   8.00

KPOINTS_MP_SPACING 0.07

%BLOCK SPECIES_POT
QC5
%ENDBLOCK SPECIES_POT

%BLOCK HUBBARD_U
Fe d:4.0
%ENDBLOCK HUBBARD_U

SNAP_TO_SYMMETRY
SYMMETRY_GENERATE

