#              Generated by Buildcell
#
# at 14:17:18 (GMT+0.0) 24th November 2020
# in /lustre/scratch/uccabz1/launch_tmp
# on node-c12e-020
# by uccabz1
#
# compiler GCC version 4.9.2
# options -cpp -iprefix /lustre/shared/ucl/apps/gcc/4.9.2/bin/../lib/gcc/x86_64-unknown-linux-gnu/4.9.2/ -mtune=corei7 -march=x86-64 -g -Og
#
# seed  1455985676   514079037  -758186537  1901051366   455229446 -1495781921  1530712783   437973307  -274568952  1866230006   865850156  -268891384
#
#      Author: C. J. Pickard (cjp20@cam.ac.uk)
#                Space group: Cc
#

%BLOCK LATTICE_ABC
      3.91846      6.86570      6.86570
    112.14248    101.39945    101.39945
%ENDBLOCK LATTICE_ABC

%BLOCK POSITIONS_FRAC
  Li   0.3612556  -0.1944148   0.0086805 SPIN=   0.00000
  Li  -0.1387444   0.0086805  -0.1944148 SPIN=   0.00000
   O   0.0449757  -0.0074118   0.1648775 SPIN=   0.00000
   O   0.2119434   0.0938722   0.5837192 SPIN=   0.00000
   O  -0.1379570   0.3009041   0.4438804 SPIN=   0.00000
   O  -0.4398703  -0.0935403   0.3507760 SPIN=   0.00000
   P  -0.0778048   0.0671795   0.3736361 SPIN=   0.00000
   O   0.5449757   0.1648775  -0.0074118 SPIN=   0.00000
   O   0.7119434   0.5837192   0.0938722 SPIN=   0.00000
   O   0.3620430   0.4438804   0.3009041 SPIN=   0.00000
   O   0.0601297   0.3507760  -0.0935403 SPIN=   0.00000
   P   0.4221952   0.3736361   0.0671795 SPIN=   0.00000
  Fe  -0.3895493   0.3956926  -0.3075334 SPIN=   4.00000
  Fe   0.1104507  -0.3075334   0.3956926 SPIN=   4.00000
%ENDBLOCK POSITIONS_FRAC

# Note: total spin =   8.00

KPOINTS_MP_SPACING 0.07

%BLOCK SPECIES_POT
QC5
%ENDBLOCK SPECIES_POT

%BLOCK HUBBARD_U
Fe d:4.0
%ENDBLOCK HUBBARD_U

SNAP_TO_SYMMETRY
SYMMETRY_GENERATE

