#              Generated by Buildcell
#
# at 09:20:57 (GMT+0.0) 24th November 2020
# in /lustre/scratch/uccabz1/launch_tmp
# on node-c12d-022
# by uccabz1
#
# compiler GCC version 4.9.2
# options -cpp -iprefix /lustre/shared/ucl/apps/gcc/4.9.2/bin/../lib/gcc/x86_64-unknown-linux-gnu/4.9.2/ -mtune=corei7 -march=x86-64 -g -Og
#
# seed  1207859111  -391554364  -593829117  -779738951  2109204073 -1171116483 -2133528294 -1462927533   -20639596   783711990  -288389440   990952680
#
#      Author: C. J. Pickard (cjp20@cam.ac.uk)
#                Space group: P21
#

%BLOCK LATTICE_ABC
      4.29264      5.36112      7.08228
     90.00000     90.00000    100.98593
%ENDBLOCK LATTICE_ABC

%BLOCK POSITIONS_FRAC
  Li  -0.4633674   0.1221897  -0.1593274 SPIN=   0.00000
  Li   0.4633674  -0.1221897   0.3406726 SPIN=   0.00000
   O   0.1962522  -0.1641655  -0.0317829 SPIN=   0.00000
   O  -0.3700748  -0.4377570  -0.0009521 SPIN=   0.00000
   O  -0.0679313  -0.3056072   0.2907124 SPIN=   0.00000
   O  -0.2756675   0.0188688   0.0981773 SPIN=   0.00000
   P  -0.1137450  -0.2162326   0.0827133 SPIN=   0.00000
   O  -0.1962522   0.1641655  -0.5317829 SPIN=   0.00000
   O   0.3700748   0.4377570  -0.5009521 SPIN=   0.00000
   O   0.0679313   0.3056072  -0.2092876 SPIN=   0.00000
   O   0.2756675  -0.0188688  -0.4018227 SPIN=   0.00000
   P   0.1137450   0.2162326  -0.4172867 SPIN=   0.00000
  Fe  -0.0825677  -0.3197047  -0.3137212 SPIN=   4.00000
  Fe   0.0825677   0.3197047   0.1862788 SPIN=   4.00000
%ENDBLOCK POSITIONS_FRAC

# Note: total spin =   8.00

KPOINTS_MP_SPACING 0.07

%BLOCK SPECIES_POT
QC5
%ENDBLOCK SPECIES_POT

%BLOCK HUBBARD_U
Fe d:4.0
%ENDBLOCK HUBBARD_U

SNAP_TO_SYMMETRY
SYMMETRY_GENERATE

