#              Generated by Buildcell
#
# at 00:35:04 (GMT+0.0) 27th November 2020
# in /lustre/scratch/uccabz1/launch_tmp
# on node-c12p-025
# by uccabz1
#
# compiler GCC version 4.9.2
# options -cpp -iprefix /lustre/shared/ucl/apps/gcc/4.9.2/bin/../lib/gcc/x86_64-unknown-linux-gnu/4.9.2/ -mtune=corei7 -march=x86-64 -g -Og
#
# seed  1458292255 -1359480115  1893938429 -1145267211  1206057267 -1410143635  -846015508 -1117336719  1556134906 -1752590783  -764381466  1027004859
#
#      Author: C. J. Pickard (cjp20@cam.ac.uk)
#                Space group: Pc
#

%BLOCK LATTICE_ABC
      5.40252      7.71777      8.10505
    108.75463     90.00000     90.00000
%ENDBLOCK LATTICE_ABC

%BLOCK POSITIONS_FRAC
  Li   0.1245945  -0.1200692  -0.4936382 SPIN=   0.00000
  Li  -0.1245945   0.3799308  -0.4936382 SPIN=   0.00000
  Li   0.4894040   0.0167226  -0.1349408 SPIN=   0.00000
  Li  -0.4894040  -0.4832774  -0.1349408 SPIN=   0.00000
   O   0.1667600   0.2990742   0.3269392 SPIN=   0.00000
   O  -0.1723018   0.3306850   0.1110934 SPIN=   0.00000
   O   0.1550453   0.0987757   0.0009019 SPIN=   0.00000
   O  -0.1669643   0.0513222   0.2044859 SPIN=   0.00000
   P   0.0028275   0.1988125   0.1702132 SPIN=   0.00000
   O  -0.1667600  -0.2009258   0.3269392 SPIN=   0.00000
   O   0.1723018  -0.1693150   0.1110934 SPIN=   0.00000
   O  -0.1550453  -0.4012243   0.0009019 SPIN=   0.00000
   O   0.1669643  -0.4486778   0.2044859 SPIN=   0.00000
   P  -0.0028275  -0.3011875   0.1702132 SPIN=   0.00000
   O   0.5220309   0.1661683  -0.5664855 SPIN=   0.00000
   O   0.4385945   0.2342060  -0.2359859 SPIN=   0.00000
   O   0.3045594   0.4619625  -0.3729356 SPIN=   0.00000
   O   0.0814148   0.1624656  -0.4439768 SPIN=   0.00000
   P   0.3435085   0.2503007  -0.4139142 SPIN=   0.00000
   O  -0.5220309  -0.3338317  -0.5664855 SPIN=   0.00000
   O  -0.4385945  -0.2657940  -0.2359859 SPIN=   0.00000
   O  -0.3045594  -0.0380375  -0.3729356 SPIN=   0.00000
   O  -0.0814148  -0.3375344  -0.4439768 SPIN=   0.00000
   P  -0.3435085  -0.2496993  -0.4139142 SPIN=   0.00000
  Fe  -0.4690983  -0.1140630   0.2125171 SPIN=   2.61252
  Fe   0.4690983   0.3859370   0.2125171 SPIN=   2.61252
  Fe   0.0140052  -0.2541141  -0.1602989 SPIN=   5.38748
  Fe  -0.0140052   0.2458859  -0.1602989 SPIN=   5.38748
%ENDBLOCK POSITIONS_FRAC

# Note: total spin =  16.00

KPOINTS_MP_SPACING 0.07

%BLOCK SPECIES_POT
QC5
%ENDBLOCK SPECIES_POT

%BLOCK HUBBARD_U
Fe d:4.0
%ENDBLOCK HUBBARD_U

SNAP_TO_SYMMETRY
SYMMETRY_GENERATE

