#              Generated by Buildcell
#
# at 15:29:04 (GMT+0.0) 26th November 2020
# in /lustre/scratch/uccabz1/launch_tmp
# on node-c12m-034
# by uccabz1
#
# compiler GCC version 4.9.2
# options -cpp -iprefix /lustre/shared/ucl/apps/gcc/4.9.2/bin/../lib/gcc/x86_64-unknown-linux-gnu/4.9.2/ -mtune=corei7 -march=x86-64 -g -Og
#
# seed   593148402 -2046261271  1147355634  1412982444  1330498611 -1455933210   553083521   111363769  -415842552    32058895  -247345246  1459018889
#
#      Author: C. J. Pickard (cjp20@cam.ac.uk)
#                Space group: Cc
#

%BLOCK LATTICE_ABC
      6.10951      6.10951      9.23149
     82.34905     82.34905     70.26003
%ENDBLOCK LATTICE_ABC

%BLOCK POSITIONS_FRAC
  Li  -0.0779764  -0.1449837  -0.0856181 SPIN=   0.00000
  Li   0.3550163   0.4220236   0.4143819 SPIN=   0.00000
  Li  -0.1370501  -0.4108595  -0.4416075 SPIN=   0.00000
  Li   0.0891405   0.3629499   0.0583925 SPIN=   0.00000
   O  -0.6113491   0.2783835   0.2152774 SPIN=   0.00000
   O  -0.3067301   0.1693810  -0.0104781 SPIN=   0.00000
   O  -0.2561057   0.4288114   0.1567475 SPIN=   0.00000
   O  -0.1878117   0.0062464   0.2414102 SPIN=   0.00000
   P  -0.3531187   0.2212458   0.1552456 SPIN=   0.00000
   O  -0.2216165  -0.1113491  -0.2847226 SPIN=   0.00000
   O  -0.3306190   0.1932699  -0.5104781 SPIN=   0.00000
   O  -0.0711886   0.2438943  -0.3432525 SPIN=   0.00000
   O  -0.4937536   0.3121883  -0.2585898 SPIN=   0.00000
   P  -0.2787542   0.1468813  -0.3447544 SPIN=   0.00000
   O   0.1320165  -0.2667076  -0.4513133 SPIN=   0.00000
   O   0.4559222  -0.2626842  -0.2966431 SPIN=   0.00000
   O   0.5707587  -0.3789841  -0.5491797 SPIN=   0.00000
   O   0.3459940   0.0386018  -0.5100438 SPIN=   0.00000
   P   0.3628166  -0.2170450  -0.4524567 SPIN=   0.00000
   O   0.2332924  -0.3679835   0.0486867 SPIN=   0.00000
   O   0.2373158  -0.0440778   0.2033569 SPIN=   0.00000
   O   0.1210159   0.0707587  -0.0491797 SPIN=   0.00000
   O   0.5386018  -0.1540060  -0.0100438 SPIN=   0.00000
   P   0.2829550  -0.1371834   0.0475433 SPIN=   0.00000
  Fe   0.2558894   0.1484510  -0.2628246 SPIN=   3.39829
  Fe  -0.3515490  -0.2441106   0.2371754 SPIN=   3.39829
  Fe   0.0050027   0.0960444   0.3812979 SPIN=   4.60171
  Fe  -0.4039556  -0.4949973  -0.1187021 SPIN=   4.60171
%ENDBLOCK POSITIONS_FRAC

# Note: total spin =  16.00

KPOINTS_MP_SPACING 0.07

%BLOCK SPECIES_POT
QC5
%ENDBLOCK SPECIES_POT

%BLOCK HUBBARD_U
Fe d:4.0
%ENDBLOCK HUBBARD_U

SNAP_TO_SYMMETRY
SYMMETRY_GENERATE

