#              Generated by Buildcell
#
# at 09:11:18 (GMT+0.0) 26th November 2020
# in /lustre/scratch/uccabz1/launch_tmp
# on node-c12e-030
# by uccabz1
#
# compiler GCC version 4.9.2
# options -cpp -iprefix /lustre/shared/ucl/apps/gcc/4.9.2/bin/../lib/gcc/x86_64-unknown-linux-gnu/4.9.2/ -mtune=corei7 -march=x86-64 -g -Og
#
# seed -1285372203  -785946897 -1037703597  1871132179   364300802 -1801438641 -1931740041  1161131087  1748341953   444992346   780828642  -771818056
#
#      Author: C. J. Pickard (cjp20@cam.ac.uk)
#                Space group: P43
#

%BLOCK LATTICE_ABC
      4.32070      4.32070     17.14120
     90.00000     90.00000     90.00000
%ENDBLOCK LATTICE_ABC

%BLOCK POSITIONS_FRAC
  Li   0.2626835   0.3034480  -0.0309858 SPIN=   0.00000
  Li  -0.2626835  -0.3034480   0.4690142 SPIN=   0.00000
  Li   0.3034480  -0.2626835   0.2190142 SPIN=   0.00000
  Li  -0.3034480   0.2626835  -0.2809858 SPIN=   0.00000
   O  -0.5330794   0.1365282  -0.5181279 SPIN=   0.00000
   O  -0.2662847  -0.1094593  -0.3972729 SPIN=   0.00000
   O  -0.0392765   0.3651583  -0.4536380 SPIN=   0.00000
   O  -0.5443312   0.3956661  -0.3823663 SPIN=   0.00000
   P  -0.3580613   0.1960997  -0.4414708 SPIN=   0.00000
   O   0.5330794  -0.1365282  -0.0181279 SPIN=   0.00000
   O   0.2662847   0.1094593   0.1027271 SPIN=   0.00000
   O   0.0392765  -0.3651583   0.0463620 SPIN=   0.00000
   O   0.5443312  -0.3956661   0.1176337 SPIN=   0.00000
   P   0.3580613  -0.1960997   0.0585292 SPIN=   0.00000
   O   0.1365282   0.5330794  -0.2681279 SPIN=   0.00000
   O  -0.1094593   0.2662847  -0.1472729 SPIN=   0.00000
   O   0.3651583   0.0392765  -0.2036380 SPIN=   0.00000
   O   0.3956661   0.5443312  -0.1323663 SPIN=   0.00000
   P   0.1960997   0.3580613  -0.1914708 SPIN=   0.00000
   O  -0.1365282  -0.5330794   0.2318721 SPIN=   0.00000
   O   0.1094593  -0.2662847   0.3527271 SPIN=   0.00000
   O  -0.3651583  -0.0392765   0.2963620 SPIN=   0.00000
   O  -0.3956661  -0.5443312   0.3676337 SPIN=   0.00000
   P  -0.1960997  -0.3580613   0.3085292 SPIN=   0.00000
  Fe   0.1961845  -0.1988536  -0.3689284 SPIN=   4.00000
  Fe  -0.1961845   0.1988536   0.1310716 SPIN=   4.00000
  Fe  -0.1988536  -0.1961845  -0.1189284 SPIN=   4.00000
  Fe   0.1988536   0.1961845   0.3810716 SPIN=   4.00000
%ENDBLOCK POSITIONS_FRAC

# Note: total spin =  16.00

KPOINTS_MP_SPACING 0.07

%BLOCK SPECIES_POT
QC5
%ENDBLOCK SPECIES_POT

%BLOCK HUBBARD_U
Fe d:4.0
%ENDBLOCK HUBBARD_U

SNAP_TO_SYMMETRY
SYMMETRY_GENERATE

