#              Generated by Buildcell
#
# at 20:34:28 (GMT+0.0) 26th November 2020
# in /lustre/scratch/uccabz1/launch_tmp
# on node-c12h-022
# by uccabz1
#
# compiler GCC version 4.9.2
# options -cpp -iprefix /lustre/shared/ucl/apps/gcc/4.9.2/bin/../lib/gcc/x86_64-unknown-linux-gnu/4.9.2/ -mtune=corei7 -march=x86-64 -g -Og
#
# seed -1085856214 -1945984638 -1952843413  1638884420  1203695355  -666410251 -1207417948    -5720897 -2118614838   844817482 -1725653128   482128077
#
#      Author: C. J. Pickard (cjp20@cam.ac.uk)
#                Space group: Pc
#

%BLOCK LATTICE_ABC
      4.79912      7.61560      8.75593
     90.00000     90.00000     90.52441
%ENDBLOCK LATTICE_ABC

%BLOCK POSITIONS_FRAC
  Li   0.3024456  -0.1985206  -0.2330028 SPIN=   0.00000
  Li   0.3024456   0.3014794   0.2330028 SPIN=   0.00000
  Li   0.3086088  -0.2852586   0.1058140 SPIN=   0.00000
  Li   0.3086088   0.2147414  -0.1058140 SPIN=   0.00000
   O  -0.0416267   0.5619555  -0.3642985 SPIN=   0.00000
   O   0.3172951   0.4350353  -0.5560250 SPIN=   0.00000
   O   0.4713686   0.4946867  -0.2917654 SPIN=   0.00000
   O   0.1412043   0.2449732  -0.3428193 SPIN=   0.00000
   P   0.2070661   0.4387344  -0.3868846 SPIN=   0.00000
   O  -0.0416267   0.0619555   0.3642985 SPIN=   0.00000
   O   0.3172951  -0.0649647   0.5560250 SPIN=   0.00000
   O   0.4713686  -0.0053133   0.2917654 SPIN=   0.00000
   O   0.1412043  -0.2550268   0.3428193 SPIN=   0.00000
   P   0.2070661  -0.0612656   0.3868846 SPIN=   0.00000
   O  -0.2116082  -0.1353515  -0.3308656 SPIN=   0.00000
   O  -0.3009534   0.1705670  -0.2099948 SPIN=   0.00000
   O  -0.4330620  -0.0939490  -0.0626607 SPIN=   0.00000
   O   0.0717662  -0.0199187  -0.1004279 SPIN=   0.00000
   P  -0.2146742  -0.0258259  -0.1833421 SPIN=   0.00000
   O  -0.2116082   0.3646485   0.3308656 SPIN=   0.00000
   O  -0.3009534   0.6705670   0.2099948 SPIN=   0.00000
   O  -0.4330620   0.4060510   0.0626607 SPIN=   0.00000
   O   0.0717662   0.4800813   0.1004279 SPIN=   0.00000
   P  -0.2146742   0.4741741   0.1833421 SPIN=   0.00000
  Fe  -0.1871418  -0.4889189  -0.1423556 SPIN=   4.42768
  Fe  -0.1871418   0.0110811   0.1423556 SPIN=   4.42768
  Fe  -0.4091716   0.1598702  -0.4471587 SPIN=   3.57232
  Fe  -0.4091716  -0.3401298   0.4471587 SPIN=   3.57232
%ENDBLOCK POSITIONS_FRAC

# Note: total spin =  16.00

KPOINTS_MP_SPACING 0.07

%BLOCK SPECIES_POT
QC5
%ENDBLOCK SPECIES_POT

%BLOCK HUBBARD_U
Fe d:4.0
%ENDBLOCK HUBBARD_U

SNAP_TO_SYMMETRY
SYMMETRY_GENERATE

