#              Generated by Buildcell
#
# at 14:37:21 (GMT+0.0) 24th November 2020
# in /scratch/scratch/uccabz1/launch_tmp
# on node-a14f-029
# by uccabz1
#
# compiler GCC version 4.9.2
# options -cpp -iprefix /scratch/UCL/applications/gcc/4.9.2/bin/../lib/gcc/x86_64-unknown-linux-gnu/4.9.2/ -mtune=corei7 -march=x86-64 -g -O2
#
# seed -1965568147  2092375324 -1484824836 -2013874094  1396231262   703559049  1551228042  -251360391  -590288355   352361904    86139075  1455192203
#
#      Author: C. J. Pickard (cjp20@cam.ac.uk)
#                Space group: C2
#

%BLOCK LATTICE_ABC
      4.84440      4.84440      7.58787
    105.76105    108.01087     95.17772
%ENDBLOCK LATTICE_ABC

%BLOCK POSITIONS_FRAC
  Li  -0.3884854   0.1863152   0.0001518 SPIN=   0.00000
  Li   0.1861634  -0.3886371  -0.0001518 SPIN=   0.00000
   O  -0.2268387  -0.3950757  -0.2444153 SPIN=   0.00000
   O  -0.6352686  -0.0887633  -0.3224149 SPIN=   0.00000
   O  -0.7870275  -0.6223166  -0.4062116 SPIN=   0.00000
   P  -0.5420714  -0.3559151  -0.2539588 SPIN=   0.00000
   O  -0.1506604   0.0175766   0.2444153 SPIN=   0.00000
   O   0.2336516  -0.3128537   0.3224149 SPIN=   0.00000
   O  -0.2161050  -0.3808159   0.4062116 SPIN=   0.00000
   P  -0.1019563  -0.2881126   0.2539588 SPIN=   0.00000
   O   0.6260669   0.1260669   0.5000000 SPIN=   0.00000
   O   0.0732373   0.0732373  -0.0000000 SPIN=   0.00000
  Fe  -0.0635378  -0.0491954  -0.3235900 SPIN=   4.00000
  Fe   0.2743946   0.2600522   0.3235900 SPIN=   4.00000
%ENDBLOCK POSITIONS_FRAC

# Note: total spin =   8.00

KPOINTS_MP_SPACING 0.07

%BLOCK SPECIES_POT
QC5
%ENDBLOCK SPECIES_POT

%BLOCK HUBBARD_U
Fe d:4.0
%ENDBLOCK HUBBARD_U

SNAP_TO_SYMMETRY
SYMMETRY_GENERATE

