#              Generated by Buildcell
#
# at 09:27:54 (GMT+0.0) 24th November 2020
# in /lustre/scratch/uccabz1/launch_tmp
# on node-c12c-034
# by uccabz1
#
# compiler GCC version 4.9.2
# options -cpp -iprefix /lustre/shared/ucl/apps/gcc/4.9.2/bin/../lib/gcc/x86_64-unknown-linux-gnu/4.9.2/ -mtune=corei7 -march=x86-64 -g -Og
#
# seed -1546547027 -1307033046 -1546279419 -1222350594   149769355   878039864   -33253647  1862841558   373913276   884257262  1519632746 -2040082757
#
#      Author: C. J. Pickard (cjp20@cam.ac.uk)
#                Space group: Pc
#

%BLOCK LATTICE_ABC
      4.89902      5.47440      6.17926
     90.00000    105.10107     90.00000
%ENDBLOCK LATTICE_ABC

%BLOCK POSITIONS_FRAC
  Li   0.0127949   0.2158406  -0.1957698 SPIN=   0.00000
  Li   0.0127949  -0.2158406   0.3042302 SPIN=   0.00000
   O  -0.2599675  -0.0054713  -0.0666111 SPIN=   0.00000
   O  -0.6511563   0.1410698   0.1176643 SPIN=   0.00000
   O  -0.2349886   0.4060467   0.1471064 SPIN=   0.00000
   O  -0.5897163   0.3569030  -0.2238800 SPIN=   0.00000
   P  -0.4265313   0.2139458  -0.0122006 SPIN=   0.00000
   O  -0.2599675   0.0054713   0.4333889 SPIN=   0.00000
   O  -0.6511563  -0.1410698   0.6176643 SPIN=   0.00000
   O  -0.2349886  -0.4060467   0.6471064 SPIN=   0.00000
   O  -0.5897163  -0.3569030   0.2761200 SPIN=   0.00000
   P  -0.4265313  -0.2139458   0.4877994 SPIN=   0.00000
  Fe   0.3941284   0.2840596   0.4394574 SPIN=   4.00000
  Fe   0.3941284  -0.2840596  -0.0605426 SPIN=   4.00000
%ENDBLOCK POSITIONS_FRAC

# Note: total spin =   8.00

KPOINTS_MP_SPACING 0.07

%BLOCK SPECIES_POT
QC5
%ENDBLOCK SPECIES_POT

%BLOCK HUBBARD_U
Fe d:4.0
%ENDBLOCK HUBBARD_U

SNAP_TO_SYMMETRY
SYMMETRY_GENERATE

