#              Generated by Buildcell
#
# at 09:27:58 (GMT+0.0) 24th November 2020
# in /scratch/scratch/uccabz1/launch_tmp
# on node-a14f-015
# by uccabz1
#
# compiler GCC version 4.9.2
# options -cpp -iprefix /scratch/UCL/applications/gcc/4.9.2/bin/../lib/gcc/x86_64-unknown-linux-gnu/4.9.2/ -mtune=corei7 -march=x86-64 -g -O2
#
# seed    74835251  2033474028 -1684382483   843643423   368010967   -71748518 -1608672649  -592955207  -181923315  2076432482 -1526632073  1944153790
#
#      Author: C. J. Pickard (cjp20@cam.ac.uk)
#                Space group: P-1
#

%BLOCK LATTICE_ABC
      5.68398      5.94605      6.06765
    114.95973    112.71221     97.94155
%ENDBLOCK LATTICE_ABC

%BLOCK POSITIONS_FRAC
  Li  -0.7658208  -0.2897782  -0.4474455 SPIN=   0.00000
  Li   0.7658208   0.2897782   0.4474455 SPIN=   0.00000
   O   0.7857519   0.0981304  -0.3020613 SPIN=   0.00000
   O   0.8631975   0.4288777   0.1893348 SPIN=   0.00000
   O   0.4263944   0.2988639  -0.2256139 SPIN=   0.00000
   P   0.6548162   0.1900406  -0.1162029 SPIN=   0.00000
   O  -0.7857519  -0.0981304   0.3020613 SPIN=   0.00000
   O  -0.8631975  -0.4288777  -0.1893348 SPIN=   0.00000
   O  -0.4263944  -0.2988639   0.2256139 SPIN=   0.00000
   P  -0.6548162  -0.1900406   0.1162029 SPIN=   0.00000
   O   0.5000000   0.5000000   0.5000000 SPIN=   0.00000
   O   0.5000000   0.0000000   0.0000000 SPIN=   0.00000
  Fe   0.2074648   0.2663937  -0.0233866 SPIN=   4.00000
  Fe  -0.2074648  -0.2663937   0.0233866 SPIN=   4.00000
%ENDBLOCK POSITIONS_FRAC

# Note: total spin =   8.00

KPOINTS_MP_SPACING 0.07

%BLOCK SPECIES_POT
QC5
%ENDBLOCK SPECIES_POT

%BLOCK HUBBARD_U
Fe d:4.0
%ENDBLOCK HUBBARD_U

SNAP_TO_SYMMETRY
SYMMETRY_GENERATE

