#              Generated by Buildcell
#
# at 11:26:47 (GMT+0.0) 24th November 2020
# in /scratch/scratch/uccabz1/launch_tmp
# on node-a14f-010
# by uccabz1
#
# compiler GCC version 4.9.2
# options -cpp -iprefix /scratch/UCL/applications/gcc/4.9.2/bin/../lib/gcc/x86_64-unknown-linux-gnu/4.9.2/ -mtune=corei7 -march=x86-64 -g -O2
#
# seed   199541961  2027597976  1723786602  -137447410   -91741177  -768787016   220783667  -787087087  1740996417  1061714409  2133034342   856896378
#
#      Author: C. J. Pickard (cjp20@cam.ac.uk)
#                Space group: P-1
#

%BLOCK LATTICE_ABC
      4.58829      5.18404      7.48136
     98.00133    107.52975    104.27509
%ENDBLOCK LATTICE_ABC

%BLOCK POSITIONS_FRAC
  Li   0.0000000   0.5000000  -0.5000000 SPIN=   0.00000
  Li   0.5000000  -0.0000000   0.5000000 SPIN=   0.00000
   O   0.6017590   0.3133545  -0.0492366 SPIN=   0.00000
   O   0.2199495   0.2113914  -0.4041765 SPIN=   0.00000
   O   0.3015809  -0.1787277  -0.2616418 SPIN=   0.00000
   O  -0.0120962   0.1008227  -0.1508260 SPIN=   0.00000
   P   0.2916265   0.1223183  -0.2067912 SPIN=   0.00000
   O  -0.6017590  -0.3133545   0.0492366 SPIN=   0.00000
   O  -0.2199495  -0.2113914   0.4041765 SPIN=   0.00000
   O  -0.3015809   0.1787277   0.2616418 SPIN=   0.00000
   O   0.0120962  -0.1008227   0.1508260 SPIN=   0.00000
   P  -0.2916265  -0.1223183   0.2067912 SPIN=   0.00000
  Fe  -0.2915264  -0.3435973  -0.1664562 SPIN=   4.00000
  Fe   0.2915264   0.3435973   0.1664562 SPIN=   4.00000
%ENDBLOCK POSITIONS_FRAC

# Note: total spin =   8.00

KPOINTS_MP_SPACING 0.07

%BLOCK SPECIES_POT
QC5
%ENDBLOCK SPECIES_POT

%BLOCK HUBBARD_U
Fe d:4.0
%ENDBLOCK HUBBARD_U

SNAP_TO_SYMMETRY
SYMMETRY_GENERATE

