#              Generated by Buildcell
#
# at 14:23:58 (GMT+0.0) 24th November 2020
# in /scratch/scratch/uccabz1/launch_tmp
# on node-a14a-009
# by uccabz1
#
# compiler GCC version 4.9.2
# options -cpp -iprefix /scratch/UCL/applications/gcc/4.9.2/bin/../lib/gcc/x86_64-unknown-linux-gnu/4.9.2/ -mtune=corei7 -march=x86-64 -g -O2
#
# seed  -328212976   672421477  -223125787  -336393503   383458073  -677673350   589834416 -1215439797   380527376  -521279529  1952562208  1402568892
#
#      Author: C. J. Pickard (cjp20@cam.ac.uk)
#                Space group: Aem2
#

%BLOCK LATTICE_ABC
      3.91981      6.47572      6.47572
    103.25213     90.00000     90.00000
%ENDBLOCK LATTICE_ABC

%BLOCK POSITIONS_FRAC
  Li   0.0000050   0.0696822  -0.4303178 SPIN=   0.00000
  Li  -0.0000050  -0.4303178   0.0696822 SPIN=   0.00000
   O   0.3986810   0.0932305   0.3499116 SPIN=   0.00000
   O  -0.1211462  -0.1024345   0.1448047 SPIN=   0.00000
   O  -0.3986810   0.3499116   0.0932305 SPIN=   0.00000
   O   0.1211462   0.1448047  -0.1024345 SPIN=   0.00000
   O   0.3986810  -0.1500884   0.5932305 SPIN=   0.00000
   O  -0.1211462  -0.3551953   0.3975655 SPIN=   0.00000
   O  -0.3986810   0.5932305  -0.1500884 SPIN=   0.00000
   O   0.1211462   0.3975655  -0.3551953 SPIN=   0.00000
   P  -0.4999893  -0.1596700   0.3403300 SPIN=   0.00000
   P   0.4999893   0.3403300  -0.1596700 SPIN=   0.00000
  Fe   0.5000000  -0.0780214  -0.0780214 SPIN=   4.00000
  Fe  -0.5000000   0.4219786   0.4219786 SPIN=   4.00000
%ENDBLOCK POSITIONS_FRAC

# Note: total spin =   8.00

KPOINTS_MP_SPACING 0.07

%BLOCK SPECIES_POT
QC5
%ENDBLOCK SPECIES_POT

%BLOCK HUBBARD_U
Fe d:4.0
%ENDBLOCK HUBBARD_U

SNAP_TO_SYMMETRY
SYMMETRY_GENERATE

