#              Generated by Buildcell
#
# at 14:39:22 (GMT+0.0) 24th November 2020
# in /scratch/scratch/uccabz1/launch_tmp
# on node-a14e-013
# by uccabz1
#
# compiler GCC version 4.9.2
# options -cpp -iprefix /scratch/UCL/applications/gcc/4.9.2/bin/../lib/gcc/x86_64-unknown-linux-gnu/4.9.2/ -mtune=corei7 -march=x86-64 -g -O2
#
# seed  1570316608  1229540134 -1089970984   107131968   -71329200  -683535631  -889800765   376074821  -974885586 -1711096664 -1405827898   243875987
#
#      Author: C. J. Pickard (cjp20@cam.ac.uk)
#                Space group: P-1
#

%BLOCK LATTICE_ABC
      3.90922      6.05545      7.08867
     93.90627    105.02671     96.96461
%ENDBLOCK LATTICE_ABC

%BLOCK POSITIONS_FRAC
  Li   0.0000000   0.0000000  -0.5000000 SPIN=   0.00000
  Li   0.0000000   0.5000000   0.5000000 SPIN=   0.00000
   O  -0.5034312   0.2117236  -0.4373326 SPIN=   0.00000
   O  -0.0066965   0.0374363  -0.2005611 SPIN=   0.00000
   O   0.0652258   0.4481430  -0.2022897 SPIN=   0.00000
   O  -0.4028617   0.2578665  -0.0611588 SPIN=   0.00000
   P  -0.2297144   0.2375761  -0.2346859 SPIN=   0.00000
   O   0.5034312  -0.2117236   0.4373326 SPIN=   0.00000
   O   0.0066965  -0.0374363   0.2005611 SPIN=   0.00000
   O  -0.0652258  -0.4481430   0.2022897 SPIN=   0.00000
   O   0.4028617  -0.2578665   0.0611588 SPIN=   0.00000
   P   0.2297144  -0.2375761   0.2346859 SPIN=   0.00000
  Fe  -0.2893119  -0.2778861  -0.1415542 SPIN=   4.00000
  Fe   0.2893119   0.2778861   0.1415542 SPIN=   4.00000
%ENDBLOCK POSITIONS_FRAC

# Note: total spin =   8.00

KPOINTS_MP_SPACING 0.07

%BLOCK SPECIES_POT
QC5
%ENDBLOCK SPECIES_POT

%BLOCK HUBBARD_U
Fe d:4.0
%ENDBLOCK HUBBARD_U

SNAP_TO_SYMMETRY
SYMMETRY_GENERATE

