#              Generated by Buildcell
#
# at 00:49:33 (GMT+0.0) 27th November 2020
# in /lustre/scratch/uccabz1/launch_tmp
# on node-c12g-022
# by uccabz1
#
# compiler GCC version 4.9.2
# options -cpp -iprefix /lustre/shared/ucl/apps/gcc/4.9.2/bin/../lib/gcc/x86_64-unknown-linux-gnu/4.9.2/ -mtune=corei7 -march=x86-64 -g -Og
#
# seed  -454158852   405141005  -833692039  2054116417   921575753 -1544098141  1392038423  -971536686  1673491525  -695941024   266261045 -1819705173
#
#      Author: C. J. Pickard (cjp20@cam.ac.uk)
#                Space group: Pnn2
#

%BLOCK LATTICE_ABC
      3.94878      8.23875      9.83616
     90.00000     90.00000     90.00000
%ENDBLOCK LATTICE_ABC

%BLOCK POSITIONS_FRAC
  Li  -0.5000000   0.5000000  -0.2417481 SPIN=   0.00000
  Li   0.0000000   0.0000000   0.2582519 SPIN=   0.00000
  Li  -0.0000000   0.5000000   0.1627226 SPIN=   0.00000
  Li   0.5000000   0.0000000  -0.3372774 SPIN=   0.00000
   O   0.4190549  -0.3557749  -0.0130979 SPIN=   0.00000
   O   0.7104356  -0.1098957   0.1038166 SPIN=   0.00000
   O   0.2099504  -0.2315832   0.2147163 SPIN=   0.00000
   P   0.5213275  -0.2764705   0.1223384 SPIN=   0.00000
   O  -0.4190549   0.3557749  -0.0130979 SPIN=   0.00000
   O  -0.7104356   0.1098957   0.1038166 SPIN=   0.00000
   O  -0.2099504   0.2315832   0.2147163 SPIN=   0.00000
   P  -0.5213275   0.2764705   0.1223384 SPIN=   0.00000
   O  -0.0809451  -0.1442251  -0.5130979 SPIN=   0.00000
   O   0.2104356  -0.3901043  -0.3961834 SPIN=   0.00000
   O  -0.2900496  -0.2684168  -0.2852837 SPIN=   0.00000
   P   0.0213275  -0.2235295  -0.3776616 SPIN=   0.00000
   O   0.0809451   0.1442251  -0.5130979 SPIN=   0.00000
   O  -0.2104356   0.3901043  -0.3961834 SPIN=   0.00000
   O   0.2900496   0.2684168  -0.2852837 SPIN=   0.00000
   P  -0.0213275   0.2235295  -0.3776616 SPIN=   0.00000
   O  -0.0000000   0.5000000   0.3864358 SPIN=   0.00000
   O   0.5000000   0.0000000  -0.1135642 SPIN=   0.00000
   O   0.5000000   0.5000000   0.2364256 SPIN=   0.00000
   O  -0.0000000   0.0000000  -0.2635744 SPIN=   0.00000
  Fe  -0.4982323   0.2652742   0.4100795 SPIN=   4.00000
  Fe   0.4982323  -0.2652742   0.4100795 SPIN=   4.00000
  Fe   0.0017677   0.2347258  -0.0899205 SPIN=   4.00000
  Fe  -0.0017677  -0.2347258  -0.0899205 SPIN=   4.00000
%ENDBLOCK POSITIONS_FRAC

# Note: total spin =  16.00

KPOINTS_MP_SPACING 0.07

%BLOCK SPECIES_POT
QC5
%ENDBLOCK SPECIES_POT

%BLOCK HUBBARD_U
Fe d:4.0
%ENDBLOCK HUBBARD_U

SNAP_TO_SYMMETRY
SYMMETRY_GENERATE

