#              Generated by Buildcell
#
# at 12:00:01 (GMT+0.0) 24th November 2020
# in /scratch/scratch/uccabz1/launch_tmp
# on node-a14f-013
# by uccabz1
#
# compiler GCC version 4.9.2
# options -cpp -iprefix /scratch/UCL/applications/gcc/4.9.2/bin/../lib/gcc/x86_64-unknown-linux-gnu/4.9.2/ -mtune=corei7 -march=x86-64 -g -O2
#
# seed    65717777  1269120286  -791265472   501768187    75255219  1281186627  1547768882 -1818032800 -1420768883   319902079 -1259854135   931613581
#
#      Author: C. J. Pickard (cjp20@cam.ac.uk)
#                Space group: C2
#

%BLOCK LATTICE_ABC
      4.31178      4.31178      8.97292
     96.86881     96.86881    102.30122
%ENDBLOCK LATTICE_ABC

%BLOCK POSITIONS_FRAC
  Li   0.4952562  -0.4952562   0.5000000 SPIN=   0.00000
  Li  -0.2685717   0.2685717   0.0000000 SPIN=   0.00000
   O  -0.2360830  -0.0311885   0.3183064 SPIN=   0.00000
   O  -0.0076785   0.5431450   0.4676739 SPIN=   0.00000
   O   0.2004912   0.3944984   0.2310274 SPIN=   0.00000
   P  -0.1112987   0.3261770   0.3080672 SPIN=   0.00000
   O   0.0311885   0.2360830  -0.3183064 SPIN=   0.00000
   O  -0.5431450   0.0076785  -0.4676739 SPIN=   0.00000
   O  -0.3944984  -0.2004912  -0.2310274 SPIN=   0.00000
   P  -0.3261770   0.1112987  -0.3080672 SPIN=   0.00000
   O   0.0489108  -0.0489108   0.0000000 SPIN=   0.00000
   O   0.4166959  -0.4166959   0.0000000 SPIN=   0.00000
  Fe   0.2735119  -0.1117743   0.2223552 SPIN=   4.00000
  Fe   0.1117743  -0.2735119  -0.2223552 SPIN=   4.00000
%ENDBLOCK POSITIONS_FRAC

# Note: total spin =   8.00

KPOINTS_MP_SPACING 0.07

%BLOCK SPECIES_POT
QC5
%ENDBLOCK SPECIES_POT

%BLOCK HUBBARD_U
Fe d:4.0
%ENDBLOCK HUBBARD_U

SNAP_TO_SYMMETRY
SYMMETRY_GENERATE

