#              Generated by Buildcell
#
# at 21:58:20 (GMT+0.0) 26th November 2020
# in /lustre/scratch/uccabz1/launch_tmp
# on node-c12l-022
# by uccabz1
#
# compiler GCC version 4.9.2
# options -cpp -iprefix /lustre/shared/ucl/apps/gcc/4.9.2/bin/../lib/gcc/x86_64-unknown-linux-gnu/4.9.2/ -mtune=corei7 -march=x86-64 -g -Og
#
# seed   742946589 -2091829529 -1781510482   610351935  1364725195 -1817609322  1870330245 -1007845849 -1130790225 -1772995959    78648965 -1925330143
#
#      Author: C. J. Pickard (cjp20@cam.ac.uk)
#                Space group: Pm
#

%BLOCK LATTICE_ABC
      5.34007      5.61867     10.66536
     90.00000     90.00000     90.30727
%ENDBLOCK LATTICE_ABC

%BLOCK POSITIONS_FRAC
  Li  -0.4225184   0.0166293   0.0000000 SPIN=   0.00000
  Li   0.0241158   0.4591927  -0.0000000 SPIN=   0.00000
  Li  -0.1092993   0.1534556   0.5000000 SPIN=   0.00000
  Li   0.3975992  -0.2491998   0.5000000 SPIN=   0.00000
   O   0.0960017  -0.4177057   0.1818649 SPIN=   0.00000
   O   0.0911017  -0.1618997   0.3847686 SPIN=   0.00000
   O  -0.1388341  -0.5445088   0.3846874 SPIN=   0.00000
   O   0.3301288  -0.5441490   0.3828314 SPIN=   0.00000
   O   0.0960017  -0.4177057  -0.1818649 SPIN=   0.00000
   O   0.0911017  -0.1618997  -0.3847686 SPIN=   0.00000
   O  -0.1388341  -0.5445088  -0.3846874 SPIN=   0.00000
   O   0.3301288  -0.5441490  -0.3828314 SPIN=   0.00000
   O  -0.5708317  -0.1132363   0.1697364 SPIN=   0.00000
   O  -0.4026441   0.0948454   0.3705630 SPIN=   0.00000
   O  -0.1061983   0.0153750   0.1979852 SPIN=   0.00000
   O  -0.4340136   0.3283810   0.1712309 SPIN=   0.00000
   O  -0.5708317  -0.1132363  -0.1697364 SPIN=   0.00000
   O  -0.4026441   0.0948454  -0.3705630 SPIN=   0.00000
   O  -0.1061983   0.0153750  -0.1979852 SPIN=   0.00000
   O  -0.4340136   0.3283810  -0.1712309 SPIN=   0.00000
   P  -0.4747506   0.4907862   0.0000000 SPIN=   0.00000
   P   0.0764645  -0.0150195   0.0000000 SPIN=   0.00000
   P   0.3960410   0.2272288   0.5000000 SPIN=   0.00000
   P  -0.1010051  -0.3213686   0.5000000 SPIN=   0.00000
  Fe   0.2373105   0.1795257  -0.2457999 SPIN=   4.52212
  Fe   0.2373105   0.1795257   0.2457999 SPIN=   4.52212
  Fe  -0.2652019  -0.3173234  -0.2433924 SPIN=   3.47788
  Fe  -0.2652019  -0.3173234   0.2433924 SPIN=   3.47788
%ENDBLOCK POSITIONS_FRAC

# Note: total spin =  16.00

KPOINTS_MP_SPACING 0.07

%BLOCK SPECIES_POT
QC5
%ENDBLOCK SPECIES_POT

%BLOCK HUBBARD_U
Fe d:4.0
%ENDBLOCK HUBBARD_U

SNAP_TO_SYMMETRY
SYMMETRY_GENERATE

