#              Generated by Buildcell
#
# at 01:09:57 (GMT+0.0) 27th November 2020
# in /lustre/scratch/uccabz1/launch_tmp
# on node-c12f-025
# by uccabz1
#
# compiler GCC version 4.9.2
# options -cpp -iprefix /lustre/shared/ucl/apps/gcc/4.9.2/bin/../lib/gcc/x86_64-unknown-linux-gnu/4.9.2/ -mtune=corei7 -march=x86-64 -g -Og
#
# seed  -253333983 -1202130743  -523858363   -16430470   331008057   485833595  -476549463 -2027332917 -1480399392 -1429677524  1125119307  1167407157
#
#      Author: C. J. Pickard (cjp20@cam.ac.uk)
#                Space group: P21
#

%BLOCK LATTICE_ABC
      6.31431      7.24554      7.62739
     90.00000    113.50611     90.00000
%ENDBLOCK LATTICE_ABC

%BLOCK POSITIONS_FRAC
  Li   0.3963337   0.4846889  -0.4705473 SPIN=   0.00000
  Li  -0.3963337  -0.0153111   0.4705473 SPIN=   0.00000
  Li   0.0302020  -0.1572252  -0.2006021 SPIN=   0.00000
  Li  -0.0302020   0.3427748   0.2006021 SPIN=   0.00000
   O   0.0978263  -0.3974143   0.3199097 SPIN=   0.00000
   O   0.1278756  -0.3867173   0.6695381 SPIN=   0.00000
   O  -0.1985538  -0.2263135   0.4194916 SPIN=   0.00000
   O  -0.1879301  -0.5718375   0.4259629 SPIN=   0.00000
   P  -0.0345899  -0.3977490   0.4509477 SPIN=   0.00000
   O  -0.0978263   0.1025857  -0.3199097 SPIN=   0.00000
   O  -0.1278756   0.1132827  -0.6695381 SPIN=   0.00000
   O   0.1985538   0.2736865  -0.4194916 SPIN=   0.00000
   O   0.1879301  -0.0718375  -0.4259629 SPIN=   0.00000
   P   0.0345899   0.1022510  -0.4509477 SPIN=   0.00000
   O  -0.5527355  -0.1909391  -0.1009674 SPIN=   0.00000
   O  -0.4300006  -0.5158414  -0.1703805 SPIN=   0.00000
   O  -0.4094859  -0.2543619  -0.3707940 SPIN=   0.00000
   O  -0.1279217  -0.2723551  -0.0291797 SPIN=   0.00000
   P  -0.3862561  -0.3016965  -0.1626340 SPIN=   0.00000
   O   0.5527355   0.3090609   0.1009674 SPIN=   0.00000
   O   0.4300006  -0.0158414   0.1703805 SPIN=   0.00000
   O   0.4094859   0.2456381   0.3707940 SPIN=   0.00000
   O   0.1279217   0.2276449   0.0291797 SPIN=   0.00000
   P   0.3862561   0.1983035   0.1626340 SPIN=   0.00000
  Fe  -0.0519331   0.3933174  -0.2365231 SPIN=   4.52162
  Fe   0.0519331  -0.1066826   0.2365231 SPIN=   4.52162
  Fe  -0.4887132  -0.4121420   0.1552447 SPIN=   3.47838
  Fe   0.4887132   0.0878580  -0.1552447 SPIN=   3.47838
%ENDBLOCK POSITIONS_FRAC

# Note: total spin =  16.00

KPOINTS_MP_SPACING 0.07

%BLOCK SPECIES_POT
QC5
%ENDBLOCK SPECIES_POT

%BLOCK HUBBARD_U
Fe d:4.0
%ENDBLOCK HUBBARD_U

SNAP_TO_SYMMETRY
SYMMETRY_GENERATE

