#              Generated by Buildcell
#
# at 10:06:36 (GMT+0.0) 24th November 2020
# in /lustre/scratch/uccabz1/launch_tmp
# on node-c12b-020
# by uccabz1
#
# compiler GCC version 4.9.2
# options -cpp -iprefix /lustre/shared/ucl/apps/gcc/4.9.2/bin/../lib/gcc/x86_64-unknown-linux-gnu/4.9.2/ -mtune=corei7 -march=x86-64 -g -Og
#
# seed  -201340681 -1461115023  1135922074 -1550919881  1813692342 -1796359797   242726171  1308245614  1690969080  2089247251   -62552729  -750357721
#
#      Author: C. J. Pickard (cjp20@cam.ac.uk)
#                Space group: C2
#

%BLOCK LATTICE_ABC
      4.81989      4.81989      7.52318
     90.00160     90.00160    113.72719
%ENDBLOCK LATTICE_ABC

%BLOCK POSITIONS_FRAC
  Li  -0.4107227  -0.0893371   0.4013806 SPIN=   0.00000
  Li   0.0893371   0.4107227  -0.4013806 SPIN=   0.00000
   O  -0.1904282  -0.3505027  -0.4323312 SPIN=   0.00000
   O  -0.5263540  -0.3645949  -0.1595292 SPIN=   0.00000
   O  -0.0865015  -0.4966685  -0.1144630 SPIN=   0.00000
   O  -0.0011945   0.0416149  -0.1782033 SPIN=   0.00000
   P  -0.1981910  -0.2916808  -0.2318704 SPIN=   0.00000
   O   0.3505027   0.1904282   0.4323312 SPIN=   0.00000
   O   0.3645949   0.5263540   0.1595292 SPIN=   0.00000
   O   0.4966685   0.0865015   0.1144630 SPIN=   0.00000
   O  -0.0416149   0.0011945   0.1782033 SPIN=   0.00000
   P   0.2916808   0.1981910   0.2318704 SPIN=   0.00000
  Fe  -0.0557939  -0.4444002   0.1892512 SPIN=   4.00000
  Fe   0.4444002   0.0557939  -0.1892512 SPIN=   4.00000
%ENDBLOCK POSITIONS_FRAC

# Note: total spin =   8.00

KPOINTS_MP_SPACING 0.07

%BLOCK SPECIES_POT
QC5
%ENDBLOCK SPECIES_POT

%BLOCK HUBBARD_U
Fe d:4.0
%ENDBLOCK HUBBARD_U

SNAP_TO_SYMMETRY
SYMMETRY_GENERATE

