#              Generated by Buildcell
#
# at 19:38:24 (GMT+0.0) 26th November 2020
# in /lustre/scratch/uccabz1/launch_tmp
# on node-c12f-031
# by uccabz1
#
# compiler GCC version 4.9.2
# options -cpp -iprefix /lustre/shared/ucl/apps/gcc/4.9.2/bin/../lib/gcc/x86_64-unknown-linux-gnu/4.9.2/ -mtune=corei7 -march=x86-64 -g -Og
#
# seed  1794546748   322346876  -490138745  2034464023   582850192 -1156950015  1504684903 -1095000297   697261886 -1908834198   765010158  -253427165
#
#      Author: C. J. Pickard (cjp20@cam.ac.uk)
#                Space group: Pc
#

%BLOCK LATTICE_ABC
      5.66139      6.61673      8.72001
     90.00000     90.00000    101.58171
%ENDBLOCK LATTICE_ABC

%BLOCK POSITIONS_FRAC
  Li   0.4644149   0.2538557   0.3049413 SPIN=   0.00000
  Li  -0.0355851  -0.2461443  -0.3049413 SPIN=   0.00000
  Li   0.4332885  -0.4368309  -0.3458696 SPIN=   0.00000
  Li  -0.0667115   0.0631691   0.3458696 SPIN=   0.00000
   O   0.0154133   0.3145590  -0.4758033 SPIN=   0.00000
   O   0.1684372  -0.0293902  -0.4564706 SPIN=   0.00000
   O   0.3349333   0.2520245  -0.2769755 SPIN=   0.00000
   O  -0.0931625   0.0645504  -0.2474397 SPIN=   0.00000
   P   0.0992053   0.1581611  -0.3687386 SPIN=   0.00000
   O  -0.4845867  -0.1854410   0.4758033 SPIN=   0.00000
   O  -0.3315628  -0.5293902   0.4564706 SPIN=   0.00000
   O  -0.1650667  -0.2479755   0.2769755 SPIN=   0.00000
   O  -0.5931625  -0.4354496   0.2474397 SPIN=   0.00000
   P  -0.4007947  -0.3418389   0.3687386 SPIN=   0.00000
   O   0.0111278  -0.5152870  -0.1890709 SPIN=   0.00000
   O   0.3135822  -0.6237338   0.0031551 SPIN=   0.00000
   O   0.4263163  -0.2840500  -0.1233956 SPIN=   0.00000
   O   0.1002943  -0.3406065   0.0753130 SPIN=   0.00000
   P   0.2007625  -0.4436952  -0.0638727 SPIN=   0.00000
   O  -0.4888722  -0.0152870   0.1890709 SPIN=   0.00000
   O  -0.1864178  -0.1237338  -0.0031551 SPIN=   0.00000
   O  -0.0736837   0.2159500   0.1233956 SPIN=   0.00000
   O  -0.3997057   0.1593935  -0.0753130 SPIN=   0.00000
   P  -0.2992375   0.0563048   0.0638727 SPIN=   0.00000
  Fe   0.0773215  -0.4270810   0.3550434 SPIN=   4.27427
  Fe  -0.4226785   0.0729190  -0.3550434 SPIN=   4.27427
  Fe  -0.3115555   0.4739152  -0.0186100 SPIN=   3.72573
  Fe   0.1884445  -0.0260848   0.0186100 SPIN=   3.72573
%ENDBLOCK POSITIONS_FRAC

# Note: total spin =  16.00

KPOINTS_MP_SPACING 0.07

%BLOCK SPECIES_POT
QC5
%ENDBLOCK SPECIES_POT

%BLOCK HUBBARD_U
Fe d:4.0
%ENDBLOCK HUBBARD_U

SNAP_TO_SYMMETRY
SYMMETRY_GENERATE

