#              Generated by Buildcell
#
# at 11:46:40 (GMT+0.0) 24th November 2020
# in /lustre/scratch/uccabz1/launch_tmp
# on node-c12d-032
# by uccabz1
#
# compiler GCC version 4.9.2
# options -cpp -iprefix /lustre/shared/ucl/apps/gcc/4.9.2/bin/../lib/gcc/x86_64-unknown-linux-gnu/4.9.2/ -mtune=corei7 -march=x86-64 -g -Og
#
# seed  -524433882 -1149008129  -457755111  -850580066  1714236642      876057  1209407749  1906263398  1005185335  -668035026  1218821595  -994693824
#
#      Author: C. J. Pickard (cjp20@cam.ac.uk)
#                Space group: Cc
#

%BLOCK LATTICE_ABC
      4.86432      6.30178      6.30178
    117.09798    101.02594    101.02594
%ENDBLOCK LATTICE_ABC

%BLOCK POSITIONS_FRAC
  Li  -0.1042766   0.4755188  -0.3552412 SPIN=   0.00000
  Li   0.3957234  -0.3552412   0.4755188 SPIN=   0.00000
   O  -0.1719391   0.0073232  -0.0955791 SPIN=   0.00000
   O   0.2789309   0.1233508  -0.2312984 SPIN=   0.00000
   O  -0.0992573  -0.2938039  -0.5147114 SPIN=   0.00000
   O  -0.2204638   0.0922294  -0.4630140 SPIN=   0.00000
   P  -0.0614796  -0.0150938  -0.3154890 SPIN=   0.00000
   O   0.3280609  -0.0955791   0.0073232 SPIN=   0.00000
   O   0.7789309  -0.2312984   0.1233508 SPIN=   0.00000
   O   0.4007427  -0.5147114  -0.2938039 SPIN=   0.00000
   O   0.2795362  -0.4630140   0.0922294 SPIN=   0.00000
   P   0.4385204  -0.3154890  -0.0150938 SPIN=   0.00000
  Fe   0.1928414   0.0482325   0.3337687 SPIN=   4.00000
  Fe  -0.3071586   0.3337687   0.0482325 SPIN=   4.00000
%ENDBLOCK POSITIONS_FRAC

# Note: total spin =   8.00

KPOINTS_MP_SPACING 0.07

%BLOCK SPECIES_POT
QC5
%ENDBLOCK SPECIES_POT

%BLOCK HUBBARD_U
Fe d:4.0
%ENDBLOCK HUBBARD_U

SNAP_TO_SYMMETRY
SYMMETRY_GENERATE

