#              Generated by Buildcell
#
# at 09:58:39 (GMT+0.0) 24th November 2020
# in /lustre/scratch/uccabz1/launch_tmp
# on node-c12p-031
# by uccabz1
#
# compiler GCC version 4.9.2
# options -cpp -iprefix /lustre/shared/ucl/apps/gcc/4.9.2/bin/../lib/gcc/x86_64-unknown-linux-gnu/4.9.2/ -mtune=corei7 -march=x86-64 -g -Og
#
# seed    24028655   387047860  -476528320  -249937150  -217490584 -1927103083  -625213283   826554329  1962949215   213309172  -735416049  1573976917
#
#      Author: C. J. Pickard (cjp20@cam.ac.uk)
#                Space group: P-1
#

%BLOCK LATTICE_ABC
      4.02972      6.05242      7.00348
     79.43236     85.13890     72.42737
%ENDBLOCK LATTICE_ABC

%BLOCK POSITIONS_FRAC
  Li   0.5000000  -0.5000000  -0.5000000 SPIN=   0.00000
  Li   0.5000000  -0.5000000   0.0000000 SPIN=   0.00000
   O  -0.0332242   0.2101789   0.5009342 SPIN=   0.00000
   O   0.4739842   0.3079458   0.2817210 SPIN=   0.00000
   O   0.0632691   0.1574817   0.1385198 SPIN=   0.00000
   O  -0.1366509   0.5638776   0.2205068 SPIN=   0.00000
   P   0.0824888   0.3075604   0.2961295 SPIN=   0.00000
   O   0.0332242  -0.2101789  -0.5009342 SPIN=   0.00000
   O  -0.4739842  -0.3079458  -0.2817210 SPIN=   0.00000
   O  -0.0632691  -0.1574817  -0.1385198 SPIN=   0.00000
   O   0.1366509  -0.5638776  -0.2205068 SPIN=   0.00000
   P  -0.0824888  -0.3075604  -0.2961295 SPIN=   0.00000
  Fe   0.2721283   0.0483895  -0.2464585 SPIN=   4.00000
  Fe  -0.2721283  -0.0483895   0.2464585 SPIN=   4.00000
%ENDBLOCK POSITIONS_FRAC

# Note: total spin =   8.00

KPOINTS_MP_SPACING 0.07

%BLOCK SPECIES_POT
QC5
%ENDBLOCK SPECIES_POT

%BLOCK HUBBARD_U
Fe d:4.0
%ENDBLOCK HUBBARD_U

SNAP_TO_SYMMETRY
SYMMETRY_GENERATE

