#              Generated by Buildcell
#
# at 06:17:02 (GMT+0.0) 24th November 2020
# in /lustre/scratch/uccabz1/launch_tmp
# on node-c12o-023
# by uccabz1
#
# compiler GCC version 4.9.2
# options -cpp -iprefix /lustre/shared/ucl/apps/gcc/4.9.2/bin/../lib/gcc/x86_64-unknown-linux-gnu/4.9.2/ -mtune=corei7 -march=x86-64 -g -Og
#
# seed  1688277015   471078659   998330165  2109537900 -1852219205   464983561  1491347227  1663397301  -310866697 -1456245451  1685739653 -1133783678
#
#      Author: C. J. Pickard (cjp20@cam.ac.uk)
#                Space group: P2/c
#

%BLOCK LATTICE_ABC
      3.89066      4.17831      9.85229
     92.58432     90.00000     90.00000
%ENDBLOCK LATTICE_ABC

%BLOCK POSITIONS_FRAC
  Li  -0.0000000  -0.0000000   0.0000000 SPIN=   0.00000
  Li  -0.0000000  -0.0000000  -0.5000000 SPIN=   0.00000
   O   0.2384848  -0.2873489   0.3444498 SPIN=   0.00000
   O   0.5711108   0.2323149   0.4161375 SPIN=   0.00000
   O   0.2384848   0.2873489   0.1555502 SPIN=   0.00000
   O   0.5711108  -0.2323149   0.0838625 SPIN=   0.00000
   O  -0.2384848   0.2873489  -0.3444498 SPIN=   0.00000
   O  -0.5711108  -0.2323149  -0.4161375 SPIN=   0.00000
   O  -0.2384848  -0.2873489  -0.1555502 SPIN=   0.00000
   O  -0.5711108   0.2323149  -0.0838625 SPIN=   0.00000
   P   0.2700182   0.0000000   0.2500000 SPIN=   0.00000
   P  -0.2700182   0.0000000  -0.2500000 SPIN=   0.00000
  Fe   0.2314933   0.5000000  -0.2500000 SPIN=   4.00000
  Fe  -0.2314933  -0.5000000   0.2500000 SPIN=   4.00000
%ENDBLOCK POSITIONS_FRAC

# Note: total spin =   8.00

KPOINTS_MP_SPACING 0.07

%BLOCK SPECIES_POT
QC5
%ENDBLOCK SPECIES_POT

%BLOCK HUBBARD_U
Fe d:4.0
%ENDBLOCK HUBBARD_U

SNAP_TO_SYMMETRY
SYMMETRY_GENERATE

