#              Generated by Buildcell
#
# at 08:12:48 (GMT+0.0) 24th November 2020
# in /scratch/scratch/uccabz1/launch_tmp
# on node-a14a-009
# by uccabz1
#
# compiler GCC version 4.9.2
# options -cpp -iprefix /scratch/UCL/applications/gcc/4.9.2/bin/../lib/gcc/x86_64-unknown-linux-gnu/4.9.2/ -mtune=corei7 -march=x86-64 -g -O2
#
# seed -1089472419  1107730446 -2036612162   216983321  1060942862 -1966949336  2111041351 -1511914862 -2029519194  -151462469 -2054682453  1134549434
#
#      Author: C. J. Pickard (cjp20@cam.ac.uk)
#                Space group: P21
#

%BLOCK LATTICE_ABC
      4.34981      5.41105      7.19985
     90.00000     90.00000    109.23784
%ENDBLOCK LATTICE_ABC

%BLOCK POSITIONS_FRAC
  Li   0.4857072  -0.4745975   0.0258762 SPIN=   0.00000
  Li  -0.4857072   0.4745975  -0.4741238 SPIN=   0.00000
   O  -0.2457031   0.2146455   0.0567390 SPIN=   0.00000
   O  -0.2761310   0.1075171   0.4093978 SPIN=   0.00000
   O   0.2622808   0.3383057   0.2716434 SPIN=   0.00000
   O  -0.1426013   0.5737813   0.3078314 SPIN=   0.00000
   P  -0.1087644   0.3066916   0.2510535 SPIN=   0.00000
   O   0.2457031  -0.2146455  -0.4432610 SPIN=   0.00000
   O   0.2761310  -0.1075171  -0.0906022 SPIN=   0.00000
   O  -0.2622808  -0.3383057  -0.2283566 SPIN=   0.00000
   O   0.1426013  -0.5737813  -0.1921686 SPIN=   0.00000
   P   0.1087644  -0.3066916  -0.2489465 SPIN=   0.00000
  Fe  -0.2308559   0.0658122  -0.2249420 SPIN=   4.00000
  Fe   0.2308559  -0.0658122   0.2750580 SPIN=   4.00000
%ENDBLOCK POSITIONS_FRAC

# Note: total spin =   8.00

KPOINTS_MP_SPACING 0.07

%BLOCK SPECIES_POT
QC5
%ENDBLOCK SPECIES_POT

%BLOCK HUBBARD_U
Fe d:4.0
%ENDBLOCK HUBBARD_U

SNAP_TO_SYMMETRY
SYMMETRY_GENERATE

