#              Generated by Buildcell
#
# at 10:38:04 (GMT+0.0) 24th November 2020
# in /scratch/scratch/uccabz1/launch_tmp
# on node-a14f-024
# by uccabz1
#
# compiler GCC version 4.9.2
# options -cpp -iprefix /scratch/UCL/applications/gcc/4.9.2/bin/../lib/gcc/x86_64-unknown-linux-gnu/4.9.2/ -mtune=corei7 -march=x86-64 -g -O2
#
# seed   -24237179  -608013479   545872357  1829426813  2085848700  -778139732  -288892693   801328293 -1662777243   805746626   662392508  1340675193
#
#      Author: C. J. Pickard (cjp20@cam.ac.uk)
#                Space group: Pma2
#

%BLOCK LATTICE_ABC
      3.82142      5.33564      7.84709
     90.00000     90.00000     90.00000
%ENDBLOCK LATTICE_ABC

%BLOCK POSITIONS_FRAC
  Li  -0.2322229   0.3780142  -0.2500000 SPIN=   0.00000
  Li  -0.2322229  -0.3780142   0.2500000 SPIN=   0.00000
   O  -0.1157580   0.3143326  -0.5941650 SPIN=   0.00000
   O   0.4112460   0.1826288  -0.4051333 SPIN=   0.00000
   O  -0.1157580  -0.3143326   0.5941650 SPIN=   0.00000
   O   0.4112460  -0.1826288   0.4051333 SPIN=   0.00000
   O  -0.1157580  -0.3143326  -0.0941650 SPIN=   0.00000
   O   0.4112460  -0.1826288   0.0948667 SPIN=   0.00000
   O  -0.1157580   0.3143326   0.0941650 SPIN=   0.00000
   O   0.4112460   0.1826288  -0.0948667 SPIN=   0.00000
   P   0.3196177   0.5000000  -0.0000000 SPIN=   0.00000
   P   0.3196177  -0.5000000   0.5000000 SPIN=   0.00000
  Fe   0.2649070  -0.1188341  -0.2500000 SPIN=   4.00000
  Fe   0.2649070   0.1188341   0.2500000 SPIN=   4.00000
%ENDBLOCK POSITIONS_FRAC

# Note: total spin =   8.00

KPOINTS_MP_SPACING 0.07

%BLOCK SPECIES_POT
QC5
%ENDBLOCK SPECIES_POT

%BLOCK HUBBARD_U
Fe d:4.0
%ENDBLOCK HUBBARD_U

SNAP_TO_SYMMETRY
SYMMETRY_GENERATE

