#              Generated by Buildcell
#
# at 00:27:19 (GMT+0.0) 27th November 2020
# in /lustre/scratch/uccabz1/launch_tmp
# on node-c12e-024
# by uccabz1
#
# compiler GCC version 4.9.2
# options -cpp -iprefix /lustre/shared/ucl/apps/gcc/4.9.2/bin/../lib/gcc/x86_64-unknown-linux-gnu/4.9.2/ -mtune=corei7 -march=x86-64 -g -Og
#
# seed   313292133  1705547668  1068249115  -764668099  -830307982  -527108410   748002846  -991170287  1283355669  2120459148  -135489160  -579370657
#
#      Author: C. J. Pickard (cjp20@cam.ac.uk)
#                Space group: Pmn21
#

%BLOCK LATTICE_ABC
      5.31577      7.15829      8.40958
     90.00000     90.00000     90.00000
%ENDBLOCK LATTICE_ABC

%BLOCK POSITIONS_FRAC
  Li   0.4162602  -0.1284362  -0.2040123 SPIN=   0.00000
  Li  -0.4162602   0.3715638  -0.2959877 SPIN=   0.00000
  Li  -0.4162602   0.3715638   0.2959877 SPIN=   0.00000
  Li   0.4162602  -0.1284362   0.2040123 SPIN=   0.00000
   O   0.2768306   0.2754457   0.1483768 SPIN=   0.00000
   O  -0.1800963   0.1627637   0.2015157 SPIN=   0.00000
   O   0.1655888   0.0170545   0.3536203 SPIN=   0.00000
   P   0.0867885   0.2065997   0.2731639 SPIN=   0.00000
   O  -0.2768306  -0.2245543   0.3516232 SPIN=   0.00000
   O   0.1800963  -0.3372363   0.2984843 SPIN=   0.00000
   O  -0.1655888  -0.4829455   0.1463797 SPIN=   0.00000
   P  -0.0867885  -0.2934003   0.2268361 SPIN=   0.00000
   O  -0.2768306  -0.2245543  -0.3516232 SPIN=   0.00000
   O   0.1800963  -0.3372363  -0.2984843 SPIN=   0.00000
   O  -0.1655888  -0.4829455  -0.1463797 SPIN=   0.00000
   P  -0.0867885  -0.2934003  -0.2268361 SPIN=   0.00000
   O   0.2768306   0.2754457  -0.1483768 SPIN=   0.00000
   O  -0.1800963   0.1627637  -0.2015157 SPIN=   0.00000
   O   0.1655888   0.0170545  -0.3536203 SPIN=   0.00000
   P   0.0867885   0.2065997  -0.2731639 SPIN=   0.00000
   O  -0.4764621   0.0410399   0.0000000 SPIN=   0.00000
   O   0.4764621  -0.4589601  -0.5000000 SPIN=   0.00000
   O  -0.4876902  -0.3035610  -0.0000000 SPIN=   0.00000
   O   0.4876902   0.1964390  -0.5000000 SPIN=   0.00000
  Fe  -0.0844949   0.0053187   0.0000000 SPIN=   4.53868
  Fe   0.0844949  -0.4946813  -0.5000000 SPIN=   4.53868
  Fe  -0.2122756   0.0060010  -0.5000000 SPIN=   3.46132
  Fe   0.2122756  -0.4939990   0.0000000 SPIN=   3.46132
%ENDBLOCK POSITIONS_FRAC

# Note: total spin =  16.00

KPOINTS_MP_SPACING 0.07

%BLOCK SPECIES_POT
QC5
%ENDBLOCK SPECIES_POT

%BLOCK HUBBARD_U
Fe d:4.0
%ENDBLOCK HUBBARD_U

SNAP_TO_SYMMETRY
SYMMETRY_GENERATE

