#              Generated by Buildcell
#
# at 09:21:27 (GMT+0.0) 24th November 2020
# in /scratch/scratch/uccabz1/launch_tmp
# on node-a14f-010
# by uccabz1
#
# compiler GCC version 4.9.2
# options -cpp -iprefix /scratch/UCL/applications/gcc/4.9.2/bin/../lib/gcc/x86_64-unknown-linux-gnu/4.9.2/ -mtune=corei7 -march=x86-64 -g -O2
#
# seed   954734397   615462839 -1081100022   -48109659 -2069003992   648458750    40176061  1259118065  1943331844  1425800618  -880567262    70367082
#
#      Author: C. J. Pickard (cjp20@cam.ac.uk)
#                Space group: C2
#

%BLOCK LATTICE_ABC
      3.93805      4.93417      8.59965
    106.67139     91.69397     90.00000
%ENDBLOCK LATTICE_ABC

%BLOCK POSITIONS_FRAC
  Li   0.2843503   0.3563235  -0.4714870 SPIN=   0.00000
  Li  -0.2843503  -0.1721895   0.4714870 SPIN=   0.00000
   O  -0.2677805   0.1017248  -0.2480905 SPIN=   0.00000
   O  -0.2105999   0.4868864  -0.3980846 SPIN=   0.00000
   O  -0.5636923   0.5899918  -0.1556775 SPIN=   0.00000
   P  -0.2409599   0.4199896  -0.2308452 SPIN=   0.00000
   O   0.2677805  -0.6501846   0.2480905 SPIN=   0.00000
   O   0.2105999  -0.1150289   0.3980846 SPIN=   0.00000
   O   0.5636923  -0.2543307   0.1556775 SPIN=   0.00000
   P   0.2409599  -0.3491652   0.2308452 SPIN=   0.00000
   O  -0.0000000   0.4269750   0.0000000 SPIN=   0.00000
   O  -0.0000000  -0.0730250   0.0000000 SPIN=   0.00000
  Fe   0.2365661  -0.0107270  -0.2055878 SPIN=   4.00000
  Fe  -0.2365661   0.1948608   0.2055878 SPIN=   4.00000
%ENDBLOCK POSITIONS_FRAC

# Note: total spin =   8.00

KPOINTS_MP_SPACING 0.07

%BLOCK SPECIES_POT
QC5
%ENDBLOCK SPECIES_POT

%BLOCK HUBBARD_U
Fe d:4.0
%ENDBLOCK HUBBARD_U

SNAP_TO_SYMMETRY
SYMMETRY_GENERATE

