#              Generated by Buildcell
#
# at 13:29:03 (GMT+0.0) 24th November 2020
# in /lustre/scratch/uccabz1/launch_tmp
# on node-c12h-026
# by uccabz1
#
# compiler GCC version 4.9.2
# options -cpp -iprefix /lustre/shared/ucl/apps/gcc/4.9.2/bin/../lib/gcc/x86_64-unknown-linux-gnu/4.9.2/ -mtune=corei7 -march=x86-64 -g -Og
#
# seed -1113043076  -354876379 -1201175146 -1077075838 -2099738562  1720241026  -682639838  1081812430  2056010285  -620698966  1157007120  1931296300
#
#      Author: C. J. Pickard (cjp20@cam.ac.uk)
#                Space group: P2
#

%BLOCK LATTICE_ABC
      3.89999      4.83921      8.53768
     96.79133     90.00000     90.00000
%ENDBLOCK LATTICE_ABC

%BLOCK POSITIONS_FRAC
  Li   0.2329118   0.0684877   0.1788266 SPIN=   0.00000
  Li   0.2329118  -0.0684877  -0.1788266 SPIN=   0.00000
   O  -0.2213811  -0.1897640   0.2581821 SPIN=   0.00000
   O   0.3006336  -0.2908081   0.4317067 SPIN=   0.00000
   O  -0.1046323  -0.6734418   0.3508632 SPIN=   0.00000
   O   0.2827319  -0.5014496   0.1494077 SPIN=   0.00000
   P   0.0517022  -0.4029671   0.2936962 SPIN=   0.00000
   O  -0.2213811   0.1897640  -0.2581821 SPIN=   0.00000
   O   0.3006336   0.2908081  -0.4317067 SPIN=   0.00000
   O  -0.1046323   0.6734418  -0.3508632 SPIN=   0.00000
   O   0.2827319   0.5014496  -0.1494077 SPIN=   0.00000
   P   0.0517022   0.4029671  -0.2936962 SPIN=   0.00000
  Fe  -0.2923502   0.5000000   0.0000000 SPIN=   2.32676
  Fe  -0.3147745   0.0000000   0.5000000 SPIN=   5.67324
%ENDBLOCK POSITIONS_FRAC

# Note: total spin =   8.00

KPOINTS_MP_SPACING 0.07

%BLOCK SPECIES_POT
QC5
%ENDBLOCK SPECIES_POT

%BLOCK HUBBARD_U
Fe d:4.0
%ENDBLOCK HUBBARD_U

SNAP_TO_SYMMETRY
SYMMETRY_GENERATE

