#              Generated by Buildcell
#
# at 10:37:52 (GMT+0.0) 24th November 2020
# in /lustre/scratch/uccabz1/launch_tmp
# on node-c12c-034
# by uccabz1
#
# compiler GCC version 4.9.2
# options -cpp -iprefix /lustre/shared/ucl/apps/gcc/4.9.2/bin/../lib/gcc/x86_64-unknown-linux-gnu/4.9.2/ -mtune=corei7 -march=x86-64 -g -Og
#
# seed -2142186011   814693008  1325688642 -1415137355  -719990387   119008462   744897807   839265004 -2014930026 -1606934996 -1995649286  -354541321
#
#      Author: C. J. Pickard (cjp20@cam.ac.uk)
#                Space group: P42
#

%BLOCK LATTICE_ABC
      4.65201      4.65201      7.39330
     90.00000     90.00000     90.00000
%ENDBLOCK LATTICE_ABC

%BLOCK POSITIONS_FRAC
  Li   0.0000000  -0.5000000   0.0534024 SPIN=   0.00000
  Li  -0.5000000   0.0000000  -0.4465976 SPIN=   0.00000
   O   0.2957896  -0.2859653   0.3599908 SPIN=   0.00000
   O  -0.1997215  -0.1803511   0.2121343 SPIN=   0.00000
   O  -0.2957896   0.2859653   0.3599908 SPIN=   0.00000
   O   0.1997215   0.1803511   0.2121343 SPIN=   0.00000
   O  -0.2859653  -0.2957896  -0.1400092 SPIN=   0.00000
   O  -0.1803511   0.1997215  -0.2878657 SPIN=   0.00000
   O   0.2859653   0.2957896  -0.1400092 SPIN=   0.00000
   O   0.1803511  -0.1997215  -0.2878657 SPIN=   0.00000
   P  -0.5000000   0.5000000  -0.2419770 SPIN=   0.00000
   P   0.5000000  -0.5000000   0.2580230 SPIN=   0.00000
  Fe  -0.0000000  -0.5000000  -0.4715913 SPIN=   4.00000
  Fe   0.5000000  -0.0000000   0.0284087 SPIN=   4.00000
%ENDBLOCK POSITIONS_FRAC

# Note: total spin =   8.00

KPOINTS_MP_SPACING 0.07

%BLOCK SPECIES_POT
QC5
%ENDBLOCK SPECIES_POT

%BLOCK HUBBARD_U
Fe d:4.0
%ENDBLOCK HUBBARD_U

SNAP_TO_SYMMETRY
SYMMETRY_GENERATE

