#              Generated by Buildcell
#
# at 20:22:24 (GMT+0.0) 26th November 2020
# in /lustre/scratch/uccabz1/launch_tmp
# on node-c12m-034
# by uccabz1
#
# compiler GCC version 4.9.2
# options -cpp -iprefix /lustre/shared/ucl/apps/gcc/4.9.2/bin/../lib/gcc/x86_64-unknown-linux-gnu/4.9.2/ -mtune=corei7 -march=x86-64 -g -Og
#
# seed   396957904 -1208278378  -302518554 -1827619337   933401459  1790736067   673785846    74483307  1030775417   565907813 -1581042429   197273225
#
#      Author: C. J. Pickard (cjp20@cam.ac.uk)
#                Space group: I222
#

%BLOCK LATTICE_ABC
      5.55614      8.09481      8.09481
     78.83268     69.92854     69.92854
%ENDBLOCK LATTICE_ABC

%BLOCK POSITIONS_FRAC
  Li  -0.3736068  -0.4362537  -0.3165325 SPIN=   0.00000
  Li   0.3736068   0.3165325   0.4362537 SPIN=   0.00000
  Li   0.1263929  -0.3165325  -0.4362537 SPIN=   0.00000
  Li  -0.1263929   0.4362537   0.3165325 SPIN=   0.00000
   O   0.2317481  -0.3699452  -0.1096814 SPIN=   0.00000
   O  -0.2123273  -0.2915061   0.1481331 SPIN=   0.00000
   O  -0.1719690  -0.0911952  -0.1254197 SPIN=   0.00000
   O  -0.2134612  -0.3893626  -0.1266815 SPIN=   0.00000
   P  -0.0757301  -0.2912241  -0.0572731 SPIN=   0.00000
   O  -0.2317481   0.1096814   0.3699452 SPIN=   0.00000
   O   0.2123273  -0.1481331   0.2915061 SPIN=   0.00000
   O   0.1719690   0.1254197   0.0911952 SPIN=   0.00000
   O   0.2134612   0.1266815   0.3893626 SPIN=   0.00000
   P   0.0757301   0.0572731   0.2912241 SPIN=   0.00000
   O   0.2478785  -0.1096814  -0.3699452 SPIN=   0.00000
   O   0.3557004   0.1481331  -0.2915061 SPIN=   0.00000
   O   0.3885839  -0.1254197  -0.0911952 SPIN=   0.00000
   O   0.7295054  -0.1266815  -0.3893626 SPIN=   0.00000
   P   0.4242273  -0.0572731  -0.2912241 SPIN=   0.00000
   O  -0.2478785   0.3699452   0.1096814 SPIN=   0.00000
   O  -0.3557004   0.2915061  -0.1481331 SPIN=   0.00000
   O  -0.3885839   0.0911952   0.1254197 SPIN=   0.00000
   O  -0.7295054   0.3893626   0.1266815 SPIN=   0.00000
   P  -0.4242273   0.2912241   0.0572731 SPIN=   0.00000
  Fe  -0.1287990   0.0985541  -0.3406570 SPIN=   4.00000
  Fe   0.1287990   0.3406570  -0.0985541 SPIN=   4.00000
  Fe   0.3709019  -0.3406570   0.0985541 SPIN=   4.00000
  Fe  -0.3709019  -0.0985541   0.3406570 SPIN=   4.00000
%ENDBLOCK POSITIONS_FRAC

# Note: total spin =  16.00

KPOINTS_MP_SPACING 0.07

%BLOCK SPECIES_POT
QC5
%ENDBLOCK SPECIES_POT

%BLOCK HUBBARD_U
Fe d:4.0
%ENDBLOCK HUBBARD_U

SNAP_TO_SYMMETRY
SYMMETRY_GENERATE

