#              Generated by Buildcell
#
# at 17:28:13 (GMT+0.0) 26th November 2020
# in /scratch/scratch/uccabz1/launch_tmp
# on node-k10e-001
# by uccabz1
#
# compiler GCC version 4.9.2
# options -cpp -iprefix /scratch/UCL/applications/gcc/4.9.2/bin/../lib/gcc/x86_64-unknown-linux-gnu/4.9.2/ -mtune=corei7 -march=x86-64 -g -O2
#
# seed -2101580470  1555656573   -98675928  1186550468  1652301081 -2031475848  -850857852    96606729  -205047032  -724002691  -654430077 -1765837216
#
#      Author: C. J. Pickard (cjp20@cam.ac.uk)
#                Space group: Cc
#

%BLOCK LATTICE_ABC
      5.08653      7.98064      8.88602
    109.50280     90.00000    108.58310
%ENDBLOCK LATTICE_ABC

%BLOCK POSITIONS_FRAC
  Li   0.0824914   0.1073668   0.1404211 SPIN=   0.00000
  Li   0.0248754   0.1073668  -0.3595789 SPIN=   0.00000
  Li  -0.1135982  -0.3160781   0.4960129 SPIN=   0.00000
  Li  -0.2024799  -0.3160781  -0.0039871 SPIN=   0.00000
   O   0.3258373  -0.3745561  -0.0366819 SPIN=   0.00000
   O   0.1429716  -0.1113062  -0.0530702 SPIN=   0.00000
   O   0.5439037  -0.0227590   0.1484236 SPIN=   0.00000
   O   0.6077113  -0.1152837  -0.1439414 SPIN=   0.00000
   P   0.4032763  -0.1671343  -0.0235827 SPIN=   0.00000
   O   0.2996066  -0.3745561   0.4633181 SPIN=   0.00000
   O   0.7457222  -0.1113062   0.4469298 SPIN=   0.00000
   O   0.4333373  -0.0227590   0.6484236 SPIN=   0.00000
   O   0.2770050  -0.1152837   0.3560586 SPIN=   0.00000
   P   0.4295894  -0.1671343   0.4764173 SPIN=   0.00000
   O  -0.6026990   0.3226074   0.0876694 SPIN=   0.00000
   O  -0.1751935   0.6201512   0.2387572 SPIN=   0.00000
   O  -0.4195387   0.4155250   0.3873396 SPIN=   0.00000
   O  -0.1337032   0.2997373   0.1731638 SPIN=   0.00000
   P  -0.3448059   0.4082578   0.2140211 SPIN=   0.00000
   O  -0.0746936   0.3226074  -0.4123306 SPIN=   0.00000
   O  -0.2046553   0.6201512  -0.2612428 SPIN=   0.00000
   O  -0.1649362   0.4155250  -0.1126604 SPIN=   0.00000
   O  -0.5665595   0.2997373  -0.3268362 SPIN=   0.00000
   P  -0.2469363   0.4082578  -0.2859789 SPIN=   0.00000
  Fe   0.2272270  -0.4501401   0.1657120 SPIN=   5.02066
  Fe   0.3226328  -0.4501401  -0.3342880 SPIN=   5.02066
  Fe  -0.3917889   0.1593801   0.3879954 SPIN=   2.97934
  Fe  -0.4488310   0.1593801  -0.1120046 SPIN=   2.97934
%ENDBLOCK POSITIONS_FRAC

# Note: total spin =  16.00

KPOINTS_MP_SPACING 0.07

%BLOCK SPECIES_POT
QC5
%ENDBLOCK SPECIES_POT

%BLOCK HUBBARD_U
Fe d:4.0
%ENDBLOCK HUBBARD_U

SNAP_TO_SYMMETRY
SYMMETRY_GENERATE

