#              Generated by Buildcell
#
# at 15:54:37 (GMT+0.0) 26th November 2020
# in /lustre/scratch/uccabz1/launch_tmp
# on node-c12k-026
# by uccabz1
#
# compiler GCC version 4.9.2
# options -cpp -iprefix /lustre/shared/ucl/apps/gcc/4.9.2/bin/../lib/gcc/x86_64-unknown-linux-gnu/4.9.2/ -mtune=corei7 -march=x86-64 -g -Og
#
# seed  1155723153 -1387972934  1521770822 -1596358698   666118738  -543333724  -432869557 -1359868307  -734894153   402306355  2021465078  -109380930
#
#      Author: C. J. Pickard (cjp20@cam.ac.uk)
#                Space group: Cm
#

%BLOCK LATTICE_ABC
      6.74743      7.77071      7.77071
     96.39741    114.10383    114.10383
%ENDBLOCK LATTICE_ABC

%BLOCK POSITIONS_FRAC
  Li  -0.0802439  -0.4392612  -0.1777541 SPIN=   0.00000
  Li  -0.0802439  -0.1777541  -0.4392612 SPIN=   0.00000
  Li  -0.4524909  -0.1156456   0.1425696 SPIN=   0.00000
  Li  -0.4524909   0.1425696  -0.1156456 SPIN=   0.00000
   O  -0.2740766  -0.2866258   0.2096278 SPIN=   0.00000
   O   0.0024524  -0.4532543   0.2911143 SPIN=   0.00000
   O  -0.3194130  -0.5519117  -0.0606642 SPIN=   0.00000
   O   0.0619853  -0.2106343   0.1049705 SPIN=   0.00000
   P  -0.1375215  -0.3689219   0.1397992 SPIN=   0.00000
   O  -0.2740766   0.2096278  -0.2866258 SPIN=   0.00000
   O   0.0024524   0.2911143  -0.4532543 SPIN=   0.00000
   O  -0.3194130  -0.0606642  -0.5519117 SPIN=   0.00000
   O   0.0619853   0.1049705  -0.2106343 SPIN=   0.00000
   P  -0.1375215   0.1397992  -0.3689219 SPIN=   0.00000
   O   0.4133717   0.3699532   0.5819971 SPIN=   0.00000
   O   0.0145620   0.0662778   0.2792388 SPIN=   0.00000
   O   0.4282139   0.1109684   0.3525507 SPIN=   0.00000
   O   0.2655209   0.0067909   0.5830487 SPIN=   0.00000
   P   0.2873205   0.1492672   0.4578586 SPIN=   0.00000
   O   0.4133717   0.5819971   0.3699532 SPIN=   0.00000
   O   0.0145620   0.2792388   0.0662778 SPIN=   0.00000
   O   0.4282139   0.3525507   0.1109684 SPIN=   0.00000
   O   0.2655209   0.5830487   0.0067909 SPIN=   0.00000
   P   0.2873205   0.4578586   0.1492672 SPIN=   0.00000
  Fe   0.3571183  -0.1907785   0.4715609 SPIN=   5.09478
  Fe   0.3571183   0.4715609  -0.1907785 SPIN=   5.09478
  Fe  -0.2783485   0.3504661   0.3504661 SPIN=   3.65694
  Fe  -0.0390849  -0.0097439  -0.0097439 SPIN=   2.15351
%ENDBLOCK POSITIONS_FRAC

# Note: total spin =  16.00

KPOINTS_MP_SPACING 0.07

%BLOCK SPECIES_POT
QC5
%ENDBLOCK SPECIES_POT

%BLOCK HUBBARD_U
Fe d:4.0
%ENDBLOCK HUBBARD_U

SNAP_TO_SYMMETRY
SYMMETRY_GENERATE

