#              Generated by Buildcell
#
# at 10:49:54 (GMT+0.0) 24th November 2020
# in /scratch/scratch/uccabz1/launch_tmp
# on node-a14f-014
# by uccabz1
#
# compiler GCC version 4.9.2
# options -cpp -iprefix /scratch/UCL/applications/gcc/4.9.2/bin/../lib/gcc/x86_64-unknown-linux-gnu/4.9.2/ -mtune=corei7 -march=x86-64 -g -O2
#
# seed  -110488477 -1390936035   700624166   182642310   777956039  1176038597 -1805139677  1515924340  -778139732   633233720  -519946954 -1781653737
#
#      Author: C. J. Pickard (cjp20@cam.ac.uk)
#                Space group: C2
#

%BLOCK LATTICE_ABC
      4.49120      4.49120      8.40209
     93.26506     93.26506    108.45172
%ENDBLOCK LATTICE_ABC

%BLOCK POSITIONS_FRAC
  Li   0.4921968  -0.4474842  -0.2735994 SPIN=   0.00000
  Li   0.4474842  -0.4921968   0.2735994 SPIN=   0.00000
   O   0.1060083   0.3904250  -0.0787718 SPIN=   0.00000
   O  -0.0189186   0.3546686  -0.3863556 SPIN=   0.00000
   O  -0.0428587  -0.1334269  -0.2586202 SPIN=   0.00000
   O  -0.4553388   0.1218310  -0.2124987 SPIN=   0.00000
   P  -0.0958208   0.1936726  -0.2255387 SPIN=   0.00000
   O  -0.3904250  -0.1060083   0.0787718 SPIN=   0.00000
   O  -0.3546686   0.0189186   0.3863556 SPIN=   0.00000
   O   0.1334269   0.0428587   0.2586202 SPIN=   0.00000
   O  -0.1218310   0.4553388   0.2124987 SPIN=   0.00000
   P  -0.1936726   0.0958208   0.2255387 SPIN=   0.00000
  Fe   0.0977146  -0.0977146  -0.5000000 SPIN=   1.20856
  Fe   0.1453834  -0.1453834  -0.0000000 SPIN=   6.79144
%ENDBLOCK POSITIONS_FRAC

# Note: total spin =   8.00

KPOINTS_MP_SPACING 0.07

%BLOCK SPECIES_POT
QC5
%ENDBLOCK SPECIES_POT

%BLOCK HUBBARD_U
Fe d:4.0
%ENDBLOCK HUBBARD_U

SNAP_TO_SYMMETRY
SYMMETRY_GENERATE

