#              Generated by Buildcell
#
# at 12:25:50 (GMT+0.0) 26th November 2020
# in /lustre/scratch/uccabz1/launch_tmp
# on node-c12n-021
# by uccabz1
#
# compiler GCC version 4.9.2
# options -cpp -iprefix /lustre/shared/ucl/apps/gcc/4.9.2/bin/../lib/gcc/x86_64-unknown-linux-gnu/4.9.2/ -mtune=corei7 -march=x86-64 -g -Og
#
# seed -1914072652   589803154 -1203538352 -1437805899   686673849  -739131921  -479228055   711352842  1799986951 -1812564171   844455590  1162728455
#
#      Author: C. J. Pickard (cjp20@cam.ac.uk)
#                Space group: P-1
#

%BLOCK LATTICE_ABC
      6.83304      7.08517      7.41766
    105.97442    107.23200     98.05331
%ENDBLOCK LATTICE_ABC

%BLOCK POSITIONS_FRAC
  Li  -0.4510529  -0.2954226  -0.3369016 SPIN=   0.00000
  Li   0.4510529   0.2954226   0.3369016 SPIN=   0.00000
  Li   0.2196720   0.0587971   0.6787466 SPIN=   0.00000
  Li  -0.2196720  -0.0587971  -0.6787466 SPIN=   0.00000
   O   0.1413201   0.3388477   0.2344901 SPIN=   0.00000
   O  -0.1581486   0.2546700   0.3696184 SPIN=   0.00000
   O   0.1035430   0.0464376   0.3792195 SPIN=   0.00000
   O   0.2128074   0.4049520   0.6111605 SPIN=   0.00000
   P   0.0800457   0.2670559   0.3923911 SPIN=   0.00000
   O  -0.1413201  -0.3388477  -0.2344901 SPIN=   0.00000
   O   0.1581486  -0.2546700  -0.3696184 SPIN=   0.00000
   O  -0.1035430  -0.0464376  -0.3792195 SPIN=   0.00000
   O  -0.2128074  -0.4049520  -0.6111605 SPIN=   0.00000
   P  -0.0800457  -0.2670559  -0.3923911 SPIN=   0.00000
   O  -0.1988638  -0.5793406   0.0493876 SPIN=   0.00000
   O  -0.3059567  -0.9670954  -0.1384081 SPIN=   0.00000
   O  -0.5659562  -0.8062229  -0.0241936 SPIN=   0.00000
   O  -0.4753689  -0.7406335  -0.3083076 SPIN=   0.00000
   O   0.1988638   0.5793406  -0.0493876 SPIN=   0.00000
   O   0.3059567   0.9670954   0.1384081 SPIN=   0.00000
   O   0.5659562   0.8062229   0.0241936 SPIN=   0.00000
   O   0.4753689   0.7406335   0.3083076 SPIN=   0.00000
   P   0.5000000   1.0000000   1.0000000 SPIN=   0.00000
   P   0.5000000   1.0000000   0.5000000 SPIN=   0.00000
  Fe   0.1014349  -0.3657082   0.3018259 SPIN=   3.03907
  Fe  -0.1014349   0.3657082  -0.3018259 SPIN=   3.03907
  Fe  -0.0000000  -0.0000000  -0.0000000 SPIN=   7.90122
  Fe   0.5000000   0.5000000   0.0000000 SPIN=   2.02064
%ENDBLOCK POSITIONS_FRAC

# Note: total spin =  16.00

KPOINTS_MP_SPACING 0.07

%BLOCK SPECIES_POT
QC5
%ENDBLOCK SPECIES_POT

%BLOCK HUBBARD_U
Fe d:4.0
%ENDBLOCK HUBBARD_U

SNAP_TO_SYMMETRY
SYMMETRY_GENERATE

