#              Generated by Buildcell
#
# at 01:01:38 (GMT+0.0) 27th November 2020
# in /lustre/scratch/uccabz1/launch_tmp
# on node-c12j-029
# by uccabz1
#
# compiler GCC version 4.9.2
# options -cpp -iprefix /lustre/shared/ucl/apps/gcc/4.9.2/bin/../lib/gcc/x86_64-unknown-linux-gnu/4.9.2/ -mtune=corei7 -march=x86-64 -g -Og
#
# seed -1067731084  -659698699 -1484526808 -1022439219   563058513  -833564800 -1390535552 -1755570089 -2134055949   253471718  -160819840   466712707
#
#      Author: C. J. Pickard (cjp20@cam.ac.uk)
#                Space group: P222
#

%BLOCK LATTICE_ABC
      6.32777      6.88734      7.34256
     90.00000     90.00000     90.00000
%ENDBLOCK LATTICE_ABC

%BLOCK POSITIONS_FRAC
  Li   0.5000000  -0.0000000  -0.5000000 SPIN=   0.00000
  Li  -0.5000000  -0.5000000   0.5000000 SPIN=   0.00000
  Li   0.5000000   0.0000000   0.0000000 SPIN=   0.00000
  Li   0.5000000  -0.5000000   0.0000000 SPIN=   0.00000
   O   0.1702737  -0.4123760  -0.1535551 SPIN=   0.00000
   O   0.2240761  -0.0393715  -0.1787620 SPIN=   0.00000
   O   0.5402206  -0.2491752  -0.1645729 SPIN=   0.00000
   O   0.3152509  -0.2503879  -0.4451836 SPIN=   0.00000
   P   0.3049178  -0.2472697  -0.2336285 SPIN=   0.00000
   O   0.1702737   0.4123760   0.1535551 SPIN=   0.00000
   O   0.2240761   0.0393715   0.1787620 SPIN=   0.00000
   O   0.5402206   0.2491752   0.1645729 SPIN=   0.00000
   O   0.3152509   0.2503879   0.4451836 SPIN=   0.00000
   P   0.3049178   0.2472697   0.2336285 SPIN=   0.00000
   O  -0.1702737   0.4123760  -0.1535551 SPIN=   0.00000
   O  -0.2240761   0.0393715  -0.1787620 SPIN=   0.00000
   O  -0.5402206   0.2491752  -0.1645729 SPIN=   0.00000
   O  -0.3152509   0.2503879  -0.4451836 SPIN=   0.00000
   P  -0.3049178   0.2472697  -0.2336285 SPIN=   0.00000
   O  -0.1702737  -0.4123760   0.1535551 SPIN=   0.00000
   O  -0.2240761  -0.0393715   0.1787620 SPIN=   0.00000
   O  -0.5402206  -0.2491752   0.1645729 SPIN=   0.00000
   O  -0.3152509  -0.2503879   0.4451836 SPIN=   0.00000
   P  -0.3049178  -0.2472697   0.2336285 SPIN=   0.00000
  Fe  -0.1477853  -0.2500002  -0.2619393 SPIN=   4.00000
  Fe  -0.1477853   0.2500002   0.2619393 SPIN=   4.00000
  Fe   0.1477853   0.2500002  -0.2619393 SPIN=   4.00000
  Fe   0.1477853  -0.2500002   0.2619393 SPIN=   4.00000
%ENDBLOCK POSITIONS_FRAC

# Note: total spin =  16.00

KPOINTS_MP_SPACING 0.07

%BLOCK SPECIES_POT
QC5
%ENDBLOCK SPECIES_POT

%BLOCK HUBBARD_U
Fe d:4.0
%ENDBLOCK HUBBARD_U

SNAP_TO_SYMMETRY
SYMMETRY_GENERATE

