#              Generated by Buildcell
#
# at 23:35:28 (GMT+0.0) 26th November 2020
# in /lustre/scratch/uccabz1/launch_tmp
# on node-c12k-022
# by uccabz1
#
# compiler GCC version 4.9.2
# options -cpp -iprefix /lustre/shared/ucl/apps/gcc/4.9.2/bin/../lib/gcc/x86_64-unknown-linux-gnu/4.9.2/ -mtune=corei7 -march=x86-64 -g -Og
#
# seed  -524034258  2130202379 -1170983875  1420778114  -507663099  1811725751   253539823 -1662798564   822657899 -1567585970  1223250110  1807982342
#
#      Author: C. J. Pickard (cjp20@cam.ac.uk)
#                Space group: C2
#

%BLOCK LATTICE_ABC
      6.32625      7.03183      8.59079
     80.99788     69.64443     63.26726
%ENDBLOCK LATTICE_ABC

%BLOCK POSITIONS_FRAC
  Li  -0.3514173   0.3723121   0.2151020 SPIN=   0.00000
  Li  -0.0208949   0.3723121  -0.2151020 SPIN=   0.00000
  Li  -0.2422315   0.4844631  -0.5000000 SPIN=   0.00000
  Li   0.0091769  -0.0183538  -0.0000000 SPIN=   0.00000
   O  -0.1885029  -0.0758362  -0.2202859 SPIN=   0.00000
   O  -0.3420742   0.3300721  -0.1855426 SPIN=   0.00000
   O  -0.3132924   0.2025174  -0.4474769 SPIN=   0.00000
   O  -0.6452002   0.1928697  -0.1854837 SPIN=   0.00000
   P  -0.3657038   0.1500801  -0.2567230 SPIN=   0.00000
   O   0.2643391  -0.0758362   0.2202859 SPIN=   0.00000
   O   0.0120021   0.3300721   0.1855426 SPIN=   0.00000
   O   0.1107750   0.2025174   0.4474769 SPIN=   0.00000
   O   0.4523305   0.1928697   0.1854837 SPIN=   0.00000
   P   0.2156237   0.1500801   0.2567230 SPIN=   0.00000
   O   0.3477329  -0.4247946  -0.3211907 SPIN=   0.00000
   O   0.6434428  -0.2482851  -0.3521958 SPIN=   0.00000
   O   0.1900869  -0.0212436  -0.2733334 SPIN=   0.00000
   O   0.3686977  -0.2846787  -0.0689051 SPIN=   0.00000
   P   0.3851515  -0.2548082  -0.2553056 SPIN=   0.00000
   O   0.0770617  -0.4247946   0.3211907 SPIN=   0.00000
   O  -0.3951576  -0.2482851   0.3521958 SPIN=   0.00000
   O  -0.1688433  -0.0212436   0.2733334 SPIN=   0.00000
   O  -0.0840190  -0.2846787   0.0689051 SPIN=   0.00000
   P  -0.1303433  -0.2548082   0.2553056 SPIN=   0.00000
  Fe   0.4736385  -0.9472770  -0.5000000 SPIN=   3.81407
  Fe  -0.4115624   0.8231249  -0.0000000 SPIN=   4.36739
  Fe   0.1551674  -0.3103348   0.5000000 SPIN=   5.42804
  Fe   0.2725701  -0.5451402   0.0000000 SPIN=   2.39050
%ENDBLOCK POSITIONS_FRAC

# Note: total spin =  16.00

KPOINTS_MP_SPACING 0.07

%BLOCK SPECIES_POT
QC5
%ENDBLOCK SPECIES_POT

%BLOCK HUBBARD_U
Fe d:4.0
%ENDBLOCK HUBBARD_U

SNAP_TO_SYMMETRY
SYMMETRY_GENERATE

