#              Generated by Buildcell
#
# at 16:35:13 (GMT+0.0) 26th November 2020
# in /lustre/scratch/uccabz1/launch_tmp
# on node-c12i-029
# by uccabz1
#
# compiler GCC version 4.9.2
# options -cpp -iprefix /lustre/shared/ucl/apps/gcc/4.9.2/bin/../lib/gcc/x86_64-unknown-linux-gnu/4.9.2/ -mtune=corei7 -march=x86-64 -g -Og
#
# seed  1306605332   623139929   946868593  1390328083  -606273456  1321341626 -1068488447 -1591919028   973113308   117404541   737496101  2097537016
#
#      Author: C. J. Pickard (cjp20@cam.ac.uk)
#                Space group: C2
#

%BLOCK LATTICE_ABC
      7.02323      7.02323      7.23237
     71.86555     71.86555     78.35595
%ENDBLOCK LATTICE_ABC

%BLOCK POSITIONS_FRAC
  Li   0.0206854  -0.2500829   0.2812719 SPIN=   0.00000
  Li   0.2500829  -0.0206854  -0.2812719 SPIN=   0.00000
  Li   0.3031228   0.4333594   0.4804554 SPIN=   0.00000
  Li  -0.4333594  -0.3031228  -0.4804554 SPIN=   0.00000
   O   0.1223441   0.2137597   0.5152004 SPIN=   0.00000
   O   0.1302101   0.0127811   0.2655022 SPIN=   0.00000
   O   0.3235367   0.3060094   0.1372855 SPIN=   0.00000
   O   0.4417156  -0.0083970   0.3731676 SPIN=   0.00000
   P   0.2496275   0.1337973   0.3336284 SPIN=   0.00000
   O  -0.2137597  -0.1223441  -0.5152004 SPIN=   0.00000
   O  -0.0127811  -0.1302101  -0.2655022 SPIN=   0.00000
   O  -0.3060094  -0.3235367  -0.1372855 SPIN=   0.00000
   O   0.0083970  -0.4417156  -0.3731676 SPIN=   0.00000
   P  -0.1337973  -0.2496275  -0.3336284 SPIN=   0.00000
   O   0.5368810   0.1517275  -0.4144778 SPIN=   0.00000
   O   0.5930618   0.1095760  -0.0647236 SPIN=   0.00000
   O   0.4615074   0.4458910  -0.2462987 SPIN=   0.00000
   O   0.2403269   0.1674284  -0.0985970 SPIN=   0.00000
   P   0.4595792   0.2144876  -0.2158556 SPIN=   0.00000
   O  -0.1517275  -0.5368810   0.4144778 SPIN=   0.00000
   O  -0.1095760  -0.5930618   0.0647236 SPIN=   0.00000
   O  -0.4458910  -0.4615074   0.2462987 SPIN=   0.00000
   O  -0.1674284  -0.2403269   0.0985970 SPIN=   0.00000
   P  -0.2144876  -0.4595792   0.2158556 SPIN=   0.00000
  Fe  -0.3037681   0.1485582   0.2905494 SPIN=   3.78806
  Fe  -0.1485582   0.3037681  -0.2905494 SPIN=   3.78806
  Fe   0.1727834  -0.4893696  -0.0658359 SPIN=   4.21194
  Fe   0.4893696  -0.1727834   0.0658359 SPIN=   4.21194
%ENDBLOCK POSITIONS_FRAC

# Note: total spin =  16.00

KPOINTS_MP_SPACING 0.07

%BLOCK SPECIES_POT
QC5
%ENDBLOCK SPECIES_POT

%BLOCK HUBBARD_U
Fe d:4.0
%ENDBLOCK HUBBARD_U

SNAP_TO_SYMMETRY
SYMMETRY_GENERATE

