#              Generated by Buildcell
#
# at 10:30:58 (GMT+0.0) 24th November 2020
# in /lustre/scratch/uccabz1/launch_tmp
# on node-c12i-031
# by uccabz1
#
# compiler GCC version 4.9.2
# options -cpp -iprefix /lustre/shared/ucl/apps/gcc/4.9.2/bin/../lib/gcc/x86_64-unknown-linux-gnu/4.9.2/ -mtune=corei7 -march=x86-64 -g -Og
#
# seed -1936939488 -1615427411  1200305287  1539279065 -2075065224 -1655537773 -1410104734 -1440461075  -749344009   391968631   150293249 -2146345372
#
#      Author: C. J. Pickard (cjp20@cam.ac.uk)
#                Space group: Cm
#

%BLOCK LATTICE_ABC
      4.28212      6.27418      6.27418
     75.09293     81.44345     81.44345
%ENDBLOCK LATTICE_ABC

%BLOCK POSITIONS_FRAC
  Li   0.0627222  -0.4258036  -0.0284665 SPIN=   0.00000
  Li   0.0627222  -0.0284665  -0.4258036 SPIN=   0.00000
   O   0.5850663  -0.2920835   0.0307919 SPIN=   0.00000
   O   0.4758384  -0.1256445   0.3770998 SPIN=   0.00000
   O   0.0210869  -0.1399770   0.1828160 SPIN=   0.00000
   P   0.3556556  -0.2668874   0.2383328 SPIN=   0.00000
   O   0.5850663   0.0307919  -0.2920835 SPIN=   0.00000
   O   0.4758384   0.3770998  -0.1256445 SPIN=   0.00000
   O   0.0210869   0.1828160  -0.1399770 SPIN=   0.00000
   P   0.3556556   0.2383328  -0.2668874 SPIN=   0.00000
   O   0.3437363   0.4850945   0.4850945 SPIN=   0.00000
   O  -0.0163914   0.2899706   0.2899706 SPIN=   0.00000
  Fe  -0.3310844   0.1334924   0.1334924 SPIN=   5.43171
  Fe  -0.1554059  -0.4898131  -0.4898131 SPIN=   2.56829
%ENDBLOCK POSITIONS_FRAC

# Note: total spin =   8.00

KPOINTS_MP_SPACING 0.07

%BLOCK SPECIES_POT
QC5
%ENDBLOCK SPECIES_POT

%BLOCK HUBBARD_U
Fe d:4.0
%ENDBLOCK HUBBARD_U

SNAP_TO_SYMMETRY
SYMMETRY_GENERATE

