#              Generated by Buildcell
#
# at 06:07:04 (GMT+0.0) 24th November 2020
# in /scratch/scratch/uccabz1/launch_tmp
# on node-a14f-013
# by uccabz1
#
# compiler GCC version 4.9.2
# options -cpp -iprefix /scratch/UCL/applications/gcc/4.9.2/bin/../lib/gcc/x86_64-unknown-linux-gnu/4.9.2/ -mtune=corei7 -march=x86-64 -g -O2
#
# seed -1079138569 -1207430057 -1705146604  -270197735   891016350  -715963841  1673765790  1642286033   172636727    59086497 -1071053686 -2113490392
#
#      Author: C. J. Pickard (cjp20@cam.ac.uk)
#                Space group: I41
#

%BLOCK LATTICE_ABC
      5.35716      5.35716      6.74026
    113.41574    113.41574     90.00000
%ENDBLOCK LATTICE_ABC

%BLOCK POSITIONS_FRAC
  Li  -0.0876634  -0.0876634  -0.1753268 SPIN=   0.00000
  Li  -0.3376634   0.1623366   0.3246732 SPIN=   0.00000
   O  -0.3836012   0.0663773   0.6075441 SPIN=   0.00000
   O  -0.0908655  -0.1346746   0.3724081 SPIN=   0.00000
   O  -0.0088547  -0.4588332   0.6075441 SPIN=   0.00000
   O  -0.5367264  -0.4929173   0.3724081 SPIN=   0.00000
   O  -0.1836227   0.2411453   0.1075441 SPIN=   0.00000
   O  -0.3846746  -0.2867264  -0.1275919 SPIN=   0.00000
   O   0.2911668  -0.1336012   0.1075441 SPIN=   0.00000
   O   0.2570827   0.1591345  -0.1275919 SPIN=   0.00000
   P  -0.3278346  -0.3278346   0.3443308 SPIN=   0.00000
   P   0.4221654  -0.0778346  -0.1556692 SPIN=   0.00000
  Fe   0.3344755   0.3344755  -0.3310490 SPIN=   4.00000
  Fe   0.0844755  -0.4155245   0.1689510 SPIN=   4.00000
%ENDBLOCK POSITIONS_FRAC

# Note: total spin =   8.00

KPOINTS_MP_SPACING 0.07

%BLOCK SPECIES_POT
QC5
%ENDBLOCK SPECIES_POT

%BLOCK HUBBARD_U
Fe d:4.0
%ENDBLOCK HUBBARD_U

SNAP_TO_SYMMETRY
SYMMETRY_GENERATE

