#              Generated by Buildcell
#
# at 08:37:28 (GMT+0.0) 24th November 2020
# in /lustre/scratch/uccabz1/launch_tmp
# on node-c12h-026
# by uccabz1
#
# compiler GCC version 4.9.2
# options -cpp -iprefix /lustre/shared/ucl/apps/gcc/4.9.2/bin/../lib/gcc/x86_64-unknown-linux-gnu/4.9.2/ -mtune=corei7 -march=x86-64 -g -Og
#
# seed   407004543   239566327   491139239  1534826775  -307511051 -1560939661  1275518397  2124217963 -1693686806 -1046913401  -292701724  -300066279
#
#      Author: C. J. Pickard (cjp20@cam.ac.uk)
#                Space group: Iba2
#

%BLOCK LATTICE_ABC
      5.50121      5.50274      6.56292
    114.78595    114.77856     90.00000
%ENDBLOCK LATTICE_ABC

%BLOCK POSITIONS_FRAC
  Li  -0.1913884   0.3086116  -0.3827768 SPIN=   0.00000
  Li   0.3086116  -0.1913884  -0.3827768 SPIN=   0.00000
   O   0.4850553   0.1702175   0.6553256 SPIN=   0.00000
   O   0.4074053   0.2290833   0.2613308 SPIN=   0.00000
   O   0.1702703   0.4851081   0.6553256 SPIN=   0.00000
   O  -0.1460745   0.0322475   0.2613308 SPIN=   0.00000
   O  -0.0149447  -0.0148919   0.6553256 SPIN=   0.00000
   O  -0.0925947  -0.4677525   0.2613308 SPIN=   0.00000
   O  -0.3297297  -0.3297825   0.6553256 SPIN=   0.00000
   O  -0.6460745  -0.2709167   0.2613308 SPIN=   0.00000
   P   0.0592524  -0.4407476   0.1185048 SPIN=   0.00000
   P  -0.4407476   0.0592524   0.1185048 SPIN=   0.00000
  Fe  -0.0117414  -0.0117414  -0.0234828 SPIN=   4.00000
  Fe   0.4882586   0.4882586  -0.0234828 SPIN=   4.00000
%ENDBLOCK POSITIONS_FRAC

# Note: total spin =   8.00

KPOINTS_MP_SPACING 0.07

%BLOCK SPECIES_POT
QC5
%ENDBLOCK SPECIES_POT

%BLOCK HUBBARD_U
Fe d:4.0
%ENDBLOCK HUBBARD_U

SNAP_TO_SYMMETRY
SYMMETRY_GENERATE

