#              Generated by Buildcell
#
# at 11:10:57 (GMT+0.0) 24th November 2020
# in /lustre/scratch/uccabz1/launch_tmp
# on node-c12f-020
# by uccabz1
#
# compiler GCC version 4.9.2
# options -cpp -iprefix /lustre/shared/ucl/apps/gcc/4.9.2/bin/../lib/gcc/x86_64-unknown-linux-gnu/4.9.2/ -mtune=corei7 -march=x86-64 -g -Og
#
# seed   697775737 -1717600050    14424839    40267068  -868543973 -1757389217  -467506670 -2143441964  1868700570  -349177546 -1638360557  -595522451
#
#      Author: C. J. Pickard (cjp20@cam.ac.uk)
#                Space group: C2
#

%BLOCK LATTICE_ABC
      5.06371      5.93441      6.23383
    107.30275     90.00000    115.25447
%ENDBLOCK LATTICE_ABC

%BLOCK POSITIONS_FRAC
  Li  -0.2626764  -0.0306760   0.2338489 SPIN=   0.00000
  Li  -0.2320004   0.0306760  -0.2338489 SPIN=   0.00000
   O  -0.1047657  -0.3755632  -0.0152173 SPIN=   0.00000
   O   0.4160188  -0.2549747  -0.1365301 SPIN=   0.00000
   O  -0.0177053  -0.5995272  -0.4168514 SPIN=   0.00000
   O   0.0729118  -0.1279337  -0.3045796 SPIN=   0.00000
   P   0.0809379  -0.3389231  -0.2085000 SPIN=   0.00000
   O   0.2707975   0.3755632   0.0152173 SPIN=   0.00000
   O   0.6709934   0.2549747   0.1365301 SPIN=   0.00000
   O   0.5818219   0.5995272   0.4168514 SPIN=   0.00000
   O   0.2008455   0.1279337   0.3045796 SPIN=   0.00000
   P   0.4198611   0.3389231   0.2085000 SPIN=   0.00000
  Fe   0.0570562  -0.3912073   0.3076911 SPIN=   4.00000
  Fe   0.4482635   0.3912073  -0.3076911 SPIN=   4.00000
%ENDBLOCK POSITIONS_FRAC

# Note: total spin =   8.00

KPOINTS_MP_SPACING 0.07

%BLOCK SPECIES_POT
QC5
%ENDBLOCK SPECIES_POT

%BLOCK HUBBARD_U
Fe d:4.0
%ENDBLOCK HUBBARD_U

SNAP_TO_SYMMETRY
SYMMETRY_GENERATE

