#              Generated by Buildcell
#
# at 20:07:55 (GMT+0.0) 26th November 2020
# in /scratch/scratch/mmm0366/launch_tmp
# on node-k98n-026
# by mmm0366
#
# compiler GCC version 4.9.2
# options -cpp -iprefix /scratch/UCL/applications/gcc/4.9.2/bin/../lib/gcc/x86_64-unknown-linux-gnu/4.9.2/ -mtune=corei7 -march=x86-64 -g -O2
#
# seed  -620655987  -245311217  1599520829  -250187126  -716394936 -1709608878 -1082321196  -230635803 -1012777918   533906774  1194303561   -58756415
#
#      Author: C. J. Pickard (cjp20@cam.ac.uk)
#                Space group: C2
#

%BLOCK LATTICE_ABC
      5.56208      8.17975      8.17975
     62.44988     77.97036     77.97036
%ENDBLOCK LATTICE_ABC

%BLOCK POSITIONS_FRAC
  Li   0.2013611  -0.2822004   0.3949811 SPIN=   0.00000
  Li  -0.2013611  -0.3949811   0.2822004 SPIN=   0.00000
  Li  -0.2968315   0.0789693   0.0303346 SPIN=   0.00000
  Li   0.2968315  -0.0303346  -0.0789693 SPIN=   0.00000
   O   0.3142124  -0.5054618  -0.3581685 SPIN=   0.00000
   O   0.3871023  -0.3056400  -0.2061107 SPIN=   0.00000
   O   0.5461527  -0.6403758  -0.0687353 SPIN=   0.00000
   O   0.7485022  -0.4262776  -0.3780870 SPIN=   0.00000
   P   0.4920983  -0.4708475  -0.2598658 SPIN=   0.00000
   O  -0.3142124   0.3581685   0.5054618 SPIN=   0.00000
   O  -0.3871023   0.2061107   0.3056400 SPIN=   0.00000
   O  -0.5461527   0.0687353   0.6403758 SPIN=   0.00000
   O  -0.7485022   0.3780870   0.4262776 SPIN=   0.00000
   P  -0.4920983   0.2598658   0.4708475 SPIN=   0.00000
   O  -0.3905579  -0.2796435   0.0315226 SPIN=   0.00000
   O  -0.0527178  -0.2655674  -0.2454029 SPIN=   0.00000
   O  -0.1907672   0.0188731  -0.1988544 SPIN=   0.00000
   O   0.0646071  -0.2495892   0.0258140 SPIN=   0.00000
   P  -0.1531319  -0.1991991  -0.0884552 SPIN=   0.00000
   O   0.3905579  -0.0315226   0.2796435 SPIN=   0.00000
   O   0.0527178   0.2454029   0.2655674 SPIN=   0.00000
   O   0.1907672   0.1988544  -0.0188731 SPIN=   0.00000
   O  -0.0646071  -0.0258140   0.2495892 SPIN=   0.00000
   P   0.1531319   0.0884552   0.1991991 SPIN=   0.00000
  Fe  -0.0116140   0.4499725  -0.1742771 SPIN=   4.02711
  Fe   0.0116140   0.1742771  -0.4499725 SPIN=   4.02711
  Fe   0.3771319  -0.4826202   0.1155623 SPIN=   3.97289
  Fe  -0.3771319  -0.1155623   0.4826202 SPIN=   3.97289
%ENDBLOCK POSITIONS_FRAC

# Note: total spin =  16.00

KPOINTS_MP_SPACING 0.07

%BLOCK SPECIES_POT
QC5
%ENDBLOCK SPECIES_POT

%BLOCK HUBBARD_U
Fe d:4.0
%ENDBLOCK HUBBARD_U

SNAP_TO_SYMMETRY
SYMMETRY_GENERATE

