#              Generated by Buildcell
#
# at 13:52:15 (GMT+0.0) 24th November 2020
# in /lustre/scratch/uccabz1/launch_tmp
# on node-c12d-022
# by uccabz1
#
# compiler GCC version 4.9.2
# options -cpp -iprefix /lustre/shared/ucl/apps/gcc/4.9.2/bin/../lib/gcc/x86_64-unknown-linux-gnu/4.9.2/ -mtune=corei7 -march=x86-64 -g -Og
#
# seed  -533484235  1255344382  -271127760 -1949350720 -1230919855   294306363  1979853775   358118658  1044566641  -332081232  -527158327 -1845366454
#
#      Author: C. J. Pickard (cjp20@cam.ac.uk)
#                Space group: Fdd2
#

%BLOCK LATTICE_ABC
      5.34227      5.34227      6.66861
    110.72866    110.72866     96.68240
%ENDBLOCK LATTICE_ABC

%BLOCK POSITIONS_FRAC
  Li   0.0370075  -0.4629925   0.0740151 SPIN=   0.00000
  Li   0.2870075   0.2870075  -0.4259849 SPIN=   0.00000
   O  -0.2995569  -0.4620501  -0.2690006 SPIN=   0.00000
   O   0.0979482  -0.3209372  -0.3795304 SPIN=   0.00000
   O   0.0305563   0.1930495  -0.2690006 SPIN=   0.00000
   O  -0.4774786  -0.0585932  -0.3795304 SPIN=   0.00000
   O   0.2879499  -0.0495569   0.2309994 SPIN=   0.00000
   O   0.4290628   0.3479482   0.1204696 SPIN=   0.00000
   O  -0.0569505   0.2805563   0.2309994 SPIN=   0.00000
   O  -0.3085932  -0.2274786   0.1204696 SPIN=   0.00000
   P   0.0494329   0.0494329   0.0988658 SPIN=   0.00000
   P  -0.2005671   0.2994329  -0.4011342 SPIN=   0.00000
  Fe   0.4589270  -0.0410730  -0.0821460 SPIN=   4.00000
  Fe  -0.2910730  -0.2910730   0.4178540 SPIN=   4.00000
%ENDBLOCK POSITIONS_FRAC

# Note: total spin =   8.00

KPOINTS_MP_SPACING 0.07

%BLOCK SPECIES_POT
QC5
%ENDBLOCK SPECIES_POT

%BLOCK HUBBARD_U
Fe d:4.0
%ENDBLOCK HUBBARD_U

SNAP_TO_SYMMETRY
SYMMETRY_GENERATE

