#              Generated by Buildcell
#
# at 11:47:08 (GMT+0.0) 24th November 2020
# in /scratch/scratch/uccabz1/launch_tmp
# on node-a14e-012
# by uccabz1
#
# compiler GCC version 4.9.2
# options -cpp -iprefix /scratch/UCL/applications/gcc/4.9.2/bin/../lib/gcc/x86_64-unknown-linux-gnu/4.9.2/ -mtune=corei7 -march=x86-64 -g -O2
#
# seed  1640136824 -1410326651   -19844223   -32437240   -45792400   248515062   773853198  1181472184   634415546  -902510514 -1290534966   -44422997
#
#      Author: C. J. Pickard (cjp20@cam.ac.uk)
#                Space group: Aem2
#

%BLOCK LATTICE_ABC
      4.32682      6.14017      6.14017
    101.23953     90.00000     90.00000
%ENDBLOCK LATTICE_ABC

%BLOCK POSITIONS_FRAC
  Li   0.5000000  -0.2898783  -0.2898783 SPIN=   0.00000
  Li  -0.5000000   0.2101217   0.2101217 SPIN=   0.00000
   O  -0.1567357   0.4544833   0.2145872 SPIN=   0.00000
   O  -0.3386175   0.3834445   0.5979238 SPIN=   0.00000
   O   0.1567357   0.2145872   0.4544833 SPIN=   0.00000
   O   0.3386175   0.5979238   0.3834445 SPIN=   0.00000
   O  -0.1567357  -0.2854128  -0.0455167 SPIN=   0.00000
   O  -0.3386175   0.0979238  -0.1165555 SPIN=   0.00000
   O   0.1567357  -0.0455167  -0.2854128 SPIN=   0.00000
   O   0.3386175  -0.1165555   0.0979238 SPIN=   0.00000
   P   0.5000000   0.1211158  -0.3788842 SPIN=   0.00000
   P  -0.5000000  -0.3788842   0.1211158 SPIN=   0.00000
  Fe   0.0000000   0.3622144  -0.1377856 SPIN=   4.00000
  Fe  -0.0000000  -0.1377856   0.3622144 SPIN=   4.00000
%ENDBLOCK POSITIONS_FRAC

# Note: total spin =   8.00

KPOINTS_MP_SPACING 0.07

%BLOCK SPECIES_POT
QC5
%ENDBLOCK SPECIES_POT

%BLOCK HUBBARD_U
Fe d:4.0
%ENDBLOCK HUBBARD_U

SNAP_TO_SYMMETRY
SYMMETRY_GENERATE

