#              Generated by Buildcell
#
# at 21:44:09 (GMT+0.0) 26th November 2020
# in /lustre/scratch/uccabz1/launch_tmp
# on node-c12g-023
# by uccabz1
#
# compiler GCC version 4.9.2
# options -cpp -iprefix /lustre/shared/ucl/apps/gcc/4.9.2/bin/../lib/gcc/x86_64-unknown-linux-gnu/4.9.2/ -mtune=corei7 -march=x86-64 -g -Og
#
# seed  1796069109  1143410831  2080954556   695634744  1622269213  1299600779   248279970 -2005033327   472962053  1921519115  -860467144 -1327583287
#
#      Author: C. J. Pickard (cjp20@cam.ac.uk)
#                Space group: P41
#

%BLOCK LATTICE_ABC
      5.16930      5.16930     11.97532
     90.00000     90.00000     90.00000
%ENDBLOCK LATTICE_ABC

%BLOCK POSITIONS_FRAC
  Li  -0.2574118   0.4341982   0.2225293 SPIN=   0.00000
  Li   0.2574118  -0.4341982  -0.2774707 SPIN=   0.00000
  Li  -0.4341982  -0.2574118   0.4725293 SPIN=   0.00000
  Li   0.4341982   0.2574118  -0.0274707 SPIN=   0.00000
   O  -0.5468016  -0.2770801   0.2995512 SPIN=   0.00000
   O  -0.3009368   0.1357047   0.3632300 SPIN=   0.00000
   O  -0.0741152  -0.1744379   0.2406248 SPIN=   0.00000
   O  -0.4355394   0.0936598   0.1631580 SPIN=   0.00000
   P  -0.3515293  -0.0655736   0.2671721 SPIN=   0.00000
   O   0.5468016   0.2770801  -0.2004488 SPIN=   0.00000
   O   0.3009368  -0.1357047  -0.1367700 SPIN=   0.00000
   O   0.0741152   0.1744379  -0.2593752 SPIN=   0.00000
   O   0.4355394  -0.0936598  -0.3368420 SPIN=   0.00000
   P   0.3515293   0.0655736  -0.2328279 SPIN=   0.00000
   O   0.2770801  -0.5468016  -0.4504488 SPIN=   0.00000
   O  -0.1357047  -0.3009368  -0.3867700 SPIN=   0.00000
   O   0.1744379  -0.0741152  -0.5093752 SPIN=   0.00000
   O  -0.0936598  -0.4355394  -0.5868420 SPIN=   0.00000
   P   0.0655736  -0.3515293  -0.4828279 SPIN=   0.00000
   O  -0.2770801   0.5468016   0.0495512 SPIN=   0.00000
   O   0.1357047   0.3009368   0.1132300 SPIN=   0.00000
   O  -0.1744379   0.0741152  -0.0093752 SPIN=   0.00000
   O   0.0936598   0.4355394  -0.0868420 SPIN=   0.00000
   P  -0.0655736   0.3515293   0.0171721 SPIN=   0.00000
  Fe   0.2425744  -0.2424346   0.1229189 SPIN=   4.00000
  Fe  -0.2425744   0.2424346  -0.3770811 SPIN=   4.00000
  Fe   0.2424346   0.2425744   0.3729189 SPIN=   4.00000
  Fe  -0.2424346  -0.2425744  -0.1270811 SPIN=   4.00000
%ENDBLOCK POSITIONS_FRAC

# Note: total spin =  16.00

KPOINTS_MP_SPACING 0.07

%BLOCK SPECIES_POT
QC5
%ENDBLOCK SPECIES_POT

%BLOCK HUBBARD_U
Fe d:4.0
%ENDBLOCK HUBBARD_U

SNAP_TO_SYMMETRY
SYMMETRY_GENERATE

