#              Generated by Buildcell
#
# at 20:06:36 (GMT+0.0) 26th November 2020
# in /scratch/scratch/mmm0366/launch_tmp
# on node-k98c-035
# by mmm0366
#
# compiler GCC version 4.9.2
# options -cpp -iprefix /scratch/UCL/applications/gcc/4.9.2/bin/../lib/gcc/x86_64-unknown-linux-gnu/4.9.2/ -mtune=corei7 -march=x86-64 -g -O2
#
# seed -2110391647    43647166  -532056185   509041341  -329631129 -1886880805   -56135998   594369650   238834362   193786386 -1416196491   602530538
#
#      Author: C. J. Pickard (cjp20@cam.ac.uk)
#                Space group: C2221
#

%BLOCK LATTICE_ABC
      6.52829      7.33792      7.45859
     90.00000     90.00000    116.41262
%ENDBLOCK LATTICE_ABC

%BLOCK POSITIONS_FRAC
  Li   0.2930163  -0.4139675   0.2500000 SPIN=   0.00000
  Li  -0.2930163   0.4139675  -0.2500000 SPIN=   0.00000
  Li   0.0094562   0.0189124   0.2500000 SPIN=   0.00000
  Li  -0.0094562  -0.0189124  -0.2500000 SPIN=   0.00000
   O  -0.0858920  -0.2088830  -0.0228211 SPIN=   0.00000
   O  -0.4391598  -0.1802635   0.1082871 SPIN=   0.00000
   O  -0.4180729  -0.2165496  -0.2195315 SPIN=   0.00000
   O  -0.4886198  -0.5128990  -0.0196806 SPIN=   0.00000
   P  -0.3449933  -0.2786335  -0.0373837 SPIN=   0.00000
   O   0.0858920   0.2088830   0.4771789 SPIN=   0.00000
   O   0.4391598   0.1802635   0.6082871 SPIN=   0.00000
   O   0.4180729   0.2165496   0.2804685 SPIN=   0.00000
   O   0.4886198   0.5128990   0.4803194 SPIN=   0.00000
   P   0.3449933   0.2786335   0.4626163 SPIN=   0.00000
   O  -0.1229910  -0.2088830  -0.4771789 SPIN=   0.00000
   O   0.2588962  -0.1802635  -0.6082871 SPIN=   0.00000
   O   0.2015233  -0.2165496  -0.2804685 SPIN=   0.00000
   O  -0.0242792  -0.5128990  -0.4803194 SPIN=   0.00000
   P   0.0663599  -0.2786335  -0.4626163 SPIN=   0.00000
   O   0.1229910   0.2088830   0.0228211 SPIN=   0.00000
   O  -0.2588962   0.1802635  -0.1082871 SPIN=   0.00000
   O  -0.2015233   0.2165496   0.2195315 SPIN=   0.00000
   O   0.0242792   0.5128990   0.0196806 SPIN=   0.00000
   P  -0.0663599   0.2786335   0.0373837 SPIN=   0.00000
  Fe   0.2419363   0.4838725  -0.2500000 SPIN=   3.73839
  Fe  -0.2419363  -0.4838725   0.2500000 SPIN=   3.73839
  Fe   0.4161874  -0.0000000  -0.0000000 SPIN=   4.26161
  Fe  -0.4161874   0.0000000  -0.5000000 SPIN=   4.26161
%ENDBLOCK POSITIONS_FRAC

# Note: total spin =  16.00

KPOINTS_MP_SPACING 0.07

%BLOCK SPECIES_POT
QC5
%ENDBLOCK SPECIES_POT

%BLOCK HUBBARD_U
Fe d:4.0
%ENDBLOCK HUBBARD_U

SNAP_TO_SYMMETRY
SYMMETRY_GENERATE

