#              Generated by Buildcell
#
# at 09:33:08 (GMT+0.0) 1st December 2020
# in /lustre/scratch/uccabz1/launch_tmp
# on node-c12c-023
# by uccabz1
#
# compiler GCC version 4.9.2
# options -cpp -iprefix /lustre/shared/ucl/apps/gcc/4.9.2/bin/../lib/gcc/x86_64-unknown-linux-gnu/4.9.2/ -mtune=corei7 -march=x86-64 -g -Og
#
# seed   653802928 -1296378454   821053458  1727039821 -2015270582  1642141299 -1686863800  1475825420   862428756  1140485222   114323638  -930263264
#
#      Author: C. J. Pickard (cjp20@cam.ac.uk)
#                Space group: P-1
#

%BLOCK LATTICE_ABC
      4.16838      7.21895     11.09749
    105.29170     95.58188     91.86035
%ENDBLOCK LATTICE_ABC

%BLOCK POSITIONS_FRAC
  Li  -0.4465694   0.2917301  -0.0620547 SPIN=   0.00000
  Li   0.4465694  -0.2917301   0.0620547 SPIN=   0.00000
  Li  -0.0000000   0.5000000  -0.5000000 SPIN=   0.00000
  Li   0.0000000   0.0000000  -0.0000000 SPIN=   0.00000
   O   0.2693641   0.0324482   0.2240503 SPIN=   0.00000
   O   0.2428977  -0.0676606   0.4313871 SPIN=   0.00000
   O   0.3292969   0.2775513   0.4445598 SPIN=   0.00000
   O  -0.2101278   0.1080256   0.3564758 SPIN=   0.00000
   P   0.1594522   0.0848962   0.3565701 SPIN=   0.00000
   O  -0.2693641  -0.0324482  -0.2240503 SPIN=   0.00000
   O  -0.2428977   0.0676606  -0.4313871 SPIN=   0.00000
   O  -0.3292969  -0.2775513  -0.4445598 SPIN=   0.00000
   O   0.2101278  -0.1080256  -0.3564758 SPIN=   0.00000
   P  -0.1594522  -0.0848962  -0.3565701 SPIN=   0.00000
   O   0.1146843   0.2480861  -0.1858290 SPIN=   0.00000
   O   0.0664118   0.5091059  -0.3080415 SPIN=   0.00000
   O  -0.3912100   0.4467726  -0.1956269 SPIN=   0.00000
   P  -0.0127325   0.4445008  -0.1889119 SPIN=   0.00000
   O  -0.1146843  -0.2480861   0.1858290 SPIN=   0.00000
   O  -0.0664118  -0.5091059   0.3080415 SPIN=   0.00000
   O   0.3912100  -0.4467726   0.1956269 SPIN=   0.00000
   P   0.0127325  -0.4445008   0.1889119 SPIN=   0.00000
   O   0.5000000  -0.0000000   0.0000000 SPIN=   0.00000
   O   0.0000000   0.5000000   0.0000000 SPIN=   0.00000
  Fe   0.3379603   0.1905042  -0.3657178 SPIN=   2.91079
  Fe  -0.3379603  -0.1905042   0.3657178 SPIN=   2.91079
  Fe   0.3927045  -0.2536281  -0.2272810 SPIN=   5.08921
  Fe  -0.3927045   0.2536281   0.2272810 SPIN=   5.08921
%ENDBLOCK POSITIONS_FRAC

# Note: total spin =  16.00

KPOINTS_MP_SPACING 0.07

%BLOCK SPECIES_POT
QC5
%ENDBLOCK SPECIES_POT

%BLOCK HUBBARD_U
Fe d:4.0
%ENDBLOCK HUBBARD_U

SNAP_TO_SYMMETRY
SYMMETRY_GENERATE

