#              Generated by Buildcell
#
# at 10:41:07 (GMT+0.0) 24th November 2020
# in /lustre/scratch/uccabz1/launch_tmp
# on node-c12c-029
# by uccabz1
#
# compiler GCC version 4.9.2
# options -cpp -iprefix /lustre/shared/ucl/apps/gcc/4.9.2/bin/../lib/gcc/x86_64-unknown-linux-gnu/4.9.2/ -mtune=corei7 -march=x86-64 -g -Og
#
# seed   299332357  1034524553 -1815951847  -591456839 -1446316562  1875532279  -902654591 -2139285880   126183905  -502949688 -1762046003  1476626340
#
#      Author: C. J. Pickard (cjp20@cam.ac.uk)
#                Space group: P-1
#

%BLOCK LATTICE_ABC
      5.25473      5.26164      6.57363
     67.13245     72.87985     82.21457
%ENDBLOCK LATTICE_ABC

%BLOCK POSITIONS_FRAC
  Li   0.2750731  -0.3090698  -0.3463772 SPIN=   0.00000
  Li  -0.2750731   0.3090698   0.3463772 SPIN=   0.00000
   O   0.0741075  -0.0379912  -0.1821181 SPIN=   0.00000
   O   0.3041891   0.4012877  -0.5056578 SPIN=   0.00000
   O   0.3335762   0.2937587  -0.1124205 SPIN=   0.00000
   O   0.5859578  -0.0015447  -0.3300426 SPIN=   0.00000
   P   0.3142137   0.1511770  -0.2777721 SPIN=   0.00000
   O  -0.0741075   0.0379912   0.1821181 SPIN=   0.00000
   O  -0.3041891  -0.4012877   0.5056578 SPIN=   0.00000
   O  -0.3335762  -0.2937587   0.1124205 SPIN=   0.00000
   O  -0.5859578   0.0015447   0.3300426 SPIN=   0.00000
   P  -0.3142137  -0.1511770   0.2777721 SPIN=   0.00000
  Fe   0.2394063  -0.2909811   0.1574980 SPIN=   4.00000
  Fe  -0.2394063   0.2909811  -0.1574980 SPIN=   4.00000
%ENDBLOCK POSITIONS_FRAC

# Note: total spin =   8.00

KPOINTS_MP_SPACING 0.07

%BLOCK SPECIES_POT
QC5
%ENDBLOCK SPECIES_POT

%BLOCK HUBBARD_U
Fe d:4.0
%ENDBLOCK HUBBARD_U

SNAP_TO_SYMMETRY
SYMMETRY_GENERATE

