#              Generated by Buildcell
#
# at 06:14:13 (GMT+0.0) 24th November 2020
# in /lustre/scratch/uccabz1/launch_tmp
# on node-c12l-030
# by uccabz1
#
# compiler GCC version 4.9.2
# options -cpp -iprefix /lustre/shared/ucl/apps/gcc/4.9.2/bin/../lib/gcc/x86_64-unknown-linux-gnu/4.9.2/ -mtune=corei7 -march=x86-64 -g -Og
#
# seed    -7985214  -112222222   789632789  1614140159 -1761190976  1995025317  1908279624 -1285372203  1397328973  1698885712   698498144  1087767922
#
#      Author: C. J. Pickard (cjp20@cam.ac.uk)
#                Space group: P-1
#

%BLOCK LATTICE_ABC
      4.38479      5.65230      7.22793
    112.16562    102.52078     93.33702
%ENDBLOCK LATTICE_ABC

%BLOCK POSITIONS_FRAC
  Li  -0.5593511   0.2083577  -0.1125554 SPIN=   0.00000
  Li   0.5593511  -0.2083577   0.1125554 SPIN=   0.00000
   O  -0.2774534  -0.6552466  -0.4789325 SPIN=   0.00000
   O   0.2458332  -0.8416979  -0.4207162 SPIN=   0.00000
   O   0.1825445  -0.4395183  -0.1455881 SPIN=   0.00000
   O  -0.1360683  -0.8592363  -0.2122472 SPIN=   0.00000
   O   0.2774534   0.6552466   0.4789325 SPIN=   0.00000
   O  -0.2458332   0.8416979   0.4207162 SPIN=   0.00000
   O  -0.1825445   0.4395183   0.1455881 SPIN=   0.00000
   O   0.1360683   0.8592363   0.2122472 SPIN=   0.00000
   P   0.5000000   0.0000000   0.5000000 SPIN=   0.00000
   P  -0.0000000   0.5000000   0.0000000 SPIN=   0.00000
  Fe  -0.1509863  -0.2618835  -0.2816612 SPIN=   4.00000
  Fe   0.1509863   0.2618835   0.2816612 SPIN=   4.00000
%ENDBLOCK POSITIONS_FRAC

# Note: total spin =   8.00

KPOINTS_MP_SPACING 0.07

%BLOCK SPECIES_POT
QC5
%ENDBLOCK SPECIES_POT

%BLOCK HUBBARD_U
Fe d:4.0
%ENDBLOCK HUBBARD_U

SNAP_TO_SYMMETRY
SYMMETRY_GENERATE

