#              Generated by Buildcell
#
# at 20:07:55 (GMT+0.0) 26th November 2020
# in /scratch/scratch/mmm0366/launch_tmp
# on node-k98g-018
# by mmm0366
#
# compiler GCC version 4.9.2
# options -cpp -iprefix /scratch/UCL/applications/gcc/4.9.2/bin/../lib/gcc/x86_64-unknown-linux-gnu/4.9.2/ -mtune=corei7 -march=x86-64 -g -O2
#
# seed   943775504  1992235420  1826995389  -119530095  1972427614 -1691841562 -1651535821  1980960017  1968355583  1225186417 -1994718074  1077800613
#
#      Author: C. J. Pickard (cjp20@cam.ac.uk)
#                Space group: C2
#

%BLOCK LATTICE_ABC
      4.78493      4.78493     15.50744
     90.93635     90.93635    115.61723
%ENDBLOCK LATTICE_ABC

%BLOCK POSITIONS_FRAC
  Li  -0.2377230  -0.1867869  -0.2831609 SPIN=   0.00000
  Li   0.1867869   0.2377230   0.2831609 SPIN=   0.00000
  Li   0.2507578   0.2569067   0.0502033 SPIN=   0.00000
  Li  -0.2569067  -0.2507578  -0.0502033 SPIN=   0.00000
   O   0.3736128   0.3895643  -0.3069899 SPIN=   0.00000
   O   0.6543775   0.0801086  -0.3726577 SPIN=   0.00000
   O   0.2252039  -0.1872021  -0.2737634 SPIN=   0.00000
   O   0.1090091  -0.0509255  -0.4210503 SPIN=   0.00000
   P   0.3395788   0.0742624  -0.3425790 SPIN=   0.00000
   O  -0.3895643  -0.3736128   0.3069899 SPIN=   0.00000
   O  -0.0801086  -0.6543775   0.3726577 SPIN=   0.00000
   O   0.1872021  -0.2252039   0.2737634 SPIN=   0.00000
   O   0.0509255  -0.1090091   0.4210503 SPIN=   0.00000
   P  -0.0742624  -0.3395788   0.3425790 SPIN=   0.00000
   O   0.0021523   0.4682003  -0.0150231 SPIN=   0.00000
   O  -0.0429617   0.0892773  -0.1421278 SPIN=   0.00000
   O  -0.1762134   0.5244137  -0.1702797 SPIN=   0.00000
   O   0.3781906   0.6315587  -0.1419313 SPIN=   0.00000
   P   0.0422488   0.4328815  -0.1121828 SPIN=   0.00000
   O  -0.4682003  -0.0021523   0.0150231 SPIN=   0.00000
   O  -0.0892773   0.0429617   0.1421278 SPIN=   0.00000
   O  -0.5244137   0.1762134   0.1702797 SPIN=   0.00000
   O  -0.6315587  -0.3781906   0.1419313 SPIN=   0.00000
   P  -0.4328815  -0.0422488   0.1121828 SPIN=   0.00000
  Fe  -0.0913691  -0.3900286   0.1583150 SPIN=   6.28286
  Fe   0.3900286   0.0913691  -0.1583150 SPIN=   6.28286
  Fe  -0.4528441  -0.0650696   0.4059962 SPIN=   1.71714
  Fe   0.0650696   0.4528441  -0.4059962 SPIN=   1.71714
%ENDBLOCK POSITIONS_FRAC

# Note: total spin =  16.00

KPOINTS_MP_SPACING 0.07

%BLOCK SPECIES_POT
QC5
%ENDBLOCK SPECIES_POT

%BLOCK HUBBARD_U
Fe d:4.0
%ENDBLOCK HUBBARD_U

SNAP_TO_SYMMETRY
SYMMETRY_GENERATE

