#              Generated by Buildcell
#
# at 07:47:28 (GMT+0.0) 24th November 2020
# in /lustre/scratch/uccabz1/launch_tmp
# on node-c12o-036
# by uccabz1
#
# compiler GCC version 4.9.2
# options -cpp -iprefix /lustre/shared/ucl/apps/gcc/4.9.2/bin/../lib/gcc/x86_64-unknown-linux-gnu/4.9.2/ -mtune=corei7 -march=x86-64 -g -Og
#
# seed   819777498  1847574899   705549679    38652929 -1830388922 -1435502666 -2099650853  1729197042 -1017785053  1452367609   810418107 -1860404892
#
#      Author: C. J. Pickard (cjp20@cam.ac.uk)
#                Space group: P21
#

%BLOCK LATTICE_ABC
      3.91144      4.62788      8.83896
     90.00000     90.00000     90.02801
%ENDBLOCK LATTICE_ABC

%BLOCK POSITIONS_FRAC
  Li  -0.2316221  -0.3673357   0.1141237 SPIN=   0.00000
  Li   0.2316221   0.3673357  -0.3858763 SPIN=   0.00000
   O  -0.6299697  -0.4078002   0.2735693 SPIN=   0.00000
   O  -0.1913313  -0.6117417   0.4666943 SPIN=   0.00000
   O  -0.1083295  -0.1147781   0.3715897 SPIN=   0.00000
   O  -0.5929609  -0.2203750   0.5483347 SPIN=   0.00000
   P  -0.3964286  -0.3409584   0.4090870 SPIN=   0.00000
   O   0.6299697   0.4078002  -0.2264307 SPIN=   0.00000
   O   0.1913313   0.6117417  -0.0333057 SPIN=   0.00000
   O   0.1083295   0.1147781  -0.1284103 SPIN=   0.00000
   O   0.5929609   0.2203750   0.0483347 SPIN=   0.00000
   P   0.3964286   0.3409584  -0.0909130 SPIN=   0.00000
  Fe  -0.2680260  -0.1326603  -0.2377033 SPIN=   4.00000
  Fe   0.2680260   0.1326603   0.2622967 SPIN=   4.00000
%ENDBLOCK POSITIONS_FRAC

# Note: total spin =   8.00

KPOINTS_MP_SPACING 0.07

%BLOCK SPECIES_POT
QC5
%ENDBLOCK SPECIES_POT

%BLOCK HUBBARD_U
Fe d:4.0
%ENDBLOCK HUBBARD_U

SNAP_TO_SYMMETRY
SYMMETRY_GENERATE

