#              Generated by Buildcell
#
# at 22:06:38 (GMT+0.0) 26th November 2020
# in /lustre/scratch/uccabz1/launch_tmp
# on node-c12f-031
# by uccabz1
#
# compiler GCC version 4.9.2
# options -cpp -iprefix /lustre/shared/ucl/apps/gcc/4.9.2/bin/../lib/gcc/x86_64-unknown-linux-gnu/4.9.2/ -mtune=corei7 -march=x86-64 -g -Og
#
# seed  1412474986  1805567989  -887291307   766301810  -994437365  -406010240   191786665  1727881093  -899777307  1932636298  2069408195   964465676
#
#      Author: C. J. Pickard (cjp20@cam.ac.uk)
#                Space group: P21
#

%BLOCK LATTICE_ABC
      5.75256      5.90591      9.62827
    101.96943     90.00000     90.00000
%ENDBLOCK LATTICE_ABC

%BLOCK POSITIONS_FRAC
  Li  -0.2042002  -0.3401594  -0.3111210 SPIN=   0.00000
  Li   0.2957998   0.3401594   0.3111210 SPIN=   0.00000
  Li  -0.2010680   0.1802280   0.4988561 SPIN=   0.00000
  Li   0.2989320  -0.1802280  -0.4988561 SPIN=   0.00000
   O   0.2597516  -0.0625389   0.1228123 SPIN=   0.00000
   O   0.0507266  -0.1203385   0.3521304 SPIN=   0.00000
   O   0.0593647  -0.4474721   0.1454394 SPIN=   0.00000
   O   0.4258769  -0.3273016   0.2811569 SPIN=   0.00000
   P   0.2048466  -0.2310323   0.2205815 SPIN=   0.00000
   O  -0.2402484   0.0625389  -0.1228123 SPIN=   0.00000
   O  -0.4492734   0.1203385  -0.3521304 SPIN=   0.00000
   O  -0.4406353   0.4474721  -0.1454394 SPIN=   0.00000
   O  -0.0741231   0.3273016  -0.2811569 SPIN=   0.00000
   P  -0.2951534   0.2310323  -0.2205815 SPIN=   0.00000
   O  -0.4213177   0.2992877   0.1170555 SPIN=   0.00000
   O  -0.1833112  -0.0723772   0.1231921 SPIN=   0.00000
   O  -0.0827294   0.2872584   0.2939545 SPIN=   0.00000
   O  -0.4552877   0.0829236   0.3234070 SPIN=   0.00000
   P  -0.2948863   0.1564776   0.2105054 SPIN=   0.00000
   O   0.0786823  -0.2992877  -0.1170555 SPIN=   0.00000
   O   0.3166888   0.0723772  -0.1231921 SPIN=   0.00000
   O   0.4172706  -0.2872584  -0.2939545 SPIN=   0.00000
   O   0.0447123  -0.0829236  -0.3234070 SPIN=   0.00000
   P   0.2051137  -0.1564776  -0.2105054 SPIN=   0.00000
  Fe   0.2915127   0.3719792  -0.3438541 SPIN=   0.98243
  Fe  -0.2084873  -0.3719792   0.3438541 SPIN=   0.98243
  Fe  -0.4641840  -0.2250370  -0.0007930 SPIN=   7.01757
  Fe   0.0358160   0.2250370   0.0007930 SPIN=   7.01757
%ENDBLOCK POSITIONS_FRAC

# Note: total spin =  16.00

KPOINTS_MP_SPACING 0.07

%BLOCK SPECIES_POT
QC5
%ENDBLOCK SPECIES_POT

%BLOCK HUBBARD_U
Fe d:4.0
%ENDBLOCK HUBBARD_U

SNAP_TO_SYMMETRY
SYMMETRY_GENERATE

