#              Generated by Buildcell
#
# at 22:24:30 (GMT+0.0) 26th November 2020
# in /lustre/scratch/uccabz1/launch_tmp
# on node-c12m-023
# by uccabz1
#
# compiler GCC version 4.9.2
# options -cpp -iprefix /lustre/shared/ucl/apps/gcc/4.9.2/bin/../lib/gcc/x86_64-unknown-linux-gnu/4.9.2/ -mtune=corei7 -march=x86-64 -g -Og
#
# seed  -438168764   830195739    64077096   511918393  1475587851  1034774934  -603625803  1780872496  -683539282 -1391290515 -1935230281  -397577912
#
#      Author: C. J. Pickard (cjp20@cam.ac.uk)
#                Space group: Pcc2
#

%BLOCK LATTICE_ABC
      5.44113      7.21235      8.15425
     90.00000     90.00000     90.00000
%ENDBLOCK LATTICE_ABC

%BLOCK POSITIONS_FRAC
  Li   0.2496873   0.1117512  -0.4846790 SPIN=   0.00000
  Li  -0.2496873  -0.1117512  -0.4846790 SPIN=   0.00000
  Li  -0.2496873   0.1117512   0.0153210 SPIN=   0.00000
  Li   0.2496873  -0.1117512   0.0153210 SPIN=   0.00000
   O  -0.2446327   0.3977011  -0.1153443 SPIN=   0.00000
   O  -0.2650049   0.0701268  -0.2471925 SPIN=   0.00000
   O  -0.5194607   0.3195636  -0.3665591 SPIN=   0.00000
   O  -0.0623150   0.3286047  -0.4013512 SPIN=   0.00000
   P  -0.2688661   0.2859047  -0.2751069 SPIN=   0.00000
   O   0.2446327  -0.3977011  -0.1153443 SPIN=   0.00000
   O   0.2650049  -0.0701268  -0.2471925 SPIN=   0.00000
   O   0.5194607  -0.3195636  -0.3665591 SPIN=   0.00000
   O   0.0623150  -0.3286047  -0.4013512 SPIN=   0.00000
   P   0.2688661  -0.2859047  -0.2751069 SPIN=   0.00000
   O   0.2446327   0.3977011   0.3846557 SPIN=   0.00000
   O   0.2650049   0.0701268   0.2528075 SPIN=   0.00000
   O   0.5194607   0.3195636   0.1334409 SPIN=   0.00000
   O   0.0623150   0.3286047   0.0986488 SPIN=   0.00000
   P   0.2688661   0.2859047   0.2248931 SPIN=   0.00000
   O  -0.2446327  -0.3977011   0.3846557 SPIN=   0.00000
   O  -0.2650049  -0.0701268   0.2528075 SPIN=   0.00000
   O  -0.5194607  -0.3195636   0.1334409 SPIN=   0.00000
   O  -0.0623150  -0.3286047   0.0986488 SPIN=   0.00000
   P  -0.2688661  -0.2859047   0.2248931 SPIN=   0.00000
  Fe  -0.2502471   0.3116814   0.3744447 SPIN=   4.00000
  Fe   0.2502471  -0.3116814   0.3744447 SPIN=   4.00000
  Fe   0.2502471   0.3116814  -0.1255553 SPIN=   4.00000
  Fe  -0.2502471  -0.3116814  -0.1255553 SPIN=   4.00000
%ENDBLOCK POSITIONS_FRAC

# Note: total spin =  16.00

KPOINTS_MP_SPACING 0.07

%BLOCK SPECIES_POT
QC5
%ENDBLOCK SPECIES_POT

%BLOCK HUBBARD_U
Fe d:4.0
%ENDBLOCK HUBBARD_U

SNAP_TO_SYMMETRY
SYMMETRY_GENERATE

