#              Generated by Buildcell
#
# at 16:12:17 (GMT+0.0) 26th November 2020
# in /lustre/scratch/uccabz1/launch_tmp
# on node-c12l-021
# by uccabz1
#
# compiler GCC version 4.9.2
# options -cpp -iprefix /lustre/shared/ucl/apps/gcc/4.9.2/bin/../lib/gcc/x86_64-unknown-linux-gnu/4.9.2/ -mtune=corei7 -march=x86-64 -g -Og
#
# seed  -546836148  2109527791    85458853  -891840241 -2065712438  -864022314 -1099975106  1562872983   191549248  1135601773  -793970385  1717758314
#
#      Author: C. J. Pickard (cjp20@cam.ac.uk)
#                Space group: P-1
#

%BLOCK LATTICE_ABC
      6.37538      6.74379      8.68304
    107.69446    101.98640    107.61199
%ENDBLOCK LATTICE_ABC

%BLOCK POSITIONS_FRAC
  Li  -0.2421500  -0.4929270   0.0298423 SPIN=   0.00000
  Li   0.2421500   0.4929270  -0.0298423 SPIN=   0.00000
  Li   0.4027302  -0.3431908  -0.3880562 SPIN=   0.00000
  Li  -0.4027302   0.3431908   0.3880562 SPIN=   0.00000
   O  -0.2279759   0.3739405  -0.3107951 SPIN=   0.00000
   O   0.1938895   0.4070644  -0.2929580 SPIN=   0.00000
   O  -0.1181565   0.0254555  -0.4056023 SPIN=   0.00000
   O  -0.1079176   0.2605455  -0.5806626 SPIN=   0.00000
   P  -0.0742216   0.2723856  -0.3950491 SPIN=   0.00000
   O   0.2279759  -0.3739405   0.3107951 SPIN=   0.00000
   O  -0.1938895  -0.4070644   0.2929580 SPIN=   0.00000
   O   0.1181565  -0.0254555   0.4056023 SPIN=   0.00000
   O   0.1079176  -0.2605455   0.5806626 SPIN=   0.00000
   P   0.0742216  -0.2723856   0.3950491 SPIN=   0.00000
   O  -0.3706879  -0.2339571  -0.1117504 SPIN=   0.00000
   O  -0.2800823   0.1903998   0.0545779 SPIN=   0.00000
   O  -0.0171072   0.0945460  -0.1002876 SPIN=   0.00000
   O  -0.4203035   0.0297431  -0.2660871 SPIN=   0.00000
   P  -0.2790471   0.0067641  -0.1080895 SPIN=   0.00000
   O   0.3706879   0.2339571   0.1117504 SPIN=   0.00000
   O   0.2800823  -0.1903998  -0.0545779 SPIN=   0.00000
   O   0.0171072  -0.0945460   0.1002876 SPIN=   0.00000
   O   0.4203035  -0.0297431   0.2660871 SPIN=   0.00000
   P   0.2790471  -0.0067641   0.1080895 SPIN=   0.00000
  Fe   0.0463944   0.2769936   0.2306687 SPIN=   3.05055
  Fe  -0.0463944  -0.2769936  -0.2306687 SPIN=   3.05055
  Fe  -0.3561217  -0.1767590   0.3475545 SPIN=   4.94945
  Fe   0.3561217   0.1767590  -0.3475545 SPIN=   4.94945
%ENDBLOCK POSITIONS_FRAC

# Note: total spin =  16.00

KPOINTS_MP_SPACING 0.07

%BLOCK SPECIES_POT
QC5
%ENDBLOCK SPECIES_POT

%BLOCK HUBBARD_U
Fe d:4.0
%ENDBLOCK HUBBARD_U

SNAP_TO_SYMMETRY
SYMMETRY_GENERATE

