#              Generated by Buildcell
#
# at 06:03:34 (GMT+0.0) 24th November 2020
# in /scratch/scratch/uccabz1/launch_tmp
# on node-a14a-004
# by uccabz1
#
# compiler GCC version 4.9.2
# options -cpp -iprefix /scratch/UCL/applications/gcc/4.9.2/bin/../lib/gcc/x86_64-unknown-linux-gnu/4.9.2/ -mtune=corei7 -march=x86-64 -g -O2
#
# seed -1637132464  1333285454 -1202513628  1375343322  2083212751   655027150   870215167  1962751828  -456047547   598953691  -547643004  1493379147
#
#      Author: C. J. Pickard (cjp20@cam.ac.uk)
#                Space group: P-1
#

%BLOCK LATTICE_ABC
      3.91502      6.79433      6.86029
     65.78765     75.09762     89.08886
%ENDBLOCK LATTICE_ABC

%BLOCK POSITIONS_FRAC
  Li  -0.3244266   0.2270116  -0.0585985 SPIN=   0.00000
  Li   0.3244266  -0.2270116   0.0585985 SPIN=   0.00000
   O   0.2413013   0.0074552   0.1941820 SPIN=   0.00000
   O  -0.2899720  -0.2420823   0.2313885 SPIN=   0.00000
   O  -0.2569523  -0.1900361   0.5621395 SPIN=   0.00000
   P  -0.1566568  -0.0701254   0.3012337 SPIN=   0.00000
   O  -0.2413013  -0.0074552  -0.1941820 SPIN=   0.00000
   O   0.2899720   0.2420823  -0.2313885 SPIN=   0.00000
   O   0.2569523   0.1900361  -0.5621395 SPIN=   0.00000
   P   0.1566568   0.0701254  -0.3012337 SPIN=   0.00000
   O   0.0000000   0.5000000   0.0000000 SPIN=   0.00000
   O   0.0000000  -0.5000000  -0.5000000 SPIN=   0.00000
  Fe  -0.2166875   0.3218180   0.3647247 SPIN=   4.00000
  Fe   0.2166875  -0.3218180  -0.3647247 SPIN=   4.00000
%ENDBLOCK POSITIONS_FRAC

# Note: total spin =   8.00

KPOINTS_MP_SPACING 0.07

%BLOCK SPECIES_POT
QC5
%ENDBLOCK SPECIES_POT

%BLOCK HUBBARD_U
Fe d:4.0
%ENDBLOCK HUBBARD_U

SNAP_TO_SYMMETRY
SYMMETRY_GENERATE

