#              Generated by Buildcell
#
# at 23:34:39 (GMT+0.0) 26th November 2020
# in /lustre/scratch/uccabz1/launch_tmp
# on node-c12m-036
# by uccabz1
#
# compiler GCC version 4.9.2
# options -cpp -iprefix /lustre/shared/ucl/apps/gcc/4.9.2/bin/../lib/gcc/x86_64-unknown-linux-gnu/4.9.2/ -mtune=corei7 -march=x86-64 -g -Og
#
# seed   681229269 -1866034104    41741067   239512566  -342112055 -1244084686   541719643  -981516252  2086588724  1071949286  2002051638  1573062841
#
#      Author: C. J. Pickard (cjp20@cam.ac.uk)
#                Space group: P-1
#

%BLOCK LATTICE_ABC
      4.49461      7.32037      9.79029
     89.86628     87.00752     84.13947
%ENDBLOCK LATTICE_ABC

%BLOCK POSITIONS_FRAC
  Li  -0.4775823   0.2968824  -0.4735411 SPIN=   0.00000
  Li   0.4775823  -0.2968824   0.4735411 SPIN=   0.00000
  Li  -0.0003573  -0.4593350  -0.3488662 SPIN=   0.00000
  Li   0.0003573   0.4593350   0.3488662 SPIN=   0.00000
   O  -0.8267731   0.4831866   0.1468941 SPIN=   0.00000
   O  -0.4689372   0.4675993   0.3475416 SPIN=   0.00000
   O  -0.2793677   0.3290581   0.1259744 SPIN=   0.00000
   O  -0.3708835   0.6712306   0.1477763 SPIN=   0.00000
   P  -0.5032445   0.4896897   0.1891200 SPIN=   0.00000
   O   0.8267731  -0.4831866  -0.1468941 SPIN=   0.00000
   O   0.4689372  -0.4675993  -0.3475416 SPIN=   0.00000
   O   0.2793677  -0.3290581  -0.1259744 SPIN=   0.00000
   O   0.3708835  -0.6712306  -0.1477763 SPIN=   0.00000
   P   0.5032445  -0.4896897  -0.1891200 SPIN=   0.00000
   O  -0.1348346   0.2739336  -0.3370576 SPIN=   0.00000
   O   0.0337555   0.0092567  -0.1720927 SPIN=   0.00000
   O  -0.1198503  -0.0712273  -0.4010867 SPIN=   0.00000
   O   0.3624751   0.0671492  -0.3788575 SPIN=   0.00000
   P   0.0301830   0.0806173  -0.3237285 SPIN=   0.00000
   O   0.1348346  -0.2739336   0.3370576 SPIN=   0.00000
   O  -0.0337555  -0.0092567   0.1720927 SPIN=   0.00000
   O   0.1198503   0.0712273   0.4010867 SPIN=   0.00000
   O  -0.3624751  -0.0671492   0.3788575 SPIN=   0.00000
   P  -0.0301830  -0.0806173   0.3237285 SPIN=   0.00000
  Fe  -0.4508008  -0.1115118  -0.2307264 SPIN=   3.24071
  Fe   0.4508008   0.1115118   0.2307264 SPIN=   3.24071
  Fe   0.0420175  -0.2599540   0.0669714 SPIN=   4.75929
  Fe  -0.0420175   0.2599540  -0.0669714 SPIN=   4.75929
%ENDBLOCK POSITIONS_FRAC

# Note: total spin =  16.00

KPOINTS_MP_SPACING 0.07

%BLOCK SPECIES_POT
QC5
%ENDBLOCK SPECIES_POT

%BLOCK HUBBARD_U
Fe d:4.0
%ENDBLOCK HUBBARD_U

SNAP_TO_SYMMETRY
SYMMETRY_GENERATE

