#              Generated by Buildcell
#
# at 18:13:26 (GMT+0.0) 26th November 2020
# in /scratch/scratch/uccabz1/launch_tmp
# on node-k10h-025
# by uccabz1
#
# compiler GCC version 4.9.2
# options -cpp -iprefix /scratch/UCL/applications/gcc/4.9.2/bin/../lib/gcc/x86_64-unknown-linux-gnu/4.9.2/ -mtune=corei7 -march=x86-64 -g -O2
#
# seed  1067227919 -1366202673   386998071  1515924418  1617929486 -1814591525    20582992 -2019972837 -1939844067 -1551101268  1793126696 -1172499192
#
#      Author: C. J. Pickard (cjp20@cam.ac.uk)
#                Space group: P-1
#

%BLOCK LATTICE_ABC
      4.10735      8.63091      9.74277
    107.55877     96.24877     99.59357
%ENDBLOCK LATTICE_ABC

%BLOCK POSITIONS_FRAC
  Li   0.3205083  -0.3399549  -0.2254913 SPIN=   0.00000
  Li  -0.3205083   0.3399549   0.2254913 SPIN=   0.00000
  Li  -0.5000000   0.0000000   0.0000000 SPIN=   0.00000
  Li   0.5000000   0.5000000  -0.0000000 SPIN=   0.00000
   O   0.4261078  -0.2541995   0.0581929 SPIN=   0.00000
   O  -0.0301733  -0.0767147   0.0876826 SPIN=   0.00000
   O  -0.1753805  -0.3593804  -0.0929528 SPIN=   0.00000
   O  -0.0919608  -0.3238032   0.1741374 SPIN=   0.00000
   P   0.0516601  -0.2543897   0.0582262 SPIN=   0.00000
   O  -0.4261078   0.2541995  -0.0581929 SPIN=   0.00000
   O   0.0301733   0.0767147  -0.0876826 SPIN=   0.00000
   O   0.1753805   0.3593804   0.0929528 SPIN=   0.00000
   O   0.0919608   0.3238032  -0.1741374 SPIN=   0.00000
   P  -0.0516601   0.2543897  -0.0582262 SPIN=   0.00000
   O   0.3521317   0.4615388   0.5919644 SPIN=   0.00000
   O  -0.2266261   0.2712868   0.4609786 SPIN=   0.00000
   O   0.2395070   0.2715663   0.3207886 SPIN=   0.00000
   O   0.2500954   0.1415506   0.5184549 SPIN=   0.00000
   O  -0.3521317  -0.4615388  -0.5919644 SPIN=   0.00000
   O   0.2266261  -0.2712868  -0.4609786 SPIN=   0.00000
   O  -0.2395070  -0.2715663  -0.3207886 SPIN=   0.00000
   O  -0.2500954  -0.1415506  -0.5184549 SPIN=   0.00000
   P  -0.5000000   0.0000000   0.5000000 SPIN=   0.00000
   P   0.0000000   0.5000000   0.5000000 SPIN=   0.00000
  Fe  -0.3190821   0.3399485  -0.3223649 SPIN=   4.32651
  Fe   0.3190821  -0.3399485   0.3223649 SPIN=   4.32651
  Fe  -0.0373319   0.0410405   0.3093814 SPIN=   3.67349
  Fe   0.0373319  -0.0410405  -0.3093814 SPIN=   3.67349
%ENDBLOCK POSITIONS_FRAC

# Note: total spin =  16.00

KPOINTS_MP_SPACING 0.07

%BLOCK SPECIES_POT
QC5
%ENDBLOCK SPECIES_POT

%BLOCK HUBBARD_U
Fe d:4.0
%ENDBLOCK HUBBARD_U

SNAP_TO_SYMMETRY
SYMMETRY_GENERATE

