#              Generated by Buildcell
#
# at 06:50:56 (GMT+0.0) 24th November 2020
# in /lustre/scratch/uccabz1/launch_tmp
# on node-c12f-031
# by uccabz1
#
# compiler GCC version 4.9.2
# options -cpp -iprefix /lustre/shared/ucl/apps/gcc/4.9.2/bin/../lib/gcc/x86_64-unknown-linux-gnu/4.9.2/ -mtune=corei7 -march=x86-64 -g -Og
#
# seed  -723264427  2084866133 -1997403594  -514007337  2044063772   -35281879   -37431635   547854996 -1853315848  1436344596  -626953266  1414458539
#
#      Author: C. J. Pickard (cjp20@cam.ac.uk)
#                Space group: P2
#

%BLOCK LATTICE_ABC
      3.88725      5.32642      7.72755
     90.00305     90.00000     90.00000
%ENDBLOCK LATTICE_ABC

%BLOCK POSITIONS_FRAC
  Li  -0.1955516   0.2499968  -0.0935400 SPIN=   0.00000
  Li  -0.1955516  -0.2499968   0.0935400 SPIN=   0.00000
   O   0.4607344  -0.0074860  -0.2867183 SPIN=   0.00000
   O  -0.0612676   0.2340562  -0.4146373 SPIN=   0.00000
   O   0.2613724   0.4284614  -0.1740720 SPIN=   0.00000
   P   0.3100747   0.2502793  -0.3345453 SPIN=   0.00000
   O   0.4607344   0.0074860   0.2867183 SPIN=   0.00000
   O  -0.0612676  -0.2340562   0.4146373 SPIN=   0.00000
   O   0.2613724  -0.4284614   0.1740720 SPIN=   0.00000
   P   0.3100747  -0.2502793   0.3345453 SPIN=   0.00000
   O   0.4464062  -0.5000000   0.5000000 SPIN=   0.00000
   O   0.1817224   0.0000000   0.0000000 SPIN=   0.00000
  Fe   0.0399888  -0.7499345   0.3160412 SPIN=   4.00000
  Fe   0.0399888   0.7499345  -0.3160412 SPIN=   4.00000
%ENDBLOCK POSITIONS_FRAC

# Note: total spin =   8.00

KPOINTS_MP_SPACING 0.07

%BLOCK SPECIES_POT
QC5
%ENDBLOCK SPECIES_POT

%BLOCK HUBBARD_U
Fe d:4.0
%ENDBLOCK HUBBARD_U

SNAP_TO_SYMMETRY
SYMMETRY_GENERATE

