#              Generated by Buildcell
#
# at 23:18:39 (GMT+0.0) 26th November 2020
# in /lustre/scratch/uccabz1/launch_tmp
# on node-c12g-023
# by uccabz1
#
# compiler GCC version 4.9.2
# options -cpp -iprefix /lustre/shared/ucl/apps/gcc/4.9.2/bin/../lib/gcc/x86_64-unknown-linux-gnu/4.9.2/ -mtune=corei7 -march=x86-64 -g -Og
#
# seed -2097644137  -186867013  -265656566  1963007986  -378738552  1935697993   444249697  -268685857 -1709009088 -1975842829  -746462679  1140025074
#
#      Author: C. J. Pickard (cjp20@cam.ac.uk)
#                Space group: P-1
#

%BLOCK LATTICE_ABC
      5.19561      8.02275      8.36070
     82.92790     73.68843     73.28509
%ENDBLOCK LATTICE_ABC

%BLOCK POSITIONS_FRAC
  Li   0.0063119  -0.2929015  -0.4953491 SPIN=   0.00000
  Li  -0.0063119   0.2929015   0.4953491 SPIN=   0.00000
  Li  -0.4978362   0.4218709   0.3448845 SPIN=   0.00000
  Li   0.4978362  -0.4218709  -0.3448845 SPIN=   0.00000
   O   0.1570372   0.0535157   0.3789694 SPIN=   0.00000
   O   0.3487907  -0.2719328   0.3047790 SPIN=   0.00000
   O   0.5941588  -0.0608825   0.1378141 SPIN=   0.00000
   O   0.6195277  -0.1388537   0.4334230 SPIN=   0.00000
   P   0.4175892  -0.0965277   0.3186315 SPIN=   0.00000
   O  -0.1570372  -0.0535157  -0.3789694 SPIN=   0.00000
   O  -0.3487907   0.2719328  -0.3047790 SPIN=   0.00000
   O  -0.5941588   0.0608825  -0.1378141 SPIN=   0.00000
   O  -0.6195277   0.1388537  -0.4334230 SPIN=   0.00000
   P  -0.4175892   0.0965277  -0.3186315 SPIN=   0.00000
   O   1.2525611  -0.6458536   0.2193185 SPIN=   0.00000
   O   0.7967439  -0.4551751   0.4025014 SPIN=   0.00000
   O   1.0440125  -0.3193458   0.1466698 SPIN=   0.00000
   O   0.7988871  -0.5386548   0.1231004 SPIN=   0.00000
   P   0.9858783  -0.4986457   0.2215293 SPIN=   0.00000
   O  -1.2525611   0.6458536  -0.2193185 SPIN=   0.00000
   O  -0.7967439   0.4551751  -0.4025014 SPIN=   0.00000
   O  -1.0440125   0.3193458  -0.1466698 SPIN=   0.00000
   O  -0.7988871   0.5386548  -0.1231004 SPIN=   0.00000
   P  -0.9858783   0.4986457  -0.2215293 SPIN=   0.00000
  Fe   0.1050766  -0.0332972  -0.2371324 SPIN=   4.27783
  Fe  -0.1050766   0.0332972   0.2371324 SPIN=   4.27783
  Fe   0.6009464  -0.2941651   0.0318751 SPIN=   3.72217
  Fe  -0.6009464   0.2941651  -0.0318751 SPIN=   3.72217
%ENDBLOCK POSITIONS_FRAC

# Note: total spin =  16.00

KPOINTS_MP_SPACING 0.07

%BLOCK SPECIES_POT
QC5
%ENDBLOCK SPECIES_POT

%BLOCK HUBBARD_U
Fe d:4.0
%ENDBLOCK HUBBARD_U

SNAP_TO_SYMMETRY
SYMMETRY_GENERATE

