#              Generated by Buildcell
#
# at 17:58:42 (GMT+0.0) 26th November 2020
# in /lustre/scratch/uccabz1/launch_tmp
# on node-c12f-021
# by uccabz1
#
# compiler GCC version 4.9.2
# options -cpp -iprefix /lustre/shared/ucl/apps/gcc/4.9.2/bin/../lib/gcc/x86_64-unknown-linux-gnu/4.9.2/ -mtune=corei7 -march=x86-64 -g -Og
#
# seed -1602339487  -443920428  1578091014 -1052232197 -1718368876   473963187  2062083919 -2053536809 -1171028917  1863230078 -1198708312 -1743330002
#
#      Author: C. J. Pickard (cjp20@cam.ac.uk)
#                Space group: Pc
#

%BLOCK LATTICE_ABC
      5.51983      7.76071      7.96120
    110.23098     90.00000     90.00000
%ENDBLOCK LATTICE_ABC

%BLOCK POSITIONS_FRAC
  Li   0.1499244  -0.1061041   0.0174275 SPIN=   0.00000
  Li  -0.1499244  -0.1061041  -0.4825725 SPIN=   0.00000
  Li  -0.0205605   0.2583808  -0.0095647 SPIN=   0.00000
  Li   0.0205605   0.2583808   0.4904353 SPIN=   0.00000
   O   0.0799665  -0.6386441   0.2791469 SPIN=   0.00000
   O  -0.0277208  -0.3118058   0.2818431 SPIN=   0.00000
   O  -0.3409194  -0.5534251   0.1843205 SPIN=   0.00000
   O  -0.2202541  -0.4275175   0.5072860 SPIN=   0.00000
   P  -0.1172974  -0.4904905   0.3136297 SPIN=   0.00000
   O  -0.0799665  -0.6386441  -0.2208531 SPIN=   0.00000
   O   0.0277208  -0.3118058  -0.2181569 SPIN=   0.00000
   O   0.3409194  -0.5534251  -0.3156795 SPIN=   0.00000
   O   0.2202541  -0.4275175   0.0072860 SPIN=   0.00000
   P   0.1172974  -0.4904905  -0.1863703 SPIN=   0.00000
   O  -0.5581585   0.0834004  -0.0606535 SPIN=   0.00000
   O  -0.1308352  -0.0066097  -0.2002574 SPIN=   0.00000
   O  -0.2154758  -0.0383968   0.0922884 SPIN=   0.00000
   O  -0.4124010  -0.2534787  -0.1842005 SPIN=   0.00000
   P  -0.3423892  -0.0488242  -0.0878716 SPIN=   0.00000
   O   0.5581585   0.0834004   0.4393465 SPIN=   0.00000
   O   0.1308352  -0.0066097   0.2997426 SPIN=   0.00000
   O   0.2154758  -0.0383968   0.5922884 SPIN=   0.00000
   O   0.4124010  -0.2534787   0.3157995 SPIN=   0.00000
   P   0.3423892  -0.0488242   0.4121284 SPIN=   0.00000
  Fe  -0.3441210  -0.3032228   0.1016479 SPIN=   4.85391
  Fe   0.3441210  -0.3032228  -0.3983521 SPIN=   4.85391
  Fe   0.4754410   0.2234354  -0.2525364 SPIN=   3.14609
  Fe  -0.4754410   0.2234354   0.2474636 SPIN=   3.14609
%ENDBLOCK POSITIONS_FRAC

# Note: total spin =  16.00

KPOINTS_MP_SPACING 0.07

%BLOCK SPECIES_POT
QC5
%ENDBLOCK SPECIES_POT

%BLOCK HUBBARD_U
Fe d:4.0
%ENDBLOCK HUBBARD_U

SNAP_TO_SYMMETRY
SYMMETRY_GENERATE

