#              Generated by Buildcell
#
# at 11:52:26 (GMT+0.0) 26th November 2020
# in /lustre/scratch/uccabz1/launch_tmp
# on node-c12k-026
# by uccabz1
#
# compiler GCC version 4.9.2
# options -cpp -iprefix /lustre/shared/ucl/apps/gcc/4.9.2/bin/../lib/gcc/x86_64-unknown-linux-gnu/4.9.2/ -mtune=corei7 -march=x86-64 -g -Og
#
# seed -1046863837  1034867211   209952749  -775139955  -280089469 -1354571903  -787326362  1035429800   304310580  1578030072  -516715526  1778831701
#
#      Author: C. J. Pickard (cjp20@cam.ac.uk)
#                Space group: P2
#

%BLOCK LATTICE_ABC
      5.93016      6.45329      8.47651
     90.00000     90.00000     99.43467
%ENDBLOCK LATTICE_ABC

%BLOCK POSITIONS_FRAC
  Li  -0.2589291  -0.0505628  -0.0937112 SPIN=   0.00000
  Li   0.2589291   0.0505628  -0.0937112 SPIN=   0.00000
  Li   0.5000000   0.5000000  -0.0171676 SPIN=   0.00000
  Li   0.0000000  -0.5000000  -0.0977343 SPIN=   0.00000
   O  -0.4212172   0.1931859  -0.0043084 SPIN=   0.00000
   O  -0.3240911   0.4102186   0.2520240 SPIN=   0.00000
   O  -0.2805008   0.0360838   0.2527652 SPIN=   0.00000
   O  -0.0071011   0.2948711   0.0970631 SPIN=   0.00000
   P  -0.2639424   0.2321617   0.1405850 SPIN=   0.00000
   O   0.4212172  -0.1931859  -0.0043084 SPIN=   0.00000
   O   0.3240911  -0.4102186   0.2520240 SPIN=   0.00000
   O   0.2805008  -0.0360838   0.2527652 SPIN=   0.00000
   O   0.0071011  -0.2948711   0.0970631 SPIN=   0.00000
   P   0.2639424  -0.2321617   0.1405850 SPIN=   0.00000
   O   0.4310379   0.3087510  -0.2666207 SPIN=   0.00000
   O   0.2146878   0.0435007  -0.4673083 SPIN=   0.00000
   O  -0.0105876   0.1996576  -0.2678236 SPIN=   0.00000
   O   0.1778105   0.4236798  -0.4873667 SPIN=   0.00000
   P   0.2150664   0.2494720  -0.3680122 SPIN=   0.00000
   O  -0.4310379  -0.3087510  -0.2666207 SPIN=   0.00000
   O  -0.2146878  -0.0435007  -0.4673083 SPIN=   0.00000
   O   0.0105876  -0.1996576  -0.2678236 SPIN=   0.00000
   O  -0.1778105  -0.4236798  -0.4873667 SPIN=   0.00000
   P  -0.2150664  -0.2494720  -0.3680122 SPIN=   0.00000
  Fe   0.2095372   0.2683498   0.2893927 SPIN=   6.31738
  Fe  -0.2095372  -0.2683498   0.2893927 SPIN=   6.31738
  Fe  -0.2848483   0.2681899  -0.4039919 SPIN=   1.68262
  Fe   0.2848483  -0.2681899  -0.4039919 SPIN=   1.68262
%ENDBLOCK POSITIONS_FRAC

# Note: total spin =  16.00

KPOINTS_MP_SPACING 0.07

%BLOCK SPECIES_POT
QC5
%ENDBLOCK SPECIES_POT

%BLOCK HUBBARD_U
Fe d:4.0
%ENDBLOCK HUBBARD_U

SNAP_TO_SYMMETRY
SYMMETRY_GENERATE

