#              Generated by Buildcell
#
# at 18:00:40 (GMT+0.0) 26th November 2020
# in /lustre/scratch/uccabz1/launch_tmp
# on node-c12d-021
# by uccabz1
#
# compiler GCC version 4.9.2
# options -cpp -iprefix /lustre/shared/ucl/apps/gcc/4.9.2/bin/../lib/gcc/x86_64-unknown-linux-gnu/4.9.2/ -mtune=corei7 -march=x86-64 -g -Og
#
# seed   -44345653 -1459375977 -1384057535 -1592397091   736083438  1065063045  1749547891   266644207  1461728947  1104140590  1806776510  -689839467
#
#      Author: C. J. Pickard (cjp20@cam.ac.uk)
#                Space group: Cm
#

%BLOCK LATTICE_ABC
      7.41193      7.51078      7.51078
     87.16545     62.26197     62.26197
%ENDBLOCK LATTICE_ABC

%BLOCK POSITIONS_FRAC
  Li   0.2283898  -0.2027180   0.2052314 SPIN=   0.00000
  Li   0.2283898   0.2052314  -0.2027180 SPIN=   0.00000
  Li  -0.2616503  -0.2747208   0.2924829 SPIN=   0.00000
  Li  -0.2616503   0.2924829  -0.2747208 SPIN=   0.00000
   O  -0.2748656   0.0185643  -0.2464788 SPIN=   0.00000
   O  -0.4967673  -0.1059998  -0.3444959 SPIN=   0.00000
   O  -0.3917338   0.1441043  -0.5250836 SPIN=   0.00000
   O  -0.0742913  -0.2195478  -0.5964879 SPIN=   0.00000
   P  -0.3048003  -0.0396736  -0.4204509 SPIN=   0.00000
   O  -0.2748656  -0.2464788   0.0185643 SPIN=   0.00000
   O  -0.4967673  -0.3444959  -0.1059998 SPIN=   0.00000
   O  -0.3917338  -0.5250836   0.1441043 SPIN=   0.00000
   O  -0.0742913  -0.5964879  -0.2195478 SPIN=   0.00000
   P  -0.3048003  -0.4204509  -0.0396736 SPIN=   0.00000
   O   0.3950303  -0.1842577  -0.6387310 SPIN=   0.00000
   O   0.0289600   0.1653197  -0.5730711 SPIN=   0.00000
   O   0.0577134   0.0368065  -0.2728909 SPIN=   0.00000
   P   0.2143421   0.0342162  -0.5043647 SPIN=   0.00000
   O   0.3950303  -0.6387310  -0.1842577 SPIN=   0.00000
   O   0.0289600  -0.5730711   0.1653197 SPIN=   0.00000
   O   0.0577134  -0.2728909   0.0368065 SPIN=   0.00000
   P   0.2143421  -0.5043647   0.0342162 SPIN=   0.00000
   O   0.2487739   0.0319880   0.0319880 SPIN=   0.00000
   O  -0.3249681  -0.4783014  -0.4783014 SPIN=   0.00000
  Fe   0.3183503  -0.2658678  -0.2658678 SPIN=   1.42134
  Fe  -0.1928389   0.2593513   0.2593513 SPIN=   5.44991
  Fe   0.0447544  -0.4711032  -0.4711032 SPIN=   2.39667
  Fe   0.4969285   0.0679182   0.0679182 SPIN=   6.73208
%ENDBLOCK POSITIONS_FRAC

# Note: total spin =  16.00

KPOINTS_MP_SPACING 0.07

%BLOCK SPECIES_POT
QC5
%ENDBLOCK SPECIES_POT

%BLOCK HUBBARD_U
Fe d:4.0
%ENDBLOCK HUBBARD_U

SNAP_TO_SYMMETRY
SYMMETRY_GENERATE

