#              Generated by Buildcell
#
# at 14:33:48 (GMT+0.0) 24th November 2020
# in /lustre/scratch/uccabz1/launch_tmp
# on node-c12e-020
# by uccabz1
#
# compiler GCC version 4.9.2
# options -cpp -iprefix /lustre/shared/ucl/apps/gcc/4.9.2/bin/../lib/gcc/x86_64-unknown-linux-gnu/4.9.2/ -mtune=corei7 -march=x86-64 -g -Og
#
# seed   446182513   291914113   600513992 -2068110459 -1610085071   690840518    19640098   409882341  1007994414  2136949208  -646957714   808898158
#
#      Author: C. J. Pickard (cjp20@cam.ac.uk)
#                Space group: P-1
#

%BLOCK LATTICE_ABC
      4.65950      5.96000      6.30218
     66.49616     86.05668     86.43935
%ENDBLOCK LATTICE_ABC

%BLOCK POSITIONS_FRAC
  Li  -0.3138716  -0.1736877  -0.0788013 SPIN=   0.00000
  Li   0.3138716   0.1736877   0.0788013 SPIN=   0.00000
   O   0.2370289   0.1402649  -0.5720506 SPIN=   0.00000
   O   0.1912749  -0.1059016  -0.1266126 SPIN=   0.00000
   O   0.5738350   0.1942086  -0.2852311 SPIN=   0.00000
   O   0.0584970   0.3424738  -0.2904822 SPIN=   0.00000
   P   0.2612223   0.1449853  -0.3317577 SPIN=   0.00000
   O  -0.2370289  -0.1402649   0.5720506 SPIN=   0.00000
   O  -0.1912749   0.1059016   0.1266126 SPIN=   0.00000
   O  -0.5738350  -0.1942086   0.2852311 SPIN=   0.00000
   O  -0.0584970  -0.3424738   0.2904822 SPIN=   0.00000
   P  -0.2612223  -0.1449853   0.3317577 SPIN=   0.00000
  Fe  -0.2251331   0.3101189   0.3819338 SPIN=   4.00000
  Fe   0.2251331  -0.3101189  -0.3819338 SPIN=   4.00000
%ENDBLOCK POSITIONS_FRAC

# Note: total spin =   8.00

KPOINTS_MP_SPACING 0.07

%BLOCK SPECIES_POT
QC5
%ENDBLOCK SPECIES_POT

%BLOCK HUBBARD_U
Fe d:4.0
%ENDBLOCK HUBBARD_U

SNAP_TO_SYMMETRY
SYMMETRY_GENERATE

