#              Generated by Buildcell
#
# at 13:24:11 (GMT+0.0) 24th November 2020
# in /lustre/scratch/uccabz1/launch_tmp
# on node-c12d-022
# by uccabz1
#
# compiler GCC version 4.9.2
# options -cpp -iprefix /lustre/shared/ucl/apps/gcc/4.9.2/bin/../lib/gcc/x86_64-unknown-linux-gnu/4.9.2/ -mtune=corei7 -march=x86-64 -g -Og
#
# seed  1745009430    64469162   591053411 -1557621797  -240869476 -1759134020 -2090628630  -721494650 -1944934057   912347591  -807734351 -1750106955
#
#      Author: C. J. Pickard (cjp20@cam.ac.uk)
#                Space group: Cc
#

%BLOCK LATTICE_ABC
      4.75729      6.19396      6.36621
     60.89108     83.94727     77.48167
%ENDBLOCK LATTICE_ABC

%BLOCK POSITIONS_FRAC
  Li  -0.2965268  -0.1287231   0.1660268 SPIN=   0.00000
  Li   0.2034732   0.0373037  -0.1660268 SPIN=   0.00000
   O  -0.4737011   0.3069769  -0.8680417 SPIN=   0.00000
   O  -0.6689475   0.7149568  -0.8350746 SPIN=   0.00000
   O  -0.6018982   0.3075046  -0.4613416 SPIN=   0.00000
   O  -0.1700469   0.4781593  -0.6901227 SPIN=   0.00000
   P  -0.4747432   0.4444929  -0.7215884 SPIN=   0.00000
   O   0.0262989  -0.5610648   0.8680417 SPIN=   0.00000
   O  -0.1689475  -0.1201178   0.8350746 SPIN=   0.00000
   O  -0.1018982  -0.1538370   0.4613416 SPIN=   0.00000
   O   0.3299531  -0.2119634   0.6901227 SPIN=   0.00000
   P   0.0252568  -0.2770955   0.7215884 SPIN=   0.00000
  Fe   0.0999889   0.1797444   0.2772329 SPIN=   4.00000
  Fe  -0.4000111   0.4569773  -0.2772329 SPIN=   4.00000
%ENDBLOCK POSITIONS_FRAC

# Note: total spin =   8.00

KPOINTS_MP_SPACING 0.07

%BLOCK SPECIES_POT
QC5
%ENDBLOCK SPECIES_POT

%BLOCK HUBBARD_U
Fe d:4.0
%ENDBLOCK HUBBARD_U

SNAP_TO_SYMMETRY
SYMMETRY_GENERATE

