#              Generated by Buildcell
#
# at 00:39:10 (GMT+0.0) 27th November 2020
# in /lustre/scratch/uccabz1/launch_tmp
# on node-c12e-026
# by uccabz1
#
# compiler GCC version 4.9.2
# options -cpp -iprefix /lustre/shared/ucl/apps/gcc/4.9.2/bin/../lib/gcc/x86_64-unknown-linux-gnu/4.9.2/ -mtune=corei7 -march=x86-64 -g -Og
#
# seed  1066970077  2070095900   -55522855    16267836   789847779   382306020   490641823   621330283  1084074897  1680105237  1491013230  1078073354
#
#      Author: C. J. Pickard (cjp20@cam.ac.uk)
#                Space group: Cm
#

%BLOCK LATTICE_ABC
      6.73928      6.73928      7.27267
     97.76255     97.76255     98.09412
%ENDBLOCK LATTICE_ABC

%BLOCK POSITIONS_FRAC
  Li  -0.1315271  -0.4297203   0.0116888 SPIN=   0.00000
  Li  -0.4297203  -0.1315271   0.0116888 SPIN=   0.00000
  Li   0.3151063  -0.1723865  -0.4527470 SPIN=   0.00000
  Li  -0.1723865   0.3151063  -0.4527470 SPIN=   0.00000
   O  -0.0905379   0.1539818  -0.1730553 SPIN=   0.00000
   O  -0.3310094   0.2498798   0.0634420 SPIN=   0.00000
   O  -0.3695695   0.3755869  -0.2410012 SPIN=   0.00000
   O  -0.4725229   0.0057087  -0.2315558 SPIN=   0.00000
   P  -0.3057582   0.1917876  -0.1480225 SPIN=   0.00000
   O   0.1539818  -0.0905379  -0.1730553 SPIN=   0.00000
   O   0.2498798  -0.3310094   0.0634420 SPIN=   0.00000
   O   0.3755869  -0.3695695  -0.2410012 SPIN=   0.00000
   O   0.0057087  -0.4725229  -0.2315558 SPIN=   0.00000
   P   0.1917876  -0.3057582  -0.1480225 SPIN=   0.00000
   O  -0.1086452   0.5937337   0.3307428 SPIN=   0.00000
   O   0.1262934   0.3688625   0.4870083 SPIN=   0.00000
   O   0.0823245   0.3479755   0.1418470 SPIN=   0.00000
   P   0.0864772   0.5003149   0.3268808 SPIN=   0.00000
   O   0.5937337  -0.1086452   0.3307428 SPIN=   0.00000
   O   0.3688625   0.1262934   0.4870083 SPIN=   0.00000
   O   0.3479755   0.0823245   0.1418470 SPIN=   0.00000
   P   0.5003149   0.0864772   0.3268808 SPIN=   0.00000
   O   0.0054291   0.0054291   0.4859853 SPIN=   0.00000
   O  -0.3767602  -0.3767602  -0.4619430 SPIN=   0.00000
  Fe   0.3083098   0.3083098  -0.2759036 SPIN=   6.14553
  Fe  -0.1434842  -0.1434842  -0.3237629 SPIN=   3.15892
  Fe   0.4960086   0.4960086   0.2605073 SPIN=   3.25375
  Fe   0.0463618   0.0463618   0.2119531 SPIN=   3.44179
%ENDBLOCK POSITIONS_FRAC

# Note: total spin =  16.00

KPOINTS_MP_SPACING 0.07

%BLOCK SPECIES_POT
QC5
%ENDBLOCK SPECIES_POT

%BLOCK HUBBARD_U
Fe d:4.0
%ENDBLOCK HUBBARD_U

SNAP_TO_SYMMETRY
SYMMETRY_GENERATE

