#              Generated by Buildcell
#
# at 12:10:42 (GMT+0.0) 24th November 2020
# in /scratch/scratch/uccabz1/launch_tmp
# on node-k10b-024
# by uccabz1
#
# compiler GCC version 4.9.2
# options -cpp -iprefix /scratch/UCL/applications/gcc/4.9.2/bin/../lib/gcc/x86_64-unknown-linux-gnu/4.9.2/ -mtune=corei7 -march=x86-64 -g -O2
#
# seed  1636711150   677817064 -1111920206   -56135998  -167924833  1542981950  1502117951   188948689  -636890911   136876123  -104822334  1074401840
#
#      Author: C. J. Pickard (cjp20@cam.ac.uk)
#                Space group: Pm
#

%BLOCK LATTICE_ABC
      3.89034      4.74678      8.87293
     90.00000     90.00000    102.44947
%ENDBLOCK LATTICE_ABC

%BLOCK POSITIONS_FRAC
  Li   0.0127982  -0.0240816   0.5000000 SPIN=   0.00000
  Li  -0.2562374  -0.0909671  -0.0000000 SPIN=   0.00000
   O  -0.0551898   0.0315161  -0.2290580 SPIN=   0.00000
   O   0.0849863  -0.4523965  -0.1391676 SPIN=   0.00000
   O   0.4025332  -0.2110414  -0.3609468 SPIN=   0.00000
   P   0.2300992  -0.1446140  -0.2083367 SPIN=   0.00000
   O  -0.0551898   0.0315161   0.2290580 SPIN=   0.00000
   O   0.0849863  -0.4523965   0.1391676 SPIN=   0.00000
   O   0.4025332  -0.2110414   0.3609468 SPIN=   0.00000
   P   0.2300992  -0.1446140   0.2083367 SPIN=   0.00000
   O  -0.2669483   0.3113324   0.5000000 SPIN=   0.00000
   O  -0.4418412   0.2954606  -0.0000000 SPIN=   0.00000
  Fe  -0.3827487   0.4230707   0.2796421 SPIN=   4.00000
  Fe  -0.3827487   0.4230707  -0.2796421 SPIN=   4.00000
%ENDBLOCK POSITIONS_FRAC

# Note: total spin =   8.00

KPOINTS_MP_SPACING 0.07

%BLOCK SPECIES_POT
QC5
%ENDBLOCK SPECIES_POT

%BLOCK HUBBARD_U
Fe d:4.0
%ENDBLOCK HUBBARD_U

SNAP_TO_SYMMETRY
SYMMETRY_GENERATE

