#              Generated by Buildcell
#
# at 07:24:27 (GMT+0.0) 24th November 2020
# in /lustre/scratch/uccabz1/launch_tmp
# on node-c12i-027
# by uccabz1
#
# compiler GCC version 4.9.2
# options -cpp -iprefix /lustre/shared/ucl/apps/gcc/4.9.2/bin/../lib/gcc/x86_64-unknown-linux-gnu/4.9.2/ -mtune=corei7 -march=x86-64 -g -Og
#
# seed  1786383927  2093531149   302983578 -1394838317 -1899326991  1003125733  -860450387  1655523316   545819683 -1620159496 -1913854363   341881745
#
#      Author: C. J. Pickard (cjp20@cam.ac.uk)
#                Space group: Pm
#

%BLOCK LATTICE_ABC
      3.90475      4.94204      8.29937
     90.00000     90.00000     92.53517
%ENDBLOCK LATTICE_ABC

%BLOCK POSITIONS_FRAC
  Li   0.0467508  -0.4306012   0.0000000 SPIN=   0.00000
  Li   0.1947953  -0.4176289  -0.5000000 SPIN=   0.00000
   O  -0.0950960  -0.6481136  -0.2099539 SPIN=   0.00000
   O  -0.5409937  -0.2871476  -0.1483557 SPIN=   0.00000
   O  -0.0766975  -0.1708339  -0.3417333 SPIN=   0.00000
   P  -0.3051703  -0.4181155  -0.2778275 SPIN=   0.00000
   O  -0.0950960  -0.6481136   0.2099539 SPIN=   0.00000
   O  -0.5409937  -0.2871476   0.1483557 SPIN=   0.00000
   O  -0.0766975  -0.1708339   0.3417333 SPIN=   0.00000
   P  -0.3051703  -0.4181155   0.2778275 SPIN=   0.00000
   O  -0.0903750  -0.0238962   0.0000000 SPIN=   0.00000
   O   0.4272213   0.2800644   0.0000000 SPIN=   0.00000
  Fe   0.3054634   0.0840920  -0.2385020 SPIN=   4.00000
  Fe   0.3054634   0.0840920   0.2385020 SPIN=   4.00000
%ENDBLOCK POSITIONS_FRAC

# Note: total spin =   8.00

KPOINTS_MP_SPACING 0.07

%BLOCK SPECIES_POT
QC5
%ENDBLOCK SPECIES_POT

%BLOCK HUBBARD_U
Fe d:4.0
%ENDBLOCK HUBBARD_U

SNAP_TO_SYMMETRY
SYMMETRY_GENERATE

