#              Generated by Buildcell
#
# at 09:21:47 (GMT+0.0) 24th November 2020
# in /scratch/scratch/uccabz1/launch_tmp
# on node-k10a-022
# by uccabz1
#
# compiler GCC version 4.9.2
# options -cpp -iprefix /scratch/UCL/applications/gcc/4.9.2/bin/../lib/gcc/x86_64-unknown-linux-gnu/4.9.2/ -mtune=corei7 -march=x86-64 -g -O2
#
# seed   510124862  -260108051   821592828  1352747230 -1778179552   -34325987 -1252769881  1900825377 -1851303683  1112735947   916519721  -415480052
#
#      Author: C. J. Pickard (cjp20@cam.ac.uk)
#                Space group: P-1
#

%BLOCK LATTICE_ABC
      4.34712      6.42739      6.56533
     63.07793     78.42137     87.47560
%ENDBLOCK LATTICE_ABC

%BLOCK POSITIONS_FRAC
  Li  -0.4078713   0.1624178   0.2405358 SPIN=   0.00000
  Li   0.4078713  -0.1624178  -0.2405358 SPIN=   0.00000
   O   0.3055753  -0.4270899   0.3683367 SPIN=   0.00000
   O  -0.0200709  -0.0578511   0.2761985 SPIN=   0.00000
   O   0.0265084  -0.3066960   0.6848443 SPIN=   0.00000
   P   0.2111044  -0.2238581   0.4267069 SPIN=   0.00000
   O  -0.3055753   0.4270899  -0.3683367 SPIN=   0.00000
   O   0.0200709   0.0578511  -0.2761985 SPIN=   0.00000
   O  -0.0265084   0.3066960  -0.6848443 SPIN=   0.00000
   P  -0.2111044   0.2238581  -0.4267069 SPIN=   0.00000
   O   0.5000000   0.0000000  -0.0000000 SPIN=   0.00000
   O   0.5000000  -0.5000000   0.0000000 SPIN=   0.00000
  Fe   0.2118265   0.3196045  -0.1919833 SPIN=   4.00000
  Fe  -0.2118265  -0.3196045   0.1919833 SPIN=   4.00000
%ENDBLOCK POSITIONS_FRAC

# Note: total spin =   8.00

KPOINTS_MP_SPACING 0.07

%BLOCK SPECIES_POT
QC5
%ENDBLOCK SPECIES_POT

%BLOCK HUBBARD_U
Fe d:4.0
%ENDBLOCK HUBBARD_U

SNAP_TO_SYMMETRY
SYMMETRY_GENERATE

