#              Generated by Buildcell
#
# at 15:18:31 (GMT+0.0) 26th November 2020
# in /lustre/scratch/uccabz1/launch_tmp
# on node-c12i-029
# by uccabz1
#
# compiler GCC version 4.9.2
# options -cpp -iprefix /lustre/shared/ucl/apps/gcc/4.9.2/bin/../lib/gcc/x86_64-unknown-linux-gnu/4.9.2/ -mtune=corei7 -march=x86-64 -g -Og
#
# seed  -412195602 -1781240803   368949107   811800310   173171165   655105634  1748938762   184158371  1997134860  -183297381 -1630884851   317766979
#
#      Author: C. J. Pickard (cjp20@cam.ac.uk)
#                Space group: Cmc21
#

%BLOCK LATTICE_ABC
      6.69964      6.69964      7.40339
     90.00000     90.00000    105.63890
%ENDBLOCK LATTICE_ABC

%BLOCK POSITIONS_FRAC
  Li  -0.2598325  -0.2598325   0.1750797 SPIN=   0.00000
  Li   0.2598325   0.2598325  -0.3249203 SPIN=   0.00000
  Li  -0.2409131  -0.2409131  -0.3362731 SPIN=   0.00000
  Li   0.2409131   0.2409131   0.1637269 SPIN=   0.00000
   O  -0.2956401   0.0287456   0.3083055 SPIN=   0.00000
   O  -0.5680578   0.1886234   0.4573572 SPIN=   0.00000
   O  -0.4270071   0.3207478   0.1591161 SPIN=   0.00000
   O  -0.6678141  -0.0360789   0.1838106 SPIN=   0.00000
   O   0.2956401  -0.0287456  -0.1916945 SPIN=   0.00000
   O   0.5680578  -0.1886234  -0.0426428 SPIN=   0.00000
   O   0.4270071  -0.3207478  -0.3408839 SPIN=   0.00000
   O   0.6678141   0.0360789  -0.3161894 SPIN=   0.00000
   O  -0.0287456   0.2956401  -0.1916945 SPIN=   0.00000
   O  -0.1886234   0.5680578  -0.0426428 SPIN=   0.00000
   O  -0.3207478   0.4270071  -0.3408839 SPIN=   0.00000
   O   0.0360789   0.6678141  -0.3161894 SPIN=   0.00000
   O   0.0287456  -0.2956401   0.3083055 SPIN=   0.00000
   O   0.1886234  -0.5680578   0.4573572 SPIN=   0.00000
   O   0.3207478  -0.4270071   0.1591161 SPIN=   0.00000
   O  -0.0360789  -0.6678141   0.1838106 SPIN=   0.00000
   P  -0.4859573  -0.4859573  -0.0910361 SPIN=   0.00000
   P   0.4859573   0.4859573   0.4089639 SPIN=   0.00000
   P  -0.0049607  -0.0049607   0.4080310 SPIN=   0.00000
   P   0.0049607   0.0049607  -0.0919690 SPIN=   0.00000
  Fe  -0.3666931   0.1358516  -0.0519716 SPIN=   4.00000
  Fe   0.3666931  -0.1358516   0.4480284 SPIN=   4.00000
  Fe  -0.1358516   0.3666931   0.4480284 SPIN=   4.00000
  Fe   0.1358516  -0.3666931  -0.0519716 SPIN=   4.00000
%ENDBLOCK POSITIONS_FRAC

# Note: total spin =  16.00

KPOINTS_MP_SPACING 0.07

%BLOCK SPECIES_POT
QC5
%ENDBLOCK SPECIES_POT

%BLOCK HUBBARD_U
Fe d:4.0
%ENDBLOCK HUBBARD_U

SNAP_TO_SYMMETRY
SYMMETRY_GENERATE

