#              Generated by Buildcell
#
# at 10:31:49 (GMT+0.0) 24th November 2020
# in /lustre/scratch/uccabz1/launch_tmp
# on node-c12l-023
# by uccabz1
#
# compiler GCC version 4.9.2
# options -cpp -iprefix /lustre/shared/ucl/apps/gcc/4.9.2/bin/../lib/gcc/x86_64-unknown-linux-gnu/4.9.2/ -mtune=corei7 -march=x86-64 -g -Og
#
# seed -1802692251  -120261034   997959422  1908496337  1597352495   684459011 -1418213815 -1567585970 -1753987281 -2046851016 -1984186105  1635123662
#
#      Author: C. J. Pickard (cjp20@cam.ac.uk)
#                Space group: Imm2
#

%BLOCK LATTICE_ABC
      4.93623      5.98026      6.66405
    116.66004    111.73796     90.00000
%ENDBLOCK LATTICE_ABC

%BLOCK POSITIONS_FRAC
  Li  -0.1620736  -0.1620736  -0.3241471 SPIN=   0.00000
  Li  -0.1620735   0.3379265  -0.3241470 SPIN=   0.00000
   O   0.4572120   0.4641149   0.4147318 SPIN=   0.00000
   O   0.2179540   0.2116456  -0.0643993 SPIN=   0.00000
   O  -0.0424803  -0.0493831   0.4147318 SPIN=   0.00000
   O  -0.2823533  -0.2760449  -0.0643993 SPIN=   0.00000
   O   0.4572120  -0.0493831   0.4147318 SPIN=   0.00000
   O   0.2179540  -0.2760449  -0.0643993 SPIN=   0.00000
   O  -0.0424803   0.4641149   0.4147318 SPIN=   0.00000
   O  -0.2823533   0.2116456  -0.0643993 SPIN=   0.00000
   P   0.1679993  -0.3320007   0.3359987 SPIN=   0.00000
   P  -0.4921460   0.0078540  -0.9842920 SPIN=   0.00000
  Fe   0.1401203   0.1401203   0.2802406 SPIN=   3.37542
  Fe  -0.4642656  -0.4642656  -0.9285311 SPIN=   4.62458
%ENDBLOCK POSITIONS_FRAC

# Note: total spin =   8.00

KPOINTS_MP_SPACING 0.07

%BLOCK SPECIES_POT
QC5
%ENDBLOCK SPECIES_POT

%BLOCK HUBBARD_U
Fe d:4.0
%ENDBLOCK HUBBARD_U

SNAP_TO_SYMMETRY
SYMMETRY_GENERATE

