#              Generated by Buildcell
#
# at 12:53:43 (GMT+0.0) 24th November 2020
# in /scratch/scratch/uccabz1/launch_tmp
# on node-a14c-025
# by uccabz1
#
# compiler GCC version 4.9.2
# options -cpp -iprefix /scratch/UCL/applications/gcc/4.9.2/bin/../lib/gcc/x86_64-unknown-linux-gnu/4.9.2/ -mtune=corei7 -march=x86-64 -g -O2
#
# seed   279804177  1439436647   716073939 -1314759284   802003621  1688262375   103279310   111091188  1820597610  -239992641  -509116883  1387758011
#
#      Author: C. J. Pickard (cjp20@cam.ac.uk)
#                Space group: Aea2
#

%BLOCK LATTICE_ABC
      5.53727      5.63832      5.84901
    118.81539     90.00000     90.00000
%ENDBLOCK LATTICE_ABC

%BLOCK POSITIONS_FRAC
  Li   0.0000000   0.2125139   0.4250277 SPIN=   0.00000
  Li  -0.5000000  -0.2874861  -0.5749723 SPIN=   0.00000
   O   0.2582621  -0.1108832  -0.7343808 SPIN=   0.00000
   O   0.4205220   0.1097287  -0.2590679 SPIN=   0.00000
   O  -0.2582621  -0.6234976  -0.7343808 SPIN=   0.00000
   O  -0.4205220  -0.3687966  -0.2590679 SPIN=   0.00000
   O  -0.2417379  -0.1234976   0.2656192 SPIN=   0.00000
   O  -0.0794780   0.1312034   0.7409321 SPIN=   0.00000
   O   0.2417379   0.3891168   0.2656192 SPIN=   0.00000
   O   0.0794780   0.6097287   0.7409321 SPIN=   0.00000
   P   0.0000000  -0.1647992  -0.3295983 SPIN=   0.00000
   P   0.5000000   0.3352008   0.6704017 SPIN=   0.00000
  Fe   0.0000000  -0.4645449  -0.9290898 SPIN=   4.00000
  Fe   0.5000000   0.0354551   0.0709102 SPIN=   4.00000
%ENDBLOCK POSITIONS_FRAC

# Note: total spin =   8.00

KPOINTS_MP_SPACING 0.07

%BLOCK SPECIES_POT
QC5
%ENDBLOCK SPECIES_POT

%BLOCK HUBBARD_U
Fe d:4.0
%ENDBLOCK HUBBARD_U

SNAP_TO_SYMMETRY
SYMMETRY_GENERATE

