#              Generated by Buildcell
#
# at 23:55:05 (GMT+0.0) 26th November 2020
# in /lustre/scratch/uccabz1/launch_tmp
# on node-c12j-029
# by uccabz1
#
# compiler GCC version 4.9.2
# options -cpp -iprefix /lustre/shared/ucl/apps/gcc/4.9.2/bin/../lib/gcc/x86_64-unknown-linux-gnu/4.9.2/ -mtune=corei7 -march=x86-64 -g -Og
#
# seed  1487580851 -1578208360  1125168422  -310375784  -445693465 -1747513153  -941785759 -1764874616   735020310  2123432906   144667188 -1992650799
#
#      Author: C. J. Pickard (cjp20@cam.ac.uk)
#                Space group: I4
#

%BLOCK LATTICE_ABC
      4.75400      8.54177      8.54177
     85.55859     73.84243     73.84243
%ENDBLOCK LATTICE_ABC

%BLOCK POSITIONS_FRAC
  Li   0.4710505  -0.4638352   0.3192909 SPIN=   0.00000
  Li   0.3265062   0.4638352  -0.3192909 SPIN=   0.00000
  Li  -0.2096586  -0.3192909  -0.4638352 SPIN=   0.00000
  Li   0.0072153   0.3192909   0.4638352 SPIN=   0.00000
   O   0.1446325  -0.1947581   0.0841003 SPIN=   0.00000
   O   0.0225282  -0.4156686   0.2991042 SPIN=   0.00000
   O  -0.2460621  -0.1271128   0.3671815 SPIN=   0.00000
   O  -0.3702393  -0.2660498   0.1575153 SPIN=   0.00000
   P  -0.1016497  -0.2480870   0.2185482 SPIN=   0.00000
   O   0.0339747   0.1947581  -0.0841003 SPIN=   0.00000
   O  -0.0940362   0.4156686  -0.2991042 SPIN=   0.00000
   O  -0.0059934   0.1271128  -0.3671815 SPIN=   0.00000
   O  -0.4787738   0.2660498  -0.1575153 SPIN=   0.00000
   P  -0.1311885   0.2480870  -0.2185482 SPIN=   0.00000
   O   0.2287328  -0.0841003  -0.1947581 SPIN=   0.00000
   O   0.3216324  -0.2991042  -0.4156686 SPIN=   0.00000
   O   0.1211194  -0.3671815  -0.1271128 SPIN=   0.00000
   O  -0.2127240  -0.1575153  -0.2660498 SPIN=   0.00000
   P   0.1168985  -0.2185482  -0.2480870 SPIN=   0.00000
   O  -0.0501256   0.0841003   0.1947581 SPIN=   0.00000
   O  -0.3931403   0.2991042   0.4156686 SPIN=   0.00000
   O  -0.3731749   0.3671815   0.1271128 SPIN=   0.00000
   O  -0.6362891   0.1575153   0.2660498 SPIN=   0.00000
   P  -0.3497367   0.2185482   0.2480870 SPIN=   0.00000
  Fe   0.1910399   0.3263557   0.0654954 SPIN=   4.00000
  Fe  -0.4171090  -0.3263557  -0.0654954 SPIN=   4.00000
  Fe   0.2565353  -0.0654954   0.3263557 SPIN=   4.00000
  Fe  -0.4826043   0.0654954  -0.3263557 SPIN=   4.00000
%ENDBLOCK POSITIONS_FRAC

# Note: total spin =  16.00

KPOINTS_MP_SPACING 0.07

%BLOCK SPECIES_POT
QC5
%ENDBLOCK SPECIES_POT

%BLOCK HUBBARD_U
Fe d:4.0
%ENDBLOCK HUBBARD_U

SNAP_TO_SYMMETRY
SYMMETRY_GENERATE

