#              Generated by Buildcell
#
# at 20:13:09 (GMT+0.0) 26th November 2020
# in /scratch/scratch/uccabz1/launch_tmp
# on node-k10e-015
# by uccabz1
#
# compiler GCC version 4.9.2
# options -cpp -iprefix /scratch/UCL/applications/gcc/4.9.2/bin/../lib/gcc/x86_64-unknown-linux-gnu/4.9.2/ -mtune=corei7 -march=x86-64 -g -O2
#
# seed  1049322487  -884412695    48943824 -1079138569   956618943  -546036411   808790865   331167850 -1409807525 -1347277652  1903430864  -150970362
#
#      Author: C. J. Pickard (cjp20@cam.ac.uk)
#                Space group: P2
#

%BLOCK LATTICE_ABC
      5.54324      6.43902      8.97230
     90.00000     90.00000     92.25736
%ENDBLOCK LATTICE_ABC

%BLOCK POSITIONS_FRAC
  Li   0.2456905   0.4062281   0.2841802 SPIN=   0.00000
  Li  -0.2456905  -0.4062281   0.2841802 SPIN=   0.00000
  Li  -0.2456500   0.0933194   0.2737978 SPIN=   0.00000
  Li   0.2456500  -0.0933194   0.2737978 SPIN=   0.00000
   O   0.2366245  -0.4030023  -0.1376695 SPIN=   0.00000
   O   0.4941609  -0.3090407   0.0964890 SPIN=   0.00000
   O   0.2725331  -0.0307863  -0.0260077 SPIN=   0.00000
   O   0.0432443  -0.3106661   0.1144901 SPIN=   0.00000
   P   0.2577314  -0.2713665   0.0050772 SPIN=   0.00000
   O  -0.2366245   0.4030023  -0.1376695 SPIN=   0.00000
   O  -0.4941609   0.3090407   0.0964890 SPIN=   0.00000
   O  -0.2725331   0.0307863  -0.0260077 SPIN=   0.00000
   O  -0.0432443   0.3106661   0.1144901 SPIN=   0.00000
   P  -0.2577314   0.2713665   0.0050772 SPIN=   0.00000
   O  -0.0108418  -0.1906740  -0.5378178 SPIN=   0.00000
   O  -0.4794616  -0.1892151  -0.5385100 SPIN=   0.00000
   O  -0.2816706  -0.4584963  -0.3913856 SPIN=   0.00000
   O  -0.2548404  -0.0881319  -0.3057416 SPIN=   0.00000
   P  -0.2435907  -0.2277552  -0.4467689 SPIN=   0.00000
   O   0.0108418   0.1906740  -0.5378178 SPIN=   0.00000
   O   0.4794616   0.1892151  -0.5385100 SPIN=   0.00000
   O   0.2816706   0.4584963  -0.3913856 SPIN=   0.00000
   O   0.2548404   0.0881319  -0.3057416 SPIN=   0.00000
   P   0.2435907   0.2277552  -0.4467689 SPIN=   0.00000
  Fe   0.2429759   0.2852633  -0.0717240 SPIN=   4.20191
  Fe  -0.2429759  -0.2852633  -0.0717240 SPIN=   4.20191
  Fe   0.2555253  -0.2222261  -0.3721491 SPIN=   3.79809
  Fe  -0.2555253   0.2222261  -0.3721491 SPIN=   3.79809
%ENDBLOCK POSITIONS_FRAC

# Note: total spin =  16.00

KPOINTS_MP_SPACING 0.07

%BLOCK SPECIES_POT
QC5
%ENDBLOCK SPECIES_POT

%BLOCK HUBBARD_U
Fe d:4.0
%ENDBLOCK HUBBARD_U

SNAP_TO_SYMMETRY
SYMMETRY_GENERATE

