#              Generated by Buildcell
#
# at 22:41:41 (GMT+0.0) 26th November 2020
# in /scratch/scratch/uccabz1/launch_tmp
# on node-a14b-028
# by uccabz1
#
# compiler GCC version 4.9.2
# options -cpp -iprefix /scratch/UCL/applications/gcc/4.9.2/bin/../lib/gcc/x86_64-unknown-linux-gnu/4.9.2/ -mtune=corei7 -march=x86-64 -g -O2
#
# seed   592372995   607661763  1881537796  1715512554   194015974 -1705577392 -1120017573  -994333164    19190014  2007395220  -463163808 -1175432508
#
#      Author: C. J. Pickard (cjp20@cam.ac.uk)
#                Space group: Pc
#

%BLOCK LATTICE_ABC
      6.08368      7.01157      7.58668
     90.00000     98.57666     90.00000
%ENDBLOCK LATTICE_ABC

%BLOCK POSITIONS_FRAC
  Li  -0.3135709   0.1802364  -0.4089553 SPIN=   0.00000
  Li  -0.3135709  -0.1802364   0.0910447 SPIN=   0.00000
  Li  -0.2349735   0.2397846   0.0554287 SPIN=   0.00000
  Li  -0.2349735  -0.2397846  -0.4445713 SPIN=   0.00000
   O   0.0171921   0.6468336  -0.2004622 SPIN=   0.00000
   O  -0.2202479   0.4612081  -0.4577585 SPIN=   0.00000
   O   0.1789406   0.3833635  -0.3849146 SPIN=   0.00000
   O  -0.0810755   0.2907730  -0.1728296 SPIN=   0.00000
   P  -0.0246285   0.4544357  -0.2969310 SPIN=   0.00000
   O   0.0171921  -0.6468336   0.2995378 SPIN=   0.00000
   O  -0.2202479  -0.4612081   0.0422415 SPIN=   0.00000
   O   0.1789406  -0.3833635   0.1150854 SPIN=   0.00000
   O  -0.0810755  -0.2907730   0.3271704 SPIN=   0.00000
   P  -0.0246285  -0.4544357   0.2030690 SPIN=   0.00000
   O   0.3957490  -0.1168637   0.2609121 SPIN=   0.00000
   O   0.4293458   0.1938955   0.0803273 SPIN=   0.00000
   O   0.4039447   0.2215453   0.4012277 SPIN=   0.00000
   O   0.7505862   0.0905380   0.3057193 SPIN=   0.00000
   P   0.4926441   0.0857972   0.2625016 SPIN=   0.00000
   O   0.3957490   0.1168637  -0.2390879 SPIN=   0.00000
   O   0.4293458  -0.1938955  -0.4196727 SPIN=   0.00000
   O   0.4039447  -0.2215453  -0.0987723 SPIN=   0.00000
   O   0.7505862  -0.0905380  -0.1942807 SPIN=   0.00000
   P   0.4926441  -0.0857972  -0.2374984 SPIN=   0.00000
  Fe   0.1615707  -0.0498912  -0.0140935 SPIN=   1.79891
  Fe   0.1615707   0.0498912   0.4859065 SPIN=   1.79891
  Fe   0.4394884  -0.4858268  -0.2158771 SPIN=   6.20109
  Fe   0.4394884   0.4858268   0.2841229 SPIN=   6.20109
%ENDBLOCK POSITIONS_FRAC

# Note: total spin =  16.00

KPOINTS_MP_SPACING 0.07

%BLOCK SPECIES_POT
QC5
%ENDBLOCK SPECIES_POT

%BLOCK HUBBARD_U
Fe d:4.0
%ENDBLOCK HUBBARD_U

SNAP_TO_SYMMETRY
SYMMETRY_GENERATE

