#              Generated by Buildcell
#
# at 07:47:55 (GMT+0.0) 24th November 2020
# in /scratch/scratch/uccabz1/launch_tmp
# on node-a14f-013
# by uccabz1
#
# compiler GCC version 4.9.2
# options -cpp -iprefix /scratch/UCL/applications/gcc/4.9.2/bin/../lib/gcc/x86_64-unknown-linux-gnu/4.9.2/ -mtune=corei7 -march=x86-64 -g -O2
#
# seed  1720239689  -406973119   566424536  1788703160  -868681157 -1406283527   891559532  -969103111  1163892354  -657738763  -437338651 -1225154130
#
#      Author: C. J. Pickard (cjp20@cam.ac.uk)
#                Space group: I-4
#

%BLOCK LATTICE_ABC
      5.56836      5.56836      6.49083
    115.40033    115.40033     90.00000
%ENDBLOCK LATTICE_ABC

%BLOCK POSITIONS_FRAC
  Li  -0.4856970   0.0143030   0.0286059 SPIN=   0.00000
  Li  -0.0143030   0.4856970  -0.0286059 SPIN=   0.00000
   O  -0.3551686  -0.3098053  -0.2484268 SPIN=   0.00000
   O   0.1021156  -0.3882012  -0.2547233 SPIN=   0.00000
   O   0.1067419   0.0613786  -0.2484268 SPIN=   0.00000
   O  -0.3568389   0.1334779  -0.2547233 SPIN=   0.00000
   O  -0.0613786   0.3551686   0.2484268 SPIN=   0.00000
   O  -0.1334779  -0.1021156   0.2547233 SPIN=   0.00000
   O   0.3098053  -0.1067419   0.2484268 SPIN=   0.00000
   O   0.3882012   0.3568389   0.2547233 SPIN=   0.00000
   P   0.2500000  -0.2500000   0.5000000 SPIN=   0.00000
   P   0.0000000   0.0000000   0.0000000 SPIN=   0.00000
  Fe  -0.3107363  -0.3107363   0.3785273 SPIN=   4.00000
  Fe   0.3107363   0.3107363  -0.3785273 SPIN=   4.00000
%ENDBLOCK POSITIONS_FRAC

# Note: total spin =   8.00

KPOINTS_MP_SPACING 0.07

%BLOCK SPECIES_POT
QC5
%ENDBLOCK SPECIES_POT

%BLOCK HUBBARD_U
Fe d:4.0
%ENDBLOCK HUBBARD_U

SNAP_TO_SYMMETRY
SYMMETRY_GENERATE

