#              Generated by Buildcell
#
# at 14:33:52 (GMT+0.0) 24th November 2020
# in /scratch/scratch/uccabz1/launch_tmp
# on node-a14f-013
# by uccabz1
#
# compiler GCC version 4.9.2
# options -cpp -iprefix /scratch/UCL/applications/gcc/4.9.2/bin/../lib/gcc/x86_64-unknown-linux-gnu/4.9.2/ -mtune=corei7 -march=x86-64 -g -O2
#
# seed -1711602783   275241209 -1735112392  -324550782  -329233998 -1682169305  1160158559 -1930985415  1088341055 -1214770554  1511486871  -869044376
#
#      Author: C. J. Pickard (cjp20@cam.ac.uk)
#                Space group: P-1
#

%BLOCK LATTICE_ABC
      4.41521      5.24316      7.18654
    104.98647     95.13043     90.22281
%ENDBLOCK LATTICE_ABC

%BLOCK POSITIONS_FRAC
  Li  -0.8179662  -0.2319827  -0.4657624 SPIN=   0.00000
  Li   0.8179662   0.2319827   0.4657624 SPIN=   0.00000
   O  -0.9089681  -0.9375314  -0.2167498 SPIN=   0.00000
   O  -0.3818549  -0.6931981  -0.1529476 SPIN=   0.00000
   O  -0.6429131  -0.7945392  -0.4833065 SPIN=   0.00000
   O  -0.8480467  -0.4480833  -0.2186372 SPIN=   0.00000
   P  -0.7086155  -0.7268197  -0.2646047 SPIN=   0.00000
   O   0.9089681   0.9375314   0.2167498 SPIN=   0.00000
   O   0.3818549   0.6931981   0.1529476 SPIN=   0.00000
   O   0.6429131   0.7945392   0.4833065 SPIN=   0.00000
   O   0.8480467   0.4480833   0.2186372 SPIN=   0.00000
   P   0.7086155   0.7268197   0.2646047 SPIN=   0.00000
  Fe   0.2705683   0.2980246   0.1374308 SPIN=   4.00000
  Fe  -0.2705683  -0.2980246  -0.1374308 SPIN=   4.00000
%ENDBLOCK POSITIONS_FRAC

# Note: total spin =   8.00

KPOINTS_MP_SPACING 0.07

%BLOCK SPECIES_POT
QC5
%ENDBLOCK SPECIES_POT

%BLOCK HUBBARD_U
Fe d:4.0
%ENDBLOCK HUBBARD_U

SNAP_TO_SYMMETRY
SYMMETRY_GENERATE

