#              Generated by Buildcell
#
# at 09:11:16 (GMT+0.0) 24th November 2020
# in /lustre/scratch/uccabz1/launch_tmp
# on node-c12f-022
# by uccabz1
#
# compiler GCC version 4.9.2
# options -cpp -iprefix /lustre/shared/ucl/apps/gcc/4.9.2/bin/../lib/gcc/x86_64-unknown-linux-gnu/4.9.2/ -mtune=corei7 -march=x86-64 -g -Og
#
# seed  2084311930  1885373924 -1521777932  -820981540   601985320  -789403454   112761116  1085945379 -1406007870   190115987 -1220794141   168173560
#
#      Author: C. J. Pickard (cjp20@cam.ac.uk)
#                Space group: Cc
#

%BLOCK LATTICE_ABC
      5.81317      5.81317      6.17895
    100.11785    108.20455    118.76412
%ENDBLOCK LATTICE_ABC

%BLOCK POSITIONS_FRAC
  Li   0.4542330   0.1447460  -0.0813150 SPIN=   0.00000
  Li   0.2739390   0.4644520   0.4186850 SPIN=   0.00000
   O   0.2739653  -0.1629425   0.1781932 SPIN=   0.00000
   O   0.5047264   0.3717157   0.2560266 SPIN=   0.00000
   O   0.4448248   0.2164516   0.5936457 SPIN=   0.00000
   O   0.8252343   0.2306986   0.4761677 SPIN=   0.00000
   P   0.5031978   0.1473612   0.3666576 SPIN=   0.00000
   O  -0.1588643  -0.0957721  -0.3218068 SPIN=   0.00000
   O  -0.6156891  -0.2486998  -0.2439734 SPIN=   0.00000
   O  -0.1228059   0.1488209   0.0936457 SPIN=   0.00000
   O  -0.2545309  -0.3490666  -0.0238323 SPIN=   0.00000
   P  -0.2807036  -0.1365402  -0.1333424 SPIN=   0.00000
  Fe   0.0655711   0.4734232  -0.1410239 SPIN=   4.00000
  Fe  -0.1144471  -0.2065950   0.3589761 SPIN=   4.00000
%ENDBLOCK POSITIONS_FRAC

# Note: total spin =   8.00

KPOINTS_MP_SPACING 0.07

%BLOCK SPECIES_POT
QC5
%ENDBLOCK SPECIES_POT

%BLOCK HUBBARD_U
Fe d:4.0
%ENDBLOCK HUBBARD_U

SNAP_TO_SYMMETRY
SYMMETRY_GENERATE

