#              Generated by Buildcell
#
# at 14:48:01 (GMT+0.0) 24th November 2020
# in /lustre/scratch/uccabz1/launch_tmp
# on node-c12g-035
# by uccabz1
#
# compiler GCC version 4.9.2
# options -cpp -iprefix /lustre/shared/ucl/apps/gcc/4.9.2/bin/../lib/gcc/x86_64-unknown-linux-gnu/4.9.2/ -mtune=corei7 -march=x86-64 -g -Og
#
# seed -1771117909  2144619055   914931771 -2102833781  -112670672  -428391242 -1242013198 -1053388410  1159352875  1875499854   320307714  -689422478
#
#      Author: C. J. Pickard (cjp20@cam.ac.uk)
#                Space group: P-1
#

%BLOCK LATTICE_ABC
      5.15957      5.57763      5.95901
    104.49551    104.89181     90.34392
%ENDBLOCK LATTICE_ABC

%BLOCK POSITIONS_FRAC
  Li   0.4334433  -0.2175872   0.1092375 SPIN=   0.00000
  Li  -0.4334433   0.2175872  -0.1092375 SPIN=   0.00000
   O   0.0006347   0.2243758   0.5921650 SPIN=   0.00000
   O  -0.5168007   0.2253400   0.5279135 SPIN=   0.00000
   O  -0.3146854   0.3949303   0.2612049 SPIN=   0.00000
   P  -0.2760212   0.1938658   0.4085655 SPIN=   0.00000
   O  -0.0006347  -0.2243758  -0.5921650 SPIN=   0.00000
   O   0.5168007  -0.2253400  -0.5279135 SPIN=   0.00000
   O   0.3146854  -0.3949303  -0.2612049 SPIN=   0.00000
   P   0.2760212  -0.1938658  -0.4085655 SPIN=   0.00000
   O  -0.0000000   0.0000000   0.0000000 SPIN=   0.00000
   O  -0.0000000   0.5000000   0.0000000 SPIN=   0.00000
  Fe  -0.8199101   0.3218317   0.2636609 SPIN=   4.00000
  Fe   0.8199101  -0.3218317  -0.2636609 SPIN=   4.00000
%ENDBLOCK POSITIONS_FRAC

# Note: total spin =   8.00

KPOINTS_MP_SPACING 0.07

%BLOCK SPECIES_POT
QC5
%ENDBLOCK SPECIES_POT

%BLOCK HUBBARD_U
Fe d:4.0
%ENDBLOCK HUBBARD_U

SNAP_TO_SYMMETRY
SYMMETRY_GENERATE

