#              Generated by Buildcell
#
# at 14:42:34 (GMT+0.0) 26th November 2020
# in /lustre/scratch/uccabz1/launch_tmp
# on node-c12c-024
# by uccabz1
#
# compiler GCC version 4.9.2
# options -cpp -iprefix /lustre/shared/ucl/apps/gcc/4.9.2/bin/../lib/gcc/x86_64-unknown-linux-gnu/4.9.2/ -mtune=corei7 -march=x86-64 -g -Og
#
# seed  -962865281    67932582   716745151  -280232657   912645624 -1196676544 -1774694031  1081254382   740728223  1379783533 -1464234727   706939734
#
#      Author: C. J. Pickard (cjp20@cam.ac.uk)
#                Space group: C2
#

%BLOCK LATTICE_ABC
      6.29986      7.49440      7.49440
     68.75869     78.48097     78.48097
%ENDBLOCK LATTICE_ABC

%BLOCK POSITIONS_FRAC
  Li  -0.3296059   0.1866808   0.1622085 SPIN=   0.00000
  Li   0.3296059  -0.1622085  -0.1866808 SPIN=   0.00000
  Li  -0.3841257  -0.2425340   0.4315712 SPIN=   0.00000
  Li   0.3841257  -0.4315712   0.2425340 SPIN=   0.00000
   O   0.1313877   0.6141524  -0.0588141 SPIN=   0.00000
   O   0.2367463   0.3318485   0.2488937 SPIN=   0.00000
   O  -0.1394544   0.5068443   0.2583049 SPIN=   0.00000
   O  -0.0228353   0.2900375   0.0584007 SPIN=   0.00000
   P   0.0548400   0.4435021   0.1160128 SPIN=   0.00000
   O  -0.1313877   0.0588141  -0.6141524 SPIN=   0.00000
   O  -0.2367463  -0.2488937  -0.3318485 SPIN=   0.00000
   O   0.1394544  -0.2583049  -0.5068443 SPIN=   0.00000
   O   0.0228353  -0.0584007  -0.2900375 SPIN=   0.00000
   P  -0.0548400  -0.1160128  -0.4435021 SPIN=   0.00000
   O  -0.1734937   0.3934965  -0.2490483 SPIN=   0.00000
   O  -0.5683151   0.3428776  -0.0754655 SPIN=   0.00000
   O  -0.3730363   0.5508549   0.0073943 SPIN=   0.00000
   P  -0.3926678   0.4855455  -0.1651744 SPIN=   0.00000
   O   0.1734937   0.2490483  -0.3934965 SPIN=   0.00000
   O   0.5683151   0.0754655  -0.3428776 SPIN=   0.00000
   O   0.3730363  -0.0073943  -0.5508549 SPIN=   0.00000
   P   0.3926678   0.1651744  -0.4855455 SPIN=   0.00000
   O  -0.5000000  -0.0142571   0.0142571 SPIN=   0.00000
   O   0.0000000  -0.0669587   0.0669587 SPIN=   0.00000
  Fe  -0.2041946   0.2851524  -0.4785013 SPIN=   3.72029
  Fe   0.2041946   0.4785013  -0.2851524 SPIN=   3.72029
  Fe  -0.2049262  -0.1896300  -0.0316512 SPIN=   4.27971
  Fe   0.2049262   0.0316512   0.1896300 SPIN=   4.27971
%ENDBLOCK POSITIONS_FRAC

# Note: total spin =  16.00

KPOINTS_MP_SPACING 0.07

%BLOCK SPECIES_POT
QC5
%ENDBLOCK SPECIES_POT

%BLOCK HUBBARD_U
Fe d:4.0
%ENDBLOCK HUBBARD_U

SNAP_TO_SYMMETRY
SYMMETRY_GENERATE

