#              Generated by Buildcell
#
# at 14:42:32 (GMT+0.0) 24th November 2020
# in /scratch/scratch/uccabz1/launch_tmp
# on node-a14c-023
# by uccabz1
#
# compiler GCC version 4.9.2
# options -cpp -iprefix /scratch/UCL/applications/gcc/4.9.2/bin/../lib/gcc/x86_64-unknown-linux-gnu/4.9.2/ -mtune=corei7 -march=x86-64 -g -O2
#
# seed  1934830790  1470431641  2064534348  -116934069 -1668476013 -1874035453   945537633 -1958990792   792017578 -1349364280   114996078  -508886056
#
#      Author: C. J. Pickard (cjp20@cam.ac.uk)
#                Space group: P21/m
#

%BLOCK LATTICE_ABC
      3.99036      4.12914      9.71166
     90.00000     90.00000     90.82578
%ENDBLOCK LATTICE_ABC

%BLOCK POSITIONS_FRAC
  Li  -0.0000000  -0.5000000  -0.0000000 SPIN=   0.00000
  Li   0.0000000  -0.5000000  -0.5000000 SPIN=   0.00000
   O  -0.4325774  -0.4318110  -0.1227707 SPIN=   0.00000
   O  -0.2335136  -0.0677925   0.0804242 SPIN=   0.00000
   O   0.4325774   0.4318110   0.3772293 SPIN=   0.00000
   O   0.2335136   0.0677925   0.5804242 SPIN=   0.00000
   O   0.4325774   0.4318110   0.1227707 SPIN=   0.00000
   O   0.2335136   0.0677925  -0.0804242 SPIN=   0.00000
   O  -0.4325774  -0.4318110  -0.3772293 SPIN=   0.00000
   O  -0.2335136  -0.0677925  -0.5804242 SPIN=   0.00000
   P   0.2873582   0.4925634  -0.2500000 SPIN=   0.00000
   P  -0.2873582  -0.4925634   0.2500000 SPIN=   0.00000
  Fe   0.2175624   0.0031098   0.2500000 SPIN=   4.00000
  Fe  -0.2175624  -0.0031098  -0.2500000 SPIN=   4.00000
%ENDBLOCK POSITIONS_FRAC

# Note: total spin =   8.00

KPOINTS_MP_SPACING 0.07

%BLOCK SPECIES_POT
QC5
%ENDBLOCK SPECIES_POT

%BLOCK HUBBARD_U
Fe d:4.0
%ENDBLOCK HUBBARD_U

SNAP_TO_SYMMETRY
SYMMETRY_GENERATE

