#              Generated by Buildcell
#
# at 10:52:46 (GMT+0.0) 24th November 2020
# in /lustre/scratch/uccabz1/launch_tmp
# on node-c12c-034
# by uccabz1
#
# compiler GCC version 4.9.2
# options -cpp -iprefix /lustre/shared/ucl/apps/gcc/4.9.2/bin/../lib/gcc/x86_64-unknown-linux-gnu/4.9.2/ -mtune=corei7 -march=x86-64 -g -Og
#
# seed -1695435608   -88193176  -658252906  -993471902 -1948435542    -5198581   713624895 -1555904221  -383088317 -1720018647  1529218157  1951344961
#
#      Author: C. J. Pickard (cjp20@cam.ac.uk)
#                Space group: Imm2
#

%BLOCK LATTICE_ABC
      5.33480      5.65147      6.57746
    115.44272    113.92473     90.00000
%ENDBLOCK LATTICE_ABC

%BLOCK POSITIONS_FRAC
  Li   0.0000000  -0.3023631   0.0000000 SPIN=   0.00000
  Li  -0.5000000  -0.8046314   0.0000000 SPIN=   0.00000
   O   0.1481850   0.3616698  -0.2406473 SPIN=   0.00000
   O   0.1024473  -0.1052238  -0.2582476 SPIN=   0.00000
   O  -0.1481850  -0.3976828   0.2406473 SPIN=   0.00000
   O  -0.1024473  -0.8469762   0.2582476 SPIN=   0.00000
   O   0.3888323   0.6023172   0.2406473 SPIN=   0.00000
   O   0.3606949   0.1530238   0.2582476 SPIN=   0.00000
   O  -0.3888323  -0.6383302  -0.2406473 SPIN=   0.00000
   O  -0.3606949  -1.1052238  -0.2582476 SPIN=   0.00000
   P  -0.5000000  -0.3317218   0.0000000 SPIN=   0.00000
   P   0.0000000   0.1707535  -0.0000000 SPIN=   0.00000
  Fe  -0.2499892   0.1019110  -0.4999784 SPIN=   4.00000
  Fe   0.2499892   0.6018893   0.4999784 SPIN=   4.00000
%ENDBLOCK POSITIONS_FRAC

# Note: total spin =   8.00

KPOINTS_MP_SPACING 0.07

%BLOCK SPECIES_POT
QC5
%ENDBLOCK SPECIES_POT

%BLOCK HUBBARD_U
Fe d:4.0
%ENDBLOCK HUBBARD_U

SNAP_TO_SYMMETRY
SYMMETRY_GENERATE

