#              Generated by Buildcell
#
# at 08:55:31 (GMT+0.0) 24th November 2020
# in /lustre/scratch/uccabz1/launch_tmp
# on node-c12k-029
# by uccabz1
#
# compiler GCC version 4.9.2
# options -cpp -iprefix /lustre/shared/ucl/apps/gcc/4.9.2/bin/../lib/gcc/x86_64-unknown-linux-gnu/4.9.2/ -mtune=corei7 -march=x86-64 -g -Og
#
# seed   585598961   221103882   -11354380  -626232670   302922047 -1372242450  2034033913  2134726307 -1075082262 -1238920214   195956159 -1698451897
#
#      Author: C. J. Pickard (cjp20@cam.ac.uk)
#                Space group: Pc
#

%BLOCK LATTICE_ABC
      4.93339      5.37371      6.58535
     90.00000     90.00000    113.58391
%ENDBLOCK LATTICE_ABC

%BLOCK POSITIONS_FRAC
  Li   0.4892642   0.3464038  -0.3702752 SPIN=   0.00000
  Li  -0.0107358   0.3464038   0.3702752 SPIN=   0.00000
   O  -0.6059663  -0.1047221  -0.0888769 SPIN=   0.00000
   O  -0.7238559  -0.3436730  -0.4404561 SPIN=   0.00000
   O  -0.7845598  -0.6264757  -0.1342638 SPIN=   0.00000
   O  -1.1391125  -0.4076576  -0.1993793 SPIN=   0.00000
   P  -0.8061743  -0.3569106  -0.2087959 SPIN=   0.00000
   O  -0.1059663  -0.1047221   0.0888769 SPIN=   0.00000
   O  -0.2238559  -0.3436730   0.4404561 SPIN=   0.00000
   O  -0.2845598  -0.6264757   0.1342638 SPIN=   0.00000
   O  -0.6391125  -0.4076576   0.1993793 SPIN=   0.00000
   P  -0.3061743  -0.3569106   0.2087959 SPIN=   0.00000
  Fe  -0.1755133  -0.0333403  -0.2226307 SPIN=   4.00000
  Fe   0.3244867  -0.0333403   0.2226307 SPIN=   4.00000
%ENDBLOCK POSITIONS_FRAC

# Note: total spin =   8.00

KPOINTS_MP_SPACING 0.07

%BLOCK SPECIES_POT
QC5
%ENDBLOCK SPECIES_POT

%BLOCK HUBBARD_U
Fe d:4.0
%ENDBLOCK HUBBARD_U

SNAP_TO_SYMMETRY
SYMMETRY_GENERATE

