#              Generated by Buildcell
#
# at 10:58:50 (GMT+0.0) 24th November 2020
# in /scratch/scratch/uccabz1/launch_tmp
# on node-a14f-013
# by uccabz1
#
# compiler GCC version 4.9.2
# options -cpp -iprefix /scratch/UCL/applications/gcc/4.9.2/bin/../lib/gcc/x86_64-unknown-linux-gnu/4.9.2/ -mtune=corei7 -march=x86-64 -g -O2
#
# seed   961202199    64613774  1446680917   245652838 -1229170142   816833639  1061555770  1129550319   919025450  1074336432  1507268728   479670177
#
#      Author: C. J. Pickard (cjp20@cam.ac.uk)
#                Space group: Cc
#

%BLOCK LATTICE_ABC
      5.03908      5.03908      6.78015
    103.58889    103.58889     96.60146
%ENDBLOCK LATTICE_ABC

%BLOCK POSITIONS_FRAC
  Li   0.0229670   0.0984321  -0.0813940 SPIN=   0.00000
  Li   0.0984321   0.0229670   0.4186060 SPIN=   0.00000
   O   0.1590580  -0.3878722   0.2919444 SPIN=   0.00000
   O   0.3146977  -0.5479029  -0.0496213 SPIN=   0.00000
   O  -0.1161267  -0.3531718  -0.0739160 SPIN=   0.00000
   O   0.3430885  -0.0401082   0.1084608 SPIN=   0.00000
   P   0.1763025  -0.3317769   0.0815392 SPIN=   0.00000
   O  -0.3878722   0.1590580  -0.2080556 SPIN=   0.00000
   O  -0.5479029   0.3146977  -0.5496213 SPIN=   0.00000
   O  -0.3531718  -0.1161267  -0.5739160 SPIN=   0.00000
   O  -0.0401082   0.3430885  -0.3915392 SPIN=   0.00000
   P  -0.3317769   0.1763025  -0.4184608 SPIN=   0.00000
  Fe   0.3920804  -0.3466712  -0.2759952 SPIN=   4.00000
  Fe  -0.3466712   0.3920804   0.2240048 SPIN=   4.00000
%ENDBLOCK POSITIONS_FRAC

# Note: total spin =   8.00

KPOINTS_MP_SPACING 0.07

%BLOCK SPECIES_POT
QC5
%ENDBLOCK SPECIES_POT

%BLOCK HUBBARD_U
Fe d:4.0
%ENDBLOCK HUBBARD_U

SNAP_TO_SYMMETRY
SYMMETRY_GENERATE

