#              Generated by Buildcell
#
# at 12:15:42 (GMT+0.0) 24th November 2020
# in /scratch/scratch/uccabz1/launch_tmp
# on node-a14b-007
# by uccabz1
#
# compiler GCC version 4.9.2
# options -cpp -iprefix /scratch/UCL/applications/gcc/4.9.2/bin/../lib/gcc/x86_64-unknown-linux-gnu/4.9.2/ -mtune=corei7 -march=x86-64 -g -O2
#
# seed  1982660929 -1052261515   384811783  1023791984   744185863 -1103377516   176748532   480175074 -1836458650   636168483   198301221 -2019237337
#
#      Author: C. J. Pickard (cjp20@cam.ac.uk)
#                Space group: C2
#

%BLOCK LATTICE_ABC
      4.88657      5.93649      5.93649
     82.80242     74.74598     74.74598
%ENDBLOCK LATTICE_ABC

%BLOCK POSITIONS_FRAC
  Li   0.1622755  -0.0160237  -0.3437963 SPIN=   0.00000
  Li  -0.1622755   0.3437963   0.0160237 SPIN=   0.00000
   O   0.4863342  -0.2936589  -0.2136794 SPIN=   0.00000
   O   0.7337421  -0.2073989  -0.6489041 SPIN=   0.00000
   O   0.7184453   0.0611879  -0.3575053 SPIN=   0.00000
   O   1.0442484  -0.3427107  -0.3599954 SPIN=   0.00000
   P   0.7354063  -0.2025995  -0.3849522 SPIN=   0.00000
   O  -0.4863342   0.2136794   0.2936589 SPIN=   0.00000
   O  -0.7337421   0.6489041   0.2073989 SPIN=   0.00000
   O  -0.7184453   0.3575053  -0.0611879 SPIN=   0.00000
   O  -1.0442484   0.3599954   0.3427107 SPIN=   0.00000
   P  -0.7354063   0.3849522   0.2025995 SPIN=   0.00000
  Fe  -0.5000000  -0.0919270   0.0919270 SPIN=   5.57974
  Fe  -0.5000000   0.4108028  -0.4108028 SPIN=   2.42026
%ENDBLOCK POSITIONS_FRAC

# Note: total spin =   8.00

KPOINTS_MP_SPACING 0.07

%BLOCK SPECIES_POT
QC5
%ENDBLOCK SPECIES_POT

%BLOCK HUBBARD_U
Fe d:4.0
%ENDBLOCK HUBBARD_U

SNAP_TO_SYMMETRY
SYMMETRY_GENERATE

