#              Generated by Buildcell
#
# at 20:48:55 (GMT+0.0) 26th November 2020
# in /lustre/scratch/uccabz1/launch_tmp
# on node-c12f-031
# by uccabz1
#
# compiler GCC version 4.9.2
# options -cpp -iprefix /lustre/shared/ucl/apps/gcc/4.9.2/bin/../lib/gcc/x86_64-unknown-linux-gnu/4.9.2/ -mtune=corei7 -march=x86-64 -g -Og
#
# seed  -730951476  -359520911   872405433 -1785639024   292556117  -195872557  1876066517 -1070926153 -2085647249 -1754231864 -1830362715  1310070060
#
#      Author: C. J. Pickard (cjp20@cam.ac.uk)
#                Space group: P41
#

%BLOCK LATTICE_ABC
      4.33615      4.33615     17.01931
     90.00000     90.00000     90.00000
%ENDBLOCK LATTICE_ABC

%BLOCK POSITIONS_FRAC
  Li  -0.2246891  -0.0010165   0.0854220 SPIN=   0.00000
  Li   0.2246891   0.0010165  -0.4145780 SPIN=   0.00000
  Li   0.0010165  -0.2246891  -0.1645780 SPIN=   0.00000
  Li  -0.0010165   0.2246891   0.3354220 SPIN=   0.00000
   O   0.6504389   0.1752300   0.1965058 SPIN=   0.00000
   O   0.6550939  -0.3420436   0.2735336 SPIN=   0.00000
   O   0.5223230   0.1349812   0.3452765 SPIN=   0.00000
   O   0.1505484  -0.0809425   0.2470198 SPIN=   0.00000
   P   0.4988385  -0.0179850   0.2616868 SPIN=   0.00000
   O  -0.6504389  -0.1752300  -0.3034942 SPIN=   0.00000
   O  -0.6550939   0.3420436  -0.2264664 SPIN=   0.00000
   O  -0.5223230  -0.1349812  -0.1547235 SPIN=   0.00000
   O  -0.1505484   0.0809425  -0.2529802 SPIN=   0.00000
   P  -0.4988385   0.0179850  -0.2383132 SPIN=   0.00000
   O  -0.1752300   0.6504389  -0.0534942 SPIN=   0.00000
   O   0.3420436   0.6550939   0.0235336 SPIN=   0.00000
   O  -0.1349812   0.5223230   0.0952765 SPIN=   0.00000
   O   0.0809425   0.1505484  -0.0029802 SPIN=   0.00000
   P   0.0179850   0.4988385   0.0116868 SPIN=   0.00000
   O   0.1752300  -0.6504389  -0.5534942 SPIN=   0.00000
   O  -0.3420436  -0.6550939  -0.4764664 SPIN=   0.00000
   O   0.1349812  -0.5223230  -0.4047235 SPIN=   0.00000
   O  -0.0809425  -0.1505484  -0.5029802 SPIN=   0.00000
   P  -0.0179850  -0.4988385  -0.4883132 SPIN=   0.00000
  Fe   0.4820452  -0.2777272   0.4166817 SPIN=   4.00000
  Fe  -0.4820452   0.2777272  -0.0833183 SPIN=   4.00000
  Fe   0.2777272   0.4820452   0.1666817 SPIN=   4.00000
  Fe  -0.2777272  -0.4820452  -0.3333183 SPIN=   4.00000
%ENDBLOCK POSITIONS_FRAC

# Note: total spin =  16.00

KPOINTS_MP_SPACING 0.07

%BLOCK SPECIES_POT
QC5
%ENDBLOCK SPECIES_POT

%BLOCK HUBBARD_U
Fe d:4.0
%ENDBLOCK HUBBARD_U

SNAP_TO_SYMMETRY
SYMMETRY_GENERATE

