#              Generated by Buildcell
#
# at 01:02:25 (GMT+0.0) 27th November 2020
# in /lustre/scratch/uccabz1/launch_tmp
# on node-c12j-025
# by uccabz1
#
# compiler GCC version 4.9.2
# options -cpp -iprefix /lustre/shared/ucl/apps/gcc/4.9.2/bin/../lib/gcc/x86_64-unknown-linux-gnu/4.9.2/ -mtune=corei7 -march=x86-64 -g -Og
#
# seed  1641470816  -128511804  -677907361  -780771740  1330412493 -1760469108   -66536080  1144292737  -356816146   497287307   997257831 -1940339980
#
#      Author: C. J. Pickard (cjp20@cam.ac.uk)
#                Space group: Pc
#

%BLOCK LATTICE_ABC
      6.35550      6.96019      7.61277
     90.00000     90.00000    108.14968
%ENDBLOCK LATTICE_ABC

%BLOCK POSITIONS_FRAC
  Li  -0.3036712   0.2729975  -0.0164524 SPIN=   0.00000
  Li   0.1963288   0.2729975   0.0164524 SPIN=   0.00000
  Li   0.2562630  -0.2570463  -0.0039917 SPIN=   0.00000
  Li  -0.2437370  -0.2570463   0.0039917 SPIN=   0.00000
   O   0.0954473  -0.6831866   0.3812666 SPIN=   0.00000
   O   0.3294753  -0.3382908   0.2499400 SPIN=   0.00000
   O   0.0010704  -0.5428921   0.0854396 SPIN=   0.00000
   O  -0.0496822  -0.3757570   0.3665824 SPIN=   0.00000
   P   0.0924542  -0.4942928   0.2778188 SPIN=   0.00000
   O  -0.4045527  -0.6831866  -0.3812666 SPIN=   0.00000
   O  -0.1705247  -0.3382908  -0.2499400 SPIN=   0.00000
   O  -0.4989296  -0.5428921  -0.0854396 SPIN=   0.00000
   O  -0.5496822  -0.3757570  -0.3665824 SPIN=   0.00000
   P  -0.4075458  -0.4942928  -0.2778188 SPIN=   0.00000
   O   0.2066326   0.2775554  -0.3085144 SPIN=   0.00000
   O   0.2041129  -0.0906593  -0.2487359 SPIN=   0.00000
   O  -0.0839676   0.0274593  -0.1087936 SPIN=   0.00000
   O  -0.0961325  -0.0321344  -0.4335911 SPIN=   0.00000
   P   0.0637785   0.0569913  -0.2785707 SPIN=   0.00000
   O  -0.2933674   0.2775554   0.3085144 SPIN=   0.00000
   O  -0.2958871  -0.0906593   0.2487359 SPIN=   0.00000
   O  -0.5839676   0.0274593   0.1087936 SPIN=   0.00000
   O  -0.5961325  -0.0321344   0.4335911 SPIN=   0.00000
   P  -0.4362215   0.0569913   0.2785707 SPIN=   0.00000
  Fe  -0.4187783  -0.0602650  -0.3404852 SPIN=   4.72469
  Fe   0.0812217  -0.0602650   0.3404852 SPIN=   4.72469
  Fe  -0.4767653   0.4767623   0.3501520 SPIN=   3.27531
  Fe   0.0232347   0.4767623  -0.3501520 SPIN=   3.27531
%ENDBLOCK POSITIONS_FRAC

# Note: total spin =  16.00

KPOINTS_MP_SPACING 0.07

%BLOCK SPECIES_POT
QC5
%ENDBLOCK SPECIES_POT

%BLOCK HUBBARD_U
Fe d:4.0
%ENDBLOCK HUBBARD_U

SNAP_TO_SYMMETRY
SYMMETRY_GENERATE

