#              Generated by Buildcell
#
# at 08:27:17 (GMT+0.0) 24th November 2020
# in /scratch/scratch/uccabz1/launch_tmp
# on node-a14e-012
# by uccabz1
#
# compiler GCC version 4.9.2
# options -cpp -iprefix /scratch/UCL/applications/gcc/4.9.2/bin/../lib/gcc/x86_64-unknown-linux-gnu/4.9.2/ -mtune=corei7 -march=x86-64 -g -O2
#
# seed  1771089113 -2146850455  -809651377  -854082380  1593917804 -1315250582   532900475   366531528  -389552826  1283549943   388479511    69460086
#
#      Author: C. J. Pickard (cjp20@cam.ac.uk)
#                Space group: Cm
#

%BLOCK LATTICE_ABC
      3.86058      6.48515      6.48515
     81.68498     86.07726     86.07726
%ENDBLOCK LATTICE_ABC

%BLOCK POSITIONS_FRAC
  Li  -0.2789229   0.1473207   0.1473207 SPIN=   0.00000
  Li   0.0718912  -0.4792022  -0.4792022 SPIN=   0.00000
   O   0.2494450   0.1864587  -0.1029308 SPIN=   0.00000
   O  -0.2238025   0.4922401  -0.1337417 SPIN=   0.00000
   O   0.1574208   0.4527749   0.1619271 SPIN=   0.00000
   P   0.1551029   0.4146458  -0.0720440 SPIN=   0.00000
   O   0.2494450  -0.1029308   0.1864587 SPIN=   0.00000
   O  -0.2238025  -0.1337417   0.4922401 SPIN=   0.00000
   O   0.1574208   0.1619271   0.4527749 SPIN=   0.00000
   P   0.1551029  -0.0720440   0.4146458 SPIN=   0.00000
   O   0.3271424  -0.2259728  -0.2259728 SPIN=   0.00000
   O  -0.2088877  -0.0683882  -0.0683882 SPIN=   0.00000
  Fe  -0.3946687  -0.3432421   0.1134617 SPIN=   4.00000
  Fe  -0.3946687   0.1134617  -0.3432421 SPIN=   4.00000
%ENDBLOCK POSITIONS_FRAC

# Note: total spin =   8.00

KPOINTS_MP_SPACING 0.07

%BLOCK SPECIES_POT
QC5
%ENDBLOCK SPECIES_POT

%BLOCK HUBBARD_U
Fe d:4.0
%ENDBLOCK HUBBARD_U

SNAP_TO_SYMMETRY
SYMMETRY_GENERATE

