#              Generated by Buildcell
#
# at 22:08:07 (GMT+0.0) 26th November 2020
# in /lustre/scratch/uccabz1/launch_tmp
# on node-c12f-031
# by uccabz1
#
# compiler GCC version 4.9.2
# options -cpp -iprefix /lustre/shared/ucl/apps/gcc/4.9.2/bin/../lib/gcc/x86_64-unknown-linux-gnu/4.9.2/ -mtune=corei7 -march=x86-64 -g -Og
#
# seed  -521133959  -640619965  1777128929   255210824 -1359850889 -1177114171   204561421   808822198 -1573936382  1010804941  1368256358  1761708241
#
#      Author: C. J. Pickard (cjp20@cam.ac.uk)
#                Space group: P21212
#

%BLOCK LATTICE_ABC
      5.26876      6.36074      9.54847
     90.00000     90.00000     90.00000
%ENDBLOCK LATTICE_ABC

%BLOCK POSITIONS_FRAC
  Li  -0.1899041  -0.2449798   0.0142280 SPIN=   0.00000
  Li  -0.1899041   0.2449798  -0.0142280 SPIN=   0.00000
  Li   0.1899041  -0.2550202  -0.4857720 SPIN=   0.00000
  Li   0.1899041   0.2550202   0.4857720 SPIN=   0.00000
   O   0.0120181  -0.2282297   0.3170919 SPIN=   0.00000
   O  -0.4623827  -0.1955113   0.3880559 SPIN=   0.00000
   O  -0.1932477   0.1219782   0.3994359 SPIN=   0.00000
   O  -0.3134965  -0.0266838   0.1658114 SPIN=   0.00000
   P  -0.2267729  -0.0892376   0.3157806 SPIN=   0.00000
   O   0.0120181   0.2282297  -0.3170919 SPIN=   0.00000
   O  -0.4623827   0.1955113  -0.3880559 SPIN=   0.00000
   O  -0.1932477  -0.1219782  -0.3994359 SPIN=   0.00000
   O  -0.3134965   0.0266838  -0.1658114 SPIN=   0.00000
   P  -0.2267729   0.0892376  -0.3157806 SPIN=   0.00000
   O  -0.0120181  -0.2717703  -0.1829081 SPIN=   0.00000
   O   0.4623827  -0.3044887  -0.1119441 SPIN=   0.00000
   O   0.1932477  -0.6219782  -0.1005641 SPIN=   0.00000
   O   0.3134965  -0.4733162  -0.3341886 SPIN=   0.00000
   P   0.2267729  -0.4107624  -0.1842194 SPIN=   0.00000
   O  -0.0120181   0.2717703   0.1829081 SPIN=   0.00000
   O   0.4623827   0.3044887   0.1119441 SPIN=   0.00000
   O   0.1932477   0.6219782   0.1005641 SPIN=   0.00000
   O   0.3134965   0.4733162   0.3341886 SPIN=   0.00000
   P   0.2267729   0.4107624   0.1842194 SPIN=   0.00000
  Fe   0.2733586   0.0376759  -0.2030640 SPIN=   4.00000
  Fe   0.2733586  -0.0376759   0.2030640 SPIN=   4.00000
  Fe  -0.2733586   0.4623241   0.2969360 SPIN=   4.00000
  Fe  -0.2733586  -0.4623241  -0.2969360 SPIN=   4.00000
%ENDBLOCK POSITIONS_FRAC

# Note: total spin =  16.00

KPOINTS_MP_SPACING 0.07

%BLOCK SPECIES_POT
QC5
%ENDBLOCK SPECIES_POT

%BLOCK HUBBARD_U
Fe d:4.0
%ENDBLOCK HUBBARD_U

SNAP_TO_SYMMETRY
SYMMETRY_GENERATE

