#              Generated by Buildcell
#
# at 10:44:30 (GMT+0.0) 24th November 2020
# in /lustre/scratch/uccabz1/launch_tmp
# on node-c12g-032
# by uccabz1
#
# compiler GCC version 4.9.2
# options -cpp -iprefix /lustre/shared/ucl/apps/gcc/4.9.2/bin/../lib/gcc/x86_64-unknown-linux-gnu/4.9.2/ -mtune=corei7 -march=x86-64 -g -Og
#
# seed -1172431247 -1529695554  1024632507 -1892388616   434521273  1939992783  1407438115  1796935551  -293028058   379171685   466440063 -1076845945
#
#      Author: C. J. Pickard (cjp20@cam.ac.uk)
#                Space group: I222
#

%BLOCK LATTICE_ABC
      4.95276      5.96718      6.65911
    116.61842    111.83152     90.00000
%ENDBLOCK LATTICE_ABC

%BLOCK POSITIONS_FRAC
  Li  -0.5000000  -0.0000000   0.0000000 SPIN=   0.00000
  Li  -0.5000000   0.5000000   0.0000000 SPIN=   0.00000
   O   0.0748136   0.2172997  -0.1940168 SPIN=   0.00000
   O  -0.4664694   0.0662823  -0.2775635 SPIN=   0.00000
   O   0.2688304  -0.2172997   0.1940168 SPIN=   0.00000
   O  -0.1889059  -0.0662823   0.2775635 SPIN=   0.00000
   O  -0.0748136   0.4113165   0.1940168 SPIN=   0.00000
   O   0.4664694   0.3438457   0.2775635 SPIN=   0.00000
   O  -0.2688304  -0.4113165  -0.1940168 SPIN=   0.00000
   O   0.1889059  -0.3438457  -0.2775635 SPIN=   0.00000
   P   0.1704757  -0.3295243  -0.6590486 SPIN=   0.00000
   P  -0.1704757   0.3295243   0.6590486 SPIN=   0.00000
  Fe   0.1975760   0.1975760   0.3951519 SPIN=   4.00000
  Fe  -0.1975760  -0.1975760  -0.3951519 SPIN=   4.00000
%ENDBLOCK POSITIONS_FRAC

# Note: total spin =   8.00

KPOINTS_MP_SPACING 0.07

%BLOCK SPECIES_POT
QC5
%ENDBLOCK SPECIES_POT

%BLOCK HUBBARD_U
Fe d:4.0
%ENDBLOCK HUBBARD_U

SNAP_TO_SYMMETRY
SYMMETRY_GENERATE

