#              Generated by Buildcell
#
# at 07:31:48 (GMT+0.0) 24th November 2020
# in /lustre/scratch/uccabz1/launch_tmp
# on node-c12o-022
# by uccabz1
#
# compiler GCC version 4.9.2
# options -cpp -iprefix /lustre/shared/ucl/apps/gcc/4.9.2/bin/../lib/gcc/x86_64-unknown-linux-gnu/4.9.2/ -mtune=corei7 -march=x86-64 -g -Og
#
# seed   -85930566  1977242595  -203335035   359136382   790871756   711002841  2140557724 -2117683697 -1955428662   651143425 -1421042103   525165290
#
#      Author: C. J. Pickard (cjp20@cam.ac.uk)
#                Space group: C2
#

%BLOCK LATTICE_ABC
      5.30267      5.30267      6.30764
     93.02901     93.02901    114.97255
%ENDBLOCK LATTICE_ABC

%BLOCK POSITIONS_FRAC
  Li  -0.3388056  -0.2380619   0.1645696 SPIN=   0.00000
  Li   0.2380619   0.3388056  -0.1645696 SPIN=   0.00000
   O   0.0897026   0.3451563   0.5209027 SPIN=   0.00000
   O   0.2310767   0.4984364   0.1440842 SPIN=   0.00000
   O  -0.2688200   0.2263547   0.1919571 SPIN=   0.00000
   O  -0.0236217   0.7211336   0.3497761 SPIN=   0.00000
   P   0.0111211   0.4455326   0.3139201 SPIN=   0.00000
   O  -0.3451563  -0.0897026  -0.5209027 SPIN=   0.00000
   O  -0.4984364  -0.2310767  -0.1440842 SPIN=   0.00000
   O  -0.2263547   0.2688200  -0.1919571 SPIN=   0.00000
   O  -0.7211336   0.0236217  -0.3497761 SPIN=   0.00000
   P  -0.4455326  -0.0111211  -0.3139201 SPIN=   0.00000
  Fe  -0.1254616  -0.3274740  -0.2963637 SPIN=   4.00000
  Fe   0.3274740   0.1254616   0.2963637 SPIN=   4.00000
%ENDBLOCK POSITIONS_FRAC

# Note: total spin =   8.00

KPOINTS_MP_SPACING 0.07

%BLOCK SPECIES_POT
QC5
%ENDBLOCK SPECIES_POT

%BLOCK HUBBARD_U
Fe d:4.0
%ENDBLOCK HUBBARD_U

SNAP_TO_SYMMETRY
SYMMETRY_GENERATE

