#              Generated by Buildcell
#
# at 09:24:55 (GMT+0.0) 26th November 2020
# in /lustre/scratch/uccabz1/launch_tmp
# on node-c12d-021
# by uccabz1
#
# compiler GCC version 4.9.2
# options -cpp -iprefix /lustre/shared/ucl/apps/gcc/4.9.2/bin/../lib/gcc/x86_64-unknown-linux-gnu/4.9.2/ -mtune=corei7 -march=x86-64 -g -Og
#
# seed  -643590974   917197940  1403491545 -1391183217  1411826351  -667780568  2082485970  -583344504  -164444584 -1507458461   279301561  1700892297
#
#      Author: C. J. Pickard (cjp20@cam.ac.uk)
#                Space group: Pnn2
#

%BLOCK LATTICE_ABC
      4.34117      7.71648      9.55266
     90.00000     90.00000     90.00000
%ENDBLOCK LATTICE_ABC

%BLOCK POSITIONS_FRAC
  Li  -0.4535735  -0.1948791   0.1290312 SPIN=   0.00000
  Li   0.4535735   0.1948791   0.1290312 SPIN=   0.00000
  Li  -0.0464265   0.3051209  -0.3709688 SPIN=   0.00000
  Li   0.0464265  -0.3051209  -0.3709688 SPIN=   0.00000
   O   0.7199641   0.3984953  -0.1844272 SPIN=   0.00000
   O   0.2029938   0.2681494  -0.0967413 SPIN=   0.00000
   O   0.3848196   0.1890752  -0.3332746 SPIN=   0.00000
   P   0.5065423   0.2394489  -0.1836148 SPIN=   0.00000
   O  -0.7199641  -0.3984953  -0.1844272 SPIN=   0.00000
   O  -0.2029938  -0.2681494  -0.0967413 SPIN=   0.00000
   O  -0.3848196  -0.1890752  -0.3332746 SPIN=   0.00000
   P  -0.5065423  -0.2394489  -0.1836148 SPIN=   0.00000
   O  -0.2199641  -0.1015047   0.3155728 SPIN=   0.00000
   O   0.2970062  -0.2318506   0.4032587 SPIN=   0.00000
   O   0.1151804  -0.3109248   0.1667254 SPIN=   0.00000
   P  -0.0065423  -0.2605511   0.3163852 SPIN=   0.00000
   O   0.2199641   0.1015047   0.3155728 SPIN=   0.00000
   O  -0.2970062   0.2318506   0.4032587 SPIN=   0.00000
   O  -0.1151804   0.3109248   0.1667254 SPIN=   0.00000
   P   0.0065423   0.2605511   0.3163852 SPIN=   0.00000
   O   0.0000000   0.0000000   0.0916192 SPIN=   0.00000
   O  -0.5000000  -0.5000000  -0.4083808 SPIN=   0.00000
   O   0.0000000   0.0000000  -0.4505546 SPIN=   0.00000
   O  -0.5000000  -0.5000000   0.0494454 SPIN=   0.00000
  Fe   0.0000000   0.0000000  -0.1282121 SPIN=   5.09911
  Fe   0.5000000   0.5000000   0.3717879 SPIN=   5.09911
  Fe   0.0000000  -0.5000000  -0.0252725 SPIN=   2.90089
  Fe  -0.5000000   0.0000000   0.4747275 SPIN=   2.90089
%ENDBLOCK POSITIONS_FRAC

# Note: total spin =  16.00

KPOINTS_MP_SPACING 0.07

%BLOCK SPECIES_POT
QC5
%ENDBLOCK SPECIES_POT

%BLOCK HUBBARD_U
Fe d:4.0
%ENDBLOCK HUBBARD_U

SNAP_TO_SYMMETRY
SYMMETRY_GENERATE

