#              Generated by Buildcell
#
# at 13:53:26 (GMT+0.0) 24th November 2020
# in /lustre/scratch/uccabz1/launch_tmp
# on node-c12j-029
# by uccabz1
#
# compiler GCC version 4.9.2
# options -cpp -iprefix /lustre/shared/ucl/apps/gcc/4.9.2/bin/../lib/gcc/x86_64-unknown-linux-gnu/4.9.2/ -mtune=corei7 -march=x86-64 -g -Og
#
# seed -1796672430  1806261144  1360434004  1730358401  1497116227  1329730380    66493556  1176808513  -903119796   600749623  -751114218  1464532672
#
#      Author: C. J. Pickard (cjp20@cam.ac.uk)
#                Space group: P-1
#

%BLOCK LATTICE_ABC
      4.94535      5.54026      6.43138
    104.67338    108.60029     92.65383
%ENDBLOCK LATTICE_ABC

%BLOCK POSITIONS_FRAC
  Li  -0.1250030  -0.2764896   0.4259713 SPIN=   0.00000
  Li   0.1250030   0.2764896  -0.4259713 SPIN=   0.00000
   O   0.2569774  -0.3750321   0.3671321 SPIN=   0.00000
   O   0.1932325  -0.3380019  -0.0400238 SPIN=   0.00000
   O   0.0007034  -0.0285495   0.2067187 SPIN=   0.00000
   O   0.5344566  -0.0116210   0.3008025 SPIN=   0.00000
   P   0.2503088  -0.1961586   0.2181827 SPIN=   0.00000
   O  -0.2569774   0.3750321  -0.3671321 SPIN=   0.00000
   O  -0.1932325   0.3380019   0.0400238 SPIN=   0.00000
   O  -0.0007034   0.0285495  -0.2067187 SPIN=   0.00000
   O  -0.5344566   0.0116210  -0.3008025 SPIN=   0.00000
   P  -0.2503088   0.1961586  -0.2181827 SPIN=   0.00000
  Fe   0.3169334   0.2796058   0.1264003 SPIN=   4.00000
  Fe  -0.3169334  -0.2796058  -0.1264003 SPIN=   4.00000
%ENDBLOCK POSITIONS_FRAC

# Note: total spin =   8.00

KPOINTS_MP_SPACING 0.07

%BLOCK SPECIES_POT
QC5
%ENDBLOCK SPECIES_POT

%BLOCK HUBBARD_U
Fe d:4.0
%ENDBLOCK HUBBARD_U

SNAP_TO_SYMMETRY
SYMMETRY_GENERATE

