#              Generated by Buildcell
#
# at 10:21:13 (GMT+0.0) 24th November 2020
# in /scratch/scratch/uccabz1/launch_tmp
# on node-k10a-022
# by uccabz1
#
# compiler GCC version 4.9.2
# options -cpp -iprefix /scratch/UCL/applications/gcc/4.9.2/bin/../lib/gcc/x86_64-unknown-linux-gnu/4.9.2/ -mtune=corei7 -march=x86-64 -g -O2
#
# seed  -777038949   121685465  1793914599 -1152528176 -1026370875  -855738037  -255065137 -2099116687 -1167811829 -1627651311  1951295982 -2021758730
#
#      Author: C. J. Pickard (cjp20@cam.ac.uk)
#                Space group: Pc
#

%BLOCK LATTICE_ABC
      4.11483      5.75062      6.97350
     90.00000    104.15880     90.00000
%ENDBLOCK LATTICE_ABC

%BLOCK POSITIONS_FRAC
  Li  -0.8176571  -0.3367384  -0.4642277 SPIN=   0.00000
  Li   0.1823429   0.3367384   0.0357723 SPIN=   0.00000
   O   0.0760230   0.0217099   0.5086496 SPIN=   0.00000
   O  -0.3725092   0.1979836   0.2162760 SPIN=   0.00000
   O  -0.2402816   0.4066949   0.5355423 SPIN=   0.00000
   O   0.1818772   0.3978771   0.3308069 SPIN=   0.00000
   P  -0.0767574   0.2452615   0.4029291 SPIN=   0.00000
   O   0.0760230  -0.0217099   0.0086496 SPIN=   0.00000
   O  -0.3725092  -0.1979836  -0.2837240 SPIN=   0.00000
   O  -0.2402816  -0.4066949   0.0355423 SPIN=   0.00000
   O   0.1818772  -0.3978771  -0.1691931 SPIN=   0.00000
   P  -0.0767574  -0.2452615  -0.0970709 SPIN=   0.00000
  Fe   0.5413102  -0.1611873   0.1877543 SPIN=   4.00000
  Fe  -0.4586898   0.1611873  -0.3122457 SPIN=   4.00000
%ENDBLOCK POSITIONS_FRAC

# Note: total spin =   8.00

KPOINTS_MP_SPACING 0.07

%BLOCK SPECIES_POT
QC5
%ENDBLOCK SPECIES_POT

%BLOCK HUBBARD_U
Fe d:4.0
%ENDBLOCK HUBBARD_U

SNAP_TO_SYMMETRY
SYMMETRY_GENERATE

