#              Generated by Buildcell
#
# at 08:32:07 (GMT+0.0) 26th November 2020
# in /lustre/scratch/uccabz1/launch_tmp
# on node-c12c-020
# by uccabz1
#
# compiler GCC version 4.9.2
# options -cpp -iprefix /lustre/shared/ucl/apps/gcc/4.9.2/bin/../lib/gcc/x86_64-unknown-linux-gnu/4.9.2/ -mtune=corei7 -march=x86-64 -g -Og
#
# seed -1134311504 -1467554269   683289019 -1479435926   709485731 -2145950601 -1424718485 -1275001588  -182433878  -176685893  1846849999   448317389
#
#      Author: C. J. Pickard (cjp20@cam.ac.uk)
#                Space group: Pnc2
#

%BLOCK LATTICE_ABC
      4.88649      8.04128      8.14382
     90.00000     90.00000     90.00000
%ENDBLOCK LATTICE_ABC

%BLOCK POSITIONS_FRAC
  Li  -0.5000000  -0.2103896   0.0000000 SPIN=   0.00000
  Li   0.5000000   0.2896104   0.5000000 SPIN=   0.00000
  Li   0.5000000   0.2903742   0.0000000 SPIN=   0.00000
  Li  -0.5000000  -0.2096258  -0.5000000 SPIN=   0.00000
   O   0.2621827   0.4953190   0.4146727 SPIN=   0.00000
   O   0.7101829   0.4854071   0.2431480 SPIN=   0.00000
   O   0.4175926   0.2350390   0.2502645 SPIN=   0.00000
   O   0.2587207   0.4875694   0.0976086 SPIN=   0.00000
   O  -0.2621827   0.4953190  -0.4146727 SPIN=   0.00000
   O  -0.7101829   0.4854071  -0.2431480 SPIN=   0.00000
   O  -0.4175926   0.2350390  -0.2502645 SPIN=   0.00000
   O  -0.2587207   0.4875694  -0.0976086 SPIN=   0.00000
   O   0.2621827  -0.0046810   0.0853273 SPIN=   0.00000
   O   0.7101829  -0.0145929   0.2568520 SPIN=   0.00000
   O   0.4175926  -0.2649610   0.2497355 SPIN=   0.00000
   O   0.2587207  -0.0124306   0.4023914 SPIN=   0.00000
   O  -0.2621827  -0.0046810  -0.0853273 SPIN=   0.00000
   O  -0.7101829  -0.0145929  -0.2568520 SPIN=   0.00000
   O  -0.4175926  -0.2649610  -0.2497355 SPIN=   0.00000
   O  -0.2587207  -0.0124306  -0.4023914 SPIN=   0.00000
   P   0.0000000   0.4288982   0.0000000 SPIN=   0.00000
   P   0.0000000  -0.0711018  -0.5000000 SPIN=   0.00000
   P   0.0000000  -0.0717001  -0.0000000 SPIN=   0.00000
   P   0.0000000   0.4282999  -0.5000000 SPIN=   0.00000
  Fe   0.0010034  -0.3216456  -0.2502598 SPIN=   4.00000
  Fe  -0.0010034  -0.3216456   0.2502598 SPIN=   4.00000
  Fe   0.0010034   0.1783544  -0.2497402 SPIN=   4.00000
  Fe  -0.0010034   0.1783544   0.2497402 SPIN=   4.00000
%ENDBLOCK POSITIONS_FRAC

# Note: total spin =  16.00

KPOINTS_MP_SPACING 0.07

%BLOCK SPECIES_POT
QC5
%ENDBLOCK SPECIES_POT

%BLOCK HUBBARD_U
Fe d:4.0
%ENDBLOCK HUBBARD_U

SNAP_TO_SYMMETRY
SYMMETRY_GENERATE

