#              Generated by Buildcell
#
# at 12:56:11 (GMT+0.0) 26th November 2020
# in /lustre/scratch/uccabz1/launch_tmp
# on node-c12d-022
# by uccabz1
#
# compiler GCC version 4.9.2
# options -cpp -iprefix /lustre/shared/ucl/apps/gcc/4.9.2/bin/../lib/gcc/x86_64-unknown-linux-gnu/4.9.2/ -mtune=corei7 -march=x86-64 -g -Og
#
# seed -1751887925  1501431464  1826756042  1888363262 -1407189500  1149625826 -1826800128  -746787591 -1441699852   656128210   -93723415  -265958084
#
#      Author: C. J. Pickard (cjp20@cam.ac.uk)
#                Space group: C2
#

%BLOCK LATTICE_ABC
      5.14396      7.28505      9.48486
     83.28967     74.26627     69.32607
%ENDBLOCK LATTICE_ABC

%BLOCK POSITIONS_FRAC
  Li  -0.5415567   0.2038790   0.1142915 SPIN=   0.00000
  Li  -0.2233862  -0.2038790  -0.1142915 SPIN=   0.00000
  Li  -0.8571058   0.2986385   0.4319833 SPIN=   0.00000
  Li   0.8735160  -0.2986385  -0.4319833 SPIN=   0.00000
   O  -0.1490107   0.2554535  -0.1112211 SPIN=   0.00000
   O   0.3851799   0.1611865  -0.1066093 SPIN=   0.00000
   O   0.0777840   0.5091722  -0.0770597 SPIN=   0.00000
   O   0.0027162   0.2653546   0.1252417 SPIN=   0.00000
   P   0.0661158   0.2951546  -0.0440973 SPIN=   0.00000
   O  -0.0047783  -0.2554535   0.1112211 SPIN=   0.00000
   O   0.4397571  -0.1611865   0.1066093 SPIN=   0.00000
   O   0.5098965  -0.5091722   0.0770597 SPIN=   0.00000
   O   0.3933124  -0.2653546  -0.1252417 SPIN=   0.00000
   P   0.3171730  -0.2951546   0.0440973 SPIN=   0.00000
   O  -0.7345713  -0.3748276   0.3958846 SPIN=   0.00000
   O  -0.8402505  -0.0153235   0.4625581 SPIN=   0.00000
   O  -0.5928210  -0.2838889   0.6144493 SPIN=   0.00000
   O  -0.3327894  -0.2257797   0.3582009 SPIN=   0.00000
   P  -0.6274868  -0.2329446   0.4533029 SPIN=   0.00000
   O   0.2864857   0.3748276  -0.3958846 SPIN=   0.00000
   O   0.6069841   0.0153235  -0.4625581 SPIN=   0.00000
   O   0.7377394   0.2838889  -0.6144493 SPIN=   0.00000
   O   0.7996319   0.2257797  -0.3582009 SPIN=   0.00000
   P   0.5928715   0.2329446  -0.4533029 SPIN=   0.00000
  Fe  -0.0092802  -0.0197555   0.2732280 SPIN=   5.32304
  Fe   0.2441923   0.0197555  -0.2732280 SPIN=   5.32304
  Fe  -0.2444032  -0.4508743   0.2016378 SPIN=   2.67696
  Fe   0.5063603   0.4508743  -0.2016378 SPIN=   2.67696
%ENDBLOCK POSITIONS_FRAC

# Note: total spin =  16.00

KPOINTS_MP_SPACING 0.07

%BLOCK SPECIES_POT
QC5
%ENDBLOCK SPECIES_POT

%BLOCK HUBBARD_U
Fe d:4.0
%ENDBLOCK HUBBARD_U

SNAP_TO_SYMMETRY
SYMMETRY_GENERATE

