#              Generated by Buildcell
#
# at 15:18:27 (GMT+0.0) 26th November 2020
# in /lustre/scratch/uccabz1/launch_tmp
# on node-c12k-032
# by uccabz1
#
# compiler GCC version 4.9.2
# options -cpp -iprefix /lustre/shared/ucl/apps/gcc/4.9.2/bin/../lib/gcc/x86_64-unknown-linux-gnu/4.9.2/ -mtune=corei7 -march=x86-64 -g -Og
#
# seed  -486666396  1602919644 -1515879987  1816897926 -1261052985 -1598514883   774885088   960387112  1663485114  -350608136   527738941 -1366059977
#
#      Author: C. J. Pickard (cjp20@cam.ac.uk)
#                Space group: P2
#

%BLOCK LATTICE_ABC
      3.91704      7.74563     10.54863
     90.00000     90.95685     90.00000
%ENDBLOCK LATTICE_ABC

%BLOCK POSITIONS_FRAC
  Li  -0.4995473  -0.0710050  -0.1733386 SPIN=   0.00000
  Li   0.4995473  -0.0710050   0.1733386 SPIN=   0.00000
  Li   0.0000000  -0.2585209   0.0000000 SPIN=   0.00000
  Li  -0.5000000   0.4077390   0.5000000 SPIN=   0.00000
   O   0.1269702  -0.2999840   0.1922148 SPIN=   0.00000
   O  -0.2625434  -0.1292334   0.3448048 SPIN=   0.00000
   O  -0.2615324  -0.4476569   0.3574278 SPIN=   0.00000
   O   0.2520808  -0.2822409   0.4330491 SPIN=   0.00000
   P  -0.0241625  -0.2902332   0.3256320 SPIN=   0.00000
   O  -0.1269702  -0.2999840  -0.1922148 SPIN=   0.00000
   O   0.2625434  -0.1292334  -0.3448048 SPIN=   0.00000
   O   0.2615324  -0.4476569  -0.3574278 SPIN=   0.00000
   O  -0.2520808  -0.2822409  -0.4330491 SPIN=   0.00000
   P   0.0241625  -0.2902332  -0.3256320 SPIN=   0.00000
   O   0.2369926   0.3650256   0.3164032 SPIN=   0.00000
   O  -0.2678421   0.1810127   0.3985523 SPIN=   0.00000
   O  -0.0002959   0.0955621   0.1976704 SPIN=   0.00000
   P   0.0842942   0.1830617   0.3290426 SPIN=   0.00000
   O  -0.2369926   0.3650256  -0.3164032 SPIN=   0.00000
   O   0.2678421   0.1810127  -0.3985523 SPIN=   0.00000
   O   0.0002959   0.0955621  -0.1976704 SPIN=   0.00000
   P  -0.0842942   0.1830617  -0.3290426 SPIN=   0.00000
   O   0.5000000  -0.3648550   0.0000000 SPIN=   0.00000
   O  -0.5000000   0.2627738   0.0000000 SPIN=   0.00000
  Fe  -0.4975867  -0.4915499   0.1834938 SPIN=   5.12351
  Fe   0.4975867  -0.4915499  -0.1834938 SPIN=   5.12351
  Fe  -0.0000000   0.1648414  -0.0000000 SPIN=   4.67843
  Fe  -0.5000000  -0.0180693   0.5000000 SPIN=   1.07454
%ENDBLOCK POSITIONS_FRAC

# Note: total spin =  16.00

KPOINTS_MP_SPACING 0.07

%BLOCK SPECIES_POT
QC5
%ENDBLOCK SPECIES_POT

%BLOCK HUBBARD_U
Fe d:4.0
%ENDBLOCK HUBBARD_U

SNAP_TO_SYMMETRY
SYMMETRY_GENERATE

