#              Generated by Buildcell
#
# at 07:44:14 (GMT+0.0) 26th November 2020
# in /lustre/scratch/uccabz1/launch_tmp
# on node-c12h-026
# by uccabz1
#
# compiler GCC version 4.9.2
# options -cpp -iprefix /lustre/shared/ucl/apps/gcc/4.9.2/bin/../lib/gcc/x86_64-unknown-linux-gnu/4.9.2/ -mtune=corei7 -march=x86-64 -g -Og
#
# seed  2124026892   169065755   640374506  -177917102  1762671501 -1882375910   769364281  -961209718    66874244  1380891544  -689747462 -1377251949
#
#      Author: C. J. Pickard (cjp20@cam.ac.uk)
#                Space group: Pcc2
#

%BLOCK LATTICE_ABC
      5.94817      6.01595      8.94257
     90.00000     90.00000     90.00000
%ENDBLOCK LATTICE_ABC

%BLOCK POSITIONS_FRAC
  Li   0.2499998  -0.4810856   0.0347386 SPIN=   0.00000
  Li  -0.2499998  -0.4810856  -0.0347386 SPIN=   0.00000
  Li   0.2499998   0.0189144  -0.0347386 SPIN=   0.00000
  Li  -0.2499998   0.0189144   0.0347386 SPIN=   0.00000
   O   0.4642935  -0.0856053  -0.2337924 SPIN=   0.00000
   O   0.1055755  -0.3158326  -0.1747370 SPIN=   0.00000
   O   0.0849472  -0.0306834  -0.3729854 SPIN=   0.00000
   O   0.3066494  -0.3784389  -0.4171545 SPIN=   0.00000
   P   0.2530716  -0.1984832  -0.2975463 SPIN=   0.00000
   O  -0.4642935  -0.0856053   0.2337924 SPIN=   0.00000
   O  -0.1055755  -0.3158326   0.1747370 SPIN=   0.00000
   O  -0.0849472  -0.0306834   0.3729854 SPIN=   0.00000
   O  -0.3066494  -0.3784389   0.4171545 SPIN=   0.00000
   P  -0.2530716  -0.1984832   0.2975463 SPIN=   0.00000
   O   0.4642935   0.4143947   0.2337924 SPIN=   0.00000
   O   0.1055755   0.1841674   0.1747370 SPIN=   0.00000
   O   0.0849472   0.4693166   0.3729854 SPIN=   0.00000
   O   0.3066494   0.1215611   0.4171545 SPIN=   0.00000
   P   0.2530716   0.3015168   0.2975463 SPIN=   0.00000
   O  -0.4642935   0.4143947  -0.2337924 SPIN=   0.00000
   O  -0.1055755   0.1841674  -0.1747370 SPIN=   0.00000
   O  -0.0849472   0.4693166  -0.3729854 SPIN=   0.00000
   O  -0.3066494   0.1215611  -0.4171545 SPIN=   0.00000
   P  -0.2530716   0.3015168  -0.2975463 SPIN=   0.00000
  Fe   0.2499951  -0.2112609   0.3572514 SPIN=   4.00000
  Fe  -0.2499951  -0.2112609  -0.3572514 SPIN=   4.00000
  Fe   0.2499951   0.2887391  -0.3572514 SPIN=   4.00000
  Fe  -0.2499951   0.2887391   0.3572514 SPIN=   4.00000
%ENDBLOCK POSITIONS_FRAC

# Note: total spin =  16.00

KPOINTS_MP_SPACING 0.07

%BLOCK SPECIES_POT
QC5
%ENDBLOCK SPECIES_POT

%BLOCK HUBBARD_U
Fe d:4.0
%ENDBLOCK HUBBARD_U

SNAP_TO_SYMMETRY
SYMMETRY_GENERATE

