#              Generated by Buildcell
#
# at 01:11:55 (GMT+0.0) 27th November 2020
# in /scratch/scratch/mmm0366/launch_tmp
# on node-k98i-021
# by mmm0366
#
# compiler GCC version 4.9.2
# options -cpp -iprefix /scratch/UCL/applications/gcc/4.9.2/bin/../lib/gcc/x86_64-unknown-linux-gnu/4.9.2/ -mtune=corei7 -march=x86-64 -g -O2
#
# seed  1850888366   986587391  1249092944  -198459667  1067332503   449989234  -717222407 -1986442312  -964684298  1502197911  -158464183 -1169354301
#
#      Author: C. J. Pickard (cjp20@cam.ac.uk)
#                Space group: Cmc21
#

%BLOCK LATTICE_ABC
      6.36430      6.36430      7.94056
     90.00000     90.00000     95.76547
%ENDBLOCK LATTICE_ABC

%BLOCK POSITIONS_FRAC
  Li  -0.3969923  -0.3969923   0.0022483 SPIN=   0.00000
  Li   0.3969923   0.3969923  -0.4977517 SPIN=   0.00000
  Li   0.2721683   0.2721683  -0.1392254 SPIN=   0.00000
  Li  -0.2721683  -0.2721683   0.3607746 SPIN=   0.00000
   O  -0.7214981  -0.0328477  -0.0364547 SPIN=   0.00000
   O  -0.3317829  -0.0687706  -0.1192332 SPIN=   0.00000
   O  -0.4106028   0.2467251   0.0408143 SPIN=   0.00000
   O  -0.4389381  -0.1058353   0.1836265 SPIN=   0.00000
   P  -0.4883588   0.0061813   0.0162962 SPIN=   0.00000
   O   0.7214981   0.0328477  -0.5364547 SPIN=   0.00000
   O   0.3317829   0.0687706  -0.6192332 SPIN=   0.00000
   O   0.4106028  -0.2467251  -0.4591857 SPIN=   0.00000
   O   0.4389381   0.1058353  -0.3163735 SPIN=   0.00000
   P   0.4883588  -0.0061813  -0.4837038 SPIN=   0.00000
   O   0.0328477   0.7214981  -0.5364547 SPIN=   0.00000
   O   0.0687706   0.3317829  -0.6192332 SPIN=   0.00000
   O  -0.2467251   0.4106028  -0.4591857 SPIN=   0.00000
   O   0.1058353   0.4389381  -0.3163735 SPIN=   0.00000
   P  -0.0061813   0.4883588  -0.4837038 SPIN=   0.00000
   O  -0.0328477  -0.7214981  -0.0364547 SPIN=   0.00000
   O  -0.0687706  -0.3317829  -0.1192332 SPIN=   0.00000
   O   0.2467251  -0.4106028   0.0408143 SPIN=   0.00000
   O  -0.1058353  -0.4389381   0.1836265 SPIN=   0.00000
   P   0.0061813  -0.4883588   0.0162962 SPIN=   0.00000
  Fe  -0.2335682   0.2150491  -0.2440853 SPIN=   4.00000
  Fe   0.2335682  -0.2150491   0.2559147 SPIN=   4.00000
  Fe  -0.2150491   0.2335682   0.2559147 SPIN=   4.00000
  Fe   0.2150491  -0.2335682  -0.2440853 SPIN=   4.00000
%ENDBLOCK POSITIONS_FRAC

# Note: total spin =  16.00

KPOINTS_MP_SPACING 0.07

%BLOCK SPECIES_POT
QC5
%ENDBLOCK SPECIES_POT

%BLOCK HUBBARD_U
Fe d:4.0
%ENDBLOCK HUBBARD_U

SNAP_TO_SYMMETRY
SYMMETRY_GENERATE

