#              Generated by Buildcell
#
# at 10:19:45 (GMT+0.0) 24th November 2020
# in /lustre/scratch/uccabz1/launch_tmp
# on node-c12k-029
# by uccabz1
#
# compiler GCC version 4.9.2
# options -cpp -iprefix /lustre/shared/ucl/apps/gcc/4.9.2/bin/../lib/gcc/x86_64-unknown-linux-gnu/4.9.2/ -mtune=corei7 -march=x86-64 -g -Og
#
# seed   252820520 -1369033836   990432292   276220961 -1179413877   288324624 -1894417788  -874790600  -841444759  -320142415  -787164781  1411842091
#
#      Author: C. J. Pickard (cjp20@cam.ac.uk)
#                Space group: P-1
#

%BLOCK LATTICE_ABC
      4.97081      5.20193      7.15176
     79.33676     74.67523     64.15980
%ENDBLOCK LATTICE_ABC

%BLOCK POSITIONS_FRAC
  Li   0.0000000  -0.0000000   0.5000000 SPIN=   0.00000
  Li  -0.0000000   0.0000000   0.0000000 SPIN=   0.00000
   O   0.7005125  -0.0300158  -0.1460277 SPIN=   0.00000
   O   0.5213421  -0.2729553  -0.3456709 SPIN=   0.00000
   O   1.0756787  -0.4229057  -0.3800669 SPIN=   0.00000
   O   0.7730460  -0.5585327  -0.0695566 SPIN=   0.00000
   P   0.7641340  -0.3084054  -0.2286193 SPIN=   0.00000
   O  -0.7005125   0.0300158   0.1460277 SPIN=   0.00000
   O  -0.5213421   0.2729553   0.3456709 SPIN=   0.00000
   O  -1.0756787   0.4229057   0.3800669 SPIN=   0.00000
   O  -0.7730460   0.5585327   0.0695566 SPIN=   0.00000
   P  -0.7641340   0.3084054   0.2286193 SPIN=   0.00000
  Fe   0.6084682  -0.3883238   0.2019620 SPIN=   4.00000
  Fe  -0.6084682   0.3883238  -0.2019620 SPIN=   4.00000
%ENDBLOCK POSITIONS_FRAC

# Note: total spin =   8.00

KPOINTS_MP_SPACING 0.07

%BLOCK SPECIES_POT
QC5
%ENDBLOCK SPECIES_POT

%BLOCK HUBBARD_U
Fe d:4.0
%ENDBLOCK HUBBARD_U

SNAP_TO_SYMMETRY
SYMMETRY_GENERATE

