#              Generated by Buildcell
#
# at 13:02:46 (GMT+0.0) 24th November 2020
# in /lustre/scratch/uccabz1/launch_tmp
# on node-c12h-027
# by uccabz1
#
# compiler GCC version 4.9.2
# options -cpp -iprefix /lustre/shared/ucl/apps/gcc/4.9.2/bin/../lib/gcc/x86_64-unknown-linux-gnu/4.9.2/ -mtune=corei7 -march=x86-64 -g -Og
#
# seed  1263802287  -363203009  1486497221  1395024667 -1720925422   689989491   128074924   233469661   851065625  1782558117  1490051683  -915095807
#
#      Author: C. J. Pickard (cjp20@cam.ac.uk)
#                Space group: P-1
#

%BLOCK LATTICE_ABC
      4.76552      5.80627      6.15214
     81.54102     88.48377     71.88719
%ENDBLOCK LATTICE_ABC

%BLOCK POSITIONS_FRAC
  Li   0.5000000  -0.5000000   0.0000000 SPIN=   0.00000
  Li  -0.5000000  -0.5000000   0.5000000 SPIN=   0.00000
   O  -0.0030560   0.5575286   0.1858891 SPIN=   0.00000
   O   0.1034669   0.1049434   0.1253990 SPIN=   0.00000
   O   0.4313231   0.1995585   0.3794274 SPIN=   0.00000
   O  -0.0871849   0.2278828   0.4880882 SPIN=   0.00000
   P   0.1027166   0.2871295   0.2911894 SPIN=   0.00000
   O   0.0030560  -0.5575286  -0.1858891 SPIN=   0.00000
   O  -0.1034669  -0.1049434  -0.1253990 SPIN=   0.00000
   O  -0.4313231  -0.1995585  -0.3794274 SPIN=   0.00000
   O   0.0871849  -0.2278828  -0.4880882 SPIN=   0.00000
   P  -0.1027166  -0.2871295  -0.2911894 SPIN=   0.00000
  Fe   0.2272877   0.0721288  -0.2558822 SPIN=   4.00000
  Fe  -0.2272877  -0.0721288   0.2558822 SPIN=   4.00000
%ENDBLOCK POSITIONS_FRAC

# Note: total spin =   8.00

KPOINTS_MP_SPACING 0.07

%BLOCK SPECIES_POT
QC5
%ENDBLOCK SPECIES_POT

%BLOCK HUBBARD_U
Fe d:4.0
%ENDBLOCK HUBBARD_U

SNAP_TO_SYMMETRY
SYMMETRY_GENERATE

