#              Generated by Buildcell
#
# at 08:16:33 (GMT+0.0) 24th November 2020
# in /lustre/scratch/uccabz1/launch_tmp
# on node-c12a-035
# by uccabz1
#
# compiler GCC version 4.9.2
# options -cpp -iprefix /lustre/shared/ucl/apps/gcc/4.9.2/bin/../lib/gcc/x86_64-unknown-linux-gnu/4.9.2/ -mtune=corei7 -march=x86-64 -g -Og
#
# seed  -293256760    99884665   546452316   202432384 -1328320427  2033261586  -382113630 -2089134264  -498696687 -1153987767   825220702  1163325511
#
#      Author: C. J. Pickard (cjp20@cam.ac.uk)
#                Space group: P21
#

%BLOCK LATTICE_ABC
      5.06609      5.12491      6.29544
     90.00000     90.00000    101.79346
%ENDBLOCK LATTICE_ABC

%BLOCK POSITIONS_FRAC
  Li  -0.3092285   0.0673886   0.1236279 SPIN=   0.00000
  Li   0.3092285  -0.0673886  -0.3763721 SPIN=   0.00000
   O   0.1732441   0.5645885  -0.0000363 SPIN=   0.00000
   O   0.3530674   0.1288500  -0.0506710 SPIN=   0.00000
   O  -0.1060807   0.1388834  -0.1776066 SPIN=   0.00000
   O   0.2934766   0.4032507  -0.3695320 SPIN=   0.00000
   P   0.1795086   0.3236212  -0.1441024 SPIN=   0.00000
   O  -0.1732441  -0.5645885   0.4999637 SPIN=   0.00000
   O  -0.3530674  -0.1288500   0.4493290 SPIN=   0.00000
   O   0.1060807  -0.1388834   0.3223934 SPIN=   0.00000
   O  -0.2934766  -0.4032507   0.1304680 SPIN=   0.00000
   P  -0.1795086  -0.3236212   0.3558976 SPIN=   0.00000
  Fe  -0.2669268  -0.4245529  -0.2016073 SPIN=   4.00000
  Fe   0.2669268   0.4245529   0.2983927 SPIN=   4.00000
%ENDBLOCK POSITIONS_FRAC

# Note: total spin =   8.00

KPOINTS_MP_SPACING 0.07

%BLOCK SPECIES_POT
QC5
%ENDBLOCK SPECIES_POT

%BLOCK HUBBARD_U
Fe d:4.0
%ENDBLOCK HUBBARD_U

SNAP_TO_SYMMETRY
SYMMETRY_GENERATE

