#              Generated by Buildcell
#
# at 19:47:20 (GMT+0.0) 26th November 2020
# in /lustre/scratch/uccabz1/launch_tmp
# on node-c12d-021
# by uccabz1
#
# compiler GCC version 4.9.2
# options -cpp -iprefix /lustre/shared/ucl/apps/gcc/4.9.2/bin/../lib/gcc/x86_64-unknown-linux-gnu/4.9.2/ -mtune=corei7 -march=x86-64 -g -Og
#
# seed  1200903980  1946236268  1306339645 -2019216152  1990866391   214884546 -1455810604  1892588973  1189453840  1559217267 -1564240351   268796632
#
#      Author: C. J. Pickard (cjp20@cam.ac.uk)
#                Space group: P2
#

%BLOCK LATTICE_ABC
      5.18626      7.42484      8.36615
     96.63286     90.00000     90.00000
%ENDBLOCK LATTICE_ABC

%BLOCK POSITIONS_FRAC
  Li   0.3666110  -0.3859245  -0.1393814 SPIN=   0.00000
  Li   0.3666110   0.3859245   0.1393814 SPIN=   0.00000
  Li  -0.1400981  -0.1352605  -0.3412206 SPIN=   0.00000
  Li  -0.1400981   0.1352605   0.3412206 SPIN=   0.00000
   O   0.5077074  -0.1090830   0.1243192 SPIN=   0.00000
   O   0.1355883   0.1232416   0.1123572 SPIN=   0.00000
   O   0.1284715  -0.0768834   0.3285289 SPIN=   0.00000
   O   0.4578446   0.1706175   0.3362003 SPIN=   0.00000
   P   0.3198435   0.0214240   0.2212801 SPIN=   0.00000
   O   0.5077074   0.1090830  -0.1243192 SPIN=   0.00000
   O   0.1355883  -0.1232416  -0.1123572 SPIN=   0.00000
   O   0.1284715   0.0768834  -0.3285289 SPIN=   0.00000
   O   0.4578446  -0.1706175  -0.3362003 SPIN=   0.00000
   P   0.3198435  -0.0214240  -0.2212801 SPIN=   0.00000
   O  -0.2322003   0.3534281   0.1500224 SPIN=   0.00000
   O   0.0831026   0.3722100   0.3926963 SPIN=   0.00000
   O   0.1149665   0.6051673   0.2053900 SPIN=   0.00000
   O  -0.2656896   0.6050391   0.3895626 SPIN=   0.00000
   P  -0.0855786   0.4784397   0.2785028 SPIN=   0.00000
   O  -0.2322003  -0.3534281  -0.1500224 SPIN=   0.00000
   O   0.0831026  -0.3722100  -0.3926963 SPIN=   0.00000
   O   0.1149665  -0.6051673  -0.2053900 SPIN=   0.00000
   O  -0.2656896  -0.6050391  -0.3895626 SPIN=   0.00000
   P  -0.0855786  -0.4784397  -0.2785028 SPIN=   0.00000
  Fe   0.3678743  -0.2632712   0.4243715 SPIN=   4.94264
  Fe   0.3678743   0.2632712  -0.4243715 SPIN=   4.94264
  Fe  -0.1324624   0.2347222  -0.0805857 SPIN=   3.05736
  Fe  -0.1324624  -0.2347222   0.0805857 SPIN=   3.05736
%ENDBLOCK POSITIONS_FRAC

# Note: total spin =  16.00

KPOINTS_MP_SPACING 0.07

%BLOCK SPECIES_POT
QC5
%ENDBLOCK SPECIES_POT

%BLOCK HUBBARD_U
Fe d:4.0
%ENDBLOCK HUBBARD_U

SNAP_TO_SYMMETRY
SYMMETRY_GENERATE

