#              Generated by Buildcell
#
# at 09:02:15 (GMT+0.0) 24th November 2020
# in /lustre/scratch/uccabz1/launch_tmp
# on node-c12b-031
# by uccabz1
#
# compiler GCC version 4.9.2
# options -cpp -iprefix /lustre/shared/ucl/apps/gcc/4.9.2/bin/../lib/gcc/x86_64-unknown-linux-gnu/4.9.2/ -mtune=corei7 -march=x86-64 -g -Og
#
# seed  1253675644   346739910  -189966205  -755005965  -156000533  -964674116 -1860804566   597147456  -900886682 -1323860921   973653608  -432346218
#
#      Author: C. J. Pickard (cjp20@cam.ac.uk)
#                Space group: Cm
#

%BLOCK LATTICE_ABC
      3.96902      6.35189      6.35189
     88.05261     89.03761     89.03761
%ENDBLOCK LATTICE_ABC

%BLOCK POSITIONS_FRAC
  Li   0.2311453  -0.3620762  -0.3620762 SPIN=   0.00000
  Li  -0.4753468  -0.0605829  -0.0605829 SPIN=   0.00000
   O  -0.6310294   0.0659849   0.3433220 SPIN=   0.00000
   O  -0.1983382  -0.1521275   0.5666831 SPIN=   0.00000
   O  -0.5578705  -0.3401407   0.3237145 SPIN=   0.00000
   O  -0.1014439  -0.1074530   0.1772331 SPIN=   0.00000
   P  -0.3827585  -0.1225094   0.3501657 SPIN=   0.00000
   O  -0.6310294   0.3433220   0.0659849 SPIN=   0.00000
   O  -0.1983382   0.5666831  -0.1521275 SPIN=   0.00000
   O  -0.5578705   0.3237145  -0.3401407 SPIN=   0.00000
   O  -0.1014439   0.1772331  -0.1074530 SPIN=   0.00000
   P  -0.3827585   0.3501657  -0.1225094 SPIN=   0.00000
  Fe   0.0295530  -0.4220710   0.1434903 SPIN=   4.00000
  Fe   0.0295530   0.1434903  -0.4220710 SPIN=   4.00000
%ENDBLOCK POSITIONS_FRAC

# Note: total spin =   8.00

KPOINTS_MP_SPACING 0.07

%BLOCK SPECIES_POT
QC5
%ENDBLOCK SPECIES_POT

%BLOCK HUBBARD_U
Fe d:4.0
%ENDBLOCK HUBBARD_U

SNAP_TO_SYMMETRY
SYMMETRY_GENERATE

