#              Generated by Buildcell
#
# at 13:35:06 (GMT+0.0) 26th November 2020
# in /lustre/scratch/uccabz1/launch_tmp
# on node-c12f-023
# by uccabz1
#
# compiler GCC version 4.9.2
# options -cpp -iprefix /lustre/shared/ucl/apps/gcc/4.9.2/bin/../lib/gcc/x86_64-unknown-linux-gnu/4.9.2/ -mtune=corei7 -march=x86-64 -g -Og
#
# seed -2147011825  1859147300 -1779043572   928340059 -1875035537   812154290 -2122123999   668573109  1285669564 -1079317378   831848702   147634826
#
#      Author: C. J. Pickard (cjp20@cam.ac.uk)
#                Space group: Pnn2
#

%BLOCK LATTICE_ABC
      5.11013      7.67376      8.16038
     90.00000     90.00000     90.00000
%ENDBLOCK LATTICE_ABC

%BLOCK POSITIONS_FRAC
  Li  -0.4302512   0.4632544  -0.1795786 SPIN=   0.00000
  Li  -0.4302512  -0.4632544   0.1795786 SPIN=   0.00000
  Li   0.0697488  -0.0367456  -0.3204214 SPIN=   0.00000
  Li   0.0697488   0.0367456   0.3204214 SPIN=   0.00000
   O   0.3225763   0.2422916   0.2530323 SPIN=   0.00000
   O  -0.0561870   0.3443869   0.4424754 SPIN=   0.00000
   O   0.2771359   0.5600240   0.3592439 SPIN=   0.00000
   O  -0.0427243   0.4484788   0.1517335 SPIN=   0.00000
   P   0.1337278   0.3910486   0.2972653 SPIN=   0.00000
   O   0.3225763  -0.2422916  -0.2530323 SPIN=   0.00000
   O  -0.0561870  -0.3443869  -0.4424754 SPIN=   0.00000
   O   0.2771359  -0.5600240  -0.3592439 SPIN=   0.00000
   O  -0.0427243  -0.4484788  -0.1517335 SPIN=   0.00000
   P   0.1337278  -0.3910486  -0.2972653 SPIN=   0.00000
   O  -0.1774237  -0.2577084   0.2469677 SPIN=   0.00000
   O  -0.5561870  -0.1556131   0.0575246 SPIN=   0.00000
   O  -0.2228641   0.0600240   0.1407561 SPIN=   0.00000
   O  -0.5427243  -0.0515212   0.3482665 SPIN=   0.00000
   P  -0.3662722  -0.1089514   0.2027347 SPIN=   0.00000
   O  -0.1774237   0.2577084  -0.2469677 SPIN=   0.00000
   O  -0.5561870   0.1556131  -0.0575246 SPIN=   0.00000
   O  -0.2228641  -0.0600240  -0.1407561 SPIN=   0.00000
   O  -0.5427243   0.0515212  -0.3482665 SPIN=   0.00000
   P  -0.3662722   0.1089514  -0.2027347 SPIN=   0.00000
  Fe   0.0657019   0.2513685  -0.0248684 SPIN=   4.00000
  Fe   0.0657019  -0.2513685   0.0248684 SPIN=   4.00000
  Fe  -0.4342981  -0.2486315  -0.4751316 SPIN=   4.00000
  Fe  -0.4342981   0.2486315   0.4751316 SPIN=   4.00000
%ENDBLOCK POSITIONS_FRAC

# Note: total spin =  16.00

KPOINTS_MP_SPACING 0.07

%BLOCK SPECIES_POT
QC5
%ENDBLOCK SPECIES_POT

%BLOCK HUBBARD_U
Fe d:4.0
%ENDBLOCK HUBBARD_U

SNAP_TO_SYMMETRY
SYMMETRY_GENERATE

