#              Generated by Buildcell
#
# at 07:09:32 (GMT+0.0) 24th November 2020
# in /scratch/scratch/uccabz1/launch_tmp
# on node-a14a-024
# by uccabz1
#
# compiler GCC version 4.9.2
# options -cpp -iprefix /scratch/UCL/applications/gcc/4.9.2/bin/../lib/gcc/x86_64-unknown-linux-gnu/4.9.2/ -mtune=corei7 -march=x86-64 -g -O2
#
# seed  -182875933  1936253946  -679741286 -1461877425  -654841697   480137407   997669869  1639721838  -417302961 -1137073509 -1952182872 -1806038919
#
#      Author: C. J. Pickard (cjp20@cam.ac.uk)
#                Space group: Cc
#

%BLOCK LATTICE_ABC
      5.33185      5.33185      6.67330
     68.27807     68.27807     71.33279
%ENDBLOCK LATTICE_ABC

%BLOCK POSITIONS_FRAC
  Li   0.4615077   0.0579203  -0.0300472 SPIN=   0.00000
  Li   0.0579203   0.4615077   0.4699528 SPIN=   0.00000
   O  -0.1205725  -0.0210389   0.0964338 SPIN=   0.00000
   O   0.1915967   0.2930160  -0.2323663 SPIN=   0.00000
   O  -0.2715174   0.3261292  -0.2529120 SPIN=   0.00000
   O  -0.2283288   0.5071374   0.0271009 SPIN=   0.00000
   P  -0.1093466   0.2632025  -0.0790990 SPIN=   0.00000
   O  -0.0210389  -0.1205725   0.5964338 SPIN=   0.00000
   O   0.2930160   0.1915967   0.2676337 SPIN=   0.00000
   O   0.3261292  -0.2715174   0.2470880 SPIN=   0.00000
   O   0.5071374  -0.2283288   0.5271009 SPIN=   0.00000
   P   0.2632025  -0.1093466   0.4209010 SPIN=   0.00000
  Fe  -0.2976451   0.1061342   0.4033730 SPIN=   4.00000
  Fe   0.1061342  -0.2976451  -0.0966270 SPIN=   4.00000
%ENDBLOCK POSITIONS_FRAC

# Note: total spin =   8.00

KPOINTS_MP_SPACING 0.07

%BLOCK SPECIES_POT
QC5
%ENDBLOCK SPECIES_POT

%BLOCK HUBBARD_U
Fe d:4.0
%ENDBLOCK HUBBARD_U

SNAP_TO_SYMMETRY
SYMMETRY_GENERATE

