#              Generated by Buildcell
#
# at 10:45:46 (GMT+0.0) 24th November 2020
# in /lustre/scratch/uccabz1/launch_tmp
# on node-c12j-029
# by uccabz1
#
# compiler GCC version 4.9.2
# options -cpp -iprefix /lustre/shared/ucl/apps/gcc/4.9.2/bin/../lib/gcc/x86_64-unknown-linux-gnu/4.9.2/ -mtune=corei7 -march=x86-64 -g -Og
#
# seed  -822785900  2132137802 -1452342889   -53822963 -1177338212   102349965   114931397  1115836848  -593615707  2091106581   -97301568  -742591269
#
#      Author: C. J. Pickard (cjp20@cam.ac.uk)
#                Space group: Fdd2
#

%BLOCK LATTICE_ABC
      5.65862      5.65862      6.21466
    109.04942    109.04942    106.44467
%ENDBLOCK LATTICE_ABC

%BLOCK POSITIONS_FRAC
  Li  -0.1694487   0.1694487   0.5000000 SPIN=   0.00000
  Li   0.0805513  -0.0805513  -0.0000000 SPIN=   0.00000
   O  -0.7128491   0.0198311  -0.2061684 SPIN=   0.00000
   O  -0.3119509  -0.1033135  -0.0114133 SPIN=   0.00000
   O  -0.0198311  -0.2871509  -0.7938316 SPIN=   0.00000
   O   0.1033135  -0.6880491  -0.9885867 SPIN=   0.00000
   O  -0.4759995  -0.2433193  -0.7061684 SPIN=   0.00000
   O  -0.1580997  -0.4494624  -0.5114133 SPIN=   0.00000
   O   0.2433193   0.4759995   0.7061684 SPIN=   0.00000
   O   0.4494624   0.1580997   0.5114133 SPIN=   0.00000
   P   0.3956761  -0.3956761   0.0000000 SPIN=   0.00000
   P  -0.8543239  -0.1456761  -0.5000000 SPIN=   0.00000
  Fe  -0.2879587   0.2879587   0.0000000 SPIN=   4.00000
  Fe  -0.5379587  -0.4620413  -0.5000000 SPIN=   4.00000
%ENDBLOCK POSITIONS_FRAC

# Note: total spin =   8.00

KPOINTS_MP_SPACING 0.07

%BLOCK SPECIES_POT
QC5
%ENDBLOCK SPECIES_POT

%BLOCK HUBBARD_U
Fe d:4.0
%ENDBLOCK HUBBARD_U

SNAP_TO_SYMMETRY
SYMMETRY_GENERATE

