#              Generated by Buildcell
#
# at 01:02:44 (GMT+0.0) 27th November 2020
# in /scratch/scratch/mmm0366/launch_tmp
# on node-k98s-020
# by mmm0366
#
# compiler GCC version 4.9.2
# options -cpp -iprefix /scratch/UCL/applications/gcc/4.9.2/bin/../lib/gcc/x86_64-unknown-linux-gnu/4.9.2/ -mtune=corei7 -march=x86-64 -g -O2
#
# seed  1621524376  -826054580  -146770868    49393907  -393960541 -1467995364 -1113501681  -575620035 -1775778696 -1403555465  -797877199  -217437513
#
#      Author: C. J. Pickard (cjp20@cam.ac.uk)
#                Space group: Pmn21
#

%BLOCK LATTICE_ABC
      6.54991      6.61780      7.38246
     90.00000     90.00000     90.00000
%ENDBLOCK LATTICE_ABC

%BLOCK POSITIONS_FRAC
  Li  -0.0062217  -0.3658880  -0.0000000 SPIN=   0.00000
  Li   0.0062217   0.1341120   0.5000000 SPIN=   0.00000
  Li   0.4766347   0.0129932   0.0000000 SPIN=   0.00000
  Li  -0.4766347  -0.4870068   0.5000000 SPIN=   0.00000
   O   0.2107926   0.0443632  -0.1673188 SPIN=   0.00000
   O   0.1680880   0.4346611  -0.1695903 SPIN=   0.00000
   O   0.5135207   0.2929154  -0.2127939 SPIN=   0.00000
   P   0.2819529   0.2456324  -0.2500818 SPIN=   0.00000
   O  -0.2107926  -0.4556368  -0.3326812 SPIN=   0.00000
   O  -0.1680880  -0.0653389  -0.3304097 SPIN=   0.00000
   O  -0.5135207  -0.2070846  -0.2872061 SPIN=   0.00000
   P  -0.2819529  -0.2543676  -0.2499182 SPIN=   0.00000
   O  -0.2107926  -0.4556368   0.3326812 SPIN=   0.00000
   O  -0.1680880  -0.0653389   0.3304097 SPIN=   0.00000
   O  -0.5135207  -0.2070846   0.2872061 SPIN=   0.00000
   P  -0.2819529  -0.2543676   0.2499182 SPIN=   0.00000
   O   0.2107926   0.0443632   0.1673188 SPIN=   0.00000
   O   0.1680880   0.4346611   0.1695903 SPIN=   0.00000
   O   0.5135207   0.2929154   0.2127939 SPIN=   0.00000
   P   0.2819529   0.2456324   0.2500818 SPIN=   0.00000
   O  -0.2145129   0.3921632   0.0000000 SPIN=   0.00000
   O   0.2145129  -0.1078368   0.5000000 SPIN=   0.00000
   O  -0.2296003  -0.1331410   0.0000000 SPIN=   0.00000
   O   0.2296003   0.3668590   0.5000000 SPIN=   0.00000
  Fe  -0.4813293   0.0121547   0.5000000 SPIN=   5.78799
  Fe   0.4813293  -0.4878453   0.0000000 SPIN=   5.78799
  Fe  -0.0326287   0.1317927  -0.0000000 SPIN=   2.21201
  Fe   0.0326287  -0.3682073  -0.5000000 SPIN=   2.21201
%ENDBLOCK POSITIONS_FRAC

# Note: total spin =  16.00

KPOINTS_MP_SPACING 0.07

%BLOCK SPECIES_POT
QC5
%ENDBLOCK SPECIES_POT

%BLOCK HUBBARD_U
Fe d:4.0
%ENDBLOCK HUBBARD_U

SNAP_TO_SYMMETRY
SYMMETRY_GENERATE

