#              Generated by Buildcell
#
# at 17:49:04 (GMT+0.0) 26th November 2020
# in /lustre/scratch/uccabz1/launch_tmp
# on node-c12c-023
# by uccabz1
#
# compiler GCC version 4.9.2
# options -cpp -iprefix /lustre/shared/ucl/apps/gcc/4.9.2/bin/../lib/gcc/x86_64-unknown-linux-gnu/4.9.2/ -mtune=corei7 -march=x86-64 -g -Og
#
# seed   835116962  1096819987  -235885676  1737157172 -1686393373  1740312703 -1633199856   439651775   351658894  1045103470  -256305449 -2099827719
#
#      Author: C. J. Pickard (cjp20@cam.ac.uk)
#                Space group: P-1
#

%BLOCK LATTICE_ABC
      4.18670      8.38609      9.69172
     74.94143     88.03803     76.95163
%ENDBLOCK LATTICE_ABC

%BLOCK POSITIONS_FRAC
  Li  -0.0187570  -0.0826322  -0.3270570 SPIN=   0.00000
  Li   0.0187570   0.0826322   0.3270570 SPIN=   0.00000
  Li   0.1650154  -0.4954116  -0.2885057 SPIN=   0.00000
  Li  -0.1650154   0.4954116   0.2885057 SPIN=   0.00000
   O   0.2332825   0.2891560   0.3100662 SPIN=   0.00000
   O   0.3966566   0.5659812   0.1676280 SPIN=   0.00000
   O   0.7708986   0.2920189   0.1683064 SPIN=   0.00000
   O   0.2326180   0.3771112   0.0341104 SPIN=   0.00000
   P   0.3969677   0.3761264   0.1758801 SPIN=   0.00000
   O  -0.2332825  -0.2891560  -0.3100662 SPIN=   0.00000
   O  -0.3966566  -0.5659812  -0.1676280 SPIN=   0.00000
   O  -0.7708986  -0.2920189  -0.1683064 SPIN=   0.00000
   O  -0.2326180  -0.3771112  -0.0341104 SPIN=   0.00000
   P  -0.3969677  -0.3761264  -0.1758801 SPIN=   0.00000
   O   0.8443145   0.0751574  -0.1891103 SPIN=   0.00000
   O   0.3752389   0.0355695  -0.3368101 SPIN=   0.00000
   O   0.3765753  -0.0684685  -0.0738247 SPIN=   0.00000
   O   0.2468071   0.2439480  -0.1875380 SPIN=   0.00000
   P   0.4786331   0.0737780  -0.1963007 SPIN=   0.00000
   O  -0.8443145  -0.0751574   0.1891103 SPIN=   0.00000
   O  -0.3752389  -0.0355695   0.3368101 SPIN=   0.00000
   O  -0.3765753   0.0684685   0.0738247 SPIN=   0.00000
   O  -0.2468071  -0.2439480   0.1875380 SPIN=   0.00000
   P  -0.4786331  -0.0737780   0.1963007 SPIN=   0.00000
  Fe  -0.4330587  -0.2531200   0.4890383 SPIN=   3.81836
  Fe   0.4330587   0.2531200  -0.4890383 SPIN=   3.81836
  Fe   0.0858033  -0.2381985   0.0229192 SPIN=   4.18164
  Fe  -0.0858033   0.2381985  -0.0229192 SPIN=   4.18164
%ENDBLOCK POSITIONS_FRAC

# Note: total spin =  16.00

KPOINTS_MP_SPACING 0.07

%BLOCK SPECIES_POT
QC5
%ENDBLOCK SPECIES_POT

%BLOCK HUBBARD_U
Fe d:4.0
%ENDBLOCK HUBBARD_U

SNAP_TO_SYMMETRY
SYMMETRY_GENERATE

