#              Generated by Buildcell
#
# at 14:49:38 (GMT+0.0) 26th November 2020
# in /scratch/scratch/uccabz1/launch_tmp
# on node-k10e-027
# by uccabz1
#
# compiler GCC version 4.9.2
# options -cpp -iprefix /scratch/UCL/applications/gcc/4.9.2/bin/../lib/gcc/x86_64-unknown-linux-gnu/4.9.2/ -mtune=corei7 -march=x86-64 -g -O2
#
# seed  -850346023  -234838167  -950884658   575999016  -326496905  1187753321  -612438204 -2075816020  1386493826  1769063303  1656218344  -200576832
#
#      Author: C. J. Pickard (cjp20@cam.ac.uk)
#                Space group: Pc
#

%BLOCK LATTICE_ABC
      5.08459      7.90056      8.10272
     90.00000    100.54295     90.00000
%ENDBLOCK LATTICE_ABC

%BLOCK POSITIONS_FRAC
  Li  -0.0731471  -0.2944273  -0.3008836 SPIN=   0.00000
  Li  -0.0731471   0.2944273   0.1991164 SPIN=   0.00000
  Li  -0.3516240   0.4452481  -0.1253324 SPIN=   0.00000
  Li  -0.3516240  -0.4452481   0.3746676 SPIN=   0.00000
   O   0.1893656   0.3932235  -0.5944048 SPIN=   0.00000
   O   0.6406073   0.4412791  -0.3905435 SPIN=   0.00000
   O   0.2786350   0.6499833  -0.3915385 SPIN=   0.00000
   O   0.2353989   0.3605989  -0.2732125 SPIN=   0.00000
   P   0.3270069   0.4564599  -0.4204715 SPIN=   0.00000
   O   0.1893656  -0.3932235  -0.0944048 SPIN=   0.00000
   O   0.6406073  -0.4412791   0.1094565 SPIN=   0.00000
   O   0.2786350  -0.6499833   0.1084615 SPIN=   0.00000
   O   0.2353989  -0.3605989   0.2267875 SPIN=   0.00000
   P   0.3270069  -0.4564599   0.0795285 SPIN=   0.00000
   O  -0.2499724   0.0562587   0.1364301 SPIN=   0.00000
   O  -0.3124585  -0.1785830   0.3503709 SPIN=   0.00000
   O   0.0271722   0.0426710   0.4391803 SPIN=   0.00000
   O  -0.4591988   0.1172578   0.3977441 SPIN=   0.00000
   P  -0.2511718   0.0131689   0.3213636 SPIN=   0.00000
   O  -0.2499724  -0.0562587  -0.3635699 SPIN=   0.00000
   O  -0.3124585   0.1785830  -0.1496291 SPIN=   0.00000
   O   0.0271722  -0.0426710  -0.0608197 SPIN=   0.00000
   O  -0.4591988  -0.1172578  -0.1022559 SPIN=   0.00000
   P  -0.2511718  -0.0131689  -0.1786364 SPIN=   0.00000
  Fe  -0.1039492  -0.2345756   0.0979763 SPIN=   4.48998
  Fe  -0.1039492   0.2345756  -0.4020237 SPIN=   4.48998
  Fe   0.3672196   0.1167936   0.0086251 SPIN=   3.51002
  Fe   0.3672196  -0.1167936  -0.4913749 SPIN=   3.51002
%ENDBLOCK POSITIONS_FRAC

# Note: total spin =  16.00

KPOINTS_MP_SPACING 0.07

%BLOCK SPECIES_POT
QC5
%ENDBLOCK SPECIES_POT

%BLOCK HUBBARD_U
Fe d:4.0
%ENDBLOCK HUBBARD_U

SNAP_TO_SYMMETRY
SYMMETRY_GENERATE

