#              Generated by Buildcell
#
# at 20:38:11 (GMT+0.0) 26th November 2020
# in /scratch/scratch/uccabz1/launch_tmp
# on node-k10f-007
# by uccabz1
#
# compiler GCC version 4.9.2
# options -cpp -iprefix /scratch/UCL/applications/gcc/4.9.2/bin/../lib/gcc/x86_64-unknown-linux-gnu/4.9.2/ -mtune=corei7 -march=x86-64 -g -O2
#
# seed   790548892  1453281146   335094959  1133360002 -1655945811  -100666056 -1257005068  1482524671   532254560  -794993973 -1178111543  -504235047
#
#      Author: C. J. Pickard (cjp20@cam.ac.uk)
#                Space group: P41
#

%BLOCK LATTICE_ABC
      4.75568      4.75568     14.14895
     90.00000     90.00000     90.00000
%ENDBLOCK LATTICE_ABC

%BLOCK POSITIONS_FRAC
  Li  -0.2658721  -0.3557714  -0.1677961 SPIN=   0.00000
  Li   0.2658721   0.3557714   0.3322039 SPIN=   0.00000
  Li   0.3557714  -0.2658721   0.0822039 SPIN=   0.00000
  Li  -0.3557714   0.2658721  -0.4177961 SPIN=   0.00000
   O  -0.6747863  -0.0189333  -0.2063468 SPIN=   0.00000
   O  -0.2263475  -0.0155633  -0.3112148 SPIN=   0.00000
   O  -0.4738381   0.4337344  -0.2838465 SPIN=   0.00000
   O  -0.2094278   0.2075557  -0.1509882 SPIN=   0.00000
   P  -0.4087356   0.1432722  -0.2353804 SPIN=   0.00000
   O   0.6747863   0.0189333   0.2936532 SPIN=   0.00000
   O   0.2263475   0.0155633   0.1887852 SPIN=   0.00000
   O   0.4738381  -0.4337344   0.2161535 SPIN=   0.00000
   O   0.2094278  -0.2075557   0.3490118 SPIN=   0.00000
   P   0.4087356  -0.1432722   0.2646196 SPIN=   0.00000
   O   0.0189333  -0.6747863   0.0436532 SPIN=   0.00000
   O   0.0155633  -0.2263475  -0.0612148 SPIN=   0.00000
   O  -0.4337344  -0.4738381  -0.0338465 SPIN=   0.00000
   O  -0.2075557  -0.2094278   0.0990118 SPIN=   0.00000
   P  -0.1432722  -0.4087356   0.0146196 SPIN=   0.00000
   O  -0.0189333   0.6747863  -0.4563468 SPIN=   0.00000
   O  -0.0155633   0.2263475  -0.5612148 SPIN=   0.00000
   O   0.4337344   0.4738381  -0.5338465 SPIN=   0.00000
   O   0.2075557   0.2094278  -0.4009882 SPIN=   0.00000
   P   0.1432722   0.4087356  -0.4853804 SPIN=   0.00000
  Fe   0.1930029  -0.1983208  -0.3339038 SPIN=   4.00000
  Fe  -0.1930029   0.1983208   0.1660962 SPIN=   4.00000
  Fe   0.1983208   0.1930029  -0.0839038 SPIN=   4.00000
  Fe  -0.1983208  -0.1930029   0.4160962 SPIN=   4.00000
%ENDBLOCK POSITIONS_FRAC

# Note: total spin =  16.00

KPOINTS_MP_SPACING 0.07

%BLOCK SPECIES_POT
QC5
%ENDBLOCK SPECIES_POT

%BLOCK HUBBARD_U
Fe d:4.0
%ENDBLOCK HUBBARD_U

SNAP_TO_SYMMETRY
SYMMETRY_GENERATE

