#              Generated by Buildcell
#
# at 13:05:36 (GMT+0.0) 24th November 2020
# in /lustre/scratch/uccabz1/launch_tmp
# on node-c12o-027
# by uccabz1
#
# compiler GCC version 4.9.2
# options -cpp -iprefix /lustre/shared/ucl/apps/gcc/4.9.2/bin/../lib/gcc/x86_64-unknown-linux-gnu/4.9.2/ -mtune=corei7 -march=x86-64 -g -Og
#
# seed  -502451351 -1570310250 -1287838572 -1338668536  -691776512 -1134019848  1021836049 -1219006884  -931586837   -65495070 -1345026193  1226403005
#
#      Author: C. J. Pickard (cjp20@cam.ac.uk)
#                Space group: F222
#

%BLOCK LATTICE_ABC
      5.61746      5.61746      6.41691
    115.39244    115.39244     91.16397
%ENDBLOCK LATTICE_ABC

%BLOCK POSITIONS_FRAC
  Li  -0.1899463  -0.1899463   0.0000000 SPIN=   0.00000
  Li   0.1899463   0.1899463  -0.0000000 SPIN=   0.00000
   O   0.0048964  -0.6792916   0.2510777 SPIN=   0.00000
   O  -0.1526175  -0.2327994   0.3181452 SPIN=   0.00000
   O   0.0696308  -0.2461813  -0.2510777 SPIN=   0.00000
   O   0.4490554  -0.4707627  -0.3181452 SPIN=   0.00000
   O   0.2461813  -0.0696308   0.2510777 SPIN=   0.00000
   O   0.4707627  -0.4490554   0.3181452 SPIN=   0.00000
   O   0.6792916  -0.0048964  -0.2510777 SPIN=   0.00000
   O   0.2327994   0.1526175  -0.3181452 SPIN=   0.00000
   P   0.2742285  -0.2742285  -0.0000000 SPIN=   0.00000
   P  -0.2742285   0.2742285   0.0000000 SPIN=   0.00000
  Fe   0.2500000  -0.2500000   0.5000000 SPIN=   3.95725
  Fe  -0.2500000   0.2500000  -0.5000000 SPIN=   4.04275
%ENDBLOCK POSITIONS_FRAC

# Note: total spin =   8.00

KPOINTS_MP_SPACING 0.07

%BLOCK SPECIES_POT
QC5
%ENDBLOCK SPECIES_POT

%BLOCK HUBBARD_U
Fe d:4.0
%ENDBLOCK HUBBARD_U

SNAP_TO_SYMMETRY
SYMMETRY_GENERATE

