#              Generated by Buildcell
#
# at 10:37:05 (GMT+0.0) 24th November 2020
# in /lustre/scratch/uccabz1/launch_tmp
# on node-c12l-025
# by uccabz1
#
# compiler GCC version 4.9.2
# options -cpp -iprefix /lustre/shared/ucl/apps/gcc/4.9.2/bin/../lib/gcc/x86_64-unknown-linux-gnu/4.9.2/ -mtune=corei7 -march=x86-64 -g -Og
#
# seed   470840390  2095405491  -779138404   395245397  1365537253  -488421726 -1755925516   808602408   -21342571   274509054  1580406845 -1076486413
#
#      Author: C. J. Pickard (cjp20@cam.ac.uk)
#                Space group: P-1
#

%BLOCK LATTICE_ABC
      5.34745      5.36883      6.11998
    104.09251    104.18404    100.06752
%ENDBLOCK LATTICE_ABC

%BLOCK POSITIONS_FRAC
  Li   1.0000000   0.5000000   1.0000000 SPIN=   0.00000
  Li  -1.0000000  -0.5000000  -0.5000000 SPIN=   0.00000
   O  -0.0828344  -0.1316477   0.1241396 SPIN=   0.00000
   O  -0.3004925   0.0652780   0.4401310 SPIN=   0.00000
   O  -0.5944261  -0.2030303   0.0421868 SPIN=   0.00000
   O  -0.3486751  -0.4250319   0.3097230 SPIN=   0.00000
   O   0.0828344   0.1316477  -0.1241396 SPIN=   0.00000
   O   0.3004925  -0.0652780  -0.4401310 SPIN=   0.00000
   O   0.5944261   0.2030303  -0.0421868 SPIN=   0.00000
   O   0.3486751   0.4250319  -0.3097230 SPIN=   0.00000
   P  -0.0000000  -0.0000000   0.5000000 SPIN=   0.00000
   P  -0.5000000  -0.5000000  -0.0000000 SPIN=   0.00000
  Fe   0.3558891   0.1459823   0.2505744 SPIN=   4.00000
  Fe  -0.3558891  -0.1459823  -0.2505744 SPIN=   4.00000
%ENDBLOCK POSITIONS_FRAC

# Note: total spin =   8.00

KPOINTS_MP_SPACING 0.07

%BLOCK SPECIES_POT
QC5
%ENDBLOCK SPECIES_POT

%BLOCK HUBBARD_U
Fe d:4.0
%ENDBLOCK HUBBARD_U

SNAP_TO_SYMMETRY
SYMMETRY_GENERATE

