#              Generated by Buildcell
#
# at 20:08:57 (GMT+0.0) 26th November 2020
# in /scratch/scratch/mmm0366/launch_tmp
# on node-k98n-029
# by mmm0366
#
# compiler GCC version 4.9.2
# options -cpp -iprefix /scratch/UCL/applications/gcc/4.9.2/bin/../lib/gcc/x86_64-unknown-linux-gnu/4.9.2/ -mtune=corei7 -march=x86-64 -g -O2
#
# seed   367236586 -2040113027   -96244832 -1293093384 -1332792228   757639908   426880916  -622270673   -96641782  1343583892    69357744   207527650
#
#      Author: C. J. Pickard (cjp20@cam.ac.uk)
#                Space group: P-1
#

%BLOCK LATTICE_ABC
      6.29803      6.66033      8.57290
     91.99900    108.90577    107.95037
%ENDBLOCK LATTICE_ABC

%BLOCK POSITIONS_FRAC
  Li  -0.2423738  -0.1055039  -0.2592742 SPIN=   0.00000
  Li   0.2423738   0.1055039   0.2592742 SPIN=   0.00000
  Li   0.1036960  -0.2676720  -0.0052155 SPIN=   0.00000
  Li  -0.1036960   0.2676720   0.0052155 SPIN=   0.00000
   O   0.3605624  -0.1801746  -0.1221795 SPIN=   0.00000
   O   0.2051234  -0.4372627  -0.4004566 SPIN=   0.00000
   O   0.4989368  -0.5035966  -0.1546925 SPIN=   0.00000
   O   0.0817408  -0.5697730  -0.1625642 SPIN=   0.00000
   P   0.2881120  -0.4115239  -0.2047392 SPIN=   0.00000
   O  -0.3605624   0.1801746   0.1221795 SPIN=   0.00000
   O  -0.2051234   0.4372627   0.4004566 SPIN=   0.00000
   O  -0.4989368   0.5035966   0.1546925 SPIN=   0.00000
   O  -0.0817408   0.5697730   0.1625642 SPIN=   0.00000
   P  -0.2881120   0.4115239   0.2047392 SPIN=   0.00000
   O   0.3435059   0.3014346  -0.5126044 SPIN=   0.00000
   O   0.1110544   0.0580569  -0.3494389 SPIN=   0.00000
   O   0.2786400  -0.1041040  -0.5229408 SPIN=   0.00000
   O   0.5533144   0.1451118  -0.2599730 SPIN=   0.00000
   P   0.3255276   0.1113745  -0.4148513 SPIN=   0.00000
   O  -0.3435059  -0.3014346   0.5126044 SPIN=   0.00000
   O  -0.1110544  -0.0580569   0.3494389 SPIN=   0.00000
   O  -0.2786400   0.1041040   0.5229408 SPIN=   0.00000
   O  -0.5533144  -0.1451118   0.2599730 SPIN=   0.00000
   P  -0.3255276  -0.1113745   0.4148513 SPIN=   0.00000
  Fe  -0.3287290  -0.2011882   0.0932344 SPIN=   4.95515
  Fe   0.3287290   0.2011882  -0.0932344 SPIN=   4.95515
  Fe  -0.2218437   0.4215332  -0.3625687 SPIN=   3.04485
  Fe   0.2218437  -0.4215332   0.3625687 SPIN=   3.04485
%ENDBLOCK POSITIONS_FRAC

# Note: total spin =  16.00

KPOINTS_MP_SPACING 0.07

%BLOCK SPECIES_POT
QC5
%ENDBLOCK SPECIES_POT

%BLOCK HUBBARD_U
Fe d:4.0
%ENDBLOCK HUBBARD_U

SNAP_TO_SYMMETRY
SYMMETRY_GENERATE

