#              Generated by Buildcell
#
# at 21:58:03 (GMT+0.0) 26th November 2020
# in /lustre/scratch/uccabz1/launch_tmp
# on node-c12o-035
# by uccabz1
#
# compiler GCC version 4.9.2
# options -cpp -iprefix /lustre/shared/ucl/apps/gcc/4.9.2/bin/../lib/gcc/x86_64-unknown-linux-gnu/4.9.2/ -mtune=corei7 -march=x86-64 -g -Og
#
# seed -1340419264 -1223344126   862971205  -925050119   888530511  1363411672   727678184   296120752 -1664505604  1925146915   101145326  1914920601
#
#      Author: C. J. Pickard (cjp20@cam.ac.uk)
#                Space group: Fdd2
#

%BLOCK LATTICE_ABC
      5.98904      5.98904      9.82605
    106.03444    106.03444     95.37326
%ENDBLOCK LATTICE_ABC

%BLOCK POSITIONS_FRAC
  Li  -0.4721129   0.0465117  -0.4312313 SPIN=   0.00000
  Li   0.0408816  -0.4777430  -0.4312313 SPIN=   0.00000
  Li  -0.2277430  -0.2091184   0.0687687 SPIN=   0.00000
  Li   0.2965117   0.2778871   0.0687687 SPIN=   0.00000
   O  -0.2562375   0.4780307  -0.1170958 SPIN=   0.00000
   O  -0.5733284   0.1382224  -0.1307936 SPIN=   0.00000
   O  -0.2457776   0.0334650  -0.2284591 SPIN=   0.00000
   P  -0.3053728   0.2280845  -0.1060017 SPIN=   0.00000
   O   0.1391417  -0.5951265  -0.1170958 SPIN=   0.00000
   O   0.4425348  -0.2690160  -0.1307936 SPIN=   0.00000
   O   0.0173185  -0.2619241  -0.2284591 SPIN=   0.00000
   P   0.1993711  -0.3340862  -0.1060017 SPIN=   0.00000
   O  -0.3451265  -0.1108583   0.3829042 SPIN=   0.00000
   O  -0.0190160   0.1925348   0.3692064 SPIN=   0.00000
   O  -0.0119241  -0.2326815   0.2715409 SPIN=   0.00000
   P  -0.0840862  -0.0506289   0.3939983 SPIN=   0.00000
   O   0.7280307   0.4937625   0.3829042 SPIN=   0.00000
   O   0.3882224   0.1766716   0.3692064 SPIN=   0.00000
   O   0.2834650   0.5042224   0.2715409 SPIN=   0.00000
   P   0.4780845   0.4446272   0.3939983 SPIN=   0.00000
   O   0.0049498   0.0049498   0.0098996 SPIN=   0.00000
   O   0.2549498  -0.2450502  -0.4901004 SPIN=   0.00000
   O  -0.4282370  -0.4282370   0.1435259 SPIN=   0.00000
   O  -0.1782370   0.3217630  -0.3564741 SPIN=   0.00000
  Fe   0.0971411   0.0922844  -0.2899881 SPIN=   4.00000
  Fe  -0.3871292  -0.3822725  -0.2899881 SPIN=   4.00000
  Fe  -0.1322725   0.3628708   0.2100119 SPIN=   4.00000
  Fe   0.3422844  -0.1528589   0.2100119 SPIN=   4.00000
%ENDBLOCK POSITIONS_FRAC

# Note: total spin =  16.00

KPOINTS_MP_SPACING 0.07

%BLOCK SPECIES_POT
QC5
%ENDBLOCK SPECIES_POT

%BLOCK HUBBARD_U
Fe d:4.0
%ENDBLOCK HUBBARD_U

SNAP_TO_SYMMETRY
SYMMETRY_GENERATE

