#              Generated by Buildcell
#
# at 11:44:09 (GMT+0.0) 24th November 2020
# in /lustre/scratch/uccabz1/launch_tmp
# on node-c12c-034
# by uccabz1
#
# compiler GCC version 4.9.2
# options -cpp -iprefix /lustre/shared/ucl/apps/gcc/4.9.2/bin/../lib/gcc/x86_64-unknown-linux-gnu/4.9.2/ -mtune=corei7 -march=x86-64 -g -Og
#
# seed -1158415745 -1607114602 -1551336008  1366562865 -1875297087  -530719577 -2108576319   730657211   232455192  1725186798 -1297543370    77525163
#
#      Author: C. J. Pickard (cjp20@cam.ac.uk)
#                Space group: Cc
#

%BLOCK LATTICE_ABC
      5.50535      5.50535      5.98491
    105.37592    105.37592    102.91488
%ENDBLOCK LATTICE_ABC

%BLOCK POSITIONS_FRAC
  Li   0.0441654  -0.3970420   0.2860953 SPIN=   0.00000
  Li   0.1029580  -0.4558346  -0.2139047 SPIN=   0.00000
   O   0.1139776   0.3243645   0.0210500 SPIN=   0.00000
   O   0.5266729   0.1832024   0.1863682 SPIN=   0.00000
   O   0.0813136  -0.1403898   0.0585840 SPIN=   0.00000
   O   0.2483199  -0.0237807  -0.2622951 SPIN=   0.00000
   P   0.2357919   0.0972552  -0.0011080 SPIN=   0.00000
   O  -0.1756355  -0.3860224  -0.4789500 SPIN=   0.00000
   O  -0.3167976   0.0266729  -0.3136318 SPIN=   0.00000
   O  -0.6403898  -0.4186864  -0.4414160 SPIN=   0.00000
   O  -0.5237807  -0.2516801  -0.7622951 SPIN=   0.00000
   P  -0.4027448  -0.2642081  -0.5011080 SPIN=   0.00000
  Fe   0.4374292   0.2190495  -0.4781084 SPIN=   4.00000
  Fe  -0.2809505  -0.0625708   0.0218916 SPIN=   4.00000
%ENDBLOCK POSITIONS_FRAC

# Note: total spin =   8.00

KPOINTS_MP_SPACING 0.07

%BLOCK SPECIES_POT
QC5
%ENDBLOCK SPECIES_POT

%BLOCK HUBBARD_U
Fe d:4.0
%ENDBLOCK HUBBARD_U

SNAP_TO_SYMMETRY
SYMMETRY_GENERATE

