#              Generated by Buildcell
#
# at 22:50:51 (GMT+0.0) 26th November 2020
# in /lustre/scratch/uccabz1/launch_tmp
# on node-c12n-030
# by uccabz1
#
# compiler GCC version 4.9.2
# options -cpp -iprefix /lustre/shared/ucl/apps/gcc/4.9.2/bin/../lib/gcc/x86_64-unknown-linux-gnu/4.9.2/ -mtune=corei7 -march=x86-64 -g -Og
#
# seed   184235551 -2100943100 -1784557164   -60741136  -807697196  -390947225  -811389348   979349619  -784978741   153772391 -1953593158 -1547892698
#
#      Author: C. J. Pickard (cjp20@cam.ac.uk)
#                Space group: P21212
#

%BLOCK LATTICE_ABC
      3.88203      9.01452      9.14425
     90.00000     90.00000     90.00000
%ENDBLOCK LATTICE_ABC

%BLOCK POSITIONS_FRAC
  Li  -0.0021451  -0.3729574   0.3941868 SPIN=   0.00000
  Li  -0.0021451   0.3729574  -0.3941868 SPIN=   0.00000
  Li   0.0021451   0.1270426   0.1058132 SPIN=   0.00000
  Li   0.0021451  -0.1270426  -0.1058132 SPIN=   0.00000
   O  -0.4264359   0.1890741  -0.3851569 SPIN=   0.00000
   O   0.0949547   0.1787722  -0.2073180 SPIN=   0.00000
   O  -0.4057520   0.0176152  -0.1569522 SPIN=   0.00000
   O  -0.0234259  -0.0384285  -0.3705161 SPIN=   0.00000
   P  -0.2007773   0.0907287  -0.2866540 SPIN=   0.00000
   O  -0.4264359  -0.1890741   0.3851569 SPIN=   0.00000
   O   0.0949547  -0.1787722   0.2073180 SPIN=   0.00000
   O  -0.4057520  -0.0176152   0.1569522 SPIN=   0.00000
   O  -0.0234259   0.0384285   0.3705161 SPIN=   0.00000
   P  -0.2007773  -0.0907287   0.2866540 SPIN=   0.00000
   O   0.4264359  -0.3109259  -0.1148431 SPIN=   0.00000
   O  -0.0949547  -0.3212278  -0.2926820 SPIN=   0.00000
   O   0.4057520  -0.4823848  -0.3430478 SPIN=   0.00000
   O   0.0234259  -0.5384285  -0.1294839 SPIN=   0.00000
   P   0.2007773  -0.4092713  -0.2133460 SPIN=   0.00000
   O   0.4264359   0.3109259   0.1148431 SPIN=   0.00000
   O  -0.0949547   0.3212278   0.2926820 SPIN=   0.00000
   O   0.4057520   0.4823848   0.3430478 SPIN=   0.00000
   O   0.0234259   0.5384285   0.1294839 SPIN=   0.00000
   P   0.2007773   0.4092713   0.2133460 SPIN=   0.00000
  Fe   0.4989878  -0.3186360   0.1119004 SPIN=   4.00000
  Fe   0.4989878   0.3186360  -0.1119004 SPIN=   4.00000
  Fe  -0.4989878   0.1813640   0.3880996 SPIN=   4.00000
  Fe  -0.4989878  -0.1813640  -0.3880996 SPIN=   4.00000
%ENDBLOCK POSITIONS_FRAC

# Note: total spin =  16.00

KPOINTS_MP_SPACING 0.07

%BLOCK SPECIES_POT
QC5
%ENDBLOCK SPECIES_POT

%BLOCK HUBBARD_U
Fe d:4.0
%ENDBLOCK HUBBARD_U

SNAP_TO_SYMMETRY
SYMMETRY_GENERATE

