#              Generated by Buildcell
#
# at 06:34:50 (GMT+0.0) 24th November 2020
# in /lustre/scratch/uccabz1/launch_tmp
# on node-c12n-026
# by uccabz1
#
# compiler GCC version 4.9.2
# options -cpp -iprefix /lustre/shared/ucl/apps/gcc/4.9.2/bin/../lib/gcc/x86_64-unknown-linux-gnu/4.9.2/ -mtune=corei7 -march=x86-64 -g -Og
#
# seed  1244962200  -474899148   685512226 -1664568884 -1986612500    78457099 -2115958608  -100666655 -1098694464   863126565   723467564   598328608
#
#      Author: C. J. Pickard (cjp20@cam.ac.uk)
#                Space group: Ama2
#

%BLOCK LATTICE_ABC
      4.04513      4.04513      9.77815
     90.00000     90.00000     90.16020
%ENDBLOCK LATTICE_ABC

%BLOCK POSITIONS_FRAC
  Li  -0.2885367  -0.4367641  -0.2500000 SPIN=   0.00000
  Li   0.4367641   0.2885367   0.2500000 SPIN=   0.00000
   O  -0.1473713  -0.4988084   0.1150523 SPIN=   0.00000
   O   0.3729989  -0.1208854   0.1147978 SPIN=   0.00000
   O   0.4988084   0.1473713  -0.1150523 SPIN=   0.00000
   O   0.1208854  -0.3729989  -0.1147978 SPIN=   0.00000
   O   0.4988084   0.1473713  -0.3849477 SPIN=   0.00000
   O   0.1208854  -0.3729989  -0.3852022 SPIN=   0.00000
   O  -0.1473713  -0.4988084   0.3849477 SPIN=   0.00000
   O   0.3729989  -0.1208854   0.3852022 SPIN=   0.00000
   P   0.4359864  -0.4359864   0.0000000 SPIN=   0.00000
   P   0.4359864  -0.4359864  -0.5000000 SPIN=   0.00000
  Fe  -0.0634948   0.0634948   0.0000000 SPIN=   4.00000
  Fe  -0.0634948   0.0634948  -0.5000000 SPIN=   4.00000
%ENDBLOCK POSITIONS_FRAC

# Note: total spin =   8.00

KPOINTS_MP_SPACING 0.07

%BLOCK SPECIES_POT
QC5
%ENDBLOCK SPECIES_POT

%BLOCK HUBBARD_U
Fe d:4.0
%ENDBLOCK HUBBARD_U

SNAP_TO_SYMMETRY
SYMMETRY_GENERATE

