#              Generated by Buildcell
#
# at 11:33:19 (GMT+0.0) 26th November 2020
# in /scratch/scratch/uccabz1/launch_tmp
# on node-k10b-006
# by uccabz1
#
# compiler GCC version 4.9.2
# options -cpp -iprefix /scratch/UCL/applications/gcc/4.9.2/bin/../lib/gcc/x86_64-unknown-linux-gnu/4.9.2/ -mtune=corei7 -march=x86-64 -g -O2
#
# seed  -824688914  -492412512   382102292   958300385  1765708088  1248246512   511264467 -1084475495 -1975703629 -1399384292 -1542675723   649088624
#
#      Author: C. J. Pickard (cjp20@cam.ac.uk)
#                Space group: P2
#

%BLOCK LATTICE_ABC
      6.55065      6.75244      7.68978
     90.00000     90.00000    109.81609
%ENDBLOCK LATTICE_ABC

%BLOCK POSITIONS_FRAC
  Li   0.2677736  -0.0109707  -0.3294527 SPIN=   0.00000
  Li  -0.2677736   0.0109707  -0.3294527 SPIN=   0.00000
  Li   0.5000000   0.5000000   0.1111325 SPIN=   0.00000
  Li  -0.5000000  -0.5000000  -0.4425594 SPIN=   0.00000
   O   0.0466342  -0.2181522  -0.1012630 SPIN=   0.00000
   O  -0.3384136  -0.1882413  -0.0959028 SPIN=   0.00000
   O  -0.1995066  -0.2729524  -0.3745935 SPIN=   0.00000
   O  -0.3009873  -0.5422828  -0.1368546 SPIN=   0.00000
   P  -0.1862537  -0.3035567  -0.1726371 SPIN=   0.00000
   O  -0.0466342   0.2181522  -0.1012630 SPIN=   0.00000
   O   0.3384136   0.1882413  -0.0959028 SPIN=   0.00000
   O   0.1995066   0.2729524  -0.3745935 SPIN=   0.00000
   O   0.3009873   0.5422828  -0.1368546 SPIN=   0.00000
   P   0.1862537   0.3035567  -0.1726371 SPIN=   0.00000
   O   0.1621612   0.7890730   0.2522858 SPIN=   0.00000
   O   0.2841535   0.4702039   0.3245406 SPIN=   0.00000
   O   0.5639765   0.8056749   0.2397904 SPIN=   0.00000
   O   0.3807286   0.7766992   0.5291714 SPIN=   0.00000
   P   0.3382621   0.7153832   0.3342402 SPIN=   0.00000
   O  -0.1621612  -0.7890730   0.2522858 SPIN=   0.00000
   O  -0.2841535  -0.4702039   0.3245406 SPIN=   0.00000
   O  -0.5639765  -0.8056749   0.2397904 SPIN=   0.00000
   O  -0.3807286  -0.7766992   0.5291714 SPIN=   0.00000
   P  -0.3382621  -0.7153832   0.3342402 SPIN=   0.00000
  Fe   0.0000000  -0.5000000  -0.4268580 SPIN=   3.01857
  Fe   0.5000000   1.0000000   0.0496237 SPIN=   7.48662
  Fe   0.0000000  -0.5000000   0.0755573 SPIN=   4.83328
  Fe   0.0000000   0.0000000   0.3158380 SPIN=   0.66152
%ENDBLOCK POSITIONS_FRAC

# Note: total spin =  16.00

KPOINTS_MP_SPACING 0.07

%BLOCK SPECIES_POT
QC5
%ENDBLOCK SPECIES_POT

%BLOCK HUBBARD_U
Fe d:4.0
%ENDBLOCK HUBBARD_U

SNAP_TO_SYMMETRY
SYMMETRY_GENERATE

