#              Generated by Buildcell
#
# at 20:19:16 (GMT+0.0) 26th November 2020
# in /lustre/scratch/uccabz1/launch_tmp
# on node-c12f-024
# by uccabz1
#
# compiler GCC version 4.9.2
# options -cpp -iprefix /lustre/shared/ucl/apps/gcc/4.9.2/bin/../lib/gcc/x86_64-unknown-linux-gnu/4.9.2/ -mtune=corei7 -march=x86-64 -g -Og
#
# seed  1494644127  -957678303 -2136818753  1312460796  -802601091 -1141321715    48284337  1166771239    14824165  -510718908  1087043041 -2137588820
#
#      Author: C. J. Pickard (cjp20@cam.ac.uk)
#                Space group: C2
#

%BLOCK LATTICE_ABC
      6.33093      6.33093      8.85036
    101.76628    101.76628    106.38629
%ENDBLOCK LATTICE_ABC

%BLOCK POSITIONS_FRAC
  Li   0.4435189   0.1077770   0.3812447 SPIN=   0.00000
  Li  -0.1077770  -0.4435189  -0.3812447 SPIN=   0.00000
  Li  -0.0023809  -0.2411938   0.1724494 SPIN=   0.00000
  Li   0.2411938   0.0023809  -0.1724494 SPIN=   0.00000
   O  -0.4547112  -0.0469569  -0.1948122 SPIN=   0.00000
   O  -0.6476874   0.1453721  -0.3884932 SPIN=   0.00000
   O  -0.2308991   0.3202634  -0.2592690 SPIN=   0.00000
   O  -0.3837117  -0.0547184  -0.4727954 SPIN=   0.00000
   P  -0.4300705   0.0819255  -0.3234048 SPIN=   0.00000
   O   0.0469569   0.4547112   0.1948122 SPIN=   0.00000
   O  -0.1453721   0.6476874   0.3884932 SPIN=   0.00000
   O  -0.3202634   0.2308991   0.2592690 SPIN=   0.00000
   O   0.0547184   0.3837117   0.4727954 SPIN=   0.00000
   P  -0.0819255   0.4300705   0.3234048 SPIN=   0.00000
   O  -0.2552650  -0.1527952   0.0324435 SPIN=   0.00000
   O  -0.4800820  -0.4479746  -0.2450027 SPIN=   0.00000
   O  -0.1171018  -0.1510075  -0.2244381 SPIN=   0.00000
   P  -0.2392958  -0.2984945  -0.1238936 SPIN=   0.00000
   O   0.1527952   0.2552650  -0.0324435 SPIN=   0.00000
   O   0.4479746   0.4800820   0.2450027 SPIN=   0.00000
   O   0.1510075   0.1171018   0.2244381 SPIN=   0.00000
   P   0.2984945   0.2392958   0.1238936 SPIN=   0.00000
   O   0.1707188  -0.1707188   0.0000000 SPIN=   0.00000
   O  -0.3993677   0.3993677  -0.0000000 SPIN=   0.00000
  Fe  -0.1768051   0.1768051   0.0000000 SPIN=   6.37717
  Fe   0.3763109  -0.3763109   0.0000000 SPIN=   0.58715
  Fe  -0.0529859   0.0529859   0.5000000 SPIN=   2.90508
  Fe   0.3878342  -0.3878342   0.5000000 SPIN=   6.13060
%ENDBLOCK POSITIONS_FRAC

# Note: total spin =  16.00

KPOINTS_MP_SPACING 0.07

%BLOCK SPECIES_POT
QC5
%ENDBLOCK SPECIES_POT

%BLOCK HUBBARD_U
Fe d:4.0
%ENDBLOCK HUBBARD_U

SNAP_TO_SYMMETRY
SYMMETRY_GENERATE

