#              Generated by Buildcell
#
# at 06:52:40 (GMT+0.0) 24th November 2020
# in /scratch/scratch/uccabz1/launch_tmp
# on node-a14a-001
# by uccabz1
#
# compiler GCC version 4.9.2
# options -cpp -iprefix /scratch/UCL/applications/gcc/4.9.2/bin/../lib/gcc/x86_64-unknown-linux-gnu/4.9.2/ -mtune=corei7 -march=x86-64 -g -O2
#
# seed  1171501825  1585759836 -1525144929  1557348470 -1787891061  1312195903  1719176335  -553677677  1376899345  -856265292   946778597 -1691634169
#
#      Author: C. J. Pickard (cjp20@cam.ac.uk)
#                Space group: C2
#

%BLOCK LATTICE_ABC
      5.47185      5.54837      5.54837
     96.30538    101.33348    101.33348
%ENDBLOCK LATTICE_ABC

%BLOCK POSITIONS_FRAC
  Li   0.5000000   0.0229748  -0.0229748 SPIN=   0.00000
  Li  -0.5000000  -0.6122419  -0.3877581 SPIN=   0.00000
   O  -0.1436267  -0.3756992  -0.2207361 SPIN=   0.00000
   O   0.3339200  -0.3256301  -0.2403145 SPIN=   0.00000
   O   0.1522911   0.0482732  -0.2341821 SPIN=   0.00000
   O   0.2245618  -0.1502980   0.1500901 SPIN=   0.00000
   O   0.1436267   0.2207361   0.3756992 SPIN=   0.00000
   O  -0.3339200   0.2403145   0.3256301 SPIN=   0.00000
   O  -0.1522911   0.2341821  -0.0482732 SPIN=   0.00000
   O  -0.2245618  -0.1500901   0.1502980 SPIN=   0.00000
   P  -0.0000000  -0.0404855   0.0404855 SPIN=   0.00000
   P  -0.0000000  -0.5236277  -0.4763723 SPIN=   0.00000
  Fe   0.2064044   0.4742205   0.0647322 SPIN=   4.00000
  Fe  -0.2064044  -0.0647322  -0.4742205 SPIN=   4.00000
%ENDBLOCK POSITIONS_FRAC

# Note: total spin =   8.00

KPOINTS_MP_SPACING 0.07

%BLOCK SPECIES_POT
QC5
%ENDBLOCK SPECIES_POT

%BLOCK HUBBARD_U
Fe d:4.0
%ENDBLOCK HUBBARD_U

SNAP_TO_SYMMETRY
SYMMETRY_GENERATE

