#              Generated by Buildcell
#
# at 17:09:32 (GMT+0.0) 1st December 2020
# in /lustre/scratch/uccabz1/launch_tmp
# on node-c12f-024
# by uccabz1
#
# compiler GCC version 4.9.2
# options -cpp -iprefix /lustre/shared/ucl/apps/gcc/4.9.2/bin/../lib/gcc/x86_64-unknown-linux-gnu/4.9.2/ -mtune=corei7 -march=x86-64 -g -Og
#
# seed  1185251255 -1250095798   140397958   911677727 -2047103889  -398715127 -1856593854 -1413710129  -866199284  1066975273  -759277174 -2126112410
#
#      Author: C. J. Pickard (cjp20@cam.ac.uk)
#                Space group: C2
#

%BLOCK LATTICE_ABC
      4.64959      5.28538     14.60935
     96.31463     90.00000    116.09453
%ENDBLOCK LATTICE_ABC

%BLOCK POSITIONS_FRAC
  Li  -0.0248981  -0.3167517   0.4786210 SPIN=   0.00000
  Li   0.2918535   0.3167517  -0.4786210 SPIN=   0.00000
  Li  -0.3870500  -0.0648102  -0.4011542 SPIN=   0.00000
  Li  -0.3222397   0.0648102   0.4011542 SPIN=   0.00000
   O  -0.2709614  -0.6440387  -0.4227810 SPIN=   0.00000
   O   0.2475932  -0.4343101  -0.3158595 SPIN=   0.00000
   O   0.0620046  -0.1037849  -0.3716730 SPIN=   0.00000
   O  -0.2490975  -0.4192578  -0.2551731 SPIN=   0.00000
   P  -0.0665598  -0.4135464  -0.3446891 SPIN=   0.00000
   O   0.3730773   0.6440387   0.4227810 SPIN=   0.00000
   O   0.6819033   0.4343101   0.3158595 SPIN=   0.00000
   O   0.1657894   0.1037849   0.3716730 SPIN=   0.00000
   O   0.1701604   0.4192578   0.2551731 SPIN=   0.00000
   P   0.3469866   0.4135464   0.3446891 SPIN=   0.00000
   O  -0.3298910  -0.1519621  -0.0743345 SPIN=   0.00000
   O  -0.4245203   0.2997829  -0.0551140 SPIN=   0.00000
   O  -0.1261606   0.2294570  -0.1875375 SPIN=   0.00000
   O  -0.7156488  -0.0828664  -0.1850217 SPIN=   0.00000
   P  -0.3991087   0.0597462  -0.1234799 SPIN=   0.00000
   O  -0.1779290   0.1519621   0.0743345 SPIN=   0.00000
   O  -0.7243032  -0.2997829   0.0551140 SPIN=   0.00000
   O  -0.3556176  -0.2294570   0.1875375 SPIN=   0.00000
   O  -0.6327825   0.0828664   0.1850217 SPIN=   0.00000
   P  -0.4588549  -0.0597462   0.1234799 SPIN=   0.00000
  Fe   0.3210696   0.3415216   0.0865716 SPIN=   5.24827
  Fe  -0.0204520  -0.3415216  -0.0865716 SPIN=   5.24827
  Fe   0.2571204   0.2194805  -0.2607365 SPIN=   2.75173
  Fe   0.0376398  -0.2194805   0.2607365 SPIN=   2.75173
%ENDBLOCK POSITIONS_FRAC

# Note: total spin =  16.00

KPOINTS_MP_SPACING 0.07

%BLOCK SPECIES_POT
QC5
%ENDBLOCK SPECIES_POT

%BLOCK HUBBARD_U
Fe d:4.0
%ENDBLOCK HUBBARD_U

SNAP_TO_SYMMETRY
SYMMETRY_GENERATE

