#              Generated by Buildcell
#
# at 13:12:58 (GMT+0.0) 24th November 2020
# in /scratch/scratch/uccabz1/launch_tmp
# on node-a14b-007
# by uccabz1
#
# compiler GCC version 4.9.2
# options -cpp -iprefix /scratch/UCL/applications/gcc/4.9.2/bin/../lib/gcc/x86_64-unknown-linux-gnu/4.9.2/ -mtune=corei7 -march=x86-64 -g -O2
#
# seed   222163208  -967956302   -20884288  -638998083   112534888    42683253  -584079491  -649552693   349186371  1219022083  -149393662   557532885
#
#      Author: C. J. Pickard (cjp20@cam.ac.uk)
#                Space group: Cm
#

%BLOCK LATTICE_ABC
      5.13813      6.05949      6.05949
     96.54882    110.28226    110.28226
%ENDBLOCK LATTICE_ABC

%BLOCK POSITIONS_FRAC
  Li   0.4333717   0.0114949   0.0114949 SPIN=   0.00000
  Li   0.3120337  -0.4445781  -0.4445781 SPIN=   0.00000
   O  -0.3781461  -0.6048521  -0.3225960 SPIN=   0.00000
   O  -0.2683931  -0.5963898   0.1310491 SPIN=   0.00000
   O   0.0371947  -0.2328098   0.0401368 SPIN=   0.00000
   O  -0.5134841  -0.3334557  -0.0605792 SPIN=   0.00000
   O  -0.3781461  -0.3225960  -0.6048521 SPIN=   0.00000
   O  -0.2683931   0.1310491  -0.5963898 SPIN=   0.00000
   O   0.0371947   0.0401368  -0.2328098 SPIN=   0.00000
   O  -0.5134841  -0.0605792  -0.3334557 SPIN=   0.00000
   P  -0.1587687  -0.1013073  -0.1013073 SPIN=   0.00000
   P  -0.2951260   0.4001948   0.4001948 SPIN=   0.00000
  Fe   0.0186496   0.4125793  -0.0471872 SPIN=   4.00000
  Fe   0.0186496  -0.0471872   0.4125793 SPIN=   4.00000
%ENDBLOCK POSITIONS_FRAC

# Note: total spin =   8.00

KPOINTS_MP_SPACING 0.07

%BLOCK SPECIES_POT
QC5
%ENDBLOCK SPECIES_POT

%BLOCK HUBBARD_U
Fe d:4.0
%ENDBLOCK HUBBARD_U

SNAP_TO_SYMMETRY
SYMMETRY_GENERATE

