#              Generated by Buildcell
#
# at 17:04:38 (GMT+0.0) 26th November 2020
# in /lustre/scratch/uccabz1/launch_tmp
# on node-c12c-024
# by uccabz1
#
# compiler GCC version 4.9.2
# options -cpp -iprefix /lustre/shared/ucl/apps/gcc/4.9.2/bin/../lib/gcc/x86_64-unknown-linux-gnu/4.9.2/ -mtune=corei7 -march=x86-64 -g -Og
#
# seed -1138227277   514573567  -484786329   469492963   877013241 -1630211660  -728204821 -1386121708 -1823735409 -1173658480  1728907028  1136677663
#
#      Author: C. J. Pickard (cjp20@cam.ac.uk)
#                Space group: C2
#

%BLOCK LATTICE_ABC
      4.22783      9.14705      9.14705
    107.75531    100.62028    100.62028
%ENDBLOCK LATTICE_ABC

%BLOCK POSITIONS_FRAC
  Li   0.2051979   0.1541304   0.1981158 SPIN=   0.00000
  Li  -0.2051979  -0.1981158  -0.1541304 SPIN=   0.00000
  Li  -0.2377639  -0.4934593   0.0041894 SPIN=   0.00000
  Li   0.2377639  -0.0041894   0.4934593 SPIN=   0.00000
   O   0.4774592   0.6062315   0.1606381 SPIN=   0.00000
   O  -0.0259784   0.4066723   0.1776609 SPIN=   0.00000
   O   0.3783987   0.2999738   0.0408219 SPIN=   0.00000
   O   0.5458543   0.4345676   0.3364508 SPIN=   0.00000
   P   0.3534259   0.4458524   0.1797803 SPIN=   0.00000
   O  -0.4774592  -0.1606381  -0.6062315 SPIN=   0.00000
   O   0.0259784  -0.1776609  -0.4066723 SPIN=   0.00000
   O  -0.3783987  -0.0408219  -0.2999738 SPIN=   0.00000
   O  -0.5458543  -0.3364508  -0.4345676 SPIN=   0.00000
   P  -0.3534259  -0.1797803  -0.4458524 SPIN=   0.00000
   O  -0.5211225   0.1799024   0.4287249 SPIN=   0.00000
   O   0.0495397   0.3319385   0.4151164 SPIN=   0.00000
   O   0.0454454   0.1852475   0.6013981 SPIN=   0.00000
   O  -0.1095317   0.0344801   0.3085925 SPIN=   0.00000
   P  -0.1542463   0.1809815   0.4364072 SPIN=   0.00000
   O   0.5211225  -0.4287249  -0.1799024 SPIN=   0.00000
   O  -0.0495397  -0.4151164  -0.3319385 SPIN=   0.00000
   O  -0.0454454  -0.6013981  -0.1852475 SPIN=   0.00000
   O   0.1095317  -0.3085925  -0.0344801 SPIN=   0.00000
   P   0.1542463  -0.4364072  -0.1809815 SPIN=   0.00000
  Fe  -0.0000000   0.1646412  -0.1646412 SPIN=   0.90580
  Fe   0.5000000  -0.1622915   0.1622915 SPIN=   6.38148
  Fe   0.0000000  -0.3920453   0.3920453 SPIN=   6.90784
  Fe  -0.5000000   0.3866765  -0.3866765 SPIN=   1.80488
%ENDBLOCK POSITIONS_FRAC

# Note: total spin =  16.00

KPOINTS_MP_SPACING 0.07

%BLOCK SPECIES_POT
QC5
%ENDBLOCK SPECIES_POT

%BLOCK HUBBARD_U
Fe d:4.0
%ENDBLOCK HUBBARD_U

SNAP_TO_SYMMETRY
SYMMETRY_GENERATE

