#              Generated by Buildcell
#
# at 13:08:36 (GMT+0.0) 26th November 2020
# in /scratch/scratch/uccabz1/launch_tmp
# on node-a14c-005
# by uccabz1
#
# compiler GCC version 4.9.2
# options -cpp -iprefix /scratch/UCL/applications/gcc/4.9.2/bin/../lib/gcc/x86_64-unknown-linux-gnu/4.9.2/ -mtune=corei7 -march=x86-64 -g -O2
#
# seed    56686099  1590419323 -2126997083  1752509975  2068725528 -1747494532   535748918  -611879843   583176131   388837185  1637035799  1952996262
#
#      Author: C. J. Pickard (cjp20@cam.ac.uk)
#                Space group: Pna21
#

%BLOCK LATTICE_ABC
      5.70350      6.87986      8.15510
     90.00000     90.00000     90.00000
%ENDBLOCK LATTICE_ABC

%BLOCK POSITIONS_FRAC
  Li   0.1123948   0.3888627   0.2434052 SPIN=   0.00000
  Li  -0.1123948  -0.3888627  -0.2565948 SPIN=   0.00000
  Li  -0.3876052   0.1111373   0.2434052 SPIN=   0.00000
  Li   0.3876052  -0.1111373  -0.2565948 SPIN=   0.00000
   O  -0.5047287  -0.0246441  -0.0008634 SPIN=   0.00000
   O  -0.1317029   0.1825763   0.0527287 SPIN=   0.00000
   O  -0.1193520  -0.0636808  -0.1674972 SPIN=   0.00000
   O  -0.3614592   0.2367369  -0.2049485 SPIN=   0.00000
   P  -0.2922825   0.0788463  -0.0773966 SPIN=   0.00000
   O   0.5047287   0.0246441   0.4991366 SPIN=   0.00000
   O   0.1317029  -0.1825763   0.5527287 SPIN=   0.00000
   O   0.1193520   0.0636808   0.3325028 SPIN=   0.00000
   O   0.3614592  -0.2367369   0.2950515 SPIN=   0.00000
   P   0.2922825  -0.0788463   0.4226034 SPIN=   0.00000
   O  -0.0047287   0.5246441  -0.0008634 SPIN=   0.00000
   O   0.3682971   0.3174237   0.0527287 SPIN=   0.00000
   O   0.3806480   0.5636808  -0.1674972 SPIN=   0.00000
   O   0.1385408   0.2632631  -0.2049485 SPIN=   0.00000
   P   0.2077175   0.4211537  -0.0773966 SPIN=   0.00000
   O   0.0047287  -0.5246441   0.4991366 SPIN=   0.00000
   O  -0.3682971  -0.3174237   0.5527287 SPIN=   0.00000
   O  -0.3806480  -0.5636808   0.3325028 SPIN=   0.00000
   O  -0.1385408  -0.2632631   0.2950515 SPIN=   0.00000
   P  -0.2077175  -0.4211537   0.4226034 SPIN=   0.00000
  Fe   0.3877479   0.4432716  -0.4044374 SPIN=   4.00000
  Fe  -0.3877479  -0.4432716   0.0955626 SPIN=   4.00000
  Fe  -0.1122521   0.0567284  -0.4044374 SPIN=   4.00000
  Fe   0.1122521  -0.0567284   0.0955626 SPIN=   4.00000
%ENDBLOCK POSITIONS_FRAC

# Note: total spin =  16.00

KPOINTS_MP_SPACING 0.07

%BLOCK SPECIES_POT
QC5
%ENDBLOCK SPECIES_POT

%BLOCK HUBBARD_U
Fe d:4.0
%ENDBLOCK HUBBARD_U

SNAP_TO_SYMMETRY
SYMMETRY_GENERATE

