#              Generated by Buildcell
#
# at 11:30:15 (GMT+0.0) 26th November 2020
# in /lustre/scratch/uccabz1/launch_tmp
# on node-c12g-020
# by uccabz1
#
# compiler GCC version 4.9.2
# options -cpp -iprefix /lustre/shared/ucl/apps/gcc/4.9.2/bin/../lib/gcc/x86_64-unknown-linux-gnu/4.9.2/ -mtune=corei7 -march=x86-64 -g -Og
#
# seed  1594255146  -660216062 -1516492182   988935775 -1312852451  1989876131 -1073914887   684444106  -482091660 -1864406323   841262291  1650719669
#
#      Author: C. J. Pickard (cjp20@cam.ac.uk)
#                Space group: Pna21
#

%BLOCK LATTICE_ABC
      5.55864      7.09212      8.11718
     90.00000     90.00000     90.00000
%ENDBLOCK LATTICE_ABC

%BLOCK POSITIONS_FRAC
  Li   0.0457562  -0.4935726  -0.3184170 SPIN=   0.00000
  Li  -0.4542438   0.4935726   0.3184170 SPIN=   0.00000
  Li   0.0457562   0.0064274  -0.1815830 SPIN=   0.00000
  Li  -0.4542438  -0.0064274   0.1815830 SPIN=   0.00000
   O   0.4206441  -0.0632997  -0.1114294 SPIN=   0.00000
   O   0.4848071  -0.2947245   0.1327625 SPIN=   0.00000
   O   0.2355212  -0.3994955  -0.1019094 SPIN=   0.00000
   O   0.6805215  -0.3636127  -0.1385365 SPIN=   0.00000
   P   0.4561813  -0.2697132  -0.0587830 SPIN=   0.00000
   O  -0.0793559   0.0632997   0.1114294 SPIN=   0.00000
   O  -0.0151929   0.2947245  -0.1327625 SPIN=   0.00000
   O  -0.2644788   0.3994955   0.1019094 SPIN=   0.00000
   O   0.1805215   0.3636127   0.1385365 SPIN=   0.00000
   P  -0.0438187   0.2697132   0.0587830 SPIN=   0.00000
   O   0.4206441   0.4367003  -0.3885706 SPIN=   0.00000
   O   0.4848071   0.2052755  -0.6327625 SPIN=   0.00000
   O   0.2355212   0.1005045  -0.3980906 SPIN=   0.00000
   O   0.6805215   0.1363873  -0.3614635 SPIN=   0.00000
   P   0.4561813   0.2302868  -0.4412170 SPIN=   0.00000
   O  -0.0793559  -0.4367003   0.3885706 SPIN=   0.00000
   O  -0.0151929  -0.2052755   0.6327625 SPIN=   0.00000
   O  -0.2644788  -0.1005045   0.3980906 SPIN=   0.00000
   O   0.1805215  -0.1363873   0.3614635 SPIN=   0.00000
   P  -0.0438187  -0.2302868   0.4412170 SPIN=   0.00000
  Fe   0.4944339   0.3294039  -0.0994101 SPIN=   4.00000
  Fe  -0.0055661  -0.3294039   0.0994101 SPIN=   4.00000
  Fe   0.4944339  -0.1705961  -0.4005899 SPIN=   4.00000
  Fe  -0.0055661   0.1705961   0.4005899 SPIN=   4.00000
%ENDBLOCK POSITIONS_FRAC

# Note: total spin =  16.00

KPOINTS_MP_SPACING 0.07

%BLOCK SPECIES_POT
QC5
%ENDBLOCK SPECIES_POT

%BLOCK HUBBARD_U
Fe d:4.0
%ENDBLOCK HUBBARD_U

SNAP_TO_SYMMETRY
SYMMETRY_GENERATE

