#              Generated by Buildcell
#
# at 00:07:20 (GMT+0.0) 27th November 2020
# in /lustre/scratch/uccabz1/launch_tmp
# on node-c12d-030
# by uccabz1
#
# compiler GCC version 4.9.2
# options -cpp -iprefix /lustre/shared/ucl/apps/gcc/4.9.2/bin/../lib/gcc/x86_64-unknown-linux-gnu/4.9.2/ -mtune=corei7 -march=x86-64 -g -Og
#
# seed  -126983525  -191483748   317090612  -356534770    22114461 -1860078880  -657487218   471495453   850138273 -1344540689 -1802057519  -353120077
#
#      Author: C. J. Pickard (cjp20@cam.ac.uk)
#                Space group: I4
#

%BLOCK LATTICE_ABC
      7.46717      7.46717      7.46717
    107.17189    110.63297    110.63297
%ENDBLOCK LATTICE_ABC

%BLOCK POSITIONS_FRAC
  Li  -0.1557880  -0.3333616  -0.0293309 SPIN=   0.00000
  Li   0.1557880   0.1264571  -0.1775736 SPIN=   0.00000
  Li   0.3040307  -0.0293309   0.1264571 SPIN=   0.00000
  Li  -0.3040307  -0.1775736  -0.3333616 SPIN=   0.00000
   O  -0.3437575   0.2195695   0.2772424 SPIN=   0.00000
   O  -0.2446156   0.6235744   0.4272077 SPIN=   0.00000
   O  -0.6392605   0.3350716   0.1719460 SPIN=   0.00000
   P  -0.4151694   0.3827983   0.3548687 SPIN=   0.00000
   O   0.3437575  -0.3790001  -0.4366730 SPIN=   0.00000
   O   0.2446156  -0.3281767  -0.1318100 SPIN=   0.00000
   O   0.6392605  -0.1887935  -0.0256679 SPIN=   0.00000
   P   0.4151694  -0.2299619  -0.2020323 SPIN=   0.00000
   O   0.0576728   0.2772424  -0.3790001 SPIN=   0.00000
   O  -0.1963667   0.4272077  -0.3281767 SPIN=   0.00000
   O  -0.1631256   0.1719460  -0.1887935 SPIN=   0.00000
   P  -0.0279296   0.3548687  -0.2299619 SPIN=   0.00000
   O  -0.0576728  -0.4366730   0.2195695 SPIN=   0.00000
   O   0.1963667  -0.1318100   0.6235744 SPIN=   0.00000
   O   0.1631256  -0.0256679   0.3350716 SPIN=   0.00000
   P   0.0279296  -0.2020323   0.3827983 SPIN=   0.00000
   O  -0.5000000   0.1871321  -0.3128679 SPIN=   0.00000
   O  -0.5000000  -0.3128679   0.1871321 SPIN=   0.00000
   O  -0.5000000   0.4371586  -0.0628414 SPIN=   0.00000
   O  -0.5000000  -0.0628414   0.4371586 SPIN=   0.00000
  Fe  -0.2285995  -0.0064103   0.3499186 SPIN=   4.00000
  Fe   0.2285995  -0.4214818   0.2221892 SPIN=   4.00000
  Fe   0.3563289   0.3499186  -0.4214818 SPIN=   4.00000
  Fe  -0.3563289   0.2221892  -0.0064103 SPIN=   4.00000
%ENDBLOCK POSITIONS_FRAC

# Note: total spin =  16.00

KPOINTS_MP_SPACING 0.07

%BLOCK SPECIES_POT
QC5
%ENDBLOCK SPECIES_POT

%BLOCK HUBBARD_U
Fe d:4.0
%ENDBLOCK HUBBARD_U

SNAP_TO_SYMMETRY
SYMMETRY_GENERATE

