#              Generated by Buildcell
#
# at 16:36:23 (GMT+0.0) 26th November 2020
# in /scratch/scratch/uccabz1/launch_tmp
# on node-a14c-005
# by uccabz1
#
# compiler GCC version 4.9.2
# options -cpp -iprefix /scratch/UCL/applications/gcc/4.9.2/bin/../lib/gcc/x86_64-unknown-linux-gnu/4.9.2/ -mtune=corei7 -march=x86-64 -g -O2
#
# seed  -895703759  -512998866 -1410536423  2071481291  -861309673   319186687   905132658 -1120983292  1903030090   605467358  2013499135  1760359718
#
#      Author: C. J. Pickard (cjp20@cam.ac.uk)
#                Space group: P21
#

%BLOCK LATTICE_ABC
      5.96005      7.09642      7.57829
     90.00000     93.27585     90.00000
%ENDBLOCK LATTICE_ABC

%BLOCK POSITIONS_FRAC
  Li   0.0835120  -0.0561866  -0.4904989 SPIN=   0.00000
  Li  -0.0835120   0.4438134   0.4904989 SPIN=   0.00000
  Li  -0.2680822   0.4996339   0.0753217 SPIN=   0.00000
  Li   0.2680822  -0.0003661  -0.0753217 SPIN=   0.00000
   O  -0.3997558  -0.4632969   0.3853340 SPIN=   0.00000
   O  -0.4931657  -0.1397241   0.2384986 SPIN=   0.00000
   O  -0.2625307  -0.1438954   0.5198263 SPIN=   0.00000
   O  -0.0982090  -0.2608867   0.2433814 SPIN=   0.00000
   P  -0.3154729  -0.2633094   0.3475939 SPIN=   0.00000
   O   0.3997558   0.0367031  -0.3853340 SPIN=   0.00000
   O   0.4931657   0.3602759  -0.2384986 SPIN=   0.00000
   O   0.2625307   0.3561046  -0.5198263 SPIN=   0.00000
   O   0.0982090   0.2391133  -0.2433814 SPIN=   0.00000
   P   0.3154729   0.2366906  -0.3475939 SPIN=   0.00000
   O  -0.1289494   0.1613011   0.4094467 SPIN=   0.00000
   O   0.0387650   0.3999986   0.1928623 SPIN=   0.00000
   O   0.1751068   0.0713352   0.1919413 SPIN=   0.00000
   O  -0.2154868   0.1442204   0.0719508 SPIN=   0.00000
   P  -0.0399268   0.1918714   0.2251146 SPIN=   0.00000
   O   0.1289494  -0.3386989  -0.4094467 SPIN=   0.00000
   O  -0.0387650  -0.1000014  -0.1928623 SPIN=   0.00000
   O  -0.1751068  -0.4286648  -0.1919413 SPIN=   0.00000
   O   0.2154868  -0.3557796  -0.0719508 SPIN=   0.00000
   P   0.0399268  -0.3081286  -0.2251146 SPIN=   0.00000
  Fe  -0.2414063   0.1451935  -0.2055410 SPIN=   3.60896
  Fe   0.2414063  -0.3548065   0.2055410 SPIN=   3.60896
  Fe  -0.4992187  -0.3534233  -0.3076506 SPIN=   4.39104
  Fe   0.4992187   0.1465767   0.3076506 SPIN=   4.39104
%ENDBLOCK POSITIONS_FRAC

# Note: total spin =  16.00

KPOINTS_MP_SPACING 0.07

%BLOCK SPECIES_POT
QC5
%ENDBLOCK SPECIES_POT

%BLOCK HUBBARD_U
Fe d:4.0
%ENDBLOCK HUBBARD_U

SNAP_TO_SYMMETRY
SYMMETRY_GENERATE

