#              Generated by Buildcell
#
# at 13:43:07 (GMT+0.0) 24th November 2020
# in /lustre/scratch/uccabz1/launch_tmp
# on node-c12e-020
# by uccabz1
#
# compiler GCC version 4.9.2
# options -cpp -iprefix /lustre/shared/ucl/apps/gcc/4.9.2/bin/../lib/gcc/x86_64-unknown-linux-gnu/4.9.2/ -mtune=corei7 -march=x86-64 -g -Og
#
# seed  -573988410  1487140635  -632446909   951502230 -1569444469 -1018485732  -249247427 -1574678538  1967922467  1152432396  -111909090  1938435028
#
#      Author: C. J. Pickard (cjp20@cam.ac.uk)
#                Space group: P21
#

%BLOCK LATTICE_ABC
      4.56461      5.26574      7.10167
     90.00000     90.00000    110.39087
%ENDBLOCK LATTICE_ABC

%BLOCK POSITIONS_FRAC
  Li  -0.0990111  -0.2410557   0.3363725 SPIN=   0.00000
  Li   0.0990111   0.2410557  -0.1636275 SPIN=   0.00000
   O  -0.3374487  -0.1866104   0.0919355 SPIN=   0.00000
   O   0.2292868  -0.0619714  -0.0348068 SPIN=   0.00000
   O  -0.0777000  -0.5442697   0.0227842 SPIN=   0.00000
   O  -0.2203633  -0.3031885  -0.2466103 SPIN=   0.00000
   P  -0.1155184  -0.2697007  -0.0369788 SPIN=   0.00000
   O   0.3374487   0.1866104   0.5919355 SPIN=   0.00000
   O  -0.2292868   0.0619714   0.4651932 SPIN=   0.00000
   O   0.0777000   0.5442697   0.5227842 SPIN=   0.00000
   O   0.2203633   0.3031885   0.2533897 SPIN=   0.00000
   P   0.1155184   0.2697007   0.4630212 SPIN=   0.00000
  Fe   0.4362584  -0.1581939  -0.3378723 SPIN=   4.00000
  Fe  -0.4362584   0.1581939   0.1621277 SPIN=   4.00000
%ENDBLOCK POSITIONS_FRAC

# Note: total spin =   8.00

KPOINTS_MP_SPACING 0.07

%BLOCK SPECIES_POT
QC5
%ENDBLOCK SPECIES_POT

%BLOCK HUBBARD_U
Fe d:4.0
%ENDBLOCK HUBBARD_U

SNAP_TO_SYMMETRY
SYMMETRY_GENERATE

