#              Generated by Buildcell
#
# at 16:22:30 (GMT+0.0) 26th November 2020
# in /lustre/scratch/uccabz1/launch_tmp
# on node-c12k-026
# by uccabz1
#
# compiler GCC version 4.9.2
# options -cpp -iprefix /lustre/shared/ucl/apps/gcc/4.9.2/bin/../lib/gcc/x86_64-unknown-linux-gnu/4.9.2/ -mtune=corei7 -march=x86-64 -g -Og
#
# seed -1175299889   862145745  2006929331   895323555   108704185  1549647202 -1600252659  1802448632 -1949978027   -43910782 -1054894550   383440609
#
#      Author: C. J. Pickard (cjp20@cam.ac.uk)
#                Space group: Pc
#

%BLOCK LATTICE_ABC
      6.04776      7.20172      7.75277
     90.00000     90.00000    108.61569
%ENDBLOCK LATTICE_ABC

%BLOCK POSITIONS_FRAC
  Li  -0.2837323  -0.2886465  -0.1522885 SPIN=   0.00000
  Li   0.2162677   0.2113535   0.1522885 SPIN=   0.00000
  Li   0.1012442   0.1098705  -0.2280553 SPIN=   0.00000
  Li  -0.3987558  -0.3901295   0.2280553 SPIN=   0.00000
   O   0.5263226   0.3676006   0.3947679 SPIN=   0.00000
   O   0.4333187   0.1358573   0.6606019 SPIN=   0.00000
   O   0.1078650   0.2120041   0.5171492 SPIN=   0.00000
   O   0.3025198  -0.0023245   0.3676485 SPIN=   0.00000
   P   0.3518220   0.1862331   0.4788499 SPIN=   0.00000
   O   0.0263226  -0.1323994  -0.3947679 SPIN=   0.00000
   O  -0.0666813  -0.3641427  -0.6606019 SPIN=   0.00000
   O  -0.3921350  -0.2879959  -0.5171492 SPIN=   0.00000
   O  -0.1974802  -0.5023245  -0.3676485 SPIN=   0.00000
   P  -0.1481780  -0.3137669  -0.4788499 SPIN=   0.00000
   O   0.0125192   0.3537160  -0.1263102 SPIN=   0.00000
   O   0.3919432   0.4636886  -0.3095199 SPIN=   0.00000
   O   0.2912773   0.7127457  -0.1357058 SPIN=   0.00000
   O   0.4221585   0.4568944   0.0124379 SPIN=   0.00000
   P   0.2669443   0.4886742  -0.1372613 SPIN=   0.00000
   O  -0.4874808  -0.1462840   0.1263102 SPIN=   0.00000
   O  -0.1080568  -0.0363114   0.3095199 SPIN=   0.00000
   O  -0.2087227   0.2127457   0.1357058 SPIN=   0.00000
   O  -0.0778415  -0.0431056  -0.0124379 SPIN=   0.00000
   P  -0.2330557  -0.0113258   0.1372613 SPIN=   0.00000
  Fe  -0.3494161   0.2409771  -0.1066146 SPIN=   3.96304
  Fe   0.1505839  -0.2590229   0.1066146 SPIN=   3.96304
  Fe   0.3405508  -0.1958734  -0.4124865 SPIN=   4.03696
  Fe  -0.1594492   0.3041266   0.4124865 SPIN=   4.03696
%ENDBLOCK POSITIONS_FRAC

# Note: total spin =  16.00

KPOINTS_MP_SPACING 0.07

%BLOCK SPECIES_POT
QC5
%ENDBLOCK SPECIES_POT

%BLOCK HUBBARD_U
Fe d:4.0
%ENDBLOCK HUBBARD_U

SNAP_TO_SYMMETRY
SYMMETRY_GENERATE

