#              Generated by Buildcell
#
# at 13:42:48 (GMT+0.0) 24th November 2020
# in /scratch/scratch/uccabz1/launch_tmp
# on node-k10b-024
# by uccabz1
#
# compiler GCC version 4.9.2
# options -cpp -iprefix /scratch/UCL/applications/gcc/4.9.2/bin/../lib/gcc/x86_64-unknown-linux-gnu/4.9.2/ -mtune=corei7 -march=x86-64 -g -O2
#
# seed   718329647 -1953051333  1522735206  1814477208  -411759141   336499957  1516124528   269010564  1438683811  2110961943  -429899678 -1356365885
#
#      Author: C. J. Pickard (cjp20@cam.ac.uk)
#                Space group: C2
#

%BLOCK LATTICE_ABC
      4.79366      5.11406      7.80126
     76.92184     72.10723     62.05170
%ENDBLOCK LATTICE_ABC

%BLOCK POSITIONS_FRAC
  Li  -0.3361753   0.0998815  -0.3871517 SPIN=   0.00000
  Li   0.3765545  -0.0998815   0.3871517 SPIN=   0.00000
   O   0.3962010  -0.3065720   0.1037718 SPIN=   0.00000
   O  -0.2195558  -0.1598384   0.1590273 SPIN=   0.00000
   O   0.1357606  -0.6709167   0.2624656 SPIN=   0.00000
   O   0.0151725  -0.2447808   0.4234284 SPIN=   0.00000
   P   0.0978424  -0.3422639   0.2322683 SPIN=   0.00000
   O   0.1934008   0.3065720  -0.1037718 SPIN=   0.00000
   O  -0.2203669   0.1598384  -0.1590273 SPIN=   0.00000
   O  -0.2726905   0.6709167  -0.2624656 SPIN=   0.00000
   O   0.1938200   0.2447808  -0.4234284 SPIN=   0.00000
   P  -0.0121531   0.3422639  -0.2322683 SPIN=   0.00000
  Fe   0.2526824  -0.2935129  -0.1749498 SPIN=   4.00000
  Fe  -0.2157804   0.2935129   0.1749498 SPIN=   4.00000
%ENDBLOCK POSITIONS_FRAC

# Note: total spin =   8.00

KPOINTS_MP_SPACING 0.07

%BLOCK SPECIES_POT
QC5
%ENDBLOCK SPECIES_POT

%BLOCK HUBBARD_U
Fe d:4.0
%ENDBLOCK HUBBARD_U

SNAP_TO_SYMMETRY
SYMMETRY_GENERATE

