#              Generated by Buildcell
#
# at 14:09:27 (GMT+0.0) 26th November 2020
# in /lustre/scratch/uccabz1/launch_tmp
# on node-c12k-026
# by uccabz1
#
# compiler GCC version 4.9.2
# options -cpp -iprefix /lustre/shared/ucl/apps/gcc/4.9.2/bin/../lib/gcc/x86_64-unknown-linux-gnu/4.9.2/ -mtune=corei7 -march=x86-64 -g -Og
#
# seed   530152843   629069686 -1193683038 -1579332795  -564687295   702172492 -1389897637   442616108  1433952018  1744854438  1946373679  1513070955
#
#      Author: C. J. Pickard (cjp20@cam.ac.uk)
#                Space group: Cc
#

%BLOCK LATTICE_ABC
      5.81109      7.56273      7.56273
     89.33568     78.92928     78.92928
%ENDBLOCK LATTICE_ABC

%BLOCK POSITIONS_FRAC
  Li   0.3932914  -0.0538660  -0.3097592 SPIN=   0.00000
  Li  -0.1067086  -0.3097592  -0.0538660 SPIN=   0.00000
  Li   0.3398006   0.4747113   0.1906898 SPIN=   0.00000
  Li  -0.1601994   0.1906898   0.4747113 SPIN=   0.00000
   O  -0.2315717  -0.4084172   0.5450127 SPIN=   0.00000
   O  -0.1215595  -0.4342837   0.1954709 SPIN=   0.00000
   O  -0.4098855  -0.6115681   0.3543471 SPIN=   0.00000
   O  -0.5314326  -0.2760801   0.3436371 SPIN=   0.00000
   P  -0.3211641  -0.4294534   0.3692998 SPIN=   0.00000
   O   0.2684283   0.5450127  -0.4084172 SPIN=   0.00000
   O   0.3784405   0.1954709  -0.4342837 SPIN=   0.00000
   O   0.0901145   0.3543471  -0.6115681 SPIN=   0.00000
   O  -0.0314326   0.3436371  -0.2760801 SPIN=   0.00000
   P   0.1788359   0.3692998  -0.4294534 SPIN=   0.00000
   O  -0.0886114   0.0024588  -0.0156417 SPIN=   0.00000
   O   0.0415589   0.0230462  -0.3624639 SPIN=   0.00000
   O  -0.2689249  -0.1535035  -0.2460823 SPIN=   0.00000
   O  -0.3659467   0.1830106  -0.2111601 SPIN=   0.00000
   P  -0.1684286   0.0151491  -0.1985777 SPIN=   0.00000
   O   0.4113886  -0.0156417   0.0024588 SPIN=   0.00000
   O   0.5415589  -0.3624639   0.0230462 SPIN=   0.00000
   O   0.2310751  -0.2460823  -0.1535035 SPIN=   0.00000
   O   0.1340533  -0.2111601   0.1830106 SPIN=   0.00000
   P   0.3315714  -0.1985777   0.0151491 SPIN=   0.00000
  Fe   0.0227791  -0.2431129  -0.4893925 SPIN=   4.09223
  Fe  -0.4772209  -0.4893925  -0.2431129 SPIN=   4.09223
  Fe  -0.4883528   0.0061517   0.2520266 SPIN=   3.90777
  Fe   0.0116472   0.2520266   0.0061517 SPIN=   3.90777
%ENDBLOCK POSITIONS_FRAC

# Note: total spin =  16.00

KPOINTS_MP_SPACING 0.07

%BLOCK SPECIES_POT
QC5
%ENDBLOCK SPECIES_POT

%BLOCK HUBBARD_U
Fe d:4.0
%ENDBLOCK HUBBARD_U

SNAP_TO_SYMMETRY
SYMMETRY_GENERATE

