#              Generated by Buildcell
#
# at 07:47:10 (GMT+0.0) 24th November 2020
# in /lustre/scratch/uccabz1/launch_tmp
# on node-c12l-023
# by uccabz1
#
# compiler GCC version 4.9.2
# options -cpp -iprefix /lustre/shared/ucl/apps/gcc/4.9.2/bin/../lib/gcc/x86_64-unknown-linux-gnu/4.9.2/ -mtune=corei7 -march=x86-64 -g -Og
#
# seed  1742105700  1821664651 -1646036929  -807812374  1126996514 -1918976342  1213576522  1718915494 -1197467349  1447704437 -1273727134  2137183186
#
#      Author: C. J. Pickard (cjp20@cam.ac.uk)
#                Space group: Pmc21
#

%BLOCK LATTICE_ABC
      5.34830      5.42722      5.51222
     90.00000     90.00000     90.00000
%ENDBLOCK LATTICE_ABC

%BLOCK POSITIONS_FRAC
  Li   0.0155606   0.0000000   0.2873991 SPIN=   0.00000
  Li  -0.4844394  -0.0000000  -0.2873991 SPIN=   0.00000
   O   0.5874441   0.2270998   0.4022743 SPIN=   0.00000
   O   0.3634982   0.2270994  -0.0159810 SPIN=   0.00000
   O   0.0874441  -0.2270998  -0.4022743 SPIN=   0.00000
   O  -0.1365018  -0.2270994   0.0159810 SPIN=   0.00000
   O   0.0874441   0.2270998  -0.4022743 SPIN=   0.00000
   O  -0.1365018   0.2270994   0.0159810 SPIN=   0.00000
   O   0.5874441  -0.2270998   0.4022743 SPIN=   0.00000
   O   0.3634982  -0.2270994  -0.0159810 SPIN=   0.00000
   P   0.0185874   0.0000000  -0.2286118 SPIN=   0.00000
   P  -0.4814126  -0.0000000   0.2286118 SPIN=   0.00000
  Fe  -0.1416552  -0.5000000  -0.2512526 SPIN=   4.00000
  Fe   0.3583448   0.5000000   0.2512526 SPIN=   4.00000
%ENDBLOCK POSITIONS_FRAC

# Note: total spin =   8.00

KPOINTS_MP_SPACING 0.07

%BLOCK SPECIES_POT
QC5
%ENDBLOCK SPECIES_POT

%BLOCK HUBBARD_U
Fe d:4.0
%ENDBLOCK HUBBARD_U

SNAP_TO_SYMMETRY
SYMMETRY_GENERATE

