#              Generated by Buildcell
#
# at 07:22:04 (GMT+0.0) 24th November 2020
# in /lustre/scratch/uccabz1/launch_tmp
# on node-c12m-036
# by uccabz1
#
# compiler GCC version 4.9.2
# options -cpp -iprefix /lustre/shared/ucl/apps/gcc/4.9.2/bin/../lib/gcc/x86_64-unknown-linux-gnu/4.9.2/ -mtune=corei7 -march=x86-64 -g -Og
#
# seed   717380407  -349695287  -421667324   222780079  1641165327 -1650359969   886951508 -1022167187    -6966842  1995484247   631477627  -993721816
#
#      Author: C. J. Pickard (cjp20@cam.ac.uk)
#                Space group: P-1
#

%BLOCK LATTICE_ABC
      3.89803      3.90090     10.87137
     90.68340     97.85824    102.06274
%ENDBLOCK LATTICE_ABC

%BLOCK POSITIONS_FRAC
  Li  -0.2427083  -0.1437629  -0.4080124 SPIN=   0.00000
  Li   0.2427083   0.1437629   0.4080124 SPIN=   0.00000
   O   0.2730862   0.4903736  -0.4310233 SPIN=   0.00000
   O   0.6586312   0.5098286  -0.2152725 SPIN=   0.00000
   O   0.0630969   0.1215879  -0.2473505 SPIN=   0.00000
   P   0.3809157   0.2806102  -0.3186963 SPIN=   0.00000
   O  -0.2730862  -0.4903736   0.4310233 SPIN=   0.00000
   O  -0.6586312  -0.5098286   0.2152725 SPIN=   0.00000
   O  -0.0630969  -0.1215879   0.2473505 SPIN=   0.00000
   P  -0.3809157  -0.2806102   0.3186963 SPIN=   0.00000
   O  -0.0000000   0.0000000  -0.0000000 SPIN=   0.00000
   O   0.5000000   0.5000000   0.0000000 SPIN=   0.00000
  Fe  -0.2013816   0.2781575   0.1392014 SPIN=   4.00000
  Fe   0.2013816  -0.2781575  -0.1392014 SPIN=   4.00000
%ENDBLOCK POSITIONS_FRAC

# Note: total spin =   8.00

KPOINTS_MP_SPACING 0.07

%BLOCK SPECIES_POT
QC5
%ENDBLOCK SPECIES_POT

%BLOCK HUBBARD_U
Fe d:4.0
%ENDBLOCK HUBBARD_U

SNAP_TO_SYMMETRY
SYMMETRY_GENERATE

