#              Generated by Buildcell
#
# at 07:43:55 (GMT+0.0) 24th November 2020
# in /lustre/scratch/uccabz1/launch_tmp
# on node-c12c-023
# by uccabz1
#
# compiler GCC version 4.9.2
# options -cpp -iprefix /lustre/shared/ucl/apps/gcc/4.9.2/bin/../lib/gcc/x86_64-unknown-linux-gnu/4.9.2/ -mtune=corei7 -march=x86-64 -g -Og
#
# seed  -707399931 -1979227862  -188220885  -798796566  2038798572  -917095586  -792814521 -1666666493 -1100633341   392592505  -575195016  1317312598
#
#      Author: C. J. Pickard (cjp20@cam.ac.uk)
#                Space group: P-1
#

%BLOCK LATTICE_ABC
      4.71722      4.76028      8.23880
     75.39068     78.67541     63.90814
%ENDBLOCK LATTICE_ABC

%BLOCK POSITIONS_FRAC
  Li  -0.0939792   0.3357295  -0.1021742 SPIN=   0.00000
  Li   0.0939792  -0.3357295   0.1021742 SPIN=   0.00000
   O   0.6281227   0.1603389   0.0925884 SPIN=   0.00000
   O   0.5740024  -0.1958571   0.3827043 SPIN=   0.00000
   O   0.2148624   0.3761238   0.3401686 SPIN=   0.00000
   O   0.1453832   0.0168401   0.1903887 SPIN=   0.00000
   O  -0.6281227  -0.1603389  -0.0925884 SPIN=   0.00000
   O  -0.5740024   0.1958571  -0.3827043 SPIN=   0.00000
   O  -0.2148624  -0.3761238  -0.3401686 SPIN=   0.00000
   O  -0.1453832  -0.0168401  -0.1903887 SPIN=   0.00000
   P  -0.5000000   0.0000000  -0.0000000 SPIN=   0.00000
   P   0.0000000   0.5000000  -0.5000000 SPIN=   0.00000
  Fe   0.2935774  -0.2358455  -0.3262415 SPIN=   4.00000
  Fe  -0.2935774   0.2358455   0.3262415 SPIN=   4.00000
%ENDBLOCK POSITIONS_FRAC

# Note: total spin =   8.00

KPOINTS_MP_SPACING 0.07

%BLOCK SPECIES_POT
QC5
%ENDBLOCK SPECIES_POT

%BLOCK HUBBARD_U
Fe d:4.0
%ENDBLOCK HUBBARD_U

SNAP_TO_SYMMETRY
SYMMETRY_GENERATE

