#              Generated by Buildcell
#
# at 15:31:08 (GMT+0.0) 26th November 2020
# in /lustre/scratch/uccabz1/launch_tmp
# on node-c12g-023
# by uccabz1
#
# compiler GCC version 4.9.2
# options -cpp -iprefix /lustre/shared/ucl/apps/gcc/4.9.2/bin/../lib/gcc/x86_64-unknown-linux-gnu/4.9.2/ -mtune=corei7 -march=x86-64 -g -Og
#
# seed -1079163658   186523728   -78730436  1830944070  -414678457  1894119491 -1790919327 -1396328680  1588831625  -283255603   169682201  1372610677
#
#      Author: C. J. Pickard (cjp20@cam.ac.uk)
#                Space group: P-1
#

%BLOCK LATTICE_ABC
      6.03101      6.16763      8.92971
     79.65354     78.85159     84.64372
%ENDBLOCK LATTICE_ABC

%BLOCK POSITIONS_FRAC
  Li   0.0889580  -0.4951747   0.1749313 SPIN=   0.00000
  Li  -0.0889580   0.4951747  -0.1749313 SPIN=   0.00000
  Li   0.1357641   0.0207493   0.1394992 SPIN=   0.00000
  Li  -0.1357641  -0.0207493  -0.1394992 SPIN=   0.00000
   O  -0.2739236   0.0155061   0.5936449 SPIN=   0.00000
   O  -0.0580464   0.2138266   0.3318371 SPIN=   0.00000
   O  -0.4701907   0.2972414   0.3996218 SPIN=   0.00000
   O  -0.2088843   0.4323136   0.5444954 SPIN=   0.00000
   P  -0.2533702   0.2300563   0.4750315 SPIN=   0.00000
   O   0.2739236  -0.0155061  -0.5936449 SPIN=   0.00000
   O   0.0580464  -0.2138266  -0.3318371 SPIN=   0.00000
   O   0.4701907  -0.2972414  -0.3996218 SPIN=   0.00000
   O   0.2088843  -0.4323136  -0.5444954 SPIN=   0.00000
   P   0.2533702  -0.2300563  -0.4750315 SPIN=   0.00000
   O  -0.2066086  -0.4563927   0.0767884 SPIN=   0.00000
   O  -0.2038421  -0.0441188   0.1034903 SPIN=   0.00000
   O  -0.5601708  -0.1820909   0.0708053 SPIN=   0.00000
   O  -0.4177637  -0.3034683   0.3200363 SPIN=   0.00000
   P  -0.3404499  -0.2583645   0.1413582 SPIN=   0.00000
   O   0.2066086   0.4563927  -0.0767884 SPIN=   0.00000
   O   0.2038421   0.0441188  -0.1034903 SPIN=   0.00000
   O   0.5601708   0.1820909  -0.0708053 SPIN=   0.00000
   O   0.4177637   0.3034683  -0.3200363 SPIN=   0.00000
   P   0.3404499   0.2583645  -0.1413582 SPIN=   0.00000
  Fe   0.1902473   0.2305103  -0.4521618 SPIN=   2.04998
  Fe  -0.1902473  -0.2305103   0.4521618 SPIN=   2.04998
  Fe   0.3947141  -0.2515677  -0.1499019 SPIN=   5.95002
  Fe  -0.3947141   0.2515677   0.1499019 SPIN=   5.95002
%ENDBLOCK POSITIONS_FRAC

# Note: total spin =  16.00

KPOINTS_MP_SPACING 0.07

%BLOCK SPECIES_POT
QC5
%ENDBLOCK SPECIES_POT

%BLOCK HUBBARD_U
Fe d:4.0
%ENDBLOCK HUBBARD_U

SNAP_TO_SYMMETRY
SYMMETRY_GENERATE

