#              Generated by Buildcell
#
# at 12:32:13 (GMT+0.0) 24th November 2020
# in /lustre/scratch/uccabz1/launch_tmp
# on node-c12f-020
# by uccabz1
#
# compiler GCC version 4.9.2
# options -cpp -iprefix /lustre/shared/ucl/apps/gcc/4.9.2/bin/../lib/gcc/x86_64-unknown-linux-gnu/4.9.2/ -mtune=corei7 -march=x86-64 -g -Og
#
# seed  2139010005  -266988111   424937660   777983393   114190783  -799927480  1512308193 -1429677524  1171192638  -985815978  1911222513   970497688
#
#      Author: C. J. Pickard (cjp20@cam.ac.uk)
#                Space group: P-1
#

%BLOCK LATTICE_ABC
      3.95097      6.12986      7.13476
     69.10549     82.37783     86.81668
%ENDBLOCK LATTICE_ABC

%BLOCK POSITIONS_FRAC
  Li  -0.1364984   0.2303024   0.0158520 SPIN=   0.00000
  Li   0.1364984  -0.2303024  -0.0158520 SPIN=   0.00000
   O  -0.0446924  -0.1058416   0.2236114 SPIN=   0.00000
   O   0.2759397  -0.1472907   0.5299771 SPIN=   0.00000
   O   0.4772682  -0.3825462   0.3182946 SPIN=   0.00000
   P   0.3021933  -0.1419413   0.3064607 SPIN=   0.00000
   O   0.0446924   0.1058416  -0.2236114 SPIN=   0.00000
   O  -0.2759397   0.1472907  -0.5299771 SPIN=   0.00000
   O  -0.4772682   0.3825462  -0.3182946 SPIN=   0.00000
   P  -0.3021933   0.1419413  -0.3064607 SPIN=   0.00000
   O   0.5000000   0.0000000   0.0000000 SPIN=   0.00000
   O   0.5000000   0.5000000   0.0000000 SPIN=   0.00000
  Fe   0.2544178  -0.7075017   0.3759394 SPIN=   4.00000
  Fe  -0.2544178   0.7075017  -0.3759394 SPIN=   4.00000
%ENDBLOCK POSITIONS_FRAC

# Note: total spin =   8.00

KPOINTS_MP_SPACING 0.07

%BLOCK SPECIES_POT
QC5
%ENDBLOCK SPECIES_POT

%BLOCK HUBBARD_U
Fe d:4.0
%ENDBLOCK HUBBARD_U

SNAP_TO_SYMMETRY
SYMMETRY_GENERATE

