#              Generated by Buildcell
#
# at 05:57:55 (GMT+0.0) 24th November 2020
# in /lustre/scratch/uccabz1/launch_tmp
# on node-c12n-022
# by uccabz1
#
# compiler GCC version 4.9.2
# options -cpp -iprefix /lustre/shared/ucl/apps/gcc/4.9.2/bin/../lib/gcc/x86_64-unknown-linux-gnu/4.9.2/ -mtune=corei7 -march=x86-64 -g -Og
#
# seed  1853162243  -419996552  1393724218   983845069  -645474085  1116266268   300600191 -1486920552   660461418     7278178  2072250220  1414653683
#
#      Author: C. J. Pickard (cjp20@cam.ac.uk)
#                Space group: P-1
#

%BLOCK LATTICE_ABC
      4.67103      5.38872      6.73989
     76.14402     79.02463     79.43075
%ENDBLOCK LATTICE_ABC

%BLOCK POSITIONS_FRAC
  Li   0.0124579  -0.2482963  -0.1559761 SPIN=   0.00000
  Li  -0.0124579   0.2482963   0.1559761 SPIN=   0.00000
   O  -0.6309002  -0.4016461  -0.3546145 SPIN=   0.00000
   O  -0.4551369  -0.2156771  -0.0840824 SPIN=   0.00000
   O  -0.1236254  -0.5637606  -0.2286425 SPIN=   0.00000
   O  -0.2106962  -0.1221314  -0.4530605 SPIN=   0.00000
   O   0.6309002   0.4016461   0.3546145 SPIN=   0.00000
   O   0.4551369   0.2156771   0.0840824 SPIN=   0.00000
   O   0.1236254   0.5637606   0.2286425 SPIN=   0.00000
   O   0.2106962   0.1221314   0.4530605 SPIN=   0.00000
   P  -0.5000000   0.5000000  -0.0000000 SPIN=   0.00000
   P   0.0000000  -0.5000000  -0.5000000 SPIN=   0.00000
  Fe  -0.4548668  -0.1932095   0.2813913 SPIN=   4.00000
  Fe   0.4548668   0.1932095  -0.2813913 SPIN=   4.00000
%ENDBLOCK POSITIONS_FRAC

# Note: total spin =   8.00

KPOINTS_MP_SPACING 0.07

%BLOCK SPECIES_POT
QC5
%ENDBLOCK SPECIES_POT

%BLOCK HUBBARD_U
Fe d:4.0
%ENDBLOCK HUBBARD_U

SNAP_TO_SYMMETRY
SYMMETRY_GENERATE

