#              Generated by Buildcell
#
# at 06:59:24 (GMT+0.0) 26th November 2020
# in /lustre/scratch/uccabz1/launch_tmp
# on node-c12d-021
# by uccabz1
#
# compiler GCC version 4.9.2
# options -cpp -iprefix /lustre/shared/ucl/apps/gcc/4.9.2/bin/../lib/gcc/x86_64-unknown-linux-gnu/4.9.2/ -mtune=corei7 -march=x86-64 -g -Og
#
# seed -2061457504  1909067561  1364124975  -317660674  -531400816  -195782442 -1059755710  -901577641   256520901  1352480159 -1120679464  -322565348
#
#      Author: C. J. Pickard (cjp20@cam.ac.uk)
#                Space group: Ama2
#

%BLOCK LATTICE_ABC
      6.13549      6.27430      9.52929
     90.00000     90.00000    119.27084
%ENDBLOCK LATTICE_ABC

%BLOCK POSITIONS_FRAC
  Li  -0.2847619   0.3930783  -0.2500000 SPIN=   0.00000
  Li   0.3221598  -0.3930783   0.2500000 SPIN=   0.00000
  Li  -0.3012303   0.4088564   0.2500000 SPIN=   0.00000
  Li   0.2899133  -0.4088564  -0.2500000 SPIN=   0.00000
   O  -0.2611326   0.1342215  -0.1159677 SPIN=   0.00000
   O   0.0514836   0.5982984  -0.0915699 SPIN=   0.00000
   O  -0.0581379   0.3408340   0.1209518 SPIN=   0.00000
   P  -0.0255323   0.3314162  -0.0422672 SPIN=   0.00000
   O  -0.3953540  -0.1342215   0.1159677 SPIN=   0.00000
   O  -0.5468147  -0.5982984   0.0915699 SPIN=   0.00000
   O  -0.3989719  -0.3408340  -0.1209518 SPIN=   0.00000
   P  -0.3569484  -0.3314162   0.0422672 SPIN=   0.00000
   O  -0.3953540  -0.1342215   0.3840323 SPIN=   0.00000
   O  -0.5468147  -0.5982984   0.4084301 SPIN=   0.00000
   O  -0.3989719  -0.3408340   0.6209518 SPIN=   0.00000
   P  -0.3569484  -0.3314162   0.4577328 SPIN=   0.00000
   O  -0.2611326   0.1342215  -0.3840323 SPIN=   0.00000
   O   0.0514836   0.5982984  -0.4084301 SPIN=   0.00000
   O  -0.0581379   0.3408340  -0.6209518 SPIN=   0.00000
   P  -0.0255323   0.3314162  -0.4577328 SPIN=   0.00000
   O   0.0486259  -0.0000000  -0.0000000 SPIN=   0.00000
   O   0.0486259  -0.0000000  -0.5000000 SPIN=   0.00000
   O   0.2972467   0.2399993  -0.2500000 SPIN=   0.00000
   O   0.0572474  -0.2399993   0.2500000 SPIN=   0.00000
  Fe  -0.1036345  -0.0237312  -0.2500000 SPIN=   3.39265
  Fe  -0.0799033   0.0237312   0.2500000 SPIN=   3.39265
  Fe   0.4067701  -0.0000000  -0.0000000 SPIN=   4.60735
  Fe   0.4067701  -0.0000000  -0.5000000 SPIN=   4.60735
%ENDBLOCK POSITIONS_FRAC

# Note: total spin =  16.00

KPOINTS_MP_SPACING 0.07

%BLOCK SPECIES_POT
QC5
%ENDBLOCK SPECIES_POT

%BLOCK HUBBARD_U
Fe d:4.0
%ENDBLOCK HUBBARD_U

SNAP_TO_SYMMETRY
SYMMETRY_GENERATE

