#              Generated by Buildcell
#
# at 13:54:05 (GMT+0.0) 24th November 2020
# in /lustre/scratch/uccabz1/launch_tmp
# on node-c12g-032
# by uccabz1
#
# compiler GCC version 4.9.2
# options -cpp -iprefix /lustre/shared/ucl/apps/gcc/4.9.2/bin/../lib/gcc/x86_64-unknown-linux-gnu/4.9.2/ -mtune=corei7 -march=x86-64 -g -Og
#
# seed  -446007807  2053280892  -116822437    31533627 -1458536908 -1331118364  -967323902  -136413079 -1455008692   250819750  -126655953  -215433529
#
#      Author: C. J. Pickard (cjp20@cam.ac.uk)
#                Space group: Cmc21
#

%BLOCK LATTICE_ABC
      4.30796      4.30796      8.62144
     90.00000     90.00000     90.24443
%ENDBLOCK LATTICE_ABC

%BLOCK POSITIONS_FRAC
  Li   0.3653341  -0.3653341   0.1276310 SPIN=   0.00000
  Li  -0.3653341   0.3653341  -0.3723690 SPIN=   0.00000
   O  -0.8479162   0.2936948  -0.3345707 SPIN=   0.00000
   O  -0.5124697   0.1040839  -0.5660970 SPIN=   0.00000
   O   0.8479162  -0.2936948   0.1654293 SPIN=   0.00000
   O   0.5124697  -0.1040839  -0.0660970 SPIN=   0.00000
   O  -0.7063052   0.1520838   0.1654293 SPIN=   0.00000
   O  -0.8959161   0.4875303  -0.0660970 SPIN=   0.00000
   O   0.7063052  -0.1520838  -0.3345707 SPIN=   0.00000
   O   0.8959161  -0.4875303  -0.5660970 SPIN=   0.00000
   P  -0.2796839   0.2796839  -0.0571871 SPIN=   0.00000
   P   0.2796839  -0.2796839   0.4428129 SPIN=   0.00000
  Fe   0.1367544  -0.1367544  -0.2204879 SPIN=   4.00000
  Fe  -0.1367544   0.1367544   0.2795121 SPIN=   4.00000
%ENDBLOCK POSITIONS_FRAC

# Note: total spin =   8.00

KPOINTS_MP_SPACING 0.07

%BLOCK SPECIES_POT
QC5
%ENDBLOCK SPECIES_POT

%BLOCK HUBBARD_U
Fe d:4.0
%ENDBLOCK HUBBARD_U

SNAP_TO_SYMMETRY
SYMMETRY_GENERATE

