#              Generated by Buildcell
#
# at 19:41:21 (GMT+0.0) 26th November 2020
# in /lustre/scratch/uccabz1/launch_tmp
# on node-c12k-032
# by uccabz1
#
# compiler GCC version 4.9.2
# options -cpp -iprefix /lustre/shared/ucl/apps/gcc/4.9.2/bin/../lib/gcc/x86_64-unknown-linux-gnu/4.9.2/ -mtune=corei7 -march=x86-64 -g -Og
#
# seed  1582298774 -1246514884  -839060550  -610671544 -1658916789   988129185 -2033886332   546381907  -429365415 -1884537436   425202710  1904857125
#
#      Author: C. J. Pickard (cjp20@cam.ac.uk)
#                Space group: C2
#

%BLOCK LATTICE_ABC
      7.28902      7.36148      7.36148
     64.61709     68.02920     68.02920
%ENDBLOCK LATTICE_ABC

%BLOCK POSITIONS_FRAC
  Li   0.2270446  -0.3347617   0.1829858 SPIN=   0.00000
  Li  -0.2270446  -0.1829858   0.3347617 SPIN=   0.00000
  Li  -0.1489021   0.1725343  -0.2777219 SPIN=   0.00000
  Li   0.1489021   0.2777219  -0.1725343 SPIN=   0.00000
   O   0.1347215  -0.3948678  -0.2036910 SPIN=   0.00000
   O   0.3276473  -0.2429547  -0.5891409 SPIN=   0.00000
   O   0.1762140  -0.5312193  -0.4927661 SPIN=   0.00000
   O  -0.0532665  -0.1784136  -0.4957116 SPIN=   0.00000
   P   0.1433556  -0.3380824  -0.4330560 SPIN=   0.00000
   O  -0.1347215   0.2036910   0.3948678 SPIN=   0.00000
   O  -0.3276473   0.5891409   0.2429547 SPIN=   0.00000
   O  -0.1762140   0.4927661   0.5312193 SPIN=   0.00000
   O   0.0532665   0.4957116   0.1784136 SPIN=   0.00000
   P  -0.1433556   0.4330560   0.3380824 SPIN=   0.00000
   O  -0.5415215   0.0824910   0.3175279 SPIN=   0.00000
   O  -0.5755947   0.2815895  -0.0619446 SPIN=   0.00000
   O  -0.2967287   0.3069581   0.0324127 SPIN=   0.00000
   O  -0.2794990  -0.0284574   0.0082543 SPIN=   0.00000
   P  -0.4279314   0.1542524   0.0862492 SPIN=   0.00000
   O   0.5415215  -0.3175279  -0.0824910 SPIN=   0.00000
   O   0.5755947   0.0619446  -0.2815895 SPIN=   0.00000
   O   0.2967287  -0.0324127  -0.3069581 SPIN=   0.00000
   O   0.2794990  -0.0082543   0.0284574 SPIN=   0.00000
   P   0.4279314  -0.0862492  -0.1542524 SPIN=   0.00000
  Fe   0.4600460  -0.4232869  -0.2559219 SPIN=   2.62734
  Fe  -0.4600460   0.2559219   0.4232869 SPIN=   2.62734
  Fe  -0.1793638  -0.3064368  -0.0710093 SPIN=   5.37266
  Fe   0.1793638   0.0710093   0.3064368 SPIN=   5.37266
%ENDBLOCK POSITIONS_FRAC

# Note: total spin =  16.00

KPOINTS_MP_SPACING 0.07

%BLOCK SPECIES_POT
QC5
%ENDBLOCK SPECIES_POT

%BLOCK HUBBARD_U
Fe d:4.0
%ENDBLOCK HUBBARD_U

SNAP_TO_SYMMETRY
SYMMETRY_GENERATE

