#              Generated by Buildcell
#
# at 15:28:53 (GMT+0.0) 26th November 2020
# in /lustre/scratch/uccabz1/launch_tmp
# on node-c12l-026
# by uccabz1
#
# compiler GCC version 4.9.2
# options -cpp -iprefix /lustre/shared/ucl/apps/gcc/4.9.2/bin/../lib/gcc/x86_64-unknown-linux-gnu/4.9.2/ -mtune=corei7 -march=x86-64 -g -Og
#
# seed   949895190  -744640263  -716988993   833104376  1918047033 -1611345453   803860402   133179374 -1333835778 -1906399863   327553687   472557001
#
#      Author: C. J. Pickard (cjp20@cam.ac.uk)
#                Space group: Cc
#

%BLOCK LATTICE_ABC
      7.14022      7.14022      7.56517
    111.70258    111.70258     95.83668
%ENDBLOCK LATTICE_ABC

%BLOCK POSITIONS_FRAC
  Li  -0.2690575  -0.2086399  -0.3954388 SPIN=   0.00000
  Li   0.2913601   0.2309425   0.1045612 SPIN=   0.00000
  Li  -0.0694828  -0.0145867   0.1516871 SPIN=   0.00000
  Li   0.4854133   0.4305172  -0.3483129 SPIN=   0.00000
   O  -0.2227952   0.0490358  -0.1157444 SPIN=   0.00000
   O  -0.5042635   0.2540629  -0.1557106 SPIN=   0.00000
   O  -0.5248531  -0.0008833  -0.0099703 SPIN=   0.00000
   O  -0.2358698   0.3346016   0.2077050 SPIN=   0.00000
   P  -0.3623980   0.1554082  -0.0209429 SPIN=   0.00000
   O  -0.4509642   0.2772048   0.3842556 SPIN=   0.00000
   O  -0.2459371  -0.0042635   0.3442894 SPIN=   0.00000
   O  -0.5008833  -0.0248531   0.4900297 SPIN=   0.00000
   O  -0.1653984   0.2641302   0.7077050 SPIN=   0.00000
   P  -0.3445918   0.1376020   0.4790571 SPIN=   0.00000
   O   0.4502718  -0.4293995   0.2788150 SPIN=   0.00000
   O   0.1883623  -0.6008802   0.3758608 SPIN=   0.00000
   O   0.4478987  -0.2619446   0.6465991 SPIN=   0.00000
   O   0.1521001  -0.2746657   0.3296941 SPIN=   0.00000
   P   0.3152858  -0.3923472   0.3999564 SPIN=   0.00000
   O   0.0706005  -0.0497282  -0.2211850 SPIN=   0.00000
   O  -0.1008802  -0.3116377  -0.1241392 SPIN=   0.00000
   O   0.2380554  -0.0521013   0.1465991 SPIN=   0.00000
   O   0.2253343  -0.3478999  -0.1703059 SPIN=   0.00000
   P   0.1076528  -0.1847142  -0.1000436 SPIN=   0.00000
  Fe  -0.0642579   0.4927781   0.0291640 SPIN=   4.55424
  Fe  -0.0072219   0.4357421  -0.4708360 SPIN=   4.55424
  Fe   0.4933147  -0.2615278   0.1143802 SPIN=   3.44576
  Fe   0.2384722  -0.0066853  -0.3856198 SPIN=   3.44576
%ENDBLOCK POSITIONS_FRAC

# Note: total spin =  16.00

KPOINTS_MP_SPACING 0.07

%BLOCK SPECIES_POT
QC5
%ENDBLOCK SPECIES_POT

%BLOCK HUBBARD_U
Fe d:4.0
%ENDBLOCK HUBBARD_U

SNAP_TO_SYMMETRY
SYMMETRY_GENERATE

