#              Generated by Buildcell
#
# at 09:17:14 (GMT+0.0) 24th November 2020
# in /scratch/scratch/uccabz1/launch_tmp
# on node-a14f-013
# by uccabz1
#
# compiler GCC version 4.9.2
# options -cpp -iprefix /scratch/UCL/applications/gcc/4.9.2/bin/../lib/gcc/x86_64-unknown-linux-gnu/4.9.2/ -mtune=corei7 -march=x86-64 -g -O2
#
# seed   -82211940 -2020349066 -1008822198 -1229204147   784130257 -1979471698   869757795  -315887327  1130270105   534013023  -292313511   757680353
#
#      Author: C. J. Pickard (cjp20@cam.ac.uk)
#                Space group: C2
#

%BLOCK LATTICE_ABC
      4.62451      4.62451      7.66049
     97.29961     97.29961     95.90338
%ENDBLOCK LATTICE_ABC

%BLOCK POSITIONS_FRAC
  Li  -0.3275851   0.3275851   0.0000000 SPIN=   0.00000
  Li   0.1146836  -0.1146836   0.0000000 SPIN=   0.00000
   O   0.0146696   0.5933343   0.3733091 SPIN=   0.00000
   O   0.4387626   0.2721431   0.3395687 SPIN=   0.00000
   O  -0.0691313   0.0481666   0.2255447 SPIN=   0.00000
   O   0.1726542   0.4284944   0.0682575 SPIN=   0.00000
   P   0.1330005   0.3503582   0.2559822 SPIN=   0.00000
   O  -0.5933343  -0.0146696  -0.3733091 SPIN=   0.00000
   O  -0.2721431  -0.4387626  -0.3395687 SPIN=   0.00000
   O  -0.0481666   0.0691313  -0.2255447 SPIN=   0.00000
   O  -0.4284944  -0.1726542  -0.0682575 SPIN=   0.00000
   P  -0.3503582  -0.1330005  -0.2559822 SPIN=   0.00000
  Fe  -0.8194695  -0.6063646  -0.3412025 SPIN=   4.00000
  Fe   0.6063646   0.8194695   0.3412025 SPIN=   4.00000
%ENDBLOCK POSITIONS_FRAC

# Note: total spin =   8.00

KPOINTS_MP_SPACING 0.07

%BLOCK SPECIES_POT
QC5
%ENDBLOCK SPECIES_POT

%BLOCK HUBBARD_U
Fe d:4.0
%ENDBLOCK HUBBARD_U

SNAP_TO_SYMMETRY
SYMMETRY_GENERATE

