#              Generated by Buildcell
#
# at 13:15:07 (GMT+0.0) 26th November 2020
# in /scratch/scratch/uccabz1/launch_tmp
# on node-k10e-036
# by uccabz1
#
# compiler GCC version 4.9.2
# options -cpp -iprefix /scratch/UCL/applications/gcc/4.9.2/bin/../lib/gcc/x86_64-unknown-linux-gnu/4.9.2/ -mtune=corei7 -march=x86-64 -g -O2
#
# seed  1080901870   -85923850  1036659736 -1680699473   608696182    -6994263 -2134103919   613578195 -1722579014 -1684107338  1973439931   569993288
#
#      Author: C. J. Pickard (cjp20@cam.ac.uk)
#                Space group: Cc
#

%BLOCK LATTICE_ABC
      4.78225      6.17415     12.12635
     77.80420     78.62765     67.21462
%ENDBLOCK LATTICE_ABC

%BLOCK POSITIONS_FRAC
  Li  -0.4873848   0.2212637  -0.2380726 SPIN=   0.00000
  Li  -0.4958063  -0.2787363   0.2619274 SPIN=   0.00000
  Li  -0.1373260  -0.4343830  -0.2687358 SPIN=   0.00000
  Li  -0.1595551   0.0656170   0.2312642 SPIN=   0.00000
   O  -0.2354505  -0.1310588   0.5799981 SPIN=   0.00000
   O  -0.3912261  -0.1403750   0.3880460 SPIN=   0.00000
   O  -0.1052117   0.1170244   0.3894326 SPIN=   0.00000
   O   0.1610276  -0.3249899   0.4176139 SPIN=   0.00000
   P  -0.1440684  -0.1228675   0.4507173 SPIN=   0.00000
   O  -0.2134888   0.3689412   0.0799981 SPIN=   0.00000
   O   0.1435551   0.3596250  -0.1119540 SPIN=   0.00000
   O  -0.4012453   0.6170244  -0.1105674 SPIN=   0.00000
   O  -0.2536516   0.1750101  -0.0823861 SPIN=   0.00000
   P  -0.1837813   0.3771325  -0.0492827 SPIN=   0.00000
   O   0.2477181  -0.4907651   0.0482166 SPIN=   0.00000
   O   0.0080298  -0.3055883   0.2339761 SPIN=   0.00000
   O   0.1055696  -0.0438271   0.0584052 SPIN=   0.00000
   O  -0.3129338  -0.2028779   0.0769625 SPIN=   0.00000
   P   0.0208060  -0.2723279   0.1010754 SPIN=   0.00000
   O   0.1948304   0.0092349  -0.4517834 SPIN=   0.00000
   O   0.0635824   0.1944117  -0.2660239 SPIN=   0.00000
   O  -0.1201477   0.4561729  -0.4415948 SPIN=   0.00000
   O   0.4388493   0.2971221  -0.4230375 SPIN=   0.00000
   P   0.1504465   0.2276721  -0.3989246 SPIN=   0.00000
  Fe   0.3894938   0.1486916   0.0425302 SPIN=   4.41655
  Fe   0.4192844  -0.3513084  -0.4574698 SPIN=   4.41655
  Fe   0.1601852  -0.1620145  -0.1499624 SPIN=   3.58345
  Fe   0.1517917   0.3379855   0.3500376 SPIN=   3.58345
%ENDBLOCK POSITIONS_FRAC

# Note: total spin =  16.00

KPOINTS_MP_SPACING 0.07

%BLOCK SPECIES_POT
QC5
%ENDBLOCK SPECIES_POT

%BLOCK HUBBARD_U
Fe d:4.0
%ENDBLOCK HUBBARD_U

SNAP_TO_SYMMETRY
SYMMETRY_GENERATE

