#              Generated by Buildcell
#
# at 08:10:05 (GMT+0.0) 24th November 2020
# in /lustre/scratch/uccabz1/launch_tmp
# on node-c12p-023
# by uccabz1
#
# compiler GCC version 4.9.2
# options -cpp -iprefix /lustre/shared/ucl/apps/gcc/4.9.2/bin/../lib/gcc/x86_64-unknown-linux-gnu/4.9.2/ -mtune=corei7 -march=x86-64 -g -Og
#
# seed  -648172948  1445247997  -926056805   275216666  -186242361  -220615124   513233629   397679690 -2062147726   519456345  1831491853  1479900504
#
#      Author: C. J. Pickard (cjp20@cam.ac.uk)
#                Space group: Pm
#

%BLOCK LATTICE_ABC
      4.25581      4.47475      8.60695
     90.00000     90.00000    102.53722
%ENDBLOCK LATTICE_ABC

%BLOCK POSITIONS_FRAC
  Li   0.2480330   0.1820201  -0.2777287 SPIN=   0.00000
  Li   0.2480330   0.1820201   0.2777287 SPIN=   0.00000
   O  -0.5252725  -0.3694472   0.3452988 SPIN=   0.00000
   O  -0.2467741   0.1774231   0.2541076 SPIN=   0.00000
   O   0.0040317  -0.2530592   0.1845698 SPIN=   0.00000
   P  -0.3332568  -0.1745567   0.2156211 SPIN=   0.00000
   O  -0.5252725  -0.3694472  -0.3452988 SPIN=   0.00000
   O  -0.2467741   0.1774231  -0.2541076 SPIN=   0.00000
   O   0.0040317  -0.2530592  -0.1845698 SPIN=   0.00000
   P  -0.3332568  -0.1745567  -0.2156211 SPIN=   0.00000
   O   0.2064981  -0.0321188  -0.5000000 SPIN=   0.00000
   O   0.4380708  -0.0318254  -0.0000000 SPIN=   0.00000
  Fe  -0.2076696   0.3761675   0.0000000 SPIN=   3.10054
  Fe  -0.1651229  -0.4366614  -0.5000000 SPIN=   4.89946
%ENDBLOCK POSITIONS_FRAC

# Note: total spin =   8.00

KPOINTS_MP_SPACING 0.07

%BLOCK SPECIES_POT
QC5
%ENDBLOCK SPECIES_POT

%BLOCK HUBBARD_U
Fe d:4.0
%ENDBLOCK HUBBARD_U

SNAP_TO_SYMMETRY
SYMMETRY_GENERATE

