#              Generated by Buildcell
#
# at 20:19:00 (GMT+0.0) 26th November 2020
# in /lustre/scratch/uccabz1/launch_tmp
# on node-c12p-025
# by uccabz1
#
# compiler GCC version 4.9.2
# options -cpp -iprefix /lustre/shared/ucl/apps/gcc/4.9.2/bin/../lib/gcc/x86_64-unknown-linux-gnu/4.9.2/ -mtune=corei7 -march=x86-64 -g -Og
#
# seed   159908633    40384262  2043267592 -1543746937  1238404116    53744782   995737905  -777017872   624083173 -1301695146  -813230175  1052424575
#
#      Author: C. J. Pickard (cjp20@cam.ac.uk)
#                Space group: I222
#

%BLOCK LATTICE_ABC
      5.68884      8.03168      8.03168
     78.89608     69.25864     69.25864
%ENDBLOCK LATTICE_ABC

%BLOCK POSITIONS_FRAC
  Li  -0.3806284   0.0887080   0.1730410 SPIN=   0.00000
  Li  -0.1188794  -0.0887080  -0.1730410 SPIN=   0.00000
  Li   0.3806284  -0.1730410  -0.0887080 SPIN=   0.00000
  Li   0.1188794   0.1730410   0.0887080 SPIN=   0.00000
   O   0.3651863   0.2276330  -0.5326861 SPIN=   0.00000
   O   0.2370661  -0.0439771  -0.3373159 SPIN=   0.00000
   O   0.6432846   0.0051823  -0.3402544 SPIN=   0.00000
   O   0.2008399   0.2145487  -0.1880518 SPIN=   0.00000
   P   0.3598883   0.1089393  -0.3574205 SPIN=   0.00000
   O   0.0601332  -0.2276330   0.5326861 SPIN=   0.00000
   O  -0.1442269   0.0439771   0.3373159 SPIN=   0.00000
   O   0.3082124  -0.0051823   0.3402544 SPIN=   0.00000
   O   0.2273368  -0.2145487   0.1880518 SPIN=   0.00000
   P   0.1114071  -0.1089393   0.3574205 SPIN=   0.00000
   O  -0.3651863   0.5326861  -0.2276330 SPIN=   0.00000
   O  -0.2370661   0.3373159   0.0439771 SPIN=   0.00000
   O  -0.6432846   0.3402544  -0.0051823 SPIN=   0.00000
   O  -0.2008399   0.1880518  -0.2145487 SPIN=   0.00000
   P  -0.3598883   0.3574205  -0.1089393 SPIN=   0.00000
   O  -0.0601332  -0.5326861   0.2276330 SPIN=   0.00000
   O   0.1442269  -0.3373159  -0.0439771 SPIN=   0.00000
   O  -0.3082124  -0.3402544   0.0051823 SPIN=   0.00000
   O  -0.2273368  -0.1880518   0.2145487 SPIN=   0.00000
   P  -0.1114071  -0.3574205   0.1089393 SPIN=   0.00000
  Fe   0.3785494  -0.4888605   0.2408641 SPIN=   4.00000
  Fe   0.1305529   0.4888605  -0.2408641 SPIN=   4.00000
  Fe  -0.3785494  -0.2408641   0.4888605 SPIN=   4.00000
  Fe  -0.1305529   0.2408641  -0.4888605 SPIN=   4.00000
%ENDBLOCK POSITIONS_FRAC

# Note: total spin =  16.00

KPOINTS_MP_SPACING 0.07

%BLOCK SPECIES_POT
QC5
%ENDBLOCK SPECIES_POT

%BLOCK HUBBARD_U
Fe d:4.0
%ENDBLOCK HUBBARD_U

SNAP_TO_SYMMETRY
SYMMETRY_GENERATE

