#              Generated by Buildcell
#
# at 19:15:00 (GMT+0.0) 26th November 2020
# in /lustre/scratch/uccabz1/launch_tmp
# on node-c12g-020
# by uccabz1
#
# compiler GCC version 4.9.2
# options -cpp -iprefix /lustre/shared/ucl/apps/gcc/4.9.2/bin/../lib/gcc/x86_64-unknown-linux-gnu/4.9.2/ -mtune=corei7 -march=x86-64 -g -Og
#
# seed -1420629174  -906421100  1155342375  1594212364   803673733 -1672100840 -1552940708  1065766865  1271109163  -369363655 -1541366429   776091003
#
#      Author: C. J. Pickard (cjp20@cam.ac.uk)
#                Space group: Cc
#

%BLOCK LATTICE_ABC
      6.19326      7.33244      7.71552
     88.26297     66.33734     85.66859
%ENDBLOCK LATTICE_ABC

%BLOCK POSITIONS_FRAC
  Li   0.4843273  -0.2640930  -0.3009050 SPIN=   0.00000
  Li   0.1834222   0.2359070   0.3009050 SPIN=   0.00000
  Li   0.0707094  -0.0907821   0.1127392 SPIN=   0.00000
  Li   0.1834486   0.4092179  -0.1127392 SPIN=   0.00000
   O   0.1168990  -0.1187035  -0.2782948 SPIN=   0.00000
   O   0.4661324   0.0137266  -0.2297965 SPIN=   0.00000
   O   0.2609050   0.2040899  -0.3945413 SPIN=   0.00000
   O   0.0541435   0.1467827  -0.0467430 SPIN=   0.00000
   P   0.2167791   0.0528871  -0.2372750 SPIN=   0.00000
   O  -0.1613958  -0.6187035   0.2782948 SPIN=   0.00000
   O   0.2363359  -0.4862734   0.2297965 SPIN=   0.00000
   O  -0.1336363  -0.2959101   0.3945413 SPIN=   0.00000
   O   0.0074005  -0.3532173   0.0467430 SPIN=   0.00000
   P  -0.0204959  -0.4471129   0.2372750 SPIN=   0.00000
   O   0.5501007   0.0669448   0.2084094 SPIN=   0.00000
   O   0.1303681  -0.0518603   0.3716034 SPIN=   0.00000
   O   0.4105983  -0.2015803   0.0761957 SPIN=   0.00000
   O   0.4784783  -0.2477302   0.3738512 SPIN=   0.00000
   P   0.4017998  -0.1008543   0.2562732 SPIN=   0.00000
   O  -0.2414899   0.5669448  -0.2084094 SPIN=   0.00000
   O  -0.4980285   0.4481397  -0.3716034 SPIN=   0.00000
   O  -0.5132060   0.2984197  -0.0761957 SPIN=   0.00000
   O  -0.1476706   0.2522698  -0.3738512 SPIN=   0.00000
   P  -0.3419270   0.3991457  -0.2562732 SPIN=   0.00000
  Fe  -0.2875551   0.0506350  -0.0943877 SPIN=   2.13927
  Fe  -0.3819428  -0.4493650   0.0943877 SPIN=   2.13927
  Fe   0.0602416  -0.3528711  -0.4367547 SPIN=   5.86073
  Fe  -0.3765131   0.1471289   0.4367547 SPIN=   5.86073
%ENDBLOCK POSITIONS_FRAC

# Note: total spin =  16.00

KPOINTS_MP_SPACING 0.07

%BLOCK SPECIES_POT
QC5
%ENDBLOCK SPECIES_POT

%BLOCK HUBBARD_U
Fe d:4.0
%ENDBLOCK HUBBARD_U

SNAP_TO_SYMMETRY
SYMMETRY_GENERATE

