#              Generated by Buildcell
#
# at 14:20:30 (GMT+0.0) 24th November 2020
# in /lustre/scratch/uccabz1/launch_tmp
# on node-c12l-030
# by uccabz1
#
# compiler GCC version 4.9.2
# options -cpp -iprefix /lustre/shared/ucl/apps/gcc/4.9.2/bin/../lib/gcc/x86_64-unknown-linux-gnu/4.9.2/ -mtune=corei7 -march=x86-64 -g -Og
#
# seed    86207801  -444580604   -31440970 -1884724160 -1320847152 -1553395776  2044076723  1594826157 -1066803695  -155012018 -1236481176   668011357
#
#      Author: C. J. Pickard (cjp20@cam.ac.uk)
#                Space group: Cm
#

%BLOCK LATTICE_ABC
      4.65952      6.13358      6.13358
     81.48063     73.04162     73.04162
%ENDBLOCK LATTICE_ABC

%BLOCK POSITIONS_FRAC
  Li  -0.2087629   0.2602494  -0.1231602 SPIN=   0.00000
  Li  -0.2087629  -0.1231602   0.2602494 SPIN=   0.00000
   O  -0.5405933   0.3560613  -0.3360593 SPIN=   0.00000
   O  -0.6439995   0.0607598  -0.5468131 SPIN=   0.00000
   O  -0.1499918  -0.0378510  -0.4362675 SPIN=   0.00000
   P  -0.5001269   0.1018543  -0.3590499 SPIN=   0.00000
   O  -0.5405933  -0.3360593   0.3560613 SPIN=   0.00000
   O  -0.6439995  -0.5468131   0.0607598 SPIN=   0.00000
   O  -0.1499918  -0.4362675  -0.0378510 SPIN=   0.00000
   P  -0.5001269  -0.3590499   0.1018543 SPIN=   0.00000
   O   0.0882860  -0.0614275  -0.0614275 SPIN=   0.00000
   O  -0.4869190   0.0349248   0.0349248 SPIN=   0.00000
  Fe   0.0336771   0.3151041   0.3151041 SPIN=   6.43976
  Fe   0.1981725  -0.3024490  -0.3024490 SPIN=   1.56024
%ENDBLOCK POSITIONS_FRAC

# Note: total spin =   8.00

KPOINTS_MP_SPACING 0.07

%BLOCK SPECIES_POT
QC5
%ENDBLOCK SPECIES_POT

%BLOCK HUBBARD_U
Fe d:4.0
%ENDBLOCK HUBBARD_U

SNAP_TO_SYMMETRY
SYMMETRY_GENERATE

