#              Generated by Buildcell
#
# at 15:28:53 (GMT+0.0) 26th November 2020
# in /lustre/scratch/uccabz1/launch_tmp
# on node-c12m-034
# by uccabz1
#
# compiler GCC version 4.9.2
# options -cpp -iprefix /lustre/shared/ucl/apps/gcc/4.9.2/bin/../lib/gcc/x86_64-unknown-linux-gnu/4.9.2/ -mtune=corei7 -march=x86-64 -g -Og
#
# seed  2065962231   219481104   478432375  2123483512   721835096    19665601  1028806261  1936673057   852125440 -1762338674  -933594785 -2101264983
#
#      Author: C. J. Pickard (cjp20@cam.ac.uk)
#                Space group: Pc
#

%BLOCK LATTICE_ABC
      5.16241      7.75753      8.57955
    111.35490     90.00000     90.00000
%ENDBLOCK LATTICE_ABC

%BLOCK POSITIONS_FRAC
  Li   0.3243023  -0.1733199  -0.4149011 SPIN=   0.00000
  Li  -0.3243023   0.3266801  -0.4149011 SPIN=   0.00000
  Li  -0.3087962  -0.1091370   0.0923620 SPIN=   0.00000
  Li   0.3087962   0.3908630   0.0923620 SPIN=   0.00000
   O   0.4602349   0.0263660  -0.0853063 SPIN=   0.00000
   O   0.2937817  -0.1768566   0.0766526 SPIN=   0.00000
   O   0.0579883   0.1114821   0.1099951 SPIN=   0.00000
   O   0.0318995  -0.1573771  -0.1620977 SPIN=   0.00000
   P   0.2221347  -0.0463563  -0.0206561 SPIN=   0.00000
   O  -0.4602349   0.5263660  -0.0853063 SPIN=   0.00000
   O  -0.2937817   0.3231434   0.0766526 SPIN=   0.00000
   O  -0.0579883   0.6114821   0.1099951 SPIN=   0.00000
   O  -0.0318995   0.3426229  -0.1620977 SPIN=   0.00000
   P  -0.2221347   0.4536437  -0.0206561 SPIN=   0.00000
   O   0.4185897   0.2749330   0.2936174 SPIN=   0.00000
   O   0.2141259   0.5962189   0.3414087 SPIN=   0.00000
   O   0.0786968   0.4310432   0.5255473 SPIN=   0.00000
   O   0.5255166   0.5646365   0.5532516 SPIN=   0.00000
   P   0.3176074   0.4576525   0.4227495 SPIN=   0.00000
   O  -0.4185897  -0.2250670   0.2936174 SPIN=   0.00000
   O  -0.2141259   0.0962189   0.3414087 SPIN=   0.00000
   O  -0.0786968  -0.0689568   0.5255473 SPIN=   0.00000
   O  -0.5255166   0.0646365   0.5532516 SPIN=   0.00000
   P  -0.3176074  -0.0423475   0.4227495 SPIN=   0.00000
  Fe   0.1912002   0.0735091   0.3386682 SPIN=   2.55538
  Fe  -0.1912002  -0.4264909   0.3386682 SPIN=   2.55538
  Fe   0.1756835  -0.4376351  -0.1998087 SPIN=   5.44462
  Fe  -0.1756835   0.0623649  -0.1998087 SPIN=   5.44462
%ENDBLOCK POSITIONS_FRAC

# Note: total spin =  16.00

KPOINTS_MP_SPACING 0.07

%BLOCK SPECIES_POT
QC5
%ENDBLOCK SPECIES_POT

%BLOCK HUBBARD_U
Fe d:4.0
%ENDBLOCK HUBBARD_U

SNAP_TO_SYMMETRY
SYMMETRY_GENERATE

