#              Generated by Buildcell
#
# at 18:17:23 (GMT+0.0) 26th November 2020
# in /lustre/scratch/uccabz1/launch_tmp
# on node-c12f-031
# by uccabz1
#
# compiler GCC version 4.9.2
# options -cpp -iprefix /lustre/shared/ucl/apps/gcc/4.9.2/bin/../lib/gcc/x86_64-unknown-linux-gnu/4.9.2/ -mtune=corei7 -march=x86-64 -g -Og
#
# seed  -135225290  1267317026  1546392089 -1150572479 -1227175696  -413056923  -172520458   621359029 -1645770186 -1606384393  1402872432   596171512
#
#      Author: C. J. Pickard (cjp20@cam.ac.uk)
#                Space group: P-1
#

%BLOCK LATTICE_ABC
      5.31401      7.70539      8.52122
     85.57059     74.41986     72.20004
%ENDBLOCK LATTICE_ABC

%BLOCK POSITIONS_FRAC
  Li  -0.0003323  -0.2864009  -0.1374983 SPIN=   0.00000
  Li   0.0003323   0.2864009   0.1374983 SPIN=   0.00000
  Li   0.3835901  -0.1551455  -0.0050866 SPIN=   0.00000
  Li  -0.3835901   0.1551455   0.0050866 SPIN=   0.00000
   O  -0.6718377  -0.0675443   0.4739453 SPIN=   0.00000
   O  -0.4935030   0.1567409   0.2618508 SPIN=   0.00000
   O  -0.8158249   0.0138541   0.2027915 SPIN=   0.00000
   O  -0.9835743   0.2502779   0.4230267 SPIN=   0.00000
   P  -0.7403530   0.0819436   0.3484891 SPIN=   0.00000
   O   0.6718377   0.0675443  -0.4739453 SPIN=   0.00000
   O   0.4935030  -0.1567409  -0.2618508 SPIN=   0.00000
   O   0.8158249  -0.0138541  -0.2027915 SPIN=   0.00000
   O   0.9835743  -0.2502779  -0.4230267 SPIN=   0.00000
   P   0.7403530  -0.0819436  -0.3484891 SPIN=   0.00000
   O  -0.5832097  -0.3158423   0.2824738 SPIN=   0.00000
   O  -0.2458793  -0.4747189   0.0166003 SPIN=   0.00000
   O  -0.2060557  -0.1861406   0.0996227 SPIN=   0.00000
   O  -0.0694766  -0.4695466   0.2602464 SPIN=   0.00000
   P  -0.2900654  -0.3604021   0.1721319 SPIN=   0.00000
   O   0.5832097   0.3158423  -0.2824738 SPIN=   0.00000
   O   0.2458793   0.4747189  -0.0166003 SPIN=   0.00000
   O   0.2060557   0.1861406  -0.0996227 SPIN=   0.00000
   O   0.0694766   0.4695466  -0.2602464 SPIN=   0.00000
   P   0.2900654   0.3604021  -0.1721319 SPIN=   0.00000
  Fe   0.6495694  -0.4301448  -0.3376356 SPIN=   4.85274
  Fe  -0.6495694   0.4301448   0.3376356 SPIN=   4.85274
  Fe   0.1608196   0.0793395  -0.3061440 SPIN=   3.14726
  Fe  -0.1608196  -0.0793395   0.3061440 SPIN=   3.14726
%ENDBLOCK POSITIONS_FRAC

# Note: total spin =  16.00

KPOINTS_MP_SPACING 0.07

%BLOCK SPECIES_POT
QC5
%ENDBLOCK SPECIES_POT

%BLOCK HUBBARD_U
Fe d:4.0
%ENDBLOCK HUBBARD_U

SNAP_TO_SYMMETRY
SYMMETRY_GENERATE

