#              Generated by Buildcell
#
# at 15:28:56 (GMT+0.0) 26th November 2020
# in /lustre/scratch/uccabz1/launch_tmp
# on node-c12l-026
# by uccabz1
#
# compiler GCC version 4.9.2
# options -cpp -iprefix /lustre/shared/ucl/apps/gcc/4.9.2/bin/../lib/gcc/x86_64-unknown-linux-gnu/4.9.2/ -mtune=corei7 -march=x86-64 -g -Og
#
# seed -1135183300  1481249568  -105815289   962494617 -1893669323  1709936332 -2090996018 -1484345514 -1670095228  1431130609  -220713770 -1353795035
#
#      Author: C. J. Pickard (cjp20@cam.ac.uk)
#                Space group: Pca21
#

%BLOCK LATTICE_ABC
      6.62150      6.65564      7.26112
     90.00000     90.00000     90.00000
%ENDBLOCK LATTICE_ABC

%BLOCK POSITIONS_FRAC
  Li  -0.3730393  -0.3746620   0.0586308 SPIN=   0.00000
  Li   0.1269607   0.3746620  -0.0586308 SPIN=   0.00000
  Li  -0.3730393   0.1253380  -0.0586308 SPIN=   0.00000
  Li   0.1269607  -0.1253380   0.0586308 SPIN=   0.00000
   O  -0.1013294  -0.1884718  -0.1384016 SPIN=   0.00000
   O   0.0947955  -0.4698608  -0.3101941 SPIN=   0.00000
   O  -0.2272309  -0.5575370  -0.1584777 SPIN=   0.00000
   O  -0.2307786  -0.3437489  -0.4422825 SPIN=   0.00000
   P  -0.1167004  -0.3786346  -0.2578635 SPIN=   0.00000
   O   0.3986706   0.1884718   0.1384016 SPIN=   0.00000
   O   0.5947955   0.4698608   0.3101941 SPIN=   0.00000
   O   0.2727691   0.5575370   0.1584777 SPIN=   0.00000
   O   0.2692214   0.3437489   0.4422825 SPIN=   0.00000
   P   0.3832996   0.3786346   0.2578635 SPIN=   0.00000
   O  -0.1013294   0.3115282   0.1384016 SPIN=   0.00000
   O   0.0947955   0.0301392   0.3101941 SPIN=   0.00000
   O  -0.2272309  -0.0575370   0.1584777 SPIN=   0.00000
   O  -0.2307786   0.1562511   0.4422825 SPIN=   0.00000
   P  -0.1167004   0.1213654   0.2578635 SPIN=   0.00000
   O   0.3986706  -0.3115282  -0.1384016 SPIN=   0.00000
   O   0.5947955  -0.0301392  -0.3101941 SPIN=   0.00000
   O   0.2727691   0.0575370  -0.1584777 SPIN=   0.00000
   O   0.2692214  -0.1562511  -0.4422825 SPIN=   0.00000
   P   0.3832996  -0.1213654  -0.2578635 SPIN=   0.00000
  Fe  -0.0095757   0.0247953  -0.3575244 SPIN=   4.00000
  Fe   0.4904243  -0.0247953   0.3575244 SPIN=   4.00000
  Fe  -0.0095757  -0.4752047   0.3575244 SPIN=   4.00000
  Fe   0.4904243   0.4752047  -0.3575244 SPIN=   4.00000
%ENDBLOCK POSITIONS_FRAC

# Note: total spin =  16.00

KPOINTS_MP_SPACING 0.07

%BLOCK SPECIES_POT
QC5
%ENDBLOCK SPECIES_POT

%BLOCK HUBBARD_U
Fe d:4.0
%ENDBLOCK HUBBARD_U

SNAP_TO_SYMMETRY
SYMMETRY_GENERATE

