#              Generated by Buildcell
#
# at 08:06:03 (GMT+0.0) 24th November 2020
# in /lustre/scratch/uccabz1/launch_tmp
# on node-c12b-020
# by uccabz1
#
# compiler GCC version 4.9.2
# options -cpp -iprefix /lustre/shared/ucl/apps/gcc/4.9.2/bin/../lib/gcc/x86_64-unknown-linux-gnu/4.9.2/ -mtune=corei7 -march=x86-64 -g -Og
#
# seed  -312861379   295944482 -1640111822   -36331837   867463041  -918064679  -745275852  -272331660   200466135 -1740804105   488057488 -1132734580
#
#      Author: C. J. Pickard (cjp20@cam.ac.uk)
#                Space group: C2
#

%BLOCK LATTICE_ABC
      5.41514      5.54229      5.54229
     88.93794     78.77407     78.77407
%ENDBLOCK LATTICE_ABC

%BLOCK POSITIONS_FRAC
  Li  -0.1608351  -0.0314623   0.4074872 SPIN=   0.00000
  Li   0.1608351  -0.4074872   0.0314623 SPIN=   0.00000
   O  -0.5074696   0.3749663   0.1236987 SPIN=   0.00000
   O  -0.2315649   0.7107027   0.0143552 SPIN=   0.00000
   O  -0.0088762   0.2801976   0.0398983 SPIN=   0.00000
   O  -0.2349778   0.4032349  -0.3098644 SPIN=   0.00000
   P  -0.2595321   0.4382309  -0.0279034 SPIN=   0.00000
   O   0.5074696  -0.1236987  -0.3749663 SPIN=   0.00000
   O   0.2315649  -0.0143552  -0.7107027 SPIN=   0.00000
   O   0.0088762  -0.0398983  -0.2801976 SPIN=   0.00000
   O   0.2349778   0.3098644  -0.4032349 SPIN=   0.00000
   P   0.2595321   0.0279034  -0.4382309 SPIN=   0.00000
  Fe   0.5000000  -0.9720118  -0.0279882 SPIN=   5.93919
  Fe   0.5000000  -0.4697968   0.4697968 SPIN=   2.06081
%ENDBLOCK POSITIONS_FRAC

# Note: total spin =   8.00

KPOINTS_MP_SPACING 0.07

%BLOCK SPECIES_POT
QC5
%ENDBLOCK SPECIES_POT

%BLOCK HUBBARD_U
Fe d:4.0
%ENDBLOCK HUBBARD_U

SNAP_TO_SYMMETRY
SYMMETRY_GENERATE

