#              Generated by Buildcell
#
# at 01:26:03 (GMT+0.0) 27th November 2020
# in /lustre/scratch/uccabz1/launch_tmp
# on node-c12d-024
# by uccabz1
#
# compiler GCC version 4.9.2
# options -cpp -iprefix /lustre/shared/ucl/apps/gcc/4.9.2/bin/../lib/gcc/x86_64-unknown-linux-gnu/4.9.2/ -mtune=corei7 -march=x86-64 -g -Og
#
# seed   703362505   873164257 -1171985610  1997228262   467925205  -875569083 -2013348948  -719719201   114881493 -1433923667  -843880601 -1007110775
#
#      Author: C. J. Pickard (cjp20@cam.ac.uk)
#                Space group: P-1
#

%BLOCK LATTICE_ABC
      5.97699      7.06739      8.06223
     72.37348     80.48331     85.73944
%ENDBLOCK LATTICE_ABC

%BLOCK POSITIONS_FRAC
  Li  -1.0000000  -1.0000000   0.5000000 SPIN=   0.00000
  Li   0.5000000   1.0000000  -0.5000000 SPIN=   0.00000
  Li   0.5000000   0.5000000   0.0000000 SPIN=   0.00000
  Li   0.5000000  -0.0000000   0.0000000 SPIN=   0.00000
   O  -0.4304178  -0.1845360   0.3355550 SPIN=   0.00000
   O  -0.0052463  -0.1809794   0.1979261 SPIN=   0.00000
   O  -0.1793314  -0.5048244   0.3570196 SPIN=   0.00000
   O  -0.2897917  -0.3095862   0.0656694 SPIN=   0.00000
   P  -0.2378210  -0.2892731   0.2421353 SPIN=   0.00000
   O   0.4304178   0.1845360  -0.3355550 SPIN=   0.00000
   O   0.0052463   0.1809794  -0.1979261 SPIN=   0.00000
   O   0.1793314   0.5048244  -0.3570196 SPIN=   0.00000
   O   0.2897917   0.3095862  -0.0656694 SPIN=   0.00000
   P   0.2378210   0.2892731  -0.2421353 SPIN=   0.00000
   O  -0.7639815  -0.9042538   0.2392117 SPIN=   0.00000
   O  -0.8715579  -0.7249080   0.4801398 SPIN=   0.00000
   O  -0.4853987  -0.6845166   0.3102269 SPIN=   0.00000
   O  -0.8172445  -0.5230442   0.1627477 SPIN=   0.00000
   P  -0.7370889  -0.7173707   0.2933499 SPIN=   0.00000
   O   0.7639815   0.9042538  -0.2392117 SPIN=   0.00000
   O   0.8715579   0.7249080  -0.4801398 SPIN=   0.00000
   O   0.4853987   0.6845166  -0.3102269 SPIN=   0.00000
   O   0.8172445   0.5230442  -0.1627477 SPIN=   0.00000
   P   0.7370889   0.7173707  -0.2933499 SPIN=   0.00000
  Fe   0.0548596  -0.2200780  -0.0915700 SPIN=   3.12088
  Fe  -0.0548596   0.2200780   0.0915700 SPIN=   3.12088
  Fe   0.7184617   0.3458219  -0.3560792 SPIN=   4.87912
  Fe  -0.7184617  -0.3458219   0.3560792 SPIN=   4.87912
%ENDBLOCK POSITIONS_FRAC

# Note: total spin =  16.00

KPOINTS_MP_SPACING 0.07

%BLOCK SPECIES_POT
QC5
%ENDBLOCK SPECIES_POT

%BLOCK HUBBARD_U
Fe d:4.0
%ENDBLOCK HUBBARD_U

SNAP_TO_SYMMETRY
SYMMETRY_GENERATE

