#              Generated by Buildcell
#
# at 11:51:54 (GMT+0.0) 24th November 2020
# in /lustre/scratch/uccabz1/launch_tmp
# on node-c12f-024
# by uccabz1
#
# compiler GCC version 4.9.2
# options -cpp -iprefix /lustre/shared/ucl/apps/gcc/4.9.2/bin/../lib/gcc/x86_64-unknown-linux-gnu/4.9.2/ -mtune=corei7 -march=x86-64 -g -Og
#
# seed -1368084165  -242714369   330086519 -1973523292   305785331   -15186327 -1596923239 -2030234333  2017696826   970366743  -321342345  -841113889
#
#      Author: C. J. Pickard (cjp20@cam.ac.uk)
#                Space group: Cm
#

%BLOCK LATTICE_ABC
      4.34876      6.12171      6.12171
     98.84988     94.21456     94.21456
%ENDBLOCK LATTICE_ABC

%BLOCK POSITIONS_FRAC
  Li   0.4302614  -0.1445607  -0.1445607 SPIN=   0.00000
  Li  -0.4910006   0.2399115   0.2399115 SPIN=   0.00000
   O  -0.2005394  -0.0667938   0.6697777 SPIN=   0.00000
   O  -0.2328800  -0.0356082   0.2503694 SPIN=   0.00000
   O  -0.4827620  -0.3712830   0.3633041 SPIN=   0.00000
   O  -0.7119736  -0.0079587   0.4527951 SPIN=   0.00000
   P  -0.3996422  -0.1162290   0.4468333 SPIN=   0.00000
   O  -0.2005394   0.6697777  -0.0667938 SPIN=   0.00000
   O  -0.2328800   0.2503694  -0.0356082 SPIN=   0.00000
   O  -0.4827620   0.3633041  -0.3712830 SPIN=   0.00000
   O  -0.7119736   0.4527951  -0.0079587 SPIN=   0.00000
   P  -0.3996422   0.4468333  -0.1162290 SPIN=   0.00000
  Fe   0.0535234  -0.3559000   0.2294899 SPIN=   4.00000
  Fe   0.0535234   0.2294899  -0.3559000 SPIN=   4.00000
%ENDBLOCK POSITIONS_FRAC

# Note: total spin =   8.00

KPOINTS_MP_SPACING 0.07

%BLOCK SPECIES_POT
QC5
%ENDBLOCK SPECIES_POT

%BLOCK HUBBARD_U
Fe d:4.0
%ENDBLOCK HUBBARD_U

SNAP_TO_SYMMETRY
SYMMETRY_GENERATE

