#              Generated by Buildcell
#
# at 13:18:28 (GMT+0.0) 26th November 2020
# in /lustre/scratch/uccabz1/launch_tmp
# on node-c12g-023
# by uccabz1
#
# compiler GCC version 4.9.2
# options -cpp -iprefix /lustre/shared/ucl/apps/gcc/4.9.2/bin/../lib/gcc/x86_64-unknown-linux-gnu/4.9.2/ -mtune=corei7 -march=x86-64 -g -Og
#
# seed -1077254356  -527173001 -1596923239  -989543080   738885866  -422712986 -1824995055 -1103925449  1971876878 -1645593672 -1354679358  -421560265
#
#      Author: C. J. Pickard (cjp20@cam.ac.uk)
#                Space group: C2
#

%BLOCK LATTICE_ABC
      6.67527      6.67527      8.45444
    104.52129    104.52129    109.44852
%ENDBLOCK LATTICE_ABC

%BLOCK POSITIONS_FRAC
  Li  -0.1319158  -0.6795231  -0.2069549 SPIN=   0.00000
  Li   0.6795231   0.1319158   0.2069549 SPIN=   0.00000
  Li  -0.4232685  -0.1650276  -0.2667314 SPIN=   0.00000
  Li   0.1650276   0.4232685   0.2667314 SPIN=   0.00000
   O   0.5960643   1.0225167   0.5662705 SPIN=   0.00000
   O   0.5187514   0.6151916   0.3725691 SPIN=   0.00000
   O   0.3810069   0.8482848   0.2281022 SPIN=   0.00000
   O   0.8005797   0.9545314   0.3497038 SPIN=   0.00000
   P   0.5779427   0.8698914   0.3887764 SPIN=   0.00000
   O  -1.0225167  -0.5960643  -0.5662705 SPIN=   0.00000
   O  -0.6151916  -0.5187514  -0.3725691 SPIN=   0.00000
   O  -0.8482848  -0.3810069  -0.2281022 SPIN=   0.00000
   O  -0.9545314  -0.8005797  -0.3497038 SPIN=   0.00000
   P  -0.8698914  -0.5779427  -0.3887764 SPIN=   0.00000
   O  -0.3121962   0.4371949   0.1834841 SPIN=   0.00000
   O   0.0767553   0.7942575   0.3417211 SPIN=   0.00000
   O   0.0145707   0.5120497   0.0608732 SPIN=   0.00000
   O  -0.1974091   0.7589831   0.0616480 SPIN=   0.00000
   P  -0.1167205   0.6171624   0.1618957 SPIN=   0.00000
   O  -0.4371949   0.3121962  -0.1834841 SPIN=   0.00000
   O  -0.7942575  -0.0767553  -0.3417211 SPIN=   0.00000
   O  -0.5120497  -0.0145707  -0.0608732 SPIN=   0.00000
   O  -0.7589831   0.1974091  -0.0616480 SPIN=   0.00000
   P  -0.6171624   0.1167205  -0.1618957 SPIN=   0.00000
  Fe  -0.6461243  -0.8498901  -0.4960438 SPIN=   3.38556
  Fe   0.8498901   0.6461243   0.4960438 SPIN=   3.38556
  Fe   0.0785792  -0.0785792   0.0000000 SPIN=   3.35995
  Fe   0.4321752  -0.4321752   0.0000000 SPIN=   5.86892
%ENDBLOCK POSITIONS_FRAC

# Note: total spin =  16.00

KPOINTS_MP_SPACING 0.07

%BLOCK SPECIES_POT
QC5
%ENDBLOCK SPECIES_POT

%BLOCK HUBBARD_U
Fe d:4.0
%ENDBLOCK HUBBARD_U

SNAP_TO_SYMMETRY
SYMMETRY_GENERATE

