#              Generated by Buildcell
#
# at 20:02:54 (GMT+0.0) 26th November 2020
# in /scratch/scratch/mmm0366/launch_tmp
# on node-k98k-024
# by mmm0366
#
# compiler GCC version 4.9.2
# options -cpp -iprefix /scratch/UCL/applications/gcc/4.9.2/bin/../lib/gcc/x86_64-unknown-linux-gnu/4.9.2/ -mtune=corei7 -march=x86-64 -g -O2
#
# seed -1044131540  1532429839  -547055008   661837951 -1803233097   304680233  2073896569  1244069815  -314405818  1935114341  -294861857  1147014481
#
#      Author: C. J. Pickard (cjp20@cam.ac.uk)
#                Space group: P21/c
#

%BLOCK LATTICE_ABC
      5.65103      5.66836     10.32212
     90.00000    104.57430     90.00000
%ENDBLOCK LATTICE_ABC

%BLOCK POSITIONS_FRAC
  Li   0.2528333   0.0957964  -0.2496816 SPIN=   0.00000
  Li  -0.2528333  -0.4042036  -0.2503184 SPIN=   0.00000
  Li  -0.2528333  -0.0957964   0.2496816 SPIN=   0.00000
  Li   0.2528333   0.4042036   0.2503184 SPIN=   0.00000
   O   0.0649201   0.3176716  -0.1103406 SPIN=   0.00000
   O  -0.2167576   0.2820406  -0.3508747 SPIN=   0.00000
   O  -0.2023295  -0.0511635  -0.1948730 SPIN=   0.00000
   O  -0.4060620   0.3260615  -0.1573635 SPIN=   0.00000
   O  -0.0649201  -0.1823284  -0.3896594 SPIN=   0.00000
   O   0.2167576  -0.2179594  -0.1491253 SPIN=   0.00000
   O   0.2023295  -0.5511635  -0.3051270 SPIN=   0.00000
   O   0.4060620  -0.1739385  -0.3426365 SPIN=   0.00000
   O  -0.0649201  -0.3176716   0.1103406 SPIN=   0.00000
   O   0.2167576  -0.2820406   0.3508747 SPIN=   0.00000
   O   0.2023295   0.0511635   0.1948730 SPIN=   0.00000
   O   0.4060620  -0.3260615   0.1573635 SPIN=   0.00000
   O   0.0649201   0.1823284   0.3896594 SPIN=   0.00000
   O  -0.2167576   0.2179594   0.1491253 SPIN=   0.00000
   O  -0.2023295   0.5511635   0.3051270 SPIN=   0.00000
   O  -0.4060620   0.1739385   0.3426365 SPIN=   0.00000
   P   0.5000000  -0.0000000   0.0000000 SPIN=   0.00000
   P   0.5000000   0.5000000   0.5000000 SPIN=   0.00000
   P   0.0000000   0.5000000   0.0000000 SPIN=   0.00000
   P   0.0000000  -0.0000000   0.5000000 SPIN=   0.00000
  Fe  -0.0000000  -0.0000000   0.0000000 SPIN=   2.45844
  Fe   0.0000000   0.5000000  -0.5000000 SPIN=   2.45844
  Fe  -0.5000000   0.5000000   0.0000000 SPIN=   5.54156
  Fe   0.5000000  -0.0000000   0.5000000 SPIN=   5.54156
%ENDBLOCK POSITIONS_FRAC

# Note: total spin =  16.00

KPOINTS_MP_SPACING 0.07

%BLOCK SPECIES_POT
QC5
%ENDBLOCK SPECIES_POT

%BLOCK HUBBARD_U
Fe d:4.0
%ENDBLOCK HUBBARD_U

SNAP_TO_SYMMETRY
SYMMETRY_GENERATE

