#              Generated by Buildcell
#
# at 11:57:26 (GMT+0.0) 24th November 2020
# in /scratch/scratch/uccabz1/launch_tmp
# on node-a14b-007
# by uccabz1
#
# compiler GCC version 4.9.2
# options -cpp -iprefix /scratch/UCL/applications/gcc/4.9.2/bin/../lib/gcc/x86_64-unknown-linux-gnu/4.9.2/ -mtune=corei7 -march=x86-64 -g -O2
#
# seed  1716483961  2105247251   498951982   -67702180  -962811332 -1697677763 -2053268295   216890943  1281391564  1335441598  -788036811   921670168
#
#      Author: C. J. Pickard (cjp20@cam.ac.uk)
#                Space group: C2
#

%BLOCK LATTICE_ABC
      5.15554      6.04506      6.04506
     83.36055     67.21067     67.21067
%ENDBLOCK LATTICE_ABC

%BLOCK POSITIONS_FRAC
  Li   0.0000000   0.2472951  -0.2472951 SPIN=   0.00000
  Li  -0.5000000  -0.3086943   0.3086943 SPIN=   0.00000
   O  -0.0097240   0.1123128   0.3901451 SPIN=   0.00000
   O  -0.5956765   0.2837075   0.5175310 SPIN=   0.00000
   O  -0.2849356   0.3613029   0.1105690 SPIN=   0.00000
   O  -0.2788827  -0.0543031   0.2081795 SPIN=   0.00000
   P  -0.2771003   0.1696621   0.3098927 SPIN=   0.00000
   O   0.0097240  -0.3901451  -0.1123128 SPIN=   0.00000
   O   0.5956765  -0.5175310  -0.2837075 SPIN=   0.00000
   O   0.2849356  -0.1105690  -0.3613029 SPIN=   0.00000
   O   0.2788827  -0.2081795   0.0543031 SPIN=   0.00000
   P   0.2771003  -0.3098927  -0.1696621 SPIN=   0.00000
  Fe  -0.7835480   0.3278792   0.1701186 SPIN=   4.00000
  Fe   0.7835480  -0.1701186  -0.3278792 SPIN=   4.00000
%ENDBLOCK POSITIONS_FRAC

# Note: total spin =   8.00

KPOINTS_MP_SPACING 0.07

%BLOCK SPECIES_POT
QC5
%ENDBLOCK SPECIES_POT

%BLOCK HUBBARD_U
Fe d:4.0
%ENDBLOCK HUBBARD_U

SNAP_TO_SYMMETRY
SYMMETRY_GENERATE

