#              Generated by Buildcell
#
# at 11:52:48 (GMT+0.0) 24th November 2020
# in /lustre/scratch/uccabz1/launch_tmp
# on node-c12e-031
# by uccabz1
#
# compiler GCC version 4.9.2
# options -cpp -iprefix /lustre/shared/ucl/apps/gcc/4.9.2/bin/../lib/gcc/x86_64-unknown-linux-gnu/4.9.2/ -mtune=corei7 -march=x86-64 -g -Og
#
# seed -1256660872 -2046229678   127654708  1937595223   763868861  1838392293  1737890230  1498939578 -1583274240    96086263  -102590099  1293633377
#
#      Author: C. J. Pickard (cjp20@cam.ac.uk)
#                Space group: P-1
#

%BLOCK LATTICE_ABC
      3.90157      5.65130      7.63154
     80.00892     75.47445     83.54984
%ENDBLOCK LATTICE_ABC

%BLOCK POSITIONS_FRAC
  Li   1.0000000   0.5000000  -0.5000000 SPIN=   0.00000
  Li   0.5000000   0.0000000  -0.5000000 SPIN=   0.00000
   O  -0.2445223  -0.0783999   0.1280900 SPIN=   0.00000
   O  -0.8370257  -0.1574172   0.3696297 SPIN=   0.00000
   O  -0.7045375  -0.3551379   0.0933936 SPIN=   0.00000
   O  -0.3563247  -0.4907297   0.3320081 SPIN=   0.00000
   P  -0.5179883  -0.2627969   0.2265072 SPIN=   0.00000
   O   0.2445223   0.0783999  -0.1280900 SPIN=   0.00000
   O   0.8370257   0.1574172  -0.3696297 SPIN=   0.00000
   O   0.7045375   0.3551379  -0.0933936 SPIN=   0.00000
   O   0.3563247   0.4907297  -0.3320081 SPIN=   0.00000
   P   0.5179883   0.2627969  -0.2265072 SPIN=   0.00000
  Fe  -0.1371458  -0.2045989  -0.1494089 SPIN=   4.00000
  Fe   0.1371458   0.2045989   0.1494089 SPIN=   4.00000
%ENDBLOCK POSITIONS_FRAC

# Note: total spin =   8.00

KPOINTS_MP_SPACING 0.07

%BLOCK SPECIES_POT
QC5
%ENDBLOCK SPECIES_POT

%BLOCK HUBBARD_U
Fe d:4.0
%ENDBLOCK HUBBARD_U

SNAP_TO_SYMMETRY
SYMMETRY_GENERATE

