#              Generated by Buildcell
#
# at 13:13:08 (GMT+0.0) 24th November 2020
# in /scratch/scratch/uccabz1/launch_tmp
# on node-a14b-007
# by uccabz1
#
# compiler GCC version 4.9.2
# options -cpp -iprefix /scratch/UCL/applications/gcc/4.9.2/bin/../lib/gcc/x86_64-unknown-linux-gnu/4.9.2/ -mtune=corei7 -march=x86-64 -g -O2
#
# seed   804385127 -1797807113  -756768791   627237416  1794410957  -839395572   695984874   855034052  2042253017 -1663813478  -732265816 -1072628564
#
#      Author: C. J. Pickard (cjp20@cam.ac.uk)
#                Space group: P-1
#

%BLOCK LATTICE_ABC
      4.20234      4.20774      9.40858
     78.98460     78.51761     86.71652
%ENDBLOCK LATTICE_ABC

%BLOCK POSITIONS_FRAC
  Li  -0.0476857  -0.5453439   0.1765703 SPIN=   0.00000
  Li   0.0476857   0.5453439  -0.1765703 SPIN=   0.00000
   O   0.4404496   0.4420340  -0.3570745 SPIN=   0.00000
   O   0.7278281  -0.1030966  -0.2699558 SPIN=   0.00000
   O   0.1699870  -0.0000512  -0.1414445 SPIN=   0.00000
   P   0.4007774   0.0772057  -0.2968567 SPIN=   0.00000
   O  -0.4404496  -0.4420340   0.3570745 SPIN=   0.00000
   O  -0.7278281   0.1030966   0.2699558 SPIN=   0.00000
   O  -0.1699870   0.0000512   0.1414445 SPIN=   0.00000
   P  -0.4007774  -0.0772057   0.2968567 SPIN=   0.00000
   O   0.0000000   0.5000000  -0.5000000 SPIN=   0.00000
   O   0.5000000   1.0000000  -0.5000000 SPIN=   0.00000
  Fe   0.5000000  -0.0000000   0.0000000 SPIN=   3.62555
  Fe   0.0000000  -0.0000000   0.5000000 SPIN=   4.37445
%ENDBLOCK POSITIONS_FRAC

# Note: total spin =   8.00

KPOINTS_MP_SPACING 0.07

%BLOCK SPECIES_POT
QC5
%ENDBLOCK SPECIES_POT

%BLOCK HUBBARD_U
Fe d:4.0
%ENDBLOCK HUBBARD_U

SNAP_TO_SYMMETRY
SYMMETRY_GENERATE

