#              Generated by Buildcell
#
# at 14:20:39 (GMT+0.0) 26th November 2020
# in /scratch/scratch/uccabz1/launch_tmp
# on node-k10e-015
# by uccabz1
#
# compiler GCC version 4.9.2
# options -cpp -iprefix /scratch/UCL/applications/gcc/4.9.2/bin/../lib/gcc/x86_64-unknown-linux-gnu/4.9.2/ -mtune=corei7 -march=x86-64 -g -O2
#
# seed  1487217162 -1254986667   128507801 -2032374542   395063265  1715976037  -785715219   527273487  -266450795 -1498530200  -701415351   -66756175
#
#      Author: C. J. Pickard (cjp20@cam.ac.uk)
#                Space group: P2
#

%BLOCK LATTICE_ABC
      5.83766      7.21093      7.63065
     90.00000     94.97793     90.00000
%ENDBLOCK LATTICE_ABC

%BLOCK POSITIONS_FRAC
  Li  -0.2466414  -0.4495422  -0.4683339 SPIN=   0.00000
  Li   0.2466414  -0.4495422   0.4683339 SPIN=   0.00000
  Li  -0.2458130  -0.0415142   0.4243383 SPIN=   0.00000
  Li   0.2458130  -0.0415142  -0.4243383 SPIN=   0.00000
   O   0.0360149  -0.4292999  -0.2800495 SPIN=   0.00000
   O   0.4202662  -0.2463649  -0.2711798 SPIN=   0.00000
   O   0.0893919  -0.0998775  -0.1447448 SPIN=   0.00000
   O   0.2876436  -0.3694572   0.0097862 SPIN=   0.00000
   P   0.2000903  -0.2948485  -0.1751843 SPIN=   0.00000
   O  -0.0360149  -0.4292999   0.2800495 SPIN=   0.00000
   O  -0.4202662  -0.2463649   0.2711798 SPIN=   0.00000
   O  -0.0893919  -0.0998775   0.1447448 SPIN=   0.00000
   O  -0.2876436  -0.3694572  -0.0097862 SPIN=   0.00000
   P  -0.2000903  -0.2948485   0.1751843 SPIN=   0.00000
   O   0.4995707   0.0868128   0.2560202 SPIN=   0.00000
   O   0.1051074   0.2312554   0.1467017 SPIN=   0.00000
   O   0.2220723   0.2334260   0.4656347 SPIN=   0.00000
   O   0.4251459   0.4396296   0.2651318 SPIN=   0.00000
   P   0.3242332   0.2414742   0.2817005 SPIN=   0.00000
   O  -0.4995707   0.0868128  -0.2560202 SPIN=   0.00000
   O  -0.1051074   0.2312554  -0.1467017 SPIN=   0.00000
   O  -0.2220723   0.2334260  -0.4656347 SPIN=   0.00000
   O  -0.4251459   0.4396296  -0.2651318 SPIN=   0.00000
   P  -0.3242332   0.2414742  -0.2817005 SPIN=   0.00000
  Fe  -0.2693109  -0.1307636  -0.1636787 SPIN=   4.08192
  Fe   0.2693109  -0.1307636   0.1636787 SPIN=   4.08192
  Fe   0.2332451   0.3142050  -0.1650182 SPIN=   3.91808
  Fe  -0.2332451   0.3142050   0.1650182 SPIN=   3.91808
%ENDBLOCK POSITIONS_FRAC

# Note: total spin =  16.00

KPOINTS_MP_SPACING 0.07

%BLOCK SPECIES_POT
QC5
%ENDBLOCK SPECIES_POT

%BLOCK HUBBARD_U
Fe d:4.0
%ENDBLOCK HUBBARD_U

SNAP_TO_SYMMETRY
SYMMETRY_GENERATE

