#              Generated by Buildcell
#
# at 08:13:14 (GMT+0.0) 24th November 2020
# in /lustre/scratch/uccabz1/launch_tmp
# on node-c12g-025
# by uccabz1
#
# compiler GCC version 4.9.2
# options -cpp -iprefix /lustre/shared/ucl/apps/gcc/4.9.2/bin/../lib/gcc/x86_64-unknown-linux-gnu/4.9.2/ -mtune=corei7 -march=x86-64 -g -Og
#
# seed  1250119977  -830178060  -580418877  2125472597   826229516  1237667937  -828772482  -910705521 -1019394817  1738557172   798811977  1358267080
#
#      Author: C. J. Pickard (cjp20@cam.ac.uk)
#                Space group: P-1
#

%BLOCK LATTICE_ABC
      5.49078      5.49754      5.98285
     81.98518     74.83936     66.73530
%ENDBLOCK LATTICE_ABC

%BLOCK POSITIONS_FRAC
  Li   0.1532015  -0.4387884   0.2653839 SPIN=   0.00000
  Li  -0.1532015   0.4387884  -0.2653839 SPIN=   0.00000
   O   0.2490165   0.1631157  -0.2960961 SPIN=   0.00000
   O   0.4783376   0.2311184   0.0062831 SPIN=   0.00000
   O   0.7727244   0.0139987  -0.3560221 SPIN=   0.00000
   P   0.4833378   0.2265354  -0.2571977 SPIN=   0.00000
   O  -0.2490165  -0.1631157   0.2960961 SPIN=   0.00000
   O  -0.4783376  -0.2311184  -0.0062831 SPIN=   0.00000
   O  -0.7727244  -0.0139987   0.3560221 SPIN=   0.00000
   P  -0.4833378  -0.2265354   0.2571977 SPIN=   0.00000
   O  -0.0000000  -0.5000000   0.0000000 SPIN=   0.00000
   O  -0.5000000  -0.5000000  -0.5000000 SPIN=   0.00000
  Fe  -0.2095160   0.2041024   0.2746943 SPIN=   4.00000
  Fe   0.2095160  -0.2041024  -0.2746943 SPIN=   4.00000
%ENDBLOCK POSITIONS_FRAC

# Note: total spin =   8.00

KPOINTS_MP_SPACING 0.07

%BLOCK SPECIES_POT
QC5
%ENDBLOCK SPECIES_POT

%BLOCK HUBBARD_U
Fe d:4.0
%ENDBLOCK HUBBARD_U

SNAP_TO_SYMMETRY
SYMMETRY_GENERATE

