#              Generated by Buildcell
#
# at 01:39:32 (GMT+0.0) 27th November 2020
# in /lustre/scratch/uccabz1/launch_tmp
# on node-c12g-033
# by uccabz1
#
# compiler GCC version 4.9.2
# options -cpp -iprefix /lustre/shared/ucl/apps/gcc/4.9.2/bin/../lib/gcc/x86_64-unknown-linux-gnu/4.9.2/ -mtune=corei7 -march=x86-64 -g -Og
#
# seed   940564802  1659895627   396350399 -1494877005  1363666709  1646720313 -1475780286 -1641927889   201143767 -1536935000  -879774292  1084847456
#
#      Author: C. J. Pickard (cjp20@cam.ac.uk)
#                Space group: C2
#

%BLOCK LATTICE_ABC
      4.70789      4.70789     14.47831
     89.53330     89.53330     85.75344
%ENDBLOCK LATTICE_ABC

%BLOCK POSITIONS_FRAC
  Li   0.4967953  -0.1181127  -0.0594050 SPIN=   0.00000
  Li   0.1181127  -0.4967953   0.0594050 SPIN=   0.00000
  Li   0.0865966  -0.1313693   0.2671384 SPIN=   0.00000
  Li   0.1313693  -0.0865966  -0.2671384 SPIN=   0.00000
   O   0.0219796  -0.0319016   0.0854043 SPIN=   0.00000
   O  -0.3276816  -0.1583477   0.2166345 SPIN=   0.00000
   O  -0.5102575   0.1581225   0.0902061 SPIN=   0.00000
   O  -0.3863513  -0.3587553   0.0588102 SPIN=   0.00000
   P  -0.2844154  -0.0972965   0.1106703 SPIN=   0.00000
   O   0.0319016  -0.0219796  -0.0854043 SPIN=   0.00000
   O   0.1583477   0.3276816  -0.2166345 SPIN=   0.00000
   O  -0.1581225   0.5102575  -0.0902061 SPIN=   0.00000
   O   0.3587553   0.3863513  -0.0588102 SPIN=   0.00000
   P   0.0972965   0.2844154  -0.1106703 SPIN=   0.00000
   O   0.2043415   0.6479507   0.3971165 SPIN=   0.00000
   O   0.3501330   0.1918217   0.3030869 SPIN=   0.00000
   O   0.1913775   0.1362692   0.4648220 SPIN=   0.00000
   O  -0.1633609   0.3030662   0.3444919 SPIN=   0.00000
   P   0.1451029   0.3370534   0.3780421 SPIN=   0.00000
   O  -0.6479507  -0.2043415  -0.3971165 SPIN=   0.00000
   O  -0.1918217  -0.3501330  -0.3030869 SPIN=   0.00000
   O  -0.1362692  -0.1913775  -0.4648220 SPIN=   0.00000
   O  -0.3030662   0.1633609  -0.3444919 SPIN=   0.00000
   P  -0.3370534  -0.1451029  -0.3780421 SPIN=   0.00000
  Fe  -0.4043159   0.3790604  -0.2152882 SPIN=   6.94365
  Fe  -0.3790604   0.4043159   0.2152882 SPIN=   6.94365
  Fe  -0.4216864  -0.0979633   0.4266659 SPIN=   1.05635
  Fe   0.0979633   0.4216864  -0.4266659 SPIN=   1.05635
%ENDBLOCK POSITIONS_FRAC

# Note: total spin =  16.00

KPOINTS_MP_SPACING 0.07

%BLOCK SPECIES_POT
QC5
%ENDBLOCK SPECIES_POT

%BLOCK HUBBARD_U
Fe d:4.0
%ENDBLOCK HUBBARD_U

SNAP_TO_SYMMETRY
SYMMETRY_GENERATE

