#              Generated by Buildcell
#
# at 10:51:17 (GMT+0.0) 24th November 2020
# in /lustre/scratch/uccabz1/launch_tmp
# on node-c12a-034
# by uccabz1
#
# compiler GCC version 4.9.2
# options -cpp -iprefix /lustre/shared/ucl/apps/gcc/4.9.2/bin/../lib/gcc/x86_64-unknown-linux-gnu/4.9.2/ -mtune=corei7 -march=x86-64 -g -Og
#
# seed   227330261 -1439561422  -295512212  1792973507   667053313  1160815139   -31011253 -2008424180 -1187594262 -1879036577   282021619 -1034420948
#
#      Author: C. J. Pickard (cjp20@cam.ac.uk)
#                Space group: P-1
#

%BLOCK LATTICE_ABC
      5.09921      5.35507      6.47307
     90.06893     90.09506    115.15025
%ENDBLOCK LATTICE_ABC

%BLOCK POSITIONS_FRAC
  Li  -0.5000000  -0.5000000  -0.5000000 SPIN=   0.00000
  Li  -0.5000000  -0.5000000   0.0000000 SPIN=   0.00000
   O  -0.1284064  -0.0394706   0.3288617 SPIN=   0.00000
   O  -0.3694686   0.2796236   0.2160061 SPIN=   0.00000
   O   0.1353226   0.4955619   0.3431441 SPIN=   0.00000
   O   0.0267895   0.2584961  -0.0009821 SPIN=   0.00000
   P  -0.0850016   0.2333342   0.2248317 SPIN=   0.00000
   O   0.1284064   0.0394706  -0.3288617 SPIN=   0.00000
   O   0.3694686  -0.2796236  -0.2160061 SPIN=   0.00000
   O  -0.1353226  -0.4955619  -0.3431441 SPIN=   0.00000
   O  -0.0267895  -0.2584961   0.0009821 SPIN=   0.00000
   P   0.0850016  -0.2333342  -0.2248317 SPIN=   0.00000
  Fe  -0.2607753   0.0945563  -0.2495797 SPIN=   4.00000
  Fe   0.2607753  -0.0945563   0.2495797 SPIN=   4.00000
%ENDBLOCK POSITIONS_FRAC

# Note: total spin =   8.00

KPOINTS_MP_SPACING 0.07

%BLOCK SPECIES_POT
QC5
%ENDBLOCK SPECIES_POT

%BLOCK HUBBARD_U
Fe d:4.0
%ENDBLOCK HUBBARD_U

SNAP_TO_SYMMETRY
SYMMETRY_GENERATE

