#              Generated by Buildcell
#
# at 20:27:49 (GMT+0.0) 26th November 2020
# in /lustre/scratch/uccabz1/launch_tmp
# on node-c12n-031
# by uccabz1
#
# compiler GCC version 4.9.2
# options -cpp -iprefix /lustre/shared/ucl/apps/gcc/4.9.2/bin/../lib/gcc/x86_64-unknown-linux-gnu/4.9.2/ -mtune=corei7 -march=x86-64 -g -Og
#
# seed  1176284794   777358284  1574293890   331167850  1750132638 -2116264114   190064587 -1937985194   591476363 -1166247395   565019535  -629891366
#
#      Author: C. J. Pickard (cjp20@cam.ac.uk)
#                Space group: P-1
#

%BLOCK LATTICE_ABC
      5.53038      5.60978     11.97236
     76.92344     78.40087     62.89387
%ENDBLOCK LATTICE_ABC

%BLOCK POSITIONS_FRAC
  Li  -0.1034994   0.3685080  -0.2699752 SPIN=   0.00000
  Li   0.1034994  -0.3685080   0.2699752 SPIN=   0.00000
  Li  -0.3496484  -0.0820423   0.1079328 SPIN=   0.00000
  Li   0.3496484   0.0820423  -0.1079328 SPIN=   0.00000
   O  -0.6099027  -0.6356313   0.3842749 SPIN=   0.00000
   O  -0.1740251  -1.0332956   0.4635629 SPIN=   0.00000
   O  -0.2158274  -0.9611295   0.2556980 SPIN=   0.00000
   O  -0.1359028  -0.6295535   0.3349447 SPIN=   0.00000
   P  -0.2995250  -0.8031699   0.3606417 SPIN=   0.00000
   O   0.6099027   0.6356313  -0.3842749 SPIN=   0.00000
   O   0.1740251   1.0332956  -0.4635629 SPIN=   0.00000
   O   0.2158274   0.9611295  -0.2556980 SPIN=   0.00000
   O   0.1359028   0.6295535  -0.3349447 SPIN=   0.00000
   P   0.2995250   0.8031699  -0.3606417 SPIN=   0.00000
   O   0.3768937  -0.6450700   0.1593846 SPIN=   0.00000
   O   0.4459661  -0.2802172   0.2322322 SPIN=   0.00000
   O   0.6898991  -0.4191406   0.0443723 SPIN=   0.00000
   O   0.1822099  -0.1435344   0.0632955 SPIN=   0.00000
   O  -0.3768937   0.6450700  -0.1593846 SPIN=   0.00000
   O  -0.4459661   0.2802172  -0.2322322 SPIN=   0.00000
   O  -0.6898991   0.4191406  -0.0443723 SPIN=   0.00000
   O  -0.1822099   0.1435344  -0.0632955 SPIN=   0.00000
   P   0.0000000   0.5000000  -0.5000000 SPIN=   0.00000
   P   0.5000000   0.5000000   0.0000000 SPIN=   0.00000
  Fe   0.4634945  -0.1779152   0.3873557 SPIN=   7.04910
  Fe  -0.4634945   0.1779152  -0.3873557 SPIN=   7.04910
  Fe   0.0170998  -0.2505594  -0.1383244 SPIN=   0.95090
  Fe  -0.0170998   0.2505594   0.1383244 SPIN=   0.95090
%ENDBLOCK POSITIONS_FRAC

# Note: total spin =  16.00

KPOINTS_MP_SPACING 0.07

%BLOCK SPECIES_POT
QC5
%ENDBLOCK SPECIES_POT

%BLOCK HUBBARD_U
Fe d:4.0
%ENDBLOCK HUBBARD_U

SNAP_TO_SYMMETRY
SYMMETRY_GENERATE

