#              Generated by Buildcell
#
# at 12:57:52 (GMT+0.0) 26th November 2020
# in /lustre/scratch/uccabz1/launch_tmp
# on node-c12e-024
# by uccabz1
#
# compiler GCC version 4.9.2
# options -cpp -iprefix /lustre/shared/ucl/apps/gcc/4.9.2/bin/../lib/gcc/x86_64-unknown-linux-gnu/4.9.2/ -mtune=corei7 -march=x86-64 -g -Og
#
# seed  1997215112  2114450058   831939503  -893582127  -410134515 -1223344126    79578579  -672182050  -865077036  1544376164   299427379 -1069078500
#
#      Author: C. J. Pickard (cjp20@cam.ac.uk)
#                Space group: P21212
#

%BLOCK LATTICE_ABC
      6.19607      6.63045      7.78916
     90.00000     90.00000     90.00000
%ENDBLOCK LATTICE_ABC

%BLOCK POSITIONS_FRAC
  Li  -0.2452474  -0.4967500  -0.4999998 SPIN=   0.00000
  Li   0.2452474  -0.4967500   0.4999998 SPIN=   0.00000
  Li   0.2547526   0.4967500  -0.0000002 SPIN=   0.00000
  Li  -0.2547526   0.4967500   0.0000002 SPIN=   0.00000
   O  -0.0162196  -0.4878384   0.2702753 SPIN=   0.00000
   O   0.1699077  -0.2057570   0.0922969 SPIN=   0.00000
   O  -0.1579037  -0.1193728   0.2570689 SPIN=   0.00000
   O   0.1866996  -0.1919412   0.4133230 SPIN=   0.00000
   P   0.0439932  -0.2631261   0.2607119 SPIN=   0.00000
   O   0.0162196  -0.4878384  -0.2702753 SPIN=   0.00000
   O  -0.1699077  -0.2057570  -0.0922969 SPIN=   0.00000
   O   0.1579037  -0.1193728  -0.2570689 SPIN=   0.00000
   O  -0.1866996  -0.1919412  -0.4133230 SPIN=   0.00000
   P  -0.0439932  -0.2631261  -0.2607119 SPIN=   0.00000
   O  -0.5162196   0.4878384   0.2297247 SPIN=   0.00000
   O  -0.3300923   0.2057570   0.4077031 SPIN=   0.00000
   O  -0.6579037   0.1193728   0.2429311 SPIN=   0.00000
   O  -0.3133004   0.1919412   0.0866770 SPIN=   0.00000
   P  -0.4560068   0.2631261   0.2392881 SPIN=   0.00000
   O   0.5162196   0.4878384  -0.2297247 SPIN=   0.00000
   O   0.3300923   0.2057570  -0.4077031 SPIN=   0.00000
   O   0.6579037   0.1193728  -0.2429311 SPIN=   0.00000
   O   0.3133004   0.1919412  -0.0866770 SPIN=   0.00000
   P   0.4560068   0.2631261  -0.2392881 SPIN=   0.00000
  Fe  -0.0000102   0.1748501  -0.2500186 SPIN=   4.00000
  Fe   0.0000102   0.1748501   0.2500186 SPIN=   4.00000
  Fe   0.4999898  -0.1748501  -0.2499814 SPIN=   4.00000
  Fe  -0.4999898  -0.1748501   0.2499814 SPIN=   4.00000
%ENDBLOCK POSITIONS_FRAC

# Note: total spin =  16.00

KPOINTS_MP_SPACING 0.07

%BLOCK SPECIES_POT
QC5
%ENDBLOCK SPECIES_POT

%BLOCK HUBBARD_U
Fe d:4.0
%ENDBLOCK HUBBARD_U

SNAP_TO_SYMMETRY
SYMMETRY_GENERATE

