#              Generated by Buildcell
#
# at 00:31:56 (GMT+0.0) 27th November 2020
# in /lustre/scratch/uccabz1/launch_tmp
# on node-c12m-023
# by uccabz1
#
# compiler GCC version 4.9.2
# options -cpp -iprefix /lustre/shared/ucl/apps/gcc/4.9.2/bin/../lib/gcc/x86_64-unknown-linux-gnu/4.9.2/ -mtune=corei7 -march=x86-64 -g -Og
#
# seed  -148122300 -1439653989   988037546  -983399164  1185550841 -2067294726  1615731000  -764666709 -2144351251 -1812327294  1131058366  1496285429
#
#      Author: C. J. Pickard (cjp20@cam.ac.uk)
#                Space group: Pma2
#

%BLOCK LATTICE_ABC
      4.24227      8.05674      9.36252
     90.00000     90.00000     90.00000
%ENDBLOCK LATTICE_ABC

%BLOCK POSITIONS_FRAC
  Li  -0.4756120   0.0000000   0.0000000 SPIN=   0.00000
  Li  -0.4756120   0.5000000  -0.0000000 SPIN=   0.00000
  Li   0.4870930  -0.2500000  -0.4538615 SPIN=   0.00000
  Li   0.4870930   0.2500000   0.4538615 SPIN=   0.00000
   O   0.1291710  -0.4146849  -0.3869327 SPIN=   0.00000
   O   0.6483063  -0.4197247  -0.2397790 SPIN=   0.00000
   O   0.1992710  -0.5883863  -0.1553022 SPIN=   0.00000
   P   0.3551696  -0.5199277  -0.2958931 SPIN=   0.00000
   O   0.1291710   0.4146849   0.3869327 SPIN=   0.00000
   O   0.6483063   0.4197247   0.2397790 SPIN=   0.00000
   O   0.1992710   0.5883863   0.1553022 SPIN=   0.00000
   P   0.3551696   0.5199277   0.2958931 SPIN=   0.00000
   O   0.1291710   0.0853151   0.3869327 SPIN=   0.00000
   O   0.6483063   0.0802753   0.2397790 SPIN=   0.00000
   O   0.1992710  -0.0883863   0.1553022 SPIN=   0.00000
   P   0.3551696  -0.0199277   0.2958931 SPIN=   0.00000
   O   0.1291710  -0.0853151  -0.3869327 SPIN=   0.00000
   O   0.6483063  -0.0802753  -0.2397790 SPIN=   0.00000
   O   0.1992710   0.0883863  -0.1553022 SPIN=   0.00000
   P   0.3551696   0.0199277  -0.2958931 SPIN=   0.00000
   O  -0.3137486  -0.2500000   0.0048785 SPIN=   0.00000
   O  -0.3137486   0.2500000  -0.0048785 SPIN=   0.00000
   O  -0.3712171   0.0000000   0.5000000 SPIN=   0.00000
   O  -0.3712171  -0.5000000  -0.5000000 SPIN=   0.00000
  Fe  -0.0012162  -0.2500000  -0.1789797 SPIN=   2.29165
  Fe  -0.0012162   0.2500000   0.1789797 SPIN=   2.29165
  Fe  -0.1450112   0.2500000  -0.2360008 SPIN=   5.70835
  Fe  -0.1450112  -0.2500000   0.2360008 SPIN=   5.70835
%ENDBLOCK POSITIONS_FRAC

# Note: total spin =  16.00

KPOINTS_MP_SPACING 0.07

%BLOCK SPECIES_POT
QC5
%ENDBLOCK SPECIES_POT

%BLOCK HUBBARD_U
Fe d:4.0
%ENDBLOCK HUBBARD_U

SNAP_TO_SYMMETRY
SYMMETRY_GENERATE

