#              Generated by Buildcell
#
# at 22:29:03 (GMT+0.0) 26th November 2020
# in /lustre/scratch/uccabz1/launch_tmp
# on node-c12i-031
# by uccabz1
#
# compiler GCC version 4.9.2
# options -cpp -iprefix /lustre/shared/ucl/apps/gcc/4.9.2/bin/../lib/gcc/x86_64-unknown-linux-gnu/4.9.2/ -mtune=corei7 -march=x86-64 -g -Og
#
# seed -1103904966   -42209171   580188700  -438166001  -931132349 -2093003776   662178311  1691056769  -758748237  1013336552  -619814403 -1797866679
#
#      Author: C. J. Pickard (cjp20@cam.ac.uk)
#                Space group: P-1
#

%BLOCK LATTICE_ABC
      4.86958      5.75342     12.35120
     88.62797     82.19409     69.02374
%ENDBLOCK LATTICE_ABC

%BLOCK POSITIONS_FRAC
  Li   0.1003443  -0.2372377   0.1528408 SPIN=   0.00000
  Li  -0.1003443   0.2372377  -0.1528408 SPIN=   0.00000
  Li  -0.3004223  -0.3918145  -0.3291916 SPIN=   0.00000
  Li   0.3004223   0.3918145   0.3291916 SPIN=   0.00000
   O  -0.1660363  -0.1021877  -0.3942380 SPIN=   0.00000
   O   0.2760347  -0.4291452  -0.3138656 SPIN=   0.00000
   O   0.2376182  -0.4686300  -0.5094355 SPIN=   0.00000
   O   0.3735312  -0.1197916  -0.4449254 SPIN=   0.00000
   P   0.1641275  -0.2685844  -0.4148237 SPIN=   0.00000
   O   0.1660363   0.1021877   0.3942380 SPIN=   0.00000
   O  -0.2760347   0.4291452   0.3138656 SPIN=   0.00000
   O  -0.2376182   0.4686300   0.5094355 SPIN=   0.00000
   O  -0.3735312   0.1197916   0.4449254 SPIN=   0.00000
   P  -0.1641275   0.2685844   0.4148237 SPIN=   0.00000
   O   0.8014577  -0.1847967  -0.1640595 SPIN=   0.00000
   O   0.2876530   0.0043301  -0.0444618 SPIN=   0.00000
   O   0.4628842   0.2807094  -0.1684235 SPIN=   0.00000
   O   0.3096277  -0.0443186  -0.2467518 SPIN=   0.00000
   P   0.4814604   0.0027091  -0.1574292 SPIN=   0.00000
   O  -0.8014577   0.1847967   0.1640595 SPIN=   0.00000
   O  -0.2876530  -0.0043301   0.0444618 SPIN=   0.00000
   O  -0.4628842  -0.2807094   0.1684235 SPIN=   0.00000
   O  -0.3096277   0.0443186   0.2467518 SPIN=   0.00000
   P  -0.4814604  -0.0027091   0.1574292 SPIN=   0.00000
  Fe   0.3857279   0.2051081  -0.3692311 SPIN=   5.82557
  Fe  -0.3857279  -0.2051081   0.3692311 SPIN=   5.82557
  Fe  -0.2136865   0.3588894   0.1104916 SPIN=   2.17443
  Fe   0.2136865  -0.3588894  -0.1104916 SPIN=   2.17443
%ENDBLOCK POSITIONS_FRAC

# Note: total spin =  16.00

KPOINTS_MP_SPACING 0.07

%BLOCK SPECIES_POT
QC5
%ENDBLOCK SPECIES_POT

%BLOCK HUBBARD_U
Fe d:4.0
%ENDBLOCK HUBBARD_U

SNAP_TO_SYMMETRY
SYMMETRY_GENERATE

