#              Generated by Buildcell
#
# at 14:41:01 (GMT+0.0) 24th November 2020
# in /scratch/scratch/uccabz1/launch_tmp
# on node-a14f-024
# by uccabz1
#
# compiler GCC version 4.9.2
# options -cpp -iprefix /scratch/UCL/applications/gcc/4.9.2/bin/../lib/gcc/x86_64-unknown-linux-gnu/4.9.2/ -mtune=corei7 -march=x86-64 -g -O2
#
# seed  1434808522 -2024889457   605517189   988802933  1189761604   308472100   953740335  -711692973   361747389  1245297755  -351720289  1162475943
#
#      Author: C. J. Pickard (cjp20@cam.ac.uk)
#                Space group: Aem2
#

%BLOCK LATTICE_ABC
      4.37346      6.11791      6.11791
    102.19455     90.00000     90.00000
%ENDBLOCK LATTICE_ABC

%BLOCK POSITIONS_FRAC
  Li  -0.5000000  -0.0755347  -0.0755347 SPIN=   0.00000
  Li   0.5000000   0.4244653   0.4244653 SPIN=   0.00000
   O  -0.3558805   0.2612741   0.0375475 SPIN=   0.00000
   O  -0.1441892   0.1862333   0.4116457 SPIN=   0.00000
   O   0.3558805   0.0375475   0.2612741 SPIN=   0.00000
   O   0.1441892   0.4116457   0.1862333 SPIN=   0.00000
   O  -0.3558805  -0.4624525  -0.2387259 SPIN=   0.00000
   O  -0.1441892  -0.0883543  -0.3137667 SPIN=   0.00000
   O   0.3558805  -0.2387259  -0.4624525 SPIN=   0.00000
   O   0.1441892  -0.3137667  -0.0883543 SPIN=   0.00000
   P   0.4985886  -0.4886591   0.0113409 SPIN=   0.00000
   P  -0.4985886   0.0113409  -0.4886591 SPIN=   0.00000
  Fe   0.0011692  -0.2305049   0.2694951 SPIN=   4.00000
  Fe  -0.0011692   0.2694951  -0.2305049 SPIN=   4.00000
%ENDBLOCK POSITIONS_FRAC

# Note: total spin =   8.00

KPOINTS_MP_SPACING 0.07

%BLOCK SPECIES_POT
QC5
%ENDBLOCK SPECIES_POT

%BLOCK HUBBARD_U
Fe d:4.0
%ENDBLOCK HUBBARD_U

SNAP_TO_SYMMETRY
SYMMETRY_GENERATE

