#              Generated by Buildcell
#
# at 18:17:25 (GMT+0.0) 26th November 2020
# in /lustre/scratch/uccabz1/launch_tmp
# on node-c12g-033
# by uccabz1
#
# compiler GCC version 4.9.2
# options -cpp -iprefix /lustre/shared/ucl/apps/gcc/4.9.2/bin/../lib/gcc/x86_64-unknown-linux-gnu/4.9.2/ -mtune=corei7 -march=x86-64 -g -Og
#
# seed   579785107  -881139848  2075408379  -486567392  1641277948 -1722313638   -69163644 -1846854681   389459974 -1429545135  -146387951 -1234418822
#
#      Author: C. J. Pickard (cjp20@cam.ac.uk)
#                Space group: Pc
#

%BLOCK LATTICE_ABC
      5.53446      7.07683      8.60729
     90.00000     90.00000    108.33629
%ENDBLOCK LATTICE_ABC

%BLOCK POSITIONS_FRAC
  Li   0.4185522   0.0200751   0.4995931 SPIN=   0.00000
  Li  -0.0814478  -0.4799249  -0.4995931 SPIN=   0.00000
  Li   0.2090835  -0.0791896   0.1426802 SPIN=   0.00000
  Li  -0.2909165   0.4208104  -0.1426802 SPIN=   0.00000
   O  -0.3457777  -0.1254943   0.3984604 SPIN=   0.00000
   O   0.0038406  -0.2776215   0.3133834 SPIN=   0.00000
   O   0.1256834   0.0861095   0.3523366 SPIN=   0.00000
   O   0.0158247  -0.1410891   0.5827168 SPIN=   0.00000
   P  -0.0650722  -0.1154215   0.4130360 SPIN=   0.00000
   O   0.1542223   0.3745057  -0.3984604 SPIN=   0.00000
   O   0.5038406   0.2223785  -0.3133834 SPIN=   0.00000
   O   0.6256834   0.5861095  -0.3523366 SPIN=   0.00000
   O   0.5158247   0.3589109  -0.5827168 SPIN=   0.00000
   P   0.4349278   0.3845785  -0.4130360 SPIN=   0.00000
   O  -0.1061228   0.2414241  -0.0288556 SPIN=   0.00000
   O   0.3417840   0.4443675  -0.1316142 SPIN=   0.00000
   O   0.2995880   0.3408764   0.1437484 SPIN=   0.00000
   O   0.2533232   0.0846155  -0.0643936 SPIN=   0.00000
   P   0.1816587   0.2736029  -0.0212560 SPIN=   0.00000
   O  -0.6061228  -0.2585759   0.0288556 SPIN=   0.00000
   O  -0.1582160  -0.0556325   0.1316142 SPIN=   0.00000
   O  -0.2004120  -0.1591236  -0.1437484 SPIN=   0.00000
   O  -0.2466768  -0.4153845   0.0643936 SPIN=   0.00000
   P  -0.3183413  -0.2263971   0.0212560 SPIN=   0.00000
  Fe   0.4488339  -0.4011688   0.3034576 SPIN=   4.10382
  Fe  -0.0511661   0.0988312  -0.3034576 SPIN=   4.10382
  Fe  -0.2078563   0.2107575   0.2059838 SPIN=   3.89618
  Fe   0.2921437  -0.2892425  -0.2059838 SPIN=   3.89618
%ENDBLOCK POSITIONS_FRAC

# Note: total spin =  16.00

KPOINTS_MP_SPACING 0.07

%BLOCK SPECIES_POT
QC5
%ENDBLOCK SPECIES_POT

%BLOCK HUBBARD_U
Fe d:4.0
%ENDBLOCK HUBBARD_U

SNAP_TO_SYMMETRY
SYMMETRY_GENERATE

