#              Generated by Buildcell
#
# at 12:37:43 (GMT+0.0) 26th November 2020
# in /scratch/scratch/uccabz1/launch_tmp
# on node-k10f-007
# by uccabz1
#
# compiler GCC version 4.9.2
# options -cpp -iprefix /scratch/UCL/applications/gcc/4.9.2/bin/../lib/gcc/x86_64-unknown-linux-gnu/4.9.2/ -mtune=corei7 -march=x86-64 -g -O2
#
# seed  1631959072 -1457397878    51922507   881336728 -1195596586  1353969060   408565267   569670237  -761758604  1032594135  1017746172   579427741
#
#      Author: C. J. Pickard (cjp20@cam.ac.uk)
#                Space group: Iba2
#

%BLOCK LATTICE_ABC
      6.79770      7.88307      7.88307
     61.04727     64.45890     64.45890
%ENDBLOCK LATTICE_ABC

%BLOCK POSITIONS_FRAC
  Li   0.0975236  -0.3011866  -0.3004384 SPIN=   0.00000
  Li   0.4958986   0.3011866   0.3004384 SPIN=   0.00000
  Li  -0.4024764  -0.3004384  -0.3011866 SPIN=   0.00000
  Li  -0.0041014   0.3004384   0.3011866 SPIN=   0.00000
   O  -0.0628498   0.1119308   0.2197736 SPIN=   0.00000
   O  -0.2010909  -0.1389570   0.2040705 SPIN=   0.00000
   O  -0.0308451  -0.2573704   0.4767115 SPIN=   0.00000
   O  -0.4148757  -0.0054411   0.4845529 SPIN=   0.00000
   P  -0.1741176  -0.0618507   0.3411732 SPIN=   0.00000
   O   0.2688546  -0.1119308  -0.2197736 SPIN=   0.00000
   O  -0.1359774   0.1389570  -0.2040705 SPIN=   0.00000
   O   0.1884960   0.2573704  -0.4767115 SPIN=   0.00000
   O   0.0642360   0.0054411  -0.4845529 SPIN=   0.00000
   P   0.1052049   0.0618507  -0.3411732 SPIN=   0.00000
   O   0.4371502   0.2197736   0.1119308 SPIN=   0.00000
   O   0.2989091   0.2040705  -0.1389570 SPIN=   0.00000
   O   0.4691549   0.4767115  -0.2573704 SPIN=   0.00000
   O   0.0851243   0.4845529  -0.0054411 SPIN=   0.00000
   P   0.3258824   0.3411732  -0.0618507 SPIN=   0.00000
   O  -0.2311454  -0.2197736  -0.1119308 SPIN=   0.00000
   O  -0.6359774  -0.2040705   0.1389570 SPIN=   0.00000
   O  -0.3115040  -0.4767115   0.2573704 SPIN=   0.00000
   O  -0.4357640  -0.4845529   0.0054411 SPIN=   0.00000
   P  -0.3947951  -0.3411732   0.0618507 SPIN=   0.00000
  Fe  -0.0528906   0.2863172  -0.0889778 SPIN=   4.00000
  Fe   0.1444489  -0.2863172   0.0889778 SPIN=   4.00000
  Fe   0.4471094  -0.0889778   0.2863172 SPIN=   4.00000
  Fe  -0.3555511   0.0889778  -0.2863172 SPIN=   4.00000
%ENDBLOCK POSITIONS_FRAC

# Note: total spin =  16.00

KPOINTS_MP_SPACING 0.07

%BLOCK SPECIES_POT
QC5
%ENDBLOCK SPECIES_POT

%BLOCK HUBBARD_U
Fe d:4.0
%ENDBLOCK HUBBARD_U

SNAP_TO_SYMMETRY
SYMMETRY_GENERATE

