#              Generated by Buildcell
#
# at 21:28:46 (GMT+0.0) 26th November 2020
# in /lustre/scratch/uccabz1/launch_tmp
# on node-c12l-025
# by uccabz1
#
# compiler GCC version 4.9.2
# options -cpp -iprefix /lustre/shared/ucl/apps/gcc/4.9.2/bin/../lib/gcc/x86_64-unknown-linux-gnu/4.9.2/ -mtune=corei7 -march=x86-64 -g -Og
#
# seed  -663305072   265256249  -712495752   -49097609 -1492386443   197684289  -236759683  1449531339  1489432388  -173832277   -77633167   442693116
#
#      Author: C. J. Pickard (cjp20@cam.ac.uk)
#                Space group: Cmc21
#

%BLOCK LATTICE_ABC
      6.28780      6.28780      8.29419
     90.00000     90.00000    102.62066
%ENDBLOCK LATTICE_ABC

%BLOCK POSITIONS_FRAC
  Li  -0.1858924  -0.1858924  -0.0659123 SPIN=   0.00000
  Li   0.1858924   0.1858924   0.4340877 SPIN=   0.00000
  Li   0.4301461   0.4301461  -0.0278659 SPIN=   0.00000
  Li  -0.4301461  -0.4301461   0.4721341 SPIN=   0.00000
   O   0.3882469   0.0679581  -0.1909036 SPIN=   0.00000
   O   0.7351010   0.1154774  -0.0125265 SPIN=   0.00000
   O   0.3840940   0.1195618   0.1197809 SPIN=   0.00000
   P   0.4833456   0.0179289  -0.0279848 SPIN=   0.00000
   O  -0.3882469  -0.0679581   0.3090964 SPIN=   0.00000
   O  -0.7351010  -0.1154774   0.4874735 SPIN=   0.00000
   O  -0.3840940  -0.1195618   0.6197809 SPIN=   0.00000
   P  -0.4833456  -0.0179289   0.4720152 SPIN=   0.00000
   O  -0.0679581  -0.3882469   0.3090964 SPIN=   0.00000
   O  -0.1154774  -0.7351010   0.4874735 SPIN=   0.00000
   O  -0.1195618  -0.3840940   0.6197809 SPIN=   0.00000
   P  -0.0179289  -0.4833456   0.4720152 SPIN=   0.00000
   O   0.0679581   0.3882469  -0.1909036 SPIN=   0.00000
   O   0.1154774   0.7351010  -0.0125265 SPIN=   0.00000
   O   0.1195618   0.3840940   0.1197809 SPIN=   0.00000
   P   0.0179289   0.4833456  -0.0279848 SPIN=   0.00000
   O   0.4390120   0.4390120  -0.3054332 SPIN=   0.00000
   O  -0.4390120  -0.4390120   0.1945668 SPIN=   0.00000
   O  -0.0038822  -0.0038822  -0.2572794 SPIN=   0.00000
   O   0.0038822   0.0038822   0.2427206 SPIN=   0.00000
  Fe  -0.2433853   0.2435087   0.2220628 SPIN=   4.00000
  Fe   0.2433853  -0.2435087  -0.2779372 SPIN=   4.00000
  Fe  -0.2435087   0.2433853  -0.2779372 SPIN=   4.00000
  Fe   0.2435087  -0.2433853   0.2220628 SPIN=   4.00000
%ENDBLOCK POSITIONS_FRAC

# Note: total spin =  16.00

KPOINTS_MP_SPACING 0.07

%BLOCK SPECIES_POT
QC5
%ENDBLOCK SPECIES_POT

%BLOCK HUBBARD_U
Fe d:4.0
%ENDBLOCK HUBBARD_U

SNAP_TO_SYMMETRY
SYMMETRY_GENERATE

