#              Generated by Buildcell
#
# at 14:27:20 (GMT+0.0) 24th November 2020
# in /scratch/scratch/uccabz1/launch_tmp
# on node-a14c-007
# by uccabz1
#
# compiler GCC version 4.9.2
# options -cpp -iprefix /scratch/UCL/applications/gcc/4.9.2/bin/../lib/gcc/x86_64-unknown-linux-gnu/4.9.2/ -mtune=corei7 -march=x86-64 -g -O2
#
# seed  1546489161 -1051213504  1524328851   748143405 -2013263889 -2118865991   600759682  1944527306   667982056  -472767533  1977639026 -2021861482
#
#      Author: C. J. Pickard (cjp20@cam.ac.uk)
#                Space group: Fdd2
#

%BLOCK LATTICE_ABC
      5.63703      5.63703      6.27486
    106.46860    106.46860    111.64574
%ENDBLOCK LATTICE_ABC

%BLOCK POSITIONS_FRAC
  Li   0.1836681  -0.1836681  -0.0000000 SPIN=   0.00000
  Li   0.4336681  -0.4336681  -0.5000000 SPIN=   0.00000
   O  -0.1497176  -0.1500930  -0.2230705 SPIN=   0.00000
   O  -0.3588591  -0.1697966   0.0950384 SPIN=   0.00000
   O   0.1500930   0.1497176   0.2230705 SPIN=   0.00000
   O   0.1697966   0.3588591  -0.0950384 SPIN=   0.00000
   O   0.1770225  -0.3233529   0.2769295 SPIN=   0.00000
   O   0.5148350   0.2038975   0.5950384 SPIN=   0.00000
   O   0.3233529  -0.1770225  -0.2769295 SPIN=   0.00000
   O  -0.2038975  -0.5148350  -0.5950384 SPIN=   0.00000
   P  -0.1059465   0.1059465  -0.0000000 SPIN=   0.00000
   P   0.1440535  -0.1440535  -0.5000000 SPIN=   0.00000
  Fe  -0.4176381   0.4176381   0.0000000 SPIN=   4.00000
  Fe   0.8323619   0.1676381   0.5000000 SPIN=   4.00000
%ENDBLOCK POSITIONS_FRAC

# Note: total spin =   8.00

KPOINTS_MP_SPACING 0.07

%BLOCK SPECIES_POT
QC5
%ENDBLOCK SPECIES_POT

%BLOCK HUBBARD_U
Fe d:4.0
%ENDBLOCK HUBBARD_U

SNAP_TO_SYMMETRY
SYMMETRY_GENERATE

