#              Generated by Buildcell
#
# at 12:11:44 (GMT+0.0) 24th November 2020
# in /scratch/scratch/uccabz1/launch_tmp
# on node-a14f-002
# by uccabz1
#
# compiler GCC version 4.9.2
# options -cpp -iprefix /scratch/UCL/applications/gcc/4.9.2/bin/../lib/gcc/x86_64-unknown-linux-gnu/4.9.2/ -mtune=corei7 -march=x86-64 -g -O2
#
# seed  1952937184   539209365  1261990341    54502355 -1427133554  1995624783  -741805026    -9857443    36485924 -1456661760 -1765603299   778358599
#
#      Author: C. J. Pickard (cjp20@cam.ac.uk)
#                Space group: P-1
#

%BLOCK LATTICE_ABC
      3.82672      5.90455      7.24355
     91.15667    102.07385     90.53492
%ENDBLOCK LATTICE_ABC

%BLOCK POSITIONS_FRAC
  Li   0.5000000   0.5000000  -0.5000000 SPIN=   0.00000
  Li   0.5000000   0.0000000  -0.5000000 SPIN=   0.00000
   O  -0.0341025  -0.0065751   0.3300234 SPIN=   0.00000
   O   0.4354720  -0.2424248   0.2003818 SPIN=   0.00000
   O  -0.0152862  -0.4461452   0.3357803 SPIN=   0.00000
   P   0.0385893  -0.2253816   0.2264144 SPIN=   0.00000
   O   0.0341025   0.0065751  -0.3300234 SPIN=   0.00000
   O  -0.4354720   0.2424248  -0.2003818 SPIN=   0.00000
   O   0.0152862   0.4461452  -0.3357803 SPIN=   0.00000
   P  -0.0385893   0.2253816  -0.2264144 SPIN=   0.00000
   O   0.0000000   0.5000000   0.0000000 SPIN=   0.00000
   O  -0.0000000  -0.0000000  -0.0000000 SPIN=   0.00000
  Fe   0.2291297  -0.2522234  -0.1430545 SPIN=   4.00000
  Fe  -0.2291297   0.2522234   0.1430545 SPIN=   4.00000
%ENDBLOCK POSITIONS_FRAC

# Note: total spin =   8.00

KPOINTS_MP_SPACING 0.07

%BLOCK SPECIES_POT
QC5
%ENDBLOCK SPECIES_POT

%BLOCK HUBBARD_U
Fe d:4.0
%ENDBLOCK HUBBARD_U

SNAP_TO_SYMMETRY
SYMMETRY_GENERATE

