#              Generated by Buildcell
#
# at 13:48:31 (GMT+0.0) 24th November 2020
# in /lustre/scratch/uccabz1/launch_tmp
# on node-c12g-032
# by uccabz1
#
# compiler GCC version 4.9.2
# options -cpp -iprefix /lustre/shared/ucl/apps/gcc/4.9.2/bin/../lib/gcc/x86_64-unknown-linux-gnu/4.9.2/ -mtune=corei7 -march=x86-64 -g -Og
#
# seed  1879327905 -1007398038   328822236  1038455818   775279779   377293403  -188887322 -2014876007  -106442656  -381990034 -1840556899 -1271143579
#
#      Author: C. J. Pickard (cjp20@cam.ac.uk)
#                Space group: P2
#

%BLOCK LATTICE_ABC
      4.21436      4.22987      8.99140
     93.40086     90.00000     90.00000
%ENDBLOCK LATTICE_ABC

%BLOCK POSITIONS_FRAC
  Li  -0.2321158  -0.5000000  -0.5000000 SPIN=   0.00000
  Li   0.2693019   0.0000000   0.5000000 SPIN=   0.00000
   O   0.6393687   0.1264322   0.2427383 SPIN=   0.00000
   O   0.4064710  -0.3792989   0.3518015 SPIN=   0.00000
   O   0.2613171  -0.2619720   0.0946947 SPIN=   0.00000
   P   0.5396612  -0.2206663   0.2107718 SPIN=   0.00000
   O   0.6393687  -0.1264322  -0.2427383 SPIN=   0.00000
   O   0.4064710   0.3792989  -0.3518015 SPIN=   0.00000
   O   0.2613171   0.2619720  -0.0946947 SPIN=   0.00000
   P   0.5396612   0.2206663  -0.2107718 SPIN=   0.00000
   O  -0.2306499  -0.0000000  -0.5000000 SPIN=   0.00000
   O  -0.2387987  -0.5000000   0.0000000 SPIN=   0.00000
  Fe   0.0895611   0.2762158   0.1794085 SPIN=   4.00000
  Fe   0.0895611  -0.2762158  -0.1794085 SPIN=   4.00000
%ENDBLOCK POSITIONS_FRAC

# Note: total spin =   8.00

KPOINTS_MP_SPACING 0.07

%BLOCK SPECIES_POT
QC5
%ENDBLOCK SPECIES_POT

%BLOCK HUBBARD_U
Fe d:4.0
%ENDBLOCK HUBBARD_U

SNAP_TO_SYMMETRY
SYMMETRY_GENERATE

