#              Generated by Buildcell
#
# at 23:06:49 (GMT+0.0) 26th November 2020
# in /lustre/scratch/uccabz1/launch_tmp
# on node-c12g-020
# by uccabz1
#
# compiler GCC version 4.9.2
# options -cpp -iprefix /lustre/shared/ucl/apps/gcc/4.9.2/bin/../lib/gcc/x86_64-unknown-linux-gnu/4.9.2/ -mtune=corei7 -march=x86-64 -g -Og
#
# seed  -978746771 -1382337124 -1841294744 -1763926316  1368407196  -321553287  -975469700  -170964737  1635985544  1724878123  -502447196  -915452338
#
#      Author: C. J. Pickard (cjp20@cam.ac.uk)
#                Space group: Pmn21
#

%BLOCK LATTICE_ABC
      5.10804      7.63256      8.20778
     90.00000     90.00000     90.00000
%ENDBLOCK LATTICE_ABC

%BLOCK POSITIONS_FRAC
  Li  -0.4441735   0.4216285   0.3085545 SPIN=   0.00000
  Li   0.4441735  -0.0783715   0.1914455 SPIN=   0.00000
  Li   0.4441735  -0.0783715  -0.1914455 SPIN=   0.00000
  Li  -0.4441735   0.4216285  -0.3085545 SPIN=   0.00000
   O   0.2616750  -0.3236178  -0.2492056 SPIN=   0.00000
   O   0.1744163  -0.6589626  -0.2483082 SPIN=   0.00000
   O  -0.1746746  -0.4618290  -0.1495396 SPIN=   0.00000
   P   0.0587955  -0.4700061  -0.2742702 SPIN=   0.00000
   O  -0.2616750   0.1763822  -0.2507944 SPIN=   0.00000
   O  -0.1744163  -0.1589626  -0.2516918 SPIN=   0.00000
   O   0.1746746   0.0381710  -0.3504604 SPIN=   0.00000
   P  -0.0587955   0.0299939  -0.2257298 SPIN=   0.00000
   O  -0.2616750   0.1763822   0.2507944 SPIN=   0.00000
   O  -0.1744163  -0.1589626   0.2516918 SPIN=   0.00000
   O   0.1746746   0.0381710   0.3504604 SPIN=   0.00000
   P  -0.0587955   0.0299939   0.2257298 SPIN=   0.00000
   O   0.2616750  -0.3236178   0.2492056 SPIN=   0.00000
   O   0.1744163  -0.6589626   0.2483082 SPIN=   0.00000
   O  -0.1746746  -0.4618290   0.1495396 SPIN=   0.00000
   P   0.0587955  -0.4700061   0.2742702 SPIN=   0.00000
   O   0.1875414  -0.0111058  -0.0000000 SPIN=   0.00000
   O  -0.1875414   0.4888942   0.5000000 SPIN=   0.00000
   O  -0.2957371  -0.0010861  -0.0000000 SPIN=   0.00000
   O   0.2957371   0.4989139   0.5000000 SPIN=   0.00000
  Fe   0.1967152   0.2639372  -0.0000000 SPIN=   0.80177
  Fe  -0.1967152  -0.2360628   0.5000000 SPIN=   0.80177
  Fe  -0.0563016  -0.2543631  -0.0000000 SPIN=   7.19823
  Fe   0.0563016   0.2456369   0.5000000 SPIN=   7.19823
%ENDBLOCK POSITIONS_FRAC

# Note: total spin =  16.00

KPOINTS_MP_SPACING 0.07

%BLOCK SPECIES_POT
QC5
%ENDBLOCK SPECIES_POT

%BLOCK HUBBARD_U
Fe d:4.0
%ENDBLOCK HUBBARD_U

SNAP_TO_SYMMETRY
SYMMETRY_GENERATE

