#              Generated by Buildcell
#
# at 07:00:15 (GMT+0.0) 24th November 2020
# in /scratch/scratch/uccabz1/launch_tmp
# on node-a14a-017
# by uccabz1
#
# compiler GCC version 4.9.2
# options -cpp -iprefix /scratch/UCL/applications/gcc/4.9.2/bin/../lib/gcc/x86_64-unknown-linux-gnu/4.9.2/ -mtune=corei7 -march=x86-64 -g -O2
#
# seed -1650630090  1389719105  1600601395   895997638  -546522128   461706908   713960668  -587573152  -921354192   573139121  -390511099 -1677835081
#
#      Author: C. J. Pickard (cjp20@cam.ac.uk)
#                Space group: Cc
#

%BLOCK LATTICE_ABC
      4.14457      5.76107      7.81296
    111.55761     90.00000    111.08204
%ENDBLOCK LATTICE_ABC

%BLOCK POSITIONS_FRAC
  Li  -0.2219683  -0.4439366   0.3031491 SPIN=   0.00000
  Li  -0.2219683  -0.4439366  -0.1968509 SPIN=   0.00000
   O   0.4595974   0.1518742   0.2732973 SPIN=   0.00000
   O   0.1602657  -0.3729759   0.1268143 SPIN=   0.00000
   O   0.2842892  -0.1294048  -0.0832616 SPIN=   0.00000
   O   0.7799865  -0.1482379   0.0871549 SPIN=   0.00000
   P   0.4273240  -0.1102386   0.1100118 SPIN=   0.00000
   O   0.6922769   0.1518742  -0.2267027 SPIN=   0.00000
   O   0.4667584  -0.3729759  -0.3731857 SPIN=   0.00000
   O   0.5863061  -0.1294048  -0.5832616 SPIN=   0.00000
   O   0.0717756  -0.1482379  -0.4128451 SPIN=   0.00000
   P   0.4624374  -0.1102386  -0.3899882 SPIN=   0.00000
  Fe   0.1099096   0.2198271   0.4619207 SPIN=   4.00000
  Fe   0.1099175   0.2198271  -0.0380793 SPIN=   4.00000
%ENDBLOCK POSITIONS_FRAC

# Note: total spin =   8.00

KPOINTS_MP_SPACING 0.07

%BLOCK SPECIES_POT
QC5
%ENDBLOCK SPECIES_POT

%BLOCK HUBBARD_U
Fe d:4.0
%ENDBLOCK HUBBARD_U

SNAP_TO_SYMMETRY
SYMMETRY_GENERATE

