#              Generated by Buildcell
#
# at 22:02:37 (GMT+0.0) 26th November 2020
# in /lustre/scratch/uccabz1/launch_tmp
# on node-c12l-021
# by uccabz1
#
# compiler GCC version 4.9.2
# options -cpp -iprefix /lustre/shared/ucl/apps/gcc/4.9.2/bin/../lib/gcc/x86_64-unknown-linux-gnu/4.9.2/ -mtune=corei7 -march=x86-64 -g -Og
#
# seed  1309669293   906053334  1686953453  1455725507   890737578   802955202 -1725377849  1617306591   815719043   956627895   383679294  1462979117
#
#      Author: C. J. Pickard (cjp20@cam.ac.uk)
#                Space group: P21
#

%BLOCK LATTICE_ABC
      4.25161      8.20144      9.30413
     90.00000     90.00000     99.47796
%ENDBLOCK LATTICE_ABC

%BLOCK POSITIONS_FRAC
  Li   0.2229837  -0.3734746   0.2999794 SPIN=   0.00000
  Li  -0.2229837   0.3734746  -0.2000206 SPIN=   0.00000
  Li   0.3188260   0.2914665  -0.4502759 SPIN=   0.00000
  Li  -0.3188260  -0.2914665   0.0497241 SPIN=   0.00000
   O   0.1809422  -0.3861863  -0.3299054 SPIN=   0.00000
   O   0.7101143  -0.3589211  -0.1855514 SPIN=   0.00000
   O   0.2136941  -0.3383370  -0.0539000 SPIN=   0.00000
   O   0.2973452  -0.6117622  -0.1532226 SPIN=   0.00000
   P   0.3408670  -0.4240169  -0.1882686 SPIN=   0.00000
   O  -0.1809422   0.3861863   0.1700946 SPIN=   0.00000
   O  -0.7101143   0.3589211   0.3144486 SPIN=   0.00000
   O  -0.2136941   0.3383370   0.4461000 SPIN=   0.00000
   O  -0.2973452   0.6117622   0.3467774 SPIN=   0.00000
   P  -0.3408670   0.4240169   0.3117314 SPIN=   0.00000
   O   0.0743409   0.0835803  -0.5599006 SPIN=   0.00000
   O  -0.1668620   0.1613448  -0.3177468 SPIN=   0.00000
   O  -0.4870610  -0.0508430  -0.4697179 SPIN=   0.00000
   O  -0.0026939  -0.1167406  -0.3438105 SPIN=   0.00000
   P  -0.1321738   0.0211503  -0.4291621 SPIN=   0.00000
   O  -0.0743409  -0.0835803  -0.0599006 SPIN=   0.00000
   O   0.1668620  -0.1613448   0.1822532 SPIN=   0.00000
   O   0.4870610   0.0508430   0.0302821 SPIN=   0.00000
   O   0.0026939   0.1167406   0.1561895 SPIN=   0.00000
   P   0.1321738  -0.0211503   0.0708379 SPIN=   0.00000
  Fe   0.3762845  -0.0050438  -0.2153859 SPIN=   6.72424
  Fe  -0.3762845   0.0050438   0.2846141 SPIN=   6.72424
  Fe   0.2609844   0.3325128   0.0667207 SPIN=   1.27576
  Fe  -0.2609844  -0.3325128  -0.4332793 SPIN=   1.27576
%ENDBLOCK POSITIONS_FRAC

# Note: total spin =  16.00

KPOINTS_MP_SPACING 0.07

%BLOCK SPECIES_POT
QC5
%ENDBLOCK SPECIES_POT

%BLOCK HUBBARD_U
Fe d:4.0
%ENDBLOCK HUBBARD_U

SNAP_TO_SYMMETRY
SYMMETRY_GENERATE

