#              Generated by Buildcell
#
# at 14:36:31 (GMT+0.0) 24th November 2020
# in /scratch/scratch/uccabz1/launch_tmp
# on node-a14f-014
# by uccabz1
#
# compiler GCC version 4.9.2
# options -cpp -iprefix /scratch/UCL/applications/gcc/4.9.2/bin/../lib/gcc/x86_64-unknown-linux-gnu/4.9.2/ -mtune=corei7 -march=x86-64 -g -O2
#
# seed  1170614813   415373238   -91423153 -1437243476  1821690936   486223129  -558437674  -652573468  1376125337  1012848223  1265478224   301739685
#
#      Author: C. J. Pickard (cjp20@cam.ac.uk)
#                Space group: P-1
#

%BLOCK LATTICE_ABC
      4.73446      5.06438      7.62871
     80.06491     78.02365     63.90158
%ENDBLOCK LATTICE_ABC

%BLOCK POSITIONS_FRAC
  Li  -0.0000000   0.5000000  -0.5000000 SPIN=   0.00000
  Li  -0.0000000  -0.5000000   0.0000000 SPIN=   0.00000
   O   0.0100055  -0.3225678  -0.2727785 SPIN=   0.00000
   O   0.5581052  -0.5214193  -0.1636012 SPIN=   0.00000
   O   0.4945985  -0.2447683  -0.4636377 SPIN=   0.00000
   O   0.2196832   0.0234182  -0.1874563 SPIN=   0.00000
   P   0.3028697  -0.2659091  -0.2709207 SPIN=   0.00000
   O  -0.0100055   0.3225678   0.2727785 SPIN=   0.00000
   O  -0.5581052   0.5214193   0.1636012 SPIN=   0.00000
   O  -0.4945985   0.2447683   0.4636377 SPIN=   0.00000
   O  -0.2196832  -0.0234182   0.1874563 SPIN=   0.00000
   P  -0.3028697   0.2659091   0.2709207 SPIN=   0.00000
  Fe  -0.6296670  -0.0975576   0.2768341 SPIN=   4.00000
  Fe   0.6296670   0.0975576  -0.2768341 SPIN=   4.00000
%ENDBLOCK POSITIONS_FRAC

# Note: total spin =   8.00

KPOINTS_MP_SPACING 0.07

%BLOCK SPECIES_POT
QC5
%ENDBLOCK SPECIES_POT

%BLOCK HUBBARD_U
Fe d:4.0
%ENDBLOCK HUBBARD_U

SNAP_TO_SYMMETRY
SYMMETRY_GENERATE

