#              Generated by Buildcell
#
# at 11:08:32 (GMT+0.0) 24th November 2020
# in /scratch/scratch/uccabz1/launch_tmp
# on node-a14a-027
# by uccabz1
#
# compiler GCC version 4.9.2
# options -cpp -iprefix /scratch/UCL/applications/gcc/4.9.2/bin/../lib/gcc/x86_64-unknown-linux-gnu/4.9.2/ -mtune=corei7 -march=x86-64 -g -O2
#
# seed  -523717114  1782316517 -1579754325  1956115220  1198312343  1098826025  1664980115   839751895  -888832228  -126078193  -649638172  -552005896
#
#      Author: C. J. Pickard (cjp20@cam.ac.uk)
#                Space group: C2
#

%BLOCK LATTICE_ABC
      4.43224      4.43224      8.25340
     83.73936     83.73936     86.43643
%ENDBLOCK LATTICE_ABC

%BLOCK POSITIONS_FRAC
  Li   0.0952599   0.4472303  -0.0218032 SPIN=   0.00000
  Li  -0.4472303  -0.0952599   0.0218032 SPIN=   0.00000
   O   0.5228832   0.0979795  -0.4481698 SPIN=   0.00000
   O   0.5790145   0.2716138  -0.1627614 SPIN=   0.00000
   O   0.2185186   0.5639877  -0.3354793 SPIN=   0.00000
   O   0.0976931   0.0405381  -0.2083074 SPIN=   0.00000
   P   0.3604606   0.2333844  -0.2962231 SPIN=   0.00000
   O  -0.0979795  -0.5228832   0.4481698 SPIN=   0.00000
   O  -0.2716138  -0.5790145   0.1627614 SPIN=   0.00000
   O  -0.5639877  -0.2185186   0.3354793 SPIN=   0.00000
   O  -0.0405381  -0.0976931   0.2083074 SPIN=   0.00000
   P  -0.2333844  -0.3604606   0.2962231 SPIN=   0.00000
  Fe   0.2847745   0.2356130   0.3489208 SPIN=   4.00000
  Fe  -0.2356130  -0.2847745  -0.3489208 SPIN=   4.00000
%ENDBLOCK POSITIONS_FRAC

# Note: total spin =   8.00

KPOINTS_MP_SPACING 0.07

%BLOCK SPECIES_POT
QC5
%ENDBLOCK SPECIES_POT

%BLOCK HUBBARD_U
Fe d:4.0
%ENDBLOCK HUBBARD_U

SNAP_TO_SYMMETRY
SYMMETRY_GENERATE

