#              Generated by Buildcell
#
# at 14:20:00 (GMT+0.0) 26th November 2020
# in /scratch/scratch/uccabz1/launch_tmp
# on node-k10g-021
# by uccabz1
#
# compiler GCC version 4.9.2
# options -cpp -iprefix /scratch/UCL/applications/gcc/4.9.2/bin/../lib/gcc/x86_64-unknown-linux-gnu/4.9.2/ -mtune=corei7 -march=x86-64 -g -O2
#
# seed  1222103028  -950907320   410237248 -1533286391   -74644120  1793187284  -775401929  1725234541  1242900695   338975791  1513711732   748450769
#
#      Author: C. J. Pickard (cjp20@cam.ac.uk)
#                Space group: C2
#

%BLOCK LATTICE_ABC
      6.15742      7.67301      7.67301
     66.55127     76.83397     76.83397
%ENDBLOCK LATTICE_ABC

%BLOCK POSITIONS_FRAC
  Li   0.4804140  -0.6107108   0.3862568 SPIN=   0.00000
  Li  -0.4804140   0.6137432  -0.3892892 SPIN=   0.00000
  Li   0.1439558   0.1225650   0.0684184 SPIN=   0.00000
  Li  -0.1439558  -0.0684184  -0.1225650 SPIN=   0.00000
   O  -0.5938042   0.0809517  -0.5112664 SPIN=   0.00000
   O  -0.6278645   0.0279846  -0.1505238 SPIN=   0.00000
   O  -0.3134149  -0.1657281  -0.2892686 SPIN=   0.00000
   O  -0.3104528   0.1862602  -0.3849782 SPIN=   0.00000
   P  -0.4666537   0.0367701  -0.3440488 SPIN=   0.00000
   O   0.5938042   0.5112664  -0.0809517 SPIN=   0.00000
   O   0.6278645   0.1505238  -0.0279846 SPIN=   0.00000
   O   0.3134149   0.2892686   0.1657281 SPIN=   0.00000
   O   0.3104528   0.3849782  -0.1862602 SPIN=   0.00000
   P   0.4666537   0.3440488  -0.0367701 SPIN=   0.00000
   O   0.1971494  -0.4032315   0.4103731 SPIN=   0.00000
   O  -0.0591196  -0.0752480   0.3768130 SPIN=   0.00000
   O   0.2094666  -0.2007214   0.6094781 SPIN=   0.00000
   O   0.3553335  -0.0820074   0.2565350 SPIN=   0.00000
   P   0.1789689  -0.2003615   0.4112940 SPIN=   0.00000
   O  -0.1971494  -0.4103731   0.4032315 SPIN=   0.00000
   O   0.0591196  -0.3768130   0.0752480 SPIN=   0.00000
   O  -0.2094666  -0.6094781   0.2007214 SPIN=   0.00000
   O  -0.3553335  -0.2565350   0.0820074 SPIN=   0.00000
   P  -0.1789689  -0.4112940   0.2003615 SPIN=   0.00000
  Fe  -0.0104241   0.5458944  -0.2315047 SPIN=   4.78318
  Fe   0.0104241  -0.7684953   0.4541056 SPIN=   4.78318
  Fe   0.3626489  -0.2683428  -0.0146972 SPIN=   3.21682
  Fe  -0.3626489   0.0146972   0.2683428 SPIN=   3.21682
%ENDBLOCK POSITIONS_FRAC

# Note: total spin =  16.00

KPOINTS_MP_SPACING 0.07

%BLOCK SPECIES_POT
QC5
%ENDBLOCK SPECIES_POT

%BLOCK HUBBARD_U
Fe d:4.0
%ENDBLOCK HUBBARD_U

SNAP_TO_SYMMETRY
SYMMETRY_GENERATE

