#              Generated by Buildcell
#
# at 14:04:03 (GMT+0.0) 24th November 2020
# in /lustre/scratch/uccabz1/launch_tmp
# on node-c12k-030
# by uccabz1
#
# compiler GCC version 4.9.2
# options -cpp -iprefix /lustre/shared/ucl/apps/gcc/4.9.2/bin/../lib/gcc/x86_64-unknown-linux-gnu/4.9.2/ -mtune=corei7 -march=x86-64 -g -Og
#
# seed  1098022828   562895839   239876088 -1768709292 -2029466424   938260916   658194367  -534283346   372566154 -2086094215 -1809846161  -352301893
#
#      Author: C. J. Pickard (cjp20@cam.ac.uk)
#                Space group: C2
#

%BLOCK LATTICE_ABC
      4.12363      4.84591      8.84771
     89.98549     89.96590     64.81929
%ENDBLOCK LATTICE_ABC

%BLOCK POSITIONS_FRAC
  Li   0.4558844   0.0730798  -0.2797741 SPIN=   0.00000
  Li   0.4710359   0.0730798   0.2797741 SPIN=   0.00000
   O  -0.0728730   0.1241174  -0.2074316 SPIN=   0.00000
   O  -0.6598186   0.5964339  -0.2758296 SPIN=   0.00000
   O  -0.2012960   0.6762791  -0.1263012 SPIN=   0.00000
   P  -0.2429355   0.4632886  -0.2515393 SPIN=   0.00000
   O  -0.0512444   0.1241174   0.2074316 SPIN=   0.00000
   O   0.0633847   0.5964339   0.2758296 SPIN=   0.00000
   O  -0.4749831   0.6762791   0.1263012 SPIN=   0.00000
   P  -0.2203531   0.4632886   0.2515393 SPIN=   0.00000
   O  -0.1307557   0.2615114  -0.5000000 SPIN=   0.00000
   O  -0.4125810  -0.1748379   0.5000000 SPIN=   0.00000
  Fe   0.1593593  -0.3187186   0.5000000 SPIN=   5.97031
  Fe   0.0540283  -0.1080565  -0.0000000 SPIN=   2.02969
%ENDBLOCK POSITIONS_FRAC

# Note: total spin =   8.00

KPOINTS_MP_SPACING 0.07

%BLOCK SPECIES_POT
QC5
%ENDBLOCK SPECIES_POT

%BLOCK HUBBARD_U
Fe d:4.0
%ENDBLOCK HUBBARD_U

SNAP_TO_SYMMETRY
SYMMETRY_GENERATE

