#              Generated by Buildcell
#
# at 09:22:06 (GMT+0.0) 24th November 2020
# in /lustre/scratch/uccabz1/launch_tmp
# on node-c12f-031
# by uccabz1
#
# compiler GCC version 4.9.2
# options -cpp -iprefix /lustre/shared/ucl/apps/gcc/4.9.2/bin/../lib/gcc/x86_64-unknown-linux-gnu/4.9.2/ -mtune=corei7 -march=x86-64 -g -Og
#
# seed  -577561652  -360655080  1583534092  -621713080   611574503  -687711001 -1036670388   -78726238 -1621626220  1762304506  1041377845   652348667
#
#      Author: C. J. Pickard (cjp20@cam.ac.uk)
#                Space group: Pcc2
#

%BLOCK LATTICE_ABC
      4.19277      4.86656      7.84145
     90.00000     90.00000     90.00000
%ENDBLOCK LATTICE_ABC

%BLOCK POSITIONS_FRAC
  Li   0.5000000  -0.5000000  -0.1260597 SPIN=   0.00000
  Li   0.5000000   0.5000000   0.3739403 SPIN=   0.00000
   O  -0.7283392  -0.3179676   0.0956240 SPIN=   0.00000
   O  -0.2099831  -0.1906131   0.2590576 SPIN=   0.00000
   O   0.7283392   0.3179676   0.0956240 SPIN=   0.00000
   O   0.2099831   0.1906131   0.2590576 SPIN=   0.00000
   O  -0.7283392   0.3179676  -0.4043760 SPIN=   0.00000
   O  -0.2099831   0.1906131  -0.2409424 SPIN=   0.00000
   O   0.7283392  -0.3179676  -0.4043760 SPIN=   0.00000
   O   0.2099831  -0.1906131  -0.2409424 SPIN=   0.00000
   P   0.5000000   0.0000000   0.2261336 SPIN=   0.00000
   P   0.5000000   0.0000000  -0.2738664 SPIN=   0.00000
  Fe   0.0000000   0.0000000  -0.0238344 SPIN=   4.00000
  Fe   0.0000000   0.0000000   0.4761656 SPIN=   4.00000
%ENDBLOCK POSITIONS_FRAC

# Note: total spin =   8.00

KPOINTS_MP_SPACING 0.07

%BLOCK SPECIES_POT
QC5
%ENDBLOCK SPECIES_POT

%BLOCK HUBBARD_U
Fe d:4.0
%ENDBLOCK HUBBARD_U

SNAP_TO_SYMMETRY
SYMMETRY_GENERATE

