#              Generated by Buildcell
#
# at 06:59:29 (GMT+0.0) 24th November 2020
# in /lustre/scratch/uccabz1/launch_tmp
# on node-c12h-027
# by uccabz1
#
# compiler GCC version 4.9.2
# options -cpp -iprefix /lustre/shared/ucl/apps/gcc/4.9.2/bin/../lib/gcc/x86_64-unknown-linux-gnu/4.9.2/ -mtune=corei7 -march=x86-64 -g -Og
#
# seed   168068732    25209601  -413458176 -1624966959  -178743137 -1849745178  1606717411   682656410  1484216472  1810673551   435276433   778508673
#
#      Author: C. J. Pickard (cjp20@cam.ac.uk)
#                Space group: Cmc21
#

%BLOCK LATTICE_ABC
      5.39616      5.64596      5.90421
     90.00000    117.19209     90.00000
%ENDBLOCK LATTICE_ABC

%BLOCK POSITIONS_FRAC
  Li  -0.0536526  -0.1380124  -0.1073052 SPIN=   0.00000
  Li   0.0536526   0.3619876   0.1073052 SPIN=   0.00000
   O   0.3833385   0.1143621   0.2304753 SPIN=   0.00000
   O   0.4152299   0.5698343   0.3008608 SPIN=   0.00000
   O  -0.3833385  -0.3856379  -0.2304753 SPIN=   0.00000
   O  -0.4152299   0.0698343  -0.3008608 SPIN=   0.00000
   O   0.1528632  -0.3856379  -0.2304753 SPIN=   0.00000
   O   0.1143691   0.0698343  -0.3008608 SPIN=   0.00000
   O  -0.1528632   0.1143621   0.2304753 SPIN=   0.00000
   O  -0.1143691   0.5698343   0.3008608 SPIN=   0.00000
   P  -0.3853599  -0.1401889   0.2292802 SPIN=   0.00000
   P   0.3853599   0.3598111  -0.2292802 SPIN=   0.00000
  Fe   0.2654590  -0.1831176  -0.4690821 SPIN=   4.00000
  Fe  -0.2654590   0.3168824   0.4690821 SPIN=   4.00000
%ENDBLOCK POSITIONS_FRAC

# Note: total spin =   8.00

KPOINTS_MP_SPACING 0.07

%BLOCK SPECIES_POT
QC5
%ENDBLOCK SPECIES_POT

%BLOCK HUBBARD_U
Fe d:4.0
%ENDBLOCK HUBBARD_U

SNAP_TO_SYMMETRY
SYMMETRY_GENERATE

