#              Generated by Buildcell
#
# at 15:29:04 (GMT+0.0) 26th November 2020
# in /lustre/scratch/uccabz1/launch_tmp
# on node-c12m-034
# by uccabz1
#
# compiler GCC version 4.9.2
# options -cpp -iprefix /lustre/shared/ucl/apps/gcc/4.9.2/bin/../lib/gcc/x86_64-unknown-linux-gnu/4.9.2/ -mtune=corei7 -march=x86-64 -g -Og
#
# seed  -533872887 -1134137401   214139253  1220399230  1309301635 -1303892466  1680152494    85535867 -1158879804  -785263452  1750097607   776215102
#
#      Author: C. J. Pickard (cjp20@cam.ac.uk)
#                Space group: P2
#

%BLOCK LATTICE_ABC
      4.25520      8.70345      8.74385
     90.00000     98.81794     90.00000
%ENDBLOCK LATTICE_ABC

%BLOCK POSITIONS_FRAC
  Li   0.5000000   0.0680393  -0.0000000 SPIN=   0.00000
  Li  -0.5000000  -0.1702570  -0.5000000 SPIN=   0.00000
  Li   0.0000000  -0.4580110  -0.5000000 SPIN=   0.00000
  Li   0.0000000   0.3318711   0.0000000 SPIN=   0.00000
   O  -0.7596770   0.5208430  -0.2719308 SPIN=   0.00000
   O  -0.7315965   0.2689906  -0.4287686 SPIN=   0.00000
   O  -0.2391572   0.3645677  -0.2709335 SPIN=   0.00000
   O  -0.6728770   0.2556128  -0.1396805 SPIN=   0.00000
   P  -0.6101352   0.3603233  -0.2758840 SPIN=   0.00000
   O   0.7596770   0.5208430   0.2719308 SPIN=   0.00000
   O   0.7315965   0.2689906   0.4287686 SPIN=   0.00000
   O   0.2391572   0.3645677   0.2709335 SPIN=   0.00000
   O   0.6728770   0.2556128   0.1396805 SPIN=   0.00000
   P   0.6101352   0.3603233   0.2758840 SPIN=   0.00000
   O  -0.2278111  -0.2795598   0.0728861 SPIN=   0.00000
   O  -0.5373588  -0.1010577   0.2356912 SPIN=   0.00000
   O   0.0015516  -0.1861588   0.3497609 SPIN=   0.00000
   O  -0.0641103   0.0027175   0.1311086 SPIN=   0.00000
   P  -0.2063585  -0.1466954   0.1899521 SPIN=   0.00000
   O   0.2278111  -0.2795598  -0.0728861 SPIN=   0.00000
   O   0.5373588  -0.1010577  -0.2356912 SPIN=   0.00000
   O  -0.0015516  -0.1861588  -0.3497609 SPIN=   0.00000
   O   0.0641103   0.0027175  -0.1311086 SPIN=   0.00000
   P   0.2063585  -0.1466954  -0.1899521 SPIN=   0.00000
  Fe  -0.2959949  -0.3624615  -0.1856734 SPIN=   3.51870
  Fe   0.2959949  -0.3624615   0.1856734 SPIN=   3.51870
  Fe   0.1757255   0.1269125   0.3139463 SPIN=   4.48130
  Fe  -0.1757255   0.1269125  -0.3139463 SPIN=   4.48130
%ENDBLOCK POSITIONS_FRAC

# Note: total spin =  16.00

KPOINTS_MP_SPACING 0.07

%BLOCK SPECIES_POT
QC5
%ENDBLOCK SPECIES_POT

%BLOCK HUBBARD_U
Fe d:4.0
%ENDBLOCK HUBBARD_U

SNAP_TO_SYMMETRY
SYMMETRY_GENERATE

