#              Generated by Buildcell
#
# at 11:04:33 (GMT+0.0) 24th November 2020
# in /scratch/scratch/uccabz1/launch_tmp
# on node-a14f-024
# by uccabz1
#
# compiler GCC version 4.9.2
# options -cpp -iprefix /scratch/UCL/applications/gcc/4.9.2/bin/../lib/gcc/x86_64-unknown-linux-gnu/4.9.2/ -mtune=corei7 -march=x86-64 -g -O2
#
# seed  1190620078 -1934599615 -1549888243  -652349814  -149650277  1527487511   627144962  1127009721   742965081 -2016982750    57373400   834397616
#
#      Author: C. J. Pickard (cjp20@cam.ac.uk)
#                Space group: P21/m
#

%BLOCK LATTICE_ABC
      3.89422      5.56175      7.53312
     90.00000     90.00000    101.29062
%ENDBLOCK LATTICE_ABC

%BLOCK POSITIONS_FRAC
  Li   0.0000000  -0.0000000  -0.0000000 SPIN=   0.00000
  Li  -0.0000000   0.0000000   0.5000000 SPIN=   0.00000
   O  -0.3970881   0.1880311   0.4135042 SPIN=   0.00000
   O   0.1739047   0.3652652   0.5861916 SPIN=   0.00000
   O   0.3970881  -0.1880311  -0.0864958 SPIN=   0.00000
   O  -0.1739047  -0.3652652   0.0861916 SPIN=   0.00000
   O   0.3970881  -0.1880311  -0.4135042 SPIN=   0.00000
   O  -0.1739047  -0.3652652  -0.5861916 SPIN=   0.00000
   O  -0.3970881   0.1880311   0.0864958 SPIN=   0.00000
   O   0.1739047   0.3652652  -0.0861916 SPIN=   0.00000
   P  -0.4989454   0.0114654   0.2500000 SPIN=   0.00000
   P   0.4989454  -0.0114654  -0.2500000 SPIN=   0.00000
  Fe   0.1972906   0.4975502   0.2500000 SPIN=   4.00000
  Fe  -0.1972906  -0.4975502  -0.2500000 SPIN=   4.00000
%ENDBLOCK POSITIONS_FRAC

# Note: total spin =   8.00

KPOINTS_MP_SPACING 0.07

%BLOCK SPECIES_POT
QC5
%ENDBLOCK SPECIES_POT

%BLOCK HUBBARD_U
Fe d:4.0
%ENDBLOCK HUBBARD_U

SNAP_TO_SYMMETRY
SYMMETRY_GENERATE

