#              Generated by Buildcell
#
# at 01:46:25 (GMT+0.0) 27th November 2020
# in /scratch/scratch/mmm0366/launch_tmp
# on node-k98r-025
# by mmm0366
#
# compiler GCC version 4.9.2
# options -cpp -iprefix /scratch/UCL/applications/gcc/4.9.2/bin/../lib/gcc/x86_64-unknown-linux-gnu/4.9.2/ -mtune=corei7 -march=x86-64 -g -O2
#
# seed  -915140892  1973167155 -1839289323   474559700  -273918049  1626813252   -83822256   469096301 -1896143908   468677355  1223304475  1264571924
#
#      Author: C. J. Pickard (cjp20@cam.ac.uk)
#                Space group: P-1
#

%BLOCK LATTICE_ABC
      6.40510      6.62150      8.47876
     78.12502     82.21138     65.61834
%ENDBLOCK LATTICE_ABC

%BLOCK POSITIONS_FRAC
  Li   0.1122826  -0.1692629  -0.3130019 SPIN=   0.00000
  Li  -0.1122826   0.1692629   0.3130019 SPIN=   0.00000
  Li  -0.0000000   0.0000000   0.0000000 SPIN=   0.00000
  Li  -0.5000000  -0.5000000  -0.0000000 SPIN=   0.00000
   O   0.6298333   0.1267572   0.1710717 SPIN=   0.00000
   O   0.2995287   0.1288208   0.0226671 SPIN=   0.00000
   O   0.2883371   0.0371900   0.3203607 SPIN=   0.00000
   O   0.2177455   0.4316429   0.1853167 SPIN=   0.00000
   P   0.3716237   0.1811657   0.1747761 SPIN=   0.00000
   O  -0.6298333  -0.1267572  -0.1710717 SPIN=   0.00000
   O  -0.2995287  -0.1288208  -0.0226671 SPIN=   0.00000
   O  -0.2883371  -0.0371900  -0.3203607 SPIN=   0.00000
   O  -0.2177455  -0.4316429  -0.1853167 SPIN=   0.00000
   P  -0.3716237  -0.1811657  -0.1747761 SPIN=   0.00000
   O  -0.4346910  -0.3210228   0.4563836 SPIN=   0.00000
   O  -0.0966382  -0.2380019   0.2939665 SPIN=   0.00000
   O  -0.0235160  -0.6282556   0.4258624 SPIN=   0.00000
   O  -0.2641534  -0.4595203   0.1854393 SPIN=   0.00000
   P  -0.2176939  -0.4074363   0.3447589 SPIN=   0.00000
   O   0.4346910   0.3210228  -0.4563836 SPIN=   0.00000
   O   0.0966382   0.2380019  -0.2939665 SPIN=   0.00000
   O   0.0235160   0.6282556  -0.4258624 SPIN=   0.00000
   O   0.2641534   0.4595203  -0.1854393 SPIN=   0.00000
   P   0.2176939   0.4074363  -0.3447589 SPIN=   0.00000
  Fe   0.2492474  -0.3561773   0.3405618 SPIN=   4.01806
  Fe  -0.2492474   0.3561773  -0.3405618 SPIN=   4.01806
  Fe  -0.0000000   0.5000000   0.0000000 SPIN=   5.37202
  Fe   0.5000000   0.0000000  -0.5000000 SPIN=   2.59186
%ENDBLOCK POSITIONS_FRAC

# Note: total spin =  16.00

KPOINTS_MP_SPACING 0.07

%BLOCK SPECIES_POT
QC5
%ENDBLOCK SPECIES_POT

%BLOCK HUBBARD_U
Fe d:4.0
%ENDBLOCK HUBBARD_U

SNAP_TO_SYMMETRY
SYMMETRY_GENERATE

