#              Generated by Buildcell
#
# at 01:14:59 (GMT+0.0) 27th November 2020
# in /lustre/scratch/uccabz1/launch_tmp
# on node-c12i-029
# by uccabz1
#
# compiler GCC version 4.9.2
# options -cpp -iprefix /lustre/shared/ucl/apps/gcc/4.9.2/bin/../lib/gcc/x86_64-unknown-linux-gnu/4.9.2/ -mtune=corei7 -march=x86-64 -g -Og
#
# seed -1118058882  1444280176  -834345063  -273955702  1639070883  1654660469  -953967253   798239569   216053739  2005535518  -153160045  1822454205
#
#      Author: C. J. Pickard (cjp20@cam.ac.uk)
#                Space group: Cc
#

%BLOCK LATTICE_ABC
      5.75515      7.52443      7.52443
     93.67033     96.97972     96.97972
%ENDBLOCK LATTICE_ABC

%BLOCK POSITIONS_FRAC
  Li   0.2542222   0.1941588  -0.1276850 SPIN=   0.00000
  Li  -0.2457778  -0.1276850   0.1941588 SPIN=   0.00000
  Li   0.2548518  -0.1778585   0.0012598 SPIN=   0.00000
  Li  -0.2451482   0.0012598  -0.1778585 SPIN=   0.00000
   O   0.0837894   0.4682561  -0.4666448 SPIN=   0.00000
   O   0.1621996   0.4789874  -0.1184798 SPIN=   0.00000
   O   0.4464808   0.3510955  -0.2943966 SPIN=   0.00000
   O   0.4255273   0.6820894  -0.2817684 SPIN=   0.00000
   P   0.2708020   0.4958840  -0.2996097 SPIN=   0.00000
   O  -0.4162106  -0.4666448   0.4682561 SPIN=   0.00000
   O  -0.3378004  -0.1184798   0.4789874 SPIN=   0.00000
   O  -0.0535192  -0.2943966   0.3510955 SPIN=   0.00000
   O  -0.0744727  -0.2817684   0.6820894 SPIN=   0.00000
   P  -0.2291980  -0.2996097   0.4958840 SPIN=   0.00000
   O   0.4045903   0.2346017   0.3288294 SPIN=   0.00000
   O   0.0071266   0.0708029   0.4010844 SPIN=   0.00000
   O   0.0704954   0.0831079   0.0830396 SPIN=   0.00000
   O   0.2983540  -0.1099798   0.2789916 SPIN=   0.00000
   P   0.2075117   0.0762973   0.2760305 SPIN=   0.00000
   O  -0.0954097   0.3288294   0.2346017 SPIN=   0.00000
   O  -0.4928734   0.4010844   0.0708029 SPIN=   0.00000
   O  -0.4295046   0.0830396   0.0831079 SPIN=   0.00000
   O  -0.2016460   0.2789916  -0.1099798 SPIN=   0.00000
   P  -0.2924883   0.2760305   0.0762973 SPIN=   0.00000
  Fe   0.2489146  -0.1376923  -0.4294793 SPIN=   5.46194
  Fe  -0.2510854  -0.4294793  -0.1376923 SPIN=   5.46194
  Fe   0.2448276   0.4624752   0.2266086 SPIN=   2.53806
  Fe  -0.2551724   0.2266086   0.4624752 SPIN=   2.53806
%ENDBLOCK POSITIONS_FRAC

# Note: total spin =  16.00

KPOINTS_MP_SPACING 0.07

%BLOCK SPECIES_POT
QC5
%ENDBLOCK SPECIES_POT

%BLOCK HUBBARD_U
Fe d:4.0
%ENDBLOCK HUBBARD_U

SNAP_TO_SYMMETRY
SYMMETRY_GENERATE

