#              Generated by Buildcell
#
# at 12:50:24 (GMT+0.0) 24th November 2020
# in /scratch/scratch/uccabz1/launch_tmp
# on node-a14a-010
# by uccabz1
#
# compiler GCC version 4.9.2
# options -cpp -iprefix /scratch/UCL/applications/gcc/4.9.2/bin/../lib/gcc/x86_64-unknown-linux-gnu/4.9.2/ -mtune=corei7 -march=x86-64 -g -O2
#
# seed  2030428228 -2014314703  -996713793  1511424151 -1310938402   231697181  1778072374  1724918400  -851355238   639578550   296027533  -981309041
#
#      Author: C. J. Pickard (cjp20@cam.ac.uk)
#                Space group: Cc
#

%BLOCK LATTICE_ABC
      4.80678      4.80678      7.93844
     93.15820     93.15820    118.66307
%ENDBLOCK LATTICE_ABC

%BLOCK POSITIONS_FRAC
  Li   0.1989411   0.0619163   0.2592890 SPIN=   0.00000
  Li  -0.4380837  -0.3010589  -0.2407110 SPIN=   0.00000
   O  -0.8202122  -0.3829334   0.2774893 SPIN=   0.00000
   O  -0.2291856   0.0627122   0.3043241 SPIN=   0.00000
   O  -0.3900114  -0.3606966   0.4991415 SPIN=   0.00000
   O  -0.3667826  -0.4896599   0.1919920 SPIN=   0.00000
   P  -0.4701771  -0.2997768   0.3145773 SPIN=   0.00000
   O   0.1170666  -0.3202122  -0.2225107 SPIN=   0.00000
   O   0.5627122   0.2708144  -0.1956759 SPIN=   0.00000
   O   0.1393034   0.1099886  -0.0008585 SPIN=   0.00000
   O   0.0103401   0.1332174  -0.3080080 SPIN=   0.00000
   P   0.2002232   0.0298229  -0.1854227 SPIN=   0.00000
  Fe   0.9126295   0.4378166   0.4948324 SPIN=   4.00000
  Fe  -0.0621834   0.4126295  -0.0051676 SPIN=   4.00000
%ENDBLOCK POSITIONS_FRAC

# Note: total spin =   8.00

KPOINTS_MP_SPACING 0.07

%BLOCK SPECIES_POT
QC5
%ENDBLOCK SPECIES_POT

%BLOCK HUBBARD_U
Fe d:4.0
%ENDBLOCK HUBBARD_U

SNAP_TO_SYMMETRY
SYMMETRY_GENERATE

