#              Generated by Buildcell
#
# at 22:16:55 (GMT+0.0) 26th November 2020
# in /lustre/scratch/uccabz1/launch_tmp
# on node-c12e-023
# by uccabz1
#
# compiler GCC version 4.9.2
# options -cpp -iprefix /lustre/shared/ucl/apps/gcc/4.9.2/bin/../lib/gcc/x86_64-unknown-linux-gnu/4.9.2/ -mtune=corei7 -march=x86-64 -g -Og
#
# seed  1882674711 -1840041476  2020176738   734538752  -848853272  -944331061   980269737  1045650488   -57439180   723089323  -897712497 -1651883021
#
#      Author: C. J. Pickard (cjp20@cam.ac.uk)
#                Space group: Pmn21
#

%BLOCK LATTICE_ABC
      5.61670      7.32098      7.78215
     90.00000     90.00000     90.00000
%ENDBLOCK LATTICE_ABC

%BLOCK POSITIONS_FRAC
  Li   0.4992429   0.0000000   0.2285610 SPIN=   0.00000
  Li  -0.4992429  -0.5000000  -0.2714390 SPIN=   0.00000
  Li   0.0377672  -0.0000000   0.4301877 SPIN=   0.00000
  Li  -0.0377672   0.5000000  -0.0698123 SPIN=   0.00000
   O   0.3095231  -0.3052369  -0.4306729 SPIN=   0.00000
   O  -0.1027485  -0.3221375  -0.2801246 SPIN=   0.00000
   O   0.2587055  -0.3250674  -0.0993686 SPIN=   0.00000
   P   0.1600118  -0.2480859  -0.2741138 SPIN=   0.00000
   O  -0.3095231  -0.1947631   0.0693271 SPIN=   0.00000
   O   0.1027485  -0.1778625   0.2198754 SPIN=   0.00000
   O  -0.2587055  -0.1749326   0.4006314 SPIN=   0.00000
   P  -0.1600118  -0.2519141   0.2258862 SPIN=   0.00000
   O  -0.3095231   0.1947631   0.0693271 SPIN=   0.00000
   O   0.1027485   0.1778625   0.2198754 SPIN=   0.00000
   O  -0.2587055   0.1749326   0.4006314 SPIN=   0.00000
   P  -0.1600118   0.2519141   0.2258862 SPIN=   0.00000
   O   0.3095231   0.3052369  -0.4306729 SPIN=   0.00000
   O  -0.1027485   0.3221375  -0.2801246 SPIN=   0.00000
   O   0.2587055   0.3250674  -0.0993686 SPIN=   0.00000
   P   0.1600118   0.2480859  -0.2741138 SPIN=   0.00000
   O   0.0483742   0.0000000  -0.2936438 SPIN=   0.00000
   O  -0.0483742   0.5000000   0.2063562 SPIN=   0.00000
   O   0.4060738   0.0000000  -0.0960335 SPIN=   0.00000
   O  -0.4060738  -0.5000000   0.4039665 SPIN=   0.00000
  Fe   0.0287428   0.0000000  -0.0116742 SPIN=   2.68599
  Fe  -0.0287428   0.5000000   0.4883258 SPIN=   2.68599
  Fe  -0.4632392  -0.0000000  -0.3522081 SPIN=   5.31401
  Fe   0.4632392  -0.5000000   0.1477919 SPIN=   5.31401
%ENDBLOCK POSITIONS_FRAC

# Note: total spin =  16.00

KPOINTS_MP_SPACING 0.07

%BLOCK SPECIES_POT
QC5
%ENDBLOCK SPECIES_POT

%BLOCK HUBBARD_U
Fe d:4.0
%ENDBLOCK HUBBARD_U

SNAP_TO_SYMMETRY
SYMMETRY_GENERATE

