#              Generated by Buildcell
#
# at 23:57:42 (GMT+0.0) 26th November 2020
# in /lustre/scratch/uccabz1/launch_tmp
# on node-c12i-031
# by uccabz1
#
# compiler GCC version 4.9.2
# options -cpp -iprefix /lustre/shared/ucl/apps/gcc/4.9.2/bin/../lib/gcc/x86_64-unknown-linux-gnu/4.9.2/ -mtune=corei7 -march=x86-64 -g -Og
#
# seed  -716932437  -992309225 -2055734880  -644632302 -1688722193 -1901100378  1517178650  2017621935  -221915617  1225634179 -1012550832   769955913
#
#      Author: C. J. Pickard (cjp20@cam.ac.uk)
#                Space group: Pna21
#

%BLOCK LATTICE_ABC
      4.58404      8.21158      8.50108
     90.00000     90.00000     90.00000
%ENDBLOCK LATTICE_ABC

%BLOCK POSITIONS_FRAC
  Li  -0.2911567  -0.1273784   0.1379073 SPIN=   0.00000
  Li   0.2088433   0.1273784  -0.1379073 SPIN=   0.00000
  Li  -0.2911567   0.3726216   0.3620927 SPIN=   0.00000
  Li   0.2088433  -0.3726216  -0.3620927 SPIN=   0.00000
   O  -0.2755024  -0.3852836   0.5527460 SPIN=   0.00000
   O  -0.3438768  -0.1095006   0.4075651 SPIN=   0.00000
   O  -0.2777260  -0.3583136   0.2482444 SPIN=   0.00000
   O  -0.7435581  -0.3171281   0.3969246 SPIN=   0.00000
   P  -0.4069301  -0.2977837   0.4093776 SPIN=   0.00000
   O   0.2244976   0.3852836  -0.5527460 SPIN=   0.00000
   O   0.1561232   0.1095006  -0.4075651 SPIN=   0.00000
   O   0.2222740   0.3583136  -0.2482444 SPIN=   0.00000
   O  -0.2435581   0.3171281  -0.3969246 SPIN=   0.00000
   P   0.0930699   0.2977837  -0.4093776 SPIN=   0.00000
   O  -0.2755024   0.1147164  -0.0527460 SPIN=   0.00000
   O  -0.3438768   0.3904994   0.0924349 SPIN=   0.00000
   O  -0.2777260   0.1416864   0.2517556 SPIN=   0.00000
   O  -0.7435581   0.1828719   0.1030754 SPIN=   0.00000
   P  -0.4069301   0.2022163   0.0906224 SPIN=   0.00000
   O   0.2244976  -0.1147164   0.0527460 SPIN=   0.00000
   O   0.1561232  -0.3904994  -0.0924349 SPIN=   0.00000
   O   0.2222740  -0.1416864  -0.2517556 SPIN=   0.00000
   O  -0.2435581  -0.1828719  -0.1030754 SPIN=   0.00000
   P   0.0930699  -0.2022163  -0.0906224 SPIN=   0.00000
  Fe  -0.2911571  -0.0835650  -0.3312747 SPIN=   4.00000
  Fe   0.2088429   0.0835650   0.3312747 SPIN=   4.00000
  Fe  -0.2911571   0.4164350  -0.1687253 SPIN=   4.00000
  Fe   0.2088429  -0.4164350   0.1687253 SPIN=   4.00000
%ENDBLOCK POSITIONS_FRAC

# Note: total spin =  16.00

KPOINTS_MP_SPACING 0.07

%BLOCK SPECIES_POT
QC5
%ENDBLOCK SPECIES_POT

%BLOCK HUBBARD_U
Fe d:4.0
%ENDBLOCK HUBBARD_U

SNAP_TO_SYMMETRY
SYMMETRY_GENERATE

