#              Generated by Buildcell
#
# at 16:00:30 (GMT+0.0) 26th November 2020
# in /lustre/scratch/uccabz1/launch_tmp
# on node-c12f-021
# by uccabz1
#
# compiler GCC version 4.9.2
# options -cpp -iprefix /lustre/shared/ucl/apps/gcc/4.9.2/bin/../lib/gcc/x86_64-unknown-linux-gnu/4.9.2/ -mtune=corei7 -march=x86-64 -g -Og
#
# seed  1187094814 -1184577107 -1699444225   683281542 -1760342291 -1379630953  -657713042   378134885  1887424372 -1284009402   883923019  1413342330
#
#      Author: C. J. Pickard (cjp20@cam.ac.uk)
#                Space group: P-1
#

%BLOCK LATTICE_ABC
      4.41904      5.82977     13.30136
     91.97139     96.56188    109.46749
%ENDBLOCK LATTICE_ABC

%BLOCK POSITIONS_FRAC
  Li  -0.1279291  -0.4228202   0.3038746 SPIN=   0.00000
  Li   0.1279291   0.4228202  -0.3038746 SPIN=   0.00000
  Li   0.0000000  -0.0000000   0.0000000 SPIN=   0.00000
  Li   0.5000000   0.5000000  -0.0000000 SPIN=   0.00000
   O   0.4011418  -0.0188967   0.3246410 SPIN=   0.00000
   O   0.8684807  -0.1375752   0.4194054 SPIN=   0.00000
   O   0.3475921  -0.2502600   0.4887818 SPIN=   0.00000
   O   0.3836687  -0.4659708   0.3268515 SPIN=   0.00000
   P   0.4935700  -0.2104893   0.3856999 SPIN=   0.00000
   O  -0.4011418   0.0188967  -0.3246410 SPIN=   0.00000
   O  -0.8684807   0.1375752  -0.4194054 SPIN=   0.00000
   O  -0.3475921   0.2502600  -0.4887818 SPIN=   0.00000
   O  -0.3836687   0.4659708  -0.3268515 SPIN=   0.00000
   P  -0.4935700   0.2104893  -0.3856999 SPIN=   0.00000
   O   0.8468537   0.2992572   0.0289126 SPIN=   0.00000
   O   0.8853747   0.2591776   0.2234970 SPIN=   0.00000
   O   1.3932576   0.4149399   0.1476737 SPIN=   0.00000
   O   1.0460698   0.6754783   0.1587133 SPIN=   0.00000
   P   1.0324885   0.4093057   0.1340247 SPIN=   0.00000
   O  -0.8468537  -0.2992572  -0.0289126 SPIN=   0.00000
   O  -0.8853747  -0.2591776  -0.2234970 SPIN=   0.00000
   O  -1.3932576  -0.4149399  -0.1476737 SPIN=   0.00000
   O  -1.0460698  -0.6754783  -0.1587133 SPIN=   0.00000
   P  -1.0324885  -0.4093057  -0.1340247 SPIN=   0.00000
  Fe   0.2397527   0.2197636   0.4071012 SPIN=   3.19639
  Fe  -0.2397527  -0.2197636  -0.4071012 SPIN=   3.19639
  Fe  -0.5241390   0.0798640  -0.1796942 SPIN=   4.80361
  Fe   0.5241390  -0.0798640   0.1796942 SPIN=   4.80361
%ENDBLOCK POSITIONS_FRAC

# Note: total spin =  16.00

KPOINTS_MP_SPACING 0.07

%BLOCK SPECIES_POT
QC5
%ENDBLOCK SPECIES_POT

%BLOCK HUBBARD_U
Fe d:4.0
%ENDBLOCK HUBBARD_U

SNAP_TO_SYMMETRY
SYMMETRY_GENERATE

