#              Generated by Buildcell
#
# at 18:37:28 (GMT+0.0) 26th November 2020
# in /lustre/scratch/uccabz1/launch_tmp
# on node-c12m-034
# by uccabz1
#
# compiler GCC version 4.9.2
# options -cpp -iprefix /lustre/shared/ucl/apps/gcc/4.9.2/bin/../lib/gcc/x86_64-unknown-linux-gnu/4.9.2/ -mtune=corei7 -march=x86-64 -g -Og
#
# seed -1458163620 -1674258650 -1043375227  -544616044  -730075288  -635500517   417871521  -749874522  -461889628   805783011 -1045812099  -544336534
#
#      Author: C. J. Pickard (cjp20@cam.ac.uk)
#                Space group: Pm
#

%BLOCK LATTICE_ABC
      5.21632      6.42027      9.59519
     90.00000     90.00000     95.24347
%ENDBLOCK LATTICE_ABC

%BLOCK POSITIONS_FRAC
  Li   0.2274906   0.1893442   0.2657993 SPIN=   0.00000
  Li   0.2274906   0.1893442  -0.2657993 SPIN=   0.00000
  Li   0.1366441  -0.1217367   0.5000000 SPIN=   0.00000
  Li  -0.3913430  -0.3330452   0.5000000 SPIN=   0.00000
   O  -0.3727565   0.1956101   0.1933722 SPIN=   0.00000
   O  -0.4099364  -0.2091186   0.1695091 SPIN=   0.00000
   O   0.0134618  -0.0137551   0.1283374 SPIN=   0.00000
   O  -0.1649979  -0.0407976   0.3706247 SPIN=   0.00000
   P  -0.2401599  -0.0059747   0.2161158 SPIN=   0.00000
   O  -0.3727565   0.1956101  -0.1933722 SPIN=   0.00000
   O  -0.4099364  -0.2091186  -0.1695091 SPIN=   0.00000
   O   0.0134618  -0.0137551  -0.1283374 SPIN=   0.00000
   O  -0.1649979  -0.0407976  -0.3706247 SPIN=   0.00000
   P  -0.2401599  -0.0059747  -0.2161158 SPIN=   0.00000
   O   0.1845744  -0.5651904   0.1267461 SPIN=   0.00000
   O   0.1807239  -0.2589908   0.3035390 SPIN=   0.00000
   O  -0.0269765  -0.6052186   0.3715607 SPIN=   0.00000
   O   0.4534379  -0.5517492   0.3531483 SPIN=   0.00000
   O   0.1845744  -0.5651904  -0.1267461 SPIN=   0.00000
   O   0.1807239  -0.2589908  -0.3035390 SPIN=   0.00000
   O  -0.0269765  -0.6052186  -0.3715607 SPIN=   0.00000
   O   0.4534379  -0.5517492  -0.3531483 SPIN=   0.00000
   P   0.3598722   0.3779496  -0.0000000 SPIN=   0.00000
   P   0.1423318   0.4514418  -0.5000000 SPIN=   0.00000
  Fe  -0.1429981  -0.4348038  -0.1996727 SPIN=   5.22000
  Fe  -0.1429981  -0.4348038   0.1996727 SPIN=   5.22000
  Fe   0.3913700  -0.0939616   0.0000000 SPIN=   0.99680
  Fe  -0.3222405   0.1767788  -0.5000000 SPIN=   4.56320
%ENDBLOCK POSITIONS_FRAC

# Note: total spin =  16.00

KPOINTS_MP_SPACING 0.07

%BLOCK SPECIES_POT
QC5
%ENDBLOCK SPECIES_POT

%BLOCK HUBBARD_U
Fe d:4.0
%ENDBLOCK HUBBARD_U

SNAP_TO_SYMMETRY
SYMMETRY_GENERATE

