#              Generated by Buildcell
#
# at 16:05:28 (GMT+0.0) 26th November 2020
# in /lustre/scratch/uccabz1/launch_tmp
# on node-c12k-022
# by uccabz1
#
# compiler GCC version 4.9.2
# options -cpp -iprefix /lustre/shared/ucl/apps/gcc/4.9.2/bin/../lib/gcc/x86_64-unknown-linux-gnu/4.9.2/ -mtune=corei7 -march=x86-64 -g -Og
#
# seed  -578626953  1635481875  1787458183  -822054574  1098964541  1347567690  1279150331   805574495  -200573800  1806783979  1209375260   708858957
#
#      Author: C. J. Pickard (cjp20@cam.ac.uk)
#                Space group: P21
#

%BLOCK LATTICE_ABC
      4.70855      8.19584      8.48372
     90.00000     90.00000    102.19739
%ENDBLOCK LATTICE_ABC

%BLOCK POSITIONS_FRAC
  Li  -0.4727962  -0.3456799  -0.4994513 SPIN=   0.00000
  Li   0.4727962   0.3456799   0.0005487 SPIN=   0.00000
  Li   0.0387213   0.1185359   0.4861394 SPIN=   0.00000
  Li  -0.0387213  -0.1185359  -0.0138606 SPIN=   0.00000
   O  -0.0104333   0.1968613  -0.0082001 SPIN=   0.00000
   O  -0.2461056   0.2015446   0.2682141 SPIN=   0.00000
   O   0.0557088  -0.0055413   0.2180070 SPIN=   0.00000
   O   0.2929530   0.2972667   0.2404640 SPIN=   0.00000
   P   0.0244343   0.1753002   0.1703387 SPIN=   0.00000
   O   0.0104333  -0.1968613  -0.5082001 SPIN=   0.00000
   O   0.2461056  -0.2015446  -0.2317859 SPIN=   0.00000
   O  -0.0557088   0.0055413  -0.2819930 SPIN=   0.00000
   O  -0.2929530  -0.2972667  -0.2595360 SPIN=   0.00000
   P  -0.0244343  -0.1753002  -0.3296613 SPIN=   0.00000
   O  -0.2415229   0.4583191  -0.5173437 SPIN=   0.00000
   O  -0.4250322   0.3424003  -0.2422263 SPIN=   0.00000
   O  -0.7886124   0.3700780  -0.4448351 SPIN=   0.00000
   O  -0.4957686   0.1499630  -0.4748682 SPIN=   0.00000
   P  -0.4747193   0.3348855  -0.4256607 SPIN=   0.00000
   O   0.2415229  -0.4583191  -0.0173437 SPIN=   0.00000
   O   0.4250322  -0.3424003   0.2577737 SPIN=   0.00000
   O   0.7886124  -0.3700780   0.0551649 SPIN=   0.00000
   O   0.4957686  -0.1499630   0.0251318 SPIN=   0.00000
   P   0.4747193  -0.3348855   0.0743393 SPIN=   0.00000
  Fe  -0.0213969  -0.4938420   0.2608757 SPIN=   5.17791
  Fe   0.0213969   0.4938420  -0.2391243 SPIN=   5.17791
  Fe   0.4810550  -0.0382649   0.2552879 SPIN=   2.82209
  Fe  -0.4810550   0.0382649  -0.2447121 SPIN=   2.82209
%ENDBLOCK POSITIONS_FRAC

# Note: total spin =  16.00

KPOINTS_MP_SPACING 0.07

%BLOCK SPECIES_POT
QC5
%ENDBLOCK SPECIES_POT

%BLOCK HUBBARD_U
Fe d:4.0
%ENDBLOCK HUBBARD_U

SNAP_TO_SYMMETRY
SYMMETRY_GENERATE

