#              Generated by Buildcell
#
# at 15:39:11 (GMT+0.0) 26th November 2020
# in /lustre/scratch/uccabz1/launch_tmp
# on node-c12b-023
# by uccabz1
#
# compiler GCC version 4.9.2
# options -cpp -iprefix /lustre/shared/ucl/apps/gcc/4.9.2/bin/../lib/gcc/x86_64-unknown-linux-gnu/4.9.2/ -mtune=corei7 -march=x86-64 -g -Og
#
# seed   977268567 -2109564610  -158200390   -46089495  -816040804  1642845060  1576734636 -1112669038  -979564806   733157643  1065252542  1042839384
#
#      Author: C. J. Pickard (cjp20@cam.ac.uk)
#                Space group: Cm
#

%BLOCK LATTICE_ABC
      6.50721      6.50721      8.04480
    103.79295    103.79295     91.57116
%ENDBLOCK LATTICE_ABC

%BLOCK POSITIONS_FRAC
  Li  -0.2873864   0.0837365  -0.0456638 SPIN=   0.00000
  Li   0.0837365  -0.2873864  -0.0456638 SPIN=   0.00000
  Li   0.0079711   0.0079711  -0.4723673 SPIN=   0.00000
  Li  -0.3474424  -0.3474424  -0.3263823 SPIN=   0.00000
   O   0.1329971   0.3976170  -0.1627893 SPIN=   0.00000
   O  -0.1710061   0.0929148  -0.2664600 SPIN=   0.00000
   O  -0.2512858   0.4545712  -0.1323448 SPIN=   0.00000
   O  -0.1825205   0.3733185  -0.4335858 SPIN=   0.00000
   P  -0.1053539   0.3337425  -0.2463963 SPIN=   0.00000
   O   0.3976170   0.1329971  -0.1627893 SPIN=   0.00000
   O   0.0929148  -0.1710061  -0.2664600 SPIN=   0.00000
   O   0.4545712  -0.2512858  -0.1323448 SPIN=   0.00000
   O   0.3733185  -0.1825205  -0.4335858 SPIN=   0.00000
   P   0.3337425  -0.1053539  -0.2463963 SPIN=   0.00000
   O  -0.3414924   0.3657349   0.1246091 SPIN=   0.00000
   O  -0.5710539   0.1642934   0.2691660 SPIN=   0.00000
   O  -0.2070517   0.0639150   0.2724863 SPIN=   0.00000
   P  -0.3436590   0.2598873   0.2759602 SPIN=   0.00000
   O   0.3657349  -0.3414924   0.1246091 SPIN=   0.00000
   O   0.1642934  -0.5710539   0.2691660 SPIN=   0.00000
   O   0.0639150  -0.2070517   0.2724863 SPIN=   0.00000
   P   0.2598873  -0.3436590   0.2759602 SPIN=   0.00000
   O  -0.4537284  -0.4537284   0.3903619 SPIN=   0.00000
   O   0.0251544   0.0251544   0.0674161 SPIN=   0.00000
  Fe   0.0933164  -0.4884813  -0.4689727 SPIN=   3.30503
  Fe  -0.4884813   0.0933164  -0.4689727 SPIN=   3.30503
  Fe   0.2462697   0.2462697   0.0397950 SPIN=   4.31237
  Fe  -0.2992087  -0.2992087   0.1583216 SPIN=   5.07758
%ENDBLOCK POSITIONS_FRAC

# Note: total spin =  16.00

KPOINTS_MP_SPACING 0.07

%BLOCK SPECIES_POT
QC5
%ENDBLOCK SPECIES_POT

%BLOCK HUBBARD_U
Fe d:4.0
%ENDBLOCK HUBBARD_U

SNAP_TO_SYMMETRY
SYMMETRY_GENERATE

