#              Generated by Buildcell
#
# at 13:15:47 (GMT+0.0) 24th November 2020
# in /lustre/scratch/uccabz1/launch_tmp
# on node-c12h-032
# by uccabz1
#
# compiler GCC version 4.9.2
# options -cpp -iprefix /lustre/shared/ucl/apps/gcc/4.9.2/bin/../lib/gcc/x86_64-unknown-linux-gnu/4.9.2/ -mtune=corei7 -march=x86-64 -g -Og
#
# seed   716354470 -1174088165   460437746   833723737 -1626389726 -1958933750   453171455  1720565607   721128593  1912460418  1882097236   177827508
#
#      Author: C. J. Pickard (cjp20@cam.ac.uk)
#                Space group: C2
#

%BLOCK LATTICE_ABC
      4.82547      4.82547      7.23664
     80.50430     80.50430     76.19075
%ENDBLOCK LATTICE_ABC

%BLOCK POSITIONS_FRAC
  Li  -0.4716682  -0.1908561   0.3519737 SPIN=   0.00000
  Li   0.1908561   0.4716682  -0.3519737 SPIN=   0.00000
   O   0.2871815   0.2233165  -0.0942656 SPIN=   0.00000
   O  -0.1187040   0.2182902  -0.2883129 SPIN=   0.00000
   O   0.3865262   0.0653779  -0.4295579 SPIN=   0.00000
   O   0.1802923  -0.2498509  -0.1573466 SPIN=   0.00000
   O  -0.2233165  -0.2871815   0.0942656 SPIN=   0.00000
   O  -0.2182902   0.1187040   0.2883129 SPIN=   0.00000
   O  -0.0653779  -0.3865262   0.4295579 SPIN=   0.00000
   O   0.2498509  -0.1802923   0.1573466 SPIN=   0.00000
   P   0.0044311  -0.0044311   0.0000000 SPIN=   0.00000
   P  -0.0165272   0.0165272  -0.5000000 SPIN=   0.00000
  Fe   0.1381063   0.4172720   0.1849788 SPIN=   4.00000
  Fe  -0.4172720  -0.1381063  -0.1849788 SPIN=   4.00000
%ENDBLOCK POSITIONS_FRAC

# Note: total spin =   8.00

KPOINTS_MP_SPACING 0.07

%BLOCK SPECIES_POT
QC5
%ENDBLOCK SPECIES_POT

%BLOCK HUBBARD_U
Fe d:4.0
%ENDBLOCK HUBBARD_U

SNAP_TO_SYMMETRY
SYMMETRY_GENERATE

