#              Generated by Buildcell
#
# at 07:29:15 (GMT+0.0) 24th November 2020
# in /lustre/scratch/uccabz1/launch_tmp
# on node-c12c-027
# by uccabz1
#
# compiler GCC version 4.9.2
# options -cpp -iprefix /lustre/shared/ucl/apps/gcc/4.9.2/bin/../lib/gcc/x86_64-unknown-linux-gnu/4.9.2/ -mtune=corei7 -march=x86-64 -g -Og
#
# seed   447094763  1971477248 -1315282975  1718982669  1469653269 -1855388112   -25382015 -1644907369  -867599215  1598672400 -1499560572  1841336521
#
#      Author: C. J. Pickard (cjp20@cam.ac.uk)
#                Space group: Cc
#

%BLOCK LATTICE_ABC
      5.21884      5.93935      5.93935
    102.13058    106.72813    106.72813
%ENDBLOCK LATTICE_ABC

%BLOCK POSITIONS_FRAC
  Li  -0.3220111  -0.2130947  -0.3781178 SPIN=   0.00000
  Li   0.1779889  -0.3781178  -0.2130947 SPIN=   0.00000
   O   0.2421704   0.1998602   0.1001298 SPIN=   0.00000
   O  -0.0335085   0.4929940   0.0149888 SPIN=   0.00000
   O   0.2418507   0.5458502   0.4499867 SPIN=   0.00000
   O   0.5060969   0.6653347   0.1758272 SPIN=   0.00000
   P   0.2424633   0.4635404   0.1805908 SPIN=   0.00000
   O  -0.2578296   0.1001298   0.1998602 SPIN=   0.00000
   O  -0.5335085   0.0149888   0.4929940 SPIN=   0.00000
   O  -0.2581493   0.4499867   0.5458502 SPIN=   0.00000
   O   0.0060969   0.1758272   0.6653347 SPIN=   0.00000
   P  -0.2575367   0.1805908   0.4635404 SPIN=   0.00000
  Fe   0.0489261  -0.0675024   0.2435928 SPIN=   4.00000
  Fe  -0.4510739   0.2435928  -0.0675024 SPIN=   4.00000
%ENDBLOCK POSITIONS_FRAC

# Note: total spin =   8.00

KPOINTS_MP_SPACING 0.07

%BLOCK SPECIES_POT
QC5
%ENDBLOCK SPECIES_POT

%BLOCK HUBBARD_U
Fe d:4.0
%ENDBLOCK HUBBARD_U

SNAP_TO_SYMMETRY
SYMMETRY_GENERATE

