#              Generated by Buildcell
#
# at 06:08:09 (GMT+0.0) 24th November 2020
# in /scratch/scratch/uccabz1/launch_tmp
# on node-a14a-010
# by uccabz1
#
# compiler GCC version 4.9.2
# options -cpp -iprefix /scratch/UCL/applications/gcc/4.9.2/bin/../lib/gcc/x86_64-unknown-linux-gnu/4.9.2/ -mtune=corei7 -march=x86-64 -g -O2
#
# seed  2114625687   131303194  1474376625   -55117445 -2067115970  1906078023 -1808814526 -1162132193  1941688592  1892451526 -1204397391  -381402533
#
#      Author: C. J. Pickard (cjp20@cam.ac.uk)
#                Space group: P-1
#

%BLOCK LATTICE_ABC
      3.85367      4.94489      8.61403
     81.21231     88.84302     80.51146
%ENDBLOCK LATTICE_ABC

%BLOCK POSITIONS_FRAC
  Li  -0.4488302   0.2694159  -0.0956439 SPIN=   0.00000
  Li   0.4488302  -0.2694159   0.0956439 SPIN=   0.00000
   O   0.3483576  -0.0374692  -0.2414717 SPIN=   0.00000
   O  -0.1288791   0.2853714  -0.4225104 SPIN=   0.00000
   O   0.3219122   0.4962526  -0.3059591 SPIN=   0.00000
   P   0.2661386   0.2220134  -0.3665312 SPIN=   0.00000
   O  -0.3483576   0.0374692   0.2414717 SPIN=   0.00000
   O   0.1288791  -0.2853714   0.4225104 SPIN=   0.00000
   O  -0.3219122  -0.4962526   0.3059591 SPIN=   0.00000
   P  -0.2661386  -0.2220134   0.3665312 SPIN=   0.00000
   O   0.0000000   0.0000000   0.0000000 SPIN=   0.00000
   O   0.0000000   0.5000000   0.0000000 SPIN=   0.00000
  Fe  -0.1422149  -0.2155538  -0.3080322 SPIN=   4.00000
  Fe   0.1422149   0.2155538   0.3080322 SPIN=   4.00000
%ENDBLOCK POSITIONS_FRAC

# Note: total spin =   8.00

KPOINTS_MP_SPACING 0.07

%BLOCK SPECIES_POT
QC5
%ENDBLOCK SPECIES_POT

%BLOCK HUBBARD_U
Fe d:4.0
%ENDBLOCK HUBBARD_U

SNAP_TO_SYMMETRY
SYMMETRY_GENERATE

