#              Generated by Buildcell
#
# at 13:32:30 (GMT+0.0) 24th November 2020
# in /lustre/scratch/uccabz1/launch_tmp
# on node-c12f-024
# by uccabz1
#
# compiler GCC version 4.9.2
# options -cpp -iprefix /lustre/shared/ucl/apps/gcc/4.9.2/bin/../lib/gcc/x86_64-unknown-linux-gnu/4.9.2/ -mtune=corei7 -march=x86-64 -g -Og
#
# seed   828071044   128594718    36493797   562365436  1298246828   925598182 -1204946886  -274815395   946306300  1129899488 -1726351393  -897716544
#
#      Author: C. J. Pickard (cjp20@cam.ac.uk)
#                Space group: C2
#

%BLOCK LATTICE_ABC
      4.63738      4.63738      7.83737
     84.18323     84.18323     73.12653
%ENDBLOCK LATTICE_ABC

%BLOCK POSITIONS_FRAC
  Li  -0.3461740   0.0960040  -0.2845291 SPIN=   0.00000
  Li  -0.0960040   0.3461740   0.2845291 SPIN=   0.00000
   O  -0.6166172   0.2022149   0.3415026 SPIN=   0.00000
   O  -0.4591230   0.1121136   0.0192406 SPIN=   0.00000
   O  -0.0758645  -0.0960428   0.2302129 SPIN=   0.00000
   O  -0.5021797  -0.3247163   0.2259359 SPIN=   0.00000
   P  -0.4253111  -0.0179420   0.2117887 SPIN=   0.00000
   O  -0.2022149   0.6166172  -0.3415026 SPIN=   0.00000
   O  -0.1121136   0.4591230  -0.0192406 SPIN=   0.00000
   O   0.0960428   0.0758645  -0.2302129 SPIN=   0.00000
   O   0.3247163   0.5021797  -0.2259359 SPIN=   0.00000
   P   0.0179420   0.4253111  -0.2117887 SPIN=   0.00000
  Fe   0.1975610  -0.1975610   0.0000000 SPIN=   2.20358
  Fe   0.2789951  -0.2789951   0.5000000 SPIN=   5.79642
%ENDBLOCK POSITIONS_FRAC

# Note: total spin =   8.00

KPOINTS_MP_SPACING 0.07

%BLOCK SPECIES_POT
QC5
%ENDBLOCK SPECIES_POT

%BLOCK HUBBARD_U
Fe d:4.0
%ENDBLOCK HUBBARD_U

SNAP_TO_SYMMETRY
SYMMETRY_GENERATE

