#              Generated by Buildcell
#
# at 18:39:43 (GMT+0.0) 26th November 2020
# in /lustre/scratch/uccabz1/launch_tmp
# on node-c12i-031
# by uccabz1
#
# compiler GCC version 4.9.2
# options -cpp -iprefix /lustre/shared/ucl/apps/gcc/4.9.2/bin/../lib/gcc/x86_64-unknown-linux-gnu/4.9.2/ -mtune=corei7 -march=x86-64 -g -Og
#
# seed   348918536  1080359329  -735183028 -1474120077  -145026127  1385830446  1716705546   195744036 -2055734880  1497412341  1971358237 -1603904968
#
#      Author: C. J. Pickard (cjp20@cam.ac.uk)
#                Space group: Cm
#

%BLOCK LATTICE_ABC
      5.19901      7.92051      7.92051
     82.31186     83.90951     83.90951
%ENDBLOCK LATTICE_ABC

%BLOCK POSITIONS_FRAC
  Li  -0.0509736  -0.1086562  -0.4439519 SPIN=   0.00000
  Li  -0.0509736  -0.4439519  -0.1086562 SPIN=   0.00000
  Li  -0.3364964  -0.0496427  -0.0496427 SPIN=   0.00000
  Li   0.1171793   0.0800313   0.0800313 SPIN=   0.00000
   O   0.4121366   0.2055205  -0.0741707 SPIN=   0.00000
   O   0.5590197   0.3820064   0.1463262 SPIN=   0.00000
   O   0.3665201   0.5378874  -0.1085446 SPIN=   0.00000
   O   0.0837939   0.3780362   0.1206098 SPIN=   0.00000
   P   0.3551854   0.3668184   0.0171597 SPIN=   0.00000
   O   0.4121366  -0.0741707   0.2055205 SPIN=   0.00000
   O   0.5590197   0.1463262   0.3820064 SPIN=   0.00000
   O   0.3665201  -0.1085446   0.5378874 SPIN=   0.00000
   O   0.0837939   0.1206098   0.3780362 SPIN=   0.00000
   P   0.3551854   0.0171597   0.3668184 SPIN=   0.00000
   O  -0.1577203   0.3073201  -0.1054433 SPIN=   0.00000
   O  -0.4671756   0.3761613  -0.3474950 SPIN=   0.00000
   O   0.0055166   0.3393035  -0.4286772 SPIN=   0.00000
   O  -0.2281510   0.0845390  -0.3022405 SPIN=   0.00000
   O  -0.1577203  -0.1054433   0.3073201 SPIN=   0.00000
   O  -0.4671756  -0.3474950   0.3761613 SPIN=   0.00000
   O   0.0055166  -0.4286772   0.3393035 SPIN=   0.00000
   O  -0.2281510  -0.3022405   0.0845390 SPIN=   0.00000
   P   0.1586354  -0.1452264  -0.1452264 SPIN=   0.00000
   P   0.0115880  -0.4535664  -0.4535664 SPIN=   0.00000
  Fe   0.2983335   0.1722432  -0.3240463 SPIN=   2.68684
  Fe   0.2983335  -0.3240463   0.1722432 SPIN=   2.68684
  Fe   0.4789521  -0.3573236  -0.3573236 SPIN=   5.89888
  Fe  -0.1805606   0.3350703   0.3350703 SPIN=   4.72744
%ENDBLOCK POSITIONS_FRAC

# Note: total spin =  16.00

KPOINTS_MP_SPACING 0.07

%BLOCK SPECIES_POT
QC5
%ENDBLOCK SPECIES_POT

%BLOCK HUBBARD_U
Fe d:4.0
%ENDBLOCK HUBBARD_U

SNAP_TO_SYMMETRY
SYMMETRY_GENERATE

