#              Generated by Buildcell
#
# at 12:59:10 (GMT+0.0) 26th November 2020
# in /lustre/scratch/uccabz1/launch_tmp
# on node-c12f-021
# by uccabz1
#
# compiler GCC version 4.9.2
# options -cpp -iprefix /lustre/shared/ucl/apps/gcc/4.9.2/bin/../lib/gcc/x86_64-unknown-linux-gnu/4.9.2/ -mtune=corei7 -march=x86-64 -g -Og
#
# seed  1446054060  1532767966  -977897133  2104997118   631503457   756398016 -1100957027 -1857852163 -1151946813   877891503  1451407316   320396800
#
#      Author: C. J. Pickard (cjp20@cam.ac.uk)
#                Space group: P21
#

%BLOCK LATTICE_ABC
      5.65948      7.24696      7.86960
     97.50340     90.00000     90.00000
%ENDBLOCK LATTICE_ABC

%BLOCK POSITIONS_FRAC
  Li  -0.2125704  -0.2828284  -0.0834803 SPIN=   0.00000
  Li   0.2874296   0.2828284   0.0834803 SPIN=   0.00000
  Li   0.1226649  -0.4796260  -0.4425792 SPIN=   0.00000
  Li  -0.3773351   0.4796260   0.4425792 SPIN=   0.00000
   O  -0.3557341   0.0156678  -0.5596514 SPIN=   0.00000
   O  -0.5861188  -0.2806505  -0.5038995 SPIN=   0.00000
   O  -0.1498927  -0.2899954  -0.5004955 SPIN=   0.00000
   O  -0.3659045  -0.0979438  -0.2620064 SPIN=   0.00000
   P  -0.3639681  -0.1529346  -0.4597094 SPIN=   0.00000
   O   0.1442659  -0.0156678   0.5596514 SPIN=   0.00000
   O  -0.0861188   0.2806505   0.5038995 SPIN=   0.00000
   O   0.3501073   0.2899954   0.5004955 SPIN=   0.00000
   O   0.1340955   0.0979438   0.2620064 SPIN=   0.00000
   P   0.1360319   0.1529346   0.4597094 SPIN=   0.00000
   O  -0.1940854   0.6981442   0.1873799 SPIN=   0.00000
   O   0.0790027   0.4370946   0.2726822 SPIN=   0.00000
   O  -0.3336206   0.3572019   0.1914175 SPIN=   0.00000
   O  -0.0464381   0.4276932  -0.0335061 SPIN=   0.00000
   P  -0.1266156   0.4910291   0.1540258 SPIN=   0.00000
   O   0.3059146  -0.6981442  -0.1873799 SPIN=   0.00000
   O   0.5790027  -0.4370946  -0.2726822 SPIN=   0.00000
   O   0.1663794  -0.3572019  -0.1914175 SPIN=   0.00000
   O   0.4535619  -0.4276932   0.0335061 SPIN=   0.00000
   P   0.3733844  -0.4910291  -0.1540258 SPIN=   0.00000
  Fe  -0.2288228   0.2700457  -0.2325131 SPIN=   4.63476
  Fe   0.2711772  -0.2700457   0.2325131 SPIN=   4.63476
  Fe  -0.2279253   0.0861079   0.2081336 SPIN=   3.36524
  Fe   0.2720747  -0.0861079  -0.2081336 SPIN=   3.36524
%ENDBLOCK POSITIONS_FRAC

# Note: total spin =  16.00

KPOINTS_MP_SPACING 0.07

%BLOCK SPECIES_POT
QC5
%ENDBLOCK SPECIES_POT

%BLOCK HUBBARD_U
Fe d:4.0
%ENDBLOCK HUBBARD_U

SNAP_TO_SYMMETRY
SYMMETRY_GENERATE

