#              Generated by Buildcell
#
# at 19:35:09 (GMT+0.0) 26th November 2020
# in /scratch/scratch/uccabz1/launch_tmp
# on node-a14b-028
# by uccabz1
#
# compiler GCC version 4.9.2
# options -cpp -iprefix /scratch/UCL/applications/gcc/4.9.2/bin/../lib/gcc/x86_64-unknown-linux-gnu/4.9.2/ -mtune=corei7 -march=x86-64 -g -O2
#
# seed   296011522 -1758829984 -2111918767  -409082946 -1556080915   240789376 -1596919320  -812626487 -1233191003   180236732  -911816125  1685697098
#
#      Author: C. J. Pickard (cjp20@cam.ac.uk)
#                Space group: P-1
#

%BLOCK LATTICE_ABC
      3.92932      9.34707      9.41095
     70.34605     87.79981     79.53993
%ENDBLOCK LATTICE_ABC

%BLOCK POSITIONS_FRAC
  Li  -0.4922442  -0.4660028  -0.2538221 SPIN=   0.00000
  Li   0.4922442   0.4660028   0.2538221 SPIN=   0.00000
  Li   0.0000000  -0.5000000   0.0000000 SPIN=   0.00000
  Li   0.0000000   0.5000000   0.5000000 SPIN=   0.00000
   O  -0.1115389   0.3316386  -0.5882507 SPIN=   0.00000
   O  -0.0698592   0.1449444  -0.3108995 SPIN=   0.00000
   O  -0.5365504   0.3740528  -0.3817890 SPIN=   0.00000
   O  -0.5630184   0.1566672  -0.4776986 SPIN=   0.00000
   P  -0.3119943   0.2549524  -0.4480201 SPIN=   0.00000
   O   0.1115389  -0.3316386   0.5882507 SPIN=   0.00000
   O   0.0698592  -0.1449444   0.3108995 SPIN=   0.00000
   O   0.5365504  -0.3740528   0.3817890 SPIN=   0.00000
   O   0.5630184  -0.1566672   0.4776986 SPIN=   0.00000
   P   0.3119943  -0.2549524   0.4480201 SPIN=   0.00000
   O   0.7207422  -0.2987347  -0.1608312 SPIN=   0.00000
   O   0.4635694  -0.2974742   0.0973208 SPIN=   0.00000
   O   0.1570879  -0.1155052  -0.1356542 SPIN=   0.00000
   P   0.3896665  -0.2801069  -0.0713125 SPIN=   0.00000
   O  -0.7207422   0.2987347   0.1608312 SPIN=   0.00000
   O  -0.4635694   0.2974742  -0.0973208 SPIN=   0.00000
   O  -0.1570879   0.1155052   0.1356542 SPIN=   0.00000
   P  -0.3896665   0.2801069   0.0713125 SPIN=   0.00000
   O   0.0000000   0.0000000  -0.5000000 SPIN=   0.00000
   O  -0.5000000  -0.0000000  -0.0000000 SPIN=   0.00000
  Fe   0.1019930   0.2164908  -0.1420296 SPIN=   3.55411
  Fe  -0.1019930  -0.2164908   0.1420296 SPIN=   3.55411
  Fe   0.2588125   0.0704357   0.2960411 SPIN=   4.44589
  Fe  -0.2588125  -0.0704357  -0.2960411 SPIN=   4.44589
%ENDBLOCK POSITIONS_FRAC

# Note: total spin =  16.00

KPOINTS_MP_SPACING 0.07

%BLOCK SPECIES_POT
QC5
%ENDBLOCK SPECIES_POT

%BLOCK HUBBARD_U
Fe d:4.0
%ENDBLOCK HUBBARD_U

SNAP_TO_SYMMETRY
SYMMETRY_GENERATE

