#              Generated by Buildcell
#
# at 13:06:53 (GMT+0.0) 24th November 2020
# in /scratch/scratch/uccabz1/launch_tmp
# on node-k10b-011
# by uccabz1
#
# compiler GCC version 4.9.2
# options -cpp -iprefix /scratch/UCL/applications/gcc/4.9.2/bin/../lib/gcc/x86_64-unknown-linux-gnu/4.9.2/ -mtune=corei7 -march=x86-64 -g -O2
#
# seed   907360221  1728294496 -1079849258 -1178420957   568972682  1894888024   -44035273 -1575881078  -996166921   376074821 -1792709043  1181221705
#
#      Author: C. J. Pickard (cjp20@cam.ac.uk)
#                Space group: I212121
#

%BLOCK LATTICE_ABC
      5.95321      5.95321      5.95321
    101.46313    112.40155    114.84515
%ENDBLOCK LATTICE_ABC

%BLOCK POSITIONS_FRAC
  Li  -0.1576109   0.2500000   0.0923891 SPIN=   0.00000
  Li  -0.3423891  -0.2500000   0.4076109 SPIN=   0.00000
   O  -0.1305226  -0.5131031  -0.5069524 SPIN=   0.00000
   O  -0.5226122  -0.5026310  -0.4200448 SPIN=   0.00000
   O   0.4938493   0.3764298   0.0069524 SPIN=   0.00000
   O   0.4174138  -0.1025674  -0.0799552 SPIN=   0.00000
   O   0.0061507   0.0131031  -0.1174195 SPIN=   0.00000
   O   0.0825862   0.0026310  -0.5199812 SPIN=   0.00000
   O  -0.3694774  -0.8764298  -0.3825805 SPIN=   0.00000
   O   0.0226122  -0.3974326   0.0199812 SPIN=   0.00000
   P  -0.2500000  -0.3759428  -0.1259428 SPIN=   0.00000
   P   0.2500000  -0.1240572  -0.3740572 SPIN=   0.00000
  Fe   0.3345377   0.0845377  -0.7500000 SPIN=   4.00000
  Fe   0.1654623   0.4154623  -0.2500000 SPIN=   4.00000
%ENDBLOCK POSITIONS_FRAC

# Note: total spin =   8.00

KPOINTS_MP_SPACING 0.07

%BLOCK SPECIES_POT
QC5
%ENDBLOCK SPECIES_POT

%BLOCK HUBBARD_U
Fe d:4.0
%ENDBLOCK HUBBARD_U

SNAP_TO_SYMMETRY
SYMMETRY_GENERATE

