#              Generated by Buildcell
#
# at 13:34:46 (GMT+0.0) 24th November 2020
# in /scratch/scratch/uccabz1/launch_tmp
# on node-a14e-019
# by uccabz1
#
# compiler GCC version 4.9.2
# options -cpp -iprefix /scratch/UCL/applications/gcc/4.9.2/bin/../lib/gcc/x86_64-unknown-linux-gnu/4.9.2/ -mtune=corei7 -march=x86-64 -g -O2
#
# seed   899601598  -872228600  1671999431  -761807048  -554554018   676588240   562690706  2073633919  -595626152 -1024278180   -59439112   611171112
#
#      Author: C. J. Pickard (cjp20@cam.ac.uk)
#                Space group: Cm
#

%BLOCK LATTICE_ABC
      5.64122      6.18962      6.20592
    119.88262    117.00035     90.05827
%ENDBLOCK LATTICE_ABC

%BLOCK POSITIONS_FRAC
  Li   0.3843413   0.1886584  -0.0000000 SPIN=   0.00000
  Li   0.1220424  -0.2348635   0.0000000 SPIN=   0.00000
   O   0.3206544  -0.4588794   0.2678972 SPIN=   0.00000
   O   0.0420860  -0.1209780   0.3347580 SPIN=   0.00000
   O   0.1962357  -0.2663628   0.6693204 SPIN=   0.00000
   O   0.5485783   0.0210431   0.7098371 SPIN=   0.00000
   P   0.2824251  -0.2170603   0.4858669 SPIN=   0.00000
   O   1.0527572   0.2732235   0.7321028 SPIN=   0.00000
   O   0.7073279   0.5442639   0.6652420 SPIN=   0.00000
   O   0.5269153   0.0643168   0.3306796 SPIN=   0.00000
   O   0.8387411   0.3112060   0.2901629 SPIN=   0.00000
   P   0.7965582   0.2970728   0.5141331 SPIN=   0.00000
  Fe  -0.2422168  -0.1982734  -0.5646414 SPIN=   4.00000
  Fe   0.3224246   0.3663681   0.5646414 SPIN=   4.00000
%ENDBLOCK POSITIONS_FRAC

# Note: total spin =   8.00

KPOINTS_MP_SPACING 0.07

%BLOCK SPECIES_POT
QC5
%ENDBLOCK SPECIES_POT

%BLOCK HUBBARD_U
Fe d:4.0
%ENDBLOCK HUBBARD_U

SNAP_TO_SYMMETRY
SYMMETRY_GENERATE

