#              Generated by Buildcell
#
# at 20:34:19 (GMT+0.0) 26th November 2020
# in /lustre/scratch/uccabz1/launch_tmp
# on node-c12k-024
# by uccabz1
#
# compiler GCC version 4.9.2
# options -cpp -iprefix /lustre/shared/ucl/apps/gcc/4.9.2/bin/../lib/gcc/x86_64-unknown-linux-gnu/4.9.2/ -mtune=corei7 -march=x86-64 -g -Og
#
# seed  1460707651  1401261913  1134241470 -2019891222  -650532438 -2094606523   854193702   -17799963 -1371056376    93496153  -128816153  1885166335
#
#      Author: C. J. Pickard (cjp20@cam.ac.uk)
#                Space group: Aem2
#

%BLOCK LATTICE_ABC
      6.25878      7.04453      7.90377
     90.00000    113.32437     90.00000
%ENDBLOCK LATTICE_ABC

%BLOCK POSITIONS_FRAC
  Li  -0.1856030   0.0265202  -0.5000000 SPIN=   0.00000
  Li   0.3143970  -0.0265202   0.5000000 SPIN=   0.00000
  Li  -0.0569326   0.0000000   0.0000000 SPIN=   0.00000
  Li   0.4430674  -0.0000000  -0.0000000 SPIN=   0.00000
   O  -0.3560118   0.2644839   0.2906843 SPIN=   0.00000
   O  -0.0105016   0.0545536   0.2994106 SPIN=   0.00000
   O  -0.2052455   0.2595956   0.0280930 SPIN=   0.00000
   O   0.0414944   0.4070950   0.3311174 SPIN=   0.00000
   P  -0.1424094   0.2492892   0.2412742 SPIN=   0.00000
   O  -0.6466961  -0.2644839  -0.2906843 SPIN=   0.00000
   O  -0.3099122  -0.0545536  -0.2994106 SPIN=   0.00000
   O  -0.2333384  -0.2595956  -0.0280930 SPIN=   0.00000
   O  -0.2896230  -0.4070950  -0.3311174 SPIN=   0.00000
   P  -0.3836836  -0.2492892  -0.2412742 SPIN=   0.00000
   O  -0.1466961   0.2644839  -0.2906843 SPIN=   0.00000
   O   0.1900878   0.0545536  -0.2994106 SPIN=   0.00000
   O   0.2666616   0.2595956  -0.0280930 SPIN=   0.00000
   O   0.2103770   0.4070950  -0.3311174 SPIN=   0.00000
   P   0.1163164   0.2492892  -0.2412742 SPIN=   0.00000
   O   0.1439882  -0.2644839   0.2906843 SPIN=   0.00000
   O   0.4894984  -0.0545536   0.2994106 SPIN=   0.00000
   O   0.2947545  -0.2595956   0.0280930 SPIN=   0.00000
   O   0.5414944  -0.4070950   0.3311174 SPIN=   0.00000
   P   0.3575906  -0.2492892   0.2412742 SPIN=   0.00000
  Fe  -0.2009597  -0.3387114   0.2342447 SPIN=   4.00000
  Fe  -0.4352045   0.3387114  -0.2342447 SPIN=   4.00000
  Fe   0.0647955  -0.3387114  -0.2342447 SPIN=   4.00000
  Fe   0.2990403   0.3387114   0.2342447 SPIN=   4.00000
%ENDBLOCK POSITIONS_FRAC

# Note: total spin =  16.00

KPOINTS_MP_SPACING 0.07

%BLOCK SPECIES_POT
QC5
%ENDBLOCK SPECIES_POT

%BLOCK HUBBARD_U
Fe d:4.0
%ENDBLOCK HUBBARD_U

SNAP_TO_SYMMETRY
SYMMETRY_GENERATE

