#              Generated by Buildcell
#
# at 09:24:12 (GMT+0.0) 24th November 2020
# in /lustre/scratch/uccabz1/launch_tmp
# on node-c12k-030
# by uccabz1
#
# compiler GCC version 4.9.2
# options -cpp -iprefix /lustre/shared/ucl/apps/gcc/4.9.2/bin/../lib/gcc/x86_64-unknown-linux-gnu/4.9.2/ -mtune=corei7 -march=x86-64 -g -Og
#
# seed  -585179847 -2059398906  1158713961  1367883598  1334168373  1323675639   129129719   212685982 -1744134426   123787284  1655709548 -1702283776
#
#      Author: C. J. Pickard (cjp20@cam.ac.uk)
#                Space group: Pc
#

%BLOCK LATTICE_ABC
      4.78208      5.17261      6.92745
     90.00000     90.00000    110.97650
%ENDBLOCK LATTICE_ABC

%BLOCK POSITIONS_FRAC
  Li   0.0624047  -0.1791798  -0.1151451 SPIN=   0.00000
  Li   0.0624047   0.3208202   0.1151451 SPIN=   0.00000
   O  -0.3889875  -0.6348906   0.1814186 SPIN=   0.00000
   O  -0.0614779  -0.1115762   0.1917075 SPIN=   0.00000
   O  -0.4080608  -0.3092462   0.4626049 SPIN=   0.00000
   O   0.0474477  -0.4358775   0.4227156 SPIN=   0.00000
   P  -0.2097319  -0.3875907   0.3087955 SPIN=   0.00000
   O  -0.3889875  -0.1348906  -0.1814186 SPIN=   0.00000
   O  -0.0614779   0.3884238  -0.1917075 SPIN=   0.00000
   O  -0.4080608   0.1907538  -0.4626049 SPIN=   0.00000
   O   0.0474477   0.0641225  -0.4227156 SPIN=   0.00000
   P  -0.2097319   0.1124093  -0.3087955 SPIN=   0.00000
  Fe   0.4177141  -0.0619479   0.2952078 SPIN=   4.00000
  Fe   0.4177141   0.4380521  -0.2952078 SPIN=   4.00000
%ENDBLOCK POSITIONS_FRAC

# Note: total spin =   8.00

KPOINTS_MP_SPACING 0.07

%BLOCK SPECIES_POT
QC5
%ENDBLOCK SPECIES_POT

%BLOCK HUBBARD_U
Fe d:4.0
%ENDBLOCK HUBBARD_U

SNAP_TO_SYMMETRY
SYMMETRY_GENERATE

