#              Generated by Buildcell
#
# at 10:15:10 (GMT+0.0) 24th November 2020
# in /lustre/scratch/uccabz1/launch_tmp
# on node-c12h-022
# by uccabz1
#
# compiler GCC version 4.9.2
# options -cpp -iprefix /lustre/shared/ucl/apps/gcc/4.9.2/bin/../lib/gcc/x86_64-unknown-linux-gnu/4.9.2/ -mtune=corei7 -march=x86-64 -g -Og
#
# seed    -6560131   862826726 -1631067422   487544466   525348413 -1597762848   984910321   216595454  2127006577  2120972986 -1833202580   -26146347
#
#      Author: C. J. Pickard (cjp20@cam.ac.uk)
#                Space group: Pcc2
#

%BLOCK LATTICE_ABC
      4.20518      4.87670      7.80207
     90.00000     90.00000     90.00000
%ENDBLOCK LATTICE_ABC

%BLOCK POSITIONS_FRAC
  Li   0.0000000  -0.0000000   0.0461914 SPIN=   0.00000
  Li   0.0000000  -0.0000000  -0.4538086 SPIN=   0.00000
   O  -0.2919424  -0.2935237  -0.0777417 SPIN=   0.00000
   O  -0.2083607   0.1777565  -0.2263477 SPIN=   0.00000
   O   0.2919424   0.2935237  -0.0777417 SPIN=   0.00000
   O   0.2083607  -0.1777565  -0.2263477 SPIN=   0.00000
   O  -0.2919424   0.2935237   0.4222583 SPIN=   0.00000
   O  -0.2083607  -0.1777565   0.2736523 SPIN=   0.00000
   O   0.2919424  -0.2935237   0.4222583 SPIN=   0.00000
   O   0.2083607   0.1777565   0.2736523 SPIN=   0.00000
   P   0.5000000   0.0000000  -0.1679729 SPIN=   0.00000
   P  -0.5000000   0.0000000   0.3320271 SPIN=   0.00000
  Fe   0.5000000  -0.5000000   0.1394329 SPIN=   4.00000
  Fe   0.5000000  -0.5000000  -0.3605671 SPIN=   4.00000
%ENDBLOCK POSITIONS_FRAC

# Note: total spin =   8.00

KPOINTS_MP_SPACING 0.07

%BLOCK SPECIES_POT
QC5
%ENDBLOCK SPECIES_POT

%BLOCK HUBBARD_U
Fe d:4.0
%ENDBLOCK HUBBARD_U

SNAP_TO_SYMMETRY
SYMMETRY_GENERATE

