#              Generated by Buildcell
#
# at 14:54:19 (GMT+0.0) 26th November 2020
# in /scratch/scratch/uccabz1/launch_tmp
# on node-a14b-013
# by uccabz1
#
# compiler GCC version 4.9.2
# options -cpp -iprefix /scratch/UCL/applications/gcc/4.9.2/bin/../lib/gcc/x86_64-unknown-linux-gnu/4.9.2/ -mtune=corei7 -march=x86-64 -g -O2
#
# seed    -6214347 -1764703186  2006444555   354060917  -718671997 -2133593476 -1188529720   625810939     -517576  1992147468  -451215504  1810291933
#
#      Author: C. J. Pickard (cjp20@cam.ac.uk)
#                Space group: Cc
#

%BLOCK LATTICE_ABC
      7.17978      7.17978      7.47566
     68.52871     68.52871     67.67549
%ENDBLOCK LATTICE_ABC

%BLOCK POSITIONS_FRAC
  Li   0.2664863   0.4957782  -0.0620989 SPIN=   0.00000
  Li   0.4957782   0.2664863   0.4379011 SPIN=   0.00000
  Li   0.2739988   0.1077253  -0.1376461 SPIN=   0.00000
  Li   0.1077253   0.2739988   0.3623539 SPIN=   0.00000
   O   0.0839222   0.3925114  -0.3493114 SPIN=   0.00000
   O   0.0470031   0.3154014   0.0278986 SPIN=   0.00000
   O  -0.0649912   0.6822530  -0.1630709 SPIN=   0.00000
   O  -0.2750870   0.4408242  -0.0903471 SPIN=   0.00000
   P  -0.0476650   0.4540743  -0.1540254 SPIN=   0.00000
   O   0.3925114   0.0839222   0.1506886 SPIN=   0.00000
   O   0.3154014   0.0470031   0.5278986 SPIN=   0.00000
   O   0.6822530  -0.0649912   0.3369291 SPIN=   0.00000
   O   0.4408242  -0.2750870   0.4096529 SPIN=   0.00000
   P   0.4540743  -0.0476650   0.3459746 SPIN=   0.00000
   O  -0.0404663   0.0408990  -0.2636151 SPIN=   0.00000
   O  -0.2023695   0.2641987  -0.5616220 SPIN=   0.00000
   O  -0.3193479  -0.0454864  -0.3395713 SPIN=   0.00000
   O  -0.4240477   0.2686674  -0.2143291 SPIN=   0.00000
   P  -0.2376790   0.1288273  -0.3389230 SPIN=   0.00000
   O   0.0408990  -0.0404663   0.2363849 SPIN=   0.00000
   O   0.2641987  -0.2023695  -0.0616220 SPIN=   0.00000
   O  -0.0454864  -0.3193479   0.1604287 SPIN=   0.00000
   O   0.2686674  -0.4240477   0.2856709 SPIN=   0.00000
   P   0.1288273  -0.2376790   0.1610770 SPIN=   0.00000
  Fe  -0.4295915  -0.3250675   0.0725305 SPIN=   2.27919
  Fe  -0.3250675  -0.4295915  -0.4274695 SPIN=   2.27919
  Fe  -0.2118313   0.1017403   0.0419222 SPIN=   5.72081
  Fe   0.1017403  -0.2118313  -0.4580778 SPIN=   5.72081
%ENDBLOCK POSITIONS_FRAC

# Note: total spin =  16.00

KPOINTS_MP_SPACING 0.07

%BLOCK SPECIES_POT
QC5
%ENDBLOCK SPECIES_POT

%BLOCK HUBBARD_U
Fe d:4.0
%ENDBLOCK HUBBARD_U

SNAP_TO_SYMMETRY
SYMMETRY_GENERATE

