#              Generated by Buildcell
#
# at 09:05:48 (GMT+0.0) 24th November 2020
# in /lustre/scratch/uccabz1/launch_tmp
# on node-c12l-027
# by uccabz1
#
# compiler GCC version 4.9.2
# options -cpp -iprefix /lustre/shared/ucl/apps/gcc/4.9.2/bin/../lib/gcc/x86_64-unknown-linux-gnu/4.9.2/ -mtune=corei7 -march=x86-64 -g -Og
#
# seed   227135083  1328975945  -400597777  1647870667 -1346856480  -300079807  -800762737   161365769 -1622621962  1404360908  -843310620  1173917439
#
#      Author: C. J. Pickard (cjp20@cam.ac.uk)
#                Space group: Cc
#

%BLOCK LATTICE_ABC
      5.36359      5.90810      5.90810
     86.41190     67.88462     67.88462
%ENDBLOCK LATTICE_ABC

%BLOCK POSITIONS_FRAC
  Li  -0.2218855   0.1947657   0.3693543 SPIN=   0.00000
  Li  -0.7218855   0.3693543   0.1947657 SPIN=   0.00000
   O  -0.6015797   0.7179720  -0.1795140 SPIN=   0.00000
   O  -0.4489509   0.2469422  -0.2465365 SPIN=   0.00000
   O  -0.0846456   0.4264188  -0.4654574 SPIN=   0.00000
   O  -0.2392712   0.4084404  -0.0106556 SPIN=   0.00000
   P  -0.3561161   0.4637247  -0.2205543 SPIN=   0.00000
   O  -0.1015797  -0.1795140   0.7179720 SPIN=   0.00000
   O   0.0510491  -0.2465365   0.2469422 SPIN=   0.00000
   O   0.4153544  -0.4654574   0.4264188 SPIN=   0.00000
   O   0.2607288  -0.0106556   0.4084404 SPIN=   0.00000
   P   0.1438839  -0.2205543   0.4637247 SPIN=   0.00000
  Fe  -0.3050796  -0.2392761   0.1124269 SPIN=   4.00000
  Fe   0.1949204   0.1124269  -0.2392761 SPIN=   4.00000
%ENDBLOCK POSITIONS_FRAC

# Note: total spin =   8.00

KPOINTS_MP_SPACING 0.07

%BLOCK SPECIES_POT
QC5
%ENDBLOCK SPECIES_POT

%BLOCK HUBBARD_U
Fe d:4.0
%ENDBLOCK HUBBARD_U

SNAP_TO_SYMMETRY
SYMMETRY_GENERATE

