#              Generated by Buildcell
#
# at 15:47:39 (GMT+0.0) 26th November 2020
# in /lustre/scratch/uccabz1/launch_tmp
# on node-c12l-025
# by uccabz1
#
# compiler GCC version 4.9.2
# options -cpp -iprefix /lustre/shared/ucl/apps/gcc/4.9.2/bin/../lib/gcc/x86_64-unknown-linux-gnu/4.9.2/ -mtune=corei7 -march=x86-64 -g -Og
#
# seed  1133456646 -1795857264  -263189343  1982416322   807354893   403006092  -244126040  -184958730 -1250580837 -1551798062   825761590  1658723191
#
#      Author: C. J. Pickard (cjp20@cam.ac.uk)
#                Space group: P-1
#

%BLOCK LATTICE_ABC
      5.17881      7.71341      9.04578
    107.77497    104.57803    100.27187
%ENDBLOCK LATTICE_ABC

%BLOCK POSITIONS_FRAC
  Li   0.0104472   0.3336506   0.3616886 SPIN=   0.00000
  Li  -0.0104472  -0.3336506  -0.3616886 SPIN=   0.00000
  Li   0.1654513   0.3965111   0.0801433 SPIN=   0.00000
  Li  -0.1654513  -0.3965111  -0.0801433 SPIN=   0.00000
   O   0.0894837  -0.4355352   0.2866012 SPIN=   0.00000
   O   0.6021686  -0.4254511   0.4180374 SPIN=   0.00000
   O   0.5027071  -0.1351206   0.3857437 SPIN=   0.00000
   O   0.3617120  -0.2459621   0.5941343 SPIN=   0.00000
   P   0.3727469  -0.3164121   0.4160078 SPIN=   0.00000
   O  -0.0894837   0.4355352  -0.2866012 SPIN=   0.00000
   O  -0.6021686   0.4254511  -0.4180374 SPIN=   0.00000
   O  -0.5027071   0.1351206  -0.3857437 SPIN=   0.00000
   O  -0.3617120   0.2459621  -0.5941343 SPIN=   0.00000
   P  -0.3727469   0.3164121  -0.4160078 SPIN=   0.00000
   O  -0.2851743   0.1699396   0.1300266 SPIN=   0.00000
   O  -0.2354508   0.3095813  -0.0921737 SPIN=   0.00000
   O  -0.7071195   0.1771296  -0.0933525 SPIN=   0.00000
   O  -0.4041098   0.4815386   0.1312477 SPIN=   0.00000
   P  -0.4013802   0.2807697   0.0261774 SPIN=   0.00000
   O   0.2851743  -0.1699396  -0.1300266 SPIN=   0.00000
   O   0.2354508  -0.3095813   0.0921737 SPIN=   0.00000
   O   0.7071195  -0.1771296   0.0933525 SPIN=   0.00000
   O   0.4041098  -0.4815386  -0.1312477 SPIN=   0.00000
   P   0.4013802  -0.2807697  -0.0261774 SPIN=   0.00000
  Fe   0.3518194   0.0586570   0.1826407 SPIN=   5.67573
  Fe  -0.3518194  -0.0586570  -0.1826407 SPIN=   5.67573
  Fe   0.1703110   0.2486474  -0.3007913 SPIN=   2.32427
  Fe  -0.1703110  -0.2486474   0.3007913 SPIN=   2.32427
%ENDBLOCK POSITIONS_FRAC

# Note: total spin =  16.00

KPOINTS_MP_SPACING 0.07

%BLOCK SPECIES_POT
QC5
%ENDBLOCK SPECIES_POT

%BLOCK HUBBARD_U
Fe d:4.0
%ENDBLOCK HUBBARD_U

SNAP_TO_SYMMETRY
SYMMETRY_GENERATE

