#              Generated by Buildcell
#
# at 22:26:34 (GMT+0.0) 26th November 2020
# in /lustre/scratch/uccabz1/launch_tmp
# on node-c12b-023
# by uccabz1
#
# compiler GCC version 4.9.2
# options -cpp -iprefix /lustre/shared/ucl/apps/gcc/4.9.2/bin/../lib/gcc/x86_64-unknown-linux-gnu/4.9.2/ -mtune=corei7 -march=x86-64 -g -Og
#
# seed  -790327650  2084743122  1787859159  -639030841   368649391 -1061315780  -295456294 -1043311032   303916093  -605543154   573171007  1443911248
#
#      Author: C. J. Pickard (cjp20@cam.ac.uk)
#                Space group: P-1
#

%BLOCK LATTICE_ABC
      5.60879      7.95127      8.25202
    114.28665    102.67866     95.51337
%ENDBLOCK LATTICE_ABC

%BLOCK POSITIONS_FRAC
  Li   0.1298697  -0.3221911  -0.0430950 SPIN=   0.00000
  Li  -0.1298697   0.3221911   0.0430950 SPIN=   0.00000
  Li   0.0000000   0.5000000   0.5000000 SPIN=   0.00000
  Li  -0.5000000  -0.0000000   0.0000000 SPIN=   0.00000
   O   0.6400206   0.0383295  -0.2013551 SPIN=   0.00000
   O   0.1940753  -0.0116187  -0.4109277 SPIN=   0.00000
   O   0.4761492  -0.2129513  -0.5459799 SPIN=   0.00000
   O   0.2998611  -0.2589332  -0.3098142 SPIN=   0.00000
   P   0.4139603  -0.1050691  -0.3575233 SPIN=   0.00000
   O  -0.6400206  -0.0383295   0.2013551 SPIN=   0.00000
   O  -0.1940753   0.0116187   0.4109277 SPIN=   0.00000
   O  -0.4761492   0.2129513   0.5459799 SPIN=   0.00000
   O  -0.2998611   0.2589332   0.3098142 SPIN=   0.00000
   P  -0.4139603   0.1050691   0.3575233 SPIN=   0.00000
   O  -0.3261405   0.6290818   0.0402145 SPIN=   0.00000
   O  -0.1623887   0.6585899   0.3727178 SPIN=   0.00000
   O   0.1175868   0.5869190   0.1709916 SPIN=   0.00000
   P  -0.0995487   0.6947483   0.2116412 SPIN=   0.00000
   O   0.3261405  -0.6290818  -0.0402145 SPIN=   0.00000
   O   0.1623887  -0.6585899  -0.3727178 SPIN=   0.00000
   O  -0.1175868  -0.5869190  -0.1709916 SPIN=   0.00000
   P   0.0995487  -0.6947483  -0.2116412 SPIN=   0.00000
   O   0.0000000   0.0000000   0.0000000 SPIN=   0.00000
   O  -0.5000000   0.5000000   0.5000000 SPIN=   0.00000
  Fe   0.0589830   0.0718443   0.2807237 SPIN=   3.69824
  Fe  -0.0589830  -0.0718443  -0.2807237 SPIN=   3.69824
  Fe   0.4621746   0.5176872   0.2499003 SPIN=   4.30176
  Fe  -0.4621746  -0.5176872  -0.2499003 SPIN=   4.30176
%ENDBLOCK POSITIONS_FRAC

# Note: total spin =  16.00

KPOINTS_MP_SPACING 0.07

%BLOCK SPECIES_POT
QC5
%ENDBLOCK SPECIES_POT

%BLOCK HUBBARD_U
Fe d:4.0
%ENDBLOCK HUBBARD_U

SNAP_TO_SYMMETRY
SYMMETRY_GENERATE

