#              Generated by Buildcell
#
# at 11:20:43 (GMT+0.0) 24th November 2020
# in /scratch/scratch/uccabz1/launch_tmp
# on node-a14b-028
# by uccabz1
#
# compiler GCC version 4.9.2
# options -cpp -iprefix /scratch/UCL/applications/gcc/4.9.2/bin/../lib/gcc/x86_64-unknown-linux-gnu/4.9.2/ -mtune=corei7 -march=x86-64 -g -O2
#
# seed  1881269084    90895967  1775060639  1526642740   565350169   198811754  2146261919   354399691   516850202 -1293111410  -907927947  -290427113
#
#      Author: C. J. Pickard (cjp20@cam.ac.uk)
#                Space group: Pc
#

%BLOCK LATTICE_ABC
      4.42993      4.96190      7.75795
     90.00000     90.00000    110.23684
%ENDBLOCK LATTICE_ABC

%BLOCK POSITIONS_FRAC
  Li   0.4123777  -0.4001329  -0.0900211 SPIN=   0.00000
  Li  -0.0876223   0.0998671   0.0900211 SPIN=   0.00000
   O  -0.0972422  -0.0617760   0.3420585 SPIN=   0.00000
   O   0.1385071  -0.4426949   0.2325832 SPIN=   0.00000
   O   0.4617662   0.0705508   0.1944524 SPIN=   0.00000
   O   0.3855969  -0.1441396   0.4904135 SPIN=   0.00000
   P   0.2070793  -0.1401051   0.3183957 SPIN=   0.00000
   O  -0.5972422   0.4382240  -0.3420585 SPIN=   0.00000
   O  -0.3614929   0.0573051  -0.2325832 SPIN=   0.00000
   O  -0.0382338   0.5705508  -0.1944524 SPIN=   0.00000
   O  -0.1144031   0.3558604  -0.4904135 SPIN=   0.00000
   P  -0.2929207   0.3598949  -0.3183957 SPIN=   0.00000
  Fe  -0.4446330   0.4686060   0.3167176 SPIN=   4.00000
  Fe   0.0553670  -0.0313940  -0.3167176 SPIN=   4.00000
%ENDBLOCK POSITIONS_FRAC

# Note: total spin =   8.00

KPOINTS_MP_SPACING 0.07

%BLOCK SPECIES_POT
QC5
%ENDBLOCK SPECIES_POT

%BLOCK HUBBARD_U
Fe d:4.0
%ENDBLOCK HUBBARD_U

SNAP_TO_SYMMETRY
SYMMETRY_GENERATE

