#              Generated by Buildcell
#
# at 01:20:20 (GMT+0.0) 27th November 2020
# in /scratch/scratch/mmm0366/launch_tmp
# on node-k98n-026
# by mmm0366
#
# compiler GCC version 4.9.2
# options -cpp -iprefix /scratch/UCL/applications/gcc/4.9.2/bin/../lib/gcc/x86_64-unknown-linux-gnu/4.9.2/ -mtune=corei7 -march=x86-64 -g -O2
#
# seed  1701860239  -452919575    36023572  1490247344   917763715  -188799831 -1964648023 -1278982204 -1567437704 -1298184564    23384573  1385183666
#
#      Author: C. J. Pickard (cjp20@cam.ac.uk)
#                Space group: P212121
#

%BLOCK LATTICE_ABC
      4.32651      6.32516     11.69341
     90.00000     90.00000     90.00000
%ENDBLOCK LATTICE_ABC

%BLOCK POSITIONS_FRAC
  Li  -0.2598818  -0.0557903  -0.4776785 SPIN=   0.00000
  Li   0.2598818  -0.4442097   0.0223215 SPIN=   0.00000
  Li   0.2401182   0.0557903  -0.0223215 SPIN=   0.00000
  Li  -0.2401182   0.4442097   0.4776785 SPIN=   0.00000
   O   0.4089824  -0.4610944   0.3495181 SPIN=   0.00000
   O   0.3462761  -0.0525899   0.3489103 SPIN=   0.00000
   O  -0.1083536  -0.2716441   0.3966874 SPIN=   0.00000
   O   0.3312012  -0.2470037   0.5353995 SPIN=   0.00000
   P   0.2543059  -0.2687616   0.4060426 SPIN=   0.00000
   O  -0.4089824  -0.0389056  -0.1504819 SPIN=   0.00000
   O  -0.3462761  -0.4474101  -0.1510897 SPIN=   0.00000
   O   0.1083536  -0.2283559  -0.1033126 SPIN=   0.00000
   O  -0.3312012  -0.2529963   0.0353995 SPIN=   0.00000
   P  -0.2543059  -0.2312384  -0.0939574 SPIN=   0.00000
   O  -0.0910176   0.4610944   0.1504819 SPIN=   0.00000
   O  -0.1537239   0.0525899   0.1510897 SPIN=   0.00000
   O  -0.6083536   0.2716441   0.1033126 SPIN=   0.00000
   O  -0.1687988   0.2470037  -0.0353995 SPIN=   0.00000
   P  -0.2456941   0.2687616   0.0939574 SPIN=   0.00000
   O   0.0910176   0.0389056  -0.3495181 SPIN=   0.00000
   O   0.1537239   0.4474101  -0.3489103 SPIN=   0.00000
   O   0.6083536   0.2283559  -0.3966874 SPIN=   0.00000
   O   0.1687988   0.2529963  -0.5353995 SPIN=   0.00000
   P   0.2456941   0.2312384  -0.4060426 SPIN=   0.00000
  Fe  -0.2442065   0.2500001  -0.2146184 SPIN=   4.00000
  Fe   0.2442065   0.2499999   0.2853816 SPIN=   4.00000
  Fe   0.2557935  -0.2500001  -0.2853816 SPIN=   4.00000
  Fe  -0.2557935  -0.2499999   0.2146184 SPIN=   4.00000
%ENDBLOCK POSITIONS_FRAC

# Note: total spin =  16.00

KPOINTS_MP_SPACING 0.07

%BLOCK SPECIES_POT
QC5
%ENDBLOCK SPECIES_POT

%BLOCK HUBBARD_U
Fe d:4.0
%ENDBLOCK HUBBARD_U

SNAP_TO_SYMMETRY
SYMMETRY_GENERATE

