#              Generated by Buildcell
#
# at 00:28:21 (GMT+0.0) 27th November 2020
# in /lustre/scratch/uccabz1/launch_tmp
# on node-c12k-032
# by uccabz1
#
# compiler GCC version 4.9.2
# options -cpp -iprefix /lustre/shared/ucl/apps/gcc/4.9.2/bin/../lib/gcc/x86_64-unknown-linux-gnu/4.9.2/ -mtune=corei7 -march=x86-64 -g -Og
#
# seed   895682553 -1266985282  -580109005   958247196   130299389 -1176664620 -1112064165   930288716  2002265592   203707017  1166190623  1335016105
#
#      Author: C. J. Pickard (cjp20@cam.ac.uk)
#                Space group: Pna21
#

%BLOCK LATTICE_ABC
      4.54589      6.38494     11.02488
     90.00000     90.00000     90.00000
%ENDBLOCK LATTICE_ABC

%BLOCK POSITIONS_FRAC
  Li  -0.0582061  -0.4449306   0.4141866 SPIN=   0.00000
  Li   0.4417939   0.4449306  -0.4141866 SPIN=   0.00000
  Li  -0.0582061  -0.0550694  -0.0858134 SPIN=   0.00000
  Li   0.4417939   0.0550694   0.0858134 SPIN=   0.00000
   O   0.0772883   0.0592768  -0.3337858 SPIN=   0.00000
   O  -0.1027358   0.4422394  -0.3626498 SPIN=   0.00000
   O   0.1406446   0.2661122  -0.5350370 SPIN=   0.00000
   O  -0.3634974   0.1522778  -0.4714584 SPIN=   0.00000
   P  -0.0582118   0.2199707  -0.4213766 SPIN=   0.00000
   O   0.5772883  -0.0592768   0.3337858 SPIN=   0.00000
   O   0.3972642  -0.4422394   0.3626498 SPIN=   0.00000
   O   0.6406446  -0.2661122   0.5350370 SPIN=   0.00000
   O   0.1365026  -0.1522778   0.4714584 SPIN=   0.00000
   P   0.4417882  -0.2199707   0.4213766 SPIN=   0.00000
   O   0.0772883   0.4407232   0.1662142 SPIN=   0.00000
   O  -0.1027358   0.0577606   0.1373502 SPIN=   0.00000
   O   0.1406446   0.2338878  -0.0350370 SPIN=   0.00000
   O  -0.3634974   0.3477222   0.0285416 SPIN=   0.00000
   P  -0.0582118   0.2800293   0.0786234 SPIN=   0.00000
   O   0.5772883  -0.4407232  -0.1662142 SPIN=   0.00000
   O   0.3972642  -0.0577606  -0.1373502 SPIN=   0.00000
   O   0.6406446  -0.2338878   0.0350370 SPIN=   0.00000
   O   0.1365026  -0.3477222  -0.0285416 SPIN=   0.00000
   P   0.4417882  -0.2800293  -0.0786234 SPIN=   0.00000
  Fe   0.0066215   0.0614427   0.3264800 SPIN=   4.00000
  Fe  -0.4933785  -0.0614427  -0.3264800 SPIN=   4.00000
  Fe   0.0066215   0.4385573  -0.1735200 SPIN=   4.00000
  Fe  -0.4933785  -0.4385573   0.1735200 SPIN=   4.00000
%ENDBLOCK POSITIONS_FRAC

# Note: total spin =  16.00

KPOINTS_MP_SPACING 0.07

%BLOCK SPECIES_POT
QC5
%ENDBLOCK SPECIES_POT

%BLOCK HUBBARD_U
Fe d:4.0
%ENDBLOCK HUBBARD_U

SNAP_TO_SYMMETRY
SYMMETRY_GENERATE

