#              Generated by Buildcell
#
# at 15:50:48 (GMT+0.0) 26th November 2020
# in /scratch/scratch/uccabz1/launch_tmp
# on node-k10g-016
# by uccabz1
#
# compiler GCC version 4.9.2
# options -cpp -iprefix /scratch/UCL/applications/gcc/4.9.2/bin/../lib/gcc/x86_64-unknown-linux-gnu/4.9.2/ -mtune=corei7 -march=x86-64 -g -O2
#
# seed   471692011 -1185561491   758498948  -657215611 -1829349602   890470210  -679176513  1093099057  -449194634   422675796  1977406405  -942354273
#
#      Author: C. J. Pickard (cjp20@cam.ac.uk)
#                Space group: P-1
#

%BLOCK LATTICE_ABC
      4.39520      6.86472     10.71651
     85.07738     85.62613     84.68970
%ENDBLOCK LATTICE_ABC

%BLOCK POSITIONS_FRAC
  Li   0.2839355  -0.0406596   0.2647826 SPIN=   0.00000
  Li  -0.2839355   0.0406596  -0.2647826 SPIN=   0.00000
  Li  -0.2468099  -0.1551848   0.0373760 SPIN=   0.00000
  Li   0.2468099   0.1551848  -0.0373760 SPIN=   0.00000
   O  -0.0366501   0.5012327  -0.3846688 SPIN=   0.00000
   O   0.0349843   0.1357939  -0.4354160 SPIN=   0.00000
   O   0.4840019   0.2895350  -0.3763087 SPIN=   0.00000
   O   0.0605810   0.2183650  -0.2135334 SPIN=   0.00000
   P   0.1256641   0.2968785  -0.3525558 SPIN=   0.00000
   O   0.0366501  -0.5012327   0.3846688 SPIN=   0.00000
   O  -0.0349843  -0.1357939   0.4354160 SPIN=   0.00000
   O  -0.4840019  -0.2895350   0.3763087 SPIN=   0.00000
   O  -0.0605810  -0.2183650   0.2135334 SPIN=   0.00000
   P  -0.1256641  -0.2968785   0.3525558 SPIN=   0.00000
   O   0.3117028  -0.0962463  -0.2804290 SPIN=   0.00000
   O   0.3102816  -0.2236801  -0.0450112 SPIN=   0.00000
   O  -0.1687650  -0.2190915  -0.1520838 SPIN=   0.00000
   O   0.2724724  -0.4617535  -0.2064694 SPIN=   0.00000
   P   0.1894342  -0.2444926  -0.1772436 SPIN=   0.00000
   O  -0.3117028   0.0962463   0.2804290 SPIN=   0.00000
   O  -0.3102816   0.2236801   0.0450112 SPIN=   0.00000
   O   0.1687650   0.2190915   0.1520838 SPIN=   0.00000
   O  -0.2724724   0.4617535   0.2064694 SPIN=   0.00000
   P  -0.1894342   0.2444926   0.1772436 SPIN=   0.00000
  Fe   0.3080168  -0.2439750  -0.4443390 SPIN=   0.24487
  Fe  -0.3080168   0.2439750   0.4443390 SPIN=   0.24487
  Fe  -0.2685773   0.4809986  -0.1627824 SPIN=   7.75513
  Fe   0.2685773  -0.4809986   0.1627824 SPIN=   7.75513
%ENDBLOCK POSITIONS_FRAC

# Note: total spin =  16.00

KPOINTS_MP_SPACING 0.07

%BLOCK SPECIES_POT
QC5
%ENDBLOCK SPECIES_POT

%BLOCK HUBBARD_U
Fe d:4.0
%ENDBLOCK HUBBARD_U

SNAP_TO_SYMMETRY
SYMMETRY_GENERATE

