#              Generated by Buildcell
#
# at 16:52:36 (GMT+0.0) 26th November 2020
# in /scratch/scratch/uccabz1/launch_tmp
# on node-k10g-006
# by uccabz1
#
# compiler GCC version 4.9.2
# options -cpp -iprefix /scratch/UCL/applications/gcc/4.9.2/bin/../lib/gcc/x86_64-unknown-linux-gnu/4.9.2/ -mtune=corei7 -march=x86-64 -g -O2
#
# seed  1755495782  1783591935  1295978615    36345386   -88602678   260035589 -1434614319  -726415135 -1878022687   401739100  1540882774 -1416290862
#
#      Author: C. J. Pickard (cjp20@cam.ac.uk)
#                Space group: Pm
#

%BLOCK LATTICE_ABC
      5.67144      5.78643      9.80641
     90.00000     90.00000     96.09678
%ENDBLOCK LATTICE_ABC

%BLOCK POSITIONS_FRAC
  Li   0.2582496  -0.2737267  -0.0000000 SPIN=   0.00000
  Li   0.4061136   0.2460927   0.0000000 SPIN=   0.00000
  Li  -0.2196036  -0.0873072  -0.0000000 SPIN=   0.00000
  Li   0.2141016   0.4862258  -0.5000000 SPIN=   0.00000
   O  -0.0140363  -0.2634905  -0.1485292 SPIN=   0.00000
   O   0.3014786  -0.2783196  -0.3395219 SPIN=   0.00000
   O   0.2561339  -0.5970658  -0.1709217 SPIN=   0.00000
   O  -0.0628497  -0.5635899  -0.3441895 SPIN=   0.00000
   P   0.1108752  -0.4186123  -0.2464479 SPIN=   0.00000
   O  -0.0140363  -0.2634905   0.1485292 SPIN=   0.00000
   O   0.3014786  -0.2783196   0.3395219 SPIN=   0.00000
   O   0.2561339  -0.5970658   0.1709217 SPIN=   0.00000
   O  -0.0628497  -0.5635899   0.3441895 SPIN=   0.00000
   P   0.1108752  -0.4186123   0.2464479 SPIN=   0.00000
   O  -0.6303471  -0.0198236  -0.1443684 SPIN=   0.00000
   O  -0.4663941   0.2382000  -0.3470658 SPIN=   0.00000
   O  -0.2131993   0.2141650  -0.1437044 SPIN=   0.00000
   P  -0.4108183   0.0678018  -0.2291693 SPIN=   0.00000
   O  -0.6303471  -0.0198236   0.1443684 SPIN=   0.00000
   O  -0.4663941   0.2382000   0.3470658 SPIN=   0.00000
   O  -0.2131993   0.2141650   0.1437044 SPIN=   0.00000
   P  -0.4108183   0.0678018   0.2291693 SPIN=   0.00000
   O  -0.0730315   0.0258503  -0.5000000 SPIN=   0.00000
   O  -0.3906504  -0.4280352   0.0000000 SPIN=   0.00000
  Fe   0.0923220   0.0792373   0.2724244 SPIN=   6.17785
  Fe   0.0923220   0.0792373  -0.2724244 SPIN=   6.17785
  Fe  -0.3897473  -0.4331411   0.2576746 SPIN=   1.82215
  Fe  -0.3897473  -0.4331411  -0.2576746 SPIN=   1.82215
%ENDBLOCK POSITIONS_FRAC

# Note: total spin =  16.00

KPOINTS_MP_SPACING 0.07

%BLOCK SPECIES_POT
QC5
%ENDBLOCK SPECIES_POT

%BLOCK HUBBARD_U
Fe d:4.0
%ENDBLOCK HUBBARD_U

SNAP_TO_SYMMETRY
SYMMETRY_GENERATE

