#              Generated by Buildcell
#
# at 10:58:49 (GMT+0.0) 24th November 2020
# in /scratch/scratch/uccabz1/launch_tmp
# on node-a14c-025
# by uccabz1
#
# compiler GCC version 4.9.2
# options -cpp -iprefix /scratch/UCL/applications/gcc/4.9.2/bin/../lib/gcc/x86_64-unknown-linux-gnu/4.9.2/ -mtune=corei7 -march=x86-64 -g -O2
#
# seed   594605856  1313661519   714816895 -1997527953  1451156054   586084817   494285568  -843187602  1908180472  1167057231  1967393197 -1425281042
#
#      Author: C. J. Pickard (cjp20@cam.ac.uk)
#                Space group: Pm
#

%BLOCK LATTICE_ABC
      3.91481      4.41898      9.62301
     90.00000     90.00000    106.03001
%ENDBLOCK LATTICE_ABC

%BLOCK POSITIONS_FRAC
  Li  -0.4592237  -0.2863042   0.2115889 SPIN=   0.00000
  Li  -0.4592237  -0.2863042  -0.2115889 SPIN=   0.00000
   O   0.0909686   0.6152557   0.3506425 SPIN=   0.00000
   O   0.1864265   0.1314268   0.2192835 SPIN=   0.00000
   O  -0.3383986   0.0520847   0.3718116 SPIN=   0.00000
   P  -0.0867794   0.3048897   0.2752378 SPIN=   0.00000
   O   0.0909686   0.6152557  -0.3506425 SPIN=   0.00000
   O   0.1864265   0.1314268  -0.2192835 SPIN=   0.00000
   O  -0.3383986   0.0520847  -0.3718116 SPIN=   0.00000
   P  -0.0867794   0.3048897  -0.2752378 SPIN=   0.00000
   O  -0.4251388  -0.1225925   0.0000000 SPIN=   0.00000
   O  -0.4445430  -0.4953627   0.5000000 SPIN=   0.00000
  Fe   0.1857319  -0.0006559  -0.5000000 SPIN=   3.68921
  Fe   0.1741687   0.1241269   0.0000000 SPIN=   4.31079
%ENDBLOCK POSITIONS_FRAC

# Note: total spin =   8.00

KPOINTS_MP_SPACING 0.07

%BLOCK SPECIES_POT
QC5
%ENDBLOCK SPECIES_POT

%BLOCK HUBBARD_U
Fe d:4.0
%ENDBLOCK HUBBARD_U

SNAP_TO_SYMMETRY
SYMMETRY_GENERATE

