#              Generated by Buildcell
#
# at 18:02:00 (GMT+0.0) 26th November 2020
# in /lustre/scratch/uccabz1/launch_tmp
# on node-c12f-023
# by uccabz1
#
# compiler GCC version 4.9.2
# options -cpp -iprefix /lustre/shared/ucl/apps/gcc/4.9.2/bin/../lib/gcc/x86_64-unknown-linux-gnu/4.9.2/ -mtune=corei7 -march=x86-64 -g -Og
#
# seed  -609668825 -1305132933  1463336459 -1696301380 -1787672878 -1373215321  -806939936 -1099390866   416819708 -1562989258   257280083 -1150145780
#
#      Author: C. J. Pickard (cjp20@cam.ac.uk)
#                Space group: P-1
#

%BLOCK LATTICE_ABC
      5.33792      6.00969     10.57504
     86.68463     82.77308     71.99562
%ENDBLOCK LATTICE_ABC

%BLOCK POSITIONS_FRAC
  Li  -0.1034501  -0.2420674  -0.0306134 SPIN=   0.00000
  Li   0.1034501   0.2420674   0.0306134 SPIN=   0.00000
  Li   0.3936279  -0.1493395  -0.1504304 SPIN=   0.00000
  Li  -0.3936279   0.1493395   0.1504304 SPIN=   0.00000
   O   0.2766070   0.5512217  -0.1704401 SPIN=   0.00000
   O   0.1178560   0.1829174  -0.1641696 SPIN=   0.00000
   O  -0.2182510   0.5723291  -0.1645549 SPIN=   0.00000
   O   0.0916110   0.4347864  -0.3621857 SPIN=   0.00000
   P   0.0784096   0.4414789  -0.2146800 SPIN=   0.00000
   O  -0.2766070  -0.5512217   0.1704401 SPIN=   0.00000
   O  -0.1178560  -0.1829174   0.1641696 SPIN=   0.00000
   O   0.2182510  -0.5723291   0.1645549 SPIN=   0.00000
   O  -0.0916110  -0.4347864   0.3621857 SPIN=   0.00000
   P  -0.0784096  -0.4414789   0.2146800 SPIN=   0.00000
   O  -0.1717424  -0.0476151  -0.2445026 SPIN=   0.00000
   O  -0.4124954   0.2702010  -0.4026366 SPIN=   0.00000
   O  -0.1522172  -0.1190376  -0.4860107 SPIN=   0.00000
   O  -0.5780215  -0.0737640  -0.3451488 SPIN=   0.00000
   P  -0.3232095   0.0035560  -0.3626269 SPIN=   0.00000
   O   0.1717424   0.0476151   0.2445026 SPIN=   0.00000
   O   0.4124954  -0.2702010   0.4026366 SPIN=   0.00000
   O   0.1522172   0.1190376   0.4860107 SPIN=   0.00000
   O   0.5780215   0.0737640   0.3451488 SPIN=   0.00000
   P   0.3232095  -0.0035560   0.3626269 SPIN=   0.00000
  Fe   0.2115767  -0.2698316  -0.4148738 SPIN=   2.99994
  Fe  -0.2115767   0.2698316   0.4148738 SPIN=   2.99994
  Fe   0.3671741  -0.2856238   0.1521608 SPIN=   5.00006
  Fe  -0.3671741   0.2856238  -0.1521608 SPIN=   5.00006
%ENDBLOCK POSITIONS_FRAC

# Note: total spin =  16.00

KPOINTS_MP_SPACING 0.07

%BLOCK SPECIES_POT
QC5
%ENDBLOCK SPECIES_POT

%BLOCK HUBBARD_U
Fe d:4.0
%ENDBLOCK HUBBARD_U

SNAP_TO_SYMMETRY
SYMMETRY_GENERATE

