#              Generated by Buildcell
#
# at 09:24:35 (GMT+0.0) 24th November 2020
# in /lustre/scratch/uccabz1/launch_tmp
# on node-c12n-028
# by uccabz1
#
# compiler GCC version 4.9.2
# options -cpp -iprefix /lustre/shared/ucl/apps/gcc/4.9.2/bin/../lib/gcc/x86_64-unknown-linux-gnu/4.9.2/ -mtune=corei7 -march=x86-64 -g -Og
#
# seed  1241786012  1060622216  1031236628  -827840800 -1248148262  -568531898  1698939379  2015227214 -1567615068  1824296897  2068345931  1439818120
#
#      Author: C. J. Pickard (cjp20@cam.ac.uk)
#                Space group: Cc
#

%BLOCK LATTICE_ABC
      4.39912      5.24213      7.64361
     89.96781     89.92328     65.19112
%ENDBLOCK LATTICE_ABC

%BLOCK POSITIONS_FRAC
  Li   0.0429299  -0.3084699   0.0186669 SPIN=   0.00000
  Li  -0.2655399   0.3084699  -0.4813331 SPIN=   0.00000
   O  -0.6769861   0.3068521   0.1942234 SPIN=   0.00000
   O  -0.2870985   0.5618534   0.1530253 SPIN=   0.00000
   O  -0.0285523   0.0443959   0.1785858 SPIN=   0.00000
   O  -0.3487034   0.2702952  -0.0920903 SPIN=   0.00000
   P  -0.3536841   0.2961335   0.1106374 SPIN=   0.00000
   O  -0.3701340  -0.3068521  -0.3057766 SPIN=   0.00000
   O   0.2747549  -0.5618534  -0.3469747 SPIN=   0.00000
   O   0.0158436  -0.0443959  -0.3214142 SPIN=   0.00000
   O  -0.0784082  -0.2702952  -0.5920903 SPIN=   0.00000
   P  -0.0575506  -0.2961335  -0.3893626 SPIN=   0.00000
  Fe   0.4313200  -0.0852860   0.3093922 SPIN=   4.00000
  Fe   0.3460341   0.0852860  -0.1906078 SPIN=   4.00000
%ENDBLOCK POSITIONS_FRAC

# Note: total spin =   8.00

KPOINTS_MP_SPACING 0.07

%BLOCK SPECIES_POT
QC5
%ENDBLOCK SPECIES_POT

%BLOCK HUBBARD_U
Fe d:4.0
%ENDBLOCK HUBBARD_U

SNAP_TO_SYMMETRY
SYMMETRY_GENERATE

