#              Generated by Buildcell
#
# at 08:01:40 (GMT+0.0) 24th November 2020
# in /lustre/scratch/uccabz1/launch_tmp
# on node-c12f-022
# by uccabz1
#
# compiler GCC version 4.9.2
# options -cpp -iprefix /lustre/shared/ucl/apps/gcc/4.9.2/bin/../lib/gcc/x86_64-unknown-linux-gnu/4.9.2/ -mtune=corei7 -march=x86-64 -g -Og
#
# seed   283310865  1101482293 -1458796288  1987283488  1350064859 -1750889082  -444258429  1631933821   668051628 -1027805881   249857699 -1737223423
#
#      Author: C. J. Pickard (cjp20@cam.ac.uk)
#                Space group: P4
#

%BLOCK LATTICE_ABC
      5.33235      5.47773      5.47773
     90.00000     90.00000     90.00000
%ENDBLOCK LATTICE_ABC

%BLOCK POSITIONS_FRAC
  Li  -0.2903933  -0.0000000   0.0000000 SPIN=   0.00000
  Li   0.4024483   0.5000000  -0.5000000 SPIN=   0.00000
   O  -0.2536549  -0.1878685  -0.3526449 SPIN=   0.00000
   O  -0.6282172   0.1107167  -0.2992077 SPIN=   0.00000
   O  -0.2536549   0.1878685   0.3526449 SPIN=   0.00000
   O  -0.6282172  -0.1107167   0.2992077 SPIN=   0.00000
   O  -0.2536549  -0.3526449   0.1878685 SPIN=   0.00000
   O  -0.6282172  -0.2992077  -0.1107167 SPIN=   0.00000
   O  -0.2536549   0.3526449  -0.1878685 SPIN=   0.00000
   O  -0.6282172   0.2992077   0.1107167 SPIN=   0.00000
   P   0.2104905  -0.0000000  -0.0000000 SPIN=   0.00000
   P  -0.0983530   0.5000000  -0.5000000 SPIN=   0.00000
  Fe   0.0558279   0.0000000  -0.5000000 SPIN=   4.00000
  Fe   0.0558279   0.5000000   0.0000000 SPIN=   4.00000
%ENDBLOCK POSITIONS_FRAC

# Note: total spin =   8.00

KPOINTS_MP_SPACING 0.07

%BLOCK SPECIES_POT
QC5
%ENDBLOCK SPECIES_POT

%BLOCK HUBBARD_U
Fe d:4.0
%ENDBLOCK HUBBARD_U

SNAP_TO_SYMMETRY
SYMMETRY_GENERATE

