#              Generated by Buildcell
#
# at 09:01:34 (GMT+0.0) 24th November 2020
# in /lustre/scratch/uccabz1/launch_tmp
# on node-c12n-022
# by uccabz1
#
# compiler GCC version 4.9.2
# options -cpp -iprefix /lustre/shared/ucl/apps/gcc/4.9.2/bin/../lib/gcc/x86_64-unknown-linux-gnu/4.9.2/ -mtune=corei7 -march=x86-64 -g -Og
#
# seed -1570335817 -2032979342  -789474665 -1626684569  1004996608 -1397323198 -2078575138   372045748  -141804147   781059586   685078165  2061512822
#
#      Author: C. J. Pickard (cjp20@cam.ac.uk)
#                Space group: P-1
#

%BLOCK LATTICE_ABC
      3.90404      6.11768      7.12382
     71.62295     89.48739     82.52324
%ENDBLOCK LATTICE_ABC

%BLOCK POSITIONS_FRAC
  Li  -0.2568886  -0.2226264   0.0843813 SPIN=   0.00000
  Li   0.2568886   0.2226264  -0.0843813 SPIN=   0.00000
   O  -0.2555485   0.2874815  -0.1950722 SPIN=   0.00000
   O  -0.4940825  -0.0865588  -0.2035728 SPIN=   0.00000
   O  -0.2423195   0.1521560  -0.5063584 SPIN=   0.00000
   P  -0.2098468   0.0792205  -0.2741958 SPIN=   0.00000
   O   0.2555485  -0.2874815   0.1950722 SPIN=   0.00000
   O   0.4940825   0.0865588   0.2035728 SPIN=   0.00000
   O   0.2423195  -0.1521560   0.5063584 SPIN=   0.00000
   P   0.2098468  -0.0792205   0.2741958 SPIN=   0.00000
   O  -0.0000000  -0.5000000  -0.0000000 SPIN=   0.00000
   O   0.0000000  -0.5000000   0.5000000 SPIN=   0.00000
  Fe   0.3216811  -0.6528501   0.3281791 SPIN=   4.00000
  Fe  -0.3216811   0.6528501  -0.3281791 SPIN=   4.00000
%ENDBLOCK POSITIONS_FRAC

# Note: total spin =   8.00

KPOINTS_MP_SPACING 0.07

%BLOCK SPECIES_POT
QC5
%ENDBLOCK SPECIES_POT

%BLOCK HUBBARD_U
Fe d:4.0
%ENDBLOCK HUBBARD_U

SNAP_TO_SYMMETRY
SYMMETRY_GENERATE

