#              Generated by Buildcell
#
# at 11:15:28 (GMT+0.0) 24th November 2020
# in /scratch/scratch/uccabz1/launch_tmp
# on node-a14f-017
# by uccabz1
#
# compiler GCC version 4.9.2
# options -cpp -iprefix /scratch/UCL/applications/gcc/4.9.2/bin/../lib/gcc/x86_64-unknown-linux-gnu/4.9.2/ -mtune=corei7 -march=x86-64 -g -O2
#
# seed  -549266843 -1779384977    -2720095 -1474238481  -411670693   502417662  1335501946    -9461491  -779138886  1150884664  -634219932  -710903881
#
#      Author: C. J. Pickard (cjp20@cam.ac.uk)
#                Space group: Pc
#

%BLOCK LATTICE_ABC
      4.73664      5.81275      6.35491
     90.00000     90.00000    113.87277
%ENDBLOCK LATTICE_ABC

%BLOCK POSITIONS_FRAC
  Li  -0.5084801  -0.3439761  -0.0595188 SPIN=   0.00000
  Li  -0.0084801   0.1560239   0.0595188 SPIN=   0.00000
   O   0.4517476  -0.1227464   0.1925094 SPIN=   0.00000
   O   0.5256820   0.3202549   0.0584013 SPIN=   0.00000
   O   0.1924801   0.1460396   0.3682843 SPIN=   0.00000
   O   0.7643617   0.2823030   0.4011103 SPIN=   0.00000
   P   0.4851873   0.1430813   0.2534682 SPIN=   0.00000
   O  -0.0482524  -0.6227464  -0.1925094 SPIN=   0.00000
   O   0.0256820  -0.1797451  -0.0584013 SPIN=   0.00000
   O  -0.3075199  -0.3539604  -0.3682843 SPIN=   0.00000
   O   0.2643617  -0.2176970  -0.4011103 SPIN=   0.00000
   P  -0.0148127  -0.3569187  -0.2534682 SPIN=   0.00000
  Fe   0.4910311   0.1557613  -0.2983253 SPIN=   4.00000
  Fe  -0.0089689  -0.3442387   0.2983253 SPIN=   4.00000
%ENDBLOCK POSITIONS_FRAC

# Note: total spin =   8.00

KPOINTS_MP_SPACING 0.07

%BLOCK SPECIES_POT
QC5
%ENDBLOCK SPECIES_POT

%BLOCK HUBBARD_U
Fe d:4.0
%ENDBLOCK HUBBARD_U

SNAP_TO_SYMMETRY
SYMMETRY_GENERATE

