#              Generated by Buildcell
#
# at 16:27:18 (GMT+0.0) 26th November 2020
# in /lustre/scratch/uccabz1/launch_tmp
# on node-c12m-023
# by uccabz1
#
# compiler GCC version 4.9.2
# options -cpp -iprefix /lustre/shared/ucl/apps/gcc/4.9.2/bin/../lib/gcc/x86_64-unknown-linux-gnu/4.9.2/ -mtune=corei7 -march=x86-64 -g -Og
#
# seed  2095341754  2063512241 -1323627136 -1820533004     1725637  2069789971   -33020390  1583500836  -705308055  1556259609  -414198497 -1439482371
#
#      Author: C. J. Pickard (cjp20@cam.ac.uk)
#                Space group: C2/c
#

%BLOCK LATTICE_ABC
      7.01838      7.01838      7.38518
    108.71976    108.71976     94.15752
%ENDBLOCK LATTICE_ABC

%BLOCK POSITIONS_FRAC
  Li  -0.2806644   0.4403831   0.4795508 SPIN=   0.00000
  Li  -0.4403831   0.2806644   0.0204492 SPIN=   0.00000
  Li   0.2806644  -0.4403831  -0.4795508 SPIN=   0.00000
  Li   0.4403831  -0.2806644  -0.0204492 SPIN=   0.00000
   O   0.3005893   0.1811080  -0.4038267 SPIN=   0.00000
   O   0.4312441  -0.0424369  -0.1868239 SPIN=   0.00000
   O   0.0733436  -0.1446342  -0.4330892 SPIN=   0.00000
   O   0.3615450  -0.1834525  -0.5642440 SPIN=   0.00000
   P   0.2929794  -0.0367955  -0.3993333 SPIN=   0.00000
   O  -0.1811080  -0.3005893  -0.0961733 SPIN=   0.00000
   O   0.0424369  -0.4312441  -0.3131761 SPIN=   0.00000
   O   0.1446342  -0.0733436  -0.0669108 SPIN=   0.00000
   O   0.1834525  -0.3615450   0.0642440 SPIN=   0.00000
   P   0.0367955  -0.2929794  -0.1006667 SPIN=   0.00000
   O  -0.3005893  -0.1811080   0.4038267 SPIN=   0.00000
   O  -0.4312441   0.0424369   0.1868239 SPIN=   0.00000
   O  -0.0733436   0.1446342   0.4330892 SPIN=   0.00000
   O  -0.3615450   0.1834525   0.5642440 SPIN=   0.00000
   P  -0.2929794   0.0367955   0.3993333 SPIN=   0.00000
   O   0.1811080   0.3005893   0.0961733 SPIN=   0.00000
   O  -0.0424369   0.4312441   0.3131761 SPIN=   0.00000
   O  -0.1446342   0.0733436   0.0669108 SPIN=   0.00000
   O  -0.1834525   0.3615450  -0.0642440 SPIN=   0.00000
   P  -0.0367955   0.2929794   0.1006667 SPIN=   0.00000
  Fe   0.2941847   0.1013247   0.2461564 SPIN=   4.00000
  Fe  -0.1013247  -0.2941847   0.2538436 SPIN=   4.00000
  Fe  -0.2941847  -0.1013247  -0.2461564 SPIN=   4.00000
  Fe   0.1013247   0.2941847  -0.2538436 SPIN=   4.00000
%ENDBLOCK POSITIONS_FRAC

# Note: total spin =  16.00

KPOINTS_MP_SPACING 0.07

%BLOCK SPECIES_POT
QC5
%ENDBLOCK SPECIES_POT

%BLOCK HUBBARD_U
Fe d:4.0
%ENDBLOCK HUBBARD_U

SNAP_TO_SYMMETRY
SYMMETRY_GENERATE

