#              Generated by Buildcell
#
# at 11:17:32 (GMT+0.0) 24th November 2020
# in /lustre/scratch/uccabz1/launch_tmp
# on node-c12i-032
# by uccabz1
#
# compiler GCC version 4.9.2
# options -cpp -iprefix /lustre/shared/ucl/apps/gcc/4.9.2/bin/../lib/gcc/x86_64-unknown-linux-gnu/4.9.2/ -mtune=corei7 -march=x86-64 -g -Og
#
# seed -1853565649  -569618626  1465546582   590997008 -1705141623 -1547750621  1844056959  1264899649  1584641723  1511804943  1221331448  1574752029
#
#      Author: C. J. Pickard (cjp20@cam.ac.uk)
#                Space group: P-1
#

%BLOCK LATTICE_ABC
      5.03038      6.08233      6.30952
    110.13046    110.37195    100.16704
%ENDBLOCK LATTICE_ABC

%BLOCK POSITIONS_FRAC
  Li  -0.0056762   0.2450698   0.4893376 SPIN=   0.00000
  Li   0.0056762  -0.2450698  -0.4893376 SPIN=   0.00000
   O   0.5141681  -0.3131544   0.2005272 SPIN=   0.00000
   O   0.1714947  -0.1753858  -0.1075355 SPIN=   0.00000
   O  -0.0225468  -0.3182203   0.1491694 SPIN=   0.00000
   O   0.3918388   0.0906275   0.3567554 SPIN=   0.00000
   P   0.2785845  -0.1829922   0.1548770 SPIN=   0.00000
   O  -0.5141681   0.3131544  -0.2005272 SPIN=   0.00000
   O  -0.1714947   0.1753858   0.1075355 SPIN=   0.00000
   O   0.0225468   0.3182203  -0.1491694 SPIN=   0.00000
   O  -0.3918388  -0.0906275  -0.3567554 SPIN=   0.00000
   P  -0.2785845   0.1829922  -0.1548770 SPIN=   0.00000
  Fe   0.3588707   0.2899005   0.1408785 SPIN=   4.00000
  Fe  -0.3588707  -0.2899005  -0.1408785 SPIN=   4.00000
%ENDBLOCK POSITIONS_FRAC

# Note: total spin =   8.00

KPOINTS_MP_SPACING 0.07

%BLOCK SPECIES_POT
QC5
%ENDBLOCK SPECIES_POT

%BLOCK HUBBARD_U
Fe d:4.0
%ENDBLOCK HUBBARD_U

SNAP_TO_SYMMETRY
SYMMETRY_GENERATE

