#              Generated by Buildcell
#
# at 23:50:19 (GMT+0.0) 26th November 2020
# in /lustre/scratch/uccabz1/launch_tmp
# on node-c12f-023
# by uccabz1
#
# compiler GCC version 4.9.2
# options -cpp -iprefix /lustre/shared/ucl/apps/gcc/4.9.2/bin/../lib/gcc/x86_64-unknown-linux-gnu/4.9.2/ -mtune=corei7 -march=x86-64 -g -Og
#
# seed   271796045   573387718   355288652 -1193169177  -774942503 -1330559907  -660761016  1145883562   580652022  -513386074 -2089947784   643290393
#
#      Author: C. J. Pickard (cjp20@cam.ac.uk)
#                Space group: Cmc21
#

%BLOCK LATTICE_ABC
      6.36632      6.36632      8.06103
     90.00000     90.00000    101.63590
%ENDBLOCK LATTICE_ABC

%BLOCK POSITIONS_FRAC
  Li  -0.1610191   0.2998046  -0.4971987 SPIN=   0.00000
  Li   0.1610191  -0.2998046   0.0028013 SPIN=   0.00000
  Li  -0.2998046   0.1610191   0.0028013 SPIN=   0.00000
  Li   0.2998046  -0.1610191  -0.4971987 SPIN=   0.00000
   O  -0.1241453  -0.3702765   0.4641644 SPIN=   0.00000
   O   0.0925367  -0.1549551   0.2245542 SPIN=   0.00000
   O   0.2174665  -0.4697122   0.3361988 SPIN=   0.00000
   O  -0.1198276  -0.5238769   0.1678958 SPIN=   0.00000
   P   0.0074096  -0.3809045   0.3055021 SPIN=   0.00000
   O   0.1241453   0.3702765  -0.0358356 SPIN=   0.00000
   O  -0.0925367   0.1549551  -0.2754458 SPIN=   0.00000
   O  -0.2174665   0.4697122  -0.1638012 SPIN=   0.00000
   O   0.1198276   0.5238769  -0.3321042 SPIN=   0.00000
   P  -0.0074096   0.3809045  -0.1944979 SPIN=   0.00000
   O   0.3702765   0.1241453  -0.0358356 SPIN=   0.00000
   O   0.1549551  -0.0925367  -0.2754458 SPIN=   0.00000
   O   0.4697122  -0.2174665  -0.1638012 SPIN=   0.00000
   O   0.5238769   0.1198276  -0.3321042 SPIN=   0.00000
   P   0.3809045  -0.0074096  -0.1944979 SPIN=   0.00000
   O  -0.3702765  -0.1241453   0.4641644 SPIN=   0.00000
   O  -0.1549551   0.0925367   0.2245542 SPIN=   0.00000
   O  -0.4697122   0.2174665   0.3361988 SPIN=   0.00000
   O  -0.5238769  -0.1198276   0.1678958 SPIN=   0.00000
   P  -0.3809045   0.0074096   0.3055021 SPIN=   0.00000
  Fe  -0.1717666  -0.1717666  -0.3375394 SPIN=   2.92158
  Fe   0.1717666   0.1717666   0.1624606 SPIN=   2.92158
  Fe  -0.3519111  -0.3519111   0.1030876 SPIN=   5.07842
  Fe   0.3519111   0.3519111  -0.3969124 SPIN=   5.07842
%ENDBLOCK POSITIONS_FRAC

# Note: total spin =  16.00

KPOINTS_MP_SPACING 0.07

%BLOCK SPECIES_POT
QC5
%ENDBLOCK SPECIES_POT

%BLOCK HUBBARD_U
Fe d:4.0
%ENDBLOCK HUBBARD_U

SNAP_TO_SYMMETRY
SYMMETRY_GENERATE

