#              Generated by Buildcell
#
# at 15:19:01 (GMT+0.0) 26th November 2020
# in /lustre/scratch/uccabz1/launch_tmp
# on node-c12k-032
# by uccabz1
#
# compiler GCC version 4.9.2
# options -cpp -iprefix /lustre/shared/ucl/apps/gcc/4.9.2/bin/../lib/gcc/x86_64-unknown-linux-gnu/4.9.2/ -mtune=corei7 -march=x86-64 -g -Og
#
# seed  1597215068   356834859  2071313293 -2130386069  -952192709   747985591 -1609366043   687714566  1326228927  1555238145  -189674625  -512941258
#
#      Author: C. J. Pickard (cjp20@cam.ac.uk)
#                Space group: P212121
#

%BLOCK LATTICE_ABC
      3.86146      7.56697     10.95157
     90.00000     90.00000     90.00000
%ENDBLOCK LATTICE_ABC

%BLOCK POSITIONS_FRAC
  Li  -0.2115603  -0.4453264   0.4248164 SPIN=   0.00000
  Li  -0.2884397   0.4453264  -0.0751836 SPIN=   0.00000
  Li   0.2115603   0.0546736   0.0751836 SPIN=   0.00000
  Li   0.2884397  -0.0546736  -0.4248164 SPIN=   0.00000
   O  -0.0680750   0.1908257   0.2095262 SPIN=   0.00000
   O  -0.5442077   0.3002769   0.0599405 SPIN=   0.00000
   O  -0.4924081   0.4467962   0.2606497 SPIN=   0.00000
   O  -0.0332151   0.4945246   0.1025647 SPIN=   0.00000
   P  -0.2699890   0.3508089   0.1602485 SPIN=   0.00000
   O  -0.4319250  -0.1908257  -0.2904738 SPIN=   0.00000
   O   0.0442077  -0.3002769  -0.4400595 SPIN=   0.00000
   O  -0.0075919  -0.4467962  -0.2393503 SPIN=   0.00000
   O  -0.4667849  -0.4945246  -0.3974353 SPIN=   0.00000
   P  -0.2300110  -0.3508089  -0.3397515 SPIN=   0.00000
   O   0.0680750  -0.3091743   0.2904738 SPIN=   0.00000
   O   0.5442077  -0.1997231   0.4400595 SPIN=   0.00000
   O   0.4924081  -0.0532038   0.2393503 SPIN=   0.00000
   O   0.0332151  -0.0054754   0.3974353 SPIN=   0.00000
   P   0.2699890  -0.1491911   0.3397515 SPIN=   0.00000
   O   0.4319250   0.3091743  -0.2095262 SPIN=   0.00000
   O  -0.0442077   0.1997231  -0.0599405 SPIN=   0.00000
   O   0.0075919   0.0532038  -0.2606497 SPIN=   0.00000
   O   0.4667849   0.0054754  -0.1025647 SPIN=   0.00000
   P   0.2300110   0.1491911  -0.1602485 SPIN=   0.00000
  Fe  -0.2067511   0.2743183  -0.3479445 SPIN=   4.00000
  Fe  -0.2932489  -0.2743183   0.1520555 SPIN=   4.00000
  Fe   0.2067511  -0.2256817  -0.1520555 SPIN=   4.00000
  Fe   0.2932489   0.2256817   0.3479445 SPIN=   4.00000
%ENDBLOCK POSITIONS_FRAC

# Note: total spin =  16.00

KPOINTS_MP_SPACING 0.07

%BLOCK SPECIES_POT
QC5
%ENDBLOCK SPECIES_POT

%BLOCK HUBBARD_U
Fe d:4.0
%ENDBLOCK HUBBARD_U

SNAP_TO_SYMMETRY
SYMMETRY_GENERATE

