#              Generated by Buildcell
#
# at 01:53:52 (GMT+0.0) 27th November 2020
# in /lustre/scratch/uccabz1/launch_tmp
# on node-c12j-022
# by uccabz1
#
# compiler GCC version 4.9.2
# options -cpp -iprefix /lustre/shared/ucl/apps/gcc/4.9.2/bin/../lib/gcc/x86_64-unknown-linux-gnu/4.9.2/ -mtune=corei7 -march=x86-64 -g -Og
#
# seed   860443474  -826054580  -556256312 -1253328909  1374942443 -1521768440  1152989374   783498461  -788267186 -1140922160  -918692590  1786305661
#
#      Author: C. J. Pickard (cjp20@cam.ac.uk)
#                Space group: I222
#

%BLOCK LATTICE_ABC
      5.84171      6.80102      9.21786
    111.64806    108.47370     90.00000
%ENDBLOCK LATTICE_ABC

%BLOCK POSITIONS_FRAC
  Li  -0.0008543  -0.2871076   0.4982275 SPIN=   0.00000
  Li   0.0008543   0.2146650  -0.4982275 SPIN=   0.00000
  Li  -0.4990817   0.2871076  -0.4982275 SPIN=   0.00000
  Li   0.4990817  -0.2146650   0.4982275 SPIN=   0.00000
   O  -0.3126927  -0.0881278   0.3183339 SPIN=   0.00000
   O  -0.1024086  -0.0603456   0.1156565 SPIN=   0.00000
   O   0.1526376  -0.0874744   0.3767353 SPIN=   0.00000
   O  -0.1341289  -0.4054579   0.1518637 SPIN=   0.00000
   P  -0.1109312  -0.1593984   0.2437360 SPIN=   0.00000
   O   0.3126927  -0.4064617  -0.3183339 SPIN=   0.00000
   O   0.1024086  -0.1760021  -0.1156565 SPIN=   0.00000
   O  -0.1526376  -0.4642097  -0.3767353 SPIN=   0.00000
   O   0.1341289  -0.5573217  -0.1518637 SPIN=   0.00000
   P   0.1109312  -0.4031344  -0.2437360 SPIN=   0.00000
   O  -0.6310266   0.0881278  -0.3183339 SPIN=   0.00000
   O  -0.2180650   0.0603456  -0.1156565 SPIN=   0.00000
   O  -0.2240977   0.0874744  -0.3767353 SPIN=   0.00000
   O  -0.2859926   0.4054579  -0.1518637 SPIN=   0.00000
   P  -0.3546672   0.1593984  -0.2437360 SPIN=   0.00000
   O   0.6310266   0.4064617   0.3183339 SPIN=   0.00000
   O   0.2180650   0.1760021   0.1156565 SPIN=   0.00000
   O   0.2240977   0.4642097   0.3767353 SPIN=   0.00000
   O   0.2859926   0.5573217   0.1518637 SPIN=   0.00000
   P   0.3546672   0.4031344   0.2437360 SPIN=   0.00000
  Fe  -0.1721443   0.2916168   0.1558492 SPIN=   4.00000
  Fe   0.1721443   0.1357676  -0.1558492 SPIN=   4.00000
  Fe  -0.3279935  -0.2916168  -0.1558492 SPIN=   4.00000
  Fe   0.3279935  -0.1357676   0.1558492 SPIN=   4.00000
%ENDBLOCK POSITIONS_FRAC

# Note: total spin =  16.00

KPOINTS_MP_SPACING 0.07

%BLOCK SPECIES_POT
QC5
%ENDBLOCK SPECIES_POT

%BLOCK HUBBARD_U
Fe d:4.0
%ENDBLOCK HUBBARD_U

SNAP_TO_SYMMETRY
SYMMETRY_GENERATE

