#              Generated by Buildcell
#
# at 06:34:15 (GMT+0.0) 24th November 2020
# in /lustre/scratch/uccabz1/launch_tmp
# on node-c12a-034
# by uccabz1
#
# compiler GCC version 4.9.2
# options -cpp -iprefix /lustre/shared/ucl/apps/gcc/4.9.2/bin/../lib/gcc/x86_64-unknown-linux-gnu/4.9.2/ -mtune=corei7 -march=x86-64 -g -Og
#
# seed  -498313704   861827776  -164618516  1653212120 -1775308159 -1232476332  1213373865   888962858   -24920874   825110492   764926381  1723860449
#
#      Author: C. J. Pickard (cjp20@cam.ac.uk)
#                Space group: Pmc21
#

%BLOCK LATTICE_ABC
      4.43026      4.94664      7.30097
     90.00000     90.00000     90.00000
%ENDBLOCK LATTICE_ABC

%BLOCK POSITIONS_FRAC
  Li   0.4288340  -0.0000000   0.2237447 SPIN=   0.00000
  Li  -0.4288340   0.0000000  -0.2762553 SPIN=   0.00000
   O   0.0404603  -0.2503447   0.2171392 SPIN=   0.00000
   O   0.3906328  -0.2496553  -0.0683085 SPIN=   0.00000
   O  -0.0404603   0.2503447  -0.2828608 SPIN=   0.00000
   O  -0.3906328   0.2496553  -0.5683085 SPIN=   0.00000
   O  -0.0404603  -0.2503447  -0.2828608 SPIN=   0.00000
   O  -0.3906328  -0.2496553  -0.5683085 SPIN=   0.00000
   O   0.0404603   0.2503447   0.2171392 SPIN=   0.00000
   O   0.3906328   0.2496553  -0.0683085 SPIN=   0.00000
   P  -0.0715294   0.0000000   0.4286176 SPIN=   0.00000
   P   0.0715294  -0.0000000  -0.0713824 SPIN=   0.00000
  Fe  -0.2170457   0.5000000   0.0158820 SPIN=   4.00000
  Fe   0.2170457  -0.5000000  -0.4841180 SPIN=   4.00000
%ENDBLOCK POSITIONS_FRAC

# Note: total spin =   8.00

KPOINTS_MP_SPACING 0.07

%BLOCK SPECIES_POT
QC5
%ENDBLOCK SPECIES_POT

%BLOCK HUBBARD_U
Fe d:4.0
%ENDBLOCK HUBBARD_U

SNAP_TO_SYMMETRY
SYMMETRY_GENERATE

