#              Generated by Buildcell
#
# at 11:17:27 (GMT+0.0) 24th November 2020
# in /scratch/scratch/uccabz1/launch_tmp
# on node-a14a-010
# by uccabz1
#
# compiler GCC version 4.9.2
# options -cpp -iprefix /scratch/UCL/applications/gcc/4.9.2/bin/../lib/gcc/x86_64-unknown-linux-gnu/4.9.2/ -mtune=corei7 -march=x86-64 -g -O2
#
# seed  -941927804  -632200949  1093304455  -460941648  -577271091 -1429214616  1699363055 -1091828303  1335636210  2052011563  1116981882   957707180
#
#      Author: C. J. Pickard (cjp20@cam.ac.uk)
#                Space group: Pmn21
#

%BLOCK LATTICE_ABC
      5.37615      5.39882      5.51252
     90.00000     90.00000     90.00000
%ENDBLOCK LATTICE_ABC

%BLOCK POSITIONS_FRAC
  Li  -0.0000000  -0.4908358  -0.4178338 SPIN=   0.00000
  Li  -0.5000000   0.0091642   0.4178338 SPIN=   0.00000
   O  -0.2367504   0.1856825   0.6449461 SPIN=   0.00000
   O  -0.2582773   0.1973356   0.1742489 SPIN=   0.00000
   O  -0.2632496  -0.3143175  -0.6449461 SPIN=   0.00000
   O  -0.2417227  -0.3026644  -0.1742489 SPIN=   0.00000
   O   0.2632496  -0.3143175  -0.6449461 SPIN=   0.00000
   O   0.2417227  -0.3026644  -0.1742489 SPIN=   0.00000
   O   0.2367504   0.1856825   0.6449461 SPIN=   0.00000
   O   0.2582773   0.1973356   0.1742489 SPIN=   0.00000
   P  -0.0000000   0.0074285  -0.4166305 SPIN=   0.00000
   P   0.5000000  -0.4925715   0.4166305 SPIN=   0.00000
  Fe  -0.0000000  -0.1449732   0.0838128 SPIN=   4.00000
  Fe  -0.5000000   0.3550268  -0.0838128 SPIN=   4.00000
%ENDBLOCK POSITIONS_FRAC

# Note: total spin =   8.00

KPOINTS_MP_SPACING 0.07

%BLOCK SPECIES_POT
QC5
%ENDBLOCK SPECIES_POT

%BLOCK HUBBARD_U
Fe d:4.0
%ENDBLOCK HUBBARD_U

SNAP_TO_SYMMETRY
SYMMETRY_GENERATE

