#              Generated by Buildcell
#
# at 09:38:48 (GMT+0.0) 24th November 2020
# in /lustre/scratch/uccabz1/launch_tmp
# on node-c12d-032
# by uccabz1
#
# compiler GCC version 4.9.2
# options -cpp -iprefix /lustre/shared/ucl/apps/gcc/4.9.2/bin/../lib/gcc/x86_64-unknown-linux-gnu/4.9.2/ -mtune=corei7 -march=x86-64 -g -Og
#
# seed   308087415  2097832774  1206782895  1229837846  -742591269  -361588896    80259274   760703452   678339512  2054398087   509715650  2095446832
#
#      Author: C. J. Pickard (cjp20@cam.ac.uk)
#                Space group: Pm
#

%BLOCK LATTICE_ABC
      4.08657      4.23046      9.29622
     90.00000     90.00000     95.40077
%ENDBLOCK LATTICE_ABC

%BLOCK POSITIONS_FRAC
  Li   0.4645504  -0.3286474  -0.2486641 SPIN=   0.00000
  Li   0.4645504  -0.3286474   0.2486641 SPIN=   0.00000
   O  -0.2471873   0.3795467   0.1316916 SPIN=   0.00000
   O   0.0926798   0.4161111   0.3682849 SPIN=   0.00000
   O  -0.4416313   0.0903173   0.3674763 SPIN=   0.00000
   O   0.0333812  -0.0964988   0.2318218 SPIN=   0.00000
   O  -0.2471873   0.3795467  -0.1316916 SPIN=   0.00000
   O   0.0926798   0.4161111  -0.3682849 SPIN=   0.00000
   O  -0.4416313   0.0903173  -0.3674763 SPIN=   0.00000
   O   0.0333812  -0.0964988  -0.2318218 SPIN=   0.00000
   P  -0.2258927  -0.3895502  -0.0000000 SPIN=   0.00000
   P  -0.4680398   0.3839797   0.5000000 SPIN=   0.00000
  Fe   0.2310450   0.1479723   0.0000000 SPIN=   3.52134
  Fe  -0.0084581  -0.0767398   0.5000000 SPIN=   4.47866
%ENDBLOCK POSITIONS_FRAC

# Note: total spin =   8.00

KPOINTS_MP_SPACING 0.07

%BLOCK SPECIES_POT
QC5
%ENDBLOCK SPECIES_POT

%BLOCK HUBBARD_U
Fe d:4.0
%ENDBLOCK HUBBARD_U

SNAP_TO_SYMMETRY
SYMMETRY_GENERATE

