#              Generated by Buildcell
#
# at 14:10:30 (GMT+0.0) 24th November 2020
# in /lustre/scratch/uccabz1/launch_tmp
# on node-c12c-026
# by uccabz1
#
# compiler GCC version 4.9.2
# options -cpp -iprefix /lustre/shared/ucl/apps/gcc/4.9.2/bin/../lib/gcc/x86_64-unknown-linux-gnu/4.9.2/ -mtune=corei7 -march=x86-64 -g -Og
#
# seed   789045685  1172013913  2029562718   344695721 -1443129715  1619093744  -379147509  -185644927  1891273997   -16514643 -1145824694  1866248948
#
#      Author: C. J. Pickard (cjp20@cam.ac.uk)
#                Space group: P21/m
#

%BLOCK LATTICE_ABC
      3.86583      5.26806      7.85664
     90.00000     90.00000     90.38370
%ENDBLOCK LATTICE_ABC

%BLOCK POSITIONS_FRAC
  Li   0.0083099   0.0301722   0.2500000 SPIN=   0.00000
  Li  -0.0083099  -0.0301722  -0.2500000 SPIN=   0.00000
   O  -0.8879208  -0.3357364   0.4038939 SPIN=   0.00000
   O  -0.3584516  -0.2299442   0.5954545 SPIN=   0.00000
   O   0.8879208   0.3357364  -0.0961061 SPIN=   0.00000
   O   0.3584516   0.2299442   0.0954545 SPIN=   0.00000
   O   0.8879208   0.3357364  -0.4038939 SPIN=   0.00000
   O   0.3584516   0.2299442  -0.5954545 SPIN=   0.00000
   O  -0.8879208  -0.3357364   0.0961061 SPIN=   0.00000
   O  -0.3584516  -0.2299442  -0.0954545 SPIN=   0.00000
   P   0.5000000   0.0000000   0.0000000 SPIN=   0.00000
   P   0.5000000   0.0000000  -0.5000000 SPIN=   0.00000
  Fe   0.4855244   0.4678497  -0.2500000 SPIN=   4.00000
  Fe  -0.4855244  -0.4678497   0.2500000 SPIN=   4.00000
%ENDBLOCK POSITIONS_FRAC

# Note: total spin =   8.00

KPOINTS_MP_SPACING 0.07

%BLOCK SPECIES_POT
QC5
%ENDBLOCK SPECIES_POT

%BLOCK HUBBARD_U
Fe d:4.0
%ENDBLOCK HUBBARD_U

SNAP_TO_SYMMETRY
SYMMETRY_GENERATE

