#              Generated by Buildcell
#
# at 08:00:11 (GMT+0.0) 24th November 2020
# in /lustre/scratch/uccabz1/launch_tmp
# on node-c12p-030
# by uccabz1
#
# compiler GCC version 4.9.2
# options -cpp -iprefix /lustre/shared/ucl/apps/gcc/4.9.2/bin/../lib/gcc/x86_64-unknown-linux-gnu/4.9.2/ -mtune=corei7 -march=x86-64 -g -Og
#
# seed  1740773121 -1479453176  -702063162 -1433728823  1529489807  -838655285 -1477406076   311876934  1652430782  -174377070 -1845872736 -1677655522
#
#      Author: C. J. Pickard (cjp20@cam.ac.uk)
#                Space group: P2
#

%BLOCK LATTICE_ABC
      4.69423      5.65743      6.29884
    106.96562     90.00000     90.00000
%ENDBLOCK LATTICE_ABC

%BLOCK POSITIONS_FRAC
  Li   0.0152940   0.0918563  -0.2172512 SPIN=   0.00000
  Li   0.0152940  -0.0918563   0.2172512 SPIN=   0.00000
   O   0.4140022   0.2402661   0.5355666 SPIN=   0.00000
   O   0.2145531   0.2505543   0.1536101 SPIN=   0.00000
   O   0.7156041   0.3724735   0.2435532 SPIN=   0.00000
   O   0.5745051  -0.0714152   0.1672645 SPIN=   0.00000
   P   0.4772890   0.1970427   0.2876012 SPIN=   0.00000
   O   0.4140022  -0.2402661  -0.5355666 SPIN=   0.00000
   O   0.2145531  -0.2505543  -0.1536101 SPIN=   0.00000
   O   0.7156041  -0.3724735  -0.2435532 SPIN=   0.00000
   O   0.5745051   0.0714152  -0.1672645 SPIN=   0.00000
   P   0.4772890  -0.1970427  -0.2876012 SPIN=   0.00000
  Fe  -0.4847139  -0.5000000   0.0000000 SPIN=   3.40214
  Fe   0.0116333   0.5000000   0.5000000 SPIN=   4.59786
%ENDBLOCK POSITIONS_FRAC

# Note: total spin =   8.00

KPOINTS_MP_SPACING 0.07

%BLOCK SPECIES_POT
QC5
%ENDBLOCK SPECIES_POT

%BLOCK HUBBARD_U
Fe d:4.0
%ENDBLOCK HUBBARD_U

SNAP_TO_SYMMETRY
SYMMETRY_GENERATE

