#              Generated by Buildcell
#
# at 06:29:32 (GMT+0.0) 24th November 2020
# in /lustre/scratch/uccabz1/launch_tmp
# on node-c12o-023
# by uccabz1
#
# compiler GCC version 4.9.2
# options -cpp -iprefix /lustre/shared/ucl/apps/gcc/4.9.2/bin/../lib/gcc/x86_64-unknown-linux-gnu/4.9.2/ -mtune=corei7 -march=x86-64 -g -Og
#
# seed -1115538543  2001195099  -182466198   398333945   745292361  1445880460  1579600260 -1486379244 -1748752238  -502860118   392282382  1849863577
#
#      Author: C. J. Pickard (cjp20@cam.ac.uk)
#                Space group: Pm
#

%BLOCK LATTICE_ABC
      3.82222      4.64997      9.42439
     90.00000     90.00000    107.21216
%ENDBLOCK LATTICE_ABC

%BLOCK POSITIONS_FRAC
  Li  -0.3217728  -0.3876026   0.2991502 SPIN=   0.00000
  Li  -0.3217728  -0.3876026  -0.2991502 SPIN=   0.00000
   O  -0.0640625  -0.1278097   0.1283741 SPIN=   0.00000
   O   0.5929873   0.2464784   0.1309584 SPIN=   0.00000
   O   0.1280819   0.3458048   0.2899128 SPIN=   0.00000
   O   0.3730345  -0.0867121   0.3414560 SPIN=   0.00000
   P   0.2417515   0.0804688   0.2190560 SPIN=   0.00000
   O  -0.0640625  -0.1278097  -0.1283741 SPIN=   0.00000
   O   0.5929873   0.2464784  -0.1309584 SPIN=   0.00000
   O   0.1280819   0.3458048  -0.2899128 SPIN=   0.00000
   O   0.3730345  -0.0867121  -0.3414560 SPIN=   0.00000
   P   0.2417515   0.0804688  -0.2190560 SPIN=   0.00000
  Fe   0.0305564   0.1947588   0.5000000 SPIN=   5.82164
  Fe   0.2335699  -0.3620276   0.0000000 SPIN=   2.17836
%ENDBLOCK POSITIONS_FRAC

# Note: total spin =   8.00

KPOINTS_MP_SPACING 0.07

%BLOCK SPECIES_POT
QC5
%ENDBLOCK SPECIES_POT

%BLOCK HUBBARD_U
Fe d:4.0
%ENDBLOCK HUBBARD_U

SNAP_TO_SYMMETRY
SYMMETRY_GENERATE

