#              Generated by Buildcell
#
# at 13:20:47 (GMT+0.0) 24th November 2020
# in /scratch/scratch/uccabz1/launch_tmp
# on node-a14b-007
# by uccabz1
#
# compiler GCC version 4.9.2
# options -cpp -iprefix /scratch/UCL/applications/gcc/4.9.2/bin/../lib/gcc/x86_64-unknown-linux-gnu/4.9.2/ -mtune=corei7 -march=x86-64 -g -O2
#
# seed  -158952592 -1040811424  -291594880 -1499841883   400174786 -1417808736  1666796297  -492622338 -1344755849  -392654771   813550900 -2074776949
#
#      Author: C. J. Pickard (cjp20@cam.ac.uk)
#                Space group: Cm
#

%BLOCK LATTICE_ABC
      4.51384      6.27821      6.27821
     90.20829    107.97958    107.97958
%ENDBLOCK LATTICE_ABC

%BLOCK POSITIONS_FRAC
  Li   0.4787769  -0.0660967   0.3364121 SPIN=   0.00000
  Li   0.4787769   0.3364121  -0.0660967 SPIN=   0.00000
   O  -0.5166928  -0.4212882   0.2016842 SPIN=   0.00000
   O  -0.1133368  -0.3050189  -0.0285887 SPIN=   0.00000
   O  -0.0902080  -0.0207849   0.2544719 SPIN=   0.00000
   O   0.1090069  -0.3443828   0.3819314 SPIN=   0.00000
   P  -0.1690931  -0.2816153   0.2044569 SPIN=   0.00000
   O  -0.5166928   0.2016842  -0.4212882 SPIN=   0.00000
   O  -0.1133368  -0.0285887  -0.3050189 SPIN=   0.00000
   O  -0.0902080   0.2544719  -0.0207849 SPIN=   0.00000
   O   0.1090069   0.3819314  -0.3443828 SPIN=   0.00000
   P  -0.1690931   0.2044569  -0.2816153 SPIN=   0.00000
  Fe   0.2163327  -0.2116877  -0.2116877 SPIN=   2.89825
  Fe   0.1528340   0.3365471   0.3365471 SPIN=   5.10175
%ENDBLOCK POSITIONS_FRAC

# Note: total spin =   8.00

KPOINTS_MP_SPACING 0.07

%BLOCK SPECIES_POT
QC5
%ENDBLOCK SPECIES_POT

%BLOCK HUBBARD_U
Fe d:4.0
%ENDBLOCK HUBBARD_U

SNAP_TO_SYMMETRY
SYMMETRY_GENERATE

