#              Generated by Buildcell
#
# at 08:02:35 (GMT+0.0) 24th November 2020
# in /lustre/scratch/uccabz1/launch_tmp
# on node-c12n-028
# by uccabz1
#
# compiler GCC version 4.9.2
# options -cpp -iprefix /lustre/shared/ucl/apps/gcc/4.9.2/bin/../lib/gcc/x86_64-unknown-linux-gnu/4.9.2/ -mtune=corei7 -march=x86-64 -g -Og
#
# seed   164194902  1739307457 -1537785829   161557352   394723363 -1374029658 -1396738100   430206971  1622797093  -120765537  -119860177  -719609814
#
#      Author: C. J. Pickard (cjp20@cam.ac.uk)
#                Space group: P-1
#

%BLOCK LATTICE_ABC
      3.91975      5.28052      8.11978
     76.68375     82.11304     79.47810
%ENDBLOCK LATTICE_ABC

%BLOCK POSITIONS_FRAC
  Li  -0.1865616   0.2614934  -0.4610527 SPIN=   0.00000
  Li   0.1865616  -0.2614934   0.4610527 SPIN=   0.00000
   O  -0.2801570  -0.4794336   0.0900670 SPIN=   0.00000
   O  -0.2788377  -0.3587534   0.3825980 SPIN=   0.00000
   O   0.2125582  -0.6754692   0.2883797 SPIN=   0.00000
   O   0.1548535  -0.1995441   0.1418126 SPIN=   0.00000
   P  -0.0578699  -0.4283231   0.2175016 SPIN=   0.00000
   O   0.2801570   0.4794336  -0.0900670 SPIN=   0.00000
   O   0.2788377   0.3587534  -0.3825980 SPIN=   0.00000
   O  -0.2125582   0.6754692  -0.2883797 SPIN=   0.00000
   O  -0.1548535   0.1995441  -0.1418126 SPIN=   0.00000
   P   0.0578699   0.4283231  -0.2175016 SPIN=   0.00000
  Fe   0.3319041  -0.1220754  -0.1800625 SPIN=   4.00000
  Fe  -0.3319041   0.1220754   0.1800625 SPIN=   4.00000
%ENDBLOCK POSITIONS_FRAC

# Note: total spin =   8.00

KPOINTS_MP_SPACING 0.07

%BLOCK SPECIES_POT
QC5
%ENDBLOCK SPECIES_POT

%BLOCK HUBBARD_U
Fe d:4.0
%ENDBLOCK HUBBARD_U

SNAP_TO_SYMMETRY
SYMMETRY_GENERATE

