#              Generated by Buildcell
#
# at 11:24:20 (GMT+0.0) 24th November 2020
# in /lustre/scratch/uccabz1/launch_tmp
# on node-c12c-035
# by uccabz1
#
# compiler GCC version 4.9.2
# options -cpp -iprefix /lustre/shared/ucl/apps/gcc/4.9.2/bin/../lib/gcc/x86_64-unknown-linux-gnu/4.9.2/ -mtune=corei7 -march=x86-64 -g -Og
#
# seed   -49864782  -275794718  -708775182  1583094519 -1336710241   749220485 -1724802752  1077798562  -708679394 -1784578176  1157074224   -18336953
#
#      Author: C. J. Pickard (cjp20@cam.ac.uk)
#                Space group: P-1
#

%BLOCK LATTICE_ABC
      4.74048      5.93552      6.33280
     73.90765     78.47899     70.22555
%ENDBLOCK LATTICE_ABC

%BLOCK POSITIONS_FRAC
  Li   0.1709104  -0.2749970   0.3991659 SPIN=   0.00000
  Li  -0.1709104   0.2749970  -0.3991659 SPIN=   0.00000
   O  -0.4901986  -0.4448991   0.1720673 SPIN=   0.00000
   O  -0.3656876  -0.2011595   0.4059462 SPIN=   0.00000
   O   0.0375235  -0.5570489   0.3005838 SPIN=   0.00000
   O  -0.1379303  -0.1727306   0.0105963 SPIN=   0.00000
   P  -0.2512509  -0.3473133   0.2171256 SPIN=   0.00000
   O   0.4901986   0.4448991  -0.1720673 SPIN=   0.00000
   O   0.3656876   0.2011595  -0.4059462 SPIN=   0.00000
   O  -0.0375235   0.5570489  -0.3005838 SPIN=   0.00000
   O   0.1379303   0.1727306  -0.0105963 SPIN=   0.00000
   P   0.2512509   0.3473133  -0.2171256 SPIN=   0.00000
  Fe  -0.4141789   0.1699563   0.1931203 SPIN=   4.00000
  Fe   0.4141789  -0.1699563  -0.1931203 SPIN=   4.00000
%ENDBLOCK POSITIONS_FRAC

# Note: total spin =   8.00

KPOINTS_MP_SPACING 0.07

%BLOCK SPECIES_POT
QC5
%ENDBLOCK SPECIES_POT

%BLOCK HUBBARD_U
Fe d:4.0
%ENDBLOCK HUBBARD_U

SNAP_TO_SYMMETRY
SYMMETRY_GENERATE

