#              Generated by Buildcell
#
# at 09:26:23 (GMT+0.0) 24th November 2020
# in /lustre/scratch/uccabz1/launch_tmp
# on node-c12j-029
# by uccabz1
#
# compiler GCC version 4.9.2
# options -cpp -iprefix /lustre/shared/ucl/apps/gcc/4.9.2/bin/../lib/gcc/x86_64-unknown-linux-gnu/4.9.2/ -mtune=corei7 -march=x86-64 -g -Og
#
# seed  1726847217  -443626115 -1533421992  -734165304  1311215924   270862659   817525497 -1581654134 -1005754325   253607788  -648717562  1931241512
#
#      Author: C. J. Pickard (cjp20@cam.ac.uk)
#                Space group: Pnn2
#

%BLOCK LATTICE_ABC
      4.70228      5.11640      6.65038
     90.00000     90.00000     90.00000
%ENDBLOCK LATTICE_ABC

%BLOCK POSITIONS_FRAC
  Li  -0.5000000   0.0000000  -0.0456483 SPIN=   0.00000
  Li   0.0000000  -0.5000000   0.4543517 SPIN=   0.00000
   O  -0.2584896   0.2482665   0.2701770 SPIN=   0.00000
   O  -0.2348981  -0.2304161   0.1408789 SPIN=   0.00000
   O   0.2584896  -0.2482665   0.2701770 SPIN=   0.00000
   O   0.2348981   0.2304161   0.1408789 SPIN=   0.00000
   O   0.2415104   0.2517335  -0.2298230 SPIN=   0.00000
   O   0.2651019   0.7304161  -0.3591211 SPIN=   0.00000
   O  -0.2415104  -0.2517335  -0.2298230 SPIN=   0.00000
   O  -0.2651019  -0.7304161  -0.3591211 SPIN=   0.00000
   P   0.0000000   0.0000000   0.1676725 SPIN=   0.00000
   P  -0.5000000  -0.5000000  -0.3323275 SPIN=   0.00000
  Fe   0.5000000   0.0000000   0.4566378 SPIN=   4.00000
  Fe   0.0000000  -0.5000000  -0.0433622 SPIN=   4.00000
%ENDBLOCK POSITIONS_FRAC

# Note: total spin =   8.00

KPOINTS_MP_SPACING 0.07

%BLOCK SPECIES_POT
QC5
%ENDBLOCK SPECIES_POT

%BLOCK HUBBARD_U
Fe d:4.0
%ENDBLOCK HUBBARD_U

SNAP_TO_SYMMETRY
SYMMETRY_GENERATE

