#              Generated by Buildcell
#
# at 07:04:48 (GMT+0.0) 26th November 2020
# in /lustre/scratch/uccabz1/launch_tmp
# on node-c12c-020
# by uccabz1
#
# compiler GCC version 4.9.2
# options -cpp -iprefix /lustre/shared/ucl/apps/gcc/4.9.2/bin/../lib/gcc/x86_64-unknown-linux-gnu/4.9.2/ -mtune=corei7 -march=x86-64 -g -Og
#
# seed  1518070454  -256667958 -1694795568 -1777672800 -1730754052  1113514157 -1902484311   735269840  -604022882  -653189067  1343962030  -977937244
#
#      Author: C. J. Pickard (cjp20@cam.ac.uk)
#                Space group: P-1
#

%BLOCK LATTICE_ABC
      4.92656      6.44997     10.27647
     96.85608     93.86942     97.85729
%ENDBLOCK LATTICE_ABC

%BLOCK POSITIONS_FRAC
  Li  -0.2618252  -0.1049549   0.0489845 SPIN=   0.00000
  Li   0.2618252   0.1049549  -0.0489845 SPIN=   0.00000
  Li  -0.2526396   0.4302511   0.0697504 SPIN=   0.00000
  Li   0.2526396  -0.4302511  -0.0697504 SPIN=   0.00000
   O  -0.1507631   0.1837824   0.1727286 SPIN=   0.00000
   O   0.2994977   0.3712336   0.0953082 SPIN=   0.00000
   O   0.2140945   0.4421040   0.3294222 SPIN=   0.00000
   O   0.3263889   0.0880246   0.2405298 SPIN=   0.00000
   P   0.1569211   0.2644644   0.2079056 SPIN=   0.00000
   O   0.1507631  -0.1837824  -0.1727286 SPIN=   0.00000
   O  -0.2994977  -0.3712336  -0.0953082 SPIN=   0.00000
   O  -0.2140945  -0.4421040  -0.3294222 SPIN=   0.00000
   O  -0.3263889  -0.0880246  -0.2405298 SPIN=   0.00000
   P  -0.1569211  -0.2644644  -0.2079056 SPIN=   0.00000
   O  -0.0798188   0.2399631  -0.4521075 SPIN=   0.00000
   O   0.2804903   0.3876923  -0.2550894 SPIN=   0.00000
   O   0.2688454   0.0187186  -0.3555403 SPIN=   0.00000
   O   0.4401921   0.3143138  -0.4800145 SPIN=   0.00000
   P   0.2135788   0.2410358  -0.3903376 SPIN=   0.00000
   O   0.0798188  -0.2399631   0.4521075 SPIN=   0.00000
   O  -0.2804903  -0.3876923   0.2550894 SPIN=   0.00000
   O  -0.2688454  -0.0187186   0.3555403 SPIN=   0.00000
   O  -0.4401921  -0.3143138   0.4800145 SPIN=   0.00000
   P  -0.2135788  -0.2410358   0.3903376 SPIN=   0.00000
  Fe   0.2856592  -0.3068617  -0.3722995 SPIN=   5.23728
  Fe  -0.2856592   0.3068617   0.3722995 SPIN=   5.23728
  Fe   0.2642183  -0.2511156   0.2463003 SPIN=   2.76272
  Fe  -0.2642183   0.2511156  -0.2463003 SPIN=   2.76272
%ENDBLOCK POSITIONS_FRAC

# Note: total spin =  16.00

KPOINTS_MP_SPACING 0.07

%BLOCK SPECIES_POT
QC5
%ENDBLOCK SPECIES_POT

%BLOCK HUBBARD_U
Fe d:4.0
%ENDBLOCK HUBBARD_U

SNAP_TO_SYMMETRY
SYMMETRY_GENERATE

