#              Generated by Buildcell
#
# at 14:11:41 (GMT+0.0) 24th November 2020
# in /lustre/scratch/uccabz1/launch_tmp
# on node-c12f-020
# by uccabz1
#
# compiler GCC version 4.9.2
# options -cpp -iprefix /lustre/shared/ucl/apps/gcc/4.9.2/bin/../lib/gcc/x86_64-unknown-linux-gnu/4.9.2/ -mtune=corei7 -march=x86-64 -g -Og
#
# seed   772523233 -2032433227   296082292   295288094  1870433663   648879344   179274088   173760656   -87549074  -340403577   685727120   230220209
#
#      Author: C. J. Pickard (cjp20@cam.ac.uk)
#                Space group: C2
#

%BLOCK LATTICE_ABC
      4.43140      6.37556      6.91885
     62.84598     71.32250     69.66370
%ENDBLOCK LATTICE_ABC

%BLOCK POSITIONS_FRAC
  Li  -0.4036135   0.7804172  -0.4245230 SPIN=   0.00000
  Li  -0.0477192  -0.7804172   0.4245230 SPIN=   0.00000
   O  -0.5173781   0.2238832   0.3957907 SPIN=   0.00000
   O  -0.1595009  -0.0743730   0.2040483 SPIN=   0.00000
   O  -0.7294492   0.1230109   0.1462665 SPIN=   0.00000
   O  -0.3094085   0.3702863  -0.0274894 SPIN=   0.00000
   P  -0.4322328   0.1665392   0.1887177 SPIN=   0.00000
   O   0.1022958  -0.2238832  -0.3957907 SPIN=   0.00000
   O  -0.0298255   0.0743730  -0.2040483 SPIN=   0.00000
   O  -0.4601718  -0.1230109  -0.1462665 SPIN=   0.00000
   O   0.0333884  -0.3702863   0.0274894 SPIN=   0.00000
   P  -0.0769758  -0.1665392  -0.1887177 SPIN=   0.00000
  Fe   0.1882327   0.3492371  -0.1761821 SPIN=   4.00000
  Fe   0.3612877  -0.3492371   0.1761821 SPIN=   4.00000
%ENDBLOCK POSITIONS_FRAC

# Note: total spin =   8.00

KPOINTS_MP_SPACING 0.07

%BLOCK SPECIES_POT
QC5
%ENDBLOCK SPECIES_POT

%BLOCK HUBBARD_U
Fe d:4.0
%ENDBLOCK HUBBARD_U

SNAP_TO_SYMMETRY
SYMMETRY_GENERATE

