#              Generated by Buildcell
#
# at 08:21:58 (GMT+0.0) 24th November 2020
# in /lustre/scratch/uccabz1/launch_tmp
# on node-c12g-032
# by uccabz1
#
# compiler GCC version 4.9.2
# options -cpp -iprefix /lustre/shared/ucl/apps/gcc/4.9.2/bin/../lib/gcc/x86_64-unknown-linux-gnu/4.9.2/ -mtune=corei7 -march=x86-64 -g -Og
#
# seed  -790301233  1925960733  -104105730  -741665691  1286844865  1204929880  -176911330   575771638  -152315412  -850944372  1063677326   578296507
#
#      Author: C. J. Pickard (cjp20@cam.ac.uk)
#                Space group: P21
#

%BLOCK LATTICE_ABC
      4.76988      5.04978      7.17548
     90.00000     90.00000    112.21991
%ENDBLOCK LATTICE_ABC

%BLOCK POSITIONS_FRAC
  Li  -0.0271299  -0.0225543  -0.0006745 SPIN=   0.00000
  Li   0.0271299   0.0225543   0.4993255 SPIN=   0.00000
   O   0.5777470  -0.0490838   0.1436879 SPIN=   0.00000
   O   0.1890602  -0.5685480   0.0974908 SPIN=   0.00000
   O   0.3653287  -0.4071783   0.4167532 SPIN=   0.00000
   O   0.0226224  -0.2092467   0.2539340 SPIN=   0.00000
   P   0.3009405  -0.2935294   0.2237855 SPIN=   0.00000
   O  -0.5777470   0.0490838  -0.3563121 SPIN=   0.00000
   O  -0.1890602   0.5685480  -0.4025092 SPIN=   0.00000
   O  -0.3653287   0.4071783  -0.0832468 SPIN=   0.00000
   O  -0.0226224   0.2092467  -0.2460660 SPIN=   0.00000
   P  -0.3009405   0.2935294  -0.2762145 SPIN=   0.00000
  Fe   0.3319081  -0.3746425  -0.2236099 SPIN=   4.00000
  Fe  -0.3319081   0.3746425   0.2763901 SPIN=   4.00000
%ENDBLOCK POSITIONS_FRAC

# Note: total spin =   8.00

KPOINTS_MP_SPACING 0.07

%BLOCK SPECIES_POT
QC5
%ENDBLOCK SPECIES_POT

%BLOCK HUBBARD_U
Fe d:4.0
%ENDBLOCK HUBBARD_U

SNAP_TO_SYMMETRY
SYMMETRY_GENERATE

