#              Generated by Buildcell
#
# at 08:09:57 (GMT+0.0) 24th November 2020
# in /lustre/scratch/uccabz1/launch_tmp
# on node-c12o-032
# by uccabz1
#
# compiler GCC version 4.9.2
# options -cpp -iprefix /lustre/shared/ucl/apps/gcc/4.9.2/bin/../lib/gcc/x86_64-unknown-linux-gnu/4.9.2/ -mtune=corei7 -march=x86-64 -g -Og
#
# seed  1481537008 -1065702940  1897557118  -404281900 -1618856514  1556166765  1198004751  -842911469 -1465174004 -1907781552  -595670628  -817380564
#
#      Author: C. J. Pickard (cjp20@cam.ac.uk)
#                Space group: Cm
#

%BLOCK LATTICE_ABC
      4.76906      6.16348      6.16348
     94.35252    108.39526    108.39526
%ENDBLOCK LATTICE_ABC

%BLOCK POSITIONS_FRAC
  Li  -0.1564781  -0.0278776  -0.4694099 SPIN=   0.00000
  Li  -0.1564781  -0.4694099  -0.0278776 SPIN=   0.00000
   O   0.8278110   0.1584015  -0.1750038 SPIN=   0.00000
   O   0.4026458   0.3109850  -0.4189087 SPIN=   0.00000
   O   0.2923749  -0.1127014  -0.4885792 SPIN=   0.00000
   P   0.4723672   0.1121015  -0.2908927 SPIN=   0.00000
   O   0.8278110  -0.1750038   0.1584015 SPIN=   0.00000
   O   0.4026458  -0.4189087   0.3109850 SPIN=   0.00000
   O   0.2923749  -0.4885792  -0.1127014 SPIN=   0.00000
   P   0.4723672  -0.2908927   0.1121015 SPIN=   0.00000
   O  -0.2408073   0.2045320   0.2045320 SPIN=   0.00000
   O  -0.3087136  -0.2671725  -0.2671725 SPIN=   0.00000
  Fe   0.1103649  -0.4629367  -0.4629367 SPIN=   4.82190
  Fe   0.2677869   0.1127100   0.1127100 SPIN=   3.17810
%ENDBLOCK POSITIONS_FRAC

# Note: total spin =   8.00

KPOINTS_MP_SPACING 0.07

%BLOCK SPECIES_POT
QC5
%ENDBLOCK SPECIES_POT

%BLOCK HUBBARD_U
Fe d:4.0
%ENDBLOCK HUBBARD_U

SNAP_TO_SYMMETRY
SYMMETRY_GENERATE

