#              Generated by Buildcell
#
# at 15:08:54 (GMT+0.0) 26th November 2020
# in /scratch/scratch/uccabz1/launch_tmp
# on node-k10g-016
# by uccabz1
#
# compiler GCC version 4.9.2
# options -cpp -iprefix /scratch/UCL/applications/gcc/4.9.2/bin/../lib/gcc/x86_64-unknown-linux-gnu/4.9.2/ -mtune=corei7 -march=x86-64 -g -O2
#
# seed  1654082863 -1202518431    -3311144  1712898824  1353691548  -285433408   813259283   949320706    97104565   361572796   610106054 -1479623168
#
#      Author: C. J. Pickard (cjp20@cam.ac.uk)
#                Space group: Aea2
#

%BLOCK LATTICE_ABC
      5.50812      5.50812     10.54737
     90.00000     90.00000     90.05561
%ENDBLOCK LATTICE_ABC

%BLOCK POSITIONS_FRAC
  Li  -0.0420139  -0.4002584   0.0194704 SPIN=   0.00000
  Li   0.4002584   0.0420139  -0.0194704 SPIN=   0.00000
  Li  -0.0997416  -0.4579861  -0.4805296 SPIN=   0.00000
  Li   0.4579861   0.0997416   0.4805296 SPIN=   0.00000
   O  -0.0678423   0.6057581  -0.1791251 SPIN=   0.00000
   O  -0.1495639   0.2606157  -0.3415494 SPIN=   0.00000
   O   0.0915481   0.1653762  -0.1505005 SPIN=   0.00000
   O  -0.3539888   0.2462888  -0.1295912 SPIN=   0.00000
   O  -0.6057581   0.0678423   0.1791251 SPIN=   0.00000
   O  -0.2606157   0.1495639   0.3415494 SPIN=   0.00000
   O  -0.1653762  -0.0915481   0.1505005 SPIN=   0.00000
   O  -0.2462888   0.3539888   0.1295912 SPIN=   0.00000
   O  -0.1057581  -0.4321577   0.3208749 SPIN=   0.00000
   O   0.2393843  -0.3504361   0.1584506 SPIN=   0.00000
   O   0.3346238  -0.5915481   0.3494995 SPIN=   0.00000
   O   0.2537112  -0.1460112   0.3704088 SPIN=   0.00000
   O   0.4321577   0.1057581  -0.3208749 SPIN=   0.00000
   O   0.3504361  -0.2393843  -0.1584506 SPIN=   0.00000
   O   0.5915481  -0.3346238  -0.3494995 SPIN=   0.00000
   O   0.1460112  -0.2537112  -0.3704088 SPIN=   0.00000
   P  -0.0578233   0.0578233   0.5000000 SPIN=   0.00000
   P   0.4421767  -0.4421767  -0.0000000 SPIN=   0.00000
   P   0.4162675  -0.4162675   0.5000000 SPIN=   0.00000
   P  -0.0837325   0.0837325  -0.0000000 SPIN=   0.00000
  Fe  -0.4298878  -0.2876037   0.2501903 SPIN=   4.00000
  Fe   0.2876037   0.4298878  -0.2501903 SPIN=   4.00000
  Fe  -0.2123963  -0.0701122  -0.2498097 SPIN=   4.00000
  Fe   0.0701122   0.2123963   0.2498097 SPIN=   4.00000
%ENDBLOCK POSITIONS_FRAC

# Note: total spin =  16.00

KPOINTS_MP_SPACING 0.07

%BLOCK SPECIES_POT
QC5
%ENDBLOCK SPECIES_POT

%BLOCK HUBBARD_U
Fe d:4.0
%ENDBLOCK HUBBARD_U

SNAP_TO_SYMMETRY
SYMMETRY_GENERATE

