#              Generated by Buildcell
#
# at 10:49:17 (GMT+0.0) 24th November 2020
# in /scratch/scratch/uccabz1/launch_tmp
# on node-a14a-009
# by uccabz1
#
# compiler GCC version 4.9.2
# options -cpp -iprefix /scratch/UCL/applications/gcc/4.9.2/bin/../lib/gcc/x86_64-unknown-linux-gnu/4.9.2/ -mtune=corei7 -march=x86-64 -g -O2
#
# seed -1746576969   446819211   156338515   -97560821  -164956366  1270358634  1143069229   528144941  -953806213  -339585707 -1249235367  -924198854
#
#      Author: C. J. Pickard (cjp20@cam.ac.uk)
#                Space group: Cm
#

%BLOCK LATTICE_ABC
      5.25995      6.22511      6.22511
     98.17036    113.51551    113.51551
%ENDBLOCK LATTICE_ABC

%BLOCK POSITIONS_FRAC
  Li   0.0419859   0.3781683   0.3781683 SPIN=   0.00000
  Li   0.1886478  -0.1536990  -0.1536990 SPIN=   0.00000
   O  -0.1222720  -0.3712546  -0.0396429 SPIN=   0.00000
   O   0.4813479  -0.0377771   0.2502072 SPIN=   0.00000
   O   0.1723511  -0.2416085   0.4455652 SPIN=   0.00000
   O   0.3016474  -0.4896848   0.1954226 SPIN=   0.00000
   O  -0.1222720  -0.0396429  -0.3712546 SPIN=   0.00000
   O   0.4813479   0.2502072  -0.0377771 SPIN=   0.00000
   O   0.1723511   0.4455652  -0.2416085 SPIN=   0.00000
   O   0.3016474   0.1954226  -0.4896848 SPIN=   0.00000
   P   0.4338328   0.2470033   0.2470033 SPIN=   0.00000
   P  -0.3944830  -0.2412027  -0.2412027 SPIN=   0.00000
  Fe  -0.2500405  -0.2305085  -0.7438364 SPIN=   4.00000
  Fe  -0.2500405  -0.7438364  -0.2305085 SPIN=   4.00000
%ENDBLOCK POSITIONS_FRAC

# Note: total spin =   8.00

KPOINTS_MP_SPACING 0.07

%BLOCK SPECIES_POT
QC5
%ENDBLOCK SPECIES_POT

%BLOCK HUBBARD_U
Fe d:4.0
%ENDBLOCK HUBBARD_U

SNAP_TO_SYMMETRY
SYMMETRY_GENERATE

