#              Generated by Buildcell
#
# at 12:45:58 (GMT+0.0) 24th November 2020
# in /scratch/scratch/uccabz1/launch_tmp
# on node-a14e-013
# by uccabz1
#
# compiler GCC version 4.9.2
# options -cpp -iprefix /scratch/UCL/applications/gcc/4.9.2/bin/../lib/gcc/x86_64-unknown-linux-gnu/4.9.2/ -mtune=corei7 -march=x86-64 -g -O2
#
# seed  1876406419   821791427  -173281213   269674015  1707171554 -1432658817 -1625751115 -1643542801 -2086972498  -107954485 -1630267816   395982871
#
#      Author: C. J. Pickard (cjp20@cam.ac.uk)
#                Space group: C2/m
#

%BLOCK LATTICE_ABC
      4.91746      5.74822      6.76469
     75.51906     68.68685     64.67596
%ENDBLOCK LATTICE_ABC

%BLOCK POSITIONS_FRAC
  Li   0.6343399   0.0857218  -0.3544016 SPIN=   0.00000
  Li  -0.6343399  -0.0857218   0.3544016 SPIN=   0.00000
   O   0.5250761  -0.2454757  -0.3047248 SPIN=   0.00000
   O   0.3523088  -0.3146366   0.1100264 SPIN=   0.00000
   O  -0.0251244   0.2454757   0.3047248 SPIN=   0.00000
   O   0.1476986   0.3146366  -0.1100264 SPIN=   0.00000
   O  -0.5250761   0.2454757   0.3047248 SPIN=   0.00000
   O  -0.3523088   0.3146366  -0.1100264 SPIN=   0.00000
   O   0.0251244  -0.2454757  -0.3047248 SPIN=   0.00000
   O  -0.1476986  -0.3146366   0.1100264 SPIN=   0.00000
   P   0.3325213  -0.4467123  -0.2183302 SPIN=   0.00000
   P  -0.3325213   0.4467123   0.2183302 SPIN=   0.00000
  Fe   1.0000000   0.5000000  -0.5000000 SPIN=   4.84850
  Fe   0.0000000   0.0000000   0.0000000 SPIN=   3.15150
%ENDBLOCK POSITIONS_FRAC

# Note: total spin =   8.00

KPOINTS_MP_SPACING 0.07

%BLOCK SPECIES_POT
QC5
%ENDBLOCK SPECIES_POT

%BLOCK HUBBARD_U
Fe d:4.0
%ENDBLOCK HUBBARD_U

SNAP_TO_SYMMETRY
SYMMETRY_GENERATE

