#              Generated by Buildcell
#
# at 11:30:56 (GMT+0.0) 26th November 2020
# in /lustre/scratch/uccabz1/launch_tmp
# on node-c12f-025
# by uccabz1
#
# compiler GCC version 4.9.2
# options -cpp -iprefix /lustre/shared/ucl/apps/gcc/4.9.2/bin/../lib/gcc/x86_64-unknown-linux-gnu/4.9.2/ -mtune=corei7 -march=x86-64 -g -Og
#
# seed  -467506670   366990304  1549981876   274718565   671204122   726537328  1033228320  1851797596   328028183 -1167818524   758293129  -593934126
#
#      Author: C. J. Pickard (cjp20@cam.ac.uk)
#                Space group: C2
#

%BLOCK LATTICE_ABC
      6.45063      6.45063      8.63515
     72.60672     72.60672     73.77393
%ENDBLOCK LATTICE_ABC

%BLOCK POSITIONS_FRAC
  Li  -0.2524622  -0.4289282   0.1751351 SPIN=   0.00000
  Li   0.4289282   0.2524622  -0.1751351 SPIN=   0.00000
  Li  -0.2511035  -0.4327251  -0.3168995 SPIN=   0.00000
  Li   0.4327251   0.2511035   0.3168995 SPIN=   0.00000
   O   0.5312436  -0.1433450  -0.4802116 SPIN=   0.00000
   O   0.4192754  -0.0660186  -0.1844641 SPIN=   0.00000
   O   0.4804902   0.2469419  -0.4295027 SPIN=   0.00000
   O   0.1459621   0.0840387  -0.3652867 SPIN=   0.00000
   P   0.3986074   0.0217859  -0.3710128 SPIN=   0.00000
   O   0.1433450  -0.5312436   0.4802116 SPIN=   0.00000
   O   0.0660186  -0.4192754   0.1844641 SPIN=   0.00000
   O  -0.2469419  -0.4804902   0.4295027 SPIN=   0.00000
   O  -0.0840387  -0.1459621   0.3652867 SPIN=   0.00000
   P  -0.0217859  -0.3986074   0.3710128 SPIN=   0.00000
   O   0.3402749   0.2778510   0.0742335 SPIN=   0.00000
   O   0.2323956   0.0012816   0.3586019 SPIN=   0.00000
   O  -0.0671932   0.2436728   0.2238789 SPIN=   0.00000
   O   0.1910044  -0.0658927   0.0993704 SPIN=   0.00000
   P   0.1831666   0.1208146   0.1818513 SPIN=   0.00000
   O  -0.2778510  -0.3402749  -0.0742335 SPIN=   0.00000
   O  -0.0012816  -0.2323956  -0.3586019 SPIN=   0.00000
   O  -0.2436728   0.0671932  -0.2238789 SPIN=   0.00000
   O   0.0658927  -0.1910044  -0.0993704 SPIN=   0.00000
   P  -0.1208146  -0.1831666  -0.1818513 SPIN=   0.00000
  Fe  -0.1594690   0.1594690  -0.5000000 SPIN=   4.20621
  Fe  -0.1528768   0.1528768   0.0000000 SPIN=   1.33254
  Fe   0.3428412  -0.3428412   0.0000000 SPIN=   5.02078
  Fe   0.3385983  -0.3385983  -0.5000000 SPIN=   5.44047
%ENDBLOCK POSITIONS_FRAC

# Note: total spin =  16.00

KPOINTS_MP_SPACING 0.07

%BLOCK SPECIES_POT
QC5
%ENDBLOCK SPECIES_POT

%BLOCK HUBBARD_U
Fe d:4.0
%ENDBLOCK HUBBARD_U

SNAP_TO_SYMMETRY
SYMMETRY_GENERATE

