#              Generated by Buildcell
#
# at 15:12:14 (GMT+0.0) 26th November 2020
# in /lustre/scratch/uccabz1/launch_tmp
# on node-c12f-023
# by uccabz1
#
# compiler GCC version 4.9.2
# options -cpp -iprefix /lustre/shared/ucl/apps/gcc/4.9.2/bin/../lib/gcc/x86_64-unknown-linux-gnu/4.9.2/ -mtune=corei7 -march=x86-64 -g -Og
#
# seed  1994535630   158208318   379901764  1559787994   780028330   633740704 -1803705338  -917667878 -1905392018  1451829559   942962270   197626297
#
#      Author: C. J. Pickard (cjp20@cam.ac.uk)
#                Space group: Cm
#

%BLOCK LATTICE_ABC
      6.39007      6.39007      7.97529
     90.12345     90.12345    100.69110
%ENDBLOCK LATTICE_ABC

%BLOCK POSITIONS_FRAC
  Li  -0.4537716   0.0477142   0.0584529 SPIN=   0.00000
  Li   0.0477142  -0.4537716   0.0584529 SPIN=   0.00000
  Li   0.0452500  -0.4527188  -0.4427714 SPIN=   0.00000
  Li  -0.4527188   0.0452500  -0.4427714 SPIN=   0.00000
   O  -0.2885931   0.4606777   0.5778090 SPIN=   0.00000
   O  -0.4262520   0.3248313   0.2831182 SPIN=   0.00000
   O  -0.0612974   0.5338434   0.3072539 SPIN=   0.00000
   O  -0.1426160   0.1633337   0.4222713 SPIN=   0.00000
   O   0.4606777  -0.2885931   0.5778090 SPIN=   0.00000
   O   0.3248313  -0.4262520   0.2831182 SPIN=   0.00000
   O   0.5338434  -0.0612974   0.3072539 SPIN=   0.00000
   O   0.1633337  -0.1426160   0.4222713 SPIN=   0.00000
   O   0.2122282  -0.0382098   0.0727099 SPIN=   0.00000
   O   0.4469335   0.0503095  -0.1925839 SPIN=   0.00000
   O   0.3755755  -0.3208926  -0.0908819 SPIN=   0.00000
   O   0.0808008  -0.1687700  -0.2226052 SPIN=   0.00000
   O  -0.0382098   0.2122282   0.0727099 SPIN=   0.00000
   O   0.0503095   0.4469335  -0.1925839 SPIN=   0.00000
   O  -0.3208926   0.3755755  -0.0908819 SPIN=   0.00000
   O  -0.1687700   0.0808008  -0.2226052 SPIN=   0.00000
   P   0.4198969   0.4198969  -0.4255915 SPIN=   0.00000
   P  -0.0729002  -0.0729002  -0.4492948 SPIN=   0.00000
   P   0.4270646   0.4270646   0.0506573 SPIN=   0.00000
   P  -0.0798805  -0.0798805   0.0744564 SPIN=   0.00000
  Fe   0.1613294   0.1613294  -0.1834987 SPIN=   2.32441
  Fe  -0.3384875  -0.3384875   0.3159897 SPIN=   4.96618
  Fe  -0.3162582  -0.3162582  -0.1911442 SPIN=   3.11833
  Fe   0.1836516   0.1836516   0.3087433 SPIN=   5.59108
%ENDBLOCK POSITIONS_FRAC

# Note: total spin =  16.00

KPOINTS_MP_SPACING 0.07

%BLOCK SPECIES_POT
QC5
%ENDBLOCK SPECIES_POT

%BLOCK HUBBARD_U
Fe d:4.0
%ENDBLOCK HUBBARD_U

SNAP_TO_SYMMETRY
SYMMETRY_GENERATE

