#              Generated by Buildcell
#
# at 12:25:37 (GMT+0.0) 26th November 2020
# in /lustre/scratch/uccabz1/launch_tmp
# on node-c12k-022
# by uccabz1
#
# compiler GCC version 4.9.2
# options -cpp -iprefix /lustre/shared/ucl/apps/gcc/4.9.2/bin/../lib/gcc/x86_64-unknown-linux-gnu/4.9.2/ -mtune=corei7 -march=x86-64 -g -Og
#
# seed  2138547018   991006017  1306117303   628087424 -1620471535  1836273060 -2117610148  2017179244  2012174995 -1041504608   328328950  -529806026
#
#      Author: C. J. Pickard (cjp20@cam.ac.uk)
#                Space group: P2221
#

%BLOCK LATTICE_ABC
      4.94588      7.62469      8.48564
     90.00000     90.00000     90.00000
%ENDBLOCK LATTICE_ABC

%BLOCK POSITIONS_FRAC
  Li   0.4699769  -0.4476177   0.1716197 SPIN=   0.00000
  Li  -0.4699769   0.0523823  -0.1716197 SPIN=   0.00000
  Li  -0.4699769  -0.0523823   0.1716197 SPIN=   0.00000
  Li   0.4699769   0.4476177  -0.1716197 SPIN=   0.00000
   O   0.2097032  -0.1475781  -0.2347520 SPIN=   0.00000
   O   0.1643646   0.1284946  -0.4122578 SPIN=   0.00000
   O  -0.2438971  -0.0492865  -0.3614146 SPIN=   0.00000
   P   0.0306809   0.0081671  -0.2834158 SPIN=   0.00000
   O  -0.2097032   0.3524219   0.2347520 SPIN=   0.00000
   O  -0.1643646   0.6284946   0.4122578 SPIN=   0.00000
   O   0.2438971   0.4507135   0.3614146 SPIN=   0.00000
   P  -0.0306809   0.5081671   0.2834158 SPIN=   0.00000
   O  -0.2097032  -0.3524219  -0.2347520 SPIN=   0.00000
   O  -0.1643646  -0.6284946  -0.4122578 SPIN=   0.00000
   O   0.2438971  -0.4507135  -0.3614146 SPIN=   0.00000
   P  -0.0306809  -0.5081671  -0.2834158 SPIN=   0.00000
   O   0.2097032   0.1475781   0.2347520 SPIN=   0.00000
   O   0.1643646  -0.1284946   0.4122578 SPIN=   0.00000
   O  -0.2438971   0.0492865   0.3614146 SPIN=   0.00000
   P   0.0306809  -0.0081671   0.2834158 SPIN=   0.00000
   O   0.5000000  -0.2500000  -0.0152749 SPIN=   0.00000
   O  -0.5000000   0.2500000   0.0152749 SPIN=   0.00000
   O  -0.1667913   0.0000000   0.0000000 SPIN=   0.00000
   O   0.1667913  -0.5000000   0.0000000 SPIN=   0.00000
  Fe   0.0000000  -0.2500000  -0.0397088 SPIN=   3.84962
  Fe   0.0000000   0.2500000   0.0397088 SPIN=   3.84962
  Fe   0.5000000   0.2500000   0.4503259 SPIN=   4.15038
  Fe  -0.5000000  -0.2500000  -0.4503259 SPIN=   4.15038
%ENDBLOCK POSITIONS_FRAC

# Note: total spin =  16.00

KPOINTS_MP_SPACING 0.07

%BLOCK SPECIES_POT
QC5
%ENDBLOCK SPECIES_POT

%BLOCK HUBBARD_U
Fe d:4.0
%ENDBLOCK HUBBARD_U

SNAP_TO_SYMMETRY
SYMMETRY_GENERATE

