#              Generated by Buildcell
#
# at 23:04:52 (GMT+0.0) 26th November 2020
# in /lustre/scratch/uccabz1/launch_tmp
# on node-c12f-024
# by uccabz1
#
# compiler GCC version 4.9.2
# options -cpp -iprefix /lustre/shared/ucl/apps/gcc/4.9.2/bin/../lib/gcc/x86_64-unknown-linux-gnu/4.9.2/ -mtune=corei7 -march=x86-64 -g -Og
#
# seed  1789985668  1499141548 -1392217562  1228043664 -1714532060   610329522   562361726   194890930 -1395525299  1813525676 -1238758900  -332719262
#
#      Author: C. J. Pickard (cjp20@cam.ac.uk)
#                Space group: Pm
#

%BLOCK LATTICE_ABC
      4.60267      5.04192     13.81103
     90.00000     90.00000     93.21034
%ENDBLOCK LATTICE_ABC

%BLOCK POSITIONS_FRAC
  Li   0.0305647   0.0355264   0.3884036 SPIN=   0.00000
  Li   0.0305647   0.0355264  -0.3884036 SPIN=   0.00000
  Li   0.0978390   0.2637831   0.1865283 SPIN=   0.00000
  Li   0.0978390   0.2637831  -0.1865283 SPIN=   0.00000
   O   0.0173853  -0.2421610   0.2444564 SPIN=   0.00000
   O  -0.1427029  -0.0025390   0.0883601 SPIN=   0.00000
   O   0.3320500  -0.2079440   0.0883110 SPIN=   0.00000
   O  -0.1275976  -0.4982840   0.0882358 SPIN=   0.00000
   P   0.0179167  -0.2410426   0.1331152 SPIN=   0.00000
   O   0.0173853  -0.2421610  -0.2444564 SPIN=   0.00000
   O  -0.1427029  -0.0025390  -0.0883601 SPIN=   0.00000
   O   0.3320500  -0.2079440  -0.0883110 SPIN=   0.00000
   O  -0.1275976  -0.4982840  -0.0882358 SPIN=   0.00000
   P   0.0179167  -0.2410426  -0.1331152 SPIN=   0.00000
   O  -0.4265567   0.0278979  -0.3970110 SPIN=   0.00000
   O  -0.3395391   0.2601484  -0.2307789 SPIN=   0.00000
   O  -0.2454025   0.5229349  -0.3795529 SPIN=   0.00000
   O  -0.7583877   0.3861056  -0.3335571 SPIN=   0.00000
   P  -0.4453523   0.2858471  -0.3384951 SPIN=   0.00000
   O  -0.4265567   0.0278979   0.3970110 SPIN=   0.00000
   O  -0.3395391   0.2601484   0.2307789 SPIN=   0.00000
   O  -0.2454025   0.5229349   0.3795529 SPIN=   0.00000
   O  -0.7583877   0.3861056   0.3335571 SPIN=   0.00000
   P  -0.4453523   0.2858471   0.3384951 SPIN=   0.00000
  Fe  -0.4789923  -0.2140761  -0.2454735 SPIN=   2.46432
  Fe  -0.4789923  -0.2140761   0.2454735 SPIN=   2.46432
  Fe   0.3285657  -0.4496061   0.5000000 SPIN=   4.77793
  Fe  -0.3982835   0.2347448   0.0000000 SPIN=   6.29342
%ENDBLOCK POSITIONS_FRAC

# Note: total spin =  16.00

KPOINTS_MP_SPACING 0.07

%BLOCK SPECIES_POT
QC5
%ENDBLOCK SPECIES_POT

%BLOCK HUBBARD_U
Fe d:4.0
%ENDBLOCK HUBBARD_U

SNAP_TO_SYMMETRY
SYMMETRY_GENERATE

