#              Generated by Buildcell
#
# at 06:43:29 (GMT+0.0) 24th November 2020
# in /scratch/scratch/uccabz1/launch_tmp
# on node-a14a-017
# by uccabz1
#
# compiler GCC version 4.9.2
# options -cpp -iprefix /scratch/UCL/applications/gcc/4.9.2/bin/../lib/gcc/x86_64-unknown-linux-gnu/4.9.2/ -mtune=corei7 -march=x86-64 -g -O2
#
# seed  1856399055 -1670039238   982085750  1177192400  1113774382   494668117  -311988576  -969033752  1579547661  -354431335   797265319  -885090142
#
#      Author: C. J. Pickard (cjp20@cam.ac.uk)
#                Space group: P2/c
#

%BLOCK LATTICE_ABC
      4.49255      4.54715      7.91333
     90.00000     90.00000     98.20811
%ENDBLOCK LATTICE_ABC

%BLOCK POSITIONS_FRAC
  Li   0.2500000  -0.2500000   0.4529378 SPIN=   0.00000
  Li  -0.2500000   0.2500000  -0.4529378 SPIN=   0.00000
   O  -0.4867320   0.0788734  -0.2348532 SPIN=   0.00000
   O   0.0085292  -0.0750252  -0.3523885 SPIN=   0.00000
   O  -0.0132680   0.4211266  -0.2348532 SPIN=   0.00000
   O  -0.5085292   0.5750252  -0.3523885 SPIN=   0.00000
   O   0.4867320  -0.0788734   0.2348532 SPIN=   0.00000
   O  -0.0085292   0.0750252   0.3523885 SPIN=   0.00000
   O   0.0132680  -0.4211266   0.2348532 SPIN=   0.00000
   O   0.5085292  -0.5750252   0.3523885 SPIN=   0.00000
   P  -0.2500000  -0.2500000   0.2684499 SPIN=   0.00000
   P   0.2500000   0.2500000  -0.2684499 SPIN=   0.00000
  Fe  -0.2500000  -0.2500000  -0.1490553 SPIN=   4.00000
  Fe   0.2500000   0.2500000   0.1490553 SPIN=   4.00000
%ENDBLOCK POSITIONS_FRAC

# Note: total spin =   8.00

KPOINTS_MP_SPACING 0.07

%BLOCK SPECIES_POT
QC5
%ENDBLOCK SPECIES_POT

%BLOCK HUBBARD_U
Fe d:4.0
%ENDBLOCK HUBBARD_U

SNAP_TO_SYMMETRY
SYMMETRY_GENERATE

