#              Generated by Buildcell
#
# at 10:11:14 (GMT+0.0) 24th November 2020
# in /scratch/scratch/uccabz1/launch_tmp
# on node-a14b-028
# by uccabz1
#
# compiler GCC version 4.9.2
# options -cpp -iprefix /scratch/UCL/applications/gcc/4.9.2/bin/../lib/gcc/x86_64-unknown-linux-gnu/4.9.2/ -mtune=corei7 -march=x86-64 -g -O2
#
# seed  1592559242  -124683507   277408157  1954157454  1371090559 -1566006517  1019368699 -1916646029  -956375548   575565613  -155922572   369045202
#
#      Author: C. J. Pickard (cjp20@cam.ac.uk)
#                Space group: Fdd2
#

%BLOCK LATTICE_ABC
      5.45380      5.45380      6.50927
    106.48985    106.48985    108.81078
%ENDBLOCK LATTICE_ABC

%BLOCK POSITIONS_FRAC
  Li   0.3412150  -0.3412150  -0.0000000 SPIN=   0.00000
  Li  -0.4087850   0.4087850  -0.5000000 SPIN=   0.00000
   O   0.1549087   0.0676220   0.3560553 SPIN=   0.00000
   O   0.5329214  -0.1273227   0.3703714 SPIN=   0.00000
   O  -0.0676220  -0.1549087  -0.3560553 SPIN=   0.00000
   O   0.1273227  -0.5329214  -0.3703714 SPIN=   0.00000
   O   0.0488533   0.4615666   0.1439447 SPIN=   0.00000
   O   0.4125500   0.2523059   0.1296286 SPIN=   0.00000
   O  -0.4615666  -0.0488533  -0.1439447 SPIN=   0.00000
   O  -0.2523059  -0.4125500  -0.1296286 SPIN=   0.00000
   P  -0.1055141   0.1055141   0.5000000 SPIN=   0.00000
   P  -0.3555141   0.3555141   0.0000000 SPIN=   0.00000
  Fe  -0.0319509   0.0319509   0.0000000 SPIN=   4.00000
  Fe   0.2180491  -0.2180491   0.5000000 SPIN=   4.00000
%ENDBLOCK POSITIONS_FRAC

# Note: total spin =   8.00

KPOINTS_MP_SPACING 0.07

%BLOCK SPECIES_POT
QC5
%ENDBLOCK SPECIES_POT

%BLOCK HUBBARD_U
Fe d:4.0
%ENDBLOCK HUBBARD_U

SNAP_TO_SYMMETRY
SYMMETRY_GENERATE

