#              Generated by Buildcell
#
# at 23:00:36 (GMT+0.0) 26th November 2020
# in /lustre/scratch/uccabz1/launch_tmp
# on node-c12j-030
# by uccabz1
#
# compiler GCC version 4.9.2
# options -cpp -iprefix /lustre/shared/ucl/apps/gcc/4.9.2/bin/../lib/gcc/x86_64-unknown-linux-gnu/4.9.2/ -mtune=corei7 -march=x86-64 -g -Og
#
# seed -1090311699   822424554  -546747674    72612464  1951576200 -1497015149   -39207458   940663320  1949821399  -246080287  -800683707  1635739695
#
#      Author: C. J. Pickard (cjp20@cam.ac.uk)
#                Space group: P-1
#

%BLOCK LATTICE_ABC
      6.59661      7.58280      7.75845
     90.44915    112.54222    114.39432
%ENDBLOCK LATTICE_ABC

%BLOCK POSITIONS_FRAC
  Li   0.0641432   0.1169741  -0.2350808 SPIN=   0.00000
  Li  -0.0641432  -0.1169741   0.2350808 SPIN=   0.00000
  Li  -0.5000000  -0.5000000  -0.0000000 SPIN=   0.00000
  Li   0.5000000   0.5000000   0.5000000 SPIN=   0.00000
   O  -0.3552671   0.3088331  -0.0343241 SPIN=   0.00000
   O  -0.3368679   0.3204893  -0.3628228 SPIN=   0.00000
   O  -0.6802474   0.0383062  -0.3369845 SPIN=   0.00000
   O  -0.6654335   0.3735737  -0.3182858 SPIN=   0.00000
   P  -0.5030850   0.2642215  -0.2515741 SPIN=   0.00000
   O   0.3552671  -0.3088331   0.0343241 SPIN=   0.00000
   O   0.3368679  -0.3204893   0.3628228 SPIN=   0.00000
   O   0.6802474  -0.0383062   0.3369845 SPIN=   0.00000
   O   0.6654335  -0.3735737   0.3182858 SPIN=   0.00000
   P   0.5030850  -0.2642215   0.2515741 SPIN=   0.00000
   O   0.1881383  -0.0222610   0.0543176 SPIN=   0.00000
   O   0.2268479   0.3325647   0.0909336 SPIN=   0.00000
   O   0.2527498   0.1672309   0.3661928 SPIN=   0.00000
   O   0.5979044   0.2795546   0.2662892 SPIN=   0.00000
   P   0.3129022   0.1790746   0.1878208 SPIN=   0.00000
   O  -0.1881383   0.0222610  -0.0543176 SPIN=   0.00000
   O  -0.2268479  -0.3325647  -0.0909336 SPIN=   0.00000
   O  -0.2527498  -0.1672309  -0.3661928 SPIN=   0.00000
   O  -0.5979044  -0.2795546  -0.2662892 SPIN=   0.00000
   P  -0.3129022  -0.1790746  -0.1878208 SPIN=   0.00000
  Fe   0.5000000   0.0000000   0.5000000 SPIN=   0.73828
  Fe  -0.0000000   0.5000000   0.5000000 SPIN=   5.40519
  Fe   0.5000000   0.0000000   0.0000000 SPIN=   4.59792
  Fe   0.0000000  -0.5000000   0.0000000 SPIN=   5.25861
%ENDBLOCK POSITIONS_FRAC

# Note: total spin =  16.00

KPOINTS_MP_SPACING 0.07

%BLOCK SPECIES_POT
QC5
%ENDBLOCK SPECIES_POT

%BLOCK HUBBARD_U
Fe d:4.0
%ENDBLOCK HUBBARD_U

SNAP_TO_SYMMETRY
SYMMETRY_GENERATE

