#              Generated by Buildcell
#
# at 10:51:23 (GMT+0.0) 24th November 2020
# in /scratch/scratch/uccabz1/launch_tmp
# on node-k10c-005
# by uccabz1
#
# compiler GCC version 4.9.2
# options -cpp -iprefix /scratch/UCL/applications/gcc/4.9.2/bin/../lib/gcc/x86_64-unknown-linux-gnu/4.9.2/ -mtune=corei7 -march=x86-64 -g -O2
#
# seed     1531697  -369171842  1770125076  1579493445 -1277759609   394668929  -364861415 -1096164159 -1395779010   754946752  1127704300  -115768203
#
#      Author: C. J. Pickard (cjp20@cam.ac.uk)
#                Space group: C2/c
#

%BLOCK LATTICE_ABC
      4.62699      4.62699      7.49830
     93.26908     93.26908     90.42148
%ENDBLOCK LATTICE_ABC

%BLOCK POSITIONS_FRAC
  Li   0.4374907  -0.4374907   0.2500000 SPIN=   0.00000
  Li  -0.4374907   0.4374907  -0.2500000 SPIN=   0.00000
   O  -0.5936647   0.0592237   0.3047224 SPIN=   0.00000
   O  -0.4003977   0.2509398   0.0145812 SPIN=   0.00000
   O  -0.0592237   0.5936647   0.1952776 SPIN=   0.00000
   O  -0.2509398   0.4003977   0.4854188 SPIN=   0.00000
   O   0.5936647  -0.0592237  -0.3047224 SPIN=   0.00000
   O   0.4003977  -0.2509398  -0.0145812 SPIN=   0.00000
   O   0.0592237  -0.5936647  -0.1952776 SPIN=   0.00000
   O   0.2509398  -0.4003977  -0.4854188 SPIN=   0.00000
   P  -0.0000000  -0.5000000   0.0000000 SPIN=   0.00000
   P   0.5000000   0.0000000   0.5000000 SPIN=   0.00000
  Fe  -0.0633742   0.0633742   0.2500000 SPIN=   4.00000
  Fe   0.0633742  -0.0633742  -0.2500000 SPIN=   4.00000
%ENDBLOCK POSITIONS_FRAC

# Note: total spin =   8.00

KPOINTS_MP_SPACING 0.07

%BLOCK SPECIES_POT
QC5
%ENDBLOCK SPECIES_POT

%BLOCK HUBBARD_U
Fe d:4.0
%ENDBLOCK HUBBARD_U

SNAP_TO_SYMMETRY
SYMMETRY_GENERATE

