#              Generated by Buildcell
#
# at 11:54:49 (GMT+0.0) 24th November 2020
# in /scratch/scratch/uccabz1/launch_tmp
# on node-a14b-010
# by uccabz1
#
# compiler GCC version 4.9.2
# options -cpp -iprefix /scratch/UCL/applications/gcc/4.9.2/bin/../lib/gcc/x86_64-unknown-linux-gnu/4.9.2/ -mtune=corei7 -march=x86-64 -g -O2
#
# seed  -567970292   954414619  1290806625  1737133969 -2137333219  -887127363 -2069701364 -1436457057  1938644540 -1014411106 -1328393640  1985042696
#
#      Author: C. J. Pickard (cjp20@cam.ac.uk)
#                Space group: Cm
#

%BLOCK LATTICE_ABC
      5.26225      5.59295      5.59295
     86.74581     80.44368     80.44368
%ENDBLOCK LATTICE_ABC

%BLOCK POSITIONS_FRAC
  Li  -0.3684136   0.2145436   0.2145436 SPIN=   0.00000
  Li  -0.2498431  -0.3866518  -0.3866518 SPIN=   0.00000
   O  -0.7106507   0.2366964  -0.0844932 SPIN=   0.00000
   O  -0.2036015   0.1663718  -0.1533801 SPIN=   0.00000
   O  -0.4255995  -0.0229675  -0.4312003 SPIN=   0.00000
   P  -0.4590192   0.2063997  -0.2718067 SPIN=   0.00000
   O  -0.7106507  -0.0844932   0.2366964 SPIN=   0.00000
   O  -0.2036015  -0.1533801   0.1663718 SPIN=   0.00000
   O  -0.4255995  -0.4312003  -0.0229675 SPIN=   0.00000
   P  -0.4590192  -0.2718067   0.2063997 SPIN=   0.00000
   O  -0.0635892   0.3439881   0.3439881 SPIN=   0.00000
   O   0.0865092  -0.2866191  -0.2866191 SPIN=   0.00000
  Fe   0.1022645  -0.4348137   0.0651681 SPIN=   4.00000
  Fe   0.1022645   0.0651681  -0.4348137 SPIN=   4.00000
%ENDBLOCK POSITIONS_FRAC

# Note: total spin =   8.00

KPOINTS_MP_SPACING 0.07

%BLOCK SPECIES_POT
QC5
%ENDBLOCK SPECIES_POT

%BLOCK HUBBARD_U
Fe d:4.0
%ENDBLOCK HUBBARD_U

SNAP_TO_SYMMETRY
SYMMETRY_GENERATE

