#              Generated by Buildcell
#
# at 09:40:18 (GMT+0.0) 24th November 2020
# in /lustre/scratch/uccabz1/launch_tmp
# on node-c12l-023
# by uccabz1
#
# compiler GCC version 4.9.2
# options -cpp -iprefix /lustre/shared/ucl/apps/gcc/4.9.2/bin/../lib/gcc/x86_64-unknown-linux-gnu/4.9.2/ -mtune=corei7 -march=x86-64 -g -Og
#
# seed  1050479743 -1091885550 -1423638420   378821942   837882066 -2023916125 -1538634341 -1197467349  -492397559  1081166367  -335663889   713184228
#
#      Author: C. J. Pickard (cjp20@cam.ac.uk)
#                Space group: Cm
#

%BLOCK LATTICE_ABC
      5.56076      5.97166      5.97166
     99.51647    111.80773    111.80773
%ENDBLOCK LATTICE_ABC

%BLOCK POSITIONS_FRAC
  Li   0.0815335   0.3019336  -0.1980500 SPIN=   0.00000
  Li   0.0815335  -0.1980500   0.3019336 SPIN=   0.00000
   O  -0.7376867  -0.3459839   0.1000953 SPIN=   0.00000
   O  -0.1931059  -0.0220600   0.2538385 SPIN=   0.00000
   O  -0.3332269  -0.1482775   0.5784119 SPIN=   0.00000
   O  -0.3210321  -0.4689381   0.2601733 SPIN=   0.00000
   O  -0.7376867   0.1000953  -0.3459839 SPIN=   0.00000
   O  -0.1931059   0.2538385  -0.0220600 SPIN=   0.00000
   O  -0.3332269   0.5784119  -0.1482775 SPIN=   0.00000
   O  -0.3210321   0.2601733  -0.4689381 SPIN=   0.00000
   P  -0.1741987  -0.1423351  -0.1423351 SPIN=   0.00000
   P  -0.1742275   0.3577398   0.3577398 SPIN=   0.00000
  Fe   0.3772238   0.4215163   0.4215163 SPIN=   4.33758
  Fe   0.3773408  -0.0784446  -0.0784446 SPIN=   3.66242
%ENDBLOCK POSITIONS_FRAC

# Note: total spin =   8.00

KPOINTS_MP_SPACING 0.07

%BLOCK SPECIES_POT
QC5
%ENDBLOCK SPECIES_POT

%BLOCK HUBBARD_U
Fe d:4.0
%ENDBLOCK HUBBARD_U

SNAP_TO_SYMMETRY
SYMMETRY_GENERATE

