#              Generated by Buildcell
#
# at 22:30:57 (GMT+0.0) 26th November 2020
# in /lustre/scratch/uccabz1/launch_tmp
# on node-c12k-029
# by uccabz1
#
# compiler GCC version 4.9.2
# options -cpp -iprefix /lustre/shared/ucl/apps/gcc/4.9.2/bin/../lib/gcc/x86_64-unknown-linux-gnu/4.9.2/ -mtune=corei7 -march=x86-64 -g -Og
#
# seed   669510679 -1899750612  1783625150 -2064017621 -1141362068  1683574211  -701008132  1075170150  -112493603  -820688130  1078501637   333297474
#
#      Author: C. J. Pickard (cjp20@cam.ac.uk)
#                Space group: Iba2
#

%BLOCK LATTICE_ABC
      6.53740      7.72231      7.72231
     79.44164     64.95818     64.95818
%ENDBLOCK LATTICE_ABC

%BLOCK POSITIONS_FRAC
  Li  -0.4715923   0.3917440  -0.3123744 SPIN=   0.00000
  Li  -0.3922227  -0.3917440   0.3123744 SPIN=   0.00000
  Li   0.1077773   0.3123744  -0.3917440 SPIN=   0.00000
  Li   0.0284077  -0.3123744   0.3917440 SPIN=   0.00000
   O  -0.4291976   0.0206223   0.1726845 SPIN=   0.00000
   O  -0.0796779  -0.0335847   0.2800293 SPIN=   0.00000
   O  -0.5058196   0.1527825   0.4902223 SPIN=   0.00000
   O  -0.3672350  -0.1997758   0.4566938 SPIN=   0.00000
   P  -0.3501966  -0.0152735   0.3417314 SPIN=   0.00000
   O  -0.2358908  -0.0206223  -0.1726845 SPIN=   0.00000
   O   0.1667667   0.0335847  -0.2800293 SPIN=   0.00000
   O   0.1371852  -0.1527825  -0.4902223 SPIN=   0.00000
   O  -0.1103170   0.1997758  -0.4566938 SPIN=   0.00000
   P  -0.0237387   0.0152735  -0.3417314 SPIN=   0.00000
   O   0.2641092  -0.1726845  -0.0206223 SPIN=   0.00000
   O   0.6667667  -0.2800293   0.0335847 SPIN=   0.00000
   O   0.6371852  -0.4902223  -0.1527825 SPIN=   0.00000
   O   0.3896830  -0.4566938   0.1997758 SPIN=   0.00000
   P   0.4762613  -0.3417314   0.0152735 SPIN=   0.00000
   O   0.0708024   0.1726845   0.0206223 SPIN=   0.00000
   O   0.4203221   0.2800293  -0.0335847 SPIN=   0.00000
   O  -0.0058196   0.4902223   0.1527825 SPIN=   0.00000
   O   0.1327650   0.4566938  -0.1997758 SPIN=   0.00000
   P   0.1498034   0.3417314  -0.0152735 SPIN=   0.00000
  Fe   0.0231325  -0.2657164  -0.0502329 SPIN=   4.00000
  Fe  -0.2928168   0.2657164   0.0502329 SPIN=   4.00000
  Fe   0.2071832   0.0502329   0.2657164 SPIN=   4.00000
  Fe  -0.4768675  -0.0502329  -0.2657164 SPIN=   4.00000
%ENDBLOCK POSITIONS_FRAC

# Note: total spin =  16.00

KPOINTS_MP_SPACING 0.07

%BLOCK SPECIES_POT
QC5
%ENDBLOCK SPECIES_POT

%BLOCK HUBBARD_U
Fe d:4.0
%ENDBLOCK HUBBARD_U

SNAP_TO_SYMMETRY
SYMMETRY_GENERATE

