#              Generated by Buildcell
#
# at 07:53:33 (GMT+0.0) 24th November 2020
# in /lustre/scratch/uccabz1/launch_tmp
# on node-c12b-031
# by uccabz1
#
# compiler GCC version 4.9.2
# options -cpp -iprefix /lustre/shared/ucl/apps/gcc/4.9.2/bin/../lib/gcc/x86_64-unknown-linux-gnu/4.9.2/ -mtune=corei7 -march=x86-64 -g -Og
#
# seed  1381023334 -1098845605  1142735786  -502537573   816176375  -852071864 -1791564916 -1828039517   101787701  1822108166    63363709 -1676110501
#
#      Author: C. J. Pickard (cjp20@cam.ac.uk)
#                Space group: P21
#

%BLOCK LATTICE_ABC
      3.91927      6.11217      6.72407
     90.00000     96.62864     90.00000
%ENDBLOCK LATTICE_ABC

%BLOCK POSITIONS_FRAC
  Li   0.0784949   0.2288041   0.4935939 SPIN=   0.00000
  Li  -0.0784949  -0.2711959  -0.4935939 SPIN=   0.00000
   O  -0.6955526   0.6745847  -0.2513922 SPIN=   0.00000
   O  -0.1452529   0.4669366  -0.1041283 SPIN=   0.00000
   O  -0.6669394   0.2517975  -0.2131197 SPIN=   0.00000
   O  -0.3473708   0.4326404  -0.4699369 SPIN=   0.00000
   P  -0.4747459   0.4678208  -0.2616866 SPIN=   0.00000
   O   0.6955526   0.1745847   0.2513922 SPIN=   0.00000
   O   0.1452529  -0.0330634   0.1041283 SPIN=   0.00000
   O   0.6669394  -0.2482025   0.2131197 SPIN=   0.00000
   O   0.3473708  -0.0673596   0.4699369 SPIN=   0.00000
   P   0.4747459  -0.0321792   0.2616866 SPIN=   0.00000
  Fe   0.2662817  -0.4645950   0.1155613 SPIN=   4.00000
  Fe  -0.2662817   0.0354050  -0.1155613 SPIN=   4.00000
%ENDBLOCK POSITIONS_FRAC

# Note: total spin =   8.00

KPOINTS_MP_SPACING 0.07

%BLOCK SPECIES_POT
QC5
%ENDBLOCK SPECIES_POT

%BLOCK HUBBARD_U
Fe d:4.0
%ENDBLOCK HUBBARD_U

SNAP_TO_SYMMETRY
SYMMETRY_GENERATE

