#              Generated by Buildcell
#
# at 09:30:49 (GMT+0.0) 24th November 2020
# in /scratch/scratch/uccabz1/launch_tmp
# on node-a14a-004
# by uccabz1
#
# compiler GCC version 4.9.2
# options -cpp -iprefix /scratch/UCL/applications/gcc/4.9.2/bin/../lib/gcc/x86_64-unknown-linux-gnu/4.9.2/ -mtune=corei7 -march=x86-64 -g -O2
#
# seed  1249122655  -409870827  1535323574 -1699153316  -598149674   896187638  -791183458  1498346205 -1532345241  1628270684    38402521  1345386751
#
#      Author: C. J. Pickard (cjp20@cam.ac.uk)
#                Space group: P-1
#

%BLOCK LATTICE_ABC
      4.02638      6.25313      7.08577
     63.97274     87.70325     86.55058
%ENDBLOCK LATTICE_ABC

%BLOCK POSITIONS_FRAC
  Li   0.2221697   0.4139111   0.3662177 SPIN=   0.00000
  Li  -0.2221697  -0.4139111  -0.3662177 SPIN=   0.00000
   O   0.2650961   0.1070253   0.2960741 SPIN=   0.00000
   O   0.2653470  -0.3029348   0.6243979 SPIN=   0.00000
   O  -0.0321560  -0.2570303   0.3096930 SPIN=   0.00000
   P   0.2756278  -0.1652928   0.3778066 SPIN=   0.00000
   O  -0.2650961  -0.1070253  -0.2960741 SPIN=   0.00000
   O  -0.2653470   0.3029348  -0.6243979 SPIN=   0.00000
   O   0.0321560   0.2570303  -0.3096930 SPIN=   0.00000
   P  -0.2756278   0.1652928  -0.3778066 SPIN=   0.00000
   O   0.0000000  -0.5000000   0.0000000 SPIN=   0.00000
   O  -0.5000000  -0.0000000   0.0000000 SPIN=   0.00000
  Fe  -0.2393572   0.1734485   0.1405094 SPIN=   4.00000
  Fe   0.2393572  -0.1734485  -0.1405094 SPIN=   4.00000
%ENDBLOCK POSITIONS_FRAC

# Note: total spin =   8.00

KPOINTS_MP_SPACING 0.07

%BLOCK SPECIES_POT
QC5
%ENDBLOCK SPECIES_POT

%BLOCK HUBBARD_U
Fe d:4.0
%ENDBLOCK HUBBARD_U

SNAP_TO_SYMMETRY
SYMMETRY_GENERATE

