#              Generated by Buildcell
#
# at 07:41:00 (GMT+0.0) 26th November 2020
# in /scratch/scratch/uccabz1/launch_tmp
# on node-k10e-015
# by uccabz1
#
# compiler GCC version 4.9.2
# options -cpp -iprefix /scratch/UCL/applications/gcc/4.9.2/bin/../lib/gcc/x86_64-unknown-linux-gnu/4.9.2/ -mtune=corei7 -march=x86-64 -g -O2
#
# seed  -254010619   950097189   819652888  1428547435   -21753935  -490732022  -647783059  1322407185  -264930065  -779258926  1949217450  1522826745
#
#      Author: C. J. Pickard (cjp20@cam.ac.uk)
#                Space group: C2
#

%BLOCK LATTICE_ABC
      6.57542      7.81311      7.81311
     92.66683    114.58439    114.58439
%ENDBLOCK LATTICE_ABC

%BLOCK POSITIONS_FRAC
  Li  -0.5000000  -0.3421140   0.3421140 SPIN=   0.00000
  Li   0.0000000   0.3567173  -0.3567173 SPIN=   0.00000
  Li  -0.5000000   0.3911016  -0.3911016 SPIN=   0.00000
  Li  -0.0000000  -0.3722655   0.3722655 SPIN=   0.00000
   O  -0.8784833  -0.3462414  -0.3296758 SPIN=   0.00000
   O  -1.1554949  -0.3842840  -0.1602744 SPIN=   0.00000
   O  -0.7672577  -0.4169482   0.0102417 SPIN=   0.00000
   O  -0.7266677  -0.0886022  -0.0232465 SPIN=   0.00000
   P  -0.8799571  -0.3083997  -0.1353879 SPIN=   0.00000
   O   0.8784833   0.3296758   0.3462414 SPIN=   0.00000
   O   1.1554949   0.1602744   0.3842840 SPIN=   0.00000
   O   0.7672577  -0.0102417   0.4169482 SPIN=   0.00000
   O   0.7266677   0.0232465   0.0886022 SPIN=   0.00000
   P   0.8799571   0.1353879   0.3083997 SPIN=   0.00000
   O   0.3435115   0.3431086  -0.1364773 SPIN=   0.00000
   O   0.6705373   0.6329212   0.1747681 SPIN=   0.00000
   O   0.3789618   0.3257021   0.2054030 SPIN=   0.00000
   P   0.5227085   0.4054968   0.0848555 SPIN=   0.00000
   O  -0.3435115   0.1364773  -0.3431086 SPIN=   0.00000
   O  -0.6705373  -0.1747681  -0.6329212 SPIN=   0.00000
   O  -0.3789618  -0.2054030  -0.3257021 SPIN=   0.00000
   P  -0.5227085  -0.0848555  -0.4054968 SPIN=   0.00000
   O  -0.0000000  -0.1216491   0.1216491 SPIN=   0.00000
   O   0.0000000   0.0949173  -0.0949173 SPIN=   0.00000
  Fe  -0.3931403  -0.2543249  -0.0687797 SPIN=   4.09447
  Fe   0.3931403   0.0687797   0.2543249 SPIN=   4.09447
  Fe  -0.1313468   0.3136464   0.0006319 SPIN=   3.90553
  Fe   0.1313468  -0.0006319  -0.3136464 SPIN=   3.90553
%ENDBLOCK POSITIONS_FRAC

# Note: total spin =  16.00

KPOINTS_MP_SPACING 0.07

%BLOCK SPECIES_POT
QC5
%ENDBLOCK SPECIES_POT

%BLOCK HUBBARD_U
Fe d:4.0
%ENDBLOCK HUBBARD_U

SNAP_TO_SYMMETRY
SYMMETRY_GENERATE

