#              Generated by Buildcell
#
# at 14:17:43 (GMT+0.0) 24th November 2020
# in /lustre/scratch/uccabz1/launch_tmp
# on node-c12d-032
# by uccabz1
#
# compiler GCC version 4.9.2
# options -cpp -iprefix /lustre/shared/ucl/apps/gcc/4.9.2/bin/../lib/gcc/x86_64-unknown-linux-gnu/4.9.2/ -mtune=corei7 -march=x86-64 -g -Og
#
# seed  -868399954  1572196612  1399591333   304751825 -1854916144    84336437  1497464544   401690685 -1007818803  -350114621   -54076365   656197948
#
#      Author: C. J. Pickard (cjp20@cam.ac.uk)
#                Space group: I222
#

%BLOCK LATTICE_ABC
      4.33756      5.10441      7.96492
    108.68898    105.80068     90.00000
%ENDBLOCK LATTICE_ABC

%BLOCK POSITIONS_FRAC
  Li  -0.0000000  -0.0000000  -0.0000000 SPIN=   0.00000
  Li   0.5000000  -0.5000000   0.0000000 SPIN=   0.00000
   O  -0.0074596  -0.0638895  -0.4448013 SPIN=   0.00000
   O  -0.3456010   0.0915784  -0.2122294 SPIN=   0.00000
   O  -0.4373417  -0.3809118  -0.4448013 SPIN=   0.00000
   O   0.1333716  -0.3038078  -0.2122294 SPIN=   0.00000
   O   0.4373417   0.0638895   0.4448013 SPIN=   0.00000
   O  -0.1333716  -0.0915784   0.2122294 SPIN=   0.00000
   O   0.0074596   0.3809118   0.4448013 SPIN=   0.00000
   O   0.3456010   0.3038078   0.2122294 SPIN=   0.00000
   P  -0.3717986   0.1282014   0.2564028 SPIN=   0.00000
   P   0.3717986  -0.1282014  -0.2564028 SPIN=   0.00000
  Fe   0.1733817  -0.3266183   0.3467633 SPIN=   4.00000
  Fe  -0.1733817   0.3266183  -0.3467633 SPIN=   4.00000
%ENDBLOCK POSITIONS_FRAC

# Note: total spin =   8.00

KPOINTS_MP_SPACING 0.07

%BLOCK SPECIES_POT
QC5
%ENDBLOCK SPECIES_POT

%BLOCK HUBBARD_U
Fe d:4.0
%ENDBLOCK HUBBARD_U

SNAP_TO_SYMMETRY
SYMMETRY_GENERATE

