#              Generated by Buildcell
#
# at 10:38:06 (GMT+0.0) 24th November 2020
# in /scratch/scratch/uccabz1/launch_tmp
# on node-a14f-024
# by uccabz1
#
# compiler GCC version 4.9.2
# options -cpp -iprefix /scratch/UCL/applications/gcc/4.9.2/bin/../lib/gcc/x86_64-unknown-linux-gnu/4.9.2/ -mtune=corei7 -march=x86-64 -g -O2
#
# seed  2086689269 -2048119915   110949093 -1100083085  -868457491  1219101532   580188700   373304079  1153057438   277405419  -923100258   141724045
#
#      Author: C. J. Pickard (cjp20@cam.ac.uk)
#                Space group: Pcc2
#

%BLOCK LATTICE_ABC
      3.91003      5.09827      8.02633
     90.00000     90.00000     90.00000
%ENDBLOCK LATTICE_ABC

%BLOCK POSITIONS_FRAC
  Li   0.5000000  -0.5000000  -0.1983566 SPIN=   0.00000
  Li  -0.5000000  -0.5000000   0.3016434 SPIN=   0.00000
   O   0.3720814   0.2513266   0.5025683 SPIN=   0.00000
   O   0.0989126   0.2658352   0.2076386 SPIN=   0.00000
   O  -0.3720814  -0.2513266   0.5025683 SPIN=   0.00000
   O  -0.0989126  -0.2658352   0.2076386 SPIN=   0.00000
   O   0.3720814  -0.2513266   0.0025683 SPIN=   0.00000
   O   0.0989126  -0.2658352  -0.2923614 SPIN=   0.00000
   O  -0.3720814   0.2513266   0.0025683 SPIN=   0.00000
   O  -0.0989126   0.2658352  -0.2923614 SPIN=   0.00000
   P   0.0000000  -0.5000000   0.0714342 SPIN=   0.00000
   P   0.0000000   0.5000000  -0.4285658 SPIN=   0.00000
  Fe   0.0000000   0.0000000  -0.0983980 SPIN=   4.00000
  Fe   0.0000000   0.0000000   0.4016020 SPIN=   4.00000
%ENDBLOCK POSITIONS_FRAC

# Note: total spin =   8.00

KPOINTS_MP_SPACING 0.07

%BLOCK SPECIES_POT
QC5
%ENDBLOCK SPECIES_POT

%BLOCK HUBBARD_U
Fe d:4.0
%ENDBLOCK HUBBARD_U

SNAP_TO_SYMMETRY
SYMMETRY_GENERATE

