#              Generated by Buildcell
#
# at 10:44:10 (GMT+0.0) 24th November 2020
# in /scratch/scratch/uccabz1/launch_tmp
# on node-a14b-028
# by uccabz1
#
# compiler GCC version 4.9.2
# options -cpp -iprefix /scratch/UCL/applications/gcc/4.9.2/bin/../lib/gcc/x86_64-unknown-linux-gnu/4.9.2/ -mtune=corei7 -march=x86-64 -g -O2
#
# seed  -766548509   612896963 -1124176914 -1649811981  1311002355  1795738430 -1932497904  -578818569    33347429  1662378008  -572214803  -467392323
#
#      Author: C. J. Pickard (cjp20@cam.ac.uk)
#                Space group: P21
#

%BLOCK LATTICE_ABC
      3.91919      4.75806      8.83465
    103.78596     90.00000     90.00000
%ENDBLOCK LATTICE_ABC

%BLOCK POSITIONS_FRAC
  Li   0.1882120  -0.2573796   0.4965987 SPIN=   0.00000
  Li  -0.3117880   0.2573796  -0.4965987 SPIN=   0.00000
   O   0.1595284  -0.3720018   0.2067687 SPIN=   0.00000
   O   0.0218608   0.1767031   0.2967245 SPIN=   0.00000
   O  -0.3608260  -0.1329201   0.1049474 SPIN=   0.00000
   O  -0.3590459  -0.1799976   0.3813037 SPIN=   0.00000
   P  -0.1216071  -0.1407211   0.2468505 SPIN=   0.00000
   O   0.6595284   0.3720018  -0.2067687 SPIN=   0.00000
   O   0.5218608  -0.1767031  -0.2967245 SPIN=   0.00000
   O   0.1391740   0.1329201  -0.1049474 SPIN=   0.00000
   O   0.1409541   0.1799976  -0.3813037 SPIN=   0.00000
   P   0.3783929   0.1407211  -0.2468505 SPIN=   0.00000
  Fe   0.0407793  -0.3124302  -0.1411082 SPIN=   4.00000
  Fe  -0.4592207   0.3124302   0.1411082 SPIN=   4.00000
%ENDBLOCK POSITIONS_FRAC

# Note: total spin =   8.00

KPOINTS_MP_SPACING 0.07

%BLOCK SPECIES_POT
QC5
%ENDBLOCK SPECIES_POT

%BLOCK HUBBARD_U
Fe d:4.0
%ENDBLOCK HUBBARD_U

SNAP_TO_SYMMETRY
SYMMETRY_GENERATE

