#              Generated by Buildcell
#
# at 11:32:44 (GMT+0.0) 26th November 2020
# in /lustre/scratch/uccabz1/launch_tmp
# on node-c12g-020
# by uccabz1
#
# compiler GCC version 4.9.2
# options -cpp -iprefix /lustre/shared/ucl/apps/gcc/4.9.2/bin/../lib/gcc/x86_64-unknown-linux-gnu/4.9.2/ -mtune=corei7 -march=x86-64 -g -Og
#
# seed  2015167556   900717799 -1077404525  1929177926   470392125  1478908624   783363132  1810999273  -281634472   875840264  1491619397  -648543124
#
#      Author: C. J. Pickard (cjp20@cam.ac.uk)
#                Space group: C2/c
#

%BLOCK LATTICE_ABC
      6.15545      7.99036      8.04067
    112.18670    103.17798    108.15174
%ENDBLOCK LATTICE_ABC

%BLOCK POSITIONS_FRAC
  Li   0.2266676  -0.2686916  -0.0702497 SPIN=   0.00000
  Li  -0.2969173  -0.3015581  -0.0702497 SPIN=   0.00000
  Li  -0.2266676   0.2686916   0.0702497 SPIN=   0.00000
  Li   0.2969173   0.3015581   0.0702497 SPIN=   0.00000
   O  -0.7719506  -0.1984458  -0.3020716 SPIN=   0.00000
   O  -0.4374000  -0.3177411  -0.3660720 SPIN=   0.00000
   O  -0.3772180   0.0181630  -0.3246270 SPIN=   0.00000
   O  -0.3327229  -0.0395874  -0.0359934 SPIN=   0.00000
   P  -0.4936413  -0.1366939  -0.2569703 SPIN=   0.00000
   O   0.4698790   0.3963742  -0.3020716 SPIN=   0.00000
   O   0.0713279   0.4516690  -0.3660720 SPIN=   0.00000
   O   0.0525909   0.1572100  -0.3246270 SPIN=   0.00000
   O   0.2967294   0.5035940  -0.0359934 SPIN=   0.00000
   P   0.2366709   0.3797236  -0.2569703 SPIN=   0.00000
   O   0.7719506   0.1984458   0.3020716 SPIN=   0.00000
   O   0.4374000   0.3177411   0.3660720 SPIN=   0.00000
   O   0.3772180  -0.0181630   0.3246270 SPIN=   0.00000
   O   0.3327229   0.0395874   0.0359934 SPIN=   0.00000
   P   0.4936413   0.1366939   0.2569703 SPIN=   0.00000
   O  -0.4698790  -0.3963742   0.3020716 SPIN=   0.00000
   O  -0.0713279  -0.4516690   0.3660720 SPIN=   0.00000
   O  -0.0525909  -0.1572100   0.3246270 SPIN=   0.00000
   O  -0.2967294  -0.5035940   0.0359934 SPIN=   0.00000
   P  -0.2366709  -0.3797236   0.2569703 SPIN=   0.00000
  Fe  -0.0659063  -0.1222648  -0.3331995 SPIN=   4.00000
  Fe  -0.2672931   0.2890654  -0.3331995 SPIN=   4.00000
  Fe   0.0659063   0.1222648   0.3331995 SPIN=   4.00000
  Fe   0.2672931  -0.2890654   0.3331995 SPIN=   4.00000
%ENDBLOCK POSITIONS_FRAC

# Note: total spin =  16.00

KPOINTS_MP_SPACING 0.07

%BLOCK SPECIES_POT
QC5
%ENDBLOCK SPECIES_POT

%BLOCK HUBBARD_U
Fe d:4.0
%ENDBLOCK HUBBARD_U

SNAP_TO_SYMMETRY
SYMMETRY_GENERATE

