#              Generated by Buildcell
#
# at 16:23:35 (GMT+0.0) 26th November 2020
# in /lustre/scratch/uccabz1/launch_tmp
# on node-c12g-031
# by uccabz1
#
# compiler GCC version 4.9.2
# options -cpp -iprefix /lustre/shared/ucl/apps/gcc/4.9.2/bin/../lib/gcc/x86_64-unknown-linux-gnu/4.9.2/ -mtune=corei7 -march=x86-64 -g -Og
#
# seed  -709931042 -1161332875  1807075041 -1310314934  1325030736 -1043725964  -400769832    61036867  1456522373  -906548736  1722282075 -1918655669
#
#      Author: C. J. Pickard (cjp20@cam.ac.uk)
#                Space group: P21
#

%BLOCK LATTICE_ABC
      5.41215      5.70162     10.37033
     90.00000     90.00000     90.40056
%ENDBLOCK LATTICE_ABC

%BLOCK POSITIONS_FRAC
  Li  -0.1293196   0.1753708   0.4229447 SPIN=   0.00000
  Li   0.1293196  -0.1753708  -0.0770553 SPIN=   0.00000
  Li  -0.2234900   0.4443521  -0.1673986 SPIN=   0.00000
  Li   0.2234900  -0.4443521   0.3326014 SPIN=   0.00000
   O   0.3937036  -0.4151022  -0.2937151 SPIN=   0.00000
   O   0.2107064  -0.1109388  -0.4532607 SPIN=   0.00000
   O   0.0935930  -0.5276759  -0.4795604 SPIN=   0.00000
   O  -0.0675037  -0.3018048  -0.2906616 SPIN=   0.00000
   P   0.1675381  -0.3425013  -0.3736965 SPIN=   0.00000
   O  -0.3937036   0.4151022   0.2062849 SPIN=   0.00000
   O  -0.2107064   0.1109388   0.0467393 SPIN=   0.00000
   O  -0.0935930   0.5276759   0.0204396 SPIN=   0.00000
   O   0.0675037   0.3018048   0.2093384 SPIN=   0.00000
   P  -0.1675381   0.3425013   0.1263035 SPIN=   0.00000
   O   0.3887126   0.2404599   0.3925050 SPIN=   0.00000
   O   0.0731307  -0.0793353   0.3208801 SPIN=   0.00000
   O   0.4101851   0.0282952   0.1711138 SPIN=   0.00000
   O   0.5073948  -0.1959864   0.3722413 SPIN=   0.00000
   P   0.3491090   0.0089556   0.3190403 SPIN=   0.00000
   O  -0.3887126  -0.2404599  -0.1074950 SPIN=   0.00000
   O  -0.0731307   0.0793353  -0.1791199 SPIN=   0.00000
   O  -0.4101851  -0.0282952  -0.3288862 SPIN=   0.00000
   O  -0.5073948   0.1959864  -0.1277587 SPIN=   0.00000
   P  -0.3491090  -0.0089556  -0.1809597 SPIN=   0.00000
  Fe  -0.2425277  -0.1709848   0.1754277 SPIN=   1.91166
  Fe   0.2425277   0.1709848  -0.3245723 SPIN=   1.91166
  Fe  -0.3324142  -0.3259602  -0.4582865 SPIN=   6.08834
  Fe   0.3324142   0.3259602   0.0417135 SPIN=   6.08834
%ENDBLOCK POSITIONS_FRAC

# Note: total spin =  16.00

KPOINTS_MP_SPACING 0.07

%BLOCK SPECIES_POT
QC5
%ENDBLOCK SPECIES_POT

%BLOCK HUBBARD_U
Fe d:4.0
%ENDBLOCK HUBBARD_U

SNAP_TO_SYMMETRY
SYMMETRY_GENERATE

