#              Generated by Buildcell
#
# at 10:10:00 (GMT+0.0) 24th November 2020
# in /lustre/scratch/uccabz1/launch_tmp
# on node-c12c-034
# by uccabz1
#
# compiler GCC version 4.9.2
# options -cpp -iprefix /lustre/shared/ucl/apps/gcc/4.9.2/bin/../lib/gcc/x86_64-unknown-linux-gnu/4.9.2/ -mtune=corei7 -march=x86-64 -g -Og
#
# seed -1482477196 -1769431720  -500674863  -353912052 -1538720085  1230237353 -1006774960  1871728770   255737076 -1177009593 -1986593529  1221325301
#
#      Author: C. J. Pickard (cjp20@cam.ac.uk)
#                Space group: Pc
#

%BLOCK LATTICE_ABC
      3.83646      5.60723      7.73042
    105.81682     90.00000     90.00000
%ENDBLOCK LATTICE_ABC

%BLOCK POSITIONS_FRAC
  Li  -0.3434160   0.2321214   0.4749799 SPIN=   0.00000
  Li   0.3434160   0.2321214  -0.0250201 SPIN=   0.00000
   O  -0.1714825   0.2239616   0.1689911 SPIN=   0.00000
   O  -0.2682877   0.6769445   0.3620198 SPIN=   0.00000
   O   0.2316543   0.4439381   0.4346449 SPIN=   0.00000
   O   0.2415415   0.5807206   0.1521469 SPIN=   0.00000
   P   0.0015326   0.4688565   0.2720670 SPIN=   0.00000
   O   0.1714825   0.2239616  -0.3310089 SPIN=   0.00000
   O   0.2682877   0.6769445  -0.1379802 SPIN=   0.00000
   O  -0.2316543   0.4439381  -0.0653551 SPIN=   0.00000
   O  -0.2415415   0.5807206  -0.3478531 SPIN=   0.00000
   P  -0.0015326   0.4688565  -0.2279330 SPIN=   0.00000
  Fe  -0.1627028  -0.1681128   0.0938904 SPIN=   4.00000
  Fe   0.1627028  -0.1681128  -0.4061096 SPIN=   4.00000
%ENDBLOCK POSITIONS_FRAC

# Note: total spin =   8.00

KPOINTS_MP_SPACING 0.07

%BLOCK SPECIES_POT
QC5
%ENDBLOCK SPECIES_POT

%BLOCK HUBBARD_U
Fe d:4.0
%ENDBLOCK HUBBARD_U

SNAP_TO_SYMMETRY
SYMMETRY_GENERATE

