#              Generated by Buildcell
#
# at 22:37:09 (GMT+0.0) 26th November 2020
# in /lustre/scratch/uccabz1/launch_tmp
# on node-c12m-036
# by uccabz1
#
# compiler GCC version 4.9.2
# options -cpp -iprefix /lustre/shared/ucl/apps/gcc/4.9.2/bin/../lib/gcc/x86_64-unknown-linux-gnu/4.9.2/ -mtune=corei7 -march=x86-64 -g -Og
#
# seed  -290715681 -1634638975  1024501676  1874614883   -55231270  -650143948   539728141  -444308727 -1610905343   105966826  1571005283 -1791850187
#
#      Author: C. J. Pickard (cjp20@cam.ac.uk)
#                Space group: P21
#

%BLOCK LATTICE_ABC
      5.44460      6.48870      9.07740
     90.00000     90.00000     93.75789
%ENDBLOCK LATTICE_ABC

%BLOCK POSITIONS_FRAC
  Li   0.2697381   0.2347636  -0.0380954 SPIN=   0.00000
  Li  -0.2697381  -0.2347636   0.4619046 SPIN=   0.00000
  Li   0.3652102  -0.2291056   0.0117443 SPIN=   0.00000
  Li  -0.3652102   0.2291056  -0.4882557 SPIN=   0.00000
   O   0.2000723  -0.0684722  -0.1601412 SPIN=   0.00000
   O   0.1222053   0.1002518  -0.4140151 SPIN=   0.00000
   O   0.4902475   0.2242085  -0.2725174 SPIN=   0.00000
   O   0.4732712  -0.1276689  -0.3868886 SPIN=   0.00000
   P   0.3167780   0.0248407  -0.3014234 SPIN=   0.00000
   O  -0.2000723   0.0684722   0.3398588 SPIN=   0.00000
   O  -0.1222053  -0.1002518   0.0859849 SPIN=   0.00000
   O  -0.4902475  -0.2242085   0.2274826 SPIN=   0.00000
   O  -0.4732712   0.1276689   0.1131114 SPIN=   0.00000
   P  -0.3167780  -0.0248407   0.1985766 SPIN=   0.00000
   O   0.0441494  -0.4297297   0.0115813 SPIN=   0.00000
   O  -0.4021980  -0.4782669  -0.0897042 SPIN=   0.00000
   O  -0.0694452  -0.3618906  -0.2613490 SPIN=   0.00000
   O  -0.0919411  -0.7253511  -0.1670495 SPIN=   0.00000
   P  -0.1201462  -0.4978049  -0.1197482 SPIN=   0.00000
   O  -0.0441494   0.4297297   0.5115813 SPIN=   0.00000
   O   0.4021980   0.4782669   0.4102958 SPIN=   0.00000
   O   0.0694452   0.3618906   0.2386510 SPIN=   0.00000
   O   0.0919411   0.7253511   0.3329505 SPIN=   0.00000
   P   0.1201462   0.4978049   0.3802518 SPIN=   0.00000
  Fe  -0.2851049   0.4436323   0.1785200 SPIN=   3.59441
  Fe   0.2851049  -0.4436323  -0.3214800 SPIN=   3.59441
  Fe  -0.1834149  -0.0406797  -0.2034321 SPIN=   4.40559
  Fe   0.1834149   0.0406797   0.2965679 SPIN=   4.40559
%ENDBLOCK POSITIONS_FRAC

# Note: total spin =  16.00

KPOINTS_MP_SPACING 0.07

%BLOCK SPECIES_POT
QC5
%ENDBLOCK SPECIES_POT

%BLOCK HUBBARD_U
Fe d:4.0
%ENDBLOCK HUBBARD_U

SNAP_TO_SYMMETRY
SYMMETRY_GENERATE

