#              Generated by Buildcell
#
# at 08:21:51 (GMT+0.0) 24th November 2020
# in /lustre/scratch/uccabz1/launch_tmp
# on node-c12p-022
# by uccabz1
#
# compiler GCC version 4.9.2
# options -cpp -iprefix /lustre/shared/ucl/apps/gcc/4.9.2/bin/../lib/gcc/x86_64-unknown-linux-gnu/4.9.2/ -mtune=corei7 -march=x86-64 -g -Og
#
# seed -1113425350  -667780568  -917146257   970451427  1164060834   518831832 -1703116848  -367105600 -1719896323   -41452628 -1333798486  1085705843
#
#      Author: C. J. Pickard (cjp20@cam.ac.uk)
#                Space group: I212121
#

%BLOCK LATTICE_ABC
      5.97200      5.97200      5.97200
    103.90651    105.36694    119.64746
%ENDBLOCK LATTICE_ABC

%BLOCK POSITIONS_FRAC
  Li   0.3042952   0.0542952   0.2500000 SPIN=   0.00000
  Li   0.1957048   0.4457048  -0.2500000 SPIN=   0.00000
   O  -0.0253827   0.0329086  -0.1037241 SPIN=   0.00000
   O  -0.4795753  -0.4980431  -0.3852899 SPIN=   0.00000
   O  -0.4746173  -0.5783413   0.0582913 SPIN=   0.00000
   O  -0.0204247  -0.4057146  -0.0184677 SPIN=   0.00000
   O  -0.3633674   0.0783413  -0.3962759 SPIN=   0.00000
   O  -0.6127531  -0.0942854  -0.1147101 SPIN=   0.00000
   O  -0.1366326  -0.5329086   0.4417087 SPIN=   0.00000
   O   0.1127531  -0.0019569   0.5184677 SPIN=   0.00000
   P  -0.2500000  -0.3528758  -0.1028758 SPIN=   0.00000
   P   0.2500000  -0.1471242  -0.3971242 SPIN=   0.00000
  Fe  -0.1702445   0.2500000   0.0797555 SPIN=   4.00000
  Fe  -0.3297555  -0.2500000   0.4202445 SPIN=   4.00000
%ENDBLOCK POSITIONS_FRAC

# Note: total spin =   8.00

KPOINTS_MP_SPACING 0.07

%BLOCK SPECIES_POT
QC5
%ENDBLOCK SPECIES_POT

%BLOCK HUBBARD_U
Fe d:4.0
%ENDBLOCK HUBBARD_U

SNAP_TO_SYMMETRY
SYMMETRY_GENERATE

