#              Generated by Buildcell
#
# at 12:29:09 (GMT+0.0) 26th November 2020
# in /lustre/scratch/uccabz1/launch_tmp
# on node-c12c-020
# by uccabz1
#
# compiler GCC version 4.9.2
# options -cpp -iprefix /lustre/shared/ucl/apps/gcc/4.9.2/bin/../lib/gcc/x86_64-unknown-linux-gnu/4.9.2/ -mtune=corei7 -march=x86-64 -g -Og
#
# seed   741046604   -31649608  -182381525  1518301982  -684294611  -311158892  1273850796   264462924   551281465 -1198712890 -1608251350   662028647
#
#      Author: C. J. Pickard (cjp20@cam.ac.uk)
#                Space group: Pc
#

%BLOCK LATTICE_ABC
      3.89795      8.22927     10.32743
    104.99194     90.00000     90.00000
%ENDBLOCK LATTICE_ABC

%BLOCK POSITIONS_FRAC
  Li   0.2637482   0.0948871   0.2362306 SPIN=   0.00000
  Li  -0.2637482  -0.4051129  -0.2637694 SPIN=   0.00000
  Li   0.2606814  -0.3171171   0.2749506 SPIN=   0.00000
  Li  -0.2606814   0.1828829  -0.2250494 SPIN=   0.00000
   O  -0.4306550  -0.1675261   0.4521344 SPIN=   0.00000
   O  -0.4097223   0.1267886   0.4036893 SPIN=   0.00000
   O   0.0908899   0.0344585   0.5129088 SPIN=   0.00000
   O  -0.0328782  -0.1034069   0.2715085 SPIN=   0.00000
   P  -0.2061872  -0.0357781   0.4106654 SPIN=   0.00000
   O   0.4306550   0.3324739  -0.0478656 SPIN=   0.00000
   O   0.4097223   0.6267886  -0.0963107 SPIN=   0.00000
   O  -0.0908899   0.5344585   0.0129088 SPIN=   0.00000
   O   0.0328782   0.3965931  -0.2284915 SPIN=   0.00000
   P   0.2061872   0.4642219  -0.0893346 SPIN=   0.00000
   O   0.3871768  -0.0642019  -0.0156552 SPIN=   0.00000
   O   0.2600942   0.0698902  -0.2123670 SPIN=   0.00000
   O  -0.1285035  -0.1523686  -0.1780458 SPIN=   0.00000
   O  -0.1326840   0.1310375  -0.0137210 SPIN=   0.00000
   P   0.1092920  -0.0055283  -0.0991163 SPIN=   0.00000
   O  -0.3871768   0.4357981   0.4843448 SPIN=   0.00000
   O  -0.2600942   0.5698902   0.2876330 SPIN=   0.00000
   O   0.1285035   0.3476314   0.3219542 SPIN=   0.00000
   O   0.1326840   0.6310375   0.4862790 SPIN=   0.00000
   P  -0.1092920   0.4944717   0.4008837 SPIN=   0.00000
  Fe  -0.2589932   0.3580316   0.1228830 SPIN=   7.00316
  Fe   0.2589932  -0.1419684  -0.3771170 SPIN=   7.00316
  Fe  -0.2339375  -0.1999332   0.0550881 SPIN=   0.99684
  Fe   0.2339375   0.3000668  -0.4449119 SPIN=   0.99684
%ENDBLOCK POSITIONS_FRAC

# Note: total spin =  16.00

KPOINTS_MP_SPACING 0.07

%BLOCK SPECIES_POT
QC5
%ENDBLOCK SPECIES_POT

%BLOCK HUBBARD_U
Fe d:4.0
%ENDBLOCK HUBBARD_U

SNAP_TO_SYMMETRY
SYMMETRY_GENERATE

