#              Generated by Buildcell
#
# at 07:59:54 (GMT+0.0) 24th November 2020
# in /lustre/scratch/uccabz1/launch_tmp
# on node-c12f-031
# by uccabz1
#
# compiler GCC version 4.9.2
# options -cpp -iprefix /lustre/shared/ucl/apps/gcc/4.9.2/bin/../lib/gcc/x86_64-unknown-linux-gnu/4.9.2/ -mtune=corei7 -march=x86-64 -g -Og
#
# seed  -632801997  -970211656   -99636757   137283067  1048806251 -1625085104  -693567717  -324971351  -611099013 -1798226573   241939684  -903628459
#
#      Author: C. J. Pickard (cjp20@cam.ac.uk)
#                Space group: Aea2
#

%BLOCK LATTICE_ABC
      4.65040      6.15619      6.38037
    118.84435     90.00000     90.00000
%ENDBLOCK LATTICE_ABC

%BLOCK POSITIONS_FRAC
  Li  -0.5000000  -0.0453132  -0.0906264 SPIN=   0.00000
  Li  -0.0000000   0.4546868  -0.0906264 SPIN=   0.00000
   O   0.3655846  -0.3744966   0.6026783 SPIN=   0.00000
   O   0.2674764  -0.6075436   0.1450542 SPIN=   0.00000
   O  -0.3655846  -0.0228251   0.6026783 SPIN=   0.00000
   O  -0.2674764  -0.2474022   0.1450542 SPIN=   0.00000
   O  -0.1344154   0.4771749   0.6026783 SPIN=   0.00000
   O  -0.2325236   0.2525978   0.1450542 SPIN=   0.00000
   O   0.1344154   0.1255034   0.6026783 SPIN=   0.00000
   O   0.2325236  -0.1075436   0.1450542 SPIN=   0.00000
   P  -0.0000000   0.0760023   0.1520045 SPIN=   0.00000
   P  -0.5000000  -0.4239977   0.1520045 SPIN=   0.00000
  Fe  -0.5000000   0.2474167   0.4948335 SPIN=   4.00000
  Fe  -0.0000000  -0.2525833   0.4948335 SPIN=   4.00000
%ENDBLOCK POSITIONS_FRAC

# Note: total spin =   8.00

KPOINTS_MP_SPACING 0.07

%BLOCK SPECIES_POT
QC5
%ENDBLOCK SPECIES_POT

%BLOCK HUBBARD_U
Fe d:4.0
%ENDBLOCK HUBBARD_U

SNAP_TO_SYMMETRY
SYMMETRY_GENERATE

