#              Generated by Buildcell
#
# at 10:13:01 (GMT+0.0) 24th November 2020
# in /lustre/scratch/uccabz1/launch_tmp
# on node-c12o-036
# by uccabz1
#
# compiler GCC version 4.9.2
# options -cpp -iprefix /lustre/shared/ucl/apps/gcc/4.9.2/bin/../lib/gcc/x86_64-unknown-linux-gnu/4.9.2/ -mtune=corei7 -march=x86-64 -g -Og
#
# seed  1869284618  -322535799   860016947   894235053  -150970362  1065496716   626218869  -221223735  1400761211 -1937269276  -514064522   265813680
#
#      Author: C. J. Pickard (cjp20@cam.ac.uk)
#                Space group: P4
#

%BLOCK LATTICE_ABC
      5.35795      5.46463      5.46463
     90.00000     90.00000     90.00000
%ENDBLOCK LATTICE_ABC

%BLOCK POSITIONS_FRAC
  Li  -0.2441985   0.5000000  -0.0000000 SPIN=   0.00000
  Li  -0.2441985  -0.0000000  -0.5000000 SPIN=   0.00000
   O   0.4473904   0.3528685   0.1905805 SPIN=   0.00000
   O   0.0752936   0.3004834  -0.1097362 SPIN=   0.00000
   O   0.4473904  -0.3528685  -0.1905805 SPIN=   0.00000
   O   0.0752936  -0.3004834   0.1097362 SPIN=   0.00000
   O   0.4473904  -0.1905805   0.3528685 SPIN=   0.00000
   O   0.0752936   0.1097362   0.3004834 SPIN=   0.00000
   O   0.4473904   0.1905805  -0.3528685 SPIN=   0.00000
   O   0.0752936  -0.1097362  -0.3004834 SPIN=   0.00000
   P   0.2557930   0.0000000  -0.5000000 SPIN=   0.00000
   P   0.2557930   0.5000000  -0.0000000 SPIN=   0.00000
  Fe   0.1011199   0.5000000  -0.5000000 SPIN=   2.76274
  Fe   0.4105140   0.0000000   0.0000000 SPIN=   5.23726
%ENDBLOCK POSITIONS_FRAC

# Note: total spin =   8.00

KPOINTS_MP_SPACING 0.07

%BLOCK SPECIES_POT
QC5
%ENDBLOCK SPECIES_POT

%BLOCK HUBBARD_U
Fe d:4.0
%ENDBLOCK HUBBARD_U

SNAP_TO_SYMMETRY
SYMMETRY_GENERATE

