#              Generated by Buildcell
#
# at 12:31:53 (GMT+0.0) 24th November 2020
# in /scratch/scratch/uccabz1/launch_tmp
# on node-a14a-004
# by uccabz1
#
# compiler GCC version 4.9.2
# options -cpp -iprefix /scratch/UCL/applications/gcc/4.9.2/bin/../lib/gcc/x86_64-unknown-linux-gnu/4.9.2/ -mtune=corei7 -march=x86-64 -g -O2
#
# seed -1578645591  1312741180 -1212035145   618354896   108488582  1548296847   481107437 -1101787904  -964133940  -540137760 -1377320916  1460225299
#
#      Author: C. J. Pickard (cjp20@cam.ac.uk)
#                Space group: P-1
#

%BLOCK LATTICE_ABC
      4.83245      5.94257      6.32159
     86.43002     70.70958     69.31882
%ENDBLOCK LATTICE_ABC

%BLOCK POSITIONS_FRAC
  Li  -0.6887140   0.3994492   0.2855920 SPIN=   0.00000
  Li   0.6887140  -0.3994492  -0.2855920 SPIN=   0.00000
   O  -0.2142041   0.4296566   0.4017642 SPIN=   0.00000
   O  -0.2000676  -0.0118168   0.4090018 SPIN=   0.00000
   O  -0.2052930   0.2008011   0.0611461 SPIN=   0.00000
   O   0.2752535   0.0775933   0.1743028 SPIN=   0.00000
   P  -0.0886358   0.1865295   0.2679896 SPIN=   0.00000
   O   0.2142041  -0.4296566  -0.4017642 SPIN=   0.00000
   O   0.2000676   0.0118168  -0.4090018 SPIN=   0.00000
   O   0.2052930  -0.2008011  -0.0611461 SPIN=   0.00000
   O  -0.2752535  -0.0775933  -0.1743028 SPIN=   0.00000
   P   0.0886358  -0.1865295  -0.2679896 SPIN=   0.00000
  Fe   0.6700527  -0.2053723   0.2152817 SPIN=   4.00000
  Fe  -0.6700527   0.2053723  -0.2152817 SPIN=   4.00000
%ENDBLOCK POSITIONS_FRAC

# Note: total spin =   8.00

KPOINTS_MP_SPACING 0.07

%BLOCK SPECIES_POT
QC5
%ENDBLOCK SPECIES_POT

%BLOCK HUBBARD_U
Fe d:4.0
%ENDBLOCK HUBBARD_U

SNAP_TO_SYMMETRY
SYMMETRY_GENERATE

