#              Generated by Buildcell
#
# at 23:53:36 (GMT+0.0) 26th November 2020
# in /lustre/scratch/uccabz1/launch_tmp
# on node-c12c-023
# by uccabz1
#
# compiler GCC version 4.9.2
# options -cpp -iprefix /lustre/shared/ucl/apps/gcc/4.9.2/bin/../lib/gcc/x86_64-unknown-linux-gnu/4.9.2/ -mtune=corei7 -march=x86-64 -g -Og
#
# seed -1970088039 -1432670370  1699605079    39809858  1920504338  -314292897   266362906  2102740829  1810200497  1549850716  2078220536 -1193422908
#
#      Author: C. J. Pickard (cjp20@cam.ac.uk)
#                Space group: Pca21
#

%BLOCK LATTICE_ABC
      5.95049      7.18574      7.48387
     90.00000     90.00000     90.00000
%ENDBLOCK LATTICE_ABC

%BLOCK POSITIONS_FRAC
  Li  -0.3263499  -0.3364772   0.2663346 SPIN=   0.00000
  Li   0.3263499   0.1635228  -0.2663346 SPIN=   0.00000
  Li   0.3263499  -0.3364772  -0.2336654 SPIN=   0.00000
  Li  -0.3263499   0.1635228   0.2336654 SPIN=   0.00000
   O   0.4302300  -0.0817742   0.2730136 SPIN=   0.00000
   O   0.4433599  -0.3544477   0.5007483 SPIN=   0.00000
   O   0.2315315  -0.0712041   0.5819704 SPIN=   0.00000
   O   0.0816201  -0.2826988   0.3441980 SPIN=   0.00000
   P   0.3012580  -0.1923728   0.4159376 SPIN=   0.00000
   O  -0.4302300   0.4182258  -0.2730136 SPIN=   0.00000
   O  -0.4433599   0.1455523  -0.5007483 SPIN=   0.00000
   O  -0.2315315   0.4287959  -0.5819704 SPIN=   0.00000
   O  -0.0816201   0.2173012  -0.3441980 SPIN=   0.00000
   P  -0.3012580   0.3076272  -0.4159376 SPIN=   0.00000
   O  -0.4302300  -0.0817742  -0.2269864 SPIN=   0.00000
   O  -0.4433599  -0.3544477   0.0007483 SPIN=   0.00000
   O  -0.2315315  -0.0712041   0.0819704 SPIN=   0.00000
   O  -0.0816201  -0.2826988  -0.1558020 SPIN=   0.00000
   P  -0.3012580  -0.1923728  -0.0840624 SPIN=   0.00000
   O   0.4302300   0.4182258   0.2269864 SPIN=   0.00000
   O   0.4433599   0.1455523  -0.0007483 SPIN=   0.00000
   O   0.2315315   0.4287959  -0.0819704 SPIN=   0.00000
   O   0.0816201   0.2173012   0.1558020 SPIN=   0.00000
   P   0.3012580   0.3076272   0.0840624 SPIN=   0.00000
  Fe   0.1212351   0.4370930   0.4174107 SPIN=   4.00000
  Fe  -0.1212351  -0.0629070  -0.4174107 SPIN=   4.00000
  Fe  -0.1212351   0.4370930  -0.0825893 SPIN=   4.00000
  Fe   0.1212351  -0.0629070   0.0825893 SPIN=   4.00000
%ENDBLOCK POSITIONS_FRAC

# Note: total spin =  16.00

KPOINTS_MP_SPACING 0.07

%BLOCK SPECIES_POT
QC5
%ENDBLOCK SPECIES_POT

%BLOCK HUBBARD_U
Fe d:4.0
%ENDBLOCK HUBBARD_U

SNAP_TO_SYMMETRY
SYMMETRY_GENERATE

