#              Generated by Buildcell
#
# at 08:42:36 (GMT+0.0) 24th November 2020
# in /scratch/scratch/uccabz1/launch_tmp
# on node-a14b-007
# by uccabz1
#
# compiler GCC version 4.9.2
# options -cpp -iprefix /scratch/UCL/applications/gcc/4.9.2/bin/../lib/gcc/x86_64-unknown-linux-gnu/4.9.2/ -mtune=corei7 -march=x86-64 -g -O2
#
# seed   416177565 -1230643709  1451578544 -1036679091  1026378440   -23082285  -493774432 -2008212174 -1071961230  -962947839  1436475699   648409254
#
#      Author: C. J. Pickard (cjp20@cam.ac.uk)
#                Space group: P21/c
#

%BLOCK LATTICE_ABC
      5.28054      5.60404      5.63979
     90.00000    106.52645     90.00000
%ENDBLOCK LATTICE_ABC

%BLOCK POSITIONS_FRAC
  Li   0.0000000   0.0000000  -0.0000000 SPIN=   0.00000
  Li   0.0000000  -0.5000000  -0.5000000 SPIN=   0.00000
   O  -0.6440486  -0.2212927  -0.8181752 SPIN=   0.00000
   O  -0.1660141  -0.2854891  -0.8458537 SPIN=   0.00000
   O   0.6440486   0.2787073   0.3181752 SPIN=   0.00000
   O   0.1660141   0.2145109   0.3458537 SPIN=   0.00000
   O   0.6440486   0.2212927   0.8181752 SPIN=   0.00000
   O   0.1660141   0.2854891   0.8458537 SPIN=   0.00000
   O  -0.6440486  -0.2787073  -0.3181752 SPIN=   0.00000
   O  -0.1660141  -0.2145109  -0.3458537 SPIN=   0.00000
   P  -0.5000000   0.0000000  -1.0000000 SPIN=   0.00000
   P  -0.5000000  -0.5000000  -0.5000000 SPIN=   0.00000
  Fe  -0.5000000   0.0000000  -0.5000000 SPIN=   4.00000
  Fe  -0.5000000   0.5000000  -1.0000000 SPIN=   4.00000
%ENDBLOCK POSITIONS_FRAC

# Note: total spin =   8.00

KPOINTS_MP_SPACING 0.07

%BLOCK SPECIES_POT
QC5
%ENDBLOCK SPECIES_POT

%BLOCK HUBBARD_U
Fe d:4.0
%ENDBLOCK HUBBARD_U

SNAP_TO_SYMMETRY
SYMMETRY_GENERATE

