#              Generated by Buildcell
#
# at 10:51:56 (GMT+0.0) 24th November 2020
# in /lustre/scratch/uccabz1/launch_tmp
# on node-c12l-030
# by uccabz1
#
# compiler GCC version 4.9.2
# options -cpp -iprefix /lustre/shared/ucl/apps/gcc/4.9.2/bin/../lib/gcc/x86_64-unknown-linux-gnu/4.9.2/ -mtune=corei7 -march=x86-64 -g -Og
#
# seed  -803346335  1722282075  -147360520 -1409428876   778801539  -726474870  -471331889 -1538277567   138886686 -1851376937   523632984  1640840491
#
#      Author: C. J. Pickard (cjp20@cam.ac.uk)
#                Space group: P-1
#

%BLOCK LATTICE_ABC
      5.50876      5.61885      6.22044
     64.02912     78.73117     67.65264
%ENDBLOCK LATTICE_ABC

%BLOCK POSITIONS_FRAC
  Li  -0.0607489   0.3057746   0.2499470 SPIN=   0.00000
  Li   0.0607489  -0.3057746  -0.2499470 SPIN=   0.00000
   O  -0.0432772  -0.1165770   0.3890204 SPIN=   0.00000
   O  -0.5165856   0.0937582   0.2353609 SPIN=   0.00000
   O  -0.1562628  -0.1410491   0.0143751 SPIN=   0.00000
   O  -0.3034090  -0.4288194   0.4204744 SPIN=   0.00000
   P  -0.2441893  -0.1498015   0.2732585 SPIN=   0.00000
   O   0.0432772   0.1165770  -0.3890204 SPIN=   0.00000
   O   0.5165856  -0.0937582  -0.2353609 SPIN=   0.00000
   O   0.1562628   0.1410491  -0.0143751 SPIN=   0.00000
   O   0.3034090   0.4288194  -0.4204744 SPIN=   0.00000
   P   0.2441893   0.1498015  -0.2732585 SPIN=   0.00000
  Fe  -0.3147135   0.2894825  -0.1988190 SPIN=   4.00000
  Fe   0.3147135  -0.2894825   0.1988190 SPIN=   4.00000
%ENDBLOCK POSITIONS_FRAC

# Note: total spin =   8.00

KPOINTS_MP_SPACING 0.07

%BLOCK SPECIES_POT
QC5
%ENDBLOCK SPECIES_POT

%BLOCK HUBBARD_U
Fe d:4.0
%ENDBLOCK HUBBARD_U

SNAP_TO_SYMMETRY
SYMMETRY_GENERATE

