#              Generated by Buildcell
#
# at 12:13:12 (GMT+0.0) 24th November 2020
# in /lustre/scratch/uccabz1/launch_tmp
# on node-c12c-026
# by uccabz1
#
# compiler GCC version 4.9.2
# options -cpp -iprefix /lustre/shared/ucl/apps/gcc/4.9.2/bin/../lib/gcc/x86_64-unknown-linux-gnu/4.9.2/ -mtune=corei7 -march=x86-64 -g -Og
#
# seed   518905141    89720106  1983497943  -157522430 -2125473258  -151096311  -533793054  -947930498  1879929820  1754974950   894907246  1911115594
#
#      Author: C. J. Pickard (cjp20@cam.ac.uk)
#                Space group: C2
#

%BLOCK LATTICE_ABC
      5.14871      5.14871      6.97111
     78.12748     78.12748     63.15263
%ENDBLOCK LATTICE_ABC

%BLOCK POSITIONS_FRAC
  Li   0.0770298  -0.0770298   0.0000000 SPIN=   0.00000
  Li   1.0476601  -0.0476601  -0.5000000 SPIN=   0.00000
   O   0.9497910  -0.6385890  -0.1348019 SPIN=   0.00000
   O   0.8045902  -0.0783962  -0.2141448 SPIN=   0.00000
   O   0.8666784  -0.3503721  -0.4862649 SPIN=   0.00000
   O   0.4353001  -0.2654595  -0.2228210 SPIN=   0.00000
   P   0.7700975  -0.3486649  -0.2571100 SPIN=   0.00000
   O  -0.3614110   0.0502090   0.1348019 SPIN=   0.00000
   O  -0.9216038   0.1954098   0.2141448 SPIN=   0.00000
   O  -0.6496279   0.1333216   0.4862649 SPIN=   0.00000
   O  -0.7345405   0.5646999   0.2228210 SPIN=   0.00000
   P  -0.6513351   0.2299025   0.2571100 SPIN=   0.00000
  Fe  -0.5691865   0.3255003  -0.2236818 SPIN=   4.00000
  Fe   0.6744997  -0.4308135   0.2236818 SPIN=   4.00000
%ENDBLOCK POSITIONS_FRAC

# Note: total spin =   8.00

KPOINTS_MP_SPACING 0.07

%BLOCK SPECIES_POT
QC5
%ENDBLOCK SPECIES_POT

%BLOCK HUBBARD_U
Fe d:4.0
%ENDBLOCK HUBBARD_U

SNAP_TO_SYMMETRY
SYMMETRY_GENERATE

