#              Generated by Buildcell
#
# at 12:57:53 (GMT+0.0) 24th November 2020
# in /scratch/scratch/uccabz1/launch_tmp
# on node-a14a-027
# by uccabz1
#
# compiler GCC version 4.9.2
# options -cpp -iprefix /scratch/UCL/applications/gcc/4.9.2/bin/../lib/gcc/x86_64-unknown-linux-gnu/4.9.2/ -mtune=corei7 -march=x86-64 -g -O2
#
# seed  1505103817   219185028   873602286   226287406  1731668217 -1262400838   504963511  2074138929  1291922811 -1164528933   611448118   148999331
#
#      Author: C. J. Pickard (cjp20@cam.ac.uk)
#                Space group: P21
#

%BLOCK LATTICE_ABC
      4.75984      5.53727      6.44793
     90.00000     90.00000    109.69821
%ENDBLOCK LATTICE_ABC

%BLOCK POSITIONS_FRAC
  Li   0.1159152   0.0091782   0.1697982 SPIN=   0.00000
  Li  -0.1159152  -0.0091782  -0.3302018 SPIN=   0.00000
   O  -0.2871861  -0.2361854   0.4071043 SPIN=   0.00000
   O  -0.4238918   0.0690306   0.1509084 SPIN=   0.00000
   O  -0.3838189  -0.3349113   0.0144805 SPIN=   0.00000
   O  -0.8123152  -0.3495091   0.2453795 SPIN=   0.00000
   P  -0.4706663  -0.2157461   0.2157404 SPIN=   0.00000
   O   0.2871861   0.2361854  -0.0928957 SPIN=   0.00000
   O   0.4238918  -0.0690306  -0.3490916 SPIN=   0.00000
   O   0.3838189   0.3349113  -0.4855195 SPIN=   0.00000
   O   0.8123152   0.3495091  -0.2546205 SPIN=   0.00000
   P   0.4706663   0.2157461  -0.2842596 SPIN=   0.00000
  Fe   0.2330490  -0.3964217  -0.1671073 SPIN=   4.00000
  Fe  -0.2330490   0.3964217   0.3328927 SPIN=   4.00000
%ENDBLOCK POSITIONS_FRAC

# Note: total spin =   8.00

KPOINTS_MP_SPACING 0.07

%BLOCK SPECIES_POT
QC5
%ENDBLOCK SPECIES_POT

%BLOCK HUBBARD_U
Fe d:4.0
%ENDBLOCK HUBBARD_U

SNAP_TO_SYMMETRY
SYMMETRY_GENERATE

