#              Generated by Buildcell
#
# at 10:58:51 (GMT+0.0) 24th November 2020
# in /scratch/scratch/uccabz1/launch_tmp
# on node-a14c-025
# by uccabz1
#
# compiler GCC version 4.9.2
# options -cpp -iprefix /scratch/UCL/applications/gcc/4.9.2/bin/../lib/gcc/x86_64-unknown-linux-gnu/4.9.2/ -mtune=corei7 -march=x86-64 -g -O2
#
# seed   410147099 -1111802009  -939993539   610329522 -1352633633  1533303559 -1828704143   439523504  1639726928   -83742998   479233385  1729235877
#
#      Author: C. J. Pickard (cjp20@cam.ac.uk)
#                Space group: Pba2
#

%BLOCK LATTICE_ABC
      5.28812      5.50054      5.50063
     90.00000     90.00000     90.00000
%ENDBLOCK LATTICE_ABC

%BLOCK POSITIONS_FRAC
  Li   0.2030080  -0.0000000   0.0000000 SPIN=   0.00000
  Li   0.2030080   0.5000000  -0.5000000 SPIN=   0.00000
   O   0.5556641   0.1045532  -0.2327852 SPIN=   0.00000
   O   0.1631897  -0.1576323  -0.3422599 SPIN=   0.00000
   O   0.5556641  -0.1045532   0.2327852 SPIN=   0.00000
   O   0.1631897   0.1576323   0.3422599 SPIN=   0.00000
   O   0.5556641  -0.6045532   0.2672148 SPIN=   0.00000
   O   0.1631897  -0.3423677   0.1577401 SPIN=   0.00000
   O   0.5556641   0.6045532  -0.2672148 SPIN=   0.00000
   O   0.1631897   0.3423677  -0.1577401 SPIN=   0.00000
   P  -0.2982934   0.0000000  -0.0000000 SPIN=   0.00000
   P  -0.2982934  -0.5000000   0.5000000 SPIN=   0.00000
  Fe  -0.1602336  -0.5000000   0.0000000 SPIN=   4.00000
  Fe  -0.1602336   0.0000000  -0.5000000 SPIN=   4.00000
%ENDBLOCK POSITIONS_FRAC

# Note: total spin =   8.00

KPOINTS_MP_SPACING 0.07

%BLOCK SPECIES_POT
QC5
%ENDBLOCK SPECIES_POT

%BLOCK HUBBARD_U
Fe d:4.0
%ENDBLOCK HUBBARD_U

SNAP_TO_SYMMETRY
SYMMETRY_GENERATE

