#              Generated by Buildcell
#
# at 07:35:18 (GMT+0.0) 26th November 2020
# in /lustre/scratch/uccabz1/launch_tmp
# on node-c12j-020
# by uccabz1
#
# compiler GCC version 4.9.2
# options -cpp -iprefix /lustre/shared/ucl/apps/gcc/4.9.2/bin/../lib/gcc/x86_64-unknown-linux-gnu/4.9.2/ -mtune=corei7 -march=x86-64 -g -Og
#
# seed -1632593326  2122733051   139894614  -983479828   639478037 -1198526727 -1180224017   652502746 -1189849166  -422067036 -1490354507  1525352027
#
#      Author: C. J. Pickard (cjp20@cam.ac.uk)
#                Space group: P-1
#

%BLOCK LATTICE_ABC
      6.51645      7.29956      7.36242
     85.21166     71.74203     74.19182
%ENDBLOCK LATTICE_ABC

%BLOCK POSITIONS_FRAC
  Li  -0.2515265   0.0786122   0.0839905 SPIN=   0.00000
  Li   0.2515265  -0.0786122  -0.0839905 SPIN=   0.00000
  Li  -0.3992084  -0.3375903  -0.4000099 SPIN=   0.00000
  Li   0.3992084   0.3375903   0.4000099 SPIN=   0.00000
   O  -0.1748800   0.0020015  -0.5430021 SPIN=   0.00000
   O  -0.5864379   0.1327925  -0.3328117 SPIN=   0.00000
   O  -0.3517062  -0.1517923  -0.2212537 SPIN=   0.00000
   O  -0.2752013   0.1657689  -0.2174681 SPIN=   0.00000
   P  -0.3370409   0.0368363  -0.3387361 SPIN=   0.00000
   O   0.1748800  -0.0020015   0.5430021 SPIN=   0.00000
   O   0.5864379  -0.1327925   0.3328117 SPIN=   0.00000
   O   0.3517062   0.1517923   0.2212537 SPIN=   0.00000
   O   0.2752013  -0.1657689   0.2174681 SPIN=   0.00000
   P   0.3370409  -0.0368363   0.3387361 SPIN=   0.00000
   O  -0.2956682   0.4994528  -0.1591181 SPIN=   0.00000
   O   0.0187257   0.2180221  -0.0980220 SPIN=   0.00000
   O   0.0704976   0.3479559  -0.4252392 SPIN=   0.00000
   O   0.0883190   0.5412731  -0.1677710 SPIN=   0.00000
   P  -0.0423112   0.4085295  -0.2091649 SPIN=   0.00000
   O   0.2956682  -0.4994528   0.1591181 SPIN=   0.00000
   O  -0.0187257  -0.2180221   0.0980220 SPIN=   0.00000
   O  -0.0704976  -0.3479559   0.4252392 SPIN=   0.00000
   O  -0.0883190  -0.5412731   0.1677710 SPIN=   0.00000
   P   0.0423112  -0.4085295   0.2091649 SPIN=   0.00000
  Fe  -0.0734671   0.2554883   0.3930666 SPIN=   6.31616
  Fe   0.0734671  -0.2554883  -0.3930666 SPIN=   6.31616
  Fe  -0.3544323  -0.3423784   0.0937277 SPIN=   1.68384
  Fe   0.3544323   0.3423784  -0.0937277 SPIN=   1.68384
%ENDBLOCK POSITIONS_FRAC

# Note: total spin =  16.00

KPOINTS_MP_SPACING 0.07

%BLOCK SPECIES_POT
QC5
%ENDBLOCK SPECIES_POT

%BLOCK HUBBARD_U
Fe d:4.0
%ENDBLOCK HUBBARD_U

SNAP_TO_SYMMETRY
SYMMETRY_GENERATE

