#              Generated by Buildcell
#
# at 13:40:20 (GMT+0.0) 24th November 2020
# in /lustre/scratch/uccabz1/launch_tmp
# on node-c12c-035
# by uccabz1
#
# compiler GCC version 4.9.2
# options -cpp -iprefix /lustre/shared/ucl/apps/gcc/4.9.2/bin/../lib/gcc/x86_64-unknown-linux-gnu/4.9.2/ -mtune=corei7 -march=x86-64 -g -Og
#
# seed  1513613391 -1356937424   496798310  1682896168 -2031238670 -1501602788   -38833017  1817186146  -235389110   514515682  -492420540 -1373310069
#
#      Author: C. J. Pickard (cjp20@cam.ac.uk)
#                Space group: Aea2
#

%BLOCK LATTICE_ABC
      5.58864      5.63781      5.79617
     90.00000    118.82247     90.00000
%ENDBLOCK LATTICE_ABC

%BLOCK POSITIONS_FRAC
  Li   0.0648048   0.0000000   0.1296096 SPIN=   0.00000
  Li  -0.4351952   0.5000000  -0.8703904 SPIN=   0.00000
   O   0.1012833  -0.1528493   0.5201320 SPIN=   0.00000
   O  -0.3228254  -0.1605721   0.0537185 SPIN=   0.00000
   O   0.4188487   0.1528493   0.5201320 SPIN=   0.00000
   O   0.3765439   0.1605721   0.0537185 SPIN=   0.00000
   O  -0.0811513   0.3471507   0.5201320 SPIN=   0.00000
   O  -0.1234561   0.3394279   0.0537185 SPIN=   0.00000
   O   0.6012833  -0.3471507   0.5201320 SPIN=   0.00000
   O   0.1771746  -0.3394279   0.0537185 SPIN=   0.00000
   P  -0.1130023   0.5000000  -0.2260045 SPIN=   0.00000
   P   0.3869977   0.0000000   0.7739955 SPIN=   0.00000
  Fe  -0.2608837   0.0000000  -0.5217673 SPIN=   4.00000
  Fe   0.2391163   0.5000000   0.4782327 SPIN=   4.00000
%ENDBLOCK POSITIONS_FRAC

# Note: total spin =   8.00

KPOINTS_MP_SPACING 0.07

%BLOCK SPECIES_POT
QC5
%ENDBLOCK SPECIES_POT

%BLOCK HUBBARD_U
Fe d:4.0
%ENDBLOCK HUBBARD_U

SNAP_TO_SYMMETRY
SYMMETRY_GENERATE

