#              Generated by Buildcell
#
# at 07:26:34 (GMT+0.0) 26th November 2020
# in /lustre/scratch/uccabz1/launch_tmp
# on node-c12d-032
# by uccabz1
#
# compiler GCC version 4.9.2
# options -cpp -iprefix /lustre/shared/ucl/apps/gcc/4.9.2/bin/../lib/gcc/x86_64-unknown-linux-gnu/4.9.2/ -mtune=corei7 -march=x86-64 -g -Og
#
# seed  1916878140  1746283704   687813412  -933546734   -30317537  2036648821  -231344523  1730533924  1278220308   -38663014 -2057204039   805029905
#
#      Author: C. J. Pickard (cjp20@cam.ac.uk)
#                Space group: Pc
#

%BLOCK LATTICE_ABC
      4.77925      7.27180      9.26365
     90.00000     90.00000     96.30419
%ENDBLOCK LATTICE_ABC

%BLOCK POSITIONS_FRAC
  Li   0.1560690  -0.4824443  -0.0317792 SPIN=   0.00000
  Li   0.1560690   0.0175557   0.0317792 SPIN=   0.00000
  Li   0.2225539  -0.4858281  -0.3567300 SPIN=   0.00000
  Li   0.2225539   0.0141719   0.3567300 SPIN=   0.00000
   O  -0.5993994  -0.2179257   0.2773471 SPIN=   0.00000
   O  -0.2229413  -0.3420790   0.1121793 SPIN=   0.00000
   O  -0.6276467  -0.2161974  -0.0027216 SPIN=   0.00000
   O  -0.2582470  -0.0011964   0.1211530 SPIN=   0.00000
   P  -0.4342427  -0.1933255   0.1349264 SPIN=   0.00000
   O  -0.5993994   0.2820743  -0.2773471 SPIN=   0.00000
   O  -0.2229413   0.1579210  -0.1121793 SPIN=   0.00000
   O  -0.6276467   0.2838026   0.0027216 SPIN=   0.00000
   O  -0.2582470   0.4988036  -0.1211530 SPIN=   0.00000
   P  -0.4342427   0.3066745  -0.1349264 SPIN=   0.00000
   O   0.0044456   0.5470712   0.3275934 SPIN=   0.00000
   O   0.1001921   0.2269455   0.2258948 SPIN=   0.00000
   O   0.5025432   0.4359181   0.3184822 SPIN=   0.00000
   O   0.1457450   0.2853759   0.4917258 SPIN=   0.00000
   P   0.1779444   0.3820082   0.3419939 SPIN=   0.00000
   O   0.0044456   0.0470712  -0.3275934 SPIN=   0.00000
   O   0.1001921  -0.2730545  -0.2258948 SPIN=   0.00000
   O   0.5025432  -0.0640819  -0.3184822 SPIN=   0.00000
   O   0.1457450  -0.2146241  -0.4917258 SPIN=   0.00000
   P   0.1779444  -0.1179918  -0.3419939 SPIN=   0.00000
  Fe  -0.3081978  -0.2244957  -0.1661424 SPIN=   3.93533
  Fe  -0.3081978   0.2755043   0.1661424 SPIN=   3.93533
  Fe  -0.2986906  -0.3019254   0.4202739 SPIN=   4.06467
  Fe  -0.2986906   0.1980746  -0.4202739 SPIN=   4.06467
%ENDBLOCK POSITIONS_FRAC

# Note: total spin =  16.00

KPOINTS_MP_SPACING 0.07

%BLOCK SPECIES_POT
QC5
%ENDBLOCK SPECIES_POT

%BLOCK HUBBARD_U
Fe d:4.0
%ENDBLOCK HUBBARD_U

SNAP_TO_SYMMETRY
SYMMETRY_GENERATE

