#              Generated by Buildcell
#
# at 08:41:36 (GMT+0.0) 24th November 2020
# in /lustre/scratch/uccabz1/launch_tmp
# on node-c12a-028
# by uccabz1
#
# compiler GCC version 4.9.2
# options -cpp -iprefix /lustre/shared/ucl/apps/gcc/4.9.2/bin/../lib/gcc/x86_64-unknown-linux-gnu/4.9.2/ -mtune=corei7 -march=x86-64 -g -Og
#
# seed   385968261   187876224  1055126665 -2122614774  -491147402  -883289305 -1215530492  1557697049   138539901 -1075335805  1208565951   992863613
#
#      Author: C. J. Pickard (cjp20@cam.ac.uk)
#                Space group: P-1
#

%BLOCK LATTICE_ABC
      4.45451      6.17803      6.44790
    104.03042    101.22622    104.89138
%ENDBLOCK LATTICE_ABC

%BLOCK POSITIONS_FRAC
  Li   0.3306223  -0.0353580   0.1752987 SPIN=   0.00000
  Li  -0.3306223   0.0353580  -0.1752987 SPIN=   0.00000
   O  -0.2351064   0.2018174   0.1748557 SPIN=   0.00000
   O   0.1911076   0.6117439   0.2633844 SPIN=   0.00000
   O   0.3722204   0.2994327   0.3721010 SPIN=   0.00000
   P   0.1150209   0.3369030   0.1911583 SPIN=   0.00000
   O   0.2351064  -0.2018174  -0.1748557 SPIN=   0.00000
   O  -0.1911076  -0.6117439  -0.2633844 SPIN=   0.00000
   O  -0.3722204  -0.2994327  -0.3721010 SPIN=   0.00000
   P  -0.1150209  -0.3369030  -0.1911583 SPIN=   0.00000
   O   0.5000000  -0.5000000  -0.0000000 SPIN=   0.00000
   O   0.0000000   0.0000000  -0.5000000 SPIN=   0.00000
  Fe  -0.2387372  -0.3543299   0.3311409 SPIN=   4.00000
  Fe   0.2387372   0.3543299  -0.3311409 SPIN=   4.00000
%ENDBLOCK POSITIONS_FRAC

# Note: total spin =   8.00

KPOINTS_MP_SPACING 0.07

%BLOCK SPECIES_POT
QC5
%ENDBLOCK SPECIES_POT

%BLOCK HUBBARD_U
Fe d:4.0
%ENDBLOCK HUBBARD_U

SNAP_TO_SYMMETRY
SYMMETRY_GENERATE

