#              Generated by Buildcell
#
# at 10:47:43 (GMT+0.0) 24th November 2020
# in /scratch/scratch/uccabz1/launch_tmp
# on node-a14f-002
# by uccabz1
#
# compiler GCC version 4.9.2
# options -cpp -iprefix /scratch/UCL/applications/gcc/4.9.2/bin/../lib/gcc/x86_64-unknown-linux-gnu/4.9.2/ -mtune=corei7 -march=x86-64 -g -O2
#
# seed  1146386919 -1543786871  -642108002  1865608329 -2008908074   932541930 -1543525675  -975086273   553669165  -860276117 -1268188163  2037920344
#
#      Author: C. J. Pickard (cjp20@cam.ac.uk)
#                Space group: P-1
#

%BLOCK LATTICE_ABC
      4.02442      6.42225      6.52418
     89.74307     83.00135     73.03804
%ENDBLOCK LATTICE_ABC

%BLOCK POSITIONS_FRAC
  Li  -1.0000000  -0.0000000   0.5000000 SPIN=   0.00000
  Li   0.0000000  -0.0000000   0.0000000 SPIN=   0.00000
   O  -0.6743892   0.4369991   0.3848045 SPIN=   0.00000
   O  -0.4855939   0.0189055   0.3111973 SPIN=   0.00000
   O  -1.0722364   0.2359560   0.2372715 SPIN=   0.00000
   O  -0.5395722   0.2695188   0.0138473 SPIN=   0.00000
   P  -0.6901497   0.2511600   0.2420308 SPIN=   0.00000
   O   0.6743892  -0.4369991  -0.3848045 SPIN=   0.00000
   O   0.4855939  -0.0189055  -0.3111973 SPIN=   0.00000
   O   1.0722364  -0.2359560  -0.2372715 SPIN=   0.00000
   O   0.5395722  -0.2695188  -0.0138473 SPIN=   0.00000
   P   0.6901497  -0.2511600  -0.2420308 SPIN=   0.00000
  Fe   0.2828833   0.3668402  -0.2708764 SPIN=   4.00000
  Fe  -0.2828833  -0.3668402   0.2708764 SPIN=   4.00000
%ENDBLOCK POSITIONS_FRAC

# Note: total spin =   8.00

KPOINTS_MP_SPACING 0.07

%BLOCK SPECIES_POT
QC5
%ENDBLOCK SPECIES_POT

%BLOCK HUBBARD_U
Fe d:4.0
%ENDBLOCK HUBBARD_U

SNAP_TO_SYMMETRY
SYMMETRY_GENERATE

