#              Generated by Buildcell
#
# at 08:29:37 (GMT+0.0) 24th November 2020
# in /lustre/scratch/uccabz1/launch_tmp
# on node-c12k-031
# by uccabz1
#
# compiler GCC version 4.9.2
# options -cpp -iprefix /lustre/shared/ucl/apps/gcc/4.9.2/bin/../lib/gcc/x86_64-unknown-linux-gnu/4.9.2/ -mtune=corei7 -march=x86-64 -g -Og
#
# seed  2142126703  2098420269 -1833155115  -587960354  -557906927  -927048615  1795849972 -1527705818  -120007124  -392079607   441017747  1993112399
#
#      Author: C. J. Pickard (cjp20@cam.ac.uk)
#                Space group: I41
#

%BLOCK LATTICE_ABC
      5.39440      5.39440      6.69192
    113.76918    113.76918     90.00000
%ENDBLOCK LATTICE_ABC

%BLOCK POSITIONS_FRAC
  Li  -0.1801371   0.3198629  -0.3602742 SPIN=   0.00000
  Li  -0.4301371  -0.4301371   0.1397258 SPIN=   0.00000
   O  -0.5643297  -0.1385118   0.4219154 SPIN=   0.00000
   O  -0.2053606  -0.0284103   0.2873582 SPIN=   0.00000
   O  -0.0137549   0.5604272   0.4219154 SPIN=   0.00000
   O  -0.5072812   0.3157685   0.2873582 SPIN=   0.00000
   O  -0.1895728   0.1856703  -0.0780846 SPIN=   0.00000
   O  -0.4342315   0.5446394  -0.2126418 SPIN=   0.00000
   O   0.1114882   0.7362451  -0.0780846 SPIN=   0.00000
   O   0.2215897   0.2427188  -0.2126418 SPIN=   0.00000
   P  -0.1864846  -0.1864846  -0.3729691 SPIN=   0.00000
   P   0.0635154  -0.4364846   0.1270309 SPIN=   0.00000
  Fe   0.3976390  -0.1023610  -0.2047220 SPIN=   4.00000
  Fe   0.1476390   0.1476390   0.2952780 SPIN=   4.00000
%ENDBLOCK POSITIONS_FRAC

# Note: total spin =   8.00

KPOINTS_MP_SPACING 0.07

%BLOCK SPECIES_POT
QC5
%ENDBLOCK SPECIES_POT

%BLOCK HUBBARD_U
Fe d:4.0
%ENDBLOCK HUBBARD_U

SNAP_TO_SYMMETRY
SYMMETRY_GENERATE

