#              Generated by Buildcell
#
# at 12:20:09 (GMT+0.0) 24th November 2020
# in /lustre/scratch/uccabz1/launch_tmp
# on node-c12d-022
# by uccabz1
#
# compiler GCC version 4.9.2
# options -cpp -iprefix /lustre/shared/ucl/apps/gcc/4.9.2/bin/../lib/gcc/x86_64-unknown-linux-gnu/4.9.2/ -mtune=corei7 -march=x86-64 -g -Og
#
# seed -1451428068   409577683  -880969449  1594552518 -1844865456  -388851982  -810363755  -187510398   352891367  -570410028  -899097652   996942193
#
#      Author: C. J. Pickard (cjp20@cam.ac.uk)
#                Space group: C2/c
#

%BLOCK LATTICE_ABC
      5.55603      5.55603      5.91758
    105.28359    105.28359    104.16199
%ENDBLOCK LATTICE_ABC

%BLOCK POSITIONS_FRAC
  Li  -0.0228910   0.0228910  -0.2500000 SPIN=   0.00000
  Li   0.0228910  -0.0228910   0.2500000 SPIN=   0.00000
   O  -0.0357317  -0.2904751  -0.5509983 SPIN=   0.00000
   O   0.3997839   0.1150300  -0.3327017 SPIN=   0.00000
   O   0.2904751   0.0357317   0.0509983 SPIN=   0.00000
   O  -0.1150300  -0.3997839  -0.1672983 SPIN=   0.00000
   O   0.0357317   0.2904751   0.5509983 SPIN=   0.00000
   O  -0.3997839  -0.1150300   0.3327017 SPIN=   0.00000
   O  -0.2904751  -0.0357317  -0.0509983 SPIN=   0.00000
   O   0.1150300   0.3997839   0.1672983 SPIN=   0.00000
   P  -0.3261423   0.3261423  -0.2500000 SPIN=   0.00000
   P   0.3261423  -0.3261423   0.2500000 SPIN=   0.00000
  Fe   0.3516398  -0.3516398  -0.2500000 SPIN=   4.00000
  Fe  -0.3516398   0.3516398   0.2500000 SPIN=   4.00000
%ENDBLOCK POSITIONS_FRAC

# Note: total spin =   8.00

KPOINTS_MP_SPACING 0.07

%BLOCK SPECIES_POT
QC5
%ENDBLOCK SPECIES_POT

%BLOCK HUBBARD_U
Fe d:4.0
%ENDBLOCK HUBBARD_U

SNAP_TO_SYMMETRY
SYMMETRY_GENERATE

