#              Generated by Buildcell
#
# at 07:39:05 (GMT+0.0) 24th November 2020
# in /lustre/scratch/uccabz1/launch_tmp
# on node-c12g-020
# by uccabz1
#
# compiler GCC version 4.9.2
# options -cpp -iprefix /lustre/shared/ucl/apps/gcc/4.9.2/bin/../lib/gcc/x86_64-unknown-linux-gnu/4.9.2/ -mtune=corei7 -march=x86-64 -g -Og
#
# seed     6725747  -236203679  -140867197 -1740884840  -158200390  -599948380    53757661 -1290983219   382009803  1925115652  1736459580   447030125
#
#      Author: C. J. Pickard (cjp20@cam.ac.uk)
#                Space group: C2
#

%BLOCK LATTICE_ABC
      4.66295      4.66295      8.38709
     95.01124    105.27437    111.65652
%ENDBLOCK LATTICE_ABC

%BLOCK POSITIONS_FRAC
  Li  -0.4268298  -0.0453823  -0.0669477 SPIN=   0.00000
  Li   0.0215654  -0.3598821   0.0669477 SPIN=   0.00000
   O   0.0553697   0.5911276  -0.2317954 SPIN=   0.00000
   O  -0.5325772   0.2261979  -0.4232388 SPIN=   0.00000
   O  -0.4357846   0.3860598  -0.1185523 SPIN=   0.00000
   O  -0.4065359   0.7854204  -0.3018122 SPIN=   0.00000
   P  -0.3102739   0.5056038  -0.2672658 SPIN=   0.00000
   O   0.8229230   0.2871651   0.2317954 SPIN=   0.00000
   O   0.6494367  -0.1093384   0.4232388 SPIN=   0.00000
   O   0.5046121  -0.3172323   0.1185523 SPIN=   0.00000
   O   1.0872326  -0.1047237   0.3018122 SPIN=   0.00000
   P   0.7728696  -0.0430081   0.2672658 SPIN=   0.00000
  Fe   0.0179296   0.1167078  -0.3288887 SPIN=   4.00000
  Fe   0.4455965   0.3468183   0.3288887 SPIN=   4.00000
%ENDBLOCK POSITIONS_FRAC

# Note: total spin =   8.00

KPOINTS_MP_SPACING 0.07

%BLOCK SPECIES_POT
QC5
%ENDBLOCK SPECIES_POT

%BLOCK HUBBARD_U
Fe d:4.0
%ENDBLOCK HUBBARD_U

SNAP_TO_SYMMETRY
SYMMETRY_GENERATE

