#              Generated by Buildcell
#
# at 10:33:55 (GMT+0.0) 24th November 2020
# in /scratch/scratch/uccabz1/launch_tmp
# on node-a14c-023
# by uccabz1
#
# compiler GCC version 4.9.2
# options -cpp -iprefix /scratch/UCL/applications/gcc/4.9.2/bin/../lib/gcc/x86_64-unknown-linux-gnu/4.9.2/ -mtune=corei7 -march=x86-64 -g -O2
#
# seed -1670644768  -668774554  1765128884  -996107450 -1405764802  1246881106  -957157114   561295113   377778480   774997171  1476421255 -1427206865
#
#      Author: C. J. Pickard (cjp20@cam.ac.uk)
#                Space group: C2221
#

%BLOCK LATTICE_ABC
      4.68080      4.68080      7.30264
     90.00000     90.00000     90.00022
%ENDBLOCK LATTICE_ABC

%BLOCK POSITIONS_FRAC
  Li  -0.3062461  -0.3062461   0.2500000 SPIN=   0.00000
  Li   0.3062461   0.3062461  -0.2500000 SPIN=   0.00000
   O  -0.2458415   0.1897150   0.1925586 SPIN=   0.00000
   O  -0.6802478   0.0533241  -0.0109113 SPIN=   0.00000
   O   0.2458415  -0.1897150  -0.3074414 SPIN=   0.00000
   O   0.6802478  -0.0533241  -0.5109113 SPIN=   0.00000
   O   0.1897150  -0.2458415   0.3074414 SPIN=   0.00000
   O   0.0533241  -0.6802478   0.5109113 SPIN=   0.00000
   O  -0.1897150   0.2458415  -0.1925586 SPIN=   0.00000
   O  -0.0533241   0.6802478   0.0109113 SPIN=   0.00000
   P   0.2728975  -0.2728975   0.0000000 SPIN=   0.00000
   P  -0.2728975   0.2728975   0.5000000 SPIN=   0.00000
  Fe  -0.1937538  -0.1937538  -0.2500000 SPIN=   4.00000
  Fe   0.1937538   0.1937538   0.2500000 SPIN=   4.00000
%ENDBLOCK POSITIONS_FRAC

# Note: total spin =   8.00

KPOINTS_MP_SPACING 0.07

%BLOCK SPECIES_POT
QC5
%ENDBLOCK SPECIES_POT

%BLOCK HUBBARD_U
Fe d:4.0
%ENDBLOCK HUBBARD_U

SNAP_TO_SYMMETRY
SYMMETRY_GENERATE

