#              Generated by Buildcell
#
# at 08:00:19 (GMT+0.0) 24th November 2020
# in /lustre/scratch/uccabz1/launch_tmp
# on node-c12a-028
# by uccabz1
#
# compiler GCC version 4.9.2
# options -cpp -iprefix /lustre/shared/ucl/apps/gcc/4.9.2/bin/../lib/gcc/x86_64-unknown-linux-gnu/4.9.2/ -mtune=corei7 -march=x86-64 -g -Og
#
# seed    59500538  1710403570 -1204845676  -285351916  -134783981  1064906529 -1424527208   816910419  -672063779 -2110197049  1571627858   659117430
#
#      Author: C. J. Pickard (cjp20@cam.ac.uk)
#                Space group: P21212
#

%BLOCK LATTICE_ABC
      5.22529      5.36851      5.70368
     90.00000     90.00000     90.00000
%ENDBLOCK LATTICE_ABC

%BLOCK POSITIONS_FRAC
  Li  -0.0000000   0.0000000   0.4464297 SPIN=   0.00000
  Li   0.5000000   0.5000000  -0.4464297 SPIN=   0.00000
   O   0.3329127   0.2836192  -0.1662212 SPIN=   0.00000
   O   0.3526429   0.1796873  -0.6107326 SPIN=   0.00000
   O  -0.3329127  -0.2836192  -0.1662212 SPIN=   0.00000
   O  -0.3526429  -0.1796873  -0.6107326 SPIN=   0.00000
   O  -0.1670873   0.2163808   0.1662212 SPIN=   0.00000
   O  -0.1473571   0.3203127   0.6107326 SPIN=   0.00000
   O   0.1670873  -0.2163808   0.1662212 SPIN=   0.00000
   O   0.1473571  -0.3203127   0.6107326 SPIN=   0.00000
   P  -0.0000000   0.5000000   0.4077660 SPIN=   0.00000
   P   0.5000000   0.0000000  -0.4077660 SPIN=   0.00000
  Fe  -0.0000000   0.5000000  -0.0922152 SPIN=   4.00000
  Fe   0.5000000   0.0000000   0.0922152 SPIN=   4.00000
%ENDBLOCK POSITIONS_FRAC

# Note: total spin =   8.00

KPOINTS_MP_SPACING 0.07

%BLOCK SPECIES_POT
QC5
%ENDBLOCK SPECIES_POT

%BLOCK HUBBARD_U
Fe d:4.0
%ENDBLOCK HUBBARD_U

SNAP_TO_SYMMETRY
SYMMETRY_GENERATE

