#              Generated by Buildcell
#
# at 10:15:22 (GMT+0.0) 26th November 2020
# in /lustre/scratch/uccabz1/launch_tmp
# on node-c12k-022
# by uccabz1
#
# compiler GCC version 4.9.2
# options -cpp -iprefix /lustre/shared/ucl/apps/gcc/4.9.2/bin/../lib/gcc/x86_64-unknown-linux-gnu/4.9.2/ -mtune=corei7 -march=x86-64 -g -Og
#
# seed   709686020 -1079728449   517537094 -1409857071   999005316  -632155149  1943249976 -1998909499   -68742298 -1425308150  -199842916 -1080430703
#
#      Author: C. J. Pickard (cjp20@cam.ac.uk)
#                Space group: C2
#

%BLOCK LATTICE_ABC
      5.63004      7.28156      9.29386
    112.39405     90.00000    112.74283
%ENDBLOCK LATTICE_ABC

%BLOCK POSITIONS_FRAC
  Li  -0.4029165  -0.4831534  -0.4329662 SPIN=   0.00000
  Li   0.0802369   0.4831534   0.4329662 SPIN=   0.00000
  Li   0.2775982  -0.1689805  -0.2266513 SPIN=   0.00000
  Li   0.4465788   0.1689805   0.2266513 SPIN=   0.00000
   O   0.0330290   0.3430188   0.1235130 SPIN=   0.00000
   O  -0.3113585   0.4540850   0.0378660 SPIN=   0.00000
   O  -0.2536456   0.4908682   0.3124315 SPIN=   0.00000
   O   0.0977274   0.7454230   0.2267823 SPIN=   0.00000
   P  -0.0985885   0.5023435   0.1730082 SPIN=   0.00000
   O   0.6900103  -0.3430188  -0.1235130 SPIN=   0.00000
   O   0.2345565  -0.4540850  -0.0378660 SPIN=   0.00000
   O   0.2554862  -0.4908682  -0.3124315 SPIN=   0.00000
   O   0.3523044  -0.7454230  -0.2267823 SPIN=   0.00000
   P   0.3990681  -0.5023435  -0.1730082 SPIN=   0.00000
   O  -0.0829725  -0.1736824  -0.3090151 SPIN=   0.00000
   O  -0.5119326  -0.1938907  -0.4316160 SPIN=   0.00000
   O  -0.3265036   0.0570394  -0.1516635 SPIN=   0.00000
   O  -0.0978566   0.1441145  -0.3639030 SPIN=   0.00000
   P  -0.2438142  -0.0464456  -0.3143697 SPIN=   0.00000
   O   0.0907099   0.1736824   0.3090151 SPIN=   0.00000
   O  -0.3180420   0.1938907   0.4316160 SPIN=   0.00000
   O  -0.3835430  -0.0570394   0.1516635 SPIN=   0.00000
   O  -0.2419711  -0.1441145   0.3639030 SPIN=   0.00000
   P  -0.1973686   0.0464456   0.3143697 SPIN=   0.00000
  Fe  -0.1447252  -0.5923299  -0.1714320 SPIN=   3.21295
  Fe   0.4476047   0.5923299   0.1714320 SPIN=   3.21295
  Fe   0.1655402   1.0000000   0.5000000 SPIN=   6.94215
  Fe  -0.1147072   0.0000000  -0.0000000 SPIN=   2.63196
%ENDBLOCK POSITIONS_FRAC

# Note: total spin =  16.00

KPOINTS_MP_SPACING 0.07

%BLOCK SPECIES_POT
QC5
%ENDBLOCK SPECIES_POT

%BLOCK HUBBARD_U
Fe d:4.0
%ENDBLOCK HUBBARD_U

SNAP_TO_SYMMETRY
SYMMETRY_GENERATE

