#              Generated by Buildcell
#
# at 20:26:32 (GMT+0.0) 26th November 2020
# in /scratch/scratch/uccabz1/launch_tmp
# on node-k10b-011
# by uccabz1
#
# compiler GCC version 4.9.2
# options -cpp -iprefix /scratch/UCL/applications/gcc/4.9.2/bin/../lib/gcc/x86_64-unknown-linux-gnu/4.9.2/ -mtune=corei7 -march=x86-64 -g -O2
#
# seed -1479765392   318712787   376001399 -1310518847  1687849433 -1847349882  1773904461  1383394642   329700276   -12592257   929523711  1976346140
#
#      Author: C. J. Pickard (cjp20@cam.ac.uk)
#                Space group: Cc
#

%BLOCK LATTICE_ABC
      4.04424      6.03649     13.92161
     92.05438     90.00000    109.57148
%ENDBLOCK LATTICE_ABC

%BLOCK POSITIONS_FRAC
  Li  -0.2968602   0.1184699   0.2430201 SPIN=   0.00000
  Li  -0.0846699   0.1184699  -0.2569799 SPIN=   0.00000
  Li   0.2022267  -0.3818178   0.2185055 SPIN=   0.00000
  Li  -0.0840445  -0.3818178  -0.2814945 SPIN=   0.00000
   O   0.0983712   0.2493002   0.3494637 SPIN=   0.00000
   O  -0.1103815  -0.1934662   0.2963339 SPIN=   0.00000
   O   0.4750862  -0.0193050   0.3729378 SPIN=   0.00000
   O  -0.0631162  -0.0805606   0.4719529 SPIN=   0.00000
   P   0.0979789   0.0020314   0.3726080 SPIN=   0.00000
   O   0.6509290   0.2493002  -0.1505363 SPIN=   0.00000
   O   0.4169153  -0.1934662  -0.2036661 SPIN=   0.00000
   O   0.0056088  -0.0193050  -0.1270622 SPIN=   0.00000
   O   0.4825556  -0.0805606  -0.0280471 SPIN=   0.00000
   P   0.4040525   0.0020314  -0.1273920 SPIN=   0.00000
   O  -0.4153475   0.6943292   0.1056952 SPIN=   0.00000
   O  -0.6075997   0.2991547   0.0057618 SPIN=   0.00000
   O  -0.0485742   0.4138126   0.0972427 SPIN=   0.00000
   O  -0.6172630   0.2917332   0.1855030 SPIN=   0.00000
   P  -0.4241335   0.4375409   0.0999572 SPIN=   0.00000
   O   0.6096767   0.6943292  -0.3943048 SPIN=   0.00000
   O   0.4067544   0.2991547  -0.4942382 SPIN=   0.00000
   O  -0.0376132   0.4138126  -0.4027573 SPIN=   0.00000
   O   0.4089962   0.2917332  -0.3144970 SPIN=   0.00000
   P   0.3616745   0.4375409  -0.4000428 SPIN=   0.00000
  Fe   0.3695223  -0.4733156  -0.1010340 SPIN=   3.08891
  Fe  -0.3428379  -0.4733156   0.3989660 SPIN=   3.08891
  Fe   0.3831621  -0.0253963  -0.4417869 SPIN=   4.91109
  Fe   0.0914415  -0.0253963   0.0582131 SPIN=   4.91109
%ENDBLOCK POSITIONS_FRAC

# Note: total spin =  16.00

KPOINTS_MP_SPACING 0.07

%BLOCK SPECIES_POT
QC5
%ENDBLOCK SPECIES_POT

%BLOCK HUBBARD_U
Fe d:4.0
%ENDBLOCK HUBBARD_U

SNAP_TO_SYMMETRY
SYMMETRY_GENERATE

