#              Generated by Buildcell
#
# at 20:22:24 (GMT+0.0) 26th November 2020
# in /lustre/scratch/uccabz1/launch_tmp
# on node-c12m-034
# by uccabz1
#
# compiler GCC version 4.9.2
# options -cpp -iprefix /lustre/shared/ucl/apps/gcc/4.9.2/bin/../lib/gcc/x86_64-unknown-linux-gnu/4.9.2/ -mtune=corei7 -march=x86-64 -g -Og
#
# seed   448379165  1500323285 -1452911354  -546555521  -218650709  -700824903 -1138705694   -99064227 -1047397877 -1753726040  1911712151 -1252508811
#
#      Author: C. J. Pickard (cjp20@cam.ac.uk)
#                Space group: Cc
#

%BLOCK LATTICE_ABC
      6.42299      7.48412      7.61286
    103.86390    114.95155     90.00000
%ENDBLOCK LATTICE_ABC

%BLOCK POSITIONS_FRAC
  Li   0.4058601  -0.2695025   0.1040038 SPIN=   0.00000
  Li  -0.3018564   0.2304975   0.1040038 SPIN=   0.00000
  Li  -0.0081886  -0.2528449  -0.2757291 SPIN=   0.00000
  Li  -0.2675405   0.2471551  -0.2757291 SPIN=   0.00000
   O  -0.1630767  -0.1161684   0.3949573 SPIN=   0.00000
   O  -0.4961272   0.0672766   0.4228771 SPIN=   0.00000
   O  -0.5199610  -0.2660056   0.4071466 SPIN=   0.00000
   O  -0.2269794  -0.0418839   0.7166693 SPIN=   0.00000
   P  -0.3400317  -0.0900731   0.4833254 SPIN=   0.00000
   O  -0.4419659   0.3838316   0.3949573 SPIN=   0.00000
   O  -0.0809957   0.5672766   0.4228771 SPIN=   0.00000
   O  -0.0728924   0.2339944   0.4071466 SPIN=   0.00000
   O  -0.0563513   0.4581161   0.7166693 SPIN=   0.00000
   P  -0.1766430   0.4099269   0.4833254 SPIN=   0.00000
   O   0.2679702   0.2536867   0.0446222 SPIN=   0.00000
   O   0.1095990  -0.0765504   0.0163561 SPIN=   0.00000
   O   0.2189984  -0.0331307  -0.2464765 SPIN=   0.00000
   O   0.5276179  -0.0104604   0.0993345 SPIN=   0.00000
   P   0.2832599   0.0445988  -0.0165916 SPIN=   0.00000
   O  -0.2233480  -0.2463133   0.0446222 SPIN=   0.00000
   O  -0.0932430  -0.5765504   0.0163561 SPIN=   0.00000
   O  -0.4654749  -0.5331307  -0.2464765 SPIN=   0.00000
   O  -0.4282834  -0.5104604   0.0993345 SPIN=   0.00000
   P  -0.2998515  -0.4554012  -0.0165916 SPIN=   0.00000
  Fe  -0.4899446  -0.1641996  -0.2403097 SPIN=   3.19089
  Fe   0.2496349   0.3358004  -0.2403097 SPIN=   3.19089
  Fe   0.0575062  -0.0622004   0.2729404 SPIN=   4.80911
  Fe   0.2154342   0.4377996   0.2729404 SPIN=   4.80911
%ENDBLOCK POSITIONS_FRAC

# Note: total spin =  16.00

KPOINTS_MP_SPACING 0.07

%BLOCK SPECIES_POT
QC5
%ENDBLOCK SPECIES_POT

%BLOCK HUBBARD_U
Fe d:4.0
%ENDBLOCK HUBBARD_U

SNAP_TO_SYMMETRY
SYMMETRY_GENERATE

