#              Generated by Buildcell
#
# at 14:34:34 (GMT+0.0) 24th November 2020
# in /lustre/scratch/uccabz1/launch_tmp
# on node-c12c-034
# by uccabz1
#
# compiler GCC version 4.9.2
# options -cpp -iprefix /lustre/shared/ucl/apps/gcc/4.9.2/bin/../lib/gcc/x86_64-unknown-linux-gnu/4.9.2/ -mtune=corei7 -march=x86-64 -g -Og
#
# seed  -518787895 -1666483912   709377154 -1605449389   425014763  1361689278 -1533679525 -1603101487   544017461  -623239638   126623284  1712126977
#
#      Author: C. J. Pickard (cjp20@cam.ac.uk)
#                Space group: P-1
#

%BLOCK LATTICE_ABC
      5.33347      5.68513      5.96219
     68.18830     89.55756     73.54770
%ENDBLOCK LATTICE_ABC

%BLOCK POSITIONS_FRAC
  Li   0.0000000  -0.0000000  -0.0000000 SPIN=   0.00000
  Li   0.5000000   0.0000000  -0.5000000 SPIN=   0.00000
   O  -0.7003768   0.3978324  -0.6988995 SPIN=   0.00000
   O  -0.3010353   0.5829154  -0.7580917 SPIN=   0.00000
   O  -0.2926575   0.2041485  -0.3776802 SPIN=   0.00000
   O  -0.2461837   0.1350514  -0.7688523 SPIN=   0.00000
   O   0.7003768  -0.3978324   0.6988995 SPIN=   0.00000
   O   0.3010353  -0.5829154   0.7580917 SPIN=   0.00000
   O   0.2926575  -0.2041485   0.3776802 SPIN=   0.00000
   O   0.2461837  -0.1350514   0.7688523 SPIN=   0.00000
   P   0.0000000   0.0000000   0.5000000 SPIN=   0.00000
   P  -0.5000000   0.0000000  -0.0000000 SPIN=   0.00000
  Fe   0.5000000   0.5000000  -1.0000000 SPIN=   3.79517
  Fe  -0.0000000   0.5000000  -0.5000000 SPIN=   4.20483
%ENDBLOCK POSITIONS_FRAC

# Note: total spin =   8.00

KPOINTS_MP_SPACING 0.07

%BLOCK SPECIES_POT
QC5
%ENDBLOCK SPECIES_POT

%BLOCK HUBBARD_U
Fe d:4.0
%ENDBLOCK HUBBARD_U

SNAP_TO_SYMMETRY
SYMMETRY_GENERATE

