#              Generated by Buildcell
#
# at 20:50:05 (GMT+0.0) 26th November 2020
# in /lustre/scratch/uccabz1/launch_tmp
# on node-c12g-022
# by uccabz1
#
# compiler GCC version 4.9.2
# options -cpp -iprefix /lustre/shared/ucl/apps/gcc/4.9.2/bin/../lib/gcc/x86_64-unknown-linux-gnu/4.9.2/ -mtune=corei7 -march=x86-64 -g -Og
#
# seed    -7575391  1739591548  -674644161   726275232  -110161935  -780490775  1237515180  1729794918   -97280559   274312342  1431032642  -908411889
#
#      Author: C. J. Pickard (cjp20@cam.ac.uk)
#                Space group: P2
#

%BLOCK LATTICE_ABC
      4.18949      7.79974     10.48391
    110.91950     90.00000     90.00000
%ENDBLOCK LATTICE_ABC

%BLOCK POSITIONS_FRAC
  Li   0.3591670  -0.3305450  -0.1718576 SPIN=   0.00000
  Li   0.3591670   0.3305450   0.1718576 SPIN=   0.00000
  Li   0.3670438  -0.1701148   0.1715763 SPIN=   0.00000
  Li   0.3670438   0.1701148  -0.1715763 SPIN=   0.00000
   O  -0.0892952  -0.2714459  -0.4759751 SPIN=   0.00000
   O  -0.0690604  -0.0915309  -0.2143727 SPIN=   0.00000
   O   0.4293376  -0.2301197  -0.3322035 SPIN=   0.00000
   O   0.1949930   0.0417447  -0.3722308 SPIN=   0.00000
   P   0.1064628  -0.1428326  -0.3557503 SPIN=   0.00000
   O  -0.0892952   0.2714459   0.4759751 SPIN=   0.00000
   O  -0.0690604   0.0915309   0.2143727 SPIN=   0.00000
   O   0.4293376   0.2301197   0.3322035 SPIN=   0.00000
   O   0.1949930  -0.0417447   0.3722308 SPIN=   0.00000
   P   0.1064628   0.1428326   0.3557503 SPIN=   0.00000
   O  -0.2424340  -0.7404783  -0.2601326 SPIN=   0.00000
   O  -0.1333904  -0.3894957  -0.1622228 SPIN=   0.00000
   O   0.2624988  -0.5910261  -0.3199891 SPIN=   0.00000
   P  -0.1054430  -0.5743479  -0.2880352 SPIN=   0.00000
   O  -0.2424340   0.7404783   0.2601326 SPIN=   0.00000
   O  -0.1333904   0.3894957   0.1622228 SPIN=   0.00000
   O   0.2624988   0.5910261   0.3199891 SPIN=   0.00000
   P  -0.1054430   0.5743479   0.2880352 SPIN=   0.00000
   O   0.3670188   0.5000000  -0.0000000 SPIN=   0.00000
   O   0.3579018   0.0000000  -0.0000000 SPIN=   0.00000
  Fe  -0.1330276  -0.5000000   0.0000000 SPIN=   3.82819
  Fe  -0.3516825   0.0000000   0.5000000 SPIN=   4.17453
  Fe  -0.1419409   0.0000000   0.0000000 SPIN=   2.52906
  Fe  -0.4514651   0.5000000   0.5000000 SPIN=   5.46821
%ENDBLOCK POSITIONS_FRAC

# Note: total spin =  16.00

KPOINTS_MP_SPACING 0.07

%BLOCK SPECIES_POT
QC5
%ENDBLOCK SPECIES_POT

%BLOCK HUBBARD_U
Fe d:4.0
%ENDBLOCK HUBBARD_U

SNAP_TO_SYMMETRY
SYMMETRY_GENERATE

