#              Generated by Buildcell
#
# at 14:06:53 (GMT+0.0) 24th November 2020
# in /lustre/scratch/uccabz1/launch_tmp
# on node-c12e-029
# by uccabz1
#
# compiler GCC version 4.9.2
# options -cpp -iprefix /lustre/shared/ucl/apps/gcc/4.9.2/bin/../lib/gcc/x86_64-unknown-linux-gnu/4.9.2/ -mtune=corei7 -march=x86-64 -g -Og
#
# seed -1038813142 -1147545019 -2004139662  -294572176  2142246081  1925972709   777384321  -578259349 -1330945363 -1225001153 -1946832969  1468071668
#
#      Author: C. J. Pickard (cjp20@cam.ac.uk)
#                Space group: P2
#

%BLOCK LATTICE_ABC
      4.65847      5.43757      6.54457
    105.17264     90.00000     90.00000
%ENDBLOCK LATTICE_ABC

%BLOCK POSITIONS_FRAC
  Li  -0.3058029  -0.4108491  -0.2080622 SPIN=   0.00000
  Li  -0.3058029   0.4108491   0.2080622 SPIN=   0.00000
   O  -0.0414378   0.8575846   0.2635222 SPIN=   0.00000
   O   0.1424055   0.3919593   0.1947695 SPIN=   0.00000
   O   0.4725505   0.7175520   0.1275676 SPIN=   0.00000
   O   0.3413812   0.7267483   0.5005919 SPIN=   0.00000
   P   0.2156695   0.6838935   0.2738842 SPIN=   0.00000
   O  -0.0414378  -0.8575846  -0.2635222 SPIN=   0.00000
   O   0.1424055  -0.3919593  -0.1947695 SPIN=   0.00000
   O   0.4725505  -0.7175520  -0.1275676 SPIN=   0.00000
   O   0.3413812  -0.7267483  -0.5005919 SPIN=   0.00000
   P   0.2156695  -0.6838935  -0.2738842 SPIN=   0.00000
  Fe   0.1930151  -0.0000000  -0.0000000 SPIN=   2.21879
  Fe  -0.3415182   0.0000000   0.5000000 SPIN=   5.78121
%ENDBLOCK POSITIONS_FRAC

# Note: total spin =   8.00

KPOINTS_MP_SPACING 0.07

%BLOCK SPECIES_POT
QC5
%ENDBLOCK SPECIES_POT

%BLOCK HUBBARD_U
Fe d:4.0
%ENDBLOCK HUBBARD_U

SNAP_TO_SYMMETRY
SYMMETRY_GENERATE

