#              Generated by Buildcell
#
# at 23:35:27 (GMT+0.0) 26th November 2020
# in /lustre/scratch/uccabz1/launch_tmp
# on node-c12j-020
# by uccabz1
#
# compiler GCC version 4.9.2
# options -cpp -iprefix /lustre/shared/ucl/apps/gcc/4.9.2/bin/../lib/gcc/x86_64-unknown-linux-gnu/4.9.2/ -mtune=corei7 -march=x86-64 -g -Og
#
# seed   788539211 -1925970117  -429350517  1157033027   674219612  1136856141 -1344698136  -725514569    55100135  -398675938    11014854    25598548
#
#      Author: C. J. Pickard (cjp20@cam.ac.uk)
#                Space group: Pmc21
#

%BLOCK LATTICE_ABC
      3.89997      8.86274      9.25808
     90.00000     90.00000     90.00000
%ENDBLOCK LATTICE_ABC

%BLOCK POSITIONS_FRAC
  Li  -0.1106295   0.0740887   0.5000000 SPIN=   0.00000
  Li   0.1106295  -0.4259113   0.5000000 SPIN=   0.00000
  Li  -0.0787255  -0.0790597   0.0000000 SPIN=   0.00000
  Li   0.0787255   0.4209403   0.0000000 SPIN=   0.00000
   O  -0.0895756  -0.2420392  -0.3666818 SPIN=   0.00000
   O  -0.2165950  -0.0074118  -0.2071834 SPIN=   0.00000
   O   0.2852546  -0.1652212  -0.1466538 SPIN=   0.00000
   O   0.2968030  -0.0053590  -0.3696557 SPIN=   0.00000
   P   0.0632185  -0.1111281  -0.2787021 SPIN=   0.00000
   O   0.0895756   0.2579608   0.3666818 SPIN=   0.00000
   O   0.2165950   0.4925882   0.2071834 SPIN=   0.00000
   O  -0.2852546   0.3347788   0.1466538 SPIN=   0.00000
   O  -0.2968030   0.4946410   0.3696557 SPIN=   0.00000
   P  -0.0632185   0.3888719   0.2787021 SPIN=   0.00000
   O   0.0895756   0.2579608  -0.3666818 SPIN=   0.00000
   O   0.2165950   0.4925882  -0.2071834 SPIN=   0.00000
   O  -0.2852546   0.3347788  -0.1466538 SPIN=   0.00000
   O  -0.2968030   0.4946410  -0.3696557 SPIN=   0.00000
   P  -0.0632185   0.3888719  -0.2787021 SPIN=   0.00000
   O  -0.0895756  -0.2420392   0.3666818 SPIN=   0.00000
   O  -0.2165950  -0.0074118   0.2071834 SPIN=   0.00000
   O   0.2852546  -0.1652212   0.1466538 SPIN=   0.00000
   O   0.2968030  -0.0053590   0.3696557 SPIN=   0.00000
   P   0.0632185  -0.1111281   0.2787021 SPIN=   0.00000
  Fe   0.4065565   0.1576228   0.2109375 SPIN=   4.00000
  Fe  -0.4065565  -0.3423772  -0.2109375 SPIN=   4.00000
  Fe  -0.4065565  -0.3423772   0.2109375 SPIN=   4.00000
  Fe   0.4065565   0.1576228  -0.2109375 SPIN=   4.00000
%ENDBLOCK POSITIONS_FRAC

# Note: total spin =  16.00

KPOINTS_MP_SPACING 0.07

%BLOCK SPECIES_POT
QC5
%ENDBLOCK SPECIES_POT

%BLOCK HUBBARD_U
Fe d:4.0
%ENDBLOCK HUBBARD_U

SNAP_TO_SYMMETRY
SYMMETRY_GENERATE

