#              Generated by Buildcell
#
# at 14:18:17 (GMT+0.0) 24th November 2020
# in /scratch/scratch/uccabz1/launch_tmp
# on node-a14c-005
# by uccabz1
#
# compiler GCC version 4.9.2
# options -cpp -iprefix /scratch/UCL/applications/gcc/4.9.2/bin/../lib/gcc/x86_64-unknown-linux-gnu/4.9.2/ -mtune=corei7 -march=x86-64 -g -O2
#
# seed  -450938392     7022902  1509624341 -1378631044  1110398628  -770772403 -1710353155 -1222029543  1318178911  -396275661  1560550489  1502734825
#
#      Author: C. J. Pickard (cjp20@cam.ac.uk)
#                Space group: P4
#

%BLOCK LATTICE_ABC
      5.37507      5.45592      5.45592
     90.00000     90.00000     90.00000
%ENDBLOCK LATTICE_ABC

%BLOCK POSITIONS_FRAC
  Li   0.4928669   0.0000000  -0.5000000 SPIN=   0.00000
  Li   0.4928669   0.5000000   0.0000000 SPIN=   0.00000
   O  -0.6683488   0.2552479  -0.2566002 SPIN=   0.00000
   O  -0.2013584   0.2890662  -0.1384860 SPIN=   0.00000
   O  -0.6683488  -0.2552479   0.2566002 SPIN=   0.00000
   O  -0.2013584  -0.2890662   0.1384860 SPIN=   0.00000
   O  -0.6683488   0.2566002   0.2552479 SPIN=   0.00000
   O  -0.2013584   0.1384860   0.2890662 SPIN=   0.00000
   O  -0.6683488  -0.2566002  -0.2552479 SPIN=   0.00000
   O  -0.2013584  -0.1384860  -0.2890662 SPIN=   0.00000
   P  -0.0071606  -0.0000000   0.5000000 SPIN=   0.00000
   P  -0.0071606  -0.5000000  -0.0000000 SPIN=   0.00000
  Fe  -0.1620647  -0.5000000   0.5000000 SPIN=   5.07769
  Fe   0.1477502   0.0000000   0.0000000 SPIN=   2.92231
%ENDBLOCK POSITIONS_FRAC

# Note: total spin =   8.00

KPOINTS_MP_SPACING 0.07

%BLOCK SPECIES_POT
QC5
%ENDBLOCK SPECIES_POT

%BLOCK HUBBARD_U
Fe d:4.0
%ENDBLOCK HUBBARD_U

SNAP_TO_SYMMETRY
SYMMETRY_GENERATE

