#              Generated by Buildcell
#
# at 14:44:33 (GMT+0.0) 24th November 2020
# in /scratch/scratch/uccabz1/launch_tmp
# on node-a14f-017
# by uccabz1
#
# compiler GCC version 4.9.2
# options -cpp -iprefix /scratch/UCL/applications/gcc/4.9.2/bin/../lib/gcc/x86_64-unknown-linux-gnu/4.9.2/ -mtune=corei7 -march=x86-64 -g -O2
#
# seed -1530309934  -395420093 -1769585799   343406518   718538604  -732619681 -1563858476  1398050136   797307158    67029476  -425311465  -968141531
#
#      Author: C. J. Pickard (cjp20@cam.ac.uk)
#                Space group: P2/c
#

%BLOCK LATTICE_ABC
      4.11362      5.18402      7.90165
    108.27975     90.00000     90.00000
%ENDBLOCK LATTICE_ABC

%BLOCK POSITIONS_FRAC
  Li   0.0042197   0.2500000   0.2500000 SPIN=   0.00000
  Li  -0.0042197  -0.2500000  -0.2500000 SPIN=   0.00000
   O  -0.3297330   0.1283800   0.4127402 SPIN=   0.00000
   O  -0.2068637  -0.1056976   0.0769007 SPIN=   0.00000
   O  -0.3297330   0.3716200   0.0872598 SPIN=   0.00000
   O  -0.2068637   0.6056976   0.4230993 SPIN=   0.00000
   O   0.3297330  -0.1283800  -0.4127402 SPIN=   0.00000
   O   0.2068637   0.1056976  -0.0769007 SPIN=   0.00000
   O   0.3297330  -0.3716200  -0.0872598 SPIN=   0.00000
   O   0.2068637  -0.6056976  -0.4230993 SPIN=   0.00000
   P  -0.0000000  -0.5000000   0.0000000 SPIN=   0.00000
   P  -0.0000000   0.0000000  -0.5000000 SPIN=   0.00000
  Fe   0.4990802   0.2500000  -0.2500000 SPIN=   4.00000
  Fe  -0.4990802  -0.2500000   0.2500000 SPIN=   4.00000
%ENDBLOCK POSITIONS_FRAC

# Note: total spin =   8.00

KPOINTS_MP_SPACING 0.07

%BLOCK SPECIES_POT
QC5
%ENDBLOCK SPECIES_POT

%BLOCK HUBBARD_U
Fe d:4.0
%ENDBLOCK HUBBARD_U

SNAP_TO_SYMMETRY
SYMMETRY_GENERATE

