#              Generated by Buildcell
#
# at 13:21:14 (GMT+0.0) 24th November 2020
# in /scratch/scratch/uccabz1/launch_tmp
# on node-a14f-014
# by uccabz1
#
# compiler GCC version 4.9.2
# options -cpp -iprefix /scratch/UCL/applications/gcc/4.9.2/bin/../lib/gcc/x86_64-unknown-linux-gnu/4.9.2/ -mtune=corei7 -march=x86-64 -g -O2
#
# seed  2038871348   240087931  1880609580 -2082253341  1471268408  -204596265  -269095442 -1545269639  1859782312  -538556271  -694795268  -571749799
#
#      Author: C. J. Pickard (cjp20@cam.ac.uk)
#                Space group: P-1
#

%BLOCK LATTICE_ABC
      4.38418      5.09171      7.82277
     71.10826     81.37725     76.28438
%ENDBLOCK LATTICE_ABC

%BLOCK POSITIONS_FRAC
  Li   0.4085741  -0.4932132   0.3191354 SPIN=   0.00000
  Li  -0.4085741   0.4932132  -0.3191354 SPIN=   0.00000
   O  -0.3770731   0.2989447   0.1233026 SPIN=   0.00000
   O  -0.7635342  -0.0478278   0.2490084 SPIN=   0.00000
   O  -0.1996100  -0.2471703   0.1941519 SPIN=   0.00000
   P  -0.4255587   0.0072083   0.2496587 SPIN=   0.00000
   O   0.3770731  -0.2989447  -0.1233026 SPIN=   0.00000
   O   0.7635342   0.0478278  -0.2490084 SPIN=   0.00000
   O   0.1996100   0.2471703  -0.1941519 SPIN=   0.00000
   P   0.4255587  -0.0072083  -0.2496587 SPIN=   0.00000
   O  -0.5000000   0.0000000   0.5000000 SPIN=   0.00000
   O  -0.0000000   0.5000000  -0.5000000 SPIN=   0.00000
  Fe   0.0000000  -0.0000000   0.5000000 SPIN=   6.64127
  Fe  -0.0000000   0.5000000   0.0000000 SPIN=   1.35873
%ENDBLOCK POSITIONS_FRAC

# Note: total spin =   8.00

KPOINTS_MP_SPACING 0.07

%BLOCK SPECIES_POT
QC5
%ENDBLOCK SPECIES_POT

%BLOCK HUBBARD_U
Fe d:4.0
%ENDBLOCK HUBBARD_U

SNAP_TO_SYMMETRY
SYMMETRY_GENERATE

