#              Generated by Buildcell
#
# at 20:19:09 (GMT+0.0) 26th November 2020
# in /lustre/scratch/uccabz1/launch_tmp
# on node-c12i-035
# by uccabz1
#
# compiler GCC version 4.9.2
# options -cpp -iprefix /lustre/shared/ucl/apps/gcc/4.9.2/bin/../lib/gcc/x86_64-unknown-linux-gnu/4.9.2/ -mtune=corei7 -march=x86-64 -g -Og
#
# seed  -691174741 -1874378771    21024439   233711978  -152690683  2091038445 -1622823406   459583056  -969108210  1166674901  -264477165 -1574984993
#
#      Author: C. J. Pickard (cjp20@cam.ac.uk)
#                Space group: P-1
#

%BLOCK LATTICE_ABC
      5.42775      7.44288      8.82503
    112.50717    100.72536     93.66238
%ENDBLOCK LATTICE_ABC

%BLOCK POSITIONS_FRAC
  Li  -0.2967699  -0.4173150   0.4398100 SPIN=   0.00000
  Li   0.2967699   0.4173150  -0.4398100 SPIN=   0.00000
  Li   0.4303895  -0.2778979   0.1886592 SPIN=   0.00000
  Li  -0.4303895   0.2778979  -0.1886592 SPIN=   0.00000
   O  -0.4591876  -0.3045854  -0.0329306 SPIN=   0.00000
   O  -0.3299242  -0.3438842  -0.3117473 SPIN=   0.00000
   O  -0.7717735  -0.2994975  -0.2923449 SPIN=   0.00000
   O  -0.4222639  -0.0166229  -0.1263030 SPIN=   0.00000
   P  -0.4929708  -0.2418756  -0.1816625 SPIN=   0.00000
   O   0.4591876   0.3045854   0.0329306 SPIN=   0.00000
   O   0.3299242   0.3438842   0.3117473 SPIN=   0.00000
   O   0.7717735   0.2994975   0.2923449 SPIN=   0.00000
   O   0.4222639   0.0166229   0.1263030 SPIN=   0.00000
   P   0.4929708   0.2418756   0.1816625 SPIN=   0.00000
   O   0.2018194   0.1411341  -0.3332639 SPIN=   0.00000
   O   0.0569985  -0.0031669  -0.1331787 SPIN=   0.00000
   O  -0.0334870   0.3285412  -0.1023401 SPIN=   0.00000
   O  -0.2703603   0.0341623  -0.3556718 SPIN=   0.00000
   P  -0.0029697   0.1249438  -0.2380226 SPIN=   0.00000
   O  -0.2018194  -0.1411341   0.3332639 SPIN=   0.00000
   O  -0.0569985   0.0031669   0.1331787 SPIN=   0.00000
   O   0.0334870  -0.3285412   0.1023401 SPIN=   0.00000
   O   0.2703603  -0.0341623   0.3556718 SPIN=   0.00000
   P   0.0029697  -0.1249438   0.2380226 SPIN=   0.00000
  Fe   0.0059248   0.3587449   0.1480153 SPIN=   3.69590
  Fe  -0.0059248  -0.3587449  -0.1480153 SPIN=   3.69590
  Fe   0.2542315  -0.1527510  -0.4512463 SPIN=   4.30410
  Fe  -0.2542315   0.1527510   0.4512463 SPIN=   4.30410
%ENDBLOCK POSITIONS_FRAC

# Note: total spin =  16.00

KPOINTS_MP_SPACING 0.07

%BLOCK SPECIES_POT
QC5
%ENDBLOCK SPECIES_POT

%BLOCK HUBBARD_U
Fe d:4.0
%ENDBLOCK HUBBARD_U

SNAP_TO_SYMMETRY
SYMMETRY_GENERATE

