#              Generated by Buildcell
#
# at 20:13:56 (GMT+0.0) 26th November 2020
# in /lustre/scratch/uccabz1/launch_tmp
# on node-c12g-023
# by uccabz1
#
# compiler GCC version 4.9.2
# options -cpp -iprefix /lustre/shared/ucl/apps/gcc/4.9.2/bin/../lib/gcc/x86_64-unknown-linux-gnu/4.9.2/ -mtune=corei7 -march=x86-64 -g -Og
#
# seed -1823766955  -929070404   398186882  1670868013  1402259836 -1191405576  1088844243    86154562   417598570 -1333019823   596604771  -790841157
#
#      Author: C. J. Pickard (cjp20@cam.ac.uk)
#                Space group: P-4
#

%BLOCK LATTICE_ABC
      6.16648      6.16648      8.41541
     90.00000     90.00000     90.00000
%ENDBLOCK LATTICE_ABC

%BLOCK POSITIONS_FRAC
  Li  -0.1954763   0.3581233   0.4678026 SPIN=   0.00000
  Li   0.1954763  -0.3581233   0.4678026 SPIN=   0.00000
  Li   0.3581233   0.1954763  -0.4678026 SPIN=   0.00000
  Li  -0.3581233  -0.1954763  -0.4678026 SPIN=   0.00000
   O   0.4498775   0.2842645  -0.0904477 SPIN=   0.00000
   O   0.1963384   0.4888059  -0.2862364 SPIN=   0.00000
   O   0.1769938   0.0889181  -0.2771016 SPIN=   0.00000
   O   0.0356194   0.3061114  -0.0479710 SPIN=   0.00000
   P   0.2251155   0.2917780  -0.1694096 SPIN=   0.00000
   O  -0.4498775  -0.2842645  -0.0904477 SPIN=   0.00000
   O  -0.1963384  -0.4888059  -0.2862364 SPIN=   0.00000
   O  -0.1769938  -0.0889181  -0.2771016 SPIN=   0.00000
   O  -0.0356194  -0.3061114  -0.0479710 SPIN=   0.00000
   P  -0.2251155  -0.2917780  -0.1694096 SPIN=   0.00000
   O   0.2842645  -0.4498775   0.0904477 SPIN=   0.00000
   O   0.4888059  -0.1963384   0.2862364 SPIN=   0.00000
   O   0.0889181  -0.1769938   0.2771016 SPIN=   0.00000
   O   0.3061114  -0.0356194   0.0479710 SPIN=   0.00000
   P   0.2917780  -0.2251155   0.1694096 SPIN=   0.00000
   O  -0.2842645   0.4498775   0.0904477 SPIN=   0.00000
   O  -0.4888059   0.1963384   0.2862364 SPIN=   0.00000
   O  -0.0889181   0.1769938   0.2771016 SPIN=   0.00000
   O  -0.3061114   0.0356194   0.0479710 SPIN=   0.00000
   P  -0.2917780   0.2251155   0.1694096 SPIN=   0.00000
  Fe   0.2039846   0.2415023   0.1655738 SPIN=   4.00000
  Fe  -0.2039846  -0.2415023   0.1655738 SPIN=   4.00000
  Fe   0.2415023  -0.2039846  -0.1655738 SPIN=   4.00000
  Fe  -0.2415023   0.2039846  -0.1655738 SPIN=   4.00000
%ENDBLOCK POSITIONS_FRAC

# Note: total spin =  16.00

KPOINTS_MP_SPACING 0.07

%BLOCK SPECIES_POT
QC5
%ENDBLOCK SPECIES_POT

%BLOCK HUBBARD_U
Fe d:4.0
%ENDBLOCK HUBBARD_U

SNAP_TO_SYMMETRY
SYMMETRY_GENERATE

