#              Generated by Buildcell
#
# at 11:00:52 (GMT+0.0) 26th November 2020
# in /scratch/scratch/uccabz1/launch_tmp
# on node-k10g-006
# by uccabz1
#
# compiler GCC version 4.9.2
# options -cpp -iprefix /scratch/UCL/applications/gcc/4.9.2/bin/../lib/gcc/x86_64-unknown-linux-gnu/4.9.2/ -mtune=corei7 -march=x86-64 -g -O2
#
# seed  2071446828 -1305880301  -259123143 -1307640373  -396146567  1104372056   715431668 -1092471568  -375775069  -892656859   459774419  1730856639
#
#      Author: C. J. Pickard (cjp20@cam.ac.uk)
#                Space group: Cc
#

%BLOCK LATTICE_ABC
      5.76960      7.61591      7.61591
    105.76663     93.90554     93.90554
%ENDBLOCK LATTICE_ABC

%BLOCK POSITIONS_FRAC
  Li   0.1223187   0.3887906  -0.3843319 SPIN=   0.00000
  Li  -0.3776813  -0.3843319   0.3887906 SPIN=   0.00000
  Li   0.2841440  -0.0704992   0.3871493 SPIN=   0.00000
  Li  -0.2158560   0.3871493  -0.0704992 SPIN=   0.00000
   O  -0.5088669   0.3039212  -0.6014985 SPIN=   0.00000
   O  -0.1775537   0.5383476  -0.4068453 SPIN=   0.00000
   O  -0.4988283   0.4371022  -0.2484625 SPIN=   0.00000
   O  -0.2089872   0.2178255  -0.3783428 SPIN=   0.00000
   P  -0.3554475   0.3687053  -0.4186889 SPIN=   0.00000
   O  -0.0088669  -0.6014985   0.3039212 SPIN=   0.00000
   O   0.3224463  -0.4068453   0.5383476 SPIN=   0.00000
   O   0.0011717  -0.2484625   0.4371022 SPIN=   0.00000
   O   0.2910128  -0.3783428   0.2178255 SPIN=   0.00000
   P   0.1445525  -0.4186889   0.3687053 SPIN=   0.00000
   O  -0.2757239  -0.2982588   0.1630009 SPIN=   0.00000
   O   0.0078350  -0.3919735  -0.0903620 SPIN=   0.00000
   O  -0.3374271  -0.2376212  -0.1558256 SPIN=   0.00000
   O  -0.0099316  -0.0594095   0.0679507 SPIN=   0.00000
   P  -0.1586051  -0.2473433   0.0059196 SPIN=   0.00000
   O   0.2242761   0.1630009  -0.2982588 SPIN=   0.00000
   O   0.5078350  -0.0903620  -0.3919735 SPIN=   0.00000
   O   0.1625729  -0.1558256  -0.2376212 SPIN=   0.00000
   O   0.4900684   0.0679507  -0.0594095 SPIN=   0.00000
   P   0.3413949   0.0059196  -0.2473433 SPIN=   0.00000
  Fe  -0.1567832  -0.0465160  -0.2597363 SPIN=   4.41394
  Fe   0.3432168  -0.2597363  -0.0465160 SPIN=   4.41394
  Fe  -0.2079129   0.0847518   0.2905241 SPIN=   3.58606
  Fe   0.2920871   0.2905241   0.0847518 SPIN=   3.58606
%ENDBLOCK POSITIONS_FRAC

# Note: total spin =  16.00

KPOINTS_MP_SPACING 0.07

%BLOCK SPECIES_POT
QC5
%ENDBLOCK SPECIES_POT

%BLOCK HUBBARD_U
Fe d:4.0
%ENDBLOCK HUBBARD_U

SNAP_TO_SYMMETRY
SYMMETRY_GENERATE

