#              Generated by Buildcell
#
# at 16:05:38 (GMT+0.0) 26th November 2020
# in /scratch/scratch/uccabz1/launch_tmp
# on node-k10e-010
# by uccabz1
#
# compiler GCC version 4.9.2
# options -cpp -iprefix /scratch/UCL/applications/gcc/4.9.2/bin/../lib/gcc/x86_64-unknown-linux-gnu/4.9.2/ -mtune=corei7 -march=x86-64 -g -O2
#
# seed -1346589454   779650615  -775139955 -1264194104   -34301807  1245744469   432642902 -2000387604  2015687511 -1358686326 -1634518315  1224199002
#
#      Author: C. J. Pickard (cjp20@cam.ac.uk)
#                Space group: Cc
#

%BLOCK LATTICE_ABC
      5.79283      5.79283     10.52141
     81.64519     81.64519     66.98825
%ENDBLOCK LATTICE_ABC

%BLOCK POSITIONS_FRAC
  Li   0.4662310  -0.1422863   0.2059162 SPIN=   0.00000
  Li   0.3577137  -0.0337690  -0.2940838 SPIN=   0.00000
  Li  -0.0256879  -0.0226351   0.4053192 SPIN=   0.00000
  Li   0.4773649   0.4743121  -0.0946808 SPIN=   0.00000
   O   0.0237669   0.3652652  -0.2763724 SPIN=   0.00000
   O   0.1337483   0.6473150  -0.4715194 SPIN=   0.00000
   O   0.2914030   0.6295944  -0.2630122 SPIN=   0.00000
   O   0.4754533   0.2530547  -0.3892838 SPIN=   0.00000
   P   0.2229375   0.4654229  -0.3465872 SPIN=   0.00000
   O  -0.1347348  -0.4762331   0.2236276 SPIN=   0.00000
   O   0.1473150  -0.3662517   0.0284806 SPIN=   0.00000
   O   0.1295944  -0.2085970   0.2369878 SPIN=   0.00000
   O  -0.2469453  -0.0245467   0.1107162 SPIN=   0.00000
   P  -0.0345771  -0.2770625   0.1534128 SPIN=   0.00000
   O  -0.3804709   0.0447691   0.3456279 SPIN=   0.00000
   O  -0.3275899  -0.1970021   0.5744370 SPIN=   0.00000
   O  -0.7577062   0.0238075   0.5072714 SPIN=   0.00000
   O  -0.4659956  -0.3649988   0.4055996 SPIN=   0.00000
   P  -0.4772846  -0.1172559   0.4516171 SPIN=   0.00000
   O   0.5447691   0.1195291  -0.1543721 SPIN=   0.00000
   O   0.3029979   0.1724101   0.0744370 SPIN=   0.00000
   O   0.5238075  -0.2577062   0.0072714 SPIN=   0.00000
   O   0.1350012   0.0340044  -0.0944004 SPIN=   0.00000
   P   0.3827441   0.0227154  -0.0483829 SPIN=   0.00000
  Fe  -0.2584013   0.4167964  -0.3939490 SPIN=   6.86892
  Fe  -0.0832036   0.2415987   0.1060510 SPIN=   6.86892
  Fe   0.2962781   0.3898129   0.3398219 SPIN=   1.13108
  Fe  -0.1101871  -0.2037219  -0.1601781 SPIN=   1.13108
%ENDBLOCK POSITIONS_FRAC

# Note: total spin =  16.00

KPOINTS_MP_SPACING 0.07

%BLOCK SPECIES_POT
QC5
%ENDBLOCK SPECIES_POT

%BLOCK HUBBARD_U
Fe d:4.0
%ENDBLOCK HUBBARD_U

SNAP_TO_SYMMETRY
SYMMETRY_GENERATE

