#              Generated by Buildcell
#
# at 17:48:12 (GMT+0.0) 26th November 2020
# in /scratch/scratch/uccabz1/launch_tmp
# on node-a14b-028
# by uccabz1
#
# compiler GCC version 4.9.2
# options -cpp -iprefix /scratch/UCL/applications/gcc/4.9.2/bin/../lib/gcc/x86_64-unknown-linux-gnu/4.9.2/ -mtune=corei7 -march=x86-64 -g -O2
#
# seed  1815747154  -870910811   940170159  1898294088    56689748  -502206663    17673122  2060140264  -132072007  2042290973 -1392595566   556378301
#
#      Author: C. J. Pickard (cjp20@cam.ac.uk)
#                Space group: Cc
#

%BLOCK LATTICE_ABC
      5.78816      5.78816      9.63789
     84.57326     84.57326     89.90401
%ENDBLOCK LATTICE_ABC

%BLOCK POSITIONS_FRAC
  Li   0.2295684  -0.4235119   0.1689227 SPIN=   0.00000
  Li  -0.4235119   0.2295684  -0.3310773 SPIN=   0.00000
  Li  -0.3698420   0.4606108   0.3695124 SPIN=   0.00000
  Li   0.4606108  -0.3698420  -0.1304876 SPIN=   0.00000
   O  -0.2022448  -0.3783383  -0.0677776 SPIN=   0.00000
   O  -0.0775000  -0.0491220   0.0754899 SPIN=   0.00000
   O  -0.4739062  -0.2113697   0.1281271 SPIN=   0.00000
   O  -0.1338917  -0.4520248   0.1936473 SPIN=   0.00000
   P  -0.2198014  -0.2804537   0.0756901 SPIN=   0.00000
   O  -0.3783383  -0.2022448  -0.5677776 SPIN=   0.00000
   O  -0.0491220  -0.0775000  -0.4245101 SPIN=   0.00000
   O  -0.2113697  -0.4739062  -0.3718729 SPIN=   0.00000
   O  -0.4520248  -0.1338917  -0.3063527 SPIN=   0.00000
   P  -0.2804537  -0.2198014  -0.4243099 SPIN=   0.00000
   O   0.3996979   0.1421689   0.4960476 SPIN=   0.00000
   O   0.2493445  -0.1407696   0.3304099 SPIN=   0.00000
   O   0.1371319   0.2714104   0.2989849 SPIN=   0.00000
   O   0.5483962   0.1590360   0.2339983 SPIN=   0.00000
   P   0.3396941   0.1103855   0.3469271 SPIN=   0.00000
   O   0.1421689   0.3996979  -0.0039524 SPIN=   0.00000
   O  -0.1407696   0.2493445  -0.1695901 SPIN=   0.00000
   O   0.2714104   0.1371319  -0.2010151 SPIN=   0.00000
   O   0.1590360   0.5483962  -0.2660017 SPIN=   0.00000
   P   0.1103855   0.3396941  -0.1530729 SPIN=   0.00000
  Fe   0.1069353   0.4282637  -0.4685273 SPIN=   4.44920
  Fe   0.4282637   0.1069353   0.0314727 SPIN=   4.44920
  Fe  -0.0269119  -0.1146514  -0.1997744 SPIN=   3.55080
  Fe  -0.1146514  -0.0269119   0.3002256 SPIN=   3.55080
%ENDBLOCK POSITIONS_FRAC

# Note: total spin =  16.00

KPOINTS_MP_SPACING 0.07

%BLOCK SPECIES_POT
QC5
%ENDBLOCK SPECIES_POT

%BLOCK HUBBARD_U
Fe d:4.0
%ENDBLOCK HUBBARD_U

SNAP_TO_SYMMETRY
SYMMETRY_GENERATE

