#              Generated by Buildcell
#
# at 19:43:48 (GMT+0.0) 26th November 2020
# in /lustre/scratch/uccabz1/launch_tmp
# on node-c12g-031
# by uccabz1
#
# compiler GCC version 4.9.2
# options -cpp -iprefix /lustre/shared/ucl/apps/gcc/4.9.2/bin/../lib/gcc/x86_64-unknown-linux-gnu/4.9.2/ -mtune=corei7 -march=x86-64 -g -Og
#
# seed  -225174696 -1673320703  1316234792    89356497  -678451805 -1562316762 -1506217042   996942193  1555555072  1986453978   542906270 -1659279395
#
#      Author: C. J. Pickard (cjp20@cam.ac.uk)
#                Space group: P21212
#

%BLOCK LATTICE_ABC
      6.10910      6.73577      7.77652
     90.00000     90.00000     90.00000
%ENDBLOCK LATTICE_ABC

%BLOCK POSITIONS_FRAC
  Li   0.2514311   0.4986809  -0.4999027 SPIN=   0.00000
  Li  -0.2514311   0.4986809   0.4999027 SPIN=   0.00000
  Li   0.2485689  -0.4986809   0.0000973 SPIN=   0.00000
  Li  -0.2485689  -0.4986809  -0.0000973 SPIN=   0.00000
   O  -0.1737060  -0.2110408  -0.4189822 SPIN=   0.00000
   O   0.1648005  -0.1055406  -0.2385646 SPIN=   0.00000
   O  -0.1706134  -0.2077882  -0.0849113 SPIN=   0.00000
   O   0.0513518  -0.4628040  -0.2414823 SPIN=   0.00000
   P  -0.0386005  -0.2474389  -0.2551432 SPIN=   0.00000
   O   0.1737060  -0.2110408   0.4189822 SPIN=   0.00000
   O  -0.1648005  -0.1055406   0.2385646 SPIN=   0.00000
   O   0.1706134  -0.2077882   0.0849113 SPIN=   0.00000
   O  -0.0513518  -0.4628040   0.2414823 SPIN=   0.00000
   P   0.0386005  -0.2474389   0.2551432 SPIN=   0.00000
   O  -0.3262940   0.2110408   0.0810178 SPIN=   0.00000
   O  -0.6648005   0.1055406   0.2614354 SPIN=   0.00000
   O  -0.3293866   0.2077882   0.4150887 SPIN=   0.00000
   O  -0.5513518   0.4628040   0.2585177 SPIN=   0.00000
   P  -0.4613995   0.2474389   0.2448568 SPIN=   0.00000
   O   0.3262940   0.2110408  -0.0810178 SPIN=   0.00000
   O   0.6648005   0.1055406  -0.2614354 SPIN=   0.00000
   O   0.3293866   0.2077882  -0.4150887 SPIN=   0.00000
   O   0.5513518   0.4628040  -0.2585177 SPIN=   0.00000
   P   0.4613995   0.2474389  -0.2448568 SPIN=   0.00000
  Fe  -0.0010052   0.1769544  -0.2498722 SPIN=   4.00000
  Fe   0.0010052   0.1769544   0.2498722 SPIN=   4.00000
  Fe  -0.4989948  -0.1769544   0.2501278 SPIN=   4.00000
  Fe   0.4989948  -0.1769544  -0.2501278 SPIN=   4.00000
%ENDBLOCK POSITIONS_FRAC

# Note: total spin =  16.00

KPOINTS_MP_SPACING 0.07

%BLOCK SPECIES_POT
QC5
%ENDBLOCK SPECIES_POT

%BLOCK HUBBARD_U
Fe d:4.0
%ENDBLOCK HUBBARD_U

SNAP_TO_SYMMETRY
SYMMETRY_GENERATE

