#              Generated by Buildcell
#
# at 09:03:01 (GMT+0.0) 24th November 2020
# in /lustre/scratch/uccabz1/launch_tmp
# on node-c12e-025
# by uccabz1
#
# compiler GCC version 4.9.2
# options -cpp -iprefix /lustre/shared/ucl/apps/gcc/4.9.2/bin/../lib/gcc/x86_64-unknown-linux-gnu/4.9.2/ -mtune=corei7 -march=x86-64 -g -Og
#
# seed  1870753340   743337516  2135901291  -581041484  1099314368   437617962   593881056 -1085498742   617977762   212750086  1160377624 -2022632318
#
#      Author: C. J. Pickard (cjp20@cam.ac.uk)
#                Space group: P21212
#

%BLOCK LATTICE_ABC
      3.89862      5.67801      7.22792
     90.00000     90.00000     90.00000
%ENDBLOCK LATTICE_ABC

%BLOCK POSITIONS_FRAC
  Li  -0.0000000   0.0000000  -0.0941927 SPIN=   0.00000
  Li  -0.5000000   0.5000000   0.0941927 SPIN=   0.00000
   O  -0.2103688  -0.1882913  -0.3445936 SPIN=   0.00000
   O  -0.7277184  -0.3155917  -0.1412850 SPIN=   0.00000
   O   0.2103688   0.1882913  -0.3445936 SPIN=   0.00000
   O   0.7277184   0.3155917  -0.1412850 SPIN=   0.00000
   O   0.2896312  -0.3117087   0.3445936 SPIN=   0.00000
   O  -0.2277184  -0.1844083   0.1412850 SPIN=   0.00000
   O  -0.2896312   0.3117087   0.3445936 SPIN=   0.00000
   O   0.2277184   0.1844083   0.1412850 SPIN=   0.00000
   P   0.5000000   0.0000000  -0.3488299 SPIN=   0.00000
   P   0.0000000  -0.5000000   0.3488299 SPIN=   0.00000
  Fe   0.0000000   0.0000000   0.3613972 SPIN=   4.00000
  Fe   0.5000000  -0.5000000  -0.3613972 SPIN=   4.00000
%ENDBLOCK POSITIONS_FRAC

# Note: total spin =   8.00

KPOINTS_MP_SPACING 0.07

%BLOCK SPECIES_POT
QC5
%ENDBLOCK SPECIES_POT

%BLOCK HUBBARD_U
Fe d:4.0
%ENDBLOCK HUBBARD_U

SNAP_TO_SYMMETRY
SYMMETRY_GENERATE

