#              Generated by Buildcell
#
# at 14:01:52 (GMT+0.0) 24th November 2020
# in /lustre/scratch/uccabz1/launch_tmp
# on node-c12l-030
# by uccabz1
#
# compiler GCC version 4.9.2
# options -cpp -iprefix /lustre/shared/ucl/apps/gcc/4.9.2/bin/../lib/gcc/x86_64-unknown-linux-gnu/4.9.2/ -mtune=corei7 -march=x86-64 -g -Og
#
# seed   732749006   879019303  1574788007 -1013805966  1911376180  1913278957  -543652539  1106539036 -2145291835   478726639 -1848855863   754861102
#
#      Author: C. J. Pickard (cjp20@cam.ac.uk)
#                Space group: C2221
#

%BLOCK LATTICE_ABC
      3.78858      5.27935      8.22073
     90.00000    103.32230     90.00000
%ENDBLOCK LATTICE_ABC

%BLOCK POSITIONS_FRAC
  Li  -0.0425038   0.0000000  -0.0850076 SPIN=   0.00000
  Li   0.0425038   0.5000000   0.0850076 SPIN=   0.00000
   O   0.2670423   0.2830309  -0.1698211 SPIN=   0.00000
   O   0.5604122   0.1645834  -0.4157685 SPIN=   0.00000
   O  -0.2670423  -0.2169691   0.1698211 SPIN=   0.00000
   O  -0.5604122  -0.3354166   0.4157685 SPIN=   0.00000
   O  -0.5631366   0.2169691   0.1698211 SPIN=   0.00000
   O  -0.0238192   0.3354166   0.4157685 SPIN=   0.00000
   O   0.5631366  -0.2830309  -0.1698211 SPIN=   0.00000
   O   0.0238192  -0.1645834  -0.4157685 SPIN=   0.00000
   P   0.3404252   0.0000000  -0.3191497 SPIN=   0.00000
   P  -0.3404252   0.5000000   0.3191497 SPIN=   0.00000
  Fe   0.1635542   0.0000000   0.3271084 SPIN=   4.00000
  Fe  -0.1635542   0.5000000  -0.3271084 SPIN=   4.00000
%ENDBLOCK POSITIONS_FRAC

# Note: total spin =   8.00

KPOINTS_MP_SPACING 0.07

%BLOCK SPECIES_POT
QC5
%ENDBLOCK SPECIES_POT

%BLOCK HUBBARD_U
Fe d:4.0
%ENDBLOCK HUBBARD_U

SNAP_TO_SYMMETRY
SYMMETRY_GENERATE

