#              Generated by Buildcell
#
# at 09:21:51 (GMT+0.0) 24th November 2020
# in /lustre/scratch/uccabz1/launch_tmp
# on node-c12o-027
# by uccabz1
#
# compiler GCC version 4.9.2
# options -cpp -iprefix /lustre/shared/ucl/apps/gcc/4.9.2/bin/../lib/gcc/x86_64-unknown-linux-gnu/4.9.2/ -mtune=corei7 -march=x86-64 -g -Og
#
# seed  -129097380    57377390  1733725465  1430664949  -373019463 -1954569493    24778752   196126051  -246520983  1412485505 -1319260669   150629350
#
#      Author: C. J. Pickard (cjp20@cam.ac.uk)
#                Space group: P-1
#

%BLOCK LATTICE_ABC
      3.91371      5.73630      7.70710
    104.30954     94.16657    105.23940
%ENDBLOCK LATTICE_ABC

%BLOCK POSITIONS_FRAC
  Li   0.3299715   0.2084917   0.4963886 SPIN=   0.00000
  Li  -0.3299715  -0.2084917  -0.4963886 SPIN=   0.00000
   O   0.2021929   0.3429735  -0.0450478 SPIN=   0.00000
   O   0.1610623  -0.0346380  -0.3217849 SPIN=   0.00000
   O   0.6911721   0.3375031  -0.2554401 SPIN=   0.00000
   P   0.4083884   0.1833803  -0.1599184 SPIN=   0.00000
   O  -0.2021929  -0.3429735   0.0450478 SPIN=   0.00000
   O  -0.1610623   0.0346380   0.3217849 SPIN=   0.00000
   O  -0.6911721  -0.3375031   0.2554401 SPIN=   0.00000
   P  -0.4083884  -0.1833803   0.1599184 SPIN=   0.00000
   O   0.5000000   0.0000000  -0.0000000 SPIN=   0.00000
   O  -1.0000000  -0.5000000   0.5000000 SPIN=   0.00000
  Fe  -0.8381951  -0.3437902  -0.1895024 SPIN=   4.00000
  Fe   0.8381951   0.3437902   0.1895024 SPIN=   4.00000
%ENDBLOCK POSITIONS_FRAC

# Note: total spin =   8.00

KPOINTS_MP_SPACING 0.07

%BLOCK SPECIES_POT
QC5
%ENDBLOCK SPECIES_POT

%BLOCK HUBBARD_U
Fe d:4.0
%ENDBLOCK HUBBARD_U

SNAP_TO_SYMMETRY
SYMMETRY_GENERATE

