#              Generated by Buildcell
#
# at 10:56:18 (GMT+0.0) 24th November 2020
# in /scratch/scratch/uccabz1/launch_tmp
# on node-k10b-024
# by uccabz1
#
# compiler GCC version 4.9.2
# options -cpp -iprefix /scratch/UCL/applications/gcc/4.9.2/bin/../lib/gcc/x86_64-unknown-linux-gnu/4.9.2/ -mtune=corei7 -march=x86-64 -g -O2
#
# seed -1789189725  1827333726 -1586987443   295134348  1012790221  1082875819  1222562030  -407123018  1695932384   973937119 -1698611324  -678978905
#
#      Author: C. J. Pickard (cjp20@cam.ac.uk)
#                Space group: P-1
#

%BLOCK LATTICE_ABC
      3.91758      4.99293      8.68268
    104.38427     90.89306    102.76212
%ENDBLOCK LATTICE_ABC

%BLOCK POSITIONS_FRAC
  Li   0.3202168  -0.7565309  -0.4436564 SPIN=   0.00000
  Li  -0.3202168   0.7565309   0.4436564 SPIN=   0.00000
   O  -0.4024165   0.5246615  -0.2345093 SPIN=   0.00000
   O  -0.5960371   0.1759258  -0.0575515 SPIN=   0.00000
   O  -0.3149347   0.0083842  -0.3045408 SPIN=   0.00000
   P  -0.3173484   0.2847154  -0.1699586 SPIN=   0.00000
   O   0.4024165  -0.5246615   0.2345093 SPIN=   0.00000
   O   0.5960371  -0.1759258   0.0575515 SPIN=   0.00000
   O   0.3149347  -0.0083842   0.3045408 SPIN=   0.00000
   P   0.3173484  -0.2847154   0.1699586 SPIN=   0.00000
   O  -0.0000000  -0.5000000   0.0000000 SPIN=   0.00000
   O  -0.0000000   0.5000000   0.5000000 SPIN=   0.00000
  Fe   0.0993709  -0.1949650  -0.2135180 SPIN=   4.00000
  Fe  -0.0993709   0.1949650   0.2135180 SPIN=   4.00000
%ENDBLOCK POSITIONS_FRAC

# Note: total spin =   8.00

KPOINTS_MP_SPACING 0.07

%BLOCK SPECIES_POT
QC5
%ENDBLOCK SPECIES_POT

%BLOCK HUBBARD_U
Fe d:4.0
%ENDBLOCK HUBBARD_U

SNAP_TO_SYMMETRY
SYMMETRY_GENERATE

