#              Generated by Buildcell
#
# at 10:39:03 (GMT+0.0) 24th November 2020
# in /lustre/scratch/uccabz1/launch_tmp
# on node-c12k-030
# by uccabz1
#
# compiler GCC version 4.9.2
# options -cpp -iprefix /lustre/shared/ucl/apps/gcc/4.9.2/bin/../lib/gcc/x86_64-unknown-linux-gnu/4.9.2/ -mtune=corei7 -march=x86-64 -g -Og
#
# seed  1490763762  1481802012 -1754345338  1794606748  1300534677   785619499  1025322605  -298453057   310388562  1665582267   -52548852 -2045172056
#
#      Author: C. J. Pickard (cjp20@cam.ac.uk)
#                Space group: Cm
#

%BLOCK LATTICE_ABC
      5.44699      5.44699      5.93323
    107.12075    107.12075     90.18651
%ENDBLOCK LATTICE_ABC

%BLOCK POSITIONS_FRAC
  Li   0.1743171  -0.2295898   0.2308501 SPIN=   0.00000
  Li  -0.2295898   0.1743171   0.2308501 SPIN=   0.00000
   O  -0.3850627  -0.0700089  -0.6233560 SPIN=   0.00000
   O  -0.7033508  -0.0587506  -0.3700031 SPIN=   0.00000
   O  -0.2412682   0.0752736  -0.1418129 SPIN=   0.00000
   P  -0.4548542   0.0716239  -0.3883412 SPIN=   0.00000
   O  -0.0700089  -0.3850627  -0.6233560 SPIN=   0.00000
   O  -0.0587506  -0.7033508  -0.3700031 SPIN=   0.00000
   O   0.0752736  -0.2412682  -0.1418129 SPIN=   0.00000
   P   0.0716239  -0.4548542  -0.3883412 SPIN=   0.00000
   O   0.3195630   0.3195630   0.3403070 SPIN=   0.00000
   O   0.4898722   0.4898722   0.0211027 SPIN=   0.00000
  Fe  -0.3764117  -0.3764117  -0.2263985 SPIN=   2.60593
  Fe   0.1682102   0.1682102  -0.0878754 SPIN=   5.39407
%ENDBLOCK POSITIONS_FRAC

# Note: total spin =   8.00

KPOINTS_MP_SPACING 0.07

%BLOCK SPECIES_POT
QC5
%ENDBLOCK SPECIES_POT

%BLOCK HUBBARD_U
Fe d:4.0
%ENDBLOCK HUBBARD_U

SNAP_TO_SYMMETRY
SYMMETRY_GENERATE

