#              Generated by Buildcell
#
# at 09:17:32 (GMT+0.0) 24th November 2020
# in /scratch/scratch/uccabz1/launch_tmp
# on node-k10e-028
# by uccabz1
#
# compiler GCC version 4.9.2
# options -cpp -iprefix /scratch/UCL/applications/gcc/4.9.2/bin/../lib/gcc/x86_64-unknown-linux-gnu/4.9.2/ -mtune=corei7 -march=x86-64 -g -O2
#
# seed  -244027324 -1997949460  -289125180 -1574865573 -1989791274 -1096346425  -832698875   532900475  1718648299 -1657566886 -1224537809   947784364
#
#      Author: C. J. Pickard (cjp20@cam.ac.uk)
#                Space group: C2
#

%BLOCK LATTICE_ABC
      4.69917      6.17063      6.51588
    113.01450    111.13666     90.00000
%ENDBLOCK LATTICE_ABC

%BLOCK POSITIONS_FRAC
  Li  -0.4309040  -0.2318905   0.0758140 SPIN=   0.00000
  Li   0.4932819   0.2318905  -0.0758140 SPIN=   0.00000
   O   0.2620916   0.4743698  -0.2312041 SPIN=   0.00000
   O  -0.1047634   0.2335890  -0.1492008 SPIN=   0.00000
   O  -0.3337482   0.4581670  -0.3934581 SPIN=   0.00000
   O  -0.1157272   0.0926115  -0.5687574 SPIN=   0.00000
   P  -0.0556967   0.3205661  -0.3328444 SPIN=   0.00000
   O   0.4932956  -0.4743698   0.2312041 SPIN=   0.00000
   O   0.0444374  -0.2335890   0.1492008 SPIN=   0.00000
   O   0.0597099  -0.4581670   0.3934581 SPIN=   0.00000
   O   0.4530302  -0.0926115   0.5687574 SPIN=   0.00000
   P   0.2771478  -0.3205661   0.3328444 SPIN=   0.00000
  Fe  -0.0844174  -0.2195964  -0.3444950 SPIN=   4.00000
  Fe   0.2600776   0.2195964   0.3444950 SPIN=   4.00000
%ENDBLOCK POSITIONS_FRAC

# Note: total spin =   8.00

KPOINTS_MP_SPACING 0.07

%BLOCK SPECIES_POT
QC5
%ENDBLOCK SPECIES_POT

%BLOCK HUBBARD_U
Fe d:4.0
%ENDBLOCK HUBBARD_U

SNAP_TO_SYMMETRY
SYMMETRY_GENERATE

