#              Generated by Buildcell
#
# at 23:35:49 (GMT+0.0) 26th November 2020
# in /lustre/scratch/uccabz1/launch_tmp
# on node-c12l-025
# by uccabz1
#
# compiler GCC version 4.9.2
# options -cpp -iprefix /lustre/shared/ucl/apps/gcc/4.9.2/bin/../lib/gcc/x86_64-unknown-linux-gnu/4.9.2/ -mtune=corei7 -march=x86-64 -g -Og
#
# seed  1355661548   380185481  -209409604  1648696955 -2140676036 -2033221290  1160357306 -2069307464   275906532     6366810  -862589623  1331553545
#
#      Author: C. J. Pickard (cjp20@cam.ac.uk)
#                Space group: Cc
#

%BLOCK LATTICE_ABC
      6.39428      6.39428      8.10667
     80.56971     80.56971     81.42266
%ENDBLOCK LATTICE_ABC

%BLOCK POSITIONS_FRAC
  Li  -0.1592014  -0.1120525  -0.3933362 SPIN=   0.00000
  Li  -0.1120525  -0.1592014   0.1066638 SPIN=   0.00000
  Li   0.3981331   0.1699716  -0.3067609 SPIN=   0.00000
  Li   0.1699716   0.3981331   0.1932391 SPIN=   0.00000
   O   0.1843679  -0.1278636   0.5687656 SPIN=   0.00000
   O   0.1268299   0.2821317   0.5734362 SPIN=   0.00000
   O   0.3915550   0.1388114   0.3486037 SPIN=   0.00000
   O   0.0013907   0.1367484   0.3432263 SPIN=   0.00000
   P   0.1744185   0.0952730   0.4630182 SPIN=   0.00000
   O  -0.1278636   0.1843679   0.0687656 SPIN=   0.00000
   O   0.2821317   0.1268299   0.0734362 SPIN=   0.00000
   O   0.1388114   0.3915550  -0.1513963 SPIN=   0.00000
   O   0.1367484   0.0013907  -0.1567737 SPIN=   0.00000
   P   0.0952730   0.1744185  -0.0369818 SPIN=   0.00000
   O  -0.4301255  -0.2963738   0.6538218 SPIN=   0.00000
   O  -0.1955756  -0.5385447   0.4485574 SPIN=   0.00000
   O  -0.5734390  -0.4256573   0.4109571 SPIN=   0.00000
   O  -0.3133172  -0.1566547   0.3396833 SPIN=   0.00000
   P  -0.3801189  -0.3488904   0.4719434 SPIN=   0.00000
   O  -0.2963738  -0.4301255   0.1538218 SPIN=   0.00000
   O  -0.5385447  -0.1955756  -0.0514426 SPIN=   0.00000
   O  -0.4256573  -0.5734390  -0.0890429 SPIN=   0.00000
   O  -0.1566547  -0.3133172  -0.1603167 SPIN=   0.00000
   P  -0.3488904  -0.3801189  -0.0280566 SPIN=   0.00000
  Fe  -0.1673554   0.3639104  -0.2838860 SPIN=   4.46582
  Fe   0.3639104  -0.1673554   0.2161140 SPIN=   4.46582
  Fe  -0.3160114   0.2649635   0.2923851 SPIN=   3.53418
  Fe   0.2649635  -0.3160114  -0.2076149 SPIN=   3.53418
%ENDBLOCK POSITIONS_FRAC

# Note: total spin =  16.00

KPOINTS_MP_SPACING 0.07

%BLOCK SPECIES_POT
QC5
%ENDBLOCK SPECIES_POT

%BLOCK HUBBARD_U
Fe d:4.0
%ENDBLOCK HUBBARD_U

SNAP_TO_SYMMETRY
SYMMETRY_GENERATE

