#              Generated by Buildcell
#
# at 12:45:44 (GMT+0.0) 24th November 2020
# in /scratch/scratch/uccabz1/launch_tmp
# on node-a14f-014
# by uccabz1
#
# compiler GCC version 4.9.2
# options -cpp -iprefix /scratch/UCL/applications/gcc/4.9.2/bin/../lib/gcc/x86_64-unknown-linux-gnu/4.9.2/ -mtune=corei7 -march=x86-64 -g -O2
#
# seed   663775812 -1842440895   651322680   871343486  2139097629 -1327306719  -212277116  1650011058  -451848971 -1113183849  -720714306   759891988
#
#      Author: C. J. Pickard (cjp20@cam.ac.uk)
#                Space group: Pc
#

%BLOCK LATTICE_ABC
      5.03694      5.38051      6.34241
     90.00000     90.00000    111.43361
%ENDBLOCK LATTICE_ABC

%BLOCK POSITIONS_FRAC
  Li  -0.1662010  -0.0613251   0.1419831 SPIN=   0.00000
  Li   0.3337990  -0.0613251  -0.1419831 SPIN=   0.00000
   O  -0.5851604  -0.5177287  -0.0585971 SPIN=   0.00000
   O  -0.5489577  -0.2427002  -0.4012912 SPIN=   0.00000
   O  -0.1037924  -0.2015735  -0.2156235 SPIN=   0.00000
   O  -0.3798205  -0.6263217  -0.4047033 SPIN=   0.00000
   P  -0.4137652  -0.4062102  -0.2603838 SPIN=   0.00000
   O  -0.0851604  -0.5177287   0.0585971 SPIN=   0.00000
   O  -0.0489577  -0.2427002   0.4012912 SPIN=   0.00000
   O   0.3962076  -0.2015735   0.2156235 SPIN=   0.00000
   O   0.1201795  -0.6263217   0.4047033 SPIN=   0.00000
   P   0.0862348  -0.4062102   0.2603838 SPIN=   0.00000
  Fe   0.4809421   0.3228022   0.2711208 SPIN=   4.00000
  Fe  -0.0190579   0.3228022  -0.2711208 SPIN=   4.00000
%ENDBLOCK POSITIONS_FRAC

# Note: total spin =   8.00

KPOINTS_MP_SPACING 0.07

%BLOCK SPECIES_POT
QC5
%ENDBLOCK SPECIES_POT

%BLOCK HUBBARD_U
Fe d:4.0
%ENDBLOCK HUBBARD_U

SNAP_TO_SYMMETRY
SYMMETRY_GENERATE

