#              Generated by Buildcell
#
# at 09:58:26 (GMT+0.0) 24th November 2020
# in /lustre/scratch/uccabz1/launch_tmp
# on node-c12p-031
# by uccabz1
#
# compiler GCC version 4.9.2
# options -cpp -iprefix /lustre/shared/ucl/apps/gcc/4.9.2/bin/../lib/gcc/x86_64-unknown-linux-gnu/4.9.2/ -mtune=corei7 -march=x86-64 -g -Og
#
# seed -1637132464  1890460202  -653510485 -1189423697  1909690326  -756653946  1542193331 -2134824063 -1145489841   960053221  1324535250 -1126796604
#
#      Author: C. J. Pickard (cjp20@cam.ac.uk)
#                Space group: P-1
#

%BLOCK LATTICE_ABC
      4.36298      4.75974      8.67901
     86.21575     89.26773     62.85385
%ENDBLOCK LATTICE_ABC

%BLOCK POSITIONS_FRAC
  Li  -0.3354196   0.1655921   0.0836941 SPIN=   0.00000
  Li   0.3354196  -0.1655921  -0.0836941 SPIN=   0.00000
   O   0.1305682  -0.7119930  -0.2856723 SPIN=   0.00000
   O  -0.2159853  -0.1712602  -0.4399994 SPIN=   0.00000
   O  -0.1794079  -0.1785412  -0.1558830 SPIN=   0.00000
   O   0.3445730  -0.2870854  -0.3123083 SPIN=   0.00000
   O  -0.1305682   0.7119930   0.2856723 SPIN=   0.00000
   O   0.2159853   0.1712602   0.4399994 SPIN=   0.00000
   O   0.1794079   0.1785412   0.1558830 SPIN=   0.00000
   O  -0.3445730   0.2870854   0.3123083 SPIN=   0.00000
   P   0.0000000   0.5000000  -0.0000000 SPIN=   0.00000
   P  -1.0000000   0.5000000   0.5000000 SPIN=   0.00000
  Fe  -0.3510557   0.2228996  -0.3105606 SPIN=   4.00000
  Fe   0.3510557  -0.2228996   0.3105606 SPIN=   4.00000
%ENDBLOCK POSITIONS_FRAC

# Note: total spin =   8.00

KPOINTS_MP_SPACING 0.07

%BLOCK SPECIES_POT
QC5
%ENDBLOCK SPECIES_POT

%BLOCK HUBBARD_U
Fe d:4.0
%ENDBLOCK HUBBARD_U

SNAP_TO_SYMMETRY
SYMMETRY_GENERATE

