#              Generated by Buildcell
#
# at 12:52:32 (GMT+0.0) 24th November 2020
# in /lustre/scratch/uccabz1/launch_tmp
# on node-c12h-032
# by uccabz1
#
# compiler GCC version 4.9.2
# options -cpp -iprefix /lustre/shared/ucl/apps/gcc/4.9.2/bin/../lib/gcc/x86_64-unknown-linux-gnu/4.9.2/ -mtune=corei7 -march=x86-64 -g -Og
#
# seed  1380818616 -2147060203  1802708111   -75709521 -1141266855  -386514797  1967292372   307364820  1992817582  -725665567 -1383434345  2043975055
#
#      Author: C. J. Pickard (cjp20@cam.ac.uk)
#                Space group: P21
#

%BLOCK LATTICE_ABC
      4.88156      5.00840      6.55204
     90.00000     92.78599     90.00000
%ENDBLOCK LATTICE_ABC

%BLOCK POSITIONS_FRAC
  Li  -0.1716757   0.1770822  -0.4750096 SPIN=   0.00000
  Li   0.1716757  -0.3229178   0.4750096 SPIN=   0.00000
   O  -0.4321675  -0.1547196   0.4731499 SPIN=   0.00000
   O  -0.1597395  -0.5274462   0.2960414 SPIN=   0.00000
   O  -0.5437205  -0.3110028   0.1002309 SPIN=   0.00000
   O  -0.1118203  -0.0538687   0.1803936 SPIN=   0.00000
   P  -0.3159069  -0.2536067   0.2727041 SPIN=   0.00000
   O   0.4321675   0.3452804  -0.4731499 SPIN=   0.00000
   O   0.1597395  -0.0274462  -0.2960414 SPIN=   0.00000
   O   0.5437205   0.1889972  -0.1002309 SPIN=   0.00000
   O   0.1118203   0.4461313  -0.1803936 SPIN=   0.00000
   P   0.3159069   0.2463933  -0.2727041 SPIN=   0.00000
  Fe  -0.2890730  -0.3229198  -0.1606750 SPIN=   4.00000
  Fe   0.2890730   0.1770802   0.1606750 SPIN=   4.00000
%ENDBLOCK POSITIONS_FRAC

# Note: total spin =   8.00

KPOINTS_MP_SPACING 0.07

%BLOCK SPECIES_POT
QC5
%ENDBLOCK SPECIES_POT

%BLOCK HUBBARD_U
Fe d:4.0
%ENDBLOCK HUBBARD_U

SNAP_TO_SYMMETRY
SYMMETRY_GENERATE

