#              Generated by Buildcell
#
# at 20:37:44 (GMT+0.0) 26th November 2020
# in /scratch/scratch/uccabz1/launch_tmp
# on node-k10g-016
# by uccabz1
#
# compiler GCC version 4.9.2
# options -cpp -iprefix /scratch/UCL/applications/gcc/4.9.2/bin/../lib/gcc/x86_64-unknown-linux-gnu/4.9.2/ -mtune=corei7 -march=x86-64 -g -O2
#
# seed -1233361620  -417335581 -1618938736 -1740431098  -810420075 -2000529309  1016164067  -867254456   717627237 -2036849031  1562046963  -374236078
#
#      Author: C. J. Pickard (cjp20@cam.ac.uk)
#                Space group: P-1
#

%BLOCK LATTICE_ABC
      4.09817      7.28325     11.07014
     79.56216     80.02824     87.26859
%ENDBLOCK LATTICE_ABC

%BLOCK POSITIONS_FRAC
  Li   0.2096652  -0.1147916   0.0872657 SPIN=   0.00000
  Li  -0.2096652   0.1147916  -0.0872657 SPIN=   0.00000
  Li  -0.3188493   0.0555343   0.2645180 SPIN=   0.00000
  Li   0.3188493  -0.0555343  -0.2645180 SPIN=   0.00000
   O  -0.1841072  -0.1291603  -0.2189502 SPIN=   0.00000
   O  -0.2816206  -0.1539743   0.0216437 SPIN=   0.00000
   O  -0.7285206  -0.2519190  -0.0753981 SPIN=   0.00000
   O  -0.2092886  -0.4467369  -0.0696236 SPIN=   0.00000
   P  -0.3403332  -0.2416313  -0.0924949 SPIN=   0.00000
   O   0.1841072   0.1291603   0.2189502 SPIN=   0.00000
   O   0.2816206   0.1539743  -0.0216437 SPIN=   0.00000
   O   0.7285206   0.2519190   0.0753981 SPIN=   0.00000
   O   0.2092886   0.4467369   0.0696236 SPIN=   0.00000
   P   0.3403332   0.2416313   0.0924949 SPIN=   0.00000
   O  -0.6061248  -0.4978880   0.4017291 SPIN=   0.00000
   O  -0.5459291  -0.1873128   0.2422410 SPIN=   0.00000
   O  -0.6275641  -0.1714615   0.4664969 SPIN=   0.00000
   O  -0.0883581  -0.2929578   0.3635438 SPIN=   0.00000
   P  -0.4699338  -0.2986777   0.3702133 SPIN=   0.00000
   O   0.6061248   0.4978880  -0.4017291 SPIN=   0.00000
   O   0.5459291   0.1873128  -0.2422410 SPIN=   0.00000
   O   0.6275641   0.1714615  -0.4664969 SPIN=   0.00000
   O   0.0883581   0.2929578  -0.3635438 SPIN=   0.00000
   P   0.4699338   0.2986777  -0.3702133 SPIN=   0.00000
  Fe  -0.2924347  -0.4745513   0.1556825 SPIN=   2.20645
  Fe   0.2924347   0.4745513  -0.1556825 SPIN=   2.20645
  Fe   0.0958931   0.2641202   0.4392736 SPIN=   5.79355
  Fe  -0.0958931  -0.2641202  -0.4392736 SPIN=   5.79355
%ENDBLOCK POSITIONS_FRAC

# Note: total spin =  16.00

KPOINTS_MP_SPACING 0.07

%BLOCK SPECIES_POT
QC5
%ENDBLOCK SPECIES_POT

%BLOCK HUBBARD_U
Fe d:4.0
%ENDBLOCK HUBBARD_U

SNAP_TO_SYMMETRY
SYMMETRY_GENERATE

