#              Generated by Buildcell
#
# at 14:18:23 (GMT+0.0) 24th November 2020
# in /lustre/scratch/uccabz1/launch_tmp
# on node-c12h-032
# by uccabz1
#
# compiler GCC version 4.9.2
# options -cpp -iprefix /lustre/shared/ucl/apps/gcc/4.9.2/bin/../lib/gcc/x86_64-unknown-linux-gnu/4.9.2/ -mtune=corei7 -march=x86-64 -g -Og
#
# seed -1563232092  -418119742  -389364824  1289114479  -607847767 -1055509240  1797088171  1705718291  1418590977  -686325832  1939589767  1068169265
#
#      Author: C. J. Pickard (cjp20@cam.ac.uk)
#                Space group: P-1
#

%BLOCK LATTICE_ABC
      4.41162      4.84789      7.96478
     90.51357     94.26552    109.52431
%ENDBLOCK LATTICE_ABC

%BLOCK POSITIONS_FRAC
  Li   0.3107284   0.1935669  -0.0556295 SPIN=   0.00000
  Li  -0.3107284  -0.1935669   0.0556295 SPIN=   0.00000
   O  -0.7828808  -0.1250265   0.4455371 SPIN=   0.00000
   O  -0.3320694  -0.2660772   0.3127752 SPIN=   0.00000
   O  -0.8609578  -0.6508811   0.3327871 SPIN=   0.00000
   O  -0.8110565  -0.2522809   0.1278748 SPIN=   0.00000
   P  -0.7026766  -0.3121539   0.3101529 SPIN=   0.00000
   O   0.7828808   0.1250265  -0.4455371 SPIN=   0.00000
   O   0.3320694   0.2660772  -0.3127752 SPIN=   0.00000
   O   0.8609578   0.6508811  -0.3327871 SPIN=   0.00000
   O   0.8110565   0.2522809  -0.1278748 SPIN=   0.00000
   P   0.7026766   0.3121539  -0.3101529 SPIN=   0.00000
  Fe   0.6511734   0.2966731   0.3311942 SPIN=   4.00000
  Fe  -0.6511734  -0.2966731  -0.3311942 SPIN=   4.00000
%ENDBLOCK POSITIONS_FRAC

# Note: total spin =   8.00

KPOINTS_MP_SPACING 0.07

%BLOCK SPECIES_POT
QC5
%ENDBLOCK SPECIES_POT

%BLOCK HUBBARD_U
Fe d:4.0
%ENDBLOCK HUBBARD_U

SNAP_TO_SYMMETRY
SYMMETRY_GENERATE

