#              Generated by Buildcell
#
# at 14:24:48 (GMT+0.0) 26th November 2020
# in /lustre/scratch/uccabz1/launch_tmp
# on node-c12l-021
# by uccabz1
#
# compiler GCC version 4.9.2
# options -cpp -iprefix /lustre/shared/ucl/apps/gcc/4.9.2/bin/../lib/gcc/x86_64-unknown-linux-gnu/4.9.2/ -mtune=corei7 -march=x86-64 -g -Og
#
# seed -1337360608 -1510325773  -479726575  -278099855 -1292606057  -557906927 -1427080208 -1528701557  1788935430  2123132642 -2003064005 -1969755789
#
#      Author: C. J. Pickard (cjp20@cam.ac.uk)
#                Space group: Pm
#

%BLOCK LATTICE_ABC
      5.06373      6.14405     10.38374
     90.00000     90.00000     97.88901
%ENDBLOCK LATTICE_ABC

%BLOCK POSITIONS_FRAC
  Li  -0.3698046   0.0497778   0.0000000 SPIN=   0.00000
  Li  -0.0327046   0.0957747   0.5000000 SPIN=   0.00000
  Li   0.2029671  -0.3327744  -0.5000000 SPIN=   0.00000
  Li  -0.3978849  -0.4492337  -0.0000000 SPIN=   0.00000
   O  -0.1211672  -0.2898462  -0.3797734 SPIN=   0.00000
   O  -0.3334892  -0.1548833  -0.1718431 SPIN=   0.00000
   O  -0.4603039  -0.0085959  -0.3811178 SPIN=   0.00000
   O  -0.6185830  -0.4009125  -0.3241685 SPIN=   0.00000
   P  -0.3721995  -0.2198323  -0.3178331 SPIN=   0.00000
   O  -0.1211672  -0.2898462   0.3797734 SPIN=   0.00000
   O  -0.3334892  -0.1548833   0.1718431 SPIN=   0.00000
   O  -0.4603039  -0.0085959   0.3811178 SPIN=   0.00000
   O  -0.6185830  -0.4009125   0.3241685 SPIN=   0.00000
   P  -0.3721995  -0.2198323   0.3178331 SPIN=   0.00000
   O   0.2992266   0.3882669  -0.1202183 SPIN=   0.00000
   O  -0.2186677   0.3303237  -0.1246433 SPIN=   0.00000
   O   0.0227522   0.2866321  -0.3276649 SPIN=   0.00000
   P   0.0463202   0.2570140  -0.1778227 SPIN=   0.00000
   O   0.2992266   0.3882669   0.1202183 SPIN=   0.00000
   O  -0.2186677   0.3303237   0.1246433 SPIN=   0.00000
   O   0.0227522   0.2866321   0.3276649 SPIN=   0.00000
   P   0.0463202   0.2570140   0.1778227 SPIN=   0.00000
   O   0.2114165   0.0348956   0.0000000 SPIN=   0.00000
   O   0.0258639  -0.3586560  -0.0000000 SPIN=   0.00000
  Fe   0.1249126  -0.2363591   0.1884992 SPIN=   3.38419
  Fe   0.1249126  -0.2363591  -0.1884992 SPIN=   3.38419
  Fe  -0.4457198   0.3093557   0.3048320 SPIN=   4.61581
  Fe  -0.4457198   0.3093557  -0.3048320 SPIN=   4.61581
%ENDBLOCK POSITIONS_FRAC

# Note: total spin =  16.00

KPOINTS_MP_SPACING 0.07

%BLOCK SPECIES_POT
QC5
%ENDBLOCK SPECIES_POT

%BLOCK HUBBARD_U
Fe d:4.0
%ENDBLOCK HUBBARD_U

SNAP_TO_SYMMETRY
SYMMETRY_GENERATE

