#              Generated by Buildcell
#
# at 23:17:30 (GMT+0.0) 26th November 2020
# in /lustre/scratch/uccabz1/launch_tmp
# on node-c12m-023
# by uccabz1
#
# compiler GCC version 4.9.2
# options -cpp -iprefix /lustre/shared/ucl/apps/gcc/4.9.2/bin/../lib/gcc/x86_64-unknown-linux-gnu/4.9.2/ -mtune=corei7 -march=x86-64 -g -Og
#
# seed  -865976446 -1129850848   239985062    50429621 -1652469321  1306605332   429240736   311649730  -429149046 -1719564285 -1790758592 -1910336372
#
#      Author: C. J. Pickard (cjp20@cam.ac.uk)
#                Space group: Pc
#

%BLOCK LATTICE_ABC
      5.78751      7.35990      7.62053
     99.65785     90.00000     90.00000
%ENDBLOCK LATTICE_ABC

%BLOCK POSITIONS_FRAC
  Li   0.0418329   0.3485890   0.1033415 SPIN=   0.00000
  Li  -0.0418329   0.3485890  -0.3966585 SPIN=   0.00000
  Li  -0.0990546  -0.3113992   0.4318301 SPIN=   0.00000
  Li   0.0990546  -0.3113992  -0.0681699 SPIN=   0.00000
   O   0.2331155   0.2895602  -0.2230099 SPIN=   0.00000
   O   0.0896936  -0.0321877  -0.3777331 SPIN=   0.00000
   O   0.2441792  -0.0016938  -0.0720489 SPIN=   0.00000
   O  -0.1378673   0.1402369  -0.1235635 SPIN=   0.00000
   P   0.1110873   0.1096133  -0.1994713 SPIN=   0.00000
   O  -0.2331155   0.2895602   0.2769901 SPIN=   0.00000
   O  -0.0896936  -0.0321877   0.1222669 SPIN=   0.00000
   O  -0.2441792  -0.0016938   0.4279511 SPIN=   0.00000
   O   0.1378673   0.1402369   0.3764365 SPIN=   0.00000
   P  -0.1110873   0.1096133   0.3005287 SPIN=   0.00000
   O  -0.1908962  -0.2305026  -0.2624328 SPIN=   0.00000
   O  -0.3807612  -0.5469059  -0.3821742 SPIN=   0.00000
   O  -0.1631975  -0.5129598  -0.0997104 SPIN=   0.00000
   O  -0.5431101  -0.3519627  -0.1090358 SPIN=   0.00000
   P  -0.3152831  -0.4003026  -0.2147215 SPIN=   0.00000
   O   0.1908962  -0.2305026   0.2375672 SPIN=   0.00000
   O   0.3807612  -0.5469059   0.1178258 SPIN=   0.00000
   O   0.1631975  -0.5129598   0.4002896 SPIN=   0.00000
   O   0.5431101  -0.3519627   0.3909642 SPIN=   0.00000
   P   0.3152831  -0.4003026   0.2852785 SPIN=   0.00000
  Fe   0.4546269   0.2783094   0.4121468 SPIN=   5.52819
  Fe  -0.4546269   0.2783094  -0.0878532 SPIN=   5.52819
  Fe   0.4013824  -0.1741452  -0.3874753 SPIN=   2.47181
  Fe  -0.4013824  -0.1741452   0.1125247 SPIN=   2.47181
%ENDBLOCK POSITIONS_FRAC

# Note: total spin =  16.00

KPOINTS_MP_SPACING 0.07

%BLOCK SPECIES_POT
QC5
%ENDBLOCK SPECIES_POT

%BLOCK HUBBARD_U
Fe d:4.0
%ENDBLOCK HUBBARD_U

SNAP_TO_SYMMETRY
SYMMETRY_GENERATE

