#              Generated by Buildcell
#
# at 08:26:50 (GMT+0.0) 24th November 2020
# in /scratch/scratch/uccabz1/launch_tmp
# on node-a14f-014
# by uccabz1
#
# compiler GCC version 4.9.2
# options -cpp -iprefix /scratch/UCL/applications/gcc/4.9.2/bin/../lib/gcc/x86_64-unknown-linux-gnu/4.9.2/ -mtune=corei7 -march=x86-64 -g -O2
#
# seed -1295243790  -885705732  2072796711  -241347578  -317366859  -197738674 -1576715043  1322178219  -895907905 -1272809774  1794568004 -1149756791
#
#      Author: C. J. Pickard (cjp20@cam.ac.uk)
#                Space group: P-1
#

%BLOCK LATTICE_ABC
      4.74958      4.88279      7.80940
     72.92516     86.97044     67.84415
%ENDBLOCK LATTICE_ABC

%BLOCK POSITIONS_FRAC
  Li   0.3283240  -0.2150936   0.0600460 SPIN=   0.00000
  Li  -0.3283240   0.2150936  -0.0600460 SPIN=   0.00000
   O   0.5682302  -0.2557459  -0.1827240 SPIN=   0.00000
   O   0.2188853   0.1040546  -0.4698963 SPIN=   0.00000
   O   0.0770480   0.2199257  -0.1827377 SPIN=   0.00000
   O   0.5307516   0.3057918  -0.3295455 SPIN=   0.00000
   P   0.3625642   0.0774158  -0.2859010 SPIN=   0.00000
   O  -0.5682302   0.2557459   0.1827240 SPIN=   0.00000
   O  -0.2188853  -0.1040546   0.4698963 SPIN=   0.00000
   O  -0.0770480  -0.2199257   0.1827377 SPIN=   0.00000
   O  -0.5307516  -0.3057918   0.3295455 SPIN=   0.00000
   P  -0.3625642  -0.0774158   0.2859010 SPIN=   0.00000
  Fe   0.0047410   0.6923803  -0.2726088 SPIN=   4.00000
  Fe  -0.0047410  -0.6923803   0.2726088 SPIN=   4.00000
%ENDBLOCK POSITIONS_FRAC

# Note: total spin =   8.00

KPOINTS_MP_SPACING 0.07

%BLOCK SPECIES_POT
QC5
%ENDBLOCK SPECIES_POT

%BLOCK HUBBARD_U
Fe d:4.0
%ENDBLOCK HUBBARD_U

SNAP_TO_SYMMETRY
SYMMETRY_GENERATE

