#              Generated by Buildcell
#
# at 07:32:32 (GMT+0.0) 24th November 2020
# in /lustre/scratch/uccabz1/launch_tmp
# on node-c12n-028
# by uccabz1
#
# compiler GCC version 4.9.2
# options -cpp -iprefix /lustre/shared/ucl/apps/gcc/4.9.2/bin/../lib/gcc/x86_64-unknown-linux-gnu/4.9.2/ -mtune=corei7 -march=x86-64 -g -Og
#
# seed   859728532 -1180615520 -1674791570   382990859   754175928  -875616221   461650255  1714838785  2030475301   229586411 -1744264308 -1263936288
#
#      Author: C. J. Pickard (cjp20@cam.ac.uk)
#                Space group: P2
#

%BLOCK LATTICE_ABC
      3.96549      4.61359      8.74806
     90.00000     91.38775     90.00000
%ENDBLOCK LATTICE_ABC

%BLOCK POSITIONS_FRAC
  Li   0.4827425  -0.0670369  -0.1793093 SPIN=   0.00000
  Li  -0.4827425  -0.0670369   0.1793093 SPIN=   0.00000
   O   0.0673876   0.5491070  -0.2983857 SPIN=   0.00000
   O  -0.3329547   0.1272846  -0.3789284 SPIN=   0.00000
   O  -0.4447672   0.3889170  -0.1390890 SPIN=   0.00000
   P  -0.2969666   0.4347571  -0.3025728 SPIN=   0.00000
   O  -0.0673876   0.5491070   0.2983857 SPIN=   0.00000
   O   0.3329547   0.1272846   0.3789284 SPIN=   0.00000
   O   0.4447672   0.3889170   0.1390890 SPIN=   0.00000
   P   0.2969666   0.4347571   0.3025728 SPIN=   0.00000
   O   0.0000000  -0.0749656   0.0000000 SPIN=   0.00000
   O   0.5000000  -0.3625204  -0.5000000 SPIN=   0.00000
  Fe   0.0000000   0.4649967   0.0000000 SPIN=   3.10041
  Fe   0.0000000  -0.1447105   0.5000000 SPIN=   4.89959
%ENDBLOCK POSITIONS_FRAC

# Note: total spin =   8.00

KPOINTS_MP_SPACING 0.07

%BLOCK SPECIES_POT
QC5
%ENDBLOCK SPECIES_POT

%BLOCK HUBBARD_U
Fe d:4.0
%ENDBLOCK HUBBARD_U

SNAP_TO_SYMMETRY
SYMMETRY_GENERATE

