#              Generated by Buildcell
#
# at 12:09:30 (GMT+0.0) 24th November 2020
# in /lustre/scratch/uccabz1/launch_tmp
# on node-c12c-029
# by uccabz1
#
# compiler GCC version 4.9.2
# options -cpp -iprefix /lustre/shared/ucl/apps/gcc/4.9.2/bin/../lib/gcc/x86_64-unknown-linux-gnu/4.9.2/ -mtune=corei7 -march=x86-64 -g -Og
#
# seed -2013495483  -473588173 -1717612577  1415601418  1861127143   -25811595   610777810   738114556   285815782 -1600814460 -1844443862  -895286881
#
#      Author: C. J. Pickard (cjp20@cam.ac.uk)
#                Space group: Pm
#

%BLOCK LATTICE_ABC
      3.88539      4.63394      9.03269
     90.00000     90.00000    100.31926
%ENDBLOCK LATTICE_ABC

%BLOCK POSITIONS_FRAC
  Li   0.0648893   0.1538843   0.0000000 SPIN=   0.00000
  Li   0.2891857   0.3381556   0.5000000 SPIN=   0.00000
   O  -0.6717201   0.3835277   0.2028387 SPIN=   0.00000
   O  -0.3497122  -0.0445048   0.1362846 SPIN=   0.00000
   O  -0.1779278   0.2371459   0.3648923 SPIN=   0.00000
   O  -0.7589475  -0.0987231   0.3527656 SPIN=   0.00000
   O  -0.6717201   0.3835277  -0.2028387 SPIN=   0.00000
   O  -0.3497122  -0.0445048  -0.1362846 SPIN=   0.00000
   O  -0.1779278   0.2371459  -0.3648923 SPIN=   0.00000
   O  -0.7589475  -0.0987231  -0.3527656 SPIN=   0.00000
   P   0.4075006  -0.2933710   0.0000000 SPIN=   0.00000
   P  -0.2974206  -0.0676636   0.5000000 SPIN=   0.00000
  Fe  -0.1517947  -0.3810447  -0.2412006 SPIN=   4.00000
  Fe  -0.1517947  -0.3810447   0.2412006 SPIN=   4.00000
%ENDBLOCK POSITIONS_FRAC

# Note: total spin =   8.00

KPOINTS_MP_SPACING 0.07

%BLOCK SPECIES_POT
QC5
%ENDBLOCK SPECIES_POT

%BLOCK HUBBARD_U
Fe d:4.0
%ENDBLOCK HUBBARD_U

SNAP_TO_SYMMETRY
SYMMETRY_GENERATE

