#              Generated by Buildcell
#
# at 14:18:57 (GMT+0.0) 24th November 2020
# in /lustre/scratch/uccabz1/launch_tmp
# on node-c12g-020
# by uccabz1
#
# compiler GCC version 4.9.2
# options -cpp -iprefix /lustre/shared/ucl/apps/gcc/4.9.2/bin/../lib/gcc/x86_64-unknown-linux-gnu/4.9.2/ -mtune=corei7 -march=x86-64 -g -Og
#
# seed   191476235   910952903  1484933995   731772235 -1682370801  1579776973  1077800613 -1117552440   207398374 -1162176204 -1628141548 -1011423642
#
#      Author: C. J. Pickard (cjp20@cam.ac.uk)
#                Space group: Pc
#

%BLOCK LATTICE_ABC
      4.37570      5.55044      6.59704
     90.00000     93.02189     90.00000
%ENDBLOCK LATTICE_ABC

%BLOCK POSITIONS_FRAC
  Li  -0.3370878   0.3664132  -0.2516811 SPIN=   0.00000
  Li  -0.3370878  -0.3664132   0.2483189 SPIN=   0.00000
   O   0.4142139   0.3628174  -0.6093631 SPIN=   0.00000
   O   0.2048619   0.2492178  -0.2606871 SPIN=   0.00000
   O  -0.0935428   0.5333383  -0.4808162 SPIN=   0.00000
   O  -0.0670316   0.0983989  -0.5793484 SPIN=   0.00000
   P   0.1284333   0.3111969  -0.4904479 SPIN=   0.00000
   O   0.4142139  -0.3628174  -0.1093631 SPIN=   0.00000
   O   0.2048619  -0.2492178   0.2393129 SPIN=   0.00000
   O  -0.0935428  -0.5333383   0.0191838 SPIN=   0.00000
   O  -0.0670316  -0.0983989  -0.0793484 SPIN=   0.00000
   P   0.1284333  -0.3111969   0.0095521 SPIN=   0.00000
  Fe   0.2089298   0.1867112   0.0978392 SPIN=   4.00000
  Fe   0.2089298  -0.1867112  -0.4021608 SPIN=   4.00000
%ENDBLOCK POSITIONS_FRAC

# Note: total spin =   8.00

KPOINTS_MP_SPACING 0.07

%BLOCK SPECIES_POT
QC5
%ENDBLOCK SPECIES_POT

%BLOCK HUBBARD_U
Fe d:4.0
%ENDBLOCK HUBBARD_U

SNAP_TO_SYMMETRY
SYMMETRY_GENERATE

