#              Generated by Buildcell
#
# at 08:17:01 (GMT+0.0) 24th November 2020
# in /lustre/scratch/uccabz1/launch_tmp
# on node-c12f-020
# by uccabz1
#
# compiler GCC version 4.9.2
# options -cpp -iprefix /lustre/shared/ucl/apps/gcc/4.9.2/bin/../lib/gcc/x86_64-unknown-linux-gnu/4.9.2/ -mtune=corei7 -march=x86-64 -g -Og
#
# seed -1376339894 -1018199723  1752008917  2037542952   329640424  1083589840  1292275991 -1282824315  1226379342   172381113   725439443 -1343335707
#
#      Author: C. J. Pickard (cjp20@cam.ac.uk)
#                Space group: P21/m
#

%BLOCK LATTICE_ABC
      4.69182      6.01760      6.05261
     90.00000     90.00000    110.56174
%ENDBLOCK LATTICE_ABC

%BLOCK POSITIONS_FRAC
  Li   0.4700311   0.4887495  -0.2500000 SPIN=   0.00000
  Li  -0.4700311  -0.4887495   0.2500000 SPIN=   0.00000
   O   0.1157116  -0.6496841   0.4541916 SPIN=   0.00000
   O   0.4462360  -0.2128129   0.5443217 SPIN=   0.00000
   O  -0.1157116   0.6496841  -0.0458084 SPIN=   0.00000
   O  -0.4462360   0.2128129   0.0443217 SPIN=   0.00000
   O  -0.1157116   0.6496841  -0.4541916 SPIN=   0.00000
   O  -0.4462360   0.2128129  -0.5443217 SPIN=   0.00000
   O   0.1157116  -0.6496841   0.0458084 SPIN=   0.00000
   O   0.4462360  -0.2128129  -0.0443217 SPIN=   0.00000
   P  -0.1039085   0.2532484   0.2500000 SPIN=   0.00000
   P   0.1039085  -0.2532484  -0.2500000 SPIN=   0.00000
  Fe  -0.2165180   0.0745755  -0.2500000 SPIN=   4.00000
  Fe   0.2165180  -0.0745755   0.2500000 SPIN=   4.00000
%ENDBLOCK POSITIONS_FRAC

# Note: total spin =   8.00

KPOINTS_MP_SPACING 0.07

%BLOCK SPECIES_POT
QC5
%ENDBLOCK SPECIES_POT

%BLOCK HUBBARD_U
Fe d:4.0
%ENDBLOCK HUBBARD_U

SNAP_TO_SYMMETRY
SYMMETRY_GENERATE

