#              Generated by Buildcell
#
# at 06:38:38 (GMT+0.0) 24th November 2020
# in /lustre/scratch/uccabz1/launch_tmp
# on node-c12b-026
# by uccabz1
#
# compiler GCC version 4.9.2
# options -cpp -iprefix /lustre/shared/ucl/apps/gcc/4.9.2/bin/../lib/gcc/x86_64-unknown-linux-gnu/4.9.2/ -mtune=corei7 -march=x86-64 -g -Og
#
# seed   -11445618  1441970183  1080275030  -370289690  -387798788 -1937563878  -231392637  -336446849  -530077069   812092508 -2057278248  -148567422
#
#      Author: C. J. Pickard (cjp20@cam.ac.uk)
#                Space group: Cm
#

%BLOCK LATTICE_ABC
      4.65878      6.34495      6.56588
    114.80028    105.54474    100.34675
%ENDBLOCK LATTICE_ABC

%BLOCK POSITIONS_FRAC
  Li   0.3760130   0.4273558  -0.0000000 SPIN=   0.00000
  Li   0.4436433  -0.0403593  -0.0000000 SPIN=   0.00000
   O  -0.3193853  -0.1977069  -0.2262338 SPIN=   0.00000
   O   0.1153200   0.0461064  -0.2996309 SPIN=   0.00000
   O  -0.4216811  -0.1684568  -0.6209024 SPIN=   0.00000
   O  -0.3239832   0.2061780  -0.2321265 SPIN=   0.00000
   P  -0.2428173  -0.0347118  -0.3370856 SPIN=   0.00000
   O  -0.0931515   0.0285269   0.2262338 SPIN=   0.00000
   O   0.4149509   0.3457373   0.2996309 SPIN=   0.00000
   O   0.1992212   0.4524456   0.6209024 SPIN=   0.00000
   O  -0.0918566   0.4383045   0.2321265 SPIN=   0.00000
   P   0.0942683   0.3023739   0.3370856 SPIN=   0.00000
  Fe   0.1065367  -0.1846357  -0.6440039 SPIN=   4.00000
  Fe   0.7505406   0.4593681   0.6440039 SPIN=   4.00000
%ENDBLOCK POSITIONS_FRAC

# Note: total spin =   8.00

KPOINTS_MP_SPACING 0.07

%BLOCK SPECIES_POT
QC5
%ENDBLOCK SPECIES_POT

%BLOCK HUBBARD_U
Fe d:4.0
%ENDBLOCK HUBBARD_U

SNAP_TO_SYMMETRY
SYMMETRY_GENERATE

