#              Generated by Buildcell
#
# at 12:23:20 (GMT+0.0) 24th November 2020
# in /scratch/scratch/uccabz1/launch_tmp
# on node-a14b-028
# by uccabz1
#
# compiler GCC version 4.9.2
# options -cpp -iprefix /scratch/UCL/applications/gcc/4.9.2/bin/../lib/gcc/x86_64-unknown-linux-gnu/4.9.2/ -mtune=corei7 -march=x86-64 -g -O2
#
# seed  1010162121 -1893338909   850070930   823222814  1329505046 -1899574763  1630111319  1461000029  1597015384    25083863   155584031  -508692593
#
#      Author: C. J. Pickard (cjp20@cam.ac.uk)
#                Space group: C2
#

%BLOCK LATTICE_ABC
      4.52409      5.12560      7.85707
     84.79438     78.13615     63.81165
%ENDBLOCK LATTICE_ABC

%BLOCK POSITIONS_FRAC
  Li   0.2020648  -0.4041296   0.5000000 SPIN=   0.00000
  Li   0.1891573  -0.3783146   0.0000000 SPIN=   0.00000
   O   0.0791961   0.1572942  -0.3894222 SPIN=   0.00000
   O  -0.0293308   0.5992490  -0.2067970 SPIN=   0.00000
   O  -0.4816827   0.6269094  -0.3485378 SPIN=   0.00000
   O  -0.3319410   0.2925004  -0.0951207 SPIN=   0.00000
   P  -0.1782201   0.4035616  -0.2649167 SPIN=   0.00000
   O  -0.2364903   0.1572942   0.3894222 SPIN=   0.00000
   O  -0.5699182   0.5992490   0.2067970 SPIN=   0.00000
   O  -0.1452266   0.6269094   0.3485378 SPIN=   0.00000
   O   0.0394406   0.2925004   0.0951207 SPIN=   0.00000
   P  -0.2253415   0.4035616   0.2649167 SPIN=   0.00000
  Fe   0.4703389   0.0250772   0.2494169 SPIN=   4.00000
  Fe  -0.4954160   0.0250772  -0.2494169 SPIN=   4.00000
%ENDBLOCK POSITIONS_FRAC

# Note: total spin =   8.00

KPOINTS_MP_SPACING 0.07

%BLOCK SPECIES_POT
QC5
%ENDBLOCK SPECIES_POT

%BLOCK HUBBARD_U
Fe d:4.0
%ENDBLOCK HUBBARD_U

SNAP_TO_SYMMETRY
SYMMETRY_GENERATE

