#              Generated by Buildcell
#
# at 14:42:14 (GMT+0.0) 24th November 2020
# in /scratch/scratch/uccabz1/launch_tmp
# on node-k10i-025
# by uccabz1
#
# compiler GCC version 4.9.2
# options -cpp -iprefix /scratch/UCL/applications/gcc/4.9.2/bin/../lib/gcc/x86_64-unknown-linux-gnu/4.9.2/ -mtune=corei7 -march=x86-64 -g -O2
#
# seed  1954944593    14839342  1384221609  1493013370  1246293286  1177469452   305719835   571151008  -763823466 -1875273686  1330652418   649096547
#
#      Author: C. J. Pickard (cjp20@cam.ac.uk)
#                Space group: Cm
#

%BLOCK LATTICE_ABC
      4.63579      5.95809      5.95809
    100.67789     95.31994     95.31994
%ENDBLOCK LATTICE_ABC

%BLOCK POSITIONS_FRAC
  Li  -0.2322301   0.2797781   0.2797781 SPIN=   0.00000
  Li  -0.3627262  -0.1604333  -0.1604333 SPIN=   0.00000
   O  -0.1090527   0.4117017  -0.3193182 SPIN=   0.00000
   O  -0.3835881   0.4784742   0.0440184 SPIN=   0.00000
   O   0.1057209   0.3473671   0.0793517 SPIN=   0.00000
   O   0.0557350   0.7485930   0.0224455 SPIN=   0.00000
   P  -0.0825595   0.4949917  -0.0572915 SPIN=   0.00000
   O  -0.1090527  -0.3193182   0.4117017 SPIN=   0.00000
   O  -0.3835881   0.0440184   0.4784742 SPIN=   0.00000
   O   0.1057209   0.0793517   0.3473671 SPIN=   0.00000
   O   0.0557350   0.0224455   0.7485930 SPIN=   0.00000
   P  -0.0825595  -0.0572915   0.4949917 SPIN=   0.00000
  Fe   0.3662812   0.2926007  -0.2884648 SPIN=   4.00000
  Fe   0.3662812  -0.2884648   0.2926007 SPIN=   4.00000
%ENDBLOCK POSITIONS_FRAC

# Note: total spin =   8.00

KPOINTS_MP_SPACING 0.07

%BLOCK SPECIES_POT
QC5
%ENDBLOCK SPECIES_POT

%BLOCK HUBBARD_U
Fe d:4.0
%ENDBLOCK HUBBARD_U

SNAP_TO_SYMMETRY
SYMMETRY_GENERATE

