#              Generated by Buildcell
#
# at 07:37:16 (GMT+0.0) 24th November 2020
# in /lustre/scratch/uccabz1/launch_tmp
# on node-c12l-031
# by uccabz1
#
# compiler GCC version 4.9.2
# options -cpp -iprefix /lustre/shared/ucl/apps/gcc/4.9.2/bin/../lib/gcc/x86_64-unknown-linux-gnu/4.9.2/ -mtune=corei7 -march=x86-64 -g -Og
#
# seed  1579550407   281963187 -1264747321  -127885124  2000416888  1319813156 -1464997305  1797770757   643123814  2140860424    19457763    17033575
#
#      Author: C. J. Pickard (cjp20@cam.ac.uk)
#                Space group: P21/m
#

%BLOCK LATTICE_ABC
      5.30398      5.58817      5.75929
     90.00000     90.00000    110.39688
%ENDBLOCK LATTICE_ABC

%BLOCK POSITIONS_FRAC
  Li   0.4032567  -0.0262279  -0.2500000 SPIN=   0.00000
  Li  -0.4032567   0.0262279   0.2500000 SPIN=   0.00000
   O  -0.7566528  -0.8901396   0.0355218 SPIN=   0.00000
   O  -0.2375148  -0.6691145   0.0155322 SPIN=   0.00000
   O   0.7566528   0.8901396  -0.4644782 SPIN=   0.00000
   O   0.2375148   0.6691145  -0.4844678 SPIN=   0.00000
   O   0.7566528   0.8901396  -0.0355218 SPIN=   0.00000
   O   0.2375148   0.6691145  -0.0155322 SPIN=   0.00000
   O  -0.7566528  -0.8901396   0.4644782 SPIN=   0.00000
   O  -0.2375148  -0.6691145   0.4844678 SPIN=   0.00000
   P   0.0261431   0.2166155  -0.2500000 SPIN=   0.00000
   P  -0.0261431  -0.2166155   0.2500000 SPIN=   0.00000
  Fe  -0.2328122  -0.4100833  -0.2500000 SPIN=   4.00000
  Fe   0.2328122   0.4100833   0.2500000 SPIN=   4.00000
%ENDBLOCK POSITIONS_FRAC

# Note: total spin =   8.00

KPOINTS_MP_SPACING 0.07

%BLOCK SPECIES_POT
QC5
%ENDBLOCK SPECIES_POT

%BLOCK HUBBARD_U
Fe d:4.0
%ENDBLOCK HUBBARD_U

SNAP_TO_SYMMETRY
SYMMETRY_GENERATE

