#              Generated by Buildcell
#
# at 23:28:37 (GMT+0.0) 26th November 2020
# in /lustre/scratch/uccabz1/launch_tmp
# on node-c12c-020
# by uccabz1
#
# compiler GCC version 4.9.2
# options -cpp -iprefix /lustre/shared/ucl/apps/gcc/4.9.2/bin/../lib/gcc/x86_64-unknown-linux-gnu/4.9.2/ -mtune=corei7 -march=x86-64 -g -Og
#
# seed   209052389  -863235994  -130950231 -2024462071    28913750  -774558553 -1699785898  1478793874   473580325   818337520  1350736897 -1533636627
#
#      Author: C. J. Pickard (cjp20@cam.ac.uk)
#                Space group: P-1
#

%BLOCK LATTICE_ABC
      4.88608      7.64946      9.01538
     77.34056     76.96790     89.51815
%ENDBLOCK LATTICE_ABC

%BLOCK POSITIONS_FRAC
  Li   0.2471382  -0.3785128   0.4943348 SPIN=   0.00000
  Li  -0.2471382   0.3785128  -0.4943348 SPIN=   0.00000
  Li   0.5000000  -0.0000000   0.5000000 SPIN=   0.00000
  Li  -0.5000000  -0.0000000  -0.0000000 SPIN=   0.00000
   O  -0.3424650   0.1162955  -0.3119194 SPIN=   0.00000
   O  -0.1887197  -0.1699158  -0.4140771 SPIN=   0.00000
   O   0.1468700  -0.0186552  -0.3103091 SPIN=   0.00000
   O  -0.2812332  -0.1836320  -0.1269093 SPIN=   0.00000
   P  -0.1771176  -0.0557904  -0.2899939 SPIN=   0.00000
   O   0.3424650  -0.1162955   0.3119194 SPIN=   0.00000
   O   0.1887197   0.1699158   0.4140771 SPIN=   0.00000
   O  -0.1468700   0.0186552   0.3103091 SPIN=   0.00000
   O   0.2812332   0.1836320   0.1269093 SPIN=   0.00000
   P   0.1771176   0.0557904   0.2899939 SPIN=   0.00000
   O  -0.0270398   0.5371064  -0.2842417 SPIN=   0.00000
   O  -0.5270757   0.4336590  -0.2930926 SPIN=   0.00000
   O  -0.2991604   0.2548974  -0.0949836 SPIN=   0.00000
   P  -0.3151221   0.4524442  -0.1889779 SPIN=   0.00000
   O   0.0270398  -0.5371064   0.2842417 SPIN=   0.00000
   O   0.5270757  -0.4336590   0.2930926 SPIN=   0.00000
   O   0.2991604  -0.2548974   0.0949836 SPIN=   0.00000
   P   0.3151221  -0.4524442   0.1889779 SPIN=   0.00000
   O   0.0000000   0.5000000   0.0000000 SPIN=   0.00000
   O   0.0000000   0.0000000   0.0000000 SPIN=   0.00000
  Fe  -0.2539356   0.2919075   0.1637351 SPIN=   1.91344
  Fe   0.2539356  -0.2919075  -0.1637351 SPIN=   1.91344
  Fe  -0.1527190  -0.2294509   0.2469160 SPIN=   6.08656
  Fe   0.1527190   0.2294509  -0.2469160 SPIN=   6.08656
%ENDBLOCK POSITIONS_FRAC

# Note: total spin =  16.00

KPOINTS_MP_SPACING 0.07

%BLOCK SPECIES_POT
QC5
%ENDBLOCK SPECIES_POT

%BLOCK HUBBARD_U
Fe d:4.0
%ENDBLOCK HUBBARD_U

SNAP_TO_SYMMETRY
SYMMETRY_GENERATE

