#              Generated by Buildcell
#
# at 07:31:23 (GMT+0.0) 24th November 2020
# in /lustre/scratch/uccabz1/launch_tmp
# on node-c12d-022
# by uccabz1
#
# compiler GCC version 4.9.2
# options -cpp -iprefix /lustre/shared/ucl/apps/gcc/4.9.2/bin/../lib/gcc/x86_64-unknown-linux-gnu/4.9.2/ -mtune=corei7 -march=x86-64 -g -Og
#
# seed  -400123157  -995055354 -1593399538  -492559191 -1596543364   447706648  -711741845  -148190302   -47005840  1502233766   718812485  1910887014
#
#      Author: C. J. Pickard (cjp20@cam.ac.uk)
#                Space group: Fdd2
#

%BLOCK LATTICE_ABC
      5.60887      5.60887      6.33060
    112.91464    112.91464     96.95433
%ENDBLOCK LATTICE_ABC

%BLOCK POSITIONS_FRAC
  Li   0.1474133   0.1474133   0.2948266 SPIN=   0.00000
  Li   0.3974133  -0.1025867  -0.2051734 SPIN=   0.00000
   O  -0.5721816   0.0199130  -0.4718819 SPIN=   0.00000
   O  -0.1594298   0.3210427  -0.0070140 SPIN=   0.00000
   O   0.1002998  -0.4917949  -0.4718819 SPIN=   0.00000
   O   0.1524158  -0.3280567  -0.0070140 SPIN=   0.00000
   O   0.2699130   0.1778184   0.0281181 SPIN=   0.00000
   O   0.5710427   0.5905702   0.4929860 SPIN=   0.00000
   O  -0.2417949  -0.1497002   0.0281181 SPIN=   0.00000
   O  -0.0780567  -0.0975842   0.4929860 SPIN=   0.00000
   P  -0.1222408  -0.1222408  -0.2444817 SPIN=   0.00000
   P   0.1277592   0.6277592   0.2555183 SPIN=   0.00000
  Fe  -0.1811350  -0.6811350  -0.3622701 SPIN=   4.00000
  Fe  -0.4311350   0.5688650   0.1377299 SPIN=   4.00000
%ENDBLOCK POSITIONS_FRAC

# Note: total spin =   8.00

KPOINTS_MP_SPACING 0.07

%BLOCK SPECIES_POT
QC5
%ENDBLOCK SPECIES_POT

%BLOCK HUBBARD_U
Fe d:4.0
%ENDBLOCK HUBBARD_U

SNAP_TO_SYMMETRY
SYMMETRY_GENERATE

