#              Generated by Buildcell
#
# at 12:40:50 (GMT+0.0) 24th November 2020
# in /lustre/scratch/uccabz1/launch_tmp
# on node-c12l-027
# by uccabz1
#
# compiler GCC version 4.9.2
# options -cpp -iprefix /lustre/shared/ucl/apps/gcc/4.9.2/bin/../lib/gcc/x86_64-unknown-linux-gnu/4.9.2/ -mtune=corei7 -march=x86-64 -g -Og
#
# seed  -270355306  1115651464   967051791  -618295524  1601166033   368535522  1893047254  -678185882   343109386   640861026 -1307094520   265082430
#
#      Author: C. J. Pickard (cjp20@cam.ac.uk)
#                Space group: Cc
#

%BLOCK LATTICE_ABC
      4.71585      6.00233      6.63367
     63.10131     82.32746     72.83598
%ENDBLOCK LATTICE_ABC

%BLOCK POSITIONS_FRAC
  Li  -0.4155440  -0.0367644  -0.1621610 SPIN=   0.00000
  Li   0.0844560  -0.1989254   0.1621610 SPIN=   0.00000
   O  -0.4623436   0.7670498   0.1971405 SPIN=   0.00000
   O  -0.4405009   0.2895707   0.4791259 SPIN=   0.00000
   O  -0.1835834   0.3752490   0.1123453 SPIN=   0.00000
   O   0.0201547   0.4415661   0.4049427 SPIN=   0.00000
   P  -0.2736088   0.4839465   0.2942551 SPIN=   0.00000
   O   0.0376564  -0.0358097  -0.1971405 SPIN=   0.00000
   O   0.0594991  -0.2313033  -0.4791259 SPIN=   0.00000
   O   0.3164166  -0.5124057  -0.1123453 SPIN=   0.00000
   O   0.5201547  -0.1534912  -0.4049427 SPIN=   0.00000
   P   0.2263912  -0.2217983  -0.2942551 SPIN=   0.00000
  Fe   0.4245024   0.1470323   0.2677057 SPIN=   4.00000
  Fe  -0.0754976   0.4147380  -0.2677057 SPIN=   4.00000
%ENDBLOCK POSITIONS_FRAC

# Note: total spin =   8.00

KPOINTS_MP_SPACING 0.07

%BLOCK SPECIES_POT
QC5
%ENDBLOCK SPECIES_POT

%BLOCK HUBBARD_U
Fe d:4.0
%ENDBLOCK HUBBARD_U

SNAP_TO_SYMMETRY
SYMMETRY_GENERATE

