#              Generated by Buildcell
#
# at 23:06:12 (GMT+0.0) 26th November 2020
# in /scratch/scratch/uccabz1/launch_tmp
# on node-k10d-022
# by uccabz1
#
# compiler GCC version 4.9.2
# options -cpp -iprefix /scratch/UCL/applications/gcc/4.9.2/bin/../lib/gcc/x86_64-unknown-linux-gnu/4.9.2/ -mtune=corei7 -march=x86-64 -g -O2
#
# seed -1215352585  -862695676  1971059686   259809400  1204599005   622582979  -848510259  -124474041   604442943 -1683308685   121204911 -1705577392
#
#      Author: C. J. Pickard (cjp20@cam.ac.uk)
#                Space group: P21
#

%BLOCK LATTICE_ABC
      4.64239      7.09158      9.78158
     90.00000     96.43439     90.00000
%ENDBLOCK LATTICE_ABC

%BLOCK POSITIONS_FRAC
  Li   0.1813734  -0.2463749   0.1693442 SPIN=   0.00000
  Li  -0.1813734   0.2536251  -0.1693442 SPIN=   0.00000
  Li   0.2892209   0.0378190  -0.2870190 SPIN=   0.00000
  Li  -0.2892209  -0.4621810   0.2870190 SPIN=   0.00000
   O   0.1368652   0.5633867  -0.0490519 SPIN=   0.00000
   O   0.1864636   0.3458732  -0.2588582 SPIN=   0.00000
   O   0.6187888   0.5204383  -0.1572880 SPIN=   0.00000
   O   0.4281634   0.2524707  -0.0269789 SPIN=   0.00000
   P   0.3326275   0.4261645  -0.1179709 SPIN=   0.00000
   O  -0.1368652   0.0633867   0.0490519 SPIN=   0.00000
   O  -0.1864636  -0.1541268   0.2588582 SPIN=   0.00000
   O  -0.6187888   0.0204383   0.1572880 SPIN=   0.00000
   O  -0.4281634  -0.2475293   0.0269789 SPIN=   0.00000
   P  -0.3326275  -0.0738355   0.1179709 SPIN=   0.00000
   O  -0.1350458   0.2373719   0.5393269 SPIN=   0.00000
   O  -0.2584772   0.2414391   0.2736281 SPIN=   0.00000
   O   0.1754655   0.4143773   0.3751920 SPIN=   0.00000
   O   0.1760523   0.0612429   0.3772798 SPIN=   0.00000
   P  -0.0149312   0.2364489   0.3990692 SPIN=   0.00000
   O   0.1350458  -0.2626281  -0.5393269 SPIN=   0.00000
   O   0.2584772  -0.2585609  -0.2736281 SPIN=   0.00000
   O  -0.1754655  -0.0856227  -0.3751920 SPIN=   0.00000
   O  -0.1760523  -0.4387571  -0.3772798 SPIN=   0.00000
   P   0.0149312  -0.2635511  -0.3990692 SPIN=   0.00000
  Fe   0.1775681   0.2831707   0.1365931 SPIN=   3.87292
  Fe  -0.1775681  -0.2168293  -0.1365931 SPIN=   3.87292
  Fe   0.4154751   0.4422964  -0.4311005 SPIN=   4.12708
  Fe  -0.4154751  -0.0577036   0.4311005 SPIN=   4.12708
%ENDBLOCK POSITIONS_FRAC

# Note: total spin =  16.00

KPOINTS_MP_SPACING 0.07

%BLOCK SPECIES_POT
QC5
%ENDBLOCK SPECIES_POT

%BLOCK HUBBARD_U
Fe d:4.0
%ENDBLOCK HUBBARD_U

SNAP_TO_SYMMETRY
SYMMETRY_GENERATE

