#              Generated by Buildcell
#
# at 11:45:17 (GMT+0.0) 24th November 2020
# in /scratch/scratch/uccabz1/launch_tmp
# on node-a14c-007
# by uccabz1
#
# compiler GCC version 4.9.2
# options -cpp -iprefix /scratch/UCL/applications/gcc/4.9.2/bin/../lib/gcc/x86_64-unknown-linux-gnu/4.9.2/ -mtune=corei7 -march=x86-64 -g -O2
#
# seed   103844841    71670820   950373062   691032719  2071173458  -858613071 -1934314186  -407037891   895448811   245921973  -419928763 -2013954722
#
#      Author: C. J. Pickard (cjp20@cam.ac.uk)
#                Space group: Cm
#

%BLOCK LATTICE_ABC
      5.38205      6.17262      6.17262
    101.22723    112.61445    112.61445
%ENDBLOCK LATTICE_ABC

%BLOCK POSITIONS_FRAC
  Li  -0.4765039  -0.2158937  -0.2158937 SPIN=   0.00000
  Li   0.1544957   0.2914458   0.2914458 SPIN=   0.00000
   O   0.2489297   0.3865397  -0.3275586 SPIN=   0.00000
   O  -0.0857857   0.0808275  -0.1884390 SPIN=   0.00000
   O   0.2962491  -0.0015303  -0.2603347 SPIN=   0.00000
   O   0.4863899   0.3798823   0.1212464 SPIN=   0.00000
   P   0.2400600   0.2227415  -0.1691288 SPIN=   0.00000
   O   0.2489297  -0.3275586   0.3865397 SPIN=   0.00000
   O  -0.0857857  -0.1884390   0.0808275 SPIN=   0.00000
   O   0.2962491  -0.2603347  -0.0015303 SPIN=   0.00000
   O   0.4863899   0.1212464   0.3798823 SPIN=   0.00000
   P   0.2400600  -0.1691288   0.2227415 SPIN=   0.00000
  Fe  -0.2243559   0.3625787  -0.2284067 SPIN=   4.00000
  Fe  -0.2243559  -0.2284067   0.3625787 SPIN=   4.00000
%ENDBLOCK POSITIONS_FRAC

# Note: total spin =   8.00

KPOINTS_MP_SPACING 0.07

%BLOCK SPECIES_POT
QC5
%ENDBLOCK SPECIES_POT

%BLOCK HUBBARD_U
Fe d:4.0
%ENDBLOCK HUBBARD_U

SNAP_TO_SYMMETRY
SYMMETRY_GENERATE

