#              Generated by Buildcell
#
# at 13:17:41 (GMT+0.0) 24th November 2020
# in /scratch/scratch/uccabz1/launch_tmp
# on node-a14c-025
# by uccabz1
#
# compiler GCC version 4.9.2
# options -cpp -iprefix /scratch/UCL/applications/gcc/4.9.2/bin/../lib/gcc/x86_64-unknown-linux-gnu/4.9.2/ -mtune=corei7 -march=x86-64 -g -O2
#
# seed  -868477960  1279626158   650780427   861244663 -1581677169  -474756820 -1478292501   299566533  1227854915  -149053844 -1790732748  -601985891
#
#      Author: C. J. Pickard (cjp20@cam.ac.uk)
#                Space group: Pm
#

%BLOCK LATTICE_ABC
      3.94981      4.21380      9.86920
     90.00000     90.00000    103.07746
%ENDBLOCK LATTICE_ABC

%BLOCK POSITIONS_FRAC
  Li  -0.0169856  -0.1137580  -0.2971363 SPIN=   0.00000
  Li  -0.0169856  -0.1137580   0.2971363 SPIN=   0.00000
   O   0.7035900   0.6663445  -0.1282730 SPIN=   0.00000
   O   0.3076572   0.5661539  -0.3414141 SPIN=   0.00000
   O   0.5612637   0.1171455  -0.2590996 SPIN=   0.00000
   O   0.0924347   0.2832036  -0.1244196 SPIN=   0.00000
   P   0.4277153   0.4204810  -0.2077253 SPIN=   0.00000
   O   0.7035900   0.6663445   0.1282730 SPIN=   0.00000
   O   0.3076572   0.5661539   0.3414141 SPIN=   0.00000
   O   0.5612637   0.1171455   0.2590996 SPIN=   0.00000
   O   0.0924347   0.2832036   0.1244196 SPIN=   0.00000
   P   0.4277153   0.4204810   0.2077253 SPIN=   0.00000
  Fe  -0.3236143   0.0564785  -0.0000000 SPIN=   5.28531
  Fe  -0.4190110   0.3037620  -0.5000000 SPIN=   2.71469
%ENDBLOCK POSITIONS_FRAC

# Note: total spin =   8.00

KPOINTS_MP_SPACING 0.07

%BLOCK SPECIES_POT
QC5
%ENDBLOCK SPECIES_POT

%BLOCK HUBBARD_U
Fe d:4.0
%ENDBLOCK HUBBARD_U

SNAP_TO_SYMMETRY
SYMMETRY_GENERATE

