#              Generated by Buildcell
#
# at 12:47:02 (GMT+0.0) 24th November 2020
# in /lustre/scratch/uccabz1/launch_tmp
# on node-c12n-028
# by uccabz1
#
# compiler GCC version 4.9.2
# options -cpp -iprefix /lustre/shared/ucl/apps/gcc/4.9.2/bin/../lib/gcc/x86_64-unknown-linux-gnu/4.9.2/ -mtune=corei7 -march=x86-64 -g -Og
#
# seed  1979877627  -721631789   724118937  1367001425    58927084  2058943218 -1730855087  -365887638  1387076187  -268703235   220975689   193638513
#
#      Author: C. J. Pickard (cjp20@cam.ac.uk)
#                Space group: P-1
#

%BLOCK LATTICE_ABC
      4.38787      5.45221      6.85676
     85.79958     81.95057     80.53686
%ENDBLOCK LATTICE_ABC

%BLOCK POSITIONS_FRAC
  Li   0.3125066  -0.2404695   0.4552361 SPIN=   0.00000
  Li  -0.3125066   0.2404695  -0.4552361 SPIN=   0.00000
   O  -0.2580240   0.0147206   0.3017578 SPIN=   0.00000
   O  -0.4042166  -0.3950350   0.1972957 SPIN=   0.00000
   O   0.0642087  -0.2447418   0.0184362 SPIN=   0.00000
   P  -0.1365668  -0.2471998   0.2272548 SPIN=   0.00000
   O   0.2580240  -0.0147206  -0.3017578 SPIN=   0.00000
   O   0.4042166   0.3950350  -0.1972957 SPIN=   0.00000
   O  -0.0642087   0.2447418  -0.0184362 SPIN=   0.00000
   P   0.1365668   0.2471998  -0.2272548 SPIN=   0.00000
   O   0.0000000   0.5000000  -0.5000000 SPIN=   0.00000
   O  -0.5000000   0.0000000   0.0000000 SPIN=   0.00000
  Fe  -0.2606291  -0.2838421  -0.1792305 SPIN=   4.00000
  Fe   0.2606291   0.2838421   0.1792305 SPIN=   4.00000
%ENDBLOCK POSITIONS_FRAC

# Note: total spin =   8.00

KPOINTS_MP_SPACING 0.07

%BLOCK SPECIES_POT
QC5
%ENDBLOCK SPECIES_POT

%BLOCK HUBBARD_U
Fe d:4.0
%ENDBLOCK HUBBARD_U

SNAP_TO_SYMMETRY
SYMMETRY_GENERATE

