#              Generated by Buildcell
#
# at 06:18:57 (GMT+0.0) 24th November 2020
# in /lustre/scratch/uccabz1/launch_tmp
# on node-c12i-032
# by uccabz1
#
# compiler GCC version 4.9.2
# options -cpp -iprefix /lustre/shared/ucl/apps/gcc/4.9.2/bin/../lib/gcc/x86_64-unknown-linux-gnu/4.9.2/ -mtune=corei7 -march=x86-64 -g -Og
#
# seed  1384945888   645724449 -1443569441 -1211565242  -860225025 -1256954096 -1825522496  -257144843 -2077939340 -1719772344 -1152963187  1166047694
#
#      Author: C. J. Pickard (cjp20@cam.ac.uk)
#                Space group: P-1
#

%BLOCK LATTICE_ABC
      4.80667      4.88282      7.78883
     97.74927    104.96209    110.66402
%ENDBLOCK LATTICE_ABC

%BLOCK POSITIONS_FRAC
  Li  -0.3366540   0.2632688   0.4173303 SPIN=   0.00000
  Li   0.3366540  -0.2632688  -0.4173303 SPIN=   0.00000
   O  -0.3728401  -0.2415571  -0.0766265 SPIN=   0.00000
   O  -0.2421349  -0.7152455  -0.1021455 SPIN=   0.00000
   O  -0.5548517  -0.6409510  -0.3838160 SPIN=   0.00000
   O   0.0172084  -0.2994341  -0.2380684 SPIN=   0.00000
   P  -0.2890600  -0.4598411  -0.1940336 SPIN=   0.00000
   O   0.3728401   0.2415571   0.0766265 SPIN=   0.00000
   O   0.2421349   0.7152455   0.1021455 SPIN=   0.00000
   O   0.5548517   0.6409510   0.3838160 SPIN=   0.00000
   O  -0.0172084   0.2994341   0.2380684 SPIN=   0.00000
   P   0.2890600   0.4598411   0.1940336 SPIN=   0.00000
  Fe   0.0879396   0.1834310  -0.1994568 SPIN=   4.00000
  Fe  -0.0879396  -0.1834310   0.1994568 SPIN=   4.00000
%ENDBLOCK POSITIONS_FRAC

# Note: total spin =   8.00

KPOINTS_MP_SPACING 0.07

%BLOCK SPECIES_POT
QC5
%ENDBLOCK SPECIES_POT

%BLOCK HUBBARD_U
Fe d:4.0
%ENDBLOCK HUBBARD_U

SNAP_TO_SYMMETRY
SYMMETRY_GENERATE

