#              Generated by Buildcell
#
# at 12:33:49 (GMT+0.0) 24th November 2020
# in /scratch/scratch/uccabz1/launch_tmp
# on node-a14b-010
# by uccabz1
#
# compiler GCC version 4.9.2
# options -cpp -iprefix /scratch/UCL/applications/gcc/4.9.2/bin/../lib/gcc/x86_64-unknown-linux-gnu/4.9.2/ -mtune=corei7 -march=x86-64 -g -O2
#
# seed   393698945  2052745066 -2144803624  -671185698  -434848296  -424550337  1600396600  1875160600  -614845409  -428161796 -1622235409 -1794098276
#
#      Author: C. J. Pickard (cjp20@cam.ac.uk)
#                Space group: Ima2
#

%BLOCK LATTICE_ABC
      5.69764      5.74719      6.34414
    116.93329    116.68257     90.00000
%ENDBLOCK LATTICE_ABC

%BLOCK POSITIONS_FRAC
  Li   0.3858021   0.3830081   0.5000000 SPIN=   0.00000
  Li  -0.3858021  -0.1169919  -0.5000000 SPIN=   0.00000
   O  -0.0648556   0.2692773   0.2066420 SPIN=   0.00000
   O  -0.5012006   0.1944374  -0.2286445 SPIN=   0.00000
   O   0.0648556   0.0626352  -0.2066420 SPIN=   0.00000
   O   0.5012006   0.4230819   0.2286445 SPIN=   0.00000
   O  -0.2285024  -0.2307227   0.2066420 SPIN=   0.00000
   O  -0.2274439  -0.3055626  -0.2286445 SPIN=   0.00000
   O   0.2285024  -0.4373648  -0.2066420 SPIN=   0.00000
   O   0.2274439  -0.0769181   0.2286445 SPIN=   0.00000
   P   0.0000000  -0.0058766   0.0000000 SPIN=   0.00000
   P  -0.5000000   0.4941234  -1.0000000 SPIN=   0.00000
  Fe   0.0000000   0.4953409   0.0000000 SPIN=   4.00000
  Fe   0.5000000  -0.0046591   1.0000000 SPIN=   4.00000
%ENDBLOCK POSITIONS_FRAC

# Note: total spin =   8.00

KPOINTS_MP_SPACING 0.07

%BLOCK SPECIES_POT
QC5
%ENDBLOCK SPECIES_POT

%BLOCK HUBBARD_U
Fe d:4.0
%ENDBLOCK HUBBARD_U

SNAP_TO_SYMMETRY
SYMMETRY_GENERATE

