#              Generated by Buildcell
#
# at 10:40:45 (GMT+0.0) 24th November 2020
# in /lustre/scratch/uccabz1/launch_tmp
# on node-c12n-028
# by uccabz1
#
# compiler GCC version 4.9.2
# options -cpp -iprefix /lustre/shared/ucl/apps/gcc/4.9.2/bin/../lib/gcc/x86_64-unknown-linux-gnu/4.9.2/ -mtune=corei7 -march=x86-64 -g -Og
#
# seed  1401724122   431251260   460633747 -1213440712  -570708222   686488755  1151759487 -1488772994 -1854584962   764005252 -1781472192  -867418177
#
#      Author: C. J. Pickard (cjp20@cam.ac.uk)
#                Space group: P21
#

%BLOCK LATTICE_ABC
      3.92098      5.67367      7.27591
     90.00000     98.69988     90.00000
%ENDBLOCK LATTICE_ABC

%BLOCK POSITIONS_FRAC
  Li   0.3193745  -0.1731104   0.4867614 SPIN=   0.00000
  Li  -0.3193745   0.3268896  -0.4867614 SPIN=   0.00000
   O  -0.4386714  -0.5929816   0.0940475 SPIN=   0.00000
   O  -0.2582890  -0.3115751   0.3735508 SPIN=   0.00000
   O   0.1446302  -0.6280307   0.3154002 SPIN=   0.00000
   O   0.0482463  -0.2859151   0.0961984 SPIN=   0.00000
   P  -0.1406116  -0.4600014   0.2116450 SPIN=   0.00000
   O   0.4386714  -0.0929816  -0.0940475 SPIN=   0.00000
   O   0.2582890   0.1884249  -0.3735508 SPIN=   0.00000
   O  -0.1446302  -0.1280307  -0.3154002 SPIN=   0.00000
   O  -0.0482463   0.2140849  -0.0961984 SPIN=   0.00000
   P   0.1406116   0.0399986  -0.2116450 SPIN=   0.00000
  Fe  -0.2136665   0.0406525   0.1295576 SPIN=   4.00000
  Fe   0.2136665  -0.4593475  -0.1295576 SPIN=   4.00000
%ENDBLOCK POSITIONS_FRAC

# Note: total spin =   8.00

KPOINTS_MP_SPACING 0.07

%BLOCK SPECIES_POT
QC5
%ENDBLOCK SPECIES_POT

%BLOCK HUBBARD_U
Fe d:4.0
%ENDBLOCK HUBBARD_U

SNAP_TO_SYMMETRY
SYMMETRY_GENERATE

