#              Generated by Buildcell
#
# at 10:00:12 (GMT+0.0) 26th November 2020
# in /lustre/scratch/uccabz1/launch_tmp
# on node-c12e-023
# by uccabz1
#
# compiler GCC version 4.9.2
# options -cpp -iprefix /lustre/shared/ucl/apps/gcc/4.9.2/bin/../lib/gcc/x86_64-unknown-linux-gnu/4.9.2/ -mtune=corei7 -march=x86-64 -g -Og
#
# seed   936157462 -1729451833  1372798395  1551759505 -1650242170 -1304758810   -45958511 -1473029585 -1557672601   531477044 -2053451622   689556825
#
#      Author: C. J. Pickard (cjp20@cam.ac.uk)
#                Space group: P21
#

%BLOCK LATTICE_ABC
      5.66506      6.35795      8.88657
     91.26635     90.00000     90.00000
%ENDBLOCK LATTICE_ABC

%BLOCK POSITIONS_FRAC
  Li   0.2458901   0.0090979   0.1708591 SPIN=   0.00000
  Li  -0.2541099  -0.0090979  -0.1708591 SPIN=   0.00000
  Li   0.2458903  -0.4658771   0.2033449 SPIN=   0.00000
  Li  -0.2541097   0.4658771  -0.2033449 SPIN=   0.00000
   O   0.1903990  -0.2945268   0.6090621 SPIN=   0.00000
   O  -0.0171371  -0.0204187   0.4415565 SPIN=   0.00000
   O   0.3409967  -0.1973954   0.3433337 SPIN=   0.00000
   O  -0.0344466  -0.4020982   0.3664995 SPIN=   0.00000
   P   0.1218818  -0.2341669   0.4482399 SPIN=   0.00000
   O  -0.3096010   0.2945268  -0.6090621 SPIN=   0.00000
   O  -0.5171371   0.0204187  -0.4415565 SPIN=   0.00000
   O  -0.1590033   0.1973954  -0.3433337 SPIN=   0.00000
   O  -0.5344466   0.4020982  -0.3664995 SPIN=   0.00000
   P  -0.3781182   0.2341669  -0.4482399 SPIN=   0.00000
   O  -0.0296454  -0.2947269   0.0390801 SPIN=   0.00000
   O  -0.2689719  -0.0419390   0.2148418 SPIN=   0.00000
   O  -0.4598699  -0.1788195  -0.0172313 SPIN=   0.00000
   O  -0.3843376  -0.4218179   0.1954680 SPIN=   0.00000
   P  -0.2732362  -0.2397545   0.1053997 SPIN=   0.00000
   O   0.4703546   0.2947269  -0.0390801 SPIN=   0.00000
   O   0.2310281   0.0419390  -0.2148418 SPIN=   0.00000
   O   0.0401301   0.1788195   0.0172313 SPIN=   0.00000
   O   0.1156624   0.4218179  -0.1954680 SPIN=   0.00000
   P   0.2267638   0.2397545  -0.1053997 SPIN=   0.00000
  Fe  -0.2541094   0.2753461   0.1456308 SPIN=   3.59397
  Fe   0.2458906  -0.2753461  -0.1456308 SPIN=   3.59397
  Fe   0.1218821   0.2890478  -0.4814664 SPIN=   4.40603
  Fe  -0.3781179  -0.2890478   0.4814664 SPIN=   4.40603
%ENDBLOCK POSITIONS_FRAC

# Note: total spin =  16.00

KPOINTS_MP_SPACING 0.07

%BLOCK SPECIES_POT
QC5
%ENDBLOCK SPECIES_POT

%BLOCK HUBBARD_U
Fe d:4.0
%ENDBLOCK HUBBARD_U

SNAP_TO_SYMMETRY
SYMMETRY_GENERATE

