#              Generated by Buildcell
#
# at 23:44:13 (GMT+0.0) 26th November 2020
# in /lustre/scratch/uccabz1/launch_tmp
# on node-c12o-032
# by uccabz1
#
# compiler GCC version 4.9.2
# options -cpp -iprefix /lustre/shared/ucl/apps/gcc/4.9.2/bin/../lib/gcc/x86_64-unknown-linux-gnu/4.9.2/ -mtune=corei7 -march=x86-64 -g -Og
#
# seed   977175210  1736095175 -1318255961 -1410784580  1735634881   -86125566 -1612940138   954995348  1380432117   287273959  2029777711 -1920607449
#
#      Author: C. J. Pickard (cjp20@cam.ac.uk)
#                Space group: Pc
#

%BLOCK LATTICE_ABC
      4.88603      7.87562      8.32616
     92.84486     90.00000     90.00000
%ENDBLOCK LATTICE_ABC

%BLOCK POSITIONS_FRAC
  Li   0.3626465  -0.2218011  -0.2418395 SPIN=   0.00000
  Li  -0.3626465  -0.2218011   0.2581605 SPIN=   0.00000
  Li  -0.2357980  -0.4319255  -0.0561038 SPIN=   0.00000
  Li   0.2357980  -0.4319255   0.4438962 SPIN=   0.00000
   O   0.2037667   0.2329544  -0.0036101 SPIN=   0.00000
   O   0.1617983   0.3216971   0.3001087 SPIN=   0.00000
   O   0.0040075   0.0352639   0.2078921 SPIN=   0.00000
   O   0.5057024   0.1004513   0.2119141 SPIN=   0.00000
   P   0.2214028   0.1749544   0.1697366 SPIN=   0.00000
   O  -0.2037667   0.2329544  -0.5036101 SPIN=   0.00000
   O  -0.1617983   0.3216971  -0.1998913 SPIN=   0.00000
   O  -0.0040075   0.0352639  -0.2921079 SPIN=   0.00000
   O  -0.5057024   0.1004513  -0.2880859 SPIN=   0.00000
   P  -0.2214028   0.1749544  -0.3302634 SPIN=   0.00000
   O  -0.0188342  -0.2751881  -0.3502961 SPIN=   0.00000
   O  -0.1788551  -0.4203547  -0.6211962 SPIN=   0.00000
   O  -0.4217900  -0.4902914  -0.3728567 SPIN=   0.00000
   O  -0.4798334  -0.2018053  -0.4819195 SPIN=   0.00000
   P  -0.2636170  -0.3413786  -0.4512079 SPIN=   0.00000
   O   0.0188342  -0.2751881   0.1497039 SPIN=   0.00000
   O   0.1788551  -0.4203547  -0.1211962 SPIN=   0.00000
   O   0.4217900  -0.4902914   0.1271433 SPIN=   0.00000
   O   0.4798334  -0.2018053   0.0180805 SPIN=   0.00000
   P   0.2636170  -0.3413786   0.0487921 SPIN=   0.00000
  Fe  -0.2773038   0.3444310   0.2665377 SPIN=   5.48604
  Fe   0.2773038   0.3444310  -0.2334623 SPIN=   5.48604
  Fe   0.1373521  -0.0188685   0.4481422 SPIN=   2.51396
  Fe  -0.1373521  -0.0188685  -0.0518578 SPIN=   2.51396
%ENDBLOCK POSITIONS_FRAC

# Note: total spin =  16.00

KPOINTS_MP_SPACING 0.07

%BLOCK SPECIES_POT
QC5
%ENDBLOCK SPECIES_POT

%BLOCK HUBBARD_U
Fe d:4.0
%ENDBLOCK HUBBARD_U

SNAP_TO_SYMMETRY
SYMMETRY_GENERATE

