#              Generated by Buildcell
#
# at 09:08:44 (GMT+0.0) 24th November 2020
# in /lustre/scratch/uccabz1/launch_tmp
# on node-c12e-031
# by uccabz1
#
# compiler GCC version 4.9.2
# options -cpp -iprefix /lustre/shared/ucl/apps/gcc/4.9.2/bin/../lib/gcc/x86_64-unknown-linux-gnu/4.9.2/ -mtune=corei7 -march=x86-64 -g -Og
#
# seed  -318010206   131679773 -1862002520 -1150612867  1361767503   471592587  1357809393   499790944 -1953711580   -15270113  1353584503  1006998939
#
#      Author: C. J. Pickard (cjp20@cam.ac.uk)
#                Space group: P-1
#

%BLOCK LATTICE_ABC
      4.01664      5.43691      7.79179
     79.76671     75.99695     77.93505
%ENDBLOCK LATTICE_ABC

%BLOCK POSITIONS_FRAC
  Li   0.5000000   0.0000000  -0.5000000 SPIN=   0.00000
  Li   0.0000000   0.5000000  -0.5000000 SPIN=   0.00000
   O   0.2270711  -0.1598591   0.3606947 SPIN=   0.00000
   O   0.8662983  -0.3382096   0.2160438 SPIN=   0.00000
   O   0.4208836  -0.6088363   0.2613073 SPIN=   0.00000
   O   0.4163800  -0.2264376   0.0285746 SPIN=   0.00000
   P   0.4682674  -0.3228374   0.2221049 SPIN=   0.00000
   O  -0.2270711   0.1598591  -0.3606947 SPIN=   0.00000
   O  -0.8662983   0.3382096  -0.2160438 SPIN=   0.00000
   O  -0.4208836   0.6088363  -0.2613073 SPIN=   0.00000
   O  -0.4163800   0.2264376  -0.0285746 SPIN=   0.00000
   P  -0.4682674   0.3228374  -0.2221049 SPIN=   0.00000
  Fe  -0.1174217  -0.1903765  -0.1586015 SPIN=   4.00000
  Fe   0.1174217   0.1903765   0.1586015 SPIN=   4.00000
%ENDBLOCK POSITIONS_FRAC

# Note: total spin =   8.00

KPOINTS_MP_SPACING 0.07

%BLOCK SPECIES_POT
QC5
%ENDBLOCK SPECIES_POT

%BLOCK HUBBARD_U
Fe d:4.0
%ENDBLOCK HUBBARD_U

SNAP_TO_SYMMETRY
SYMMETRY_GENERATE

