#              Generated by Buildcell
#
# at 14:20:40 (GMT+0.0) 24th November 2020
# in /lustre/scratch/uccabz1/launch_tmp
# on node-c12h-027
# by uccabz1
#
# compiler GCC version 4.9.2
# options -cpp -iprefix /lustre/shared/ucl/apps/gcc/4.9.2/bin/../lib/gcc/x86_64-unknown-linux-gnu/4.9.2/ -mtune=corei7 -march=x86-64 -g -Og
#
# seed -1949451470   872695384  1796455590  1286844865   540467791  1817350809 -1697339150 -1536680351   161300520   106634920 -1103101218 -2046452212
#
#      Author: C. J. Pickard (cjp20@cam.ac.uk)
#                Space group: Cc
#

%BLOCK LATTICE_ABC
      5.30114      5.30114      6.40375
     99.76391     99.76391    111.23323
%ENDBLOCK LATTICE_ABC

%BLOCK POSITIONS_FRAC
  Li  -0.0345229  -0.0047368  -0.2107367 SPIN=   0.00000
  Li  -0.0047368  -0.0345229   0.2892633 SPIN=   0.00000
   O   0.1395469  -0.7208217  -0.4170364 SPIN=   0.00000
   O   0.3599375  -0.1873775  -0.2346186 SPIN=   0.00000
   O  -0.1548621  -0.4285247  -0.3545722 SPIN=   0.00000
   O   0.1051830  -0.5196225  -0.0313255 SPIN=   0.00000
   P   0.1138083  -0.4784118  -0.2650908 SPIN=   0.00000
   O  -0.7208217   0.1395469   0.0829636 SPIN=   0.00000
   O  -0.1873775   0.3599375   0.2653814 SPIN=   0.00000
   O  -0.4285247  -0.1548621   0.1454278 SPIN=   0.00000
   O  -0.5196225   0.1051830   0.4686745 SPIN=   0.00000
   P  -0.4784118   0.1138083   0.2349092 SPIN=   0.00000
  Fe  -0.3685523   0.3908113  -0.1029385 SPIN=   4.00000
  Fe   0.3908113  -0.3685523   0.3970615 SPIN=   4.00000
%ENDBLOCK POSITIONS_FRAC

# Note: total spin =   8.00

KPOINTS_MP_SPACING 0.07

%BLOCK SPECIES_POT
QC5
%ENDBLOCK SPECIES_POT

%BLOCK HUBBARD_U
Fe d:4.0
%ENDBLOCK HUBBARD_U

SNAP_TO_SYMMETRY
SYMMETRY_GENERATE

