#              Generated by Buildcell
#
# at 11:58:23 (GMT+0.0) 24th November 2020
# in /scratch/scratch/uccabz1/launch_tmp
# on node-a14a-004
# by uccabz1
#
# compiler GCC version 4.9.2
# options -cpp -iprefix /scratch/UCL/applications/gcc/4.9.2/bin/../lib/gcc/x86_64-unknown-linux-gnu/4.9.2/ -mtune=corei7 -march=x86-64 -g -O2
#
# seed -1820387297  1776233912  -671798881 -1609490625   558117710   583037732  1994270372  1907031815 -2121291682 -1422540379 -2010298953  1109523980
#
#      Author: C. J. Pickard (cjp20@cam.ac.uk)
#                Space group: C2
#

%BLOCK LATTICE_ABC
      4.19381      6.40750      6.40750
     89.18993     74.75704     74.75704
%ENDBLOCK LATTICE_ABC

%BLOCK POSITIONS_FRAC
  Li   0.2473112  -0.3799579  -0.1909460 SPIN=   0.00000
  Li  -0.2473112   0.1909460   0.3799579 SPIN=   0.00000
   O   0.0054561   0.3828850   0.1401099 SPIN=   0.00000
   O  -0.2980921   0.6799568  -0.0764801 SPIN=   0.00000
   O  -0.3800077   0.3134077  -0.0946431 SPIN=   0.00000
   P  -0.3169279   0.4763488   0.0614487 SPIN=   0.00000
   O  -0.0054561  -0.1401099  -0.3828850 SPIN=   0.00000
   O   0.2980921   0.0764801  -0.6799568 SPIN=   0.00000
   O   0.3800077   0.0946431  -0.3134077 SPIN=   0.00000
   P   0.3169279  -0.0614487  -0.4763488 SPIN=   0.00000
   O   0.0000000   0.4185384  -0.4185384 SPIN=   0.00000
   O  -0.5000000  -0.4363985   0.4363985 SPIN=   0.00000
  Fe  -0.5000000   0.0186659  -0.0186659 SPIN=   3.21745
  Fe   0.0000000  -0.3484659   0.3484659 SPIN=   4.78255
%ENDBLOCK POSITIONS_FRAC

# Note: total spin =   8.00

KPOINTS_MP_SPACING 0.07

%BLOCK SPECIES_POT
QC5
%ENDBLOCK SPECIES_POT

%BLOCK HUBBARD_U
Fe d:4.0
%ENDBLOCK HUBBARD_U

SNAP_TO_SYMMETRY
SYMMETRY_GENERATE

