#              Generated by Buildcell
#
# at 11:31:17 (GMT+0.0) 24th November 2020
# in /scratch/scratch/uccabz1/launch_tmp
# on node-a14f-024
# by uccabz1
#
# compiler GCC version 4.9.2
# options -cpp -iprefix /scratch/UCL/applications/gcc/4.9.2/bin/../lib/gcc/x86_64-unknown-linux-gnu/4.9.2/ -mtune=corei7 -march=x86-64 -g -O2
#
# seed  1840355672  1362213323   503241638  -642707234  -179763914   620698703 -1226385267 -1293500566  1548352811  1311695876 -1629194835 -1952564963
#
#      Author: C. J. Pickard (cjp20@cam.ac.uk)
#                Space group: Pm
#

%BLOCK LATTICE_ABC
      3.91561      3.93810     10.40708
     90.00000     90.00000     94.42175
%ENDBLOCK LATTICE_ABC

%BLOCK POSITIONS_FRAC
  Li  -0.0937354  -0.0354267   0.3002334 SPIN=   0.00000
  Li  -0.0937354  -0.0354267  -0.3002334 SPIN=   0.00000
   O   0.6544571   0.7128736  -0.1439757 SPIN=   0.00000
   O   0.5110923   0.2899466  -0.3314101 SPIN=   0.00000
   O   0.1286570   0.2681801  -0.1423613 SPIN=   0.00000
   P   0.3700769   0.5228083  -0.2239668 SPIN=   0.00000
   O   0.6544571   0.7128736   0.1439757 SPIN=   0.00000
   O   0.5110923   0.2899466   0.3314101 SPIN=   0.00000
   O   0.1286570   0.2681801   0.1423613 SPIN=   0.00000
   P   0.3700769   0.5228083   0.2239668 SPIN=   0.00000
   O  -0.0904322   0.0670604  -0.5000000 SPIN=   0.00000
   O   0.1609382  -0.2292808   0.0000000 SPIN=   0.00000
  Fe  -0.3921522   0.1478865   0.0000000 SPIN=   5.64353
  Fe   0.3679191  -0.4658592  -0.5000000 SPIN=   2.35647
%ENDBLOCK POSITIONS_FRAC

# Note: total spin =   8.00

KPOINTS_MP_SPACING 0.07

%BLOCK SPECIES_POT
QC5
%ENDBLOCK SPECIES_POT

%BLOCK HUBBARD_U
Fe d:4.0
%ENDBLOCK HUBBARD_U

SNAP_TO_SYMMETRY
SYMMETRY_GENERATE

