#              Generated by Buildcell
#
# at 13:16:48 (GMT+0.0) 24th November 2020
# in /lustre/scratch/uccabz1/launch_tmp
# on node-c12a-027
# by uccabz1
#
# compiler GCC version 4.9.2
# options -cpp -iprefix /lustre/shared/ucl/apps/gcc/4.9.2/bin/../lib/gcc/x86_64-unknown-linux-gnu/4.9.2/ -mtune=corei7 -march=x86-64 -g -Og
#
# seed  -482276026   860443474  1518588105   711002841  -588973207  1018824889 -1229242225 -2137522266  1468466146  -929764595  -906724215   609962546
#
#      Author: C. J. Pickard (cjp20@cam.ac.uk)
#                Space group: P21
#

%BLOCK LATTICE_ABC
      4.88155      5.65692      5.81449
     90.00000     94.80515     90.00000
%ENDBLOCK LATTICE_ABC

%BLOCK POSITIONS_FRAC
  Li  -0.2917231  -0.2489884  -0.4085906 SPIN=   0.00000
  Li   0.2917231   0.2510116   0.4085906 SPIN=   0.00000
   O  -0.2855110  -0.5247395  -0.0706382 SPIN=   0.00000
   O  -0.1553646  -0.7030003   0.3356560 SPIN=   0.00000
   O  -0.0261479  -0.2890228   0.2637996 SPIN=   0.00000
   O  -0.5214992  -0.3924863   0.2893279 SPIN=   0.00000
   P  -0.2524121  -0.4788365   0.1908853 SPIN=   0.00000
   O   0.2855110  -0.0247395   0.0706382 SPIN=   0.00000
   O   0.1553646  -0.2030003  -0.3356560 SPIN=   0.00000
   O   0.0261479   0.2109772  -0.2637996 SPIN=   0.00000
   O   0.5214992   0.1075137  -0.2893279 SPIN=   0.00000
   P   0.2524121   0.0211635  -0.1908853 SPIN=   0.00000
  Fe  -0.2399346   0.0236557   0.0959329 SPIN=   4.00000
  Fe   0.2399346  -0.4763443  -0.0959329 SPIN=   4.00000
%ENDBLOCK POSITIONS_FRAC

# Note: total spin =   8.00

KPOINTS_MP_SPACING 0.07

%BLOCK SPECIES_POT
QC5
%ENDBLOCK SPECIES_POT

%BLOCK HUBBARD_U
Fe d:4.0
%ENDBLOCK HUBBARD_U

SNAP_TO_SYMMETRY
SYMMETRY_GENERATE

