#              Generated by Buildcell
#
# at 12:09:06 (GMT+0.0) 24th November 2020
# in /lustre/scratch/uccabz1/launch_tmp
# on node-c12h-027
# by uccabz1
#
# compiler GCC version 4.9.2
# options -cpp -iprefix /lustre/shared/ucl/apps/gcc/4.9.2/bin/../lib/gcc/x86_64-unknown-linux-gnu/4.9.2/ -mtune=corei7 -march=x86-64 -g -Og
#
# seed   315042975  1047792237  1940123848 -1646257161  1674311033  -781619598   881230309   831127124  1221578462  1046185032 -1814531198   -44621257
#
#      Author: C. J. Pickard (cjp20@cam.ac.uk)
#                Space group: P21/m
#

%BLOCK LATTICE_ABC
      4.71253      5.89379      6.07791
     90.00000    108.59431     90.00000
%ENDBLOCK LATTICE_ABC

%BLOCK POSITIONS_FRAC
  Li  -0.1575460  -0.2500000  -0.1133999 SPIN=   0.00000
  Li   0.1575460   0.2500000   0.1133999 SPIN=   0.00000
   O  -0.3080573   0.0406139   0.1880576 SPIN=   0.00000
   O  -0.2374818   0.0027704   0.6282192 SPIN=   0.00000
   O   0.3080573  -0.4593861  -0.1880576 SPIN=   0.00000
   O   0.2374818  -0.4972296  -0.6282192 SPIN=   0.00000
   O   0.3080573  -0.0406139  -0.1880576 SPIN=   0.00000
   O   0.2374818  -0.0027704  -0.6282192 SPIN=   0.00000
   O  -0.3080573   0.4593861   0.1880576 SPIN=   0.00000
   O  -0.2374818   0.4972296   0.6282192 SPIN=   0.00000
   P  -0.2394747   0.2500000   0.3479445 SPIN=   0.00000
   P   0.2394747  -0.2500000  -0.3479445 SPIN=   0.00000
  Fe  -0.4915719  -0.2500000   0.2898179 SPIN=   4.00000
  Fe   0.4915719   0.2500000  -0.2898179 SPIN=   4.00000
%ENDBLOCK POSITIONS_FRAC

# Note: total spin =   8.00

KPOINTS_MP_SPACING 0.07

%BLOCK SPECIES_POT
QC5
%ENDBLOCK SPECIES_POT

%BLOCK HUBBARD_U
Fe d:4.0
%ENDBLOCK HUBBARD_U

SNAP_TO_SYMMETRY
SYMMETRY_GENERATE

