#              Generated by Buildcell
#
# at 07:04:04 (GMT+0.0) 24th November 2020
# in /scratch/scratch/uccabz1/launch_tmp
# on node-a14c-005
# by uccabz1
#
# compiler GCC version 4.9.2
# options -cpp -iprefix /scratch/UCL/applications/gcc/4.9.2/bin/../lib/gcc/x86_64-unknown-linux-gnu/4.9.2/ -mtune=corei7 -march=x86-64 -g -O2
#
# seed -1464981087 -1126243781 -1090118832 -1949420823 -1612088381  -456827230   353358318 -2129008761   259507202 -1058624341 -1266145080 -2020064336
#
#      Author: C. J. Pickard (cjp20@cam.ac.uk)
#                Space group: C2
#

%BLOCK LATTICE_ABC
      5.53093      5.53093      5.94489
     69.98791     69.98791     87.52209
%ENDBLOCK LATTICE_ABC

%BLOCK POSITIONS_FRAC
  Li  -0.4156025   0.0229407   0.0309382 SPIN=   0.00000
  Li  -0.0229407   0.4156025  -0.0309382 SPIN=   0.00000
   O  -0.1196836  -0.3619670   0.2086382 SPIN=   0.00000
   O   0.2955890  -0.2705400   0.2874560 SPIN=   0.00000
   O  -0.0322927  -0.6109093   0.6275147 SPIN=   0.00000
   O   0.2311839  -0.6847366   0.2239737 SPIN=   0.00000
   P   0.0839601  -0.4780370   0.3287340 SPIN=   0.00000
   O   0.3619670   0.1196836  -0.2086382 SPIN=   0.00000
   O   0.2705400  -0.2955890  -0.2874560 SPIN=   0.00000
   O   0.6109093   0.0322927  -0.6275147 SPIN=   0.00000
   O   0.6847366  -0.2311839  -0.2239737 SPIN=   0.00000
   P   0.4780370  -0.0839601  -0.3287340 SPIN=   0.00000
  Fe  -0.4695147   0.4695147   0.5000000 SPIN=   2.07007
  Fe   0.0309716  -0.0309716  -0.5000000 SPIN=   5.92993
%ENDBLOCK POSITIONS_FRAC

# Note: total spin =   8.00

KPOINTS_MP_SPACING 0.07

%BLOCK SPECIES_POT
QC5
%ENDBLOCK SPECIES_POT

%BLOCK HUBBARD_U
Fe d:4.0
%ENDBLOCK HUBBARD_U

SNAP_TO_SYMMETRY
SYMMETRY_GENERATE

