#              Generated by Buildcell
#
# at 13:54:24 (GMT+0.0) 24th November 2020
# in /lustre/scratch/uccabz1/launch_tmp
# on node-c12h-023
# by uccabz1
#
# compiler GCC version 4.9.2
# options -cpp -iprefix /lustre/shared/ucl/apps/gcc/4.9.2/bin/../lib/gcc/x86_64-unknown-linux-gnu/4.9.2/ -mtune=corei7 -march=x86-64 -g -Og
#
# seed  1540869193   409713119  -840075542  -797874169  2052060741   919783793   688726965   894041543  1570023595  2052281364  1530049918  1495300694
#
#      Author: C. J. Pickard (cjp20@cam.ac.uk)
#                Space group: C2
#

%BLOCK LATTICE_ABC
      5.05912      5.05912      6.64577
     77.89903     77.89903     77.58904
%ENDBLOCK LATTICE_ABC

%BLOCK POSITIONS_FRAC
  Li   0.3285680   0.1280726   0.3239415 SPIN=   0.00000
  Li  -0.1280726  -0.3285680  -0.3239415 SPIN=   0.00000
   O  -0.3600055   0.3458628   0.3171465 SPIN=   0.00000
   O   0.0528328  -0.0302009   0.2072907 SPIN=   0.00000
   O  -0.3603556  -0.1770668   0.4365549 SPIN=   0.00000
   O  -0.3793278   0.0318093   0.0621290 SPIN=   0.00000
   O  -0.3458628   0.3600055  -0.3171465 SPIN=   0.00000
   O   0.0302009  -0.0528328  -0.2072907 SPIN=   0.00000
   O   0.1770668   0.3603556  -0.4365549 SPIN=   0.00000
   O  -0.0318093   0.3793278  -0.0621290 SPIN=   0.00000
   P  -0.2019140   0.2019140  -0.5000000 SPIN=   0.00000
   P   0.4313325  -0.4313325   0.0000000 SPIN=   0.00000
  Fe  -0.1382364  -0.3407453   0.1747895 SPIN=   4.00000
  Fe   0.3407453   0.1382364  -0.1747895 SPIN=   4.00000
%ENDBLOCK POSITIONS_FRAC

# Note: total spin =   8.00

KPOINTS_MP_SPACING 0.07

%BLOCK SPECIES_POT
QC5
%ENDBLOCK SPECIES_POT

%BLOCK HUBBARD_U
Fe d:4.0
%ENDBLOCK HUBBARD_U

SNAP_TO_SYMMETRY
SYMMETRY_GENERATE

