#              Generated by Buildcell
#
# at 20:41:47 (GMT+0.0) 26th November 2020
# in /lustre/scratch/uccabz1/launch_tmp
# on node-c12d-029
# by uccabz1
#
# compiler GCC version 4.9.2
# options -cpp -iprefix /lustre/shared/ucl/apps/gcc/4.9.2/bin/../lib/gcc/x86_64-unknown-linux-gnu/4.9.2/ -mtune=corei7 -march=x86-64 -g -Og
#
# seed  -868295279   -44431592  1061678624 -1308293721  -480765242 -1604211927  1339909572   -48427164 -2046004658  -172882397  1105250355  -474806462
#
#      Author: C. J. Pickard (cjp20@cam.ac.uk)
#                Space group: P2
#

%BLOCK LATTICE_ABC
      6.26316      6.29313      8.22809
     90.00000     99.35082     90.00000
%ENDBLOCK LATTICE_ABC

%BLOCK POSITIONS_FRAC
  Li  -0.2638582  -0.3676982   0.4777441 SPIN=   0.00000
  Li   0.2638582  -0.3676982  -0.4777441 SPIN=   0.00000
  Li   0.2397785   0.1224767   0.4885363 SPIN=   0.00000
  Li  -0.2397785   0.1224767  -0.4885363 SPIN=   0.00000
   O  -0.4530824   0.2604474   0.3135173 SPIN=   0.00000
   O  -0.0385110   0.3212056   0.3405475 SPIN=   0.00000
   O  -0.2440586   0.2361115   0.0660403 SPIN=   0.00000
   O  -0.2922120   0.5913628   0.1923952 SPIN=   0.00000
   P  -0.2678241   0.3502135   0.2322502 SPIN=   0.00000
   O   0.4530824   0.2604474  -0.3135173 SPIN=   0.00000
   O   0.0385110   0.3212056  -0.3405475 SPIN=   0.00000
   O   0.2440586   0.2361115  -0.0660403 SPIN=   0.00000
   O   0.2922120   0.5913628  -0.1923952 SPIN=   0.00000
   P   0.2678241   0.3502135  -0.2322502 SPIN=   0.00000
   O   0.4631703  -0.1979616   0.3364091 SPIN=   0.00000
   O   0.1951795  -0.2666925   0.0657273 SPIN=   0.00000
   O   0.0478294  -0.2339239   0.3254188 SPIN=   0.00000
   O   0.1948750   0.0883056   0.2032367 SPIN=   0.00000
   P   0.2375723  -0.1521425   0.2378724 SPIN=   0.00000
   O  -0.4631703  -0.1979616  -0.3364091 SPIN=   0.00000
   O  -0.1951795  -0.2666925  -0.0657273 SPIN=   0.00000
   O  -0.0478294  -0.2339239  -0.3254188 SPIN=   0.00000
   O  -0.1948750   0.0883056  -0.2032367 SPIN=   0.00000
   P  -0.2375723  -0.1521425  -0.2378724 SPIN=   0.00000
  Fe  -0.2192391  -0.0864432   0.1452031 SPIN=   3.42691
  Fe   0.2192391  -0.0864432  -0.1452031 SPIN=   3.42691
  Fe   0.2723855   0.4075022   0.1554532 SPIN=   4.57309
  Fe  -0.2723855   0.4075022  -0.1554532 SPIN=   4.57309
%ENDBLOCK POSITIONS_FRAC

# Note: total spin =  16.00

KPOINTS_MP_SPACING 0.07

%BLOCK SPECIES_POT
QC5
%ENDBLOCK SPECIES_POT

%BLOCK HUBBARD_U
Fe d:4.0
%ENDBLOCK HUBBARD_U

SNAP_TO_SYMMETRY
SYMMETRY_GENERATE

