#              Generated by Buildcell
#
# at 10:59:06 (GMT+0.0) 26th November 2020
# in /lustre/scratch/uccabz1/launch_tmp
# on node-c12k-022
# by uccabz1
#
# compiler GCC version 4.9.2
# options -cpp -iprefix /lustre/shared/ucl/apps/gcc/4.9.2/bin/../lib/gcc/x86_64-unknown-linux-gnu/4.9.2/ -mtune=corei7 -march=x86-64 -g -Og
#
# seed  1077756238  -478537402 -1527166158  -391653034   743992678    -8180674   411860661  -958215719  2145613790  2035481763 -1681953790  -269253183
#
#      Author: C. J. Pickard (cjp20@cam.ac.uk)
#                Space group: Cc
#

%BLOCK LATTICE_ABC
      4.85339      6.63976     10.77920
     97.66024     90.00000    111.43710
%ENDBLOCK LATTICE_ABC

%BLOCK POSITIONS_FRAC
  Li  -0.4917584  -0.0906026   0.0214760 SPIN=   0.00000
  Li   0.4011559  -0.0906026  -0.4785240 SPIN=   0.00000
  Li  -0.2757792   0.1124233  -0.2251751 SPIN=   0.00000
  Li   0.3882025   0.1124233   0.2748249 SPIN=   0.00000
   O  -0.2178866  -0.2362476  -0.0739071 SPIN=   0.00000
   O   0.1437327  -0.4254574  -0.0233413 SPIN=   0.00000
   O   0.1111408  -0.1275943   0.1324834 SPIN=   0.00000
   O  -0.3139484  -0.4878086   0.0974311 SPIN=   0.00000
   P  -0.0800429  -0.3168449   0.0282238 SPIN=   0.00000
   O  -0.0183610  -0.2362476  -0.5739071 SPIN=   0.00000
   O  -0.5691901  -0.4254574  -0.5233413 SPIN=   0.00000
   O  -0.2387351  -0.1275943  -0.3675166 SPIN=   0.00000
   O  -0.1738601  -0.4878086  -0.4025689 SPIN=   0.00000
   P  -0.2368021  -0.3168449  -0.4717762 SPIN=   0.00000
   O   0.3350199   0.2063542  -0.4126463 SPIN=   0.00000
   O   0.1424932   0.4402706  -0.2483300 SPIN=   0.00000
   O   0.1402789   0.0867633  -0.1993145 SPIN=   0.00000
   O   0.6236018   0.3995502  -0.2020343 SPIN=   0.00000
   P   0.3153588   0.2805138  -0.2726618 SPIN=   0.00000
   O  -0.1286657   0.2063542   0.0873537 SPIN=   0.00000
   O   0.2977774   0.4402706   0.2516700 SPIN=   0.00000
   O  -0.0535157   0.0867633   0.3006855 SPIN=   0.00000
   O  -0.2240516   0.3995502   0.2979657 SPIN=   0.00000
   P  -0.0348451   0.2805138   0.2273382 SPIN=   0.00000
  Fe   0.2678216   0.3076028  -0.0062566 SPIN=   4.27502
  Fe   0.0397812   0.3076028   0.4937434 SPIN=   4.27502
  Fe   0.0421758  -0.2518265  -0.2273455 SPIN=   3.72498
  Fe  -0.2940022  -0.2518265   0.2726545 SPIN=   3.72498
%ENDBLOCK POSITIONS_FRAC

# Note: total spin =  16.00

KPOINTS_MP_SPACING 0.07

%BLOCK SPECIES_POT
QC5
%ENDBLOCK SPECIES_POT

%BLOCK HUBBARD_U
Fe d:4.0
%ENDBLOCK HUBBARD_U

SNAP_TO_SYMMETRY
SYMMETRY_GENERATE

