#              Generated by Buildcell
#
# at 09:36:13 (GMT+0.0) 24th November 2020
# in /lustre/scratch/uccabz1/launch_tmp
# on node-c12h-027
# by uccabz1
#
# compiler GCC version 4.9.2
# options -cpp -iprefix /lustre/shared/ucl/apps/gcc/4.9.2/bin/../lib/gcc/x86_64-unknown-linux-gnu/4.9.2/ -mtune=corei7 -march=x86-64 -g -Og
#
# seed  1429771553 -1699867966 -1403359560  1494752501 -1500919238  1351586408  1577541714   -55947812 -1655389916 -1624802001   743719958  -930849004
#
#      Author: C. J. Pickard (cjp20@cam.ac.uk)
#                Space group: P-1
#

%BLOCK LATTICE_ABC
      4.00223      5.71926      7.69013
     70.81165     82.66938     74.43631
%ENDBLOCK LATTICE_ABC

%BLOCK POSITIONS_FRAC
  Li  -0.3244889  -0.3733994   0.0926348 SPIN=   0.00000
  Li   0.3244889   0.3733994  -0.0926348 SPIN=   0.00000
   O  -0.5357890   0.2370257   0.1848363 SPIN=   0.00000
   O  -1.1422056   0.3570951   0.3434136 SPIN=   0.00000
   O  -0.6258693   0.2025796   0.5321760 SPIN=   0.00000
   O  -0.7286426   0.6348187   0.2960502 SPIN=   0.00000
   P  -0.7459404   0.3547131   0.3303959 SPIN=   0.00000
   O   0.5357890  -0.2370257  -0.1848363 SPIN=   0.00000
   O   1.1422056  -0.3570951  -0.3434136 SPIN=   0.00000
   O   0.6258693  -0.2025796  -0.5321760 SPIN=   0.00000
   O   0.7286426  -0.6348187  -0.2960502 SPIN=   0.00000
   P   0.7459404  -0.3547131  -0.3303959 SPIN=   0.00000
  Fe   0.0455019  -0.0006481  -0.2542328 SPIN=   4.00000
  Fe  -0.0455019   0.0006481   0.2542328 SPIN=   4.00000
%ENDBLOCK POSITIONS_FRAC

# Note: total spin =   8.00

KPOINTS_MP_SPACING 0.07

%BLOCK SPECIES_POT
QC5
%ENDBLOCK SPECIES_POT

%BLOCK HUBBARD_U
Fe d:4.0
%ENDBLOCK HUBBARD_U

SNAP_TO_SYMMETRY
SYMMETRY_GENERATE

