#              Generated by Buildcell
#
# at 21:24:57 (GMT+0.0) 26th November 2020
# in /lustre/scratch/uccabz1/launch_tmp
# on node-c12c-020
# by uccabz1
#
# compiler GCC version 4.9.2
# options -cpp -iprefix /lustre/shared/ucl/apps/gcc/4.9.2/bin/../lib/gcc/x86_64-unknown-linux-gnu/4.9.2/ -mtune=corei7 -march=x86-64 -g -Og
#
# seed  2137617668 -1862880429 -1891200184 -1403037343  -214538976  1594212364  -667395382  -746502202  1361679002 -1153091799 -1456111448  -775114425
#
#      Author: C. J. Pickard (cjp20@cam.ac.uk)
#                Space group: Pc
#

%BLOCK LATTICE_ABC
      5.93293      7.52498      7.63159
     90.00000    110.08155     90.00000
%ENDBLOCK LATTICE_ABC

%BLOCK POSITIONS_FRAC
  Li  -0.4813317  -0.4120152   0.0675216 SPIN=   0.00000
  Li   0.0186683   0.4120152  -0.4324784 SPIN=   0.00000
  Li   0.3452022   0.0913410  -0.3219551 SPIN=   0.00000
  Li  -0.1547978  -0.0913410   0.1780449 SPIN=   0.00000
   O  -0.1005643   0.1689508  -0.5700935 SPIN=   0.00000
   O   0.0868060  -0.1114953  -0.3761617 SPIN=   0.00000
   O  -0.2593105   0.0306916  -0.3228534 SPIN=   0.00000
   O  -0.3208811  -0.1329515  -0.6214770 SPIN=   0.00000
   P  -0.1479702  -0.0030457  -0.4795914 SPIN=   0.00000
   O   0.3994357  -0.1689508  -0.0700935 SPIN=   0.00000
   O   0.5868060   0.1114953   0.1238383 SPIN=   0.00000
   O   0.2406895  -0.0306916   0.1771466 SPIN=   0.00000
   O   0.1791189   0.1329515  -0.1214770 SPIN=   0.00000
   P   0.3520298   0.0030457   0.0204086 SPIN=   0.00000
   O  -0.2953837  -0.3673529  -0.1184334 SPIN=   0.00000
   O  -0.5403053  -0.6609938  -0.1929546 SPIN=   0.00000
   O  -0.7103274  -0.3951758  -0.3820073 SPIN=   0.00000
   O  -0.3537028  -0.5465283  -0.4195226 SPIN=   0.00000
   P  -0.4639393  -0.4864860  -0.2713886 SPIN=   0.00000
   O   0.2046163   0.3673529   0.3815666 SPIN=   0.00000
   O  -0.0403053   0.6609938   0.3070454 SPIN=   0.00000
   O  -0.2103274   0.3951758   0.1179927 SPIN=   0.00000
   O   0.1462972   0.5465283   0.0804774 SPIN=   0.00000
   P   0.0360607   0.4864860   0.2286114 SPIN=   0.00000
  Fe  -0.1209163   0.2496978  -0.0828267 SPIN=   4.68759
  Fe   0.3790837  -0.2496978   0.4171733 SPIN=   4.68759
  Fe  -0.0092524  -0.2469487  -0.1726529 SPIN=   3.31241
  Fe   0.4907476   0.2469487   0.3273471 SPIN=   3.31241
%ENDBLOCK POSITIONS_FRAC

# Note: total spin =  16.00

KPOINTS_MP_SPACING 0.07

%BLOCK SPECIES_POT
QC5
%ENDBLOCK SPECIES_POT

%BLOCK HUBBARD_U
Fe d:4.0
%ENDBLOCK HUBBARD_U

SNAP_TO_SYMMETRY
SYMMETRY_GENERATE

