#              Generated by Buildcell
#
# at 21:26:44 (GMT+0.0) 26th November 2020
# in /lustre/scratch/uccabz1/launch_tmp
# on node-c12n-031
# by uccabz1
#
# compiler GCC version 4.9.2
# options -cpp -iprefix /lustre/shared/ucl/apps/gcc/4.9.2/bin/../lib/gcc/x86_64-unknown-linux-gnu/4.9.2/ -mtune=corei7 -march=x86-64 -g -Og
#
# seed -1530268389   947583771 -1639222893   310316507  -957813257   171976646 -1016591755  1020858302  1893826519  2122708771 -1398992875 -1275448495
#
#      Author: C. J. Pickard (cjp20@cam.ac.uk)
#                Space group: P-1
#

%BLOCK LATTICE_ABC
      6.62771      6.76421      8.31703
    111.29752    100.80886    104.45903
%ENDBLOCK LATTICE_ABC

%BLOCK POSITIONS_FRAC
  Li  -0.6475731  -0.1269404  -0.2113928 SPIN=   0.00000
  Li   0.6475731   0.1269404   0.2113928 SPIN=   0.00000
  Li  -0.5000000   0.0000000  -0.5000000 SPIN=   0.00000
  Li  -0.5000000   0.5000000  -0.0000000 SPIN=   0.00000
   O   0.0466307  -0.3316239  -0.0303273 SPIN=   0.00000
   O   0.3268647   0.0276812   0.2473625 SPIN=   0.00000
   O   0.3338429  -0.3460750   0.2209516 SPIN=   0.00000
   O   0.4603835  -0.2004024   0.0067287 SPIN=   0.00000
   P   0.2808574  -0.2187982   0.1024117 SPIN=   0.00000
   O  -0.0466307   0.3316239   0.0303273 SPIN=   0.00000
   O  -0.3268647  -0.0276812  -0.2473625 SPIN=   0.00000
   O  -0.3338429   0.3460750  -0.2209516 SPIN=   0.00000
   O  -0.4603835   0.2004024  -0.0067287 SPIN=   0.00000
   P  -0.2808574   0.2187982  -0.1024117 SPIN=   0.00000
   O   0.0598295   0.0640934  -0.2392548 SPIN=   0.00000
   O   0.1012140  -0.3010291  -0.4582257 SPIN=   0.00000
   O  -0.1819215  -0.3406316  -0.3053596 SPIN=   0.00000
   O  -0.2317241  -0.2069591  -0.5492632 SPIN=   0.00000
   P  -0.0585918  -0.1824037  -0.3820073 SPIN=   0.00000
   O  -0.0598295  -0.0640934   0.2392548 SPIN=   0.00000
   O  -0.1012140   0.3010291   0.4582257 SPIN=   0.00000
   O   0.1819215   0.3406316   0.3053596 SPIN=   0.00000
   O   0.2317241   0.2069591   0.5492632 SPIN=   0.00000
   P   0.0585918   0.1824037   0.3820073 SPIN=   0.00000
  Fe  -0.0146192   0.6101083   0.2656349 SPIN=   5.89016
  Fe   0.0146192  -0.6101083  -0.2656349 SPIN=   5.89016
  Fe  -0.5000000  -0.5000000  -0.5000000 SPIN=   1.01900
  Fe  -0.0000000   0.0000000  -0.0000000 SPIN=   3.20067
%ENDBLOCK POSITIONS_FRAC

# Note: total spin =  16.00

KPOINTS_MP_SPACING 0.07

%BLOCK SPECIES_POT
QC5
%ENDBLOCK SPECIES_POT

%BLOCK HUBBARD_U
Fe d:4.0
%ENDBLOCK HUBBARD_U

SNAP_TO_SYMMETRY
SYMMETRY_GENERATE

