#              Generated by Buildcell
#
# at 01:23:14 (GMT+0.0) 27th November 2020
# in /lustre/scratch/uccabz1/launch_tmp
# on node-c12h-022
# by uccabz1
#
# compiler GCC version 4.9.2
# options -cpp -iprefix /lustre/shared/ucl/apps/gcc/4.9.2/bin/../lib/gcc/x86_64-unknown-linux-gnu/4.9.2/ -mtune=corei7 -march=x86-64 -g -Og
#
# seed -1542296071 -1922817342  1755297480  1592404411  -184821502  1486094671 -1220910655 -1025453369  2024843395   -66615463  -877565454   -91155487
#
#      Author: C. J. Pickard (cjp20@cam.ac.uk)
#                Space group: P21
#

%BLOCK LATTICE_ABC
      4.73588      7.34652      9.26711
     90.00000     97.03005     90.00000
%ENDBLOCK LATTICE_ABC

%BLOCK POSITIONS_FRAC
  Li   0.4898563   0.4144842  -0.3459511 SPIN=   0.00000
  Li  -0.4898563  -0.0855158   0.3459511 SPIN=   0.00000
  Li  -0.0242247   0.1588936  -0.2393280 SPIN=   0.00000
  Li   0.0242247  -0.3411064   0.2393280 SPIN=   0.00000
   O  -0.1379274  -0.0669343   0.2237100 SPIN=   0.00000
   O   0.1491024   0.2297635   0.1960396 SPIN=   0.00000
   O   0.3435825  -0.0602415   0.1162558 SPIN=   0.00000
   O  -0.0886569   0.0746752  -0.0270923 SPIN=   0.00000
   P   0.0538078   0.0387505   0.1305443 SPIN=   0.00000
   O   0.1379274  -0.5669343  -0.2237100 SPIN=   0.00000
   O  -0.1491024  -0.2702365  -0.1960396 SPIN=   0.00000
   O  -0.3435825  -0.5602415  -0.1162558 SPIN=   0.00000
   O   0.0886569  -0.4253248   0.0270923 SPIN=   0.00000
   P  -0.0538078  -0.4612495  -0.1305443 SPIN=   0.00000
   O  -0.5341608   0.6407238   0.2287181 SPIN=   0.00000
   O  -0.1500384   0.5267483   0.4329566 SPIN=   0.00000
   O  -0.6397479   0.4087926   0.4268681 SPIN=   0.00000
   O  -0.3415196   0.3115242   0.2352716 SPIN=   0.00000
   P  -0.4217553   0.4790406   0.3243809 SPIN=   0.00000
   O   0.5341608   0.1407238  -0.2287181 SPIN=   0.00000
   O   0.1500384   0.0267483  -0.4329566 SPIN=   0.00000
   O   0.6397479  -0.0912074  -0.4268681 SPIN=   0.00000
   O   0.3415196  -0.1884758  -0.2352716 SPIN=   0.00000
   P   0.4217553  -0.0209594  -0.3243809 SPIN=   0.00000
  Fe   0.0238387   0.2207074   0.4055712 SPIN=   6.16423
  Fe  -0.0238387  -0.2792926  -0.4055712 SPIN=   6.16423
  Fe  -0.3875262  -0.1627616  -0.0393370 SPIN=   1.83577
  Fe   0.3875262   0.3372384   0.0393370 SPIN=   1.83577
%ENDBLOCK POSITIONS_FRAC

# Note: total spin =  16.00

KPOINTS_MP_SPACING 0.07

%BLOCK SPECIES_POT
QC5
%ENDBLOCK SPECIES_POT

%BLOCK HUBBARD_U
Fe d:4.0
%ENDBLOCK HUBBARD_U

SNAP_TO_SYMMETRY
SYMMETRY_GENERATE

