#              Generated by Buildcell
#
# at 14:47:43 (GMT+0.0) 26th November 2020
# in /scratch/scratch/uccabz1/launch_tmp
# on node-a14e-008
# by uccabz1
#
# compiler GCC version 4.9.2
# options -cpp -iprefix /scratch/UCL/applications/gcc/4.9.2/bin/../lib/gcc/x86_64-unknown-linux-gnu/4.9.2/ -mtune=corei7 -march=x86-64 -g -O2
#
# seed  1413904389  2077633465 -1404207559   -60307615  -770747391  -326269752  1620504320  1921796656  -684049226  -614579900   -11703398 -1120095206
#
#      Author: C. J. Pickard (cjp20@cam.ac.uk)
#                Space group: C2
#

%BLOCK LATTICE_ABC
      5.33700      7.23878      9.06694
    113.52727     94.47914     90.00000
%ENDBLOCK LATTICE_ABC

%BLOCK POSITIONS_FRAC
  Li  -0.1295796  -0.2516515   0.1515835 SPIN=   0.00000
  Li   0.1295796  -0.4032350  -0.1515835 SPIN=   0.00000
  Li   0.2589169   0.0462408   0.0806421 SPIN=   0.00000
  Li  -0.2589169  -0.0344012  -0.0806421 SPIN=   0.00000
   O   0.4068219  -0.2786535  -0.4485635 SPIN=   0.00000
   O   0.3006770  -0.5881194  -0.3851147 SPIN=   0.00000
   O   0.7472329  -0.4866915  -0.3690750 SPIN=   0.00000
   O   0.4720906  -0.2692402  -0.1603297 SPIN=   0.00000
   P   0.4776049  -0.3973028  -0.3443808 SPIN=   0.00000
   O  -0.4068219   0.1699100   0.4485635 SPIN=   0.00000
   O  -0.3006770  -0.2030047   0.3851147 SPIN=   0.00000
   O  -0.7472329  -0.1176165   0.3690750 SPIN=   0.00000
   O  -0.4720906  -0.1089105   0.1603297 SPIN=   0.00000
   P  -0.4776049  -0.0529220   0.3443808 SPIN=   0.00000
   O  -0.1341068   0.0974928  -0.3498099 SPIN=   0.00000
   O   0.1385262  -0.0344874  -0.1645761 SPIN=   0.00000
   O   0.3533047   0.0884095  -0.3413802 SPIN=   0.00000
   O   0.1521024   0.3348113  -0.1036804 SPIN=   0.00000
   P   0.1138205   0.1227919  -0.2441087 SPIN=   0.00000
   O   0.1341068   0.4473026   0.3498099 SPIN=   0.00000
   O  -0.1385262   0.1300887   0.1645761 SPIN=   0.00000
   O  -0.3533047   0.4297897   0.3413802 SPIN=   0.00000
   O  -0.1521024   0.4384918   0.1036804 SPIN=   0.00000
   P  -0.1138205   0.3669006   0.2441087 SPIN=   0.00000
  Fe   0.0804185   0.1710176   0.4449435 SPIN=   2.68911
  Fe  -0.0804185  -0.2739260  -0.4449435 SPIN=   2.68911
  Fe  -0.3760475   0.3161946  -0.2133571 SPIN=   5.31089
  Fe   0.3760475  -0.4704483   0.2133571 SPIN=   5.31089
%ENDBLOCK POSITIONS_FRAC

# Note: total spin =  16.00

KPOINTS_MP_SPACING 0.07

%BLOCK SPECIES_POT
QC5
%ENDBLOCK SPECIES_POT

%BLOCK HUBBARD_U
Fe d:4.0
%ENDBLOCK HUBBARD_U

SNAP_TO_SYMMETRY
SYMMETRY_GENERATE

