#              Generated by Buildcell
#
# at 09:50:07 (GMT+0.0) 24th November 2020
# in /lustre/scratch/uccabz1/launch_tmp
# on node-c12i-032
# by uccabz1
#
# compiler GCC version 4.9.2
# options -cpp -iprefix /lustre/shared/ucl/apps/gcc/4.9.2/bin/../lib/gcc/x86_64-unknown-linux-gnu/4.9.2/ -mtune=corei7 -march=x86-64 -g -Og
#
# seed   455791465 -1988050937   -60190229   361125498   484522102  1145605938  -990867499  1455410006  -527324624  -968994012   422316626 -1342044734
#
#      Author: C. J. Pickard (cjp20@cam.ac.uk)
#                Space group: P21
#

%BLOCK LATTICE_ABC
      4.83867      5.64384      6.06434
    104.95462     90.00000     90.00000
%ENDBLOCK LATTICE_ABC

%BLOCK POSITIONS_FRAC
  Li   0.1381309  -0.3483228  -0.0297646 SPIN=   0.00000
  Li  -0.3618691   0.3483228   0.0297646 SPIN=   0.00000
   O   0.1620953   0.0723542   0.0436110 SPIN=   0.00000
   O   0.2414915  -0.2404270  -0.3484228 SPIN=   0.00000
   O  -0.0930642   0.0952526  -0.3272792 SPIN=   0.00000
   O   0.4129521   0.1901811  -0.2888144 SPIN=   0.00000
   P   0.1826080   0.0335285  -0.2163373 SPIN=   0.00000
   O  -0.3379047  -0.0723542  -0.0436110 SPIN=   0.00000
   O  -0.2585085   0.2404270   0.3484228 SPIN=   0.00000
   O  -0.5930642  -0.0952526   0.3272792 SPIN=   0.00000
   O  -0.0870479  -0.1901811   0.2888144 SPIN=   0.00000
   P  -0.3173920  -0.0335285   0.2163373 SPIN=   0.00000
  Fe  -0.3261351  -0.2270040  -0.3946637 SPIN=   4.00000
  Fe   0.1738649   0.2270040   0.3946637 SPIN=   4.00000
%ENDBLOCK POSITIONS_FRAC

# Note: total spin =   8.00

KPOINTS_MP_SPACING 0.07

%BLOCK SPECIES_POT
QC5
%ENDBLOCK SPECIES_POT

%BLOCK HUBBARD_U
Fe d:4.0
%ENDBLOCK HUBBARD_U

SNAP_TO_SYMMETRY
SYMMETRY_GENERATE

