#              Generated by Buildcell
#
# at 01:29:46 (GMT+0.0) 27th November 2020
# in /lustre/scratch/uccabz1/launch_tmp
# on node-c12e-024
# by uccabz1
#
# compiler GCC version 4.9.2
# options -cpp -iprefix /lustre/shared/ucl/apps/gcc/4.9.2/bin/../lib/gcc/x86_64-unknown-linux-gnu/4.9.2/ -mtune=corei7 -march=x86-64 -g -Og
#
# seed  -211634126   846975184  -886282307    15998513   384016126  -374356264   -24237179  -960916804  1841833060  -378758533 -1959848412 -1267053107
#
#      Author: C. J. Pickard (cjp20@cam.ac.uk)
#                Space group: C2/c
#

%BLOCK LATTICE_ABC
      6.34553      6.34553      8.60170
     76.93408     76.93408     74.49027
%ENDBLOCK LATTICE_ABC

%BLOCK POSITIONS_FRAC
  Li   0.0285351  -0.3130301   0.3587124 SPIN=   0.00000
  Li  -0.1869699   0.4714649   0.1412876 SPIN=   0.00000
  Li  -0.0285351   0.3130301  -0.3587124 SPIN=   0.00000
  Li   0.1869699  -0.4714649  -0.1412876 SPIN=   0.00000
   O  -0.6260147   0.2507826   0.0029984 SPIN=   0.00000
   O  -0.4352549   0.4700450  -0.2597143 SPIN=   0.00000
   O  -0.2259969   0.3081610  -0.0346238 SPIN=   0.00000
   P  -0.4074790   0.2679294  -0.1154509 SPIN=   0.00000
   O   0.2492174   0.1260147  -0.5029984 SPIN=   0.00000
   O   0.0299550  -0.0647451  -0.2402857 SPIN=   0.00000
   O   0.1918390  -0.2740031  -0.4653762 SPIN=   0.00000
   P   0.2320706  -0.0925210  -0.3845491 SPIN=   0.00000
   O   0.6260147  -0.2507826  -0.0029984 SPIN=   0.00000
   O   0.4352549  -0.4700450   0.2597143 SPIN=   0.00000
   O   0.2259969  -0.3081610   0.0346238 SPIN=   0.00000
   P   0.4074790  -0.2679294   0.1154509 SPIN=   0.00000
   O  -0.2492174  -0.1260147   0.5029984 SPIN=   0.00000
   O  -0.0299550   0.0647451   0.2402857 SPIN=   0.00000
   O  -0.1918390   0.2740031   0.4653762 SPIN=   0.00000
   P  -0.2320706   0.0925210   0.3845491 SPIN=   0.00000
   O   0.1020337   0.3979663   0.2500000 SPIN=   0.00000
   O  -0.1020337  -0.3979663  -0.2500000 SPIN=   0.00000
   O  -0.2581673  -0.2418327   0.2500000 SPIN=   0.00000
   O   0.2581673   0.2418327  -0.2500000 SPIN=   0.00000
  Fe  -0.0000000   0.0000000   0.0000000 SPIN=   3.89124
  Fe   0.5000000  -0.5000000   0.5000000 SPIN=   3.89124
  Fe   0.3775266   0.1224734   0.2500000 SPIN=   4.10876
  Fe  -0.3775266  -0.1224734  -0.2500000 SPIN=   4.10876
%ENDBLOCK POSITIONS_FRAC

# Note: total spin =  16.00

KPOINTS_MP_SPACING 0.07

%BLOCK SPECIES_POT
QC5
%ENDBLOCK SPECIES_POT

%BLOCK HUBBARD_U
Fe d:4.0
%ENDBLOCK HUBBARD_U

SNAP_TO_SYMMETRY
SYMMETRY_GENERATE

