#              Generated by Buildcell
#
# at 16:49:20 (GMT+0.0) 26th November 2020
# in /lustre/scratch/uccabz1/launch_tmp
# on node-c12k-022
# by uccabz1
#
# compiler GCC version 4.9.2
# options -cpp -iprefix /lustre/shared/ucl/apps/gcc/4.9.2/bin/../lib/gcc/x86_64-unknown-linux-gnu/4.9.2/ -mtune=corei7 -march=x86-64 -g -Og
#
# seed -1888139853 -1090701286 -2030839253  1644316197  1728787444  1910867808    17353353   956579039 -2053123287 -1661688225  1067529547 -1580161696
#
#      Author: C. J. Pickard (cjp20@cam.ac.uk)
#                Space group: Pca21
#

%BLOCK LATTICE_ABC
      6.06074      6.77696      7.79093
     90.00000     90.00000     90.00000
%ENDBLOCK LATTICE_ABC

%BLOCK POSITIONS_FRAC
  Li   0.0246371  -0.4846814   0.0016623 SPIN=   0.00000
  Li  -0.0246371   0.4846814  -0.4983377 SPIN=   0.00000
  Li  -0.4753629   0.4846814   0.0016623 SPIN=   0.00000
  Li   0.4753629  -0.4846814  -0.4983377 SPIN=   0.00000
   O  -0.0516771   0.2059371   0.3821575 SPIN=   0.00000
   O  -0.3368808   0.4522144   0.2553208 SPIN=   0.00000
   O  -0.3703705   0.0996832   0.1791836 SPIN=   0.00000
   O  -0.4595731   0.2095282   0.4781528 SPIN=   0.00000
   P  -0.2929857   0.2395478   0.3286387 SPIN=   0.00000
   O   0.0516771  -0.2059371  -0.1178425 SPIN=   0.00000
   O   0.3368808  -0.4522144  -0.2446792 SPIN=   0.00000
   O   0.3703705  -0.0996832  -0.3208164 SPIN=   0.00000
   O   0.4595731  -0.2095282  -0.0218472 SPIN=   0.00000
   P   0.2929857  -0.2395478  -0.1713613 SPIN=   0.00000
   O   0.4483229  -0.2059371   0.3821575 SPIN=   0.00000
   O   0.1631192  -0.4522144   0.2553208 SPIN=   0.00000
   O   0.1296295  -0.0996832   0.1791836 SPIN=   0.00000
   O   0.0404269  -0.2095282   0.4781528 SPIN=   0.00000
   P   0.2070143  -0.2395478   0.3286387 SPIN=   0.00000
   O  -0.4483229   0.2059371  -0.1178425 SPIN=   0.00000
   O  -0.1631192   0.4522144  -0.2446792 SPIN=   0.00000
   O  -0.1296295   0.0996832  -0.3208164 SPIN=   0.00000
   O  -0.0404269   0.2095282  -0.0218472 SPIN=   0.00000
   P  -0.2070143   0.2395478  -0.1713613 SPIN=   0.00000
  Fe  -0.2503727  -0.1787758   0.2514696 SPIN=   4.00000
  Fe   0.2503727   0.1787758  -0.2485304 SPIN=   4.00000
  Fe   0.2496273   0.1787758   0.2514696 SPIN=   4.00000
  Fe  -0.2496273  -0.1787758  -0.2485304 SPIN=   4.00000
%ENDBLOCK POSITIONS_FRAC

# Note: total spin =  16.00

KPOINTS_MP_SPACING 0.07

%BLOCK SPECIES_POT
QC5
%ENDBLOCK SPECIES_POT

%BLOCK HUBBARD_U
Fe d:4.0
%ENDBLOCK HUBBARD_U

SNAP_TO_SYMMETRY
SYMMETRY_GENERATE

