#              Generated by Buildcell
#
# at 06:42:23 (GMT+0.0) 24th November 2020
# in /scratch/scratch/uccabz1/launch_tmp
# on node-k10h-026
# by uccabz1
#
# compiler GCC version 4.9.2
# options -cpp -iprefix /scratch/UCL/applications/gcc/4.9.2/bin/../lib/gcc/x86_64-unknown-linux-gnu/4.9.2/ -mtune=corei7 -march=x86-64 -g -O2
#
# seed  1070842258   895378645  1979638753   573372847  1826973798   372752536  -410600542  1473990618   440147406  -915304451  -143996210  1612940122
#
#      Author: C. J. Pickard (cjp20@cam.ac.uk)
#                Space group: P21
#

%BLOCK LATTICE_ABC
      4.26124      6.04865      6.45958
     90.00000    106.05531     90.00000
%ENDBLOCK LATTICE_ABC

%BLOCK POSITIONS_FRAC
  Li  -0.0167119  -0.3009633   0.0296865 SPIN=   0.00000
  Li   0.0167119   0.1990367  -0.0296865 SPIN=   0.00000
   O  -0.3715925   0.6421763   0.2385846 SPIN=   0.00000
   O   0.1794889   0.4305679   0.3177723 SPIN=   0.00000
   O  -0.2035650   0.3349481   0.5293547 SPIN=   0.00000
   O  -0.3395888   0.2307240   0.1393682 SPIN=   0.00000
   P  -0.1956509   0.4198764   0.3006964 SPIN=   0.00000
   O   0.3715925   0.1421763  -0.2385846 SPIN=   0.00000
   O  -0.1794889  -0.0694321  -0.3177723 SPIN=   0.00000
   O   0.2035650  -0.1650519  -0.5293547 SPIN=   0.00000
   O   0.3395888  -0.2692760  -0.1393682 SPIN=   0.00000
   P   0.1956509  -0.0801236  -0.3006964 SPIN=   0.00000
  Fe   0.3794919   0.4696521  -0.3448434 SPIN=   4.00000
  Fe  -0.3794919  -0.0303479   0.3448434 SPIN=   4.00000
%ENDBLOCK POSITIONS_FRAC

# Note: total spin =   8.00

KPOINTS_MP_SPACING 0.07

%BLOCK SPECIES_POT
QC5
%ENDBLOCK SPECIES_POT

%BLOCK HUBBARD_U
Fe d:4.0
%ENDBLOCK HUBBARD_U

SNAP_TO_SYMMETRY
SYMMETRY_GENERATE

