#              Generated by Buildcell
#
# at 23:18:00 (GMT+0.0) 26th November 2020
# in /lustre/scratch/uccabz1/launch_tmp
# on node-c12f-031
# by uccabz1
#
# compiler GCC version 4.9.2
# options -cpp -iprefix /lustre/shared/ucl/apps/gcc/4.9.2/bin/../lib/gcc/x86_64-unknown-linux-gnu/4.9.2/ -mtune=corei7 -march=x86-64 -g -Og
#
# seed   209782814  -252747269 -2087220095   287374073  1480412429 -1348932245   114548910  -431374637    35455107 -1003097451  1812857800  -852333978
#
#      Author: C. J. Pickard (cjp20@cam.ac.uk)
#                Space group: C2/c
#

%BLOCK LATTICE_ABC
      5.47301      5.47301     11.46798
     89.62600     89.62600     68.68355
%ENDBLOCK LATTICE_ABC

%BLOCK POSITIONS_FRAC
  Li  -0.0125303   0.4082065  -0.3755654 SPIN=   0.00000
  Li   0.0917935  -0.4874697  -0.1244346 SPIN=   0.00000
  Li   0.0125303  -0.4082065   0.3755654 SPIN=   0.00000
  Li  -0.0917935   0.4874697   0.1244346 SPIN=   0.00000
   O   0.5835097  -0.1806465  -0.1480148 SPIN=   0.00000
   O   0.2835610  -0.3214111  -0.0076074 SPIN=   0.00000
   O   0.1918034   0.1517221  -0.0347966 SPIN=   0.00000
   O   0.1019516  -0.1060257  -0.1976824 SPIN=   0.00000
   P   0.3036017  -0.1175390  -0.1009281 SPIN=   0.00000
   O  -0.3193535  -0.0835097  -0.3519852 SPIN=   0.00000
   O  -0.1785889   0.2164390  -0.4923926 SPIN=   0.00000
   O  -0.6517221   0.3081966  -0.4652034 SPIN=   0.00000
   O  -0.3939743   0.3980484  -0.3023176 SPIN=   0.00000
   P  -0.3824610   0.1963983  -0.3990719 SPIN=   0.00000
   O  -0.5835097   0.1806465   0.1480148 SPIN=   0.00000
   O  -0.2835610   0.3214111   0.0076074 SPIN=   0.00000
   O  -0.1918034  -0.1517221   0.0347966 SPIN=   0.00000
   O  -0.1019516   0.1060257   0.1976824 SPIN=   0.00000
   P  -0.3036017   0.1175390   0.1009281 SPIN=   0.00000
   O   0.3193535   0.0835097   0.3519852 SPIN=   0.00000
   O   0.1785889  -0.2164390   0.4923926 SPIN=   0.00000
   O   0.6517221  -0.3081966   0.4652034 SPIN=   0.00000
   O   0.3939743  -0.3980484   0.3023176 SPIN=   0.00000
   P   0.3824610  -0.1963983   0.3990719 SPIN=   0.00000
  Fe   0.3604975  -0.2187732  -0.3467456 SPIN=   4.00000
  Fe  -0.2812268   0.1395025  -0.1532544 SPIN=   4.00000
  Fe  -0.3604975   0.2187732   0.3467456 SPIN=   4.00000
  Fe   0.2812268  -0.1395025   0.1532544 SPIN=   4.00000
%ENDBLOCK POSITIONS_FRAC

# Note: total spin =  16.00

KPOINTS_MP_SPACING 0.07

%BLOCK SPECIES_POT
QC5
%ENDBLOCK SPECIES_POT

%BLOCK HUBBARD_U
Fe d:4.0
%ENDBLOCK HUBBARD_U

SNAP_TO_SYMMETRY
SYMMETRY_GENERATE

