#              Generated by Buildcell
#
# at 14:32:26 (GMT+0.0) 26th November 2020
# in /scratch/scratch/uccabz1/launch_tmp
# on node-k10h-025
# by uccabz1
#
# compiler GCC version 4.9.2
# options -cpp -iprefix /scratch/UCL/applications/gcc/4.9.2/bin/../lib/gcc/x86_64-unknown-linux-gnu/4.9.2/ -mtune=corei7 -march=x86-64 -g -O2
#
# seed  -892292040   958014722 -1411656580  -190807460  -781370876 -1231674663   200674293  -618586583  -974393526  -347801290   253427879   953081789
#
#      Author: C. J. Pickard (cjp20@cam.ac.uk)
#                Space group: I222
#

%BLOCK LATTICE_ABC
      6.08230      7.89960      8.31900
    118.34587    111.44248     90.00000
%ENDBLOCK LATTICE_ABC

%BLOCK POSITIONS_FRAC
  Li  -0.2803988   0.2196012   0.4392024 SPIN=   0.00000
  Li   0.2803988  -0.2196012  -0.4392024 SPIN=   0.00000
  Li  -0.2194682  -0.2194682  -0.4389364 SPIN=   0.00000
  Li   0.2194682   0.2194682   0.4389364 SPIN=   0.00000
   O   0.1294352   0.2497913   0.1820839 SPIN=   0.00000
   O   0.5568320   0.2456053   0.1826526 SPIN=   0.00000
   O   0.3794061   0.5328540   0.2042158 SPIN=   0.00000
   O   0.5143443   0.4817796   0.4978086 SPIN=   0.00000
   P   0.3822725   0.3719378   0.2649128 SPIN=   0.00000
   O  -0.0526487  -0.2497913  -0.1820839 SPIN=   0.00000
   O   0.3741793  -0.2456053  -0.1826526 SPIN=   0.00000
   O   0.1751904  -0.5328540  -0.2042158 SPIN=   0.00000
   O   0.0165357  -0.4817796  -0.4978086 SPIN=   0.00000
   P   0.1173597  -0.3719378  -0.2649128 SPIN=   0.00000
   O   0.0526487  -0.0677075   0.1820839 SPIN=   0.00000
   O  -0.3741793  -0.0629527   0.1826526 SPIN=   0.00000
   O  -0.1751904  -0.3286382   0.2042158 SPIN=   0.00000
   O  -0.0165357   0.0160290   0.4978086 SPIN=   0.00000
   P  -0.1173597  -0.1070250   0.2649128 SPIN=   0.00000
   O  -0.1294352   0.0677075  -0.1820839 SPIN=   0.00000
   O  -0.5568320   0.0629527  -0.1826526 SPIN=   0.00000
   O  -0.3794061   0.3286382  -0.2042158 SPIN=   0.00000
   O  -0.5143443  -0.0160290  -0.4978086 SPIN=   0.00000
   P  -0.3822725   0.1070250  -0.2649128 SPIN=   0.00000
  Fe  -0.3427170  -0.3974438  -0.1854008 SPIN=   4.00000
  Fe  -0.1573162   0.3974438   0.1854008 SPIN=   4.00000
  Fe   0.1573162   0.2120431  -0.1854008 SPIN=   4.00000
  Fe   0.3427170  -0.2120431   0.1854008 SPIN=   4.00000
%ENDBLOCK POSITIONS_FRAC

# Note: total spin =  16.00

KPOINTS_MP_SPACING 0.07

%BLOCK SPECIES_POT
QC5
%ENDBLOCK SPECIES_POT

%BLOCK HUBBARD_U
Fe d:4.0
%ENDBLOCK HUBBARD_U

SNAP_TO_SYMMETRY
SYMMETRY_GENERATE

