#              Generated by Buildcell
#
# at 14:24:24 (GMT+0.0) 24th November 2020
# in /scratch/scratch/uccabz1/launch_tmp
# on node-a14c-025
# by uccabz1
#
# compiler GCC version 4.9.2
# options -cpp -iprefix /scratch/UCL/applications/gcc/4.9.2/bin/../lib/gcc/x86_64-unknown-linux-gnu/4.9.2/ -mtune=corei7 -march=x86-64 -g -O2
#
# seed   568108614   418529211  1384233122  -858025652  1354033208 -2065631413  -214118689  -211797060   937161182  -866057853  1166589682  -817086287
#
#      Author: C. J. Pickard (cjp20@cam.ac.uk)
#                Space group: Pc
#

%BLOCK LATTICE_ABC
      3.91826      5.99381      7.06159
     90.00000    105.25493     90.00000
%ENDBLOCK LATTICE_ABC

%BLOCK POSITIONS_FRAC
  Li  -0.4642194   0.1317466  -0.1019886 SPIN=   0.00000
  Li   0.0357806  -0.1317466   0.3980114 SPIN=   0.00000
   O   0.2126299   0.2020818   0.4193889 SPIN=   0.00000
   O   0.6470987   0.3713802   0.2366084 SPIN=   0.00000
   O   0.5181431  -0.0321265   0.2011320 SPIN=   0.00000
   O   0.0492783   0.2430906   0.0420869 SPIN=   0.00000
   P   0.3454829   0.1969792   0.2330085 SPIN=   0.00000
   O  -0.2873701  -0.2020818  -0.0806111 SPIN=   0.00000
   O   0.1470987  -0.3713802  -0.2633916 SPIN=   0.00000
   O   0.0181431   0.0321265  -0.2988680 SPIN=   0.00000
   O  -0.4507217  -0.2430906  -0.4579131 SPIN=   0.00000
   P  -0.1545171  -0.1969792  -0.2669915 SPIN=   0.00000
  Fe   0.3772313  -0.3634961   0.0638407 SPIN=   4.00000
  Fe  -0.1227687   0.3634961  -0.4361593 SPIN=   4.00000
%ENDBLOCK POSITIONS_FRAC

# Note: total spin =   8.00

KPOINTS_MP_SPACING 0.07

%BLOCK SPECIES_POT
QC5
%ENDBLOCK SPECIES_POT

%BLOCK HUBBARD_U
Fe d:4.0
%ENDBLOCK HUBBARD_U

SNAP_TO_SYMMETRY
SYMMETRY_GENERATE

