#              Generated by Buildcell
#
# at 20:13:32 (GMT+0.0) 26th November 2020
# in /scratch/scratch/uccabz1/launch_tmp
# on node-k10e-001
# by uccabz1
#
# compiler GCC version 4.9.2
# options -cpp -iprefix /scratch/UCL/applications/gcc/4.9.2/bin/../lib/gcc/x86_64-unknown-linux-gnu/4.9.2/ -mtune=corei7 -march=x86-64 -g -O2
#
# seed   813531234   482978866   879093034  1097148902  -748299724  -162840445  -244279168  1193616222 -1013440828  1423997354  -634891029  -533407326
#
#      Author: C. J. Pickard (cjp20@cam.ac.uk)
#                Space group: Cc
#

%BLOCK LATTICE_ABC
      5.91817      7.70782      7.70782
     73.45138     75.42733     75.42733
%ENDBLOCK LATTICE_ABC

%BLOCK POSITIONS_FRAC
  Li   0.2782742   0.0289410   0.1027028 SPIN=   0.00000
  Li  -0.2217258   0.1027028   0.0289410 SPIN=   0.00000
  Li   0.1527187  -0.1859840  -0.1344937 SPIN=   0.00000
  Li  -0.3472813  -0.1344937  -0.1859840 SPIN=   0.00000
   O   0.1274383   0.0038436  -0.4532804 SPIN=   0.00000
   O   0.5028547   0.1449395  -0.6194541 SPIN=   0.00000
   O   0.3798345   0.1048752  -0.2817953 SPIN=   0.00000
   O   0.5511618  -0.1730652  -0.4133043 SPIN=   0.00000
   P   0.3782231   0.0170000  -0.4422232 SPIN=   0.00000
   O  -0.3725617  -0.4532804   0.0038436 SPIN=   0.00000
   O   0.0028547  -0.6194541   0.1449395 SPIN=   0.00000
   O  -0.1201655  -0.2817953   0.1048752 SPIN=   0.00000
   O   0.0511618  -0.4133043  -0.1730652 SPIN=   0.00000
   P  -0.1217769  -0.4422232   0.0170000 SPIN=   0.00000
   O   0.2711024  -0.3144232   0.5098255 SPIN=   0.00000
   O  -0.0856402  -0.1317138   0.3515625 SPIN=   0.00000
   O   0.2869758  -0.2564605   0.1583833 SPIN=   0.00000
   O   0.0354300  -0.4727976   0.3807772 SPIN=   0.00000
   P   0.1335613  -0.2970560   0.3590013 SPIN=   0.00000
   O  -0.2288976   0.5098255  -0.3144232 SPIN=   0.00000
   O  -0.5856402   0.3515625  -0.1317138 SPIN=   0.00000
   O  -0.2130242   0.1583833  -0.2564605 SPIN=   0.00000
   O  -0.4645700   0.3807772  -0.4727976 SPIN=   0.00000
   P  -0.3664387   0.3590013  -0.2970560 SPIN=   0.00000
  Fe  -0.1659634   0.1527603   0.4268338 SPIN=   2.13795
  Fe   0.3340366   0.4268338   0.1527603 SPIN=   2.13795
  Fe   0.1339263   0.3742761  -0.3126882 SPIN=   5.86205
  Fe  -0.3660737  -0.3126882   0.3742761 SPIN=   5.86205
%ENDBLOCK POSITIONS_FRAC

# Note: total spin =  16.00

KPOINTS_MP_SPACING 0.07

%BLOCK SPECIES_POT
QC5
%ENDBLOCK SPECIES_POT

%BLOCK HUBBARD_U
Fe d:4.0
%ENDBLOCK HUBBARD_U

SNAP_TO_SYMMETRY
SYMMETRY_GENERATE

