#              Generated by Buildcell
#
# at 10:36:36 (GMT+0.0) 24th November 2020
# in /scratch/scratch/uccabz1/launch_tmp
# on node-a14b-028
# by uccabz1
#
# compiler GCC version 4.9.2
# options -cpp -iprefix /scratch/UCL/applications/gcc/4.9.2/bin/../lib/gcc/x86_64-unknown-linux-gnu/4.9.2/ -mtune=corei7 -march=x86-64 -g -O2
#
# seed  1814884797   461201531 -1877932020  1142026967   541511510  1845166431  -380254403 -1346241386 -1484983611  1642074762 -1980513493   158705551
#
#      Author: C. J. Pickard (cjp20@cam.ac.uk)
#                Space group: Pcc2
#

%BLOCK LATTICE_ABC
      3.91362      5.21930      7.83301
     90.00000     90.00000     90.00000
%ENDBLOCK LATTICE_ABC

%BLOCK POSITIONS_FRAC
  Li  -0.5000000  -0.5000000   0.1025489 SPIN=   0.00000
  Li  -0.5000000  -0.5000000  -0.3974511 SPIN=   0.00000
   O  -0.1947262   0.1861992   0.5021180 SPIN=   0.00000
   O  -0.7161483   0.3120525   0.3147401 SPIN=   0.00000
   O   0.1947262  -0.1861992   0.5021180 SPIN=   0.00000
   O   0.7161483  -0.3120525   0.3147401 SPIN=   0.00000
   O  -0.1947262  -0.1861992   0.0021180 SPIN=   0.00000
   O  -0.7161483  -0.3120525  -0.1852599 SPIN=   0.00000
   O   0.1947262   0.1861992   0.0021180 SPIN=   0.00000
   O   0.7161483   0.3120525  -0.1852599 SPIN=   0.00000
   P   0.0000000  -0.5000000  -0.1320479 SPIN=   0.00000
   P   0.0000000   0.5000000   0.3679521 SPIN=   0.00000
  Fe   0.0000000   0.0000000  -0.2814576 SPIN=   4.00000
  Fe   0.0000000  -0.0000000   0.2185424 SPIN=   4.00000
%ENDBLOCK POSITIONS_FRAC

# Note: total spin =   8.00

KPOINTS_MP_SPACING 0.07

%BLOCK SPECIES_POT
QC5
%ENDBLOCK SPECIES_POT

%BLOCK HUBBARD_U
Fe d:4.0
%ENDBLOCK HUBBARD_U

SNAP_TO_SYMMETRY
SYMMETRY_GENERATE

