#              Generated by Buildcell
#
# at 21:13:53 (GMT+0.0) 26th November 2020
# in /scratch/scratch/mmm0366/launch_tmp
# on node-k98e-027
# by mmm0366
#
# compiler GCC version 4.9.2
# options -cpp -iprefix /scratch/UCL/applications/gcc/4.9.2/bin/../lib/gcc/x86_64-unknown-linux-gnu/4.9.2/ -mtune=corei7 -march=x86-64 -g -O2
#
# seed -1295675289   -75556978  1911193020  1647574411  1991391096  1681977207   139037699 -1432284600  1073457263 -2110772271  -978950813   430667091
#
#      Author: C. J. Pickard (cjp20@cam.ac.uk)
#                Space group: Pc
#

%BLOCK LATTICE_ABC
      5.98013      6.72173      8.06501
     90.00000     99.21908     90.00000
%ENDBLOCK LATTICE_ABC

%BLOCK POSITIONS_FRAC
  Li  -0.0756729   0.3157981   0.3347837 SPIN=   0.00000
  Li  -0.0756729  -0.3157981  -0.1652163 SPIN=   0.00000
  Li   0.4156429   0.3387173   0.2614986 SPIN=   0.00000
  Li   0.4156429  -0.3387173  -0.2385014 SPIN=   0.00000
   O  -0.2483361  -0.4024515   0.0304696 SPIN=   0.00000
   O  -0.4745165  -0.0899617  -0.0888086 SPIN=   0.00000
   O  -0.6154902  -0.2827772   0.1338680 SPIN=   0.00000
   O  -0.2607230  -0.0813683   0.2047069 SPIN=   0.00000
   P  -0.3900627  -0.2225995   0.0695400 SPIN=   0.00000
   O  -0.2483361   0.4024515  -0.4695304 SPIN=   0.00000
   O  -0.4745165   0.0899617  -0.5888086 SPIN=   0.00000
   O  -0.6154902   0.2827772  -0.3661320 SPIN=   0.00000
   O  -0.2607230   0.0813683  -0.2952931 SPIN=   0.00000
   P  -0.3900627   0.2225995  -0.4304600 SPIN=   0.00000
   O   0.3835624  -0.4317746   0.4320696 SPIN=   0.00000
   O   0.0857749  -0.3784487   0.6297076 SPIN=   0.00000
   O   0.1862275  -0.0926642   0.4637170 SPIN=   0.00000
   O  -0.0402130  -0.3737916   0.3182517 SPIN=   0.00000
   P   0.1637796  -0.3258101   0.4577156 SPIN=   0.00000
   O   0.3835624   0.4317746  -0.0679304 SPIN=   0.00000
   O   0.0857749   0.3784487   0.1297076 SPIN=   0.00000
   O   0.1862275   0.0926642  -0.0362830 SPIN=   0.00000
   O  -0.0402130   0.3737916  -0.1817483 SPIN=   0.00000
   P   0.1637796   0.3258101  -0.0422844 SPIN=   0.00000
  Fe   0.1367766   0.0762333  -0.3266562 SPIN=   4.82392
  Fe   0.1367766  -0.0762333   0.1733438 SPIN=   4.82392
  Fe  -0.3143377   0.2723903  -0.0612451 SPIN=   3.17608
  Fe  -0.3143377  -0.2723903   0.4387549 SPIN=   3.17608
%ENDBLOCK POSITIONS_FRAC

# Note: total spin =  16.00

KPOINTS_MP_SPACING 0.07

%BLOCK SPECIES_POT
QC5
%ENDBLOCK SPECIES_POT

%BLOCK HUBBARD_U
Fe d:4.0
%ENDBLOCK HUBBARD_U

SNAP_TO_SYMMETRY
SYMMETRY_GENERATE

