#              Generated by Buildcell
#
# at 12:47:38 (GMT+0.0) 24th November 2020
# in /lustre/scratch/uccabz1/launch_tmp
# on node-c12c-026
# by uccabz1
#
# compiler GCC version 4.9.2
# options -cpp -iprefix /lustre/shared/ucl/apps/gcc/4.9.2/bin/../lib/gcc/x86_64-unknown-linux-gnu/4.9.2/ -mtune=corei7 -march=x86-64 -g -Og
#
# seed  1395283749 -1868407715  1613460709   634965764 -1456471963  1453332250   362668736   287342839 -1229830381  -502064996 -1530350454 -1292527308
#
#      Author: C. J. Pickard (cjp20@cam.ac.uk)
#                Space group: P-1
#

%BLOCK LATTICE_ABC
      4.44908      4.78670      8.25292
     81.60187     87.78272     66.98503
%ENDBLOCK LATTICE_ABC

%BLOCK POSITIONS_FRAC
  Li   0.3723659  -0.1544679  -0.2595151 SPIN=   0.00000
  Li  -0.3723659   0.1544679   0.2595151 SPIN=   0.00000
   O  -0.0515127  -0.2922082   0.2115470 SPIN=   0.00000
   O   0.1689178   0.1247979   0.2464816 SPIN=   0.00000
   O   0.5072056  -0.4148788   0.3519818 SPIN=   0.00000
   P   0.2510063  -0.2120419   0.2126445 SPIN=   0.00000
   O   0.0515127   0.2922082  -0.2115470 SPIN=   0.00000
   O  -0.1689178  -0.1247979  -0.2464816 SPIN=   0.00000
   O  -0.5072056   0.4148788  -0.3519818 SPIN=   0.00000
   P  -0.2510063   0.2120419  -0.2126445 SPIN=   0.00000
   O  -0.5000000   0.0000000   0.0000000 SPIN=   0.00000
   O   0.5000000   0.0000000   0.5000000 SPIN=   0.00000
  Fe  -0.0000000   0.5000000   0.5000000 SPIN=   5.08652
  Fe   0.0000000  -0.5000000  -0.0000000 SPIN=   2.91348
%ENDBLOCK POSITIONS_FRAC

# Note: total spin =   8.00

KPOINTS_MP_SPACING 0.07

%BLOCK SPECIES_POT
QC5
%ENDBLOCK SPECIES_POT

%BLOCK HUBBARD_U
Fe d:4.0
%ENDBLOCK HUBBARD_U

SNAP_TO_SYMMETRY
SYMMETRY_GENERATE

