#              Generated by Buildcell
#
# at 00:48:44 (GMT+0.0) 27th November 2020
# in /lustre/scratch/uccabz1/launch_tmp
# on node-c12f-021
# by uccabz1
#
# compiler GCC version 4.9.2
# options -cpp -iprefix /lustre/shared/ucl/apps/gcc/4.9.2/bin/../lib/gcc/x86_64-unknown-linux-gnu/4.9.2/ -mtune=corei7 -march=x86-64 -g -Og
#
# seed  -154333485  1094622742  -300500819 -1637734865 -1971116160  -592167094 -1016476687 -1347822125  -238748923    57303363  1484547575   432509211
#
#      Author: C. J. Pickard (cjp20@cam.ac.uk)
#                Space group: P-1
#

%BLOCK LATTICE_ABC
      5.31676      6.91673      9.22710
     78.18634     77.81920     78.18860
%ENDBLOCK LATTICE_ABC

%BLOCK POSITIONS_FRAC
  Li  -0.2739620   0.0404840  -0.2159347 SPIN=   0.00000
  Li   0.2739620  -0.0404840   0.2159347 SPIN=   0.00000
  Li  -0.0000000   0.5000000  -0.5000000 SPIN=   0.00000
  Li   0.5000000  -0.5000000   0.0000000 SPIN=   0.00000
   O   0.0281130  -0.3407109  -0.1406938 SPIN=   0.00000
   O  -0.2004106  -0.5665723  -0.2457282 SPIN=   0.00000
   O  -0.4594265  -0.2520831  -0.1703516 SPIN=   0.00000
   O  -0.1124702  -0.2373865  -0.4009325 SPIN=   0.00000
   P  -0.1737772  -0.3474175  -0.2360755 SPIN=   0.00000
   O  -0.0281130   0.3407109   0.1406938 SPIN=   0.00000
   O   0.2004106   0.5665723   0.2457282 SPIN=   0.00000
   O   0.4594265   0.2520831   0.1703516 SPIN=   0.00000
   O   0.1124702   0.2373865   0.4009325 SPIN=   0.00000
   P   0.1737772   0.3474175   0.2360755 SPIN=   0.00000
   O   0.2658019   0.4799885  -0.3462950 SPIN=   0.00000
   O   0.7002632   0.2412705  -0.4189625 SPIN=   0.00000
   O   0.3357754   0.0964446  -0.2482354 SPIN=   0.00000
   P   0.3935321   0.2710867  -0.3829322 SPIN=   0.00000
   O  -0.2658019  -0.4799885   0.3462950 SPIN=   0.00000
   O  -0.7002632  -0.2412705   0.4189625 SPIN=   0.00000
   O  -0.3357754  -0.0964446   0.2482354 SPIN=   0.00000
   P  -0.3935321  -0.2710867   0.3829322 SPIN=   0.00000
   O   0.5000000   0.0000000  -0.0000000 SPIN=   0.00000
   O  -0.5000000   0.0000000  -0.5000000 SPIN=   0.00000
  Fe   0.3070448  -0.2011392  -0.3339816 SPIN=   4.52883
  Fe  -0.3070448   0.2011392   0.3339816 SPIN=   4.52883
  Fe   0.1000799   0.2585798  -0.0862486 SPIN=   3.47117
  Fe  -0.1000799  -0.2585798   0.0862486 SPIN=   3.47117
%ENDBLOCK POSITIONS_FRAC

# Note: total spin =  16.00

KPOINTS_MP_SPACING 0.07

%BLOCK SPECIES_POT
QC5
%ENDBLOCK SPECIES_POT

%BLOCK HUBBARD_U
Fe d:4.0
%ENDBLOCK HUBBARD_U

SNAP_TO_SYMMETRY
SYMMETRY_GENERATE

