#              Generated by Buildcell
#
# at 20:49:22 (GMT+0.0) 26th November 2020
# in /lustre/scratch/uccabz1/launch_tmp
# on node-c12l-024
# by uccabz1
#
# compiler GCC version 4.9.2
# options -cpp -iprefix /lustre/shared/ucl/apps/gcc/4.9.2/bin/../lib/gcc/x86_64-unknown-linux-gnu/4.9.2/ -mtune=corei7 -march=x86-64 -g -Og
#
# seed  2002704751  2063649295 -1511403497 -1439708610  -768428651  2008500127    81259093  -264906707  1136444650  1181016237 -1178926736   145037982
#
#      Author: C. J. Pickard (cjp20@cam.ac.uk)
#                Space group: P21212
#

%BLOCK LATTICE_ABC
      3.91096      7.42881     11.01406
     90.00000     90.00000     90.00000
%ENDBLOCK LATTICE_ABC

%BLOCK POSITIONS_FRAC
  Li  -0.4190572  -0.0889957  -0.3760645 SPIN=   0.00000
  Li  -0.4190572   0.0889957   0.3760645 SPIN=   0.00000
  Li   0.4190572   0.4110043  -0.1239355 SPIN=   0.00000
  Li   0.4190572  -0.4110043   0.1239355 SPIN=   0.00000
   O   0.1617259  -0.1716043   0.0731363 SPIN=   0.00000
   O   0.3486070   0.1284295   0.1745564 SPIN=   0.00000
   O  -0.0513404  -0.0692872   0.2856354 SPIN=   0.00000
   P   0.2532448  -0.0755500   0.1924653 SPIN=   0.00000
   O   0.1617259   0.1716043  -0.0731363 SPIN=   0.00000
   O   0.3486070  -0.1284295  -0.1745564 SPIN=   0.00000
   O  -0.0513404   0.0692872  -0.2856354 SPIN=   0.00000
   P   0.2532448   0.0755500  -0.1924653 SPIN=   0.00000
   O  -0.1617259   0.3283957   0.4268637 SPIN=   0.00000
   O  -0.3486070   0.6284295   0.3254436 SPIN=   0.00000
   O   0.0513404   0.4307128   0.2143646 SPIN=   0.00000
   P  -0.2532448   0.4244500   0.3075347 SPIN=   0.00000
   O  -0.1617259  -0.3283957  -0.4268637 SPIN=   0.00000
   O  -0.3486070  -0.6284295  -0.3254436 SPIN=   0.00000
   O   0.0513404  -0.4307128  -0.2143646 SPIN=   0.00000
   P  -0.2532448  -0.4244500  -0.3075347 SPIN=   0.00000
   O  -0.1041652  -0.5000000   0.0000000 SPIN=   0.00000
   O   0.1041652  -0.0000000  -0.5000000 SPIN=   0.00000
   O  -0.3386072  -0.0000000   0.0000000 SPIN=   0.00000
   O   0.3386072   0.5000000  -0.5000000 SPIN=   0.00000
  Fe  -0.0949398   0.2281973   0.0898614 SPIN=   4.00000
  Fe  -0.0949398  -0.2281973  -0.0898614 SPIN=   4.00000
  Fe   0.0949398  -0.2718027   0.4101386 SPIN=   4.00000
  Fe   0.0949398   0.2718027  -0.4101386 SPIN=   4.00000
%ENDBLOCK POSITIONS_FRAC

# Note: total spin =  16.00

KPOINTS_MP_SPACING 0.07

%BLOCK SPECIES_POT
QC5
%ENDBLOCK SPECIES_POT

%BLOCK HUBBARD_U
Fe d:4.0
%ENDBLOCK HUBBARD_U

SNAP_TO_SYMMETRY
SYMMETRY_GENERATE

