#              Generated by Buildcell
#
# at 08:40:51 (GMT+0.0) 24th November 2020
# in /lustre/scratch/uccabz1/launch_tmp
# on node-c12d-031
# by uccabz1
#
# compiler GCC version 4.9.2
# options -cpp -iprefix /lustre/shared/ucl/apps/gcc/4.9.2/bin/../lib/gcc/x86_64-unknown-linux-gnu/4.9.2/ -mtune=corei7 -march=x86-64 -g -Og
#
# seed     2362145   484538162  1537789728   540752565  -748706209  1430897839  1410770644  -735669440  -776674867  2019033159  -158024668  1980874982
#
#      Author: C. J. Pickard (cjp20@cam.ac.uk)
#                Space group: P-1
#

%BLOCK LATTICE_ABC
      4.30089      4.58751      8.48602
     90.28764     99.26373    104.23602
%ENDBLOCK LATTICE_ABC

%BLOCK POSITIONS_FRAC
  Li  -0.1977394   0.0714371   0.2639212 SPIN=   0.00000
  Li   0.1977394  -0.0714371  -0.2639212 SPIN=   0.00000
   O  -0.1920420   0.6496140  -0.1676702 SPIN=   0.00000
   O  -0.3779111   0.1586388  -0.3484265 SPIN=   0.00000
   O   0.2067247   0.4183693  -0.2965482 SPIN=   0.00000
   P  -0.1083983   0.3590044  -0.2174868 SPIN=   0.00000
   O   0.1920420  -0.6496140   0.1676702 SPIN=   0.00000
   O   0.3779111  -0.1586388   0.3484265 SPIN=   0.00000
   O  -0.2067247  -0.4183693   0.2965482 SPIN=   0.00000
   P   0.1083983  -0.3590044   0.2174868 SPIN=   0.00000
   O  -0.5000000   0.0000000   0.0000000 SPIN=   0.00000
   O  -0.0000000   0.0000000   0.5000000 SPIN=   0.00000
  Fe  -0.5000000  -0.5000000  -0.5000000 SPIN=   4.70661
  Fe   0.5000000   0.5000000   0.0000000 SPIN=   3.29339
%ENDBLOCK POSITIONS_FRAC

# Note: total spin =   8.00

KPOINTS_MP_SPACING 0.07

%BLOCK SPECIES_POT
QC5
%ENDBLOCK SPECIES_POT

%BLOCK HUBBARD_U
Fe d:4.0
%ENDBLOCK HUBBARD_U

SNAP_TO_SYMMETRY
SYMMETRY_GENERATE

