#              Generated by Buildcell
#
# at 10:40:24 (GMT+0.0) 24th November 2020
# in /lustre/scratch/uccabz1/launch_tmp
# on node-c12a-028
# by uccabz1
#
# compiler GCC version 4.9.2
# options -cpp -iprefix /lustre/shared/ucl/apps/gcc/4.9.2/bin/../lib/gcc/x86_64-unknown-linux-gnu/4.9.2/ -mtune=corei7 -march=x86-64 -g -Og
#
# seed -1246963954  -743666925 -1463153958 -1218321719 -2131026027   -19235785  1675112148 -1054192439 -2050928900  -574904918 -1689610690  2084664498
#
#      Author: C. J. Pickard (cjp20@cam.ac.uk)
#                Space group: P-1
#

%BLOCK LATTICE_ABC
      4.65932      4.82560      7.22796
     99.42266     93.46260     90.48904
%ENDBLOCK LATTICE_ABC

%BLOCK POSITIONS_FRAC
  Li   0.0250952  -0.0754024   0.1937180 SPIN=   0.00000
  Li  -0.0250952   0.0754024  -0.1937180 SPIN=   0.00000
   O   0.4436421  -0.1164156   0.3372046 SPIN=   0.00000
   O   0.6788889   0.1540647   0.1010397 SPIN=   0.00000
   O   0.2773673   0.3746025   0.2754210 SPIN=   0.00000
   P   0.5362106   0.1718637   0.2942889 SPIN=   0.00000
   O  -0.4436421   0.1164156  -0.3372046 SPIN=   0.00000
   O  -0.6788889  -0.1540647  -0.1010397 SPIN=   0.00000
   O  -0.2773673  -0.3746025  -0.2754210 SPIN=   0.00000
   P  -0.5362106  -0.1718637  -0.2942889 SPIN=   0.00000
   O   0.0000000   0.5000000   0.0000000 SPIN=   0.00000
   O  -0.0000000   0.0000000  -0.5000000 SPIN=   0.00000
  Fe   0.5000000   0.5000000  -0.0000000 SPIN=   1.01579
  Fe  -0.0000000  -0.5000000  -0.5000000 SPIN=   6.98421
%ENDBLOCK POSITIONS_FRAC

# Note: total spin =   8.00

KPOINTS_MP_SPACING 0.07

%BLOCK SPECIES_POT
QC5
%ENDBLOCK SPECIES_POT

%BLOCK HUBBARD_U
Fe d:4.0
%ENDBLOCK HUBBARD_U

SNAP_TO_SYMMETRY
SYMMETRY_GENERATE

