#              Generated by Buildcell
#
# at 06:24:21 (GMT+0.0) 24th November 2020
# in /lustre/scratch/uccabz1/launch_tmp
# on node-c12a-034
# by uccabz1
#
# compiler GCC version 4.9.2
# options -cpp -iprefix /lustre/shared/ucl/apps/gcc/4.9.2/bin/../lib/gcc/x86_64-unknown-linux-gnu/4.9.2/ -mtune=corei7 -march=x86-64 -g -Og
#
# seed -1878672975  -312088737   438555327   851897675  1990570728   621853915   749766856   172629227  1800683510   294947955   211226181  -243098503
#
#      Author: C. J. Pickard (cjp20@cam.ac.uk)
#                Space group: P-1
#

%BLOCK LATTICE_ABC
      5.33691      5.70662      5.94911
     76.03533     89.29041     66.09472
%ENDBLOCK LATTICE_ABC

%BLOCK POSITIONS_FRAC
  Li  -0.0596584   0.0028600  -0.2500085 SPIN=   0.00000
  Li   0.0596584  -0.0028600   0.2500085 SPIN=   0.00000
   O  -0.6359619  -0.3085238  -0.3611132 SPIN=   0.00000
   O  -0.1581453  -0.6102596  -0.1294703 SPIN=   0.00000
   O  -0.1810036  -0.2801657  -0.4933092 SPIN=   0.00000
   O  -0.3705493  -0.1267551  -0.1419595 SPIN=   0.00000
   P  -0.3527672  -0.3277913  -0.2840577 SPIN=   0.00000
   O   0.6359619   0.3085238   0.3611132 SPIN=   0.00000
   O   0.1581453   0.6102596   0.1294703 SPIN=   0.00000
   O   0.1810036   0.2801657   0.4933092 SPIN=   0.00000
   O   0.3705493   0.1267551   0.1419595 SPIN=   0.00000
   P   0.3527672   0.3277913   0.2840577 SPIN=   0.00000
  Fe   0.2847471   0.3605597  -0.2030867 SPIN=   4.00000
  Fe  -0.2847471  -0.3605597   0.2030867 SPIN=   4.00000
%ENDBLOCK POSITIONS_FRAC

# Note: total spin =   8.00

KPOINTS_MP_SPACING 0.07

%BLOCK SPECIES_POT
QC5
%ENDBLOCK SPECIES_POT

%BLOCK HUBBARD_U
Fe d:4.0
%ENDBLOCK HUBBARD_U

SNAP_TO_SYMMETRY
SYMMETRY_GENERATE

