#              Generated by Buildcell
#
# at 19:16:34 (GMT+0.0) 26th November 2020
# in /lustre/scratch/uccabz1/launch_tmp
# on node-c12e-024
# by uccabz1
#
# compiler GCC version 4.9.2
# options -cpp -iprefix /lustre/shared/ucl/apps/gcc/4.9.2/bin/../lib/gcc/x86_64-unknown-linux-gnu/4.9.2/ -mtune=corei7 -march=x86-64 -g -Og
#
# seed -1186479092   228587237   829449927   543999833  -810666627 -1960649414  1021692907  1451577600  1422890881  1465186809 -1354490167 -1871865506
#
#      Author: C. J. Pickard (cjp20@cam.ac.uk)
#                Space group: Pc
#

%BLOCK LATTICE_ABC
      5.70703      7.22846      8.00634
     90.00000    104.33664     90.00000
%ENDBLOCK LATTICE_ABC

%BLOCK POSITIONS_FRAC
  Li  -0.2510622   0.1671472  -0.2455867 SPIN=   0.00000
  Li  -0.2510622  -0.1671472   0.2544133 SPIN=   0.00000
  Li   0.0771853  -0.4859065  -0.0552946 SPIN=   0.00000
  Li   0.0771853   0.4859065   0.4447054 SPIN=   0.00000
   O  -0.2611486   0.0402623  -0.0104866 SPIN=   0.00000
   O  -0.0798686  -0.1640180  -0.2143115 SPIN=   0.00000
   O  -0.1020472  -0.2934974   0.0668600 SPIN=   0.00000
   O  -0.4830020  -0.2473789  -0.1643644 SPIN=   0.00000
   P  -0.2360622  -0.1561256  -0.0778326 SPIN=   0.00000
   O  -0.2611486  -0.0402623   0.4895134 SPIN=   0.00000
   O  -0.0798686   0.1640180   0.2856885 SPIN=   0.00000
   O  -0.1020472   0.2934974   0.5668600 SPIN=   0.00000
   O  -0.4830020   0.2473789   0.3356356 SPIN=   0.00000
   P  -0.2360622   0.1561256   0.4221674 SPIN=   0.00000
   O   0.1833808  -0.5378629   0.2116523 SPIN=   0.00000
   O   0.2975001  -0.2379194   0.3922826 SPIN=   0.00000
   O   0.6258733  -0.4234235   0.3249612 SPIN=   0.00000
   O   0.3440499  -0.2467092   0.0894590 SPIN=   0.00000
   P   0.3529330  -0.3695159   0.2503539 SPIN=   0.00000
   O   0.1833808   0.5378629  -0.2883477 SPIN=   0.00000
   O   0.2975001   0.2379194  -0.1077174 SPIN=   0.00000
   O   0.6258733   0.4234235  -0.1750388 SPIN=   0.00000
   O   0.3440499   0.2467092  -0.4105410 SPIN=   0.00000
   P   0.3529330   0.3695159  -0.2496461 SPIN=   0.00000
  Fe  -0.3653422   0.3701384   0.1111776 SPIN=   1.17541
  Fe  -0.3653422  -0.3701384  -0.3888224 SPIN=   1.17541
  Fe   0.2673744  -0.0556765  -0.1142652 SPIN=   6.82459
  Fe   0.2673744   0.0556765   0.3857348 SPIN=   6.82459
%ENDBLOCK POSITIONS_FRAC

# Note: total spin =  16.00

KPOINTS_MP_SPACING 0.07

%BLOCK SPECIES_POT
QC5
%ENDBLOCK SPECIES_POT

%BLOCK HUBBARD_U
Fe d:4.0
%ENDBLOCK HUBBARD_U

SNAP_TO_SYMMETRY
SYMMETRY_GENERATE

