#              Generated by Buildcell
#
# at 01:38:03 (GMT+0.0) 27th November 2020
# in /lustre/scratch/uccabz1/launch_tmp
# on node-c12n-022
# by uccabz1
#
# compiler GCC version 4.9.2
# options -cpp -iprefix /lustre/shared/ucl/apps/gcc/4.9.2/bin/../lib/gcc/x86_64-unknown-linux-gnu/4.9.2/ -mtune=corei7 -march=x86-64 -g -Og
#
# seed  -133316730   606478119  1483165782  1178182442 -1522199806  1424404302  1174118931  -992457913   437434941   -33782451 -1851693897  2137622323
#
#      Author: C. J. Pickard (cjp20@cam.ac.uk)
#                Space group: Pnn2
#

%BLOCK LATTICE_ABC
      4.69591      8.11593      8.39639
     90.00000     90.00000     90.00000
%ENDBLOCK LATTICE_ABC

%BLOCK POSITIONS_FRAC
  Li   0.2775252  -0.1796356  -0.0459347 SPIN=   0.00000
  Li   0.2775252   0.1796356   0.0459347 SPIN=   0.00000
  Li  -0.2224748   0.3203644  -0.4540653 SPIN=   0.00000
  Li  -0.2224748  -0.3203644   0.4540653 SPIN=   0.00000
   O  -0.0465547   0.1322467  -0.1168799 SPIN=   0.00000
   O  -0.3178877   0.3534735   0.0474079 SPIN=   0.00000
   O  -0.1663331   0.4236757  -0.2259930 SPIN=   0.00000
   O  -0.5608617   0.2204509  -0.1848946 SPIN=   0.00000
   P  -0.2642552   0.2737317  -0.1206837 SPIN=   0.00000
   O  -0.0465547  -0.1322467   0.1168799 SPIN=   0.00000
   O  -0.3178877  -0.3534735  -0.0474079 SPIN=   0.00000
   O  -0.1663331  -0.4236757   0.2259930 SPIN=   0.00000
   O  -0.5608617  -0.2204509   0.1848946 SPIN=   0.00000
   P  -0.2642552  -0.2737317   0.1206837 SPIN=   0.00000
   O   0.4534453  -0.3677533  -0.3831201 SPIN=   0.00000
   O   0.1821123  -0.1465265  -0.5474079 SPIN=   0.00000
   O   0.3336669  -0.0763243  -0.2740070 SPIN=   0.00000
   O  -0.0608617  -0.2795491  -0.3151054 SPIN=   0.00000
   P   0.2357448  -0.2262683  -0.3793163 SPIN=   0.00000
   O   0.4534453   0.3677533   0.3831201 SPIN=   0.00000
   O   0.1821123   0.1465265   0.5474079 SPIN=   0.00000
   O   0.3336669   0.0763243   0.2740070 SPIN=   0.00000
   O  -0.0608617   0.2795491   0.3151054 SPIN=   0.00000
   P   0.2357448   0.2262683   0.3793163 SPIN=   0.00000
  Fe   0.2715297   0.4643871  -0.2263995 SPIN=   4.00000
  Fe   0.2715297  -0.4643871   0.2263995 SPIN=   4.00000
  Fe  -0.2284703  -0.0356129  -0.2736005 SPIN=   4.00000
  Fe  -0.2284703   0.0356129   0.2736005 SPIN=   4.00000
%ENDBLOCK POSITIONS_FRAC

# Note: total spin =  16.00

KPOINTS_MP_SPACING 0.07

%BLOCK SPECIES_POT
QC5
%ENDBLOCK SPECIES_POT

%BLOCK HUBBARD_U
Fe d:4.0
%ENDBLOCK HUBBARD_U

SNAP_TO_SYMMETRY
SYMMETRY_GENERATE

