#              Generated by Buildcell
#
# at 11:30:52 (GMT+0.0) 24th November 2020
# in /lustre/scratch/uccabz1/launch_tmp
# on node-c12p-031
# by uccabz1
#
# compiler GCC version 4.9.2
# options -cpp -iprefix /lustre/shared/ucl/apps/gcc/4.9.2/bin/../lib/gcc/x86_64-unknown-linux-gnu/4.9.2/ -mtune=corei7 -march=x86-64 -g -Og
#
# seed  -492412512  2141204606  -808646646    49520923 -2142875887  -953810932   361129204   811227444  1788030427  1537547151  1353486979 -1547121510
#
#      Author: C. J. Pickard (cjp20@cam.ac.uk)
#                Space group: P21
#

%BLOCK LATTICE_ABC
      4.88089      5.56529      5.93989
     90.00000     97.41290     90.00000
%ENDBLOCK LATTICE_ABC

%BLOCK POSITIONS_FRAC
  Li  -0.1792308  -0.4711934   0.4982394 SPIN=   0.00000
  Li   0.1792308   0.0288066  -0.4982394 SPIN=   0.00000
   O  -0.2161678  -0.2519221   0.2061153 SPIN=   0.00000
   O  -0.1773793   0.1966370   0.3272172 SPIN=   0.00000
   O  -0.6405148   0.0313311   0.1974494 SPIN=   0.00000
   O  -0.3899574  -0.0975927   0.5725625 SPIN=   0.00000
   P  -0.3489598  -0.0429754   0.3223732 SPIN=   0.00000
   O   0.2161678   0.2480779  -0.2061153 SPIN=   0.00000
   O   0.1773793   0.6966370  -0.3272172 SPIN=   0.00000
   O   0.6405148   0.5313311  -0.1974494 SPIN=   0.00000
   O   0.3899574   0.4024073  -0.5725625 SPIN=   0.00000
   P   0.3489598   0.4570246  -0.3223732 SPIN=   0.00000
  Fe   0.2621548  -0.3950609   0.1256538 SPIN=   4.00000
  Fe  -0.2621548   0.1049391  -0.1256538 SPIN=   4.00000
%ENDBLOCK POSITIONS_FRAC

# Note: total spin =   8.00

KPOINTS_MP_SPACING 0.07

%BLOCK SPECIES_POT
QC5
%ENDBLOCK SPECIES_POT

%BLOCK HUBBARD_U
Fe d:4.0
%ENDBLOCK HUBBARD_U

SNAP_TO_SYMMETRY
SYMMETRY_GENERATE

