#              Generated by Buildcell
#
# at 20:19:08 (GMT+0.0) 26th November 2020
# in /lustre/scratch/uccabz1/launch_tmp
# on node-c12n-030
# by uccabz1
#
# compiler GCC version 4.9.2
# options -cpp -iprefix /lustre/shared/ucl/apps/gcc/4.9.2/bin/../lib/gcc/x86_64-unknown-linux-gnu/4.9.2/ -mtune=corei7 -march=x86-64 -g -Og
#
# seed    29795993  1352735780   751917886  -635518066  1188425937  1461106513 -2110173478  -837325263   126000350 -1261724897  1955501158 -1495572247
#
#      Author: C. J. Pickard (cjp20@cam.ac.uk)
#                Space group: C2
#

%BLOCK LATTICE_ABC
      6.92662      6.92662      7.73091
    101.65020    101.65020    112.24109
%ENDBLOCK LATTICE_ABC

%BLOCK POSITIONS_FRAC
  Li  -0.0397208   0.4750297   0.1354445 SPIN=   0.00000
  Li  -0.4750297   0.0397208  -0.1354445 SPIN=   0.00000
  Li   0.4118859   0.0212101   0.3401598 SPIN=   0.00000
  Li  -0.0212101  -0.4118859  -0.3401598 SPIN=   0.00000
   O   0.0504929   0.3112403  -0.3495491 SPIN=   0.00000
   O  -0.1928532   0.3941005  -0.1584051 SPIN=   0.00000
   O  -0.2403548   0.0129779  -0.2619828 SPIN=   0.00000
   O   0.1006461   0.2968407  -0.0128652 SPIN=   0.00000
   P  -0.0620542   0.2573569  -0.2017346 SPIN=   0.00000
   O  -0.3112403  -0.0504929   0.3495491 SPIN=   0.00000
   O  -0.3941005   0.1928532   0.1584051 SPIN=   0.00000
   O  -0.0129779   0.2403548   0.2619828 SPIN=   0.00000
   O  -0.2968407  -0.1006461   0.0128652 SPIN=   0.00000
   P  -0.2573569   0.0620542   0.2017346 SPIN=   0.00000
   O   0.3113329   0.1807689  -0.2047776 SPIN=   0.00000
   O   0.3046758   0.2396558  -0.5269447 SPIN=   0.00000
   O   0.4911083   0.5646048  -0.2479113 SPIN=   0.00000
   P   0.4372360   0.3147688  -0.3155175 SPIN=   0.00000
   O  -0.1807689  -0.3113329   0.2047776 SPIN=   0.00000
   O  -0.2396558  -0.3046758   0.5269447 SPIN=   0.00000
   O  -0.5646048  -0.4911083   0.2479113 SPIN=   0.00000
   P  -0.3147688  -0.4372360   0.3155175 SPIN=   0.00000
   O   0.2066347  -0.2066347   0.0000000 SPIN=   0.00000
   O  -0.3114899   0.3114899  -0.5000000 SPIN=   0.00000
  Fe   0.3847151  -0.3847151   0.5000000 SPIN=   4.07035
  Fe   0.0207335  -0.0207335   0.0000000 SPIN=   6.47146
  Fe   0.4052829  -0.4052829   0.0000000 SPIN=   4.95905
  Fe   0.0008851  -0.0008851  -0.5000000 SPIN=   0.49914
%ENDBLOCK POSITIONS_FRAC

# Note: total spin =  16.00

KPOINTS_MP_SPACING 0.07

%BLOCK SPECIES_POT
QC5
%ENDBLOCK SPECIES_POT

%BLOCK HUBBARD_U
Fe d:4.0
%ENDBLOCK HUBBARD_U

SNAP_TO_SYMMETRY
SYMMETRY_GENERATE

