#              Generated by Buildcell
#
# at 06:59:21 (GMT+0.0) 26th November 2020
# in /lustre/scratch/uccabz1/launch_tmp
# on node-c12d-021
# by uccabz1
#
# compiler GCC version 4.9.2
# options -cpp -iprefix /lustre/shared/ucl/apps/gcc/4.9.2/bin/../lib/gcc/x86_64-unknown-linux-gnu/4.9.2/ -mtune=corei7 -march=x86-64 -g -Og
#
# seed -1692281458   186226577  1881984735 -1002067424  1796377025  1230597294  1673635950  1477122768  1078073354   -74972733  1564285579  -806644490
#
#      Author: C. J. Pickard (cjp20@cam.ac.uk)
#                Space group: Pc
#

%BLOCK LATTICE_ABC
      5.31940      7.67335      7.88252
     95.97073     90.00000     90.00000
%ENDBLOCK LATTICE_ABC

%BLOCK POSITIONS_FRAC
  Li   0.0662986   0.4184213  -0.1493782 SPIN=   0.00000
  Li  -0.0662986  -0.0815787  -0.1493782 SPIN=   0.00000
  Li  -0.0420553   0.1904364   0.1512344 SPIN=   0.00000
  Li   0.0420553  -0.3095636   0.1512344 SPIN=   0.00000
   O  -0.4994834  -0.3232375   0.1206445 SPIN=   0.00000
   O  -0.5438955  -0.5371052  -0.1556919 SPIN=   0.00000
   O  -0.1739100  -0.3418012  -0.1262671 SPIN=   0.00000
   O  -0.2069857  -0.5903912   0.0547523 SPIN=   0.00000
   P  -0.3619455  -0.4431625  -0.0178378 SPIN=   0.00000
   O   0.4994834   0.1767625   0.1206445 SPIN=   0.00000
   O   0.5438955  -0.0371052  -0.1556919 SPIN=   0.00000
   O   0.1739100   0.1581988  -0.1262671 SPIN=   0.00000
   O   0.2069857  -0.0903912   0.0547523 SPIN=   0.00000
   P   0.3619455   0.0568375  -0.0178378 SPIN=   0.00000
   O   0.2088285   0.3346121   0.4609921 SPIN=   0.00000
   O  -0.2334554   0.2049119   0.3863509 SPIN=   0.00000
   O  -0.1880591   0.4131458   0.6453509 SPIN=   0.00000
   O  -0.1525736   0.5220181   0.3576180 SPIN=   0.00000
   P  -0.0760566   0.3686681   0.4612549 SPIN=   0.00000
   O  -0.2088285  -0.1653879   0.4609921 SPIN=   0.00000
   O   0.2334554  -0.2950881   0.3863509 SPIN=   0.00000
   O   0.1880591  -0.0868542   0.6453509 SPIN=   0.00000
   O   0.1525736   0.0220181   0.3576180 SPIN=   0.00000
   P   0.0760566  -0.1313319   0.4612549 SPIN=   0.00000
  Fe   0.4324307  -0.2889877  -0.2996715 SPIN=   3.01004
  Fe  -0.4324307   0.2110123  -0.2996715 SPIN=   3.01004
  Fe   0.4566943   0.4138933   0.2764403 SPIN=   4.98996
  Fe  -0.4566943  -0.0861067   0.2764403 SPIN=   4.98996
%ENDBLOCK POSITIONS_FRAC

# Note: total spin =  16.00

KPOINTS_MP_SPACING 0.07

%BLOCK SPECIES_POT
QC5
%ENDBLOCK SPECIES_POT

%BLOCK HUBBARD_U
Fe d:4.0
%ENDBLOCK HUBBARD_U

SNAP_TO_SYMMETRY
SYMMETRY_GENERATE

