#              Generated by Buildcell
#
# at 09:38:27 (GMT+0.0) 24th November 2020
# in /scratch/scratch/uccabz1/launch_tmp
# on node-a14e-012
# by uccabz1
#
# compiler GCC version 4.9.2
# options -cpp -iprefix /scratch/UCL/applications/gcc/4.9.2/bin/../lib/gcc/x86_64-unknown-linux-gnu/4.9.2/ -mtune=corei7 -march=x86-64 -g -O2
#
# seed  1832073690  -849406071 -1688488157  -300049050   823834543  1716330606  1084733852  1918759045 -1807087947  1132327035   451485521   589345517
#
#      Author: C. J. Pickard (cjp20@cam.ac.uk)
#                Space group: C2
#

%BLOCK LATTICE_ABC
      5.65677      5.65677      6.04643
     71.60558     71.60558     62.88295
%ENDBLOCK LATTICE_ABC

%BLOCK POSITIONS_FRAC
  Li   0.3254232  -0.3117743   0.2451860 SPIN=   0.00000
  Li   0.3117743  -0.3254232  -0.2451860 SPIN=   0.00000
   O   0.1865906   0.0934579  -0.0305914 SPIN=   0.00000
   O  -0.1980924   0.4733058  -0.2422699 SPIN=   0.00000
   O   0.2730340   0.4324776  -0.4205555 SPIN=   0.00000
   O   0.1309510   0.0781728  -0.4331259 SPIN=   0.00000
   P   0.1032188   0.2577318  -0.2700565 SPIN=   0.00000
   O  -0.0934579  -0.1865906   0.0305914 SPIN=   0.00000
   O  -0.4733058   0.1980924   0.2422699 SPIN=   0.00000
   O  -0.4324776  -0.2730340   0.4205555 SPIN=   0.00000
   O  -0.0781728  -0.1309510   0.4331259 SPIN=   0.00000
   P  -0.2577318  -0.1032188   0.2700565 SPIN=   0.00000
  Fe   0.0015092   0.3470076   0.2163530 SPIN=   4.00000
  Fe  -0.3470076  -0.0015092  -0.2163530 SPIN=   4.00000
%ENDBLOCK POSITIONS_FRAC

# Note: total spin =   8.00

KPOINTS_MP_SPACING 0.07

%BLOCK SPECIES_POT
QC5
%ENDBLOCK SPECIES_POT

%BLOCK HUBBARD_U
Fe d:4.0
%ENDBLOCK HUBBARD_U

SNAP_TO_SYMMETRY
SYMMETRY_GENERATE

