#              Generated by Buildcell
#
# at 10:32:47 (GMT+0.0) 24th November 2020
# in /lustre/scratch/uccabz1/launch_tmp
# on node-c12a-028
# by uccabz1
#
# compiler GCC version 4.9.2
# options -cpp -iprefix /lustre/shared/ucl/apps/gcc/4.9.2/bin/../lib/gcc/x86_64-unknown-linux-gnu/4.9.2/ -mtune=corei7 -march=x86-64 -g -Og
#
# seed   531145337  1413383411 -1423813329  -246927586 -1605976611  1158593266  -229216691 -1260184086 -1558110388  1755507415  1689059397  2030588195
#
#      Author: C. J. Pickard (cjp20@cam.ac.uk)
#                Space group: P21/m
#

%BLOCK LATTICE_ABC
      5.32848      5.71145      5.77641
     90.00000    114.47417     90.00000
%ENDBLOCK LATTICE_ABC

%BLOCK POSITIONS_FRAC
  Li  -0.0948052  -0.2500000  -0.1543998 SPIN=   0.00000
  Li   0.0948052   0.2500000   0.1543998 SPIN=   0.00000
   O   0.3725637  -0.4662303   0.2426388 SPIN=   0.00000
   O   0.1648293  -0.4720532  -0.2512885 SPIN=   0.00000
   O  -0.3725637   0.0337697  -0.2426388 SPIN=   0.00000
   O  -0.1648293   0.0279468   0.2512885 SPIN=   0.00000
   O  -0.3725637   0.4662303  -0.2426388 SPIN=   0.00000
   O  -0.1648293   0.4720532   0.2512885 SPIN=   0.00000
   O   0.3725637  -0.0337697   0.2426388 SPIN=   0.00000
   O   0.1648293  -0.0279468  -0.2512885 SPIN=   0.00000
   P  -0.3929986  -0.2500000   0.2251564 SPIN=   0.00000
   P   0.3929986   0.2500000  -0.2251564 SPIN=   0.00000
  Fe   0.2376894  -0.2500000   0.4725806 SPIN=   4.00000
  Fe  -0.2376894   0.2500000  -0.4725806 SPIN=   4.00000
%ENDBLOCK POSITIONS_FRAC

# Note: total spin =   8.00

KPOINTS_MP_SPACING 0.07

%BLOCK SPECIES_POT
QC5
%ENDBLOCK SPECIES_POT

%BLOCK HUBBARD_U
Fe d:4.0
%ENDBLOCK HUBBARD_U

SNAP_TO_SYMMETRY
SYMMETRY_GENERATE

