#              Generated by Buildcell
#
# at 11:53:17 (GMT+0.0) 26th November 2020
# in /lustre/scratch/uccabz1/launch_tmp
# on node-c12e-029
# by uccabz1
#
# compiler GCC version 4.9.2
# options -cpp -iprefix /lustre/shared/ucl/apps/gcc/4.9.2/bin/../lib/gcc/x86_64-unknown-linux-gnu/4.9.2/ -mtune=corei7 -march=x86-64 -g -Og
#
# seed  1202175758  -301570018  -587862925   709686020  1082875819 -1887972538  -277037412 -1341650548  1552224849  1359850754   551684697  1164381793
#
#      Author: C. J. Pickard (cjp20@cam.ac.uk)
#                Space group: C2221
#

%BLOCK LATTICE_ABC
      5.73761      7.12496      8.55157
     90.00000     90.00000    113.74342
%ENDBLOCK LATTICE_ABC

%BLOCK POSITIONS_FRAC
  Li  -0.1617359   0.1765966  -0.1926552 SPIN=   0.00000
  Li   0.1617359  -0.1765966   0.3073448 SPIN=   0.00000
  Li   0.3383325   0.1765966  -0.3073448 SPIN=   0.00000
  Li  -0.3383325  -0.1765966   0.1926552 SPIN=   0.00000
   O   0.2701606   0.1432220   0.3054072 SPIN=   0.00000
   O   0.4678632   0.5415667   0.3080231 SPIN=   0.00000
   O   0.2254931   0.3584871   0.5397304 SPIN=   0.00000
   P   0.3993930   0.3381528   0.4043011 SPIN=   0.00000
   O  -0.2701606  -0.1432220  -0.1945928 SPIN=   0.00000
   O  -0.4678632  -0.5415667  -0.1919769 SPIN=   0.00000
   O  -0.2254931  -0.3584871   0.0397304 SPIN=   0.00000
   P  -0.3993930  -0.3381528  -0.0956989 SPIN=   0.00000
   O  -0.1269386   0.1432220   0.1945928 SPIN=   0.00000
   O   0.0737035   0.5415667   0.1919769 SPIN=   0.00000
   O   0.1329940   0.3584871  -0.0397304 SPIN=   0.00000
   P  -0.0612402   0.3381528   0.0956989 SPIN=   0.00000
   O   0.1269386  -0.1432220  -0.3054072 SPIN=   0.00000
   O  -0.0737035  -0.5415667  -0.3080231 SPIN=   0.00000
   O  -0.1329940  -0.3584871  -0.5397304 SPIN=   0.00000
   P   0.0612402  -0.3381528  -0.4043011 SPIN=   0.00000
   O   0.0956636   0.0000000  -0.0000000 SPIN=   0.00000
   O  -0.0956636  -0.0000000   0.5000000 SPIN=   0.00000
   O  -0.4738453  -0.0000000  -0.0000000 SPIN=   0.00000
   O   0.4738453   0.0000000   0.5000000 SPIN=   0.00000
  Fe   0.1329937  -0.2833149  -0.0735168 SPIN=   4.00000
  Fe  -0.1329937   0.2833149   0.4264832 SPIN=   4.00000
  Fe  -0.4163085  -0.2833149  -0.4264832 SPIN=   4.00000
  Fe   0.4163085   0.2833149   0.0735168 SPIN=   4.00000
%ENDBLOCK POSITIONS_FRAC

# Note: total spin =  16.00

KPOINTS_MP_SPACING 0.07

%BLOCK SPECIES_POT
QC5
%ENDBLOCK SPECIES_POT

%BLOCK HUBBARD_U
Fe d:4.0
%ENDBLOCK HUBBARD_U

SNAP_TO_SYMMETRY
SYMMETRY_GENERATE

