#              Generated by Buildcell
#
# at 14:15:25 (GMT+0.0) 24th November 2020
# in /lustre/scratch/uccabz1/launch_tmp
# on node-c12p-030
# by uccabz1
#
# compiler GCC version 4.9.2
# options -cpp -iprefix /lustre/shared/ucl/apps/gcc/4.9.2/bin/../lib/gcc/x86_64-unknown-linux-gnu/4.9.2/ -mtune=corei7 -march=x86-64 -g -Og
#
# seed   393698945 -1395124835  1455193683  -703649913  1208103609  1865816295 -1644490521  1546967965  1213262995  1282493499  1467803338  -108927095
#
#      Author: C. J. Pickard (cjp20@cam.ac.uk)
#                Space group: I222
#

%BLOCK LATTICE_ABC
      5.41440      6.01850      6.36338
    118.22279    115.17817     90.00000
%ENDBLOCK LATTICE_ABC

%BLOCK POSITIONS_FRAC
  Li   0.0000000  -0.2494831  -0.0000000 SPIN=   0.00000
  Li   0.0000000   0.2494831   0.0000000 SPIN=   0.00000
   O   0.0715469   0.1070472   0.6640702 SPIN=   0.00000
   O   0.4243376   0.4340817   1.1746527 SPIN=   0.00000
   O   0.4074767  -0.1070472   0.3359298 SPIN=   0.00000
   O   0.2496848  -0.4340817  -0.1746527 SPIN=   0.00000
   O  -0.0715469   0.4429770   0.3359298 SPIN=   0.00000
   O  -0.4243376   0.2594290  -0.1746527 SPIN=   0.00000
   O  -0.4074767  -0.4429770  -1.3359298 SPIN=   0.00000
   O  -0.2496848  -0.2594290  -0.8253473 SPIN=   0.00000
   P   0.3059198   0.3059198   0.6118396 SPIN=   0.00000
   P  -0.3059198  -0.3059198  -0.6118396 SPIN=   0.00000
  Fe   0.3000987  -0.1999013  -0.3998026 SPIN=   4.00000
  Fe  -0.3000987   0.1999013   0.3998026 SPIN=   4.00000
%ENDBLOCK POSITIONS_FRAC

# Note: total spin =   8.00

KPOINTS_MP_SPACING 0.07

%BLOCK SPECIES_POT
QC5
%ENDBLOCK SPECIES_POT

%BLOCK HUBBARD_U
Fe d:4.0
%ENDBLOCK HUBBARD_U

SNAP_TO_SYMMETRY
SYMMETRY_GENERATE

