#              Generated by Buildcell
#
# at 00:48:56 (GMT+0.0) 27th November 2020
# in /lustre/scratch/uccabz1/launch_tmp
# on node-c12e-024
# by uccabz1
#
# compiler GCC version 4.9.2
# options -cpp -iprefix /lustre/shared/ucl/apps/gcc/4.9.2/bin/../lib/gcc/x86_64-unknown-linux-gnu/4.9.2/ -mtune=corei7 -march=x86-64 -g -Og
#
# seed  -595286148   905712977  -608696503   154322961   116992309   848772320   956579039   176041854  1253758937 -1659345098  2048897163   343165076
#
#      Author: C. J. Pickard (cjp20@cam.ac.uk)
#                Space group: P43
#

%BLOCK LATTICE_ABC
      5.19703      7.84689      7.84689
     90.00000     90.00000     90.00000
%ENDBLOCK LATTICE_ABC

%BLOCK POSITIONS_FRAC
  Li   0.1511782  -0.4920331   0.2579019 SPIN=   0.00000
  Li  -0.3488218   0.4920331  -0.2579019 SPIN=   0.00000
  Li  -0.0988218   0.2579019   0.4920331 SPIN=   0.00000
  Li   0.4011782  -0.2579019  -0.4920331 SPIN=   0.00000
   O  -0.2605973   0.0049611  -0.4748379 SPIN=   0.00000
   O   0.0697771  -0.0753918  -0.2396988 SPIN=   0.00000
   O  -0.3898677  -0.1364815  -0.1879789 SPIN=   0.00000
   O  -0.1477614  -0.3077599  -0.4043382 SPIN=   0.00000
   P  -0.1858859  -0.1236664  -0.3355164 SPIN=   0.00000
   O   0.2394027  -0.0049611   0.4748379 SPIN=   0.00000
   O   0.5697771   0.0753918   0.2396988 SPIN=   0.00000
   O   0.1101323   0.1364815   0.1879789 SPIN=   0.00000
   O   0.3522386   0.3077599   0.4043382 SPIN=   0.00000
   P   0.3141141   0.1236664   0.3355164 SPIN=   0.00000
   O  -0.5105973  -0.4748379  -0.0049611 SPIN=   0.00000
   O  -0.1802229  -0.2396988   0.0753918 SPIN=   0.00000
   O  -0.6398677  -0.1879789   0.1364815 SPIN=   0.00000
   O  -0.3977614  -0.4043382   0.3077599 SPIN=   0.00000
   P  -0.4358859  -0.3355164   0.1236664 SPIN=   0.00000
   O  -0.0105973   0.4748379   0.0049611 SPIN=   0.00000
   O   0.3197771   0.2396988  -0.0753918 SPIN=   0.00000
   O  -0.1398677   0.1879789  -0.1364815 SPIN=   0.00000
   O   0.1022386   0.4043382  -0.3077599 SPIN=   0.00000
   P   0.0641141   0.3355164  -0.1236664 SPIN=   0.00000
  Fe  -0.3504493   0.3049743   0.1127345 SPIN=   4.00000
  Fe   0.1495507  -0.3049743  -0.1127345 SPIN=   4.00000
  Fe   0.3995507   0.1127345  -0.3049743 SPIN=   4.00000
  Fe  -0.1004493  -0.1127345   0.3049743 SPIN=   4.00000
%ENDBLOCK POSITIONS_FRAC

# Note: total spin =  16.00

KPOINTS_MP_SPACING 0.07

%BLOCK SPECIES_POT
QC5
%ENDBLOCK SPECIES_POT

%BLOCK HUBBARD_U
Fe d:4.0
%ENDBLOCK HUBBARD_U

SNAP_TO_SYMMETRY
SYMMETRY_GENERATE

