#              Generated by Buildcell
#
# at 15:11:55 (GMT+0.0) 26th November 2020
# in /scratch/scratch/uccabz1/launch_tmp
# on node-k10b-007
# by uccabz1
#
# compiler GCC version 4.9.2
# options -cpp -iprefix /scratch/UCL/applications/gcc/4.9.2/bin/../lib/gcc/x86_64-unknown-linux-gnu/4.9.2/ -mtune=corei7 -march=x86-64 -g -O2
#
# seed  2019027210 -1270079283 -1298195935   625344686  1405067760 -1875202497   -63868984  1065191407   -27293690  1721203355   725597714  1362198488
#
#      Author: C. J. Pickard (cjp20@cam.ac.uk)
#                Space group: I-4
#

%BLOCK LATTICE_ABC
      6.30231      7.79133      7.79133
     80.58555     66.14373     66.14373
%ENDBLOCK LATTICE_ABC

%BLOCK POSITIONS_FRAC
  Li  -0.0524333  -0.3654334   0.3357699 SPIN=   0.00000
  Li  -0.0820968   0.3654334  -0.3357699 SPIN=   0.00000
  Li  -0.2833366   0.3357699   0.3654334 SPIN=   0.00000
  Li   0.4178667  -0.3357699  -0.3654334 SPIN=   0.00000
   O  -0.0007339  -0.1944893  -0.3265080 SPIN=   0.00000
   O  -0.3449655   0.1045879  -0.1377833 SPIN=   0.00000
   O   0.0976685   0.0630606  -0.2350971 SPIN=   0.00000
   O  -0.0935426   0.1351524  -0.4772405 SPIN=   0.00000
   P  -0.0809819   0.0165560  -0.2980403 SPIN=   0.00000
   O  -0.5217311   0.1944893   0.3265080 SPIN=   0.00000
   O  -0.3781610  -0.1045879   0.1377833 SPIN=   0.00000
   O  -0.0743680  -0.0630606   0.2350971 SPIN=   0.00000
   O  -0.4356307  -0.1351524   0.4772405 SPIN=   0.00000
   P  -0.3624662  -0.0165560   0.2980403 SPIN=   0.00000
   O   0.3272418  -0.3265080   0.1944893 SPIN=   0.00000
   O   0.4827489  -0.1377833  -0.1045879 SPIN=   0.00000
   O   0.1374286  -0.2350971  -0.0630606 SPIN=   0.00000
   O   0.5707831  -0.4772405  -0.1351524 SPIN=   0.00000
   P   0.3790222  -0.2980403  -0.0165560 SPIN=   0.00000
   O   0.1952231   0.3265080  -0.1944893 SPIN=   0.00000
   O   0.2403776   0.1377833   0.1045879 SPIN=   0.00000
   O  -0.1607291   0.2350971   0.0630606 SPIN=   0.00000
   O  -0.0416098   0.4772405   0.1351524 SPIN=   0.00000
   P   0.0644259   0.2980403   0.0165560 SPIN=   0.00000
  Fe   0.2052287  -0.0657186   0.3153423 SPIN=   4.00000
  Fe   0.4548524   0.0657186  -0.3153423 SPIN=   4.00000
  Fe   0.4794290   0.3153423   0.0657186 SPIN=   4.00000
  Fe  -0.1395101  -0.3153423  -0.0657186 SPIN=   4.00000
%ENDBLOCK POSITIONS_FRAC

# Note: total spin =  16.00

KPOINTS_MP_SPACING 0.07

%BLOCK SPECIES_POT
QC5
%ENDBLOCK SPECIES_POT

%BLOCK HUBBARD_U
Fe d:4.0
%ENDBLOCK HUBBARD_U

SNAP_TO_SYMMETRY
SYMMETRY_GENERATE

