#              Generated by Buildcell
#
# at 10:58:28 (GMT+0.0) 26th November 2020
# in /lustre/scratch/uccabz1/launch_tmp
# on node-c12l-025
# by uccabz1
#
# compiler GCC version 4.9.2
# options -cpp -iprefix /lustre/shared/ucl/apps/gcc/4.9.2/bin/../lib/gcc/x86_64-unknown-linux-gnu/4.9.2/ -mtune=corei7 -march=x86-64 -g -Og
#
# seed  -445820429  1151252040  -500219834   304447639  1014790614 -1221782089  1575826766   832489473 -2087553854   323697207   612683795  -855825882
#
#      Author: C. J. Pickard (cjp20@cam.ac.uk)
#                Space group: P-1
#

%BLOCK LATTICE_ABC
      5.03559      5.61955     11.64599
     85.79678     84.13335     77.82344
%ENDBLOCK LATTICE_ABC

%BLOCK POSITIONS_FRAC
  Li  -0.3188328  -0.2985442   0.4598990 SPIN=   0.00000
  Li   0.3188328   0.2985442  -0.4598990 SPIN=   0.00000
  Li  -0.1105624   0.1745592   0.4028104 SPIN=   0.00000
  Li   0.1105624  -0.1745592  -0.4028104 SPIN=   0.00000
   O   0.2187627   0.3515345   0.0393598 SPIN=   0.00000
   O   0.3961851  -0.0205859  -0.0875334 SPIN=   0.00000
   O  -0.0424455   0.2518184  -0.1262100 SPIN=   0.00000
   O   0.3928685   0.3999441  -0.1757722 SPIN=   0.00000
   P   0.2419286   0.2531346  -0.0818234 SPIN=   0.00000
   O  -0.2187627  -0.3515345  -0.0393598 SPIN=   0.00000
   O  -0.3961851   0.0205859   0.0875334 SPIN=   0.00000
   O   0.0424455  -0.2518184   0.1262100 SPIN=   0.00000
   O  -0.3928685  -0.3999441   0.1757722 SPIN=   0.00000
   P  -0.2419286  -0.2531346   0.0818234 SPIN=   0.00000
   O   0.2973288  -0.0118387   0.4516264 SPIN=   0.00000
   O   0.5053106   0.3412227   0.3483146 SPIN=   0.00000
   O   0.6975710  -0.0786668   0.2901254 SPIN=   0.00000
   O   0.2308233   0.1279817   0.2383560 SPIN=   0.00000
   P   0.4231644   0.0893965   0.3373631 SPIN=   0.00000
   O  -0.2973288   0.0118387  -0.4516264 SPIN=   0.00000
   O  -0.5053106  -0.3412227  -0.3483146 SPIN=   0.00000
   O  -0.6975710   0.0786668  -0.2901254 SPIN=   0.00000
   O  -0.2308233  -0.1279817  -0.2383560 SPIN=   0.00000
   P  -0.4231644  -0.0893965  -0.3373631 SPIN=   0.00000
  Fe  -0.1246083   0.2332102   0.1206126 SPIN=   6.26521
  Fe   0.1246083  -0.2332102  -0.1206126 SPIN=   6.26521
  Fe   0.2376980  -0.3573170   0.2803076 SPIN=   1.73479
  Fe  -0.2376980   0.3573170  -0.2803076 SPIN=   1.73479
%ENDBLOCK POSITIONS_FRAC

# Note: total spin =  16.00

KPOINTS_MP_SPACING 0.07

%BLOCK SPECIES_POT
QC5
%ENDBLOCK SPECIES_POT

%BLOCK HUBBARD_U
Fe d:4.0
%ENDBLOCK HUBBARD_U

SNAP_TO_SYMMETRY
SYMMETRY_GENERATE

