#              Generated by Buildcell
#
# at 10:37:02 (GMT+0.0) 24th November 2020
# in /scratch/scratch/uccabz1/launch_tmp
# on node-a14a-009
# by uccabz1
#
# compiler GCC version 4.9.2
# options -cpp -iprefix /scratch/UCL/applications/gcc/4.9.2/bin/../lib/gcc/x86_64-unknown-linux-gnu/4.9.2/ -mtune=corei7 -march=x86-64 -g -O2
#
# seed -1583842700  1322110391  1429089872  2074804814  -766255288  -162638626  -649023141  2076795156 -1166360945  1241364911     1535208  1234979834
#
#      Author: C. J. Pickard (cjp20@cam.ac.uk)
#                Space group: Pnn2
#

%BLOCK LATTICE_ABC
      3.87020      5.07654      8.14365
     90.00000     90.00000     90.00000
%ENDBLOCK LATTICE_ABC

%BLOCK POSITIONS_FRAC
  Li   0.5000000   0.0000000   0.2095315 SPIN=   0.00000
  Li   0.0000000  -0.5000000  -0.2904685 SPIN=   0.00000
   O   0.2365397  -0.1686733   0.0111895 SPIN=   0.00000
   O  -0.2880145  -0.1932368  -0.1873054 SPIN=   0.00000
   O  -0.2365397   0.1686733   0.0111895 SPIN=   0.00000
   O   0.2880145   0.1932368  -0.1873054 SPIN=   0.00000
   O   0.7365397  -0.3313267   0.5111895 SPIN=   0.00000
   O   0.2119855  -0.3067632   0.3126946 SPIN=   0.00000
   O  -0.7365397   0.3313267   0.5111895 SPIN=   0.00000
   O  -0.2119855   0.3067632   0.3126946 SPIN=   0.00000
   P   0.0000000   0.0000000  -0.1064786 SPIN=   0.00000
   P   0.5000000   0.5000000   0.3935214 SPIN=   0.00000
  Fe   0.5000000   0.0000000  -0.3892162 SPIN=   4.00000
  Fe   0.0000000  -0.5000000   0.1107838 SPIN=   4.00000
%ENDBLOCK POSITIONS_FRAC

# Note: total spin =   8.00

KPOINTS_MP_SPACING 0.07

%BLOCK SPECIES_POT
QC5
%ENDBLOCK SPECIES_POT

%BLOCK HUBBARD_U
Fe d:4.0
%ENDBLOCK HUBBARD_U

SNAP_TO_SYMMETRY
SYMMETRY_GENERATE

