#              Generated by Buildcell
#
# at 06:29:49 (GMT+0.0) 24th November 2020
# in /lustre/scratch/uccabz1/launch_tmp
# on node-c12h-027
# by uccabz1
#
# compiler GCC version 4.9.2
# options -cpp -iprefix /lustre/shared/ucl/apps/gcc/4.9.2/bin/../lib/gcc/x86_64-unknown-linux-gnu/4.9.2/ -mtune=corei7 -march=x86-64 -g -Og
#
# seed   122195375  -224558920 -1464981087 -1352307247  1734559363 -1750303664   456871113   993574450 -1975898306  -149828144   300895442  1492643805
#
#      Author: C. J. Pickard (cjp20@cam.ac.uk)
#                Space group: P2
#

%BLOCK LATTICE_ABC
      4.68276      5.33042      6.60372
    103.91278     90.00000     90.00000
%ENDBLOCK LATTICE_ABC

%BLOCK POSITIONS_FRAC
  Li   0.3701041   0.4138221   0.2029264 SPIN=   0.00000
  Li   0.3701041  -0.4138221  -0.2029264 SPIN=   0.00000
   O  -0.1846903   0.6171633  -0.1823697 SPIN=   0.00000
   O  -0.0073150   0.2690519  -0.5040432 SPIN=   0.00000
   O   0.1230492   0.2220533  -0.1526152 SPIN=   0.00000
   O  -0.3838987   0.1516522  -0.2737499 SPIN=   0.00000
   P  -0.1202139   0.3291425  -0.2730399 SPIN=   0.00000
   O  -0.1846903  -0.6171633   0.1823697 SPIN=   0.00000
   O  -0.0073150  -0.2690519   0.5040432 SPIN=   0.00000
   O   0.1230492  -0.2220533   0.1526152 SPIN=   0.00000
   O  -0.3838987  -0.1516522   0.2737499 SPIN=   0.00000
   P  -0.1202139  -0.3291425   0.2730399 SPIN=   0.00000
  Fe  -0.1313706  -0.0000000  -0.0000000 SPIN=   5.04349
  Fe   0.3136830  -0.0000000   0.5000000 SPIN=   2.95651
%ENDBLOCK POSITIONS_FRAC

# Note: total spin =   8.00

KPOINTS_MP_SPACING 0.07

%BLOCK SPECIES_POT
QC5
%ENDBLOCK SPECIES_POT

%BLOCK HUBBARD_U
Fe d:4.0
%ENDBLOCK HUBBARD_U

SNAP_TO_SYMMETRY
SYMMETRY_GENERATE

