#              Generated by Buildcell
#
# at 21:58:12 (GMT+0.0) 26th November 2020
# in /lustre/scratch/uccabz1/launch_tmp
# on node-c12a-032
# by uccabz1
#
# compiler GCC version 4.9.2
# options -cpp -iprefix /lustre/shared/ucl/apps/gcc/4.9.2/bin/../lib/gcc/x86_64-unknown-linux-gnu/4.9.2/ -mtune=corei7 -march=x86-64 -g -Og
#
# seed -1616860686  -123150900  -462738596 -1729329618   517196573   441531795 -1048851623   258992115  1599124824   626702131 -2041636096  2145688389
#
#      Author: C. J. Pickard (cjp20@cam.ac.uk)
#                Space group: C222
#

%BLOCK LATTICE_ABC
      5.88474      6.54769      8.92690
    111.51468     90.00000     90.00000
%ENDBLOCK LATTICE_ABC

%BLOCK POSITIONS_FRAC
  Li  -0.2499368  -0.2753533   0.4916691 SPIN=   0.00000
  Li  -0.2499368   0.2753533  -0.4916691 SPIN=   0.00000
  Li   0.2499368  -0.2329776   0.4916691 SPIN=   0.00000
  Li   0.2499368   0.2329776  -0.4916691 SPIN=   0.00000
   O  -0.5119893   0.0097226  -0.3548338 SPIN=   0.00000
   O  -0.0706610  -0.0005272  -0.3538232 SPIN=   0.00000
   O  -0.2616460   0.3595732  -0.2388827 SPIN=   0.00000
   O  -0.2805555   0.0985938  -0.0926741 SPIN=   0.00000
   P  -0.2934929   0.1109217  -0.2631248 SPIN=   0.00000
   O  -0.5119893  -0.0097226   0.3548338 SPIN=   0.00000
   O  -0.0706610   0.0005272   0.3538232 SPIN=   0.00000
   O  -0.2616460  -0.3595732   0.2388827 SPIN=   0.00000
   O  -0.2805555  -0.0985938   0.0926741 SPIN=   0.00000
   P  -0.2934929  -0.1109217   0.2631248 SPIN=   0.00000
   O   0.5119893  -0.3645564  -0.3548338 SPIN=   0.00000
   O   0.0706610  -0.3532960  -0.3538232 SPIN=   0.00000
   O   0.2616460  -0.5984559  -0.2388827 SPIN=   0.00000
   O   0.2805555  -0.1912679  -0.0926741 SPIN=   0.00000
   P   0.2934929  -0.3740465  -0.2631248 SPIN=   0.00000
   O   0.5119893   0.3645564   0.3548338 SPIN=   0.00000
   O   0.0706610   0.3532960   0.3538232 SPIN=   0.00000
   O   0.2616460   0.5984559   0.2388827 SPIN=   0.00000
   O   0.2805555   0.1912679   0.0926741 SPIN=   0.00000
   P   0.2934929   0.3740465   0.2631248 SPIN=   0.00000
  Fe  -0.2482561   0.2995143   0.1506323 SPIN=   4.00000
  Fe  -0.2482561  -0.2995143  -0.1506323 SPIN=   4.00000
  Fe   0.2482561  -0.1488821   0.1506323 SPIN=   4.00000
  Fe   0.2482561   0.1488821  -0.1506323 SPIN=   4.00000
%ENDBLOCK POSITIONS_FRAC

# Note: total spin =  16.00

KPOINTS_MP_SPACING 0.07

%BLOCK SPECIES_POT
QC5
%ENDBLOCK SPECIES_POT

%BLOCK HUBBARD_U
Fe d:4.0
%ENDBLOCK HUBBARD_U

SNAP_TO_SYMMETRY
SYMMETRY_GENERATE

