#              Generated by Buildcell
#
# at 09:35:29 (GMT+0.0) 24th November 2020
# in /scratch/scratch/uccabz1/launch_tmp
# on node-k10h-026
# by uccabz1
#
# compiler GCC version 4.9.2
# options -cpp -iprefix /scratch/UCL/applications/gcc/4.9.2/bin/../lib/gcc/x86_64-unknown-linux-gnu/4.9.2/ -mtune=corei7 -march=x86-64 -g -O2
#
# seed  -848224999 -2009712945   345902906 -1671768172  -114129531  -178858595  1903355457  -173335047  1098416953   926405335  1198286855   629655827
#
#      Author: C. J. Pickard (cjp20@cam.ac.uk)
#                Space group: Ima2
#

%BLOCK LATTICE_ABC
      4.93648      6.26262      6.26262
     70.72848     66.78873     66.78873
%ENDBLOCK LATTICE_ABC

%BLOCK POSITIONS_FRAC
  Li   0.3241245  -0.0560121  -0.4439879 SPIN=   0.00000
  Li  -0.3241245   0.4439879   0.0560121 SPIN=   0.00000
   O   0.2573854  -0.1651287  -0.0592451 SPIN=   0.00000
   O   0.1356030   0.2924558  -0.1417600 SPIN=   0.00000
   O  -0.2573854   0.0592451   0.1651287 SPIN=   0.00000
   O  -0.1356030   0.1417600  -0.2924558 SPIN=   0.00000
   O  -0.5330116  -0.6651287   0.4407549 SPIN=   0.00000
   O  -0.7862988  -0.2075442   0.3582400 SPIN=   0.00000
   O  -0.4669884  -0.4407549   0.6651287 SPIN=   0.00000
   O  -0.2137012  -0.3582400   0.2075442 SPIN=   0.00000
   P   0.1756210  -0.4118904  -0.0881096 SPIN=   0.00000
   P  -0.1756210   0.0881096   0.4118904 SPIN=   0.00000
  Fe   0.5000000   0.0261023  -0.0261023 SPIN=   4.00000
  Fe  -0.0000000  -0.4738977   0.4738977 SPIN=   4.00000
%ENDBLOCK POSITIONS_FRAC

# Note: total spin =   8.00

KPOINTS_MP_SPACING 0.07

%BLOCK SPECIES_POT
QC5
%ENDBLOCK SPECIES_POT

%BLOCK HUBBARD_U
Fe d:4.0
%ENDBLOCK HUBBARD_U

SNAP_TO_SYMMETRY
SYMMETRY_GENERATE

