#              Generated by Buildcell
#
# at 00:34:00 (GMT+0.0) 27th November 2020
# in /lustre/scratch/uccabz1/launch_tmp
# on node-c12k-029
# by uccabz1
#
# compiler GCC version 4.9.2
# options -cpp -iprefix /lustre/shared/ucl/apps/gcc/4.9.2/bin/../lib/gcc/x86_64-unknown-linux-gnu/4.9.2/ -mtune=corei7 -march=x86-64 -g -Og
#
# seed -1931848565 -1662604461 -1359499370  -830367833  1822383325 -1382975377   573008170  -195065078 -1689847664  -556152055   452801266   130555627
#
#      Author: C. J. Pickard (cjp20@cam.ac.uk)
#                Space group: Aea2
#

%BLOCK LATTICE_ABC
      5.53089      5.53089     10.46068
     90.00000     90.00000     90.04064
%ENDBLOCK LATTICE_ABC

%BLOCK POSITIONS_FRAC
  Li  -0.4698836   0.0455011   0.0081398 SPIN=   0.00000
  Li   0.0455011  -0.4698836  -0.0081398 SPIN=   0.00000
  Li  -0.4544989   0.0301164  -0.4918602 SPIN=   0.00000
  Li   0.0301164  -0.4544989   0.4918602 SPIN=   0.00000
   O  -0.1938876   0.2975278  -0.1190972 SPIN=   0.00000
   O  -0.1351705   0.0424825  -0.3253273 SPIN=   0.00000
   O  -0.0890404  -0.1602559  -0.1163686 SPIN=   0.00000
   O  -0.5002159  -0.0295533  -0.1888634 SPIN=   0.00000
   O   0.2975278  -0.1938876   0.1190972 SPIN=   0.00000
   O   0.0424825  -0.1351705   0.3253273 SPIN=   0.00000
   O  -0.1602559  -0.0890404   0.1163686 SPIN=   0.00000
   O  -0.0295533  -0.5002159   0.1888634 SPIN=   0.00000
   O  -0.2024722   0.3061124   0.3809028 SPIN=   0.00000
   O  -0.4575175   0.3648295   0.1746727 SPIN=   0.00000
   O  -0.6602559   0.4109596   0.3836314 SPIN=   0.00000
   O  -0.5295533  -0.0002159   0.3111366 SPIN=   0.00000
   O   0.3061124  -0.2024722  -0.3809028 SPIN=   0.00000
   O   0.3648295  -0.4575175  -0.1746727 SPIN=   0.00000
   O   0.4109596  -0.6602559  -0.3836314 SPIN=   0.00000
   O  -0.0002159  -0.5295533  -0.3111366 SPIN=   0.00000
   P   0.0179505   0.0179505  -0.0000000 SPIN=   0.00000
   P  -0.4820495  -0.4820495   0.5000000 SPIN=   0.00000
   P   0.0316673   0.0316673   0.5000000 SPIN=   0.00000
   P  -0.4683327  -0.4683327  -0.0000000 SPIN=   0.00000
  Fe   0.1933487   0.1670021  -0.2468159 SPIN=   4.00000
  Fe   0.1670021   0.1933487   0.2468159 SPIN=   4.00000
  Fe  -0.3329979  -0.3066513   0.2531841 SPIN=   4.00000
  Fe  -0.3066513  -0.3329979  -0.2531841 SPIN=   4.00000
%ENDBLOCK POSITIONS_FRAC

# Note: total spin =  16.00

KPOINTS_MP_SPACING 0.07

%BLOCK SPECIES_POT
QC5
%ENDBLOCK SPECIES_POT

%BLOCK HUBBARD_U
Fe d:4.0
%ENDBLOCK HUBBARD_U

SNAP_TO_SYMMETRY
SYMMETRY_GENERATE

