#              Generated by Buildcell
#
# at 12:37:10 (GMT+0.0) 24th November 2020
# in /lustre/scratch/uccabz1/launch_tmp
# on node-c12c-026
# by uccabz1
#
# compiler GCC version 4.9.2
# options -cpp -iprefix /lustre/shared/ucl/apps/gcc/4.9.2/bin/../lib/gcc/x86_64-unknown-linux-gnu/4.9.2/ -mtune=corei7 -march=x86-64 -g -Og
#
# seed  1321628527  1511766566  1216756383 -2132486331  -454948762  -227305397  -707868685  1826574689  2120781120 -2141496700  -368900245  2035587505
#
#      Author: C. J. Pickard (cjp20@cam.ac.uk)
#                Space group: P42
#

%BLOCK LATTICE_ABC
      4.54059      4.54059      7.76060
     90.00000     90.00000     90.00000
%ENDBLOCK LATTICE_ABC

%BLOCK POSITIONS_FRAC
  Li   0.5000000  -0.5000000  -0.1792117 SPIN=   0.00000
  Li   0.5000000  -0.5000000   0.3207883 SPIN=   0.00000
   O  -0.3397556  -0.2797244  -0.4483623 SPIN=   0.00000
   O  -0.1598065   0.2220496  -0.3266993 SPIN=   0.00000
   O   0.3397556   0.2797244  -0.4483623 SPIN=   0.00000
   O   0.1598065  -0.2220496  -0.3266993 SPIN=   0.00000
   O  -0.2797244   0.3397556   0.0516377 SPIN=   0.00000
   O   0.2220496   0.1598065   0.1733007 SPIN=   0.00000
   O   0.2797244  -0.3397556   0.0516377 SPIN=   0.00000
   O  -0.2220496  -0.1598065   0.1733007 SPIN=   0.00000
   P   0.0000000   0.5000000   0.1374520 SPIN=   0.00000
   P   0.5000000   0.0000000  -0.3625480 SPIN=   0.00000
  Fe  -0.0000000   0.0000000  -0.0864508 SPIN=   4.00000
  Fe   0.0000000  -0.0000000   0.4135492 SPIN=   4.00000
%ENDBLOCK POSITIONS_FRAC

# Note: total spin =   8.00

KPOINTS_MP_SPACING 0.07

%BLOCK SPECIES_POT
QC5
%ENDBLOCK SPECIES_POT

%BLOCK HUBBARD_U
Fe d:4.0
%ENDBLOCK HUBBARD_U

SNAP_TO_SYMMETRY
SYMMETRY_GENERATE

