#              Generated by Buildcell
#
# at 00:00:17 (GMT+0.0) 27th November 2020
# in /lustre/scratch/uccabz1/launch_tmp
# on node-c12i-029
# by uccabz1
#
# compiler GCC version 4.9.2
# options -cpp -iprefix /lustre/shared/ucl/apps/gcc/4.9.2/bin/../lib/gcc/x86_64-unknown-linux-gnu/4.9.2/ -mtune=corei7 -march=x86-64 -g -Og
#
# seed   461834723   -46014521  1034429314  -157879005 -1447069668    43833296 -1053988855  1312117266  -505132699   495627496 -1137265915 -1491465314
#
#      Author: C. J. Pickard (cjp20@cam.ac.uk)
#                Space group: P2
#

%BLOCK LATTICE_ABC
      6.40141      6.59915      7.58258
     90.00000     92.55063     90.00000
%ENDBLOCK LATTICE_ABC

%BLOCK POSITIONS_FRAC
  Li   0.2954973  -0.2242169   0.2946244 SPIN=   0.00000
  Li  -0.2954973  -0.2242169  -0.2946244 SPIN=   0.00000
  Li   0.5000000   0.4214675   0.0000000 SPIN=   0.00000
  Li   0.5000000   0.1786038   0.5000000 SPIN=   0.00000
   O   0.4355139   0.0682219   0.2327742 SPIN=   0.00000
   O   0.1948409   0.2648691   0.0071482 SPIN=   0.00000
   O   0.0370377   0.1170731   0.2692705 SPIN=   0.00000
   O   0.2758357   0.4162447   0.3052529 SPIN=   0.00000
   P   0.2469128   0.2110577   0.2063637 SPIN=   0.00000
   O  -0.4355139   0.0682219  -0.2327742 SPIN=   0.00000
   O  -0.1948409   0.2648691  -0.0071482 SPIN=   0.00000
   O  -0.0370377   0.1170731  -0.2692705 SPIN=   0.00000
   O  -0.2758357   0.4162447  -0.3052529 SPIN=   0.00000
   P  -0.2469128   0.2110577  -0.2063637 SPIN=   0.00000
   O  -0.3382385  -0.5954716   0.3652057 SPIN=   0.00000
   O  -0.3607139  -0.2029472   0.3827843 SPIN=   0.00000
   O  -0.0533670  -0.3558453   0.2486920 SPIN=   0.00000
   P  -0.2928842  -0.3930440   0.2740245 SPIN=   0.00000
   O   0.3382385  -0.5954716  -0.3652057 SPIN=   0.00000
   O   0.3607139  -0.2029472  -0.3827843 SPIN=   0.00000
   O   0.0533670  -0.3558453  -0.2486920 SPIN=   0.00000
   P   0.2928842  -0.3930440  -0.2740245 SPIN=   0.00000
   O   0.0000000  -0.0978927   0.0000000 SPIN=   0.00000
   O  -0.5000000  -0.1953973   0.0000000 SPIN=   0.00000
  Fe  -0.2515255   0.0167361   0.1571112 SPIN=   6.04089
  Fe   0.2515255   0.0167361  -0.1571112 SPIN=   6.04089
  Fe  -0.0000000  -0.4799585   0.0000000 SPIN=   2.31463
  Fe   0.0000000   0.3922509  -0.5000000 SPIN=   1.60359
%ENDBLOCK POSITIONS_FRAC

# Note: total spin =  16.00

KPOINTS_MP_SPACING 0.07

%BLOCK SPECIES_POT
QC5
%ENDBLOCK SPECIES_POT

%BLOCK HUBBARD_U
Fe d:4.0
%ENDBLOCK HUBBARD_U

SNAP_TO_SYMMETRY
SYMMETRY_GENERATE

