#              Generated by Buildcell
#
# at 14:08:57 (GMT+0.0) 26th November 2020
# in /lustre/scratch/uccabz1/launch_tmp
# on node-c12f-023
# by uccabz1
#
# compiler GCC version 4.9.2
# options -cpp -iprefix /lustre/shared/ucl/apps/gcc/4.9.2/bin/../lib/gcc/x86_64-unknown-linux-gnu/4.9.2/ -mtune=corei7 -march=x86-64 -g -Og
#
# seed   268063959  -282466881   611274114   -99292920   988447796  1069607690 -1647025018  -600133800 -1887487998 -1672546805  -282366635   470060389
#
#      Author: C. J. Pickard (cjp20@cam.ac.uk)
#                Space group: P-1
#

%BLOCK LATTICE_ABC
      5.21466      7.26324      9.32809
     77.09144     75.55297     71.24948
%ENDBLOCK LATTICE_ABC

%BLOCK POSITIONS_FRAC
  Li  -0.1100083   0.3297166  -0.3867196 SPIN=   0.00000
  Li   0.1100083  -0.3297166   0.3867196 SPIN=   0.00000
  Li  -0.5000000   0.0000000  -0.5000000 SPIN=   0.00000
  Li  -0.0000000   0.5000000   0.0000000 SPIN=   0.00000
   O  -0.0141087  -0.1202685   0.2030450 SPIN=   0.00000
   O  -0.5116804  -0.1567585   0.2715984 SPIN=   0.00000
   O  -0.2510680  -0.1874761   0.0136196 SPIN=   0.00000
   O  -0.1109960  -0.4536266   0.2251755 SPIN=   0.00000
   P  -0.2095866  -0.2263592   0.1802265 SPIN=   0.00000
   O   0.0141087   0.1202685  -0.2030450 SPIN=   0.00000
   O   0.5116804   0.1567585  -0.2715984 SPIN=   0.00000
   O   0.2510680   0.1874761  -0.0136196 SPIN=   0.00000
   O   0.1109960   0.4536266  -0.2251755 SPIN=   0.00000
   P   0.2095866   0.2263592  -0.1802265 SPIN=   0.00000
   O  -0.5776192  -0.1674154  -0.2055734 SPIN=   0.00000
   O  -0.6299817  -0.3320768  -0.4128524 SPIN=   0.00000
   O  -0.1650762  -0.3199420  -0.4064385 SPIN=   0.00000
   O  -0.3908619  -0.5426054  -0.2060217 SPIN=   0.00000
   P  -0.4475749  -0.3336784  -0.3010825 SPIN=   0.00000
   O   0.5776192   0.1674154   0.2055734 SPIN=   0.00000
   O   0.6299817   0.3320768   0.4128524 SPIN=   0.00000
   O   0.1650762   0.3199420   0.4064385 SPIN=   0.00000
   O   0.3908619   0.5426054   0.2060217 SPIN=   0.00000
   P   0.4475749   0.3336784   0.3010825 SPIN=   0.00000
  Fe   0.0218616   0.1600907   0.2975183 SPIN=   4.98293
  Fe  -0.0218616  -0.1600907  -0.2975183 SPIN=   4.98293
  Fe  -0.3593863   0.2228347  -0.0281023 SPIN=   3.01707
  Fe   0.3593863  -0.2228347   0.0281023 SPIN=   3.01707
%ENDBLOCK POSITIONS_FRAC

# Note: total spin =  16.00

KPOINTS_MP_SPACING 0.07

%BLOCK SPECIES_POT
QC5
%ENDBLOCK SPECIES_POT

%BLOCK HUBBARD_U
Fe d:4.0
%ENDBLOCK HUBBARD_U

SNAP_TO_SYMMETRY
SYMMETRY_GENERATE

