#              Generated by Buildcell
#
# at 13:48:44 (GMT+0.0) 24th November 2020
# in /scratch/scratch/uccabz1/launch_tmp
# on node-a14c-025
# by uccabz1
#
# compiler GCC version 4.9.2
# options -cpp -iprefix /scratch/UCL/applications/gcc/4.9.2/bin/../lib/gcc/x86_64-unknown-linux-gnu/4.9.2/ -mtune=corei7 -march=x86-64 -g -O2
#
# seed  -827366840  2073477445 -1326763216   588429341 -1949483256 -1109006409   215289623  1590853977 -1171084798  1008438821  -745672363    41424513
#
#      Author: C. J. Pickard (cjp20@cam.ac.uk)
#                Space group: Cc
#

%BLOCK LATTICE_ABC
      5.50710      5.50710      6.70340
     67.12184     67.12184     62.01614
%ENDBLOCK LATTICE_ABC

%BLOCK POSITIONS_FRAC
  Li   0.0031494   0.1482920   0.1394086 SPIN=   0.00000
  Li   0.6482920  -0.4968506  -0.3605914 SPIN=   0.00000
   O   0.8554540  -0.3046414   0.3158926 SPIN=   0.00000
   O   0.3251311  -0.2237620   0.3981623 SPIN=   0.00000
   O   0.5262711   0.0868094   0.0600610 SPIN=   0.00000
   O   0.6778574  -0.4241861   0.0745019 SPIN=   0.00000
   P   0.6109474  -0.2235926   0.2160536 SPIN=   0.00000
   O   0.1953586   0.3554540  -0.1841074 SPIN=   0.00000
   O   0.2762380  -0.1748689  -0.1018377 SPIN=   0.00000
   O   0.5868094   0.0262711  -0.4399390 SPIN=   0.00000
   O   0.0758139   0.1778574  -0.4254981 SPIN=   0.00000
   P   0.2764074   0.1109474  -0.2839464 SPIN=   0.00000
  Fe  -0.6962019   0.4482494   0.2636766 SPIN=   4.00000
  Fe  -0.0517506  -0.1962019  -0.2363234 SPIN=   4.00000
%ENDBLOCK POSITIONS_FRAC

# Note: total spin =   8.00

KPOINTS_MP_SPACING 0.07

%BLOCK SPECIES_POT
QC5
%ENDBLOCK SPECIES_POT

%BLOCK HUBBARD_U
Fe d:4.0
%ENDBLOCK HUBBARD_U

SNAP_TO_SYMMETRY
SYMMETRY_GENERATE

