#              Generated by Buildcell
#
# at 09:20:21 (GMT+0.0) 24th November 2020
# in /lustre/scratch/uccabz1/launch_tmp
# on node-c12p-022
# by uccabz1
#
# compiler GCC version 4.9.2
# options -cpp -iprefix /lustre/shared/ucl/apps/gcc/4.9.2/bin/../lib/gcc/x86_64-unknown-linux-gnu/4.9.2/ -mtune=corei7 -march=x86-64 -g -Og
#
# seed -1609142147  1703148400 -1155745441     3946080 -1836609529   168182658  1454652698   731381610 -1953845279  -773178162 -1957252715  -701571249
#
#      Author: C. J. Pickard (cjp20@cam.ac.uk)
#                Space group: P2/c
#

%BLOCK LATTICE_ABC
      3.91963      5.42682      7.53817
     90.00000     93.76156     90.00000
%ENDBLOCK LATTICE_ABC

%BLOCK POSITIONS_FRAC
  Li   0.0000000   0.1093306   0.2500000 SPIN=   0.00000
  Li  -0.0000000  -0.1093306  -0.2500000 SPIN=   0.00000
   O   0.2138531  -0.1502941   0.0806042 SPIN=   0.00000
   O   0.3042628   0.3239184   0.0774716 SPIN=   0.00000
   O  -0.2138531  -0.1502941   0.4193958 SPIN=   0.00000
   O  -0.3042628   0.3239184   0.4225284 SPIN=   0.00000
   O  -0.2138531   0.1502941  -0.0806042 SPIN=   0.00000
   O  -0.3042628  -0.3239184  -0.0774716 SPIN=   0.00000
   O   0.2138531   0.1502941  -0.4193958 SPIN=   0.00000
   O   0.3042628  -0.3239184  -0.4225284 SPIN=   0.00000
   P   0.5000000   0.0000000   0.0000000 SPIN=   0.00000
   P   0.5000000   0.0000000   0.5000000 SPIN=   0.00000
  Fe   0.5000000  -0.3990137   0.2500000 SPIN=   4.00000
  Fe   0.5000000   0.3990137  -0.2500000 SPIN=   4.00000
%ENDBLOCK POSITIONS_FRAC

# Note: total spin =   8.00

KPOINTS_MP_SPACING 0.07

%BLOCK SPECIES_POT
QC5
%ENDBLOCK SPECIES_POT

%BLOCK HUBBARD_U
Fe d:4.0
%ENDBLOCK HUBBARD_U

SNAP_TO_SYMMETRY
SYMMETRY_GENERATE

