#              Generated by Buildcell
#
# at 13:28:21 (GMT+0.0) 24th November 2020
# in /scratch/scratch/uccabz1/launch_tmp
# on node-k10d-036
# by uccabz1
#
# compiler GCC version 4.9.2
# options -cpp -iprefix /scratch/UCL/applications/gcc/4.9.2/bin/../lib/gcc/x86_64-unknown-linux-gnu/4.9.2/ -mtune=corei7 -march=x86-64 -g -O2
#
# seed   493125924  1843184100  -905930299  -657568050   350728614  -265782956  1097475281 -2085679388 -1274257593 -1794202151 -1081471661   995771109
#
#      Author: C. J. Pickard (cjp20@cam.ac.uk)
#                Space group: Cmc21
#

%BLOCK LATTICE_ABC
      4.41757      4.41757      8.20250
     90.00000     90.00000     91.70600
%ENDBLOCK LATTICE_ABC

%BLOCK POSITIONS_FRAC
  Li  -0.1308005   0.1308005  -0.0432741 SPIN=   0.00000
  Li   0.1308005  -0.1308005   0.4567259 SPIN=   0.00000
   O   0.1559333   0.2455023   0.2585693 SPIN=   0.00000
   O   0.4312310  -0.0297955   0.0239402 SPIN=   0.00000
   O  -0.1559333  -0.2455023  -0.2414307 SPIN=   0.00000
   O  -0.4312310   0.0297955  -0.4760598 SPIN=   0.00000
   O   0.2455023   0.1559333  -0.2414307 SPIN=   0.00000
   O  -0.0297955   0.4312310  -0.4760598 SPIN=   0.00000
   O  -0.2455023  -0.1559333   0.2585693 SPIN=   0.00000
   O   0.0297955  -0.4312310   0.0239402 SPIN=   0.00000
   P   0.2234839  -0.2234839   0.1368268 SPIN=   0.00000
   P  -0.2234839   0.2234839  -0.3631732 SPIN=   0.00000
  Fe  -0.3831216   0.3831216   0.3095435 SPIN=   4.00000
  Fe   0.3831216  -0.3831216  -0.1904565 SPIN=   4.00000
%ENDBLOCK POSITIONS_FRAC

# Note: total spin =   8.00

KPOINTS_MP_SPACING 0.07

%BLOCK SPECIES_POT
QC5
%ENDBLOCK SPECIES_POT

%BLOCK HUBBARD_U
Fe d:4.0
%ENDBLOCK HUBBARD_U

SNAP_TO_SYMMETRY
SYMMETRY_GENERATE

