#              Generated by Buildcell
#
# at 14:58:24 (GMT+0.0) 1st December 2020
# in /lustre/scratch/uccabz1/launch_tmp
# on node-c12g-035
# by uccabz1
#
# compiler GCC version 4.9.2
# options -cpp -iprefix /lustre/shared/ucl/apps/gcc/4.9.2/bin/../lib/gcc/x86_64-unknown-linux-gnu/4.9.2/ -mtune=corei7 -march=x86-64 -g -Og
#
# seed -1216570772  1991335425 -1664304021 -1623432751 -1276890035  -289227985   868939348  -150062165  1110633482 -1596609240  1404693339  -374934399
#
#      Author: C. J. Pickard (cjp20@cam.ac.uk)
#                Space group: Pc
#

%BLOCK LATTICE_ABC
      4.68339      5.10725     14.41825
     90.00000     90.00000    111.89364
%ENDBLOCK LATTICE_ABC

%BLOCK POSITIONS_FRAC
  Li  -0.4811658  -0.4311453  -0.4306816 SPIN=   0.00000
  Li   0.0188342  -0.4311453   0.4306816 SPIN=   0.00000
  Li  -0.4961348  -0.4611594  -0.2213591 SPIN=   0.00000
  Li   0.0038652  -0.4611594   0.2213591 SPIN=   0.00000
   O   0.6202871   0.3122939   0.3033072 SPIN=   0.00000
   O   0.5023639   0.6294724   0.4264740 SPIN=   0.00000
   O   0.0691624   0.2234725   0.3635779 SPIN=   0.00000
   O   0.4486339   0.1385254   0.4699022 SPIN=   0.00000
   P   0.4217573   0.3230027   0.3870893 SPIN=   0.00000
   O   0.1202871   0.3122939  -0.3033072 SPIN=   0.00000
   O   0.0023639   0.6294724  -0.4264740 SPIN=   0.00000
   O  -0.4308376   0.2234725  -0.3635779 SPIN=   0.00000
   O  -0.0513661   0.1385254  -0.4699022 SPIN=   0.00000
   P  -0.0782427   0.3230027  -0.3870893 SPIN=   0.00000
   O  -0.0324921  -0.2269965  -0.1881904 SPIN=   0.00000
   O   0.4962071  -0.1765905  -0.1178701 SPIN=   0.00000
   O   0.2155404   0.0993510  -0.0483294 SPIN=   0.00000
   O   0.0159351  -0.4247938  -0.0265932 SPIN=   0.00000
   P   0.1609508  -0.1875018  -0.0993845 SPIN=   0.00000
   O  -0.5324921  -0.2269965   0.1881904 SPIN=   0.00000
   O  -0.0037929  -0.1765905   0.1178701 SPIN=   0.00000
   O  -0.2844596   0.0993510   0.0483294 SPIN=   0.00000
   O  -0.4840649  -0.4247938   0.0265932 SPIN=   0.00000
   P  -0.3390492  -0.1875018   0.0993845 SPIN=   0.00000
  Fe   0.3647712   0.2083898   0.1067484 SPIN=   4.14268
  Fe  -0.1352288   0.2083898  -0.1067484 SPIN=   4.14268
  Fe   0.1588656  -0.0813075  -0.3187497 SPIN=   3.85732
  Fe  -0.3411344  -0.0813075   0.3187497 SPIN=   3.85732
%ENDBLOCK POSITIONS_FRAC

# Note: total spin =  16.00

KPOINTS_MP_SPACING 0.07

%BLOCK SPECIES_POT
QC5
%ENDBLOCK SPECIES_POT

%BLOCK HUBBARD_U
Fe d:4.0
%ENDBLOCK HUBBARD_U

SNAP_TO_SYMMETRY
SYMMETRY_GENERATE

