#              Generated by Buildcell
#
# at 09:08:07 (GMT+0.0) 24th November 2020
# in /lustre/scratch/uccabz1/launch_tmp
# on node-c12a-034
# by uccabz1
#
# compiler GCC version 4.9.2
# options -cpp -iprefix /lustre/shared/ucl/apps/gcc/4.9.2/bin/../lib/gcc/x86_64-unknown-linux-gnu/4.9.2/ -mtune=corei7 -march=x86-64 -g -Og
#
# seed  1219951476  -437189503   557150794  -714175693   637342276 -1935913084 -1443464950   675424827  -180485331  -518971025  1721754468  1677235930
#
#      Author: C. J. Pickard (cjp20@cam.ac.uk)
#                Space group: Cm
#

%BLOCK LATTICE_ABC
      5.67637      6.00447      6.05570
    113.91999    111.91001    101.10977
%ENDBLOCK LATTICE_ABC

%BLOCK POSITIONS_FRAC
  Li   0.0984327  -0.0270823   0.0000000 SPIN=   0.00000
  Li   0.1379456   0.4808781  -0.0000000 SPIN=   0.00000
   O   0.0710776  -0.3919140  -0.2861186 SPIN=   0.00000
   O  -0.4302058  -0.5875308  -0.6991081 SPIN=   0.00000
   O  -0.0372260  -0.3951098  -0.7441018 SPIN=   0.00000
   P  -0.1186501  -0.5450480  -0.6052811 SPIN=   0.00000
   O   0.3571962  -0.1057953   0.2861186 SPIN=   0.00000
   O   0.2689023   0.1115773   0.6991081 SPIN=   0.00000
   O   0.7068758   0.3489920   0.7441018 SPIN=   0.00000
   P   0.4866310   0.0602332   0.6052811 SPIN=   0.00000
   O  -0.4887349  -0.3932309   0.0000000 SPIN=   0.00000
   O  -0.2713435   0.1141717  -0.0000000 SPIN=   0.00000
  Fe   0.4503206   0.5297577   0.6041704 SPIN=   4.00000
  Fe  -0.1538497  -0.0744127  -0.6041704 SPIN=   4.00000
%ENDBLOCK POSITIONS_FRAC

# Note: total spin =   8.00

KPOINTS_MP_SPACING 0.07

%BLOCK SPECIES_POT
QC5
%ENDBLOCK SPECIES_POT

%BLOCK HUBBARD_U
Fe d:4.0
%ENDBLOCK HUBBARD_U

SNAP_TO_SYMMETRY
SYMMETRY_GENERATE

