#              Generated by Buildcell
#
# at 00:05:23 (GMT+0.0) 27th November 2020
# in /lustre/scratch/uccabz1/launch_tmp
# on node-c12f-021
# by uccabz1
#
# compiler GCC version 4.9.2
# options -cpp -iprefix /lustre/shared/ucl/apps/gcc/4.9.2/bin/../lib/gcc/x86_64-unknown-linux-gnu/4.9.2/ -mtune=corei7 -march=x86-64 -g -Og
#
# seed  -707443922  1352568235  -997663163  1004731013 -2039594902   816732992 -1325550748  1052906756  1135374674 -1966991875  2029255387  1317500723
#
#      Author: C. J. Pickard (cjp20@cam.ac.uk)
#                Space group: C2
#

%BLOCK LATTICE_ABC
      6.25092      6.25092      8.27954
     93.71086     93.71086     96.36913
%ENDBLOCK LATTICE_ABC

%BLOCK POSITIONS_FRAC
  Li   0.1678776   0.4904201  -0.4587766 SPIN=   0.00000
  Li  -0.4904201  -0.1678776   0.4587766 SPIN=   0.00000
  Li   0.1048165   0.2098062   0.1025570 SPIN=   0.00000
  Li  -0.2098062  -0.1048165  -0.1025570 SPIN=   0.00000
   O   0.0191173  -0.2822039  -0.2435051 SPIN=   0.00000
   O  -0.3405694  -0.4011063  -0.4172895 SPIN=   0.00000
   O  -0.2002619  -0.0142537  -0.3917344 SPIN=   0.00000
   O  -0.0097608  -0.2750578  -0.5556812 SPIN=   0.00000
   P  -0.1233234  -0.2456111  -0.3954237 SPIN=   0.00000
   O   0.2822039  -0.0191173   0.2435051 SPIN=   0.00000
   O   0.4011063   0.3405694   0.4172895 SPIN=   0.00000
   O   0.0142537   0.2002619   0.3917344 SPIN=   0.00000
   O   0.2750578   0.0097608   0.5556812 SPIN=   0.00000
   P   0.2456111   0.1233234   0.3954237 SPIN=   0.00000
   O  -0.5967979  -0.3816862   0.2195966 SPIN=   0.00000
   O  -0.2706877  -0.0860237   0.2837027 SPIN=   0.00000
   O  -0.2436564  -0.3742147   0.0699014 SPIN=   0.00000
   O  -0.4920012  -0.0936899   0.0197698 SPIN=   0.00000
   P  -0.4122989  -0.2401176   0.1505258 SPIN=   0.00000
   O   0.3816862   0.5967979  -0.2195966 SPIN=   0.00000
   O   0.0860237   0.2706877  -0.2837027 SPIN=   0.00000
   O   0.3742147   0.2436564  -0.0699014 SPIN=   0.00000
   O   0.0936899   0.4920012  -0.0197698 SPIN=   0.00000
   P   0.2401176   0.4122989  -0.1505258 SPIN=   0.00000
  Fe  -0.3831273   0.2245097   0.2197546 SPIN=   2.63810
  Fe  -0.2245097   0.3831273  -0.2197546 SPIN=   2.63810
  Fe   0.0557915  -0.2894636   0.2006605 SPIN=   5.36190
  Fe   0.2894636  -0.0557915  -0.2006605 SPIN=   5.36190
%ENDBLOCK POSITIONS_FRAC

# Note: total spin =  16.00

KPOINTS_MP_SPACING 0.07

%BLOCK SPECIES_POT
QC5
%ENDBLOCK SPECIES_POT

%BLOCK HUBBARD_U
Fe d:4.0
%ENDBLOCK HUBBARD_U

SNAP_TO_SYMMETRY
SYMMETRY_GENERATE

