#              Generated by Buildcell
#
# at 13:18:22 (GMT+0.0) 24th November 2020
# in /scratch/scratch/uccabz1/launch_tmp
# on node-a14c-023
# by uccabz1
#
# compiler GCC version 4.9.2
# options -cpp -iprefix /scratch/UCL/applications/gcc/4.9.2/bin/../lib/gcc/x86_64-unknown-linux-gnu/4.9.2/ -mtune=corei7 -march=x86-64 -g -O2
#
# seed  1877689582  1535411510  -696346459   618446729   220138229   172242838  1057408193  1916479766  1638957599   -70900393  1646217078 -1736854569
#
#      Author: C. J. Pickard (cjp20@cam.ac.uk)
#                Space group: P-1
#

%BLOCK LATTICE_ABC
      4.79528      4.96972      7.88594
     78.31574     73.47071     63.04768
%ENDBLOCK LATTICE_ABC

%BLOCK POSITIONS_FRAC
  Li   0.1578443  -0.4100057  -0.3938035 SPIN=   0.00000
  Li  -0.1578443   0.4100057   0.3938035 SPIN=   0.00000
   O  -0.6285183   0.3079891   0.0663564 SPIN=   0.00000
   O  -0.2636656  -0.2070692   0.2077075 SPIN=   0.00000
   O  -0.1217339   0.2252360   0.1663600 SPIN=   0.00000
   O  -0.6052077   0.2268871   0.3969621 SPIN=   0.00000
   P  -0.4190595   0.1483438   0.2039471 SPIN=   0.00000
   O   0.6285183  -0.3079891  -0.0663564 SPIN=   0.00000
   O   0.2636656   0.2070692  -0.2077075 SPIN=   0.00000
   O   0.1217339  -0.2252360  -0.1663600 SPIN=   0.00000
   O   0.6052077  -0.2268871  -0.3969621 SPIN=   0.00000
   P   0.4190595  -0.1483438  -0.2039471 SPIN=   0.00000
  Fe   0.2624068  -0.2035366   0.1763440 SPIN=   4.00000
  Fe  -0.2624068   0.2035366  -0.1763440 SPIN=   4.00000
%ENDBLOCK POSITIONS_FRAC

# Note: total spin =   8.00

KPOINTS_MP_SPACING 0.07

%BLOCK SPECIES_POT
QC5
%ENDBLOCK SPECIES_POT

%BLOCK HUBBARD_U
Fe d:4.0
%ENDBLOCK HUBBARD_U

SNAP_TO_SYMMETRY
SYMMETRY_GENERATE

