#              Generated by Buildcell
#
# at 07:23:06 (GMT+0.0) 24th November 2020
# in /scratch/scratch/uccabz1/launch_tmp
# on node-k10a-022
# by uccabz1
#
# compiler GCC version 4.9.2
# options -cpp -iprefix /scratch/UCL/applications/gcc/4.9.2/bin/../lib/gcc/x86_64-unknown-linux-gnu/4.9.2/ -mtune=corei7 -march=x86-64 -g -O2
#
# seed   500712450  -335762760  -577583196  -218670170  -349972480  1810713349 -1240032439   -77378794  1963287694 -2000810763  1602290474  1793253093
#
#      Author: C. J. Pickard (cjp20@cam.ac.uk)
#                Space group: C2
#

%BLOCK LATTICE_ABC
      4.71844      5.03083      7.73550
     85.60499     80.59503     62.03373
%ENDBLOCK LATTICE_ABC

%BLOCK POSITIONS_FRAC
  Li  -0.3722578   0.7445157  -0.0000000 SPIN=   0.00000
  Li  -0.7626992   0.5253984   0.5000000 SPIN=   0.00000
   O   0.3790581   0.1074275  -0.1584842 SPIN=   0.00000
   O   0.5974688  -0.3853126  -0.3357307 SPIN=   0.00000
   O   0.7355302   0.0117665  -0.4636356 SPIN=   0.00000
   O   0.9861981  -0.2804559  -0.2044663 SPIN=   0.00000
   O  -0.4864856   0.1074275   0.1584842 SPIN=   0.00000
   O  -0.2121563  -0.3853126   0.3357307 SPIN=   0.00000
   O  -0.7472967   0.0117665   0.4636356 SPIN=   0.00000
   O  -0.7057422  -0.2804559   0.2044663 SPIN=   0.00000
   P   0.2767377  -0.5534755  -0.0000000 SPIN=   0.00000
   P  -0.4023611  -0.1952778   0.5000000 SPIN=   0.00000
  Fe  -0.0657075   0.1588945   0.2498468 SPIN=   4.00000
  Fe  -0.0931870   0.1588945  -0.2498468 SPIN=   4.00000
%ENDBLOCK POSITIONS_FRAC

# Note: total spin =   8.00

KPOINTS_MP_SPACING 0.07

%BLOCK SPECIES_POT
QC5
%ENDBLOCK SPECIES_POT

%BLOCK HUBBARD_U
Fe d:4.0
%ENDBLOCK HUBBARD_U

SNAP_TO_SYMMETRY
SYMMETRY_GENERATE

