#              Generated by Buildcell
#
# at 16:20:35 (GMT+0.0) 26th November 2020
# in /lustre/scratch/uccabz1/launch_tmp
# on node-c12e-030
# by uccabz1
#
# compiler GCC version 4.9.2
# options -cpp -iprefix /lustre/shared/ucl/apps/gcc/4.9.2/bin/../lib/gcc/x86_64-unknown-linux-gnu/4.9.2/ -mtune=corei7 -march=x86-64 -g -Og
#
# seed  1626194891  1965189855   517754998  -533351049  -335057169   534447504  1610145898 -1948332097  -588062140 -1949840078  -509528217  1197244250
#
#      Author: C. J. Pickard (cjp20@cam.ac.uk)
#                Space group: Pnn2
#

%BLOCK LATTICE_ABC
      6.46517      6.54363      7.56399
     90.00000     90.00000     90.00000
%ENDBLOCK LATTICE_ABC

%BLOCK POSITIONS_FRAC
  Li  -0.0000000  -0.0513358  -0.0000000 SPIN=   0.00000
  Li   0.5000000   0.4486642  -0.5000000 SPIN=   0.00000
  Li   0.5000000  -0.4095060   0.0000000 SPIN=   0.00000
  Li  -0.0000000   0.0904940  -0.5000000 SPIN=   0.00000
   O  -0.0541166  -0.3707292  -0.2313038 SPIN=   0.00000
   O  -0.4499355  -0.3515379  -0.2882459 SPIN=   0.00000
   O  -0.3051059  -0.1557104  -0.0380314 SPIN=   0.00000
   O  -0.2309232  -0.0435580  -0.3481714 SPIN=   0.00000
   P  -0.2487136  -0.2356519  -0.2281338 SPIN=   0.00000
   O   0.0541166  -0.3707292   0.2313038 SPIN=   0.00000
   O   0.4499355  -0.3515379   0.2882459 SPIN=   0.00000
   O   0.3051059  -0.1557104   0.0380314 SPIN=   0.00000
   O   0.2309232  -0.0435580   0.3481714 SPIN=   0.00000
   P   0.2487136  -0.2356519   0.2281338 SPIN=   0.00000
   O  -0.4458834   0.1292708   0.2686962 SPIN=   0.00000
   O  -0.0500645   0.1484621   0.2117541 SPIN=   0.00000
   O  -0.1948941   0.3442896   0.4619686 SPIN=   0.00000
   O  -0.2690768   0.4564420   0.1518286 SPIN=   0.00000
   P  -0.2512864   0.2643481   0.2718662 SPIN=   0.00000
   O   0.4458834   0.1292708  -0.2686962 SPIN=   0.00000
   O   0.0500645   0.1484621  -0.2117541 SPIN=   0.00000
   O   0.1948941   0.3442896  -0.4619686 SPIN=   0.00000
   O   0.2690768   0.4564420  -0.1518286 SPIN=   0.00000
   P   0.2512864   0.2643481  -0.2718662 SPIN=   0.00000
  Fe   0.5000000   0.0932771  -0.0000000 SPIN=   5.40871
  Fe  -0.0000000  -0.4067229  -0.5000000 SPIN=   5.40871
  Fe  -0.0000000   0.4479921  -0.0000000 SPIN=   2.59129
  Fe   0.5000000  -0.0520079  -0.5000000 SPIN=   2.59129
%ENDBLOCK POSITIONS_FRAC

# Note: total spin =  16.00

KPOINTS_MP_SPACING 0.07

%BLOCK SPECIES_POT
QC5
%ENDBLOCK SPECIES_POT

%BLOCK HUBBARD_U
Fe d:4.0
%ENDBLOCK HUBBARD_U

SNAP_TO_SYMMETRY
SYMMETRY_GENERATE

