#              Generated by Buildcell
#
# at 00:50:41 (GMT+0.0) 27th November 2020
# in /lustre/scratch/uccabz1/launch_tmp
# on node-c12m-036
# by uccabz1
#
# compiler GCC version 4.9.2
# options -cpp -iprefix /lustre/shared/ucl/apps/gcc/4.9.2/bin/../lib/gcc/x86_64-unknown-linux-gnu/4.9.2/ -mtune=corei7 -march=x86-64 -g -Og
#
# seed   694046369   -74272817 -1473873840  2130596434  -611353985  -245194288  -685876795  1329753444   -21907532  2105837661  1244396161   409718300
#
#      Author: C. J. Pickard (cjp20@cam.ac.uk)
#                Space group: P21/c
#

%BLOCK LATTICE_ABC
      4.98888      7.57178      8.47129
     90.00000     90.00000     90.03883
%ENDBLOCK LATTICE_ABC

%BLOCK POSITIONS_FRAC
  Li  -0.5000000  -0.5000000  -0.0000000 SPIN=   0.00000
  Li  -0.0000000   0.0000000   0.5000000 SPIN=   0.00000
  Li  -0.5000000   0.0000000  -0.0000000 SPIN=   0.00000
  Li  -0.0000000  -0.5000000   0.5000000 SPIN=   0.00000
   O  -0.6495901   0.3756042   0.2073602 SPIN=   0.00000
   O  -0.2308885   0.2165600   0.3213851 SPIN=   0.00000
   O  -0.1979364   0.5352431   0.2621544 SPIN=   0.00000
   P  -0.4039703   0.3900292   0.3162826 SPIN=   0.00000
   O   0.1495901   0.1243958  -0.2926398 SPIN=   0.00000
   O  -0.2691115   0.2834400  -0.1786149 SPIN=   0.00000
   O  -0.3020636  -0.0352431  -0.2378456 SPIN=   0.00000
   P  -0.0960297   0.1099708  -0.1837174 SPIN=   0.00000
   O   0.6495901  -0.3756042  -0.2073602 SPIN=   0.00000
   O   0.2308885  -0.2165600  -0.3213851 SPIN=   0.00000
   O   0.1979364  -0.5352431  -0.2621544 SPIN=   0.00000
   P   0.4039703  -0.3900292  -0.3162826 SPIN=   0.00000
   O  -0.1495901  -0.1243958   0.2926398 SPIN=   0.00000
   O   0.2691115  -0.2834400   0.1786149 SPIN=   0.00000
   O   0.3020636   0.0352431   0.2378456 SPIN=   0.00000
   P   0.0960297  -0.1099708   0.1837174 SPIN=   0.00000
   O  -0.0000000  -0.5000000   0.0000000 SPIN=   0.00000
   O  -0.5000000   0.0000000  -0.5000000 SPIN=   0.00000
   O  -0.0000000   0.0000000  -0.0000000 SPIN=   0.00000
   O  -0.5000000   0.5000000  -0.5000000 SPIN=   0.00000
  Fe  -0.0056707  -0.2540715  -0.1201289 SPIN=   4.00000
  Fe  -0.4943293  -0.2459285   0.3798711 SPIN=   4.00000
  Fe   0.0056707   0.2540715   0.1201289 SPIN=   4.00000
  Fe   0.4943293   0.2459285  -0.3798711 SPIN=   4.00000
%ENDBLOCK POSITIONS_FRAC

# Note: total spin =  16.00

KPOINTS_MP_SPACING 0.07

%BLOCK SPECIES_POT
QC5
%ENDBLOCK SPECIES_POT

%BLOCK HUBBARD_U
Fe d:4.0
%ENDBLOCK HUBBARD_U

SNAP_TO_SYMMETRY
SYMMETRY_GENERATE

