#              Generated by Buildcell
#
# at 10:44:31 (GMT+0.0) 24th November 2020
# in /scratch/scratch/uccabz1/launch_tmp
# on node-a14f-024
# by uccabz1
#
# compiler GCC version 4.9.2
# options -cpp -iprefix /scratch/UCL/applications/gcc/4.9.2/bin/../lib/gcc/x86_64-unknown-linux-gnu/4.9.2/ -mtune=corei7 -march=x86-64 -g -O2
#
# seed  2048188518  -781699184  1777674798   528193100  1907709828  1306025710   618113464  1841949952 -1550637586   387206991 -1065231878   810030789
#
#      Author: C. J. Pickard (cjp20@cam.ac.uk)
#                Space group: Cm
#

%BLOCK LATTICE_ABC
      3.89158      6.43908      6.43908
     89.70836     84.75068     84.75068
%ENDBLOCK LATTICE_ABC

%BLOCK POSITIONS_FRAC
  Li  -0.2341809   0.2759212   0.2759212 SPIN=   0.00000
  Li  -0.0736704  -0.1369420  -0.1369420 SPIN=   0.00000
   O  -0.1900912   0.1074667  -0.3456396 SPIN=   0.00000
   O  -0.6774081   0.1314555  -0.5971956 SPIN=   0.00000
   O  -0.4415196  -0.2175432  -0.4890900 SPIN=   0.00000
   P  -0.5149893   0.0141960  -0.4094525 SPIN=   0.00000
   O  -0.1900912  -0.3456396   0.1074667 SPIN=   0.00000
   O  -0.6774081  -0.5971956   0.1314555 SPIN=   0.00000
   O  -0.4415196  -0.4890900  -0.2175432 SPIN=   0.00000
   P  -0.5149893  -0.4094525   0.0141960 SPIN=   0.00000
   O   0.3884780   0.0265917   0.0265917 SPIN=   0.00000
   O  -0.0118466   0.4748407   0.4748407 SPIN=   0.00000
  Fe   0.0559623   0.3555935  -0.2147242 SPIN=   4.00000
  Fe   0.0559623  -0.2147242   0.3555935 SPIN=   4.00000
%ENDBLOCK POSITIONS_FRAC

# Note: total spin =   8.00

KPOINTS_MP_SPACING 0.07

%BLOCK SPECIES_POT
QC5
%ENDBLOCK SPECIES_POT

%BLOCK HUBBARD_U
Fe d:4.0
%ENDBLOCK HUBBARD_U

SNAP_TO_SYMMETRY
SYMMETRY_GENERATE

