#              Generated by Buildcell
#
# at 12:27:31 (GMT+0.0) 1st December 2020
# in /lustre/scratch/uccabz1/launch_tmp
# on node-c12n-028
# by uccabz1
#
# compiler GCC version 4.9.2
# options -cpp -iprefix /lustre/shared/ucl/apps/gcc/4.9.2/bin/../lib/gcc/x86_64-unknown-linux-gnu/4.9.2/ -mtune=corei7 -march=x86-64 -g -Og
#
# seed    14242108 -1914523294  1692240206 -1666286352  1151197028 -1177076307   -50407835 -1987043044 -1650864985  1492017166  -461980717  1784841615
#
#      Author: C. J. Pickard (cjp20@cam.ac.uk)
#                Space group: P-1
#

%BLOCK LATTICE_ABC
      6.35749      6.97657      7.99901
     87.75640     81.31563     65.88171
%ENDBLOCK LATTICE_ABC

%BLOCK POSITIONS_FRAC
  Li  -0.1496722  -0.3058581  -0.3956002 SPIN=   0.00000
  Li   0.1496722   0.3058581   0.3956002 SPIN=   0.00000
  Li   0.0619973   0.2671584  -0.0160925 SPIN=   0.00000
  Li  -0.0619973  -0.2671584   0.0160925 SPIN=   0.00000
   O  -0.9347810   0.4939068  -0.2298204 SPIN=   0.00000
   O  -0.7057004   0.5366133  -0.0013724 SPIN=   0.00000
   O  -0.5141528   0.2298000  -0.1983124 SPIN=   0.00000
   O  -0.5800263   0.5889641  -0.3055004 SPIN=   0.00000
   P  -0.6958128   0.4654974  -0.1876411 SPIN=   0.00000
   O   0.9347810  -0.4939068   0.2298204 SPIN=   0.00000
   O   0.7057004  -0.5366133   0.0013724 SPIN=   0.00000
   O   0.5141528  -0.2298000   0.1983124 SPIN=   0.00000
   O   0.5800263  -0.5889641   0.3055004 SPIN=   0.00000
   P   0.6958128  -0.4654974   0.1876411 SPIN=   0.00000
   O   0.0482098  -0.1296197  -0.3891573 SPIN=   0.00000
   O   0.2395939   0.0368870  -0.2079638 SPIN=   0.00000
   O  -0.1136411   0.2713232  -0.3246346 SPIN=   0.00000
   O  -0.1459317   0.0311726  -0.0906481 SPIN=   0.00000
   P   0.0074435   0.0424959  -0.2584282 SPIN=   0.00000
   O  -0.0482098   0.1296197   0.3891573 SPIN=   0.00000
   O  -0.2395939  -0.0368870   0.2079638 SPIN=   0.00000
   O   0.1136411  -0.2713232   0.3246346 SPIN=   0.00000
   O   0.1459317  -0.0311726   0.0906481 SPIN=   0.00000
   P  -0.0074435  -0.0424959   0.2584282 SPIN=   0.00000
  Fe  -0.4360743   0.2234286   0.0759069 SPIN=   1.58295
  Fe   0.4360743  -0.2234286  -0.0759069 SPIN=   1.58295
  Fe   0.3645525  -0.2023691   0.4522918 SPIN=   6.41705
  Fe  -0.3645525   0.2023691  -0.4522918 SPIN=   6.41705
%ENDBLOCK POSITIONS_FRAC

# Note: total spin =  16.00

KPOINTS_MP_SPACING 0.07

%BLOCK SPECIES_POT
QC5
%ENDBLOCK SPECIES_POT

%BLOCK HUBBARD_U
Fe d:4.0
%ENDBLOCK HUBBARD_U

SNAP_TO_SYMMETRY
SYMMETRY_GENERATE

