#              Generated by Buildcell
#
# at 08:33:57 (GMT+0.0) 24th November 2020
# in /scratch/scratch/uccabz1/launch_tmp
# on node-a14b-028
# by uccabz1
#
# compiler GCC version 4.9.2
# options -cpp -iprefix /scratch/UCL/applications/gcc/4.9.2/bin/../lib/gcc/x86_64-unknown-linux-gnu/4.9.2/ -mtune=corei7 -march=x86-64 -g -O2
#
# seed -1838258496   232066218  -753890748   249644974  -357358774  2131142172   792922245  -201208470   920557587   349516489   612020908  -559412387
#
#      Author: C. J. Pickard (cjp20@cam.ac.uk)
#                Space group: F222
#

%BLOCK LATTICE_ABC
      5.98131      5.98131      6.06840
    117.60302    117.60302     93.42960
%ENDBLOCK LATTICE_ABC

%BLOCK POSITIONS_FRAC
  Li   0.5955222   0.0955222   0.5000000 SPIN=   0.00000
  Li  -0.0955222   0.4044778   0.5000000 SPIN=   0.00000
   O  -0.0040117  -0.2098852  -0.3822100 SPIN=   0.00000
   O  -0.4598186  -0.6097828  -0.7746374 SPIN=   0.00000
   O   0.2098852   0.0040117   0.3822100 SPIN=   0.00000
   O   0.6097828   0.4598186   0.7746374 SPIN=   0.00000
   O  -0.3781983  -0.1723248  -0.3822100 SPIN=   0.00000
   O  -0.3148188  -0.1648547  -0.7746374 SPIN=   0.00000
   O   0.1723248   0.3781983   0.3822100 SPIN=   0.00000
   O   0.1648547   0.3148188   0.7746374 SPIN=   0.00000
   P   0.3132056   0.3132056   0.6264112 SPIN=   0.00000
   P  -0.3132056  -0.3132056  -0.6264112 SPIN=   0.00000
  Fe   0.0000000   0.0000000   0.0000000 SPIN=   5.37321
  Fe   0.2500000  -0.2500000  -0.5000000 SPIN=   2.62679
%ENDBLOCK POSITIONS_FRAC

# Note: total spin =   8.00

KPOINTS_MP_SPACING 0.07

%BLOCK SPECIES_POT
QC5
%ENDBLOCK SPECIES_POT

%BLOCK HUBBARD_U
Fe d:4.0
%ENDBLOCK HUBBARD_U

SNAP_TO_SYMMETRY
SYMMETRY_GENERATE

