#              Generated by Buildcell
#
# at 08:17:51 (GMT+0.0) 24th November 2020
# in /lustre/scratch/uccabz1/launch_tmp
# on node-c12k-030
# by uccabz1
#
# compiler GCC version 4.9.2
# options -cpp -iprefix /lustre/shared/ucl/apps/gcc/4.9.2/bin/../lib/gcc/x86_64-unknown-linux-gnu/4.9.2/ -mtune=corei7 -march=x86-64 -g -Og
#
# seed -1974793859  2146548905 -2057739137   605641295 -1584484340  1161654592  1352063397  -157937470  -138494784    46068564  1371513336  -565774517
#
#      Author: C. J. Pickard (cjp20@cam.ac.uk)
#                Space group: C2/m
#

%BLOCK LATTICE_ABC
      4.90594      4.90594      7.59338
     87.87902     87.87902     61.19679
%ENDBLOCK LATTICE_ABC

%BLOCK POSITIONS_FRAC
  Li   0.6553878  -0.3446122   0.3927859 SPIN=   0.00000
  Li  -0.6553878   0.3446122  -0.3927859 SPIN=   0.00000
   O   0.3264441  -0.1681005  -0.3642361 SPIN=   0.00000
   O   0.1151741  -0.3902842  -0.1108597 SPIN=   0.00000
   O   0.1681005  -0.3264441   0.3642361 SPIN=   0.00000
   O   0.3902842  -0.1151741   0.1108597 SPIN=   0.00000
   O  -0.3264441   0.1681005   0.3642361 SPIN=   0.00000
   O  -0.1151741   0.3902842   0.1108597 SPIN=   0.00000
   O  -0.1681005   0.3264441  -0.3642361 SPIN=   0.00000
   O  -0.3902842   0.1151741  -0.1108597 SPIN=   0.00000
   P  -0.0104302  -0.0104302   0.2549358 SPIN=   0.00000
   P   0.0104302   0.0104302  -0.2549358 SPIN=   0.00000
  Fe  -0.6747029   0.3252971   0.1748760 SPIN=   4.00000
  Fe   0.6747029  -0.3252971  -0.1748760 SPIN=   4.00000
%ENDBLOCK POSITIONS_FRAC

# Note: total spin =   8.00

KPOINTS_MP_SPACING 0.07

%BLOCK SPECIES_POT
QC5
%ENDBLOCK SPECIES_POT

%BLOCK HUBBARD_U
Fe d:4.0
%ENDBLOCK HUBBARD_U

SNAP_TO_SYMMETRY
SYMMETRY_GENERATE

