#              Generated by Buildcell
#
# at 12:16:10 (GMT+0.0) 24th November 2020
# in /scratch/scratch/uccabz1/launch_tmp
# on node-a14c-023
# by uccabz1
#
# compiler GCC version 4.9.2
# options -cpp -iprefix /scratch/UCL/applications/gcc/4.9.2/bin/../lib/gcc/x86_64-unknown-linux-gnu/4.9.2/ -mtune=corei7 -march=x86-64 -g -O2
#
# seed  1052229458   849626150  1841630355  1096310191  -718793597 -2097692695 -1658043515  1371455200   826109856  1571862682  1208891964  -621458322
#
#      Author: C. J. Pickard (cjp20@cam.ac.uk)
#                Space group: Ima2
#

%BLOCK LATTICE_ABC
      5.27167      6.26226      6.26226
     62.83391     65.10805     65.10805
%ENDBLOCK LATTICE_ABC

%BLOCK POSITIONS_FRAC
  Li  -0.1599077   0.4676451   0.0323549 SPIN=   0.00000
  Li   0.1599077  -0.0323549  -0.4676451 SPIN=   0.00000
   O   0.3260638  -0.8572617  -0.3565090 SPIN=   0.00000
   O   0.2670124  -0.4335858  -0.3350087 SPIN=   0.00000
   O  -0.3260638   0.3565090  -0.1427383 SPIN=   0.00000
   O  -0.2670124   0.3350087  -0.5664142 SPIN=   0.00000
   O   0.3877069  -0.3572617   0.1434910 SPIN=   0.00000
   O   0.0015821   0.0664142   0.1649913 SPIN=   0.00000
   O  -0.3877069  -0.1434910   0.3572617 SPIN=   0.00000
   O  -0.0015821  -0.1649913  -0.0664142 SPIN=   0.00000
   P   0.3327495  -0.4201470  -0.0798530 SPIN=   0.00000
   P  -0.3327495   0.0798530   0.4201470 SPIN=   0.00000
  Fe  -0.5000000   0.0735572  -0.0735572 SPIN=   4.00000
  Fe   0.0000000  -0.4264428   0.4264428 SPIN=   4.00000
%ENDBLOCK POSITIONS_FRAC

# Note: total spin =   8.00

KPOINTS_MP_SPACING 0.07

%BLOCK SPECIES_POT
QC5
%ENDBLOCK SPECIES_POT

%BLOCK HUBBARD_U
Fe d:4.0
%ENDBLOCK HUBBARD_U

SNAP_TO_SYMMETRY
SYMMETRY_GENERATE

