#              Generated by Buildcell
#
# at 21:58:28 (GMT+0.0) 26th November 2020
# in /lustre/scratch/uccabz1/launch_tmp
# on node-c12a-032
# by uccabz1
#
# compiler GCC version 4.9.2
# options -cpp -iprefix /lustre/shared/ucl/apps/gcc/4.9.2/bin/../lib/gcc/x86_64-unknown-linux-gnu/4.9.2/ -mtune=corei7 -march=x86-64 -g -Og
#
# seed  1660842813   655659340  1954311060   721681117   832670475    53398316   331222696  1697432187   141431344 -1247953048  -898266405 -1401055177
#
#      Author: C. J. Pickard (cjp20@cam.ac.uk)
#                Space group: C2221
#

%BLOCK LATTICE_ABC
      4.92487      5.18591     14.23671
     90.00000     90.00000    118.34840
%ENDBLOCK LATTICE_ABC

%BLOCK POSITIONS_FRAC
  Li   0.2175565  -0.0295693   0.3181564 SPIN=   0.00000
  Li  -0.2175565   0.0295693  -0.1818436 SPIN=   0.00000
  Li  -0.2471258  -0.0295693   0.1818436 SPIN=   0.00000
  Li   0.2471258   0.0295693  -0.3181564 SPIN=   0.00000
   O   0.1162437   0.2771422  -0.0752915 SPIN=   0.00000
   O   0.6053317   0.5716043  -0.1773058 SPIN=   0.00000
   O   0.6492592   0.3139117  -0.0369369 SPIN=   0.00000
   O   0.3546832   0.0234663  -0.1769548 SPIN=   0.00000
   P   0.4136949   0.2922763  -0.1151336 SPIN=   0.00000
   O  -0.1162437  -0.2771422   0.4247085 SPIN=   0.00000
   O  -0.6053317  -0.5716043   0.3226942 SPIN=   0.00000
   O  -0.6492592  -0.3139117   0.4630631 SPIN=   0.00000
   O  -0.3546832  -0.0234663   0.3230452 SPIN=   0.00000
   P  -0.4136949  -0.2922763   0.3848664 SPIN=   0.00000
   O   0.1608985   0.2771422  -0.4247085 SPIN=   0.00000
   O  -0.0337274   0.5716043  -0.3226942 SPIN=   0.00000
   O  -0.3353474   0.3139117  -0.4630631 SPIN=   0.00000
   O  -0.3312169   0.0234663  -0.3230452 SPIN=   0.00000
   P  -0.1214186   0.2922763  -0.3848664 SPIN=   0.00000
   O  -0.1608985  -0.2771422   0.0752915 SPIN=   0.00000
   O   0.0337274  -0.5716043   0.1773058 SPIN=   0.00000
   O   0.3353474  -0.3139117   0.0369369 SPIN=   0.00000
   O   0.3312169  -0.0234663   0.1769548 SPIN=   0.00000
   P   0.1214186  -0.2922763   0.1151336 SPIN=   0.00000
  Fe  -0.4280537  -0.3269630  -0.4129360 SPIN=   4.00000
  Fe   0.4280537   0.3269630   0.0870640 SPIN=   4.00000
  Fe   0.1010908  -0.3269630  -0.0870640 SPIN=   4.00000
  Fe  -0.1010908   0.3269630   0.4129360 SPIN=   4.00000
%ENDBLOCK POSITIONS_FRAC

# Note: total spin =  16.00

KPOINTS_MP_SPACING 0.07

%BLOCK SPECIES_POT
QC5
%ENDBLOCK SPECIES_POT

%BLOCK HUBBARD_U
Fe d:4.0
%ENDBLOCK HUBBARD_U

SNAP_TO_SYMMETRY
SYMMETRY_GENERATE

