#              Generated by Buildcell
#
# at 10:29:56 (GMT+0.0) 26th November 2020
# in /lustre/scratch/uccabz1/launch_tmp
# on node-c12k-029
# by uccabz1
#
# compiler GCC version 4.9.2
# options -cpp -iprefix /lustre/shared/ucl/apps/gcc/4.9.2/bin/../lib/gcc/x86_64-unknown-linux-gnu/4.9.2/ -mtune=corei7 -march=x86-64 -g -Og
#
# seed  1504838332 -1360135688   177533850 -2139785497 -1701730298 -1420629174  -996502002 -1674359436  1446123699    90831988   875641833  1037804196
#
#      Author: C. J. Pickard (cjp20@cam.ac.uk)
#                Space group: Aea2
#

%BLOCK LATTICE_ABC
      5.14997      5.14997     12.33678
     90.00000     90.00000    102.04081
%ENDBLOCK LATTICE_ABC

%BLOCK POSITIONS_FRAC
  Li  -0.1590722  -0.0713629   0.2497672 SPIN=   0.00000
  Li  -0.0713629  -0.1590722  -0.2497672 SPIN=   0.00000
  Li   0.4286371   0.3409278  -0.2502328 SPIN=   0.00000
  Li   0.3409278   0.4286371   0.2502328 SPIN=   0.00000
   O   0.5683474  -0.4611865  -0.4004908 SPIN=   0.00000
   O   0.5278558  -0.1270497  -0.2467867 SPIN=   0.00000
   O   0.5877702   0.0402873  -0.4346932 SPIN=   0.00000
   O   0.1561765  -0.2527708  -0.3801218 SPIN=   0.00000
   P   0.4622186  -0.2146979  -0.3675572 SPIN=   0.00000
   O  -0.4611865   0.5683474   0.4004908 SPIN=   0.00000
   O  -0.1270497   0.5278558   0.2467867 SPIN=   0.00000
   O   0.0402873   0.5877702   0.4346932 SPIN=   0.00000
   O  -0.2527708   0.1561765   0.3801218 SPIN=   0.00000
   P  -0.2146979   0.4622186   0.3675572 SPIN=   0.00000
   O   0.0388135   0.0683474   0.0995092 SPIN=   0.00000
   O   0.3729503   0.0278558   0.2532133 SPIN=   0.00000
   O   0.5402873   0.0877702   0.0653068 SPIN=   0.00000
   O   0.2472292  -0.3438235   0.1198782 SPIN=   0.00000
   P   0.2853021  -0.0377814   0.1324428 SPIN=   0.00000
   O   0.0683474   0.0388135  -0.0995092 SPIN=   0.00000
   O   0.0278558   0.3729503  -0.2532133 SPIN=   0.00000
   O   0.0877702   0.5402873  -0.0653068 SPIN=   0.00000
   O  -0.3438235   0.2472292  -0.1198782 SPIN=   0.00000
   P  -0.0377814   0.2853021  -0.1324428 SPIN=   0.00000
  Fe  -0.1581217   0.4282231   0.0826120 SPIN=   4.00000
  Fe   0.4282231  -0.1581217  -0.0826120 SPIN=   4.00000
  Fe  -0.0717769   0.3418783  -0.4173880 SPIN=   4.00000
  Fe   0.3418783  -0.0717769   0.4173880 SPIN=   4.00000
%ENDBLOCK POSITIONS_FRAC

# Note: total spin =  16.00

KPOINTS_MP_SPACING 0.07

%BLOCK SPECIES_POT
QC5
%ENDBLOCK SPECIES_POT

%BLOCK HUBBARD_U
Fe d:4.0
%ENDBLOCK HUBBARD_U

SNAP_TO_SYMMETRY
SYMMETRY_GENERATE

