#              Generated by Buildcell
#
# at 13:51:44 (GMT+0.0) 26th November 2020
# in /scratch/scratch/uccabz1/launch_tmp
# on node-k10e-028
# by uccabz1
#
# compiler GCC version 4.9.2
# options -cpp -iprefix /scratch/UCL/applications/gcc/4.9.2/bin/../lib/gcc/x86_64-unknown-linux-gnu/4.9.2/ -mtune=corei7 -march=x86-64 -g -O2
#
# seed -2092876202  1550894087   184522646 -1554471712 -1715070074   899806046 -1780997977 -1951664475  1115635690  1146838151 -1994032980 -1481796548
#
#      Author: C. J. Pickard (cjp20@cam.ac.uk)
#                Space group: P2
#

%BLOCK LATTICE_ABC
      4.38709      6.43948     11.33529
     90.00000     92.16413     90.00000
%ENDBLOCK LATTICE_ABC

%BLOCK POSITIONS_FRAC
  Li   0.4616947  -0.2962993   0.2894830 SPIN=   0.00000
  Li  -0.4616947  -0.2962993  -0.2894830 SPIN=   0.00000
  Li  -0.0312744  -0.0106386   0.3689967 SPIN=   0.00000
  Li   0.0312744  -0.0106386  -0.3689967 SPIN=   0.00000
   O  -0.5645866   0.0569236   0.3800125 SPIN=   0.00000
   O  -0.1128947   0.3088614   0.3474822 SPIN=   0.00000
   O  -0.5424633   0.3059765   0.2002182 SPIN=   0.00000
   O  -0.6185066   0.4544744   0.4011730 SPIN=   0.00000
   P  -0.4670772   0.2716388   0.3355798 SPIN=   0.00000
   O   0.5645866   0.0569236  -0.3800125 SPIN=   0.00000
   O   0.1128947   0.3088614  -0.3474822 SPIN=   0.00000
   O   0.5424633   0.3059765  -0.2002182 SPIN=   0.00000
   O   0.6185066   0.4544744  -0.4011730 SPIN=   0.00000
   P   0.4670772   0.2716388  -0.3355798 SPIN=   0.00000
   O  -0.2010757   0.0122133   0.1544118 SPIN=   0.00000
   O  -0.2204679  -0.3663416   0.0752035 SPIN=   0.00000
   O   0.2833505  -0.2101116   0.1230177 SPIN=   0.00000
   O  -0.0600671  -0.3028703   0.2865066 SPIN=   0.00000
   P  -0.0577562  -0.2056009   0.1609943 SPIN=   0.00000
   O   0.2010757   0.0122133  -0.1544118 SPIN=   0.00000
   O   0.2204679  -0.3663416  -0.0752035 SPIN=   0.00000
   O  -0.2833505  -0.2101116  -0.1230177 SPIN=   0.00000
   O   0.0600671  -0.3028703  -0.2865066 SPIN=   0.00000
   P   0.0577562  -0.2056009  -0.1609943 SPIN=   0.00000
  Fe   0.0063431   0.3588804  -0.1709936 SPIN=   5.38789
  Fe  -0.0063431   0.3588804   0.1709936 SPIN=   5.38789
  Fe   0.0000000  -0.4685928   0.5000000 SPIN=   4.55290
  Fe   0.5000000  -0.0318832   0.0000000 SPIN=   0.67133
%ENDBLOCK POSITIONS_FRAC

# Note: total spin =  16.00

KPOINTS_MP_SPACING 0.07

%BLOCK SPECIES_POT
QC5
%ENDBLOCK SPECIES_POT

%BLOCK HUBBARD_U
Fe d:4.0
%ENDBLOCK HUBBARD_U

SNAP_TO_SYMMETRY
SYMMETRY_GENERATE

