#              Generated by Buildcell
#
# at 07:00:07 (GMT+0.0) 26th November 2020
# in /lustre/scratch/uccabz1/launch_tmp
# on node-c12i-032
# by uccabz1
#
# compiler GCC version 4.9.2
# options -cpp -iprefix /lustre/shared/ucl/apps/gcc/4.9.2/bin/../lib/gcc/x86_64-unknown-linux-gnu/4.9.2/ -mtune=corei7 -march=x86-64 -g -Og
#
# seed  -514360632 -1257948650  -333793442   346911839  1395024667  -194210683   465677132 -2145257463  1641118577  -321456780 -1301647434  1447133442
#
#      Author: C. J. Pickard (cjp20@cam.ac.uk)
#                Space group: P2/c
#

%BLOCK LATTICE_ABC
      6.03968      6.12167      9.06677
     90.00000    107.33432     90.00000
%ENDBLOCK LATTICE_ABC

%BLOCK POSITIONS_FRAC
  Li  -0.0014464  -0.2688806  -0.2546159 SPIN=   0.00000
  Li  -0.4985536  -0.2688806  -0.2453841 SPIN=   0.00000
  Li   0.0014464   0.2688806   0.2546159 SPIN=   0.00000
  Li   0.4985536   0.2688806   0.2453841 SPIN=   0.00000
   O   0.3287709  -0.4636457   0.1156485 SPIN=   0.00000
   O   0.4370658  -0.0679984   0.2146571 SPIN=   0.00000
   O   0.5485149  -0.1937979  -0.0121746 SPIN=   0.00000
   O   0.1299233  -0.1252995  -0.0377513 SPIN=   0.00000
   P   0.3566213  -0.2250165   0.0712477 SPIN=   0.00000
   O   0.1712291  -0.4636457   0.3843515 SPIN=   0.00000
   O   0.0629342  -0.0679984   0.2853429 SPIN=   0.00000
   O  -0.0485149  -0.1937979   0.5121746 SPIN=   0.00000
   O   0.3700767  -0.1252995   0.5377513 SPIN=   0.00000
   P   0.1433787  -0.2250165   0.4287523 SPIN=   0.00000
   O  -0.3287709   0.4636457  -0.1156485 SPIN=   0.00000
   O  -0.4370658   0.0679984  -0.2146571 SPIN=   0.00000
   O  -0.5485149   0.1937979   0.0121746 SPIN=   0.00000
   O  -0.1299233   0.1252995   0.0377513 SPIN=   0.00000
   P  -0.3566213   0.2250165  -0.0712477 SPIN=   0.00000
   O  -0.1712291   0.4636457  -0.3843515 SPIN=   0.00000
   O  -0.0629342   0.0679984  -0.2853429 SPIN=   0.00000
   O   0.0485149   0.1937979  -0.5121746 SPIN=   0.00000
   O  -0.3700767   0.1252995  -0.5377513 SPIN=   0.00000
   P  -0.1433787   0.2250165  -0.4287523 SPIN=   0.00000
  Fe   0.3988925   0.2507766  -0.4093265 SPIN=   4.00000
  Fe   0.1011075   0.2507766  -0.0906735 SPIN=   4.00000
  Fe  -0.3988925  -0.2507766   0.4093265 SPIN=   4.00000
  Fe  -0.1011075  -0.2507766   0.0906735 SPIN=   4.00000
%ENDBLOCK POSITIONS_FRAC

# Note: total spin =  16.00

KPOINTS_MP_SPACING 0.07

%BLOCK SPECIES_POT
QC5
%ENDBLOCK SPECIES_POT

%BLOCK HUBBARD_U
Fe d:4.0
%ENDBLOCK HUBBARD_U

SNAP_TO_SYMMETRY
SYMMETRY_GENERATE

