#              Generated by Buildcell
#
# at 08:17:55 (GMT+0.0) 24th November 2020
# in /scratch/scratch/uccabz1/launch_tmp
# on node-a14c-023
# by uccabz1
#
# compiler GCC version 4.9.2
# options -cpp -iprefix /scratch/UCL/applications/gcc/4.9.2/bin/../lib/gcc/x86_64-unknown-linux-gnu/4.9.2/ -mtune=corei7 -march=x86-64 -g -O2
#
# seed  1648397680   579407773 -1552796682 -1260228645  1234328299  1946301096 -1090941920  -873232006  -272982680  -944887460  1841792489  1709169116
#
#      Author: C. J. Pickard (cjp20@cam.ac.uk)
#                Space group: P21
#

%BLOCK LATTICE_ABC
      5.14337      5.62558      6.04195
     90.00000     90.00000    113.76244
%ENDBLOCK LATTICE_ABC

%BLOCK POSITIONS_FRAC
  Li   0.0330385   0.0008880   0.1095463 SPIN=   0.00000
  Li  -0.0330385  -0.0008880  -0.3904537 SPIN=   0.00000
   O   0.4880563  -0.1448111   0.6647086 SPIN=   0.00000
   O   0.0888914  -0.2161257   0.3762393 SPIN=   0.00000
   O   0.5082849  -0.2944420   0.2606488 SPIN=   0.00000
   O   0.1588372  -0.6015589   0.5254093 SPIN=   0.00000
   P   0.3186480  -0.3086042   0.4686344 SPIN=   0.00000
   O  -0.4880563   0.1448111   0.1647086 SPIN=   0.00000
   O  -0.0888914   0.2161257  -0.1237607 SPIN=   0.00000
   O  -0.5082849   0.2944420  -0.2393512 SPIN=   0.00000
   O  -0.1588372   0.6015589   0.0254093 SPIN=   0.00000
   P  -0.3186480   0.3086042  -0.0313656 SPIN=   0.00000
  Fe   0.3335956  -0.3883829  -0.0594059 SPIN=   4.00000
  Fe  -0.3335956   0.3883829   0.4405941 SPIN=   4.00000
%ENDBLOCK POSITIONS_FRAC

# Note: total spin =   8.00

KPOINTS_MP_SPACING 0.07

%BLOCK SPECIES_POT
QC5
%ENDBLOCK SPECIES_POT

%BLOCK HUBBARD_U
Fe d:4.0
%ENDBLOCK HUBBARD_U

SNAP_TO_SYMMETRY
SYMMETRY_GENERATE

