#              Generated by Buildcell
#
# at 09:15:04 (GMT+0.0) 24th November 2020
# in /lustre/scratch/uccabz1/launch_tmp
# on node-c12a-033
# by uccabz1
#
# compiler GCC version 4.9.2
# options -cpp -iprefix /lustre/shared/ucl/apps/gcc/4.9.2/bin/../lib/gcc/x86_64-unknown-linux-gnu/4.9.2/ -mtune=corei7 -march=x86-64 -g -Og
#
# seed  1706671997  1160866292  1859424425   -46487499  1195222111   -75054998 -1520795789  1034908849  -955340359    18263255 -1852452859  -104903784
#
#      Author: C. J. Pickard (cjp20@cam.ac.uk)
#                Space group: P-1
#

%BLOCK LATTICE_ABC
      4.20736      4.28714      9.10154
     81.83817     80.08676     86.83031
%ENDBLOCK LATTICE_ABC

%BLOCK POSITIONS_FRAC
  Li  -0.4652745   0.0232906   0.3296908 SPIN=   0.00000
  Li   0.4652745  -0.0232906  -0.3296908 SPIN=   0.00000
   O   1.0232218  -0.2316790  -0.3265467 SPIN=   0.00000
   O   0.5265824  -0.2783300  -0.1119900 SPIN=   0.00000
   O   0.7381004  -0.7587075  -0.2214681 SPIN=   0.00000
   P   0.8491766  -0.4365913  -0.1864903 SPIN=   0.00000
   O  -1.0232218   0.2316790   0.3265467 SPIN=   0.00000
   O  -0.5265824   0.2783300   0.1119900 SPIN=   0.00000
   O  -0.7381004   0.7587075   0.2214681 SPIN=   0.00000
   P  -0.8491766   0.4365913   0.1864903 SPIN=   0.00000
   O   0.0000000   0.5000000  -0.0000000 SPIN=   0.00000
   O  -0.5000000   0.5000000   0.5000000 SPIN=   0.00000
  Fe   0.0000000   0.0000000  -0.0000000 SPIN=   3.34086
  Fe   0.0000000  -0.5000000  -0.5000000 SPIN=   4.65914
%ENDBLOCK POSITIONS_FRAC

# Note: total spin =   8.00

KPOINTS_MP_SPACING 0.07

%BLOCK SPECIES_POT
QC5
%ENDBLOCK SPECIES_POT

%BLOCK HUBBARD_U
Fe d:4.0
%ENDBLOCK HUBBARD_U

SNAP_TO_SYMMETRY
SYMMETRY_GENERATE

