#              Generated by Buildcell
#
# at 14:34:27 (GMT+0.0) 24th November 2020
# in /lustre/scratch/uccabz1/launch_tmp
# on node-c12p-031
# by uccabz1
#
# compiler GCC version 4.9.2
# options -cpp -iprefix /lustre/shared/ucl/apps/gcc/4.9.2/bin/../lib/gcc/x86_64-unknown-linux-gnu/4.9.2/ -mtune=corei7 -march=x86-64 -g -Og
#
# seed -1444717258 -1981973575  1394182569 -1040214356   587342320   283244647   961056330  -429072315  1603431779   107825195 -1244941425 -2052571486
#
#      Author: C. J. Pickard (cjp20@cam.ac.uk)
#                Space group: P2/c
#

%BLOCK LATTICE_ABC
      3.91400      5.20854      7.84844
     90.00000     90.00000     90.02458
%ENDBLOCK LATTICE_ABC

%BLOCK POSITIONS_FRAC
  Li  -0.2500000   0.2500000   0.3029334 SPIN=   0.00000
  Li   0.2500000  -0.2500000  -0.3029334 SPIN=   0.00000
   O   0.6693006   0.0080745  -0.3562185 SPIN=   0.00000
   O   0.2535030   0.0129595  -0.0982018 SPIN=   0.00000
   O  -1.1693006   0.4919255  -0.3562185 SPIN=   0.00000
   O  -0.7535030   0.4870405  -0.0982018 SPIN=   0.00000
   O  -0.6693006  -0.0080745   0.3562185 SPIN=   0.00000
   O  -0.2535030  -0.0129595   0.0982018 SPIN=   0.00000
   O   1.1693006  -0.4919255   0.3562185 SPIN=   0.00000
   O   0.7535030  -0.4870405   0.0982018 SPIN=   0.00000
   P  -0.7500000   0.2500000  -0.3939090 SPIN=   0.00000
   P   0.7500000  -0.2500000   0.3939090 SPIN=   0.00000
  Fe   0.2500000  -0.2500000   0.1332425 SPIN=   4.00000
  Fe  -0.2500000   0.2500000  -0.1332425 SPIN=   4.00000
%ENDBLOCK POSITIONS_FRAC

# Note: total spin =   8.00

KPOINTS_MP_SPACING 0.07

%BLOCK SPECIES_POT
QC5
%ENDBLOCK SPECIES_POT

%BLOCK HUBBARD_U
Fe d:4.0
%ENDBLOCK HUBBARD_U

SNAP_TO_SYMMETRY
SYMMETRY_GENERATE

