#              Generated by Buildcell
#
# at 21:58:07 (GMT+0.0) 26th November 2020
# in /lustre/scratch/uccabz1/launch_tmp
# on node-c12l-022
# by uccabz1
#
# compiler GCC version 4.9.2
# options -cpp -iprefix /lustre/shared/ucl/apps/gcc/4.9.2/bin/../lib/gcc/x86_64-unknown-linux-gnu/4.9.2/ -mtune=corei7 -march=x86-64 -g -Og
#
# seed -1801595949  -781224193   353273408    26810427   104955329  1287329006   738359994 -1238457335    27899239   475783086   440424543 -1122068313
#
#      Author: C. J. Pickard (cjp20@cam.ac.uk)
#                Space group: C2
#

%BLOCK LATTICE_ABC
      6.84655      6.84655      8.30412
    111.85961    114.07214     93.07696
%ENDBLOCK LATTICE_ABC

%BLOCK POSITIONS_FRAC
  Li   0.1641361  -0.0395375   0.4407144 SPIN=   0.00000
  Li  -0.4802519  -0.2765783  -0.4407144 SPIN=   0.00000
  Li   0.4499556   0.4499556   0.0000000 SPIN=   0.00000
  Li  -0.2181273  -0.2181273   0.0000000 SPIN=   0.00000
   O   0.2622855  -0.3296959   0.2856882 SPIN=   0.00000
   O   0.3840668  -0.2416613   0.0571230 SPIN=   0.00000
   O   0.0010636  -0.4464118  -0.0824477 SPIN=   0.00000
   O   0.1178220  -0.0531633   0.1517572 SPIN=   0.00000
   P   0.1942214  -0.2685001   0.1133308 SPIN=   0.00000
   O  -0.6153841  -0.0234026  -0.2856882 SPIN=   0.00000
   O  -0.2987843   0.3269437  -0.0571230 SPIN=   0.00000
   O  -0.3639641   0.0835113   0.0824477 SPIN=   0.00000
   O  -0.2049205  -0.0339353  -0.1517572 SPIN=   0.00000
   P  -0.3818310   0.0808905  -0.1133308 SPIN=   0.00000
   O  -0.1397330   0.7286108   0.2502605 SPIN=   0.00000
   O  -0.3784853   0.9114379   0.4099782 SPIN=   0.00000
   O  -0.3276172   0.5518140   0.3952179 SPIN=   0.00000
   O  -0.0094583   0.8776840   0.6218688 SPIN=   0.00000
   P  -0.2074668   0.7666237   0.4127193 SPIN=   0.00000
   O   0.4783504  -0.3899934  -0.2502605 SPIN=   0.00000
   O   0.5014597  -0.7884635  -0.4099782 SPIN=   0.00000
   O   0.1565961  -0.7228352  -0.3952179 SPIN=   0.00000
   O   0.2558152  -0.6313271  -0.6218688 SPIN=   0.00000
   P   0.3539044  -0.6201861  -0.4127193 SPIN=   0.00000
  Fe   0.2099559  -0.2638371  -0.2238932 SPIN=   5.58038
  Fe  -0.0399439   0.4338491   0.2238932 SPIN=   5.58038
  Fe  -0.0683027   0.1915792  -0.2804822 SPIN=   2.41962
  Fe   0.4720614   0.2121795   0.2804822 SPIN=   2.41962
%ENDBLOCK POSITIONS_FRAC

# Note: total spin =  16.00

KPOINTS_MP_SPACING 0.07

%BLOCK SPECIES_POT
QC5
%ENDBLOCK SPECIES_POT

%BLOCK HUBBARD_U
Fe d:4.0
%ENDBLOCK HUBBARD_U

SNAP_TO_SYMMETRY
SYMMETRY_GENERATE

