#              Generated by Buildcell
#
# at 22:16:40 (GMT+0.0) 26th November 2020
# in /lustre/scratch/uccabz1/launch_tmp
# on node-c12c-024
# by uccabz1
#
# compiler GCC version 4.9.2
# options -cpp -iprefix /lustre/shared/ucl/apps/gcc/4.9.2/bin/../lib/gcc/x86_64-unknown-linux-gnu/4.9.2/ -mtune=corei7 -march=x86-64 -g -Og
#
# seed  1013592958   235376739 -1657369866 -1008878224  2146987960 -1923656039  -570970986 -1034142684   800496301  1125334099  1993465142 -1812116342
#
#      Author: C. J. Pickard (cjp20@cam.ac.uk)
#                Space group: C2
#

%BLOCK LATTICE_ABC
      6.22338      7.67347      8.21760
     62.16724     79.59174     67.23556
%ENDBLOCK LATTICE_ABC

%BLOCK POSITIONS_FRAC
  Li   0.3567575   0.0034581   0.4069900 SPIN=   0.00000
  Li  -0.3567575  -0.4104480   0.4069900 SPIN=   0.00000
  Li  -0.5000000   0.3782821  -0.7565643 SPIN=   0.00000
  Li   0.5000000  -0.3841729   0.7683457 SPIN=   0.00000
   O  -0.3012407   0.2487596  -0.1656204 SPIN=   0.00000
   O  -0.3511538   0.1120366   0.1887527 SPIN=   0.00000
   O   0.0363926   0.1171830   0.0551128 SPIN=   0.00000
   O  -0.2896958   0.4566931   0.0033180 SPIN=   0.00000
   P  -0.2311547   0.2371036   0.0102851 SPIN=   0.00000
   O   0.3012407  -0.0831392  -0.1656204 SPIN=   0.00000
   O   0.3511538  -0.3007893   0.1887527 SPIN=   0.00000
   O  -0.0363926  -0.1722958   0.0551128 SPIN=   0.00000
   O   0.2896958  -0.4600111   0.0033180 SPIN=   0.00000
   P   0.2311547  -0.2473887   0.0102851 SPIN=   0.00000
   O  -0.2837292  -0.0765515  -0.1960669 SPIN=   0.00000
   O  -0.2816837   0.2198733  -0.5250294 SPIN=   0.00000
   O   0.0819533  -0.0842127  -0.4068411 SPIN=   0.00000
   O  -0.2548087  -0.1310586  -0.4876743 SPIN=   0.00000
   O   0.2837292   0.2726185  -0.1960669 SPIN=   0.00000
   O   0.2816837   0.3051561  -0.5250294 SPIN=   0.00000
   O  -0.0819533   0.4910538  -0.4068411 SPIN=   0.00000
   O   0.2548087   0.6187329  -0.4876743 SPIN=   0.00000
   P   0.0000000  -0.3496943   0.6993886 SPIN=   0.00000
   P   0.5000000   0.1940937  -0.3881874 SPIN=   0.00000
  Fe  -0.0000000   0.1531665  -0.3063330 SPIN=   4.40367
  Fe  -0.0000000  -0.1554617   0.3109234 SPIN=   1.60303
  Fe  -0.0000000   0.4475810  -0.8951620 SPIN=   4.98996
  Fe   0.5000000  -0.0024029   0.0048058 SPIN=   5.00333
%ENDBLOCK POSITIONS_FRAC

# Note: total spin =  16.00

KPOINTS_MP_SPACING 0.07

%BLOCK SPECIES_POT
QC5
%ENDBLOCK SPECIES_POT

%BLOCK HUBBARD_U
Fe d:4.0
%ENDBLOCK HUBBARD_U

SNAP_TO_SYMMETRY
SYMMETRY_GENERATE

