#              Generated by Buildcell
#
# at 08:37:55 (GMT+0.0) 26th November 2020
# in /lustre/scratch/uccabz1/launch_tmp
# on node-c12g-022
# by uccabz1
#
# compiler GCC version 4.9.2
# options -cpp -iprefix /lustre/shared/ucl/apps/gcc/4.9.2/bin/../lib/gcc/x86_64-unknown-linux-gnu/4.9.2/ -mtune=corei7 -march=x86-64 -g -Og
#
# seed  1825296449 -1598504118  -566747452   346132721  1484785146  -351428416 -1033465846  -156309215  -949174428    39311593   368151786  2137878799
#
#      Author: C. J. Pickard (cjp20@cam.ac.uk)
#                Space group: Cmc21
#

%BLOCK LATTICE_ABC
      5.59986      7.64304      7.64304
    101.97775     90.00000     90.00000
%ENDBLOCK LATTICE_ABC

%BLOCK POSITIONS_FRAC
  Li   0.1427693  -0.1130326   0.1130326 SPIN=   0.00000
  Li  -0.3572307   0.1130326  -0.1130326 SPIN=   0.00000
  Li  -0.1551954  -0.4544790   0.4544790 SPIN=   0.00000
  Li   0.3448046   0.4544790  -0.4544790 SPIN=   0.00000
   O   0.0113551   0.2981696   0.3522564 SPIN=   0.00000
   O   0.3637163   0.1777415   0.5144047 SPIN=   0.00000
   O  -0.0473138   0.1325549   0.6136141 SPIN=   0.00000
   P   0.1004570   0.1483360   0.4425481 SPIN=   0.00000
   O  -0.4886449  -0.2981696  -0.3522564 SPIN=   0.00000
   O  -0.1362837  -0.1777415  -0.5144047 SPIN=   0.00000
   O  -0.5473138  -0.1325549  -0.6136141 SPIN=   0.00000
   P  -0.3995430  -0.1483360  -0.4425481 SPIN=   0.00000
   O  -0.4886449   0.3522564   0.2981696 SPIN=   0.00000
   O  -0.1362837   0.5144047   0.1777415 SPIN=   0.00000
   O  -0.5473138   0.6136141   0.1325549 SPIN=   0.00000
   P  -0.3995430   0.4425481   0.1483360 SPIN=   0.00000
   O   0.0113551  -0.3522564  -0.2981696 SPIN=   0.00000
   O   0.3637163  -0.5144047  -0.1777415 SPIN=   0.00000
   O  -0.0473138  -0.6136141  -0.1325549 SPIN=   0.00000
   P   0.1004570  -0.4425481  -0.1483360 SPIN=   0.00000
   O  -0.2235371  -0.1546281   0.1546281 SPIN=   0.00000
   O   0.2764629   0.1546281  -0.1546281 SPIN=   0.00000
   O   0.1901342  -0.3868723   0.3868723 SPIN=   0.00000
   O  -0.3098658   0.3868723  -0.3868723 SPIN=   0.00000
  Fe   0.1201304   0.3161789   0.0894826 SPIN=   4.00000
  Fe  -0.3798696  -0.3161789  -0.0894826 SPIN=   4.00000
  Fe  -0.3798696   0.0894826   0.3161789 SPIN=   4.00000
  Fe   0.1201304  -0.0894826  -0.3161789 SPIN=   4.00000
%ENDBLOCK POSITIONS_FRAC

# Note: total spin =  16.00

KPOINTS_MP_SPACING 0.07

%BLOCK SPECIES_POT
QC5
%ENDBLOCK SPECIES_POT

%BLOCK HUBBARD_U
Fe d:4.0
%ENDBLOCK HUBBARD_U

SNAP_TO_SYMMETRY
SYMMETRY_GENERATE

