#              Generated by Buildcell
#
# at 19:52:22 (GMT+0.0) 26th November 2020
# in /lustre/scratch/uccabz1/launch_tmp
# on node-c12f-024
# by uccabz1
#
# compiler GCC version 4.9.2
# options -cpp -iprefix /lustre/shared/ucl/apps/gcc/4.9.2/bin/../lib/gcc/x86_64-unknown-linux-gnu/4.9.2/ -mtune=corei7 -march=x86-64 -g -Og
#
# seed   688407349 -1609697603  1431904407  1555656573   533831386  1696341320  1536183477 -2084958655 -1473967871  2094551722  1253835962  1039813773
#
#      Author: C. J. Pickard (cjp20@cam.ac.uk)
#                Space group: Pba2
#

%BLOCK LATTICE_ABC
      3.91589      8.63518      9.46342
     90.00000     90.00000     90.00000
%ENDBLOCK LATTICE_ABC

%BLOCK POSITIONS_FRAC
  Li   0.1395516   0.4812630  -0.3418699 SPIN=   0.00000
  Li   0.1395516  -0.4812630   0.3418699 SPIN=   0.00000
  Li   0.1395516  -0.0187370  -0.1581301 SPIN=   0.00000
  Li   0.1395516   0.0187370   0.1581301 SPIN=   0.00000
   O   0.1783484   0.2004349  -0.2554352 SPIN=   0.00000
   O  -0.2127381   0.1717792  -0.0352105 SPIN=   0.00000
   O   0.2611361   0.3602516  -0.0253671 SPIN=   0.00000
   O  -0.2446340   0.4143823  -0.1796169 SPIN=   0.00000
   P   0.0024282   0.2836248  -0.1315681 SPIN=   0.00000
   O   0.1783484  -0.2004349   0.2554352 SPIN=   0.00000
   O  -0.2127381  -0.1717792   0.0352105 SPIN=   0.00000
   O   0.2611361  -0.3602516   0.0253671 SPIN=   0.00000
   O  -0.2446340  -0.4143823   0.1796169 SPIN=   0.00000
   P   0.0024282  -0.2836248   0.1315681 SPIN=   0.00000
   O   0.1783484  -0.2995651  -0.2445648 SPIN=   0.00000
   O  -0.2127381  -0.3282208  -0.4647895 SPIN=   0.00000
   O   0.2611361  -0.1397484  -0.4746329 SPIN=   0.00000
   O  -0.2446340  -0.0856177  -0.3203831 SPIN=   0.00000
   P   0.0024282  -0.2163752  -0.3684319 SPIN=   0.00000
   O   0.1783484   0.2995651   0.2445648 SPIN=   0.00000
   O  -0.2127381   0.3282208   0.4647895 SPIN=   0.00000
   O   0.2611361   0.1397484   0.4746329 SPIN=   0.00000
   O  -0.2446340   0.0856177   0.3203831 SPIN=   0.00000
   P   0.0024282   0.2163752   0.3684319 SPIN=   0.00000
  Fe  -0.3618214   0.1768444  -0.3729594 SPIN=   4.00000
  Fe  -0.3618214  -0.1768444   0.3729594 SPIN=   4.00000
  Fe  -0.3618214  -0.3231556  -0.1270406 SPIN=   4.00000
  Fe  -0.3618214   0.3231556   0.1270406 SPIN=   4.00000
%ENDBLOCK POSITIONS_FRAC

# Note: total spin =  16.00

KPOINTS_MP_SPACING 0.07

%BLOCK SPECIES_POT
QC5
%ENDBLOCK SPECIES_POT

%BLOCK HUBBARD_U
Fe d:4.0
%ENDBLOCK HUBBARD_U

SNAP_TO_SYMMETRY
SYMMETRY_GENERATE

