#              Generated by Buildcell
#
# at 10:33:08 (GMT+0.0) 26th November 2020
# in /lustre/scratch/uccabz1/launch_tmp
# on node-c12g-022
# by uccabz1
#
# compiler GCC version 4.9.2
# options -cpp -iprefix /lustre/shared/ucl/apps/gcc/4.9.2/bin/../lib/gcc/x86_64-unknown-linux-gnu/4.9.2/ -mtune=corei7 -march=x86-64 -g -Og
#
# seed -1481557457  1678298609  -933254036 -1238654654  -960820775  -768104081 -1627135677 -1599572578   276961315  1874842242  -725637711 -1372244420
#
#      Author: C. J. Pickard (cjp20@cam.ac.uk)
#                Space group: Cm
#

%BLOCK LATTICE_ABC
      5.32241      8.20892      8.74234
    116.78924    105.98801     93.53745
%ENDBLOCK LATTICE_ABC

%BLOCK POSITIONS_FRAC
  Li   0.5187642   0.3296875   0.0000000 SPIN=   0.00000
  Li  -0.4047120  -0.2822579   0.0000000 SPIN=   0.00000
  Li  -0.9479283  -0.4785266   0.0000000 SPIN=   0.00000
  Li  -0.0854572   0.0302880   0.0000000 SPIN=   0.00000
   O   0.0817070  -0.3904702  -0.1859134 SPIN=   0.00000
   O  -0.3271351  -0.2336482  -0.2007963 SPIN=   0.00000
   O  -0.1058634  -0.2877274  -0.4283549 SPIN=   0.00000
   O  -0.3743618  -0.5603553  -0.4448780 SPIN=   0.00000
   P  -0.1696805  -0.3715134  -0.3096461 SPIN=   0.00000
   O   0.2676204  -0.2045568   0.1859134 SPIN=   0.00000
   O  -0.1263387  -0.0328519   0.2007963 SPIN=   0.00000
   O   0.3224915   0.1406276   0.4283549 SPIN=   0.00000
   O   0.0705163  -0.1154773   0.4448780 SPIN=   0.00000
   P   0.1399656  -0.0618674   0.3096461 SPIN=   0.00000
   O   0.1637695   0.1349264  -0.1977668 SPIN=   0.00000
   O  -0.1664775   0.1777739  -0.4510294 SPIN=   0.00000
   O  -0.3408358  -0.0273037  -0.3492055 SPIN=   0.00000
   P  -0.1225819   0.1522013  -0.2783805 SPIN=   0.00000
   O   0.3615363   0.3326932   0.1977668 SPIN=   0.00000
   O   0.2845519   0.6288032   0.4510294 SPIN=   0.00000
   O   0.0083698   0.3219018   0.3492055 SPIN=   0.00000
   P   0.1557986   0.4305818   0.2783805 SPIN=   0.00000
   O  -0.0998313   0.2823513   0.0000000 SPIN=   0.00000
   O   0.2812140  -0.0527319   0.0000000 SPIN=   0.00000
  Fe   0.5402275   0.1406919   0.2619870 SPIN=   3.86338
  Fe   0.2782405  -0.1212951  -0.2619870 SPIN=   3.86338
  Fe  -0.4120316  -0.2796954  -0.6323595 SPIN=   4.13662
  Fe   0.2203279   0.3526641   0.6323595 SPIN=   4.13662
%ENDBLOCK POSITIONS_FRAC

# Note: total spin =  16.00

KPOINTS_MP_SPACING 0.07

%BLOCK SPECIES_POT
QC5
%ENDBLOCK SPECIES_POT

%BLOCK HUBBARD_U
Fe d:4.0
%ENDBLOCK HUBBARD_U

SNAP_TO_SYMMETRY
SYMMETRY_GENERATE

