#              Generated by Buildcell
#
# at 12:57:27 (GMT+0.0) 26th November 2020
# in /lustre/scratch/uccabz1/launch_tmp
# on node-c12l-021
# by uccabz1
#
# compiler GCC version 4.9.2
# options -cpp -iprefix /lustre/shared/ucl/apps/gcc/4.9.2/bin/../lib/gcc/x86_64-unknown-linux-gnu/4.9.2/ -mtune=corei7 -march=x86-64 -g -Og
#
# seed -2093084609 -2021857439  1332125623 -2061947594   338939663   903656884 -1116070387  -860766707 -1991863502  -736432173   282634659  -251998964
#
#      Author: C. J. Pickard (cjp20@cam.ac.uk)
#                Space group: P2/c
#

%BLOCK LATTICE_ABC
      5.84912      6.68626      8.63151
    108.56563     90.00000     90.00000
%ENDBLOCK LATTICE_ABC

%BLOCK POSITIONS_FRAC
  Li  -0.1721199   0.0667385  -0.1840684 SPIN=   0.00000
  Li  -0.1721199   0.4332615  -0.3159316 SPIN=   0.00000
  Li   0.1721199  -0.0667385   0.1840684 SPIN=   0.00000
  Li   0.1721199  -0.4332615   0.3159316 SPIN=   0.00000
   O  -0.3539899   0.1517332   0.5722855 SPIN=   0.00000
   O  -0.0795823   0.3014470   0.3996023 SPIN=   0.00000
   O  -0.0678934  -0.0807883   0.3604724 SPIN=   0.00000
   O  -0.4069759   0.0724147   0.2614072 SPIN=   0.00000
   P  -0.2359887   0.1129021   0.4060810 SPIN=   0.00000
   O  -0.3539899   0.3482668  -0.0722855 SPIN=   0.00000
   O  -0.0795823   0.1985530   0.1003977 SPIN=   0.00000
   O  -0.0678934   0.5807883   0.1395276 SPIN=   0.00000
   O  -0.4069759   0.4275853   0.2385928 SPIN=   0.00000
   P  -0.2359887   0.3870979   0.0939190 SPIN=   0.00000
   O   0.3539899  -0.1517332  -0.5722855 SPIN=   0.00000
   O   0.0795823  -0.3014470  -0.3996023 SPIN=   0.00000
   O   0.0678934   0.0807883  -0.3604724 SPIN=   0.00000
   O   0.4069759  -0.0724147  -0.2614072 SPIN=   0.00000
   P   0.2359887  -0.1129021  -0.4060810 SPIN=   0.00000
   O   0.3539899  -0.3482668   0.0722855 SPIN=   0.00000
   O   0.0795823  -0.1985530  -0.1003977 SPIN=   0.00000
   O   0.0678934  -0.5807883  -0.1395276 SPIN=   0.00000
   O   0.4069759  -0.4275853  -0.2385928 SPIN=   0.00000
   P   0.2359887  -0.3870979  -0.0939190 SPIN=   0.00000
  Fe  -0.3269719  -0.2301854   0.0317463 SPIN=   4.00000
  Fe  -0.3269719  -0.2698146   0.4682537 SPIN=   4.00000
  Fe   0.3269719   0.2301854  -0.0317463 SPIN=   4.00000
  Fe   0.3269719   0.2698146  -0.4682537 SPIN=   4.00000
%ENDBLOCK POSITIONS_FRAC

# Note: total spin =  16.00

KPOINTS_MP_SPACING 0.07

%BLOCK SPECIES_POT
QC5
%ENDBLOCK SPECIES_POT

%BLOCK HUBBARD_U
Fe d:4.0
%ENDBLOCK HUBBARD_U

SNAP_TO_SYMMETRY
SYMMETRY_GENERATE

