#              Generated by Buildcell
#
# at 00:21:38 (GMT+0.0) 27th November 2020
# in /scratch/scratch/mmm0366/launch_tmp
# on node-k98f-026
# by mmm0366
#
# compiler GCC version 4.9.2
# options -cpp -iprefix /scratch/UCL/applications/gcc/4.9.2/bin/../lib/gcc/x86_64-unknown-linux-gnu/4.9.2/ -mtune=corei7 -march=x86-64 -g -O2
#
# seed   733865030  1856803913  1614947211  -500598040 -1526433921  -261894566  -593442625 -1997610166  -323118662  2111793315   -71581880  -264885680
#
#      Author: C. J. Pickard (cjp20@cam.ac.uk)
#                Space group: Pc
#

%BLOCK LATTICE_ABC
      3.85062      8.91461      9.43774
     90.00000     90.00000     98.97573
%ENDBLOCK LATTICE_ABC

%BLOCK POSITIONS_FRAC
  Li   0.2235434   0.4178003  -0.4509452 SPIN=   0.00000
  Li  -0.2764566  -0.0821997   0.4509452 SPIN=   0.00000
  Li   0.4074548   0.0301058  -0.1670015 SPIN=   0.00000
  Li  -0.0925452  -0.4698942   0.1670015 SPIN=   0.00000
   O   0.4967768  -0.3692850   0.2528627 SPIN=   0.00000
   O  -0.0502485  -0.4564804   0.4107282 SPIN=   0.00000
   O   0.4952852  -0.3317261   0.5258390 SPIN=   0.00000
   O   0.1505916  -0.1783705   0.3732091 SPIN=   0.00000
   P   0.2835651  -0.3340099   0.3831168 SPIN=   0.00000
   O  -0.0032232   0.1307150  -0.2528627 SPIN=   0.00000
   O  -0.5502485   0.0435196  -0.4107282 SPIN=   0.00000
   O  -0.0047148   0.1682739  -0.5258390 SPIN=   0.00000
   O  -0.3494084   0.3216295  -0.3732091 SPIN=   0.00000
   P  -0.2164349   0.1659901  -0.3831168 SPIN=   0.00000
   O  -0.1799684   0.0546349   0.2430868 SPIN=   0.00000
   O  -0.2586125   0.1438392  -0.0153873 SPIN=   0.00000
   O   0.2840878   0.2493126   0.1127670 SPIN=   0.00000
   O   0.1928565  -0.0228879   0.0359045 SPIN=   0.00000
   P   0.0016604   0.1019541   0.1013392 SPIN=   0.00000
   O  -0.6799684  -0.4453651  -0.2430868 SPIN=   0.00000
   O  -0.7586125  -0.3561608   0.0153873 SPIN=   0.00000
   O  -0.2159122  -0.2506874  -0.1127670 SPIN=   0.00000
   O  -0.3071435  -0.5228879  -0.0359045 SPIN=   0.00000
   P  -0.4983396  -0.3980459  -0.1013392 SPIN=   0.00000
  Fe   0.0150639   0.3297587  -0.1203520 SPIN=   3.97353
  Fe  -0.4849361  -0.1702413   0.1203520 SPIN=   3.97353
  Fe   0.0173265  -0.2820482  -0.3064845 SPIN=   4.02647
  Fe  -0.4826735   0.2179518   0.3064845 SPIN=   4.02647
%ENDBLOCK POSITIONS_FRAC

# Note: total spin =  16.00

KPOINTS_MP_SPACING 0.07

%BLOCK SPECIES_POT
QC5
%ENDBLOCK SPECIES_POT

%BLOCK HUBBARD_U
Fe d:4.0
%ENDBLOCK HUBBARD_U

SNAP_TO_SYMMETRY
SYMMETRY_GENERATE

