#              Generated by Buildcell
#
# at 07:56:25 (GMT+0.0) 24th November 2020
# in /scratch/scratch/uccabz1/launch_tmp
# on node-a14f-013
# by uccabz1
#
# compiler GCC version 4.9.2
# options -cpp -iprefix /scratch/UCL/applications/gcc/4.9.2/bin/../lib/gcc/x86_64-unknown-linux-gnu/4.9.2/ -mtune=corei7 -march=x86-64 -g -O2
#
# seed  -212905096  1982530410  1781046263  2110989326  2120972986 -1395783895  1629798427 -2107722942 -1820567101 -1565864832  -322220067   -73918568
#
#      Author: C. J. Pickard (cjp20@cam.ac.uk)
#                Space group: P21
#

%BLOCK LATTICE_ABC
      5.07154      5.11679      6.27985
     90.00000     90.00000    100.94116
%ENDBLOCK LATTICE_ABC

%BLOCK POSITIONS_FRAC
  Li  -0.1904081  -0.3838299   0.3917114 SPIN=   0.00000
  Li   0.1904081   0.3838299  -0.1082886 SPIN=   0.00000
   O  -0.1654127   0.2462360   0.2528048 SPIN=   0.00000
   O  -0.2284303   0.2850836  -0.1557983 SPIN=   0.00000
   O  -0.6064987   0.0402200   0.0558500 SPIN=   0.00000
   O  -0.4794530   0.5358152   0.0901323 SPIN=   0.00000
   P  -0.3603504   0.2782655   0.0713200 SPIN=   0.00000
   O   0.1654127  -0.2462360  -0.2471952 SPIN=   0.00000
   O   0.2284303  -0.2850836  -0.6557983 SPIN=   0.00000
   O   0.6064987  -0.0402200  -0.4441500 SPIN=   0.00000
   O   0.4794530  -0.5358152  -0.4098677 SPIN=   0.00000
   P   0.3603504  -0.2782655  -0.4286800 SPIN=   0.00000
  Fe  -0.2288304  -0.1949053  -0.1085762 SPIN=   4.00000
  Fe   0.2288304   0.1949053   0.3914238 SPIN=   4.00000
%ENDBLOCK POSITIONS_FRAC

# Note: total spin =   8.00

KPOINTS_MP_SPACING 0.07

%BLOCK SPECIES_POT
QC5
%ENDBLOCK SPECIES_POT

%BLOCK HUBBARD_U
Fe d:4.0
%ENDBLOCK HUBBARD_U

SNAP_TO_SYMMETRY
SYMMETRY_GENERATE

