#              Generated by Buildcell
#
# at 18:13:22 (GMT+0.0) 26th November 2020
# in /lustre/scratch/uccabz1/launch_tmp
# on node-c12c-020
# by uccabz1
#
# compiler GCC version 4.9.2
# options -cpp -iprefix /lustre/shared/ucl/apps/gcc/4.9.2/bin/../lib/gcc/x86_64-unknown-linux-gnu/4.9.2/ -mtune=corei7 -march=x86-64 -g -Og
#
# seed -1681622215  1680629356  1280092544  -652692918  1602311870 -1550149774  2015077530  1910118285   472368061 -1201518735  1744505423 -1462945584
#
#      Author: C. J. Pickard (cjp20@cam.ac.uk)
#                Space group: C2
#

%BLOCK LATTICE_ABC
      5.70058      7.92892      7.92892
     89.54903     71.36197     71.36197
%ENDBLOCK LATTICE_ABC

%BLOCK POSITIONS_FRAC
  Li   0.2913770   0.4624622   0.4503642 SPIN=   0.00000
  Li  -0.2913770  -0.4503642  -0.4624622 SPIN=   0.00000
  Li   0.2130885  -0.1941501   0.2784344 SPIN=   0.00000
  Li  -0.2130885  -0.2784344   0.1941501 SPIN=   0.00000
   O   0.1758930  -0.3170258   0.0366012 SPIN=   0.00000
   O   0.4152198  -0.5904703   0.1731156 SPIN=   0.00000
   O   0.5475122  -0.5978683  -0.1560725 SPIN=   0.00000
   O   0.6596623  -0.3903018   0.0171006 SPIN=   0.00000
   P   0.4374790  -0.4645762   0.0186865 SPIN=   0.00000
   O  -0.1758930  -0.0366012   0.3170258 SPIN=   0.00000
   O  -0.4152198  -0.1731156   0.5904703 SPIN=   0.00000
   O  -0.5475122   0.1560725   0.5978683 SPIN=   0.00000
   O  -0.6596623  -0.0171006   0.3903018 SPIN=   0.00000
   P  -0.4374790  -0.0186865   0.4645762 SPIN=   0.00000
   O   0.0113663  -0.1486637  -0.4473062 SPIN=   0.00000
   O  -0.1465192  -0.1606414  -0.1030500 SPIN=   0.00000
   O  -0.0827624  -0.4240174  -0.2985163 SPIN=   0.00000
   O   0.3091163  -0.3516315  -0.2875542 SPIN=   0.00000
   P   0.0255703  -0.2656607  -0.2928369 SPIN=   0.00000
   O  -0.0113663   0.4473062   0.1486637 SPIN=   0.00000
   O   0.1465192   0.1030500   0.1606414 SPIN=   0.00000
   O   0.0827624   0.2985163   0.4240174 SPIN=   0.00000
   O  -0.3091163   0.2875542   0.3516315 SPIN=   0.00000
   P  -0.0255703   0.2928369   0.2656607 SPIN=   0.00000
  Fe   0.3648829  -0.1236185  -0.1397099 SPIN=   1.76951
  Fe  -0.3648829   0.1397099   0.1236185 SPIN=   1.76951
  Fe   0.1319685   0.3941585  -0.1287822 SPIN=   6.23049
  Fe  -0.1319685   0.1287822  -0.3941585 SPIN=   6.23049
%ENDBLOCK POSITIONS_FRAC

# Note: total spin =  16.00

KPOINTS_MP_SPACING 0.07

%BLOCK SPECIES_POT
QC5
%ENDBLOCK SPECIES_POT

%BLOCK HUBBARD_U
Fe d:4.0
%ENDBLOCK HUBBARD_U

SNAP_TO_SYMMETRY
SYMMETRY_GENERATE

