#              Generated by Buildcell
#
# at 20:28:29 (GMT+0.0) 26th November 2020
# in /lustre/scratch/uccabz1/launch_tmp
# on node-c12l-024
# by uccabz1
#
# compiler GCC version 4.9.2
# options -cpp -iprefix /lustre/shared/ucl/apps/gcc/4.9.2/bin/../lib/gcc/x86_64-unknown-linux-gnu/4.9.2/ -mtune=corei7 -march=x86-64 -g -Og
#
# seed  2037923222   -37334624  -688215193 -2055450139  1530909438 -1121474036   -68272588  1563398215    51042609 -1015120717 -1167051556  1129911578
#
#      Author: C. J. Pickard (cjp20@cam.ac.uk)
#                Space group: P21
#

%BLOCK LATTICE_ABC
      6.24022      6.50343      8.41745
     90.00000    110.48607     90.00000
%ENDBLOCK LATTICE_ABC

%BLOCK POSITIONS_FRAC
  Li  -0.4895721  -0.2596927  -0.1950619 SPIN=   0.00000
  Li   0.4895721   0.2403073   0.1950619 SPIN=   0.00000
  Li   0.0764757  -0.4082559  -0.4775506 SPIN=   0.00000
  Li  -0.0764757   0.0917441   0.4775506 SPIN=   0.00000
   O  -0.2510377  -0.5127120  -0.2131852 SPIN=   0.00000
   O  -0.1937450  -0.2444144  -0.4235185 SPIN=   0.00000
   O  -0.2122151  -0.6120473  -0.5008532 SPIN=   0.00000
   O  -0.5668067  -0.4320024  -0.5004978 SPIN=   0.00000
   P  -0.3061056  -0.4534016  -0.4001339 SPIN=   0.00000
   O   0.2510377  -0.0127120   0.2131852 SPIN=   0.00000
   O   0.1937450   0.2555856   0.4235185 SPIN=   0.00000
   O   0.2122151  -0.1120473   0.5008532 SPIN=   0.00000
   O   0.5668067   0.0679976   0.5004978 SPIN=   0.00000
   P   0.3061056   0.0465984   0.4001339 SPIN=   0.00000
   O   0.1343033  -0.7105249  -0.1044959 SPIN=   0.00000
   O   0.5248759  -0.5215501  -0.0226516 SPIN=   0.00000
   O   0.1783256  -0.3405889  -0.2055030 SPIN=   0.00000
   O   0.2351223  -0.4007191   0.1004453 SPIN=   0.00000
   P   0.2606399  -0.5038163  -0.0586538 SPIN=   0.00000
   O  -0.1343033  -0.2105249   0.1044959 SPIN=   0.00000
   O  -0.5248759  -0.0215501   0.0226516 SPIN=   0.00000
   O  -0.1783256   0.1594111   0.2055030 SPIN=   0.00000
   O  -0.2351223   0.0992809  -0.1004453 SPIN=   0.00000
   P  -0.2606399  -0.0038163   0.0586538 SPIN=   0.00000
  Fe  -0.4645449  -0.2596831   0.2728755 SPIN=   4.78148
  Fe   0.4645449   0.2403169  -0.2728755 SPIN=   4.78148
  Fe   0.0310615  -0.0833141  -0.1329427 SPIN=   3.21852
  Fe  -0.0310615   0.4166859   0.1329427 SPIN=   3.21852
%ENDBLOCK POSITIONS_FRAC

# Note: total spin =  16.00

KPOINTS_MP_SPACING 0.07

%BLOCK SPECIES_POT
QC5
%ENDBLOCK SPECIES_POT

%BLOCK HUBBARD_U
Fe d:4.0
%ENDBLOCK HUBBARD_U

SNAP_TO_SYMMETRY
SYMMETRY_GENERATE

