#              Generated by Buildcell
#
# at 08:21:20 (GMT+0.0) 24th November 2020
# in /lustre/scratch/uccabz1/launch_tmp
# on node-c12h-026
# by uccabz1
#
# compiler GCC version 4.9.2
# options -cpp -iprefix /lustre/shared/ucl/apps/gcc/4.9.2/bin/../lib/gcc/x86_64-unknown-linux-gnu/4.9.2/ -mtune=corei7 -march=x86-64 -g -Og
#
# seed -1872783553    19869796   -10738684   431251260  -512009762  1513854523  2113441459  -261548651 -1269008418  1198902916   580624634  -854293086
#
#      Author: C. J. Pickard (cjp20@cam.ac.uk)
#                Space group: Cm
#

%BLOCK LATTICE_ABC
      4.79802      6.10002      6.10002
     88.61895     71.51122     71.51122
%ENDBLOCK LATTICE_ABC

%BLOCK POSITIONS_FRAC
  Li  -0.1700225   0.0221057   0.3980892 SPIN=   0.00000
  Li  -0.1700225   0.3980892   0.0221057 SPIN=   0.00000
   O   0.7773843  -0.3580128   0.3522037 SPIN=   0.00000
   O   0.1792846  -0.2555044   0.4578162 SPIN=   0.00000
   O   0.4083207   0.0568929   0.3442138 SPIN=   0.00000
   O   0.5008232  -0.2548351   0.0445580 SPIN=   0.00000
   P   0.4834143  -0.2117390   0.2994827 SPIN=   0.00000
   O   0.7773843   0.3522037  -0.3580128 SPIN=   0.00000
   O   0.1792846   0.4578162  -0.2555044 SPIN=   0.00000
   O   0.4083207   0.3442138   0.0568929 SPIN=   0.00000
   O   0.5008232   0.0445580  -0.2548351 SPIN=   0.00000
   P   0.4834143   0.2994827  -0.2117390 SPIN=   0.00000
  Fe   0.1672136   0.4110957   0.4110957 SPIN=   1.42691
  Fe   0.2038933  -0.1545203  -0.1545203 SPIN=   6.57309
%ENDBLOCK POSITIONS_FRAC

# Note: total spin =   8.00

KPOINTS_MP_SPACING 0.07

%BLOCK SPECIES_POT
QC5
%ENDBLOCK SPECIES_POT

%BLOCK HUBBARD_U
Fe d:4.0
%ENDBLOCK HUBBARD_U

SNAP_TO_SYMMETRY
SYMMETRY_GENERATE

