#              Generated by Buildcell
#
# at 09:16:06 (GMT+0.0) 24th November 2020
# in /lustre/scratch/uccabz1/launch_tmp
# on node-c12e-032
# by uccabz1
#
# compiler GCC version 4.9.2
# options -cpp -iprefix /lustre/shared/ucl/apps/gcc/4.9.2/bin/../lib/gcc/x86_64-unknown-linux-gnu/4.9.2/ -mtune=corei7 -march=x86-64 -g -Og
#
# seed  2136024695 -1516211288  -501352755 -1512704062   220607886  -637845353  1958087231   880425461   435705674 -1212692991  1652109936  -717126301
#
#      Author: C. J. Pickard (cjp20@cam.ac.uk)
#                Space group: Pm
#

%BLOCK LATTICE_ABC
      3.91777      4.63696      8.85208
     90.00000     90.00000     95.75903
%ENDBLOCK LATTICE_ABC

%BLOCK POSITIONS_FRAC
  Li  -0.4348978  -0.3781645   0.1810159 SPIN=   0.00000
  Li  -0.4348978  -0.3781645  -0.1810159 SPIN=   0.00000
   O  -0.3876409   0.1152473  -0.1405217 SPIN=   0.00000
   O   0.1372821   0.3691050  -0.2843440 SPIN=   0.00000
   O  -0.0413141  -0.1460368  -0.3397804 SPIN=   0.00000
   P  -0.1894348   0.1426689  -0.2906170 SPIN=   0.00000
   O  -0.3876409   0.1152473   0.1405217 SPIN=   0.00000
   O   0.1372821   0.3691050   0.2843440 SPIN=   0.00000
   O  -0.0413141  -0.1460368   0.3397804 SPIN=   0.00000
   P  -0.1894348   0.1426689   0.2906170 SPIN=   0.00000
   O   0.4336486   0.0811078  -0.5000000 SPIN=   0.00000
   O   0.1502136  -0.4075626   0.0000000 SPIN=   0.00000
  Fe   0.1226212  -0.4364047  -0.5000000 SPIN=   0.97676
  Fe   0.1201728   0.0840773   0.0000000 SPIN=   7.02324
%ENDBLOCK POSITIONS_FRAC

# Note: total spin =   8.00

KPOINTS_MP_SPACING 0.07

%BLOCK SPECIES_POT
QC5
%ENDBLOCK SPECIES_POT

%BLOCK HUBBARD_U
Fe d:4.0
%ENDBLOCK HUBBARD_U

SNAP_TO_SYMMETRY
SYMMETRY_GENERATE

