#              Generated by Buildcell
#
# at 23:20:17 (GMT+0.0) 26th November 2020
# in /lustre/scratch/uccabz1/launch_tmp
# on node-c12n-030
# by uccabz1
#
# compiler GCC version 4.9.2
# options -cpp -iprefix /lustre/shared/ucl/apps/gcc/4.9.2/bin/../lib/gcc/x86_64-unknown-linux-gnu/4.9.2/ -mtune=corei7 -march=x86-64 -g -Og
#
# seed  1666231539   819357264  -709951809  -880823600   376453048  -327444075  1354624138   814228514  1651097394  1313044988 -1679407915 -2078497601
#
#      Author: C. J. Pickard (cjp20@cam.ac.uk)
#                Space group: P41
#

%BLOCK LATTICE_ABC
      6.03411      6.03411      8.78867
     90.00000     90.00000     90.00000
%ENDBLOCK LATTICE_ABC

%BLOCK POSITIONS_FRAC
  Li  -0.3259802   0.1910805   0.1375728 SPIN=   0.00000
  Li   0.3259802  -0.1910805  -0.3624272 SPIN=   0.00000
  Li   0.1910805   0.3259802   0.3875728 SPIN=   0.00000
  Li  -0.1910805  -0.3259802  -0.1124272 SPIN=   0.00000
   O  -0.0267124   0.3425227   0.2011357 SPIN=   0.00000
   O   0.3912400   0.4265210   0.1596839 SPIN=   0.00000
   O   0.2111152   0.1507320  -0.0071584 SPIN=   0.00000
   O   0.1162042   0.5526767  -0.0353497 SPIN=   0.00000
   P   0.1616603   0.3689286   0.0846940 SPIN=   0.00000
   O   0.0267124  -0.3425227  -0.2988643 SPIN=   0.00000
   O  -0.3912400  -0.4265210  -0.3403161 SPIN=   0.00000
   O  -0.2111152  -0.1507320  -0.5071584 SPIN=   0.00000
   O  -0.1162042  -0.5526767  -0.5353497 SPIN=   0.00000
   P  -0.1616603  -0.3689286  -0.4153060 SPIN=   0.00000
   O   0.3425227   0.0267124   0.4511357 SPIN=   0.00000
   O   0.4265210  -0.3912400   0.4096839 SPIN=   0.00000
   O   0.1507320  -0.2111152   0.2428416 SPIN=   0.00000
   O   0.5526767  -0.1162042   0.2146503 SPIN=   0.00000
   P   0.3689286  -0.1616603   0.3346940 SPIN=   0.00000
   O  -0.3425227  -0.0267124  -0.0488643 SPIN=   0.00000
   O  -0.4265210   0.3912400  -0.0903161 SPIN=   0.00000
   O  -0.1507320   0.2111152  -0.2571584 SPIN=   0.00000
   O  -0.5526767   0.1162042  -0.2853497 SPIN=   0.00000
   P  -0.3689286   0.1616603  -0.1653060 SPIN=   0.00000
  Fe   0.3209365  -0.1768141   0.0120814 SPIN=   4.00000
  Fe  -0.3209365   0.1768141  -0.4879186 SPIN=   4.00000
  Fe  -0.1768141  -0.3209365   0.2620814 SPIN=   4.00000
  Fe   0.1768141   0.3209365  -0.2379186 SPIN=   4.00000
%ENDBLOCK POSITIONS_FRAC

# Note: total spin =  16.00

KPOINTS_MP_SPACING 0.07

%BLOCK SPECIES_POT
QC5
%ENDBLOCK SPECIES_POT

%BLOCK HUBBARD_U
Fe d:4.0
%ENDBLOCK HUBBARD_U

SNAP_TO_SYMMETRY
SYMMETRY_GENERATE

