#              Generated by Buildcell
#
# at 11:38:19 (GMT+0.0) 24th November 2020
# in /lustre/scratch/uccabz1/launch_tmp
# on node-c12l-030
# by uccabz1
#
# compiler GCC version 4.9.2
# options -cpp -iprefix /lustre/shared/ucl/apps/gcc/4.9.2/bin/../lib/gcc/x86_64-unknown-linux-gnu/4.9.2/ -mtune=corei7 -march=x86-64 -g -Og
#
# seed   404855997   564911413  1324184678  1139127045  2088144018  1566023534  -845565649  1164192131  -528933839 -1300195619  -206941565  1538406224
#
#      Author: C. J. Pickard (cjp20@cam.ac.uk)
#                Space group: Aea2
#

%BLOCK LATTICE_ABC
      4.69836      6.04739      6.11120
     90.00000     90.00000    112.85883
%ENDBLOCK LATTICE_ABC

%BLOCK POSITIONS_FRAC
  Li   0.1915099   0.3830198   0.0000000 SPIN=   0.00000
  Li  -0.3084901   0.3830198  -0.5000000 SPIN=   0.00000
   O   0.4702879  -0.3073711   0.1787753 SPIN=   0.00000
   O   0.0285515  -0.6922963   0.3230479 SPIN=   0.00000
   O   0.2223411  -0.3073711  -0.1787753 SPIN=   0.00000
   O   0.2791522  -0.6922963  -0.3230479 SPIN=   0.00000
   O  -0.2776589  -0.3073711  -0.3212247 SPIN=   0.00000
   O  -0.2208478  -0.6922963  -0.1769521 SPIN=   0.00000
   O  -0.0297121  -0.3073711   0.3212247 SPIN=   0.00000
   O  -0.4714485  -0.6922963   0.1769521 SPIN=   0.00000
   P  -0.4418046   0.1163908   0.0000000 SPIN=   0.00000
   P   0.0581954   0.1163908  -0.5000000 SPIN=   0.00000
  Fe  -0.1027402  -0.2054803   0.0000000 SPIN=   4.00000
  Fe   0.3972598  -0.2054803  -0.5000000 SPIN=   4.00000
%ENDBLOCK POSITIONS_FRAC

# Note: total spin =   8.00

KPOINTS_MP_SPACING 0.07

%BLOCK SPECIES_POT
QC5
%ENDBLOCK SPECIES_POT

%BLOCK HUBBARD_U
Fe d:4.0
%ENDBLOCK HUBBARD_U

SNAP_TO_SYMMETRY
SYMMETRY_GENERATE

