#              Generated by Buildcell
#
# at 21:09:18 (GMT+0.0) 26th November 2020
# in /lustre/scratch/uccabz1/launch_tmp
# on node-c12f-029
# by uccabz1
#
# compiler GCC version 4.9.2
# options -cpp -iprefix /lustre/shared/ucl/apps/gcc/4.9.2/bin/../lib/gcc/x86_64-unknown-linux-gnu/4.9.2/ -mtune=corei7 -march=x86-64 -g -Og
#
# seed -1320292400  -230436655  1825115532  -815525492   653852927   215715010 -1136663501   228824612  -831226490 -1028799150  -848000466  -615678760
#
#      Author: C. J. Pickard (cjp20@cam.ac.uk)
#                Space group: Cm
#

%BLOCK LATTICE_ABC
      6.13243      7.76860      7.76860
     68.93355     71.93387     71.93387
%ENDBLOCK LATTICE_ABC

%BLOCK POSITIONS_FRAC
  Li  -0.3470759   0.0468718   0.0468718 SPIN=   0.00000
  Li   0.6199846  -0.4487594  -0.4487594 SPIN=   0.00000
  Li   0.8598854  -0.2798703  -0.2798703 SPIN=   0.00000
  Li  -0.8643550   0.4139963   0.4139963 SPIN=   0.00000
   O  -0.0172709   0.0476744   0.3232455 SPIN=   0.00000
   O  -0.2989393  -0.1836116   0.4631049 SPIN=   0.00000
   O  -0.0593420  -0.1551659   0.1374880 SPIN=   0.00000
   O   0.1364156  -0.3152773   0.4114028 SPIN=   0.00000
   P  -0.0552052  -0.1429166   0.3341635 SPIN=   0.00000
   O  -0.0172709   0.3232455   0.0476744 SPIN=   0.00000
   O  -0.2989393   0.4631049  -0.1836116 SPIN=   0.00000
   O  -0.0593420   0.1374880  -0.1551659 SPIN=   0.00000
   O   0.1364156   0.4114028  -0.3152773 SPIN=   0.00000
   P  -0.0552052   0.3341635  -0.1429166 SPIN=   0.00000
   O   0.7989895   0.2315419  -0.4476641 SPIN=   0.00000
   O   0.4544299   0.2280017  -0.1508870 SPIN=   0.00000
   O   0.4153391   0.1313998  -0.4081191 SPIN=   0.00000
   P   0.6045241   0.1309020  -0.3097927 SPIN=   0.00000
   O   0.7989895  -0.4476641   0.2315419 SPIN=   0.00000
   O   0.4544299  -0.1508870   0.2280017 SPIN=   0.00000
   O   0.4153391  -0.4081191   0.1313998 SPIN=   0.00000
   P   0.6045241  -0.3097927   0.1309020 SPIN=   0.00000
   O   0.6049643  -0.1142304  -0.1142304 SPIN=   0.00000
   O   0.2618715  -0.3155314  -0.3155314 SPIN=   0.00000
  Fe  -0.7333391   0.4533200  -0.0378929 SPIN=   5.08019
  Fe  -0.7333391  -0.0378929   0.4533200 SPIN=   5.08019
  Fe  -0.2928387   0.2876793   0.2876793 SPIN=   2.96824
  Fe   0.2270022  -0.0408417  -0.0408417 SPIN=   2.87138
%ENDBLOCK POSITIONS_FRAC

# Note: total spin =  16.00

KPOINTS_MP_SPACING 0.07

%BLOCK SPECIES_POT
QC5
%ENDBLOCK SPECIES_POT

%BLOCK HUBBARD_U
Fe d:4.0
%ENDBLOCK HUBBARD_U

SNAP_TO_SYMMETRY
SYMMETRY_GENERATE

