#              Generated by Buildcell
#
# at 07:11:08 (GMT+0.0) 24th November 2020
# in /lustre/scratch/uccabz1/launch_tmp
# on node-c12c-030
# by uccabz1
#
# compiler GCC version 4.9.2
# options -cpp -iprefix /lustre/shared/ucl/apps/gcc/4.9.2/bin/../lib/gcc/x86_64-unknown-linux-gnu/4.9.2/ -mtune=corei7 -march=x86-64 -g -Og
#
# seed  1133620257  -371195312   744778407  1636672937 -1597954805   564843259   871742615   -19567056  1786831521 -1480574759 -1158963649 -1644852705
#
#      Author: C. J. Pickard (cjp20@cam.ac.uk)
#                Space group: Pc
#

%BLOCK LATTICE_ABC
      5.14041      5.17126      6.12900
     90.00000    100.87052     90.00000
%ENDBLOCK LATTICE_ABC

%BLOCK POSITIONS_FRAC
  Li  -0.2445987  -0.3042215  -0.2792607 SPIN=   0.00000
  Li  -0.2445987   0.3042215   0.2207393 SPIN=   0.00000
   O  -0.5464791   0.0299661   0.2257596 SPIN=   0.00000
   O  -0.2141369  -0.3328638   0.3834039 SPIN=   0.00000
   O  -0.5408486  -0.4218198   0.0412768 SPIN=   0.00000
   O  -0.1685863  -0.1132189   0.0283807 SPIN=   0.00000
   P  -0.3746942  -0.1955985   0.1710221 SPIN=   0.00000
   O  -0.5464791  -0.0299661  -0.2742404 SPIN=   0.00000
   O  -0.2141369   0.3328638  -0.1165961 SPIN=   0.00000
   O  -0.5408486   0.4218198  -0.4587232 SPIN=   0.00000
   O  -0.1685863   0.1132189  -0.4716193 SPIN=   0.00000
   P  -0.3746942   0.1955985  -0.3289779 SPIN=   0.00000
  Fe   0.1807651   0.2310733  -0.1148041 SPIN=   4.00000
  Fe   0.1807651  -0.2310733   0.3851959 SPIN=   4.00000
%ENDBLOCK POSITIONS_FRAC

# Note: total spin =   8.00

KPOINTS_MP_SPACING 0.07

%BLOCK SPECIES_POT
QC5
%ENDBLOCK SPECIES_POT

%BLOCK HUBBARD_U
Fe d:4.0
%ENDBLOCK HUBBARD_U

SNAP_TO_SYMMETRY
SYMMETRY_GENERATE

