#              Generated by Buildcell
#
# at 18:30:17 (GMT+0.0) 26th November 2020
# in /lustre/scratch/uccabz1/launch_tmp
# on node-c12c-023
# by uccabz1
#
# compiler GCC version 4.9.2
# options -cpp -iprefix /lustre/shared/ucl/apps/gcc/4.9.2/bin/../lib/gcc/x86_64-unknown-linux-gnu/4.9.2/ -mtune=corei7 -march=x86-64 -g -Og
#
# seed  1406265460   664450525   604290302  2008091108   835018184  1117159820 -1389257750  -489209731  1026061153  -471789076  1570718157 -1164060705
#
#      Author: C. J. Pickard (cjp20@cam.ac.uk)
#                Space group: P-1
#

%BLOCK LATTICE_ABC
      6.04541      6.77125      8.37460
     79.43790     74.80875     77.43889
%ENDBLOCK LATTICE_ABC

%BLOCK POSITIONS_FRAC
  Li  -0.2448135   0.0132500   0.4443520 SPIN=   0.00000
  Li   0.2448135  -0.0132500  -0.4443520 SPIN=   0.00000
  Li  -0.0308186  -0.2063450   0.1416130 SPIN=   0.00000
  Li   0.0308186   0.2063450  -0.1416130 SPIN=   0.00000
   O  -0.0700720  -0.1400620  -0.1368854 SPIN=   0.00000
   O  -0.2656444  -0.2221322  -0.3527759 SPIN=   0.00000
   O   0.0556061  -0.4784623  -0.2674846 SPIN=   0.00000
   O  -0.3301353  -0.4152552  -0.0642021 SPIN=   0.00000
   P  -0.1502648  -0.3059129  -0.2000267 SPIN=   0.00000
   O   0.0700720   0.1400620   0.1368854 SPIN=   0.00000
   O   0.2656444   0.2221322   0.3527759 SPIN=   0.00000
   O  -0.0556061   0.4784623   0.2674846 SPIN=   0.00000
   O   0.3301353   0.4152552   0.0642021 SPIN=   0.00000
   P   0.1502648   0.3059129   0.2000267 SPIN=   0.00000
   O   0.0944216  -0.1575254   0.4195676 SPIN=   0.00000
   O   0.3284551  -0.2417459   0.1249499 SPIN=   0.00000
   O   0.5317448  -0.1320468   0.3045815 SPIN=   0.00000
   O   0.4161856  -0.4767456   0.3774465 SPIN=   0.00000
   P   0.3303492  -0.2496368   0.3134850 SPIN=   0.00000
   O  -0.0944216   0.1575254  -0.4195676 SPIN=   0.00000
   O  -0.3284551   0.2417459  -0.1249499 SPIN=   0.00000
   O  -0.5317448   0.1320468  -0.3045815 SPIN=   0.00000
   O  -0.4161856   0.4767456  -0.3774465 SPIN=   0.00000
   P  -0.3303492   0.2496368  -0.3134850 SPIN=   0.00000
  Fe   0.3243705  -0.4251969  -0.1740098 SPIN=   1.82577
  Fe  -0.3243705   0.4251969   0.1740098 SPIN=   1.82577
  Fe  -0.5000000   0.0000000  -0.0000000 SPIN=   1.04092
  Fe   0.0000000   0.5000000  -0.5000000 SPIN=  11.30755
%ENDBLOCK POSITIONS_FRAC

# Note: total spin =  16.00

KPOINTS_MP_SPACING 0.07

%BLOCK SPECIES_POT
QC5
%ENDBLOCK SPECIES_POT

%BLOCK HUBBARD_U
Fe d:4.0
%ENDBLOCK HUBBARD_U

SNAP_TO_SYMMETRY
SYMMETRY_GENERATE

