#              Generated by Buildcell
#
# at 08:42:30 (GMT+0.0) 24th November 2020
# in /scratch/scratch/uccabz1/launch_tmp
# on node-a14b-007
# by uccabz1
#
# compiler GCC version 4.9.2
# options -cpp -iprefix /scratch/UCL/applications/gcc/4.9.2/bin/../lib/gcc/x86_64-unknown-linux-gnu/4.9.2/ -mtune=corei7 -march=x86-64 -g -O2
#
# seed  1151271514   514898510   789154897   332918841   345873920  2047754189  -133386749 -1735702702 -1458087645  1734018557   153948519  1362162318
#
#      Author: C. J. Pickard (cjp20@cam.ac.uk)
#                Space group: C2
#

%BLOCK LATTICE_ABC
      4.71411      4.71411      7.88665
     93.30487     93.30487    113.36768
%ENDBLOCK LATTICE_ABC

%BLOCK POSITIONS_FRAC
  Li   0.7095976   0.2904024   0.0000000 SPIN=   0.00000
  Li  -0.5992707  -0.4007293  -0.5000000 SPIN=   0.00000
   O   0.1049554  -0.5759716  -0.1417336 SPIN=   0.00000
   O  -0.3249311  -0.3615937  -0.1460010 SPIN=   0.00000
   O  -0.1225345  -0.4413257  -0.4185805 SPIN=   0.00000
   O  -0.4540741  -0.9019512  -0.2733002 SPIN=   0.00000
   O   0.5759716  -0.1049554   0.1417336 SPIN=   0.00000
   O   0.3615937   0.3249311   0.1460010 SPIN=   0.00000
   O   0.4413257   0.1225345   0.4185805 SPIN=   0.00000
   O   0.9019512   0.4540741   0.2733002 SPIN=   0.00000
   P  -1.2224911  -0.7775089  -0.5000000 SPIN=   0.00000
   P  -0.6914906  -0.3085094   0.0000000 SPIN=   0.00000
  Fe   0.0347787  -0.0563889   0.2509590 SPIN=   4.00000
  Fe   0.0563889  -0.0347787  -0.2509590 SPIN=   4.00000
%ENDBLOCK POSITIONS_FRAC

# Note: total spin =   8.00

KPOINTS_MP_SPACING 0.07

%BLOCK SPECIES_POT
QC5
%ENDBLOCK SPECIES_POT

%BLOCK HUBBARD_U
Fe d:4.0
%ENDBLOCK HUBBARD_U

SNAP_TO_SYMMETRY
SYMMETRY_GENERATE

