#              Generated by Buildcell
#
# at 12:07:23 (GMT+0.0) 24th November 2020
# in /lustre/scratch/uccabz1/launch_tmp
# on node-c12d-031
# by uccabz1
#
# compiler GCC version 4.9.2
# options -cpp -iprefix /lustre/shared/ucl/apps/gcc/4.9.2/bin/../lib/gcc/x86_64-unknown-linux-gnu/4.9.2/ -mtune=corei7 -march=x86-64 -g -Og
#
# seed   134299428 -1962796011 -2039759155  1612402252 -1239169167 -1698480714  1027313194  1144318925  -585551454  -812738681 -2137949323  2053320191
#
#      Author: C. J. Pickard (cjp20@cam.ac.uk)
#                Space group: Cm
#

%BLOCK LATTICE_ABC
      4.17271      6.19389      6.19389
     89.04239     88.87725     88.87725
%ENDBLOCK LATTICE_ABC

%BLOCK POSITIONS_FRAC
  Li  -0.0783944   0.4385060   0.4385060 SPIN=   0.00000
  Li  -0.3561037   0.1259874   0.1259874 SPIN=   0.00000
   O  -0.2950315   0.4270591  -0.2446952 SPIN=   0.00000
   O  -0.8072823   0.1950889  -0.2385499 SPIN=   0.00000
   O  -0.4126650   0.1445223  -0.5367470 SPIN=   0.00000
   P  -0.4376928   0.2060379  -0.2915475 SPIN=   0.00000
   O  -0.2950315  -0.2446952   0.4270591 SPIN=   0.00000
   O  -0.8072823  -0.2385499   0.1950889 SPIN=   0.00000
   O  -0.4126650  -0.5367470   0.1445223 SPIN=   0.00000
   P  -0.4376928  -0.2915475   0.2060379 SPIN=   0.00000
   O   0.4829173  -0.1687120  -0.1687120 SPIN=   0.00000
   O   0.1418447   0.1609310   0.1609310 SPIN=   0.00000
  Fe   0.1371465   0.4922391  -0.0647562 SPIN=   4.00000
  Fe   0.1371465  -0.0647562   0.4922391 SPIN=   4.00000
%ENDBLOCK POSITIONS_FRAC

# Note: total spin =   8.00

KPOINTS_MP_SPACING 0.07

%BLOCK SPECIES_POT
QC5
%ENDBLOCK SPECIES_POT

%BLOCK HUBBARD_U
Fe d:4.0
%ENDBLOCK HUBBARD_U

SNAP_TO_SYMMETRY
SYMMETRY_GENERATE

