#              Generated by Buildcell
#
# at 06:02:42 (GMT+0.0) 24th November 2020
# in /lustre/scratch/uccabz1/launch_tmp
# on node-c12e-025
# by uccabz1
#
# compiler GCC version 4.9.2
# options -cpp -iprefix /lustre/shared/ucl/apps/gcc/4.9.2/bin/../lib/gcc/x86_64-unknown-linux-gnu/4.9.2/ -mtune=corei7 -march=x86-64 -g -Og
#
# seed  1612138064   552662772   526076447  -817081736 -1767152753   336907356  -861660112 -1957050915  1669192944 -2017848350   144733742 -1748968453
#
#      Author: C. J. Pickard (cjp20@cam.ac.uk)
#                Space group: Cc
#

%BLOCK LATTICE_ABC
      4.61863      5.75613      6.48238
     87.69414     69.13022     83.51522
%ENDBLOCK LATTICE_ABC

%BLOCK POSITIONS_FRAC
  Li  -0.0305816   0.0356446   0.0700048 SPIN=   0.00000
  Li   0.0394232  -0.4643554  -0.0700048 SPIN=   0.00000
   O   0.0064518   0.4238120  -0.3722788 SPIN=   0.00000
   O  -0.4697188   0.3947480  -0.0100738 SPIN=   0.00000
   O  -0.5241368   0.6764502  -0.2949680 SPIN=   0.00000
   O  -0.4878229   0.2470961  -0.3629891 SPIN=   0.00000
   P  -0.3502305   0.4326791  -0.2672660 SPIN=   0.00000
   O   0.6341730  -0.0761880   0.3722788 SPIN=   0.00000
   O   0.5202074  -0.1052520   0.0100738 SPIN=   0.00000
   O   0.1808952   0.1764502   0.2949680 SPIN=   0.00000
   O   0.1491880  -0.2529039   0.3629891 SPIN=   0.00000
   P   0.3825034  -0.0673209   0.2672660 SPIN=   0.00000
  Fe  -0.2151728  -0.0671644  -0.3595942 SPIN=   4.00000
  Fe   0.4252330   0.4328356   0.3595942 SPIN=   4.00000
%ENDBLOCK POSITIONS_FRAC

# Note: total spin =   8.00

KPOINTS_MP_SPACING 0.07

%BLOCK SPECIES_POT
QC5
%ENDBLOCK SPECIES_POT

%BLOCK HUBBARD_U
Fe d:4.0
%ENDBLOCK HUBBARD_U

SNAP_TO_SYMMETRY
SYMMETRY_GENERATE

