#              Generated by Buildcell
#
# at 18:18:09 (GMT+0.0) 26th November 2020
# in /lustre/scratch/uccabz1/launch_tmp
# on node-c12g-033
# by uccabz1
#
# compiler GCC version 4.9.2
# options -cpp -iprefix /lustre/shared/ucl/apps/gcc/4.9.2/bin/../lib/gcc/x86_64-unknown-linux-gnu/4.9.2/ -mtune=corei7 -march=x86-64 -g -Og
#
# seed  -520120286  -909462882  1981497261  -746644248  -317031750   522323426 -1037263377    58161706 -1818150308 -1798762046  1145864846   676437387
#
#      Author: C. J. Pickard (cjp20@cam.ac.uk)
#                Space group: Cm
#

%BLOCK LATTICE_ABC
      6.10068      7.56645      7.56645
     96.06510    105.06685    105.06685
%ENDBLOCK LATTICE_ABC

%BLOCK POSITIONS_FRAC
  Li  -0.1021833   0.0364229  -0.3923663 SPIN=   0.00000
  Li  -0.1021833  -0.3923663   0.0364229 SPIN=   0.00000
  Li   0.4160362  -0.4025702  -0.4025702 SPIN=   0.00000
  Li  -0.2991090  -0.0868446  -0.0868446 SPIN=   0.00000
   O   0.1641796  -0.3046867   0.3459487 SPIN=   0.00000
   O   0.1539244   0.0257212   0.4699027 SPIN=   0.00000
   O  -0.1448285  -0.1520059   0.1744186 SPIN=   0.00000
   O  -0.1715737  -0.2530981   0.4747763 SPIN=   0.00000
   P   0.0071148  -0.1791032   0.3664606 SPIN=   0.00000
   O   0.1641796   0.3459487  -0.3046867 SPIN=   0.00000
   O   0.1539244   0.4699027   0.0257212 SPIN=   0.00000
   O  -0.1448285   0.1744186  -0.1520059 SPIN=   0.00000
   O  -0.1715737   0.4747763  -0.2530981 SPIN=   0.00000
   P   0.0071148   0.3664606  -0.1791032 SPIN=   0.00000
   O  -0.2073765   0.1144550   0.3491163 SPIN=   0.00000
   O  -0.4839715   0.2635567   0.4813403 SPIN=   0.00000
   O  -0.6683652  -0.0010273   0.2163934 SPIN=   0.00000
   O  -0.4737694  -0.0564466   0.5316098 SPIN=   0.00000
   O  -0.2073765   0.3491163   0.1144550 SPIN=   0.00000
   O  -0.4839715   0.4813403   0.2635567 SPIN=   0.00000
   O  -0.6683652   0.2163934  -0.0010273 SPIN=   0.00000
   O  -0.4737694   0.5316098  -0.0564466 SPIN=   0.00000
   P   0.1027324  -0.1313595  -0.1313595 SPIN=   0.00000
   P  -0.3286787   0.1690303   0.1690303 SPIN=   0.00000
  Fe   0.4732887  -0.2232728   0.2348242 SPIN=   6.17563
  Fe   0.4732887   0.2348242  -0.2232728 SPIN=   6.17563
  Fe  -0.1610404   0.4723033   0.4723033 SPIN=   0.57224
  Fe   0.1733523   0.2141359   0.2141359 SPIN=   3.07651
%ENDBLOCK POSITIONS_FRAC

# Note: total spin =  16.00

KPOINTS_MP_SPACING 0.07

%BLOCK SPECIES_POT
QC5
%ENDBLOCK SPECIES_POT

%BLOCK HUBBARD_U
Fe d:4.0
%ENDBLOCK HUBBARD_U

SNAP_TO_SYMMETRY
SYMMETRY_GENERATE

