#              Generated by Buildcell
#
# at 00:02:32 (GMT+0.0) 27th November 2020
# in /lustre/scratch/uccabz1/launch_tmp
# on node-c12c-020
# by uccabz1
#
# compiler GCC version 4.9.2
# options -cpp -iprefix /lustre/shared/ucl/apps/gcc/4.9.2/bin/../lib/gcc/x86_64-unknown-linux-gnu/4.9.2/ -mtune=corei7 -march=x86-64 -g -Og
#
# seed  1982538120  -303507207   -87928394   -88934940 -2117137783  -510847718   339850220  2135313591   170268557   907027303  1416536070 -1339565971
#
#      Author: C. J. Pickard (cjp20@cam.ac.uk)
#                Space group: P21/c
#

%BLOCK LATTICE_ABC
      5.71858      7.38310      7.90400
     90.00000     90.00000    106.48259
%ENDBLOCK LATTICE_ABC

%BLOCK POSITIONS_FRAC
  Li  -0.0461860  -0.0922869  -0.1733008 SPIN=   0.00000
  Li  -0.4538140  -0.4077131   0.3266992 SPIN=   0.00000
  Li   0.0461860   0.0922869   0.1733008 SPIN=   0.00000
  Li   0.4538140   0.4077131  -0.3266992 SPIN=   0.00000
   O  -0.2036122  -0.4348222  -0.0955107 SPIN=   0.00000
   O  -0.1829634  -0.4984151  -0.4176755 SPIN=   0.00000
   O   0.1587295  -0.2567850  -0.2863048 SPIN=   0.00000
   O   0.1006205  -0.5986939  -0.2211653 SPIN=   0.00000
   P  -0.0393915  -0.4483092  -0.2462621 SPIN=   0.00000
   O  -0.2963878  -0.0651778   0.4044893 SPIN=   0.00000
   O  -0.3170366  -0.0015849   0.0823245 SPIN=   0.00000
   O  -0.6587295  -0.2432150   0.2136952 SPIN=   0.00000
   O  -0.6006205   0.0986939   0.2788347 SPIN=   0.00000
   P  -0.4606085  -0.0516908   0.2537379 SPIN=   0.00000
   O   0.2036122   0.4348222   0.0955107 SPIN=   0.00000
   O   0.1829634   0.4984151   0.4176755 SPIN=   0.00000
   O  -0.1587295   0.2567850   0.2863048 SPIN=   0.00000
   O  -0.1006205   0.5986939   0.2211653 SPIN=   0.00000
   P   0.0393915   0.4483092   0.2462621 SPIN=   0.00000
   O   0.2963878   0.0651778  -0.4044893 SPIN=   0.00000
   O   0.3170366   0.0015849  -0.0823245 SPIN=   0.00000
   O   0.6587295   0.2432150  -0.2136952 SPIN=   0.00000
   O   0.6006205  -0.0986939  -0.2788347 SPIN=   0.00000
   P   0.4606085   0.0516908  -0.2537379 SPIN=   0.00000
  Fe  -0.1146836   0.2210636  -0.4535047 SPIN=   4.00000
  Fe   0.6146836   0.2789364   0.0464953 SPIN=   4.00000
  Fe   0.1146836  -0.2210636   0.4535047 SPIN=   4.00000
  Fe  -0.6146836  -0.2789364  -0.0464953 SPIN=   4.00000
%ENDBLOCK POSITIONS_FRAC

# Note: total spin =  16.00

KPOINTS_MP_SPACING 0.07

%BLOCK SPECIES_POT
QC5
%ENDBLOCK SPECIES_POT

%BLOCK HUBBARD_U
Fe d:4.0
%ENDBLOCK HUBBARD_U

SNAP_TO_SYMMETRY
SYMMETRY_GENERATE

