#              Generated by Buildcell
#
# at 13:42:31 (GMT+0.0) 24th November 2020
# in /scratch/scratch/uccabz1/launch_tmp
# on node-a14b-028
# by uccabz1
#
# compiler GCC version 4.9.2
# options -cpp -iprefix /scratch/UCL/applications/gcc/4.9.2/bin/../lib/gcc/x86_64-unknown-linux-gnu/4.9.2/ -mtune=corei7 -march=x86-64 -g -O2
#
# seed  -322486391 -1839082683 -1481295271  1965772412  1076309774  2082752275  -146760678 -1324854170 -1560496380   981244213  1981404264   781765624
#
#      Author: C. J. Pickard (cjp20@cam.ac.uk)
#                Space group: P-1
#

%BLOCK LATTICE_ABC
      4.50067      4.75849      8.19660
     90.91808     96.18379    113.26487
%ENDBLOCK LATTICE_ABC

%BLOCK POSITIONS_FRAC
  Li  -0.2286677  -0.4019070   0.2701636 SPIN=   0.00000
  Li   0.2286677   0.4019070  -0.2701636 SPIN=   0.00000
   O  -0.1108091   0.0554680   0.3660403 SPIN=   0.00000
   O   0.2051729   0.5551846   0.2265568 SPIN=   0.00000
   O   0.4139790   0.1466816   0.2314882 SPIN=   0.00000
   P   0.0877978   0.1967462   0.2247851 SPIN=   0.00000
   O   0.1108091  -0.0554680  -0.3660403 SPIN=   0.00000
   O  -0.2051729  -0.5551846  -0.2265568 SPIN=   0.00000
   O  -0.4139790  -0.1466816  -0.2314882 SPIN=   0.00000
   P  -0.0877978  -0.1967462  -0.2247851 SPIN=   0.00000
   O  -0.5000000  -0.5000000  -0.5000000 SPIN=   0.00000
   O   0.5000000   0.5000000   0.0000000 SPIN=   0.00000
  Fe  -0.5000000   0.0000000  -0.0000000 SPIN=   2.95230
  Fe   0.5000000   0.0000000   0.5000000 SPIN=   5.04770
%ENDBLOCK POSITIONS_FRAC

# Note: total spin =   8.00

KPOINTS_MP_SPACING 0.07

%BLOCK SPECIES_POT
QC5
%ENDBLOCK SPECIES_POT

%BLOCK HUBBARD_U
Fe d:4.0
%ENDBLOCK HUBBARD_U

SNAP_TO_SYMMETRY
SYMMETRY_GENERATE

