#              Generated by Buildcell
#
# at 08:05:03 (GMT+0.0) 24th November 2020
# in /lustre/scratch/uccabz1/launch_tmp
# on node-c12n-026
# by uccabz1
#
# compiler GCC version 4.9.2
# options -cpp -iprefix /lustre/shared/ucl/apps/gcc/4.9.2/bin/../lib/gcc/x86_64-unknown-linux-gnu/4.9.2/ -mtune=corei7 -march=x86-64 -g -Og
#
# seed  -109162584 -1503214406  1082681941   645615385  1758499352  1809508264  -636465390 -1556406224   224985064  1582736395  1474541585 -2067437546
#
#      Author: C. J. Pickard (cjp20@cam.ac.uk)
#                Space group: Pcc2
#

%BLOCK LATTICE_ABC
      4.17494      4.90576      7.81202
     90.00000     90.00000     90.00000
%ENDBLOCK LATTICE_ABC

%BLOCK POSITIONS_FRAC
  Li  -0.5000000  -0.5000000  -0.3952626 SPIN=   0.00000
  Li  -0.5000000  -0.5000000   0.1047374 SPIN=   0.00000
   O   0.2876422   0.6745424  -0.1144951 SPIN=   0.00000
   O   0.2120455   0.2069975  -0.2653849 SPIN=   0.00000
   O  -0.2876422  -0.6745424  -0.1144951 SPIN=   0.00000
   O  -0.2120455  -0.2069975  -0.2653849 SPIN=   0.00000
   O   0.2876422  -0.6745424   0.3855049 SPIN=   0.00000
   O   0.2120455  -0.2069975   0.2346151 SPIN=   0.00000
   O  -0.2876422   0.6745424   0.3855049 SPIN=   0.00000
   O  -0.2120455   0.2069975   0.2346151 SPIN=   0.00000
   P  -0.0000000   0.5000000  -0.1787256 SPIN=   0.00000
   P   0.0000000  -0.5000000   0.3212744 SPIN=   0.00000
  Fe  -0.0000000  -0.0000000   0.0109229 SPIN=   4.00000
  Fe   0.0000000   0.0000000  -0.4890771 SPIN=   4.00000
%ENDBLOCK POSITIONS_FRAC

# Note: total spin =   8.00

KPOINTS_MP_SPACING 0.07

%BLOCK SPECIES_POT
QC5
%ENDBLOCK SPECIES_POT

%BLOCK HUBBARD_U
Fe d:4.0
%ENDBLOCK HUBBARD_U

SNAP_TO_SYMMETRY
SYMMETRY_GENERATE

