#              Generated by Buildcell
#
# at 00:53:46 (GMT+0.0) 27th November 2020
# in /lustre/scratch/uccabz1/launch_tmp
# on node-c12j-030
# by uccabz1
#
# compiler GCC version 4.9.2
# options -cpp -iprefix /lustre/shared/ucl/apps/gcc/4.9.2/bin/../lib/gcc/x86_64-unknown-linux-gnu/4.9.2/ -mtune=corei7 -march=x86-64 -g -Og
#
# seed -1525411354   948385382  -160283326  1266282636  1488193803   641554128    47924637  -151024228  -952681516  1976980947  -785016757 -1178123633
#
#      Author: C. J. Pickard (cjp20@cam.ac.uk)
#                Space group: P-1
#

%BLOCK LATTICE_ABC
      6.23011      6.75467      7.66853
     85.74363     87.98530     84.11508
%ENDBLOCK LATTICE_ABC

%BLOCK POSITIONS_FRAC
  Li   0.4888094   0.2643293   0.0387569 SPIN=   0.00000
  Li  -0.4888094  -0.2643293  -0.0387569 SPIN=   0.00000
  Li  -0.2159766   0.3523107  -0.2684292 SPIN=   0.00000
  Li   0.2159766  -0.3523107   0.2684292 SPIN=   0.00000
   O  -0.1170178   0.2383284   0.1840051 SPIN=   0.00000
   O   0.1331880   0.3792687   0.3981742 SPIN=   0.00000
   O   0.2845360   0.1013401   0.2247815 SPIN=   0.00000
   O   0.1973523   0.4410966   0.0754063 SPIN=   0.00000
   P   0.1125138   0.2890398   0.2169304 SPIN=   0.00000
   O   0.1170178  -0.2383284  -0.1840051 SPIN=   0.00000
   O  -0.1331880  -0.3792687  -0.3981742 SPIN=   0.00000
   O  -0.2845360  -0.1013401  -0.2247815 SPIN=   0.00000
   O  -0.1973523  -0.4410966  -0.0754063 SPIN=   0.00000
   P  -0.1125138  -0.2890398  -0.2169304 SPIN=   0.00000
   O  -0.3877695   0.1109994   0.3904551 SPIN=   0.00000
   O  -0.1065608  -0.1857754   0.3203997 SPIN=   0.00000
   O  -0.4938585  -0.2337571   0.3139236 SPIN=   0.00000
   O  -0.3316025  -0.0122169   0.0796622 SPIN=   0.00000
   P  -0.3330460  -0.0692056   0.2798802 SPIN=   0.00000
   O   0.3877695  -0.1109994  -0.3904551 SPIN=   0.00000
   O   0.1065608   0.1857754  -0.3203997 SPIN=   0.00000
   O   0.4938585   0.2337571  -0.3139236 SPIN=   0.00000
   O   0.3316025   0.0122169  -0.0796622 SPIN=   0.00000
   P   0.3330460   0.0692056  -0.2798802 SPIN=   0.00000
  Fe  -0.2739602  -0.4905962   0.3193284 SPIN=   3.93403
  Fe   0.2739602   0.4905962  -0.3193284 SPIN=   3.93403
  Fe  -0.0000000   0.0000000   0.0000000 SPIN=   4.27433
  Fe   0.0000000   0.0000000   0.5000000 SPIN=   3.85760
%ENDBLOCK POSITIONS_FRAC

# Note: total spin =  16.00

KPOINTS_MP_SPACING 0.07

%BLOCK SPECIES_POT
QC5
%ENDBLOCK SPECIES_POT

%BLOCK HUBBARD_U
Fe d:4.0
%ENDBLOCK HUBBARD_U

SNAP_TO_SYMMETRY
SYMMETRY_GENERATE

