#              Generated by Buildcell
#
# at 20:18:58 (GMT+0.0) 26th November 2020
# in /lustre/scratch/uccabz1/launch_tmp
# on node-c12p-025
# by uccabz1
#
# compiler GCC version 4.9.2
# options -cpp -iprefix /lustre/shared/ucl/apps/gcc/4.9.2/bin/../lib/gcc/x86_64-unknown-linux-gnu/4.9.2/ -mtune=corei7 -march=x86-64 -g -Og
#
# seed  1918917537 -2050937416 -1140601628  -399519614 -1835145306  -796823629  1014041893  1804355942 -1216211566   177054495 -1874488863  1959258058
#
#      Author: C. J. Pickard (cjp20@cam.ac.uk)
#                Space group: P21/c
#

%BLOCK LATTICE_ABC
      4.02280      7.07645     11.24144
     90.00000     90.00000     90.47979
%ENDBLOCK LATTICE_ABC

%BLOCK POSITIONS_FRAC
  Li  -0.2195307   0.1879162  -0.4910671 SPIN=   0.00000
  Li   0.2195307   0.3120838   0.0089329 SPIN=   0.00000
  Li   0.2195307  -0.1879162   0.4910671 SPIN=   0.00000
  Li  -0.2195307  -0.3120838  -0.0089329 SPIN=   0.00000
   O   0.1163353  -0.2551120   0.3054933 SPIN=   0.00000
   O   0.6364425  -0.2613451   0.1685808 SPIN=   0.00000
   O   0.1337977  -0.4366614   0.1047391 SPIN=   0.00000
   O   0.1337757  -0.0827706   0.1030190 SPIN=   0.00000
   P   0.2462683  -0.2566873   0.1768522 SPIN=   0.00000
   O  -0.1163353  -0.2448880  -0.1945067 SPIN=   0.00000
   O  -0.6364425  -0.2386549  -0.3314192 SPIN=   0.00000
   O  -0.1337977  -0.0633386  -0.3952609 SPIN=   0.00000
   O  -0.1337757  -0.4172294  -0.3969810 SPIN=   0.00000
   P  -0.2462683  -0.2433127  -0.3231478 SPIN=   0.00000
   O  -0.1163353   0.2551120  -0.3054933 SPIN=   0.00000
   O  -0.6364425   0.2613451  -0.1685808 SPIN=   0.00000
   O  -0.1337977   0.4366614  -0.1047391 SPIN=   0.00000
   O  -0.1337757   0.0827706  -0.1030190 SPIN=   0.00000
   P  -0.2462683   0.2566873  -0.1768522 SPIN=   0.00000
   O   0.1163353   0.2448880   0.1945067 SPIN=   0.00000
   O   0.6364425   0.2386549   0.3314192 SPIN=   0.00000
   O   0.1337977   0.0633386   0.3952609 SPIN=   0.00000
   O   0.1337757   0.4172294   0.3969810 SPIN=   0.00000
   P   0.2462683   0.2433127   0.3231478 SPIN=   0.00000
  Fe   0.2843741  -0.0508789  -0.1750956 SPIN=   4.00000
  Fe  -0.2843741  -0.4491211   0.3249044 SPIN=   4.00000
  Fe  -0.2843741   0.0508789   0.1750956 SPIN=   4.00000
  Fe   0.2843741   0.4491211  -0.3249044 SPIN=   4.00000
%ENDBLOCK POSITIONS_FRAC

# Note: total spin =  16.00

KPOINTS_MP_SPACING 0.07

%BLOCK SPECIES_POT
QC5
%ENDBLOCK SPECIES_POT

%BLOCK HUBBARD_U
Fe d:4.0
%ENDBLOCK HUBBARD_U

SNAP_TO_SYMMETRY
SYMMETRY_GENERATE

