#              Generated by Buildcell
#
# at 12:16:08 (GMT+0.0) 24th November 2020
# in /scratch/scratch/uccabz1/launch_tmp
# on node-a14f-014
# by uccabz1
#
# compiler GCC version 4.9.2
# options -cpp -iprefix /scratch/UCL/applications/gcc/4.9.2/bin/../lib/gcc/x86_64-unknown-linux-gnu/4.9.2/ -mtune=corei7 -march=x86-64 -g -O2
#
# seed  -422712986 -1755484467    50924133   452634986   642501187  -222603700  -262813478  -565067862  -664838571  1170039559 -1775199189 -1886198282
#
#      Author: C. J. Pickard (cjp20@cam.ac.uk)
#                Space group: Pcc2
#

%BLOCK LATTICE_ABC
      3.78526      4.39724      9.61268
     90.00000     90.00000     90.00000
%ENDBLOCK LATTICE_ABC

%BLOCK POSITIONS_FRAC
  Li   0.0000000  -0.0000000   0.0178213 SPIN=   0.00000
  Li   0.0000000  -0.0000000  -0.4821787 SPIN=   0.00000
   O   0.6456624   0.2506755  -0.6043678 SPIN=   0.00000
   O   0.3537899   0.2507526  -0.3597475 SPIN=   0.00000
   O  -0.6456624  -0.2506755  -0.6043678 SPIN=   0.00000
   O  -0.3537899  -0.2507526  -0.3597475 SPIN=   0.00000
   O  -0.6456624   0.2506755  -0.1043678 SPIN=   0.00000
   O  -0.3537899   0.2507526   0.1402525 SPIN=   0.00000
   O   0.6456624  -0.2506755  -0.1043678 SPIN=   0.00000
   O   0.3537899  -0.2507526   0.1402525 SPIN=   0.00000
   P  -0.5000000   0.0000000   0.2539845 SPIN=   0.00000
   P  -0.5000000   0.0000000  -0.2460155 SPIN=   0.00000
  Fe   0.0000000   0.5000000  -0.2321853 SPIN=   4.00000
  Fe   0.0000000   0.5000000   0.2678147 SPIN=   4.00000
%ENDBLOCK POSITIONS_FRAC

# Note: total spin =   8.00

KPOINTS_MP_SPACING 0.07

%BLOCK SPECIES_POT
QC5
%ENDBLOCK SPECIES_POT

%BLOCK HUBBARD_U
Fe d:4.0
%ENDBLOCK HUBBARD_U

SNAP_TO_SYMMETRY
SYMMETRY_GENERATE

