#              Generated by Buildcell
#
# at 12:15:42 (GMT+0.0) 24th November 2020
# in /scratch/scratch/uccabz1/launch_tmp
# on node-k10a-022
# by uccabz1
#
# compiler GCC version 4.9.2
# options -cpp -iprefix /scratch/UCL/applications/gcc/4.9.2/bin/../lib/gcc/x86_64-unknown-linux-gnu/4.9.2/ -mtune=corei7 -march=x86-64 -g -O2
#
# seed   237903556  1917350088  -934415275  1559488000   348346794 -1930078714  -315548413  1360357547  1402332466  2143786585   477400377  -650203157
#
#      Author: C. J. Pickard (cjp20@cam.ac.uk)
#                Space group: Pm
#

%BLOCK LATTICE_ABC
      4.01802      4.33535      9.26500
     90.00000     90.00000     97.53100
%ENDBLOCK LATTICE_ABC

%BLOCK POSITIONS_FRAC
  Li  -0.1955455   0.2226182   0.5000000 SPIN=   0.00000
  Li  -0.1344452   0.4747617   0.0000000 SPIN=   0.00000
   O  -0.3134570  -0.1545634   0.1321716 SPIN=   0.00000
   O  -0.2269552   0.3729881   0.2689788 SPIN=   0.00000
   O   0.0510899  -0.0606685   0.3635372 SPIN=   0.00000
   O   0.2551282   0.2009043   0.1331201 SPIN=   0.00000
   P  -0.0684194   0.0779740   0.2184607 SPIN=   0.00000
   O  -0.3134570  -0.1545634  -0.1321716 SPIN=   0.00000
   O  -0.2269552   0.3729881  -0.2689788 SPIN=   0.00000
   O   0.0510899  -0.0606685  -0.3635372 SPIN=   0.00000
   O   0.2551282   0.2009043  -0.1331201 SPIN=   0.00000
   P  -0.0684194   0.0779740  -0.2184607 SPIN=   0.00000
  Fe   0.3671454  -0.3718946  -0.2895423 SPIN=   4.00000
  Fe   0.3671454  -0.3718946   0.2895423 SPIN=   4.00000
%ENDBLOCK POSITIONS_FRAC

# Note: total spin =   8.00

KPOINTS_MP_SPACING 0.07

%BLOCK SPECIES_POT
QC5
%ENDBLOCK SPECIES_POT

%BLOCK HUBBARD_U
Fe d:4.0
%ENDBLOCK HUBBARD_U

SNAP_TO_SYMMETRY
SYMMETRY_GENERATE

