#              Generated by Buildcell
#
# at 00:24:06 (GMT+0.0) 27th November 2020
# in /lustre/scratch/uccabz1/launch_tmp
# on node-c12e-026
# by uccabz1
#
# compiler GCC version 4.9.2
# options -cpp -iprefix /lustre/shared/ucl/apps/gcc/4.9.2/bin/../lib/gcc/x86_64-unknown-linux-gnu/4.9.2/ -mtune=corei7 -march=x86-64 -g -Og
#
# seed  -766686206   537839871   271070550   345601834  -521956439 -1122678610  1598875235  1529384780 -1211902700 -1782140099  1215401594   968755564
#
#      Author: C. J. Pickard (cjp20@cam.ac.uk)
#                Space group: P-1
#

%BLOCK LATTICE_ABC
      4.69572      5.43832     12.67761
     84.70530     86.08677     83.93471
%ENDBLOCK LATTICE_ABC

%BLOCK POSITIONS_FRAC
  Li  -0.0760379  -0.2912582   0.0702969 SPIN=   0.00000
  Li   0.0760379   0.2912582  -0.0702969 SPIN=   0.00000
  Li   0.0116899   0.2980275   0.2853550 SPIN=   0.00000
  Li  -0.0116899  -0.2980275  -0.2853550 SPIN=   0.00000
   O   0.1773066   0.0705714   0.1651404 SPIN=   0.00000
   O   0.5890899  -0.2018950   0.2595443 SPIN=   0.00000
   O   0.0980772  -0.3289878   0.2879052 SPIN=   0.00000
   O   0.3627123  -0.3668343   0.1109151 SPIN=   0.00000
   P   0.3005617  -0.1939072   0.2025866 SPIN=   0.00000
   O  -0.1773066  -0.0705714  -0.1651404 SPIN=   0.00000
   O  -0.5890899   0.2018950  -0.2595443 SPIN=   0.00000
   O  -0.0980772   0.3289878  -0.2879052 SPIN=   0.00000
   O  -0.3627123   0.3668343  -0.1109151 SPIN=   0.00000
   P  -0.3005617   0.1939072  -0.2025866 SPIN=   0.00000
   O   0.7955132   0.1910229   0.4305655 SPIN=   0.00000
   O   0.3118587   0.0298196   0.3957687 SPIN=   0.00000
   O   0.3042722   0.4574410   0.4475229 SPIN=   0.00000
   O   0.5096945   0.3561166   0.2673307 SPIN=   0.00000
   P   0.4974628   0.2561527   0.3863152 SPIN=   0.00000
   O  -0.7955132  -0.1910229  -0.4305655 SPIN=   0.00000
   O  -0.3118587  -0.0298196  -0.3957687 SPIN=   0.00000
   O  -0.3042722  -0.4574410  -0.4475229 SPIN=   0.00000
   O  -0.5096945  -0.3561166  -0.2673307 SPIN=   0.00000
   P  -0.4974628  -0.2561527  -0.3863152 SPIN=   0.00000
  Fe   0.4504968  -0.2343073  -0.1109353 SPIN=   4.56835
  Fe  -0.4504968   0.2343073   0.1109353 SPIN=   4.56835
  Fe  -0.1790005  -0.2153642   0.4150922 SPIN=   3.43165
  Fe   0.1790005   0.2153642  -0.4150922 SPIN=   3.43165
%ENDBLOCK POSITIONS_FRAC

# Note: total spin =  16.00

KPOINTS_MP_SPACING 0.07

%BLOCK SPECIES_POT
QC5
%ENDBLOCK SPECIES_POT

%BLOCK HUBBARD_U
Fe d:4.0
%ENDBLOCK HUBBARD_U

SNAP_TO_SYMMETRY
SYMMETRY_GENERATE

