#              Generated by Buildcell
#
# at 08:41:25 (GMT+0.0) 24th November 2020
# in /scratch/scratch/uccabz1/launch_tmp
# on node-a14c-005
# by uccabz1
#
# compiler GCC version 4.9.2
# options -cpp -iprefix /scratch/UCL/applications/gcc/4.9.2/bin/../lib/gcc/x86_64-unknown-linux-gnu/4.9.2/ -mtune=corei7 -march=x86-64 -g -O2
#
# seed  1108840495  -421422623 -1435694549    88346297 -1933538365  -141980409  1589991948  -989743088  1001168048  -880704839 -1684159662  1035323542
#
#      Author: C. J. Pickard (cjp20@cam.ac.uk)
#                Space group: P2
#

%BLOCK LATTICE_ABC
      3.91702      4.72379      8.76535
     99.42017     90.00000     90.00000
%ENDBLOCK LATTICE_ABC

%BLOCK POSITIONS_FRAC
  Li  -0.4613418   0.0383412   0.1754238 SPIN=   0.00000
  Li  -0.4613418  -0.0383412  -0.1754238 SPIN=   0.00000
   O   0.5596223  -0.7170157  -0.4362340 SPIN=   0.00000
   O   0.1467180  -0.2993867  -0.3322440 SPIN=   0.00000
   O   0.0524409  -0.7708167  -0.2521220 SPIN=   0.00000
   O   0.5580443  -0.4747277  -0.1498353 SPIN=   0.00000
   P   0.3441754  -0.5724838  -0.2985713 SPIN=   0.00000
   O   0.5596223   0.7170157   0.4362340 SPIN=   0.00000
   O   0.1467180   0.2993867   0.3322440 SPIN=   0.00000
   O   0.0524409   0.7708167   0.2521220 SPIN=   0.00000
   O   0.5580443   0.4747277   0.1498353 SPIN=   0.00000
   P   0.3441754   0.5724838   0.2985713 SPIN=   0.00000
  Fe   0.0283009   0.5000000  -0.0000000 SPIN=   3.09264
  Fe  -0.0328537   0.0000000  -0.5000000 SPIN=   4.90736
%ENDBLOCK POSITIONS_FRAC

# Note: total spin =   8.00

KPOINTS_MP_SPACING 0.07

%BLOCK SPECIES_POT
QC5
%ENDBLOCK SPECIES_POT

%BLOCK HUBBARD_U
Fe d:4.0
%ENDBLOCK HUBBARD_U

SNAP_TO_SYMMETRY
SYMMETRY_GENERATE

