#              Generated by Buildcell
#
# at 09:24:33 (GMT+0.0) 24th November 2020
# in /lustre/scratch/uccabz1/launch_tmp
# on node-c12h-026
# by uccabz1
#
# compiler GCC version 4.9.2
# options -cpp -iprefix /lustre/shared/ucl/apps/gcc/4.9.2/bin/../lib/gcc/x86_64-unknown-linux-gnu/4.9.2/ -mtune=corei7 -march=x86-64 -g -Og
#
# seed   -73984253  -758245877  1487982627   716233591 -2119942851  -717092428   949559057 -1544706990  -706473698   536921599  1440826554   426609452
#
#      Author: C. J. Pickard (cjp20@cam.ac.uk)
#                Space group: P4
#

%BLOCK LATTICE_ABC
      5.30137      5.49371      5.49371
     90.00000     90.00000     90.00000
%ENDBLOCK LATTICE_ABC

%BLOCK POSITIONS_FRAC
  Li   0.1501530   0.0000000   0.0000000 SPIN=   0.00000
  Li   0.1485469   0.5000000   0.5000000 SPIN=   0.00000
   O   0.4933006   0.2108979   0.6308802 SPIN=   0.00000
   O   0.1090209   0.1574163   0.3423004 SPIN=   0.00000
   O   0.4933006  -0.2108979  -0.6308802 SPIN=   0.00000
   O   0.1090209  -0.1574163  -0.3423004 SPIN=   0.00000
   O   0.4933006  -0.6308802   0.2108979 SPIN=   0.00000
   O   0.1090209  -0.3423004   0.1574163 SPIN=   0.00000
   O   0.4933006   0.6308802  -0.2108979 SPIN=   0.00000
   O   0.1090209   0.3423004  -0.1574163 SPIN=   0.00000
   P  -0.3528814   0.5000000  -0.5000000 SPIN=   0.00000
   P  -0.3514223  -0.0000000   0.0000000 SPIN=   0.00000
  Fe  -0.2085552   0.0000000  -0.5000000 SPIN=   4.00000
  Fe  -0.2085552   0.5000000  -0.0000000 SPIN=   4.00000
%ENDBLOCK POSITIONS_FRAC

# Note: total spin =   8.00

KPOINTS_MP_SPACING 0.07

%BLOCK SPECIES_POT
QC5
%ENDBLOCK SPECIES_POT

%BLOCK HUBBARD_U
Fe d:4.0
%ENDBLOCK HUBBARD_U

SNAP_TO_SYMMETRY
SYMMETRY_GENERATE

