#              Generated by Buildcell
#
# at 07:39:27 (GMT+0.0) 24th November 2020
# in /scratch/scratch/uccabz1/launch_tmp
# on node-a14c-005
# by uccabz1
#
# compiler GCC version 4.9.2
# options -cpp -iprefix /scratch/UCL/applications/gcc/4.9.2/bin/../lib/gcc/x86_64-unknown-linux-gnu/4.9.2/ -mtune=corei7 -march=x86-64 -g -O2
#
# seed  1985364772 -1209236799   708875632  1362036528 -1252310216  -271127760 -1523091874   242240822  1040162087  -998860108   117600858  -435039172
#
#      Author: C. J. Pickard (cjp20@cam.ac.uk)
#                Space group: P-1
#

%BLOCK LATTICE_ABC
      3.91512      4.97837      8.33644
     92.98885     98.00231     94.81085
%ENDBLOCK LATTICE_ABC

%BLOCK POSITIONS_FRAC
  Li   0.5000000   0.0000000  -0.0000000 SPIN=   0.00000
  Li   1.0000000   0.5000000   0.0000000 SPIN=   0.00000
   O  -0.4647915  -0.4360952  -0.1481950 SPIN=   0.00000
   O  -0.0080298  -0.0289402  -0.1561490 SPIN=   0.00000
   O  -0.0626502  -0.3979744  -0.3705490 SPIN=   0.00000
   O  -0.5346981  -0.0888057  -0.3673488 SPIN=   0.00000
   P  -0.2811977  -0.2467438  -0.2558378 SPIN=   0.00000
   O   0.4647915   0.4360952   0.1481950 SPIN=   0.00000
   O   0.0080298   0.0289402   0.1561490 SPIN=   0.00000
   O   0.0626502   0.3979744   0.3705490 SPIN=   0.00000
   O   0.5346981   0.0888057   0.3673488 SPIN=   0.00000
   P   0.2811977   0.2467438   0.2558378 SPIN=   0.00000
  Fe   0.2478492   0.2793481  -0.3428127 SPIN=   4.00000
  Fe  -0.2478492  -0.2793481   0.3428127 SPIN=   4.00000
%ENDBLOCK POSITIONS_FRAC

# Note: total spin =   8.00

KPOINTS_MP_SPACING 0.07

%BLOCK SPECIES_POT
QC5
%ENDBLOCK SPECIES_POT

%BLOCK HUBBARD_U
Fe d:4.0
%ENDBLOCK HUBBARD_U

SNAP_TO_SYMMETRY
SYMMETRY_GENERATE

