#              Generated by Buildcell
#
# at 11:36:35 (GMT+0.0) 24th November 2020
# in /scratch/scratch/uccabz1/launch_tmp
# on node-a14b-028
# by uccabz1
#
# compiler GCC version 4.9.2
# options -cpp -iprefix /scratch/UCL/applications/gcc/4.9.2/bin/../lib/gcc/x86_64-unknown-linux-gnu/4.9.2/ -mtune=corei7 -march=x86-64 -g -O2
#
# seed   489320658   276034664 -2020318814   -92221974   896436754 -1599483830  1913377073   570742279 -1885874100  -148835324  -311257933   188240579
#
#      Author: C. J. Pickard (cjp20@cam.ac.uk)
#                Space group: P21
#

%BLOCK LATTICE_ABC
      4.81062      5.50733      6.22236
     90.00000     90.00000    103.93738
%ENDBLOCK LATTICE_ABC

%BLOCK POSITIONS_FRAC
  Li  -0.0900064   0.4236223   0.0360618 SPIN=   0.00000
  Li   0.0900064  -0.4236223  -0.4639382 SPIN=   0.00000
   O  -0.6920339  -0.2690306  -0.1372073 SPIN=   0.00000
   O  -0.1646517  -0.2187191  -0.0153146 SPIN=   0.00000
   O  -0.3649131  -0.5438425  -0.2841177 SPIN=   0.00000
   O  -0.2639636  -0.0918790  -0.3885944 SPIN=   0.00000
   P  -0.3871955  -0.2780072  -0.2047803 SPIN=   0.00000
   O   0.6920339   0.2690306   0.3627927 SPIN=   0.00000
   O   0.1646517   0.2187191   0.4846854 SPIN=   0.00000
   O   0.3649131   0.5438425   0.2158823 SPIN=   0.00000
   O   0.2639636   0.0918790   0.1114056 SPIN=   0.00000
   P   0.3871955   0.2780072   0.2952197 SPIN=   0.00000
  Fe  -0.3267545  -0.1226024   0.2776060 SPIN=   4.00000
  Fe   0.3267545   0.1226024  -0.2223940 SPIN=   4.00000
%ENDBLOCK POSITIONS_FRAC

# Note: total spin =   8.00

KPOINTS_MP_SPACING 0.07

%BLOCK SPECIES_POT
QC5
%ENDBLOCK SPECIES_POT

%BLOCK HUBBARD_U
Fe d:4.0
%ENDBLOCK HUBBARD_U

SNAP_TO_SYMMETRY
SYMMETRY_GENERATE

