#              Generated by Buildcell
#
# at 14:05:59 (GMT+0.0) 24th November 2020
# in /scratch/scratch/uccabz1/launch_tmp
# on node-a14f-013
# by uccabz1
#
# compiler GCC version 4.9.2
# options -cpp -iprefix /scratch/UCL/applications/gcc/4.9.2/bin/../lib/gcc/x86_64-unknown-linux-gnu/4.9.2/ -mtune=corei7 -march=x86-64 -g -O2
#
# seed  1753560729 -1995247981   907038891  -663526390  1523766079  -423129284  -944323144   625562574  -509288944  1965253967   976237726  1435064320
#
#      Author: C. J. Pickard (cjp20@cam.ac.uk)
#                Space group: C2
#

%BLOCK LATTICE_ABC
      4.68115      6.20020      6.20020
     79.99656     70.76812     70.76812
%ENDBLOCK LATTICE_ABC

%BLOCK POSITIONS_FRAC
  Li   0.2126051  -0.1595163  -0.4089524 SPIN=   0.00000
  Li  -0.2126051   0.4089524   0.1595163 SPIN=   0.00000
   O  -0.2970833  -0.0955626   0.6634633 SPIN=   0.00000
   O  -0.5168355   0.2947720   0.4540067 SPIN=   0.00000
   O   0.0142927   0.0477541   0.2643900 SPIN=   0.00000
   P  -0.3167623   0.0358668   0.4319253 SPIN=   0.00000
   O   0.2970833  -0.6634633   0.0955626 SPIN=   0.00000
   O   0.5168355  -0.4540067  -0.2947720 SPIN=   0.00000
   O  -0.0142927  -0.2643900  -0.0477541 SPIN=   0.00000
   P   0.3167623  -0.4319253  -0.0358668 SPIN=   0.00000
   O   0.5000000  -0.2650281   0.2650281 SPIN=   0.00000
   O   0.0000000  -0.3515886   0.3515886 SPIN=   0.00000
  Fe  -0.0000000   0.3877773  -0.3877773 SPIN=   2.72078
  Fe   0.5000000  -0.0029417   0.0029417 SPIN=   5.27922
%ENDBLOCK POSITIONS_FRAC

# Note: total spin =   8.00

KPOINTS_MP_SPACING 0.07

%BLOCK SPECIES_POT
QC5
%ENDBLOCK SPECIES_POT

%BLOCK HUBBARD_U
Fe d:4.0
%ENDBLOCK HUBBARD_U

SNAP_TO_SYMMETRY
SYMMETRY_GENERATE

