#              Generated by Buildcell
#
# at 11:59:56 (GMT+0.0) 24th November 2020
# in /lustre/scratch/uccabz1/launch_tmp
# on node-c12h-032
# by uccabz1
#
# compiler GCC version 4.9.2
# options -cpp -iprefix /lustre/shared/ucl/apps/gcc/4.9.2/bin/../lib/gcc/x86_64-unknown-linux-gnu/4.9.2/ -mtune=corei7 -march=x86-64 -g -Og
#
# seed  -852370866  1334880852  1831293958   119688214 -1766549652 -1080234295  1907072105   555186124   778770743   -10589673  1687905724  -653370345
#
#      Author: C. J. Pickard (cjp20@cam.ac.uk)
#                Space group: Cm
#

%BLOCK LATTICE_ABC
      5.80475      5.91528      6.11318
    115.83217    115.20011     95.81195
%ENDBLOCK LATTICE_ABC

%BLOCK POSITIONS_FRAC
  Li   0.1061647   0.4657578   0.0000000 SPIN=   0.00000
  Li  -0.1530536  -0.1171354   0.0000000 SPIN=   0.00000
   O   0.0224132   0.5953754   0.7118723 SPIN=   0.00000
   O   0.2339027   0.2217032   0.6334891 SPIN=   0.00000
   O  -0.2563835   0.0958366   0.3027579 SPIN=   0.00000
   O   0.0856952   0.3675425   0.2827985 SPIN=   0.00000
   P   0.0222192   0.3353304   0.4925708 SPIN=   0.00000
   O  -0.6894591  -0.1164969  -0.7118723 SPIN=   0.00000
   O  -0.3995865  -0.4117859  -0.6334891 SPIN=   0.00000
   O  -0.5591415  -0.2069213  -0.3027579 SPIN=   0.00000
   O  -0.1971032   0.0847440  -0.2827985 SPIN=   0.00000
   P  -0.4703516  -0.1572404  -0.4925708 SPIN=   0.00000
  Fe   0.0688061  -0.1430618  -0.4224816 SPIN=   4.00000
  Fe   0.4912878   0.2794199   0.4224816 SPIN=   4.00000
%ENDBLOCK POSITIONS_FRAC

# Note: total spin =   8.00

KPOINTS_MP_SPACING 0.07

%BLOCK SPECIES_POT
QC5
%ENDBLOCK SPECIES_POT

%BLOCK HUBBARD_U
Fe d:4.0
%ENDBLOCK HUBBARD_U

SNAP_TO_SYMMETRY
SYMMETRY_GENERATE

