#              Generated by Buildcell
#
# at 20:34:20 (GMT+0.0) 26th November 2020
# in /lustre/scratch/uccabz1/launch_tmp
# on node-c12a-036
# by uccabz1
#
# compiler GCC version 4.9.2
# options -cpp -iprefix /lustre/shared/ucl/apps/gcc/4.9.2/bin/../lib/gcc/x86_64-unknown-linux-gnu/4.9.2/ -mtune=corei7 -march=x86-64 -g -Og
#
# seed  2095037177   588823856  1804599550  1116618466 -1698026133   423103846  1557793149  -492331390   262857831   246075481  1906276096  -157279139
#
#      Author: C. J. Pickard (cjp20@cam.ac.uk)
#                Space group: Cm
#

%BLOCK LATTICE_ABC
      5.60893      7.98154      7.98154
    116.41550     90.24297     90.24297
%ENDBLOCK LATTICE_ABC

%BLOCK POSITIONS_FRAC
  Li  -0.1784142   0.3760995  -0.3985934 SPIN=   0.00000
  Li  -0.1784142  -0.3985934   0.3760995 SPIN=   0.00000
  Li   0.1017325   0.0910869   0.0910869 SPIN=   0.00000
  Li   0.2873934   0.4809899   0.4809899 SPIN=   0.00000
   O  -0.1905251   0.0127015  -0.1682319 SPIN=   0.00000
   O  -0.1040671  -0.1108285  -0.5228193 SPIN=   0.00000
   O  -0.4431422  -0.2476047  -0.4285250 SPIN=   0.00000
   O  -0.4689746   0.0812787  -0.3885514 SPIN=   0.00000
   P  -0.2977332  -0.0601774  -0.3660503 SPIN=   0.00000
   O  -0.1905251  -0.1682319   0.0127015 SPIN=   0.00000
   O  -0.1040671  -0.5228193  -0.1108285 SPIN=   0.00000
   O  -0.4431422  -0.4285250  -0.2476047 SPIN=   0.00000
   O  -0.4689746  -0.3885514   0.0812787 SPIN=   0.00000
   P  -0.2977332  -0.3660503  -0.0601774 SPIN=   0.00000
   O   0.2419428   0.3156959   0.6229695 SPIN=   0.00000
   O  -0.0606729   0.1567974   0.3491506 SPIN=   0.00000
   O   0.3687423   0.0999773   0.2815000 SPIN=   0.00000
   P   0.1814492   0.1406256   0.4408874 SPIN=   0.00000
   O   0.2419428   0.6229695   0.3156959 SPIN=   0.00000
   O  -0.0606729   0.3491506   0.1567974 SPIN=   0.00000
   O   0.3687423   0.2815000   0.0999773 SPIN=   0.00000
   P   0.1814492   0.4408874   0.1406256 SPIN=   0.00000
   O  -0.0511305  -0.3590185  -0.3590185 SPIN=   0.00000
   O  -0.3759223   0.3792711   0.3792711 SPIN=   0.00000
  Fe  -0.3258478  -0.0454189   0.2873341 SPIN=   2.99183
  Fe  -0.3258478   0.2873341  -0.0454189 SPIN=   2.99183
  Fe   0.2017016  -0.0715777  -0.3570754 SPIN=   5.00817
  Fe   0.2017016  -0.3570754  -0.0715777 SPIN=   5.00817
%ENDBLOCK POSITIONS_FRAC

# Note: total spin =  16.00

KPOINTS_MP_SPACING 0.07

%BLOCK SPECIES_POT
QC5
%ENDBLOCK SPECIES_POT

%BLOCK HUBBARD_U
Fe d:4.0
%ENDBLOCK HUBBARD_U

SNAP_TO_SYMMETRY
SYMMETRY_GENERATE

