#              Generated by Buildcell
#
# at 13:33:12 (GMT+0.0) 24th November 2020
# in /scratch/scratch/uccabz1/launch_tmp
# on node-a14b-010
# by uccabz1
#
# compiler GCC version 4.9.2
# options -cpp -iprefix /scratch/UCL/applications/gcc/4.9.2/bin/../lib/gcc/x86_64-unknown-linux-gnu/4.9.2/ -mtune=corei7 -march=x86-64 -g -O2
#
# seed    17672954  -305815663    52840425  -340735459   701916599   -85253288 -1541849344   546858903  1493583004  1796831010  -154490907  -698166900
#
#      Author: C. J. Pickard (cjp20@cam.ac.uk)
#                Space group: Ima2
#

%BLOCK LATTICE_ABC
      4.29168      6.49874      6.49874
     76.71193     70.71949     70.71949
%ENDBLOCK LATTICE_ABC

%BLOCK POSITIONS_FRAC
  Li   0.1161439  -0.2300252  -0.2699748 SPIN=   0.00000
  Li  -0.1161439   0.2699748   0.2300252 SPIN=   0.00000
   O   0.3608415   0.4618139  -0.6289258 SPIN=   0.00000
   O   0.0123770   0.4525417  -0.2169307 SPIN=   0.00000
   O  -0.3608415   0.6289258  -0.4618139 SPIN=   0.00000
   O  -0.0123770   0.2169307  -0.4525417 SPIN=   0.00000
   O   0.3062704  -0.0381861  -0.1289258 SPIN=   0.00000
   O   0.2520120  -0.0474583   0.2830693 SPIN=   0.00000
   O  -0.3062704   0.1289258   0.0381861 SPIN=   0.00000
   O  -0.2520120  -0.2830693   0.0474583 SPIN=   0.00000
   P  -0.3846021  -0.4296620  -0.0703380 SPIN=   0.00000
   P   0.3846021   0.0703380   0.4296620 SPIN=   0.00000
  Fe   0.0000000  -0.2637580   0.2637580 SPIN=   4.00000
  Fe  -0.5000000   0.2362420  -0.2362420 SPIN=   4.00000
%ENDBLOCK POSITIONS_FRAC

# Note: total spin =   8.00

KPOINTS_MP_SPACING 0.07

%BLOCK SPECIES_POT
QC5
%ENDBLOCK SPECIES_POT

%BLOCK HUBBARD_U
Fe d:4.0
%ENDBLOCK HUBBARD_U

SNAP_TO_SYMMETRY
SYMMETRY_GENERATE

