#              Generated by Buildcell
#
# at 08:31:03 (GMT+0.0) 24th November 2020
# in /lustre/scratch/uccabz1/launch_tmp
# on node-c12n-022
# by uccabz1
#
# compiler GCC version 4.9.2
# options -cpp -iprefix /lustre/shared/ucl/apps/gcc/4.9.2/bin/../lib/gcc/x86_64-unknown-linux-gnu/4.9.2/ -mtune=corei7 -march=x86-64 -g -Og
#
# seed  -559457264 -1448851913 -1448366967 -1498431756 -2139564563  1377393957 -1154577345  -618187805  -664099438  1535990931 -1474132378  1119913369
#
#      Author: C. J. Pickard (cjp20@cam.ac.uk)
#                Space group: P-1
#

%BLOCK LATTICE_ABC
      4.36061      4.51191      8.14768
     92.90669     91.87733     90.58931
%ENDBLOCK LATTICE_ABC

%BLOCK POSITIONS_FRAC
  Li   0.5000000   0.0000000   0.5000000 SPIN=   0.00000
  Li   0.0000000  -0.5000000   0.5000000 SPIN=   0.00000
   O   0.1910209   0.6085902  -0.0878031 SPIN=   0.00000
   O   0.4107757   0.4238658  -0.3668731 SPIN=   0.00000
   O   0.4334741   0.0891821  -0.1362106 SPIN=   0.00000
   O  -0.0738741   0.1936196  -0.2730011 SPIN=   0.00000
   P   0.2340145   0.3421157  -0.2098206 SPIN=   0.00000
   O  -0.1910209  -0.6085902   0.0878031 SPIN=   0.00000
   O  -0.4107757  -0.4238658   0.3668731 SPIN=   0.00000
   O  -0.4334741  -0.0891821   0.1362106 SPIN=   0.00000
   O   0.0738741  -0.1936196   0.2730011 SPIN=   0.00000
   P  -0.2340145  -0.3421157   0.2098206 SPIN=   0.00000
  Fe   0.2586674   0.2616221   0.1432308 SPIN=   4.00000
  Fe  -0.2586674  -0.2616221  -0.1432308 SPIN=   4.00000
%ENDBLOCK POSITIONS_FRAC

# Note: total spin =   8.00

KPOINTS_MP_SPACING 0.07

%BLOCK SPECIES_POT
QC5
%ENDBLOCK SPECIES_POT

%BLOCK HUBBARD_U
Fe d:4.0
%ENDBLOCK HUBBARD_U

SNAP_TO_SYMMETRY
SYMMETRY_GENERATE

