#              Generated by Buildcell
#
# at 16:28:39 (GMT+0.0) 26th November 2020
# in /lustre/scratch/uccabz1/launch_tmp
# on node-c12c-024
# by uccabz1
#
# compiler GCC version 4.9.2
# options -cpp -iprefix /lustre/shared/ucl/apps/gcc/4.9.2/bin/../lib/gcc/x86_64-unknown-linux-gnu/4.9.2/ -mtune=corei7 -march=x86-64 -g -Og
#
# seed -1252551734  -709477209   -24089877  2078559066 -2089860454  1976568121  2102942381  2133583730  1659175413 -1593421249  1923421288  -797868854
#
#      Author: C. J. Pickard (cjp20@cam.ac.uk)
#                Space group: P2
#

%BLOCK LATTICE_ABC
      4.67382      8.64684      8.68569
    114.26901     90.00000     90.00000
%ENDBLOCK LATTICE_ABC

%BLOCK POSITIONS_FRAC
  Li  -0.2871905   0.2857330  -0.2945627 SPIN=   0.00000
  Li  -0.2871905  -0.2857330   0.2945627 SPIN=   0.00000
  Li   0.2295922   0.0000000   0.5000000 SPIN=   0.00000
  Li   0.2301890  -0.0000000  -0.0000000 SPIN=   0.00000
   O   0.0273605  -0.3719106  -0.3700306 SPIN=   0.00000
   O   0.5378092  -0.3514353  -0.4786191 SPIN=   0.00000
   O   0.1270593  -0.2652482  -0.6042792 SPIN=   0.00000
   O   0.2722869  -0.0843028  -0.3064956 SPIN=   0.00000
   P   0.2301146  -0.2715745  -0.4345644 SPIN=   0.00000
   O   0.0273605   0.3719106   0.3700306 SPIN=   0.00000
   O   0.5378092   0.3514353   0.4786191 SPIN=   0.00000
   O   0.1270593   0.2652482   0.6042792 SPIN=   0.00000
   O   0.2722869   0.0843028   0.3064956 SPIN=   0.00000
   P   0.2301146   0.2715745   0.4345644 SPIN=   0.00000
   O  -0.3913841   0.3033238   0.1816319 SPIN=   0.00000
   O  -0.5117202   0.1939526  -0.1377619 SPIN=   0.00000
   O  -0.0484793   0.3377301  -0.0376367 SPIN=   0.00000
   P  -0.2748673   0.2232174   0.0000984 SPIN=   0.00000
   O  -0.3913841  -0.3033238  -0.1816319 SPIN=   0.00000
   O  -0.5117202  -0.1939526   0.1377619 SPIN=   0.00000
   O  -0.0484793  -0.3377301   0.0376367 SPIN=   0.00000
   P  -0.2748673  -0.2232174  -0.0000984 SPIN=   0.00000
   O  -0.2279571   0.0000000   0.0000000 SPIN=   0.00000
   O   0.3987606   0.5000000  -0.0000000 SPIN=   0.00000
  Fe  -0.2699282  -0.0918458  -0.2862126 SPIN=   5.80480
  Fe  -0.2699282   0.0918458   0.2862126 SPIN=   5.80480
  Fe   0.2164942   0.4180427   0.1760148 SPIN=   2.19520
  Fe   0.2164942  -0.4180427  -0.1760148 SPIN=   2.19520
%ENDBLOCK POSITIONS_FRAC

# Note: total spin =  16.00

KPOINTS_MP_SPACING 0.07

%BLOCK SPECIES_POT
QC5
%ENDBLOCK SPECIES_POT

%BLOCK HUBBARD_U
Fe d:4.0
%ENDBLOCK HUBBARD_U

SNAP_TO_SYMMETRY
SYMMETRY_GENERATE

