#              Generated by Buildcell
#
# at 12:59:13 (GMT+0.0) 26th November 2020
# in /lustre/scratch/uccabz1/launch_tmp
# on node-c12f-021
# by uccabz1
#
# compiler GCC version 4.9.2
# options -cpp -iprefix /lustre/shared/ucl/apps/gcc/4.9.2/bin/../lib/gcc/x86_64-unknown-linux-gnu/4.9.2/ -mtune=corei7 -march=x86-64 -g -Og
#
# seed -1252769881  1821994060 -1610100209   233301581 -1198250133 -1193770330  -558852270 -2104712732  1151523264  1760205982 -2091085656 -1954305943
#
#      Author: C. J. Pickard (cjp20@cam.ac.uk)
#                Space group: Pna21
#

%BLOCK LATTICE_ABC
      4.12276      6.70295     11.57965
     90.00000     90.00000     90.00000
%ENDBLOCK LATTICE_ABC

%BLOCK POSITIONS_FRAC
  Li  -0.0679667  -0.0403505   0.2327681 SPIN=   0.00000
  Li   0.4320333   0.0403505  -0.2327681 SPIN=   0.00000
  Li  -0.0679667   0.4596495   0.2672319 SPIN=   0.00000
  Li   0.4320333  -0.4596495  -0.2672319 SPIN=   0.00000
   O  -0.2171119  -0.3998028  -0.4153835 SPIN=   0.00000
   O  -0.2383592  -0.0129632  -0.4035398 SPIN=   0.00000
   O  -0.2381460  -0.2050967  -0.2215259 SPIN=   0.00000
   O   0.2666639  -0.1908199  -0.3415373 SPIN=   0.00000
   P  -0.1082086  -0.2125596  -0.3491710 SPIN=   0.00000
   O   0.2828881   0.3998028   0.4153835 SPIN=   0.00000
   O   0.2616408   0.0129632   0.4035398 SPIN=   0.00000
   O   0.2618540   0.2050967   0.2215259 SPIN=   0.00000
   O   0.7666639   0.1908199   0.3415373 SPIN=   0.00000
   P   0.3917914   0.2125596   0.3491710 SPIN=   0.00000
   O  -0.2171119   0.1001972  -0.0846165 SPIN=   0.00000
   O  -0.2383592   0.4870368  -0.0964602 SPIN=   0.00000
   O  -0.2381460   0.2949033  -0.2784741 SPIN=   0.00000
   O   0.2666639   0.3091801  -0.1584627 SPIN=   0.00000
   P  -0.1082086   0.2874404  -0.1508290 SPIN=   0.00000
   O   0.2828881  -0.1001972   0.0846165 SPIN=   0.00000
   O   0.2616408  -0.4870368   0.0964602 SPIN=   0.00000
   O   0.2618540  -0.2949033   0.2784741 SPIN=   0.00000
   O   0.7666639  -0.3091801   0.1584627 SPIN=   0.00000
   P   0.3917914  -0.2874404   0.1508290 SPIN=   0.00000
  Fe  -0.4871292   0.2495723   0.0559275 SPIN=   4.00000
  Fe   0.0128708  -0.2495723  -0.0559275 SPIN=   4.00000
  Fe  -0.4871292  -0.2504277   0.4440725 SPIN=   4.00000
  Fe   0.0128708   0.2504277  -0.4440725 SPIN=   4.00000
%ENDBLOCK POSITIONS_FRAC

# Note: total spin =  16.00

KPOINTS_MP_SPACING 0.07

%BLOCK SPECIES_POT
QC5
%ENDBLOCK SPECIES_POT

%BLOCK HUBBARD_U
Fe d:4.0
%ENDBLOCK HUBBARD_U

SNAP_TO_SYMMETRY
SYMMETRY_GENERATE

