#              Generated by Buildcell
#
# at 08:21:31 (GMT+0.0) 24th November 2020
# in /lustre/scratch/uccabz1/launch_tmp
# on node-c12m-033
# by uccabz1
#
# compiler GCC version 4.9.2
# options -cpp -iprefix /lustre/shared/ucl/apps/gcc/4.9.2/bin/../lib/gcc/x86_64-unknown-linux-gnu/4.9.2/ -mtune=corei7 -march=x86-64 -g -Og
#
# seed  -305815663  1551768755  -508250395  2029871535 -1897924542   -61362869  1200687535 -1050237601  1909339340 -1257952223 -1822540085  -555788935
#
#      Author: C. J. Pickard (cjp20@cam.ac.uk)
#                Space group: Pm
#

%BLOCK LATTICE_ABC
      4.12006      4.18370      9.38209
     90.00000     90.00000     98.37420
%ENDBLOCK LATTICE_ABC

%BLOCK POSITIONS_FRAC
  Li   0.1585506   0.4009404   0.2117092 SPIN=   0.00000
  Li   0.1585506   0.4009404  -0.2117092 SPIN=   0.00000
   O   0.0514185  -0.0167650   0.3684976 SPIN=   0.00000
   O  -0.1995641  -0.3278798   0.1454671 SPIN=   0.00000
   O  -0.5224138  -0.3693780   0.3682447 SPIN=   0.00000
   O  -0.4418853   0.1516254   0.2325316 SPIN=   0.00000
   P  -0.2624980  -0.1305572   0.2829226 SPIN=   0.00000
   O   0.0514185  -0.0167650  -0.3684976 SPIN=   0.00000
   O  -0.1995641  -0.3278798  -0.1454671 SPIN=   0.00000
   O  -0.5224138  -0.3693780  -0.3682447 SPIN=   0.00000
   O  -0.4418853   0.1516254  -0.2325316 SPIN=   0.00000
   P  -0.2624980  -0.1305572  -0.2829226 SPIN=   0.00000
  Fe  -0.2886809   0.3368494   0.5000000 SPIN=   4.65190
  Fe  -0.4549805  -0.0397021   0.0000000 SPIN=   3.34810
%ENDBLOCK POSITIONS_FRAC

# Note: total spin =   8.00

KPOINTS_MP_SPACING 0.07

%BLOCK SPECIES_POT
QC5
%ENDBLOCK SPECIES_POT

%BLOCK HUBBARD_U
Fe d:4.0
%ENDBLOCK HUBBARD_U

SNAP_TO_SYMMETRY
SYMMETRY_GENERATE

