#              Generated by Buildcell
#
# at 14:40:21 (GMT+0.0) 26th November 2020
# in /scratch/scratch/uccabz1/launch_tmp
# on node-k10d-022
# by uccabz1
#
# compiler GCC version 4.9.2
# options -cpp -iprefix /scratch/UCL/applications/gcc/4.9.2/bin/../lib/gcc/x86_64-unknown-linux-gnu/4.9.2/ -mtune=corei7 -march=x86-64 -g -O2
#
# seed -1729651909  1936510265  1799516226   187537465  1011822606  1400580888   651593412  -738061215   101150037  -629090404   178371798 -1549378596
#
#      Author: C. J. Pickard (cjp20@cam.ac.uk)
#                Space group: Cc
#

%BLOCK LATTICE_ABC
      6.65783      7.43586      7.43586
    113.96459     99.67263     99.67263
%ENDBLOCK LATTICE_ABC

%BLOCK POSITIONS_FRAC
  Li  -0.4118387  -0.3187048  -0.1385851 SPIN=   0.00000
  Li   0.0881613  -0.1385851  -0.3187048 SPIN=   0.00000
  Li   0.2582171   0.2397403  -0.3760134 SPIN=   0.00000
  Li  -0.2417829  -0.3760134   0.2397403 SPIN=   0.00000
   O   0.0071678  -0.0870357   0.3564296 SPIN=   0.00000
   O  -0.2825684   0.0819003   0.2712793 SPIN=   0.00000
   O   0.0908639   0.2770430   0.3796838 SPIN=   0.00000
   O  -0.0501735  -0.0249566   0.0363087 SPIN=   0.00000
   P  -0.0550713   0.0527932   0.2633597 SPIN=   0.00000
   O   0.5071678   0.3564296  -0.0870357 SPIN=   0.00000
   O   0.2174316   0.2712793   0.0819003 SPIN=   0.00000
   O   0.5908639   0.3796838   0.2770430 SPIN=   0.00000
   O   0.4498265   0.0363087  -0.0249566 SPIN=   0.00000
   P   0.4449287   0.2633597   0.0527932 SPIN=   0.00000
   O  -0.5071973  -0.2153282  -0.7281287 SPIN=   0.00000
   O  -0.2362784  -0.0794148  -0.3771150 SPIN=   0.00000
   O  -0.4382131   0.1500309  -0.4368030 SPIN=   0.00000
   O  -0.6227363  -0.1487899  -0.3970661 SPIN=   0.00000
   P  -0.4561182  -0.0818238  -0.4967003 SPIN=   0.00000
   O  -0.0071973  -0.7281287  -0.2153282 SPIN=   0.00000
   O   0.2637216  -0.3771150  -0.0794148 SPIN=   0.00000
   O   0.0617869  -0.4368030   0.1500309 SPIN=   0.00000
   O  -0.1227363  -0.3970661  -0.1487899 SPIN=   0.00000
   P   0.0438818  -0.4967003  -0.0818238 SPIN=   0.00000
  Fe   0.2967071  -0.0814773   0.1434644 SPIN=   2.99002
  Fe  -0.2032929   0.1434644  -0.0814773 SPIN=   2.99002
  Fe  -0.2186940   0.3651169  -0.4772670 SPIN=   5.00998
  Fe   0.2813060  -0.4772670   0.3651169 SPIN=   5.00998
%ENDBLOCK POSITIONS_FRAC

# Note: total spin =  16.00

KPOINTS_MP_SPACING 0.07

%BLOCK SPECIES_POT
QC5
%ENDBLOCK SPECIES_POT

%BLOCK HUBBARD_U
Fe d:4.0
%ENDBLOCK HUBBARD_U

SNAP_TO_SYMMETRY
SYMMETRY_GENERATE

