#              Generated by Buildcell
#
# at 08:28:44 (GMT+0.0) 24th November 2020
# in /lustre/scratch/uccabz1/launch_tmp
# on node-c12f-022
# by uccabz1
#
# compiler GCC version 4.9.2
# options -cpp -iprefix /lustre/shared/ucl/apps/gcc/4.9.2/bin/../lib/gcc/x86_64-unknown-linux-gnu/4.9.2/ -mtune=corei7 -march=x86-64 -g -Og
#
# seed  1809377294  -292290081 -1113605818 -1327201406  1557373474  -526498290  1341130195   811495414  1950564659  1316267818 -1796414043  2124553061
#
#      Author: C. J. Pickard (cjp20@cam.ac.uk)
#                Space group: Pc
#

%BLOCK LATTICE_ABC
      3.86545      5.21047      8.10494
     90.00000     90.00000    101.43427
%ENDBLOCK LATTICE_ABC

%BLOCK POSITIONS_FRAC
  Li  -0.3266883  -0.4564378   0.4573464 SPIN=   0.00000
  Li   0.1733117   0.0435622  -0.4573464 SPIN=   0.00000
   O   0.2551102   0.0212566  -0.2013492 SPIN=   0.00000
   O   0.7259153  -0.1878865  -0.3506462 SPIN=   0.00000
   O   0.5922117  -0.3023775  -0.0586705 SPIN=   0.00000
   O   0.1441719  -0.4701033  -0.2762141 SPIN=   0.00000
   P   0.4167093  -0.2239222  -0.2212785 SPIN=   0.00000
   O  -0.2448898   0.5212566   0.2013492 SPIN=   0.00000
   O   0.2259153   0.3121135   0.3506462 SPIN=   0.00000
   O   0.0922117   0.1976225   0.0586705 SPIN=   0.00000
   O  -0.3558281   0.0298967   0.2762141 SPIN=   0.00000
   P  -0.0832907   0.2760778   0.2212785 SPIN=   0.00000
  Fe   0.1980919  -0.1825961   0.1583778 SPIN=   4.00000
  Fe  -0.3019081   0.3174039  -0.1583778 SPIN=   4.00000
%ENDBLOCK POSITIONS_FRAC

# Note: total spin =   8.00

KPOINTS_MP_SPACING 0.07

%BLOCK SPECIES_POT
QC5
%ENDBLOCK SPECIES_POT

%BLOCK HUBBARD_U
Fe d:4.0
%ENDBLOCK HUBBARD_U

SNAP_TO_SYMMETRY
SYMMETRY_GENERATE

