#              Generated by Buildcell
#
# at 14:25:20 (GMT+0.0) 24th November 2020
# in /lustre/scratch/uccabz1/launch_tmp
# on node-c12a-028
# by uccabz1
#
# compiler GCC version 4.9.2
# options -cpp -iprefix /lustre/shared/ucl/apps/gcc/4.9.2/bin/../lib/gcc/x86_64-unknown-linux-gnu/4.9.2/ -mtune=corei7 -march=x86-64 -g -Og
#
# seed -1992362040   205140131  -812751899  1837674357  1584837874  1901098155 -1929102471 -1495617089  1360222215  -738203148  1031806197  1676703187
#
#      Author: C. J. Pickard (cjp20@cam.ac.uk)
#                Space group: C2
#

%BLOCK LATTICE_ABC
      3.97401      6.82257      6.82257
     63.09447     78.03326     78.03326
%ENDBLOCK LATTICE_ABC

%BLOCK POSITIONS_FRAC
  Li  -0.5000000   0.1964096  -0.1964096 SPIN=   0.00000
  Li   0.5000000  -0.2226347   0.2226347 SPIN=   0.00000
   O  -0.1349794   0.3439238  -0.0376936 SPIN=   0.00000
   O  -0.2822755   0.1556289   0.3910412 SPIN=   0.00000
   O  -0.6458017   0.1106225   0.1648246 SPIN=   0.00000
   P  -0.2644126   0.1410485   0.1654461 SPIN=   0.00000
   O   0.1349794   0.0376936  -0.3439238 SPIN=   0.00000
   O   0.2822755  -0.3910412  -0.1556289 SPIN=   0.00000
   O   0.6458017  -0.1648246  -0.1106225 SPIN=   0.00000
   P   0.2644126  -0.1654461  -0.1410485 SPIN=   0.00000
   O   0.5000000   0.4861467  -0.4861467 SPIN=   0.00000
   O  -0.0000000  -0.3121677   0.3121677 SPIN=   0.00000
  Fe   0.8876406  -0.3089283  -0.3517528 SPIN=   4.00000
  Fe  -0.8876406   0.3517528   0.3089283 SPIN=   4.00000
%ENDBLOCK POSITIONS_FRAC

# Note: total spin =   8.00

KPOINTS_MP_SPACING 0.07

%BLOCK SPECIES_POT
QC5
%ENDBLOCK SPECIES_POT

%BLOCK HUBBARD_U
Fe d:4.0
%ENDBLOCK HUBBARD_U

SNAP_TO_SYMMETRY
SYMMETRY_GENERATE

