#              Generated by Buildcell
#
# at 18:25:01 (GMT+0.0) 26th November 2020
# in /scratch/scratch/uccabz1/launch_tmp
# on node-a14b-028
# by uccabz1
#
# compiler GCC version 4.9.2
# options -cpp -iprefix /scratch/UCL/applications/gcc/4.9.2/bin/../lib/gcc/x86_64-unknown-linux-gnu/4.9.2/ -mtune=corei7 -march=x86-64 -g -O2
#
# seed -1180688744  -667921575  -556451879    83422175  -523399689  1169798606 -1805600323   116054622   469861710   346590862  -683697308 -1392029490
#
#      Author: C. J. Pickard (cjp20@cam.ac.uk)
#                Space group: P-1
#

%BLOCK LATTICE_ABC
      6.76340      6.93433      8.11680
     83.59452     71.81340     62.31465
%ENDBLOCK LATTICE_ABC

%BLOCK POSITIONS_FRAC
  Li   0.0455672  -0.3389843  -0.1497800 SPIN=   0.00000
  Li  -0.0455672   0.3389843   0.1497800 SPIN=   0.00000
  Li  -0.1965612  -0.0079650   0.1485818 SPIN=   0.00000
  Li   0.1965612   0.0079650  -0.1485818 SPIN=   0.00000
   O   0.5572987   0.3254302  -0.3392789 SPIN=   0.00000
   O   0.7977004  -0.0443782  -0.2180090 SPIN=   0.00000
   O   0.3804057   0.1694812  -0.0583306 SPIN=   0.00000
   O   0.4914237  -0.0115297  -0.3459111 SPIN=   0.00000
   P   0.5559682   0.1198034  -0.2468935 SPIN=   0.00000
   O  -0.5572987  -0.3254302   0.3392789 SPIN=   0.00000
   O  -0.7977004   0.0443782   0.2180090 SPIN=   0.00000
   O  -0.3804057  -0.1694812   0.0583306 SPIN=   0.00000
   O  -0.4914237   0.0115297   0.3459111 SPIN=   0.00000
   P  -0.5559682  -0.1198034   0.2468935 SPIN=   0.00000
   O   0.0582433  -0.3172068   0.4572811 SPIN=   0.00000
   O   0.1596915  -0.2546303   0.1261056 SPIN=   0.00000
   O   0.2559959  -0.6299146   0.2228047 SPIN=   0.00000
   O  -0.1627818  -0.3575163   0.2655727 SPIN=   0.00000
   P   0.0739076  -0.3855697   0.2779945 SPIN=   0.00000
   O  -0.0582433   0.3172068  -0.4572811 SPIN=   0.00000
   O  -0.1596915   0.2546303  -0.1261056 SPIN=   0.00000
   O  -0.2559959   0.6299146  -0.2228047 SPIN=   0.00000
   O   0.1627818   0.3575163  -0.2655727 SPIN=   0.00000
   P  -0.0739076   0.3855697  -0.2779945 SPIN=   0.00000
  Fe  -0.6368551   0.3149253   0.4741411 SPIN=   3.97932
  Fe   0.6368551  -0.3149253  -0.4741411 SPIN=   3.97932
  Fe  -1.0000000   1.0000000   0.5000000 SPIN=   3.87402
  Fe   0.5000000  -0.5000000   0.0000000 SPIN=   4.16734
%ENDBLOCK POSITIONS_FRAC

# Note: total spin =  16.00

KPOINTS_MP_SPACING 0.07

%BLOCK SPECIES_POT
QC5
%ENDBLOCK SPECIES_POT

%BLOCK HUBBARD_U
Fe d:4.0
%ENDBLOCK HUBBARD_U

SNAP_TO_SYMMETRY
SYMMETRY_GENERATE

