#              Generated by Buildcell
#
# at 21:23:44 (GMT+0.0) 26th November 2020
# in /lustre/scratch/uccabz1/launch_tmp
# on node-c12b-021
# by uccabz1
#
# compiler GCC version 4.9.2
# options -cpp -iprefix /lustre/shared/ucl/apps/gcc/4.9.2/bin/../lib/gcc/x86_64-unknown-linux-gnu/4.9.2/ -mtune=corei7 -march=x86-64 -g -Og
#
# seed  1892863755  1267773221  1476027164  2007799084    70471665 -1170471022 -2004620485   135958536 -1780997977  -421586182  -230115252   504990625
#
#      Author: C. J. Pickard (cjp20@cam.ac.uk)
#                Space group: Pc
#

%BLOCK LATTICE_ABC
      5.02351      7.30921      8.79700
     90.00000     97.82482     90.00000
%ENDBLOCK LATTICE_ABC

%BLOCK POSITIONS_FRAC
  Li  -0.4674951   0.3768603  -0.3086715 SPIN=   0.00000
  Li  -0.4674951  -0.3768603   0.1913285 SPIN=   0.00000
  Li  -0.0272772  -0.1087935  -0.0676322 SPIN=   0.00000
  Li  -0.0272772   0.1087935   0.4323678 SPIN=   0.00000
   O   0.3941314  -0.1847216  -0.0106129 SPIN=   0.00000
   O   0.3751239  -0.5338200  -0.0666278 SPIN=   0.00000
   O   0.2972208  -0.3201012  -0.2856633 SPIN=   0.00000
   O   0.7590580  -0.3500252  -0.1394773 SPIN=   0.00000
   P   0.4566408  -0.3385513  -0.1196369 SPIN=   0.00000
   O   0.3941314   0.1847216   0.4893871 SPIN=   0.00000
   O   0.3751239   0.5338200   0.4333722 SPIN=   0.00000
   O   0.2972208   0.3201012   0.2143367 SPIN=   0.00000
   O   0.7590580   0.3500252   0.3605227 SPIN=   0.00000
   P   0.4566408   0.3385513   0.3803631 SPIN=   0.00000
   O   0.0619311   0.3703888  -0.2965889 SPIN=   0.00000
   O   0.4290223   0.1267511  -0.2122339 SPIN=   0.00000
   O   0.0683636   0.1719602  -0.0510826 SPIN=   0.00000
   O  -0.0389872   0.0237956  -0.3088307 SPIN=   0.00000
   P   0.1244585   0.1819586  -0.2224935 SPIN=   0.00000
   O   0.0619311  -0.3703888   0.2034111 SPIN=   0.00000
   O   0.4290223  -0.1267511   0.2877661 SPIN=   0.00000
   O   0.0683636  -0.1719602   0.4489174 SPIN=   0.00000
   O  -0.0389872  -0.0237956   0.1911693 SPIN=   0.00000
   P   0.1244585  -0.1819586   0.2775065 SPIN=   0.00000
  Fe  -0.4823657  -0.0689190  -0.3726477 SPIN=   5.75882
  Fe  -0.4823657   0.0689190   0.1273523 SPIN=   5.75882
  Fe  -0.0139772   0.4465089  -0.0055514 SPIN=   2.24118
  Fe  -0.0139772  -0.4465089   0.4944486 SPIN=   2.24118
%ENDBLOCK POSITIONS_FRAC

# Note: total spin =  16.00

KPOINTS_MP_SPACING 0.07

%BLOCK SPECIES_POT
QC5
%ENDBLOCK SPECIES_POT

%BLOCK HUBBARD_U
Fe d:4.0
%ENDBLOCK HUBBARD_U

SNAP_TO_SYMMETRY
SYMMETRY_GENERATE

