#              Generated by Buildcell
#
# at 19:52:37 (GMT+0.0) 26th November 2020
# in /lustre/scratch/uccabz1/launch_tmp
# on node-c12e-026
# by uccabz1
#
# compiler GCC version 4.9.2
# options -cpp -iprefix /lustre/shared/ucl/apps/gcc/4.9.2/bin/../lib/gcc/x86_64-unknown-linux-gnu/4.9.2/ -mtune=corei7 -march=x86-64 -g -Og
#
# seed   435000369  1280535506  -699359128 -1806298053 -1104628026 -1444712173  1308919683  1995568163   149077952  1048078047  1831751883  1255282106
#
#      Author: C. J. Pickard (cjp20@cam.ac.uk)
#                Space group: P21
#

%BLOCK LATTICE_ABC
      6.70475      6.75839      7.16449
     90.00000     99.70586     90.00000
%ENDBLOCK LATTICE_ABC

%BLOCK POSITIONS_FRAC
  Li  -0.3073094  -0.2685601  -0.2662817 SPIN=   0.00000
  Li   0.3073094   0.2314399   0.2662817 SPIN=   0.00000
  Li  -0.3384551  -0.1696563   0.3114680 SPIN=   0.00000
  Li   0.3384551   0.3303437  -0.3114680 SPIN=   0.00000
   O   0.5802207   0.0733877  -0.3433431 SPIN=   0.00000
   O   0.3742021  -0.0645462  -0.6559481 SPIN=   0.00000
   O   0.3777059  -0.2557829  -0.3616245 SPIN=   0.00000
   O   0.1894740   0.0654688  -0.4056136 SPIN=   0.00000
   P   0.3887870  -0.0377370  -0.4359739 SPIN=   0.00000
   O  -0.5802207   0.5733877   0.3433431 SPIN=   0.00000
   O  -0.3742021   0.4354538   0.6559481 SPIN=   0.00000
   O  -0.3777059   0.2442171   0.3616245 SPIN=   0.00000
   O  -0.1894740   0.5654688   0.4056136 SPIN=   0.00000
   P  -0.3887870   0.4622630   0.4359739 SPIN=   0.00000
   O   0.0040021   0.4250589   0.1248917 SPIN=   0.00000
   O  -0.0094184   0.4914433  -0.2341944 SPIN=   0.00000
   O   0.3030631   0.5776618  -0.0141446 SPIN=   0.00000
   O   0.2140598   0.2212855  -0.0775045 SPIN=   0.00000
   P   0.1223447   0.4262102  -0.0412349 SPIN=   0.00000
   O  -0.0040021  -0.0749411  -0.1248917 SPIN=   0.00000
   O   0.0094184  -0.0085567   0.2341944 SPIN=   0.00000
   O  -0.3030631   0.0776618   0.0141446 SPIN=   0.00000
   O  -0.2140598  -0.2787145   0.0775045 SPIN=   0.00000
   P  -0.1223447  -0.0737898   0.0412349 SPIN=   0.00000
  Fe   0.1286845  -0.3381760   0.3811783 SPIN=   3.99178
  Fe  -0.1286845   0.1618240  -0.3811783 SPIN=   3.99178
  Fe   0.3104346  -0.1168709  -0.0640454 SPIN=   4.00822
  Fe  -0.3104346   0.3831291   0.0640454 SPIN=   4.00822
%ENDBLOCK POSITIONS_FRAC

# Note: total spin =  16.00

KPOINTS_MP_SPACING 0.07

%BLOCK SPECIES_POT
QC5
%ENDBLOCK SPECIES_POT

%BLOCK HUBBARD_U
Fe d:4.0
%ENDBLOCK HUBBARD_U

SNAP_TO_SYMMETRY
SYMMETRY_GENERATE

