#              Generated by Buildcell
#
# at 14:39:45 (GMT+0.0) 24th November 2020
# in /lustre/scratch/uccabz1/launch_tmp
# on node-c12n-022
# by uccabz1
#
# compiler GCC version 4.9.2
# options -cpp -iprefix /lustre/shared/ucl/apps/gcc/4.9.2/bin/../lib/gcc/x86_64-unknown-linux-gnu/4.9.2/ -mtune=corei7 -march=x86-64 -g -Og
#
# seed  -762965288  -860201501 -1521768440   938154214 -1929106356   280082339  1925309247  1499040244  -359289380  -737418570 -1991404188 -1426086672
#
#      Author: C. J. Pickard (cjp20@cam.ac.uk)
#                Space group: Cm
#

%BLOCK LATTICE_ABC
      4.94757      5.90442      5.90442
    102.57339    101.21487    101.21487
%ENDBLOCK LATTICE_ABC

%BLOCK POSITIONS_FRAC
  Li   0.0873228   0.1075965  -0.3621849 SPIN=   0.00000
  Li   0.0873228  -0.3621849   0.1075965 SPIN=   0.00000
   O  -0.0991850   0.4797259  -0.2556130 SPIN=   0.00000
   O  -0.5681287   0.1782976  -0.5184839 SPIN=   0.00000
   O  -0.2628765   0.0485295  -0.2136426 SPIN=   0.00000
   P  -0.3526557   0.2773587  -0.2650086 SPIN=   0.00000
   O  -0.0991850  -0.2556130   0.4797259 SPIN=   0.00000
   O  -0.5681287  -0.5184839   0.1782976 SPIN=   0.00000
   O  -0.2628765  -0.2136426   0.0485295 SPIN=   0.00000
   P  -0.3526557  -0.2650086   0.2773587 SPIN=   0.00000
   O   0.2127804  -0.0012585  -0.0012585 SPIN=   0.00000
   O   0.0505348   0.3715006   0.3715006 SPIN=   0.00000
  Fe  -0.3722444   0.2018967   0.2018967 SPIN=   7.85183
  Fe   0.3907513  -0.3426833  -0.3426833 SPIN=   0.14817
%ENDBLOCK POSITIONS_FRAC

# Note: total spin =   8.00

KPOINTS_MP_SPACING 0.07

%BLOCK SPECIES_POT
QC5
%ENDBLOCK SPECIES_POT

%BLOCK HUBBARD_U
Fe d:4.0
%ENDBLOCK HUBBARD_U

SNAP_TO_SYMMETRY
SYMMETRY_GENERATE

