#              Generated by Buildcell
#
# at 14:28:46 (GMT+0.0) 24th November 2020
# in /scratch/scratch/uccabz1/launch_tmp
# on node-a14c-005
# by uccabz1
#
# compiler GCC version 4.9.2
# options -cpp -iprefix /scratch/UCL/applications/gcc/4.9.2/bin/../lib/gcc/x86_64-unknown-linux-gnu/4.9.2/ -mtune=corei7 -march=x86-64 -g -O2
#
# seed  1998334252 -1166503236  -374055986  -487603293  -424530286 -1428682701   916263555   419048041 -1869550136  -612253222  -453470585 -2125102399
#
#      Author: C. J. Pickard (cjp20@cam.ac.uk)
#                Space group: Pnc2
#

%BLOCK LATTICE_ABC
      5.30527      5.33463      5.65338
     90.00000     90.00000     90.00000
%ENDBLOCK LATTICE_ABC

%BLOCK POSITIONS_FRAC
  Li  -0.0000000  -0.0000000   0.4619792 SPIN=   0.00000
  Li   0.0000000   0.5000000  -0.0380208 SPIN=   0.00000
   O   0.1445197  -0.3087894  -0.3359659 SPIN=   0.00000
   O   0.2583769  -0.6526648  -0.6433542 SPIN=   0.00000
   O  -0.1445197   0.3087894  -0.3359659 SPIN=   0.00000
   O  -0.2583769   0.6526648  -0.6433542 SPIN=   0.00000
   O   0.1445197  -0.1912106   0.1640341 SPIN=   0.00000
   O   0.2583769   0.1526648  -0.1433542 SPIN=   0.00000
   O  -0.1445197   0.1912106   0.1640341 SPIN=   0.00000
   O  -0.2583769  -0.1526648  -0.1433542 SPIN=   0.00000
   P   0.0000000   0.0000000  -0.0652292 SPIN=   0.00000
   P  -0.0000000  -0.5000000   0.4347708 SPIN=   0.00000
  Fe  -0.5000000   0.0000000   0.1175149 SPIN=   4.00000
  Fe   0.5000000  -0.5000000  -0.3824851 SPIN=   4.00000
%ENDBLOCK POSITIONS_FRAC

# Note: total spin =   8.00

KPOINTS_MP_SPACING 0.07

%BLOCK SPECIES_POT
QC5
%ENDBLOCK SPECIES_POT

%BLOCK HUBBARD_U
Fe d:4.0
%ENDBLOCK HUBBARD_U

SNAP_TO_SYMMETRY
SYMMETRY_GENERATE

