#              Generated by Buildcell
#
# at 13:41:30 (GMT+0.0) 26th November 2020
# in /lustre/scratch/uccabz1/launch_tmp
# on node-c12o-032
# by uccabz1
#
# compiler GCC version 4.9.2
# options -cpp -iprefix /lustre/shared/ucl/apps/gcc/4.9.2/bin/../lib/gcc/x86_64-unknown-linux-gnu/4.9.2/ -mtune=corei7 -march=x86-64 -g -Og
#
# seed    38559697   428698188 -1690759163 -1582398943 -1579664336  1153742224  -760248447 -1107665075 -1159105582  1740833371   476126954 -1721106440
#
#      Author: C. J. Pickard (cjp20@cam.ac.uk)
#                Space group: C2
#

%BLOCK LATTICE_ABC
      4.88862      6.97537     10.52186
     74.51742     76.56702     69.48699
%ENDBLOCK LATTICE_ABC

%BLOCK POSITIONS_FRAC
  Li   0.3015537   0.3562660   0.1547631 SPIN=   0.00000
  Li  -0.1874171  -0.3562660  -0.1547631 SPIN=   0.00000
  Li   0.0073418   0.0157094   0.2440020 SPIN=   0.00000
  Li   0.2670532  -0.0157094  -0.2440020 SPIN=   0.00000
   O  -0.4199895  -0.0079067   0.3231232 SPIN=   0.00000
   O  -0.3984257  -0.2408500   0.5610646 SPIN=   0.00000
   O  -0.4075796  -0.3964717   0.3775763 SPIN=   0.00000
   O   0.0456725  -0.3122508   0.3846024 SPIN=   0.00000
   P  -0.2977101  -0.2279056   0.4065626 SPIN=   0.00000
   O  -0.1047729   0.0079067  -0.3231232 SPIN=   0.00000
   O  -0.0782110   0.2408500  -0.5610646 SPIN=   0.00000
   O  -0.4264750   0.3964717  -0.3775763 SPIN=   0.00000
   O   0.1180242   0.3122508  -0.3846024 SPIN=   0.00000
   P  -0.1190530   0.2279056  -0.4065626 SPIN=   0.00000
   O   0.0362754   0.3176825  -0.1451456 SPIN=   0.00000
   O   0.2669751   0.1272265   0.0712679 SPIN=   0.00000
   O  -0.0891895   0.4819575   0.0638288 SPIN=   0.00000
   O  -0.2688132   0.1822605   0.0743122 SPIN=   0.00000
   P  -0.0140385   0.2783115   0.0081695 SPIN=   0.00000
   O   0.2088123  -0.3176825   0.1451456 SPIN=   0.00000
   O   0.4654694  -0.1272265  -0.0712679 SPIN=   0.00000
   O   0.4565968  -0.4819575  -0.0638288 SPIN=   0.00000
   O  -0.0122405  -0.1822605  -0.0743122 SPIN=   0.00000
   P   0.2724425  -0.2783115  -0.0081695 SPIN=   0.00000
  Fe  -0.3130831  -0.2489244   0.1422263 SPIN=   4.71005
  Fe  -0.4197812   0.2489244  -0.1422263 SPIN=   4.71005
  Fe   0.1365206  -0.2319052  -0.4537204 SPIN=   3.28995
  Fe   0.4508950   0.2319052   0.4537204 SPIN=   3.28995
%ENDBLOCK POSITIONS_FRAC

# Note: total spin =  16.00

KPOINTS_MP_SPACING 0.07

%BLOCK SPECIES_POT
QC5
%ENDBLOCK SPECIES_POT

%BLOCK HUBBARD_U
Fe d:4.0
%ENDBLOCK HUBBARD_U

SNAP_TO_SYMMETRY
SYMMETRY_GENERATE

