#              Generated by Buildcell
#
# at 17:54:04 (GMT+0.0) 26th November 2020
# in /lustre/scratch/uccabz1/launch_tmp
# on node-c12g-031
# by uccabz1
#
# compiler GCC version 4.9.2
# options -cpp -iprefix /lustre/shared/ucl/apps/gcc/4.9.2/bin/../lib/gcc/x86_64-unknown-linux-gnu/4.9.2/ -mtune=corei7 -march=x86-64 -g -Og
#
# seed   397213515  1224493328  1900725582   139075869  1396910761   -13249547 -1813922597   627144962  -538780848 -1471370115  -361606978   976343691
#
#      Author: C. J. Pickard (cjp20@cam.ac.uk)
#                Space group: P-1
#

%BLOCK LATTICE_ABC
      6.39153      7.09679      7.58671
    110.10158     93.81852     95.29939
%ENDBLOCK LATTICE_ABC

%BLOCK POSITIONS_FRAC
  Li  -0.4044942   0.7940546   0.4158274 SPIN=   0.00000
  Li   0.4044942  -0.7940546  -0.4158274 SPIN=   0.00000
  Li   0.0100664  -0.4959619  -0.2425681 SPIN=   0.00000
  Li  -0.0100664   0.4959619   0.2425681 SPIN=   0.00000
   O  -0.1898894   0.5136191   0.0070215 SPIN=   0.00000
   O  -0.1558410   0.1651524   0.0404141 SPIN=   0.00000
   O  -0.4646810   0.1965273  -0.1567665 SPIN=   0.00000
   O  -0.1057810   0.2062219  -0.2695590 SPIN=   0.00000
   P  -0.2255084   0.2825743  -0.0913683 SPIN=   0.00000
   O   0.1898894  -0.5136191  -0.0070215 SPIN=   0.00000
   O   0.1558410  -0.1651524  -0.0404141 SPIN=   0.00000
   O   0.4646810  -0.1965273   0.1567665 SPIN=   0.00000
   O   0.1057810  -0.2062219   0.2695590 SPIN=   0.00000
   P   0.2255084  -0.2825743   0.0913683 SPIN=   0.00000
   O  -0.3068332   0.5038609   0.3430593 SPIN=   0.00000
   O  -0.0313773   0.3197182   0.4674760 SPIN=   0.00000
   O  -0.3169842   0.4474176   0.6632315 SPIN=   0.00000
   O  -0.4025228   0.1502604   0.3622180 SPIN=   0.00000
   P  -0.2683168   0.3608038   0.4516810 SPIN=   0.00000
   O   0.3068332  -0.5038609  -0.3430593 SPIN=   0.00000
   O   0.0313773  -0.3197182  -0.4674760 SPIN=   0.00000
   O   0.3169842  -0.4474176  -0.6632315 SPIN=   0.00000
   O   0.4025228  -0.1502604  -0.3622180 SPIN=   0.00000
   P   0.2683168  -0.3608038  -0.4516810 SPIN=   0.00000
  Fe   0.4430878   0.3201938   0.1398240 SPIN=   2.54844
  Fe  -0.4430878  -0.3201938  -0.1398240 SPIN=   2.54844
  Fe  -0.0421094   0.0375065   0.2591887 SPIN=   5.45156
  Fe   0.0421094  -0.0375065  -0.2591887 SPIN=   5.45156
%ENDBLOCK POSITIONS_FRAC

# Note: total spin =  16.00

KPOINTS_MP_SPACING 0.07

%BLOCK SPECIES_POT
QC5
%ENDBLOCK SPECIES_POT

%BLOCK HUBBARD_U
Fe d:4.0
%ENDBLOCK HUBBARD_U

SNAP_TO_SYMMETRY
SYMMETRY_GENERATE

