#              Generated by Buildcell
#
# at 14:30:19 (GMT+0.0) 24th November 2020
# in /lustre/scratch/uccabz1/launch_tmp
# on node-c12h-032
# by uccabz1
#
# compiler GCC version 4.9.2
# options -cpp -iprefix /lustre/shared/ucl/apps/gcc/4.9.2/bin/../lib/gcc/x86_64-unknown-linux-gnu/4.9.2/ -mtune=corei7 -march=x86-64 -g -Og
#
# seed   707140257 -1491074494 -1013805966   902700605   613339745  1377914892 -1916220698  1217500456   518741143 -1362440528   697188166 -2083895929
#
#      Author: C. J. Pickard (cjp20@cam.ac.uk)
#                Space group: Cm
#

%BLOCK LATTICE_ABC
      5.63019      5.83037      6.23944
    115.33114    114.23048     95.00597
%ENDBLOCK LATTICE_ABC

%BLOCK POSITIONS_FRAC
  Li   0.2082199   0.3258147  -0.0000000 SPIN=   0.00000
  Li   0.0568362  -0.1866008   0.0000000 SPIN=   0.00000
   O  -0.5120124  -0.2827285   0.2813769 SPIN=   0.00000
   O  -0.1384949  -0.5065384   0.2519236 SPIN=   0.00000
   O  -0.0888692  -0.0679089   0.2799897 SPIN=   0.00000
   O  -0.0194203  -0.0957705   0.6900767 SPIN=   0.00000
   P  -0.2048513  -0.2389243   0.3745203 SPIN=   0.00000
   O   0.2066107   0.4358946  -0.2813769 SPIN=   0.00000
   O   0.6095815   0.2415381  -0.2519236 SPIN=   0.00000
   O   0.6311411   0.6521014  -0.2799897 SPIN=   0.00000
   O   0.2905029   0.2141527  -0.6900767 SPIN=   0.00000
   P   0.4206284   0.3865554  -0.3745203 SPIN=   0.00000
  Fe  -0.2295852   0.2587195   0.3999054 SPIN=   4.00000
  Fe   0.3705094  -0.1411860  -0.3999054 SPIN=   4.00000
%ENDBLOCK POSITIONS_FRAC

# Note: total spin =   8.00

KPOINTS_MP_SPACING 0.07

%BLOCK SPECIES_POT
QC5
%ENDBLOCK SPECIES_POT

%BLOCK HUBBARD_U
Fe d:4.0
%ENDBLOCK HUBBARD_U

SNAP_TO_SYMMETRY
SYMMETRY_GENERATE

