#              Generated by Buildcell
#
# at 08:47:54 (GMT+0.0) 24th November 2020
# in /scratch/scratch/uccabz1/launch_tmp
# on node-a14c-007
# by uccabz1
#
# compiler GCC version 4.9.2
# options -cpp -iprefix /scratch/UCL/applications/gcc/4.9.2/bin/../lib/gcc/x86_64-unknown-linux-gnu/4.9.2/ -mtune=corei7 -march=x86-64 -g -O2
#
# seed   794635770  1400427023 -2000405017   229234360   922176320   -14313925  -716771583  1665757910 -1946482279  1739764621  -384206139   859364853
#
#      Author: C. J. Pickard (cjp20@cam.ac.uk)
#                Space group: Cm
#

%BLOCK LATTICE_ABC
      5.11913      5.75921      5.75921
    101.26055    100.12662    100.12662
%ENDBLOCK LATTICE_ABC

%BLOCK POSITIONS_FRAC
  Li   0.2561150   0.3622755  -0.2967192 SPIN=   0.00000
  Li   0.2561150  -0.2967192   0.3622755 SPIN=   0.00000
   O   0.0354252   0.3178567   0.0412439 SPIN=   0.00000
   O  -0.2386977   0.0399348  -0.3723150 SPIN=   0.00000
   O  -0.4924576   0.2027824  -0.0740958 SPIN=   0.00000
   P  -0.2203741   0.2664193  -0.1622855 SPIN=   0.00000
   O   0.0354252   0.0412439   0.3178567 SPIN=   0.00000
   O  -0.2386977  -0.3723150   0.0399348 SPIN=   0.00000
   O  -0.4924576  -0.0740958   0.2027824 SPIN=   0.00000
   P  -0.2203741  -0.1622855   0.2664193 SPIN=   0.00000
   O  -0.0440025  -0.4416725  -0.4416725 SPIN=   0.00000
   O   0.4277717  -0.2388023  -0.2388023 SPIN=   0.00000
  Fe   0.0161826  -0.1461584  -0.1461584 SPIN=   4.54495
  Fe  -0.3557620   0.3036996   0.3036996 SPIN=   3.45505
%ENDBLOCK POSITIONS_FRAC

# Note: total spin =   8.00

KPOINTS_MP_SPACING 0.07

%BLOCK SPECIES_POT
QC5
%ENDBLOCK SPECIES_POT

%BLOCK HUBBARD_U
Fe d:4.0
%ENDBLOCK HUBBARD_U

SNAP_TO_SYMMETRY
SYMMETRY_GENERATE

