#              Generated by Buildcell
#
# at 12:59:09 (GMT+0.0) 26th November 2020
# in /lustre/scratch/uccabz1/launch_tmp
# on node-c12f-021
# by uccabz1
#
# compiler GCC version 4.9.2
# options -cpp -iprefix /lustre/shared/ucl/apps/gcc/4.9.2/bin/../lib/gcc/x86_64-unknown-linux-gnu/4.9.2/ -mtune=corei7 -march=x86-64 -g -Og
#
# seed -1617334583 -1647510388 -1277965758  1929069945   -48222607  -927323424  1655565258 -1146961272   614749323   648664818  1198599751 -1318403019
#
#      Author: C. J. Pickard (cjp20@cam.ac.uk)
#                Space group: Pna21
#

%BLOCK LATTICE_ABC
      6.26658      6.77566      7.53646
     90.00000     90.00000     90.00000
%ENDBLOCK LATTICE_ABC

%BLOCK POSITIONS_FRAC
  Li   0.0411659  -0.3707214  -0.2173779 SPIN=   0.00000
  Li  -0.0411659   0.3707214   0.2826221 SPIN=   0.00000
  Li  -0.4588341  -0.1292786  -0.2173779 SPIN=   0.00000
  Li   0.4588341   0.1292786   0.2826221 SPIN=   0.00000
   O   0.2620098   0.2750432  -0.1702243 SPIN=   0.00000
   O   0.1503182   0.1497213   0.1420595 SPIN=   0.00000
   O   0.1554699  -0.0885566  -0.1059357 SPIN=   0.00000
   O   0.5003310   0.0415699   0.0145190 SPIN=   0.00000
   P   0.2695180   0.1034365  -0.0368430 SPIN=   0.00000
   O  -0.2620098  -0.2750432   0.3297757 SPIN=   0.00000
   O  -0.1503182  -0.1497213   0.6420595 SPIN=   0.00000
   O  -0.1554699   0.0885566   0.3940643 SPIN=   0.00000
   O  -0.5003310  -0.0415699   0.5145190 SPIN=   0.00000
   P  -0.2695180  -0.1034365   0.4631570 SPIN=   0.00000
   O  -0.2379902   0.2249568  -0.1702243 SPIN=   0.00000
   O  -0.3496818   0.3502787   0.1420595 SPIN=   0.00000
   O  -0.3445301   0.5885566  -0.1059357 SPIN=   0.00000
   O   0.0003310   0.4584301   0.0145190 SPIN=   0.00000
   P  -0.2304820   0.3965635  -0.0368430 SPIN=   0.00000
   O   0.2379902  -0.2249568   0.3297757 SPIN=   0.00000
   O   0.3496818  -0.3502787   0.6420595 SPIN=   0.00000
   O   0.3445301  -0.5885566   0.3940643 SPIN=   0.00000
   O  -0.0003310  -0.4584301   0.5145190 SPIN=   0.00000
   P   0.2304820  -0.3965635   0.4631570 SPIN=   0.00000
  Fe  -0.1088604  -0.0729358   0.1076308 SPIN=   4.00000
  Fe   0.1088604   0.0729358  -0.3923692 SPIN=   4.00000
  Fe   0.3911396  -0.4270642   0.1076308 SPIN=   4.00000
  Fe  -0.3911396   0.4270642  -0.3923692 SPIN=   4.00000
%ENDBLOCK POSITIONS_FRAC

# Note: total spin =  16.00

KPOINTS_MP_SPACING 0.07

%BLOCK SPECIES_POT
QC5
%ENDBLOCK SPECIES_POT

%BLOCK HUBBARD_U
Fe d:4.0
%ENDBLOCK HUBBARD_U

SNAP_TO_SYMMETRY
SYMMETRY_GENERATE

