#              Generated by Buildcell
#
# at 23:33:53 (GMT+0.0) 26th November 2020
# in /lustre/scratch/uccabz1/launch_tmp
# on node-c12g-027
# by uccabz1
#
# compiler GCC version 4.9.2
# options -cpp -iprefix /lustre/shared/ucl/apps/gcc/4.9.2/bin/../lib/gcc/x86_64-unknown-linux-gnu/4.9.2/ -mtune=corei7 -march=x86-64 -g -Og
#
# seed  -524011360  1901975155   708171686   729735763  1679708809  -397964262 -1221608208  1838057200  1558349205  -840155658   867891281 -1479870973
#
#      Author: C. J. Pickard (cjp20@cam.ac.uk)
#                Space group: P-1
#

%BLOCK LATTICE_ABC
      4.33667      7.72026     10.58121
     69.44358     88.43854     75.23945
%ENDBLOCK LATTICE_ABC

%BLOCK POSITIONS_FRAC
  Li   0.2535031  -0.0195370   0.1035172 SPIN=   0.00000
  Li  -0.2535031   0.0195370  -0.1035172 SPIN=   0.00000
  Li   0.0091898  -0.0766994  -0.3456639 SPIN=   0.00000
  Li  -0.0091898   0.0766994   0.3456639 SPIN=   0.00000
   O  -0.1182361  -0.1241348   0.2088360 SPIN=   0.00000
   O   0.4708551  -0.2955892   0.3021454 SPIN=   0.00000
   O   0.0756823  -0.2187838   0.4600184 SPIN=   0.00000
   O   0.0532158  -0.4767464   0.3713543 SPIN=   0.00000
   P   0.1068816  -0.2729135   0.3292616 SPIN=   0.00000
   O   0.1182361   0.1241348  -0.2088360 SPIN=   0.00000
   O  -0.4708551   0.2955892  -0.3021454 SPIN=   0.00000
   O  -0.0756823   0.2187838  -0.4600184 SPIN=   0.00000
   O  -0.0532158   0.4767464  -0.3713543 SPIN=   0.00000
   P  -0.1068816   0.2729135  -0.3292616 SPIN=   0.00000
   O  -0.4801999   0.4073505   0.2559787 SPIN=   0.00000
   O  -0.1544900   0.2216912   0.1121228 SPIN=   0.00000
   O  -0.6059241   0.1097444   0.2296490 SPIN=   0.00000
   O  -0.7154006   0.4178801   0.0309345 SPIN=   0.00000
   P  -0.4912066   0.2969782   0.1609425 SPIN=   0.00000
   O   0.4801999  -0.4073505  -0.2559787 SPIN=   0.00000
   O   0.1544900  -0.2216912  -0.1121228 SPIN=   0.00000
   O   0.6059241  -0.1097444  -0.2296490 SPIN=   0.00000
   O   0.7154006  -0.4178801  -0.0309345 SPIN=   0.00000
   P   0.4912066  -0.2969782  -0.1609425 SPIN=   0.00000
  Fe   0.8264087  -0.4202351   0.1613168 SPIN=   4.21299
  Fe  -0.8264087   0.4202351  -0.1613168 SPIN=   4.21299
  Fe  -0.6076871   0.2754186   0.4895963 SPIN=   3.78701
  Fe   0.6076871  -0.2754186  -0.4895963 SPIN=   3.78701
%ENDBLOCK POSITIONS_FRAC

# Note: total spin =  16.00

KPOINTS_MP_SPACING 0.07

%BLOCK SPECIES_POT
QC5
%ENDBLOCK SPECIES_POT

%BLOCK HUBBARD_U
Fe d:4.0
%ENDBLOCK HUBBARD_U

SNAP_TO_SYMMETRY
SYMMETRY_GENERATE

