#              Generated by Buildcell
#
# at 21:30:18 (GMT+0.0) 26th November 2020
# in /lustre/scratch/uccabz1/launch_tmp
# on node-c12g-020
# by uccabz1
#
# compiler GCC version 4.9.2
# options -cpp -iprefix /lustre/shared/ucl/apps/gcc/4.9.2/bin/../lib/gcc/x86_64-unknown-linux-gnu/4.9.2/ -mtune=corei7 -march=x86-64 -g -Og
#
# seed  1927469019   565271657  1378509008  -840462874 -1468538489   993052529 -1036638186  -475998473  -844592624 -1377339008  1355025502  1498279065
#
#      Author: C. J. Pickard (cjp20@cam.ac.uk)
#                Space group: C2/c
#

%BLOCK LATTICE_ABC
      5.75796      6.44957      9.65303
     93.57849     90.00000    116.51186
%ENDBLOCK LATTICE_ABC

%BLOCK POSITIONS_FRAC
  Li   0.1393747   0.4074826  -0.1069450 SPIN=   0.00000
  Li   0.2318921  -0.4074826  -0.3930550 SPIN=   0.00000
  Li  -0.1393747  -0.4074826   0.1069450 SPIN=   0.00000
  Li  -0.2318921   0.4074826   0.3930550 SPIN=   0.00000
   O  -0.2348094   0.2383880   0.0299561 SPIN=   0.00000
   O  -0.3890644   0.0922022  -0.2261273 SPIN=   0.00000
   O  -0.6677286   0.2025982  -0.0749691 SPIN=   0.00000
   P  -0.3748999   0.2628675  -0.0990529 SPIN=   0.00000
   O   0.0268026  -0.2383880  -0.5299561 SPIN=   0.00000
   O   0.0187334  -0.0922022  -0.2738727 SPIN=   0.00000
   O  -0.3703268  -0.2025982  -0.4250309 SPIN=   0.00000
   P  -0.1377674  -0.2628675  -0.4009471 SPIN=   0.00000
   O   0.2348094  -0.2383880  -0.0299561 SPIN=   0.00000
   O   0.3890644  -0.0922022   0.2261273 SPIN=   0.00000
   O   0.6677286  -0.2025982   0.0749691 SPIN=   0.00000
   P   0.3748999  -0.2628675   0.0990529 SPIN=   0.00000
   O  -0.0268026   0.2383880   0.5299561 SPIN=   0.00000
   O  -0.0187334   0.0922022   0.2738727 SPIN=   0.00000
   O   0.3703268   0.2025982   0.4250309 SPIN=   0.00000
   P   0.1377674   0.2628675   0.4009471 SPIN=   0.00000
   O   0.4435932   0.5000000  -0.2500000 SPIN=   0.00000
   O  -0.4435932   0.5000000   0.2500000 SPIN=   0.00000
   O  -0.0726480   0.5000000  -0.2500000 SPIN=   0.00000
   O   0.0726480  -0.5000000   0.2500000 SPIN=   0.00000
  Fe   0.3578054   0.1457238  -0.3630509 SPIN=   4.00000
  Fe  -0.2879184  -0.1457238  -0.1369491 SPIN=   4.00000
  Fe  -0.3578054  -0.1457238   0.3630509 SPIN=   4.00000
  Fe   0.2879184   0.1457238   0.1369491 SPIN=   4.00000
%ENDBLOCK POSITIONS_FRAC

# Note: total spin =  16.00

KPOINTS_MP_SPACING 0.07

%BLOCK SPECIES_POT
QC5
%ENDBLOCK SPECIES_POT

%BLOCK HUBBARD_U
Fe d:4.0
%ENDBLOCK HUBBARD_U

SNAP_TO_SYMMETRY
SYMMETRY_GENERATE

