#              Generated by Buildcell
#
# at 12:17:30 (GMT+0.0) 24th November 2020
# in /scratch/scratch/uccabz1/launch_tmp
# on node-a14e-019
# by uccabz1
#
# compiler GCC version 4.9.2
# options -cpp -iprefix /scratch/UCL/applications/gcc/4.9.2/bin/../lib/gcc/x86_64-unknown-linux-gnu/4.9.2/ -mtune=corei7 -march=x86-64 -g -O2
#
# seed -1329797828  -378758533  1338354473 -1434741318  1141669341   232548303  -880921976  1599961823  -298815643  -881695997  1281913370  1827843877
#
#      Author: C. J. Pickard (cjp20@cam.ac.uk)
#                Space group: C2
#

%BLOCK LATTICE_ABC
      5.58757      5.58757      6.11482
     74.73046     74.73046     61.70855
%ENDBLOCK LATTICE_ABC

%BLOCK POSITIONS_FRAC
  Li   0.1169376  -0.0234950   0.2158272 SPIN=   0.00000
  Li   0.0234950  -0.1169376  -0.2158272 SPIN=   0.00000
   O  -0.1440802  -0.6142337   0.2765261 SPIN=   0.00000
   O  -0.5605645  -0.1719472   0.4051729 SPIN=   0.00000
   O  -0.1662298  -0.1244160   0.1317798 SPIN=   0.00000
   O  -0.4750269  -0.2495956   0.0009645 SPIN=   0.00000
   P  -0.3278664  -0.3068320   0.2051018 SPIN=   0.00000
   O   0.6142337   0.1440802  -0.2765261 SPIN=   0.00000
   O   0.1719472   0.5605645  -0.4051729 SPIN=   0.00000
   O   0.1244160   0.1662298  -0.1317798 SPIN=   0.00000
   O   0.2495956   0.4750269  -0.0009645 SPIN=   0.00000
   P   0.3068320   0.3278664  -0.2051018 SPIN=   0.00000
  Fe   0.4368645   0.2964251   0.3138771 SPIN=   4.00000
  Fe  -0.2964251  -0.4368645  -0.3138771 SPIN=   4.00000
%ENDBLOCK POSITIONS_FRAC

# Note: total spin =   8.00

KPOINTS_MP_SPACING 0.07

%BLOCK SPECIES_POT
QC5
%ENDBLOCK SPECIES_POT

%BLOCK HUBBARD_U
Fe d:4.0
%ENDBLOCK HUBBARD_U

SNAP_TO_SYMMETRY
SYMMETRY_GENERATE

