#              Generated by Buildcell
#
# at 12:00:01 (GMT+0.0) 24th November 2020
# in /lustre/scratch/uccabz1/launch_tmp
# on node-c12o-027
# by uccabz1
#
# compiler GCC version 4.9.2
# options -cpp -iprefix /lustre/shared/ucl/apps/gcc/4.9.2/bin/../lib/gcc/x86_64-unknown-linux-gnu/4.9.2/ -mtune=corei7 -march=x86-64 -g -Og
#
# seed -1942221038  -197715075  1817488866   811639299  1640447532 -1238457335  -224809325 -2114918051  1544714481  -599701585  -681118934    48580887
#
#      Author: C. J. Pickard (cjp20@cam.ac.uk)
#                Space group: Pm
#

%BLOCK LATTICE_ABC
      3.90602      4.35435      9.66716
     90.00000     90.00000    103.31621
%ENDBLOCK LATTICE_ABC

%BLOCK POSITIONS_FRAC
  Li   0.2476296  -0.3825607  -0.2039167 SPIN=   0.00000
  Li   0.2476296  -0.3825607   0.2039167 SPIN=   0.00000
   O  -0.0937083  -0.0939102  -0.1525487 SPIN=   0.00000
   O  -0.3537327   0.3727969  -0.2351564 SPIN=   0.00000
   O   0.1171588   0.2311944  -0.3745224 SPIN=   0.00000
   O  -0.4825546  -0.1307549  -0.3707892 SPIN=   0.00000
   P  -0.2006754   0.0821199  -0.2773278 SPIN=   0.00000
   O  -0.0937083  -0.0939102   0.1525487 SPIN=   0.00000
   O  -0.3537327   0.3727969   0.2351564 SPIN=   0.00000
   O   0.1171588   0.2311944   0.3745224 SPIN=   0.00000
   O  -0.4825546  -0.1307549   0.3707892 SPIN=   0.00000
   P  -0.2006754   0.0821199   0.2773278 SPIN=   0.00000
  Fe  -0.3634808   0.2001511   0.0000000 SPIN=   1.29545
  Fe  -0.2980483   0.4939673  -0.5000000 SPIN=   6.70455
%ENDBLOCK POSITIONS_FRAC

# Note: total spin =   8.00

KPOINTS_MP_SPACING 0.07

%BLOCK SPECIES_POT
QC5
%ENDBLOCK SPECIES_POT

%BLOCK HUBBARD_U
Fe d:4.0
%ENDBLOCK HUBBARD_U

SNAP_TO_SYMMETRY
SYMMETRY_GENERATE

