#              Generated by Buildcell
#
# at 08:20:39 (GMT+0.0) 24th November 2020
# in /scratch/scratch/uccabz1/launch_tmp
# on node-a14f-014
# by uccabz1
#
# compiler GCC version 4.9.2
# options -cpp -iprefix /scratch/UCL/applications/gcc/4.9.2/bin/../lib/gcc/x86_64-unknown-linux-gnu/4.9.2/ -mtune=corei7 -march=x86-64 -g -O2
#
# seed   758498948   850676882   906292460  1833478138   -92056706  -381432950  -574942281 -1001981616  1771676755   445752381  1257551148  2000753528
#
#      Author: C. J. Pickard (cjp20@cam.ac.uk)
#                Space group: P42
#

%BLOCK LATTICE_ABC
      4.65458      4.65458      7.38514
     90.00000     90.00000     90.00000
%ENDBLOCK LATTICE_ABC

%BLOCK POSITIONS_FRAC
  Li  -0.0000000  -0.5000000   0.2365918 SPIN=   0.00000
  Li   0.5000000  -0.0000000  -0.2634082 SPIN=   0.00000
   O  -0.2951934   0.6984127   0.0327064 SPIN=   0.00000
   O  -0.1832711   0.1916794  -0.0968482 SPIN=   0.00000
   O   0.2951934  -0.6984127   0.0327064 SPIN=   0.00000
   O   0.1832711  -0.1916794  -0.0968482 SPIN=   0.00000
   O  -0.6984127  -0.2951934   0.5327064 SPIN=   0.00000
   O  -0.1916794  -0.1832711   0.4031518 SPIN=   0.00000
   O   0.6984127   0.2951934   0.5327064 SPIN=   0.00000
   O   0.1916794   0.1832711   0.4031518 SPIN=   0.00000
   P   0.5000000  -0.5000000  -0.0729858 SPIN=   0.00000
   P   0.5000000  -0.5000000   0.4270142 SPIN=   0.00000
  Fe  -0.0000000  -0.5000000  -0.3000824 SPIN=   4.00000
  Fe   0.5000000   0.0000000   0.1999176 SPIN=   4.00000
%ENDBLOCK POSITIONS_FRAC

# Note: total spin =   8.00

KPOINTS_MP_SPACING 0.07

%BLOCK SPECIES_POT
QC5
%ENDBLOCK SPECIES_POT

%BLOCK HUBBARD_U
Fe d:4.0
%ENDBLOCK HUBBARD_U

SNAP_TO_SYMMETRY
SYMMETRY_GENERATE

