#              Generated by Buildcell
#
# at 06:19:45 (GMT+0.0) 24th November 2020
# in /lustre/scratch/uccabz1/launch_tmp
# on node-c12i-030
# by uccabz1
#
# compiler GCC version 4.9.2
# options -cpp -iprefix /lustre/shared/ucl/apps/gcc/4.9.2/bin/../lib/gcc/x86_64-unknown-linux-gnu/4.9.2/ -mtune=corei7 -march=x86-64 -g -Og
#
# seed  1634959107 -2143851881  2117349586  -552030937  -770202095   704817095   -58316128  -244927059  -772877286   119051520    47424927  -743974633
#
#      Author: C. J. Pickard (cjp20@cam.ac.uk)
#                Space group: P-1
#

%BLOCK LATTICE_ABC
      5.19766      5.62958      6.28238
    113.28489    100.36746     99.87066
%ENDBLOCK LATTICE_ABC

%BLOCK POSITIONS_FRAC
  Li   0.2671299   0.3920970  -0.3258871 SPIN=   0.00000
  Li  -0.2671299  -0.3920970   0.3258871 SPIN=   0.00000
   O  -0.0674517   0.3048642   0.2922826 SPIN=   0.00000
   O   0.1659831   0.3657769  -0.0222372 SPIN=   0.00000
   O   0.3611188   0.6915992   0.4056014 SPIN=   0.00000
   P   0.2026438   0.3888624   0.2398778 SPIN=   0.00000
   O   0.0674517  -0.3048642  -0.2922826 SPIN=   0.00000
   O  -0.1659831  -0.3657769   0.0222372 SPIN=   0.00000
   O  -0.3611188  -0.6915992  -0.4056014 SPIN=   0.00000
   P  -0.2026438  -0.3888624  -0.2398778 SPIN=   0.00000
   O   0.0000000   0.0000000   0.5000000 SPIN=   0.00000
   O  -0.5000000   0.0000000  -0.0000000 SPIN=   0.00000
  Fe  -0.2494076   0.1287038  -0.1808144 SPIN=   4.00000
  Fe   0.2494076  -0.1287038   0.1808144 SPIN=   4.00000
%ENDBLOCK POSITIONS_FRAC

# Note: total spin =   8.00

KPOINTS_MP_SPACING 0.07

%BLOCK SPECIES_POT
QC5
%ENDBLOCK SPECIES_POT

%BLOCK HUBBARD_U
Fe d:4.0
%ENDBLOCK HUBBARD_U

SNAP_TO_SYMMETRY
SYMMETRY_GENERATE

