#              Generated by Buildcell
#
# at 13:34:57 (GMT+0.0) 26th November 2020
# in /scratch/scratch/uccabz1/launch_tmp
# on node-k10c-005
# by uccabz1
#
# compiler GCC version 4.9.2
# options -cpp -iprefix /scratch/UCL/applications/gcc/4.9.2/bin/../lib/gcc/x86_64-unknown-linux-gnu/4.9.2/ -mtune=corei7 -march=x86-64 -g -O2
#
# seed -1284009402  1352320261   854092185 -1643446758  1603195734  1576221614  -571460732   537297714  -259757857 -1041134619  -181274393 -1989775324
#
#      Author: C. J. Pickard (cjp20@cam.ac.uk)
#                Space group: P-1
#

%BLOCK LATTICE_ABC
      6.18707      6.61811      8.55516
     92.07018    110.75200    100.62132
%ENDBLOCK LATTICE_ABC

%BLOCK POSITIONS_FRAC
  Li   0.0405180  -0.3932495   0.3173936 SPIN=   0.00000
  Li  -0.0405180   0.3932495  -0.3173936 SPIN=   0.00000
  Li   0.0041403   0.1527544   0.3726198 SPIN=   0.00000
  Li  -0.0041403  -0.1527544  -0.3726198 SPIN=   0.00000
   O   0.6764801   0.1356012  -0.4204958 SPIN=   0.00000
   O   0.3442745   0.3440351  -0.5224702 SPIN=   0.00000
   O   0.3039488   0.0699198  -0.3401078 SPIN=   0.00000
   O   0.6102245   0.3964189  -0.2188150 SPIN=   0.00000
   P   0.4954876   0.2330090  -0.3760208 SPIN=   0.00000
   O  -0.6764801  -0.1356012   0.4204958 SPIN=   0.00000
   O  -0.3442745  -0.3440351   0.5224702 SPIN=   0.00000
   O  -0.3039488  -0.0699198   0.3401078 SPIN=   0.00000
   O  -0.6102245  -0.3964189   0.2188150 SPIN=   0.00000
   P  -0.4954876  -0.2330090   0.3760208 SPIN=   0.00000
   O   0.2679252   0.4711398  -0.0983971 SPIN=   0.00000
   O   0.4634325   0.1708945   0.0323050 SPIN=   0.00000
   O   0.1416872   0.2535832   0.1135870 SPIN=   0.00000
   O   0.0478157   0.0886865  -0.1774202 SPIN=   0.00000
   P   0.2300706   0.2562022  -0.0377015 SPIN=   0.00000
   O  -0.2679252  -0.4711398   0.0983971 SPIN=   0.00000
   O  -0.4634325  -0.1708945  -0.0323050 SPIN=   0.00000
   O  -0.1416872  -0.2535832  -0.1135870 SPIN=   0.00000
   O  -0.0478157  -0.0886865   0.1774202 SPIN=   0.00000
   P  -0.2300706  -0.2562022   0.0377015 SPIN=   0.00000
  Fe   0.2385892  -0.1877905   0.0341134 SPIN=   3.37777
  Fe  -0.2385892   0.1877905  -0.0341134 SPIN=   3.37777
  Fe  -0.4730989   0.3449862   0.3111407 SPIN=   4.62223
  Fe   0.4730989  -0.3449862  -0.3111407 SPIN=   4.62223
%ENDBLOCK POSITIONS_FRAC

# Note: total spin =  16.00

KPOINTS_MP_SPACING 0.07

%BLOCK SPECIES_POT
QC5
%ENDBLOCK SPECIES_POT

%BLOCK HUBBARD_U
Fe d:4.0
%ENDBLOCK HUBBARD_U

SNAP_TO_SYMMETRY
SYMMETRY_GENERATE

