#              Generated by Buildcell
#
# at 11:17:31 (GMT+0.0) 26th November 2020
# in /lustre/scratch/uccabz1/launch_tmp
# on node-c12m-023
# by uccabz1
#
# compiler GCC version 4.9.2
# options -cpp -iprefix /lustre/shared/ucl/apps/gcc/4.9.2/bin/../lib/gcc/x86_64-unknown-linux-gnu/4.9.2/ -mtune=corei7 -march=x86-64 -g -Og
#
# seed -1077072367 -2123610284   775279779  1793054430 -1535744127  -798673273 -2010923296 -1348281488 -1778933281  -694922951   605407288 -1445274348
#
#      Author: C. J. Pickard (cjp20@cam.ac.uk)
#                Space group: P21
#

%BLOCK LATTICE_ABC
      3.95231      7.52057     10.81468
     90.00000     95.44726     90.00000
%ENDBLOCK LATTICE_ABC

%BLOCK POSITIONS_FRAC
  Li   0.0450213   0.4813312  -0.3375964 SPIN=   0.00000
  Li  -0.0450213  -0.0186688   0.3375964 SPIN=   0.00000
  Li   0.1483334  -0.3818271   0.0388024 SPIN=   0.00000
  Li  -0.1483334   0.1181729  -0.0388024 SPIN=   0.00000
   O   0.1231955  -0.1498624  -0.4208567 SPIN=   0.00000
   O  -0.3782274  -0.0204439  -0.3104410 SPIN=   0.00000
   O   0.1628572  -0.0827427  -0.1842654 SPIN=   0.00000
   O   0.1297754   0.1707763  -0.3350767 SPIN=   0.00000
   P   0.0168797  -0.0251944  -0.3186854 SPIN=   0.00000
   O  -0.1231955   0.3501376   0.4208567 SPIN=   0.00000
   O   0.3782274   0.4795561   0.3104410 SPIN=   0.00000
   O  -0.1628572   0.4172573   0.1842654 SPIN=   0.00000
   O  -0.1297754   0.6707763   0.3350767 SPIN=   0.00000
   P  -0.0168797   0.4748056   0.3186854 SPIN=   0.00000
   O   0.2475864   0.5506283  -0.1567402 SPIN=   0.00000
   O   0.6481374   0.3395312  -0.2650247 SPIN=   0.00000
   O   0.7988885   0.4156231  -0.0444931 SPIN=   0.00000
   O   0.3011128   0.2166313  -0.1027607 SPIN=   0.00000
   P   0.4832139   0.3877214  -0.1425599 SPIN=   0.00000
   O  -0.2475864   0.0506283   0.1567402 SPIN=   0.00000
   O  -0.6481374  -0.1604688   0.2650247 SPIN=   0.00000
   O  -0.7988885  -0.0843769   0.0444931 SPIN=   0.00000
   O  -0.3011128  -0.2833687   0.1027607 SPIN=   0.00000
   P  -0.4832139  -0.1122786   0.1425599 SPIN=   0.00000
  Fe  -0.4097269  -0.2442407  -0.1855262 SPIN=   1.57689
  Fe   0.4097269   0.2557593   0.1855262 SPIN=   1.57689
  Fe   0.4919599  -0.3232388   0.4578893 SPIN=   6.42311
  Fe  -0.4919599   0.1767612  -0.4578893 SPIN=   6.42311
%ENDBLOCK POSITIONS_FRAC

# Note: total spin =  16.00

KPOINTS_MP_SPACING 0.07

%BLOCK SPECIES_POT
QC5
%ENDBLOCK SPECIES_POT

%BLOCK HUBBARD_U
Fe d:4.0
%ENDBLOCK HUBBARD_U

SNAP_TO_SYMMETRY
SYMMETRY_GENERATE

