#              Generated by Buildcell
#
# at 11:17:24 (GMT+0.0) 26th November 2020
# in /lustre/scratch/uccabz1/launch_tmp
# on node-c12g-031
# by uccabz1
#
# compiler GCC version 4.9.2
# options -cpp -iprefix /lustre/shared/ucl/apps/gcc/4.9.2/bin/../lib/gcc/x86_64-unknown-linux-gnu/4.9.2/ -mtune=corei7 -march=x86-64 -g -Og
#
# seed  2042699086  1226929393  -135131911   887578587  -552309243   424501640  1927983989  1195879992  -645119265 -1609643709  -919267601  1430964628
#
#      Author: C. J. Pickard (cjp20@cam.ac.uk)
#                Space group: Pm
#

%BLOCK LATTICE_ABC
      4.43345      8.49026      8.72164
     90.00000     90.00000    102.90529
%ENDBLOCK LATTICE_ABC

%BLOCK POSITIONS_FRAC
  Li  -0.0059531  -0.2975178  -0.2363607 SPIN=   0.00000
  Li  -0.0059531  -0.2975178   0.2363607 SPIN=   0.00000
  Li   0.1451436  -0.0665979   0.5000000 SPIN=   0.00000
  Li  -0.5073834  -0.3026907   0.0000000 SPIN=   0.00000
   O   0.5226667   0.2539111  -0.1401825 SPIN=   0.00000
   O   0.6673902   0.4826765  -0.3427888 SPIN=   0.00000
   O   0.1498056   0.2997773  -0.3570688 SPIN=   0.00000
   O   0.2708536   0.5004338  -0.1428749 SPIN=   0.00000
   P   0.4075122   0.3786342  -0.2388952 SPIN=   0.00000
   O   0.5226667   0.2539111   0.1401825 SPIN=   0.00000
   O   0.6673902   0.4826765   0.3427888 SPIN=   0.00000
   O   0.1498056   0.2997773   0.3570688 SPIN=   0.00000
   O   0.2708536   0.5004338   0.1428749 SPIN=   0.00000
   P   0.4075122   0.3786342   0.2388952 SPIN=   0.00000
   O  -0.5122833   0.0602917   0.3509661 SPIN=   0.00000
   O  -0.0247328  -0.0094249   0.2276957 SPIN=   0.00000
   O  -0.5081160  -0.2208801   0.2345396 SPIN=   0.00000
   P  -0.3866578  -0.0324450   0.2233581 SPIN=   0.00000
   O  -0.5122833   0.0602917  -0.3509661 SPIN=   0.00000
   O  -0.0247328  -0.0094249  -0.2276957 SPIN=   0.00000
   O  -0.5081160  -0.2208801  -0.2345396 SPIN=   0.00000
   P  -0.3866578  -0.0324450  -0.2233581 SPIN=   0.00000
   O  -0.3389091  -0.1468931  -0.5000000 SPIN=   0.00000
   O   0.0317580  -0.3212469  -0.5000000 SPIN=   0.00000
  Fe  -0.2322741   0.2237072   0.5000000 SPIN=   2.06699
  Fe   0.1679101   0.0108506   0.0000000 SPIN=   0.25289
  Fe   0.8563770   0.3976312  -0.0000000 SPIN=   9.08803
  Fe  -0.5486130  -0.3921141   0.5000000 SPIN=   4.59210
%ENDBLOCK POSITIONS_FRAC

# Note: total spin =  16.00

KPOINTS_MP_SPACING 0.07

%BLOCK SPECIES_POT
QC5
%ENDBLOCK SPECIES_POT

%BLOCK HUBBARD_U
Fe d:4.0
%ENDBLOCK HUBBARD_U

SNAP_TO_SYMMETRY
SYMMETRY_GENERATE

