#              Generated by Buildcell
#
# at 12:31:52 (GMT+0.0) 26th November 2020
# in /scratch/scratch/uccabz1/launch_tmp
# on node-a14f-029
# by uccabz1
#
# compiler GCC version 4.9.2
# options -cpp -iprefix /scratch/UCL/applications/gcc/4.9.2/bin/../lib/gcc/x86_64-unknown-linux-gnu/4.9.2/ -mtune=corei7 -march=x86-64 -g -O2
#
# seed  -809651377  2144619055 -1249458880  2000412268  -389956397 -2062306298  1706278699 -1700926323  1898180677 -2136095673 -1314803934 -2085381592
#
#      Author: C. J. Pickard (cjp20@cam.ac.uk)
#                Space group: C2
#

%BLOCK LATTICE_ABC
      7.39812      7.61537      7.61537
     95.03973    116.59354    116.59354
%ENDBLOCK LATTICE_ABC

%BLOCK POSITIONS_FRAC
  Li   0.4376263   0.0864453   0.3323931 SPIN=   0.00000
  Li  -0.4376263  -0.3323931  -0.0864453 SPIN=   0.00000
  Li  -0.0000000   0.3848858  -0.3848858 SPIN=   0.00000
  Li   0.5000000   0.7072942   0.2927058 SPIN=   0.00000
   O   0.2015549   0.2416115  -0.3505144 SPIN=   0.00000
   O  -0.2001783  -0.0517635  -0.6949124 SPIN=   0.00000
   O   0.0249451  -0.1574833  -0.4236963 SPIN=   0.00000
   O  -0.1833412  -0.0015366  -0.3572494 SPIN=   0.00000
   P  -0.0281333   0.0200522  -0.4497727 SPIN=   0.00000
   O  -0.2015549   0.3505144  -0.2416115 SPIN=   0.00000
   O   0.2001783   0.6949124   0.0517635 SPIN=   0.00000
   O  -0.0249451   0.4236963   0.1574833 SPIN=   0.00000
   O   0.1833412   0.3572494   0.0015366 SPIN=   0.00000
   P   0.0281333   0.4497727  -0.0200522 SPIN=   0.00000
   O   0.3697380   0.9303125   0.5428978 SPIN=   0.00000
   O   0.4861218   0.6558795   0.6042799 SPIN=   0.00000
   O   0.7059520   0.9815310   0.9052209 SPIN=   0.00000
   O   0.2739173   0.7083239   0.7633928 SPIN=   0.00000
   O  -0.3697380  -0.5428978  -0.9303125 SPIN=   0.00000
   O  -0.4861218  -0.6042799  -0.6558795 SPIN=   0.00000
   O  -0.7059520  -0.9052209  -0.9815310 SPIN=   0.00000
   O  -0.2739173  -0.7633928  -0.7083239 SPIN=   0.00000
   P   0.5000000   0.4686015   0.5313985 SPIN=   0.00000
   P  -0.5000000  -0.0386117  -0.9613883 SPIN=   0.00000
  Fe   0.0047437   0.1698809   0.2147409 SPIN=   3.69554
  Fe  -0.0047437  -0.2147409  -0.1698809 SPIN=   3.69554
  Fe  -0.5000000  -0.7858005  -0.2141995 SPIN=   5.77354
  Fe   0.0000000  -0.3225405   0.3225405 SPIN=   2.83538
%ENDBLOCK POSITIONS_FRAC

# Note: total spin =  16.00

KPOINTS_MP_SPACING 0.07

%BLOCK SPECIES_POT
QC5
%ENDBLOCK SPECIES_POT

%BLOCK HUBBARD_U
Fe d:4.0
%ENDBLOCK HUBBARD_U

SNAP_TO_SYMMETRY
SYMMETRY_GENERATE

