#              Generated by Buildcell
#
# at 07:47:26 (GMT+0.0) 24th November 2020
# in /scratch/scratch/uccabz1/launch_tmp
# on node-k10c-005
# by uccabz1
#
# compiler GCC version 4.9.2
# options -cpp -iprefix /scratch/UCL/applications/gcc/4.9.2/bin/../lib/gcc/x86_64-unknown-linux-gnu/4.9.2/ -mtune=corei7 -march=x86-64 -g -O2
#
# seed  -827832348 -1447159785  -231315756  1571306760  -270247927  2140842457  -381990034   -73620050  1274159803   192868506   156318240   756711193
#
#      Author: C. J. Pickard (cjp20@cam.ac.uk)
#                Space group: P-1
#

%BLOCK LATTICE_ABC
      3.94788      6.16752      6.83476
     88.04393     84.30962     75.06962
%ENDBLOCK LATTICE_ABC

%BLOCK POSITIONS_FRAC
  Li  -0.5000000  -0.5000000   0.5000000 SPIN=   0.00000
  Li   0.5000000  -0.5000000   0.0000000 SPIN=   0.00000
   O   0.1128462  -0.5514812   0.3299337 SPIN=   0.00000
   O   0.0747842  -0.2249085   0.0759454 SPIN=   0.00000
   O  -0.4488363  -0.2248317   0.3060113 SPIN=   0.00000
   P  -0.0349530  -0.2995122   0.2901738 SPIN=   0.00000
   O  -0.1128462   0.5514812  -0.3299337 SPIN=   0.00000
   O  -0.0747842   0.2249085  -0.0759454 SPIN=   0.00000
   O   0.4488363   0.2248317  -0.3060113 SPIN=   0.00000
   P   0.0349530   0.2995122  -0.2901738 SPIN=   0.00000
   O   0.0000000   0.0000000   0.5000000 SPIN=   0.00000
   O  -0.5000000   0.0000000   0.0000000 SPIN=   0.00000
  Fe   0.1145080   0.1348362   0.2262973 SPIN=   4.00000
  Fe  -0.1145080  -0.1348362  -0.2262973 SPIN=   4.00000
%ENDBLOCK POSITIONS_FRAC

# Note: total spin =   8.00

KPOINTS_MP_SPACING 0.07

%BLOCK SPECIES_POT
QC5
%ENDBLOCK SPECIES_POT

%BLOCK HUBBARD_U
Fe d:4.0
%ENDBLOCK HUBBARD_U

SNAP_TO_SYMMETRY
SYMMETRY_GENERATE

