#              Generated by Buildcell
#
# at 09:29:45 (GMT+0.0) 24th November 2020
# in /lustre/scratch/uccabz1/launch_tmp
# on node-c12p-030
# by uccabz1
#
# compiler GCC version 4.9.2
# options -cpp -iprefix /lustre/shared/ucl/apps/gcc/4.9.2/bin/../lib/gcc/x86_64-unknown-linux-gnu/4.9.2/ -mtune=corei7 -march=x86-64 -g -Og
#
# seed  1494928807 -1414994012   252416182  -663466728  -270022161  -695168280 -1122707979  2063929349  -239390304 -1631438574   614760183 -1782507021
#
#      Author: C. J. Pickard (cjp20@cam.ac.uk)
#                Space group: Cc
#

%BLOCK LATTICE_ABC
      5.02081      5.02081      7.68222
     93.30949    107.19562    117.34359
%ENDBLOCK LATTICE_ABC

%BLOCK POSITIONS_FRAC
  Li  -0.3475355   0.2191443  -0.1256088 SPIN=   0.00000
  Li   0.1552469   0.2219267   0.3743912 SPIN=   0.00000
   O   0.1001891   0.1868627  -0.1732096 SPIN=   0.00000
   O  -0.0958830  -0.0591695   0.0849938 SPIN=   0.00000
   O   0.0231363  -0.3475067  -0.1230989 SPIN=   0.00000
   O   0.4756374   0.1281648   0.1154302 SPIN=   0.00000
   P   0.1285367  -0.0099598  -0.0302722 SPIN=   0.00000
   O   0.1399277  -0.2733986   0.3267904 SPIN=   0.00000
   O   0.6441632   0.1808768   0.5849938 SPIN=   0.00000
   O   0.7244078  -0.1462352   0.3769011 SPIN=   0.00000
   O   0.4872655  -0.3602071   0.6154302 SPIN=   0.00000
   P   0.4796876  -0.1588089   0.4697278 SPIN=   0.00000
  Fe  -1.0552586  -0.3554153  -0.4079065 SPIN=   4.00000
  Fe  -0.5524912  -0.3526479   0.0920935 SPIN=   4.00000
%ENDBLOCK POSITIONS_FRAC

# Note: total spin =   8.00

KPOINTS_MP_SPACING 0.07

%BLOCK SPECIES_POT
QC5
%ENDBLOCK SPECIES_POT

%BLOCK HUBBARD_U
Fe d:4.0
%ENDBLOCK HUBBARD_U

SNAP_TO_SYMMETRY
SYMMETRY_GENERATE

