#              Generated by Buildcell
#
# at 14:18:22 (GMT+0.0) 26th November 2020
# in /lustre/scratch/uccabz1/launch_tmp
# on node-c12k-029
# by uccabz1
#
# compiler GCC version 4.9.2
# options -cpp -iprefix /lustre/shared/ucl/apps/gcc/4.9.2/bin/../lib/gcc/x86_64-unknown-linux-gnu/4.9.2/ -mtune=corei7 -march=x86-64 -g -Og
#
# seed  1789883332   631134375 -1479870973 -1897484012  1866575463 -1711401742 -1560414595 -1696269400  -334354189 -1435407386 -1479540777  1595441327
#
#      Author: C. J. Pickard (cjp20@cam.ac.uk)
#                Space group: C2
#

%BLOCK LATTICE_ABC
      6.50755      6.71535      8.37489
     91.56674     90.00000    118.98153
%ENDBLOCK LATTICE_ABC

%BLOCK POSITIONS_FRAC
  Li  -0.0307914  -0.4037727  -0.1523372 SPIN=   0.00000
  Li   0.3729813   0.4037727   0.1523372 SPIN=   0.00000
  Li  -0.2568348   0.0829034  -0.1710917 SPIN=   0.00000
  Li  -0.3397382  -0.0829034   0.1710917 SPIN=   0.00000
   O   0.1527841   0.4993025   0.3269848 SPIN=   0.00000
   O  -0.0032631   0.0653302   0.2797267 SPIN=   0.00000
   O   0.3141883   0.2715419   0.4800550 SPIN=   0.00000
   O  -0.0915918   0.2052553   0.5370942 SPIN=   0.00000
   P   0.0940323   0.2724298   0.4033073 SPIN=   0.00000
   O  -0.3465184  -0.4993025  -0.3269848 SPIN=   0.00000
   O  -0.0685934  -0.0653302  -0.2797267 SPIN=   0.00000
   O   0.0426464  -0.2715419  -0.4800550 SPIN=   0.00000
   O  -0.2968471  -0.2052553  -0.5370942 SPIN=   0.00000
   P  -0.1783976  -0.2724298  -0.4033073 SPIN=   0.00000
   O  -0.0510785  -0.7044193   0.0734942 SPIN=   0.00000
   O  -0.4601360  -0.8443088   0.2015214 SPIN=   0.00000
   O  -0.2155659  -0.4333377   0.1553784 SPIN=   0.00000
   O  -0.3972349  -0.7054304  -0.0781251 SPIN=   0.00000
   P  -0.2701331  -0.6740030   0.0853300 SPIN=   0.00000
   O   0.6533408   0.7044193  -0.0734942 SPIN=   0.00000
   O   0.3841728   0.8443088  -0.2015214 SPIN=   0.00000
   O   0.2177718   0.4333377  -0.1553784 SPIN=   0.00000
   O   0.3081955   0.7054304   0.0781251 SPIN=   0.00000
   P   0.4038698   0.6740030  -0.0853300 SPIN=   0.00000
  Fe  -0.3218516  -0.6901819   0.4256635 SPIN=   3.06757
  Fe   0.3683303   0.6901819  -0.4256635 SPIN=   3.06757
  Fe   0.2776532   0.1542889  -0.2025017 SPIN=   4.93243
  Fe   0.1233643  -0.1542889   0.2025017 SPIN=   4.93243
%ENDBLOCK POSITIONS_FRAC

# Note: total spin =  16.00

KPOINTS_MP_SPACING 0.07

%BLOCK SPECIES_POT
QC5
%ENDBLOCK SPECIES_POT

%BLOCK HUBBARD_U
Fe d:4.0
%ENDBLOCK HUBBARD_U

SNAP_TO_SYMMETRY
SYMMETRY_GENERATE

