#              Generated by Buildcell
#
# at 07:31:11 (GMT+0.0) 24th November 2020
# in /scratch/scratch/uccabz1/launch_tmp
# on node-k10i-025
# by uccabz1
#
# compiler GCC version 4.9.2
# options -cpp -iprefix /scratch/UCL/applications/gcc/4.9.2/bin/../lib/gcc/x86_64-unknown-linux-gnu/4.9.2/ -mtune=corei7 -march=x86-64 -g -O2
#
# seed    78782418  2114073069  1315810521   288725662  1227769158  -824487963 -1497215416  -131103970   974502324  -403020111   515759463  1265700947
#
#      Author: C. J. Pickard (cjp20@cam.ac.uk)
#                Space group: Cm
#

%BLOCK LATTICE_ABC
      5.65296      5.82462      6.20615
    114.66298    113.69526     96.55388
%ENDBLOCK LATTICE_ABC

%BLOCK POSITIONS_FRAC
  Li   0.0571430  -0.2175366   0.0000000 SPIN=   0.00000
  Li  -0.0864173   0.2664925  -0.0000000 SPIN=   0.00000
   O   0.2164771   0.5314160   0.7018034 SPIN=   0.00000
   O  -0.0515914   0.0483142   0.2807607 SPIN=   0.00000
   O   0.3317999   0.3343874   0.3107533 SPIN=   0.00000
   P   0.2336485   0.2804674   0.4944810 SPIN=   0.00000
   O  -0.4853264  -0.1703874  -0.7018034 SPIN=   0.00000
   O  -0.3323520  -0.2324465  -0.2807607 SPIN=   0.00000
   O   0.0210465   0.0236341  -0.3107533 SPIN=   0.00000
   P  -0.2608324  -0.2140135  -0.4944810 SPIN=   0.00000
   O  -0.2798253  -0.4443629   0.0000000 SPIN=   0.00000
   O   0.5179813   0.1566406  -0.0000000 SPIN=   0.00000
  Fe   0.2854421  -0.1754743  -0.3998665 SPIN=   4.00000
  Fe   0.6853086   0.2243922   0.3998665 SPIN=   4.00000
%ENDBLOCK POSITIONS_FRAC

# Note: total spin =   8.00

KPOINTS_MP_SPACING 0.07

%BLOCK SPECIES_POT
QC5
%ENDBLOCK SPECIES_POT

%BLOCK HUBBARD_U
Fe d:4.0
%ENDBLOCK HUBBARD_U

SNAP_TO_SYMMETRY
SYMMETRY_GENERATE

