#              Generated by Buildcell
#
# at 09:03:04 (GMT+0.0) 24th November 2020
# in /lustre/scratch/uccabz1/launch_tmp
# on node-c12h-027
# by uccabz1
#
# compiler GCC version 4.9.2
# options -cpp -iprefix /lustre/shared/ucl/apps/gcc/4.9.2/bin/../lib/gcc/x86_64-unknown-linux-gnu/4.9.2/ -mtune=corei7 -march=x86-64 -g -Og
#
# seed   675142468   827532412  1475053262  1839925732  -236790918  1780997386  1635139730  2016473318   634788395  1185631838  1033657661 -2093420991
#
#      Author: C. J. Pickard (cjp20@cam.ac.uk)
#                Space group: P-1
#

%BLOCK LATTICE_ABC
      4.47029      6.11203      6.60524
     69.47237     78.63394     72.07253
%ENDBLOCK LATTICE_ABC

%BLOCK POSITIONS_FRAC
  Li  -0.0920830  -0.2300145  -0.4751422 SPIN=   0.00000
  Li   0.0920830   0.2300145   0.4751422 SPIN=   0.00000
   O   0.4414595  -0.2586156  -0.3666736 SPIN=   0.00000
   O   0.3058575   0.0104469  -0.1147059 SPIN=   0.00000
   O  -0.1328859  -0.0395140  -0.2559866 SPIN=   0.00000
   O   0.1719422  -0.3889532   0.0240944 SPIN=   0.00000
   P   0.2093404  -0.1765159  -0.1859582 SPIN=   0.00000
   O  -0.4414595   0.2586156   0.3666736 SPIN=   0.00000
   O  -0.3058575  -0.0104469   0.1147059 SPIN=   0.00000
   O   0.1328859   0.0395140   0.2559866 SPIN=   0.00000
   O  -0.1719422   0.3889532  -0.0240944 SPIN=   0.00000
   P  -0.2093404   0.1765159   0.1859582 SPIN=   0.00000
  Fe  -0.4509499  -0.3321789   0.1884644 SPIN=   4.00000
  Fe   0.4509499   0.3321789  -0.1884644 SPIN=   4.00000
%ENDBLOCK POSITIONS_FRAC

# Note: total spin =   8.00

KPOINTS_MP_SPACING 0.07

%BLOCK SPECIES_POT
QC5
%ENDBLOCK SPECIES_POT

%BLOCK HUBBARD_U
Fe d:4.0
%ENDBLOCK HUBBARD_U

SNAP_TO_SYMMETRY
SYMMETRY_GENERATE

