#              Generated by Buildcell
#
# at 09:03:30 (GMT+0.0) 24th November 2020
# in /scratch/scratch/uccabz1/launch_tmp
# on node-k10c-017
# by uccabz1
#
# compiler GCC version 4.9.2
# options -cpp -iprefix /scratch/UCL/applications/gcc/4.9.2/bin/../lib/gcc/x86_64-unknown-linux-gnu/4.9.2/ -mtune=corei7 -march=x86-64 -g -O2
#
# seed  1112619702   591959670 -2073152620  1109813591  1612930040   779508861  1533642025 -1778167606 -1682158432  1555656573 -1043285168  1620615598
#
#      Author: C. J. Pickard (cjp20@cam.ac.uk)
#                Space group: Pmc21
#

%BLOCK LATTICE_ABC
      4.92850      5.69312      5.70237
     90.00000     90.00000     90.00000
%ENDBLOCK LATTICE_ABC

%BLOCK POSITIONS_FRAC
  Li   0.5000000  -0.0726313  -0.1283208 SPIN=   0.00000
  Li   0.5000000   0.4273687   0.1283208 SPIN=   0.00000
   O   0.2499919  -0.2709318   0.0997968 SPIN=   0.00000
   O   0.2500052  -0.5269560   0.4769526 SPIN=   0.00000
   O  -0.2499919   0.2290682  -0.0997968 SPIN=   0.00000
   O  -0.2500052  -0.0269560  -0.4769526 SPIN=   0.00000
   O   0.2499919   0.2290682  -0.0997968 SPIN=   0.00000
   O   0.2500052  -0.0269560  -0.4769526 SPIN=   0.00000
   O  -0.2499919  -0.2709318   0.0997968 SPIN=   0.00000
   O  -0.2500052  -0.5269560   0.4769526 SPIN=   0.00000
   P   0.0000000   0.0558327  -0.2643428 SPIN=   0.00000
   P   0.0000000  -0.4441673   0.2643428 SPIN=   0.00000
  Fe   0.0000000   0.0556074   0.2360661 SPIN=   4.00000
  Fe  -0.0000000  -0.4443926  -0.2360661 SPIN=   4.00000
%ENDBLOCK POSITIONS_FRAC

# Note: total spin =   8.00

KPOINTS_MP_SPACING 0.07

%BLOCK SPECIES_POT
QC5
%ENDBLOCK SPECIES_POT

%BLOCK HUBBARD_U
Fe d:4.0
%ENDBLOCK HUBBARD_U

SNAP_TO_SYMMETRY
SYMMETRY_GENERATE

