#              Generated by Buildcell
#
# at 11:14:47 (GMT+0.0) 24th November 2020
# in /scratch/scratch/uccabz1/launch_tmp
# on node-a14f-017
# by uccabz1
#
# compiler GCC version 4.9.2
# options -cpp -iprefix /scratch/UCL/applications/gcc/4.9.2/bin/../lib/gcc/x86_64-unknown-linux-gnu/4.9.2/ -mtune=corei7 -march=x86-64 -g -O2
#
# seed  1805259218  -181987663  -579140590 -1484805800  2042676983  1323896787   936921594  2019869595   771188435 -1277846370  -591439439  1629747740
#
#      Author: C. J. Pickard (cjp20@cam.ac.uk)
#                Space group: C2
#

%BLOCK LATTICE_ABC
      4.82256      5.92598      5.92598
    106.29749     96.07400     96.07400
%ENDBLOCK LATTICE_ABC

%BLOCK POSITIONS_FRAC
  Li  -0.2153500   0.2499915   0.0102846 SPIN=   0.00000
  Li   0.2153500  -0.0102846  -0.2499915 SPIN=   0.00000
   O   0.1709508   0.4645835   0.1557142 SPIN=   0.00000
   O   0.6126010   0.3430765   0.3572388 SPIN=   0.00000
   O   0.1465079   0.1204595   0.3478671 SPIN=   0.00000
   P   0.3141180   0.2589786   0.2024183 SPIN=   0.00000
   O  -0.1709508  -0.1557142  -0.4645835 SPIN=   0.00000
   O  -0.6126010  -0.3572388  -0.3430765 SPIN=   0.00000
   O  -0.1465079  -0.3478671  -0.1204595 SPIN=   0.00000
   P  -0.3141180  -0.2024183  -0.2589786 SPIN=   0.00000
   O  -0.5000000  -0.0330844   0.0330844 SPIN=   0.00000
   O  -0.5000000   0.2722608  -0.2722608 SPIN=   0.00000
  Fe   0.5000000  -0.2525439   0.2525439 SPIN=   1.18049
  Fe   0.0000000   0.4221416  -0.4221416 SPIN=   6.81951
%ENDBLOCK POSITIONS_FRAC

# Note: total spin =   8.00

KPOINTS_MP_SPACING 0.07

%BLOCK SPECIES_POT
QC5
%ENDBLOCK SPECIES_POT

%BLOCK HUBBARD_U
Fe d:4.0
%ENDBLOCK HUBBARD_U

SNAP_TO_SYMMETRY
SYMMETRY_GENERATE

