#              Generated by Buildcell
#
# at 13:57:05 (GMT+0.0) 24th November 2020
# in /lustre/scratch/uccabz1/launch_tmp
# on node-c12n-022
# by uccabz1
#
# compiler GCC version 4.9.2
# options -cpp -iprefix /lustre/shared/ucl/apps/gcc/4.9.2/bin/../lib/gcc/x86_64-unknown-linux-gnu/4.9.2/ -mtune=corei7 -march=x86-64 -g -Og
#
# seed  -801447283  1601573858  -682681421 -1236450978  -819906193  1435062345 -1503594887  -149032720 -1186325225  1155618743   945026917  1848061017
#
#      Author: C. J. Pickard (cjp20@cam.ac.uk)
#                Space group: Pc
#

%BLOCK LATTICE_ABC
      3.90572      4.65777      8.93018
     90.00000     99.97871     90.00000
%ENDBLOCK LATTICE_ABC

%BLOCK POSITIONS_FRAC
  Li  -0.0352367   0.3244173  -0.0650661 SPIN=   0.00000
  Li   0.4647633  -0.3244173   0.4349339 SPIN=   0.00000
   O   0.0946996  -0.2099776  -0.1079654 SPIN=   0.00000
   O   0.5362532  -0.1027681  -0.2874311 SPIN=   0.00000
   O   0.4774627  -0.6028132  -0.2033604 SPIN=   0.00000
   O  -0.0051321  -0.3790393  -0.3876198 SPIN=   0.00000
   P   0.2628615  -0.3182507  -0.2408771 SPIN=   0.00000
   O  -0.4053004   0.2099776   0.3920346 SPIN=   0.00000
   O   0.0362532   0.1027681   0.2125689 SPIN=   0.00000
   O  -0.0225373   0.6028132   0.2966396 SPIN=   0.00000
   O  -0.5051321   0.3790393   0.1123802 SPIN=   0.00000
   P  -0.2371385   0.3182507   0.2591229 SPIN=   0.00000
  Fe  -0.4771092  -0.1756592   0.0799398 SPIN=   4.00000
  Fe   0.0228908   0.1756592  -0.4200602 SPIN=   4.00000
%ENDBLOCK POSITIONS_FRAC

# Note: total spin =   8.00

KPOINTS_MP_SPACING 0.07

%BLOCK SPECIES_POT
QC5
%ENDBLOCK SPECIES_POT

%BLOCK HUBBARD_U
Fe d:4.0
%ENDBLOCK HUBBARD_U

SNAP_TO_SYMMETRY
SYMMETRY_GENERATE

