#              Generated by Buildcell
#
# at 09:36:37 (GMT+0.0) 24th November 2020
# in /lustre/scratch/uccabz1/launch_tmp
# on node-c12b-025
# by uccabz1
#
# compiler GCC version 4.9.2
# options -cpp -iprefix /lustre/shared/ucl/apps/gcc/4.9.2/bin/../lib/gcc/x86_64-unknown-linux-gnu/4.9.2/ -mtune=corei7 -march=x86-64 -g -Og
#
# seed   231447287  1444041496  1534566705 -1712972550    38386487  -964089897  1945801038  -910776343  1178205245  -323711917 -1934671140  1334985767
#
#      Author: C. J. Pickard (cjp20@cam.ac.uk)
#                Space group: P-1
#

%BLOCK LATTICE_ABC
      4.08384      6.21639      7.13630
    111.85130    106.16259     91.02045
%ENDBLOCK LATTICE_ABC

%BLOCK POSITIONS_FRAC
  Li   0.0624752  -0.1974533   0.1145710 SPIN=   0.00000
  Li  -0.0624752   0.1974533  -0.1145710 SPIN=   0.00000
   O  -0.5830068   0.2436127  -0.1597039 SPIN=   0.00000
   O  -0.2198506   0.5680001  -0.1920631 SPIN=   0.00000
   O  -0.2675822   0.1599609  -0.4443398 SPIN=   0.00000
   O  -0.7811627   0.3738631  -0.4729605 SPIN=   0.00000
   O   0.5830068  -0.2436127   0.1597039 SPIN=   0.00000
   O   0.2198506  -0.5680001   0.1920631 SPIN=   0.00000
   O   0.2675822  -0.1599609   0.4443398 SPIN=   0.00000
   O   0.7811627  -0.3738631   0.4729605 SPIN=   0.00000
   P   0.0000000  -0.0000000   0.5000000 SPIN=   0.00000
   P  -0.5000000  -0.5000000   0.0000000 SPIN=   0.00000
  Fe  -0.6359612  -0.2612640  -0.2798985 SPIN=   4.00000
  Fe   0.6359612   0.2612640   0.2798985 SPIN=   4.00000
%ENDBLOCK POSITIONS_FRAC

# Note: total spin =   8.00

KPOINTS_MP_SPACING 0.07

%BLOCK SPECIES_POT
QC5
%ENDBLOCK SPECIES_POT

%BLOCK HUBBARD_U
Fe d:4.0
%ENDBLOCK HUBBARD_U

SNAP_TO_SYMMETRY
SYMMETRY_GENERATE

