#              Generated by Buildcell
#
# at 11:32:37 (GMT+0.0) 24th November 2020
# in /scratch/scratch/uccabz1/launch_tmp
# on node-a14c-007
# by uccabz1
#
# compiler GCC version 4.9.2
# options -cpp -iprefix /scratch/UCL/applications/gcc/4.9.2/bin/../lib/gcc/x86_64-unknown-linux-gnu/4.9.2/ -mtune=corei7 -march=x86-64 -g -O2
#
# seed -1160827107   620633364 -1851310699  -166572390   823152410  -763838455  1703836981  1618207562  1694106471  1791869595  1858629584   148622954
#
#      Author: C. J. Pickard (cjp20@cam.ac.uk)
#                Space group: C2
#

%BLOCK LATTICE_ABC
      4.28339      6.29853      6.29853
     91.74182    103.51277    103.51277
%ENDBLOCK LATTICE_ABC

%BLOCK POSITIONS_FRAC
  Li   0.2583602  -0.4335445  -0.0825715 SPIN=   0.00000
  Li  -0.2583602   0.0825715   0.4335445 SPIN=   0.00000
   O  -0.0115545  -0.3216073  -0.3628310 SPIN=   0.00000
   O   0.1829299   0.1025822  -0.2898152 SPIN=   0.00000
   O   0.6046805  -0.1057008  -0.2916039 SPIN=   0.00000
   O   0.2070944  -0.0762787  -0.6442040 SPIN=   0.00000
   P   0.2316287  -0.1117544  -0.3982041 SPIN=   0.00000
   O   0.0115545   0.3628310   0.3216073 SPIN=   0.00000
   O  -0.1829299   0.2898152  -0.1025822 SPIN=   0.00000
   O  -0.6046805   0.2916039   0.1057008 SPIN=   0.00000
   O  -0.2070944   0.6442040   0.0762787 SPIN=   0.00000
   P  -0.2316287   0.3982041   0.1117544 SPIN=   0.00000
  Fe   0.0000000   0.0138418  -0.0138418 SPIN=   5.54182
  Fe   0.5000000  -0.4536175   0.4536175 SPIN=   2.45818
%ENDBLOCK POSITIONS_FRAC

# Note: total spin =   8.00

KPOINTS_MP_SPACING 0.07

%BLOCK SPECIES_POT
QC5
%ENDBLOCK SPECIES_POT

%BLOCK HUBBARD_U
Fe d:4.0
%ENDBLOCK HUBBARD_U

SNAP_TO_SYMMETRY
SYMMETRY_GENERATE

