#              Generated by Buildcell
#
# at 11:26:19 (GMT+0.0) 24th November 2020
# in /lustre/scratch/uccabz1/launch_tmp
# on node-c12o-027
# by uccabz1
#
# compiler GCC version 4.9.2
# options -cpp -iprefix /lustre/shared/ucl/apps/gcc/4.9.2/bin/../lib/gcc/x86_64-unknown-linux-gnu/4.9.2/ -mtune=corei7 -march=x86-64 -g -Og
#
# seed  -907697961 -1020731145  1634337151  -574624694  -444436241 -1405477362   851859068  -703314902  1272374701    91780127  1646068775 -1953900314
#
#      Author: C. J. Pickard (cjp20@cam.ac.uk)
#                Space group: P-1
#

%BLOCK LATTICE_ABC
      4.64619      5.36871      6.64514
     77.01119     85.19701     82.87328
%ENDBLOCK LATTICE_ABC

%BLOCK POSITIONS_FRAC
  Li  -0.0359058  -0.0841294   0.3007075 SPIN=   0.00000
  Li   0.0359058   0.0841294  -0.3007075 SPIN=   0.00000
   O   0.4453475  -0.1144959   0.3453187 SPIN=   0.00000
   O   0.7335053   0.2825281   0.2208820 SPIN=   0.00000
   O   0.3652856   0.2140442  -0.0028775 SPIN=   0.00000
   O   0.2054015   0.3494750   0.3294970 SPIN=   0.00000
   P   0.4350713   0.1690196   0.2309614 SPIN=   0.00000
   O  -0.4453475   0.1144959  -0.3453187 SPIN=   0.00000
   O  -0.7335053  -0.2825281  -0.2208820 SPIN=   0.00000
   O  -0.3652856  -0.2140442   0.0028775 SPIN=   0.00000
   O  -0.2054015  -0.3494750  -0.3294970 SPIN=   0.00000
   P  -0.4350713  -0.1690196  -0.2309614 SPIN=   0.00000
  Fe   0.5000000  -0.5000000  -0.5000000 SPIN=   3.60230
  Fe  -0.0000000   0.5000000   0.0000000 SPIN=   4.39770
%ENDBLOCK POSITIONS_FRAC

# Note: total spin =   8.00

KPOINTS_MP_SPACING 0.07

%BLOCK SPECIES_POT
QC5
%ENDBLOCK SPECIES_POT

%BLOCK HUBBARD_U
Fe d:4.0
%ENDBLOCK HUBBARD_U

SNAP_TO_SYMMETRY
SYMMETRY_GENERATE

