#              Generated by Buildcell
#
# at 12:46:15 (GMT+0.0) 24th November 2020
# in /lustre/scratch/uccabz1/launch_tmp
# on node-c12g-020
# by uccabz1
#
# compiler GCC version 4.9.2
# options -cpp -iprefix /lustre/shared/ucl/apps/gcc/4.9.2/bin/../lib/gcc/x86_64-unknown-linux-gnu/4.9.2/ -mtune=corei7 -march=x86-64 -g -Og
#
# seed -1195596586 -1736078722 -1741098563  -480620348  -599554509    13117810  -892516049 -1352212788  1716531881    24937168   278410923  1989418103
#
#      Author: C. J. Pickard (cjp20@cam.ac.uk)
#                Space group: Pc
#

%BLOCK LATTICE_ABC
      4.54453      5.21171      7.25197
     90.00000     90.00000    111.32625
%ENDBLOCK LATTICE_ABC

%BLOCK POSITIONS_FRAC
  Li  -0.1565460   0.0006975   0.1136195 SPIN=   0.00000
  Li   0.3434540  -0.4993025  -0.1136195 SPIN=   0.00000
   O   0.3417670  -0.2918688  -0.3620429 SPIN=   0.00000
   O  -0.1478682  -0.2268160  -0.5089460 SPIN=   0.00000
   O  -0.2196011  -0.4887248  -0.2178964 SPIN=   0.00000
   O   0.0764617   0.0211727  -0.2157652 SPIN=   0.00000
   P   0.0309641  -0.2458122  -0.3267703 SPIN=   0.00000
   O  -0.1582330   0.2081312   0.3620429 SPIN=   0.00000
   O  -0.6478682   0.2731840   0.5089460 SPIN=   0.00000
   O  -0.7196011   0.0112752   0.2178964 SPIN=   0.00000
   O  -0.4235383   0.5211727   0.2157652 SPIN=   0.00000
   P  -0.4690359   0.2541878   0.3267703 SPIN=   0.00000
  Fe   0.1788735  -0.3909904   0.3127660 SPIN=   4.00000
  Fe  -0.3211265   0.1090096  -0.3127660 SPIN=   4.00000
%ENDBLOCK POSITIONS_FRAC

# Note: total spin =   8.00

KPOINTS_MP_SPACING 0.07

%BLOCK SPECIES_POT
QC5
%ENDBLOCK SPECIES_POT

%BLOCK HUBBARD_U
Fe d:4.0
%ENDBLOCK HUBBARD_U

SNAP_TO_SYMMETRY
SYMMETRY_GENERATE

