#              Generated by Buildcell
#
# at 16:21:49 (GMT+0.0) 26th November 2020
# in /lustre/scratch/uccabz1/launch_tmp
# on node-c12d-028
# by uccabz1
#
# compiler GCC version 4.9.2
# options -cpp -iprefix /lustre/shared/ucl/apps/gcc/4.9.2/bin/../lib/gcc/x86_64-unknown-linux-gnu/4.9.2/ -mtune=corei7 -march=x86-64 -g -Og
#
# seed -1244297993 -1830375576  2031383834  -308394027  1003456776   -84898270 -1618293213  1499489762   562440222   484011248  1051370457  -467685497
#
#      Author: C. J. Pickard (cjp20@cam.ac.uk)
#                Space group: P2/c
#

%BLOCK LATTICE_ABC
      4.36063      8.62881      8.83889
    105.81006     90.00000     90.00000
%ENDBLOCK LATTICE_ABC

%BLOCK POSITIONS_FRAC
  Li  -0.4796302  -0.5000000   0.2500000 SPIN=   0.00000
  Li   0.4796302   0.5000000  -0.2500000 SPIN=   0.00000
  Li   0.0000000  -0.5000000   0.0000000 SPIN=   0.00000
  Li   0.0000000   0.5000000  -0.5000000 SPIN=   0.00000
   O  -0.6408609   0.0499351   0.4011608 SPIN=   0.00000
   O  -0.6061722   0.3610845   0.5101428 SPIN=   0.00000
   O  -0.1250656   0.2065675   0.4428089 SPIN=   0.00000
   O  -0.4777309   0.2328283   0.2275348 SPIN=   0.00000
   P  -0.4721368   0.2041812   0.3937368 SPIN=   0.00000
   O  -0.6408609  -0.0499351   0.0988392 SPIN=   0.00000
   O  -0.6061722  -0.3610845  -0.0101428 SPIN=   0.00000
   O  -0.1250656  -0.2065675   0.0571911 SPIN=   0.00000
   O  -0.4777309  -0.2328283   0.2724652 SPIN=   0.00000
   P  -0.4721368  -0.2041812   0.1062632 SPIN=   0.00000
   O   0.6408609  -0.0499351  -0.4011608 SPIN=   0.00000
   O   0.6061722  -0.3610845  -0.5101428 SPIN=   0.00000
   O   0.1250656  -0.2065675  -0.4428089 SPIN=   0.00000
   O   0.4777309  -0.2328283  -0.2275348 SPIN=   0.00000
   P   0.4721368  -0.2041812  -0.3937368 SPIN=   0.00000
   O   0.6408609   0.0499351  -0.0988392 SPIN=   0.00000
   O   0.6061722   0.3610845   0.0101428 SPIN=   0.00000
   O   0.1250656   0.2065675  -0.0571911 SPIN=   0.00000
   O   0.4777309   0.2328283  -0.2724652 SPIN=   0.00000
   P   0.4721368   0.2041812  -0.1062632 SPIN=   0.00000
  Fe   0.0172319   0.1986222   0.1742420 SPIN=   4.00000
  Fe   0.0172319  -0.1986222   0.3257580 SPIN=   4.00000
  Fe  -0.0172319  -0.1986222  -0.1742420 SPIN=   4.00000
  Fe  -0.0172319   0.1986222  -0.3257580 SPIN=   4.00000
%ENDBLOCK POSITIONS_FRAC

# Note: total spin =  16.00

KPOINTS_MP_SPACING 0.07

%BLOCK SPECIES_POT
QC5
%ENDBLOCK SPECIES_POT

%BLOCK HUBBARD_U
Fe d:4.0
%ENDBLOCK HUBBARD_U

SNAP_TO_SYMMETRY
SYMMETRY_GENERATE

