#              Generated by Buildcell
#
# at 11:23:34 (GMT+0.0) 24th November 2020
# in /scratch/scratch/uccabz1/launch_tmp
# on node-a14f-013
# by uccabz1
#
# compiler GCC version 4.9.2
# options -cpp -iprefix /scratch/UCL/applications/gcc/4.9.2/bin/../lib/gcc/x86_64-unknown-linux-gnu/4.9.2/ -mtune=corei7 -march=x86-64 -g -O2
#
# seed   486349212   384993833   -82012578 -1434098305   429417692  1643328894  2008736707 -1570506646 -1623422615  1811725751  -279375126  -746342564
#
#      Author: C. J. Pickard (cjp20@cam.ac.uk)
#                Space group: Pm
#

%BLOCK LATTICE_ABC
      4.21299      4.25520      8.92549
     90.00000     90.00000     90.57677
%ENDBLOCK LATTICE_ABC

%BLOCK POSITIONS_FRAC
  Li  -0.1259250   0.0416634   0.0000000 SPIN=   0.00000
  Li   0.3735079  -0.4558780   0.0000000 SPIN=   0.00000
   O   0.2463330  -0.1775907  -0.3623948 SPIN=   0.00000
   O   0.7671627  -0.0010041  -0.2296491 SPIN=   0.00000
   O   0.2995473   0.3424219  -0.2115206 SPIN=   0.00000
   P   0.3939912  -0.0130974  -0.2253353 SPIN=   0.00000
   O   0.2463330  -0.1775907   0.3623948 SPIN=   0.00000
   O   0.7671627  -0.0010041   0.2296491 SPIN=   0.00000
   O   0.2995473   0.3424219   0.2115206 SPIN=   0.00000
   P   0.3939912  -0.0130974   0.2253353 SPIN=   0.00000
   O  -0.3495227   0.4730358  -0.5000000 SPIN=   0.00000
   O  -0.1265585  -0.4625018   0.0000000 SPIN=   0.00000
  Fe  -0.1287248  -0.4676049   0.2842316 SPIN=   4.00000
  Fe  -0.1287248  -0.4676049  -0.2842316 SPIN=   4.00000
%ENDBLOCK POSITIONS_FRAC

# Note: total spin =   8.00

KPOINTS_MP_SPACING 0.07

%BLOCK SPECIES_POT
QC5
%ENDBLOCK SPECIES_POT

%BLOCK HUBBARD_U
Fe d:4.0
%ENDBLOCK HUBBARD_U

SNAP_TO_SYMMETRY
SYMMETRY_GENERATE

