#              Generated by Buildcell
#
# at 06:06:49 (GMT+0.0) 24th November 2020
# in /scratch/scratch/uccabz1/launch_tmp
# on node-a14f-013
# by uccabz1
#
# compiler GCC version 4.9.2
# options -cpp -iprefix /scratch/UCL/applications/gcc/4.9.2/bin/../lib/gcc/x86_64-unknown-linux-gnu/4.9.2/ -mtune=corei7 -march=x86-64 -g -O2
#
# seed  1187933584   621162285 -2081734987  -975259179  1902607236   868112197  1977285136  -112670672 -1553655767  -517588586  -378447945  1025831962
#
#      Author: C. J. Pickard (cjp20@cam.ac.uk)
#                Space group: Cc
#

%BLOCK LATTICE_ABC
      4.72118      4.72118      7.41400
     91.43895     91.43895    104.30054
%ENDBLOCK LATTICE_ABC

%BLOCK POSITIONS_FRAC
  Li  -0.1698132  -0.3149403   0.4026202 SPIN=   0.00000
  Li  -0.3149403  -0.1698132  -0.0973798 SPIN=   0.00000
   O   0.3723855  -0.3803630  -0.5993958 SPIN=   0.00000
   O   0.6998234   0.0940177  -0.4474685 SPIN=   0.00000
   O   0.1952461   0.0928413  -0.5446202 SPIN=   0.00000
   O   0.2782102  -0.1995634  -0.2800318 SPIN=   0.00000
   P   0.3843923  -0.1144825  -0.4726649 SPIN=   0.00000
   O  -0.3803630   0.3723855  -0.0993958 SPIN=   0.00000
   O   0.0940177   0.6998234   0.0525315 SPIN=   0.00000
   O   0.0928413   0.1952461  -0.0446202 SPIN=   0.00000
   O  -0.1995634   0.2782102   0.2199682 SPIN=   0.00000
   P  -0.1144825   0.3843923   0.0273351 SPIN=   0.00000
  Fe   0.3359210   0.1565539   0.1900572 SPIN=   4.00000
  Fe   0.1565539   0.3359210  -0.3099428 SPIN=   4.00000
%ENDBLOCK POSITIONS_FRAC

# Note: total spin =   8.00

KPOINTS_MP_SPACING 0.07

%BLOCK SPECIES_POT
QC5
%ENDBLOCK SPECIES_POT

%BLOCK HUBBARD_U
Fe d:4.0
%ENDBLOCK HUBBARD_U

SNAP_TO_SYMMETRY
SYMMETRY_GENERATE

