#              Generated by Buildcell
#
# at 22:24:10 (GMT+0.0) 26th November 2020
# in /lustre/scratch/uccabz1/launch_tmp
# on node-c12p-025
# by uccabz1
#
# compiler GCC version 4.9.2
# options -cpp -iprefix /lustre/shared/ucl/apps/gcc/4.9.2/bin/../lib/gcc/x86_64-unknown-linux-gnu/4.9.2/ -mtune=corei7 -march=x86-64 -g -Og
#
# seed -1913335112  -714131629 -1348814636  -158493653 -2142882088  1760203622 -2122672246  1311060189 -1823618560   160555930 -2017657055 -1481129884
#
#      Author: C. J. Pickard (cjp20@cam.ac.uk)
#                Space group: Pna21
#

%BLOCK LATTICE_ABC
      5.58937      7.03692      8.13587
     90.00000     90.00000     90.00000
%ENDBLOCK LATTICE_ABC

%BLOCK POSITIONS_FRAC
  Li  -0.1111981  -0.3765083  -0.0208008 SPIN=   0.00000
  Li   0.1111981   0.3765083   0.4791992 SPIN=   0.00000
  Li   0.3888019  -0.1234917  -0.0208008 SPIN=   0.00000
  Li  -0.3888019   0.1234917   0.4791992 SPIN=   0.00000
   O   0.0583995   0.2996985  -0.0767879 SPIN=   0.00000
   O   0.3451703   0.3008242  -0.3281043 SPIN=   0.00000
   O   0.0372851   0.5517139  -0.3097076 SPIN=   0.00000
   O   0.3845076   0.5559439  -0.1151943 SPIN=   0.00000
   P   0.2005661   0.4217857  -0.1994028 SPIN=   0.00000
   O  -0.0583995  -0.2996985   0.4232121 SPIN=   0.00000
   O  -0.3451703  -0.3008242   0.1718957 SPIN=   0.00000
   O  -0.0372851  -0.5517139   0.1902924 SPIN=   0.00000
   O  -0.3845076  -0.5559439   0.3848057 SPIN=   0.00000
   P  -0.2005661  -0.4217857   0.3005972 SPIN=   0.00000
   O  -0.4416005   0.2003015  -0.0767879 SPIN=   0.00000
   O  -0.1548297   0.1991758  -0.3281043 SPIN=   0.00000
   O  -0.4627149  -0.0517139  -0.3097076 SPIN=   0.00000
   O  -0.1154924  -0.0559439  -0.1151943 SPIN=   0.00000
   P  -0.2994339   0.0782143  -0.1994028 SPIN=   0.00000
   O   0.4416005  -0.2003015   0.4232121 SPIN=   0.00000
   O   0.1548297  -0.1991758   0.1718957 SPIN=   0.00000
   O   0.4627149   0.0517139   0.1902924 SPIN=   0.00000
   O   0.1154924   0.0559439   0.3848057 SPIN=   0.00000
   P   0.2994339  -0.0782143   0.3005972 SPIN=   0.00000
  Fe   0.1110538  -0.0579094  -0.3727338 SPIN=   4.00000
  Fe  -0.1110538   0.0579094   0.1272662 SPIN=   4.00000
  Fe  -0.3889462  -0.4420906  -0.3727338 SPIN=   4.00000
  Fe   0.3889462   0.4420906   0.1272662 SPIN=   4.00000
%ENDBLOCK POSITIONS_FRAC

# Note: total spin =  16.00

KPOINTS_MP_SPACING 0.07

%BLOCK SPECIES_POT
QC5
%ENDBLOCK SPECIES_POT

%BLOCK HUBBARD_U
Fe d:4.0
%ENDBLOCK HUBBARD_U

SNAP_TO_SYMMETRY
SYMMETRY_GENERATE

