#              Generated by Buildcell
#
# at 09:31:27 (GMT+0.0) 24th November 2020
# in /scratch/scratch/uccabz1/launch_tmp
# on node-a14c-023
# by uccabz1
#
# compiler GCC version 4.9.2
# options -cpp -iprefix /scratch/UCL/applications/gcc/4.9.2/bin/../lib/gcc/x86_64-unknown-linux-gnu/4.9.2/ -mtune=corei7 -march=x86-64 -g -O2
#
# seed  1722163050  -440008353 -1001981616   956858078   570212769   281015689   451317869  -739405689  1203621745  2039180784   655791626   107158802
#
#      Author: C. J. Pickard (cjp20@cam.ac.uk)
#                Space group: Cc
#

%BLOCK LATTICE_ABC
      4.92589      4.92589      6.93122
     77.30458     77.30458     88.71093
%ENDBLOCK LATTICE_ABC

%BLOCK POSITIONS_FRAC
  Li  -0.0713245  -0.4133104   0.4656158 SPIN=   0.00000
  Li   0.0866896   0.4286755  -0.0343842 SPIN=   0.00000
   O   0.1155600   0.2386728   0.3647298 SPIN=   0.00000
   O  -0.1135176  -0.0437087   0.1641928 SPIN=   0.00000
   O  -0.3261657  -0.0789280   0.5267156 SPIN=   0.00000
   O  -0.3605382   0.3642908   0.2753508 SPIN=   0.00000
   P  -0.1581334   0.1292780   0.3337728 SPIN=   0.00000
   O  -0.2613272   0.6155600  -0.1352702 SPIN=   0.00000
   O  -0.5437087   0.3864824  -0.3358072 SPIN=   0.00000
   O  -0.5789280   0.1738343   0.0267156 SPIN=   0.00000
   O  -0.1357092   0.1394618  -0.2246492 SPIN=   0.00000
   P  -0.3707220   0.3418666  -0.1662272 SPIN=   0.00000
  Fe  -0.4733338  -0.2377565   0.1358919 SPIN=   4.00000
  Fe   0.2622435   0.0266662  -0.3641081 SPIN=   4.00000
%ENDBLOCK POSITIONS_FRAC

# Note: total spin =   8.00

KPOINTS_MP_SPACING 0.07

%BLOCK SPECIES_POT
QC5
%ENDBLOCK SPECIES_POT

%BLOCK HUBBARD_U
Fe d:4.0
%ENDBLOCK HUBBARD_U

SNAP_TO_SYMMETRY
SYMMETRY_GENERATE

