#              Generated by Buildcell
#
# at 13:47:08 (GMT+0.0) 24th November 2020
# in /scratch/scratch/uccabz1/launch_tmp
# on node-k10a-022
# by uccabz1
#
# compiler GCC version 4.9.2
# options -cpp -iprefix /scratch/UCL/applications/gcc/4.9.2/bin/../lib/gcc/x86_64-unknown-linux-gnu/4.9.2/ -mtune=corei7 -march=x86-64 -g -O2
#
# seed   -20250831   145563683  2059427572   294298748 -1943819059   991037837  -559888978 -1593164131   168483435  -941773827   153775429  2046403170
#
#      Author: C. J. Pickard (cjp20@cam.ac.uk)
#                Space group: I212121
#

%BLOCK LATTICE_ABC
      5.95200      5.95200      5.95200
    101.51523    113.04886    114.13298
%ENDBLOCK LATTICE_ABC

%BLOCK POSITIONS_FRAC
  Li  -0.3434514  -0.2500000  -0.0934514 SPIN=   0.00000
  Li  -0.1565486   0.2500000  -0.4065486 SPIN=   0.00000
   O   0.0050356  -0.3630987   0.0158831 SPIN=   0.00000
   O   0.4104389  -0.0028965   0.5092579 SPIN=   0.00000
   O  -0.1210182  -0.1369013   0.3681343 SPIN=   0.00000
   O   0.0121543  -0.4971035   0.4133354 SPIN=   0.00000
   O  -0.3789818   0.4891525   0.4841169 SPIN=   0.00000
   O  -0.5121543   0.4011810  -0.0092579 SPIN=   0.00000
   O   0.4949644   0.0108475   0.1318657 SPIN=   0.00000
   O   0.0895611   0.0988190   0.0866646 SPIN=   0.00000
   P   0.2500000   0.1266007   0.3766007 SPIN=   0.00000
   P  -0.2500000   0.3733993   0.1233993 SPIN=   0.00000
  Fe   0.1656093  -0.0843907  -0.2500000 SPIN=   4.00000
  Fe   0.3343907  -0.4156093   0.2500000 SPIN=   4.00000
%ENDBLOCK POSITIONS_FRAC

# Note: total spin =   8.00

KPOINTS_MP_SPACING 0.07

%BLOCK SPECIES_POT
QC5
%ENDBLOCK SPECIES_POT

%BLOCK HUBBARD_U
Fe d:4.0
%ENDBLOCK HUBBARD_U

SNAP_TO_SYMMETRY
SYMMETRY_GENERATE

