#              Generated by Buildcell
#
# at 11:54:44 (GMT+0.0) 24th November 2020
# in /scratch/scratch/uccabz1/launch_tmp
# on node-a14e-013
# by uccabz1
#
# compiler GCC version 4.9.2
# options -cpp -iprefix /scratch/UCL/applications/gcc/4.9.2/bin/../lib/gcc/x86_64-unknown-linux-gnu/4.9.2/ -mtune=corei7 -march=x86-64 -g -O2
#
# seed -1856218339 -1929912941  -468128238   354399691   981322360  1224493328 -1163609257  -917097043   261644262 -1314704287   492283020 -1925894308
#
#      Author: C. J. Pickard (cjp20@cam.ac.uk)
#                Space group: Pc
#

%BLOCK LATTICE_ABC
      4.52895      6.07354      6.22989
     90.00000    110.98331     90.00000
%ENDBLOCK LATTICE_ABC

%BLOCK POSITIONS_FRAC
  Li  -0.2960084  -0.1845083  -0.3109433 SPIN=   0.00000
  Li  -0.2960084   0.1845083   0.1890567 SPIN=   0.00000
   O   0.0598351  -0.3816995  -0.0117505 SPIN=   0.00000
   O   0.1835623  -0.0843667  -0.2673578 SPIN=   0.00000
   O   0.5817953  -0.1561355   0.1177908 SPIN=   0.00000
   O   0.4860943  -0.4388271  -0.1924715 SPIN=   0.00000
   P   0.3154205  -0.2735055  -0.0855912 SPIN=   0.00000
   O   0.0598351   0.3816995   0.4882495 SPIN=   0.00000
   O   0.1835623   0.0843667   0.2326422 SPIN=   0.00000
   O   0.5817953   0.1561355   0.6177908 SPIN=   0.00000
   O   0.4860943   0.4388271   0.3075285 SPIN=   0.00000
   P   0.3154205   0.2735055   0.4144088 SPIN=   0.00000
  Fe   0.0133679   0.3082560  -0.1982302 SPIN=   4.00000
  Fe   0.0133679  -0.3082560   0.3017698 SPIN=   4.00000
%ENDBLOCK POSITIONS_FRAC

# Note: total spin =   8.00

KPOINTS_MP_SPACING 0.07

%BLOCK SPECIES_POT
QC5
%ENDBLOCK SPECIES_POT

%BLOCK HUBBARD_U
Fe d:4.0
%ENDBLOCK HUBBARD_U

SNAP_TO_SYMMETRY
SYMMETRY_GENERATE

