#              Generated by Buildcell
#
# at 08:42:30 (GMT+0.0) 24th November 2020
# in /scratch/scratch/uccabz1/launch_tmp
# on node-a14b-007
# by uccabz1
#
# compiler GCC version 4.9.2
# options -cpp -iprefix /scratch/UCL/applications/gcc/4.9.2/bin/../lib/gcc/x86_64-unknown-linux-gnu/4.9.2/ -mtune=corei7 -march=x86-64 -g -O2
#
# seed  -152249834  1967414410   244113986  -837495499   998048591  1865494563  1485086275   -66478620 -1557267934  1174913647  1414115632 -1827482350
#
#      Author: C. J. Pickard (cjp20@cam.ac.uk)
#                Space group: C2/c
#

%BLOCK LATTICE_ABC
      4.48814      5.18056      7.82278
     84.58490     77.41661     64.33104
%ENDBLOCK LATTICE_ABC

%BLOCK POSITIONS_FRAC
  Li   0.7141054  -0.9282108  -0.2500000 SPIN=   0.00000
  Li  -0.7141054   0.9282108   0.2500000 SPIN=   0.00000
   O   0.7458172  -0.5428154  -0.1830463 SPIN=   0.00000
   O   0.3056241  -0.0327826  -0.0770079 SPIN=   0.00000
   O   0.2969982  -0.5428154  -0.3169537 SPIN=   0.00000
   O   0.2271585  -0.0327826  -0.4229921 SPIN=   0.00000
   O  -0.7458172   0.5428154   0.1830463 SPIN=   0.00000
   O  -0.3056241   0.0327826   0.0770079 SPIN=   0.00000
   O  -0.2969982   0.5428154   0.3169537 SPIN=   0.00000
   O  -0.2271585   0.0327826   0.4229921 SPIN=   0.00000
   P   0.3794017  -0.2588033  -0.2500000 SPIN=   0.00000
   P  -0.3794017   0.2588033   0.2500000 SPIN=   0.00000
  Fe   0.0000000   0.5000000  -0.0000000 SPIN=   4.00000
  Fe  -0.0000000   0.5000000  -0.5000000 SPIN=   4.00000
%ENDBLOCK POSITIONS_FRAC

# Note: total spin =   8.00

KPOINTS_MP_SPACING 0.07

%BLOCK SPECIES_POT
QC5
%ENDBLOCK SPECIES_POT

%BLOCK HUBBARD_U
Fe d:4.0
%ENDBLOCK HUBBARD_U

SNAP_TO_SYMMETRY
SYMMETRY_GENERATE

