#              Generated by Buildcell
#
# at 22:55:38 (GMT+0.0) 26th November 2020
# in /lustre/scratch/uccabz1/launch_tmp
# on node-c12d-021
# by uccabz1
#
# compiler GCC version 4.9.2
# options -cpp -iprefix /lustre/shared/ucl/apps/gcc/4.9.2/bin/../lib/gcc/x86_64-unknown-linux-gnu/4.9.2/ -mtune=corei7 -march=x86-64 -g -Og
#
# seed  -421702122  1860804460   529375938  1922730359   -47566909  2014232996 -1731357396 -2043435410 -2053213455  -824788718  1703738587  1111679969
#
#      Author: C. J. Pickard (cjp20@cam.ac.uk)
#                Space group: Cc
#

%BLOCK LATTICE_ABC
      6.92298      6.92298      7.78720
    103.74160    103.74160    109.72619
%ENDBLOCK LATTICE_ABC

%BLOCK POSITIONS_FRAC
  Li  -0.2280375   0.0403955  -0.3493874 SPIN=   0.00000
  Li   0.5403955   0.2719625   0.1506126 SPIN=   0.00000
  Li  -0.4861811  -0.4497745  -0.4979660 SPIN=   0.00000
  Li   0.0502255   0.0138189   0.0020340 SPIN=   0.00000
   O   0.7867760   0.5054908   0.4015538 SPIN=   0.00000
   O   1.0038849   0.8887615   0.6640898 SPIN=   0.00000
   O   1.0667160   0.8362567   0.3604082 SPIN=   0.00000
   O   0.7108948   0.8401463   0.3762746 SPIN=   0.00000
   P   0.8843236   0.7545598   0.4470943 SPIN=   0.00000
   O   0.0054908   0.2867760  -0.0984462 SPIN=   0.00000
   O   0.3887615   0.5038849   0.1640898 SPIN=   0.00000
   O   0.3362567   0.5667160  -0.1395918 SPIN=   0.00000
   O   0.3401463   0.2108948  -0.1237254 SPIN=   0.00000
   P   0.2545598   0.3843236  -0.0529057 SPIN=   0.00000
   O   0.0130663  -0.3109193  -0.1016482 SPIN=   0.00000
   O  -0.3186829  -0.4516472   0.0072317 SPIN=   0.00000
   O  -0.3375591  -0.2463509  -0.2112681 SPIN=   0.00000
   O  -0.3573826  -0.6247238  -0.3275621 SPIN=   0.00000
   P  -0.2373908  -0.4057722  -0.1572919 SPIN=   0.00000
   O   0.1890807   0.5130663   0.3983518 SPIN=   0.00000
   O   0.0483528   0.1813171   0.5072317 SPIN=   0.00000
   O   0.2536491   0.1624409   0.2887319 SPIN=   0.00000
   O  -0.1247238   0.1426174   0.1724379 SPIN=   0.00000
   P   0.0942278   0.2626092   0.3427081 SPIN=   0.00000
  Fe   0.0579397  -0.4681021  -0.3427653 SPIN=   4.39204
  Fe   0.0318979   0.5579397   0.1572347 SPIN=   4.39204
  Fe  -0.4003468  -0.1870384   0.0941144 SPIN=   3.60796
  Fe  -0.6870384  -0.9003468  -0.4058856 SPIN=   3.60796
%ENDBLOCK POSITIONS_FRAC

# Note: total spin =  16.00

KPOINTS_MP_SPACING 0.07

%BLOCK SPECIES_POT
QC5
%ENDBLOCK SPECIES_POT

%BLOCK HUBBARD_U
Fe d:4.0
%ENDBLOCK HUBBARD_U

SNAP_TO_SYMMETRY
SYMMETRY_GENERATE

