#              Generated by Buildcell
#
# at 07:48:18 (GMT+0.0) 24th November 2020
# in /lustre/scratch/uccabz1/launch_tmp
# on node-c12f-020
# by uccabz1
#
# compiler GCC version 4.9.2
# options -cpp -iprefix /lustre/shared/ucl/apps/gcc/4.9.2/bin/../lib/gcc/x86_64-unknown-linux-gnu/4.9.2/ -mtune=corei7 -march=x86-64 -g -Og
#
# seed  1644536807 -1270610783   757886570 -1141351249   789718369  -263728069  -929236560 -1714883018  -175108101  1516607173 -1570926444   723937583
#
#      Author: C. J. Pickard (cjp20@cam.ac.uk)
#                Space group: P-1
#

%BLOCK LATTICE_ABC
      4.06576      5.79096      7.58718
    102.85284     99.11785    108.51129
%ENDBLOCK LATTICE_ABC

%BLOCK POSITIONS_FRAC
  Li  -0.0563685  -0.1904639  -0.3899121 SPIN=   0.00000
  Li   0.0563685   0.1904639   0.3899121 SPIN=   0.00000
   O  -0.5681240  -0.0301160  -0.1881598 SPIN=   0.00000
   O  -0.7153707  -0.3990654  -0.0363973 SPIN=   0.00000
   O  -0.6978344  -0.4999321  -0.3678665 SPIN=   0.00000
   P  -0.5245464  -0.2814246  -0.1779867 SPIN=   0.00000
   O   0.5681240   0.0301160   0.1881598 SPIN=   0.00000
   O   0.7153707   0.3990654   0.0363973 SPIN=   0.00000
   O   0.6978344   0.4999321   0.3678665 SPIN=   0.00000
   P   0.5245464   0.2814246   0.1779867 SPIN=   0.00000
   O  -0.0000000  -0.0000000  -0.0000000 SPIN=   0.00000
   O  -0.5000000  -0.0000000  -0.5000000 SPIN=   0.00000
  Fe  -0.2881083  -0.7000757  -0.2490303 SPIN=   4.00000
  Fe   0.2881083   0.7000757   0.2490303 SPIN=   4.00000
%ENDBLOCK POSITIONS_FRAC

# Note: total spin =   8.00

KPOINTS_MP_SPACING 0.07

%BLOCK SPECIES_POT
QC5
%ENDBLOCK SPECIES_POT

%BLOCK HUBBARD_U
Fe d:4.0
%ENDBLOCK HUBBARD_U

SNAP_TO_SYMMETRY
SYMMETRY_GENERATE

