#              Generated by Buildcell
#
# at 06:27:46 (GMT+0.0) 24th November 2020
# in /lustre/scratch/uccabz1/launch_tmp
# on node-c12e-020
# by uccabz1
#
# compiler GCC version 4.9.2
# options -cpp -iprefix /lustre/shared/ucl/apps/gcc/4.9.2/bin/../lib/gcc/x86_64-unknown-linux-gnu/4.9.2/ -mtune=corei7 -march=x86-64 -g -Og
#
# seed   858178298 -1690976619   612105937  -919803679 -1241214187 -1333495718   191212015   450940985   437091499   147210148  1269407013   684477367
#
#      Author: C. J. Pickard (cjp20@cam.ac.uk)
#                Space group: Amm2
#

%BLOCK LATTICE_ABC
      5.40988      5.65832      5.88534
     90.00000    117.36171     90.00000
%ENDBLOCK LATTICE_ABC

%BLOCK POSITIONS_FRAC
  Li  -0.1951618  -0.0000000  -0.3903237 SPIN=   0.00000
  Li  -0.0878881  -0.5000000  -0.1757761 SPIN=   0.00000
   O   0.1164070  -0.2569614  -0.3109381 SPIN=   0.00000
   O   0.3228192  -0.2331510   0.1836433 SPIN=   0.00000
   O  -0.4273451   0.2569614  -0.3109381 SPIN=   0.00000
   O  -0.1391758   0.2331510   0.1836433 SPIN=   0.00000
   O  -0.4273451  -0.2569614  -0.3109381 SPIN=   0.00000
   O  -0.1391758  -0.2331510   0.1836433 SPIN=   0.00000
   O   0.1164070   0.2569614  -0.3109381 SPIN=   0.00000
   O   0.3228192   0.2331510   0.1836433 SPIN=   0.00000
   P  -0.3811049   0.5000000  -0.7622098 SPIN=   0.00000
   P   0.1639703   0.0000000   0.3279407 SPIN=   0.00000
  Fe   0.2290111   0.5000000   0.4580222 SPIN=   4.47447
  Fe   0.4884200   0.0000000   0.9768400 SPIN=   3.52553
%ENDBLOCK POSITIONS_FRAC

# Note: total spin =   8.00

KPOINTS_MP_SPACING 0.07

%BLOCK SPECIES_POT
QC5
%ENDBLOCK SPECIES_POT

%BLOCK HUBBARD_U
Fe d:4.0
%ENDBLOCK HUBBARD_U

SNAP_TO_SYMMETRY
SYMMETRY_GENERATE

