#              Generated by Buildcell
#
# at 06:59:22 (GMT+0.0) 26th November 2020
# in /lustre/scratch/uccabz1/launch_tmp
# on node-c12i-032
# by uccabz1
#
# compiler GCC version 4.9.2
# options -cpp -iprefix /lustre/shared/ucl/apps/gcc/4.9.2/bin/../lib/gcc/x86_64-unknown-linux-gnu/4.9.2/ -mtune=corei7 -march=x86-64 -g -Og
#
# seed -1622778797 -1818535497  1937738238  1830801748   215081158   138373045 -1548618912  -429937048 -1166134076 -1443188045  1292920493  1981403023
#
#      Author: C. J. Pickard (cjp20@cam.ac.uk)
#                Space group: Cc
#

%BLOCK LATTICE_ABC
      5.48440      8.19526      8.19526
    100.65604    107.36415    107.36415
%ENDBLOCK LATTICE_ABC

%BLOCK POSITIONS_FRAC
  Li   0.4947876   0.2644265   0.1545005 SPIN=   0.00000
  Li  -0.0052124   0.1545005   0.2644265 SPIN=   0.00000
  Li  -0.3751553   0.4270931  -0.4514940 SPIN=   0.00000
  Li   0.1248447  -0.4514940   0.4270931 SPIN=   0.00000
   O  -0.1320113  -0.0910309  -0.1128290 SPIN=   0.00000
   O  -0.1896535   0.1158043  -0.3145371 SPIN=   0.00000
   O   0.2817858   0.1578049  -0.1241050 SPIN=   0.00000
   O   0.0035218  -0.1160692  -0.3897692 SPIN=   0.00000
   P  -0.0154855   0.0093290  -0.2306114 SPIN=   0.00000
   O   0.3679887  -0.1128290  -0.0910309 SPIN=   0.00000
   O   0.3103465  -0.3145371   0.1158043 SPIN=   0.00000
   O   0.7817858  -0.1241050   0.1578049 SPIN=   0.00000
   O   0.5035218  -0.3897692  -0.1160692 SPIN=   0.00000
   P   0.4845145  -0.2306114   0.0093290 SPIN=   0.00000
   O  -0.1678325   0.5055852   0.1727549 SPIN=   0.00000
   O  -0.2439872   0.1776121   0.0189909 SPIN=   0.00000
   O  -0.0542765   0.4136290  -0.1081569 SPIN=   0.00000
   O   0.2381086   0.4031681   0.1869550 SPIN=   0.00000
   P  -0.0594158   0.3822841   0.0746411 SPIN=   0.00000
   O   0.3321675   0.1727549   0.5055852 SPIN=   0.00000
   O   0.2560128   0.0189909   0.1776121 SPIN=   0.00000
   O   0.4457235  -0.1081569   0.4136290 SPIN=   0.00000
   O   0.7381086   0.1869550   0.4031681 SPIN=   0.00000
   P   0.4405842   0.0746411   0.3822841 SPIN=   0.00000
  Fe  -0.0657753  -0.3047631  -0.0319558 SPIN=   3.98599
  Fe   0.4342247  -0.0319558  -0.3047631 SPIN=   3.98599
  Fe  -0.3172186  -0.2534416   0.3588506 SPIN=   4.01401
  Fe   0.1827814   0.3588506  -0.2534416 SPIN=   4.01401
%ENDBLOCK POSITIONS_FRAC

# Note: total spin =  16.00

KPOINTS_MP_SPACING 0.07

%BLOCK SPECIES_POT
QC5
%ENDBLOCK SPECIES_POT

%BLOCK HUBBARD_U
Fe d:4.0
%ENDBLOCK HUBBARD_U

SNAP_TO_SYMMETRY
SYMMETRY_GENERATE

