#              Generated by Buildcell
#
# at 22:34:12 (GMT+0.0) 26th November 2020
# in /lustre/scratch/uccabz1/launch_tmp
# on node-c12k-024
# by uccabz1
#
# compiler GCC version 4.9.2
# options -cpp -iprefix /lustre/shared/ucl/apps/gcc/4.9.2/bin/../lib/gcc/x86_64-unknown-linux-gnu/4.9.2/ -mtune=corei7 -march=x86-64 -g -Og
#
# seed  1474515310  1560832164 -1072205997   205023370  1865106315 -1546681197  2142607306   555441023 -2017554869  -911091264  1254687314 -1321462750
#
#      Author: C. J. Pickard (cjp20@cam.ac.uk)
#                Space group: Pca21
#

%BLOCK LATTICE_ABC
      5.37127      7.60642      7.83236
     90.00000     90.00000     90.00000
%ENDBLOCK LATTICE_ABC

%BLOCK POSITIONS_FRAC
  Li  -0.1032622  -0.0070471  -0.1639338 SPIN=   0.00000
  Li   0.3967378   0.0070471   0.1639338 SPIN=   0.00000
  Li  -0.1032622   0.0070471   0.3360662 SPIN=   0.00000
  Li   0.3967378  -0.0070471  -0.3360662 SPIN=   0.00000
   O  -0.0779993   0.0945915  -0.4112434 SPIN=   0.00000
   O   0.0936848   0.2907837  -0.6559195 SPIN=   0.00000
   O  -0.1707713   0.4288787  -0.4355277 SPIN=   0.00000
   O   0.2600682   0.3301753  -0.3596856 SPIN=   0.00000
   P   0.0234544   0.2764301  -0.4614504 SPIN=   0.00000
   O  -0.5779993  -0.0945915   0.4112434 SPIN=   0.00000
   O  -0.4063152  -0.2907837   0.6559195 SPIN=   0.00000
   O  -0.6707713  -0.4288787   0.4355277 SPIN=   0.00000
   O  -0.2399318  -0.3301753   0.3596856 SPIN=   0.00000
   P  -0.4765456  -0.2764301   0.4614504 SPIN=   0.00000
   O  -0.0779993  -0.0945915   0.0887566 SPIN=   0.00000
   O   0.0936848  -0.2907837  -0.1559195 SPIN=   0.00000
   O  -0.1707713  -0.4288787   0.0644723 SPIN=   0.00000
   O   0.2600682  -0.3301753   0.1403144 SPIN=   0.00000
   P   0.0234544  -0.2764301   0.0385496 SPIN=   0.00000
   O  -0.5779993   0.0945915  -0.0887566 SPIN=   0.00000
   O  -0.4063152   0.2907837   0.1559195 SPIN=   0.00000
   O  -0.6707713   0.4288787  -0.0644723 SPIN=   0.00000
   O  -0.2399318   0.3301753  -0.1403144 SPIN=   0.00000
   P  -0.4765456   0.2764301  -0.0385496 SPIN=   0.00000
  Fe   0.0230557   0.3334977   0.0726973 SPIN=   4.00000
  Fe  -0.4769443  -0.3334977  -0.0726973 SPIN=   4.00000
  Fe   0.0230557  -0.3334977  -0.4273027 SPIN=   4.00000
  Fe  -0.4769443   0.3334977   0.4273027 SPIN=   4.00000
%ENDBLOCK POSITIONS_FRAC

# Note: total spin =  16.00

KPOINTS_MP_SPACING 0.07

%BLOCK SPECIES_POT
QC5
%ENDBLOCK SPECIES_POT

%BLOCK HUBBARD_U
Fe d:4.0
%ENDBLOCK HUBBARD_U

SNAP_TO_SYMMETRY
SYMMETRY_GENERATE

