#              Generated by Buildcell
#
# at 12:18:44 (GMT+0.0) 24th November 2020
# in /lustre/scratch/uccabz1/launch_tmp
# on node-c12h-032
# by uccabz1
#
# compiler GCC version 4.9.2
# options -cpp -iprefix /lustre/shared/ucl/apps/gcc/4.9.2/bin/../lib/gcc/x86_64-unknown-linux-gnu/4.9.2/ -mtune=corei7 -march=x86-64 -g -Og
#
# seed -1109373561  1482996746  -865249958  -273918049  1671131523 -1322319272 -1110151844 -2134449407  1844140571  1098293928 -1601675612  -677381347
#
#      Author: C. J. Pickard (cjp20@cam.ac.uk)
#                Space group: C2/m
#

%BLOCK LATTICE_ABC
      5.17702      5.74144      5.74144
     95.40802    103.08066    103.08066
%ENDBLOCK LATTICE_ABC

%BLOCK POSITIONS_FRAC
  Li   0.0000000   0.5000000  -0.5000000 SPIN=   0.00000
  Li  -0.0000000  -0.0000000   0.0000000 SPIN=   0.00000
   O   0.1643965  -0.0349667  -0.3229720 SPIN=   0.00000
   O   0.6707849  -0.0251372  -0.3140109 SPIN=   0.00000
   O  -0.1643965   0.3229720   0.0349667 SPIN=   0.00000
   O  -0.6707849   0.3140109   0.0251372 SPIN=   0.00000
   O  -0.1643965   0.0349667   0.3229720 SPIN=   0.00000
   O  -0.6707849   0.0251372   0.3140109 SPIN=   0.00000
   O   0.1643965  -0.3229720  -0.0349667 SPIN=   0.00000
   O   0.6707849  -0.3140109  -0.0251372 SPIN=   0.00000
   P   0.4878129  -0.2393168  -0.2393168 SPIN=   0.00000
   P  -0.4878129   0.2393168   0.2393168 SPIN=   0.00000
  Fe  -0.5000000   0.2647357  -0.2647357 SPIN=   4.00000
  Fe  -0.5000000  -0.2647357   0.2647357 SPIN=   4.00000
%ENDBLOCK POSITIONS_FRAC

# Note: total spin =   8.00

KPOINTS_MP_SPACING 0.07

%BLOCK SPECIES_POT
QC5
%ENDBLOCK SPECIES_POT

%BLOCK HUBBARD_U
Fe d:4.0
%ENDBLOCK HUBBARD_U

SNAP_TO_SYMMETRY
SYMMETRY_GENERATE

