#              Generated by Buildcell
#
# at 08:10:09 (GMT+0.0) 24th November 2020
# in /lustre/scratch/uccabz1/launch_tmp
# on node-c12a-033
# by uccabz1
#
# compiler GCC version 4.9.2
# options -cpp -iprefix /lustre/shared/ucl/apps/gcc/4.9.2/bin/../lib/gcc/x86_64-unknown-linux-gnu/4.9.2/ -mtune=corei7 -march=x86-64 -g -Og
#
# seed -1051213504  -928049092   766344299 -1432630600 -1361042011  1293191575   710230908 -1437092086 -1159508849  1345616457  1583524622    58507624
#
#      Author: C. J. Pickard (cjp20@cam.ac.uk)
#                Space group: P2
#

%BLOCK LATTICE_ABC
      3.85830      4.59455      9.21592
    101.66099     90.00000     90.00000
%ENDBLOCK LATTICE_ABC

%BLOCK POSITIONS_FRAC
  Li  -0.3533177  -0.0000000   0.5000000 SPIN=   0.00000
  Li   0.0975567   0.0000000   0.0000000 SPIN=   0.00000
   O  -0.3662889  -0.3826198  -0.1921207 SPIN=   0.00000
   O  -0.4617164   0.1786268  -0.0827988 SPIN=   0.00000
   O   0.0167787   0.0345146  -0.2608735 SPIN=   0.00000
   P  -0.3557901  -0.0649398  -0.2214563 SPIN=   0.00000
   O  -0.3662889   0.3826198   0.1921207 SPIN=   0.00000
   O  -0.4617164  -0.1786268   0.0827988 SPIN=   0.00000
   O   0.0167787  -0.0345146   0.2608735 SPIN=   0.00000
   P  -0.3557901   0.0649398   0.2214563 SPIN=   0.00000
   O   0.0378944  -0.5000000   0.0000000 SPIN=   0.00000
   O  -0.2311538  -0.5000000  -0.5000000 SPIN=   0.00000
  Fe   0.1462201  -0.4670292   0.2858158 SPIN=   4.00000
  Fe   0.1462201   0.4670292  -0.2858158 SPIN=   4.00000
%ENDBLOCK POSITIONS_FRAC

# Note: total spin =   8.00

KPOINTS_MP_SPACING 0.07

%BLOCK SPECIES_POT
QC5
%ENDBLOCK SPECIES_POT

%BLOCK HUBBARD_U
Fe d:4.0
%ENDBLOCK HUBBARD_U

SNAP_TO_SYMMETRY
SYMMETRY_GENERATE

