#              Generated by Buildcell
#
# at 23:24:54 (GMT+0.0) 26th November 2020
# in /lustre/scratch/uccabz1/launch_tmp
# on node-c12g-033
# by uccabz1
#
# compiler GCC version 4.9.2
# options -cpp -iprefix /lustre/shared/ucl/apps/gcc/4.9.2/bin/../lib/gcc/x86_64-unknown-linux-gnu/4.9.2/ -mtune=corei7 -march=x86-64 -g -Og
#
# seed  -806449290 -1525447581     5436314   514779281  -278312632  1926069899  1098839085   934916812   651673636  1297976077  -667094901 -1502279199
#
#      Author: C. J. Pickard (cjp20@cam.ac.uk)
#                Space group: Pc
#

%BLOCK LATTICE_ABC
      5.16159      7.93236      8.14744
     90.00000    106.40803     90.00000
%ENDBLOCK LATTICE_ABC

%BLOCK POSITIONS_FRAC
  Li  -0.1058940   0.1431005  -0.4082632 SPIN=   0.00000
  Li   0.3941060  -0.1431005   0.0917368 SPIN=   0.00000
  Li   0.1666349  -0.1893704  -0.4382471 SPIN=   0.00000
  Li  -0.3333651   0.1893704   0.0617529 SPIN=   0.00000
   O   0.3238657  -0.4554802   0.2146670 SPIN=   0.00000
   O  -0.1434513  -0.5546204   0.0228098 SPIN=   0.00000
   O  -0.1070141  -0.2688539   0.1476855 SPIN=   0.00000
   O   0.1078105  -0.3304391  -0.0856120 SPIN=   0.00000
   P   0.0608724  -0.4043288   0.0804361 SPIN=   0.00000
   O  -0.1761343   0.4554802  -0.2853330 SPIN=   0.00000
   O  -0.6434513   0.5546204  -0.4771902 SPIN=   0.00000
   O  -0.6070141   0.2688539  -0.3523145 SPIN=   0.00000
   O  -0.3921895   0.3304391  -0.5856120 SPIN=   0.00000
   P  -0.4391276   0.4043288  -0.4195639 SPIN=   0.00000
   O  -0.2219179  -0.2964049   0.5254375 SPIN=   0.00000
   O  -0.4197260  -0.0194368   0.6105367 SPIN=   0.00000
   O  -0.2506287  -0.0165187   0.3555998 SPIN=   0.00000
   O  -0.6764776  -0.1726354   0.3457536 SPIN=   0.00000
   P  -0.3864765  -0.1358563   0.4615114 SPIN=   0.00000
   O   0.2780821   0.2964049   0.0254375 SPIN=   0.00000
   O   0.0802740   0.0194368   0.1105367 SPIN=   0.00000
   O   0.2493713   0.0165187  -0.1444002 SPIN=   0.00000
   O  -0.1764776   0.1726354  -0.1542464 SPIN=   0.00000
   P   0.1135235   0.1358563  -0.0384886 SPIN=   0.00000
  Fe   0.2463860   0.4564371  -0.1883231 SPIN=   6.30396
  Fe  -0.2536140  -0.4564371   0.3116769 SPIN=   6.30396
  Fe   0.2763311   0.1647829   0.3309115 SPIN=   1.69604
  Fe  -0.2236689  -0.1647829  -0.1690885 SPIN=   1.69604
%ENDBLOCK POSITIONS_FRAC

# Note: total spin =  16.00

KPOINTS_MP_SPACING 0.07

%BLOCK SPECIES_POT
QC5
%ENDBLOCK SPECIES_POT

%BLOCK HUBBARD_U
Fe d:4.0
%ENDBLOCK HUBBARD_U

SNAP_TO_SYMMETRY
SYMMETRY_GENERATE

