#              Generated by Buildcell
#
# at 15:42:02 (GMT+0.0) 26th November 2020
# in /scratch/scratch/uccabz1/launch_tmp
# on node-a14b-028
# by uccabz1
#
# compiler GCC version 4.9.2
# options -cpp -iprefix /scratch/UCL/applications/gcc/4.9.2/bin/../lib/gcc/x86_64-unknown-linux-gnu/4.9.2/ -mtune=corei7 -march=x86-64 -g -O2
#
# seed  -843077094 -1877186680  1299883145 -2125812591   -32975315 -1276759017  1335215452 -1389729554 -1178544432  -466997235   178674572  1095016007
#
#      Author: C. J. Pickard (cjp20@cam.ac.uk)
#                Space group: Cm
#

%BLOCK LATTICE_ABC
      6.90751      7.47167      7.47167
     77.03028     65.78270     65.78270
%ENDBLOCK LATTICE_ABC

%BLOCK POSITIONS_FRAC
  Li  -0.4585670   0.4931537  -0.1822539 SPIN=   0.00000
  Li  -0.4585670  -0.1822539   0.4931537 SPIN=   0.00000
  Li   0.4553896   0.1549032   0.1549032 SPIN=   0.00000
  Li  -0.2086503   0.2433816   0.2433816 SPIN=   0.00000
   O  -0.4596669   0.0655865  -0.2063290 SPIN=   0.00000
   O  -0.4962053   0.1857334  -0.5493413 SPIN=   0.00000
   O  -0.6621014   0.4309996  -0.3037210 SPIN=   0.00000
   O  -0.2389007   0.2773769  -0.4590719 SPIN=   0.00000
   P  -0.4613172   0.2310835  -0.3713268 SPIN=   0.00000
   O  -0.4596669  -0.2063290   0.0655865 SPIN=   0.00000
   O  -0.4962053  -0.5493413   0.1857334 SPIN=   0.00000
   O  -0.6621014  -0.3037210   0.4309996 SPIN=   0.00000
   O  -0.2389007  -0.4590719   0.2773769 SPIN=   0.00000
   P  -0.4613172  -0.3713268   0.2310835 SPIN=   0.00000
   O  -0.2568188  -0.0612255   0.2036799 SPIN=   0.00000
   O   0.0687518  -0.0141032   0.2551866 SPIN=   0.00000
   O  -0.1274902  -0.2246975   0.5012922 SPIN=   0.00000
   O   0.1303479  -0.3417923   0.1655472 SPIN=   0.00000
   P  -0.0554266  -0.1573111   0.2759193 SPIN=   0.00000
   O  -0.2568188   0.2036799  -0.0612255 SPIN=   0.00000
   O   0.0687518   0.2551866  -0.0141032 SPIN=   0.00000
   O  -0.1274902   0.5012922  -0.2246975 SPIN=   0.00000
   O   0.1303479   0.1655472  -0.3417923 SPIN=   0.00000
   P  -0.0554266   0.2759193  -0.1573111 SPIN=   0.00000
  Fe  -0.0054638  -0.4147923   0.0000699 SPIN=   4.32886
  Fe  -0.0054638   0.0000699  -0.4147923 SPIN=   4.32886
  Fe   0.2849310  -0.0527699  -0.0527699 SPIN=   3.94180
  Fe   0.1247255   0.4775556   0.4775556 SPIN=   3.40047
%ENDBLOCK POSITIONS_FRAC

# Note: total spin =  16.00

KPOINTS_MP_SPACING 0.07

%BLOCK SPECIES_POT
QC5
%ENDBLOCK SPECIES_POT

%BLOCK HUBBARD_U
Fe d:4.0
%ENDBLOCK HUBBARD_U

SNAP_TO_SYMMETRY
SYMMETRY_GENERATE

