#              Generated by Buildcell
#
# at 07:38:22 (GMT+0.0) 24th November 2020
# in /lustre/scratch/uccabz1/launch_tmp
# on node-c12o-027
# by uccabz1
#
# compiler GCC version 4.9.2
# options -cpp -iprefix /lustre/shared/ucl/apps/gcc/4.9.2/bin/../lib/gcc/x86_64-unknown-linux-gnu/4.9.2/ -mtune=corei7 -march=x86-64 -g -Og
#
# seed -1650153643 -1429652050  -561757336  1685765715   854204442   414365624  1795078394  1856568535  -652378524 -1837316218  -425508295  1704597843
#
#      Author: C. J. Pickard (cjp20@cam.ac.uk)
#                Space group: P-1
#

%BLOCK LATTICE_ABC
      4.92935      5.75707      6.24567
    101.78021     95.01914    110.55131
%ENDBLOCK LATTICE_ABC

%BLOCK POSITIONS_FRAC
  Li  -0.1535439  -0.4501106   0.1935598 SPIN=   0.00000
  Li   0.1535439   0.4501106  -0.1935598 SPIN=   0.00000
   O   0.7973940  -0.0954444   0.2825079 SPIN=   0.00000
   O   0.3321325  -0.5137024   0.1364394 SPIN=   0.00000
   O   0.2769046  -0.1318004   0.3608080 SPIN=   0.00000
   P   0.4652759  -0.2124963   0.1911998 SPIN=   0.00000
   O  -0.7973940   0.0954444  -0.2825079 SPIN=   0.00000
   O  -0.3321325   0.5137024  -0.1364394 SPIN=   0.00000
   O  -0.2769046   0.1318004  -0.3608080 SPIN=   0.00000
   P  -0.4652759   0.2124963  -0.1911998 SPIN=   0.00000
   O   0.0000000  -0.5000000  -0.5000000 SPIN=   0.00000
   O  -0.5000000  -0.0000000  -0.0000000 SPIN=   0.00000
  Fe  -0.2102819  -0.1896214  -0.2987934 SPIN=   4.00000
  Fe   0.2102819   0.1896214   0.2987934 SPIN=   4.00000
%ENDBLOCK POSITIONS_FRAC

# Note: total spin =   8.00

KPOINTS_MP_SPACING 0.07

%BLOCK SPECIES_POT
QC5
%ENDBLOCK SPECIES_POT

%BLOCK HUBBARD_U
Fe d:4.0
%ENDBLOCK HUBBARD_U

SNAP_TO_SYMMETRY
SYMMETRY_GENERATE

