#              Generated by Buildcell
#
# at 17:09:14 (GMT+0.0) 26th November 2020
# in /lustre/scratch/uccabz1/launch_tmp
# on node-c12j-029
# by uccabz1
#
# compiler GCC version 4.9.2
# options -cpp -iprefix /lustre/shared/ucl/apps/gcc/4.9.2/bin/../lib/gcc/x86_64-unknown-linux-gnu/4.9.2/ -mtune=corei7 -march=x86-64 -g -Og
#
# seed  1746568284 -1584900243  1664120349  -759445575    -5280175  -851234905  1018405070 -1645178635 -1026817636   812753790 -1020101091 -1291444212
#
#      Author: C. J. Pickard (cjp20@cam.ac.uk)
#                Space group: Cm
#

%BLOCK LATTICE_ABC
      6.45283      6.45283      7.83291
     96.75164     96.75164     94.92455
%ENDBLOCK LATTICE_ABC

%BLOCK POSITIONS_FRAC
  Li  -0.0134785  -0.3832791   0.2328692 SPIN=   0.00000
  Li  -0.3832791  -0.0134785   0.2328692 SPIN=   0.00000
  Li  -0.4877143  -0.4877143   0.1729628 SPIN=   0.00000
  Li   0.3447755   0.3447755  -0.2009682 SPIN=   0.00000
   O   0.1571080  -0.5832062  -0.6227791 SPIN=   0.00000
   O   0.0071137  -0.5927076  -0.3298594 SPIN=   0.00000
   O   0.3466997  -0.3849447  -0.3307832 SPIN=   0.00000
   O   0.0164608  -0.2600506  -0.4656197 SPIN=   0.00000
   P   0.1318290  -0.4597382  -0.4474730 SPIN=   0.00000
   O  -0.5832062   0.1571080  -0.6227791 SPIN=   0.00000
   O  -0.5927076   0.0071137  -0.3298594 SPIN=   0.00000
   O  -0.3849447   0.3466997  -0.3307832 SPIN=   0.00000
   O  -0.2600506   0.0164608  -0.4656197 SPIN=   0.00000
   P  -0.4597382   0.1318290  -0.4474730 SPIN=   0.00000
   O  -0.2402876   0.5004522   0.0198529 SPIN=   0.00000
   O  -0.1215664   0.1434364   0.0944547 SPIN=   0.00000
   O  -0.2559852   0.3744766   0.3215629 SPIN=   0.00000
   O  -0.5038822   0.1944143   0.0669658 SPIN=   0.00000
   O   0.5004522  -0.2402876   0.0198529 SPIN=   0.00000
   O   0.1434364  -0.1215664   0.0944547 SPIN=   0.00000
   O   0.3744766  -0.2559852   0.3215629 SPIN=   0.00000
   O   0.1944143  -0.5038822   0.0669658 SPIN=   0.00000
   P  -0.2285241  -0.2285241  -0.0461721 SPIN=   0.00000
   P   0.2003295   0.2003295   0.0918082 SPIN=   0.00000
  Fe  -0.1563520   0.2534619  -0.1479648 SPIN=   5.54722
  Fe   0.2534619  -0.1563520  -0.1479648 SPIN=   5.54722
  Fe   0.1038031   0.1038031   0.4232498 SPIN=   0.81217
  Fe  -0.2990022  -0.2990022  -0.4230341 SPIN=   4.09339
%ENDBLOCK POSITIONS_FRAC

# Note: total spin =  16.00

KPOINTS_MP_SPACING 0.07

%BLOCK SPECIES_POT
QC5
%ENDBLOCK SPECIES_POT

%BLOCK HUBBARD_U
Fe d:4.0
%ENDBLOCK HUBBARD_U

SNAP_TO_SYMMETRY
SYMMETRY_GENERATE

