#              Generated by Buildcell
#
# at 00:28:21 (GMT+0.0) 27th November 2020
# in /lustre/scratch/uccabz1/launch_tmp
# on node-c12c-020
# by uccabz1
#
# compiler GCC version 4.9.2
# options -cpp -iprefix /lustre/shared/ucl/apps/gcc/4.9.2/bin/../lib/gcc/x86_64-unknown-linux-gnu/4.9.2/ -mtune=corei7 -march=x86-64 -g -Og
#
# seed  1474538122  1033569767 -1802908763  1747194742 -2052639033  1806457411  -673219134  -548073002   296677972 -1214211146  -961799713  -753059882
#
#      Author: C. J. Pickard (cjp20@cam.ac.uk)
#                Space group: P-1
#

%BLOCK LATTICE_ABC
      5.15899      7.69406      8.87711
    112.33296     98.89846     92.47563
%ENDBLOCK LATTICE_ABC

%BLOCK POSITIONS_FRAC
  Li   0.0983574  -0.1155113   0.0972217 SPIN=   0.00000
  Li  -0.0983574   0.1155113  -0.0972217 SPIN=   0.00000
  Li  -0.0630349  -0.2705481   0.3387392 SPIN=   0.00000
  Li   0.0630349   0.2705481  -0.3387392 SPIN=   0.00000
   O   0.5367500  -0.0584198  -0.1431341 SPIN=   0.00000
   O   0.3048047   0.2439575  -0.0202637 SPIN=   0.00000
   O   0.5360797   0.2111085  -0.2517692 SPIN=   0.00000
   O   0.1155275   0.0045699  -0.3047979 SPIN=   0.00000
   P   0.3789520   0.0907230  -0.1795016 SPIN=   0.00000
   O  -0.5367500   0.0584198   0.1431341 SPIN=   0.00000
   O  -0.3048047  -0.2439575   0.0202637 SPIN=   0.00000
   O  -0.5360797  -0.2111085   0.2517692 SPIN=   0.00000
   O  -0.1155275  -0.0045699   0.3047979 SPIN=   0.00000
   P  -0.3789520  -0.0907230   0.1795016 SPIN=   0.00000
   O   0.3507921   0.6857908   0.4662214 SPIN=   0.00000
   O   0.5846979   0.4772018   0.2324274 SPIN=   0.00000
   O   0.2657449   0.3190366   0.3332805 SPIN=   0.00000
   O   0.1021061   0.5038585   0.1656687 SPIN=   0.00000
   P   0.3245239   0.5066394   0.3067038 SPIN=   0.00000
   O  -0.3507921  -0.6857908  -0.4662214 SPIN=   0.00000
   O  -0.5846979  -0.4772018  -0.2324274 SPIN=   0.00000
   O  -0.2657449  -0.3190366  -0.3332805 SPIN=   0.00000
   O  -0.1021061  -0.5038585  -0.1656687 SPIN=   0.00000
   P  -0.3245239  -0.5066394  -0.3067038 SPIN=   0.00000
  Fe  -0.1460710   0.2869938   0.2969013 SPIN=   4.90843
  Fe   0.1460710  -0.2869938  -0.2969013 SPIN=   4.90843
  Fe   0.5000000  -0.5000000   0.0000000 SPIN=   1.09649
  Fe  -0.5000000   0.0000000   0.5000000 SPIN=   5.08666
%ENDBLOCK POSITIONS_FRAC

# Note: total spin =  16.00

KPOINTS_MP_SPACING 0.07

%BLOCK SPECIES_POT
QC5
%ENDBLOCK SPECIES_POT

%BLOCK HUBBARD_U
Fe d:4.0
%ENDBLOCK HUBBARD_U

SNAP_TO_SYMMETRY
SYMMETRY_GENERATE

