#              Generated by Buildcell
#
# at 21:58:23 (GMT+0.0) 26th November 2020
# in /lustre/scratch/uccabz1/launch_tmp
# on node-c12o-035
# by uccabz1
#
# compiler GCC version 4.9.2
# options -cpp -iprefix /lustre/shared/ucl/apps/gcc/4.9.2/bin/../lib/gcc/x86_64-unknown-linux-gnu/4.9.2/ -mtune=corei7 -march=x86-64 -g -Og
#
# seed    77580399 -1226973179   -69882000  -382871071  2070115636 -1743422589  1460958637 -1190941855  1970362456  1538015377   812941013  -804989235
#
#      Author: C. J. Pickard (cjp20@cam.ac.uk)
#                Space group: C2/c
#

%BLOCK LATTICE_ABC
      6.80373      6.80373      7.53149
     74.23077     74.23077     78.61072
%ENDBLOCK LATTICE_ABC

%BLOCK POSITIONS_FRAC
  Li   0.5000000  -0.0000000   0.0000000 SPIN=   0.00000
  Li  -0.5000000  -0.0000000  -0.5000000 SPIN=   0.00000
  Li   0.2270718   0.2729282   0.2500000 SPIN=   0.00000
  Li  -0.2270718  -0.2729282  -0.2500000 SPIN=   0.00000
   O   0.1745146   0.0950473  -0.1284470 SPIN=   0.00000
   O  -0.1401988   0.3717212  -0.1811715 SPIN=   0.00000
   O   0.1018762   0.2691310  -0.4610152 SPIN=   0.00000
   O  -0.1295386   0.0212617  -0.2334229 SPIN=   0.00000
   O   0.4049527   0.3254854  -0.3715530 SPIN=   0.00000
   O   0.1282788   0.6401988  -0.3188285 SPIN=   0.00000
   O   0.2308690   0.3981238  -0.0389848 SPIN=   0.00000
   O   0.4787383   0.6295386  -0.2665771 SPIN=   0.00000
   O  -0.1745146  -0.0950473   0.1284470 SPIN=   0.00000
   O   0.1401988  -0.3717212   0.1811715 SPIN=   0.00000
   O  -0.1018762  -0.2691310   0.4610152 SPIN=   0.00000
   O   0.1295386  -0.0212617   0.2334229 SPIN=   0.00000
   O  -0.4049527  -0.3254854   0.3715530 SPIN=   0.00000
   O  -0.1282788  -0.6401988   0.3188285 SPIN=   0.00000
   O  -0.2308690  -0.3981238   0.0389848 SPIN=   0.00000
   O  -0.4787383  -0.6295386   0.2665771 SPIN=   0.00000
   P   0.1391514   0.3608486  -0.2500000 SPIN=   0.00000
   P  -0.1391514  -0.3608486   0.2500000 SPIN=   0.00000
   P   0.0000000  -0.0000000  -0.5000000 SPIN=   0.00000
   P   0.5000000  -0.5000000  -0.0000000 SPIN=   0.00000
  Fe   0.2858892  -0.3279551   0.3806771 SPIN=   4.00000
  Fe  -0.1720449   0.2141108   0.1193229 SPIN=   4.00000
  Fe  -0.2858892   0.3279551  -0.3806771 SPIN=   4.00000
  Fe   0.1720449  -0.2141108  -0.1193229 SPIN=   4.00000
%ENDBLOCK POSITIONS_FRAC

# Note: total spin =  16.00

KPOINTS_MP_SPACING 0.07

%BLOCK SPECIES_POT
QC5
%ENDBLOCK SPECIES_POT

%BLOCK HUBBARD_U
Fe d:4.0
%ENDBLOCK HUBBARD_U

SNAP_TO_SYMMETRY
SYMMETRY_GENERATE

