#              Generated by Buildcell
#
# at 19:40:27 (GMT+0.0) 26th November 2020
# in /lustre/scratch/uccabz1/launch_tmp
# on node-c12o-032
# by uccabz1
#
# compiler GCC version 4.9.2
# options -cpp -iprefix /lustre/shared/ucl/apps/gcc/4.9.2/bin/../lib/gcc/x86_64-unknown-linux-gnu/4.9.2/ -mtune=corei7 -march=x86-64 -g -Og
#
# seed  1411322388  -992030235   707774087  -947232660   100773854  1850944423  1188562256 -2061207367   499696910  1808679670  1907802774  -962328168
#
#      Author: C. J. Pickard (cjp20@cam.ac.uk)
#                Space group: Cm
#

%BLOCK LATTICE_ABC
      7.55678      7.57633      7.57633
     86.85988     60.69975     60.69975
%ENDBLOCK LATTICE_ABC

%BLOCK POSITIONS_FRAC
  Li  -0.3230319   0.3587858   0.3587858 SPIN=   0.00000
  Li   0.4735465  -0.2778157  -0.2778157 SPIN=   0.00000
  Li  -0.0643491  -0.0050228  -0.0050228 SPIN=   0.00000
  Li   0.2450323   0.0764701   0.0764701 SPIN=   0.00000
   O   0.1394478   0.2885845  -0.4747539 SPIN=   0.00000
   O  -0.3108874   0.4125604  -0.2804999 SPIN=   0.00000
   O  -0.0296545   0.1434812  -0.6130084 SPIN=   0.00000
   O  -0.0159533   0.0519477  -0.2954237 SPIN=   0.00000
   P  -0.0434957   0.2255426  -0.4176320 SPIN=   0.00000
   O   0.1394478  -0.4747539   0.2885845 SPIN=   0.00000
   O  -0.3108874  -0.2804999   0.4125604 SPIN=   0.00000
   O  -0.0296545  -0.6130084   0.1434812 SPIN=   0.00000
   O  -0.0159533  -0.2954237   0.0519477 SPIN=   0.00000
   P  -0.0434957  -0.4176320   0.2255426 SPIN=   0.00000
   O   0.3192489  -0.2469347   0.4014987 SPIN=   0.00000
   O   0.6605465  -0.5270650   0.0516272 SPIN=   0.00000
   O   0.2944744  -0.2440917   0.0711114 SPIN=   0.00000
   O   0.5774674  -0.1633013   0.0736993 SPIN=   0.00000
   P   0.4566354  -0.2912121   0.1620083 SPIN=   0.00000
   O   0.3192489   0.4014987  -0.2469347 SPIN=   0.00000
   O   0.6605465   0.0516272  -0.5270650 SPIN=   0.00000
   O   0.2944744   0.0711114  -0.2440917 SPIN=   0.00000
   O   0.5774674   0.0736993  -0.1633013 SPIN=   0.00000
   P   0.4566354   0.1620083  -0.2912121 SPIN=   0.00000
  Fe  -0.0308756   0.4829390  -0.1416655 SPIN=   4.47143
  Fe  -0.0308756  -0.1416655   0.4829390 SPIN=   4.47143
  Fe   0.4654825   0.0003555   0.3738093 SPIN=   3.52857
  Fe   0.4654825   0.3738093   0.0003555 SPIN=   3.52857
%ENDBLOCK POSITIONS_FRAC

# Note: total spin =  16.00

KPOINTS_MP_SPACING 0.07

%BLOCK SPECIES_POT
QC5
%ENDBLOCK SPECIES_POT

%BLOCK HUBBARD_U
Fe d:4.0
%ENDBLOCK HUBBARD_U

SNAP_TO_SYMMETRY
SYMMETRY_GENERATE

