#              Generated by Buildcell
#
# at 08:15:08 (GMT+0.0) 24th November 2020
# in /lustre/scratch/uccabz1/launch_tmp
# on node-c12g-032
# by uccabz1
#
# compiler GCC version 4.9.2
# options -cpp -iprefix /lustre/shared/ucl/apps/gcc/4.9.2/bin/../lib/gcc/x86_64-unknown-linux-gnu/4.9.2/ -mtune=corei7 -march=x86-64 -g -Og
#
# seed   822704819 -1663904855  -518282282 -1151518993  -991082127    33392291  -249663505  -676749533  -548026712  -872928006  2147427870  -246974859
#
#      Author: C. J. Pickard (cjp20@cam.ac.uk)
#                Space group: Cc
#

%BLOCK LATTICE_ABC
      4.92618      5.58296      6.93968
     79.02807     69.21094     63.82078
%ENDBLOCK LATTICE_ABC

%BLOCK POSITIONS_FRAC
  Li  -0.0383585  -0.0130438  -0.4089380 SPIN=   0.00000
  Li  -0.0396597   0.4869562   0.0910620 SPIN=   0.00000
   O  -0.0592330  -0.1030640   0.2523890 SPIN=   0.00000
   O  -0.5683830  -0.1822711   0.3230487 SPIN=   0.00000
   O  -0.1649853  -0.4937845   0.4884415 SPIN=   0.00000
   O  -0.4923870  -0.0256205   0.6074831 SPIN=   0.00000
   P  -0.3093158  -0.1938887   0.4112691 SPIN=   0.00000
   O  -0.5900920   0.3969360  -0.2476110 SPIN=   0.00000
   O  -0.0723946   0.3177289  -0.1769513 SPIN=   0.00000
   O  -0.3296718   0.0062155  -0.0115585 SPIN=   0.00000
   O  -0.5894756   0.4743795   0.1074831 SPIN=   0.00000
   P  -0.4080646   0.3061113  -0.0887309 SPIN=   0.00000
  Fe   0.3509786   0.3754279   0.4226511 SPIN=   4.00000
  Fe   0.3509423  -0.1245721  -0.0773489 SPIN=   4.00000
%ENDBLOCK POSITIONS_FRAC

# Note: total spin =   8.00

KPOINTS_MP_SPACING 0.07

%BLOCK SPECIES_POT
QC5
%ENDBLOCK SPECIES_POT

%BLOCK HUBBARD_U
Fe d:4.0
%ENDBLOCK HUBBARD_U

SNAP_TO_SYMMETRY
SYMMETRY_GENERATE

