#              Generated by Buildcell
#
# at 18:44:47 (GMT+0.0) 26th November 2020
# in /lustre/scratch/uccabz1/launch_tmp
# on node-c12k-026
# by uccabz1
#
# compiler GCC version 4.9.2
# options -cpp -iprefix /lustre/shared/ucl/apps/gcc/4.9.2/bin/../lib/gcc/x86_64-unknown-linux-gnu/4.9.2/ -mtune=corei7 -march=x86-64 -g -Og
#
# seed -1952685727 -1082937180 -1190957343  1652689326    85071053   196126051  -212895587  1767899123 -1126202773 -2120698828  -217568046  1506138243
#
#      Author: C. J. Pickard (cjp20@cam.ac.uk)
#                Space group: P-1
#

%BLOCK LATTICE_ABC
      5.27738      7.80688      8.83227
    115.31599    101.11575     91.92143
%ENDBLOCK LATTICE_ABC

%BLOCK POSITIONS_FRAC
  Li  -0.0200924   0.0405145  -0.3211028 SPIN=   0.00000
  Li   0.0200924  -0.0405145   0.3211028 SPIN=   0.00000
  Li  -0.4028405  -0.3727301   0.1906867 SPIN=   0.00000
  Li   0.4028405   0.3727301  -0.1906867 SPIN=   0.00000
   O   0.2958647  -0.3700577  -0.2682113 SPIN=   0.00000
   O  -0.1100669  -0.1906222  -0.2673212 SPIN=   0.00000
   O   0.1869430  -0.1189836   0.0112545 SPIN=   0.00000
   O   0.3333316  -0.0099582  -0.1902873 SPIN=   0.00000
   P   0.1847232  -0.1810124  -0.1835480 SPIN=   0.00000
   O  -0.2958647   0.3700577   0.2682113 SPIN=   0.00000
   O   0.1100669   0.1906222   0.2673212 SPIN=   0.00000
   O  -0.1869430   0.1189836  -0.0112545 SPIN=   0.00000
   O  -0.3333316   0.0099582   0.1902873 SPIN=   0.00000
   P  -0.1847232   0.1810124   0.1835480 SPIN=   0.00000
   O   0.0948144   0.2354181  -0.4100263 SPIN=   0.00000
   O  -0.1064405   0.5241990  -0.2134063 SPIN=   0.00000
   O  -0.3334407   0.1992533  -0.3163576 SPIN=   0.00000
   O   0.0904202   0.3049799  -0.0972063 SPIN=   0.00000
   O  -0.0948144  -0.2354181   0.4100263 SPIN=   0.00000
   O   0.1064405  -0.5241990   0.2134063 SPIN=   0.00000
   O   0.3334407  -0.1992533   0.3163576 SPIN=   0.00000
   O  -0.0904202  -0.3049799   0.0972063 SPIN=   0.00000
   P  -0.5000000   0.0000000  -0.5000000 SPIN=   0.00000
   P  -0.0000000   0.5000000  -0.0000000 SPIN=   0.00000
  Fe   0.2502703  -0.3369092   0.4739917 SPIN=   3.81861
  Fe  -0.2502703   0.3369092  -0.4739917 SPIN=   3.81861
  Fe  -0.2847344  -0.2044110  -0.0780255 SPIN=   4.18139
  Fe   0.2847344   0.2044110   0.0780255 SPIN=   4.18139
%ENDBLOCK POSITIONS_FRAC

# Note: total spin =  16.00

KPOINTS_MP_SPACING 0.07

%BLOCK SPECIES_POT
QC5
%ENDBLOCK SPECIES_POT

%BLOCK HUBBARD_U
Fe d:4.0
%ENDBLOCK HUBBARD_U

SNAP_TO_SYMMETRY
SYMMETRY_GENERATE

