#              Generated by Buildcell
#
# at 09:48:17 (GMT+0.0) 24th November 2020
# in /lustre/scratch/uccabz1/launch_tmp
# on node-c12c-027
# by uccabz1
#
# compiler GCC version 4.9.2
# options -cpp -iprefix /lustre/shared/ucl/apps/gcc/4.9.2/bin/../lib/gcc/x86_64-unknown-linux-gnu/4.9.2/ -mtune=corei7 -march=x86-64 -g -Og
#
# seed  1722099755   452743876   -46906628  -549233255  1739421766  -537920350  1970776934 -1153417933  2028335358   448704512 -1829867337  1357516140
#
#      Author: C. J. Pickard (cjp20@cam.ac.uk)
#                Space group: Fdd2
#

%BLOCK LATTICE_ABC
      5.87466      5.87466      5.98265
    107.89234    107.89234    111.97772
%ENDBLOCK LATTICE_ABC

%BLOCK POSITIONS_FRAC
  Li   0.2223079   0.2223079   0.4446159 SPIN=   0.00000
  Li   0.4723079  -0.0276921  -0.0553841 SPIN=   0.00000
   O  -0.5388076  -0.0495766  -0.7136035 SPIN=   0.00000
   O  -0.7554723  -0.5519587  -0.7705940 SPIN=   0.00000
   O  -0.1747959  -0.6640269  -0.7136035 SPIN=   0.00000
   O  -0.0151216  -0.2186353  -0.7705940 SPIN=   0.00000
   O   0.2004234   0.2111924  -0.2136035 SPIN=   0.00000
   O  -0.3019587  -0.0054723  -0.2705940 SPIN=   0.00000
   O  -0.4140269  -0.4247959  -0.2136035 SPIN=   0.00000
   O   0.0313647  -0.2651216  -0.2705940 SPIN=   0.00000
   P  -0.0459255  -0.0459255  -0.0918510 SPIN=   0.00000
   P   0.2040745  -0.2959255  -0.5918510 SPIN=   0.00000
  Fe  -0.3320988  -0.3320988  -0.6641977 SPIN=   4.00000
  Fe  -0.0820988   0.4179012   0.8358023 SPIN=   4.00000
%ENDBLOCK POSITIONS_FRAC

# Note: total spin =   8.00

KPOINTS_MP_SPACING 0.07

%BLOCK SPECIES_POT
QC5
%ENDBLOCK SPECIES_POT

%BLOCK HUBBARD_U
Fe d:4.0
%ENDBLOCK HUBBARD_U

SNAP_TO_SYMMETRY
SYMMETRY_GENERATE

