#              Generated by Buildcell
#
# at 14:05:50 (GMT+0.0) 26th November 2020
# in /scratch/scratch/uccabz1/launch_tmp
# on node-k10b-011
# by uccabz1
#
# compiler GCC version 4.9.2
# options -cpp -iprefix /scratch/UCL/applications/gcc/4.9.2/bin/../lib/gcc/x86_64-unknown-linux-gnu/4.9.2/ -mtune=corei7 -march=x86-64 -g -O2
#
# seed   995716595 -2126069280 -1490153234  1624743400  -334306135  2038306923  -147372530  2033203534 -1507341899  -199291073  1771298430  1273434025
#
#      Author: C. J. Pickard (cjp20@cam.ac.uk)
#                Space group: P21
#

%BLOCK LATTICE_ABC
      4.82103      5.12860     12.94231
     90.04311     90.00000     90.00000
%ENDBLOCK LATTICE_ABC

%BLOCK POSITIONS_FRAC
  Li   0.1389266  -0.1487617   0.2759671 SPIN=   0.00000
  Li  -0.3610734   0.1487617  -0.2759671 SPIN=   0.00000
  Li  -0.0529983   0.0191329   0.0661615 SPIN=   0.00000
  Li   0.4470017  -0.0191329  -0.0661615 SPIN=   0.00000
   O  -0.2411497  -0.4174783   0.4536892 SPIN=   0.00000
   O  -0.6287708  -0.0832198   0.4101452 SPIN=   0.00000
   O  -0.1408536   0.0615283   0.4002384 SPIN=   0.00000
   O  -0.3244482  -0.2506704   0.2680056 SPIN=   0.00000
   P  -0.3287617  -0.1864291   0.3854251 SPIN=   0.00000
   O   0.2588503   0.4174783  -0.4536892 SPIN=   0.00000
   O  -0.1287708   0.0832198  -0.4101452 SPIN=   0.00000
   O   0.3591464  -0.0615283  -0.4002384 SPIN=   0.00000
   O   0.1755518   0.2506704  -0.2680056 SPIN=   0.00000
   P   0.1712383   0.1864291  -0.3854251 SPIN=   0.00000
   O  -0.2418579  -0.1558055  -0.1767260 SPIN=   0.00000
   O  -0.7561796  -0.2496597  -0.2237571 SPIN=   0.00000
   O  -0.3891833  -0.4634974  -0.3265488 SPIN=   0.00000
   O  -0.4702617  -0.6036273  -0.1437040 SPIN=   0.00000
   P  -0.4525925  -0.3596202  -0.2146301 SPIN=   0.00000
   O   0.2581421   0.1558055   0.1767260 SPIN=   0.00000
   O  -0.2561796   0.2496597   0.2237571 SPIN=   0.00000
   O   0.1108167   0.4634974   0.3265488 SPIN=   0.00000
   O   0.0297383   0.6036273   0.1437040 SPIN=   0.00000
   P   0.0474075   0.3596202   0.2146301 SPIN=   0.00000
  Fe   0.4478125   0.3153820   0.4074299 SPIN=   2.81212
  Fe  -0.0521875  -0.3153820  -0.4074299 SPIN=   2.81212
  Fe   0.0449334   0.4776246  -0.1177541 SPIN=   5.18788
  Fe  -0.4550666  -0.4776246   0.1177541 SPIN=   5.18788
%ENDBLOCK POSITIONS_FRAC

# Note: total spin =  16.00

KPOINTS_MP_SPACING 0.07

%BLOCK SPECIES_POT
QC5
%ENDBLOCK SPECIES_POT

%BLOCK HUBBARD_U
Fe d:4.0
%ENDBLOCK HUBBARD_U

SNAP_TO_SYMMETRY
SYMMETRY_GENERATE

