#              Generated by Buildcell
#
# at 13:57:22 (GMT+0.0) 24th November 2020
# in /lustre/scratch/uccabz1/launch_tmp
# on node-c12d-022
# by uccabz1
#
# compiler GCC version 4.9.2
# options -cpp -iprefix /lustre/shared/ucl/apps/gcc/4.9.2/bin/../lib/gcc/x86_64-unknown-linux-gnu/4.9.2/ -mtune=corei7 -march=x86-64 -g -Og
#
# seed  2111880721 -1250898206   -58467813 -1681066965  1527934040 -1202377673  -453246473  -287357300  1991263058  -172503359  1054532048  -378467488
#
#      Author: C. J. Pickard (cjp20@cam.ac.uk)
#                Space group: C2
#

%BLOCK LATTICE_ABC
      5.34591      5.47248      5.47248
     88.26742     89.25144     89.25144
%ENDBLOCK LATTICE_ABC

%BLOCK POSITIONS_FRAC
  Li   0.0000000   0.2857854  -0.2857854 SPIN=   0.00000
  Li  -0.0000000  -0.2434863   0.2434863 SPIN=   0.00000
   O   0.0300266  -0.0687680  -0.4216131 SPIN=   0.00000
   O  -0.4441337   0.0240914  -0.4762671 SPIN=   0.00000
   O  -0.3101213  -0.4035158  -0.3921430 SPIN=   0.00000
   O  -0.2859049  -0.0988565  -0.0611500 SPIN=   0.00000
   O  -0.0300266   0.4216131   0.0687680 SPIN=   0.00000
   O   0.4441337   0.4762671  -0.0240914 SPIN=   0.00000
   O   0.3101213   0.3921430   0.4035158 SPIN=   0.00000
   O   0.2859049   0.0611500   0.0988565 SPIN=   0.00000
   P   0.5000000  -0.2400210   0.2400210 SPIN=   0.00000
   P   0.5000000   0.2740477  -0.2740477 SPIN=   0.00000
  Fe  -0.3488783   0.2583244   0.2242161 SPIN=   4.00000
  Fe   0.3488783  -0.2242161  -0.2583244 SPIN=   4.00000
%ENDBLOCK POSITIONS_FRAC

# Note: total spin =   8.00

KPOINTS_MP_SPACING 0.07

%BLOCK SPECIES_POT
QC5
%ENDBLOCK SPECIES_POT

%BLOCK HUBBARD_U
Fe d:4.0
%ENDBLOCK HUBBARD_U

SNAP_TO_SYMMETRY
SYMMETRY_GENERATE

