#              Generated by Buildcell
#
# at 13:21:52 (GMT+0.0) 24th November 2020
# in /lustre/scratch/uccabz1/launch_tmp
# on node-c12n-026
# by uccabz1
#
# compiler GCC version 4.9.2
# options -cpp -iprefix /lustre/shared/ucl/apps/gcc/4.9.2/bin/../lib/gcc/x86_64-unknown-linux-gnu/4.9.2/ -mtune=corei7 -march=x86-64 -g -Og
#
# seed -1659957353 -1780827995   711670242  -188673016 -1667678658  1398261602  1499489762 -1676856107   965620670  -519202088   285079618  -125688700
#
#      Author: C. J. Pickard (cjp20@cam.ac.uk)
#                Space group: P-1
#

%BLOCK LATTICE_ABC
      4.32832      5.94151      6.90014
    104.89376     93.76129    108.97004
%ENDBLOCK LATTICE_ABC

%BLOCK POSITIONS_FRAC
  Li   0.1550130   0.3024810   0.4346111 SPIN=   0.00000
  Li  -0.1550130  -0.3024810  -0.4346111 SPIN=   0.00000
   O   0.4094124  -0.2197576  -0.3889773 SPIN=   0.00000
   O   0.0026714  -0.3693018  -0.1490950 SPIN=   0.00000
   O   0.3748971  -0.5994176  -0.2591764 SPIN=   0.00000
   O   0.6102698  -0.1699380  -0.0143087 SPIN=   0.00000
   P   0.3555922  -0.3312203  -0.2105721 SPIN=   0.00000
   O  -0.4094124   0.2197576   0.3889773 SPIN=   0.00000
   O  -0.0026714   0.3693018   0.1490950 SPIN=   0.00000
   O  -0.3748971   0.5994176   0.2591764 SPIN=   0.00000
   O  -0.6102698   0.1699380   0.0143087 SPIN=   0.00000
   P  -0.3555922   0.3312203   0.2105721 SPIN=   0.00000
  Fe  -0.3166118   0.2026170  -0.2151607 SPIN=   4.00000
  Fe   0.3166118  -0.2026170   0.2151607 SPIN=   4.00000
%ENDBLOCK POSITIONS_FRAC

# Note: total spin =   8.00

KPOINTS_MP_SPACING 0.07

%BLOCK SPECIES_POT
QC5
%ENDBLOCK SPECIES_POT

%BLOCK HUBBARD_U
Fe d:4.0
%ENDBLOCK HUBBARD_U

SNAP_TO_SYMMETRY
SYMMETRY_GENERATE

