#              Generated by Buildcell
#
# at 11:08:29 (GMT+0.0) 24th November 2020
# in /scratch/scratch/uccabz1/launch_tmp
# on node-a14a-027
# by uccabz1
#
# compiler GCC version 4.9.2
# options -cpp -iprefix /scratch/UCL/applications/gcc/4.9.2/bin/../lib/gcc/x86_64-unknown-linux-gnu/4.9.2/ -mtune=corei7 -march=x86-64 -g -O2
#
# seed  -673337358  1878826236  -143673562  1102694169  1410417237  1399905686 -2050752864  1467688180 -1770908048 -1211098758 -1560275059   188589658
#
#      Author: C. J. Pickard (cjp20@cam.ac.uk)
#                Space group: I41
#

%BLOCK LATTICE_ABC
      5.38392      5.38392      6.70533
    113.66984    113.66984     90.00000
%ENDBLOCK LATTICE_ABC

%BLOCK POSITIONS_FRAC
  Li   0.0126651   0.0126651   0.0253301 SPIN=   0.00000
  Li  -0.2373349   0.2626651  -0.4746699 SPIN=   0.00000
   O  -0.1480454  -0.1083466   0.3207858 SPIN=   0.00000
   O   0.0030511  -0.3976910   0.5650484 SPIN=   0.00000
   O  -0.5311688  -0.5708677   0.3207858 SPIN=   0.00000
   O  -0.4380028  -0.0372607   0.5650484 SPIN=   0.00000
   O   0.6416534  -0.2811688  -0.1792142 SPIN=   0.00000
   O   0.3523090  -0.1880028   0.0650484 SPIN=   0.00000
   O   0.1791323   0.1019546  -0.1792142 SPIN=   0.00000
   O   0.7127393   0.2530511   0.0650484 SPIN=   0.00000
   P  -0.4801486   0.0198514   0.0397029 SPIN=   0.00000
   P  -0.2301486  -0.2301486  -0.4602971 SPIN=   0.00000
  Fe   0.4340351   0.4340351  -0.1319298 SPIN=   4.00000
  Fe   0.1840351  -0.3159649   0.3680702 SPIN=   4.00000
%ENDBLOCK POSITIONS_FRAC

# Note: total spin =   8.00

KPOINTS_MP_SPACING 0.07

%BLOCK SPECIES_POT
QC5
%ENDBLOCK SPECIES_POT

%BLOCK HUBBARD_U
Fe d:4.0
%ENDBLOCK HUBBARD_U

SNAP_TO_SYMMETRY
SYMMETRY_GENERATE

