#              Generated by Buildcell
#
# at 22:23:19 (GMT+0.0) 26th November 2020
# in /lustre/scratch/uccabz1/launch_tmp
# on node-c12d-021
# by uccabz1
#
# compiler GCC version 4.9.2
# options -cpp -iprefix /lustre/shared/ucl/apps/gcc/4.9.2/bin/../lib/gcc/x86_64-unknown-linux-gnu/4.9.2/ -mtune=corei7 -march=x86-64 -g -Og
#
# seed  -141692303 -1772538458  -723264427   826777836  1027071889   656652152  1032849310  -394287671 -1256681020   -84016985  -623676647   842193346
#
#      Author: C. J. Pickard (cjp20@cam.ac.uk)
#                Space group: P222
#

%BLOCK LATTICE_ABC
      5.92252      6.50011      8.31233
     90.00000     90.00000     90.00000
%ENDBLOCK LATTICE_ABC

%BLOCK POSITIONS_FRAC
  Li  -0.2501701   0.0000000  -0.0000000 SPIN=   0.00000
  Li   0.2501701   0.0000000   0.0000000 SPIN=   0.00000
  Li   0.2497941  -0.5000000   0.0000000 SPIN=   0.00000
  Li  -0.2497941   0.5000000   0.0000000 SPIN=   0.00000
   O  -0.4885154   0.3050884   0.1551372 SPIN=   0.00000
   O  -0.0635109   0.2075779   0.1417226 SPIN=   0.00000
   O  -0.1925361   0.4311737   0.3636979 SPIN=   0.00000
   O  -0.3037993   0.0594867   0.3609245 SPIN=   0.00000
   P  -0.2746386   0.2514625   0.2512792 SPIN=   0.00000
   O  -0.4885154  -0.3050884  -0.1551372 SPIN=   0.00000
   O  -0.0635109  -0.2075779  -0.1417226 SPIN=   0.00000
   O  -0.1925361  -0.4311737  -0.3636979 SPIN=   0.00000
   O  -0.3037993  -0.0594867  -0.3609245 SPIN=   0.00000
   P  -0.2746386  -0.2514625  -0.2512792 SPIN=   0.00000
   O   0.4885154  -0.3050884   0.1551372 SPIN=   0.00000
   O   0.0635109  -0.2075779   0.1417226 SPIN=   0.00000
   O   0.1925361  -0.4311737   0.3636979 SPIN=   0.00000
   O   0.3037993  -0.0594867   0.3609245 SPIN=   0.00000
   P   0.2746386  -0.2514625   0.2512792 SPIN=   0.00000
   O   0.4885154   0.3050884  -0.1551372 SPIN=   0.00000
   O   0.0635109   0.2075779  -0.1417226 SPIN=   0.00000
   O   0.1925361   0.4311737  -0.3636979 SPIN=   0.00000
   O   0.3037993   0.0594867  -0.3609245 SPIN=   0.00000
   P   0.2746386   0.2514625  -0.2512792 SPIN=   0.00000
  Fe  -0.2498993   0.2547644  -0.3462965 SPIN=   4.00000
  Fe  -0.2498993  -0.2547644   0.3462965 SPIN=   4.00000
  Fe   0.2498993  -0.2547644  -0.3462965 SPIN=   4.00000
  Fe   0.2498993   0.2547644   0.3462965 SPIN=   4.00000
%ENDBLOCK POSITIONS_FRAC

# Note: total spin =  16.00

KPOINTS_MP_SPACING 0.07

%BLOCK SPECIES_POT
QC5
%ENDBLOCK SPECIES_POT

%BLOCK HUBBARD_U
Fe d:4.0
%ENDBLOCK HUBBARD_U

SNAP_TO_SYMMETRY
SYMMETRY_GENERATE

