#              Generated by Buildcell
#
# at 09:02:53 (GMT+0.0) 24th November 2020
# in /scratch/scratch/uccabz1/launch_tmp
# on node-a14e-019
# by uccabz1
#
# compiler GCC version 4.9.2
# options -cpp -iprefix /scratch/UCL/applications/gcc/4.9.2/bin/../lib/gcc/x86_64-unknown-linux-gnu/4.9.2/ -mtune=corei7 -march=x86-64 -g -O2
#
# seed  1666881821  -720049586   -58851722   653280846   -69985411  -395467866  -960308968 -2060029877   535352473 -1794400854  -868181693 -2103734492
#
#      Author: C. J. Pickard (cjp20@cam.ac.uk)
#                Space group: P-1
#

%BLOCK LATTICE_ABC
      4.67623      4.99111      7.27750
     82.34239     78.02773     75.10389
%ENDBLOCK LATTICE_ABC

%BLOCK POSITIONS_FRAC
  Li  -0.0602460   0.4258262  -0.1801017 SPIN=   0.00000
  Li   0.0602460  -0.4258262   0.1801017 SPIN=   0.00000
   O   0.6666321  -0.1963886  -0.3530079 SPIN=   0.00000
   O   0.4904020  -0.6066480  -0.1410396 SPIN=   0.00000
   O   0.1465562  -0.1392770  -0.1305461 SPIN=   0.00000
   O   0.2440690  -0.3973641  -0.4182520 SPIN=   0.00000
   P   0.4001227  -0.3282803  -0.2674849 SPIN=   0.00000
   O  -0.6666321   0.1963886   0.3530079 SPIN=   0.00000
   O  -0.4904020   0.6066480   0.1410396 SPIN=   0.00000
   O  -0.1465562   0.1392770   0.1305461 SPIN=   0.00000
   O  -0.2440690   0.3973641   0.4182520 SPIN=   0.00000
   P  -0.4001227   0.3282803   0.2674849 SPIN=   0.00000
  Fe   0.0000000  -0.0000000   0.5000000 SPIN=   6.43105
  Fe   0.5000000  -1.0000000   0.0000000 SPIN=   1.56895
%ENDBLOCK POSITIONS_FRAC

# Note: total spin =   8.00

KPOINTS_MP_SPACING 0.07

%BLOCK SPECIES_POT
QC5
%ENDBLOCK SPECIES_POT

%BLOCK HUBBARD_U
Fe d:4.0
%ENDBLOCK HUBBARD_U

SNAP_TO_SYMMETRY
SYMMETRY_GENERATE

