#              Generated by Buildcell
#
# at 14:46:00 (GMT+0.0) 24th November 2020
# in /lustre/scratch/uccabz1/launch_tmp
# on node-c12p-030
# by uccabz1
#
# compiler GCC version 4.9.2
# options -cpp -iprefix /lustre/shared/ucl/apps/gcc/4.9.2/bin/../lib/gcc/x86_64-unknown-linux-gnu/4.9.2/ -mtune=corei7 -march=x86-64 -g -Og
#
# seed  -571836356 -1539796885  -867599215  1713600261  -493611487  -255285596   -93150672  1600581794  -769701213 -1915223649   680488257 -1205294743
#
#      Author: C. J. Pickard (cjp20@cam.ac.uk)
#                Space group: Pc
#

%BLOCK LATTICE_ABC
      4.98754      5.78003      5.90105
     90.00000     90.00000    109.85858
%ENDBLOCK LATTICE_ABC

%BLOCK POSITIONS_FRAC
  Li   0.4045819  -0.4029478   0.2546565 SPIN=   0.00000
  Li   0.4045819   0.0970522  -0.2546565 SPIN=   0.00000
   O  -0.0117011   0.2253628  -0.1528224 SPIN=   0.00000
   O   0.2948617   0.6893917  -0.1643610 SPIN=   0.00000
   O   0.4029738   0.4099182  -0.4380752 SPIN=   0.00000
   O  -0.0456011   0.5091247  -0.4816113 SPIN=   0.00000
   P   0.1485561   0.4466367  -0.3029246 SPIN=   0.00000
   O  -0.0117011  -0.2746372   0.1528224 SPIN=   0.00000
   O   0.2948617   0.1893917   0.1643610 SPIN=   0.00000
   O   0.4029738  -0.0900818   0.4380752 SPIN=   0.00000
   O  -0.0456011   0.0091247   0.4816113 SPIN=   0.00000
   P   0.1485561  -0.0533633   0.3029246 SPIN=   0.00000
  Fe  -0.2526830   0.1974879   0.2356125 SPIN=   4.00000
  Fe  -0.2526830  -0.3025121  -0.2356125 SPIN=   4.00000
%ENDBLOCK POSITIONS_FRAC

# Note: total spin =   8.00

KPOINTS_MP_SPACING 0.07

%BLOCK SPECIES_POT
QC5
%ENDBLOCK SPECIES_POT

%BLOCK HUBBARD_U
Fe d:4.0
%ENDBLOCK HUBBARD_U

SNAP_TO_SYMMETRY
SYMMETRY_GENERATE

