#              Generated by Buildcell
#
# at 14:12:25 (GMT+0.0) 24th November 2020
# in /lustre/scratch/uccabz1/launch_tmp
# on node-c12n-028
# by uccabz1
#
# compiler GCC version 4.9.2
# options -cpp -iprefix /lustre/shared/ucl/apps/gcc/4.9.2/bin/../lib/gcc/x86_64-unknown-linux-gnu/4.9.2/ -mtune=corei7 -march=x86-64 -g -Og
#
# seed  -541291630   838807449   953689079 -1340318874  -610894005  1190128440 -1021854242  -976449597  -290141308  1167504800 -1633054015   406330492
#
#      Author: C. J. Pickard (cjp20@cam.ac.uk)
#                Space group: P21212
#

%BLOCK LATTICE_ABC
      5.17925      5.38201      5.73995
     90.00000     90.00000     90.00000
%ENDBLOCK LATTICE_ABC

%BLOCK POSITIONS_FRAC
  Li   0.0000000   0.0000000   0.0129221 SPIN=   0.00000
  Li  -0.5000000   0.5000000  -0.0129221 SPIN=   0.00000
   O   0.2830651  -0.2904949   0.2283922 SPIN=   0.00000
   O  -0.2107655  -0.2629934   0.3035998 SPIN=   0.00000
   O  -0.2830651   0.2904949   0.2283922 SPIN=   0.00000
   O   0.2107655   0.2629934   0.3035998 SPIN=   0.00000
   O   0.2169349   0.2095051  -0.2283922 SPIN=   0.00000
   O   0.7107655   0.2370066  -0.3035998 SPIN=   0.00000
   O  -0.2169349  -0.2095051  -0.2283922 SPIN=   0.00000
   O  -0.7107655  -0.2370066  -0.3035998 SPIN=   0.00000
   P  -0.5000000   0.0000000  -0.1254990 SPIN=   0.00000
   P   0.0000000   0.5000000   0.1254990 SPIN=   0.00000
  Fe  -0.5000000   0.0000000   0.3745012 SPIN=   4.00000
  Fe   0.0000000   0.5000000  -0.3745012 SPIN=   4.00000
%ENDBLOCK POSITIONS_FRAC

# Note: total spin =   8.00

KPOINTS_MP_SPACING 0.07

%BLOCK SPECIES_POT
QC5
%ENDBLOCK SPECIES_POT

%BLOCK HUBBARD_U
Fe d:4.0
%ENDBLOCK HUBBARD_U

SNAP_TO_SYMMETRY
SYMMETRY_GENERATE

