#              Generated by Buildcell
#
# at 11:37:04 (GMT+0.0) 24th November 2020
# in /lustre/scratch/uccabz1/launch_tmp
# on node-c12h-027
# by uccabz1
#
# compiler GCC version 4.9.2
# options -cpp -iprefix /lustre/shared/ucl/apps/gcc/4.9.2/bin/../lib/gcc/x86_64-unknown-linux-gnu/4.9.2/ -mtune=corei7 -march=x86-64 -g -Og
#
# seed -1500491262 -1221479428  -392432862 -1129947526  -635127736  -354283940   834433184  1677352314 -1070448827  1328122006  -954556737   483115751
#
#      Author: C. J. Pickard (cjp20@cam.ac.uk)
#                Space group: Pc
#

%BLOCK LATTICE_ABC
      4.70170      4.80975      7.55236
     90.00000     90.00000    110.47426
%ENDBLOCK LATTICE_ABC

%BLOCK POSITIONS_FRAC
  Li  -0.2315265  -0.3298483   0.0975595 SPIN=   0.00000
  Li   0.2684735   0.1701517  -0.0975595 SPIN=   0.00000
   O  -0.4983709  -0.3158089  -0.4778030 SPIN=   0.00000
   O  -0.7081189  -0.2450568  -0.1693484 SPIN=   0.00000
   O  -0.1566677  -0.0159313  -0.2227794 SPIN=   0.00000
   O  -0.5136603   0.1904408  -0.3739696 SPIN=   0.00000
   P  -0.4712821  -0.1048742  -0.3206013 SPIN=   0.00000
   O   0.0016291   0.1841911   0.4778030 SPIN=   0.00000
   O  -0.2081189   0.2549432   0.1693484 SPIN=   0.00000
   O   0.3433323   0.4840687   0.2227794 SPIN=   0.00000
   O  -0.0136603   0.6904408   0.3739696 SPIN=   0.00000
   P   0.0287179   0.3951258   0.3206013 SPIN=   0.00000
  Fe   0.3984144   0.0313435   0.3153676 SPIN=   4.00000
  Fe  -0.1015856  -0.4686565  -0.3153676 SPIN=   4.00000
%ENDBLOCK POSITIONS_FRAC

# Note: total spin =   8.00

KPOINTS_MP_SPACING 0.07

%BLOCK SPECIES_POT
QC5
%ENDBLOCK SPECIES_POT

%BLOCK HUBBARD_U
Fe d:4.0
%ENDBLOCK HUBBARD_U

SNAP_TO_SYMMETRY
SYMMETRY_GENERATE

