#              Generated by Buildcell
#
# at 20:28:01 (GMT+0.0) 26th November 2020
# in /lustre/scratch/uccabz1/launch_tmp
# on node-c12l-025
# by uccabz1
#
# compiler GCC version 4.9.2
# options -cpp -iprefix /lustre/shared/ucl/apps/gcc/4.9.2/bin/../lib/gcc/x86_64-unknown-linux-gnu/4.9.2/ -mtune=corei7 -march=x86-64 -g -Og
#
# seed   931046963   466763020 -1873784891 -1085581649 -1560072639  1890943044   848655483   611713336  1185925334 -2017648831 -1623225343   782157625
#
#      Author: C. J. Pickard (cjp20@cam.ac.uk)
#                Space group: Fdd2
#

%BLOCK LATTICE_ABC
      6.50296      6.50296      8.75373
    108.80255    108.80255     97.60095
%ENDBLOCK LATTICE_ABC

%BLOCK POSITIONS_FRAC
  Li   0.4361353  -0.0638647  -0.1277294 SPIN=   0.00000
  Li   0.1861353   0.1861353   0.3722706 SPIN=   0.00000
  Li  -0.0088776  -0.0088776  -0.0177553 SPIN=   0.00000
  Li   0.2411224   0.7411224   0.4822447 SPIN=   0.00000
   O  -0.0173111  -0.3963397  -0.1714267 SPIN=   0.00000
   O   0.2859334  -0.4270403  -0.3054650 SPIN=   0.00000
   O  -0.1148875  -0.5721956  -0.5062619 SPIN=   0.00000
   O   0.0526303  -0.1561844  -0.3431460 SPIN=   0.00000
   P   0.0479349  -0.3856523  -0.3231843 SPIN=   0.00000
   O  -0.1541156   0.2249130  -0.1714267 SPIN=   0.00000
   O  -0.5913984   0.1215753  -0.3054650 SPIN=   0.00000
   O  -0.3913743   0.0659337  -0.5062619 SPIN=   0.00000
   O  -0.3957762  -0.1869616  -0.3431460 SPIN=   0.00000
   P  -0.3711192   0.0624679  -0.3231843 SPIN=   0.00000
   O   0.4749130   0.5958844   0.3285733 SPIN=   0.00000
   O   0.3715753   0.1586016   0.1945350 SPIN=   0.00000
   O   0.3159337   0.3586257  -0.0062619 SPIN=   0.00000
   O   0.0630384   0.3542238   0.1568540 SPIN=   0.00000
   P   0.3124679   0.3788808   0.1768157 SPIN=   0.00000
   O  -0.1463397  -0.2673111   0.3285733 SPIN=   0.00000
   O  -0.1770403   0.0359334   0.1945350 SPIN=   0.00000
   O  -0.3221956  -0.3648875  -0.0062619 SPIN=   0.00000
   O   0.0938156  -0.1973697   0.1568540 SPIN=   0.00000
   P  -0.1356523  -0.2020651   0.1768157 SPIN=   0.00000
  Fe  -0.2346770   0.3786904   0.2116692 SPIN=   4.00000
  Fe   0.4463462  -0.1670212   0.2116692 SPIN=   4.00000
  Fe   0.0829788   0.1963462  -0.2883308 SPIN=   4.00000
  Fe  -0.3713096  -0.4846770  -0.2883308 SPIN=   4.00000
%ENDBLOCK POSITIONS_FRAC

# Note: total spin =  16.00

KPOINTS_MP_SPACING 0.07

%BLOCK SPECIES_POT
QC5
%ENDBLOCK SPECIES_POT

%BLOCK HUBBARD_U
Fe d:4.0
%ENDBLOCK HUBBARD_U

SNAP_TO_SYMMETRY
SYMMETRY_GENERATE

