#              Generated by Buildcell
#
# at 13:14:45 (GMT+0.0) 24th November 2020
# in /scratch/scratch/uccabz1/launch_tmp
# on node-a14e-013
# by uccabz1
#
# compiler GCC version 4.9.2
# options -cpp -iprefix /scratch/UCL/applications/gcc/4.9.2/bin/../lib/gcc/x86_64-unknown-linux-gnu/4.9.2/ -mtune=corei7 -march=x86-64 -g -O2
#
# seed -1543802568  -462030943   496058534 -2125490785 -2131406056  -272049627  -521190020   728755012  -438178403 -1758033663    33155402  -713361981
#
#      Author: C. J. Pickard (cjp20@cam.ac.uk)
#                Space group: P-1
#

%BLOCK LATTICE_ABC
      4.68695      5.75082      6.42824
    103.39360    104.32100     97.56521
%ENDBLOCK LATTICE_ABC

%BLOCK POSITIONS_FRAC
  Li   0.3580449  -0.2419490   0.3373475 SPIN=   0.00000
  Li  -0.3580449   0.2419490  -0.3373475 SPIN=   0.00000
   O   0.1733755   0.2058689  -0.4000571 SPIN=   0.00000
   O   0.1857318   0.3666191   0.0152085 SPIN=   0.00000
   O  -0.1176546  -0.0420666  -0.2001061 SPIN=   0.00000
   P   0.1747183   0.1405708  -0.1810252 SPIN=   0.00000
   O  -0.1733755  -0.2058689   0.4000571 SPIN=   0.00000
   O  -0.1857318  -0.3666191  -0.0152085 SPIN=   0.00000
   O   0.1176546   0.0420666   0.2001061 SPIN=   0.00000
   P  -0.1747183  -0.1405708   0.1810252 SPIN=   0.00000
   O   0.5000000   0.5000000   0.5000000 SPIN=   0.00000
   O  -0.5000000   0.0000000   0.0000000 SPIN=   0.00000
  Fe  -0.2576873   0.3436377   0.1997442 SPIN=   4.00000
  Fe   0.2576873  -0.3436377  -0.1997442 SPIN=   4.00000
%ENDBLOCK POSITIONS_FRAC

# Note: total spin =   8.00

KPOINTS_MP_SPACING 0.07

%BLOCK SPECIES_POT
QC5
%ENDBLOCK SPECIES_POT

%BLOCK HUBBARD_U
Fe d:4.0
%ENDBLOCK HUBBARD_U

SNAP_TO_SYMMETRY
SYMMETRY_GENERATE

