#              Generated by Buildcell
#
# at 06:43:48 (GMT+0.0) 24th November 2020
# in /lustre/scratch/uccabz1/launch_tmp
# on node-c12l-025
# by uccabz1
#
# compiler GCC version 4.9.2
# options -cpp -iprefix /lustre/shared/ucl/apps/gcc/4.9.2/bin/../lib/gcc/x86_64-unknown-linux-gnu/4.9.2/ -mtune=corei7 -march=x86-64 -g -Og
#
# seed   649738670  -869475400 -1850371834  -809990826  1116092567  2101074220 -1854158389  -192263244  2086666343   274613412  2002409793  1295364095
#
#      Author: C. J. Pickard (cjp20@cam.ac.uk)
#                Space group: P-1
#

%BLOCK LATTICE_ABC
      4.27959      5.14057      7.50833
    101.75913     92.67987     97.18183
%ENDBLOCK LATTICE_ABC

%BLOCK POSITIONS_FRAC
  Li   0.5056138   0.3671608   0.3018801 SPIN=   0.00000
  Li  -0.5056138  -0.3671608  -0.3018801 SPIN=   0.00000
   O  -0.7405967  -0.0865426   0.0881543 SPIN=   0.00000
   O  -0.1836712   0.0771718   0.2551485 SPIN=   0.00000
   O  -0.5573478  -0.2268848   0.3853825 SPIN=   0.00000
   P  -0.4641826  -0.1590242   0.1981611 SPIN=   0.00000
   O   0.7405967   0.0865426  -0.0881543 SPIN=   0.00000
   O   0.1836712  -0.0771718  -0.2551485 SPIN=   0.00000
   O   0.5573478   0.2268848  -0.3853825 SPIN=   0.00000
   P   0.4641826   0.1590242  -0.1981611 SPIN=   0.00000
   O   1.0000000   0.5000000  -0.5000000 SPIN=   0.00000
   O  -0.5000000  -0.5000000   0.0000000 SPIN=   0.00000
  Fe  -0.0000000  -0.5000000   0.0000000 SPIN=   3.06774
  Fe  -0.0000000  -0.0000000   0.5000000 SPIN=   4.93226
%ENDBLOCK POSITIONS_FRAC

# Note: total spin =   8.00

KPOINTS_MP_SPACING 0.07

%BLOCK SPECIES_POT
QC5
%ENDBLOCK SPECIES_POT

%BLOCK HUBBARD_U
Fe d:4.0
%ENDBLOCK HUBBARD_U

SNAP_TO_SYMMETRY
SYMMETRY_GENERATE

