#              Generated by Buildcell
#
# at 14:35:12 (GMT+0.0) 24th November 2020
# in /scratch/scratch/uccabz1/launch_tmp
# on node-a14b-010
# by uccabz1
#
# compiler GCC version 4.9.2
# options -cpp -iprefix /scratch/UCL/applications/gcc/4.9.2/bin/../lib/gcc/x86_64-unknown-linux-gnu/4.9.2/ -mtune=corei7 -march=x86-64 -g -O2
#
# seed  1737157172 -1604641709  -240107589  -151024228  1959015628 -1902567281   541999025   826659782   780967668 -1251955550  -335639227  -926212439
#
#      Author: C. J. Pickard (cjp20@cam.ac.uk)
#                Space group: Pnn2
#

%BLOCK LATTICE_ABC
      4.31503      5.00385      7.41025
     90.00000     90.00000     90.00000
%ENDBLOCK LATTICE_ABC

%BLOCK POSITIONS_FRAC
  Li   0.5000000  -0.5000000  -0.3294112 SPIN=   0.00000
  Li   0.0000000  -0.0000000   0.1705888 SPIN=   0.00000
   O  -0.2961233  -0.2386692   0.0109968 SPIN=   0.00000
   O  -0.2034095  -0.6961708  -0.1457502 SPIN=   0.00000
   O   0.2961233   0.2386692   0.0109968 SPIN=   0.00000
   O   0.2034095   0.6961708  -0.1457502 SPIN=   0.00000
   O   0.2038767  -0.2613308   0.5109968 SPIN=   0.00000
   O   0.2965905   0.1961708   0.3542498 SPIN=   0.00000
   O  -0.2038767   0.2613308   0.5109968 SPIN=   0.00000
   O  -0.2965905  -0.1961708   0.3542498 SPIN=   0.00000
   P   0.5000000  -0.0000000  -0.0462516 SPIN=   0.00000
   P  -0.0000000  -0.5000000   0.4537484 SPIN=   0.00000
  Fe   0.0000000  -0.0000000  -0.3016904 SPIN=   4.00000
  Fe   0.5000000  -0.5000000   0.1983096 SPIN=   4.00000
%ENDBLOCK POSITIONS_FRAC

# Note: total spin =   8.00

KPOINTS_MP_SPACING 0.07

%BLOCK SPECIES_POT
QC5
%ENDBLOCK SPECIES_POT

%BLOCK HUBBARD_U
Fe d:4.0
%ENDBLOCK HUBBARD_U

SNAP_TO_SYMMETRY
SYMMETRY_GENERATE

