#              Generated by Buildcell
#
# at 14:49:47 (GMT+0.0) 24th November 2020
# in /scratch/scratch/uccabz1/launch_tmp
# on node-k10d-036
# by uccabz1
#
# compiler GCC version 4.9.2
# options -cpp -iprefix /scratch/UCL/applications/gcc/4.9.2/bin/../lib/gcc/x86_64-unknown-linux-gnu/4.9.2/ -mtune=corei7 -march=x86-64 -g -O2
#
# seed -1974005692   833236126  -378258072  -561378206 -1216751383  1667282289  -336126228   548102970 -1896695021  1243064841  -568687693   607743609
#
#      Author: C. J. Pickard (cjp20@cam.ac.uk)
#                Space group: Cc
#

%BLOCK LATTICE_ABC
      4.61218      4.61218      7.81640
     89.36113     89.36113     74.23210
%ENDBLOCK LATTICE_ABC

%BLOCK POSITIONS_FRAC
  Li   0.3407722  -0.0862190   0.1177731 SPIN=   0.00000
  Li   0.4137810  -0.1592278  -0.3822269 SPIN=   0.00000
   O   0.2638395  -0.5908724  -0.2881045 SPIN=   0.00000
   O   0.2028117  -0.0759843  -0.1399809 SPIN=   0.00000
   O  -0.1868975  -0.3437581  -0.0878648 SPIN=   0.00000
   O   0.3261465  -0.5479783   0.0378511 SPIN=   0.00000
   P   0.1595193  -0.4022309  -0.1266436 SPIN=   0.00000
   O  -0.0908724  -0.2361605   0.2118955 SPIN=   0.00000
   O   0.4240157  -0.2971883   0.3600191 SPIN=   0.00000
   O   0.1562419  -0.6868975   0.4121352 SPIN=   0.00000
   O  -0.0479783  -0.1738535   0.5378511 SPIN=   0.00000
   P   0.0977691  -0.3404807   0.3733564 SPIN=   0.00000
  Fe  -0.2358743   0.2135440  -0.1351839 SPIN=   4.00000
  Fe  -0.2864560   0.2641257   0.3648161 SPIN=   4.00000
%ENDBLOCK POSITIONS_FRAC

# Note: total spin =   8.00

KPOINTS_MP_SPACING 0.07

%BLOCK SPECIES_POT
QC5
%ENDBLOCK SPECIES_POT

%BLOCK HUBBARD_U
Fe d:4.0
%ENDBLOCK HUBBARD_U

SNAP_TO_SYMMETRY
SYMMETRY_GENERATE

