#              Generated by Buildcell
#
# at 00:01:48 (GMT+0.0) 27th November 2020
# in /scratch/scratch/uccabz1/launch_tmp
# on node-a14c-005
# by uccabz1
#
# compiler GCC version 4.9.2
# options -cpp -iprefix /scratch/UCL/applications/gcc/4.9.2/bin/../lib/gcc/x86_64-unknown-linux-gnu/4.9.2/ -mtune=corei7 -march=x86-64 -g -O2
#
# seed  1673816157  1431865927  1735485702 -1933130412  1443031637  -500642749 -1982573645 -2009717887   387293501  -180816257   665759883  1213678766
#
#      Author: C. J. Pickard (cjp20@cam.ac.uk)
#                Space group: Pca21
#

%BLOCK LATTICE_ABC
      6.31070      6.67613      7.59534
     90.00000     90.00000     90.00000
%ENDBLOCK LATTICE_ABC

%BLOCK POSITIONS_FRAC
  Li   0.1400136   0.3192880  -0.0172555 SPIN=   0.00000
  Li  -0.3599864  -0.3192880   0.0172555 SPIN=   0.00000
  Li   0.1400136  -0.1807120   0.0172555 SPIN=   0.00000
  Li  -0.3599864   0.1807120  -0.0172555 SPIN=   0.00000
   O   0.3143689   0.1586707   0.1731918 SPIN=   0.00000
   O   0.6575932  -0.0562153   0.1706886 SPIN=   0.00000
   O   0.5552111   0.1119857   0.4475618 SPIN=   0.00000
   O   0.3413503  -0.1785568   0.3383597 SPIN=   0.00000
   P   0.4575127   0.0147288   0.2772928 SPIN=   0.00000
   O  -0.1856311  -0.1586707  -0.1731918 SPIN=   0.00000
   O   0.1575932   0.0562153  -0.1706886 SPIN=   0.00000
   O   0.0552111  -0.1119857  -0.4475618 SPIN=   0.00000
   O  -0.1586497   0.1785568  -0.3383597 SPIN=   0.00000
   P  -0.0424873  -0.0147288  -0.2772928 SPIN=   0.00000
   O   0.3143689  -0.3413293  -0.1731918 SPIN=   0.00000
   O   0.6575932  -0.5562153  -0.1706886 SPIN=   0.00000
   O   0.5552111  -0.3880143  -0.4475618 SPIN=   0.00000
   O   0.3413503  -0.6785568  -0.3383597 SPIN=   0.00000
   P   0.4575127  -0.4852712  -0.2772928 SPIN=   0.00000
   O  -0.1856311   0.3413293   0.1731918 SPIN=   0.00000
   O   0.1575932   0.5562153   0.1706886 SPIN=   0.00000
   O   0.0552111   0.3880143   0.4475618 SPIN=   0.00000
   O  -0.1586497   0.6785568   0.3383597 SPIN=   0.00000
   P  -0.0424873   0.4852712   0.2772928 SPIN=   0.00000
  Fe  -0.0972823   0.0565166   0.3452513 SPIN=   4.00000
  Fe   0.4027177  -0.0565166  -0.3452513 SPIN=   4.00000
  Fe  -0.0972823  -0.4434834  -0.3452513 SPIN=   4.00000
  Fe   0.4027177   0.4434834   0.3452513 SPIN=   4.00000
%ENDBLOCK POSITIONS_FRAC

# Note: total spin =  16.00

KPOINTS_MP_SPACING 0.07

%BLOCK SPECIES_POT
QC5
%ENDBLOCK SPECIES_POT

%BLOCK HUBBARD_U
Fe d:4.0
%ENDBLOCK HUBBARD_U

SNAP_TO_SYMMETRY
SYMMETRY_GENERATE

