#              Generated by Buildcell
#
# at 09:37:53 (GMT+0.0) 24th November 2020
# in /lustre/scratch/uccabz1/launch_tmp
# on node-c12c-026
# by uccabz1
#
# compiler GCC version 4.9.2
# options -cpp -iprefix /lustre/shared/ucl/apps/gcc/4.9.2/bin/../lib/gcc/x86_64-unknown-linux-gnu/4.9.2/ -mtune=corei7 -march=x86-64 -g -Og
#
# seed -1641682999 -1651347408 -1729387805  -743133574  1833733357  -863628612  -835693535  1479820782 -1210688488 -2047372156 -2096543356   276334721
#
#      Author: C. J. Pickard (cjp20@cam.ac.uk)
#                Space group: Cc
#

%BLOCK LATTICE_ABC
      4.72027      5.31188      7.55291
     76.06119     71.79124     63.62066
%ENDBLOCK LATTICE_ABC

%BLOCK POSITIONS_FRAC
  Li   0.3151211   0.3285975  -0.4599385 SPIN=   0.00000
  Li  -0.1837801  -0.1714025   0.0400615 SPIN=   0.00000
   O   0.2024612  -0.2182063  -0.3798475 SPIN=   0.00000
   O  -0.1017704   0.1638789  -0.1498043 SPIN=   0.00000
   O  -0.1332714   0.3101866  -0.4816744 SPIN=   0.00000
   O  -0.4248545   0.0103238  -0.2753438 SPIN=   0.00000
   P  -0.1011539   0.0507206  -0.3242186 SPIN=   0.00000
   O   0.3955925  -0.7182063   0.1201525 SPIN=   0.00000
   O   0.0876958  -0.3361211   0.3501957 SPIN=   0.00000
   O   0.3047593  -0.1898134   0.0183256 SPIN=   0.00000
   O   0.6898745  -0.4896762   0.2246562 SPIN=   0.00000
   P   0.3746518  -0.4492794   0.1757814 SPIN=   0.00000
  Fe   0.0554837   0.1120289   0.2740649 SPIN=   4.00000
  Fe  -0.4415775  -0.3879711  -0.2259351 SPIN=   4.00000
%ENDBLOCK POSITIONS_FRAC

# Note: total spin =   8.00

KPOINTS_MP_SPACING 0.07

%BLOCK SPECIES_POT
QC5
%ENDBLOCK SPECIES_POT

%BLOCK HUBBARD_U
Fe d:4.0
%ENDBLOCK HUBBARD_U

SNAP_TO_SYMMETRY
SYMMETRY_GENERATE

