#              Generated by Buildcell
#
# at 16:51:16 (GMT+0.0) 26th November 2020
# in /lustre/scratch/uccabz1/launch_tmp
# on node-c12f-021
# by uccabz1
#
# compiler GCC version 4.9.2
# options -cpp -iprefix /lustre/shared/ucl/apps/gcc/4.9.2/bin/../lib/gcc/x86_64-unknown-linux-gnu/4.9.2/ -mtune=corei7 -march=x86-64 -g -Og
#
# seed  -111661516   174696715  -884329305  -598908131    23752809 -1334837804  1532111282  -181826288  1719877989   897579033   173118994  1346360718
#
#      Author: C. J. Pickard (cjp20@cam.ac.uk)
#                Space group: Pna21
#

%BLOCK LATTICE_ABC
      5.10276      5.93364     10.56874
     90.00000     90.00000     90.00000
%ENDBLOCK LATTICE_ABC

%BLOCK POSITIONS_FRAC
  Li  -0.4965081  -0.3578650   0.1898340 SPIN=   0.00000
  Li   0.4965081   0.3578650  -0.3101660 SPIN=   0.00000
  Li  -0.0034919   0.1421350   0.1898340 SPIN=   0.00000
  Li   0.0034919  -0.1421350  -0.3101660 SPIN=   0.00000
   O   0.5966842   0.1780014   0.1454015 SPIN=   0.00000
   O   0.6037155   0.5176251  -0.0097159 SPIN=   0.00000
   O   0.4683540   0.1456640  -0.0917941 SPIN=   0.00000
   O   0.1722798   0.3545175   0.0564153 SPIN=   0.00000
   P   0.4641239   0.2931678   0.0318532 SPIN=   0.00000
   O  -0.5966842  -0.1780014  -0.3545985 SPIN=   0.00000
   O  -0.6037155  -0.5176251  -0.5097159 SPIN=   0.00000
   O  -0.4683540  -0.1456640  -0.5917941 SPIN=   0.00000
   O  -0.1722798  -0.3545175  -0.4435847 SPIN=   0.00000
   P  -0.4641239  -0.2931678  -0.4681468 SPIN=   0.00000
   O  -0.0966842  -0.3219986   0.1454015 SPIN=   0.00000
   O  -0.1037155   0.0176251  -0.0097159 SPIN=   0.00000
   O   0.0316460  -0.3543360  -0.0917941 SPIN=   0.00000
   O   0.3277202  -0.1454825   0.0564153 SPIN=   0.00000
   P   0.0358761  -0.2068322   0.0318532 SPIN=   0.00000
   O   0.0966842   0.3219986  -0.3545985 SPIN=   0.00000
   O   0.1037155  -0.0176251  -0.5097159 SPIN=   0.00000
   O  -0.0316460   0.3543360  -0.5917941 SPIN=   0.00000
   O  -0.3277202   0.1454825  -0.4435847 SPIN=   0.00000
   P  -0.0358761   0.2068322  -0.4681468 SPIN=   0.00000
  Fe   0.4975603   0.2024659   0.3809196 SPIN=   4.00000
  Fe  -0.4975603  -0.2024659  -0.1190804 SPIN=   4.00000
  Fe   0.0024397  -0.2975341   0.3809196 SPIN=   4.00000
  Fe  -0.0024397   0.2975341  -0.1190804 SPIN=   4.00000
%ENDBLOCK POSITIONS_FRAC

# Note: total spin =  16.00

KPOINTS_MP_SPACING 0.07

%BLOCK SPECIES_POT
QC5
%ENDBLOCK SPECIES_POT

%BLOCK HUBBARD_U
Fe d:4.0
%ENDBLOCK HUBBARD_U

SNAP_TO_SYMMETRY
SYMMETRY_GENERATE

