#              Generated by Buildcell
#
# at 10:15:00 (GMT+0.0) 24th November 2020
# in /lustre/scratch/uccabz1/launch_tmp
# on node-c12l-030
# by uccabz1
#
# compiler GCC version 4.9.2
# options -cpp -iprefix /lustre/shared/ucl/apps/gcc/4.9.2/bin/../lib/gcc/x86_64-unknown-linux-gnu/4.9.2/ -mtune=corei7 -march=x86-64 -g -Og
#
# seed -1443177719  1708383802   508044065 -1777555043  -126271064  1831388454 -1628455497 -1179612420   135094006  -608477621   104380669   227608836
#
#      Author: C. J. Pickard (cjp20@cam.ac.uk)
#                Space group: P-1
#

%BLOCK LATTICE_ABC
      4.43252      5.57392      6.60804
     79.39011     86.88097     86.39325
%ENDBLOCK LATTICE_ABC

%BLOCK POSITIONS_FRAC
  Li  -0.2633575  -0.3101717   0.4797566 SPIN=   0.00000
  Li   0.2633575   0.3101717  -0.4797566 SPIN=   0.00000
   O   0.3753142   0.0711559   0.1794266 SPIN=   0.00000
   O  -0.0808181  -0.1991699   0.1777786 SPIN=   0.00000
   O   0.4348251  -0.3947087   0.1756547 SPIN=   0.00000
   O   0.2203441  -0.2522874   0.4943503 SPIN=   0.00000
   P   0.2445572  -0.1803382   0.2554860 SPIN=   0.00000
   O  -0.3753142  -0.0711559  -0.1794266 SPIN=   0.00000
   O   0.0808181   0.1991699  -0.1777786 SPIN=   0.00000
   O  -0.4348251   0.3947087  -0.1756547 SPIN=   0.00000
   O  -0.2203441   0.2522874  -0.4943503 SPIN=   0.00000
   P  -0.2445572   0.1803382  -0.2554860 SPIN=   0.00000
  Fe  -0.2012867   0.2234554   0.1679662 SPIN=   4.00000
  Fe   0.2012867  -0.2234554  -0.1679662 SPIN=   4.00000
%ENDBLOCK POSITIONS_FRAC

# Note: total spin =   8.00

KPOINTS_MP_SPACING 0.07

%BLOCK SPECIES_POT
QC5
%ENDBLOCK SPECIES_POT

%BLOCK HUBBARD_U
Fe d:4.0
%ENDBLOCK HUBBARD_U

SNAP_TO_SYMMETRY
SYMMETRY_GENERATE

