#              Generated by Buildcell
#
# at 13:56:25 (GMT+0.0) 26th November 2020
# in /lustre/scratch/uccabz1/launch_tmp
# on node-c12b-021
# by uccabz1
#
# compiler GCC version 4.9.2
# options -cpp -iprefix /lustre/shared/ucl/apps/gcc/4.9.2/bin/../lib/gcc/x86_64-unknown-linux-gnu/4.9.2/ -mtune=corei7 -march=x86-64 -g -Og
#
# seed   461377558  -924840119   575220869 -1200444704  -762458277  1790118957 -1717875570 -1118711700 -1306991491  -804741016  1237072886  2122577614
#
#      Author: C. J. Pickard (cjp20@cam.ac.uk)
#                Space group: Cc
#

%BLOCK LATTICE_ABC
      5.41257      6.48506     10.48485
    105.32153     90.00000    114.66491
%ENDBLOCK LATTICE_ABC

%BLOCK POSITIONS_FRAC
  Li   0.3033333  -0.3603911   0.1634006 SPIN=   0.00000
  Li  -0.1637244  -0.3603911  -0.3365994 SPIN=   0.00000
  Li   0.3568438  -0.2312541  -0.1633748 SPIN=   0.00000
  Li  -0.0880979  -0.2312541   0.3366252 SPIN=   0.00000
   O  -0.0294320   0.3705039  -0.3897801 SPIN=   0.00000
   O  -0.1412862  -0.0380919  -0.3524594 SPIN=   0.00000
   O  -0.2940120  -0.0308081  -0.5725490 SPIN=   0.00000
   O   0.2060088   0.1087435  -0.5040370 SPIN=   0.00000
   P  -0.0596091   0.1169248  -0.4518315 SPIN=   0.00000
   O  -0.1000642   0.3705039   0.1102199 SPIN=   0.00000
   O  -0.3968057  -0.0380919   0.1475406 SPIN=   0.00000
   O  -0.2367961  -0.0308081  -0.0725490 SPIN=   0.00000
   O  -0.5972653   0.1087435  -0.0040370 SPIN=   0.00000
   P  -0.3234661   0.1169248   0.0481685 SPIN=   0.00000
   O  -0.5997627   0.4541983  -0.0589320 SPIN=   0.00000
   O  -0.1528884   0.5101379  -0.1669731 SPIN=   0.00000
   O  -0.5474580   0.1151997  -0.2370236 SPIN=   0.00000
   O  -0.5677332   0.4504479  -0.3052618 SPIN=   0.00000
   P  -0.4752208   0.3871157  -0.1862959 SPIN=   0.00000
   O   0.5539610   0.4541983   0.4410680 SPIN=   0.00000
   O   0.1630263   0.5101379   0.3330269 SPIN=   0.00000
   O   0.1626577   0.1151997   0.2629764 SPIN=   0.00000
   O   0.5181811   0.4504479   0.1947382 SPIN=   0.00000
   P   0.3623365   0.3871157   0.3137041 SPIN=   0.00000
  Fe  -0.1212983  -0.2220537   0.0278253 SPIN=   4.51334
  Fe   0.3992446  -0.2220537  -0.4721747 SPIN=   4.51334
  Fe  -0.2306251   0.2235918   0.3286633 SPIN=   3.48666
  Fe  -0.0457831   0.2235918  -0.1713367 SPIN=   3.48666
%ENDBLOCK POSITIONS_FRAC

# Note: total spin =  16.00

KPOINTS_MP_SPACING 0.07

%BLOCK SPECIES_POT
QC5
%ENDBLOCK SPECIES_POT

%BLOCK HUBBARD_U
Fe d:4.0
%ENDBLOCK HUBBARD_U

SNAP_TO_SYMMETRY
SYMMETRY_GENERATE

