#              Generated by Buildcell
#
# at 14:10:23 (GMT+0.0) 24th November 2020
# in /lustre/scratch/uccabz1/launch_tmp
# on node-c12l-023
# by uccabz1
#
# compiler GCC version 4.9.2
# options -cpp -iprefix /lustre/shared/ucl/apps/gcc/4.9.2/bin/../lib/gcc/x86_64-unknown-linux-gnu/4.9.2/ -mtune=corei7 -march=x86-64 -g -Og
#
# seed  -931773323  -660932000 -1605483609  1677953339   621071202 -1661687701   117486860   261956090    48641828    85002170 -2144182364 -1644066316
#
#      Author: C. J. Pickard (cjp20@cam.ac.uk)
#                Space group: Imm2
#

%BLOCK LATTICE_ABC
      5.01007      5.93223      6.63734
    116.54388    112.17366     90.00000
%ENDBLOCK LATTICE_ABC

%BLOCK POSITIONS_FRAC
  Li   0.1234402   0.0000000   0.0000000 SPIN=   0.00000
  Li   0.2376202   0.5000000   1.0000000 SPIN=   0.00000
   O   0.0553150   0.3396979   0.2570558 SPIN=   0.00000
   O  -0.4501424   0.4154034   0.2698408 SPIN=   0.00000
   O  -0.2017408  -0.3396979  -1.2570558 SPIN=   0.00000
   O  -0.7199832  -0.4154034  -1.2698408 SPIN=   0.00000
   O  -0.2017408   0.0826422  -0.2570558 SPIN=   0.00000
   O  -0.7199832   0.1455626  -0.2698408 SPIN=   0.00000
   O   0.0553150  -0.0826422  -0.7429442 SPIN=   0.00000
   O  -0.4501424  -0.1455626  -0.7301592 SPIN=   0.00000
   P  -0.0914356   0.1722799   0.3445598 SPIN=   0.00000
   P  -0.4359954  -0.1722799  -0.3445598 SPIN=   0.00000
  Fe  -0.0644746  -0.3014041  -0.6028082 SPIN=   4.00000
  Fe  -0.4616664   0.3014041  -0.3971918 SPIN=   4.00000
%ENDBLOCK POSITIONS_FRAC

# Note: total spin =   8.00

KPOINTS_MP_SPACING 0.07

%BLOCK SPECIES_POT
QC5
%ENDBLOCK SPECIES_POT

%BLOCK HUBBARD_U
Fe d:4.0
%ENDBLOCK HUBBARD_U

SNAP_TO_SYMMETRY
SYMMETRY_GENERATE

