#              Generated by Buildcell
#
# at 14:08:51 (GMT+0.0) 24th November 2020
# in /lustre/scratch/uccabz1/launch_tmp
# on node-c12h-026
# by uccabz1
#
# compiler GCC version 4.9.2
# options -cpp -iprefix /lustre/shared/ucl/apps/gcc/4.9.2/bin/../lib/gcc/x86_64-unknown-linux-gnu/4.9.2/ -mtune=corei7 -march=x86-64 -g -Og
#
# seed    55790471  -230827386 -2083440576 -1829449665  -528665708  1692910877   -81676180   960872824   451512713 -2137122947 -1296684466   188465358
#
#      Author: C. J. Pickard (cjp20@cam.ac.uk)
#                Space group: Cc
#

%BLOCK LATTICE_ABC
      4.53212      4.53212      8.65944
     84.12032     84.12032     64.99383
%ENDBLOCK LATTICE_ABC

%BLOCK POSITIONS_FRAC
  Li  -0.4371697   0.1738497  -0.2669245 SPIN=   0.00000
  Li  -0.3261503   0.0628303   0.2330755 SPIN=   0.00000
   O  -0.1897753   0.3718795   0.3674491 SPIN=   0.00000
   O  -0.1738527   0.6617261   0.0938890 SPIN=   0.00000
   O   0.2653747   0.5623333   0.2660643 SPIN=   0.00000
   O   0.2417011   0.0911309   0.1484146 SPIN=   0.00000
   P   0.0262770   0.4152093   0.2260284 SPIN=   0.00000
   O  -0.1281205  -0.6897753  -0.1325509 SPIN=   0.00000
   O   0.1617261  -0.6738527  -0.4061110 SPIN=   0.00000
   O   0.0623333  -0.2346253  -0.2339357 SPIN=   0.00000
   O  -0.4088691  -0.2582989  -0.3515854 SPIN=   0.00000
   P  -0.0847907  -0.4737230  -0.2739716 SPIN=   0.00000
  Fe   0.2202747  -0.1687160   0.4974757 SPIN=   4.00000
  Fe   0.3312840  -0.2797253  -0.0025243 SPIN=   4.00000
%ENDBLOCK POSITIONS_FRAC

# Note: total spin =   8.00

KPOINTS_MP_SPACING 0.07

%BLOCK SPECIES_POT
QC5
%ENDBLOCK SPECIES_POT

%BLOCK HUBBARD_U
Fe d:4.0
%ENDBLOCK HUBBARD_U

SNAP_TO_SYMMETRY
SYMMETRY_GENERATE

