#              Generated by Buildcell
#
# at 23:05:18 (GMT+0.0) 26th November 2020
# in /lustre/scratch/uccabz1/launch_tmp
# on node-c12p-029
# by uccabz1
#
# compiler GCC version 4.9.2
# options -cpp -iprefix /lustre/shared/ucl/apps/gcc/4.9.2/bin/../lib/gcc/x86_64-unknown-linux-gnu/4.9.2/ -mtune=corei7 -march=x86-64 -g -Og
#
# seed  1609727115  -277695537  1906926591  -805136248 -1090978457 -1528944546  1889653643   109060389 -1841289344  -798950918  1323083303 -1222779968
#
#      Author: C. J. Pickard (cjp20@cam.ac.uk)
#                Space group: Pcc2
#

%BLOCK LATTICE_ABC
      6.07861      6.21283      8.47337
     90.00000     90.00000     90.00000
%ENDBLOCK LATTICE_ABC

%BLOCK POSITIONS_FRAC
  Li  -0.2623205  -0.2553795   0.0019253 SPIN=   0.00000
  Li  -0.2623205   0.2553795  -0.0019253 SPIN=   0.00000
  Li   0.2376795  -0.2553795  -0.0019253 SPIN=   0.00000
  Li   0.2376795   0.2553795   0.0019253 SPIN=   0.00000
   O   0.1268901   0.4277831  -0.1973453 SPIN=   0.00000
   O   0.2006196   0.0898143  -0.3699962 SPIN=   0.00000
   O  -0.0728686   0.0625549  -0.1553334 SPIN=   0.00000
   O  -0.1598311   0.2819712  -0.3952911 SPIN=   0.00000
   P   0.0270309   0.2276163  -0.2764842 SPIN=   0.00000
   O   0.1268901  -0.4277831   0.1973453 SPIN=   0.00000
   O   0.2006196  -0.0898143   0.3699962 SPIN=   0.00000
   O  -0.0728686  -0.0625549   0.1553334 SPIN=   0.00000
   O  -0.1598311  -0.2819712   0.3952911 SPIN=   0.00000
   P   0.0270309  -0.2276163   0.2764842 SPIN=   0.00000
   O  -0.3731099   0.4277831   0.1973453 SPIN=   0.00000
   O  -0.2993804   0.0898143   0.3699962 SPIN=   0.00000
   O  -0.5728686   0.0625549   0.1553334 SPIN=   0.00000
   O  -0.6598311   0.2819712   0.3952911 SPIN=   0.00000
   P  -0.4729691   0.2276163   0.2764842 SPIN=   0.00000
   O  -0.3731099  -0.4277831  -0.1973453 SPIN=   0.00000
   O  -0.2993804  -0.0898143  -0.3699962 SPIN=   0.00000
   O  -0.5728686  -0.0625549  -0.1553334 SPIN=   0.00000
   O  -0.6598311  -0.2819712  -0.3952911 SPIN=   0.00000
   P  -0.4729691  -0.2276163  -0.2764842 SPIN=   0.00000
  Fe   0.0006873  -0.2557777  -0.3535993 SPIN=   4.00000
  Fe   0.0006873   0.2557777   0.3535993 SPIN=   4.00000
  Fe  -0.4993127  -0.2557777   0.3535993 SPIN=   4.00000
  Fe  -0.4993127   0.2557777  -0.3535993 SPIN=   4.00000
%ENDBLOCK POSITIONS_FRAC

# Note: total spin =  16.00

KPOINTS_MP_SPACING 0.07

%BLOCK SPECIES_POT
QC5
%ENDBLOCK SPECIES_POT

%BLOCK HUBBARD_U
Fe d:4.0
%ENDBLOCK HUBBARD_U

SNAP_TO_SYMMETRY
SYMMETRY_GENERATE

