#              Generated by Buildcell
#
# at 20:59:40 (GMT+0.0) 26th November 2020
# in /lustre/scratch/uccabz1/launch_tmp
# on node-c12p-025
# by uccabz1
#
# compiler GCC version 4.9.2
# options -cpp -iprefix /lustre/shared/ucl/apps/gcc/4.9.2/bin/../lib/gcc/x86_64-unknown-linux-gnu/4.9.2/ -mtune=corei7 -march=x86-64 -g -Og
#
# seed -1117206060  1735194919  -576548467  -992149090  -498549657   150293249 -1052348790  -739637927  -474890932 -2025379049  -742383988  1564349573
#
#      Author: C. J. Pickard (cjp20@cam.ac.uk)
#                Space group: Pc
#

%BLOCK LATTICE_ABC
      5.07762      7.70215      8.63067
    108.54840     90.00000     90.00000
%ENDBLOCK LATTICE_ABC

%BLOCK POSITIONS_FRAC
  Li  -0.3605388  -0.3519898   0.1561695 SPIN=   0.00000
  Li   0.3605388   0.1480102  -0.3438305 SPIN=   0.00000
  Li   0.3732513   0.2178026   0.0203342 SPIN=   0.00000
  Li  -0.3732513  -0.2821974  -0.4796658 SPIN=   0.00000
   O  -0.1159459   0.1626167   0.2323337 SPIN=   0.00000
   O  -0.6169762   0.1372485   0.2823070 SPIN=   0.00000
   O  -0.3578562   0.3682469   0.4909453 SPIN=   0.00000
   O  -0.4461921   0.4132834   0.2208061 SPIN=   0.00000
   P  -0.3706882   0.2662994   0.3016314 SPIN=   0.00000
   O   0.1159459  -0.3373833  -0.2676663 SPIN=   0.00000
   O   0.6169762  -0.3627515  -0.2176930 SPIN=   0.00000
   O   0.3578562  -0.1317531  -0.0090547 SPIN=   0.00000
   O   0.4461921  -0.0867166  -0.2791939 SPIN=   0.00000
   P   0.3706882  -0.2337006  -0.1983686 SPIN=   0.00000
   O  -0.2059474   0.1452562  -0.2309360 SPIN=   0.00000
   O   0.0360233   0.1591194  -0.4919807 SPIN=   0.00000
   O   0.0309109  -0.1345889  -0.4334297 SPIN=   0.00000
   O  -0.3849505  -0.0178196  -0.5210276 SPIN=   0.00000
   P  -0.1379790   0.0430445  -0.4105117 SPIN=   0.00000
   O   0.2059474  -0.3547438   0.2690640 SPIN=   0.00000
   O  -0.0360233  -0.3408806   0.0080193 SPIN=   0.00000
   O  -0.0309109  -0.6345889   0.0665703 SPIN=   0.00000
   O   0.3849505  -0.5178196  -0.0210276 SPIN=   0.00000
   P   0.1379790  -0.4569555   0.0894883 SPIN=   0.00000
  Fe  -0.1285677  -0.0551590  -0.1198223 SPIN=   4.17712
  Fe   0.1285677   0.4448410   0.3801777 SPIN=   4.17712
  Fe  -0.1419425   0.4199913  -0.2096514 SPIN=   3.82288
  Fe   0.1419425  -0.0800087   0.2903486 SPIN=   3.82288
%ENDBLOCK POSITIONS_FRAC

# Note: total spin =  16.00

KPOINTS_MP_SPACING 0.07

%BLOCK SPECIES_POT
QC5
%ENDBLOCK SPECIES_POT

%BLOCK HUBBARD_U
Fe d:4.0
%ENDBLOCK HUBBARD_U

SNAP_TO_SYMMETRY
SYMMETRY_GENERATE

