#              Generated by Buildcell
#
# at 17:01:20 (GMT+0.0) 26th November 2020
# in /scratch/scratch/uccabz1/launch_tmp
# on node-k10e-015
# by uccabz1
#
# compiler GCC version 4.9.2
# options -cpp -iprefix /scratch/UCL/applications/gcc/4.9.2/bin/../lib/gcc/x86_64-unknown-linux-gnu/4.9.2/ -mtune=corei7 -march=x86-64 -g -O2
#
# seed   920255964  1578343267 -1837674069 -1334219575  1159649655 -1974410780   535966822  1820369836  1048896006  1272736377 -1099504813   555513544
#
#      Author: C. J. Pickard (cjp20@cam.ac.uk)
#                Space group: Cm
#

%BLOCK LATTICE_ABC
      5.32459      7.87281      7.87281
     78.19094     83.90361     83.90361
%ENDBLOCK LATTICE_ABC

%BLOCK POSITIONS_FRAC
  Li   0.2499685  -0.2843489   0.1102926 SPIN=   0.00000
  Li   0.2499685   0.1102926  -0.2843489 SPIN=   0.00000
  Li  -0.3587593   0.1971377   0.1971377 SPIN=   0.00000
  Li   0.3388111  -0.2755002  -0.2755002 SPIN=   0.00000
   O   0.2867803   0.4598131  -0.2448084 SPIN=   0.00000
   O   0.2479348   0.4134720   0.0929772 SPIN=   0.00000
   O   0.0658758   0.2040302  -0.0435791 SPIN=   0.00000
   O   0.5374617   0.2052704  -0.0544242 SPIN=   0.00000
   P   0.2876189   0.3266948  -0.0720730 SPIN=   0.00000
   O   0.2867803  -0.2448084   0.4598131 SPIN=   0.00000
   O   0.2479348   0.0929772   0.4134720 SPIN=   0.00000
   O   0.0658758  -0.0435791   0.2040302 SPIN=   0.00000
   O   0.5374617  -0.0544242   0.2052704 SPIN=   0.00000
   P   0.2876189  -0.0720730   0.3266948 SPIN=   0.00000
   O  -0.0568725   0.2738477  -0.3893679 SPIN=   0.00000
   O  -0.5247250   0.2869015  -0.4606356 SPIN=   0.00000
   O  -0.2141953   0.0676265  -0.5666397 SPIN=   0.00000
   P  -0.2746508   0.1693452  -0.4126583 SPIN=   0.00000
   O  -0.0568725  -0.3893679   0.2738477 SPIN=   0.00000
   O  -0.5247250  -0.4606356   0.2869015 SPIN=   0.00000
   O  -0.2141953  -0.5666397   0.0676265 SPIN=   0.00000
   P  -0.2746508  -0.4126583   0.1693452 SPIN=   0.00000
   O  -0.0772312  -0.4085476  -0.4085476 SPIN=   0.00000
   O   0.1401573  -0.1148749  -0.1148749 SPIN=   0.00000
  Fe  -0.2062761   0.4106201  -0.1935248 SPIN=   6.06835
  Fe  -0.2062761  -0.1935248   0.4106201 SPIN=   6.06835
  Fe   0.0936187   0.3508147   0.3508147 SPIN=   2.99245
  Fe  -0.2543255  -0.0932854  -0.0932854 SPIN=   0.87086
%ENDBLOCK POSITIONS_FRAC

# Note: total spin =  16.00

KPOINTS_MP_SPACING 0.07

%BLOCK SPECIES_POT
QC5
%ENDBLOCK SPECIES_POT

%BLOCK HUBBARD_U
Fe d:4.0
%ENDBLOCK HUBBARD_U

SNAP_TO_SYMMETRY
SYMMETRY_GENERATE

