#              Generated by Buildcell
#
# at 09:28:16 (GMT+0.0) 24th November 2020
# in /lustre/scratch/uccabz1/launch_tmp
# on node-c12f-020
# by uccabz1
#
# compiler GCC version 4.9.2
# options -cpp -iprefix /lustre/shared/ucl/apps/gcc/4.9.2/bin/../lib/gcc/x86_64-unknown-linux-gnu/4.9.2/ -mtune=corei7 -march=x86-64 -g -Og
#
# seed -1521304051  -852651032 -1353411731   861324313   217374414   757053173 -1525485734  -100683662    81008104   168377334  1582298774  1456284791
#
#      Author: C. J. Pickard (cjp20@cam.ac.uk)
#                Space group: C2221
#

%BLOCK LATTICE_ABC
      5.44955      5.66555      5.90595
    118.66238     90.00000     90.00000
%ENDBLOCK LATTICE_ABC

%BLOCK POSITIONS_FRAC
  Li   0.2500000  -0.0727275  -0.1454550 SPIN=   0.00000
  Li  -0.2500000   0.0727275   0.1454550 SPIN=   0.00000
   O   0.4798661  -0.1379028  -0.7471929 SPIN=   0.00000
   O   0.5081448   0.1603834  -0.2496726 SPIN=   0.00000
   O  -0.0201339   0.1379028   0.7471929 SPIN=   0.00000
   O   0.0081448  -0.1603834   0.2496726 SPIN=   0.00000
   O   0.0201339   0.3907099  -0.7471929 SPIN=   0.00000
   O  -0.0081448   0.5899440  -0.2496726 SPIN=   0.00000
   O  -0.4798661  -0.3907099   0.7471929 SPIN=   0.00000
   O  -0.5081448  -0.5899440   0.2496726 SPIN=   0.00000
   P   0.2500000  -0.3458763   0.3082474 SPIN=   0.00000
   P  -0.2500000   0.3458763  -0.3082474 SPIN=   0.00000
  Fe   0.2500000   0.2577159  -0.4845681 SPIN=   4.00000
  Fe  -0.2500000  -0.2577159   0.4845681 SPIN=   4.00000
%ENDBLOCK POSITIONS_FRAC

# Note: total spin =   8.00

KPOINTS_MP_SPACING 0.07

%BLOCK SPECIES_POT
QC5
%ENDBLOCK SPECIES_POT

%BLOCK HUBBARD_U
Fe d:4.0
%ENDBLOCK HUBBARD_U

SNAP_TO_SYMMETRY
SYMMETRY_GENERATE

