#              Generated by Buildcell
#
# at 11:17:21 (GMT+0.0) 26th November 2020
# in /lustre/scratch/uccabz1/launch_tmp
# on node-c12g-031
# by uccabz1
#
# compiler GCC version 4.9.2
# options -cpp -iprefix /lustre/shared/ucl/apps/gcc/4.9.2/bin/../lib/gcc/x86_64-unknown-linux-gnu/4.9.2/ -mtune=corei7 -march=x86-64 -g -Og
#
# seed  1654376859  1594857560  -932901945  1496440052  1889313567   192163394  -326507137  1419015875  1439987836   944338125   -37718443 -2032620185
#
#      Author: C. J. Pickard (cjp20@cam.ac.uk)
#                Space group: P21
#

%BLOCK LATTICE_ABC
      4.26178      7.66484      9.81926
     90.00000     93.93211     90.00000
%ENDBLOCK LATTICE_ABC

%BLOCK POSITIONS_FRAC
  Li   0.3940658   0.1376366   0.3227736 SPIN=   0.00000
  Li  -0.3940658  -0.3623634  -0.3227736 SPIN=   0.00000
  Li  -0.1308815   0.3350395   0.1643438 SPIN=   0.00000
  Li   0.1308815  -0.1649605  -0.1643438 SPIN=   0.00000
   O   0.7858975   0.2332092  -0.0366947 SPIN=   0.00000
   O   0.2824423   0.0976939   0.0545986 SPIN=   0.00000
   O   0.2888386   0.1549383  -0.1927393 SPIN=   0.00000
   O   0.6206037  -0.0857206  -0.0873572 SPIN=   0.00000
   P   0.5114527   0.1049293  -0.0642692 SPIN=   0.00000
   O  -0.7858975  -0.2667908   0.0366947 SPIN=   0.00000
   O  -0.2824423  -0.4023061  -0.0545986 SPIN=   0.00000
   O  -0.2888386  -0.3450617   0.1927393 SPIN=   0.00000
   O  -0.6206037  -0.5857206   0.0873572 SPIN=   0.00000
   P  -0.5114527  -0.3950707   0.0642692 SPIN=   0.00000
   O  -0.0178758  -0.1784107  -0.6103161 SPIN=   0.00000
   O   0.1211218  -0.3613878  -0.3917394 SPIN=   0.00000
   O   0.5220225  -0.1596857  -0.4711933 SPIN=   0.00000
   O   0.0433772  -0.0389194  -0.3705147 SPIN=   0.00000
   P   0.1558483  -0.1825521  -0.4678272 SPIN=   0.00000
   O   0.0178758   0.3215893   0.6103161 SPIN=   0.00000
   O  -0.1211218   0.1386122   0.3917394 SPIN=   0.00000
   O  -0.5220225   0.3403143   0.4711933 SPIN=   0.00000
   O  -0.0433772   0.4610806   0.3705147 SPIN=   0.00000
   P  -0.1558483   0.3174479   0.4678272 SPIN=   0.00000
  Fe  -0.4044789   0.0679898  -0.3503075 SPIN=   2.51214
  Fe   0.4044789  -0.4320102   0.3503075 SPIN=   2.51214
  Fe  -0.1346363  -0.0955089   0.1397275 SPIN=   5.48786
  Fe   0.1346363   0.4044911  -0.1397275 SPIN=   5.48786
%ENDBLOCK POSITIONS_FRAC

# Note: total spin =  16.00

KPOINTS_MP_SPACING 0.07

%BLOCK SPECIES_POT
QC5
%ENDBLOCK SPECIES_POT

%BLOCK HUBBARD_U
Fe d:4.0
%ENDBLOCK HUBBARD_U

SNAP_TO_SYMMETRY
SYMMETRY_GENERATE

