#              Generated by Buildcell
#
# at 13:52:38 (GMT+0.0) 26th November 2020
# in /scratch/scratch/uccabz1/launch_tmp
# on node-a14b-013
# by uccabz1
#
# compiler GCC version 4.9.2
# options -cpp -iprefix /scratch/UCL/applications/gcc/4.9.2/bin/../lib/gcc/x86_64-unknown-linux-gnu/4.9.2/ -mtune=corei7 -march=x86-64 -g -O2
#
# seed   -35715317 -1983324489 -1868609165 -1065387185  -471051515  -548382031   191481155   781632575  1979708549 -1785026576 -1345913170 -1169823199
#
#      Author: C. J. Pickard (cjp20@cam.ac.uk)
#                Space group: C2
#

%BLOCK LATTICE_ABC
      6.55282      6.59244      8.23929
     85.44546     66.56820     78.48117
%ENDBLOCK LATTICE_ABC

%BLOCK POSITIONS_FRAC
  Li  -0.2684681  -0.3631632  -0.0071339 SPIN=   0.00000
  Li   0.2756020   0.3631632  -0.0071339 SPIN=   0.00000
  Li   0.1947977   0.0000000  -0.3895953 SPIN=   0.00000
  Li   0.3978365  -0.0000000   0.2043271 SPIN=   0.00000
   O   0.2840837  -0.2403591   0.4164615 SPIN=   0.00000
   O  -0.0340068   0.0573249   0.4010010 SPIN=   0.00000
   O   0.0488211  -0.2616342   0.2303039 SPIN=   0.00000
   O  -0.1382792  -0.2697135   0.5608811 SPIN=   0.00000
   P   0.0510370  -0.1829593   0.4047963 SPIN=   0.00000
   O  -0.7005452   0.2403591   0.4164615 SPIN=   0.00000
   O  -0.3669943  -0.0573249   0.4010010 SPIN=   0.00000
   O  -0.2791250   0.2616342   0.2303039 SPIN=   0.00000
   O  -0.4226019   0.2697135   0.5608811 SPIN=   0.00000
   P  -0.4558333   0.1829593   0.4047963 SPIN=   0.00000
   O  -0.2156841   0.0529672  -0.1056283 SPIN=   0.00000
   O   0.0489207   0.3121510  -0.1369382 SPIN=   0.00000
   O  -0.0961754   0.3060141  -0.3707373 SPIN=   0.00000
   P  -0.1615787   0.2696237  -0.1665854 SPIN=   0.00000
   O   0.3213125  -0.0529672  -0.1056283 SPIN=   0.00000
   O   0.0880175  -0.3121510  -0.1369382 SPIN=   0.00000
   O   0.4669127  -0.3060141  -0.3707373 SPIN=   0.00000
   P   0.3281641  -0.2696237  -0.1665854 SPIN=   0.00000
   O   0.4084377  -0.5000000   0.1831246 SPIN=   0.00000
   O  -0.4300895   0.5000000  -0.1398210 SPIN=   0.00000
  Fe  -0.3476701   0.0000000  -0.3046598 SPIN=   0.42253
  Fe  -0.1782781  -0.5000000   0.3565562 SPIN=   6.24973
  Fe   0.1846828  -0.5000000  -0.3693655 SPIN=   1.85170
  Fe  -0.0416613   0.0000000   0.0833226 SPIN=   7.47604
%ENDBLOCK POSITIONS_FRAC

# Note: total spin =  16.00

KPOINTS_MP_SPACING 0.07

%BLOCK SPECIES_POT
QC5
%ENDBLOCK SPECIES_POT

%BLOCK HUBBARD_U
Fe d:4.0
%ENDBLOCK HUBBARD_U

SNAP_TO_SYMMETRY
SYMMETRY_GENERATE

