#              Generated by Buildcell
#
# at 23:21:05 (GMT+0.0) 26th November 2020
# in /lustre/scratch/uccabz1/launch_tmp
# on node-c12k-026
# by uccabz1
#
# compiler GCC version 4.9.2
# options -cpp -iprefix /lustre/shared/ucl/apps/gcc/4.9.2/bin/../lib/gcc/x86_64-unknown-linux-gnu/4.9.2/ -mtune=corei7 -march=x86-64 -g -Og
#
# seed  -572403736 -1604750420   298950634  -561691345   885270081   531034267   816463571 -1409428876 -1923512598  1937955679  2021582119 -1795899741
#
#      Author: C. J. Pickard (cjp20@cam.ac.uk)
#                Space group: P21
#

%BLOCK LATTICE_ABC
      5.94670      6.98668      8.40884
    113.66048     90.00000     90.00000
%ENDBLOCK LATTICE_ABC

%BLOCK POSITIONS_FRAC
  Li   0.0610770   0.0241233   0.4859798 SPIN=   0.00000
  Li  -0.4389230  -0.0241233  -0.4859798 SPIN=   0.00000
  Li   0.2621464  -0.0049605  -0.1155010 SPIN=   0.00000
  Li  -0.2378536   0.0049605   0.1155010 SPIN=   0.00000
   O   0.2799321  -0.4336274   0.0679414 SPIN=   0.00000
   O   0.3510346  -0.0498025   0.1086916 SPIN=   0.00000
   O   0.0572481  -0.2516844  -0.0983029 SPIN=   0.00000
   O  -0.0065813  -0.1389084   0.2208970 SPIN=   0.00000
   P   0.1741513  -0.2290205   0.0761653 SPIN=   0.00000
   O  -0.2200679   0.4336274  -0.0679414 SPIN=   0.00000
   O  -0.1489654   0.0498025  -0.1086916 SPIN=   0.00000
   O  -0.4427519   0.2516844   0.0983029 SPIN=   0.00000
   O  -0.5065813   0.1389084  -0.2208970 SPIN=   0.00000
   P  -0.3258487   0.2290205  -0.0761653 SPIN=   0.00000
   O   0.3758513  -0.3017103  -0.6100664 SPIN=   0.00000
   O   0.1984002  -0.5196745  -0.4542762 SPIN=   0.00000
   O   0.4763528  -0.2477458  -0.2942075 SPIN=   0.00000
   O   0.0950021  -0.1421083  -0.3564725 SPIN=   0.00000
   P   0.2889056  -0.3008547  -0.4375565 SPIN=   0.00000
   O  -0.1241487   0.3017103   0.6100664 SPIN=   0.00000
   O  -0.3015998   0.5196745   0.4542762 SPIN=   0.00000
   O  -0.0236472   0.2477458   0.2942075 SPIN=   0.00000
   O  -0.4049979   0.1421083   0.3564725 SPIN=   0.00000
   P  -0.2110944   0.3008547   0.4375565 SPIN=   0.00000
  Fe   0.3253485  -0.5917114  -0.2069760 SPIN=   2.26186
  Fe  -0.1746515   0.5917114   0.2069760 SPIN=   2.26186
  Fe  -0.1762841  -0.2916540  -0.2977213 SPIN=   5.73814
  Fe   0.3237159   0.2916540   0.2977213 SPIN=   5.73814
%ENDBLOCK POSITIONS_FRAC

# Note: total spin =  16.00

KPOINTS_MP_SPACING 0.07

%BLOCK SPECIES_POT
QC5
%ENDBLOCK SPECIES_POT

%BLOCK HUBBARD_U
Fe d:4.0
%ENDBLOCK HUBBARD_U

SNAP_TO_SYMMETRY
SYMMETRY_GENERATE

