#              Generated by Buildcell
#
# at 21:09:22 (GMT+0.0) 26th November 2020
# in /lustre/scratch/uccabz1/launch_tmp
# on node-c12g-023
# by uccabz1
#
# compiler GCC version 4.9.2
# options -cpp -iprefix /lustre/shared/ucl/apps/gcc/4.9.2/bin/../lib/gcc/x86_64-unknown-linux-gnu/4.9.2/ -mtune=corei7 -march=x86-64 -g -Og
#
# seed -2142147105  1541289803  -132337102  1849933441 -1948783919 -1010554716 -1211445547 -1848962486  -577736623  -704371665   205373395  -777237251
#
#      Author: C. J. Pickard (cjp20@cam.ac.uk)
#                Space group: Pca21
#

%BLOCK LATTICE_ABC
      6.54841      6.98385      6.99711
     90.00000     90.00000     90.00000
%ENDBLOCK LATTICE_ABC

%BLOCK POSITIONS_FRAC
  Li   0.3848935  -0.1704945   0.3288797 SPIN=   0.00000
  Li  -0.3848935   0.3295055  -0.3288797 SPIN=   0.00000
  Li  -0.3848935  -0.1704945  -0.1711203 SPIN=   0.00000
  Li   0.3848935   0.3295055   0.1711203 SPIN=   0.00000
   O  -0.2961635  -0.6277603   0.1753595 SPIN=   0.00000
   O  -0.1631033  -0.3028121   0.0443275 SPIN=   0.00000
   O  -0.1164780  -0.5922518  -0.1537806 SPIN=   0.00000
   O  -0.4671269  -0.4560725  -0.1097716 SPIN=   0.00000
   P  -0.2650411  -0.5013515  -0.0022114 SPIN=   0.00000
   O   0.2961635  -0.1277603  -0.1753595 SPIN=   0.00000
   O   0.1631033   0.1971879  -0.0443275 SPIN=   0.00000
   O   0.1164780  -0.0922518   0.1537806 SPIN=   0.00000
   O   0.4671269   0.0439275   0.1097716 SPIN=   0.00000
   P   0.2650411  -0.0013515   0.0022114 SPIN=   0.00000
   O   0.2961635  -0.6277603   0.6753595 SPIN=   0.00000
   O   0.1631033  -0.3028121   0.5443275 SPIN=   0.00000
   O   0.1164780  -0.5922518   0.3462194 SPIN=   0.00000
   O   0.4671269  -0.4560725   0.3902284 SPIN=   0.00000
   P   0.2650411  -0.5013515   0.4977886 SPIN=   0.00000
   O  -0.2961635  -0.1277603  -0.6753595 SPIN=   0.00000
   O  -0.1631033   0.1971879  -0.5443275 SPIN=   0.00000
   O  -0.1164780  -0.0922518  -0.3462194 SPIN=   0.00000
   O  -0.4671269   0.0439275  -0.3902284 SPIN=   0.00000
   P  -0.2650411  -0.0013515  -0.4977886 SPIN=   0.00000
  Fe  -0.1349972   0.1176861   0.1227214 SPIN=   4.00000
  Fe   0.1349972  -0.3823139  -0.1227214 SPIN=   4.00000
  Fe   0.1349972   0.1176861  -0.3772786 SPIN=   4.00000
  Fe  -0.1349972  -0.3823139   0.3772786 SPIN=   4.00000
%ENDBLOCK POSITIONS_FRAC

# Note: total spin =  16.00

KPOINTS_MP_SPACING 0.07

%BLOCK SPECIES_POT
QC5
%ENDBLOCK SPECIES_POT

%BLOCK HUBBARD_U
Fe d:4.0
%ENDBLOCK HUBBARD_U

SNAP_TO_SYMMETRY
SYMMETRY_GENERATE

