#              Generated by Buildcell
#
# at 13:32:26 (GMT+0.0) 24th November 2020
# in /scratch/scratch/uccabz1/launch_tmp
# on node-a14c-007
# by uccabz1
#
# compiler GCC version 4.9.2
# options -cpp -iprefix /scratch/UCL/applications/gcc/4.9.2/bin/../lib/gcc/x86_64-unknown-linux-gnu/4.9.2/ -mtune=corei7 -march=x86-64 -g -O2
#
# seed  1621701354 -1558056865    92431293  1061960647   535232611  -762758569  -754287503 -1768101868  1855207990  2019260125  1421931684   498308921
#
#      Author: C. J. Pickard (cjp20@cam.ac.uk)
#                Space group: Imm2
#

%BLOCK LATTICE_ABC
      5.21176      5.85276      6.54737
    116.54846    113.45345     90.00000
%ENDBLOCK LATTICE_ABC

%BLOCK POSITIONS_FRAC
  Li  -0.4078919  -0.0000000   0.0000000 SPIN=   0.00000
  Li   0.7456868   0.5000000  -0.0000000 SPIN=   0.00000
   O   0.1301994   0.3291170   0.2354742 SPIN=   0.00000
   O   0.4025348   0.6015923   0.7293157 SPIN=   0.00000
   O  -0.1052748  -0.3291170  -0.2354742 SPIN=   0.00000
   O  -0.3267809  -0.6015923  -0.7293157 SPIN=   0.00000
   O  -0.1052748   0.0936428  -0.2354742 SPIN=   0.00000
   O  -0.3267809  -0.1277234  -0.7293157 SPIN=   0.00000
   O   0.1301994  -0.0936428   0.2354742 SPIN=   0.00000
   O   0.4025348   0.1277234   0.7293157 SPIN=   0.00000
   P   0.0537544  -0.1880374  -0.3760749 SPIN=   0.00000
   P   0.4298292   0.1880374   0.3760749 SPIN=   0.00000
  Fe  -0.5605657  -0.3059443  -0.6118887 SPIN=   4.00000
  Fe   0.0513230   0.3059443   0.6118887 SPIN=   4.00000
%ENDBLOCK POSITIONS_FRAC

# Note: total spin =   8.00

KPOINTS_MP_SPACING 0.07

%BLOCK SPECIES_POT
QC5
%ENDBLOCK SPECIES_POT

%BLOCK HUBBARD_U
Fe d:4.0
%ENDBLOCK HUBBARD_U

SNAP_TO_SYMMETRY
SYMMETRY_GENERATE

