#              Generated by Buildcell
#
# at 21:36:03 (GMT+0.0) 26th November 2020
# in /lustre/scratch/uccabz1/launch_tmp
# on node-c12g-022
# by uccabz1
#
# compiler GCC version 4.9.2
# options -cpp -iprefix /lustre/shared/ucl/apps/gcc/4.9.2/bin/../lib/gcc/x86_64-unknown-linux-gnu/4.9.2/ -mtune=corei7 -march=x86-64 -g -Og
#
# seed   821951280  -383483239 -1428034676 -2139189596 -1653337876   825690085  1461216832  1410318201 -1718546033 -1591636526  -446169499   -49755835
#
#      Author: C. J. Pickard (cjp20@cam.ac.uk)
#                Space group: P21
#

%BLOCK LATTICE_ABC
      5.03128      5.20079     12.33876
     90.00000     90.00000     97.63668
%ENDBLOCK LATTICE_ABC

%BLOCK POSITIONS_FRAC
  Li  -0.4559505   0.4941842   0.0518038 SPIN=   0.00000
  Li   0.4559505  -0.4941842  -0.4481962 SPIN=   0.00000
  Li   0.0643695   0.3320229  -0.1801625 SPIN=   0.00000
  Li  -0.0643695  -0.3320229   0.3198375 SPIN=   0.00000
   O  -0.1455925   0.5804886  -0.2718925 SPIN=   0.00000
   O  -0.4402578   0.3823574  -0.1119176 SPIN=   0.00000
   O  -0.6551466   0.6120843  -0.2560125 SPIN=   0.00000
   O  -0.5054243   0.1816508  -0.2961193 SPIN=   0.00000
   P  -0.4219224   0.4436324  -0.2367370 SPIN=   0.00000
   O   0.1455925  -0.5804886   0.2281075 SPIN=   0.00000
   O   0.4402578  -0.3823574   0.3880824 SPIN=   0.00000
   O   0.6551466  -0.6120843   0.2439875 SPIN=   0.00000
   O   0.5054243  -0.1816508   0.2038807 SPIN=   0.00000
   P   0.4219224  -0.4436324   0.2632630 SPIN=   0.00000
   O   0.3601257  -0.1774472   0.0134113 SPIN=   0.00000
   O  -0.0958872  -0.3039344   0.1111514 SPIN=   0.00000
   O  -0.0976932  -0.2382912  -0.0870929 SPIN=   0.00000
   O   0.0803692  -0.6274775  -0.0106173 SPIN=   0.00000
   P   0.0778368  -0.3317339   0.0068653 SPIN=   0.00000
   O  -0.3601257   0.1774472  -0.4865887 SPIN=   0.00000
   O   0.0958872   0.3039344  -0.3888486 SPIN=   0.00000
   O   0.0976932   0.2382912  -0.5870929 SPIN=   0.00000
   O  -0.0803692   0.6274775  -0.5106173 SPIN=   0.00000
   P  -0.0778368   0.3317339  -0.4931347 SPIN=   0.00000
  Fe   0.4873832   0.0678575   0.3607268 SPIN=   3.70707
  Fe  -0.4873832  -0.0678575  -0.1392732 SPIN=   3.70707
  Fe   0.0079994  -0.1220594  -0.3782735 SPIN=   4.29293
  Fe  -0.0079994   0.1220594   0.1217265 SPIN=   4.29293
%ENDBLOCK POSITIONS_FRAC

# Note: total spin =  16.00

KPOINTS_MP_SPACING 0.07

%BLOCK SPECIES_POT
QC5
%ENDBLOCK SPECIES_POT

%BLOCK HUBBARD_U
Fe d:4.0
%ENDBLOCK HUBBARD_U

SNAP_TO_SYMMETRY
SYMMETRY_GENERATE

