#              Generated by Buildcell
#
# at 12:42:12 (GMT+0.0) 24th November 2020
# in /lustre/scratch/uccabz1/launch_tmp
# on node-c12b-025
# by uccabz1
#
# compiler GCC version 4.9.2
# options -cpp -iprefix /lustre/shared/ucl/apps/gcc/4.9.2/bin/../lib/gcc/x86_64-unknown-linux-gnu/4.9.2/ -mtune=corei7 -march=x86-64 -g -Og
#
# seed  1422132765  -725236981 -1005640359 -1594169952  -284876751   494825921  1931248809   -17364827  -547286608   982288071 -1822843478   649585564
#
#      Author: C. J. Pickard (cjp20@cam.ac.uk)
#                Space group: P-1
#

%BLOCK LATTICE_ABC
      3.91739      5.52933      7.85527
     75.16722     86.65991     76.59792
%ENDBLOCK LATTICE_ABC

%BLOCK POSITIONS_FRAC
  Li   0.3627379  -0.1339552   0.1752853 SPIN=   0.00000
  Li  -0.3627379   0.1339552  -0.1752853 SPIN=   0.00000
   O  -0.3899699  -0.2436833   0.8292673 SPIN=   0.00000
   O  -0.9680180  -0.0061769   0.6571199 SPIN=   0.00000
   O  -0.4844258  -0.2395343   0.5038030 SPIN=   0.00000
   O  -0.8138568  -0.4869660   0.7423167 SPIN=   0.00000
   P  -0.6512410  -0.2469346   0.6916065 SPIN=   0.00000
   O   0.3899699   0.2436833  -0.8292673 SPIN=   0.00000
   O   0.9680180   0.0061769  -0.6571199 SPIN=   0.00000
   O   0.4844258   0.2395343  -0.5038030 SPIN=   0.00000
   O   0.8138568   0.4869660  -0.7423167 SPIN=   0.00000
   P   0.6512410   0.2469346  -0.6916065 SPIN=   0.00000
  Fe  -1.0000000  -0.5000000   1.0000000 SPIN=   4.46620
  Fe   0.0000000   0.5000000  -0.5000000 SPIN=   3.53380
%ENDBLOCK POSITIONS_FRAC

# Note: total spin =   8.00

KPOINTS_MP_SPACING 0.07

%BLOCK SPECIES_POT
QC5
%ENDBLOCK SPECIES_POT

%BLOCK HUBBARD_U
Fe d:4.0
%ENDBLOCK HUBBARD_U

SNAP_TO_SYMMETRY
SYMMETRY_GENERATE

