#              Generated by Buildcell
#
# at 10:28:57 (GMT+0.0) 24th November 2020
# in /lustre/scratch/uccabz1/launch_tmp
# on node-c12h-022
# by uccabz1
#
# compiler GCC version 4.9.2
# options -cpp -iprefix /lustre/shared/ucl/apps/gcc/4.9.2/bin/../lib/gcc/x86_64-unknown-linux-gnu/4.9.2/ -mtune=corei7 -march=x86-64 -g -Og
#
# seed  -707235890   503315399  1819206302  1097260372  -512899989   299841127   166267189 -1241728944  1357533998  -812010131 -1448371833  -827185763
#
#      Author: C. J. Pickard (cjp20@cam.ac.uk)
#                Space group: Cc
#

%BLOCK LATTICE_ABC
      4.73795      6.19876      6.19876
    102.60578    105.77057    105.77057
%ENDBLOCK LATTICE_ABC

%BLOCK POSITIONS_FRAC
  Li  -0.3678690  -0.1115045  -0.3083001 SPIN=   0.00000
  Li   0.1321310  -0.3083001  -0.1115045 SPIN=   0.00000
   O  -0.7331940  -0.1501445   0.2775110 SPIN=   0.00000
   O  -0.3760513  -0.0340205   0.0382188 SPIN=   0.00000
   O  -0.3149620   0.2676177   0.3985705 SPIN=   0.00000
   O  -0.1393711  -0.0733749   0.4347832 SPIN=   0.00000
   P  -0.4061521  -0.0065048   0.2884920 SPIN=   0.00000
   O  -0.2331940   0.2775110  -0.1501445 SPIN=   0.00000
   O   0.1239487   0.0382188  -0.0340205 SPIN=   0.00000
   O   0.1850380   0.3985705   0.2676177 SPIN=   0.00000
   O   0.3606289   0.4347832  -0.0733749 SPIN=   0.00000
   P   0.0938479   0.2884920  -0.0065048 SPIN=   0.00000
  Fe   0.2463000   0.2440350  -0.4331797 SPIN=   4.00000
  Fe  -0.2537000  -0.4331797   0.2440350 SPIN=   4.00000
%ENDBLOCK POSITIONS_FRAC

# Note: total spin =   8.00

KPOINTS_MP_SPACING 0.07

%BLOCK SPECIES_POT
QC5
%ENDBLOCK SPECIES_POT

%BLOCK HUBBARD_U
Fe d:4.0
%ENDBLOCK HUBBARD_U

SNAP_TO_SYMMETRY
SYMMETRY_GENERATE

