#              Generated by Buildcell
#
# at 14:22:17 (GMT+0.0) 24th November 2020
# in /scratch/scratch/uccabz1/launch_tmp
# on node-a14f-014
# by uccabz1
#
# compiler GCC version 4.9.2
# options -cpp -iprefix /scratch/UCL/applications/gcc/4.9.2/bin/../lib/gcc/x86_64-unknown-linux-gnu/4.9.2/ -mtune=corei7 -march=x86-64 -g -O2
#
# seed   741436728 -1687895439   835315661  -307574491  2086344229  1095541644   235449105   480935686  1698501158 -1493813933  2038620972  1565699752
#
#      Author: C. J. Pickard (cjp20@cam.ac.uk)
#                Space group: P-4
#

%BLOCK LATTICE_ABC
      4.67949      4.67949      7.30673
     90.00000     90.00000     90.00000
%ENDBLOCK LATTICE_ABC

%BLOCK POSITIONS_FRAC
  Li  -0.0000000   0.0000000   0.0000000 SPIN=   0.00000
  Li  -0.5000000   0.5000000  -0.5000000 SPIN=   0.00000
   O  -0.2051804  -0.7073472   0.3256163 SPIN=   0.00000
   O  -0.3015446  -0.2102873   0.1797201 SPIN=   0.00000
   O   0.2051804   0.7073472   0.3256163 SPIN=   0.00000
   O   0.3015446   0.2102873   0.1797201 SPIN=   0.00000
   O   0.7073472  -0.2051804  -0.3256163 SPIN=   0.00000
   O   0.2102873  -0.3015446  -0.1797201 SPIN=   0.00000
   O  -0.7073472   0.2051804  -0.3256163 SPIN=   0.00000
   O  -0.2102873   0.3015446  -0.1797201 SPIN=   0.00000
   P   0.5000000   0.0000000  -0.2276542 SPIN=   0.00000
   P   0.0000000  -0.5000000   0.2276542 SPIN=   0.00000
  Fe   0.5000000  -0.5000000   0.0000000 SPIN=   3.12625
  Fe  -0.0000000   0.0000000   0.5000000 SPIN=   4.87375
%ENDBLOCK POSITIONS_FRAC

# Note: total spin =   8.00

KPOINTS_MP_SPACING 0.07

%BLOCK SPECIES_POT
QC5
%ENDBLOCK SPECIES_POT

%BLOCK HUBBARD_U
Fe d:4.0
%ENDBLOCK HUBBARD_U

SNAP_TO_SYMMETRY
SYMMETRY_GENERATE

