#              Generated by Buildcell
#
# at 06:35:07 (GMT+0.0) 24th November 2020
# in /scratch/scratch/uccabz1/launch_tmp
# on node-k10i-019
# by uccabz1
#
# compiler GCC version 4.9.2
# options -cpp -iprefix /scratch/UCL/applications/gcc/4.9.2/bin/../lib/gcc/x86_64-unknown-linux-gnu/4.9.2/ -mtune=corei7 -march=x86-64 -g -O2
#
# seed   570592623 -2131646337 -1214008105  1179877794  -433168623   510391184  -681896258 -1041218088 -1339740376 -1742156732  1059538113  1785411349
#
#      Author: C. J. Pickard (cjp20@cam.ac.uk)
#                Space group: Pc
#

%BLOCK LATTICE_ABC
      4.82894      5.81573      6.13350
     90.00000     90.00000    111.74044
%ENDBLOCK LATTICE_ABC

%BLOCK POSITIONS_FRAC
  Li  -0.2645192  -0.3244278   0.2029491 SPIN=   0.00000
  Li   0.2354808   0.1755722  -0.2029491 SPIN=   0.00000
   O   0.3422198   0.4392176   0.0501763 SPIN=   0.00000
   O   0.1562399   0.6937275   0.3214178 SPIN=   0.00000
   O  -0.2178641   0.3359060   0.1361193 SPIN=   0.00000
   O   0.1104108   0.2640157   0.4228610 SPIN=   0.00000
   P   0.1109178   0.4315395   0.2251729 SPIN=   0.00000
   O  -0.1577802  -0.0607824  -0.0501763 SPIN=   0.00000
   O  -0.3437601   0.1937275  -0.3214178 SPIN=   0.00000
   O  -0.7178641  -0.1640940  -0.1361193 SPIN=   0.00000
   O  -0.3895892  -0.2359843  -0.4228610 SPIN=   0.00000
   P  -0.3890822  -0.0684605  -0.2251729 SPIN=   0.00000
  Fe   0.4155495   0.0766093   0.2970293 SPIN=   4.00000
  Fe  -0.0844505  -0.4233907  -0.2970293 SPIN=   4.00000
%ENDBLOCK POSITIONS_FRAC

# Note: total spin =   8.00

KPOINTS_MP_SPACING 0.07

%BLOCK SPECIES_POT
QC5
%ENDBLOCK SPECIES_POT

%BLOCK HUBBARD_U
Fe d:4.0
%ENDBLOCK HUBBARD_U

SNAP_TO_SYMMETRY
SYMMETRY_GENERATE

