#              Generated by Buildcell
#
# at 11:45:25 (GMT+0.0) 24th November 2020
# in /scratch/scratch/uccabz1/launch_tmp
# on node-a14c-005
# by uccabz1
#
# compiler GCC version 4.9.2
# options -cpp -iprefix /scratch/UCL/applications/gcc/4.9.2/bin/../lib/gcc/x86_64-unknown-linux-gnu/4.9.2/ -mtune=corei7 -march=x86-64 -g -O2
#
# seed   643400774 -1019083535  1054247258  -449086029    84152397  1792501878 -2010068197   755385631   910869530  1539822230   -22565259  1651219947
#
#      Author: C. J. Pickard (cjp20@cam.ac.uk)
#                Space group: C2
#

%BLOCK LATTICE_ABC
      4.00107      6.49355      6.49355
     91.27929    102.78248    102.78248
%ENDBLOCK LATTICE_ABC

%BLOCK POSITIONS_FRAC
  Li   0.3623450  -0.4081774  -0.2039694 SPIN=   0.00000
  Li  -0.3623450   0.2039694   0.4081774 SPIN=   0.00000
   O   0.2370442  -0.0767930  -0.6602589 SPIN=   0.00000
   O  -0.1013095  -0.2854401  -0.4029695 SPIN=   0.00000
   O   0.5123005  -0.0857966  -0.2596842 SPIN=   0.00000
   O   0.0373006   0.1110105  -0.3700805 SPIN=   0.00000
   P   0.1732509  -0.0815532  -0.4352405 SPIN=   0.00000
   O  -0.2370442   0.6602589   0.0767930 SPIN=   0.00000
   O   0.1013095   0.4029695   0.2854401 SPIN=   0.00000
   O  -0.5123005   0.2596842   0.0857966 SPIN=   0.00000
   O  -0.0373006   0.3700805  -0.1110105 SPIN=   0.00000
   P  -0.1732509   0.4352405   0.0815532 SPIN=   0.00000
  Fe   0.5000000  -0.3191598   0.3191598 SPIN=   3.14160
  Fe   0.0000000   0.0502851  -0.0502851 SPIN=   4.85840
%ENDBLOCK POSITIONS_FRAC

# Note: total spin =   8.00

KPOINTS_MP_SPACING 0.07

%BLOCK SPECIES_POT
QC5
%ENDBLOCK SPECIES_POT

%BLOCK HUBBARD_U
Fe d:4.0
%ENDBLOCK HUBBARD_U

SNAP_TO_SYMMETRY
SYMMETRY_GENERATE

