#              Generated by Buildcell
#
# at 10:50:15 (GMT+0.0) 24th November 2020
# in /lustre/scratch/uccabz1/launch_tmp
# on node-c12i-032
# by uccabz1
#
# compiler GCC version 4.9.2
# options -cpp -iprefix /lustre/shared/ucl/apps/gcc/4.9.2/bin/../lib/gcc/x86_64-unknown-linux-gnu/4.9.2/ -mtune=corei7 -march=x86-64 -g -Og
#
# seed  1687921328   733338133    -1992276  -981952952   988633394  1278791236  2018994073  1361310913 -1450942904  2048694405   317318309  1681700603
#
#      Author: C. J. Pickard (cjp20@cam.ac.uk)
#                Space group: C2/c
#

%BLOCK LATTICE_ABC
      4.57335      6.13491      6.54699
     82.61612     69.83059     68.11585
%ENDBLOCK LATTICE_ABC

%BLOCK POSITIONS_FRAC
  Li  -0.3023582   0.1047165  -0.2500000 SPIN=   0.00000
  Li   0.3023582  -0.1047165   0.2500000 SPIN=   0.00000
   O  -0.0777504   0.2053716  -0.0639345 SPIN=   0.00000
   O   0.3086976   0.3601302   0.0408482 SPIN=   0.00000
   O   0.3723788   0.2053716  -0.4360655 SPIN=   0.00000
   O  -0.1688278   0.3601302  -0.5408482 SPIN=   0.00000
   O   0.0777504  -0.2053716   0.0639345 SPIN=   0.00000
   O  -0.3086976  -0.3601302  -0.0408482 SPIN=   0.00000
   O  -0.3723788  -0.2053716   0.4360655 SPIN=   0.00000
   O   0.1688278  -0.3601302   0.5408482 SPIN=   0.00000
   P   0.0744227   0.3511545  -0.2500000 SPIN=   0.00000
   P  -0.0744227  -0.3511545   0.2500000 SPIN=   0.00000
  Fe   0.4067954  -0.3135907  -0.2500000 SPIN=   4.00000
  Fe  -0.4067954   0.3135907   0.2500000 SPIN=   4.00000
%ENDBLOCK POSITIONS_FRAC

# Note: total spin =   8.00

KPOINTS_MP_SPACING 0.07

%BLOCK SPECIES_POT
QC5
%ENDBLOCK SPECIES_POT

%BLOCK HUBBARD_U
Fe d:4.0
%ENDBLOCK HUBBARD_U

SNAP_TO_SYMMETRY
SYMMETRY_GENERATE

