#              Generated by Buildcell
#
# at 14:17:28 (GMT+0.0) 24th November 2020
# in /scratch/scratch/uccabz1/launch_tmp
# on node-k10a-022
# by uccabz1
#
# compiler GCC version 4.9.2
# options -cpp -iprefix /scratch/UCL/applications/gcc/4.9.2/bin/../lib/gcc/x86_64-unknown-linux-gnu/4.9.2/ -mtune=corei7 -march=x86-64 -g -O2
#
# seed -1770170019   468901384 -1021960753 -1493672318   636311161  1921045777  -490992277 -2136149086  -723221601  1629849910  1968975692   516706294
#
#      Author: C. J. Pickard (cjp20@cam.ac.uk)
#                Space group: P-1
#

%BLOCK LATTICE_ABC
      4.56034      5.15408      7.76427
     72.53375     89.32558     67.71676
%ENDBLOCK LATTICE_ABC

%BLOCK POSITIONS_FRAC
  Li  -0.3750287  -0.2855421   0.3058540 SPIN=   0.00000
  Li   0.3750287   0.2855421  -0.3058540 SPIN=   0.00000
   O   0.0197070   0.6134942  -0.1963333 SPIN=   0.00000
   O  -0.5658725   0.8851966  -0.3498482 SPIN=   0.00000
   O  -0.2149896   0.4425201  -0.4242637 SPIN=   0.00000
   O  -0.3994735   0.3850272  -0.1151103 SPIN=   0.00000
   P  -0.2749485   0.5809407  -0.2655483 SPIN=   0.00000
   O  -0.0197070  -0.6134942   0.1963333 SPIN=   0.00000
   O   0.5658725  -0.8851966   0.3498482 SPIN=   0.00000
   O   0.2149896  -0.4425201   0.4242637 SPIN=   0.00000
   O   0.3994735  -0.3850272   0.1151103 SPIN=   0.00000
   P   0.2749485  -0.5809407   0.2655483 SPIN=   0.00000
  Fe   0.0000000  -0.0000000  -0.5000000 SPIN=   4.61565
  Fe  -0.0000000   0.0000000  -0.0000000 SPIN=   3.38435
%ENDBLOCK POSITIONS_FRAC

# Note: total spin =   8.00

KPOINTS_MP_SPACING 0.07

%BLOCK SPECIES_POT
QC5
%ENDBLOCK SPECIES_POT

%BLOCK HUBBARD_U
Fe d:4.0
%ENDBLOCK HUBBARD_U

SNAP_TO_SYMMETRY
SYMMETRY_GENERATE

