#              Generated by Buildcell
#
# at 11:17:43 (GMT+0.0) 26th November 2020
# in /lustre/scratch/uccabz1/launch_tmp
# on node-c12m-023
# by uccabz1
#
# compiler GCC version 4.9.2
# options -cpp -iprefix /lustre/shared/ucl/apps/gcc/4.9.2/bin/../lib/gcc/x86_64-unknown-linux-gnu/4.9.2/ -mtune=corei7 -march=x86-64 -g -Og
#
# seed  1430239991 -1581171608  1338286824   950285812  1634272525 -2134103919  -254414968 -1641327970  -838151068   379049462 -2016564716   697009768
#
#      Author: C. J. Pickard (cjp20@cam.ac.uk)
#                Space group: Pnn2
#

%BLOCK LATTICE_ABC
      5.40857      7.43660      7.95597
     90.00000     90.00000     90.00000
%ENDBLOCK LATTICE_ABC

%BLOCK POSITIONS_FRAC
  Li  -0.4064842   0.0000000  -0.5000000 SPIN=   0.00000
  Li   0.0935158   0.5000000   0.0000000 SPIN=   0.00000
  Li   0.0341041   0.0000000   0.0000000 SPIN=   0.00000
  Li  -0.4658959   0.5000000  -0.5000000 SPIN=   0.00000
   O   0.2452504   0.5131174   0.2806098 SPIN=   0.00000
   O   0.0282896   0.2520442   0.1214436 SPIN=   0.00000
   O   0.3079775   0.1763847   0.3564548 SPIN=   0.00000
   P   0.1244643   0.3265194   0.2945563 SPIN=   0.00000
   O   0.2452504  -0.5131174  -0.2806098 SPIN=   0.00000
   O   0.0282896  -0.2520442  -0.1214436 SPIN=   0.00000
   O   0.3079775  -0.1763847  -0.3564548 SPIN=   0.00000
   P   0.1244643  -0.3265194  -0.2945563 SPIN=   0.00000
   O  -0.2547496   0.0131174   0.2193902 SPIN=   0.00000
   O  -0.4717104  -0.2479558   0.3785564 SPIN=   0.00000
   O  -0.1920225  -0.3236153   0.1435452 SPIN=   0.00000
   P  -0.3755357  -0.1734806   0.2054437 SPIN=   0.00000
   O  -0.2547496  -0.0131174  -0.2193902 SPIN=   0.00000
   O  -0.4717104   0.2479558  -0.3785564 SPIN=   0.00000
   O  -0.1920225   0.3236153  -0.1435452 SPIN=   0.00000
   P  -0.3755357   0.1734806  -0.2054437 SPIN=   0.00000
   O   0.4235810  -0.0000000   0.0000000 SPIN=   0.00000
   O  -0.0764190   0.5000000   0.5000000 SPIN=   0.00000
   O  -0.0162992   0.0000000   0.5000000 SPIN=   0.00000
   O   0.4837008   0.5000000   0.0000000 SPIN=   0.00000
  Fe   0.0983897   0.2266908  -0.3584115 SPIN=   4.00000
  Fe   0.0983897  -0.2266908   0.3584115 SPIN=   4.00000
  Fe  -0.4016103  -0.2733092  -0.1415885 SPIN=   4.00000
  Fe  -0.4016103   0.2733092   0.1415885 SPIN=   4.00000
%ENDBLOCK POSITIONS_FRAC

# Note: total spin =  16.00

KPOINTS_MP_SPACING 0.07

%BLOCK SPECIES_POT
QC5
%ENDBLOCK SPECIES_POT

%BLOCK HUBBARD_U
Fe d:4.0
%ENDBLOCK HUBBARD_U

SNAP_TO_SYMMETRY
SYMMETRY_GENERATE

