#              Generated by Buildcell
#
# at 08:14:28 (GMT+0.0) 24th November 2020
# in /scratch/scratch/uccabz1/launch_tmp
# on node-k10h-026
# by uccabz1
#
# compiler GCC version 4.9.2
# options -cpp -iprefix /scratch/UCL/applications/gcc/4.9.2/bin/../lib/gcc/x86_64-unknown-linux-gnu/4.9.2/ -mtune=corei7 -march=x86-64 -g -O2
#
# seed  -698738911 -1787828093   972991373   896902037 -2091148735  1568405925  1884378703  -719247523   249194789  1712684925  -772176342  1532429839
#
#      Author: C. J. Pickard (cjp20@cam.ac.uk)
#                Space group: P-4
#

%BLOCK LATTICE_ABC
      5.35802      5.46459      5.46459
     90.00000     90.00000     90.00000
%ENDBLOCK LATTICE_ABC

%BLOCK POSITIONS_FRAC
  Li   0.5000000   0.0000000   0.0000000 SPIN=   0.00000
  Li   0.5000000   0.5000000  -0.5000000 SPIN=   0.00000
   O  -0.0980626   0.3079273   0.2699088 SPIN=   0.00000
   O  -0.4049477   0.6594934   0.1608194 SPIN=   0.00000
   O  -0.0980626  -0.3079273  -0.2699088 SPIN=   0.00000
   O  -0.4049477  -0.6594934  -0.1608194 SPIN=   0.00000
   O   0.0980626  -0.2699088   0.3079273 SPIN=   0.00000
   O   0.4049477  -0.1608194   0.6594934 SPIN=   0.00000
   O   0.0980626   0.2699088  -0.3079273 SPIN=   0.00000
   O   0.4049477   0.1608194  -0.6594934 SPIN=   0.00000
   P   0.0000000  -0.0000000   0.0000000 SPIN=   0.00000
   P   0.0000000   0.5000000  -0.5000000 SPIN=   0.00000
  Fe   0.1547333  -0.5000000  -0.0000000 SPIN=   4.00000
  Fe  -0.1547333  -0.0000000  -0.5000000 SPIN=   4.00000
%ENDBLOCK POSITIONS_FRAC

# Note: total spin =   8.00

KPOINTS_MP_SPACING 0.07

%BLOCK SPECIES_POT
QC5
%ENDBLOCK SPECIES_POT

%BLOCK HUBBARD_U
Fe d:4.0
%ENDBLOCK HUBBARD_U

SNAP_TO_SYMMETRY
SYMMETRY_GENERATE

