#              Generated by Buildcell
#
# at 17:26:53 (GMT+0.0) 26th November 2020
# in /lustre/scratch/uccabz1/launch_tmp
# on node-c12e-026
# by uccabz1
#
# compiler GCC version 4.9.2
# options -cpp -iprefix /lustre/shared/ucl/apps/gcc/4.9.2/bin/../lib/gcc/x86_64-unknown-linux-gnu/4.9.2/ -mtune=corei7 -march=x86-64 -g -Og
#
# seed  1606523016   861933476   860775725    -8759323  -789882128 -1987787911 -1307868096 -1567661324   241658639  -876054267  1587857547 -1579131065
#
#      Author: C. J. Pickard (cjp20@cam.ac.uk)
#                Space group: Cc
#

%BLOCK LATTICE_ABC
      5.47854      5.47854     11.46355
     97.16517     97.16517    107.88861
%ENDBLOCK LATTICE_ABC

%BLOCK POSITIONS_FRAC
  Li   0.2838432   0.1185819  -0.0365292 SPIN=   0.00000
  Li   0.1185819   0.2838432   0.4634708 SPIN=   0.00000
  Li  -0.0602778   0.3550894   0.2119506 SPIN=   0.00000
  Li   0.3550894  -0.0602778  -0.2880494 SPIN=   0.00000
   O  -0.3316834  -0.4802254   0.2931061 SPIN=   0.00000
   O  -0.0301007  -0.2137765   0.1632661 SPIN=   0.00000
   O  -0.4868825  -0.2217062   0.1411283 SPIN=   0.00000
   O  -0.1749222   0.0225770   0.3281086 SPIN=   0.00000
   P  -0.2589768  -0.2340623   0.2358289 SPIN=   0.00000
   O  -0.4802254  -0.3316834  -0.2068939 SPIN=   0.00000
   O  -0.2137765  -0.0301007  -0.3367339 SPIN=   0.00000
   O  -0.2217062  -0.4868825  -0.3588717 SPIN=   0.00000
   O   0.0225770  -0.1749222  -0.1718914 SPIN=   0.00000
   P  -0.2340623  -0.2589768  -0.2641711 SPIN=   0.00000
   O   0.1768745  -0.3312206   0.3451496 SPIN=   0.00000
   O   0.3673582  -0.3541236   0.5611612 SPIN=   0.00000
   O   0.5508260   0.0493741   0.4814213 SPIN=   0.00000
   O   0.1007088  -0.0619034   0.5302448 SPIN=   0.00000
   P   0.2901030  -0.1814863   0.4729400 SPIN=   0.00000
   O  -0.3312206   0.1768745  -0.1548504 SPIN=   0.00000
   O  -0.3541236   0.3673582   0.0611612 SPIN=   0.00000
   O   0.0493741   0.5508260  -0.0185787 SPIN=   0.00000
   O  -0.0619034   0.1007088   0.0302448 SPIN=   0.00000
   P  -0.1814863   0.2901030  -0.0270600 SPIN=   0.00000
  Fe   0.0116028   0.3494141  -0.2522053 SPIN=   4.82307
  Fe   0.3494141   0.0116028   0.2477947 SPIN=   4.82307
  Fe  -0.3532388  -0.2644487  -0.0216226 SPIN=   3.17693
  Fe  -0.2644487  -0.3532388   0.4783774 SPIN=   3.17693
%ENDBLOCK POSITIONS_FRAC

# Note: total spin =  16.00

KPOINTS_MP_SPACING 0.07

%BLOCK SPECIES_POT
QC5
%ENDBLOCK SPECIES_POT

%BLOCK HUBBARD_U
Fe d:4.0
%ENDBLOCK HUBBARD_U

SNAP_TO_SYMMETRY
SYMMETRY_GENERATE

