#              Generated by Buildcell
#
# at 18:30:58 (GMT+0.0) 26th November 2020
# in /lustre/scratch/uccabz1/launch_tmp
# on node-c12j-025
# by uccabz1
#
# compiler GCC version 4.9.2
# options -cpp -iprefix /lustre/shared/ucl/apps/gcc/4.9.2/bin/../lib/gcc/x86_64-unknown-linux-gnu/4.9.2/ -mtune=corei7 -march=x86-64 -g -Og
#
# seed  -146482427  -157257231   544898940  -438202719 -1237932928  1132853664  1046019022   304479740 -1668823794 -1215098562 -1019784490  -154772448
#
#      Author: C. J. Pickard (cjp20@cam.ac.uk)
#                Space group: P-1
#

%BLOCK LATTICE_ABC
      5.06803      7.80560      8.88996
     90.71516    105.14176    108.58498
%ENDBLOCK LATTICE_ABC

%BLOCK POSITIONS_FRAC
  Li   0.3179298   0.3205401  -0.2055855 SPIN=   0.00000
  Li  -0.3179298  -0.3205401   0.2055855 SPIN=   0.00000
  Li  -0.3160980  -0.3112765  -0.2996061 SPIN=   0.00000
  Li   0.3160980   0.3112765   0.2996061 SPIN=   0.00000
   O  -0.2320490   0.3971526   0.2415199 SPIN=   0.00000
   O  -0.5579293   0.0667802   0.2511878 SPIN=   0.00000
   O  -0.5140401   0.1667677  -0.0063595 SPIN=   0.00000
   O  -0.0898250   0.1184423   0.1845603 SPIN=   0.00000
   P  -0.3392103   0.1976477   0.1718549 SPIN=   0.00000
   O   0.2320490  -0.3971526  -0.2415199 SPIN=   0.00000
   O   0.5579293  -0.0667802  -0.2511878 SPIN=   0.00000
   O   0.5140401  -0.1667677   0.0063595 SPIN=   0.00000
   O   0.0898250  -0.1184423  -0.1845603 SPIN=   0.00000
   P   0.3392103  -0.1976477  -0.1718549 SPIN=   0.00000
   O  -0.1505251   0.2328200  -0.4244728 SPIN=   0.00000
   O  -0.0460786   0.2148473  -0.1240709 SPIN=   0.00000
   O  -0.2695400   0.4392705  -0.2390687 SPIN=   0.00000
   P  -0.2546022   0.2461297  -0.2784020 SPIN=   0.00000
   O   0.1505251  -0.2328200   0.4244728 SPIN=   0.00000
   O   0.0460786  -0.2148473   0.1240709 SPIN=   0.00000
   O   0.2695400  -0.4392705   0.2390687 SPIN=   0.00000
   P   0.2546022  -0.2461297   0.2784020 SPIN=   0.00000
   O  -0.5000000   0.5000000   0.5000000 SPIN=   0.00000
   O   0.5000000  -0.5000000  -0.0000000 SPIN=   0.00000
  Fe   0.0000000   0.5000000   0.5000000 SPIN=   2.95591
  Fe  -0.0000000   0.0000000   0.5000000 SPIN=   6.03641
  Fe   0.0000000   0.0000000   0.0000000 SPIN=   6.57475
  Fe  -0.0000000  -0.5000000   0.0000000 SPIN=   0.43293
%ENDBLOCK POSITIONS_FRAC

# Note: total spin =  16.00

KPOINTS_MP_SPACING 0.07

%BLOCK SPECIES_POT
QC5
%ENDBLOCK SPECIES_POT

%BLOCK HUBBARD_U
Fe d:4.0
%ENDBLOCK HUBBARD_U

SNAP_TO_SYMMETRY
SYMMETRY_GENERATE

