#              Generated by Buildcell
#
# at 23:18:28 (GMT+0.0) 26th November 2020
# in /lustre/scratch/uccabz1/launch_tmp
# on node-c12k-029
# by uccabz1
#
# compiler GCC version 4.9.2
# options -cpp -iprefix /lustre/shared/ucl/apps/gcc/4.9.2/bin/../lib/gcc/x86_64-unknown-linux-gnu/4.9.2/ -mtune=corei7 -march=x86-64 -g -Og
#
# seed   819044766 -1050009517    30248826  -370965476  1680411712  -778769793 -1492664333   559682779 -2078676404  -796231063 -1141239044 -1389690677
#
#      Author: C. J. Pickard (cjp20@cam.ac.uk)
#                Space group: Cc
#

%BLOCK LATTICE_ABC
      5.55616      6.64888     10.20375
    108.88425     90.00000    114.69747
%ENDBLOCK LATTICE_ABC

%BLOCK POSITIONS_FRAC
  Li  -0.2976614  -0.0622944   0.4436320 SPIN=   0.00000
  Li   0.2353670  -0.0622944  -0.0563680 SPIN=   0.00000
  Li  -0.4505986   0.4809710  -0.2116004 SPIN=   0.00000
  Li  -0.0684304   0.4809710   0.2883996 SPIN=   0.00000
   O   0.2516292   0.2936652   0.2044221 SPIN=   0.00000
   O   0.7157328   0.6343372   0.2151954 SPIN=   0.00000
   O   0.6259891   0.2240445   0.0726622 SPIN=   0.00000
   O   0.3890857   0.4207828  -0.0085882 SPIN=   0.00000
   P   0.4813614   0.3882328   0.1238404 SPIN=   0.00000
   O   0.0420361   0.2936652  -0.2955779 SPIN=   0.00000
   O  -0.0813956   0.6343372  -0.2848046 SPIN=   0.00000
   O  -0.4019446   0.2240445  -0.4273378 SPIN=   0.00000
   O   0.0316971   0.4207828  -0.5085882 SPIN=   0.00000
   P  -0.0931286   0.3882328  -0.3761596 SPIN=   0.00000
   O  -0.4370824   0.1372751  -0.2019587 SPIN=   0.00000
   O  -0.3266064  -0.1875438  -0.3727699 SPIN=   0.00000
   O  -0.1319245  -0.0233059  -0.1222963 SPIN=   0.00000
   O  -0.6248295  -0.2862934  -0.1963814 SPIN=   0.00000
   P  -0.3860321  -0.0801844  -0.2218942 SPIN=   0.00000
   O   0.5743575   0.1372751   0.2980413 SPIN=   0.00000
   O   0.1390626  -0.1875438   0.1272301 SPIN=   0.00000
   O   0.1086185  -0.0233059   0.3777037 SPIN=   0.00000
   O   0.3385361  -0.2862934   0.3036186 SPIN=   0.00000
   P   0.3058478  -0.0801844   0.2781058 SPIN=   0.00000
  Fe   0.1818529  -0.0992785  -0.3873374 SPIN=   3.69233
  Fe  -0.2811313  -0.0992785   0.1126626 SPIN=   3.69233
  Fe  -0.0025555   0.3915747  -0.0549742 SPIN=   4.30767
  Fe   0.3941302   0.3915747   0.4450258 SPIN=   4.30767
%ENDBLOCK POSITIONS_FRAC

# Note: total spin =  16.00

KPOINTS_MP_SPACING 0.07

%BLOCK SPECIES_POT
QC5
%ENDBLOCK SPECIES_POT

%BLOCK HUBBARD_U
Fe d:4.0
%ENDBLOCK HUBBARD_U

SNAP_TO_SYMMETRY
SYMMETRY_GENERATE

