#              Generated by Buildcell
#
# at 15:28:57 (GMT+0.0) 26th November 2020
# in /lustre/scratch/uccabz1/launch_tmp
# on node-c12m-034
# by uccabz1
#
# compiler GCC version 4.9.2
# options -cpp -iprefix /lustre/shared/ucl/apps/gcc/4.9.2/bin/../lib/gcc/x86_64-unknown-linux-gnu/4.9.2/ -mtune=corei7 -march=x86-64 -g -Og
#
# seed  -559413515 -1495166682  -160193025   128310855  -867743465  2018802431  1355402878   415770208  1269496892 -1781143214  -859841183  1158874891
#
#      Author: C. J. Pickard (cjp20@cam.ac.uk)
#                Space group: P2
#

%BLOCK LATTICE_ABC
      5.76524      6.13488      9.41997
    106.16713     90.00000     90.00000
%ENDBLOCK LATTICE_ABC

%BLOCK POSITIONS_FRAC
  Li  -0.3221611  -0.2816489  -0.0452946 SPIN=   0.00000
  Li  -0.3221611   0.2816489   0.0452946 SPIN=   0.00000
  Li   0.0561436   0.2806910  -0.4561334 SPIN=   0.00000
  Li   0.0561436  -0.2806910   0.4561334 SPIN=   0.00000
   O  -0.5877517   0.2600482   0.4657197 SPIN=   0.00000
   O  -0.4753487   0.1134156   0.1882852 SPIN=   0.00000
   O  -0.2947342   0.4675771   0.3388637 SPIN=   0.00000
   O  -0.1820301   0.0962668   0.3809768 SPIN=   0.00000
   P  -0.3933686   0.2340672   0.3504137 SPIN=   0.00000
   O  -0.5877517  -0.2600482  -0.4657197 SPIN=   0.00000
   O  -0.4753487  -0.1134156  -0.1882852 SPIN=   0.00000
   O  -0.2947342  -0.4675771  -0.3388637 SPIN=   0.00000
   O  -0.1820301  -0.0962668  -0.3809768 SPIN=   0.00000
   P  -0.3933686  -0.2340672  -0.3504137 SPIN=   0.00000
   O   0.0195664  -0.4867666   0.1723100 SPIN=   0.00000
   O   0.2113260  -0.1065313   0.3169331 SPIN=   0.00000
   O   0.3184943  -0.2713350   0.0550485 SPIN=   0.00000
   O  -0.0780754  -0.1064784   0.1186797 SPIN=   0.00000
   P   0.1102840  -0.2541605   0.1655372 SPIN=   0.00000
   O   0.0195664   0.4867666  -0.1723100 SPIN=   0.00000
   O   0.2113260   0.1065313  -0.3169331 SPIN=   0.00000
   O   0.3184943   0.2713350  -0.0550485 SPIN=   0.00000
   O  -0.0780754   0.1064784  -0.1186797 SPIN=   0.00000
   P   0.1102840   0.2541605  -0.1655372 SPIN=   0.00000
  Fe   0.1765976   0.2166020   0.1949464 SPIN=   2.68748
  Fe   0.1765976  -0.2166020  -0.1949464 SPIN=   2.68748
  Fe  -0.4428662  -0.2415419   0.3012357 SPIN=   5.31252
  Fe  -0.4428662   0.2415419  -0.3012357 SPIN=   5.31252
%ENDBLOCK POSITIONS_FRAC

# Note: total spin =  16.00

KPOINTS_MP_SPACING 0.07

%BLOCK SPECIES_POT
QC5
%ENDBLOCK SPECIES_POT

%BLOCK HUBBARD_U
Fe d:4.0
%ENDBLOCK HUBBARD_U

SNAP_TO_SYMMETRY
SYMMETRY_GENERATE

