#              Generated by Buildcell
#
# at 08:39:43 (GMT+0.0) 24th November 2020
# in /scratch/scratch/uccabz1/launch_tmp
# on node-a14f-030
# by uccabz1
#
# compiler GCC version 4.9.2
# options -cpp -iprefix /scratch/UCL/applications/gcc/4.9.2/bin/../lib/gcc/x86_64-unknown-linux-gnu/4.9.2/ -mtune=corei7 -march=x86-64 -g -O2
#
# seed  1437706604 -1015362116  1439225027  -687765047   495648528 -1313595083   792134794 -1800414811  -828963549  -557834841 -1799971629   686864032
#
#      Author: C. J. Pickard (cjp20@cam.ac.uk)
#                Space group: P-4
#

%BLOCK LATTICE_ABC
      5.37789      5.45449      5.45449
     90.00000     90.00000     90.00000
%ENDBLOCK LATTICE_ABC

%BLOCK POSITIONS_FRAC
  Li   0.0000000  -0.5000000  -0.5000000 SPIN=   0.00000
  Li   0.0000000  -0.0000000   0.0000000 SPIN=   0.00000
   O  -0.3837667   0.2310350   0.3087029 SPIN=   0.00000
   O  -0.1601679  -0.1910485   0.2976683 SPIN=   0.00000
   O  -0.3837667  -0.2310350  -0.3087029 SPIN=   0.00000
   O  -0.1601679   0.1910485  -0.2976683 SPIN=   0.00000
   O   0.3837667  -0.3087029   0.2310350 SPIN=   0.00000
   O   0.1601679  -0.2976683  -0.1910485 SPIN=   0.00000
   O   0.3837667   0.3087029  -0.2310350 SPIN=   0.00000
   O   0.1601679   0.2976683   0.1910485 SPIN=   0.00000
   P   0.5000000  -0.5000000  -0.5000000 SPIN=   0.00000
   P   0.5000000  -0.0000000  -0.0000000 SPIN=   0.00000
  Fe  -0.3446444   0.5000000   0.0000000 SPIN=   4.00000
  Fe   0.3446444  -0.0000000  -0.5000000 SPIN=   4.00000
%ENDBLOCK POSITIONS_FRAC

# Note: total spin =   8.00

KPOINTS_MP_SPACING 0.07

%BLOCK SPECIES_POT
QC5
%ENDBLOCK SPECIES_POT

%BLOCK HUBBARD_U
Fe d:4.0
%ENDBLOCK HUBBARD_U

SNAP_TO_SYMMETRY
SYMMETRY_GENERATE

