#              Generated by Buildcell
#
# at 14:18:16 (GMT+0.0) 26th November 2020
# in /scratch/scratch/uccabz1/launch_tmp
# on node-k10b-006
# by uccabz1
#
# compiler GCC version 4.9.2
# options -cpp -iprefix /scratch/UCL/applications/gcc/4.9.2/bin/../lib/gcc/x86_64-unknown-linux-gnu/4.9.2/ -mtune=corei7 -march=x86-64 -g -O2
#
# seed  -680051681 -1403243410  2057964821   538300321  1722879138  1241671032 -1203346159   783229350   -57376101 -1920104224   987166841  -274255527
#
#      Author: C. J. Pickard (cjp20@cam.ac.uk)
#                Space group: P-1
#

%BLOCK LATTICE_ABC
      4.84581      5.66753     11.75411
     87.71316     83.28619     87.10060
%ENDBLOCK LATTICE_ABC

%BLOCK POSITIONS_FRAC
  Li   0.1420942   0.3744456   0.1969719 SPIN=   0.00000
  Li  -0.1420942  -0.3744456  -0.1969719 SPIN=   0.00000
  Li   0.1838155  -0.1348674   0.2870253 SPIN=   0.00000
  Li  -0.1838155   0.1348674  -0.2870253 SPIN=   0.00000
   O  -0.6233343  -0.3060771   0.4218402 SPIN=   0.00000
   O  -0.1189397  -0.4889143   0.4124674 SPIN=   0.00000
   O  -0.2304508  -0.1950695   0.2617593 SPIN=   0.00000
   O  -0.2094246  -0.0638223   0.4613778 SPIN=   0.00000
   P  -0.3119747  -0.2633834   0.3919404 SPIN=   0.00000
   O   0.6233343   0.3060771  -0.4218402 SPIN=   0.00000
   O   0.1189397   0.4889143  -0.4124674 SPIN=   0.00000
   O   0.2304508   0.1950695  -0.2617593 SPIN=   0.00000
   O   0.2094246   0.0638223  -0.4613778 SPIN=   0.00000
   P   0.3119747   0.2633834  -0.3919404 SPIN=   0.00000
   O   0.4047504  -0.4192515  -0.2205248 SPIN=   0.00000
   O   0.2480306  -0.4595795  -0.0018476 SPIN=   0.00000
   O   0.5750314  -0.1509294  -0.0712613 SPIN=   0.00000
   O   0.0796375  -0.1055599  -0.1129643 SPIN=   0.00000
   P   0.3280921  -0.2889368  -0.1081126 SPIN=   0.00000
   O  -0.4047504   0.4192515   0.2205248 SPIN=   0.00000
   O  -0.2480306   0.4595795   0.0018476 SPIN=   0.00000
   O  -0.5750314   0.1509294   0.0712613 SPIN=   0.00000
   O  -0.0796375   0.1055599   0.1129643 SPIN=   0.00000
   P  -0.3280921   0.2889368   0.1081126 SPIN=   0.00000
  Fe   0.2620271   0.2123606  -0.0856580 SPIN=   2.27890
  Fe  -0.2620271  -0.2123606   0.0856580 SPIN=   2.27890
  Fe   0.4017244  -0.2420214  -0.3807456 SPIN=   5.72110
  Fe  -0.4017244   0.2420214   0.3807456 SPIN=   5.72110
%ENDBLOCK POSITIONS_FRAC

# Note: total spin =  16.00

KPOINTS_MP_SPACING 0.07

%BLOCK SPECIES_POT
QC5
%ENDBLOCK SPECIES_POT

%BLOCK HUBBARD_U
Fe d:4.0
%ENDBLOCK HUBBARD_U

SNAP_TO_SYMMETRY
SYMMETRY_GENERATE

