#              Generated by Buildcell
#
# at 13:09:08 (GMT+0.0) 24th November 2020
# in /lustre/scratch/uccabz1/launch_tmp
# on node-c12e-031
# by uccabz1
#
# compiler GCC version 4.9.2
# options -cpp -iprefix /lustre/shared/ucl/apps/gcc/4.9.2/bin/../lib/gcc/x86_64-unknown-linux-gnu/4.9.2/ -mtune=corei7 -march=x86-64 -g -Og
#
# seed  1109147690  1578757041  1279068648   773675054  1611009235 -2005010762  1731657198   950421472  1673874199   502165167   509086646  -909397612
#
#      Author: C. J. Pickard (cjp20@cam.ac.uk)
#                Space group: P-1
#

%BLOCK LATTICE_ABC
      3.83361      6.05606      7.20506
     89.94621     79.94375     76.47567
%ENDBLOCK LATTICE_ABC

%BLOCK POSITIONS_FRAC
  Li   1.0000000  -0.5000000   0.5000000 SPIN=   0.00000
  Li  -0.0000000  -0.0000000   0.5000000 SPIN=   0.00000
   O   0.3942894   0.1960269  -0.3777841 SPIN=   0.00000
   O  -0.2515825   0.4325800  -0.2288998 SPIN=   0.00000
   O  -0.0814468   0.0263037  -0.1583017 SPIN=   0.00000
   O   0.2102394   0.3017370  -0.0210805 SPIN=   0.00000
   P   0.0869349   0.2376036  -0.2040978 SPIN=   0.00000
   O  -0.3942894  -0.1960269   0.3777841 SPIN=   0.00000
   O   0.2515825  -0.4325800   0.2288998 SPIN=   0.00000
   O   0.0814468  -0.0263037   0.1583017 SPIN=   0.00000
   O  -0.2102394  -0.3017370   0.0210805 SPIN=   0.00000
   P  -0.0869349  -0.2376036   0.2040978 SPIN=   0.00000
  Fe  -0.3849943   0.2330428   0.1492080 SPIN=   4.00000
  Fe   0.3849943  -0.2330428  -0.1492080 SPIN=   4.00000
%ENDBLOCK POSITIONS_FRAC

# Note: total spin =   8.00

KPOINTS_MP_SPACING 0.07

%BLOCK SPECIES_POT
QC5
%ENDBLOCK SPECIES_POT

%BLOCK HUBBARD_U
Fe d:4.0
%ENDBLOCK HUBBARD_U

SNAP_TO_SYMMETRY
SYMMETRY_GENERATE

