#              Generated by Buildcell
#
# at 13:56:09 (GMT+0.0) 24th November 2020
# in /scratch/scratch/uccabz1/launch_tmp
# on node-a14b-007
# by uccabz1
#
# compiler GCC version 4.9.2
# options -cpp -iprefix /scratch/UCL/applications/gcc/4.9.2/bin/../lib/gcc/x86_64-unknown-linux-gnu/4.9.2/ -mtune=corei7 -march=x86-64 -g -O2
#
# seed  -383137923   111617109 -1984784964  -548122448   113026136 -1662240442  1427483323   303661249  1334348263  1938205188  1123975660  1054235547
#
#      Author: C. J. Pickard (cjp20@cam.ac.uk)
#                Space group: Pnc2
#

%BLOCK LATTICE_ABC
      5.06100      5.61855      5.62677
     90.00000     90.00000     90.00000
%ENDBLOCK LATTICE_ABC

%BLOCK POSITIONS_FRAC
  Li   0.5000000  -0.0444286  -0.0000000 SPIN=   0.00000
  Li   0.5000000   0.4555714  -0.5000000 SPIN=   0.00000
   O  -0.2606709   0.1770279  -0.6321814 SPIN=   0.00000
   O  -0.1346925   0.4943441  -0.3160124 SPIN=   0.00000
   O   0.2606709   0.1770279   0.6321814 SPIN=   0.00000
   O   0.1346925   0.4943441   0.3160124 SPIN=   0.00000
   O  -0.2606709  -0.3229721   0.1321814 SPIN=   0.00000
   O  -0.1346925  -0.0056559  -0.1839876 SPIN=   0.00000
   O   0.2606709  -0.3229721  -0.1321814 SPIN=   0.00000
   O   0.1346925  -0.0056559   0.1839876 SPIN=   0.00000
   P  -0.0000000  -0.1775095  -0.0000000 SPIN=   0.00000
   P   0.0000000   0.3224905  -0.5000000 SPIN=   0.00000
  Fe   0.0000000   0.3250440  -0.0000000 SPIN=   4.00000
  Fe   0.0000000  -0.1749560  -0.5000000 SPIN=   4.00000
%ENDBLOCK POSITIONS_FRAC

# Note: total spin =   8.00

KPOINTS_MP_SPACING 0.07

%BLOCK SPECIES_POT
QC5
%ENDBLOCK SPECIES_POT

%BLOCK HUBBARD_U
Fe d:4.0
%ENDBLOCK HUBBARD_U

SNAP_TO_SYMMETRY
SYMMETRY_GENERATE

