#              Generated by Buildcell
#
# at 21:33:12 (GMT+0.0) 26th November 2020
# in /scratch/scratch/uccabz1/launch_tmp
# on node-k10e-015
# by uccabz1
#
# compiler GCC version 4.9.2
# options -cpp -iprefix /scratch/UCL/applications/gcc/4.9.2/bin/../lib/gcc/x86_64-unknown-linux-gnu/4.9.2/ -mtune=corei7 -march=x86-64 -g -O2
#
# seed  2008736707  1563365508  -244488036  -774272064  1669894851  2113142602 -1849598999  1859782312  -306063211 -1724345628  1551449673 -1658811949
#
#      Author: C. J. Pickard (cjp20@cam.ac.uk)
#                Space group: Cc
#

%BLOCK LATTICE_ABC
      6.85849      6.97158      6.97158
     88.54129     78.47479     78.47479
%ENDBLOCK LATTICE_ABC

%BLOCK POSITIONS_FRAC
  Li   0.4332759  -0.3053569   0.0342569 SPIN=   0.00000
  Li  -0.0667241   0.0342569  -0.3053569 SPIN=   0.00000
  Li  -0.3754501   0.3053250  -0.4892331 SPIN=   0.00000
  Li   0.1245499  -0.4892331   0.3053250 SPIN=   0.00000
   O  -0.4973507  -0.4502967   0.3481959 SPIN=   0.00000
   O  -0.2679391  -0.3011414   0.0655654 SPIN=   0.00000
   O  -0.2149542  -0.2707636   0.4027679 SPIN=   0.00000
   O  -0.1160845  -0.5987989   0.2340551 SPIN=   0.00000
   P  -0.2841055  -0.4099327   0.2668637 SPIN=   0.00000
   O   0.0026493   0.3481959  -0.4502967 SPIN=   0.00000
   O   0.2320609   0.0655654  -0.3011414 SPIN=   0.00000
   O   0.2850458   0.4027679  -0.2707636 SPIN=   0.00000
   O   0.3839155   0.2340551  -0.5987989 SPIN=   0.00000
   P   0.2158945   0.2668637  -0.4099327 SPIN=   0.00000
   O   0.3059744  -0.0249363   0.2122073 SPIN=   0.00000
   O  -0.0843476   0.0591929   0.3399299 SPIN=   0.00000
   O   0.0590984  -0.2316198   0.1245400 SPIN=   0.00000
   O   0.1207074  -0.2370465   0.4669891 SPIN=   0.00000
   P   0.1115463  -0.1056634   0.2841288 SPIN=   0.00000
   O  -0.1940256   0.2122073  -0.0249363 SPIN=   0.00000
   O  -0.5843476   0.3399299   0.0591929 SPIN=   0.00000
   O  -0.4409016   0.1245400  -0.2316198 SPIN=   0.00000
   O  -0.3792926   0.4669891  -0.2370465 SPIN=   0.00000
   P  -0.3884537   0.2841288  -0.1056634 SPIN=   0.00000
  Fe  -0.2666737  -0.0177044   0.1577612 SPIN=   4.08436
  Fe   0.2333263   0.1577612  -0.0177044 SPIN=   4.08436
  Fe  -0.1135262  -0.4273825  -0.2392304 SPIN=   3.91564
  Fe   0.3864738  -0.2392304  -0.4273825 SPIN=   3.91564
%ENDBLOCK POSITIONS_FRAC

# Note: total spin =  16.00

KPOINTS_MP_SPACING 0.07

%BLOCK SPECIES_POT
QC5
%ENDBLOCK SPECIES_POT

%BLOCK HUBBARD_U
Fe d:4.0
%ENDBLOCK HUBBARD_U

SNAP_TO_SYMMETRY
SYMMETRY_GENERATE

