#              Generated by Buildcell
#
# at 06:27:57 (GMT+0.0) 24th November 2020
# in /scratch/scratch/uccabz1/launch_tmp
# on node-a14a-024
# by uccabz1
#
# compiler GCC version 4.9.2
# options -cpp -iprefix /scratch/UCL/applications/gcc/4.9.2/bin/../lib/gcc/x86_64-unknown-linux-gnu/4.9.2/ -mtune=corei7 -march=x86-64 -g -O2
#
# seed   378098665  1223383185  1285382043   742820602  -365195151 -1083688074  -231853735 -1810053795   562409070  -991469448 -1106104272  1547182186
#
#      Author: C. J. Pickard (cjp20@cam.ac.uk)
#                Space group: Pm
#

%BLOCK LATTICE_ABC
      4.21330      4.61527      8.50557
     90.00000     90.00000    104.67454
%ENDBLOCK LATTICE_ABC

%BLOCK POSITIONS_FRAC
  Li  -0.1731065   0.0834080  -0.5000000 SPIN=   0.00000
  Li  -0.1313781   0.2209564   0.0000000 SPIN=   0.00000
   O   0.0181296  -0.3389204   0.3570597 SPIN=   0.00000
   O  -0.0365201   0.1692276   0.2440949 SPIN=   0.00000
   O   0.4087456  -0.0402340   0.1437900 SPIN=   0.00000
   P   0.0495112  -0.1374467   0.2109296 SPIN=   0.00000
   O   0.0181296  -0.3389204  -0.3570597 SPIN=   0.00000
   O  -0.0365201   0.1692276  -0.2440949 SPIN=   0.00000
   O   0.4087456  -0.0402340  -0.1437900 SPIN=   0.00000
   P   0.0495112  -0.1374467  -0.2109296 SPIN=   0.00000
   O   0.3301292   0.1061212   0.5000000 SPIN=   0.00000
   O  -0.4839576  -0.3516779   0.5000000 SPIN=   0.00000
  Fe   0.4350694   0.4526989  -0.2720071 SPIN=   4.00000
  Fe   0.4350694   0.4526989   0.2720071 SPIN=   4.00000
%ENDBLOCK POSITIONS_FRAC

# Note: total spin =   8.00

KPOINTS_MP_SPACING 0.07

%BLOCK SPECIES_POT
QC5
%ENDBLOCK SPECIES_POT

%BLOCK HUBBARD_U
Fe d:4.0
%ENDBLOCK HUBBARD_U

SNAP_TO_SYMMETRY
SYMMETRY_GENERATE

