#              Generated by Buildcell
#
# at 07:37:52 (GMT+0.0) 24th November 2020
# in /lustre/scratch/uccabz1/launch_tmp
# on node-c12c-022
# by uccabz1
#
# compiler GCC version 4.9.2
# options -cpp -iprefix /lustre/shared/ucl/apps/gcc/4.9.2/bin/../lib/gcc/x86_64-unknown-linux-gnu/4.9.2/ -mtune=corei7 -march=x86-64 -g -Og
#
# seed  -961728959 -1156269154  -244392241  -139726786 -1455992253   664128930  -994533192 -2142268108 -1945904361   -68993043  -186795923   -21523269
#
#      Author: C. J. Pickard (cjp20@cam.ac.uk)
#                Space group: P21
#

%BLOCK LATTICE_ABC
      4.51951      5.53101      6.43328
     95.77356     90.00000     90.00000
%ENDBLOCK LATTICE_ABC

%BLOCK POSITIONS_FRAC
  Li  -0.4690299  -0.3633612  -0.1201938 SPIN=   0.00000
  Li   0.0309701   0.3633612   0.1201938 SPIN=   0.00000
   O  -0.3348036   0.3430932   0.4929698 SPIN=   0.00000
   O  -0.5049843   0.4008144   0.1153892 SPIN=   0.00000
   O  -0.2766320   0.0099237   0.1809509 SPIN=   0.00000
   O  -0.7832677   0.1133337   0.3204169 SPIN=   0.00000
   P  -0.4711001   0.2222953   0.2894153 SPIN=   0.00000
   O   0.1651964  -0.3430932  -0.4929698 SPIN=   0.00000
   O  -0.0049843  -0.4008144  -0.1153892 SPIN=   0.00000
   O   0.2233680  -0.0099237  -0.1809509 SPIN=   0.00000
   O  -0.2832677  -0.1133337  -0.3204169 SPIN=   0.00000
   P   0.0288999  -0.2222953  -0.2894153 SPIN=   0.00000
  Fe  -0.4222616  -0.2637398   0.3847254 SPIN=   4.00000
  Fe   0.0777384   0.2637398  -0.3847254 SPIN=   4.00000
%ENDBLOCK POSITIONS_FRAC

# Note: total spin =   8.00

KPOINTS_MP_SPACING 0.07

%BLOCK SPECIES_POT
QC5
%ENDBLOCK SPECIES_POT

%BLOCK HUBBARD_U
Fe d:4.0
%ENDBLOCK HUBBARD_U

SNAP_TO_SYMMETRY
SYMMETRY_GENERATE

