#              Generated by Buildcell
#
# at 11:37:44 (GMT+0.0) 24th November 2020
# in /lustre/scratch/uccabz1/launch_tmp
# on node-c12l-023
# by uccabz1
#
# compiler GCC version 4.9.2
# options -cpp -iprefix /lustre/shared/ucl/apps/gcc/4.9.2/bin/../lib/gcc/x86_64-unknown-linux-gnu/4.9.2/ -mtune=corei7 -march=x86-64 -g -Og
#
# seed   240294498  -530355249 -1148635444  1105820086  1901608768 -1358817603 -1931982776  1276803140  -902931234  -412133246  -925426630 -1202210301
#
#      Author: C. J. Pickard (cjp20@cam.ac.uk)
#                Space group: Pmn21
#

%BLOCK LATTICE_ABC
      5.19798      5.25622      5.85615
     90.00000     90.00000     90.00000
%ENDBLOCK LATTICE_ABC

%BLOCK POSITIONS_FRAC
  Li  -0.0000000   0.4245014  -0.0854158 SPIN=   0.00000
  Li   0.5000000  -0.4245014   0.4145842 SPIN=   0.00000
   O  -0.2376803  -0.2062933   0.1731470 SPIN=   0.00000
   O  -0.2503711  -0.6906827   0.2607516 SPIN=   0.00000
   O  -0.2623197   0.2062933  -0.3268530 SPIN=   0.00000
   O  -0.2496289   0.6906827  -0.2392484 SPIN=   0.00000
   O   0.2623197   0.2062933  -0.3268530 SPIN=   0.00000
   O   0.2496289   0.6906827  -0.2392484 SPIN=   0.00000
   O   0.2376803  -0.2062933   0.1731470 SPIN=   0.00000
   O   0.2503711  -0.6906827   0.2607516 SPIN=   0.00000
   P  -0.0000000   0.4245014   0.3739484 SPIN=   0.00000
   P   0.5000000  -0.4245014  -0.1260516 SPIN=   0.00000
  Fe  -0.0000000  -0.0754983  -0.4290743 SPIN=   4.00000
  Fe   0.5000000   0.0754983   0.0709257 SPIN=   4.00000
%ENDBLOCK POSITIONS_FRAC

# Note: total spin =   8.00

KPOINTS_MP_SPACING 0.07

%BLOCK SPECIES_POT
QC5
%ENDBLOCK SPECIES_POT

%BLOCK HUBBARD_U
Fe d:4.0
%ENDBLOCK HUBBARD_U

SNAP_TO_SYMMETRY
SYMMETRY_GENERATE

