#              Generated by Buildcell
#
# at 18:17:19 (GMT+0.0) 26th November 2020
# in /lustre/scratch/uccabz1/launch_tmp
# on node-c12j-022
# by uccabz1
#
# compiler GCC version 4.9.2
# options -cpp -iprefix /lustre/shared/ucl/apps/gcc/4.9.2/bin/../lib/gcc/x86_64-unknown-linux-gnu/4.9.2/ -mtune=corei7 -march=x86-64 -g -Og
#
# seed  -463150305 -1533707144 -1758993678  -646957714 -1482242219   527095578 -1131823748 -1195026522  -551775242   802054062   449209774 -1159383095
#
#      Author: C. J. Pickard (cjp20@cam.ac.uk)
#                Space group: P43
#

%BLOCK LATTICE_ABC
      6.80236      6.80236      6.91561
     90.00000     90.00000     90.00000
%ENDBLOCK LATTICE_ABC

%BLOCK POSITIONS_FRAC
  Li   0.1278634   0.2233906  -0.0745362 SPIN=   0.00000
  Li  -0.1278634  -0.2233906   0.4254638 SPIN=   0.00000
  Li   0.2233906  -0.1278634  -0.3245362 SPIN=   0.00000
  Li  -0.2233906   0.1278634   0.1754638 SPIN=   0.00000
   O  -0.6087470  -0.0909111  -0.0717912 SPIN=   0.00000
   O  -0.5198854   0.2455476   0.0830303 SPIN=   0.00000
   O  -0.2718242   0.0815921  -0.1219568 SPIN=   0.00000
   O  -0.5728327   0.2257737  -0.2748088 SPIN=   0.00000
   P  -0.5004064   0.1058116  -0.0971779 SPIN=   0.00000
   O   0.6087470   0.0909111   0.4282088 SPIN=   0.00000
   O   0.5198854  -0.2455476   0.5830303 SPIN=   0.00000
   O   0.2718242  -0.0815921   0.3780432 SPIN=   0.00000
   O   0.5728327  -0.2257737   0.2251912 SPIN=   0.00000
   P   0.5004064  -0.1058116   0.4028221 SPIN=   0.00000
   O  -0.0909111   0.6087470  -0.3217912 SPIN=   0.00000
   O   0.2455476   0.5198854  -0.1669697 SPIN=   0.00000
   O   0.0815921   0.2718242  -0.3719568 SPIN=   0.00000
   O   0.2257737   0.5728327  -0.5248088 SPIN=   0.00000
   P   0.1058116   0.5004064  -0.3471779 SPIN=   0.00000
   O   0.0909111  -0.6087470   0.1782088 SPIN=   0.00000
   O  -0.2455476  -0.5198854   0.3330303 SPIN=   0.00000
   O  -0.0815921  -0.2718242   0.1280432 SPIN=   0.00000
   O  -0.2257737  -0.5728327  -0.0248088 SPIN=   0.00000
   P  -0.1058116  -0.5004064   0.1528221 SPIN=   0.00000
  Fe  -0.2656670  -0.2378539  -0.1243052 SPIN=   4.00000
  Fe   0.2656670   0.2378539   0.3756948 SPIN=   4.00000
  Fe  -0.2378539   0.2656670  -0.3743052 SPIN=   4.00000
  Fe   0.2378539  -0.2656670   0.1256948 SPIN=   4.00000
%ENDBLOCK POSITIONS_FRAC

# Note: total spin =  16.00

KPOINTS_MP_SPACING 0.07

%BLOCK SPECIES_POT
QC5
%ENDBLOCK SPECIES_POT

%BLOCK HUBBARD_U
Fe d:4.0
%ENDBLOCK HUBBARD_U

SNAP_TO_SYMMETRY
SYMMETRY_GENERATE

