#              Generated by Buildcell
#
# at 14:15:17 (GMT+0.0) 26th November 2020
# in /lustre/scratch/uccabz1/launch_tmp
# on node-c12n-022
# by uccabz1
#
# compiler GCC version 4.9.2
# options -cpp -iprefix /lustre/shared/ucl/apps/gcc/4.9.2/bin/../lib/gcc/x86_64-unknown-linux-gnu/4.9.2/ -mtune=corei7 -march=x86-64 -g -Og
#
# seed -1839999316   -29512737  -688755924  2049884298  2072938324  -437055758  1984777519 -2142423936 -1400679522   474258770   708447161  -351391424
#
#      Author: C. J. Pickard (cjp20@cam.ac.uk)
#                Space group: P21
#

%BLOCK LATTICE_ABC
      5.51223      6.22884      9.31999
     90.00000     90.00000     90.02895
%ENDBLOCK LATTICE_ABC

%BLOCK POSITIONS_FRAC
  Li   0.1277864   0.4441857   0.1134900 SPIN=   0.00000
  Li  -0.1277864  -0.4441857  -0.3865100 SPIN=   0.00000
  Li   0.3721404  -0.4233724   0.4833117 SPIN=   0.00000
  Li  -0.3721404   0.4233724  -0.0166883 SPIN=   0.00000
   O  -0.4342242  -0.2463001  -0.0506979 SPIN=   0.00000
   O  -0.4621254  -0.5158571  -0.2627927 SPIN=   0.00000
   O  -0.7204050  -0.1920748  -0.2691940 SPIN=   0.00000
   O  -0.2716347  -0.1558787  -0.3035059 SPIN=   0.00000
   P  -0.4677151  -0.2744294  -0.2134179 SPIN=   0.00000
   O   0.4342242   0.2463001   0.4493021 SPIN=   0.00000
   O   0.4621254   0.5158571   0.2372073 SPIN=   0.00000
   O   0.7204050   0.1920748   0.2308060 SPIN=   0.00000
   O   0.2716347   0.1558787   0.1964941 SPIN=   0.00000
   P   0.4677151   0.2744294   0.2865821 SPIN=   0.00000
   O   0.1095182   0.5258048  -0.1057698 SPIN=   0.00000
   O  -0.1428636   0.1745257  -0.0871780 SPIN=   0.00000
   O   0.0398897   0.2679218  -0.3209793 SPIN=   0.00000
   O   0.3075327   0.1505534  -0.1185403 SPIN=   0.00000
   P   0.0828724   0.2912811  -0.1548626 SPIN=   0.00000
   O  -0.1095182  -0.5258048   0.3942302 SPIN=   0.00000
   O   0.1428636  -0.1745257   0.4128220 SPIN=   0.00000
   O  -0.0398897  -0.2679218   0.1790207 SPIN=   0.00000
   O  -0.3075327  -0.1505534   0.3814597 SPIN=   0.00000
   P  -0.0828724  -0.2912811   0.3451374 SPIN=   0.00000
  Fe   0.4998037  -0.1577835   0.1873599 SPIN=   6.72971
  Fe  -0.4998037   0.1577835  -0.3126401 SPIN=   6.72971
  Fe  -0.0007039  -0.1532386  -0.1039777 SPIN=   1.27029
  Fe   0.0007039   0.1532386   0.3960223 SPIN=   1.27029
%ENDBLOCK POSITIONS_FRAC

# Note: total spin =  16.00

KPOINTS_MP_SPACING 0.07

%BLOCK SPECIES_POT
QC5
%ENDBLOCK SPECIES_POT

%BLOCK HUBBARD_U
Fe d:4.0
%ENDBLOCK HUBBARD_U

SNAP_TO_SYMMETRY
SYMMETRY_GENERATE

