#              Generated by Buildcell
#
# at 18:35:27 (GMT+0.0) 26th November 2020
# in /lustre/scratch/uccabz1/launch_tmp
# on node-c12k-022
# by uccabz1
#
# compiler GCC version 4.9.2
# options -cpp -iprefix /lustre/shared/ucl/apps/gcc/4.9.2/bin/../lib/gcc/x86_64-unknown-linux-gnu/4.9.2/ -mtune=corei7 -march=x86-64 -g -Og
#
# seed  1407403544  1200044724  1087096844   190085689 -1021892321   -31010149  1242524023   220706567   394997526   357973274  1810034964  -533269150
#
#      Author: C. J. Pickard (cjp20@cam.ac.uk)
#                Space group: P-1
#

%BLOCK LATTICE_ABC
      4.27095      8.67494      8.81204
     91.50153    101.19257     91.53268
%ENDBLOCK LATTICE_ABC

%BLOCK POSITIONS_FRAC
  Li   0.2967387   0.4757103   0.1214130 SPIN=   0.00000
  Li  -0.2967387  -0.4757103  -0.1214130 SPIN=   0.00000
  Li   0.1576940   0.2863881  -0.2036458 SPIN=   0.00000
  Li  -0.1576940  -0.2863881   0.2036458 SPIN=   0.00000
   O  -0.0679954  -0.5617370  -0.3804356 SPIN=   0.00000
   O  -0.0247412  -0.2635746  -0.3404336 SPIN=   0.00000
   O   0.1900273  -0.4239702  -0.1189952 SPIN=   0.00000
   O   0.4717367  -0.4101222  -0.3426576 SPIN=   0.00000
   P   0.1349501  -0.4226161  -0.3007009 SPIN=   0.00000
   O   0.0679954   0.5617370   0.3804356 SPIN=   0.00000
   O   0.0247412   0.2635746   0.3404336 SPIN=   0.00000
   O  -0.1900273   0.4239702   0.1189952 SPIN=   0.00000
   O  -0.4717367   0.4101222   0.3426576 SPIN=   0.00000
   P  -0.1349501   0.4226161   0.3007009 SPIN=   0.00000
   O  -0.8311977   0.0402665  -0.2335107 SPIN=   0.00000
   O  -0.3262858   0.2158763  -0.2275562 SPIN=   0.00000
   O  -0.2689536  -0.0232557  -0.0799200 SPIN=   0.00000
   O  -0.3742479  -0.0401351  -0.3696183 SPIN=   0.00000
   P  -0.4695630   0.0467239  -0.2296387 SPIN=   0.00000
   O   0.8311977  -0.0402665   0.2335107 SPIN=   0.00000
   O   0.3262858  -0.2158763   0.2275562 SPIN=   0.00000
   O   0.2689536   0.0232557   0.0799200 SPIN=   0.00000
   O   0.3742479   0.0401351   0.3696183 SPIN=   0.00000
   P   0.4695630  -0.0467239   0.2296387 SPIN=   0.00000
  Fe   0.2123199  -0.1763781  -0.0732041 SPIN=   5.74763
  Fe  -0.2123199   0.1763781   0.0732041 SPIN=   5.74763
  Fe   0.4609808  -0.2382570   0.4933294 SPIN=   2.25237
  Fe  -0.4609808   0.2382570  -0.4933294 SPIN=   2.25237
%ENDBLOCK POSITIONS_FRAC

# Note: total spin =  16.00

KPOINTS_MP_SPACING 0.07

%BLOCK SPECIES_POT
QC5
%ENDBLOCK SPECIES_POT

%BLOCK HUBBARD_U
Fe d:4.0
%ENDBLOCK HUBBARD_U

SNAP_TO_SYMMETRY
SYMMETRY_GENERATE

