#              Generated by Buildcell
#
# at 12:02:14 (GMT+0.0) 24th November 2020
# in /scratch/scratch/uccabz1/launch_tmp
# on node-a14e-013
# by uccabz1
#
# compiler GCC version 4.9.2
# options -cpp -iprefix /scratch/UCL/applications/gcc/4.9.2/bin/../lib/gcc/x86_64-unknown-linux-gnu/4.9.2/ -mtune=corei7 -march=x86-64 -g -O2
#
# seed   549594887 -1059006662   377853568  -551922255  1763050006   417199722  -145003009 -1065807149  1738800925   643379460  1511424151 -1859711961
#
#      Author: C. J. Pickard (cjp20@cam.ac.uk)
#                Space group: Pm
#

%BLOCK LATTICE_ABC
      3.87169      4.77460      8.74823
     90.00000     90.00000     98.35877
%ENDBLOCK LATTICE_ABC

%BLOCK POSITIONS_FRAC
  Li  -0.1166670   0.0542757   0.2444611 SPIN=   0.00000
  Li  -0.1166670   0.0542757  -0.2444611 SPIN=   0.00000
   O  -0.1340981  -0.3810369   0.2797040 SPIN=   0.00000
   O   0.3404533  -0.6746194   0.1867994 SPIN=   0.00000
   O   0.4310824  -0.1592858   0.1390383 SPIN=   0.00000
   P   0.2582423  -0.3876162   0.2561706 SPIN=   0.00000
   O  -0.1340981  -0.3810369  -0.2797040 SPIN=   0.00000
   O   0.3404533  -0.6746194  -0.1867994 SPIN=   0.00000
   O   0.4310824  -0.1592858  -0.1390383 SPIN=   0.00000
   P   0.2582423  -0.3876162  -0.2561706 SPIN=   0.00000
   O  -0.1644056  -0.0124307  -0.5000000 SPIN=   0.00000
   O  -0.1102691   0.1471721  -0.0000000 SPIN=   0.00000
  Fe  -0.3101612  -0.4681442   0.0000000 SPIN=   1.37690
  Fe  -0.2960708  -0.4892353  -0.5000000 SPIN=   6.62310
%ENDBLOCK POSITIONS_FRAC

# Note: total spin =   8.00

KPOINTS_MP_SPACING 0.07

%BLOCK SPECIES_POT
QC5
%ENDBLOCK SPECIES_POT

%BLOCK HUBBARD_U
Fe d:4.0
%ENDBLOCK HUBBARD_U

SNAP_TO_SYMMETRY
SYMMETRY_GENERATE

