#              Generated by Buildcell
#
# at 10:55:40 (GMT+0.0) 24th November 2020
# in /scratch/scratch/uccabz1/launch_tmp
# on node-k10a-022
# by uccabz1
#
# compiler GCC version 4.9.2
# options -cpp -iprefix /scratch/UCL/applications/gcc/4.9.2/bin/../lib/gcc/x86_64-unknown-linux-gnu/4.9.2/ -mtune=corei7 -march=x86-64 -g -O2
#
# seed   387652551 -2146850455  -563204162  -330437186   -96622783 -1338608726  1347532701   879548667  -162949647 -1463580478  2131525340   330709359
#
#      Author: C. J. Pickard (cjp20@cam.ac.uk)
#                Space group: Cm
#

%BLOCK LATTICE_ABC
      5.65760      5.66962      6.31520
    114.59416    114.52982     94.18625
%ENDBLOCK LATTICE_ABC

%BLOCK POSITIONS_FRAC
  Li  -0.3065858  -0.1523811  -0.5001448 SPIN=   0.00000
  Li   0.1935590   0.3477636   0.5001448 SPIN=   0.00000
   O   0.9066038   0.2293140   0.5951911 SPIN=   0.00000
   O   0.7107916   0.6276396   0.7561146 SPIN=   0.00000
   O   1.1072147   0.7150982   0.6970809 SPIN=   0.00000
   O   0.6511426   0.4266434   0.2945265 SPIN=   0.00000
   O   0.3114127  -0.3658771  -0.5951911 SPIN=   0.00000
   O  -0.0453230  -0.1284750  -0.7561146 SPIN=   0.00000
   O   0.4101337   0.0180173  -0.6970809 SPIN=   0.00000
   O   0.3566161   0.1321169  -0.2945265 SPIN=   0.00000
   P   0.0692293  -0.0094833   0.0000000 SPIN=   0.00000
   P   0.5464239   0.4676740   0.0000000 SPIN=   0.00000
  Fe  -0.4319440  -0.0311355  -0.0000000 SPIN=   4.00453
  Fe   0.0469853   0.4899527   0.0000000 SPIN=   3.99547
%ENDBLOCK POSITIONS_FRAC

# Note: total spin =   8.00

KPOINTS_MP_SPACING 0.07

%BLOCK SPECIES_POT
QC5
%ENDBLOCK SPECIES_POT

%BLOCK HUBBARD_U
Fe d:4.0
%ENDBLOCK HUBBARD_U

SNAP_TO_SYMMETRY
SYMMETRY_GENERATE

