#              Generated by Buildcell
#
# at 13:10:22 (GMT+0.0) 24th November 2020
# in /lustre/scratch/uccabz1/launch_tmp
# on node-c12b-020
# by uccabz1
#
# compiler GCC version 4.9.2
# options -cpp -iprefix /lustre/shared/ucl/apps/gcc/4.9.2/bin/../lib/gcc/x86_64-unknown-linux-gnu/4.9.2/ -mtune=corei7 -march=x86-64 -g -Og
#
# seed  -152798266 -1100234110 -1023491933  -410037692 -1348116889 -1553744767 -1185599565   838805606  -493798988  1677930338  -860343104  1031806197
#
#      Author: C. J. Pickard (cjp20@cam.ac.uk)
#                Space group: P-1
#

%BLOCK LATTICE_ABC
      4.85057      5.09786      7.29298
     73.48631     88.41117     68.26758
%ENDBLOCK LATTICE_ABC

%BLOCK POSITIONS_FRAC
  Li   0.2790691   0.4772032   0.1493432 SPIN=   0.00000
  Li  -0.2790691  -0.4772032  -0.1493432 SPIN=   0.00000
   O   0.2904719  -0.1081890  -0.1105867 SPIN=   0.00000
   O   0.1798203  -0.5669524  -0.1167163 SPIN=   0.00000
   O  -0.2194518  -0.0729086  -0.2403923 SPIN=   0.00000
   O   0.2245911  -0.2201520  -0.4268298 SPIN=   0.00000
   P   0.1292433  -0.2346647  -0.2200102 SPIN=   0.00000
   O  -0.2904719   0.1081890   0.1105867 SPIN=   0.00000
   O  -0.1798203   0.5669524   0.1167163 SPIN=   0.00000
   O   0.2194518   0.0729086   0.2403923 SPIN=   0.00000
   O  -0.2245911   0.2201520   0.4268298 SPIN=   0.00000
   P  -0.1292433   0.2346647   0.2200102 SPIN=   0.00000
  Fe  -0.3447825  -0.2318227   0.3296997 SPIN=   4.00000
  Fe   0.3447825   0.2318227  -0.3296997 SPIN=   4.00000
%ENDBLOCK POSITIONS_FRAC

# Note: total spin =   8.00

KPOINTS_MP_SPACING 0.07

%BLOCK SPECIES_POT
QC5
%ENDBLOCK SPECIES_POT

%BLOCK HUBBARD_U
Fe d:4.0
%ENDBLOCK HUBBARD_U

SNAP_TO_SYMMETRY
SYMMETRY_GENERATE

