#              Generated by Buildcell
#
# at 13:39:53 (GMT+0.0) 24th November 2020
# in /scratch/scratch/uccabz1/launch_tmp
# on node-a14f-024
# by uccabz1
#
# compiler GCC version 4.9.2
# options -cpp -iprefix /scratch/UCL/applications/gcc/4.9.2/bin/../lib/gcc/x86_64-unknown-linux-gnu/4.9.2/ -mtune=corei7 -march=x86-64 -g -O2
#
# seed  -391907445  -957250965    18399406    82174984 -1794718392 -1339013231  1471266971    72074083   881835847  -777955822  2040840939  1096317783
#
#      Author: C. J. Pickard (cjp20@cam.ac.uk)
#                Space group: P-1
#

%BLOCK LATTICE_ABC
      5.03440      5.24718      6.10610
     85.17469     86.67786     85.40654
%ENDBLOCK LATTICE_ABC

%BLOCK POSITIONS_FRAC
  Li   0.1628426   0.0177218  -0.3046113 SPIN=   0.00000
  Li  -0.1628426  -0.0177218   0.3046113 SPIN=   0.00000
   O  -0.2041380  -0.1073187  -0.0199082 SPIN=   0.00000
   O  -0.1327232  -0.2717591  -0.4101929 SPIN=   0.00000
   O  -0.5751206  -0.3020616  -0.2167760 SPIN=   0.00000
   O  -0.4272123   0.1286011  -0.3579952 SPIN=   0.00000
   P  -0.3289320  -0.1333460  -0.2401621 SPIN=   0.00000
   O   0.2041380   0.1073187   0.0199082 SPIN=   0.00000
   O   0.1327232   0.2717591   0.4101929 SPIN=   0.00000
   O   0.5751206   0.3020616   0.2167760 SPIN=   0.00000
   O   0.4272123  -0.1286011   0.3579952 SPIN=   0.00000
   P   0.3289320   0.1333460   0.2401621 SPIN=   0.00000
  Fe   0.0000000   0.5000000  -0.0000000 SPIN=   2.98641
  Fe  -0.5000000   0.5000000  -0.5000000 SPIN=   5.01359
%ENDBLOCK POSITIONS_FRAC

# Note: total spin =   8.00

KPOINTS_MP_SPACING 0.07

%BLOCK SPECIES_POT
QC5
%ENDBLOCK SPECIES_POT

%BLOCK HUBBARD_U
Fe d:4.0
%ENDBLOCK HUBBARD_U

SNAP_TO_SYMMETRY
SYMMETRY_GENERATE

