#              Generated by Buildcell
#
# at 16:36:51 (GMT+0.0) 26th November 2020
# in /lustre/scratch/uccabz1/launch_tmp
# on node-c12f-025
# by uccabz1
#
# compiler GCC version 4.9.2
# options -cpp -iprefix /lustre/shared/ucl/apps/gcc/4.9.2/bin/../lib/gcc/x86_64-unknown-linux-gnu/4.9.2/ -mtune=corei7 -march=x86-64 -g -Og
#
# seed -1400372382 -1913734657  1612350055     3355338 -1955931850   663790234  2143803579   157469263   659303522   -86568604 -1489897868  -850434562
#
#      Author: C. J. Pickard (cjp20@cam.ac.uk)
#                Space group: P2/c
#

%BLOCK LATTICE_ABC
      5.00263      8.18724      8.28271
    109.38966     90.00000     90.00000
%ENDBLOCK LATTICE_ABC

%BLOCK POSITIONS_FRAC
  Li  -0.3049042  -0.3953665   0.1305055 SPIN=   0.00000
  Li  -0.3049042   0.3953665   0.3694945 SPIN=   0.00000
  Li   0.3049042   0.3953665  -0.1305055 SPIN=   0.00000
  Li   0.3049042  -0.3953665  -0.3694945 SPIN=   0.00000
   O  -0.0538973  -0.3169926  -0.2347664 SPIN=   0.00000
   O  -0.4910909  -0.3539143  -0.0811138 SPIN=   0.00000
   O  -0.2467466  -0.0768700   0.0303023 SPIN=   0.00000
   O  -0.4867673  -0.1508443  -0.2501929 SPIN=   0.00000
   P  -0.3074493  -0.2287008  -0.1406829 SPIN=   0.00000
   O  -0.0538973   0.3169926  -0.2652336 SPIN=   0.00000
   O  -0.4910909   0.3539143  -0.4188862 SPIN=   0.00000
   O  -0.2467466   0.0768700  -0.5303023 SPIN=   0.00000
   O  -0.4867673   0.1508443  -0.2498071 SPIN=   0.00000
   P  -0.3074493   0.2287008  -0.3593171 SPIN=   0.00000
   O   0.0538973   0.3169926   0.2347664 SPIN=   0.00000
   O   0.4910909   0.3539143   0.0811138 SPIN=   0.00000
   O   0.2467466   0.0768700  -0.0303023 SPIN=   0.00000
   O   0.4867673   0.1508443   0.2501929 SPIN=   0.00000
   P   0.3074493   0.2287008   0.1406829 SPIN=   0.00000
   O   0.0538973  -0.3169926   0.2652336 SPIN=   0.00000
   O   0.4910909  -0.3539143   0.4188862 SPIN=   0.00000
   O   0.2467466  -0.0768700   0.5303023 SPIN=   0.00000
   O   0.4867673  -0.1508443   0.2498071 SPIN=   0.00000
   P   0.3074493  -0.2287008   0.3593171 SPIN=   0.00000
  Fe   0.1946431  -0.1868447   0.0358069 SPIN=   4.00000
  Fe   0.1946431   0.1868447   0.4641931 SPIN=   4.00000
  Fe  -0.1946431   0.1868447  -0.0358069 SPIN=   4.00000
  Fe  -0.1946431  -0.1868447  -0.4641931 SPIN=   4.00000
%ENDBLOCK POSITIONS_FRAC

# Note: total spin =  16.00

KPOINTS_MP_SPACING 0.07

%BLOCK SPECIES_POT
QC5
%ENDBLOCK SPECIES_POT

%BLOCK HUBBARD_U
Fe d:4.0
%ENDBLOCK HUBBARD_U

SNAP_TO_SYMMETRY
SYMMETRY_GENERATE

