#              Generated by Buildcell
#
# at 06:17:49 (GMT+0.0) 24th November 2020
# in /scratch/scratch/uccabz1/launch_tmp
# on node-a14c-007
# by uccabz1
#
# compiler GCC version 4.9.2
# options -cpp -iprefix /scratch/UCL/applications/gcc/4.9.2/bin/../lib/gcc/x86_64-unknown-linux-gnu/4.9.2/ -mtune=corei7 -march=x86-64 -g -O2
#
# seed   904229644  -224229428  -264151745  -955705276   979829706 -1549787340  1799933468  1786465775   388683489 -1097541268    69416224   678994403
#
#      Author: C. J. Pickard (cjp20@cam.ac.uk)
#                Space group: C2
#

%BLOCK LATTICE_ABC
      4.25057      4.25057      9.09647
     99.25856     99.25856     90.43477
%ENDBLOCK LATTICE_ABC

%BLOCK POSITIONS_FRAC
  Li   0.0516432  -0.0516432  -0.5000000 SPIN=   0.00000
  Li  -0.4492342   0.4492342   0.5000000 SPIN=   0.00000
   O  -0.4816900  -0.0135510  -0.1282093 SPIN=   0.00000
   O  -0.3804343   0.4598344  -0.2650937 SPIN=   0.00000
   O  -0.0091006   0.0156259  -0.2751257 SPIN=   0.00000
   P  -0.3680616   0.0897961  -0.2659467 SPIN=   0.00000
   O   0.0135510   0.4816900   0.1282093 SPIN=   0.00000
   O  -0.4598344   0.3804343   0.2650937 SPIN=   0.00000
   O  -0.0156259   0.0091006   0.2751257 SPIN=   0.00000
   P  -0.0897961   0.3680616   0.2659467 SPIN=   0.00000
   O   0.4699405  -0.4699405  -0.0000000 SPIN=   0.00000
   O   0.0625468  -0.0625468  -0.0000000 SPIN=   0.00000
  Fe   0.4488749  -0.1492625   0.2139702 SPIN=   4.00000
  Fe   0.1492625  -0.4488749  -0.2139702 SPIN=   4.00000
%ENDBLOCK POSITIONS_FRAC

# Note: total spin =   8.00

KPOINTS_MP_SPACING 0.07

%BLOCK SPECIES_POT
QC5
%ENDBLOCK SPECIES_POT

%BLOCK HUBBARD_U
Fe d:4.0
%ENDBLOCK HUBBARD_U

SNAP_TO_SYMMETRY
SYMMETRY_GENERATE

