#              Generated by Buildcell
#
# at 20:18:59 (GMT+0.0) 26th November 2020
# in /lustre/scratch/uccabz1/launch_tmp
# on node-c12i-035
# by uccabz1
#
# compiler GCC version 4.9.2
# options -cpp -iprefix /lustre/shared/ucl/apps/gcc/4.9.2/bin/../lib/gcc/x86_64-unknown-linux-gnu/4.9.2/ -mtune=corei7 -march=x86-64 -g -Og
#
# seed  1161822130 -2000134487   191195301  -109870422   -41768380   277520002   315456427 -1216917695 -1215148479  -432240131  1926417936 -1067361468
#
#      Author: C. J. Pickard (cjp20@cam.ac.uk)
#                Space group: Pba2
#

%BLOCK LATTICE_ABC
      4.00630      6.32239     12.63354
     90.00000     90.00000     90.00000
%ENDBLOCK LATTICE_ABC

%BLOCK POSITIONS_FRAC
  Li  -0.0288723  -0.4962406  -0.2485631 SPIN=   0.00000
  Li  -0.0288723   0.4962406   0.2485631 SPIN=   0.00000
  Li  -0.0288723   0.0037594  -0.2514369 SPIN=   0.00000
  Li  -0.0288723  -0.0037594   0.2514369 SPIN=   0.00000
   O   0.3171234  -0.2463073  -0.2510709 SPIN=   0.00000
   O   0.6861165  -0.4385777  -0.1120002 SPIN=   0.00000
   O   0.6862651  -0.0479306  -0.1142052 SPIN=   0.00000
   O   0.1783519  -0.2417866  -0.0514266 SPIN=   0.00000
   P   0.4555800  -0.2437701  -0.1375534 SPIN=   0.00000
   O   0.3171234   0.2463073   0.2510709 SPIN=   0.00000
   O   0.6861165   0.4385777   0.1120002 SPIN=   0.00000
   O   0.6862651   0.0479306   0.1142052 SPIN=   0.00000
   O   0.1783519   0.2417866   0.0514266 SPIN=   0.00000
   P   0.4555800   0.2437701   0.1375534 SPIN=   0.00000
   O   0.3171234   0.2536927  -0.2489291 SPIN=   0.00000
   O   0.6861165   0.0614223  -0.3879998 SPIN=   0.00000
   O   0.6862651   0.4520694  -0.3857948 SPIN=   0.00000
   O   0.1783519   0.2582134  -0.4485734 SPIN=   0.00000
   P   0.4555800   0.2562299  -0.3624466 SPIN=   0.00000
   O   0.3171234  -0.2536927   0.2489291 SPIN=   0.00000
   O   0.6861165  -0.0614223   0.3879998 SPIN=   0.00000
   O   0.6862651  -0.4520694   0.3857948 SPIN=   0.00000
   O   0.1783519  -0.2582134   0.4485734 SPIN=   0.00000
   P   0.4555800  -0.2562299   0.3624466 SPIN=   0.00000
  Fe   0.4711454  -0.2500693   0.0874897 SPIN=   4.00000
  Fe   0.4711454   0.2500693  -0.0874897 SPIN=   4.00000
  Fe   0.4711454   0.2499307   0.4125103 SPIN=   4.00000
  Fe   0.4711454  -0.2499307  -0.4125103 SPIN=   4.00000
%ENDBLOCK POSITIONS_FRAC

# Note: total spin =  16.00

KPOINTS_MP_SPACING 0.07

%BLOCK SPECIES_POT
QC5
%ENDBLOCK SPECIES_POT

%BLOCK HUBBARD_U
Fe d:4.0
%ENDBLOCK HUBBARD_U

SNAP_TO_SYMMETRY
SYMMETRY_GENERATE

