#              Generated by Buildcell
#
# at 13:26:38 (GMT+0.0) 24th November 2020
# in /lustre/scratch/uccabz1/launch_tmp
# on node-c12h-032
# by uccabz1
#
# compiler GCC version 4.9.2
# options -cpp -iprefix /lustre/shared/ucl/apps/gcc/4.9.2/bin/../lib/gcc/x86_64-unknown-linux-gnu/4.9.2/ -mtune=corei7 -march=x86-64 -g -Og
#
# seed   337085525  1065808453  2031775604    25113692 -1827734862   318753326  1664923603  -381858061  1048019553   892156233  1151783556  -858038942
#
#      Author: C. J. Pickard (cjp20@cam.ac.uk)
#                Space group: Pm
#

%BLOCK LATTICE_ABC
      4.02808      4.74861      8.37189
     90.00000     90.00000     92.35870
%ENDBLOCK LATTICE_ABC

%BLOCK POSITIONS_FRAC
  Li   0.3188651   0.3441970   0.5000000 SPIN=   0.00000
  Li   0.1565998   0.3390517   0.0000000 SPIN=   0.00000
   O   0.0783895   0.1426757  -0.2233041 SPIN=   0.00000
   O  -0.4246844   0.4415425  -0.1484495 SPIN=   0.00000
   O   0.0104312   0.6548850  -0.3235423 SPIN=   0.00000
   P  -0.1650739   0.3630048  -0.2798128 SPIN=   0.00000
   O   0.0783895   0.1426757   0.2233041 SPIN=   0.00000
   O  -0.4246844   0.4415425   0.1484495 SPIN=   0.00000
   O   0.0104312   0.6548850   0.3235423 SPIN=   0.00000
   P  -0.1650739   0.3630048   0.2798128 SPIN=   0.00000
   O  -0.4816221  -0.2402442   0.5000000 SPIN=   0.00000
   O  -0.1865547   0.2231765  -0.5000000 SPIN=   0.00000
  Fe   0.4520533  -0.1510665  -0.2338363 SPIN=   4.00000
  Fe   0.4520533  -0.1510665   0.2338363 SPIN=   4.00000
%ENDBLOCK POSITIONS_FRAC

# Note: total spin =   8.00

KPOINTS_MP_SPACING 0.07

%BLOCK SPECIES_POT
QC5
%ENDBLOCK SPECIES_POT

%BLOCK HUBBARD_U
Fe d:4.0
%ENDBLOCK HUBBARD_U

SNAP_TO_SYMMETRY
SYMMETRY_GENERATE

