#              Generated by Buildcell
#
# at 14:30:12 (GMT+0.0) 26th November 2020
# in /lustre/scratch/uccabz1/launch_tmp
# on node-c12f-024
# by uccabz1
#
# compiler GCC version 4.9.2
# options -cpp -iprefix /lustre/shared/ucl/apps/gcc/4.9.2/bin/../lib/gcc/x86_64-unknown-linux-gnu/4.9.2/ -mtune=corei7 -march=x86-64 -g -Og
#
# seed   816593037  1563795074  1524144824  -436084395  1038267557 -1633903153  2137333511  1258243115  1827847919 -1879179683   939541171  1903276689
#
#      Author: C. J. Pickard (cjp20@cam.ac.uk)
#                Space group: P-1
#

%BLOCK LATTICE_ABC
      5.94002      6.15610      9.37114
     99.63834     93.79481    107.35278
%ENDBLOCK LATTICE_ABC

%BLOCK POSITIONS_FRAC
  Li   0.2643291   0.1058810  -0.4478714 SPIN=   0.00000
  Li  -0.2643291  -0.1058810   0.4478714 SPIN=   0.00000
  Li  -0.3244363   0.0374948  -0.2340089 SPIN=   0.00000
  Li   0.3244363  -0.0374948   0.2340089 SPIN=   0.00000
   O   0.5991993  -0.2807735  -0.3858960 SPIN=   0.00000
   O   0.1601587  -0.5482412  -0.4342682 SPIN=   0.00000
   O   0.2447272  -0.1392140  -0.3126175 SPIN=   0.00000
   O   0.2927973  -0.2331851  -0.5771129 SPIN=   0.00000
   P   0.3384910  -0.2985183  -0.4270258 SPIN=   0.00000
   O  -0.5991993   0.2807735   0.3858960 SPIN=   0.00000
   O  -0.1601587   0.5482412   0.4342682 SPIN=   0.00000
   O  -0.2447272   0.1392140   0.3126175 SPIN=   0.00000
   O  -0.2927973   0.2331851   0.5771129 SPIN=   0.00000
   P  -0.3384910   0.2985183   0.4270258 SPIN=   0.00000
   O  -0.5042700   0.2033817   0.1087824 SPIN=   0.00000
   O  -0.3356672   0.3588385  -0.1162586 SPIN=   0.00000
   O  -0.1004522   0.5275952   0.1257572 SPIN=   0.00000
   O  -0.1384001   0.1203789   0.0067948 SPIN=   0.00000
   P  -0.2806378   0.2951186   0.0351073 SPIN=   0.00000
   O   0.5042700  -0.2033817  -0.1087824 SPIN=   0.00000
   O   0.3356672  -0.3588385   0.1162586 SPIN=   0.00000
   O   0.1004522  -0.5275952  -0.1257572 SPIN=   0.00000
   O   0.1384001  -0.1203789  -0.0067948 SPIN=   0.00000
   P   0.2806378  -0.2951186  -0.0351073 SPIN=   0.00000
  Fe  -0.0924647  -0.4320515  -0.2959504 SPIN=   2.57958
  Fe   0.0924647   0.4320515   0.2959504 SPIN=   2.57958
  Fe  -0.2399015  -0.2066710   0.0919799 SPIN=   5.42042
  Fe   0.2399015   0.2066710  -0.0919799 SPIN=   5.42042
%ENDBLOCK POSITIONS_FRAC

# Note: total spin =  16.00

KPOINTS_MP_SPACING 0.07

%BLOCK SPECIES_POT
QC5
%ENDBLOCK SPECIES_POT

%BLOCK HUBBARD_U
Fe d:4.0
%ENDBLOCK HUBBARD_U

SNAP_TO_SYMMETRY
SYMMETRY_GENERATE

