#              Generated by Buildcell
#
# at 13:00:07 (GMT+0.0) 26th November 2020
# in /lustre/scratch/uccabz1/launch_tmp
# on node-c12c-020
# by uccabz1
#
# compiler GCC version 4.9.2
# options -cpp -iprefix /lustre/shared/ucl/apps/gcc/4.9.2/bin/../lib/gcc/x86_64-unknown-linux-gnu/4.9.2/ -mtune=corei7 -march=x86-64 -g -Og
#
# seed   765233297 -1658380604   -15214047  1669714410  1671277958  2035709004   431424345   168173560  1312151638 -1701760669  1418942484   761316534
#
#      Author: C. J. Pickard (cjp20@cam.ac.uk)
#                Space group: C2
#

%BLOCK LATTICE_ABC
      6.92412      7.64557      7.64557
     89.02982     64.11820     64.11820
%ENDBLOCK LATTICE_ABC

%BLOCK POSITIONS_FRAC
  Li   0.4950242  -0.0872715   0.3673696 SPIN=   0.00000
  Li  -0.4950242  -0.3673696   0.0872715 SPIN=   0.00000
  Li  -0.4147915   0.1459669   0.0479601 SPIN=   0.00000
  Li   0.4147915  -0.0479601  -0.1459669 SPIN=   0.00000
   O  -0.5447518  -0.2148831  -0.3820922 SPIN=   0.00000
   O  -0.1953124  -0.4306734  -0.3010256 SPIN=   0.00000
   O  -0.5691747  -0.4661580  -0.1509586 SPIN=   0.00000
   O  -0.2825899  -0.5951917  -0.5167542 SPIN=   0.00000
   P  -0.4044118  -0.4174350  -0.3421839 SPIN=   0.00000
   O   0.5447518   0.3820922   0.2148831 SPIN=   0.00000
   O   0.1953124   0.3010256   0.4306734 SPIN=   0.00000
   O   0.5691747   0.1509586   0.4661580 SPIN=   0.00000
   O   0.2825899   0.5167542   0.5951917 SPIN=   0.00000
   P   0.4044118   0.3421839   0.4174350 SPIN=   0.00000
   O   0.2394063   0.1479912   0.1289719 SPIN=   0.00000
   O   0.2445072   0.2852251  -0.1853426 SPIN=   0.00000
   O  -0.1247192   0.4658417   0.1394470 SPIN=   0.00000
   P   0.1604654   0.3345049   0.0430803 SPIN=   0.00000
   O  -0.2394063  -0.1289719  -0.1479912 SPIN=   0.00000
   O  -0.2445072   0.1853426  -0.2852251 SPIN=   0.00000
   O   0.1247192  -0.1394470  -0.4658417 SPIN=   0.00000
   P  -0.1604654  -0.0430803  -0.3345049 SPIN=   0.00000
   O   0.0000000   0.0515216  -0.0515216 SPIN=   0.00000
   O   0.0000000  -0.1821556   0.1821556 SPIN=   0.00000
  Fe  -0.0857720   0.1332230   0.2829432 SPIN=   1.02015
  Fe   0.0857720  -0.2829432  -0.1332230 SPIN=   1.02015
  Fe  -0.0000000  -0.3812506   0.3812506 SPIN=   7.86961
  Fe   0.0000000   0.2593418  -0.2593418 SPIN=   6.09009
%ENDBLOCK POSITIONS_FRAC

# Note: total spin =  16.00

KPOINTS_MP_SPACING 0.07

%BLOCK SPECIES_POT
QC5
%ENDBLOCK SPECIES_POT

%BLOCK HUBBARD_U
Fe d:4.0
%ENDBLOCK HUBBARD_U

SNAP_TO_SYMMETRY
SYMMETRY_GENERATE

