#              Generated by Buildcell
#
# at 11:35:02 (GMT+0.0) 24th November 2020
# in /lustre/scratch/uccabz1/launch_tmp
# on node-c12c-032
# by uccabz1
#
# compiler GCC version 4.9.2
# options -cpp -iprefix /lustre/shared/ucl/apps/gcc/4.9.2/bin/../lib/gcc/x86_64-unknown-linux-gnu/4.9.2/ -mtune=corei7 -march=x86-64 -g -Og
#
# seed  -988659839 -1892565078   633347958  1182310055  -262999444 -2095157844  1132672160 -1213528115  -755539016    39195041  -465300408  -103473448
#
#      Author: C. J. Pickard (cjp20@cam.ac.uk)
#                Space group: C2221
#

%BLOCK LATTICE_ABC
      4.43721      4.43721      8.73978
     90.00000     90.00000    111.59313
%ENDBLOCK LATTICE_ABC

%BLOCK POSITIONS_FRAC
  Li   0.1656467  -0.1656467  -0.2500000 SPIN=   0.00000
  Li  -0.1656467   0.1656467   0.2500000 SPIN=   0.00000
   O  -0.2233901  -0.2942906   0.1618017 SPIN=   0.00000
   O  -0.0944432   0.2454243   0.0127967 SPIN=   0.00000
   O   0.2233901   0.2942906  -0.3381983 SPIN=   0.00000
   O   0.0944432  -0.2454243  -0.4872033 SPIN=   0.00000
   O   0.2942906   0.2233901   0.3381983 SPIN=   0.00000
   O  -0.2454243   0.0944432   0.4872033 SPIN=   0.00000
   O  -0.2942906  -0.2233901  -0.1618017 SPIN=   0.00000
   O   0.2454243  -0.0944432  -0.0127967 SPIN=   0.00000
   P  -0.1999678   0.1999678  -0.2500000 SPIN=   0.00000
   P   0.1999678  -0.1999678   0.2500000 SPIN=   0.00000
  Fe   0.4346106   0.4346106  -0.0000000 SPIN=   4.00000
  Fe  -0.4346106  -0.4346106  -0.5000000 SPIN=   4.00000
%ENDBLOCK POSITIONS_FRAC

# Note: total spin =   8.00

KPOINTS_MP_SPACING 0.07

%BLOCK SPECIES_POT
QC5
%ENDBLOCK SPECIES_POT

%BLOCK HUBBARD_U
Fe d:4.0
%ENDBLOCK HUBBARD_U

SNAP_TO_SYMMETRY
SYMMETRY_GENERATE

