#              Generated by Buildcell
#
# at 12:41:59 (GMT+0.0) 26th November 2020
# in /lustre/scratch/uccabz1/launch_tmp
# on node-c12j-030
# by uccabz1
#
# compiler GCC version 4.9.2
# options -cpp -iprefix /lustre/shared/ucl/apps/gcc/4.9.2/bin/../lib/gcc/x86_64-unknown-linux-gnu/4.9.2/ -mtune=corei7 -march=x86-64 -g -Og
#
# seed  1154907418 -1799205853  1429543951  1367538550  -970223994   832796274  1961690303   373896665  -615808254  1922428489    26803242  -500211660
#
#      Author: C. J. Pickard (cjp20@cam.ac.uk)
#                Space group: P21212
#

%BLOCK LATTICE_ABC
      5.70158      5.84064      9.60936
     90.00000     90.00000     90.00000
%ENDBLOCK LATTICE_ABC

%BLOCK POSITIONS_FRAC
  Li  -0.3311145  -0.2499245   0.0412982 SPIN=   0.00000
  Li  -0.3311145   0.2499245  -0.0412982 SPIN=   0.00000
  Li   0.3311145   0.2500755   0.4587018 SPIN=   0.00000
  Li   0.3311145  -0.2500755  -0.4587018 SPIN=   0.00000
   O  -0.3247090  -0.3145973  -0.3897240 SPIN=   0.00000
   O  -0.2462588  -0.0978968  -0.1582409 SPIN=   0.00000
   O  -0.5152754  -0.4293068  -0.1542387 SPIN=   0.00000
   O  -0.0850012  -0.4934671  -0.1892225 SPIN=   0.00000
   P  -0.2920571  -0.3346777  -0.2313445 SPIN=   0.00000
   O  -0.3247090   0.3145973   0.3897240 SPIN=   0.00000
   O  -0.2462588   0.0978968   0.1582409 SPIN=   0.00000
   O  -0.5152754   0.4293068   0.1542387 SPIN=   0.00000
   O  -0.0850012   0.4934671   0.1892225 SPIN=   0.00000
   P  -0.2920571   0.3346777   0.2313445 SPIN=   0.00000
   O   0.3247090   0.1854027  -0.1102760 SPIN=   0.00000
   O   0.2462588   0.4021032  -0.3417591 SPIN=   0.00000
   O   0.5152754   0.0706932  -0.3457613 SPIN=   0.00000
   O   0.0850012   0.0065329  -0.3107775 SPIN=   0.00000
   P   0.2920571   0.1653223  -0.2686555 SPIN=   0.00000
   O   0.3247090  -0.1854027   0.1102760 SPIN=   0.00000
   O   0.2462588  -0.4021032   0.3417591 SPIN=   0.00000
   O   0.5152754  -0.0706932   0.3457613 SPIN=   0.00000
   O   0.0850012  -0.0065329   0.3107775 SPIN=   0.00000
   P   0.2920571  -0.1653223   0.2686555 SPIN=   0.00000
  Fe   0.1691196  -0.2505412  -0.1317834 SPIN=   4.00000
  Fe   0.1691196   0.2505412   0.1317834 SPIN=   4.00000
  Fe  -0.1691196   0.2494588  -0.3682166 SPIN=   4.00000
  Fe  -0.1691196  -0.2494588   0.3682166 SPIN=   4.00000
%ENDBLOCK POSITIONS_FRAC

# Note: total spin =  16.00

KPOINTS_MP_SPACING 0.07

%BLOCK SPECIES_POT
QC5
%ENDBLOCK SPECIES_POT

%BLOCK HUBBARD_U
Fe d:4.0
%ENDBLOCK HUBBARD_U

SNAP_TO_SYMMETRY
SYMMETRY_GENERATE

