#              Generated by Buildcell
#
# at 10:37:28 (GMT+0.0) 24th November 2020
# in /lustre/scratch/uccabz1/launch_tmp
# on node-c12m-033
# by uccabz1
#
# compiler GCC version 4.9.2
# options -cpp -iprefix /lustre/shared/ucl/apps/gcc/4.9.2/bin/../lib/gcc/x86_64-unknown-linux-gnu/4.9.2/ -mtune=corei7 -march=x86-64 -g -Og
#
# seed  1770125076 -2096043968   482053683  -336126228 -1459507331  -507238408 -1876876368  -979982459  -376224351  2045361921  -714452069  -624257512
#
#      Author: C. J. Pickard (cjp20@cam.ac.uk)
#                Space group: Cc
#

%BLOCK LATTICE_ABC
      4.82224      6.05307      6.60898
     62.74555     80.51222     68.90279
%ENDBLOCK LATTICE_ABC

%BLOCK POSITIONS_FRAC
  Li   0.2166467  -0.3835529  -0.2005324 SPIN=   0.00000
  Li  -0.2833533   0.4159148   0.2005324 SPIN=   0.00000
   O   0.6254117   0.0634413   0.4143489 SPIN=   0.00000
   O   0.1767281   0.3420676   0.1361924 SPIN=   0.00000
   O   0.5052163  -0.0757260   0.1296064 SPIN=   0.00000
   O   0.1688969  -0.0844684   0.4632739 SPIN=   0.00000
   P   0.3803503   0.0597206   0.2947908 SPIN=   0.00000
   O   0.1254117   0.4777902  -0.4143489 SPIN=   0.00000
   O  -0.3232719   0.4782600  -0.1361924 SPIN=   0.00000
   O   0.0052163   0.0538804  -0.1296064 SPIN=   0.00000
   O  -0.3311031   0.3788055  -0.4632739 SPIN=   0.00000
   P  -0.1196497   0.3545114  -0.2947908 SPIN=   0.00000
  Fe   0.0040431  -0.1985321   0.2638038 SPIN=   4.00000
  Fe  -0.4959569   0.0652717  -0.2638038 SPIN=   4.00000
%ENDBLOCK POSITIONS_FRAC

# Note: total spin =   8.00

KPOINTS_MP_SPACING 0.07

%BLOCK SPECIES_POT
QC5
%ENDBLOCK SPECIES_POT

%BLOCK HUBBARD_U
Fe d:4.0
%ENDBLOCK HUBBARD_U

SNAP_TO_SYMMETRY
SYMMETRY_GENERATE

