#              Generated by Buildcell
#
# at 10:46:35 (GMT+0.0) 24th November 2020
# in /scratch/scratch/uccabz1/launch_tmp
# on node-k10i-025
# by uccabz1
#
# compiler GCC version 4.9.2
# options -cpp -iprefix /scratch/UCL/applications/gcc/4.9.2/bin/../lib/gcc/x86_64-unknown-linux-gnu/4.9.2/ -mtune=corei7 -march=x86-64 -g -O2
#
# seed  1512904353  -388794642   418235954 -1054413422  1908680586 -1614012051  1830573513   910451217 -1042787708    64722475  2110030918  -270822259
#
#      Author: C. J. Pickard (cjp20@cam.ac.uk)
#                Space group: C2
#

%BLOCK LATTICE_ABC
      5.40404      5.40404      6.40816
    103.82715    103.82715    109.90384
%ENDBLOCK LATTICE_ABC

%BLOCK POSITIONS_FRAC
  Li  -0.4348652   0.4348652   0.5000000 SPIN=   0.00000
  Li  -0.1477908   0.1477908  -0.0000000 SPIN=   0.00000
   O   0.1964264   0.1011309   0.2022186 SPIN=   0.00000
   O   0.4075481  -0.0889330  -0.0894663 SPIN=   0.00000
   O   0.7072061   0.3689615   0.2224367 SPIN=   0.00000
   O   0.5815083  -0.0727563   0.3147170 SPIN=   0.00000
   O  -0.1011309  -0.1964264  -0.2022186 SPIN=   0.00000
   O   0.0889330  -0.4075481   0.0894663 SPIN=   0.00000
   O  -0.3689615  -0.7072061  -0.2224367 SPIN=   0.00000
   O   0.0727563  -0.5815083  -0.3147170 SPIN=   0.00000
   P   0.1552097  -0.1552097  -0.0000000 SPIN=   0.00000
   P  -0.1309563   0.1309563   0.5000000 SPIN=   0.00000
  Fe   0.4783833  -0.4783833   0.0000000 SPIN=   5.52280
  Fe   0.1931109  -0.1931109  -0.5000000 SPIN=   2.47720
%ENDBLOCK POSITIONS_FRAC

# Note: total spin =   8.00

KPOINTS_MP_SPACING 0.07

%BLOCK SPECIES_POT
QC5
%ENDBLOCK SPECIES_POT

%BLOCK HUBBARD_U
Fe d:4.0
%ENDBLOCK HUBBARD_U

SNAP_TO_SYMMETRY
SYMMETRY_GENERATE

