#              Generated by Buildcell
#
# at 06:58:57 (GMT+0.0) 26th November 2020
# in /scratch/scratch/mmm0366/launch_tmp
# on node-k98p-033
# by mmm0366
#
# compiler GCC version 4.9.2
# options -cpp -iprefix /scratch/UCL/applications/gcc/4.9.2/bin/../lib/gcc/x86_64-unknown-linux-gnu/4.9.2/ -mtune=corei7 -march=x86-64 -g -O2
#
# seed   -85409648 -1983700507  1976226701 -1138877293  1235989972  1800394309 -1025784637  1320692013  -834302320  1340317966  1646720034    67331498
#
#      Author: C. J. Pickard (cjp20@cam.ac.uk)
#                Space group: C2
#

%BLOCK LATTICE_ABC
      6.26118      7.56107      7.56107
    110.59408     99.72093     99.72093
%ENDBLOCK LATTICE_ABC

%BLOCK POSITIONS_FRAC
  Li   0.3915827  -0.4621108   0.0994052 SPIN=   0.00000
  Li  -0.3915827  -0.0994052   0.4621108 SPIN=   0.00000
  Li   0.5000000   0.2218048  -0.2218048 SPIN=   0.00000
  Li   0.0000000   0.4026343  -0.4026343 SPIN=   0.00000
   O  -0.5359355  -0.4996719  -0.1992744 SPIN=   0.00000
   O  -0.2093651  -0.2150253  -0.1591413 SPIN=   0.00000
   O  -0.2963814  -0.2437047   0.1378100 SPIN=   0.00000
   O  -0.1228583  -0.4884642  -0.0692703 SPIN=   0.00000
   P  -0.3021837  -0.3705577  -0.0791830 SPIN=   0.00000
   O   0.5359355   0.1992744   0.4996719 SPIN=   0.00000
   O   0.2093651   0.1591413   0.2150253 SPIN=   0.00000
   O   0.2963814  -0.1378100   0.2437047 SPIN=   0.00000
   O   0.1228583   0.0692703   0.4884642 SPIN=   0.00000
   P   0.3021837   0.0791830   0.3705577 SPIN=   0.00000
   O  -0.0660148  -0.2529263  -0.4493729 SPIN=   0.00000
   O   0.1703561  -0.3203182  -0.1738554 SPIN=   0.00000
   O   0.3443690  -0.2806322  -0.4318292 SPIN=   0.00000
   O   0.2676548   0.0093756  -0.1866746 SPIN=   0.00000
   P   0.1670857  -0.2107488  -0.3163704 SPIN=   0.00000
   O   0.0660148   0.4493729   0.2529263 SPIN=   0.00000
   O  -0.1703561   0.1738554   0.3203182 SPIN=   0.00000
   O  -0.3443690   0.4318292   0.2806322 SPIN=   0.00000
   O  -0.2676548   0.1866746  -0.0093756 SPIN=   0.00000
   P  -0.1670857   0.3163704   0.2107488 SPIN=   0.00000
  Fe   0.0000000   0.1370282  -0.1370282 SPIN=   3.34592
  Fe  -0.5000000  -0.0461593   0.0461593 SPIN=  -0.00000
  Fe  -0.5000000   0.4859151  -0.4859151 SPIN=   6.77480
  Fe   0.0000000  -0.2818672   0.2818672 SPIN=   5.87929
%ENDBLOCK POSITIONS_FRAC

# Note: total spin =  16.00

KPOINTS_MP_SPACING 0.07

%BLOCK SPECIES_POT
QC5
%ENDBLOCK SPECIES_POT

%BLOCK HUBBARD_U
Fe d:4.0
%ENDBLOCK HUBBARD_U

SNAP_TO_SYMMETRY
SYMMETRY_GENERATE

