#              Generated by Buildcell
#
# at 11:35:45 (GMT+0.0) 24th November 2020
# in /lustre/scratch/uccabz1/launch_tmp
# on node-c12p-030
# by uccabz1
#
# compiler GCC version 4.9.2
# options -cpp -iprefix /lustre/shared/ucl/apps/gcc/4.9.2/bin/../lib/gcc/x86_64-unknown-linux-gnu/4.9.2/ -mtune=corei7 -march=x86-64 -g -Og
#
# seed   209254205  1170614813 -1305288488   725489170  -586863050  -544570634  -657260901  1464403372 -1895219466  -755142382  -597791588  -414891258
#
#      Author: C. J. Pickard (cjp20@cam.ac.uk)
#                Space group: Cc
#

%BLOCK LATTICE_ABC
      4.16297      5.26797      8.21180
     83.23507     75.31676     66.72649
%ENDBLOCK LATTICE_ABC

%BLOCK POSITIONS_FRAC
  Li  -0.2187399   0.2676816   0.1698130 SPIN=   0.00000
  Li   0.2812453  -0.2323184  -0.3301870 SPIN=   0.00000
   O   0.3367334   0.1737179  -0.3195967 SPIN=   0.00000
   O  -0.0168799   0.0192267  -0.0448554 SPIN=   0.00000
   O   0.0429703   0.4683984  -0.0498135 SPIN=   0.00000
   O  -0.3509864   0.4134859  -0.2171227 SPIN=   0.00000
   P   0.0165542   0.2653580  -0.1671589 SPIN=   0.00000
   O   0.3091454  -0.3262821   0.1804033 SPIN=   0.00000
   O   0.5425086  -0.4807733   0.4551446 SPIN=   0.00000
   O   0.0384447  -0.0316016   0.4501865 SPIN=   0.00000
   O   0.6546232  -0.0865141   0.2828773 SPIN=   0.00000
   P   0.3852467  -0.2346420   0.3328411 SPIN=   0.00000
  Fe   0.0782284   0.3661754   0.4773941 SPIN=   4.00000
  Fe  -0.4217979  -0.1338246  -0.0226059 SPIN=   4.00000
%ENDBLOCK POSITIONS_FRAC

# Note: total spin =   8.00

KPOINTS_MP_SPACING 0.07

%BLOCK SPECIES_POT
QC5
%ENDBLOCK SPECIES_POT

%BLOCK HUBBARD_U
Fe d:4.0
%ENDBLOCK HUBBARD_U

SNAP_TO_SYMMETRY
SYMMETRY_GENERATE

