#              Generated by Buildcell
#
# at 07:35:38 (GMT+0.0) 24th November 2020
# in /lustre/scratch/uccabz1/launch_tmp
# on node-c12a-028
# by uccabz1
#
# compiler GCC version 4.9.2
# options -cpp -iprefix /lustre/shared/ucl/apps/gcc/4.9.2/bin/../lib/gcc/x86_64-unknown-linux-gnu/4.9.2/ -mtune=corei7 -march=x86-64 -g -Og
#
# seed  -757846594  1210844393  -147651476  -354850276  -506669903  1876755535 -1749797701 -1566463978 -1828444490 -1841322305  1550409453  -202964896
#
#      Author: C. J. Pickard (cjp20@cam.ac.uk)
#                Space group: Cmc21
#

%BLOCK LATTICE_ABC
      5.25400      5.25400      6.01929
     90.00000     90.00000    105.64997
%ENDBLOCK LATTICE_ABC

%BLOCK POSITIONS_FRAC
  Li  -0.0255060   0.0255060  -0.2912451 SPIN=   0.00000
  Li   0.0255060  -0.0255060   0.2087549 SPIN=   0.00000
   O  -0.3045361  -0.3062908   0.0749487 SPIN=   0.00000
   O  -0.4228388   0.0338713  -0.1913900 SPIN=   0.00000
   O   0.3045361   0.3062908   0.5749487 SPIN=   0.00000
   O   0.4228388  -0.0338713   0.3086100 SPIN=   0.00000
   O  -0.3062908  -0.3045361   0.5749487 SPIN=   0.00000
   O   0.0338713  -0.4228388   0.3086100 SPIN=   0.00000
   O   0.3062908   0.3045361   0.0749487 SPIN=   0.00000
   O  -0.0338713   0.4228388  -0.1913900 SPIN=   0.00000
   P  -0.3100584   0.3100584  -0.0838010 SPIN=   0.00000
   P   0.3100584  -0.3100584   0.4161990 SPIN=   0.00000
  Fe   0.3476898  -0.3476898  -0.1098940 SPIN=   4.00000
  Fe  -0.3476898   0.3476898   0.3901060 SPIN=   4.00000
%ENDBLOCK POSITIONS_FRAC

# Note: total spin =   8.00

KPOINTS_MP_SPACING 0.07

%BLOCK SPECIES_POT
QC5
%ENDBLOCK SPECIES_POT

%BLOCK HUBBARD_U
Fe d:4.0
%ENDBLOCK HUBBARD_U

SNAP_TO_SYMMETRY
SYMMETRY_GENERATE

