#              Generated by Buildcell
#
# at 11:53:08 (GMT+0.0) 24th November 2020
# in /lustre/scratch/uccabz1/launch_tmp
# on node-c12k-030
# by uccabz1
#
# compiler GCC version 4.9.2
# options -cpp -iprefix /lustre/shared/ucl/apps/gcc/4.9.2/bin/../lib/gcc/x86_64-unknown-linux-gnu/4.9.2/ -mtune=corei7 -march=x86-64 -g -Og
#
# seed  -370658696 -1429563849   774154610 -1717365325 -1430108791  -218549515   959692489  -664064615  1875741660 -2145405154   -18179861  -716178454
#
#      Author: C. J. Pickard (cjp20@cam.ac.uk)
#                Space group: P-1
#

%BLOCK LATTICE_ABC
      4.70128      4.72632      7.83638
     77.70035     83.64416     70.27430
%ENDBLOCK LATTICE_ABC

%BLOCK POSITIONS_FRAC
  Li  -0.4213469  -0.3623725   0.2604930 SPIN=   0.00000
  Li   0.4213469   0.3623725  -0.2604930 SPIN=   0.00000
   O  -0.2784802  -0.4169175   0.0012232 SPIN=   0.00000
   O  -0.1617434   0.0048933  -0.2398951 SPIN=   0.00000
   O  -0.0430689  -0.5120595  -0.3057693 SPIN=   0.00000
   O  -0.5838288  -0.1842832  -0.2782729 SPIN=   0.00000
   P  -0.2711448  -0.2834415  -0.1955187 SPIN=   0.00000
   O   0.2784802   0.4169175  -0.0012232 SPIN=   0.00000
   O   0.1617434  -0.0048933   0.2398951 SPIN=   0.00000
   O   0.0430689   0.5120595   0.3057693 SPIN=   0.00000
   O   0.5838288   0.1842832   0.2782729 SPIN=   0.00000
   P   0.2711448   0.2834415   0.1955187 SPIN=   0.00000
  Fe   0.0000000  -0.0000000  -0.5000000 SPIN=   4.67237
  Fe   0.0000000  -0.0000000  -0.0000000 SPIN=   3.32763
%ENDBLOCK POSITIONS_FRAC

# Note: total spin =   8.00

KPOINTS_MP_SPACING 0.07

%BLOCK SPECIES_POT
QC5
%ENDBLOCK SPECIES_POT

%BLOCK HUBBARD_U
Fe d:4.0
%ENDBLOCK HUBBARD_U

SNAP_TO_SYMMETRY
SYMMETRY_GENERATE

