#              Generated by Buildcell
#
# at 20:20:13 (GMT+0.0) 26th November 2020
# in /scratch/scratch/uccabz1/launch_tmp
# on node-k10e-015
# by uccabz1
#
# compiler GCC version 4.9.2
# options -cpp -iprefix /scratch/UCL/applications/gcc/4.9.2/bin/../lib/gcc/x86_64-unknown-linux-gnu/4.9.2/ -mtune=corei7 -march=x86-64 -g -O2
#
# seed   445587228  1129828126 -1272164500   776031831  -710218079   207192064 -2085679785  -466615837  -699931769  -656089268  1258234311   371579728
#
#      Author: C. J. Pickard (cjp20@cam.ac.uk)
#                Space group: Pcc2
#

%BLOCK LATTICE_ABC
      6.00765      6.21713      8.56753
     90.00000     90.00000     90.00000
%ENDBLOCK LATTICE_ABC

%BLOCK POSITIONS_FRAC
  Li  -0.2380580   0.1720608   0.4026076 SPIN=   0.00000
  Li   0.2380580  -0.1720608   0.4026076 SPIN=   0.00000
  Li   0.2380580   0.1720608  -0.0973924 SPIN=   0.00000
  Li  -0.2380580  -0.1720608  -0.0973924 SPIN=   0.00000
   O   0.3477804   0.3699771  -0.2790989 SPIN=   0.00000
   O   0.4219482   0.1825632  -0.5451019 SPIN=   0.00000
   O   0.2043806  -0.0133302  -0.3460234 SPIN=   0.00000
   O   0.0354378   0.3046744  -0.4807775 SPIN=   0.00000
   P   0.2549058   0.2205432  -0.4064369 SPIN=   0.00000
   O  -0.3477804  -0.3699771  -0.2790989 SPIN=   0.00000
   O  -0.4219482  -0.1825632  -0.5451019 SPIN=   0.00000
   O  -0.2043806   0.0133302  -0.3460234 SPIN=   0.00000
   O  -0.0354378  -0.3046744  -0.4807775 SPIN=   0.00000
   P  -0.2549058  -0.2205432  -0.4064369 SPIN=   0.00000
   O  -0.3477804   0.3699771   0.2209011 SPIN=   0.00000
   O  -0.4219482   0.1825632  -0.0451019 SPIN=   0.00000
   O  -0.2043806  -0.0133302   0.1539766 SPIN=   0.00000
   O  -0.0354378   0.3046744   0.0192225 SPIN=   0.00000
   P  -0.2549058   0.2205432   0.0935631 SPIN=   0.00000
   O   0.3477804  -0.3699771   0.2209011 SPIN=   0.00000
   O   0.4219482  -0.1825632  -0.0451019 SPIN=   0.00000
   O   0.2043806   0.0133302   0.1539766 SPIN=   0.00000
   O   0.0354378  -0.3046744   0.0192225 SPIN=   0.00000
   P   0.2549058  -0.2205432   0.0935631 SPIN=   0.00000
  Fe  -0.2504618  -0.3123893   0.2659303 SPIN=   4.00000
  Fe   0.2504618   0.3123893   0.2659303 SPIN=   4.00000
  Fe   0.2504618  -0.3123893  -0.2340697 SPIN=   4.00000
  Fe  -0.2504618   0.3123893  -0.2340697 SPIN=   4.00000
%ENDBLOCK POSITIONS_FRAC

# Note: total spin =  16.00

KPOINTS_MP_SPACING 0.07

%BLOCK SPECIES_POT
QC5
%ENDBLOCK SPECIES_POT

%BLOCK HUBBARD_U
Fe d:4.0
%ENDBLOCK HUBBARD_U

SNAP_TO_SYMMETRY
SYMMETRY_GENERATE

