#              Generated by Buildcell
#
# at 16:21:36 (GMT+0.0) 26th November 2020
# in /lustre/scratch/uccabz1/launch_tmp
# on node-c12c-023
# by uccabz1
#
# compiler GCC version 4.9.2
# options -cpp -iprefix /lustre/shared/ucl/apps/gcc/4.9.2/bin/../lib/gcc/x86_64-unknown-linux-gnu/4.9.2/ -mtune=corei7 -march=x86-64 -g -Og
#
# seed   125358248 -1446000535  -333642299  1869145641   602150391 -1774820227  1389963712  -117265598 -1257473484  1534408504 -1557562274  1048219414
#
#      Author: C. J. Pickard (cjp20@cam.ac.uk)
#                Space group: Pmn21
#

%BLOCK LATTICE_ABC
      4.84124      7.57686      8.72376
     90.00000     90.00000     90.00000
%ENDBLOCK LATTICE_ABC

%BLOCK POSITIONS_FRAC
  Li   0.4336822  -0.5000000  -0.2270668 SPIN=   0.00000
  Li  -0.4336822   0.0000000   0.2729332 SPIN=   0.00000
  Li  -0.4322653   0.0000000  -0.2291005 SPIN=   0.00000
  Li   0.4322653  -0.5000000   0.2708995 SPIN=   0.00000
   O   0.4134930   0.2245000   0.6587786 SPIN=   0.00000
   O   0.7712683   0.1767394   0.4407138 SPIN=   0.00000
   O   0.2751562   0.1705760   0.3748652 SPIN=   0.00000
   P   0.4854153   0.2578415   0.4895452 SPIN=   0.00000
   O  -0.4134930   0.2755000   0.1587786 SPIN=   0.00000
   O  -0.7712683   0.3232606  -0.0592862 SPIN=   0.00000
   O  -0.2751562   0.3294240  -0.1251348 SPIN=   0.00000
   P  -0.4854153   0.2421585  -0.0104548 SPIN=   0.00000
   O  -0.4134930  -0.2755000   0.1587786 SPIN=   0.00000
   O  -0.7712683  -0.3232606  -0.0592862 SPIN=   0.00000
   O  -0.2751562  -0.3294240  -0.1251348 SPIN=   0.00000
   P  -0.4854153  -0.2421585  -0.0104548 SPIN=   0.00000
   O   0.4134930  -0.2245000   0.6587786 SPIN=   0.00000
   O   0.7712683  -0.1767394   0.4407138 SPIN=   0.00000
   O   0.2751562  -0.1705760   0.3748652 SPIN=   0.00000
   P   0.4854153  -0.2578415   0.4895452 SPIN=   0.00000
   O  -0.4883194   0.0000000   0.0108292 SPIN=   0.00000
   O   0.4883194   0.5000000  -0.4891708 SPIN=   0.00000
   O   0.0099519   0.0000000  -0.2199104 SPIN=   0.00000
   O  -0.0099519  -0.5000000   0.2800896 SPIN=   0.00000
  Fe   0.0664388   0.0000000   0.0220989 SPIN=   4.41883
  Fe  -0.0664388   0.5000000  -0.4779011 SPIN=   4.41883
  Fe  -0.0658343   0.5000000   0.0242301 SPIN=   3.58117
  Fe   0.0658343   0.0000000  -0.4757699 SPIN=   3.58117
%ENDBLOCK POSITIONS_FRAC

# Note: total spin =  16.00

KPOINTS_MP_SPACING 0.07

%BLOCK SPECIES_POT
QC5
%ENDBLOCK SPECIES_POT

%BLOCK HUBBARD_U
Fe d:4.0
%ENDBLOCK HUBBARD_U

SNAP_TO_SYMMETRY
SYMMETRY_GENERATE

