#              Generated by Buildcell
#
# at 13:56:34 (GMT+0.0) 24th November 2020
# in /lustre/scratch/uccabz1/launch_tmp
# on node-c12d-031
# by uccabz1
#
# compiler GCC version 4.9.2
# options -cpp -iprefix /lustre/shared/ucl/apps/gcc/4.9.2/bin/../lib/gcc/x86_64-unknown-linux-gnu/4.9.2/ -mtune=corei7 -march=x86-64 -g -Og
#
# seed -1038029923   938015193  1176971521   468737208   364588345   992655483  1596571828  1745302989 -1287186632  1719414264   797837944   931170724
#
#      Author: C. J. Pickard (cjp20@cam.ac.uk)
#                Space group: P-1
#

%BLOCK LATTICE_ABC
      4.21292      5.96180      6.54929
     78.57169     84.36044     84.67437
%ENDBLOCK LATTICE_ABC

%BLOCK POSITIONS_FRAC
  Li   0.4955507  -0.2404610  -0.3064448 SPIN=   0.00000
  Li  -0.4955507   0.2404610   0.3064448 SPIN=   0.00000
   O   0.1880549  -0.3352149   0.4940895 SPIN=   0.00000
   O   0.6917468  -0.1045513   0.3880443 SPIN=   0.00000
   O   0.5370782  -0.3348961   0.1441929 SPIN=   0.00000
   O   0.2001630   0.0211324   0.1966426 SPIN=   0.00000
   O  -0.1880549   0.3352149  -0.4940895 SPIN=   0.00000
   O  -0.6917468   0.1045513  -0.3880443 SPIN=   0.00000
   O  -0.5370782   0.3348961  -0.1441929 SPIN=   0.00000
   O  -0.2001630  -0.0211324  -0.1966426 SPIN=   0.00000
   P   0.0000000  -0.0000000   0.5000000 SPIN=   0.00000
   P   0.5000000   0.0000000   0.0000000 SPIN=   0.00000
  Fe  -0.0112449   0.2934575  -0.1989877 SPIN=   4.00000
  Fe   0.0112449  -0.2934575   0.1989877 SPIN=   4.00000
%ENDBLOCK POSITIONS_FRAC

# Note: total spin =   8.00

KPOINTS_MP_SPACING 0.07

%BLOCK SPECIES_POT
QC5
%ENDBLOCK SPECIES_POT

%BLOCK HUBBARD_U
Fe d:4.0
%ENDBLOCK HUBBARD_U

SNAP_TO_SYMMETRY
SYMMETRY_GENERATE

