#              Generated by Buildcell
#
# at 12:54:41 (GMT+0.0) 24th November 2020
# in /lustre/scratch/uccabz1/launch_tmp
# on node-c12g-032
# by uccabz1
#
# compiler GCC version 4.9.2
# options -cpp -iprefix /lustre/shared/ucl/apps/gcc/4.9.2/bin/../lib/gcc/x86_64-unknown-linux-gnu/4.9.2/ -mtune=corei7 -march=x86-64 -g -Og
#
# seed  1923352741  1211027578   224037092  1808041130   -59652146 -1492302056  1214006231    44431373  1230992908   492682648 -1798785260 -1064831972
#
#      Author: C. J. Pickard (cjp20@cam.ac.uk)
#                Space group: Pc
#

%BLOCK LATTICE_ABC
      4.67749      5.34019      6.71297
     90.00000    107.40945     90.00000
%ENDBLOCK LATTICE_ABC

%BLOCK POSITIONS_FRAC
  Li  -0.1932251  -0.1792588  -0.0796980 SPIN=   0.00000
  Li   0.3067749   0.1792588   0.4203020 SPIN=   0.00000
   O  -0.0624974  -0.0421332   0.2285838 SPIN=   0.00000
   O  -0.6191019   0.0981275   0.1322202 SPIN=   0.00000
   O  -0.2543164   0.2962883   0.4356656 SPIN=   0.00000
   O  -0.2366624   0.3948410   0.0748023 SPIN=   0.00000
   P  -0.2801972   0.1770477   0.2167034 SPIN=   0.00000
   O   0.4375026   0.0421332  -0.2714162 SPIN=   0.00000
   O  -0.1191019  -0.0981275  -0.3677798 SPIN=   0.00000
   O   0.2456836  -0.2962883  -0.0643344 SPIN=   0.00000
   O   0.2633376  -0.3948410  -0.4251977 SPIN=   0.00000
   P   0.2198028  -0.1770477  -0.2832966 SPIN=   0.00000
  Fe  -0.3067230  -0.3208070   0.3684887 SPIN=   4.00000
  Fe   0.1932770   0.3208070  -0.1315113 SPIN=   4.00000
%ENDBLOCK POSITIONS_FRAC

# Note: total spin =   8.00

KPOINTS_MP_SPACING 0.07

%BLOCK SPECIES_POT
QC5
%ENDBLOCK SPECIES_POT

%BLOCK HUBBARD_U
Fe d:4.0
%ENDBLOCK HUBBARD_U

SNAP_TO_SYMMETRY
SYMMETRY_GENERATE

