#              Generated by Buildcell
#
# at 19:58:21 (GMT+0.0) 26th November 2020
# in /lustre/scratch/uccabz1/launch_tmp
# on node-c12b-023
# by uccabz1
#
# compiler GCC version 4.9.2
# options -cpp -iprefix /lustre/shared/ucl/apps/gcc/4.9.2/bin/../lib/gcc/x86_64-unknown-linux-gnu/4.9.2/ -mtune=corei7 -march=x86-64 -g -Og
#
# seed -1703463492   487070997   939596919   255239115   628173981  1300901021   673535959  2091924679 -1214010870  -497923252  2065362267  -603481726
#
#      Author: C. J. Pickard (cjp20@cam.ac.uk)
#                Space group: Aea2
#

%BLOCK LATTICE_ABC
      5.88592      5.88592      9.41160
     90.00000     90.00000    101.05975
%ENDBLOCK LATTICE_ABC

%BLOCK POSITIONS_FRAC
  Li  -0.0938794   0.2360480  -0.4925423 SPIN=   0.00000
  Li   0.2360480  -0.0938794   0.4925423 SPIN=   0.00000
  Li  -0.2639520   0.4061206   0.0074577 SPIN=   0.00000
  Li   0.4061206  -0.2639520  -0.0074577 SPIN=   0.00000
   O   0.1509364  -0.2041277   0.1352987 SPIN=   0.00000
   O   0.1919460   0.1247393   0.3230997 SPIN=   0.00000
   O   0.4928333  -0.1153486   0.3140640 SPIN=   0.00000
   O   0.4670811   0.1655519   0.1175949 SPIN=   0.00000
   P   0.3180624  -0.0157368   0.2166324 SPIN=   0.00000
   O  -0.2041277   0.1509364  -0.1352987 SPIN=   0.00000
   O   0.1247393   0.1919460  -0.3230997 SPIN=   0.00000
   O  -0.1153486   0.4928333  -0.3140640 SPIN=   0.00000
   O   0.1655519   0.4670811  -0.1175949 SPIN=   0.00000
   P  -0.0157368   0.3180624  -0.2166324 SPIN=   0.00000
   O   0.2958723  -0.3490636  -0.3647013 SPIN=   0.00000
   O   0.6247393  -0.3080540  -0.1769003 SPIN=   0.00000
   O   0.3846514  -0.0071667  -0.1859360 SPIN=   0.00000
   O   0.6655519  -0.0329189  -0.3824051 SPIN=   0.00000
   P   0.4842632  -0.1819376  -0.2833676 SPIN=   0.00000
   O  -0.3490636   0.2958723   0.3647013 SPIN=   0.00000
   O  -0.3080540   0.6247393   0.1769003 SPIN=   0.00000
   O  -0.0071667   0.3846514   0.1859360 SPIN=   0.00000
   O  -0.0329189   0.6655519   0.3824051 SPIN=   0.00000
   P  -0.1819376   0.4842632   0.2833676 SPIN=   0.00000
  Fe  -0.1644554  -0.0254375   0.1987264 SPIN=   4.00000
  Fe  -0.0254375  -0.1644554  -0.1987264 SPIN=   4.00000
  Fe   0.4745625   0.3355446  -0.3012736 SPIN=   4.00000
  Fe   0.3355446   0.4745625   0.3012736 SPIN=   4.00000
%ENDBLOCK POSITIONS_FRAC

# Note: total spin =  16.00

KPOINTS_MP_SPACING 0.07

%BLOCK SPECIES_POT
QC5
%ENDBLOCK SPECIES_POT

%BLOCK HUBBARD_U
Fe d:4.0
%ENDBLOCK HUBBARD_U

SNAP_TO_SYMMETRY
SYMMETRY_GENERATE

