#              Generated by Buildcell
#
# at 19:54:09 (GMT+0.0) 26th November 2020
# in /lustre/scratch/uccabz1/launch_tmp
# on node-c12k-029
# by uccabz1
#
# compiler GCC version 4.9.2
# options -cpp -iprefix /lustre/shared/ucl/apps/gcc/4.9.2/bin/../lib/gcc/x86_64-unknown-linux-gnu/4.9.2/ -mtune=corei7 -march=x86-64 -g -Og
#
# seed  1676791908 -1068549108  1041614807   414610716  -577618571   794969926   869747383   187357205   235558676  1450843698  -913988034  -346182029
#
#      Author: C. J. Pickard (cjp20@cam.ac.uk)
#                Space group: C2
#

%BLOCK LATTICE_ABC
      4.98692      4.98692     13.00489
     86.05617     86.05617     83.53989
%ENDBLOCK LATTICE_ABC

%BLOCK POSITIONS_FRAC
  Li   0.0809831  -0.0044544  -0.2387878 SPIN=   0.00000
  Li   0.0044544  -0.0809831   0.2387878 SPIN=   0.00000
  Li   0.2728538  -0.2728538  -0.5000000 SPIN=   0.00000
  Li   0.7827106   0.2172894  -0.5000000 SPIN=   0.00000
   O  -0.1084256  -0.5401855   0.3699770 SPIN=   0.00000
   O  -0.0001175  -0.0556035   0.4008633 SPIN=   0.00000
   O  -0.4718643  -0.1239291   0.3727041 SPIN=   0.00000
   O  -0.2694840  -0.3057089   0.5377493 SPIN=   0.00000
   P  -0.2076056  -0.2720516   0.4190285 SPIN=   0.00000
   O   0.5401855   0.1084256  -0.3699770 SPIN=   0.00000
   O   0.0556035   0.0001175  -0.4008633 SPIN=   0.00000
   O   0.1239291   0.4718643  -0.3727041 SPIN=   0.00000
   O   0.3057089   0.2694840  -0.5377493 SPIN=   0.00000
   P   0.2720516   0.2076056  -0.4190285 SPIN=   0.00000
   O   0.6439556  -0.1408220  -0.1729748 SPIN=   0.00000
   O   0.3388040   0.3070557  -0.2122078 SPIN=   0.00000
   O   0.4960305   0.2110739  -0.0361025 SPIN=   0.00000
   O   0.8267704   0.3252276  -0.1818911 SPIN=   0.00000
   P   0.5829424   0.1605495  -0.1523420 SPIN=   0.00000
   O   0.1408220   0.3560444   0.1729748 SPIN=   0.00000
   O  -0.3070557   0.6611960   0.2122078 SPIN=   0.00000
   O  -0.2110739   0.5039695   0.0361025 SPIN=   0.00000
   O  -0.3252276   0.1732296   0.1818911 SPIN=   0.00000
   P  -0.1605495   0.4170576   0.1523420 SPIN=   0.00000
  Fe   0.1086311   0.4647406  -0.0750190 SPIN=   3.10325
  Fe  -0.4647406  -0.1086311   0.0750190 SPIN=   3.10325
  Fe   0.6418436  -0.4004457  -0.3020662 SPIN=   4.89675
  Fe  -0.5995543   0.3581564   0.3020662 SPIN=   4.89675
%ENDBLOCK POSITIONS_FRAC

# Note: total spin =  16.00

KPOINTS_MP_SPACING 0.07

%BLOCK SPECIES_POT
QC5
%ENDBLOCK SPECIES_POT

%BLOCK HUBBARD_U
Fe d:4.0
%ENDBLOCK HUBBARD_U

SNAP_TO_SYMMETRY
SYMMETRY_GENERATE

