#              Generated by Buildcell
#
# at 06:37:11 (GMT+0.0) 24th November 2020
# in /lustre/scratch/uccabz1/launch_tmp
# on node-c12e-032
# by uccabz1
#
# compiler GCC version 4.9.2
# options -cpp -iprefix /lustre/shared/ucl/apps/gcc/4.9.2/bin/../lib/gcc/x86_64-unknown-linux-gnu/4.9.2/ -mtune=corei7 -march=x86-64 -g -Og
#
# seed   400655435   377699673 -1528106789 -1770158188 -1104610179  -937112488   -44036226 -1387553750 -1494095392 -1673111590 -2126225159   225172451
#
#      Author: C. J. Pickard (cjp20@cam.ac.uk)
#                Space group: P-1
#

%BLOCK LATTICE_ABC
      5.62969      5.78489      5.79252
    100.46564    112.20251    105.21012
%ENDBLOCK LATTICE_ABC

%BLOCK POSITIONS_FRAC
  Li   0.0164160  -0.2592436   0.4261463 SPIN=   0.00000
  Li  -0.0164160   0.2592436  -0.4261463 SPIN=   0.00000
   O  -0.3404831   0.4243380  -0.3475517 SPIN=   0.00000
   O  -0.2607459   0.3918979   0.1155596 SPIN=   0.00000
   O  -0.6429942   0.0495141  -0.2728133 SPIN=   0.00000
   O  -0.1559474   0.0959774  -0.1710121 SPIN=   0.00000
   P  -0.3472431   0.2485193  -0.1784881 SPIN=   0.00000
   O   0.3404831  -0.4243380   0.3475517 SPIN=   0.00000
   O   0.2607459  -0.3918979  -0.1155596 SPIN=   0.00000
   O   0.6429942  -0.0495141   0.2728133 SPIN=   0.00000
   O   0.1559474  -0.0959774   0.1710121 SPIN=   0.00000
   P   0.3472431  -0.2485193   0.1784881 SPIN=   0.00000
  Fe   0.3816139   0.2514604   0.1615120 SPIN=   4.00000
  Fe  -0.3816139  -0.2514604  -0.1615120 SPIN=   4.00000
%ENDBLOCK POSITIONS_FRAC

# Note: total spin =   8.00

KPOINTS_MP_SPACING 0.07

%BLOCK SPECIES_POT
QC5
%ENDBLOCK SPECIES_POT

%BLOCK HUBBARD_U
Fe d:4.0
%ENDBLOCK HUBBARD_U

SNAP_TO_SYMMETRY
SYMMETRY_GENERATE

