#              Generated by Buildcell
#
# at 10:56:40 (GMT+0.0) 24th November 2020
# in /scratch/scratch/uccabz1/launch_tmp
# on node-a14e-013
# by uccabz1
#
# compiler GCC version 4.9.2
# options -cpp -iprefix /scratch/UCL/applications/gcc/4.9.2/bin/../lib/gcc/x86_64-unknown-linux-gnu/4.9.2/ -mtune=corei7 -march=x86-64 -g -O2
#
# seed  1297802818  -445395268  2047914316 -1429334384  -394428116  1222200392  1221518062 -2088265742  2037125355  -746138475 -1857945828 -1855899222
#
#      Author: C. J. Pickard (cjp20@cam.ac.uk)
#                Space group: C2
#

%BLOCK LATTICE_ABC
      5.81395      5.81395      6.04450
    109.33881    111.89745    105.54406
%ENDBLOCK LATTICE_ABC

%BLOCK POSITIONS_FRAC
  Li  -0.1809789  -0.3547943   0.4569397 SPIN=   0.00000
  Li   0.1882660   0.3620815  -0.4569397 SPIN=   0.00000
   O   0.0454844  -0.1860132  -0.1182175 SPIN=   0.00000
   O   0.2514694   0.0001203   0.4025028 SPIN=   0.00000
   O   0.5510990  -0.0703308   0.2116945 SPIN=   0.00000
   O   0.4190345   0.3092091   0.2322464 SPIN=   0.00000
   O  -0.0677957   0.1637018   0.1182175 SPIN=   0.00000
   O  -0.4023825  -0.1510333  -0.4025028 SPIN=   0.00000
   O  -0.2820254   0.3394045  -0.2116945 SPIN=   0.00000
   O   0.0769627   0.1867881  -0.2322464 SPIN=   0.00000
   P  -0.3452792   0.1547208   0.5000000 SPIN=   0.00000
   P  -0.1417135  -0.1417135  -0.0000000 SPIN=   0.00000
  Fe   0.2019955  -0.4027990   0.1231049 SPIN=   4.00000
  Fe   0.4740962   0.0788906  -0.1231049 SPIN=   4.00000
%ENDBLOCK POSITIONS_FRAC

# Note: total spin =   8.00

KPOINTS_MP_SPACING 0.07

%BLOCK SPECIES_POT
QC5
%ENDBLOCK SPECIES_POT

%BLOCK HUBBARD_U
Fe d:4.0
%ENDBLOCK HUBBARD_U

SNAP_TO_SYMMETRY
SYMMETRY_GENERATE

