#              Generated by Buildcell
#
# at 06:09:07 (GMT+0.0) 24th November 2020
# in /lustre/scratch/uccabz1/launch_tmp
# on node-c12h-027
# by uccabz1
#
# compiler GCC version 4.9.2
# options -cpp -iprefix /lustre/shared/ucl/apps/gcc/4.9.2/bin/../lib/gcc/x86_64-unknown-linux-gnu/4.9.2/ -mtune=corei7 -march=x86-64 -g -Og
#
# seed  1113522314 -2140095816  1451235155 -1776590692  1119524698   623085201  -832624816  1070668793  1266172304 -1388592475  1875783454  1940919906
#
#      Author: C. J. Pickard (cjp20@cam.ac.uk)
#                Space group: P21
#

%BLOCK LATTICE_ABC
      4.37232      6.21630      6.27416
     90.00000     90.00000    110.23963
%ENDBLOCK LATTICE_ABC

%BLOCK POSITIONS_FRAC
  Li   0.4375165   0.0003056  -0.4872825 SPIN=   0.00000
  Li  -0.4375165  -0.0003056   0.0127175 SPIN=   0.00000
   O   0.1552583   0.0831338   0.2288752 SPIN=   0.00000
   O   0.0717570  -0.3149529   0.3974008 SPIN=   0.00000
   O  -0.3984566  -0.2543678   0.2230660 SPIN=   0.00000
   O   0.0631490  -0.2792901   0.0000421 SPIN=   0.00000
   P  -0.0163001  -0.1777909   0.2107207 SPIN=   0.00000
   O  -0.1552583  -0.0831338  -0.2711248 SPIN=   0.00000
   O  -0.0717570   0.3149529  -0.1025992 SPIN=   0.00000
   O   0.3984566   0.2543678  -0.2769340 SPIN=   0.00000
   O  -0.0631490   0.2792901  -0.4999579 SPIN=   0.00000
   P   0.0163001   0.1777909  -0.2892793 SPIN=   0.00000
  Fe  -0.2144965  -0.4278832  -0.3284869 SPIN=   4.00000
  Fe   0.2144965   0.4278832   0.1715131 SPIN=   4.00000
%ENDBLOCK POSITIONS_FRAC

# Note: total spin =   8.00

KPOINTS_MP_SPACING 0.07

%BLOCK SPECIES_POT
QC5
%ENDBLOCK SPECIES_POT

%BLOCK HUBBARD_U
Fe d:4.0
%ENDBLOCK HUBBARD_U

SNAP_TO_SYMMETRY
SYMMETRY_GENERATE

