#              Generated by Buildcell
#
# at 15:43:39 (GMT+0.0) 26th November 2020
# in /lustre/scratch/uccabz1/launch_tmp
# on node-c12d-022
# by uccabz1
#
# compiler GCC version 4.9.2
# options -cpp -iprefix /lustre/shared/ucl/apps/gcc/4.9.2/bin/../lib/gcc/x86_64-unknown-linux-gnu/4.9.2/ -mtune=corei7 -march=x86-64 -g -Og
#
# seed  1968151273     3039800  1574226577  1428457312  1496927457  -228157058 -1102780983 -1516102105 -1004329103 -1854833672   911912616 -1792788992
#
#      Author: C. J. Pickard (cjp20@cam.ac.uk)
#                Space group: Pcc2
#

%BLOCK LATTICE_ABC
      5.50138      7.41941      7.83987
     90.00000     90.00000     90.00000
%ENDBLOCK LATTICE_ABC

%BLOCK POSITIONS_FRAC
  Li   0.4539019  -0.2494264  -0.3880142 SPIN=   0.00000
  Li  -0.4539019   0.2494264  -0.3880142 SPIN=   0.00000
  Li  -0.4539019  -0.2494264   0.1119858 SPIN=   0.00000
  Li   0.4539019   0.2494264   0.1119858 SPIN=   0.00000
   O  -0.0725132  -0.2803948  -0.0728463 SPIN=   0.00000
   O   0.2846223  -0.4528298   0.0699328 SPIN=   0.00000
   O   0.3816005  -0.2033889  -0.1273033 SPIN=   0.00000
   O   0.1988395  -0.1346451   0.1579369 SPIN=   0.00000
   O   0.0725132   0.2803948  -0.0728463 SPIN=   0.00000
   O  -0.2846223   0.4528298   0.0699328 SPIN=   0.00000
   O  -0.3816005   0.2033889  -0.1273033 SPIN=   0.00000
   O  -0.1988395   0.1346451   0.1579369 SPIN=   0.00000
   O   0.0725132  -0.2803948  -0.5728463 SPIN=   0.00000
   O  -0.2846223  -0.4528298  -0.4300672 SPIN=   0.00000
   O  -0.3816005  -0.2033889  -0.6273033 SPIN=   0.00000
   O  -0.1988395  -0.1346451  -0.3420631 SPIN=   0.00000
   O  -0.0725132   0.2803948  -0.5728463 SPIN=   0.00000
   O   0.2846223   0.4528298  -0.4300672 SPIN=   0.00000
   O   0.3816005   0.2033889  -0.6273033 SPIN=   0.00000
   O   0.1988395   0.1346451  -0.3420631 SPIN=   0.00000
   P  -0.5000000  -0.5000000   0.3659292 SPIN=   0.00000
   P   0.5000000  -0.5000000  -0.1340708 SPIN=   0.00000
   P   0.5000000   0.0000000  -0.1396460 SPIN=   0.00000
   P   0.5000000   0.0000000   0.3603540 SPIN=   0.00000
  Fe   0.0000000   0.0000000  -0.0332326 SPIN=   4.50691
  Fe   0.0000000   0.0000000   0.4667674 SPIN=   4.50691
  Fe   0.0000000   0.5000000   0.2554461 SPIN=   3.49309
  Fe   0.0000000  -0.5000000  -0.2445539 SPIN=   3.49309
%ENDBLOCK POSITIONS_FRAC

# Note: total spin =  16.00

KPOINTS_MP_SPACING 0.07

%BLOCK SPECIES_POT
QC5
%ENDBLOCK SPECIES_POT

%BLOCK HUBBARD_U
Fe d:4.0
%ENDBLOCK HUBBARD_U

SNAP_TO_SYMMETRY
SYMMETRY_GENERATE

