#              Generated by Buildcell
#
# at 01:45:23 (GMT+0.0) 27th November 2020
# in /lustre/scratch/uccabz1/launch_tmp
# on node-c12j-022
# by uccabz1
#
# compiler GCC version 4.9.2
# options -cpp -iprefix /lustre/shared/ucl/apps/gcc/4.9.2/bin/../lib/gcc/x86_64-unknown-linux-gnu/4.9.2/ -mtune=corei7 -march=x86-64 -g -Og
#
# seed   276885390   448953113 -1975634057   671991996  1542239461 -1066349100  1955089474 -1021925291  -248468019   226344916   933272329     5164724
#
#      Author: C. J. Pickard (cjp20@cam.ac.uk)
#                Space group: Pc
#

%BLOCK LATTICE_ABC
      5.53265      6.39423      9.07123
     94.32373     90.00000     90.00000
%ENDBLOCK LATTICE_ABC

%BLOCK POSITIONS_FRAC
  Li   0.2826310  -0.4847015  -0.3391703 SPIN=   0.00000
  Li  -0.2826310   0.0152985   0.1608297 SPIN=   0.00000
  Li  -0.3411682  -0.1762750  -0.2041465 SPIN=   0.00000
  Li   0.3411682   0.3237250   0.2958535 SPIN=   0.00000
   O  -0.2301092  -0.3008861   0.2844614 SPIN=   0.00000
   O  -0.3899410  -0.6355685   0.1355768 SPIN=   0.00000
   O  -0.6760687  -0.3458707   0.1981196 SPIN=   0.00000
   O  -0.3528535  -0.3016705   0.0097006 SPIN=   0.00000
   P  -0.4018445  -0.3898215   0.1620153 SPIN=   0.00000
   O   0.2301092   0.1991139  -0.2155386 SPIN=   0.00000
   O   0.3899410  -0.1355685  -0.3644232 SPIN=   0.00000
   O   0.6760687   0.1541293  -0.3018804 SPIN=   0.00000
   O   0.3528535   0.1983295  -0.4902994 SPIN=   0.00000
   P   0.4018445   0.1101785  -0.3379847 SPIN=   0.00000
   O   0.3429262   0.0842468   0.0291422 SPIN=   0.00000
   O   0.0044752   0.2253999   0.2086156 SPIN=   0.00000
   O   0.1163083   0.4349013   0.0011083 SPIN=   0.00000
   O  -0.1049876   0.0955365  -0.0501383 SPIN=   0.00000
   P   0.1008673   0.2019732   0.0450730 SPIN=   0.00000
   O  -0.3429262  -0.4157532  -0.4708578 SPIN=   0.00000
   O  -0.0044752  -0.2746001  -0.2913844 SPIN=   0.00000
   O  -0.1163083  -0.0650987  -0.4988917 SPIN=   0.00000
   O   0.1049876  -0.4044635  -0.5501383 SPIN=   0.00000
   P  -0.1008673  -0.2980268  -0.4549270 SPIN=   0.00000
  Fe  -0.3386511   0.3379648  -0.1003101 SPIN=   5.21898
  Fe   0.3386511  -0.1620352   0.3996899 SPIN=   5.21898
  Fe  -0.1601705   0.2594919   0.4848260 SPIN=   2.78102
  Fe   0.1601705  -0.2405081  -0.0151740 SPIN=   2.78102
%ENDBLOCK POSITIONS_FRAC

# Note: total spin =  16.00

KPOINTS_MP_SPACING 0.07

%BLOCK SPECIES_POT
QC5
%ENDBLOCK SPECIES_POT

%BLOCK HUBBARD_U
Fe d:4.0
%ENDBLOCK HUBBARD_U

SNAP_TO_SYMMETRY
SYMMETRY_GENERATE

