#              Generated by Buildcell
#
# at 21:43:50 (GMT+0.0) 26th November 2020
# in /lustre/scratch/uccabz1/launch_tmp
# on node-c12l-021
# by uccabz1
#
# compiler GCC version 4.9.2
# options -cpp -iprefix /lustre/shared/ucl/apps/gcc/4.9.2/bin/../lib/gcc/x86_64-unknown-linux-gnu/4.9.2/ -mtune=corei7 -march=x86-64 -g -Og
#
# seed  -933569612  -237004006 -1931358173  1396018777   417335666  -410558239  1637748315  1922587896  1283592478   906957837  1791869595  1460098746
#
#      Author: C. J. Pickard (cjp20@cam.ac.uk)
#                Space group: P-1
#

%BLOCK LATTICE_ABC
      4.60063      6.47196     11.40935
     96.89116    100.68125    103.39223
%ENDBLOCK LATTICE_ABC

%BLOCK POSITIONS_FRAC
  Li   0.8051889   0.1966522   0.4819085 SPIN=   0.00000
  Li  -0.8051889  -0.1966522  -0.4819085 SPIN=   0.00000
  Li   0.2244876   0.4967198  -0.1161742 SPIN=   0.00000
  Li  -0.2244876  -0.4967198   0.1161742 SPIN=   0.00000
   O   0.3403474   0.2017362   0.1803329 SPIN=   0.00000
   O   0.2854028   0.2162734  -0.0491022 SPIN=   0.00000
   O  -0.1743519   0.1901918   0.0366448 SPIN=   0.00000
   O   0.2441954   0.5333908   0.0898330 SPIN=   0.00000
   P   0.1835906   0.2838700   0.0708984 SPIN=   0.00000
   O  -0.3403474  -0.2017362  -0.1803329 SPIN=   0.00000
   O  -0.2854028  -0.2162734   0.0491022 SPIN=   0.00000
   O   0.1743519  -0.1901918  -0.0366448 SPIN=   0.00000
   O  -0.2441954  -0.5333908  -0.0898330 SPIN=   0.00000
   P  -0.1835906  -0.2838700  -0.0708984 SPIN=   0.00000
   O   0.0757988  -0.2266332   0.2363376 SPIN=   0.00000
   O   0.3192266   0.1258632   0.3930144 SPIN=   0.00000
   O  -0.1528781   0.1048134   0.2427848 SPIN=   0.00000
   O  -0.1786561  -0.1147311   0.4088024 SPIN=   0.00000
   P   0.0167680  -0.0392930   0.3168129 SPIN=   0.00000
   O  -0.0757988   0.2266332  -0.2363376 SPIN=   0.00000
   O  -0.3192266  -0.1258632  -0.3930144 SPIN=   0.00000
   O   0.1528781  -0.1048134  -0.2427848 SPIN=   0.00000
   O   0.1786561   0.1147311  -0.4088024 SPIN=   0.00000
   P  -0.0167680   0.0392930  -0.3168129 SPIN=   0.00000
  Fe   0.4251766  -0.1038493   0.1488168 SPIN=   1.00272
  Fe  -0.4251766   0.1038493  -0.1488168 SPIN=   1.00272
  Fe   0.3054860   0.4143781   0.3280804 SPIN=   6.99728
  Fe  -0.3054860  -0.4143781  -0.3280804 SPIN=   6.99728
%ENDBLOCK POSITIONS_FRAC

# Note: total spin =  16.00

KPOINTS_MP_SPACING 0.07

%BLOCK SPECIES_POT
QC5
%ENDBLOCK SPECIES_POT

%BLOCK HUBBARD_U
Fe d:4.0
%ENDBLOCK HUBBARD_U

SNAP_TO_SYMMETRY
SYMMETRY_GENERATE

