#              Generated by Buildcell
#
# at 08:22:21 (GMT+0.0) 24th November 2020
# in /lustre/scratch/uccabz1/launch_tmp
# on node-c12d-032
# by uccabz1
#
# compiler GCC version 4.9.2
# options -cpp -iprefix /lustre/shared/ucl/apps/gcc/4.9.2/bin/../lib/gcc/x86_64-unknown-linux-gnu/4.9.2/ -mtune=corei7 -march=x86-64 -g -Og
#
# seed  1912535563  1043054795  -179349417    16154368   502215876  2121153732   621560649  1178750932   564953926 -1601714456  -564485559    15646398
#
#      Author: C. J. Pickard (cjp20@cam.ac.uk)
#                Space group: Cm
#

%BLOCK LATTICE_ABC
      5.74636      5.88284      6.11213
    114.45417    113.65337     98.22848
%ENDBLOCK LATTICE_ABC

%BLOCK POSITIONS_FRAC
  Li  -0.2376230  -0.0310989   0.0000000 SPIN=   0.00000
  Li   0.0460903  -0.4270139   0.0000000 SPIN=   0.00000
   O  -0.7626572  -0.2278571  -0.3585455 SPIN=   0.00000
   O  -0.5532203  -0.3032416  -0.6769454 SPIN=   0.00000
   O  -0.3877968  -0.4340423  -0.3234878 SPIN=   0.00000
   O  -0.8608504  -0.7022877  -0.7418351 SPIN=   0.00000
   P  -0.6501948  -0.4101622  -0.5188863 SPIN=   0.00000
   O  -0.4041116   0.1306885   0.3585455 SPIN=   0.00000
   O   0.1237251   0.3737038   0.6769454 SPIN=   0.00000
   O  -0.0643090  -0.1105545   0.3234878 SPIN=   0.00000
   O  -0.1190153   0.0395474   0.7418351 SPIN=   0.00000
   P  -0.1313085   0.1087241   0.5188863 SPIN=   0.00000
  Fe   0.3994545   0.1640808   0.5886434 SPIN=   4.00000
  Fe  -0.1891890  -0.4245627  -0.5886434 SPIN=   4.00000
%ENDBLOCK POSITIONS_FRAC

# Note: total spin =   8.00

KPOINTS_MP_SPACING 0.07

%BLOCK SPECIES_POT
QC5
%ENDBLOCK SPECIES_POT

%BLOCK HUBBARD_U
Fe d:4.0
%ENDBLOCK HUBBARD_U

SNAP_TO_SYMMETRY
SYMMETRY_GENERATE

