#              Generated by Buildcell
#
# at 14:56:10 (GMT+0.0) 26th November 2020
# in /lustre/scratch/uccabz1/launch_tmp
# on node-c12i-031
# by uccabz1
#
# compiler GCC version 4.9.2
# options -cpp -iprefix /lustre/shared/ucl/apps/gcc/4.9.2/bin/../lib/gcc/x86_64-unknown-linux-gnu/4.9.2/ -mtune=corei7 -march=x86-64 -g -Og
#
# seed   586289464 -1748461909   155196509  1869001215  2009546079 -2116399297  -704861946  1568568011   497853800   624823715 -1034244712   369583852
#
#      Author: C. J. Pickard (cjp20@cam.ac.uk)
#                Space group: Cc
#

%BLOCK LATTICE_ABC
      6.55944      6.55944      8.34743
    107.79645    107.79645     94.25143
%ENDBLOCK LATTICE_ABC

%BLOCK POSITIONS_FRAC
  Li   0.2955461  -0.4709551  -0.2968275 SPIN=   0.00000
  Li  -0.4709551   0.2955461   0.2031725 SPIN=   0.00000
  Li  -0.0683781   0.1998820  -0.3138985 SPIN=   0.00000
  Li   0.1998820  -0.0683781   0.1861015 SPIN=   0.00000
   O  -0.2971112   0.4015381  -0.2588738 SPIN=   0.00000
   O  -0.4339102   0.5136574  -0.5408162 SPIN=   0.00000
   O  -0.3649242   0.1391688  -0.5819826 SPIN=   0.00000
   O  -0.6839662   0.2478640  -0.4937976 SPIN=   0.00000
   P  -0.4399251   0.3286859  -0.4579806 SPIN=   0.00000
   O   0.4015381  -0.2971112   0.2411262 SPIN=   0.00000
   O   0.5136574  -0.4339102  -0.0408162 SPIN=   0.00000
   O   0.1391688  -0.3649242  -0.0819826 SPIN=   0.00000
   O   0.2478640  -0.6839662   0.0062024 SPIN=   0.00000
   P   0.3286859  -0.4399251   0.0420194 SPIN=   0.00000
   O   0.0243852  -0.1279691   0.5654947 SPIN=   0.00000
   O  -0.2113885  -0.4464652   0.2758395 SPIN=   0.00000
   O   0.1850237  -0.4363518   0.3923955 SPIN=   0.00000
   O  -0.0479748  -0.5230699   0.5597193 SPIN=   0.00000
   P  -0.0109441  -0.3715076   0.4559131 SPIN=   0.00000
   O  -0.1279691   0.0243852   0.0654947 SPIN=   0.00000
   O  -0.4464652  -0.2113885  -0.2241605 SPIN=   0.00000
   O  -0.4363518   0.1850237  -0.1076045 SPIN=   0.00000
   O  -0.5230699  -0.0479748   0.0597193 SPIN=   0.00000
   P  -0.3715076  -0.0109441  -0.0440869 SPIN=   0.00000
  Fe  -0.0163314   0.3529164   0.1140930 SPIN=   4.80581
  Fe   0.3529164  -0.0163314  -0.3859070 SPIN=   4.80581
  Fe  -0.2762900  -0.1354533   0.2663576 SPIN=   3.19419
  Fe  -0.1354533  -0.2762900  -0.2336424 SPIN=   3.19419
%ENDBLOCK POSITIONS_FRAC

# Note: total spin =  16.00

KPOINTS_MP_SPACING 0.07

%BLOCK SPECIES_POT
QC5
%ENDBLOCK SPECIES_POT

%BLOCK HUBBARD_U
Fe d:4.0
%ENDBLOCK HUBBARD_U

SNAP_TO_SYMMETRY
SYMMETRY_GENERATE

