#              Generated by Buildcell
#
# at 09:45:30 (GMT+0.0) 24th November 2020
# in /scratch/scratch/uccabz1/launch_tmp
# on node-a14a-010
# by uccabz1
#
# compiler GCC version 4.9.2
# options -cpp -iprefix /scratch/UCL/applications/gcc/4.9.2/bin/../lib/gcc/x86_64-unknown-linux-gnu/4.9.2/ -mtune=corei7 -march=x86-64 -g -O2
#
# seed  -227800000   883566407  1471983770  -799118869  -232451226 -1161676310  -585181505 -1913005476   930505975  -177146215  1564395744   627358352
#
#      Author: C. J. Pickard (cjp20@cam.ac.uk)
#                Space group: Cm
#

%BLOCK LATTICE_ABC
      5.12584      6.01993      6.01993
     85.51171     68.30241     68.30241
%ENDBLOCK LATTICE_ABC

%BLOCK POSITIONS_FRAC
  Li  -0.1555526   0.3298950  -0.0865246 SPIN=   0.00000
  Li  -0.1555526  -0.0865246   0.3298950 SPIN=   0.00000
   O  -0.1700257   0.0820980  -0.3131038 SPIN=   0.00000
   O  -0.5969409   0.1518930  -0.4750899 SPIN=   0.00000
   O  -0.7403871   0.2556970  -0.0463942 SPIN=   0.00000
   P  -0.4894255   0.2431487  -0.2991247 SPIN=   0.00000
   O  -0.1700257  -0.3131038   0.0820980 SPIN=   0.00000
   O  -0.5969409  -0.4750899   0.1518930 SPIN=   0.00000
   O  -0.7403871  -0.0463942   0.2556970 SPIN=   0.00000
   P  -0.4894255  -0.2991247   0.2431487 SPIN=   0.00000
   O  -0.4674495  -0.1894849  -0.1894849 SPIN=   0.00000
   O  -0.3359605   0.4827732   0.4827732 SPIN=   0.00000
  Fe   0.1844577  -0.2491661  -0.2491661 SPIN=   5.34407
  Fe   0.1362009   0.3224385   0.3224385 SPIN=   2.65593
%ENDBLOCK POSITIONS_FRAC

# Note: total spin =   8.00

KPOINTS_MP_SPACING 0.07

%BLOCK SPECIES_POT
QC5
%ENDBLOCK SPECIES_POT

%BLOCK HUBBARD_U
Fe d:4.0
%ENDBLOCK HUBBARD_U

SNAP_TO_SYMMETRY
SYMMETRY_GENERATE

