#              Generated by Buildcell
#
# at 11:15:30 (GMT+0.0) 24th November 2020
# in /lustre/scratch/uccabz1/launch_tmp
# on node-c12e-020
# by uccabz1
#
# compiler GCC version 4.9.2
# options -cpp -iprefix /lustre/shared/ucl/apps/gcc/4.9.2/bin/../lib/gcc/x86_64-unknown-linux-gnu/4.9.2/ -mtune=corei7 -march=x86-64 -g -Og
#
# seed  1320893417  -708775182  -545529668  1149283934  1150255191  1398064626  1771472788  1726416848  1392412229    32541643 -1007491895   738156671
#
#      Author: C. J. Pickard (cjp20@cam.ac.uk)
#                Space group: Imm2
#

%BLOCK LATTICE_ABC
      4.88337      5.90060      6.74526
    115.93739    111.22218     90.00000
%ENDBLOCK LATTICE_ABC

%BLOCK POSITIONS_FRAC
  Li  -0.3757888  -0.2502565   0.0000000 SPIN=   0.00000
  Li  -0.3757888   0.2502565   0.0000000 SPIN=   0.00000
   O  -0.0357247   0.3813215   0.3449066 SPIN=   0.00000
   O  -0.6105651   0.3198367   0.2217528 SPIN=   0.00000
   O   0.6193687  -0.3813215  -0.3449066 SPIN=   0.00000
   O   0.1676821  -0.3198367  -0.2217528 SPIN=   0.00000
   O  -0.0357247  -0.0364149   0.3449066 SPIN=   0.00000
   O  -0.6105651  -0.0980840   0.2217528 SPIN=   0.00000
   O   0.6193687   0.0364149  -0.3449066 SPIN=   0.00000
   O   0.1676821   0.0980840  -0.2217528 SPIN=   0.00000
   P   0.2671804   0.1877113   0.3754226 SPIN=   0.00000
   P  -0.1082422  -0.1877113  -0.3754226 SPIN=   0.00000
  Fe  -0.0970130   0.3235135  -0.3529730 SPIN=   4.00000
  Fe   0.2559600  -0.3235135   0.3529730 SPIN=   4.00000
%ENDBLOCK POSITIONS_FRAC

# Note: total spin =   8.00

KPOINTS_MP_SPACING 0.07

%BLOCK SPECIES_POT
QC5
%ENDBLOCK SPECIES_POT

%BLOCK HUBBARD_U
Fe d:4.0
%ENDBLOCK HUBBARD_U

SNAP_TO_SYMMETRY
SYMMETRY_GENERATE

