#              Generated by Buildcell
#
# at 12:56:18 (GMT+0.0) 24th November 2020
# in /lustre/scratch/uccabz1/launch_tmp
# on node-c12a-027
# by uccabz1
#
# compiler GCC version 4.9.2
# options -cpp -iprefix /lustre/shared/ucl/apps/gcc/4.9.2/bin/../lib/gcc/x86_64-unknown-linux-gnu/4.9.2/ -mtune=corei7 -march=x86-64 -g -Og
#
# seed  -132192564  1957479274  1669505279 -1776724068  1137208130   407026731  1200675276   952220618  1271438879   721334649  1181714766   849905055
#
#      Author: C. J. Pickard (cjp20@cam.ac.uk)
#                Space group: P2221
#

%BLOCK LATTICE_ABC
      3.88172      5.54951      7.42748
     90.00000     90.00000     90.00000
%ENDBLOCK LATTICE_ABC

%BLOCK POSITIONS_FRAC
  Li  -0.5000000  -0.3705576  -0.0000000 SPIN=   0.00000
  Li   0.5000000   0.3705576  -0.5000000 SPIN=   0.00000
   O   0.1199253  -0.1944134   0.1543766 SPIN=   0.00000
   O   0.6421444  -0.3219429   0.3513271 SPIN=   0.00000
   O  -0.1199253   0.1944134  -0.3456234 SPIN=   0.00000
   O  -0.6421444   0.3219429  -0.1486729 SPIN=   0.00000
   O   0.1199253   0.1944134   0.3456234 SPIN=   0.00000
   O   0.6421444   0.3219429   0.1486729 SPIN=   0.00000
   O  -0.1199253  -0.1944134  -0.1543766 SPIN=   0.00000
   O  -0.6421444  -0.3219429  -0.3513271 SPIN=   0.00000
   P   0.0349363   0.5000000  -0.2500000 SPIN=   0.00000
   P  -0.0349363  -0.5000000   0.2500000 SPIN=   0.00000
  Fe   0.0000000   0.1104349   0.0000000 SPIN=   4.00000
  Fe   0.0000000  -0.1104349  -0.5000000 SPIN=   4.00000
%ENDBLOCK POSITIONS_FRAC

# Note: total spin =   8.00

KPOINTS_MP_SPACING 0.07

%BLOCK SPECIES_POT
QC5
%ENDBLOCK SPECIES_POT

%BLOCK HUBBARD_U
Fe d:4.0
%ENDBLOCK HUBBARD_U

SNAP_TO_SYMMETRY
SYMMETRY_GENERATE

