#              Generated by Buildcell
#
# at 06:20:48 (GMT+0.0) 24th November 2020
# in /lustre/scratch/uccabz1/launch_tmp
# on node-c12e-032
# by uccabz1
#
# compiler GCC version 4.9.2
# options -cpp -iprefix /lustre/shared/ucl/apps/gcc/4.9.2/bin/../lib/gcc/x86_64-unknown-linux-gnu/4.9.2/ -mtune=corei7 -march=x86-64 -g -Og
#
# seed -1615924790   792976918  1715853558    34106311 -2086068441 -1160731341  -289047396  1057188294  -283437220   -88361569 -1871259273  1560088318
#
#      Author: C. J. Pickard (cjp20@cam.ac.uk)
#                Space group: P2
#

%BLOCK LATTICE_ABC
      4.72094      5.65310      6.26863
    106.98466     90.00000     90.00000
%ENDBLOCK LATTICE_ABC

%BLOCK POSITIONS_FRAC
  Li  -0.4415613   0.0933244   0.2858675 SPIN=   0.00000
  Li  -0.4415613  -0.0933244  -0.2858675 SPIN=   0.00000
   O   0.0018379  -0.0724649  -0.2785860 SPIN=   0.00000
   O   0.2029874   0.2973467   0.0358461 SPIN=   0.00000
   O   0.3691943   0.2382036  -0.3498472 SPIN=   0.00000
   O  -0.1278899   0.3805845  -0.2461323 SPIN=   0.00000
   P   0.1028663   0.1978311  -0.2137789 SPIN=   0.00000
   O   0.0018379   0.0724649   0.2785860 SPIN=   0.00000
   O   0.2029874  -0.2973467  -0.0358461 SPIN=   0.00000
   O   0.3691943  -0.2382036   0.3498472 SPIN=   0.00000
   O  -0.1278899  -0.3805845   0.2461323 SPIN=   0.00000
   P   0.1028663  -0.1978311   0.2137789 SPIN=   0.00000
  Fe   0.0589913   0.5000000  -0.5000000 SPIN=   5.28396
  Fe  -0.4367570  -0.5000000  -0.0000000 SPIN=   2.71604
%ENDBLOCK POSITIONS_FRAC

# Note: total spin =   8.00

KPOINTS_MP_SPACING 0.07

%BLOCK SPECIES_POT
QC5
%ENDBLOCK SPECIES_POT

%BLOCK HUBBARD_U
Fe d:4.0
%ENDBLOCK HUBBARD_U

SNAP_TO_SYMMETRY
SYMMETRY_GENERATE

