#              Generated by Buildcell
#
# at 20:34:18 (GMT+0.0) 26th November 2020
# in /lustre/scratch/uccabz1/launch_tmp
# on node-c12e-029
# by uccabz1
#
# compiler GCC version 4.9.2
# options -cpp -iprefix /lustre/shared/ucl/apps/gcc/4.9.2/bin/../lib/gcc/x86_64-unknown-linux-gnu/4.9.2/ -mtune=corei7 -march=x86-64 -g -Og
#
# seed  -505032385  1856016284  1033760569   828841172    47273798  -712523476  -498759297  1113327972 -1037350216  1982165832  -633277077  2039135213
#
#      Author: C. J. Pickard (cjp20@cam.ac.uk)
#                Space group: C2
#

%BLOCK LATTICE_ABC
      6.02853      7.43069      7.43069
     96.82960     99.55565     99.55565
%ENDBLOCK LATTICE_ABC

%BLOCK POSITIONS_FRAC
  Li   0.2415762  -0.1817079   0.1405328 SPIN=   0.00000
  Li  -0.2415762  -0.1405328   0.1817079 SPIN=   0.00000
  Li  -0.2589805   0.0862572  -0.1331879 SPIN=   0.00000
  Li   0.2589805   0.1331879  -0.0862572 SPIN=   0.00000
   O   0.5932681  -0.1034862  -0.5883831 SPIN=   0.00000
   O   0.3825846  -0.0452119  -0.3152286 SPIN=   0.00000
   O   0.2764505  -0.3496722  -0.5128176 SPIN=   0.00000
   O   0.6576860  -0.2635927  -0.2990958 SPIN=   0.00000
   P   0.4857879  -0.1867208  -0.4358423 SPIN=   0.00000
   O  -0.5932681   0.5883831   0.1034862 SPIN=   0.00000
   O  -0.3825846   0.3152286   0.0452119 SPIN=   0.00000
   O  -0.2764505   0.5128176   0.3496722 SPIN=   0.00000
   O  -0.6576860   0.2990958   0.2635927 SPIN=   0.00000
   P  -0.4857879   0.4358423   0.1867208 SPIN=   0.00000
   O   0.1256295   0.6195129  -0.2263179 SPIN=   0.00000
   O   0.0315140   0.3311257  -0.0664835 SPIN=   0.00000
   O  -0.1289445   0.6060116   0.0234877 SPIN=   0.00000
   O  -0.2793349   0.4174353  -0.2886390 SPIN=   0.00000
   P  -0.0553074   0.4993319  -0.1458716 SPIN=   0.00000
   O  -0.1256295   0.2263179  -0.6195129 SPIN=   0.00000
   O  -0.0315140   0.0664835  -0.3311257 SPIN=   0.00000
   O   0.1289445  -0.0234877  -0.6060116 SPIN=   0.00000
   O   0.2793349   0.2886390  -0.4174353 SPIN=   0.00000
   P   0.0553074   0.1458716  -0.4993319 SPIN=   0.00000
  Fe   0.4571285  -0.4485470  -0.1704151 SPIN=   6.68279
  Fe  -0.4571285   0.1704151   0.4485470 SPIN=   6.68279
  Fe  -0.0347864  -0.2166238  -0.3987548 SPIN=   1.31721
  Fe   0.0347864   0.3987548   0.2166238 SPIN=   1.31721
%ENDBLOCK POSITIONS_FRAC

# Note: total spin =  16.00

KPOINTS_MP_SPACING 0.07

%BLOCK SPECIES_POT
QC5
%ENDBLOCK SPECIES_POT

%BLOCK HUBBARD_U
Fe d:4.0
%ENDBLOCK HUBBARD_U

SNAP_TO_SYMMETRY
SYMMETRY_GENERATE

