#              Generated by Buildcell
#
# at 13:46:21 (GMT+0.0) 24th November 2020
# in /scratch/scratch/uccabz1/launch_tmp
# on node-a14b-010
# by uccabz1
#
# compiler GCC version 4.9.2
# options -cpp -iprefix /scratch/UCL/applications/gcc/4.9.2/bin/../lib/gcc/x86_64-unknown-linux-gnu/4.9.2/ -mtune=corei7 -march=x86-64 -g -O2
#
# seed  2137903181  1682394543  1793825367 -2072238672 -1970598158    34442968 -1169070098  1495406538  1034275078 -1777107831  -852843330   -14019946
#
#      Author: C. J. Pickard (cjp20@cam.ac.uk)
#                Space group: P-1
#

%BLOCK LATTICE_ABC
      4.02663      4.39471      9.40189
     77.37067     80.36103     89.37702
%ENDBLOCK LATTICE_ABC

%BLOCK POSITIONS_FRAC
  Li  -0.2669803  -0.2692352   0.0363282 SPIN=   0.00000
  Li   0.2669803   0.2692352  -0.0363282 SPIN=   0.00000
   O  -0.1952681  -0.4689846   0.2768602 SPIN=   0.00000
   O  -0.2332970  -0.0168437   0.4161219 SPIN=   0.00000
   O   0.3198850  -0.1202500   0.2790977 SPIN=   0.00000
   O  -0.1337644   0.1097044   0.1391779 SPIN=   0.00000
   P  -0.0686443  -0.1396981   0.2761276 SPIN=   0.00000
   O   0.1952681   0.4689846  -0.2768602 SPIN=   0.00000
   O   0.2332970   0.0168437  -0.4161219 SPIN=   0.00000
   O  -0.3198850   0.1202500  -0.2790977 SPIN=   0.00000
   O   0.1337644  -0.1097044  -0.1391779 SPIN=   0.00000
   P   0.0686443   0.1396981  -0.2761276 SPIN=   0.00000
  Fe   0.3239917  -0.6800165   0.3537473 SPIN=   4.00000
  Fe  -0.3239917   0.6800165  -0.3537473 SPIN=   4.00000
%ENDBLOCK POSITIONS_FRAC

# Note: total spin =   8.00

KPOINTS_MP_SPACING 0.07

%BLOCK SPECIES_POT
QC5
%ENDBLOCK SPECIES_POT

%BLOCK HUBBARD_U
Fe d:4.0
%ENDBLOCK HUBBARD_U

SNAP_TO_SYMMETRY
SYMMETRY_GENERATE

