#              Generated by Buildcell
#
# at 06:49:19 (GMT+0.0) 24th November 2020
# in /lustre/scratch/uccabz1/launch_tmp
# on node-c12j-029
# by uccabz1
#
# compiler GCC version 4.9.2
# options -cpp -iprefix /lustre/shared/ucl/apps/gcc/4.9.2/bin/../lib/gcc/x86_64-unknown-linux-gnu/4.9.2/ -mtune=corei7 -march=x86-64 -g -Og
#
# seed     3900194 -1134345550 -1028342591  -889507972   -47430232 -1445968929  -492382681  1933176703 -1440912279  -865164130  2017522472  -695442965
#
#      Author: C. J. Pickard (cjp20@cam.ac.uk)
#                Space group: Pc
#

%BLOCK LATTICE_ABC
      4.29052      4.39320      8.51450
     90.00000     94.48218     90.00000
%ENDBLOCK LATTICE_ABC

%BLOCK POSITIONS_FRAC
  Li   0.4653321  -0.1919246   0.0386976 SPIN=   0.00000
  Li   0.4653321   0.1919246  -0.4613024 SPIN=   0.00000
   O   0.4600775   0.5487910   0.3660428 SPIN=   0.00000
   O   0.1854411   0.0399503   0.2835199 SPIN=   0.00000
   O   0.1441154   0.4700032   0.0961905 SPIN=   0.00000
   O   0.6570907   0.2027679   0.1494052 SPIN=   0.00000
   P   0.3704064   0.3264772   0.2304861 SPIN=   0.00000
   O   0.4600775  -0.5487910  -0.1339572 SPIN=   0.00000
   O   0.1854411  -0.0399503  -0.2164801 SPIN=   0.00000
   O   0.1441154  -0.4700032  -0.4038095 SPIN=   0.00000
   O   0.6570907  -0.2027679  -0.3505948 SPIN=   0.00000
   P   0.3704064  -0.3264772  -0.2695139 SPIN=   0.00000
  Fe  -0.0715815   0.3080230  -0.1174747 SPIN=   4.00000
  Fe  -0.0715815  -0.3080230   0.3825253 SPIN=   4.00000
%ENDBLOCK POSITIONS_FRAC

# Note: total spin =   8.00

KPOINTS_MP_SPACING 0.07

%BLOCK SPECIES_POT
QC5
%ENDBLOCK SPECIES_POT

%BLOCK HUBBARD_U
Fe d:4.0
%ENDBLOCK HUBBARD_U

SNAP_TO_SYMMETRY
SYMMETRY_GENERATE

