#              Generated by Buildcell
#
# at 10:14:28 (GMT+0.0) 24th November 2020
# in /scratch/scratch/uccabz1/launch_tmp
# on node-a14a-010
# by uccabz1
#
# compiler GCC version 4.9.2
# options -cpp -iprefix /scratch/UCL/applications/gcc/4.9.2/bin/../lib/gcc/x86_64-unknown-linux-gnu/4.9.2/ -mtune=corei7 -march=x86-64 -g -O2
#
# seed  -761671140  1201667414   875786931  1782792609   934715062  2071180000  -112673567  1859676415  -177330677  -323915450  2031409345  1050938616
#
#      Author: C. J. Pickard (cjp20@cam.ac.uk)
#                Space group: P-1
#

%BLOCK LATTICE_ABC
      3.91708      6.02011      7.35560
     71.18976     77.35998     83.22560
%ENDBLOCK LATTICE_ABC

%BLOCK POSITIONS_FRAC
  Li  -0.1192370   0.7626787  -0.3597667 SPIN=   0.00000
  Li   0.1192370  -0.7626787   0.3597667 SPIN=   0.00000
   O  -0.1221748   0.3415411  -0.1067379 SPIN=   0.00000
   O  -0.0125443   0.0198857   0.2120892 SPIN=   0.00000
   O  -0.3558168   0.3827473   0.2403657 SPIN=   0.00000
   P  -0.2728284   0.2148984   0.1090483 SPIN=   0.00000
   O   0.1221748  -0.3415411   0.1067379 SPIN=   0.00000
   O   0.0125443  -0.0198857  -0.2120892 SPIN=   0.00000
   O   0.3558168  -0.3827473  -0.2403657 SPIN=   0.00000
   P   0.2728284  -0.2148984  -0.1090483 SPIN=   0.00000
   O   0.0000000   0.5000000  -0.5000000 SPIN=   0.00000
   O  -0.5000000   1.0000000  -0.5000000 SPIN=   0.00000
  Fe  -0.4936094   0.2571201  -0.2481054 SPIN=   4.00000
  Fe   0.4936094  -0.2571201   0.2481054 SPIN=   4.00000
%ENDBLOCK POSITIONS_FRAC

# Note: total spin =   8.00

KPOINTS_MP_SPACING 0.07

%BLOCK SPECIES_POT
QC5
%ENDBLOCK SPECIES_POT

%BLOCK HUBBARD_U
Fe d:4.0
%ENDBLOCK HUBBARD_U

SNAP_TO_SYMMETRY
SYMMETRY_GENERATE

