#              Generated by Buildcell
#
# at 23:06:44 (GMT+0.0) 26th November 2020
# in /lustre/scratch/uccabz1/launch_tmp
# on node-c12g-031
# by uccabz1
#
# compiler GCC version 4.9.2
# options -cpp -iprefix /lustre/shared/ucl/apps/gcc/4.9.2/bin/../lib/gcc/x86_64-unknown-linux-gnu/4.9.2/ -mtune=corei7 -march=x86-64 -g -Og
#
# seed  -546146906 -1165089676  -105484648 -1745617236  -904286747    -3565033 -1692667846  -985952932  -408270398  -370598912   680893624  -163129510
#
#      Author: C. J. Pickard (cjp20@cam.ac.uk)
#                Space group: P-1
#

%BLOCK LATTICE_ABC
      5.23847      6.89057      9.42624
     70.38921     87.93216     86.95164
%ENDBLOCK LATTICE_ABC

%BLOCK POSITIONS_FRAC
  Li  -0.2234795   0.0180046  -0.3963679 SPIN=   0.00000
  Li   0.2234795  -0.0180046   0.3963679 SPIN=   0.00000
  Li  -0.2564563  -0.4290567  -0.4481090 SPIN=   0.00000
  Li   0.2564563   0.4290567   0.4481090 SPIN=   0.00000
   O   0.4964851   0.3123779   0.0251300 SPIN=   0.00000
   O   0.1190842   0.5144883   0.1064477 SPIN=   0.00000
   O   0.0869725   0.1394935   0.1635485 SPIN=   0.00000
   O   0.3962850   0.2683790   0.3042454 SPIN=   0.00000
   P   0.2879500   0.3084057   0.1450247 SPIN=   0.00000
   O  -0.4964851  -0.3123779  -0.0251300 SPIN=   0.00000
   O  -0.1190842  -0.5144883  -0.1064477 SPIN=   0.00000
   O  -0.0869725  -0.1394935  -0.1635485 SPIN=   0.00000
   O  -0.3962850  -0.2683790  -0.3042454 SPIN=   0.00000
   P  -0.2879500  -0.3084057  -0.1450247 SPIN=   0.00000
   O  -0.4325807  -0.3879306   0.2688142 SPIN=   0.00000
   O  -0.2566706  -0.0414087   0.0939447 SPIN=   0.00000
   O  -0.3763994  -0.0735053   0.3564559 SPIN=   0.00000
   O   0.0124128  -0.2688046   0.3048894 SPIN=   0.00000
   P  -0.2690685  -0.2041917   0.2572836 SPIN=   0.00000
   O   0.4325807   0.3879306  -0.2688142 SPIN=   0.00000
   O   0.2566706   0.0414087  -0.0939447 SPIN=   0.00000
   O   0.3763994   0.0735053  -0.3564559 SPIN=   0.00000
   O  -0.0124128   0.2688046  -0.3048894 SPIN=   0.00000
   P   0.2690685   0.2041917  -0.2572836 SPIN=   0.00000
  Fe   0.2218222  -0.3495386  -0.2557997 SPIN=   2.18598
  Fe  -0.2218222   0.3495386   0.2557997 SPIN=   2.18598
  Fe  -0.2563373   0.2037199  -0.1145494 SPIN=   5.81402
  Fe   0.2563373  -0.2037199   0.1145494 SPIN=   5.81402
%ENDBLOCK POSITIONS_FRAC

# Note: total spin =  16.00

KPOINTS_MP_SPACING 0.07

%BLOCK SPECIES_POT
QC5
%ENDBLOCK SPECIES_POT

%BLOCK HUBBARD_U
Fe d:4.0
%ENDBLOCK HUBBARD_U

SNAP_TO_SYMMETRY
SYMMETRY_GENERATE

