#              Generated by Buildcell
#
# at 21:20:48 (GMT+0.0) 26th November 2020
# in /lustre/scratch/uccabz1/launch_tmp
# on node-c12l-026
# by uccabz1
#
# compiler GCC version 4.9.2
# options -cpp -iprefix /lustre/shared/ucl/apps/gcc/4.9.2/bin/../lib/gcc/x86_64-unknown-linux-gnu/4.9.2/ -mtune=corei7 -march=x86-64 -g -Og
#
# seed   822704819  -663825489  1619615864  -776798179   672908787  -508997518 -2081519356  -601583050  -359586909     5694776  2144437212  -875269511
#
#      Author: C. J. Pickard (cjp20@cam.ac.uk)
#                Space group: Aea2
#

%BLOCK LATTICE_ABC
      4.48288      4.48288     16.02369
     90.00000     90.00000     96.41277
%ENDBLOCK LATTICE_ABC

%BLOCK POSITIONS_FRAC
  Li   0.1968912  -0.0071713  -0.2329127 SPIN=   0.00000
  Li   0.0071713  -0.1968912   0.2329127 SPIN=   0.00000
  Li  -0.4928287   0.3031088   0.2670873 SPIN=   0.00000
  Li  -0.3031088   0.4928287  -0.2670873 SPIN=   0.00000
   O  -0.0650888   0.6412843  -0.4353109 SPIN=   0.00000
   O   0.2112123   0.5794841  -0.2948956 SPIN=   0.00000
   O  -0.0495736   0.1268332  -0.3617164 SPIN=   0.00000
   O   0.4202304   0.3819430  -0.4261640 SPIN=   0.00000
   P   0.1222850   0.4429137  -0.3830426 SPIN=   0.00000
   O  -0.6412843   0.0650888   0.4353109 SPIN=   0.00000
   O  -0.5794841  -0.2112123   0.2948956 SPIN=   0.00000
   O  -0.1268332   0.0495736   0.3617164 SPIN=   0.00000
   O  -0.3819430  -0.4202304   0.4261640 SPIN=   0.00000
   P  -0.4429137  -0.1222850   0.3830426 SPIN=   0.00000
   O  -0.1412843   0.5650888   0.0646891 SPIN=   0.00000
   O  -0.0794841   0.2887877   0.2051044 SPIN=   0.00000
   O   0.3731668   0.5495736   0.1382836 SPIN=   0.00000
   O   0.1180570   0.0797696   0.0738360 SPIN=   0.00000
   P   0.0570863   0.3777150   0.1169574 SPIN=   0.00000
   O  -0.5650888   0.1412843  -0.0646891 SPIN=   0.00000
   O  -0.2887877   0.0794841  -0.2051044 SPIN=   0.00000
   O  -0.5495736  -0.3731668  -0.1382836 SPIN=   0.00000
   O  -0.0797696  -0.1180570  -0.0738360 SPIN=   0.00000
   P  -0.3777150  -0.0570863  -0.1169574 SPIN=   0.00000
  Fe  -0.4475601  -0.0523976  -0.4209098 SPIN=   4.00000
  Fe   0.0523976   0.4475601   0.4209098 SPIN=   4.00000
  Fe  -0.4476024  -0.0524399   0.0790902 SPIN=   4.00000
  Fe   0.0524399   0.4476024  -0.0790902 SPIN=   4.00000
%ENDBLOCK POSITIONS_FRAC

# Note: total spin =  16.00

KPOINTS_MP_SPACING 0.07

%BLOCK SPECIES_POT
QC5
%ENDBLOCK SPECIES_POT

%BLOCK HUBBARD_U
Fe d:4.0
%ENDBLOCK HUBBARD_U

SNAP_TO_SYMMETRY
SYMMETRY_GENERATE

