#              Generated by Buildcell
#
# at 13:23:03 (GMT+0.0) 24th November 2020
# in /scratch/scratch/uccabz1/launch_tmp
# on node-k10d-036
# by uccabz1
#
# compiler GCC version 4.9.2
# options -cpp -iprefix /scratch/UCL/applications/gcc/4.9.2/bin/../lib/gcc/x86_64-unknown-linux-gnu/4.9.2/ -mtune=corei7 -march=x86-64 -g -O2
#
# seed  -756722679   -42209171  -867759031  1977099577  1365721634  -487417940 -1749377780 -1184443419  -549760276 -1740741929 -1105690624  2131144285
#
#      Author: C. J. Pickard (cjp20@cam.ac.uk)
#                Space group: P21
#

%BLOCK LATTICE_ABC
      3.91754      4.74754      8.81619
    102.63298     90.00000     90.00000
%ENDBLOCK LATTICE_ABC

%BLOCK POSITIONS_FRAC
  Li   0.0249873  -0.2491906   0.0273051 SPIN=   0.00000
  Li  -0.4750127   0.2491906  -0.0273051 SPIN=   0.00000
   O   0.5570809  -0.0455432   0.1249874 SPIN=   0.00000
   O   0.0359291  -0.0197050   0.3097757 SPIN=   0.00000
   O   0.5359524   0.2876714   0.4010819 SPIN=   0.00000
   O   0.1649183   0.4019271   0.1911432 SPIN=   0.00000
   P   0.3340377   0.1482529   0.2489573 SPIN=   0.00000
   O   0.0570809   0.0455432  -0.1249874 SPIN=   0.00000
   O  -0.4640709   0.0197050  -0.3097757 SPIN=   0.00000
   O   0.0359524  -0.2876714  -0.4010819 SPIN=   0.00000
   O  -0.3350817  -0.4019271  -0.1911432 SPIN=   0.00000
   P  -0.1659623  -0.1482529  -0.2489573 SPIN=   0.00000
  Fe  -0.3334808  -0.3072537   0.3590113 SPIN=   4.00000
  Fe   0.1665192   0.3072537  -0.3590113 SPIN=   4.00000
%ENDBLOCK POSITIONS_FRAC

# Note: total spin =   8.00

KPOINTS_MP_SPACING 0.07

%BLOCK SPECIES_POT
QC5
%ENDBLOCK SPECIES_POT

%BLOCK HUBBARD_U
Fe d:4.0
%ENDBLOCK HUBBARD_U

SNAP_TO_SYMMETRY
SYMMETRY_GENERATE

