#              Generated by Buildcell
#
# at 10:53:36 (GMT+0.0) 24th November 2020
# in /lustre/scratch/uccabz1/launch_tmp
# on node-c12h-032
# by uccabz1
#
# compiler GCC version 4.9.2
# options -cpp -iprefix /lustre/shared/ucl/apps/gcc/4.9.2/bin/../lib/gcc/x86_64-unknown-linux-gnu/4.9.2/ -mtune=corei7 -march=x86-64 -g -Og
#
# seed -2037039371 -1914194137   385348271  -334464710  -686831636  -349171056 -1144009427   263423715   158256624  1676478517  1311018641 -1453056855
#
#      Author: C. J. Pickard (cjp20@cam.ac.uk)
#                Space group: Pmn21
#

%BLOCK LATTICE_ABC
      5.32899      5.46261      5.49636
     90.00000     90.00000     90.00000
%ENDBLOCK LATTICE_ABC

%BLOCK POSITIONS_FRAC
  Li  -0.4948360  -0.0000000  -0.1570165 SPIN=   0.00000
  Li   0.4948360   0.5000000   0.3429835 SPIN=   0.00000
   O   0.2809916   0.2745676   0.1015143 SPIN=   0.00000
   O   0.2597580   0.2746224   0.5737551 SPIN=   0.00000
   O  -0.2809916   0.2254324  -0.3984857 SPIN=   0.00000
   O  -0.2597580   0.2253776   0.0737551 SPIN=   0.00000
   O  -0.2809916  -0.2254324  -0.3984857 SPIN=   0.00000
   O  -0.2597580  -0.2253776   0.0737551 SPIN=   0.00000
   O   0.2809916  -0.2745676   0.1015143 SPIN=   0.00000
   O   0.2597580  -0.2746224   0.5737551 SPIN=   0.00000
   P   0.0051652  -0.0000000  -0.1677616 SPIN=   0.00000
   P  -0.0051652   0.5000000   0.3322384 SPIN=   0.00000
  Fe   0.1456671   0.0000000   0.3324427 SPIN=   4.00000
  Fe  -0.1456671   0.5000000  -0.1675573 SPIN=   4.00000
%ENDBLOCK POSITIONS_FRAC

# Note: total spin =   8.00

KPOINTS_MP_SPACING 0.07

%BLOCK SPECIES_POT
QC5
%ENDBLOCK SPECIES_POT

%BLOCK HUBBARD_U
Fe d:4.0
%ENDBLOCK HUBBARD_U

SNAP_TO_SYMMETRY
SYMMETRY_GENERATE

