#              Generated by Buildcell
#
# at 20:08:59 (GMT+0.0) 26th November 2020
# in /lustre/scratch/uccabz1/launch_tmp
# on node-c12g-023
# by uccabz1
#
# compiler GCC version 4.9.2
# options -cpp -iprefix /lustre/shared/ucl/apps/gcc/4.9.2/bin/../lib/gcc/x86_64-unknown-linux-gnu/4.9.2/ -mtune=corei7 -march=x86-64 -g -Og
#
# seed   213235857   441710341  -825243947   -18179861  1864077752  1298570127  1601931403 -1243800096  -719104135 -1541548810  -211006268   874566370
#
#      Author: C. J. Pickard (cjp20@cam.ac.uk)
#                Space group: Pm
#

%BLOCK LATTICE_ABC
      4.75250      7.32667      9.53117
     90.00000     90.00000    105.37384
%ENDBLOCK LATTICE_ABC

%BLOCK POSITIONS_FRAC
  Li  -0.4293212   0.2649118   0.1680456 SPIN=   0.00000
  Li  -0.4293212   0.2649118  -0.1680456 SPIN=   0.00000
  Li   0.3272863  -0.1497020  -0.3349855 SPIN=   0.00000
  Li   0.3272863  -0.1497020   0.3349855 SPIN=   0.00000
   O  -0.2246376  -0.4675246  -0.2533139 SPIN=   0.00000
   O   0.0735238  -0.1423656  -0.1562152 SPIN=   0.00000
   O  -0.2335182  -0.1461216  -0.3658436 SPIN=   0.00000
   O  -0.4706563  -0.2347092  -0.1319828 SPIN=   0.00000
   P  -0.2174288  -0.2592328  -0.2271291 SPIN=   0.00000
   O  -0.2246376  -0.4675246   0.2533139 SPIN=   0.00000
   O   0.0735238  -0.1423656   0.1562152 SPIN=   0.00000
   O  -0.2335182  -0.1461216   0.3658436 SPIN=   0.00000
   O  -0.4706563  -0.2347092   0.1319828 SPIN=   0.00000
   P  -0.2174288  -0.2592328   0.2271291 SPIN=   0.00000
   O   0.2863578   0.5575901  -0.3352114 SPIN=   0.00000
   O   0.2593813   0.1994938  -0.3528694 SPIN=   0.00000
   O   0.1248685   0.3221660  -0.1283410 SPIN=   0.00000
   P   0.1218637   0.3555100  -0.2913027 SPIN=   0.00000
   O   0.2863578   0.5575901   0.3352114 SPIN=   0.00000
   O   0.2593813   0.1994938   0.3528694 SPIN=   0.00000
   O   0.1248685   0.3221660   0.1283410 SPIN=   0.00000
   P   0.1218637   0.3555100   0.2913027 SPIN=   0.00000
   O   0.4830580   0.0694671   0.0000000 SPIN=   0.00000
   O  -0.1751814  -0.4066763   0.0000000 SPIN=   0.00000
  Fe  -0.0540257   0.0176163   0.0000000 SPIN=   9.38002
  Fe  -0.3988004  -0.4689312  -0.5000000 SPIN=   3.78394
  Fe  -0.0785524   0.0821071  -0.5000000 SPIN=   2.78323
  Fe   0.2542510  -0.4326766   0.0000000 SPIN=   0.05281
%ENDBLOCK POSITIONS_FRAC

# Note: total spin =  16.00

KPOINTS_MP_SPACING 0.07

%BLOCK SPECIES_POT
QC5
%ENDBLOCK SPECIES_POT

%BLOCK HUBBARD_U
Fe d:4.0
%ENDBLOCK HUBBARD_U

SNAP_TO_SYMMETRY
SYMMETRY_GENERATE

