#              Generated by Buildcell
#
# at 21:14:20 (GMT+0.0) 26th November 2020
# in /scratch/scratch/mmm0366/launch_tmp
# on node-k98q-024
# by mmm0366
#
# compiler GCC version 4.9.2
# options -cpp -iprefix /scratch/UCL/applications/gcc/4.9.2/bin/../lib/gcc/x86_64-unknown-linux-gnu/4.9.2/ -mtune=corei7 -march=x86-64 -g -O2
#
# seed    36755722  1899035778   995358570   902815990   815933188  1743672708  -765416819  -177977339 -1247587558 -1770891515  1462457089  1569946962
#
#      Author: C. J. Pickard (cjp20@cam.ac.uk)
#                Space group: P21212
#

%BLOCK LATTICE_ABC
      6.53850      6.61083      7.40314
     90.00000     90.00000     90.00000
%ENDBLOCK LATTICE_ABC

%BLOCK POSITIONS_FRAC
  Li   0.5000000  -0.0000000   0.4726722 SPIN=   0.00000
  Li   0.0000000   0.5000000  -0.4726722 SPIN=   0.00000
  Li   0.0000000  -0.0000000   0.0251364 SPIN=   0.00000
  Li   0.5000000  -0.5000000  -0.0251364 SPIN=   0.00000
   O   0.1953189  -0.4939233  -0.2224116 SPIN=   0.00000
   O   0.1777770  -0.1023635  -0.1966781 SPIN=   0.00000
   O   0.5172787  -0.2636014  -0.2226512 SPIN=   0.00000
   O   0.2830523  -0.2590999  -0.4902790 SPIN=   0.00000
   P   0.2880150  -0.2909072  -0.2822247 SPIN=   0.00000
   O  -0.1953189   0.4939233  -0.2224116 SPIN=   0.00000
   O  -0.1777770   0.1023635  -0.1966781 SPIN=   0.00000
   O  -0.5172787   0.2636014  -0.2226512 SPIN=   0.00000
   O  -0.2830523   0.2590999  -0.4902790 SPIN=   0.00000
   P  -0.2880150   0.2909072  -0.2822247 SPIN=   0.00000
   O   0.3046811   0.0060767   0.2224116 SPIN=   0.00000
   O   0.3222230   0.3976365   0.1966781 SPIN=   0.00000
   O  -0.0172787   0.2363986   0.2226512 SPIN=   0.00000
   O   0.2169477   0.2409001   0.4902790 SPIN=   0.00000
   P   0.2119850   0.2090928   0.2822247 SPIN=   0.00000
   O  -0.3046811  -0.0060767   0.2224116 SPIN=   0.00000
   O  -0.3222230  -0.3976365   0.1966781 SPIN=   0.00000
   O   0.0172787  -0.2363986   0.2226512 SPIN=   0.00000
   O  -0.2169477  -0.2409001   0.4902790 SPIN=   0.00000
   P  -0.2119850  -0.2090928   0.2822247 SPIN=   0.00000
  Fe   0.0000000  -0.0000000  -0.4325455 SPIN=   3.87360
  Fe   0.5000000  -0.5000000   0.4325455 SPIN=   3.87360
  Fe   0.0000000   0.5000000   0.0530570 SPIN=   4.12640
  Fe   0.5000000  -0.0000000  -0.0530570 SPIN=   4.12640
%ENDBLOCK POSITIONS_FRAC

# Note: total spin =  16.00

KPOINTS_MP_SPACING 0.07

%BLOCK SPECIES_POT
QC5
%ENDBLOCK SPECIES_POT

%BLOCK HUBBARD_U
Fe d:4.0
%ENDBLOCK HUBBARD_U

SNAP_TO_SYMMETRY
SYMMETRY_GENERATE

