#              Generated by Buildcell
#
# at 06:53:57 (GMT+0.0) 26th November 2020
# in /scratch/scratch/mmm0366/launch_tmp
# on node-k98j-014
# by mmm0366
#
# compiler GCC version 4.9.2
# options -cpp -iprefix /scratch/UCL/applications/gcc/4.9.2/bin/../lib/gcc/x86_64-unknown-linux-gnu/4.9.2/ -mtune=corei7 -march=x86-64 -g -O2
#
# seed -1163640258  1933626390   393964041  1694619431  -684608412  1235748811 -1882130975  -257216553  -854407146  1907173963  2143228715  1010190176
#
#      Author: C. J. Pickard (cjp20@cam.ac.uk)
#                Space group: P-1
#

%BLOCK LATTICE_ABC
      5.87679      6.29501      8.98102
    104.65074     94.74653     91.35499
%ENDBLOCK LATTICE_ABC

%BLOCK POSITIONS_FRAC
  Li  -0.1958359  -0.4063167   0.4195079 SPIN=   0.00000
  Li   0.1958359   0.4063167  -0.4195079 SPIN=   0.00000
  Li  -0.1920384   0.2811755   0.0496272 SPIN=   0.00000
  Li   0.1920384  -0.2811755  -0.0496272 SPIN=   0.00000
   O  -0.3175474   0.1638788  -0.2003483 SPIN=   0.00000
   O  -0.3634731  -0.1252765  -0.4659503 SPIN=   0.00000
   O  -0.0714025   0.1774371  -0.4253916 SPIN=   0.00000
   O  -0.0118431  -0.1183903  -0.2867705 SPIN=   0.00000
   P  -0.1956860   0.0301529  -0.3362511 SPIN=   0.00000
   O   0.3175474  -0.1638788   0.2003483 SPIN=   0.00000
   O   0.3634731   0.1252765   0.4659503 SPIN=   0.00000
   O   0.0714025  -0.1774371   0.4253916 SPIN=   0.00000
   O   0.0118431   0.1183903   0.2867705 SPIN=   0.00000
   P   0.1956860  -0.0301529   0.3362511 SPIN=   0.00000
   O  -0.4665121  -0.3605782  -0.0699884 SPIN=   0.00000
   O  -0.3658083   0.0262231   0.1143224 SPIN=   0.00000
   O  -0.2166662  -0.2977114   0.1912538 SPIN=   0.00000
   P  -0.2843023  -0.2116752   0.0444530 SPIN=   0.00000
   O   0.4665121   0.3605782   0.0699884 SPIN=   0.00000
   O   0.3658083  -0.0262231  -0.1143224 SPIN=   0.00000
   O   0.2166662   0.2977114  -0.1912538 SPIN=   0.00000
   P   0.2843023   0.2116752  -0.0444530 SPIN=   0.00000
   O   0.0000000   0.0000000  -0.0000000 SPIN=   0.00000
   O  -0.5000000  -0.5000000   0.5000000 SPIN=   0.00000
  Fe  -0.2807702   0.4874212  -0.2511060 SPIN=   3.63141
  Fe   0.2807702  -0.4874212   0.2511060 SPIN=   3.63141
  Fe  -0.3143219   0.0656663   0.3502906 SPIN=   4.36859
  Fe   0.3143219  -0.0656663  -0.3502906 SPIN=   4.36859
%ENDBLOCK POSITIONS_FRAC

# Note: total spin =  16.00

KPOINTS_MP_SPACING 0.07

%BLOCK SPECIES_POT
QC5
%ENDBLOCK SPECIES_POT

%BLOCK HUBBARD_U
Fe d:4.0
%ENDBLOCK HUBBARD_U

SNAP_TO_SYMMETRY
SYMMETRY_GENERATE

