#              Generated by Buildcell
#
# at 10:57:00 (GMT+0.0) 24th November 2020
# in /scratch/scratch/uccabz1/launch_tmp
# on node-a14e-012
# by uccabz1
#
# compiler GCC version 4.9.2
# options -cpp -iprefix /scratch/UCL/applications/gcc/4.9.2/bin/../lib/gcc/x86_64-unknown-linux-gnu/4.9.2/ -mtune=corei7 -march=x86-64 -g -O2
#
# seed  1270357657   152419274  1031791901 -1167392978  1944621158   813564841 -1231278500   150983765   547482171    98316896 -2016509985  1345818243
#
#      Author: C. J. Pickard (cjp20@cam.ac.uk)
#                Space group: P2
#

%BLOCK LATTICE_ABC
      3.87503      4.38097      9.43406
     90.00000     92.53357     90.00000
%ENDBLOCK LATTICE_ABC

%BLOCK POSITIONS_FRAC
  Li  -0.5166240   0.1981605  -0.1604322 SPIN=   0.00000
  Li   0.5166240   0.1981605   0.1604322 SPIN=   0.00000
   O  -0.0458395  -0.0889029  -0.3719922 SPIN=   0.00000
   O   0.4396859  -0.2742996  -0.1936639 SPIN=   0.00000
   O  -0.0665747  -0.6081717  -0.2396229 SPIN=   0.00000
   P   0.1623660  -0.3634554  -0.3133102 SPIN=   0.00000
   O   0.0458395  -0.0889029   0.3719922 SPIN=   0.00000
   O  -0.4396859  -0.2742996   0.1936639 SPIN=   0.00000
   O   0.0665747  -0.6081717   0.2396229 SPIN=   0.00000
   P  -0.1623660  -0.3634554   0.3133102 SPIN=   0.00000
   O   0.0000000   0.1742610   0.0000000 SPIN=   0.00000
   O  -0.5000000  -0.4717202  -0.5000000 SPIN=   0.00000
  Fe  -0.5000000   0.0440505  -0.5000000 SPIN=   2.39071
  Fe  -0.0000000  -0.3032028   0.0000000 SPIN=   5.60929
%ENDBLOCK POSITIONS_FRAC

# Note: total spin =   8.00

KPOINTS_MP_SPACING 0.07

%BLOCK SPECIES_POT
QC5
%ENDBLOCK SPECIES_POT

%BLOCK HUBBARD_U
Fe d:4.0
%ENDBLOCK HUBBARD_U

SNAP_TO_SYMMETRY
SYMMETRY_GENERATE

