#              Generated by Buildcell
#
# at 06:40:12 (GMT+0.0) 24th November 2020
# in /lustre/scratch/uccabz1/launch_tmp
# on node-c12m-033
# by uccabz1
#
# compiler GCC version 4.9.2
# options -cpp -iprefix /lustre/shared/ucl/apps/gcc/4.9.2/bin/../lib/gcc/x86_64-unknown-linux-gnu/4.9.2/ -mtune=corei7 -march=x86-64 -g -Og
#
# seed   943795911     8609842   846514032   567431726    72803118 -1530162177   200157783  1168164442  -454528312  1785427060 -1594135308   748510188
#
#      Author: C. J. Pickard (cjp20@cam.ac.uk)
#                Space group: Pc
#

%BLOCK LATTICE_ABC
      4.67144      5.77561      6.46233
     90.00000     90.00000    113.41330
%ENDBLOCK LATTICE_ABC

%BLOCK POSITIONS_FRAC
  Li  -0.1877077   0.3004608  -0.4414783 SPIN=   0.00000
  Li   0.3122923  -0.1995392   0.4414783 SPIN=   0.00000
   O   0.0812422  -0.0718454   0.0938688 SPIN=   0.00000
   O  -0.1760473  -0.0631044   0.4485847 SPIN=   0.00000
   O  -0.5187013  -0.2449913   0.1480727 SPIN=   0.00000
   O  -0.2184289  -0.4774422   0.3032192 SPIN=   0.00000
   P  -0.1927072  -0.2098632   0.2408529 SPIN=   0.00000
   O   0.5812422   0.4281546  -0.0938688 SPIN=   0.00000
   O   0.3239527   0.4368956  -0.4485847 SPIN=   0.00000
   O  -0.0187013   0.2550087  -0.1480727 SPIN=   0.00000
   O   0.2815711   0.0225578  -0.3032192 SPIN=   0.00000
   P   0.3072928   0.2901368  -0.2408529 SPIN=   0.00000
  Fe   0.3118862   0.3001989   0.2001224 SPIN=   4.00000
  Fe  -0.1881138  -0.1998011  -0.2001224 SPIN=   4.00000
%ENDBLOCK POSITIONS_FRAC

# Note: total spin =   8.00

KPOINTS_MP_SPACING 0.07

%BLOCK SPECIES_POT
QC5
%ENDBLOCK SPECIES_POT

%BLOCK HUBBARD_U
Fe d:4.0
%ENDBLOCK HUBBARD_U

SNAP_TO_SYMMETRY
SYMMETRY_GENERATE

