#              Generated by Buildcell
#
# at 11:35:56 (GMT+0.0) 24th November 2020
# in /scratch/scratch/uccabz1/launch_tmp
# on node-a14f-013
# by uccabz1
#
# compiler GCC version 4.9.2
# options -cpp -iprefix /scratch/UCL/applications/gcc/4.9.2/bin/../lib/gcc/x86_64-unknown-linux-gnu/4.9.2/ -mtune=corei7 -march=x86-64 -g -O2
#
# seed  1600502416  -833255830   669459692   997849533  1874614883    52623377  -952560286   281596290 -1902984570 -1583434945   -24985698   972520849
#
#      Author: C. J. Pickard (cjp20@cam.ac.uk)
#                Space group: P21
#

%BLOCK LATTICE_ABC
      5.00697      5.40914      5.94697
     90.00000     90.00000     96.59023
%ENDBLOCK LATTICE_ABC

%BLOCK POSITIONS_FRAC
  Li  -0.2795590  -0.4185647  -0.3183836 SPIN=   0.00000
  Li   0.2795590   0.4185647   0.1816164 SPIN=   0.00000
   O  -0.3595229  -0.4287792   0.0297337 SPIN=   0.00000
   O   0.0576486  -0.1508173   0.1845130 SPIN=   0.00000
   O  -0.3599484  -0.1908882   0.4092347 SPIN=   0.00000
   O  -0.0948823  -0.5546837   0.3761766 SPIN=   0.00000
   P  -0.1971335  -0.3391191   0.2396810 SPIN=   0.00000
   O   0.3595229   0.4287792  -0.4702663 SPIN=   0.00000
   O  -0.0576486   0.1508173  -0.3154870 SPIN=   0.00000
   O   0.3599484   0.1908882  -0.0907653 SPIN=   0.00000
   O   0.0948823   0.5546837  -0.1238234 SPIN=   0.00000
   P   0.1971335   0.3391191  -0.2603190 SPIN=   0.00000
  Fe  -0.2595270   0.0894664  -0.0103044 SPIN=   4.00000
  Fe   0.2595270  -0.0894664   0.4896956 SPIN=   4.00000
%ENDBLOCK POSITIONS_FRAC

# Note: total spin =   8.00

KPOINTS_MP_SPACING 0.07

%BLOCK SPECIES_POT
QC5
%ENDBLOCK SPECIES_POT

%BLOCK HUBBARD_U
Fe d:4.0
%ENDBLOCK HUBBARD_U

SNAP_TO_SYMMETRY
SYMMETRY_GENERATE

