#              Generated by Buildcell
#
# at 12:43:29 (GMT+0.0) 24th November 2020
# in /scratch/scratch/uccabz1/launch_tmp
# on node-a14c-007
# by uccabz1
#
# compiler GCC version 4.9.2
# options -cpp -iprefix /scratch/UCL/applications/gcc/4.9.2/bin/../lib/gcc/x86_64-unknown-linux-gnu/4.9.2/ -mtune=corei7 -march=x86-64 -g -O2
#
# seed  -347448316  -771951819  1897933698  -383502253  1053235300  1905506552  -510509025   911571639  1695502508  2107254982 -1302872131   813627208
#
#      Author: C. J. Pickard (cjp20@cam.ac.uk)
#                Space group: F222
#

%BLOCK LATTICE_ABC
      5.90794      5.90794      6.12918
    114.30580    114.30580     98.39287
%ENDBLOCK LATTICE_ABC

%BLOCK POSITIONS_FRAC
  Li   0.5000000   0.5000000  -0.0000000 SPIN=   0.00000
  Li   0.2500000  -0.2500000  -0.5000000 SPIN=   0.00000
   O  -0.0370445  -0.2259726   0.1826087 SPIN=   0.00000
   O  -0.4100891  -0.0862718   0.2533840 SPIN=   0.00000
   O   0.2196533   0.4085813   0.1826087 SPIN=   0.00000
   O   0.6634731   0.3396558   0.2533840 SPIN=   0.00000
   O  -0.4085813  -0.2196533  -0.1826087 SPIN=   0.00000
   O  -0.3396558  -0.6634731  -0.2533840 SPIN=   0.00000
   O   0.2259726   0.0370445  -0.1826087 SPIN=   0.00000
   O   0.0862718   0.4100891  -0.2533840 SPIN=   0.00000
   P  -0.0501152   0.4498848  -0.5000000 SPIN=   0.00000
   P  -0.4498848   0.0501152   0.5000000 SPIN=   0.00000
  Fe  -0.1812324   0.1812324   0.0000000 SPIN=   4.00000
  Fe   0.1812324  -0.1812324   0.0000000 SPIN=   4.00000
%ENDBLOCK POSITIONS_FRAC

# Note: total spin =   8.00

KPOINTS_MP_SPACING 0.07

%BLOCK SPECIES_POT
QC5
%ENDBLOCK SPECIES_POT

%BLOCK HUBBARD_U
Fe d:4.0
%ENDBLOCK HUBBARD_U

SNAP_TO_SYMMETRY
SYMMETRY_GENERATE

