#              Generated by Buildcell
#
# at 11:28:30 (GMT+0.0) 26th November 2020
# in /lustre/scratch/uccabz1/launch_tmp
# on node-c12d-029
# by uccabz1
#
# compiler GCC version 4.9.2
# options -cpp -iprefix /lustre/shared/ucl/apps/gcc/4.9.2/bin/../lib/gcc/x86_64-unknown-linux-gnu/4.9.2/ -mtune=corei7 -march=x86-64 -g -Og
#
# seed   542008076 -1983822980  -188170652  -814162953   166355920 -1701312878 -1029146798  -634703215 -2092987608 -1379939321  -290274999 -1716174400
#
#      Author: C. J. Pickard (cjp20@cam.ac.uk)
#                Space group: Pmn21
#

%BLOCK LATTICE_ABC
      5.68057      5.95200      9.46445
     90.00000     90.00000     90.00000
%ENDBLOCK LATTICE_ABC

%BLOCK POSITIONS_FRAC
  Li   0.0939281   0.3530131   0.2516058 SPIN=   0.00000
  Li  -0.0939281  -0.1469869   0.2483942 SPIN=   0.00000
  Li  -0.0939281  -0.1469869  -0.2483942 SPIN=   0.00000
  Li   0.0939281   0.3530131  -0.2516058 SPIN=   0.00000
   O  -0.3413271   0.1814160  -0.1308856 SPIN=   0.00000
   O  -0.5436605   0.2830075  -0.3686357 SPIN=   0.00000
   O  -0.2245932   0.5287105  -0.2816983 SPIN=   0.00000
   O  -0.1278031   0.1433474  -0.3706377 SPIN=   0.00000
   O   0.3413271  -0.3185840  -0.3691144 SPIN=   0.00000
   O   0.5436605  -0.2169925  -0.1313643 SPIN=   0.00000
   O   0.2245932   0.0287105  -0.2183017 SPIN=   0.00000
   O   0.1278031  -0.3566526  -0.1293623 SPIN=   0.00000
   O   0.3413271  -0.3185840   0.3691144 SPIN=   0.00000
   O   0.5436605  -0.2169925   0.1313643 SPIN=   0.00000
   O   0.2245932   0.0287105   0.2183017 SPIN=   0.00000
   O   0.1278031  -0.3566526   0.1293623 SPIN=   0.00000
   O  -0.3413271   0.1814160   0.1308856 SPIN=   0.00000
   O  -0.5436605   0.2830075   0.3686357 SPIN=   0.00000
   O  -0.2245932   0.5287105   0.2816983 SPIN=   0.00000
   O  -0.1278031   0.1433474   0.3706377 SPIN=   0.00000
   P  -0.2250124   0.0280607   0.0000000 SPIN=   0.00000
   P   0.2250124  -0.4719393  -0.5000000 SPIN=   0.00000
   P  -0.2253177   0.0177366  -0.5000000 SPIN=   0.00000
   P   0.2253177  -0.4822634   0.0000000 SPIN=   0.00000
  Fe   0.2754880   0.0061534  -0.5000000 SPIN=   2.78734
  Fe  -0.2754880  -0.4938466   0.0000000 SPIN=   2.78734
  Fe   0.2762309   0.0088378   0.0000000 SPIN=   5.21266
  Fe  -0.2762309  -0.4911622  -0.5000000 SPIN=   5.21266
%ENDBLOCK POSITIONS_FRAC

# Note: total spin =  16.00

KPOINTS_MP_SPACING 0.07

%BLOCK SPECIES_POT
QC5
%ENDBLOCK SPECIES_POT

%BLOCK HUBBARD_U
Fe d:4.0
%ENDBLOCK HUBBARD_U

SNAP_TO_SYMMETRY
SYMMETRY_GENERATE

