#              Generated by Buildcell
#
# at 06:56:28 (GMT+0.0) 26th November 2020
# in /scratch/scratch/uccabz1/launch_tmp
# on node-k10e-001
# by uccabz1
#
# compiler GCC version 4.9.2
# options -cpp -iprefix /scratch/UCL/applications/gcc/4.9.2/bin/../lib/gcc/x86_64-unknown-linux-gnu/4.9.2/ -mtune=corei7 -march=x86-64 -g -O2
#
# seed  1140336311 -1729401638   168424246  -855833795 -1029578528  1151955210  1751153983 -1184335541 -1546728763  1888359290  -787308767   663740886
#
#      Author: C. J. Pickard (cjp20@cam.ac.uk)
#                Space group: Pc
#

%BLOCK LATTICE_ABC
      4.26440      7.77039     10.33662
    110.89014     90.00000     90.00000
%ENDBLOCK LATTICE_ABC

%BLOCK POSITIONS_FRAC
  Li   0.3115262   0.3293386  -0.4415243 SPIN=   0.00000
  Li  -0.3115262  -0.1706614   0.0584757 SPIN=   0.00000
  Li   0.3001051  -0.3327656   0.2310721 SPIN=   0.00000
  Li  -0.3001051   0.1672344  -0.2689279 SPIN=   0.00000
   O   0.1636596   0.1892029   0.1125849 SPIN=   0.00000
   O   0.1139787  -0.1094541   0.1694915 SPIN=   0.00000
   O   0.6043812   0.0702965   0.2328368 SPIN=   0.00000
   O   0.1106889   0.1965077   0.3634131 SPIN=   0.00000
   P   0.2420544   0.0933959   0.2155819 SPIN=   0.00000
   O  -0.1636596  -0.3107971  -0.3874151 SPIN=   0.00000
   O  -0.1139787  -0.6094541  -0.3305085 SPIN=   0.00000
   O  -0.6043812  -0.4297035  -0.2671632 SPIN=   0.00000
   O  -0.1106889  -0.3034923  -0.1365869 SPIN=   0.00000
   P  -0.2420544  -0.4066041  -0.2844181 SPIN=   0.00000
   O   0.3727334  -0.0867107  -0.1272010 SPIN=   0.00000
   O   0.1657293   0.0400515  -0.3122102 SPIN=   0.00000
   O  -0.1492426   0.0951231  -0.1006789 SPIN=   0.00000
   O   0.3604236   0.2613957  -0.0853008 SPIN=   0.00000
   P   0.1993202   0.0708939  -0.1539574 SPIN=   0.00000
   O  -0.3727334  -0.5867107   0.3727990 SPIN=   0.00000
   O  -0.1657293  -0.4599485   0.1877898 SPIN=   0.00000
   O   0.1492426  -0.4048769   0.3993211 SPIN=   0.00000
   O  -0.3604236  -0.2386043   0.4146992 SPIN=   0.00000
   P  -0.1993202  -0.4291061   0.3460426 SPIN=   0.00000
  Fe  -0.3068688   0.2650351   0.0961021 SPIN=   3.23291
  Fe   0.3068688  -0.2349649  -0.4038979 SPIN=   3.23291
  Fe  -0.1919983   0.0025898   0.3930338 SPIN=   4.76709
  Fe   0.1919983  -0.4974102  -0.1069662 SPIN=   4.76709
%ENDBLOCK POSITIONS_FRAC

# Note: total spin =  16.00

KPOINTS_MP_SPACING 0.07

%BLOCK SPECIES_POT
QC5
%ENDBLOCK SPECIES_POT

%BLOCK HUBBARD_U
Fe d:4.0
%ENDBLOCK HUBBARD_U

SNAP_TO_SYMMETRY
SYMMETRY_GENERATE

