#              Generated by Buildcell
#
# at 17:33:00 (GMT+0.0) 1st December 2020
# in /lustre/scratch/uccabz1/launch_tmp
# on node-c12e-023
# by uccabz1
#
# compiler GCC version 4.9.2
# options -cpp -iprefix /lustre/shared/ucl/apps/gcc/4.9.2/bin/../lib/gcc/x86_64-unknown-linux-gnu/4.9.2/ -mtune=corei7 -march=x86-64 -g -Og
#
# seed -1554553184 -1168713717   306651415  -434855501 -1711475332   419956459   797101602   142269672  -683615144 -1222502314  1611031195 -1626056803
#
#      Author: C. J. Pickard (cjp20@cam.ac.uk)
#                Space group: C2
#

%BLOCK LATTICE_ABC
      5.88981      7.94536      7.94536
     99.28346    108.47656    108.47656
%ENDBLOCK LATTICE_ABC

%BLOCK POSITIONS_FRAC
  Li  -0.2847755   0.0853451  -0.1738463 SPIN=   0.00000
  Li   0.2847755   0.1738463  -0.0853451 SPIN=   0.00000
  Li   0.5822628   0.3089331   0.3284880 SPIN=   0.00000
  Li  -0.5822628  -0.3284880  -0.3089331 SPIN=   0.00000
   O   0.4889833  -0.1771966   0.4936011 SPIN=   0.00000
   O   0.4249694   0.1229603   0.6086182 SPIN=   0.00000
   O   0.7435663   0.1423538   0.4641744 SPIN=   0.00000
   O   0.2669040  -0.0233589   0.2672254 SPIN=   0.00000
   P   0.4789974   0.0054261   0.4580227 SPIN=   0.00000
   O  -0.4889833  -0.4936011   0.1771966 SPIN=   0.00000
   O  -0.4249694  -0.6086182  -0.1229603 SPIN=   0.00000
   O  -0.7435663  -0.4641744  -0.1423538 SPIN=   0.00000
   O  -0.2669040  -0.2672254   0.0233589 SPIN=   0.00000
   P  -0.4789974  -0.4580227  -0.0054261 SPIN=   0.00000
   O   0.1554122   0.2127945   0.1307900 SPIN=   0.00000
   O   0.0391906   0.4940717   0.0757100 SPIN=   0.00000
   O  -0.2893078   0.2270385   0.1028073 SPIN=   0.00000
   P   0.0134422   0.3359990   0.1735811 SPIN=   0.00000
   O  -0.1554122  -0.1307900  -0.2127945 SPIN=   0.00000
   O  -0.0391906  -0.0757100  -0.4940717 SPIN=   0.00000
   O   0.2893078  -0.1028073  -0.2270385 SPIN=   0.00000
   P  -0.0134422  -0.1735811  -0.3359990 SPIN=   0.00000
   O  -0.0000000  -0.5106731  -0.4893269 SPIN=   0.00000
   O  -0.5000000  -0.5658043  -0.4341957 SPIN=   0.00000
  Fe  -0.1344913  -0.5005256  -0.2207375 SPIN=   2.22666
  Fe  -0.8655087  -0.7792625  -0.4994744 SPIN=   2.22666
  Fe   0.5000000  -0.1070162   0.1070162 SPIN=   8.57054
  Fe   0.0000000   0.6866215   0.3133785 SPIN=   2.97615
%ENDBLOCK POSITIONS_FRAC

# Note: total spin =  16.00

KPOINTS_MP_SPACING 0.07

%BLOCK SPECIES_POT
QC5
%ENDBLOCK SPECIES_POT

%BLOCK HUBBARD_U
Fe d:4.0
%ENDBLOCK HUBBARD_U

SNAP_TO_SYMMETRY
SYMMETRY_GENERATE

