#              Generated by Buildcell
#
# at 14:30:17 (GMT+0.0) 24th November 2020
# in /lustre/scratch/uccabz1/launch_tmp
# on node-c12a-027
# by uccabz1
#
# compiler GCC version 4.9.2
# options -cpp -iprefix /lustre/shared/ucl/apps/gcc/4.9.2/bin/../lib/gcc/x86_64-unknown-linux-gnu/4.9.2/ -mtune=corei7 -march=x86-64 -g -Og
#
# seed  2136002769 -1447763895  -587218607 -1317431661 -1347797861  -200791816    75336812  2051900292 -1681960199  1929522702   958422101 -1330335895
#
#      Author: C. J. Pickard (cjp20@cam.ac.uk)
#                Space group: Pmn21
#

%BLOCK LATTICE_ABC
      4.35141      5.50799      6.67570
     90.00000     90.00000     90.00000
%ENDBLOCK LATTICE_ABC

%BLOCK POSITIONS_FRAC
  Li  -0.0583567   0.0000000  -0.3154098 SPIN=   0.00000
  Li   0.4416433  -0.5000000   0.3154098 SPIN=   0.00000
   O   0.2385981  -0.2757738   0.0951702 SPIN=   0.00000
   O  -0.1168127  -0.2757219   0.4078902 SPIN=   0.00000
   O  -0.2614019  -0.2242262  -0.0951702 SPIN=   0.00000
   O  -0.6168127  -0.2242781  -0.4078902 SPIN=   0.00000
   O  -0.2614019   0.2242262  -0.0951702 SPIN=   0.00000
   O  -0.6168127   0.2242781  -0.4078902 SPIN=   0.00000
   O   0.2385981   0.2757738   0.0951702 SPIN=   0.00000
   O  -0.1168127   0.2757219   0.4078902 SPIN=   0.00000
   P   0.4416461   0.0000000  -0.0835426 SPIN=   0.00000
   P  -0.0583539  -0.5000000   0.0835426 SPIN=   0.00000
  Fe  -0.0583471  -0.0000000   0.1938547 SPIN=   4.00000
  Fe   0.4416529  -0.5000000  -0.1938547 SPIN=   4.00000
%ENDBLOCK POSITIONS_FRAC

# Note: total spin =   8.00

KPOINTS_MP_SPACING 0.07

%BLOCK SPECIES_POT
QC5
%ENDBLOCK SPECIES_POT

%BLOCK HUBBARD_U
Fe d:4.0
%ENDBLOCK HUBBARD_U

SNAP_TO_SYMMETRY
SYMMETRY_GENERATE

