#              Generated by Buildcell
#
# at 17:02:38 (GMT+0.0) 26th November 2020
# in /lustre/scratch/uccabz1/launch_tmp
# on node-c12e-026
# by uccabz1
#
# compiler GCC version 4.9.2
# options -cpp -iprefix /lustre/shared/ucl/apps/gcc/4.9.2/bin/../lib/gcc/x86_64-unknown-linux-gnu/4.9.2/ -mtune=corei7 -march=x86-64 -g -Og
#
# seed -2108757245  1092969820  1802143824   445322502 -2119570237  -539765468    96002765 -2021238694  -832920936 -1039870905  -494763555   112789006
#
#      Author: C. J. Pickard (cjp20@cam.ac.uk)
#                Space group: P21
#

%BLOCK LATTICE_ABC
      4.65435      8.17558      9.13055
    112.92219     90.00000     90.00000
%ENDBLOCK LATTICE_ABC

%BLOCK POSITIONS_FRAC
  Li   0.1427319  -0.0621828   0.3278793 SPIN=   0.00000
  Li  -0.3572681   0.0621828  -0.3278793 SPIN=   0.00000
  Li  -0.4727673   0.3741226  -0.0255502 SPIN=   0.00000
  Li   0.0272327  -0.3741226   0.0255502 SPIN=   0.00000
   O  -0.3072032   0.5078182  -0.4147735 SPIN=   0.00000
   O  -0.1016877   0.2844623  -0.3027697 SPIN=   0.00000
   O   0.1406955   0.5741233  -0.2308789 SPIN=   0.00000
   O  -0.3445211   0.5609715  -0.1174140 SPIN=   0.00000
   P  -0.1636382   0.4841606  -0.2725971 SPIN=   0.00000
   O   0.1927968  -0.5078182   0.4147735 SPIN=   0.00000
   O   0.3983123  -0.2844623   0.3027697 SPIN=   0.00000
   O   0.6406955  -0.5741233   0.2308789 SPIN=   0.00000
   O   0.1554789  -0.5609715   0.1174140 SPIN=   0.00000
   P   0.3363618  -0.4841606   0.2725971 SPIN=   0.00000
   O  -0.2476624  -0.0815640   0.1525523 SPIN=   0.00000
   O  -0.1313126   0.2313434   0.3658718 SPIN=   0.00000
   O  -0.6226121   0.1734958   0.2552395 SPIN=   0.00000
   O  -0.4559466   0.0291763   0.4369604 SPIN=   0.00000
   P  -0.3592491   0.0783829   0.2962487 SPIN=   0.00000
   O   0.2523376   0.0815640  -0.1525523 SPIN=   0.00000
   O   0.3686874  -0.2313434  -0.3658718 SPIN=   0.00000
   O  -0.1226121  -0.1734958  -0.2552395 SPIN=   0.00000
   O   0.0440534  -0.0291763  -0.4369604 SPIN=   0.00000
   P   0.1407509  -0.0783829  -0.2962487 SPIN=   0.00000
  Fe  -0.1660756  -0.3411128   0.4512585 SPIN=   4.03134
  Fe   0.3339244   0.3411128  -0.4512585 SPIN=   4.03134
  Fe  -0.4723641  -0.1949467  -0.1186326 SPIN=   3.96866
  Fe   0.0276359   0.1949467   0.1186326 SPIN=   3.96866
%ENDBLOCK POSITIONS_FRAC

# Note: total spin =  16.00

KPOINTS_MP_SPACING 0.07

%BLOCK SPECIES_POT
QC5
%ENDBLOCK SPECIES_POT

%BLOCK HUBBARD_U
Fe d:4.0
%ENDBLOCK HUBBARD_U

SNAP_TO_SYMMETRY
SYMMETRY_GENERATE

