#              Generated by Buildcell
#
# at 00:24:49 (GMT+0.0) 27th November 2020
# in /lustre/scratch/uccabz1/launch_tmp
# on node-c12n-021
# by uccabz1
#
# compiler GCC version 4.9.2
# options -cpp -iprefix /lustre/shared/ucl/apps/gcc/4.9.2/bin/../lib/gcc/x86_64-unknown-linux-gnu/4.9.2/ -mtune=corei7 -march=x86-64 -g -Og
#
# seed -2057834267    73378441   467989947  1184283983  -336221786 -1697671110  1526832066   630941131   147560957  -431113096 -1906475993  -513650148
#
#      Author: C. J. Pickard (cjp20@cam.ac.uk)
#                Space group: C2
#

%BLOCK LATTICE_ABC
      7.21689      7.50076      7.68025
    115.07713    113.75463     97.88783
%ENDBLOCK LATTICE_ABC

%BLOCK POSITIONS_FRAC
  Li   0.3400247   0.5201620   0.6277788 SPIN=   0.00000
  Li   0.2877541   0.1076168   0.6277788 SPIN=   0.00000
  Li  -0.1371799  -0.1918821   0.1922765 SPIN=   0.00000
  Li   0.3294564   0.3841586   0.1922765 SPIN=   0.00000
   O  -0.2488317   0.4953209   0.2819632 SPIN=   0.00000
   O  -0.1702595   0.1519550   0.2181899 SPIN=   0.00000
   O   0.1158623   0.4595868   0.3175451 SPIN=   0.00000
   O   0.0289874   0.4733487   0.6064600 SPIN=   0.00000
   O   0.5307949  -0.2133578   0.2819632 SPIN=   0.00000
   O   0.3884493   0.0662349   0.2181899 SPIN=   0.00000
   O   0.2016828  -0.1420418   0.3175451 SPIN=   0.00000
   O   0.5774726   0.1331112   0.6064600 SPIN=   0.00000
   O  -0.4124330  -0.4836554  -0.4795224 SPIN=   0.00000
   O  -0.4335887  -0.1674721  -0.1774976 SPIN=   0.00000
   O  -0.3799586  -0.4610494  -0.1207263 SPIN=   0.00000
   O  -0.0763977  -0.2150890  -0.0857569 SPIN=   0.00000
   O  -0.0670895   0.0041330  -0.4795224 SPIN=   0.00000
   O   0.2560911  -0.0100255  -0.1774976 SPIN=   0.00000
   O   0.2592323   0.3403231  -0.1207263 SPIN=   0.00000
   O  -0.0093591   0.1293321  -0.0857569 SPIN=   0.00000
   P   0.4919330   0.4919330   0.9838659 SPIN=   0.00000
   P   0.1894676  -0.3105324   0.3789353 SPIN=   0.00000
   P   0.0300100   0.0300100   0.0600200 SPIN=   0.00000
   P   0.4937374  -0.0062626   0.9874748 SPIN=   0.00000
  Fe  -0.1840263   0.3095759   0.0251706 SPIN=   3.65829
  Fe   0.2091969  -0.2844053   0.0251706 SPIN=   3.65829
  Fe  -0.2094303  -0.2094303  -0.4188606 SPIN=   2.47277
  Fe  -0.2692597   0.2307403  -0.5385194 SPIN=   6.21065
%ENDBLOCK POSITIONS_FRAC

# Note: total spin =  16.00

KPOINTS_MP_SPACING 0.07

%BLOCK SPECIES_POT
QC5
%ENDBLOCK SPECIES_POT

%BLOCK HUBBARD_U
Fe d:4.0
%ENDBLOCK HUBBARD_U

SNAP_TO_SYMMETRY
SYMMETRY_GENERATE

