#              Generated by Buildcell
#
# at 09:10:06 (GMT+0.0) 24th November 2020
# in /lustre/scratch/uccabz1/launch_tmp
# on node-c12m-033
# by uccabz1
#
# compiler GCC version 4.9.2
# options -cpp -iprefix /lustre/shared/ucl/apps/gcc/4.9.2/bin/../lib/gcc/x86_64-unknown-linux-gnu/4.9.2/ -mtune=corei7 -march=x86-64 -g -Og
#
# seed   349936618  -334594446  -358776470  -915074608 -1823557031  -272015365    64102691 -2092252757  1154075483   268500102  1811843662 -1441915738
#
#      Author: C. J. Pickard (cjp20@cam.ac.uk)
#                Space group: P21
#

%BLOCK LATTICE_ABC
      3.91813      4.76192      8.61347
     95.38197     90.00000     90.00000
%ENDBLOCK LATTICE_ABC

%BLOCK POSITIONS_FRAC
  Li   0.1377239  -0.2451319   0.4883535 SPIN=   0.00000
  Li  -0.3622761   0.2451319  -0.4883535 SPIN=   0.00000
   O   0.0820533   0.3288400  -0.0786870 SPIN=   0.00000
   O   0.4695900  -0.0808134  -0.1951341 SPIN=   0.00000
   O   0.0950698   0.1548202  -0.3736661 SPIN=   0.00000
   O   0.6007375   0.4131770  -0.2534755 SPIN=   0.00000
   P   0.3030355   0.2131212  -0.2177706 SPIN=   0.00000
   O  -0.4179467  -0.3288400   0.0786870 SPIN=   0.00000
   O  -0.0304100   0.0808134   0.1951341 SPIN=   0.00000
   O  -0.4049302  -0.1548202   0.3736661 SPIN=   0.00000
   O   0.1007375  -0.4131770   0.2534755 SPIN=   0.00000
   P  -0.1969645  -0.2131212   0.2177706 SPIN=   0.00000
  Fe  -0.0693559  -0.2739263  -0.1410355 SPIN=   4.00000
  Fe   0.4306441   0.2739263   0.1410355 SPIN=   4.00000
%ENDBLOCK POSITIONS_FRAC

# Note: total spin =   8.00

KPOINTS_MP_SPACING 0.07

%BLOCK SPECIES_POT
QC5
%ENDBLOCK SPECIES_POT

%BLOCK HUBBARD_U
Fe d:4.0
%ENDBLOCK HUBBARD_U

SNAP_TO_SYMMETRY
SYMMETRY_GENERATE

