#              Generated by Buildcell
#
# at 21:38:09 (GMT+0.0) 26th November 2020
# in /scratch/scratch/uccabz1/launch_tmp
# on node-k10b-011
# by uccabz1
#
# compiler GCC version 4.9.2
# options -cpp -iprefix /scratch/UCL/applications/gcc/4.9.2/bin/../lib/gcc/x86_64-unknown-linux-gnu/4.9.2/ -mtune=corei7 -march=x86-64 -g -O2
#
# seed -1223528966   385266381  1452037932  2068469891  -301176497  1498879512   577062066 -1152289026  -718396955   767778347  -388171399  -596786860
#
#      Author: C. J. Pickard (cjp20@cam.ac.uk)
#                Space group: Cc
#

%BLOCK LATTICE_ABC
      5.89058      5.89058     10.07384
    103.55230    103.55230    100.36281
%ENDBLOCK LATTICE_ABC

%BLOCK POSITIONS_FRAC
  Li   0.5453304   0.3347853   0.2676591 SPIN=   0.00000
  Li  -0.6652147  -0.4546696  -0.2323409 SPIN=   0.00000
  Li   0.2121294   0.4241403   0.4495906 SPIN=   0.00000
  Li   0.4241403   0.2121294  -0.0504094 SPIN=   0.00000
   O   0.5917747   0.7021268   0.5263430 SPIN=   0.00000
   O   0.6058073   0.6988508   0.2700588 SPIN=   0.00000
   O   0.2119006   0.6580741   0.3201260 SPIN=   0.00000
   O   0.5195271   1.0543450   0.4237126 SPIN=   0.00000
   P   0.4885239   0.7775478   0.3930388 SPIN=   0.00000
   O  -0.2978732  -0.4082253   0.0263430 SPIN=   0.00000
   O  -0.3011492  -0.3941927  -0.2299412 SPIN=   0.00000
   O  -0.3419259  -0.7880994  -0.1798740 SPIN=   0.00000
   O   0.0543450  -0.4804729  -0.0762874 SPIN=   0.00000
   P  -0.2224522  -0.5114761  -0.1069612 SPIN=   0.00000
   O   0.2194772  -0.1357432  -0.1761952 SPIN=   0.00000
   O  -0.0461125   0.0354186  -0.3533101 SPIN=   0.00000
   O   0.3349402  -0.0390387  -0.3940573 SPIN=   0.00000
   O  -0.0113329  -0.3890443  -0.4353482 SPIN=   0.00000
   P   0.1277138  -0.1353280  -0.3321488 SPIN=   0.00000
   O  -0.1357432   0.2194772   0.3238048 SPIN=   0.00000
   O   0.0354186  -0.0461125   0.1466899 SPIN=   0.00000
   O  -0.0390387   0.3349402   0.1059427 SPIN=   0.00000
   O  -0.3890443  -0.0113329   0.0646518 SPIN=   0.00000
   P  -0.1353280   0.1277138   0.1678512 SPIN=   0.00000
  Fe   0.3415089  -0.2570236   0.0996164 SPIN=   3.11313
  Fe  -0.2570236  -0.6584911  -0.4003836 SPIN=   3.11313
  Fe  -0.0300621   0.8525221   0.3738819 SPIN=   4.88687
  Fe  -0.1474779  -0.0300621  -0.1261181 SPIN=   4.88687
%ENDBLOCK POSITIONS_FRAC

# Note: total spin =  16.00

KPOINTS_MP_SPACING 0.07

%BLOCK SPECIES_POT
QC5
%ENDBLOCK SPECIES_POT

%BLOCK HUBBARD_U
Fe d:4.0
%ENDBLOCK HUBBARD_U

SNAP_TO_SYMMETRY
SYMMETRY_GENERATE

