#              Generated by Buildcell
#
# at 08:19:02 (GMT+0.0) 24th November 2020
# in /lustre/scratch/uccabz1/launch_tmp
# on node-c12g-020
# by uccabz1
#
# compiler GCC version 4.9.2
# options -cpp -iprefix /lustre/shared/ucl/apps/gcc/4.9.2/bin/../lib/gcc/x86_64-unknown-linux-gnu/4.9.2/ -mtune=corei7 -march=x86-64 -g -Og
#
# seed   122281382 -1495781921 -1198127756  1143045497 -1192511288  -809036389  -788099828 -1329597559 -2067581519 -1189936118   344587242   939047402
#
#      Author: C. J. Pickard (cjp20@cam.ac.uk)
#                Space group: P21
#

%BLOCK LATTICE_ABC
      4.11147      5.91806      6.79057
     90.00000     90.00000    104.45117
%ENDBLOCK LATTICE_ABC

%BLOCK POSITIONS_FRAC
  Li  -0.2356178  -0.1243384   0.1710792 SPIN=   0.00000
  Li   0.2356178   0.1243384  -0.3289208 SPIN=   0.00000
   O   0.0791600  -0.6260641  -0.0877433 SPIN=   0.00000
   O  -0.3530457  -0.3741829  -0.0554406 SPIN=   0.00000
   O   0.2021104  -0.2326398   0.1020398 SPIN=   0.00000
   O   0.1571317  -0.2304025  -0.2657123 SPIN=   0.00000
   P   0.0260202  -0.3780808  -0.0795318 SPIN=   0.00000
   O  -0.0791600   0.6260641   0.4122567 SPIN=   0.00000
   O   0.3530457   0.3741829   0.4445594 SPIN=   0.00000
   O  -0.2021104   0.2326398   0.6020398 SPIN=   0.00000
   O  -0.1571317   0.2304025   0.2342877 SPIN=   0.00000
   P  -0.0260202   0.3780808   0.4204682 SPIN=   0.00000
  Fe  -0.4241913  -0.3189425  -0.3808614 SPIN=   4.00000
  Fe   0.4241913   0.3189425   0.1191386 SPIN=   4.00000
%ENDBLOCK POSITIONS_FRAC

# Note: total spin =   8.00

KPOINTS_MP_SPACING 0.07

%BLOCK SPECIES_POT
QC5
%ENDBLOCK SPECIES_POT

%BLOCK HUBBARD_U
Fe d:4.0
%ENDBLOCK HUBBARD_U

SNAP_TO_SYMMETRY
SYMMETRY_GENERATE

