#              Generated by Buildcell
#
# at 21:46:00 (GMT+0.0) 26th November 2020
# in /scratch/scratch/uccabz1/launch_tmp
# on node-k10b-011
# by uccabz1
#
# compiler GCC version 4.9.2
# options -cpp -iprefix /scratch/UCL/applications/gcc/4.9.2/bin/../lib/gcc/x86_64-unknown-linux-gnu/4.9.2/ -mtune=corei7 -march=x86-64 -g -O2
#
# seed  1164622062  1401548997   717043512  -454997276 -1261181523   289414367  -738944196  1958150787  -373534774  1036330968   474879447  1699556606
#
#      Author: C. J. Pickard (cjp20@cam.ac.uk)
#                Space group: P-1
#

%BLOCK LATTICE_ABC
      6.83868      7.34806      7.48809
     73.42684     63.17591     87.86382
%ENDBLOCK LATTICE_ABC

%BLOCK POSITIONS_FRAC
  Li   0.4459873   0.1373853  -0.1834959 SPIN=   0.00000
  Li  -0.4459873  -0.1373853   0.1834959 SPIN=   0.00000
  Li   0.1694643  -0.4204571  -0.4544702 SPIN=   0.00000
  Li  -0.1694643   0.4204571   0.4544702 SPIN=   0.00000
   O  -0.2824621  -0.1740104  -0.1744486 SPIN=   0.00000
   O  -0.3107082   0.1458209  -0.0853485 SPIN=   0.00000
   O   0.0421908   0.0041291  -0.1798394 SPIN=   0.00000
   O  -0.0774007   0.1451171  -0.4563860 SPIN=   0.00000
   P  -0.1628298   0.0207430  -0.2241093 SPIN=   0.00000
   O   0.2824621   0.1740104   0.1744486 SPIN=   0.00000
   O   0.3107082  -0.1458209   0.0853485 SPIN=   0.00000
   O  -0.0421908  -0.0041291   0.1798394 SPIN=   0.00000
   O   0.0774007  -0.1451171   0.4563860 SPIN=   0.00000
   P   0.1628298  -0.0207430   0.2241093 SPIN=   0.00000
   O   0.6089574  -0.5245233  -0.2077194 SPIN=   0.00000
   O   0.3478288  -0.6194108  -0.3403495 SPIN=   0.00000
   O   0.1830445  -0.5319377  -0.0112018 SPIN=   0.00000
   O   0.3967402  -0.2788774  -0.3537748 SPIN=   0.00000
   P   0.3962617  -0.4881194  -0.2286489 SPIN=   0.00000
   O  -0.6089574   0.5245233   0.2077194 SPIN=   0.00000
   O  -0.3478288   0.6194108   0.3403495 SPIN=   0.00000
   O  -0.1830445   0.5319377   0.0112018 SPIN=   0.00000
   O  -0.3967402   0.2788774   0.3537748 SPIN=   0.00000
   P  -0.3962617   0.4881194   0.2286489 SPIN=   0.00000
  Fe   0.7198596  -0.1614304  -0.4590194 SPIN=   2.48797
  Fe  -0.7198596   0.1614304   0.4590194 SPIN=   2.48797
  Fe  -0.1010241   0.2517164   0.0060949 SPIN=   5.51203
  Fe   0.1010241  -0.2517164  -0.0060949 SPIN=   5.51203
%ENDBLOCK POSITIONS_FRAC

# Note: total spin =  16.00

KPOINTS_MP_SPACING 0.07

%BLOCK SPECIES_POT
QC5
%ENDBLOCK SPECIES_POT

%BLOCK HUBBARD_U
Fe d:4.0
%ENDBLOCK HUBBARD_U

SNAP_TO_SYMMETRY
SYMMETRY_GENERATE

