#              Generated by Buildcell
#
# at 07:31:53 (GMT+0.0) 24th November 2020
# in /lustre/scratch/uccabz1/launch_tmp
# on node-c12k-030
# by uccabz1
#
# compiler GCC version 4.9.2
# options -cpp -iprefix /lustre/shared/ucl/apps/gcc/4.9.2/bin/../lib/gcc/x86_64-unknown-linux-gnu/4.9.2/ -mtune=corei7 -march=x86-64 -g -Og
#
# seed  -547638907   413502997 -1120113916 -1309905305 -1824839021  1878662693  1154519955 -1275779104   328940038 -1923823615 -2018173755   149769355
#
#      Author: C. J. Pickard (cjp20@cam.ac.uk)
#                Space group: Pmc21
#

%BLOCK LATTICE_ABC
      4.15110      4.92259      7.83003
     90.00000     90.00000     90.00000
%ENDBLOCK LATTICE_ABC

%BLOCK POSITIONS_FRAC
  Li   0.4966586  -0.0000000   0.0649697 SPIN=   0.00000
  Li  -0.4966586   0.0000000  -0.4350303 SPIN=   0.00000
   O  -0.1206654   0.2499583   0.1651096 SPIN=   0.00000
   O   0.3971112   0.2500426   0.3515139 SPIN=   0.00000
   O   0.1206654  -0.2499583  -0.3348904 SPIN=   0.00000
   O  -0.3971112  -0.2500426  -0.1484861 SPIN=   0.00000
   O   0.1206654   0.2499583  -0.3348904 SPIN=   0.00000
   O  -0.3971112   0.2500426  -0.1484861 SPIN=   0.00000
   O  -0.1206654  -0.2499583   0.1651096 SPIN=   0.00000
   O   0.3971112  -0.2500426   0.3515139 SPIN=   0.00000
   P   0.4999985   0.5000000   0.2064330 SPIN=   0.00000
   P  -0.4999985  -0.5000000  -0.2935670 SPIN=   0.00000
  Fe   0.0000024   0.5000000  -0.0435665 SPIN=   4.00000
  Fe  -0.0000024   0.5000000   0.4564335 SPIN=   4.00000
%ENDBLOCK POSITIONS_FRAC

# Note: total spin =   8.00

KPOINTS_MP_SPACING 0.07

%BLOCK SPECIES_POT
QC5
%ENDBLOCK SPECIES_POT

%BLOCK HUBBARD_U
Fe d:4.0
%ENDBLOCK HUBBARD_U

SNAP_TO_SYMMETRY
SYMMETRY_GENERATE

