#              Generated by Buildcell
#
# at 14:23:38 (GMT+0.0) 26th November 2020
# in /lustre/scratch/uccabz1/launch_tmp
# on node-c12c-020
# by uccabz1
#
# compiler GCC version 4.9.2
# options -cpp -iprefix /lustre/shared/ucl/apps/gcc/4.9.2/bin/../lib/gcc/x86_64-unknown-linux-gnu/4.9.2/ -mtune=corei7 -march=x86-64 -g -Og
#
# seed  -887718621  -831449868   901739898 -1515012158  -137503960  1853389579   123787284  1683915108  -977023365  -424828495  -294145685   655495937
#
#      Author: C. J. Pickard (cjp20@cam.ac.uk)
#                Space group: P-1
#

%BLOCK LATTICE_ABC
      4.27349      9.19988      9.44950
    117.39871     95.66891     98.69003
%ENDBLOCK LATTICE_ABC

%BLOCK POSITIONS_FRAC
  Li  -0.3225869   0.2509032  -0.4598366 SPIN=   0.00000
  Li   0.3225869  -0.2509032   0.4598366 SPIN=   0.00000
  Li   0.1882524   0.3766922   0.3958223 SPIN=   0.00000
  Li  -0.1882524  -0.3766922  -0.3958223 SPIN=   0.00000
   O   0.1239009  -0.4386857   0.1455854 SPIN=   0.00000
   O   0.6117451  -0.3461331   0.0391167 SPIN=   0.00000
   O   0.1683152  -0.1960323   0.0744403 SPIN=   0.00000
   O   0.5347927  -0.1557478   0.3195274 SPIN=   0.00000
   P   0.3492004  -0.2908627   0.1467799 SPIN=   0.00000
   O  -0.1239009   0.4386857  -0.1455854 SPIN=   0.00000
   O  -0.6117451   0.3461331  -0.0391167 SPIN=   0.00000
   O  -0.1683152   0.1960323  -0.0744403 SPIN=   0.00000
   O  -0.5347927   0.1557478  -0.3195274 SPIN=   0.00000
   P  -0.3492004   0.2908627  -0.1467799 SPIN=   0.00000
   O   0.3135955  -0.3821414  -0.3513129 SPIN=   0.00000
   O   0.1011062  -0.1157756  -0.1811140 SPIN=   0.00000
   O   0.6173496  -0.1451947  -0.0660066 SPIN=   0.00000
   O   0.5888446  -0.0882310  -0.3013142 SPIN=   0.00000
   P   0.4025121  -0.1923313  -0.2325672 SPIN=   0.00000
   O  -0.3135955   0.3821414   0.3513129 SPIN=   0.00000
   O  -0.1011062   0.1157756   0.1811140 SPIN=   0.00000
   O  -0.6173496   0.1451947   0.0660066 SPIN=   0.00000
   O  -0.5888446   0.0882310   0.3013142 SPIN=   0.00000
   P  -0.4025121   0.1923313   0.2325672 SPIN=   0.00000
  Fe   0.3208849  -0.4837519  -0.1934053 SPIN=   5.88422
  Fe  -0.3208849   0.4837519   0.1934053 SPIN=   5.88422
  Fe   0.0474572   0.0535778  -0.2678980 SPIN=   2.11578
  Fe  -0.0474572  -0.0535778   0.2678980 SPIN=   2.11578
%ENDBLOCK POSITIONS_FRAC

# Note: total spin =  16.00

KPOINTS_MP_SPACING 0.07

%BLOCK SPECIES_POT
QC5
%ENDBLOCK SPECIES_POT

%BLOCK HUBBARD_U
Fe d:4.0
%ENDBLOCK HUBBARD_U

SNAP_TO_SYMMETRY
SYMMETRY_GENERATE

