#              Generated by Buildcell
#
# at 18:36:14 (GMT+0.0) 26th November 2020
# in /lustre/scratch/uccabz1/launch_tmp
# on node-c12c-024
# by uccabz1
#
# compiler GCC version 4.9.2
# options -cpp -iprefix /lustre/shared/ucl/apps/gcc/4.9.2/bin/../lib/gcc/x86_64-unknown-linux-gnu/4.9.2/ -mtune=corei7 -march=x86-64 -g -Og
#
# seed   594958420   477070223  -751966959   575687530 -2061467241   -28676541  1769951298   912836594  -558459443 -1721601945   684534194   490532845
#
#      Author: C. J. Pickard (cjp20@cam.ac.uk)
#                Space group: Cc
#

%BLOCK LATTICE_ABC
      6.19602      6.19602      9.34858
    105.93556    107.43427     97.68310
%ENDBLOCK LATTICE_ABC

%BLOCK POSITIONS_FRAC
  Li   0.1639196  -0.4193827   0.1768449 SPIN=   0.00000
  Li  -0.4037724  -0.4870747  -0.3231551 SPIN=   0.00000
  Li  -0.0224027  -0.4012963   0.4424822 SPIN=   0.00000
  Li  -0.1562215  -0.0351151  -0.0575178 SPIN=   0.00000
   O  -0.9944856  -0.0424997  -0.4925213 SPIN=   0.00000
   O  -0.7222523   0.1474883  -0.1971201 SPIN=   0.00000
   O  -0.6571360  -0.2099406  -0.3578871 SPIN=   0.00000
   O  -0.5624568   0.1586954  -0.4120308 SPIN=   0.00000
   P  -0.7459225   0.0121718  -0.3722419 SPIN=   0.00000
   O   0.5499784   0.0019643   0.0074787 SPIN=   0.00000
   O   0.6553916   0.0251322   0.3028799 SPIN=   0.00000
   O   0.8520535  -0.2007511   0.1421129 SPIN=   0.00000
   O   0.4292738  -0.3495740   0.0879692 SPIN=   0.00000
   P   0.6155863  -0.1263194   0.1277581 SPIN=   0.00000
   O  -0.0609703   0.2949127  -0.3023095 SPIN=   0.00000
   O   0.0294089   0.6562456  -0.0538832 SPIN=   0.00000
   O  -0.3230131   0.3495104  -0.1302752 SPIN=   0.00000
   O   0.0701276   0.2763325  -0.0172422 SPIN=   0.00000
   P  -0.0689049   0.3875695  -0.1340364 SPIN=   0.00000
   O   0.4027777   0.2586608   0.1976905 SPIN=   0.00000
   O   0.2898713   0.4167079   0.4461168 SPIN=   0.00000
   O   0.5202143   0.6927378   0.3697248 SPIN=   0.00000
   O   0.7064253   0.4126302   0.4827578 SPIN=   0.00000
   P   0.4783941   0.4348685   0.3659636 SPIN=   0.00000
  Fe  -0.3036705  -0.0228678  -0.4237078 SPIN=   4.12272
  Fe  -0.4008400   0.3799628   0.0762922 SPIN=   4.12272
  Fe   0.2444479  -0.2527899  -0.1698037 SPIN=   3.87728
  Fe   0.0829862   0.0857485   0.3301963 SPIN=   3.87728
%ENDBLOCK POSITIONS_FRAC

# Note: total spin =  16.00

KPOINTS_MP_SPACING 0.07

%BLOCK SPECIES_POT
QC5
%ENDBLOCK SPECIES_POT

%BLOCK HUBBARD_U
Fe d:4.0
%ENDBLOCK HUBBARD_U

SNAP_TO_SYMMETRY
SYMMETRY_GENERATE

