#              Generated by Buildcell
#
# at 15:54:03 (GMT+0.0) 26th November 2020
# in /lustre/scratch/uccabz1/launch_tmp
# on node-c12d-021
# by uccabz1
#
# compiler GCC version 4.9.2
# options -cpp -iprefix /lustre/shared/ucl/apps/gcc/4.9.2/bin/../lib/gcc/x86_64-unknown-linux-gnu/4.9.2/ -mtune=corei7 -march=x86-64 -g -Og
#
# seed -1991764225   973276619 -1679007214  1819382748   431949424 -1907468702 -2000693944    65350088  1202344040  2002486954  -944721521 -1937034303
#
#      Author: C. J. Pickard (cjp20@cam.ac.uk)
#                Space group: P21
#

%BLOCK LATTICE_ABC
      6.04650      6.62719      7.98604
     90.47802     90.00000     90.00000
%ENDBLOCK LATTICE_ABC

%BLOCK POSITIONS_FRAC
  Li   0.1093703   0.1099919  -0.1102436 SPIN=   0.00000
  Li  -0.3906297  -0.1099919   0.1102436 SPIN=   0.00000
  Li  -0.4826734  -0.3273516   0.4554276 SPIN=   0.00000
  Li   0.0173266   0.3273516  -0.4554276 SPIN=   0.00000
   O  -0.2163964  -0.4132322  -0.3654980 SPIN=   0.00000
   O  -0.2694382  -0.5545577  -0.0656925 SPIN=   0.00000
   O   0.0961626  -0.5924923  -0.2002852 SPIN=   0.00000
   O  -0.0307536  -0.2500650  -0.1064586 SPIN=   0.00000
   P  -0.1101546  -0.4481014  -0.1932009 SPIN=   0.00000
   O   0.2836036   0.4132322   0.3654980 SPIN=   0.00000
   O   0.2305618   0.5545577   0.0656925 SPIN=   0.00000
   O   0.5961626   0.5924923   0.2002852 SPIN=   0.00000
   O   0.4692464   0.2500650   0.1064586 SPIN=   0.00000
   P   0.3898454   0.4481014   0.1932009 SPIN=   0.00000
   O  -0.0204092   0.1565833   0.2133649 SPIN=   0.00000
   O  -0.0431177  -0.2348690   0.2155996 SPIN=   0.00000
   O   0.2677656  -0.0752073   0.0660361 SPIN=   0.00000
   O   0.2558491  -0.0616278   0.3793903 SPIN=   0.00000
   P   0.1094728  -0.0426721   0.2202167 SPIN=   0.00000
   O  -0.5204092  -0.1565833  -0.2133649 SPIN=   0.00000
   O  -0.5431177   0.2348690  -0.2155996 SPIN=   0.00000
   O  -0.2322344   0.0752073  -0.0660361 SPIN=   0.00000
   O  -0.2441509   0.0616278  -0.3793903 SPIN=   0.00000
   P  -0.3905272   0.0426721  -0.2202167 SPIN=   0.00000
  Fe  -0.4835565   0.1713634   0.4465551 SPIN=   3.74632
  Fe   0.0164435  -0.1713634  -0.4465551 SPIN=   3.74632
  Fe   0.4200273  -0.4593642  -0.1540475 SPIN=   4.25368
  Fe  -0.0799727   0.4593642   0.1540475 SPIN=   4.25368
%ENDBLOCK POSITIONS_FRAC

# Note: total spin =  16.00

KPOINTS_MP_SPACING 0.07

%BLOCK SPECIES_POT
QC5
%ENDBLOCK SPECIES_POT

%BLOCK HUBBARD_U
Fe d:4.0
%ENDBLOCK HUBBARD_U

SNAP_TO_SYMMETRY
SYMMETRY_GENERATE

