#              Generated by Buildcell
#
# at 11:37:36 (GMT+0.0) 24th November 2020
# in /lustre/scratch/uccabz1/launch_tmp
# on node-c12f-026
# by uccabz1
#
# compiler GCC version 4.9.2
# options -cpp -iprefix /lustre/shared/ucl/apps/gcc/4.9.2/bin/../lib/gcc/x86_64-unknown-linux-gnu/4.9.2/ -mtune=corei7 -march=x86-64 -g -Og
#
# seed  1215709183   284232322   494646248   224432657 -1032886713   409069945   770502506    51828946   775377710  1432290978    89008343 -1827381192
#
#      Author: C. J. Pickard (cjp20@cam.ac.uk)
#                Space group: Imm2
#

%BLOCK LATTICE_ABC
      5.29185      5.37663      6.77134
    113.39165    113.00140     90.00000
%ENDBLOCK LATTICE_ABC

%BLOCK POSITIONS_FRAC
  Li  -0.3695742   0.1304258  -0.7391483 SPIN=   0.00000
  Li   0.3724634   0.3724634   0.7449268 SPIN=   0.00000
   O   0.2929894  -0.2375944   0.0559552 SPIN=   0.00000
   O   0.0409616  -0.4407206  -0.4048660 SPIN=   0.00000
   O  -0.2370342   0.2935496   0.0559552 SPIN=   0.00000
   O  -0.4458276   0.0358546  -0.4048660 SPIN=   0.00000
   O  -0.2370342  -0.2375944  -0.9440448 SPIN=   0.00000
   O  -0.4458276  -0.4407206  -1.4048660 SPIN=   0.00000
   O   0.2929894   0.2935496   1.0559552 SPIN=   0.00000
   O   0.0409616   0.0358546   0.5951340 SPIN=   0.00000
   P  -0.3897277  -0.3897277  -0.7794554 SPIN=   0.00000
   P  -0.1311828   0.3688172  -0.2623655 SPIN=   0.00000
  Fe  -0.0446096  -0.0446096  -0.0892191 SPIN=   3.48410
  Fe   0.2038281  -0.2961719   0.4076562 SPIN=   4.51590
%ENDBLOCK POSITIONS_FRAC

# Note: total spin =   8.00

KPOINTS_MP_SPACING 0.07

%BLOCK SPECIES_POT
QC5
%ENDBLOCK SPECIES_POT

%BLOCK HUBBARD_U
Fe d:4.0
%ENDBLOCK HUBBARD_U

SNAP_TO_SYMMETRY
SYMMETRY_GENERATE

