#              Generated by Buildcell
#
# at 13:04:30 (GMT+0.0) 24th November 2020
# in /lustre/scratch/uccabz1/launch_tmp
# on node-c12h-023
# by uccabz1
#
# compiler GCC version 4.9.2
# options -cpp -iprefix /lustre/shared/ucl/apps/gcc/4.9.2/bin/../lib/gcc/x86_64-unknown-linux-gnu/4.9.2/ -mtune=corei7 -march=x86-64 -g -Og
#
# seed -2028225142  1031903465  -195872557  -245603337    28224143  1728309860 -1063370397 -1062251313   938978745   131174897   938006614   -31189425
#
#      Author: C. J. Pickard (cjp20@cam.ac.uk)
#                Space group: Imm2
#

%BLOCK LATTICE_ABC
      5.36148      5.54975      6.61826
    114.78884    113.89437     90.00000
%ENDBLOCK LATTICE_ABC

%BLOCK POSITIONS_FRAC
  Li  -0.2500000  -0.4074332  -0.5000000 SPIN=   0.00000
  Li   0.2500000   0.0925668   0.5000000 SPIN=   0.00000
   O  -0.1110275  -0.2539097  -0.7137173 SPIN=   0.00000
   O  -0.1103515  -0.7361450  -0.7442897 SPIN=   0.00000
   O   0.1110275   0.4598076   0.7137173 SPIN=   0.00000
   O   0.1103515   0.0081447   0.7442897 SPIN=   0.00000
   O  -0.6026898  -0.2539097  -0.7137173 SPIN=   0.00000
   O  -0.6339382  -0.7361450  -0.7442897 SPIN=   0.00000
   O   0.6026898   0.4598076   0.7137173 SPIN=   0.00000
   O   0.6339382   0.0081447   0.7442897 SPIN=   0.00000
   P  -0.2500000   0.0755385   0.5000000 SPIN=   0.00000
   P  -0.7500000  -0.4244615  -0.5000000 SPIN=   0.00000
  Fe  -0.5000000  -0.0016014  -0.0000000 SPIN=   7.59253
  Fe  -0.0000000   0.4983986  -0.0000000 SPIN=   0.40747
%ENDBLOCK POSITIONS_FRAC

# Note: total spin =   8.00

KPOINTS_MP_SPACING 0.07

%BLOCK SPECIES_POT
QC5
%ENDBLOCK SPECIES_POT

%BLOCK HUBBARD_U
Fe d:4.0
%ENDBLOCK HUBBARD_U

SNAP_TO_SYMMETRY
SYMMETRY_GENERATE

