#              Generated by Buildcell
#
# at 00:07:05 (GMT+0.0) 27th November 2020
# in /lustre/scratch/uccabz1/launch_tmp
# on node-c12i-029
# by uccabz1
#
# compiler GCC version 4.9.2
# options -cpp -iprefix /lustre/shared/ucl/apps/gcc/4.9.2/bin/../lib/gcc/x86_64-unknown-linux-gnu/4.9.2/ -mtune=corei7 -march=x86-64 -g -Og
#
# seed -2137771825 -1794469132   505535484  1285448777  -273701140  -734787169   180748766  2069408195 -1487196912  -766330011 -1510657700   915219782
#
#      Author: C. J. Pickard (cjp20@cam.ac.uk)
#                Space group: Pca21
#

%BLOCK LATTICE_ABC
      5.61561      6.95458      8.19374
     90.00000     90.00000     90.00000
%ENDBLOCK LATTICE_ABC

%BLOCK POSITIONS_FRAC
  Li  -0.1332009   0.3337767   0.0139669 SPIN=   0.00000
  Li   0.3667991  -0.3337767  -0.0139669 SPIN=   0.00000
  Li  -0.1332009  -0.1662233  -0.0139669 SPIN=   0.00000
  Li   0.3667991   0.1662233   0.0139669 SPIN=   0.00000
   O  -0.6569891  -0.2012984   0.2709773 SPIN=   0.00000
   O  -0.6478155   0.1685972   0.3149310 SPIN=   0.00000
   O  -0.3273739  -0.0272881   0.4373921 SPIN=   0.00000
   O  -0.3419190   0.0159952   0.1341282 SPIN=   0.00000
   P  -0.5004390  -0.0208125   0.2865466 SPIN=   0.00000
   O  -0.1569891   0.2012984  -0.2709773 SPIN=   0.00000
   O  -0.1478155  -0.1685972  -0.3149310 SPIN=   0.00000
   O   0.1726261   0.0272881  -0.4373921 SPIN=   0.00000
   O   0.1580810  -0.0159952  -0.1341282 SPIN=   0.00000
   P  -0.0004390   0.0208125  -0.2865466 SPIN=   0.00000
   O  -0.6569891   0.2987016  -0.2709773 SPIN=   0.00000
   O  -0.6478155   0.6685972  -0.3149310 SPIN=   0.00000
   O  -0.3273739   0.4727119  -0.4373921 SPIN=   0.00000
   O  -0.3419190   0.5159952  -0.1341282 SPIN=   0.00000
   P  -0.5004390   0.4791875  -0.2865466 SPIN=   0.00000
   O  -0.1569891  -0.2987016   0.2709773 SPIN=   0.00000
   O  -0.1478155  -0.6685972   0.3149310 SPIN=   0.00000
   O   0.1726261  -0.4727119   0.4373921 SPIN=   0.00000
   O   0.1580810  -0.5159952   0.1341282 SPIN=   0.00000
   P  -0.0004390  -0.4791875   0.2865466 SPIN=   0.00000
  Fe  -0.4982840   0.4466685   0.3346330 SPIN=   4.00000
  Fe   0.0017160  -0.4466685  -0.3346330 SPIN=   4.00000
  Fe  -0.4982840  -0.0533315  -0.3346330 SPIN=   4.00000
  Fe   0.0017160   0.0533315   0.3346330 SPIN=   4.00000
%ENDBLOCK POSITIONS_FRAC

# Note: total spin =  16.00

KPOINTS_MP_SPACING 0.07

%BLOCK SPECIES_POT
QC5
%ENDBLOCK SPECIES_POT

%BLOCK HUBBARD_U
Fe d:4.0
%ENDBLOCK HUBBARD_U

SNAP_TO_SYMMETRY
SYMMETRY_GENERATE

