#              Generated by Buildcell
#
# at 07:01:52 (GMT+0.0) 26th November 2020
# in /scratch/scratch/mmm0366/launch_tmp
# on node-k98f-026
# by mmm0366
#
# compiler GCC version 4.9.2
# options -cpp -iprefix /scratch/UCL/applications/gcc/4.9.2/bin/../lib/gcc/x86_64-unknown-linux-gnu/4.9.2/ -mtune=corei7 -march=x86-64 -g -O2
#
# seed -1379476799   648145358  1320122900   640669672  -845890871  -234125585 -1344869196  -966918895 -2106855431    72485205 -1544212191  1381741833
#
#      Author: C. J. Pickard (cjp20@cam.ac.uk)
#                Space group: C2
#

%BLOCK LATTICE_ABC
      6.54187      6.54187      8.31039
    104.15403    104.15403    102.29919
%ENDBLOCK LATTICE_ABC

%BLOCK POSITIONS_FRAC
  Li   0.0305862   0.3369351  -0.2720334 SPIN=   0.00000
  Li  -0.3369351  -0.0305862   0.2720334 SPIN=   0.00000
  Li   0.4351354  -0.4351354  -0.5000000 SPIN=   0.00000
  Li  -0.1886451   0.1886451   0.0000000 SPIN=   0.00000
   O   0.1083351  -0.5209515   0.2630960 SPIN=   0.00000
   O   0.5179144  -0.3804486   0.2797904 SPIN=   0.00000
   O   0.2366706  -0.5439789  -0.0113075 SPIN=   0.00000
   O   0.2551816  -0.1752158   0.1802617 SPIN=   0.00000
   P   0.2701231  -0.4086012   0.1825204 SPIN=   0.00000
   O   0.5209515  -0.1083351  -0.2630960 SPIN=   0.00000
   O   0.3804486  -0.5179144  -0.2797904 SPIN=   0.00000
   O   0.5439789  -0.2366706   0.0113075 SPIN=   0.00000
   O   0.1752158  -0.2551816  -0.1802617 SPIN=   0.00000
   P   0.4086012  -0.2701231  -0.1825204 SPIN=   0.00000
   O  -0.2276871  -0.3358068  -0.2927562 SPIN=   0.00000
   O  -0.2591389  -0.0559210  -0.4652623 SPIN=   0.00000
   O  -0.0079552   0.0792490  -0.1619543 SPIN=   0.00000
   P  -0.1058414  -0.1312295  -0.3280758 SPIN=   0.00000
   O   0.3358068   0.2276871   0.2927562 SPIN=   0.00000
   O   0.0559210   0.2591389   0.4652623 SPIN=   0.00000
   O  -0.0792490   0.0079552   0.1619543 SPIN=   0.00000
   P   0.1312295   0.1058414   0.3280758 SPIN=   0.00000
   O  -0.2980458   0.2980458  -0.5000000 SPIN=   0.00000
   O  -0.3991324   0.3991324   0.0000000 SPIN=   0.00000
  Fe  -0.1244404  -0.4907427   0.3920278 SPIN=   3.97689
  Fe   0.4907427   0.1244404  -0.3920278 SPIN=   3.97689
  Fe  -0.1714419  -0.3187469  -0.0296230 SPIN=   4.02311
  Fe   0.3187469   0.1714419   0.0296230 SPIN=   4.02311
%ENDBLOCK POSITIONS_FRAC

# Note: total spin =  16.00

KPOINTS_MP_SPACING 0.07

%BLOCK SPECIES_POT
QC5
%ENDBLOCK SPECIES_POT

%BLOCK HUBBARD_U
Fe d:4.0
%ENDBLOCK HUBBARD_U

SNAP_TO_SYMMETRY
SYMMETRY_GENERATE

