#              Generated by Buildcell
#
# at 12:02:49 (GMT+0.0) 24th November 2020
# in /lustre/scratch/uccabz1/launch_tmp
# on node-c12e-032
# by uccabz1
#
# compiler GCC version 4.9.2
# options -cpp -iprefix /lustre/shared/ucl/apps/gcc/4.9.2/bin/../lib/gcc/x86_64-unknown-linux-gnu/4.9.2/ -mtune=corei7 -march=x86-64 -g -Og
#
# seed  1585705672   976570888  -746995505  -528665708    34499857  1307125576  1081201188   430251587  1309079272  1754185176   577189027 -1550773428
#
#      Author: C. J. Pickard (cjp20@cam.ac.uk)
#                Space group: C2
#

%BLOCK LATTICE_ABC
      5.29743      6.05597      6.05597
     79.22670     65.16635     65.16635
%ENDBLOCK LATTICE_ABC

%BLOCK POSITIONS_FRAC
  Li  -0.0000000   0.0321671  -0.0321671 SPIN=   0.00000
  Li   0.5000000  -0.4280453   0.4280453 SPIN=   0.00000
   O  -0.2750132  -0.5299538  -0.3333815 SPIN=   0.00000
   O  -0.0340671  -0.3385674  -0.1668758 SPIN=   0.00000
   O  -0.5884645  -0.1980593  -0.0010233 SPIN=   0.00000
   O  -0.2821914  -0.6171671   0.1028853 SPIN=   0.00000
   P  -0.2937229  -0.4290572  -0.1096571 SPIN=   0.00000
   O   0.2750132   0.3333815   0.5299538 SPIN=   0.00000
   O   0.0340671   0.1668758   0.3385674 SPIN=   0.00000
   O   0.5884645   0.0010233   0.1980593 SPIN=   0.00000
   O   0.2821914  -0.1028853   0.6171671 SPIN=   0.00000
   P   0.2937229   0.1096571   0.4290572 SPIN=   0.00000
  Fe   0.2016880   0.4424720   0.0484010 SPIN=   4.00000
  Fe  -0.2016880  -0.0484010  -0.4424720 SPIN=   4.00000
%ENDBLOCK POSITIONS_FRAC

# Note: total spin =   8.00

KPOINTS_MP_SPACING 0.07

%BLOCK SPECIES_POT
QC5
%ENDBLOCK SPECIES_POT

%BLOCK HUBBARD_U
Fe d:4.0
%ENDBLOCK HUBBARD_U

SNAP_TO_SYMMETRY
SYMMETRY_GENERATE

