#              Generated by Buildcell
#
# at 11:46:41 (GMT+0.0) 1st December 2020
# in /lustre/scratch/uccabz1/launch_tmp
# on node-c12d-027
# by uccabz1
#
# compiler GCC version 4.9.2
# options -cpp -iprefix /lustre/shared/ucl/apps/gcc/4.9.2/bin/../lib/gcc/x86_64-unknown-linux-gnu/4.9.2/ -mtune=corei7 -march=x86-64 -g -Og
#
# seed  -668364473   777834110  1620785669   -58309156 -1292307245  1207176857  -376117146  2096235705 -1020325795  1415883757  -471663993 -1734641269
#
#      Author: C. J. Pickard (cjp20@cam.ac.uk)
#                Space group: Pc
#

%BLOCK LATTICE_ABC
      5.59479      5.78813      9.88879
     90.00000     90.00000     92.18291
%ENDBLOCK LATTICE_ABC

%BLOCK POSITIONS_FRAC
  Li  -0.3584376  -0.1252749   0.4580816 SPIN=   0.00000
  Li  -0.3584376   0.3747251  -0.4580816 SPIN=   0.00000
  Li   0.1460174   0.2033471   0.4532501 SPIN=   0.00000
  Li   0.1460174  -0.2966529  -0.4532501 SPIN=   0.00000
   O  -0.1343723   0.1362513  -0.3668796 SPIN=   0.00000
   O   0.1989608   0.1091370  -0.1852752 SPIN=   0.00000
   O   0.2592771   0.3891471  -0.3717894 SPIN=   0.00000
   O  -0.0463359   0.4618823  -0.1932765 SPIN=   0.00000
   P   0.0571679   0.2689804  -0.2829528 SPIN=   0.00000
   O  -0.1343723  -0.3637487   0.3668796 SPIN=   0.00000
   O   0.1989608  -0.3908630   0.1852752 SPIN=   0.00000
   O   0.2592771  -0.1108529   0.3717894 SPIN=   0.00000
   O  -0.0463359  -0.0381177   0.1932765 SPIN=   0.00000
   P   0.0571679  -0.2310196   0.2829528 SPIN=   0.00000
   O  -0.3218178  -0.0081472  -0.1573220 SPIN=   0.00000
   O  -0.5599938   0.0091397  -0.3824035 SPIN=   0.00000
   O  -0.2989480  -0.3197101  -0.3455302 SPIN=   0.00000
   O  -0.6758663  -0.2929376  -0.2107656 SPIN=   0.00000
   P  -0.4590761  -0.1468581  -0.2670462 SPIN=   0.00000
   O  -0.3218178   0.4918528   0.1573220 SPIN=   0.00000
   O  -0.5599938   0.5091397   0.3824035 SPIN=   0.00000
   O  -0.2989480   0.1802899   0.3455302 SPIN=   0.00000
   O  -0.6758663   0.2070624   0.2107656 SPIN=   0.00000
   P  -0.4590761   0.3531419   0.2670462 SPIN=   0.00000
  Fe  -0.0056008  -0.1891204  -0.1373777 SPIN=   5.02886
  Fe  -0.0056008   0.3108796   0.1373777 SPIN=   5.02886
  Fe   0.4970391  -0.1783670   0.1364316 SPIN=   2.97114
  Fe   0.4970391   0.3216330  -0.1364316 SPIN=   2.97114
%ENDBLOCK POSITIONS_FRAC

# Note: total spin =  16.00

KPOINTS_MP_SPACING 0.07

%BLOCK SPECIES_POT
QC5
%ENDBLOCK SPECIES_POT

%BLOCK HUBBARD_U
Fe d:4.0
%ENDBLOCK HUBBARD_U

SNAP_TO_SYMMETRY
SYMMETRY_GENERATE

