#              Generated by Buildcell
#
# at 07:17:45 (GMT+0.0) 24th November 2020
# in /lustre/scratch/uccabz1/launch_tmp
# on node-c12h-032
# by uccabz1
#
# compiler GCC version 4.9.2
# options -cpp -iprefix /lustre/shared/ucl/apps/gcc/4.9.2/bin/../lib/gcc/x86_64-unknown-linux-gnu/4.9.2/ -mtune=corei7 -march=x86-64 -g -Og
#
# seed   -20896466  1079556722   -30570582  1762640824   331023669  -328853480  1457857057  -175785135  -659514554  2122051833  2092687826  2084105991
#
#      Author: C. J. Pickard (cjp20@cam.ac.uk)
#                Space group: C2221
#

%BLOCK LATTICE_ABC
      5.25978      5.73808      5.91782
     90.00000    116.38507     90.00000
%ENDBLOCK LATTICE_ABC

%BLOCK POSITIONS_FRAC
  Li  -0.4238149   0.0000000   0.1523702 SPIN=   0.00000
  Li   0.4238149   0.5000000  -0.1523702 SPIN=   0.00000
   O   0.2652069  -0.1774537   0.2195975 SPIN=   0.00000
   O   0.1840644   0.0925246  -0.1589216 SPIN=   0.00000
   O  -0.2652069   0.3225463  -0.2195975 SPIN=   0.00000
   O  -0.1840644   0.5925246   0.1589216 SPIN=   0.00000
   O   0.0456094  -0.3225463  -0.2195975 SPIN=   0.00000
   O   0.3429860  -0.5925246   0.1589216 SPIN=   0.00000
   O  -0.0456094   0.1774537   0.2195975 SPIN=   0.00000
   O  -0.3429860  -0.0925246  -0.1589216 SPIN=   0.00000
   P  -0.1250863   0.0000000  -0.2501727 SPIN=   0.00000
   P   0.1250863  -0.5000000   0.2501727 SPIN=   0.00000
  Fe   0.2648907  -0.0000000  -0.4702185 SPIN=   4.00000
  Fe  -0.2648907   0.5000000   0.4702185 SPIN=   4.00000
%ENDBLOCK POSITIONS_FRAC

# Note: total spin =   8.00

KPOINTS_MP_SPACING 0.07

%BLOCK SPECIES_POT
QC5
%ENDBLOCK SPECIES_POT

%BLOCK HUBBARD_U
Fe d:4.0
%ENDBLOCK HUBBARD_U

SNAP_TO_SYMMETRY
SYMMETRY_GENERATE

