#              Generated by Buildcell
#
# at 12:03:05 (GMT+0.0) 26th November 2020
# in /lustre/scratch/uccabz1/launch_tmp
# on node-c12n-028
# by uccabz1
#
# compiler GCC version 4.9.2
# options -cpp -iprefix /lustre/shared/ucl/apps/gcc/4.9.2/bin/../lib/gcc/x86_64-unknown-linux-gnu/4.9.2/ -mtune=corei7 -march=x86-64 -g -Og
#
# seed  -736750342  1284543005  -810029368  1487947133  -814600021  -493424857   711352842  -695082431  -982024677   179547286  1180864068  1565661431
#
#      Author: C. J. Pickard (cjp20@cam.ac.uk)
#                Space group: P2
#

%BLOCK LATTICE_ABC
      4.00951      4.98283     16.03873
     92.98024     90.00000     90.00000
%ENDBLOCK LATTICE_ABC

%BLOCK POSITIONS_FRAC
  Li   0.4961858  -0.3812519  -0.2501147 SPIN=   0.00000
  Li   0.4961858   0.3812519   0.2501147 SPIN=   0.00000
  Li  -0.0071581  -0.4824642   0.1177668 SPIN=   0.00000
  Li  -0.0071581   0.4824642  -0.1177668 SPIN=   0.00000
   O  -0.1295427   0.2901904   0.4537166 SPIN=   0.00000
   O  -0.0325961   0.4659693   0.3059628 SPIN=   0.00000
   O   0.3368390   0.6307900   0.4207498 SPIN=   0.00000
   O   0.3859009   0.1539192   0.3646620 SPIN=   0.00000
   P   0.1286905   0.3774279   0.3896088 SPIN=   0.00000
   O  -0.1295427  -0.2901904  -0.4537166 SPIN=   0.00000
   O  -0.0325961  -0.4659693  -0.3059628 SPIN=   0.00000
   O   0.3368390  -0.6307900  -0.4207498 SPIN=   0.00000
   O   0.3859009  -0.1539192  -0.3646620 SPIN=   0.00000
   P   0.1286905  -0.3774279  -0.3896088 SPIN=   0.00000
   O  -0.4576952   0.2691918   0.1209620 SPIN=   0.00000
   O  -0.4458770  -0.1128386   0.2251657 SPIN=   0.00000
   O  -0.4452366  -0.2377214   0.0741013 SPIN=   0.00000
   O   0.0631801  -0.0262962   0.1401607 SPIN=   0.00000
   P  -0.3241253  -0.0111425   0.1390793 SPIN=   0.00000
   O  -0.4576952  -0.2691918  -0.1209620 SPIN=   0.00000
   O  -0.4458770   0.1128386  -0.2251657 SPIN=   0.00000
   O  -0.4452366   0.2377214  -0.0741013 SPIN=   0.00000
   O   0.0631801   0.0262962  -0.1401607 SPIN=   0.00000
   P  -0.3241253   0.0111425  -0.1390793 SPIN=   0.00000
  Fe  -0.0019652   0.1119813  -0.2939479 SPIN=   3.01579
  Fe  -0.0019652  -0.1119813   0.2939479 SPIN=   3.01579
  Fe   0.2354239   0.0000000   0.0000000 SPIN=   3.40555
  Fe   0.4993421   0.0000000  -0.5000000 SPIN=   6.56288
%ENDBLOCK POSITIONS_FRAC

# Note: total spin =  16.00

KPOINTS_MP_SPACING 0.07

%BLOCK SPECIES_POT
QC5
%ENDBLOCK SPECIES_POT

%BLOCK HUBBARD_U
Fe d:4.0
%ENDBLOCK HUBBARD_U

SNAP_TO_SYMMETRY
SYMMETRY_GENERATE

