#              Generated by Buildcell
#
# at 00:18:54 (GMT+0.0) 27th November 2020
# in /lustre/scratch/uccabz1/launch_tmp
# on node-c12l-022
# by uccabz1
#
# compiler GCC version 4.9.2
# options -cpp -iprefix /lustre/shared/ucl/apps/gcc/4.9.2/bin/../lib/gcc/x86_64-unknown-linux-gnu/4.9.2/ -mtune=corei7 -march=x86-64 -g -Og
#
# seed -1507631219  1321813370  1830414360  -244158941   780433107  1660029745  2061653314  1445318639  -673380817 -1021289842  1976907854 -1521768028
#
#      Author: C. J. Pickard (cjp20@cam.ac.uk)
#                Space group: P2
#

%BLOCK LATTICE_ABC
      4.91454      7.85782      8.39538
     99.24235     90.00000     90.00000
%ENDBLOCK LATTICE_ABC

%BLOCK POSITIONS_FRAC
  Li   0.1696810   0.2252063  -0.1337316 SPIN=   0.00000
  Li   0.1696810  -0.2252063   0.1337316 SPIN=   0.00000
  Li  -0.3925493   0.2330623   0.3696515 SPIN=   0.00000
  Li  -0.3925493  -0.2330623  -0.3696515 SPIN=   0.00000
   O  -0.4033559   0.2475715  -0.1190818 SPIN=   0.00000
   O  -0.0874008   0.2886688  -0.3580935 SPIN=   0.00000
   O  -0.1627019  -0.0066065  -0.3014594 SPIN=   0.00000
   O  -0.5421568   0.1486144  -0.4162611 SPIN=   0.00000
   P  -0.3073360   0.1734685  -0.2905460 SPIN=   0.00000
   O  -0.4033559  -0.2475715   0.1190818 SPIN=   0.00000
   O  -0.0874008  -0.2886688   0.3580935 SPIN=   0.00000
   O  -0.1627019   0.0066065   0.3014594 SPIN=   0.00000
   O  -0.5421568  -0.1486144   0.4162611 SPIN=   0.00000
   P  -0.3073360  -0.1734685   0.2905460 SPIN=   0.00000
   O  -0.1903800   0.2531172   0.1494958 SPIN=   0.00000
   O   0.1787502   0.2517631   0.3708195 SPIN=   0.00000
   O   0.3033669   0.1440468   0.0875425 SPIN=   0.00000
   P   0.1124810   0.2780484   0.1930858 SPIN=   0.00000
   O  -0.1903800  -0.2531172  -0.1494958 SPIN=   0.00000
   O   0.1787502  -0.2517631  -0.3708195 SPIN=   0.00000
   O   0.3033669  -0.1440468  -0.0875425 SPIN=   0.00000
   P   0.1124810  -0.2780484  -0.1930858 SPIN=   0.00000
   O  -0.4170624  -0.5000000  -0.5000000 SPIN=   0.00000
   O   0.1559223  -0.5000000   0.0000000 SPIN=   0.00000
  Fe   0.1026686   0.0000000  -0.5000000 SPIN=   4.50602
  Fe  -0.3250737  -0.0000000   0.0000000 SPIN=   5.96726
  Fe  -0.3200488   0.5000000  -0.0000000 SPIN=   4.57054
  Fe   0.1074940  -0.5000000  -0.5000000 SPIN=   0.95618
%ENDBLOCK POSITIONS_FRAC

# Note: total spin =  16.00

KPOINTS_MP_SPACING 0.07

%BLOCK SPECIES_POT
QC5
%ENDBLOCK SPECIES_POT

%BLOCK HUBBARD_U
Fe d:4.0
%ENDBLOCK HUBBARD_U

SNAP_TO_SYMMETRY
SYMMETRY_GENERATE

