#              Generated by Buildcell
#
# at 11:56:55 (GMT+0.0) 24th November 2020
# in /lustre/scratch/uccabz1/launch_tmp
# on node-c12e-020
# by uccabz1
#
# compiler GCC version 4.9.2
# options -cpp -iprefix /lustre/shared/ucl/apps/gcc/4.9.2/bin/../lib/gcc/x86_64-unknown-linux-gnu/4.9.2/ -mtune=corei7 -march=x86-64 -g -Og
#
# seed -1399384292   430738582  -136280063   302546611  2099586144   962930623 -1539072296    50635953   549122942   -25862076 -2062071410   139234609
#
#      Author: C. J. Pickard (cjp20@cam.ac.uk)
#                Space group: Ima2
#

%BLOCK LATTICE_ABC
      5.22823      6.25259      6.36892
    119.39762    114.23303     90.00000
%ENDBLOCK LATTICE_ABC

%BLOCK POSITIONS_FRAC
  Li   0.1846675   0.0730116   0.5000000 SPIN=   0.00000
  Li  -0.1846675  -0.4269884  -0.5000000 SPIN=   0.00000
   O   0.5892578   0.3419588   0.7585724 SPIN=   0.00000
   O   0.0965893   0.4112126   0.7516824 SPIN=   0.00000
   O  -0.5892578  -0.4166136  -0.7585724 SPIN=   0.00000
   O  -0.0965893  -0.3404698  -0.7516824 SPIN=   0.00000
   O  -0.3306854  -0.1580412  -0.2414276 SPIN=   0.00000
   O   0.1550931  -0.0887874  -0.2483176 SPIN=   0.00000
   O   0.3306854   0.0833864   0.2414276 SPIN=   0.00000
   O  -0.1550931   0.1595302   0.2483176 SPIN=   0.00000
   P   0.3142573  -0.3408936  -0.5000000 SPIN=   0.00000
   P  -0.3142573   0.1591064  -0.5000000 SPIN=   0.00000
  Fe   0.0000000   0.1775156   0.0000000 SPIN=   4.00000
  Fe  -0.5000000  -0.3224844  -1.0000000 SPIN=   4.00000
%ENDBLOCK POSITIONS_FRAC

# Note: total spin =   8.00

KPOINTS_MP_SPACING 0.07

%BLOCK SPECIES_POT
QC5
%ENDBLOCK SPECIES_POT

%BLOCK HUBBARD_U
Fe d:4.0
%ENDBLOCK HUBBARD_U

SNAP_TO_SYMMETRY
SYMMETRY_GENERATE

