#              Generated by Buildcell
#
# at 15:29:47 (GMT+0.0) 26th November 2020
# in /scratch/scratch/uccabz1/launch_tmp
# on node-k10a-018
# by uccabz1
#
# compiler GCC version 4.9.2
# options -cpp -iprefix /scratch/UCL/applications/gcc/4.9.2/bin/../lib/gcc/x86_64-unknown-linux-gnu/4.9.2/ -mtune=corei7 -march=x86-64 -g -O2
#
# seed   -45193142   491000515  -976258108 -1755606239 -1418067906  1087690971  1657067937  -736232541 -1674537177   722359492 -1394148177  -124895624
#
#      Author: C. J. Pickard (cjp20@cam.ac.uk)
#                Space group: Pnn2
#

%BLOCK LATTICE_ABC
      3.89477      7.73486     10.62221
     90.00000     90.00000     90.00000
%ENDBLOCK LATTICE_ABC

%BLOCK POSITIONS_FRAC
  Li   0.0000000  -0.0000000   0.1341012 SPIN=   0.00000
  Li  -0.5000000  -0.5000000  -0.3658988 SPIN=   0.00000
  Li  -0.5000000  -0.0000000  -0.2891053 SPIN=   0.00000
  Li  -0.0000000  -0.5000000   0.2108947 SPIN=   0.00000
   O   0.0442197  -0.2874568   0.0900787 SPIN=   0.00000
   O   0.5627989  -0.1549982  -0.0297772 SPIN=   0.00000
   O   0.5719376  -0.1522368   0.2027198 SPIN=   0.00000
   P   0.4353714  -0.2605810   0.0878424 SPIN=   0.00000
   O  -0.0442197   0.2874568   0.0900787 SPIN=   0.00000
   O  -0.5627989   0.1549982  -0.0297772 SPIN=   0.00000
   O  -0.5719376   0.1522368   0.2027198 SPIN=   0.00000
   P  -0.4353714   0.2605810   0.0878424 SPIN=   0.00000
   O   0.4557803   0.2125432  -0.4099213 SPIN=   0.00000
   O  -0.0627989   0.3450018  -0.5297772 SPIN=   0.00000
   O  -0.0719376   0.3477632  -0.2972802 SPIN=   0.00000
   P   0.0646286   0.2394190  -0.4121576 SPIN=   0.00000
   O  -0.4557803  -0.2125432  -0.4099213 SPIN=   0.00000
   O   0.0627989  -0.3450018  -0.5297772 SPIN=   0.00000
   O   0.0719376  -0.3477632  -0.2972802 SPIN=   0.00000
   P  -0.0646286  -0.2394190  -0.4121576 SPIN=   0.00000
   O  -0.5000000  -0.5000000   0.0646472 SPIN=   0.00000
   O   0.0000000  -0.0000000  -0.4353528 SPIN=   0.00000
   O   0.0000000  -0.0000000   0.3327082 SPIN=   0.00000
   O  -0.5000000  -0.5000000  -0.1672918 SPIN=   0.00000
  Fe  -0.4934398   0.2494129   0.3806754 SPIN=   4.00000
  Fe   0.4934398  -0.2494129   0.3806754 SPIN=   4.00000
  Fe  -0.0065602  -0.2505871  -0.1193246 SPIN=   4.00000
  Fe   0.0065602   0.2505871  -0.1193246 SPIN=   4.00000
%ENDBLOCK POSITIONS_FRAC

# Note: total spin =  16.00

KPOINTS_MP_SPACING 0.07

%BLOCK SPECIES_POT
QC5
%ENDBLOCK SPECIES_POT

%BLOCK HUBBARD_U
Fe d:4.0
%ENDBLOCK HUBBARD_U

SNAP_TO_SYMMETRY
SYMMETRY_GENERATE

