#              Generated by Buildcell
#
# at 14:20:49 (GMT+0.0) 24th November 2020
# in /lustre/scratch/uccabz1/launch_tmp
# on node-c12o-023
# by uccabz1
#
# compiler GCC version 4.9.2
# options -cpp -iprefix /lustre/shared/ucl/apps/gcc/4.9.2/bin/../lib/gcc/x86_64-unknown-linux-gnu/4.9.2/ -mtune=corei7 -march=x86-64 -g -Og
#
# seed   139810338  1639967628  1407822822  1480656209  1025989840  2004894953   472148940   332514459 -1051970143  -734018028   -63074239 -2142872485
#
#      Author: C. J. Pickard (cjp20@cam.ac.uk)
#                Space group: Amm2
#

%BLOCK LATTICE_ABC
      3.84500      3.84500     10.82999
     90.00000     90.00000     92.13590
%ENDBLOCK LATTICE_ABC

%BLOCK POSITIONS_FRAC
  Li   0.5555586  -0.4444414  -0.0000000 SPIN=   0.00000
  Li   0.5473684  -0.4526316  -0.5000000 SPIN=   0.00000
   O  -0.0297089   0.5255788  -0.3777608 SPIN=   0.00000
   O  -0.2829485   0.2735819  -0.1726715 SPIN=   0.00000
   O   0.5255788  -0.0297089   0.3777608 SPIN=   0.00000
   O   0.2735819  -0.2829485   0.1726715 SPIN=   0.00000
   O   0.5255788  -0.0297089  -0.3777608 SPIN=   0.00000
   O   0.2735819  -0.2829485  -0.1726715 SPIN=   0.00000
   O  -0.0297089   0.5255788   0.3777608 SPIN=   0.00000
   O  -0.2829485   0.2735819   0.1726715 SPIN=   0.00000
   P   0.0465592   0.0465592  -0.5000000 SPIN=   0.00000
   P   0.0531231   0.0531231   0.0000000 SPIN=   0.00000
  Fe   0.2086919   0.2086919  -0.2492670 SPIN=   4.00000
  Fe   0.2086919   0.2086919   0.2492670 SPIN=   4.00000
%ENDBLOCK POSITIONS_FRAC

# Note: total spin =   8.00

KPOINTS_MP_SPACING 0.07

%BLOCK SPECIES_POT
QC5
%ENDBLOCK SPECIES_POT

%BLOCK HUBBARD_U
Fe d:4.0
%ENDBLOCK HUBBARD_U

SNAP_TO_SYMMETRY
SYMMETRY_GENERATE

