#              Generated by Buildcell
#
# at 10:41:48 (GMT+0.0) 24th November 2020
# in /lustre/scratch/uccabz1/launch_tmp
# on node-c12c-034
# by uccabz1
#
# compiler GCC version 4.9.2
# options -cpp -iprefix /lustre/shared/ucl/apps/gcc/4.9.2/bin/../lib/gcc/x86_64-unknown-linux-gnu/4.9.2/ -mtune=corei7 -march=x86-64 -g -Og
#
# seed -1073104983   638621990 -1395286095 -1530957415   754946752   509722738   635830026 -1306007921  1481534238   222750825  -905468727  -238041117
#
#      Author: C. J. Pickard (cjp20@cam.ac.uk)
#                Space group: Pc
#

%BLOCK LATTICE_ABC
      4.48674      4.98572      7.17153
     90.00000     94.16836     90.00000
%ENDBLOCK LATTICE_ABC

%BLOCK POSITIONS_FRAC
  Li  -0.1996759   0.1614377   0.4055037 SPIN=   0.00000
  Li  -0.1996759  -0.1614377  -0.0944963 SPIN=   0.00000
   O   0.0498833  -0.5757905   0.2486977 SPIN=   0.00000
   O  -0.0222790  -0.0661939   0.1845542 SPIN=   0.00000
   O  -0.4618832  -0.3634972   0.1388861 SPIN=   0.00000
   O  -0.2405865  -0.2704702   0.4631110 SPIN=   0.00000
   P  -0.1579251  -0.3320888   0.2606847 SPIN=   0.00000
   O   0.0498833   0.5757905  -0.2513023 SPIN=   0.00000
   O  -0.0222790   0.0661939  -0.3154458 SPIN=   0.00000
   O  -0.4618832   0.3634972  -0.3611139 SPIN=   0.00000
   O  -0.2405865   0.2704702  -0.0368890 SPIN=   0.00000
   P  -0.1579251   0.3320888  -0.2393153 SPIN=   0.00000
  Fe   0.3204397  -0.2840929  -0.4559108 SPIN=   4.00000
  Fe   0.3204397   0.2840929   0.0440892 SPIN=   4.00000
%ENDBLOCK POSITIONS_FRAC

# Note: total spin =   8.00

KPOINTS_MP_SPACING 0.07

%BLOCK SPECIES_POT
QC5
%ENDBLOCK SPECIES_POT

%BLOCK HUBBARD_U
Fe d:4.0
%ENDBLOCK HUBBARD_U

SNAP_TO_SYMMETRY
SYMMETRY_GENERATE

