#              Generated by Buildcell
#
# at 15:34:28 (GMT+0.0) 1st December 2020
# in /lustre/scratch/uccabz1/launch_tmp
# on node-c12c-029
# by uccabz1
#
# compiler GCC version 4.9.2
# options -cpp -iprefix /lustre/shared/ucl/apps/gcc/4.9.2/bin/../lib/gcc/x86_64-unknown-linux-gnu/4.9.2/ -mtune=corei7 -march=x86-64 -g -Og
#
# seed  -250732809  1787210243   422126849  1201269439  -241738091   464275337  -429824310 -1905021978  1113946051   665218423  -833469497    15691513
#
#      Author: C. J. Pickard (cjp20@cam.ac.uk)
#                Space group: Pc
#

%BLOCK LATTICE_ABC
      5.65831      5.80469     10.00457
     90.00000    103.13519     90.00000
%ENDBLOCK LATTICE_ABC

%BLOCK POSITIONS_FRAC
  Li  -0.2677461   0.2402057   0.1651595 SPIN=   0.00000
  Li   0.2322539  -0.2402057   0.1651595 SPIN=   0.00000
  Li   0.0416856  -0.1145500  -0.3459809 SPIN=   0.00000
  Li  -0.4583144   0.1145500  -0.3459809 SPIN=   0.00000
   O  -0.5568217   0.4564073   0.0003277 SPIN=   0.00000
   O  -0.7059146   0.1674218  -0.1993379 SPIN=   0.00000
   O  -0.3482226   0.4085154  -0.2040888 SPIN=   0.00000
   O  -0.3132260   0.0917547  -0.0307346 SPIN=   0.00000
   P  -0.4831005   0.2881294  -0.1017488 SPIN=   0.00000
   O  -0.0568217  -0.4564073   0.0003277 SPIN=   0.00000
   O  -0.2059146  -0.1674218  -0.1993379 SPIN=   0.00000
   O   0.1517774  -0.4085154  -0.2040888 SPIN=   0.00000
   O   0.1867740  -0.0917547  -0.0307346 SPIN=   0.00000
   P   0.0168995  -0.2881294  -0.1017488 SPIN=   0.00000
   O  -0.2419605   0.2112585  -0.6179346 SPIN=   0.00000
   O   0.2050228   0.1438584  -0.4876809 SPIN=   0.00000
   O   0.0358691   0.5365749  -0.4905972 SPIN=   0.00000
   O  -0.1085828   0.2278126  -0.3534764 SPIN=   0.00000
   P  -0.0397943   0.2756081  -0.4927907 SPIN=   0.00000
   O   0.2580395  -0.2112585  -0.6179346 SPIN=   0.00000
   O   0.7050228  -0.1438584  -0.4876809 SPIN=   0.00000
   O   0.5358691  -0.5365749  -0.4905972 SPIN=   0.00000
   O   0.3914172  -0.2278126  -0.3534764 SPIN=   0.00000
   P   0.4602057  -0.2756081  -0.4927907 SPIN=   0.00000
  Fe  -0.4769435  -0.2274793  -0.0854698 SPIN=   5.51639
  Fe   0.0230565   0.2274793  -0.0854698 SPIN=   5.51639
  Fe   0.3014515   0.2671799   0.3351950 SPIN=   2.48361
  Fe  -0.1985485  -0.2671799   0.3351950 SPIN=   2.48361
%ENDBLOCK POSITIONS_FRAC

# Note: total spin =  16.00

KPOINTS_MP_SPACING 0.07

%BLOCK SPECIES_POT
QC5
%ENDBLOCK SPECIES_POT

%BLOCK HUBBARD_U
Fe d:4.0
%ENDBLOCK HUBBARD_U

SNAP_TO_SYMMETRY
SYMMETRY_GENERATE

