#              Generated by Buildcell
#
# at 23:03:09 (GMT+0.0) 26th November 2020
# in /lustre/scratch/uccabz1/launch_tmp
# on node-c12d-021
# by uccabz1
#
# compiler GCC version 4.9.2
# options -cpp -iprefix /lustre/shared/ucl/apps/gcc/4.9.2/bin/../lib/gcc/x86_64-unknown-linux-gnu/4.9.2/ -mtune=corei7 -march=x86-64 -g -Og
#
# seed  -974721277  1985309639   611802641  -615100230   576981435     1893928 -1536658538  -899033910  2002661103   576341803  -275350932  -801388489
#
#      Author: C. J. Pickard (cjp20@cam.ac.uk)
#                Space group: Cc
#

%BLOCK LATTICE_ABC
      7.56870      7.57705      7.58766
    117.30588    119.91736     90.00000
%ENDBLOCK LATTICE_ABC

%BLOCK POSITIONS_FRAC
  Li  -0.0866628  -0.1686859  -0.3188588 SPIN=   0.00000
  Li  -0.2321960   0.3313141  -0.3188588 SPIN=   0.00000
  Li  -0.3648979  -0.4158958   0.1371640 SPIN=   0.00000
  Li  -0.4979381   0.0841042   0.1371640 SPIN=   0.00000
   O   0.0478854  -0.3394215  -0.5141973 SPIN=   0.00000
   O   0.0920960  -0.6901053  -0.5438229 SPIN=   0.00000
   O   0.3590792  -0.3640930  -0.1685037 SPIN=   0.00000
   O  -0.0115918  -0.4560087  -0.2720905 SPIN=   0.00000
   P   0.1163531  -0.4557833  -0.3808733 SPIN=   0.00000
   O  -0.5620827   0.1605785  -0.5141973 SPIN=   0.00000
   O  -0.6359189  -0.1901053  -0.5438229 SPIN=   0.00000
   O  -0.5275830   0.1359070  -0.1685037 SPIN=   0.00000
   O  -0.2604987   0.0439913  -0.2720905 SPIN=   0.00000
   P  -0.4972264   0.0442167  -0.3808733 SPIN=   0.00000
   O   0.4812953   0.4062592   0.3690985 SPIN=   0.00000
   O   0.1528395   0.1192550  -0.0470851 SPIN=   0.00000
   O   0.1070677   0.4583976   0.1677611 SPIN=   0.00000
   O   0.3209529   0.4327955  -0.0053833 SPIN=   0.00000
   P   0.2776808   0.3578777   0.1328100 SPIN=   0.00000
   O  -0.1121968  -0.0937408   0.3690985 SPIN=   0.00000
   O  -0.1999246  -0.3807450  -0.0470851 SPIN=   0.00000
   O   0.0606934  -0.0416024   0.1677611 SPIN=   0.00000
   O  -0.3263362  -0.0672045  -0.0053833 SPIN=   0.00000
   P  -0.1448708  -0.1421223   0.1328100 SPIN=   0.00000
  Fe   0.4912725  -0.3358555  -0.3498119 SPIN=   3.74401
  Fe   0.1589156   0.1641445  -0.3498119 SPIN=   3.74401
  Fe   0.2111030  -0.2726958   0.0990786 SPIN=   4.25599
  Fe  -0.1120244   0.2273042   0.0990786 SPIN=   4.25599
%ENDBLOCK POSITIONS_FRAC

# Note: total spin =  16.00

KPOINTS_MP_SPACING 0.07

%BLOCK SPECIES_POT
QC5
%ENDBLOCK SPECIES_POT

%BLOCK HUBBARD_U
Fe d:4.0
%ENDBLOCK HUBBARD_U

SNAP_TO_SYMMETRY
SYMMETRY_GENERATE

