#              Generated by Buildcell
#
# at 12:59:14 (GMT+0.0) 26th November 2020
# in /lustre/scratch/uccabz1/launch_tmp
# on node-c12c-024
# by uccabz1
#
# compiler GCC version 4.9.2
# options -cpp -iprefix /lustre/shared/ucl/apps/gcc/4.9.2/bin/../lib/gcc/x86_64-unknown-linux-gnu/4.9.2/ -mtune=corei7 -march=x86-64 -g -Og
#
# seed  1906078023   437030766 -1796410998  -830984269 -1167251332   150738887    69373839 -2046738110 -2006975625  -871043503  1854335818  1965379231
#
#      Author: C. J. Pickard (cjp20@cam.ac.uk)
#                Space group: Cmc21
#

%BLOCK LATTICE_ABC
      6.06809      6.06809      8.76179
     90.00000     90.00000     97.31266
%ENDBLOCK LATTICE_ABC

%BLOCK POSITIONS_FRAC
  Li   0.1649507   0.1649507  -0.3898022 SPIN=   0.00000
  Li  -0.1649507  -0.1649507   0.1101978 SPIN=   0.00000
  Li   0.4577987   0.4577987   0.1396475 SPIN=   0.00000
  Li  -0.4577987  -0.4577987  -0.3603525 SPIN=   0.00000
   O  -0.1802734   0.0887592  -0.3546045 SPIN=   0.00000
   O  -0.5660282   0.1439644  -0.2428480 SPIN=   0.00000
   O  -0.5536951  -0.0689974  -0.4822700 SPIN=   0.00000
   P  -0.4222805  -0.0146109  -0.3292994 SPIN=   0.00000
   O   0.1802734  -0.0887592   0.1453955 SPIN=   0.00000
   O   0.5660282  -0.1439644   0.2571520 SPIN=   0.00000
   O   0.5536951   0.0689974   0.0177300 SPIN=   0.00000
   P   0.4222805   0.0146109   0.1707006 SPIN=   0.00000
   O  -0.0887592   0.1802734   0.1453955 SPIN=   0.00000
   O  -0.1439644   0.5660282   0.2571520 SPIN=   0.00000
   O   0.0689974   0.5536951   0.0177300 SPIN=   0.00000
   P   0.0146109   0.4222805   0.1707006 SPIN=   0.00000
   O   0.0887592  -0.1802734  -0.3546045 SPIN=   0.00000
   O   0.1439644  -0.5660282  -0.2428480 SPIN=   0.00000
   O  -0.0689974  -0.5536951  -0.4822700 SPIN=   0.00000
   P  -0.0146109  -0.4222805  -0.3292994 SPIN=   0.00000
   O   0.0829950   0.0829950  -0.0971537 SPIN=   0.00000
   O  -0.0829950  -0.0829950   0.4028463 SPIN=   0.00000
   O  -0.4756888  -0.4756888  -0.1017169 SPIN=   0.00000
   O   0.4756888   0.4756888   0.3982831 SPIN=   0.00000
  Fe   0.1991135  -0.2700463   0.3947833 SPIN=   4.00000
  Fe  -0.1991135   0.2700463  -0.1052167 SPIN=   4.00000
  Fe   0.2700463  -0.1991135  -0.1052167 SPIN=   4.00000
  Fe  -0.2700463   0.1991135   0.3947833 SPIN=   4.00000
%ENDBLOCK POSITIONS_FRAC

# Note: total spin =  16.00

KPOINTS_MP_SPACING 0.07

%BLOCK SPECIES_POT
QC5
%ENDBLOCK SPECIES_POT

%BLOCK HUBBARD_U
Fe d:4.0
%ENDBLOCK HUBBARD_U

SNAP_TO_SYMMETRY
SYMMETRY_GENERATE

