#              Generated by Buildcell
#
# at 14:48:05 (GMT+0.0) 24th November 2020
# in /scratch/scratch/uccabz1/launch_tmp
# on node-a14f-024
# by uccabz1
#
# compiler GCC version 4.9.2
# options -cpp -iprefix /scratch/UCL/applications/gcc/4.9.2/bin/../lib/gcc/x86_64-unknown-linux-gnu/4.9.2/ -mtune=corei7 -march=x86-64 -g -O2
#
# seed   309087306  1854850269 -1343489108  -320444979 -1038495905  -999658145  -901401584  1032417003  1370968466  2006427725  1207459099    -6447989
#
#      Author: C. J. Pickard (cjp20@cam.ac.uk)
#                Space group: Pmc21
#

%BLOCK LATTICE_ABC
      5.36793      5.40091      5.51882
     90.00000     90.00000     90.00000
%ENDBLOCK LATTICE_ABC

%BLOCK POSITIONS_FRAC
  Li  -0.0000000   0.2173764  -0.1383133 SPIN=   0.00000
  Li  -0.0000000  -0.2173764   0.3616867 SPIN=   0.00000
   O   0.2704158  -0.1075314   0.1073567 SPIN=   0.00000
   O   0.2705761  -0.4967584   0.3839910 SPIN=   0.00000
   O  -0.2704158   0.1075314  -0.3926433 SPIN=   0.00000
   O  -0.2705761   0.4967584  -0.1160090 SPIN=   0.00000
   O   0.2704158   0.1075314  -0.3926433 SPIN=   0.00000
   O   0.2705761   0.4967584  -0.1160090 SPIN=   0.00000
   O  -0.2704158  -0.1075314   0.1073567 SPIN=   0.00000
   O  -0.2705761  -0.4967584   0.3839910 SPIN=   0.00000
   P   0.0000000  -0.2757814  -0.1206965 SPIN=   0.00000
   P  -0.0000000   0.2757814   0.3793035 SPIN=   0.00000
  Fe  -0.5000000   0.2490160   0.2043090 SPIN=   4.00000
  Fe  -0.5000000  -0.2490160  -0.2956910 SPIN=   4.00000
%ENDBLOCK POSITIONS_FRAC

# Note: total spin =   8.00

KPOINTS_MP_SPACING 0.07

%BLOCK SPECIES_POT
QC5
%ENDBLOCK SPECIES_POT

%BLOCK HUBBARD_U
Fe d:4.0
%ENDBLOCK HUBBARD_U

SNAP_TO_SYMMETRY
SYMMETRY_GENERATE

