#              Generated by Buildcell
#
# at 07:52:56 (GMT+0.0) 24th November 2020
# in /lustre/scratch/uccabz1/launch_tmp
# on node-c12j-029
# by uccabz1
#
# compiler GCC version 4.9.2
# options -cpp -iprefix /lustre/shared/ucl/apps/gcc/4.9.2/bin/../lib/gcc/x86_64-unknown-linux-gnu/4.9.2/ -mtune=corei7 -march=x86-64 -g -Og
#
# seed   791590215 -1763450583   405563272  1964883808 -1945360582  2139631359  1466363104   654480857  -111710821  -966174518 -2092654656  1404417129
#
#      Author: C. J. Pickard (cjp20@cam.ac.uk)
#                Space group: C2
#

%BLOCK LATTICE_ABC
      5.58056      5.58056      5.93241
     79.55260     79.55260     62.39609
%ENDBLOCK LATTICE_ABC

%BLOCK POSITIONS_FRAC
  Li  -0.2494148   0.2087704  -0.2427333 SPIN=   0.00000
  Li  -0.2087704   0.2494148   0.2427333 SPIN=   0.00000
   O  -0.1767752  -0.4216910  -0.3147083 SPIN=   0.00000
   O   0.3482561  -0.6394103  -0.3180590 SPIN=   0.00000
   O   0.0730940  -0.1829129  -0.1880226 SPIN=   0.00000
   O   0.0549881  -0.5892324   0.0605455 SPIN=   0.00000
   P   0.0612559  -0.4579068  -0.1937405 SPIN=   0.00000
   O   0.4216910   0.1767752   0.3147083 SPIN=   0.00000
   O   0.6394103  -0.3482561   0.3180590 SPIN=   0.00000
   O   0.1829129  -0.0730940   0.1880226 SPIN=   0.00000
   O   0.5892324  -0.0549881  -0.0605455 SPIN=   0.00000
   P   0.4579068  -0.0612559   0.1937405 SPIN=   0.00000
  Fe   0.4182699  -0.1233779  -0.3139991 SPIN=   4.00000
  Fe   0.1233779  -0.4182699   0.3139991 SPIN=   4.00000
%ENDBLOCK POSITIONS_FRAC

# Note: total spin =   8.00

KPOINTS_MP_SPACING 0.07

%BLOCK SPECIES_POT
QC5
%ENDBLOCK SPECIES_POT

%BLOCK HUBBARD_U
Fe d:4.0
%ENDBLOCK HUBBARD_U

SNAP_TO_SYMMETRY
SYMMETRY_GENERATE

