#              Generated by Buildcell
#
# at 12:57:30 (GMT+0.0) 26th November 2020
# in /lustre/scratch/uccabz1/launch_tmp
# on node-c12l-021
# by uccabz1
#
# compiler GCC version 4.9.2
# options -cpp -iprefix /lustre/shared/ucl/apps/gcc/4.9.2/bin/../lib/gcc/x86_64-unknown-linux-gnu/4.9.2/ -mtune=corei7 -march=x86-64 -g -Og
#
# seed -1728454153 -2017101100 -1892779122   439935708 -1147065047  -501725270 -2113594346 -2101241165  -808636829   317846167   236340447 -2023286263
#
#      Author: C. J. Pickard (cjp20@cam.ac.uk)
#                Space group: C2
#

%BLOCK LATTICE_ABC
      6.05535      7.31044      8.66130
     71.34403     69.53939     65.53375
%ENDBLOCK LATTICE_ABC

%BLOCK POSITIONS_FRAC
  Li  -0.2087918   0.2793765  -0.4075122 SPIN=   0.00000
  Li  -0.3369275  -0.2793765   0.4075122 SPIN=   0.00000
  Li  -0.3210410   0.1094935   0.1453405 SPIN=   0.00000
  Li  -0.0662070  -0.1094935  -0.1453405 SPIN=   0.00000
   O   0.4674696   0.3701220   0.3986373 SPIN=   0.00000
   O   0.1501567   0.2046679   0.6235134 SPIN=   0.00000
   O   0.0710770   0.3745708   0.3420650 SPIN=   0.00000
   O   0.4262606   0.0422714   0.3762094 SPIN=   0.00000
   P   0.2905307   0.2519886   0.4324695 SPIN=   0.00000
   O   0.2362288  -0.3701220  -0.3986373 SPIN=   0.00000
   O  -0.0216620  -0.2046679  -0.6235134 SPIN=   0.00000
   O  -0.2122873  -0.3745708  -0.3420650 SPIN=   0.00000
   O  -0.1552585  -0.0422714  -0.3762094 SPIN=   0.00000
   P  -0.0250113  -0.2519886  -0.4324695 SPIN=   0.00000
   O  -0.2225912  -0.5490178   0.1192302 SPIN=   0.00000
   O  -0.4307426  -0.1898559  -0.0516503 SPIN=   0.00000
   O  -0.5734364  -0.2520593   0.2587578 SPIN=   0.00000
   O  -0.1469382  -0.2249720   0.1160984 SPIN=   0.00000
   P  -0.3346744  -0.3160911   0.1111328 SPIN=   0.00000
   O   0.3476213   0.5490178  -0.1192302 SPIN=   0.00000
   O   0.3277511   0.1898559   0.0516503 SPIN=   0.00000
   O   0.4332621   0.2520593  -0.2587578 SPIN=   0.00000
   O   0.7441882   0.2249720  -0.1160984 SPIN=   0.00000
   P   0.4603673   0.3160911  -0.1111328 SPIN=   0.00000
  Fe   0.2348495  -0.4363226   0.1357734 SPIN=   7.26911
  Fe  -0.0656997   0.4363226  -0.1357734 SPIN=   7.26911
  Fe   0.4673640  -0.0330043  -0.2885540 SPIN=   0.73089
  Fe   0.1458057   0.0330043   0.2885540 SPIN=   0.73089
%ENDBLOCK POSITIONS_FRAC

# Note: total spin =  16.00

KPOINTS_MP_SPACING 0.07

%BLOCK SPECIES_POT
QC5
%ENDBLOCK SPECIES_POT

%BLOCK HUBBARD_U
Fe d:4.0
%ENDBLOCK HUBBARD_U

SNAP_TO_SYMMETRY
SYMMETRY_GENERATE

