#              Generated by Buildcell
#
# at 16:21:50 (GMT+0.0) 26th November 2020
# in /lustre/scratch/uccabz1/launch_tmp
# on node-c12d-028
# by uccabz1
#
# compiler GCC version 4.9.2
# options -cpp -iprefix /lustre/shared/ucl/apps/gcc/4.9.2/bin/../lib/gcc/x86_64-unknown-linux-gnu/4.9.2/ -mtune=corei7 -march=x86-64 -g -Og
#
# seed   390719714  2019656837  -167348277  1396128422  1268661390 -1398600795 -1370491013   474709243  -613876836  1967010692  1084364836  -849744218
#
#      Author: C. J. Pickard (cjp20@cam.ac.uk)
#                Space group: C2
#

%BLOCK LATTICE_ABC
      6.55206      7.46705      7.46705
     67.49948     74.67158     74.67158
%ENDBLOCK LATTICE_ABC

%BLOCK POSITIONS_FRAC
  Li  -0.3512496   0.3201826   0.4383353 SPIN=   0.00000
  Li   0.3512496  -0.4383353  -0.3201826 SPIN=   0.00000
  Li  -0.3276407  -0.3204388  -0.1884470 SPIN=   0.00000
  Li   0.3276407   0.1884470   0.3204388 SPIN=   0.00000
   O  -0.2325743  -0.3362993   0.4705894 SPIN=   0.00000
   O  -0.5009379  -0.0809403   0.6180146 SPIN=   0.00000
   O  -0.3624738   0.0256550   0.2591616 SPIN=   0.00000
   O  -0.6220985  -0.2084896   0.4056891 SPIN=   0.00000
   P  -0.4213073  -0.1606271   0.4396940 SPIN=   0.00000
   O   0.2325743  -0.4705894   0.3362993 SPIN=   0.00000
   O   0.5009379  -0.6180146   0.0809403 SPIN=   0.00000
   O   0.3624738  -0.2591616  -0.0256550 SPIN=   0.00000
   O   0.6220985  -0.4056891   0.2084896 SPIN=   0.00000
   P   0.4213073  -0.4396940   0.1606271 SPIN=   0.00000
   O   0.2157184   0.3477757  -0.0720612 SPIN=   0.00000
   O  -0.0542206   0.2569175   0.2594351 SPIN=   0.00000
   O  -0.1333402   0.2214432  -0.0296620 SPIN=   0.00000
   O   0.1703687  -0.0119407   0.1314632 SPIN=   0.00000
   P   0.0598997   0.2086853   0.0653059 SPIN=   0.00000
   O  -0.2157184   0.0720612  -0.3477757 SPIN=   0.00000
   O   0.0542206  -0.2594351  -0.2569175 SPIN=   0.00000
   O   0.1333402   0.0296620  -0.2214432 SPIN=   0.00000
   O  -0.1703687  -0.1314632   0.0119407 SPIN=   0.00000
   P  -0.0598997  -0.0653059  -0.2086853 SPIN=   0.00000
  Fe   0.0001578  -0.1100539   0.4199112 SPIN=   2.43648
  Fe  -0.0001578  -0.4199112   0.1100539 SPIN=   2.43648
  Fe  -0.5000000   0.0852125  -0.0852125 SPIN=   4.62181
  Fe   0.0000000   0.3297864  -0.3297864 SPIN=   6.50522
%ENDBLOCK POSITIONS_FRAC

# Note: total spin =  16.00

KPOINTS_MP_SPACING 0.07

%BLOCK SPECIES_POT
QC5
%ENDBLOCK SPECIES_POT

%BLOCK HUBBARD_U
Fe d:4.0
%ENDBLOCK HUBBARD_U

SNAP_TO_SYMMETRY
SYMMETRY_GENERATE

