#              Generated by Buildcell
#
# at 12:32:24 (GMT+0.0) 24th November 2020
# in /scratch/scratch/uccabz1/launch_tmp
# on node-a14b-010
# by uccabz1
#
# compiler GCC version 4.9.2
# options -cpp -iprefix /scratch/UCL/applications/gcc/4.9.2/bin/../lib/gcc/x86_64-unknown-linux-gnu/4.9.2/ -mtune=corei7 -march=x86-64 -g -O2
#
# seed -1506651914   758425119   993387330  -189578674  1001022757  1860362937   -71620880   -14894436  -271772106  -867972627  2083866330 -1701064881
#
#      Author: C. J. Pickard (cjp20@cam.ac.uk)
#                Space group: C2221
#

%BLOCK LATTICE_ABC
      4.29077      5.71542      6.86802
     90.00000    108.20231     90.00000
%ENDBLOCK LATTICE_ABC

%BLOCK POSITIONS_FRAC
  Li  -0.0404381  -0.0000000  -0.0808762 SPIN=   0.00000
  Li   0.0404381   0.5000000   0.0808762 SPIN=   0.00000
   O  -0.4733695  -0.2011716  -0.1937675 SPIN=   0.00000
   O  -0.0581261  -0.2327455  -0.3985218 SPIN=   0.00000
   O   0.4733695   0.2988284   0.1937675 SPIN=   0.00000
   O   0.0581261   0.2672545   0.3985218 SPIN=   0.00000
   O  -0.2796019  -0.2988284   0.1937675 SPIN=   0.00000
   O   0.3403957  -0.2672545   0.3985218 SPIN=   0.00000
   O   0.2796019   0.2011716  -0.1937675 SPIN=   0.00000
   O  -0.3403957   0.2327455  -0.3985218 SPIN=   0.00000
   P   0.3351978   0.0000000  -0.3296044 SPIN=   0.00000
   P  -0.3351978   0.5000000   0.3296044 SPIN=   0.00000
  Fe  -0.3148617  -0.0000000   0.3702765 SPIN=   4.00000
  Fe   0.3148617   0.5000000  -0.3702765 SPIN=   4.00000
%ENDBLOCK POSITIONS_FRAC

# Note: total spin =   8.00

KPOINTS_MP_SPACING 0.07

%BLOCK SPECIES_POT
QC5
%ENDBLOCK SPECIES_POT

%BLOCK HUBBARD_U
Fe d:4.0
%ENDBLOCK HUBBARD_U

SNAP_TO_SYMMETRY
SYMMETRY_GENERATE

