#              Generated by Buildcell
#
# at 20:34:23 (GMT+0.0) 26th November 2020
# in /lustre/scratch/uccabz1/launch_tmp
# on node-c12k-024
# by uccabz1
#
# compiler GCC version 4.9.2
# options -cpp -iprefix /lustre/shared/ucl/apps/gcc/4.9.2/bin/../lib/gcc/x86_64-unknown-linux-gnu/4.9.2/ -mtune=corei7 -march=x86-64 -g -Og
#
# seed   909211253 -1736780480  -354022999  1177654865  -672595298   122291420  1520223047  1234506285 -1007890912   431820186   133049075  -877159782
#
#      Author: C. J. Pickard (cjp20@cam.ac.uk)
#                Space group: P-1
#

%BLOCK LATTICE_ABC
      4.08883      7.67901     10.33504
     99.42350     91.21175     90.80923
%ENDBLOCK LATTICE_ABC

%BLOCK POSITIONS_FRAC
  Li  -0.4463425   0.0308516   0.1859025 SPIN=   0.00000
  Li   0.4463425  -0.0308516  -0.1859025 SPIN=   0.00000
  Li   0.4303077  -0.3591087   0.2109043 SPIN=   0.00000
  Li  -0.4303077   0.3591087  -0.2109043 SPIN=   0.00000
   O  -0.1406728  -0.2153363   0.1831127 SPIN=   0.00000
   O  -0.3104604  -0.0855390   0.4197541 SPIN=   0.00000
   O   0.1838849  -0.2678227   0.3917110 SPIN=   0.00000
   O   0.1930517   0.0334511   0.3285964 SPIN=   0.00000
   P  -0.0225546  -0.1361786   0.3229043 SPIN=   0.00000
   O   0.1406728   0.2153363  -0.1831127 SPIN=   0.00000
   O   0.3104604   0.0855390  -0.4197541 SPIN=   0.00000
   O  -0.1838849   0.2678227  -0.3917110 SPIN=   0.00000
   O  -0.1930517  -0.0334511  -0.3285964 SPIN=   0.00000
   P   0.0225546   0.1361786  -0.3229043 SPIN=   0.00000
   O  -0.3584088   0.3546921   0.1366863 SPIN=   0.00000
   O   0.1706102   0.3905192   0.2830053 SPIN=   0.00000
   O  -0.3217866   0.5497873   0.3671459 SPIN=   0.00000
   O  -0.3074505   0.2208385   0.3496444 SPIN=   0.00000
   P  -0.2136843   0.3758012   0.2770436 SPIN=   0.00000
   O   0.3584088  -0.3546921  -0.1366863 SPIN=   0.00000
   O  -0.1706102  -0.3905192  -0.2830053 SPIN=   0.00000
   O   0.3217866  -0.5497873  -0.3671459 SPIN=   0.00000
   O   0.3074505  -0.2208385  -0.3496444 SPIN=   0.00000
   P   0.2136843  -0.3758012  -0.2770436 SPIN=   0.00000
  Fe   0.2638075   0.2742316   0.4556004 SPIN=   5.15323
  Fe  -0.2638075  -0.2742316  -0.4556004 SPIN=   5.15323
  Fe   0.0526173   0.2564275   0.0246865 SPIN=   2.84677
  Fe  -0.0526173  -0.2564275  -0.0246865 SPIN=   2.84677
%ENDBLOCK POSITIONS_FRAC

# Note: total spin =  16.00

KPOINTS_MP_SPACING 0.07

%BLOCK SPECIES_POT
QC5
%ENDBLOCK SPECIES_POT

%BLOCK HUBBARD_U
Fe d:4.0
%ENDBLOCK HUBBARD_U

SNAP_TO_SYMMETRY
SYMMETRY_GENERATE

