#              Generated by Buildcell
#
# at 14:47:35 (GMT+0.0) 24th November 2020
# in /lustre/scratch/uccabz1/launch_tmp
# on node-c12g-032
# by uccabz1
#
# compiler GCC version 4.9.2
# options -cpp -iprefix /lustre/shared/ucl/apps/gcc/4.9.2/bin/../lib/gcc/x86_64-unknown-linux-gnu/4.9.2/ -mtune=corei7 -march=x86-64 -g -Og
#
# seed -1636006734  -521590183  1546944631   440841894 -1634791448  -990568753   376468177  -916659362 -2020837289 -1579754325 -2093912925   841241468
#
#      Author: C. J. Pickard (cjp20@cam.ac.uk)
#                Space group: Cm
#

%BLOCK LATTICE_ABC
      4.67349      5.01907      7.55713
     84.41188     71.98833     71.64403
%ENDBLOCK LATTICE_ABC

%BLOCK POSITIONS_FRAC
  Li   0.0720854   0.2632786   0.0000000 SPIN=   0.00000
  Li  -0.2943685  -0.1266705   0.0000000 SPIN=   0.00000
   O  -0.3093158  -0.0692773   0.4411313 SPIN=   0.00000
   O  -0.7343521   0.2354655   0.2895443 SPIN=   0.00000
   O  -0.3717281   0.4550949   0.3530864 SPIN=   0.00000
   P  -0.3880802   0.1653134   0.3012430 SPIN=   0.00000
   O   0.1318156  -0.0692773  -0.4411313 SPIN=   0.00000
   O  -0.4448078   0.2354655  -0.2895443 SPIN=   0.00000
   O  -0.0186417   0.4550949  -0.3530864 SPIN=   0.00000
   P  -0.0868372   0.1653134  -0.3012430 SPIN=   0.00000
   O   0.1705471  -0.1760852  -0.0000000 SPIN=   0.00000
   O  -0.4019909   0.3848884   0.0000000 SPIN=   0.00000
  Fe   0.4199984  -0.3244310  -0.2873535 SPIN=   4.00000
  Fe   0.1326449  -0.3244310   0.2873535 SPIN=   4.00000
%ENDBLOCK POSITIONS_FRAC

# Note: total spin =   8.00

KPOINTS_MP_SPACING 0.07

%BLOCK SPECIES_POT
QC5
%ENDBLOCK SPECIES_POT

%BLOCK HUBBARD_U
Fe d:4.0
%ENDBLOCK HUBBARD_U

SNAP_TO_SYMMETRY
SYMMETRY_GENERATE

