#              Generated by Buildcell
#
# at 08:38:00 (GMT+0.0) 24th November 2020
# in /lustre/scratch/uccabz1/launch_tmp
# on node-c12k-031
# by uccabz1
#
# compiler GCC version 4.9.2
# options -cpp -iprefix /lustre/shared/ucl/apps/gcc/4.9.2/bin/../lib/gcc/x86_64-unknown-linux-gnu/4.9.2/ -mtune=corei7 -march=x86-64 -g -Og
#
# seed   -14678324   149869547 -1302110576  -433279826 -1107322054   237941235  -849131106   516541760   -37476322  1907709828   -14065857  1042661477
#
#      Author: C. J. Pickard (cjp20@cam.ac.uk)
#                Space group: P-1
#

%BLOCK LATTICE_ABC
      4.08176      4.53847      8.97804
     92.53298    102.41717     98.80498
%ENDBLOCK LATTICE_ABC

%BLOCK POSITIONS_FRAC
  Li   0.4783408  -0.0879077  -0.1913897 SPIN=   0.00000
  Li  -0.4783408   0.0879077   0.1913897 SPIN=   0.00000
   O  -0.1817002   0.1547664  -0.4507356 SPIN=   0.00000
   O   0.0019835   0.6308942  -0.2614925 SPIN=   0.00000
   O  -0.0150925   0.1370510  -0.1556158 SPIN=   0.00000
   O   0.4366354   0.3151245  -0.2959051 SPIN=   0.00000
   P   0.0520022   0.3012893  -0.2995043 SPIN=   0.00000
   O   0.1817002  -0.1547664   0.4507356 SPIN=   0.00000
   O  -0.0019835  -0.6308942   0.2614925 SPIN=   0.00000
   O   0.0150925  -0.1370510   0.1556158 SPIN=   0.00000
   O  -0.4366354  -0.3151245   0.2959051 SPIN=   0.00000
   P  -0.0520022  -0.3012893   0.2995043 SPIN=   0.00000
  Fe   0.5000000   0.5000000   0.5000000 SPIN=   2.07901
  Fe   0.0000000  -0.5000000   0.0000000 SPIN=   5.92099
%ENDBLOCK POSITIONS_FRAC

# Note: total spin =   8.00

KPOINTS_MP_SPACING 0.07

%BLOCK SPECIES_POT
QC5
%ENDBLOCK SPECIES_POT

%BLOCK HUBBARD_U
Fe d:4.0
%ENDBLOCK HUBBARD_U

SNAP_TO_SYMMETRY
SYMMETRY_GENERATE

