#              Generated by Buildcell
#
# at 11:56:25 (GMT+0.0) 24th November 2020
# in /lustre/scratch/uccabz1/launch_tmp
# on node-c12j-029
# by uccabz1
#
# compiler GCC version 4.9.2
# options -cpp -iprefix /lustre/shared/ucl/apps/gcc/4.9.2/bin/../lib/gcc/x86_64-unknown-linux-gnu/4.9.2/ -mtune=corei7 -march=x86-64 -g -Og
#
# seed -1407267508  -908454619 -1818318694 -1741146971  1653069383   460546623  -416994950 -1337023688  1924760621 -1733800044 -1558928445  2038318216
#
#      Author: C. J. Pickard (cjp20@cam.ac.uk)
#                Space group: Cm
#

%BLOCK LATTICE_ABC
      3.90253      6.68548      6.68548
     89.08723     73.52371     73.52371
%ENDBLOCK LATTICE_ABC

%BLOCK POSITIONS_FRAC
  Li   0.3555993   0.1811084  -0.2725104 SPIN=   0.00000
  Li   0.3555993  -0.2725104   0.1811084 SPIN=   0.00000
   O  -0.1603628  -0.2357617   0.5029013 SPIN=   0.00000
   O  -0.2281633  -0.1241231   0.1387348 SPIN=   0.00000
   O  -0.7744587   0.0053204   0.4490978 SPIN=   0.00000
   P  -0.3352578  -0.0603418   0.3788813 SPIN=   0.00000
   O  -0.1603628   0.5029013  -0.2357617 SPIN=   0.00000
   O  -0.2281633   0.1387348  -0.1241231 SPIN=   0.00000
   O  -0.7744587   0.4490978   0.0053204 SPIN=   0.00000
   P  -0.3352578   0.3788813  -0.0603418 SPIN=   0.00000
   O  -0.4797851   0.2829608   0.2829608 SPIN=   0.00000
   O   0.1795699   0.1012823   0.1012823 SPIN=   0.00000
  Fe  -0.0645191   0.3706330   0.3706330 SPIN=   6.88002
  Fe   0.0406550  -0.2358102  -0.2358102 SPIN=   1.11998
%ENDBLOCK POSITIONS_FRAC

# Note: total spin =   8.00

KPOINTS_MP_SPACING 0.07

%BLOCK SPECIES_POT
QC5
%ENDBLOCK SPECIES_POT

%BLOCK HUBBARD_U
Fe d:4.0
%ENDBLOCK HUBBARD_U

SNAP_TO_SYMMETRY
SYMMETRY_GENERATE

