#              Generated by Buildcell
#
# at 08:23:26 (GMT+0.0) 24th November 2020
# in /lustre/scratch/uccabz1/launch_tmp
# on node-c12d-031
# by uccabz1
#
# compiler GCC version 4.9.2
# options -cpp -iprefix /lustre/shared/ucl/apps/gcc/4.9.2/bin/../lib/gcc/x86_64-unknown-linux-gnu/4.9.2/ -mtune=corei7 -march=x86-64 -g -Og
#
# seed  1722066738  1409288740   -44035273 -1822903068  1145645268  1413151266  2116125415  1459304356   185147221  1667433937   469586061 -1088904852
#
#      Author: C. J. Pickard (cjp20@cam.ac.uk)
#                Space group: C2
#

%BLOCK LATTICE_ABC
      4.80644      5.91875      6.54902
    108.20493     90.00000    113.95600
%ENDBLOCK LATTICE_ABC

%BLOCK POSITIONS_FRAC
  Li   0.4181820   0.2222424   0.2905866 SPIN=   0.00000
  Li   0.1959396  -0.2222424  -0.2905866 SPIN=   0.00000
   O  -0.1411261  -0.7505617   0.2051005 SPIN=   0.00000
   O  -0.0553861  -0.2719732   0.4220858 SPIN=   0.00000
   O   0.3900826  -0.3810373   0.4117720 SPIN=   0.00000
   O   0.1668483  -0.3610485   0.0758137 SPIN=   0.00000
   P   0.0786984  -0.4566842   0.2723804 SPIN=   0.00000
   O  -0.3905644   0.7505617  -0.2051005 SPIN=   0.00000
   O  -0.7834129   0.2719732  -0.4220858 SPIN=   0.00000
   O  -0.2288801   0.3810373  -0.4117720 SPIN=   0.00000
   O  -0.4721031   0.3610485  -0.0758137 SPIN=   0.00000
   P  -0.4646174   0.4566842  -0.2723804 SPIN=   0.00000
  Fe  -0.0804210   0.2250624  -0.1794529 SPIN=   4.00000
  Fe  -0.3054834  -0.2250624   0.1794529 SPIN=   4.00000
%ENDBLOCK POSITIONS_FRAC

# Note: total spin =   8.00

KPOINTS_MP_SPACING 0.07

%BLOCK SPECIES_POT
QC5
%ENDBLOCK SPECIES_POT

%BLOCK HUBBARD_U
Fe d:4.0
%ENDBLOCK HUBBARD_U

SNAP_TO_SYMMETRY
SYMMETRY_GENERATE

