#              Generated by Buildcell
#
# at 11:32:23 (GMT+0.0) 24th November 2020
# in /lustre/scratch/uccabz1/launch_tmp
# on node-c12m-033
# by uccabz1
#
# compiler GCC version 4.9.2
# options -cpp -iprefix /lustre/shared/ucl/apps/gcc/4.9.2/bin/../lib/gcc/x86_64-unknown-linux-gnu/4.9.2/ -mtune=corei7 -march=x86-64 -g -Og
#
# seed  1481313195  1696473930  -247127901   511684014   683721476 -2035833535  1575812048   777893501   842848016  1599132883  -591685700  1763188554
#
#      Author: C. J. Pickard (cjp20@cam.ac.uk)
#                Space group: C2/c
#

%BLOCK LATTICE_ABC
      4.76901      4.76901      7.42117
     96.01555     96.01555    105.72490
%ENDBLOCK LATTICE_ABC

%BLOCK POSITIONS_FRAC
  Li   0.5000000   0.0000000  -0.0000000 SPIN=   0.00000
  Li  -0.5000000   0.0000000  -0.5000000 SPIN=   0.00000
   O   0.0799065  -0.0630489   0.3520129 SPIN=   0.00000
   O   0.2709197  -0.4372931   0.5235381 SPIN=   0.00000
   O  -0.4369511   0.4200935   0.1479871 SPIN=   0.00000
   O  -0.0627069   0.2290803  -0.0235381 SPIN=   0.00000
   O  -0.0799065   0.0630489  -0.3520129 SPIN=   0.00000
   O  -0.2709197   0.4372931  -0.5235381 SPIN=   0.00000
   O   0.4369511  -0.4200935  -0.1479871 SPIN=   0.00000
   O   0.0627069  -0.2290803   0.0235381 SPIN=   0.00000
   P   0.2374401   0.2625599  -0.2500000 SPIN=   0.00000
   P  -0.2374401  -0.2625599   0.2500000 SPIN=   0.00000
  Fe  -0.1398101  -0.3601899  -0.2500000 SPIN=   4.00000
  Fe   0.1398101   0.3601899   0.2500000 SPIN=   4.00000
%ENDBLOCK POSITIONS_FRAC

# Note: total spin =   8.00

KPOINTS_MP_SPACING 0.07

%BLOCK SPECIES_POT
QC5
%ENDBLOCK SPECIES_POT

%BLOCK HUBBARD_U
Fe d:4.0
%ENDBLOCK HUBBARD_U

SNAP_TO_SYMMETRY
SYMMETRY_GENERATE

