#              Generated by Buildcell
#
# at 22:40:43 (GMT+0.0) 26th November 2020
# in /scratch/scratch/uccabz1/launch_tmp
# on node-k10b-007
# by uccabz1
#
# compiler GCC version 4.9.2
# options -cpp -iprefix /scratch/UCL/applications/gcc/4.9.2/bin/../lib/gcc/x86_64-unknown-linux-gnu/4.9.2/ -mtune=corei7 -march=x86-64 -g -O2
#
# seed   160455829  2091449434  2077850932  -715321477   641895669   529933122 -1865629157  1969719756  1739269909   797311353  1427811459 -2128804451
#
#      Author: C. J. Pickard (cjp20@cam.ac.uk)
#                Space group: P-1
#

%BLOCK LATTICE_ABC
      4.31980      7.80534     10.07848
     70.48136     87.65550     89.88056
%ENDBLOCK LATTICE_ABC

%BLOCK POSITIONS_FRAC
  Li   0.4825775   0.1868427   0.1577247 SPIN=   0.00000
  Li  -0.4825775  -0.1868427  -0.1577247 SPIN=   0.00000
  Li   0.4867349  -0.3159982   0.1585868 SPIN=   0.00000
  Li  -0.4867349   0.3159982  -0.1585868 SPIN=   0.00000
   O  -0.1116352  -0.3591906  -0.4782886 SPIN=   0.00000
   O  -0.0791189  -0.6734756  -0.2811311 SPIN=   0.00000
   O   0.3501719  -0.4529941  -0.3127245 SPIN=   0.00000
   O  -0.1656997  -0.3951426  -0.2141285 SPIN=   0.00000
   P  -0.0093678  -0.4634043  -0.3286449 SPIN=   0.00000
   O   0.1116352   0.3591906   0.4782886 SPIN=   0.00000
   O   0.0791189   0.6734756   0.2811311 SPIN=   0.00000
   O  -0.3501719   0.4529941   0.3127245 SPIN=   0.00000
   O   0.1656997   0.3951426   0.2141285 SPIN=   0.00000
   P   0.0093678   0.4634043   0.3286449 SPIN=   0.00000
   O  -0.0032163   0.1469413   0.1349361 SPIN=   0.00000
   O  -0.0877411   0.1196260   0.3979707 SPIN=   0.00000
   O  -0.3148039  -0.1176261   0.3183320 SPIN=   0.00000
   P  -0.0310378   0.0178843   0.2883629 SPIN=   0.00000
   O   0.0032163  -0.1469413  -0.1349361 SPIN=   0.00000
   O   0.0877411  -0.1196260  -0.3979707 SPIN=   0.00000
   O   0.3148039   0.1176261  -0.3183320 SPIN=   0.00000
   P   0.0310378  -0.0178843  -0.2883629 SPIN=   0.00000
   O  -0.5000000   0.5000000   0.0000000 SPIN=   0.00000
   O  -0.5000000   0.0000000  -0.0000000 SPIN=   0.00000
  Fe  -0.5000000  -0.0000000  -0.5000000 SPIN=   2.94526
  Fe   0.0000000  -0.0000000   0.0000000 SPIN=   2.58198
  Fe  -0.0000000   0.5000000  -0.0000000 SPIN=   1.64080
  Fe   0.5000000   0.5000000   0.5000000 SPIN=   8.83197
%ENDBLOCK POSITIONS_FRAC

# Note: total spin =  16.00

KPOINTS_MP_SPACING 0.07

%BLOCK SPECIES_POT
QC5
%ENDBLOCK SPECIES_POT

%BLOCK HUBBARD_U
Fe d:4.0
%ENDBLOCK HUBBARD_U

SNAP_TO_SYMMETRY
SYMMETRY_GENERATE

