#              Generated by Buildcell
#
# at 10:32:21 (GMT+0.0) 24th November 2020
# in /lustre/scratch/uccabz1/launch_tmp
# on node-c12g-020
# by uccabz1
#
# compiler GCC version 4.9.2
# options -cpp -iprefix /lustre/shared/ucl/apps/gcc/4.9.2/bin/../lib/gcc/x86_64-unknown-linux-gnu/4.9.2/ -mtune=corei7 -march=x86-64 -g -Og
#
# seed  -676733416  1992871516 -1454136520  -347188613  1632618286  1330029399  1493750018 -1824277248 -1897477279   865981193   808941848  -337834543
#
#      Author: C. J. Pickard (cjp20@cam.ac.uk)
#                Space group: C2/c
#

%BLOCK LATTICE_ABC
      5.63117      5.63117      5.67343
     92.82019     92.82019    116.70957
%ENDBLOCK LATTICE_ABC

%BLOCK POSITIONS_FRAC
  Li  -0.0739950   0.0739950   0.2500000 SPIN=   0.00000
  Li   0.0739950  -0.0739950  -0.2500000 SPIN=   0.00000
   O  -0.0809243  -0.3300828   0.0225061 SPIN=   0.00000
   O  -0.4711787  -0.2046212  -0.0215255 SPIN=   0.00000
   O   0.3300828   0.0809243   0.4774939 SPIN=   0.00000
   O   0.2046212   0.4711787   0.5215255 SPIN=   0.00000
   O   0.0809243   0.3300828  -0.0225061 SPIN=   0.00000
   O   0.4711787   0.2046212   0.0215255 SPIN=   0.00000
   O  -0.3300828  -0.0809243  -0.4774939 SPIN=   0.00000
   O  -0.2046212  -0.4711787  -0.5215255 SPIN=   0.00000
   P  -0.3753082   0.3753082   0.2500000 SPIN=   0.00000
   P   0.3753082  -0.3753082  -0.2500000 SPIN=   0.00000
  Fe  -0.2709775   0.2709775  -0.2500000 SPIN=   4.00000
  Fe   0.2709775  -0.2709775   0.2500000 SPIN=   4.00000
%ENDBLOCK POSITIONS_FRAC

# Note: total spin =   8.00

KPOINTS_MP_SPACING 0.07

%BLOCK SPECIES_POT
QC5
%ENDBLOCK SPECIES_POT

%BLOCK HUBBARD_U
Fe d:4.0
%ENDBLOCK HUBBARD_U

SNAP_TO_SYMMETRY
SYMMETRY_GENERATE

