#              Generated by Buildcell
#
# at 07:36:00 (GMT+0.0) 26th November 2020
# in /scratch/scratch/uccabz1/launch_tmp
# on node-k10e-027
# by uccabz1
#
# compiler GCC version 4.9.2
# options -cpp -iprefix /scratch/UCL/applications/gcc/4.9.2/bin/../lib/gcc/x86_64-unknown-linux-gnu/4.9.2/ -mtune=corei7 -march=x86-64 -g -O2
#
# seed  1270435820   663636282 -1949862507 -1955476254  1485482137 -2076665393  1031363753   293257938  -830367833   109467981  2015450732   687940856
#
#      Author: C. J. Pickard (cjp20@cam.ac.uk)
#                Space group: P21
#

%BLOCK LATTICE_ABC
      5.55603      7.20608      7.99681
     90.00000     91.86667     90.00000
%ENDBLOCK LATTICE_ABC

%BLOCK POSITIONS_FRAC
  Li   0.1330210   0.4458882  -0.2589609 SPIN=   0.00000
  Li  -0.1330210  -0.0541118   0.2589609 SPIN=   0.00000
  Li   0.2769981   0.1657825   0.1041679 SPIN=   0.00000
  Li  -0.2769981  -0.3342175  -0.1041679 SPIN=   0.00000
   O  -0.4834070   0.4076032  -0.0521264 SPIN=   0.00000
   O  -0.4474722   0.5351649   0.2515343 SPIN=   0.00000
   O  -0.3664418   0.2024339   0.2050281 SPIN=   0.00000
   O  -0.0736697   0.4400116   0.1072021 SPIN=   0.00000
   P  -0.3470617   0.3974209   0.1180791 SPIN=   0.00000
   O   0.4834070  -0.0923968   0.0521264 SPIN=   0.00000
   O   0.4474722   0.0351649  -0.2515343 SPIN=   0.00000
   O   0.3664418  -0.2975661  -0.2050281 SPIN=   0.00000
   O   0.0736697  -0.0599884  -0.1072021 SPIN=   0.00000
   P   0.3470617  -0.1025791  -0.1180791 SPIN=   0.00000
   O   0.3052039  -0.4604777   0.5259762 SPIN=   0.00000
   O  -0.0355467  -0.3259563   0.3315337 SPIN=   0.00000
   O   0.0555678  -0.1689017   0.6007450 SPIN=   0.00000
   O   0.3498203  -0.1486350   0.3707815 SPIN=   0.00000
   P   0.1781629  -0.2843126   0.4598974 SPIN=   0.00000
   O  -0.3052039   0.0395223  -0.5259762 SPIN=   0.00000
   O   0.0355467   0.1740437  -0.3315337 SPIN=   0.00000
   O  -0.0555678   0.3310983  -0.6007450 SPIN=   0.00000
   O  -0.3498203   0.3513650  -0.3707815 SPIN=   0.00000
   P  -0.1781629   0.2156874  -0.4598974 SPIN=   0.00000
  Fe  -0.3099292  -0.4033683   0.4916145 SPIN=   3.68184
  Fe   0.3099292   0.0966317  -0.4916145 SPIN=   3.68184
  Fe   0.2263101  -0.3801709   0.1179180 SPIN=   4.31816
  Fe  -0.2263101   0.1198291  -0.1179180 SPIN=   4.31816
%ENDBLOCK POSITIONS_FRAC

# Note: total spin =  16.00

KPOINTS_MP_SPACING 0.07

%BLOCK SPECIES_POT
QC5
%ENDBLOCK SPECIES_POT

%BLOCK HUBBARD_U
Fe d:4.0
%ENDBLOCK HUBBARD_U

SNAP_TO_SYMMETRY
SYMMETRY_GENERATE

