#              Generated by Buildcell
#
# at 12:53:16 (GMT+0.0) 24th November 2020
# in /lustre/scratch/uccabz1/launch_tmp
# on node-c12c-026
# by uccabz1
#
# compiler GCC version 4.9.2
# options -cpp -iprefix /lustre/shared/ucl/apps/gcc/4.9.2/bin/../lib/gcc/x86_64-unknown-linux-gnu/4.9.2/ -mtune=corei7 -march=x86-64 -g -Og
#
# seed  -522773968  2069789517   -19842938   970432764  1166119818   230239842  1098672683  -118354056   597364037  2134362202 -2083772089 -1894925374
#
#      Author: C. J. Pickard (cjp20@cam.ac.uk)
#                Space group: Pc
#

%BLOCK LATTICE_ABC
      4.27286      5.93208      6.51860
     90.00000    104.44949     90.00000
%ENDBLOCK LATTICE_ABC

%BLOCK POSITIONS_FRAC
  Li  -0.4095294  -0.1784455   0.3822861 SPIN=   0.00000
  Li  -0.4095294   0.1784455  -0.1177139 SPIN=   0.00000
   O   0.3345728   0.0334212  -0.4064832 SPIN=   0.00000
   O   0.4078301  -0.3207751  -0.1647293 SPIN=   0.00000
   O  -0.1412401  -0.1639489  -0.2962294 SPIN=   0.00000
   O   0.1244950  -0.3590705  -0.5487704 SPIN=   0.00000
   P   0.1888977  -0.1918733  -0.3591426 SPIN=   0.00000
   O   0.3345728  -0.0334212   0.0935168 SPIN=   0.00000
   O   0.4078301   0.3207751   0.3352707 SPIN=   0.00000
   O  -0.1412401   0.1639489   0.2037706 SPIN=   0.00000
   O   0.1244950   0.3590705  -0.0487704 SPIN=   0.00000
   P   0.1888977   0.1918733   0.1408574 SPIN=   0.00000
  Fe  -0.0537494   0.3164914  -0.4965845 SPIN=   4.00000
  Fe  -0.0537494  -0.3164914   0.0034155 SPIN=   4.00000
%ENDBLOCK POSITIONS_FRAC

# Note: total spin =   8.00

KPOINTS_MP_SPACING 0.07

%BLOCK SPECIES_POT
QC5
%ENDBLOCK SPECIES_POT

%BLOCK HUBBARD_U
Fe d:4.0
%ENDBLOCK HUBBARD_U

SNAP_TO_SYMMETRY
SYMMETRY_GENERATE

