#              Generated by Buildcell
#
# at 06:22:39 (GMT+0.0) 24th November 2020
# in /lustre/scratch/uccabz1/launch_tmp
# on node-c12e-020
# by uccabz1
#
# compiler GCC version 4.9.2
# options -cpp -iprefix /lustre/shared/ucl/apps/gcc/4.9.2/bin/../lib/gcc/x86_64-unknown-linux-gnu/4.9.2/ -mtune=corei7 -march=x86-64 -g -Og
#
# seed   -61239405   778853641  1160066793  -901924766 -1862414757 -1948299333  -506043562  -819117695  -140867197   959054376 -1961328620  1188361289
#
#      Author: C. J. Pickard (cjp20@cam.ac.uk)
#                Space group: P-1
#

%BLOCK LATTICE_ABC
      4.18765      4.41497      8.90856
    101.83578     96.21511     91.87432
%ENDBLOCK LATTICE_ABC

%BLOCK POSITIONS_FRAC
  Li  -0.2509199   0.2701790   0.0301894 SPIN=   0.00000
  Li   0.2509199  -0.2701790  -0.0301894 SPIN=   0.00000
   O   0.2783946   0.6341823   0.4432334 SPIN=   0.00000
   O  -0.2411960   0.3725059   0.2741549 SPIN=   0.00000
   O   0.2321998   0.4696429   0.1441373 SPIN=   0.00000
   O   0.2418520   0.0596960   0.3013687 SPIN=   0.00000
   P   0.1371761   0.3935001   0.2989696 SPIN=   0.00000
   O  -0.2783946  -0.6341823  -0.4432334 SPIN=   0.00000
   O   0.2411960  -0.3725059  -0.2741549 SPIN=   0.00000
   O  -0.2321998  -0.4696429  -0.1441373 SPIN=   0.00000
   O  -0.2418520  -0.0596960  -0.3013687 SPIN=   0.00000
   P  -0.1371761  -0.3935001  -0.2989696 SPIN=   0.00000
  Fe  -0.2978897  -0.1156587   0.3094992 SPIN=   4.00000
  Fe   0.2978897   0.1156587  -0.3094992 SPIN=   4.00000
%ENDBLOCK POSITIONS_FRAC

# Note: total spin =   8.00

KPOINTS_MP_SPACING 0.07

%BLOCK SPECIES_POT
QC5
%ENDBLOCK SPECIES_POT

%BLOCK HUBBARD_U
Fe d:4.0
%ENDBLOCK HUBBARD_U

SNAP_TO_SYMMETRY
SYMMETRY_GENERATE

