#              Generated by Buildcell
#
# at 09:36:16 (GMT+0.0) 24th November 2020
# in /scratch/scratch/uccabz1/launch_tmp
# on node-a14c-007
# by uccabz1
#
# compiler GCC version 4.9.2
# options -cpp -iprefix /scratch/UCL/applications/gcc/4.9.2/bin/../lib/gcc/x86_64-unknown-linux-gnu/4.9.2/ -mtune=corei7 -march=x86-64 -g -O2
#
# seed  -907815590 -1669221632   -21777077 -1643909973  1574532206  -106519969  -239381629 -1936831547   245938469   641559150   843106056  1560346753
#
#      Author: C. J. Pickard (cjp20@cam.ac.uk)
#                Space group: Cm
#

%BLOCK LATTICE_ABC
      5.61455      5.89312      6.23539
    116.11780    114.59965     94.11879
%ENDBLOCK LATTICE_ABC

%BLOCK POSITIONS_FRAC
  Li  -0.6989202   0.2781271   0.0000000 SPIN=   0.00000
  Li   0.0686168  -0.1994147   0.0000000 SPIN=   0.00000
   O  -0.3443986  -0.6002864  -0.6214895 SPIN=   0.00000
   O  -0.0972452  -0.0907149  -0.2980952 SPIN=   0.00000
   O  -0.5678466  -0.2494178  -0.6913682 SPIN=   0.00000
   O  -0.4980861  -0.2954812  -0.2905226 SPIN=   0.00000
   P  -0.3765941  -0.3243267  -0.4809676 SPIN=   0.00000
   O   0.2770909   0.0212031   0.6214895 SPIN=   0.00000
   O   0.2008500   0.2073804   0.2980952 SPIN=   0.00000
   O   0.1235216   0.4419503   0.6913682 SPIN=   0.00000
   O  -0.2075635  -0.0049586   0.2905226 SPIN=   0.00000
   P   0.1043736   0.1566410   0.4809676 SPIN=   0.00000
  Fe   0.0710771  -0.3938467  -0.5816370 SPIN=   4.00000
  Fe   0.6527142   0.1877903   0.5816370 SPIN=   4.00000
%ENDBLOCK POSITIONS_FRAC

# Note: total spin =   8.00

KPOINTS_MP_SPACING 0.07

%BLOCK SPECIES_POT
QC5
%ENDBLOCK SPECIES_POT

%BLOCK HUBBARD_U
Fe d:4.0
%ENDBLOCK HUBBARD_U

SNAP_TO_SYMMETRY
SYMMETRY_GENERATE

