#              Generated by Buildcell
#
# at 13:06:16 (GMT+0.0) 24th November 2020
# in /scratch/scratch/uccabz1/launch_tmp
# on node-k10a-022
# by uccabz1
#
# compiler GCC version 4.9.2
# options -cpp -iprefix /scratch/UCL/applications/gcc/4.9.2/bin/../lib/gcc/x86_64-unknown-linux-gnu/4.9.2/ -mtune=corei7 -march=x86-64 -g -O2
#
# seed  1618054459  1456391252   770636149  -757533959  2043397046  -937653487    23604413 -1511948682 -2123517522   420092258  -404611596   116514034
#
#      Author: C. J. Pickard (cjp20@cam.ac.uk)
#                Space group: P21
#

%BLOCK LATTICE_ABC
      4.60184      5.47434      6.81908
    111.34766     90.00000     90.00000
%ENDBLOCK LATTICE_ABC

%BLOCK POSITIONS_FRAC
  Li  -0.1216279  -0.1636367   0.0662753 SPIN=   0.00000
  Li   0.3783721   0.1636367  -0.0662753 SPIN=   0.00000
   O  -0.1945546   0.3123012  -0.0048545 SPIN=   0.00000
   O  -0.2725549   0.1884870   0.3247755 SPIN=   0.00000
   O   0.2240079   0.2981946   0.2464884 SPIN=   0.00000
   O  -0.1508635   0.6528789   0.3735200 SPIN=   0.00000
   P  -0.1042243   0.3636891   0.2238471 SPIN=   0.00000
   O   0.3054454  -0.3123012   0.0048545 SPIN=   0.00000
   O   0.2274451  -0.1884870  -0.3247755 SPIN=   0.00000
   O   0.7240079  -0.2981946  -0.2464884 SPIN=   0.00000
   O   0.3491365  -0.6528789  -0.3735200 SPIN=   0.00000
   P   0.3957757  -0.3636891  -0.2238471 SPIN=   0.00000
  Fe  -0.1042264   0.3060831  -0.3684533 SPIN=   4.00000
  Fe   0.3957736  -0.3060831   0.3684533 SPIN=   4.00000
%ENDBLOCK POSITIONS_FRAC

# Note: total spin =   8.00

KPOINTS_MP_SPACING 0.07

%BLOCK SPECIES_POT
QC5
%ENDBLOCK SPECIES_POT

%BLOCK HUBBARD_U
Fe d:4.0
%ENDBLOCK HUBBARD_U

SNAP_TO_SYMMETRY
SYMMETRY_GENERATE

