#              Generated by Buildcell
#
# at 08:35:45 (GMT+0.0) 24th November 2020
# in /lustre/scratch/uccabz1/launch_tmp
# on node-c12h-027
# by uccabz1
#
# compiler GCC version 4.9.2
# options -cpp -iprefix /lustre/shared/ucl/apps/gcc/4.9.2/bin/../lib/gcc/x86_64-unknown-linux-gnu/4.9.2/ -mtune=corei7 -march=x86-64 -g -Og
#
# seed   407595005   -30244900  -967283011 -1029065492   764133695  -121605144  -389408853  1500017926  -739089672   889567677  -358651034   123673294
#
#      Author: C. J. Pickard (cjp20@cam.ac.uk)
#                Space group: Pc
#

%BLOCK LATTICE_ABC
      3.91110      5.07305      8.13785
     97.72344     90.00000     90.00000
%ENDBLOCK LATTICE_ABC

%BLOCK POSITIONS_FRAC
  Li  -0.2417696   0.3713777   0.2434824 SPIN=   0.00000
  Li   0.2417696  -0.1286223  -0.2565176 SPIN=   0.00000
   O   0.6288039   0.5601498  -0.0203647 SPIN=   0.00000
   O   0.2139871   0.2534562   0.1160712 SPIN=   0.00000
   O   0.1232285   0.3078388  -0.1778553 SPIN=   0.00000
   O   0.6289851   0.0495690  -0.0986514 SPIN=   0.00000
   P   0.4137173   0.3041212  -0.0445085 SPIN=   0.00000
   O  -0.6288039   0.0601498   0.4796353 SPIN=   0.00000
   O  -0.2139871  -0.2465438   0.6160712 SPIN=   0.00000
   O  -0.1232285  -0.1921612   0.3221447 SPIN=   0.00000
   O  -0.6289851  -0.4504310   0.4013486 SPIN=   0.00000
   P  -0.4137173  -0.1958788   0.4554915 SPIN=   0.00000
  Fe   0.2579488  -0.1498473   0.1459366 SPIN=   4.00000
  Fe  -0.2579488   0.3501527  -0.3540634 SPIN=   4.00000
%ENDBLOCK POSITIONS_FRAC

# Note: total spin =   8.00

KPOINTS_MP_SPACING 0.07

%BLOCK SPECIES_POT
QC5
%ENDBLOCK SPECIES_POT

%BLOCK HUBBARD_U
Fe d:4.0
%ENDBLOCK HUBBARD_U

SNAP_TO_SYMMETRY
SYMMETRY_GENERATE

