#              Generated by Buildcell
#
# at 11:27:15 (GMT+0.0) 24th November 2020
# in /lustre/scratch/uccabz1/launch_tmp
# on node-c12a-028
# by uccabz1
#
# compiler GCC version 4.9.2
# options -cpp -iprefix /lustre/shared/ucl/apps/gcc/4.9.2/bin/../lib/gcc/x86_64-unknown-linux-gnu/4.9.2/ -mtune=corei7 -march=x86-64 -g -Og
#
# seed  -632446909  -937930778  1972250441  2109537900  -564208435  1911722937  -919254991  1441628554  -859487888  1979008179  1419970882  -619750614
#
#      Author: C. J. Pickard (cjp20@cam.ac.uk)
#                Space group: C2
#

%BLOCK LATTICE_ABC
      5.26681      5.26681      6.06592
     89.82606     89.82606     71.96916
%ENDBLOCK LATTICE_ABC

%BLOCK POSITIONS_FRAC
  Li  -0.4779696   0.4779696   0.0000000 SPIN=   0.00000
  Li   0.4801969  -0.4801969  -0.5000000 SPIN=   0.00000
   O   0.2966435  -0.2409611   0.2297050 SPIN=   0.00000
   O   0.4419989   0.1379380   0.4115873 SPIN=   0.00000
   O   0.4570751   0.1020643   0.0055455 SPIN=   0.00000
   P   0.2988937   0.0496620   0.2121130 SPIN=   0.00000
   O   0.2409611  -0.2966435  -0.2297050 SPIN=   0.00000
   O  -0.1379380  -0.4419989  -0.4115873 SPIN=   0.00000
   O  -0.1020643  -0.4570751  -0.0055455 SPIN=   0.00000
   P  -0.0496620  -0.2988937  -0.2121130 SPIN=   0.00000
   O  -0.0868702   0.0868702   0.5000000 SPIN=   0.00000
   O  -0.0635036   0.0635036   0.0000000 SPIN=   0.00000
  Fe  -0.1263818  -0.1807595   0.2557724 SPIN=   4.00000
  Fe   0.1807595   0.1263818  -0.2557724 SPIN=   4.00000
%ENDBLOCK POSITIONS_FRAC

# Note: total spin =   8.00

KPOINTS_MP_SPACING 0.07

%BLOCK SPECIES_POT
QC5
%ENDBLOCK SPECIES_POT

%BLOCK HUBBARD_U
Fe d:4.0
%ENDBLOCK HUBBARD_U

SNAP_TO_SYMMETRY
SYMMETRY_GENERATE

