#              Generated by Buildcell
#
# at 21:58:49 (GMT+0.0) 26th November 2020
# in /lustre/scratch/uccabz1/launch_tmp
# on node-c12l-022
# by uccabz1
#
# compiler GCC version 4.9.2
# options -cpp -iprefix /lustre/shared/ucl/apps/gcc/4.9.2/bin/../lib/gcc/x86_64-unknown-linux-gnu/4.9.2/ -mtune=corei7 -march=x86-64 -g -Og
#
# seed  1731530477    44496823   766593962    -5527966 -1290595590   992264872  1174960437 -1589888328   189828030   813670455   505090033 -1143581474
#
#      Author: C. J. Pickard (cjp20@cam.ac.uk)
#                Space group: Pm
#

%BLOCK LATTICE_ABC
      3.88221      8.77759      9.39215
     90.00000     90.00000     91.02409
%ENDBLOCK LATTICE_ABC

%BLOCK POSITIONS_FRAC
  Li  -0.2995414  -0.0304813   0.5000000 SPIN=   0.00000
  Li  -0.3113901  -0.3214486   0.0000000 SPIN=   0.00000
  Li   0.1177516   0.3667368   0.0000000 SPIN=   0.00000
  Li  -0.2793603  -0.4206393  -0.5000000 SPIN=   0.00000
   O  -0.2613175  -0.0331040  -0.1992941 SPIN=   0.00000
   O   0.2626604   0.0258726  -0.3636088 SPIN=   0.00000
   O  -0.2181536   0.2063787  -0.3613181 SPIN=   0.00000
   O   0.1678620   0.1885161  -0.1485587 SPIN=   0.00000
   P  -0.0233740   0.0910739  -0.2631145 SPIN=   0.00000
   O  -0.2613175  -0.0331040   0.1992941 SPIN=   0.00000
   O   0.2626604   0.0258726   0.3636088 SPIN=   0.00000
   O  -0.2181536   0.2063787   0.3613181 SPIN=   0.00000
   O   0.1678620   0.1885161   0.1485587 SPIN=   0.00000
   P  -0.0233740   0.0910739   0.2631145 SPIN=   0.00000
   O  -0.3940528  -0.3678465   0.2880474 SPIN=   0.00000
   O  -0.3796190  -0.6114451   0.1311827 SPIN=   0.00000
   O   0.1286186  -0.4381087   0.1298537 SPIN=   0.00000
   P  -0.1723481  -0.4967640   0.2289041 SPIN=   0.00000
   O  -0.3940528  -0.3678465  -0.2880474 SPIN=   0.00000
   O  -0.3796190  -0.6114451  -0.1311827 SPIN=   0.00000
   O   0.1286186  -0.4381087  -0.1298537 SPIN=   0.00000
   P  -0.1723481  -0.4967640  -0.2289041 SPIN=   0.00000
   O   0.3162220  -0.1484036   0.0000000 SPIN=   0.00000
   O   0.0567728  -0.2247777   0.5000000 SPIN=   0.00000
  Fe   0.1950834  -0.2173325   0.2755806 SPIN=   4.05898
  Fe   0.1950834  -0.2173325  -0.2755806 SPIN=   4.05898
  Fe   0.2095739   0.2746253  -0.5000000 SPIN=   7.88204
  Fe  -0.3928601   0.0631164   0.0000000 SPIN=  -0.00000
%ENDBLOCK POSITIONS_FRAC

# Note: total spin =  16.00

KPOINTS_MP_SPACING 0.07

%BLOCK SPECIES_POT
QC5
%ENDBLOCK SPECIES_POT

%BLOCK HUBBARD_U
Fe d:4.0
%ENDBLOCK HUBBARD_U

SNAP_TO_SYMMETRY
SYMMETRY_GENERATE

