#              Generated by Buildcell
#
# at 07:49:29 (GMT+0.0) 26th November 2020
# in /lustre/scratch/uccabz1/launch_tmp
# on node-c12k-029
# by uccabz1
#
# compiler GCC version 4.9.2
# options -cpp -iprefix /lustre/shared/ucl/apps/gcc/4.9.2/bin/../lib/gcc/x86_64-unknown-linux-gnu/4.9.2/ -mtune=corei7 -march=x86-64 -g -Og
#
# seed  1707712678  1210140212 -1305714228 -1114119617   361028381  1948166684  -605097003 -1273131342   950264626   882213733  1403080436 -1633231152
#
#      Author: C. J. Pickard (cjp20@cam.ac.uk)
#                Space group: Pca21
#

%BLOCK LATTICE_ABC
      5.61582      6.29015      9.05891
     90.00000     90.00000     90.00000
%ENDBLOCK LATTICE_ABC

%BLOCK POSITIONS_FRAC
  Li  -0.4102119  -0.1911825   0.1858232 SPIN=   0.00000
  Li   0.0897881   0.1911825  -0.1858232 SPIN=   0.00000
  Li  -0.4102119   0.1911825  -0.3141768 SPIN=   0.00000
  Li   0.0897881  -0.1911825   0.3141768 SPIN=   0.00000
   O   0.0364736  -0.0854733  -0.4672667 SPIN=   0.00000
   O   0.4206198  -0.2994525  -0.5261384 SPIN=   0.00000
   O   0.4028082  -0.0980609  -0.2923318 SPIN=   0.00000
   O   0.1521874  -0.4243776  -0.3231344 SPIN=   0.00000
   P   0.2403021  -0.2216451  -0.4047481 SPIN=   0.00000
   O  -0.4635264   0.0854733   0.4672667 SPIN=   0.00000
   O  -0.0793802   0.2994525   0.5261384 SPIN=   0.00000
   O  -0.0971918   0.0980609   0.2923318 SPIN=   0.00000
   O  -0.3478126   0.4243776   0.3231344 SPIN=   0.00000
   P  -0.2596979   0.2216451   0.4047481 SPIN=   0.00000
   O   0.0364736   0.0854733   0.0327333 SPIN=   0.00000
   O   0.4206198   0.2994525  -0.0261384 SPIN=   0.00000
   O   0.4028082   0.0980609   0.2076682 SPIN=   0.00000
   O   0.1521874   0.4243776   0.1768656 SPIN=   0.00000
   P   0.2403021   0.2216451   0.0952519 SPIN=   0.00000
   O  -0.4635264  -0.0854733  -0.0327333 SPIN=   0.00000
   O  -0.0793802  -0.2994525   0.0261384 SPIN=   0.00000
   O  -0.0971918  -0.0980609  -0.2076682 SPIN=   0.00000
   O  -0.3478126  -0.4243776  -0.1768656 SPIN=   0.00000
   P  -0.2596979  -0.2216451  -0.0952519 SPIN=   0.00000
  Fe   0.2400359  -0.3171165  -0.0949554 SPIN=   4.00000
  Fe  -0.2599641   0.3171165   0.0949554 SPIN=   4.00000
  Fe   0.2400359   0.3171165   0.4050446 SPIN=   4.00000
  Fe  -0.2599641  -0.3171165  -0.4050446 SPIN=   4.00000
%ENDBLOCK POSITIONS_FRAC

# Note: total spin =  16.00

KPOINTS_MP_SPACING 0.07

%BLOCK SPECIES_POT
QC5
%ENDBLOCK SPECIES_POT

%BLOCK HUBBARD_U
Fe d:4.0
%ENDBLOCK HUBBARD_U

SNAP_TO_SYMMETRY
SYMMETRY_GENERATE

