#              Generated by Buildcell
#
# at 11:49:36 (GMT+0.0) 24th November 2020
# in /lustre/scratch/uccabz1/launch_tmp
# on node-c12c-027
# by uccabz1
#
# compiler GCC version 4.9.2
# options -cpp -iprefix /lustre/shared/ucl/apps/gcc/4.9.2/bin/../lib/gcc/x86_64-unknown-linux-gnu/4.9.2/ -mtune=corei7 -march=x86-64 -g -Og
#
# seed -1912485535  -814600021 -1527390237  2135965864  -514799486  -881669330  1113563402 -1580866236 -1283693327  2063842193  1579725928   -26401071
#
#      Author: C. J. Pickard (cjp20@cam.ac.uk)
#                Space group: P-1
#

%BLOCK LATTICE_ABC
      4.77553      6.19762      6.27095
    114.34927    100.34112     99.85511
%ENDBLOCK LATTICE_ABC

%BLOCK POSITIONS_FRAC
  Li   0.2550012   0.2249751   0.1729647 SPIN=   0.00000
  Li  -0.2550012  -0.2249751  -0.1729647 SPIN=   0.00000
   O  -0.1766362   0.2659937   0.1048168 SPIN=   0.00000
   O  -0.3416947   0.4102036  -0.2205252 SPIN=   0.00000
   O  -0.2844537  -0.0109949  -0.3603435 SPIN=   0.00000
   O  -0.7054370   0.0908796  -0.1872260 SPIN=   0.00000
   P  -0.3702593   0.1919608  -0.1516620 SPIN=   0.00000
   O   0.1766362  -0.2659937  -0.1048168 SPIN=   0.00000
   O   0.3416947  -0.4102036   0.2205252 SPIN=   0.00000
   O   0.2844537   0.0109949   0.3603435 SPIN=   0.00000
   O   0.7054370  -0.0908796   0.1872260 SPIN=   0.00000
   P   0.3702593  -0.1919608   0.1516620 SPIN=   0.00000
  Fe   0.1334119   0.3548271  -0.2909011 SPIN=   4.00000
  Fe  -0.1334119  -0.3548271   0.2909011 SPIN=   4.00000
%ENDBLOCK POSITIONS_FRAC

# Note: total spin =   8.00

KPOINTS_MP_SPACING 0.07

%BLOCK SPECIES_POT
QC5
%ENDBLOCK SPECIES_POT

%BLOCK HUBBARD_U
Fe d:4.0
%ENDBLOCK HUBBARD_U

SNAP_TO_SYMMETRY
SYMMETRY_GENERATE

