#              Generated by Buildcell
#
# at 10:08:01 (GMT+0.0) 24th November 2020
# in /lustre/scratch/uccabz1/launch_tmp
# on node-c12g-032
# by uccabz1
#
# compiler GCC version 4.9.2
# options -cpp -iprefix /lustre/shared/ucl/apps/gcc/4.9.2/bin/../lib/gcc/x86_64-unknown-linux-gnu/4.9.2/ -mtune=corei7 -march=x86-64 -g -Og
#
# seed  -492964104 -1456001270 -1614843902  -926449701  1681693064  -475871472   210245712  1543632304   805884550  1189969583 -1598719485 -1017049280
#
#      Author: C. J. Pickard (cjp20@cam.ac.uk)
#                Space group: C222
#

%BLOCK LATTICE_ABC
      5.35527      5.47484      5.47484
     94.60404     90.00000     90.00000
%ENDBLOCK LATTICE_ABC

%BLOCK POSITIONS_FRAC
  Li   0.0000000  -0.5000000   0.5000000 SPIN=   0.00000
  Li   0.0000000   0.0000000  -0.0000000 SPIN=   0.00000
   O   0.2686751  -0.2233896  -0.1954387 SPIN=   0.00000
   O   0.2297650  -0.6974806  -0.2542894 SPIN=   0.00000
   O   0.2686751   0.2233896   0.1954387 SPIN=   0.00000
   O   0.2297650   0.6974806   0.2542894 SPIN=   0.00000
   O  -0.2686751  -0.1954387  -0.2233896 SPIN=   0.00000
   O  -0.2297650  -0.2542894  -0.6974806 SPIN=   0.00000
   O  -0.2686751   0.1954387   0.2233896 SPIN=   0.00000
   O  -0.2297650   0.2542894   0.6974806 SPIN=   0.00000
   P  -0.5000000  -0.5000000  -0.5000000 SPIN=   0.00000
   P   0.5000000  -0.0000000   0.0000000 SPIN=   0.00000
  Fe  -0.3453630  -0.5000000   0.0000000 SPIN=   4.00000
  Fe   0.3453630   0.0000000  -0.5000000 SPIN=   4.00000
%ENDBLOCK POSITIONS_FRAC

# Note: total spin =   8.00

KPOINTS_MP_SPACING 0.07

%BLOCK SPECIES_POT
QC5
%ENDBLOCK SPECIES_POT

%BLOCK HUBBARD_U
Fe d:4.0
%ENDBLOCK HUBBARD_U

SNAP_TO_SYMMETRY
SYMMETRY_GENERATE

