#              Generated by Buildcell
#
# at 13:38:10 (GMT+0.0) 24th November 2020
# in /lustre/scratch/uccabz1/launch_tmp
# on node-c12i-033
# by uccabz1
#
# compiler GCC version 4.9.2
# options -cpp -iprefix /lustre/shared/ucl/apps/gcc/4.9.2/bin/../lib/gcc/x86_64-unknown-linux-gnu/4.9.2/ -mtune=corei7 -march=x86-64 -g -Og
#
# seed  -795172830 -1238527980  1866613263  -649717421 -1892128485  1334262790  -839443556   260154496  1970199908  1010206724   413026389  -518055577
#
#      Author: C. J. Pickard (cjp20@cam.ac.uk)
#                Space group: C2
#

%BLOCK LATTICE_ABC
      5.49580      5.49580      5.96255
     94.72656     94.72656    115.92686
%ENDBLOCK LATTICE_ABC

%BLOCK POSITIONS_FRAC
  Li  -0.3645494  -0.2305469  -0.3072343 SPIN=   0.00000
  Li   0.2305469   0.3645494   0.3072343 SPIN=   0.00000
   O   0.0938866   0.3074751  -0.0421434 SPIN=   0.00000
   O  -0.2340309   0.5234589  -0.1302224 SPIN=   0.00000
   O   0.2078251   0.7084988  -0.2817425 SPIN=   0.00000
   P  -0.0177210   0.4361204  -0.2175012 SPIN=   0.00000
   O  -0.3074751  -0.0938866   0.0421434 SPIN=   0.00000
   O  -0.5234589   0.2340309   0.1302224 SPIN=   0.00000
   O  -0.7084988  -0.2078251   0.2817425 SPIN=   0.00000
   P  -0.4361204   0.0177210   0.2175012 SPIN=   0.00000
   O   0.0020656  -0.0020656  -0.5000000 SPIN=   0.00000
   O   0.7365533   0.2634467  -0.5000000 SPIN=   0.00000
  Fe  -0.1294274  -0.3033850   0.2164699 SPIN=   4.00000
  Fe   0.3033850   0.1294274  -0.2164699 SPIN=   4.00000
%ENDBLOCK POSITIONS_FRAC

# Note: total spin =   8.00

KPOINTS_MP_SPACING 0.07

%BLOCK SPECIES_POT
QC5
%ENDBLOCK SPECIES_POT

%BLOCK HUBBARD_U
Fe d:4.0
%ENDBLOCK HUBBARD_U

SNAP_TO_SYMMETRY
SYMMETRY_GENERATE

