#              Generated by Buildcell
#
# at 22:00:47 (GMT+0.0) 26th November 2020
# in /scratch/scratch/uccabz1/launch_tmp
# on node-k10i-007
# by uccabz1
#
# compiler GCC version 4.9.2
# options -cpp -iprefix /scratch/UCL/applications/gcc/4.9.2/bin/../lib/gcc/x86_64-unknown-linux-gnu/4.9.2/ -mtune=corei7 -march=x86-64 -g -O2
#
# seed -1495332290  -403497335 -1112857130 -1550426904   150443813  -323673877   257527126  -363198853  1599587249 -1083541628  1138704064 -2069772834
#
#      Author: C. J. Pickard (cjp20@cam.ac.uk)
#                Space group: Cc
#

%BLOCK LATTICE_ABC
      5.55471      8.22243      8.22243
    115.42314    100.19957    100.19957
%ENDBLOCK LATTICE_ABC

%BLOCK POSITIONS_FRAC
  Li   0.0248603   0.4713318   0.3857802 SPIN=   0.00000
  Li  -0.4751397   0.3857802   0.4713318 SPIN=   0.00000
  Li  -0.2091851   0.3187269  -0.0315599 SPIN=   0.00000
  Li   0.2908149  -0.0315599   0.3187269 SPIN=   0.00000
   O   0.1336132   0.4873667  -0.1199015 SPIN=   0.00000
   O   0.1812057   0.3411780  -0.4580829 SPIN=   0.00000
   O   0.4038099   0.6767642  -0.2425016 SPIN=   0.00000
   O   0.5571580   0.4314206  -0.1866330 SPIN=   0.00000
   P   0.3118897   0.4837292  -0.2439891 SPIN=   0.00000
   O  -0.3663868  -0.1199015   0.4873667 SPIN=   0.00000
   O  -0.3187943  -0.4580829   0.3411780 SPIN=   0.00000
   O  -0.0961901  -0.2425016   0.6767642 SPIN=   0.00000
   O   0.0571580  -0.1866330   0.4314206 SPIN=   0.00000
   P  -0.1881103  -0.2439891   0.4837292 SPIN=   0.00000
   O  -0.3268804   0.1535364   0.3285065 SPIN=   0.00000
   O  -0.1008176  -0.1031408   0.1848249 SPIN=   0.00000
   O  -0.5719782  -0.1957154   0.0939489 SPIN=   0.00000
   O  -0.3385487   0.0029243  -0.0216519 SPIN=   0.00000
   P  -0.3341946  -0.0250737   0.1541197 SPIN=   0.00000
   O   0.1731196   0.3285065   0.1535364 SPIN=   0.00000
   O   0.3991824   0.1848249  -0.1031408 SPIN=   0.00000
   O  -0.0719782   0.0939489  -0.1957154 SPIN=   0.00000
   O   0.1614513  -0.0216519   0.0029243 SPIN=   0.00000
   P   0.1658054   0.1541197  -0.0250737 SPIN=   0.00000
  Fe  -0.1000972   0.1441917  -0.4445742 SPIN=   4.63838
  Fe   0.3999028  -0.4445742   0.1441917 SPIN=   4.63838
  Fe  -0.1257733  -0.2973293  -0.0995536 SPIN=   3.36162
  Fe   0.3742267  -0.0995536  -0.2973293 SPIN=   3.36162
%ENDBLOCK POSITIONS_FRAC

# Note: total spin =  16.00

KPOINTS_MP_SPACING 0.07

%BLOCK SPECIES_POT
QC5
%ENDBLOCK SPECIES_POT

%BLOCK HUBBARD_U
Fe d:4.0
%ENDBLOCK HUBBARD_U

SNAP_TO_SYMMETRY
SYMMETRY_GENERATE

