#              Generated by Buildcell
#
# at 10:33:34 (GMT+0.0) 24th November 2020
# in /lustre/scratch/uccabz1/launch_tmp
# on node-c12e-031
# by uccabz1
#
# compiler GCC version 4.9.2
# options -cpp -iprefix /lustre/shared/ucl/apps/gcc/4.9.2/bin/../lib/gcc/x86_64-unknown-linux-gnu/4.9.2/ -mtune=corei7 -march=x86-64 -g -Og
#
# seed  -181582509  -454678221  -188136999  -659241200  -347800749  1475231547  -573123501 -1930293572   437213792 -1266964897  1965810809  -315651854
#
#      Author: C. J. Pickard (cjp20@cam.ac.uk)
#                Space group: P21
#

%BLOCK LATTICE_ABC
      4.89304      5.79816      5.89462
     90.00000    106.91380     90.00000
%ENDBLOCK LATTICE_ABC

%BLOCK POSITIONS_FRAC
  Li   0.0724844  -0.3882785   0.0693498 SPIN=   0.00000
  Li  -0.0724844   0.1117215  -0.0693498 SPIN=   0.00000
   O   0.4773844   0.1227824  -0.1924559 SPIN=   0.00000
   O   0.5398338   0.5660596  -0.2184429 SPIN=   0.00000
   O   0.2544732   0.3599666  -0.5756708 SPIN=   0.00000
   O   0.0602652   0.4070766  -0.2294222 SPIN=   0.00000
   P   0.3374591   0.3516379  -0.2971788 SPIN=   0.00000
   O  -0.4773844  -0.3772176   0.1924559 SPIN=   0.00000
   O  -0.5398338   0.0660596   0.2184429 SPIN=   0.00000
   O  -0.2544732  -0.1400334   0.5756708 SPIN=   0.00000
   O  -0.0602652  -0.0929234   0.2294222 SPIN=   0.00000
   P  -0.3374591  -0.1483621   0.2971788 SPIN=   0.00000
  Fe   0.2769343  -0.1625690  -0.3917817 SPIN=   4.00000
  Fe  -0.2769343   0.3374310   0.3917817 SPIN=   4.00000
%ENDBLOCK POSITIONS_FRAC

# Note: total spin =   8.00

KPOINTS_MP_SPACING 0.07

%BLOCK SPECIES_POT
QC5
%ENDBLOCK SPECIES_POT

%BLOCK HUBBARD_U
Fe d:4.0
%ENDBLOCK HUBBARD_U

SNAP_TO_SYMMETRY
SYMMETRY_GENERATE

