#              Generated by Buildcell
#
# at 14:01:25 (GMT+0.0) 26th November 2020
# in /lustre/scratch/uccabz1/launch_tmp
# on node-c12j-020
# by uccabz1
#
# compiler GCC version 4.9.2
# options -cpp -iprefix /lustre/shared/ucl/apps/gcc/4.9.2/bin/../lib/gcc/x86_64-unknown-linux-gnu/4.9.2/ -mtune=corei7 -march=x86-64 -g -Og
#
# seed -1205211462 -1242903959 -1869178774   637137260  1763401287  2097222523 -1195625114   117302290  1895674453  -314282756  1998612379  1001120986
#
#      Author: C. J. Pickard (cjp20@cam.ac.uk)
#                Space group: Cmc21
#

%BLOCK LATTICE_ABC
      6.56213      6.56213      7.44865
     90.00000     90.00000     93.91942
%ENDBLOCK LATTICE_ABC

%BLOCK POSITIONS_FRAC
  Li  -0.0447720   0.4325986   0.2185235 SPIN=   0.00000
  Li   0.0447720  -0.4325986  -0.2814765 SPIN=   0.00000
  Li   0.4325986  -0.0447720  -0.2814765 SPIN=   0.00000
  Li  -0.4325986   0.0447720   0.2185235 SPIN=   0.00000
   O  -0.4733668  -0.2510871   0.5230904 SPIN=   0.00000
   O  -0.1863252  -0.4961133   0.4626557 SPIN=   0.00000
   O  -0.2193690  -0.2056398   0.2562395 SPIN=   0.00000
   P  -0.2531875  -0.2705119   0.4579162 SPIN=   0.00000
   O   0.4733668   0.2510871   0.0230904 SPIN=   0.00000
   O   0.1863252   0.4961133  -0.0373443 SPIN=   0.00000
   O   0.2193690   0.2056398  -0.2437605 SPIN=   0.00000
   P   0.2531875   0.2705119  -0.0420838 SPIN=   0.00000
   O  -0.2510871  -0.4733668   0.0230904 SPIN=   0.00000
   O  -0.4961133  -0.1863252  -0.0373443 SPIN=   0.00000
   O  -0.2056398  -0.2193690  -0.2437605 SPIN=   0.00000
   P  -0.2705119  -0.2531875  -0.0420838 SPIN=   0.00000
   O   0.2510871   0.4733668   0.5230904 SPIN=   0.00000
   O   0.4961133   0.1863252   0.4626557 SPIN=   0.00000
   O   0.2056398   0.2193690   0.2562395 SPIN=   0.00000
   P   0.2705119   0.2531875   0.4579162 SPIN=   0.00000
   O  -0.1563838   0.1563838   0.0746929 SPIN=   0.00000
   O   0.1563838  -0.1563838  -0.4253071 SPIN=   0.00000
   O   0.1391819  -0.1391819  -0.0937473 SPIN=   0.00000
   O  -0.1391819   0.1391819   0.4062527 SPIN=   0.00000
  Fe  -0.4540259   0.4540259  -0.2892402 SPIN=   4.06538
  Fe   0.4540259  -0.4540259   0.2107598 SPIN=   4.06538
  Fe  -0.0517833   0.0517833  -0.3351952 SPIN=   3.93462
  Fe   0.0517833  -0.0517833   0.1648048 SPIN=   3.93462
%ENDBLOCK POSITIONS_FRAC

# Note: total spin =  16.00

KPOINTS_MP_SPACING 0.07

%BLOCK SPECIES_POT
QC5
%ENDBLOCK SPECIES_POT

%BLOCK HUBBARD_U
Fe d:4.0
%ENDBLOCK HUBBARD_U

SNAP_TO_SYMMETRY
SYMMETRY_GENERATE

