#              Generated by Buildcell
#
# at 01:36:49 (GMT+0.0) 27th November 2020
# in /lustre/scratch/uccabz1/launch_tmp
# on node-c12e-023
# by uccabz1
#
# compiler GCC version 4.9.2
# options -cpp -iprefix /lustre/shared/ucl/apps/gcc/4.9.2/bin/../lib/gcc/x86_64-unknown-linux-gnu/4.9.2/ -mtune=corei7 -march=x86-64 -g -Og
#
# seed  1849888129   308746651   618881462  -120679505  -422478159  1432003305 -2100746431   458691916   772275157  1714361486  -236584322   411660863
#
#      Author: C. J. Pickard (cjp20@cam.ac.uk)
#                Space group: Pna21
#

%BLOCK LATTICE_ABC
      4.90108      6.36056     10.26508
     90.00000     90.00000     90.00000
%ENDBLOCK LATTICE_ABC

%BLOCK POSITIONS_FRAC
  Li  -0.3150940   0.1118138   0.3810603 SPIN=   0.00000
  Li   0.3150940  -0.1118138  -0.1189397 SPIN=   0.00000
  Li   0.1849060   0.3881862   0.3810603 SPIN=   0.00000
  Li  -0.1849060  -0.3881862  -0.1189397 SPIN=   0.00000
   O   0.5238722  -0.1587931  -0.5324170 SPIN=   0.00000
   O   0.4329762   0.1695701  -0.3882734 SPIN=   0.00000
   O   0.0637909   0.0440988  -0.5324362 SPIN=   0.00000
   O   0.1934971  -0.1680427  -0.3364594 SPIN=   0.00000
   P   0.3139675  -0.0368895  -0.4506143 SPIN=   0.00000
   O  -0.5238722   0.1587931  -0.0324170 SPIN=   0.00000
   O  -0.4329762  -0.1695701   0.1117266 SPIN=   0.00000
   O  -0.0637909  -0.0440988  -0.0324362 SPIN=   0.00000
   O  -0.1934971   0.1680427   0.1635406 SPIN=   0.00000
   P  -0.3139675   0.0368895   0.0493857 SPIN=   0.00000
   O   0.0238722  -0.3412069  -0.5324170 SPIN=   0.00000
   O  -0.0670238  -0.6695701  -0.3882734 SPIN=   0.00000
   O  -0.4362091  -0.5440988  -0.5324362 SPIN=   0.00000
   O  -0.3065029  -0.3319573  -0.3364594 SPIN=   0.00000
   P  -0.1860325  -0.4631105  -0.4506143 SPIN=   0.00000
   O  -0.0238722   0.3412069  -0.0324170 SPIN=   0.00000
   O   0.0670238   0.6695701   0.1117266 SPIN=   0.00000
   O   0.4362091   0.5440988  -0.0324362 SPIN=   0.00000
   O   0.3065029   0.3319573   0.1635406 SPIN=   0.00000
   P   0.1860325   0.4631105   0.0493857 SPIN=   0.00000
  Fe   0.1849059  -0.0153066   0.1860927 SPIN=   4.00000
  Fe  -0.1849059   0.0153066  -0.3139073 SPIN=   4.00000
  Fe  -0.3150941  -0.4846934   0.1860927 SPIN=   4.00000
  Fe   0.3150941   0.4846934  -0.3139073 SPIN=   4.00000
%ENDBLOCK POSITIONS_FRAC

# Note: total spin =  16.00

KPOINTS_MP_SPACING 0.07

%BLOCK SPECIES_POT
QC5
%ENDBLOCK SPECIES_POT

%BLOCK HUBBARD_U
Fe d:4.0
%ENDBLOCK HUBBARD_U

SNAP_TO_SYMMETRY
SYMMETRY_GENERATE

