#              Generated by Buildcell
#
# at 11:35:37 (GMT+0.0) 24th November 2020
# in /lustre/scratch/uccabz1/launch_tmp
# on node-c12h-023
# by uccabz1
#
# compiler GCC version 4.9.2
# options -cpp -iprefix /lustre/shared/ucl/apps/gcc/4.9.2/bin/../lib/gcc/x86_64-unknown-linux-gnu/4.9.2/ -mtune=corei7 -march=x86-64 -g -Og
#
# seed  -180173358   418183409   654844125  1394014489 -2028468109  1773326765   896181821   587597288  1908449578   670468007  1800823879  -203032661
#
#      Author: C. J. Pickard (cjp20@cam.ac.uk)
#                Space group: P21
#

%BLOCK LATTICE_ABC
      4.38650      4.75120      7.91805
     90.00000     90.00000    104.17011
%ENDBLOCK LATTICE_ABC

%BLOCK POSITIONS_FRAC
  Li  -0.1667121  -0.3851723  -0.2276055 SPIN=   0.00000
  Li   0.1667121   0.3851723   0.2723945 SPIN=   0.00000
   O   0.0218341   0.1639378  -0.0036665 SPIN=   0.00000
   O   0.5254365   0.1550720  -0.1741731 SPIN=   0.00000
   O   0.0942412   0.3060380  -0.3206173 SPIN=   0.00000
   O   0.4131683   0.6334838  -0.1033359 SPIN=   0.00000
   P   0.2525578   0.3103719  -0.1420768 SPIN=   0.00000
   O  -0.0218341  -0.1639378   0.4963335 SPIN=   0.00000
   O  -0.5254365  -0.1550720   0.3258269 SPIN=   0.00000
   O  -0.0942412  -0.3060380   0.1793827 SPIN=   0.00000
   O  -0.4131683  -0.6334838   0.3966641 SPIN=   0.00000
   P  -0.2525578  -0.3103719   0.3579232 SPIN=   0.00000
  Fe  -0.4424238  -0.0264074   0.0706862 SPIN=   4.00000
  Fe   0.4424238   0.0264074  -0.4293138 SPIN=   4.00000
%ENDBLOCK POSITIONS_FRAC

# Note: total spin =   8.00

KPOINTS_MP_SPACING 0.07

%BLOCK SPECIES_POT
QC5
%ENDBLOCK SPECIES_POT

%BLOCK HUBBARD_U
Fe d:4.0
%ENDBLOCK HUBBARD_U

SNAP_TO_SYMMETRY
SYMMETRY_GENERATE

