#              Generated by Buildcell
#
# at 09:48:27 (GMT+0.0) 24th November 2020
# in /scratch/scratch/uccabz1/launch_tmp
# on node-k10c-017
# by uccabz1
#
# compiler GCC version 4.9.2
# options -cpp -iprefix /scratch/UCL/applications/gcc/4.9.2/bin/../lib/gcc/x86_64-unknown-linux-gnu/4.9.2/ -mtune=corei7 -march=x86-64 -g -O2
#
# seed -1707279151  1737648338 -1426185080   946417525 -1821887477  1115875339  -792405647 -1098499417  1286403984    50174628  1579913381   132937109
#
#      Author: C. J. Pickard (cjp20@cam.ac.uk)
#                Space group: Cm
#

%BLOCK LATTICE_ABC
      4.24138      6.21386      6.21386
    102.28557     90.54252     90.54252
%ENDBLOCK LATTICE_ABC

%BLOCK POSITIONS_FRAC
  Li   0.2377045   0.4705601  -0.0304783 SPIN=   0.00000
  Li   0.2377045  -0.0304783   0.4705601 SPIN=   0.00000
   O  -0.0630708  -0.1050626   0.1923955 SPIN=   0.00000
   O  -0.5876999  -0.3045892   0.2476768 SPIN=   0.00000
   O  -0.3170137  -0.4148226  -0.1083943 SPIN=   0.00000
   O  -0.0811564  -0.5112030   0.2294019 SPIN=   0.00000
   O  -0.0630708   0.1923955  -0.1050626 SPIN=   0.00000
   O  -0.5876999   0.2476768  -0.3045892 SPIN=   0.00000
   O  -0.3170137  -0.1083943  -0.4148226 SPIN=   0.00000
   O  -0.0811564   0.2294019  -0.5112030 SPIN=   0.00000
   P  -0.0243373  -0.2730865  -0.2730865 SPIN=   0.00000
   P  -0.0220591   0.2259060   0.2259060 SPIN=   0.00000
  Fe   0.4873761   0.4719463   0.4719463 SPIN=   2.37605
  Fe   0.4858598  -0.0273500  -0.0273500 SPIN=   5.62395
%ENDBLOCK POSITIONS_FRAC

# Note: total spin =   8.00

KPOINTS_MP_SPACING 0.07

%BLOCK SPECIES_POT
QC5
%ENDBLOCK SPECIES_POT

%BLOCK HUBBARD_U
Fe d:4.0
%ENDBLOCK HUBBARD_U

SNAP_TO_SYMMETRY
SYMMETRY_GENERATE

