#              Generated by Buildcell
#
# at 21:15:38 (GMT+0.0) 26th November 2020
# in /lustre/scratch/uccabz1/launch_tmp
# on node-c12b-023
# by uccabz1
#
# compiler GCC version 4.9.2
# options -cpp -iprefix /lustre/shared/ucl/apps/gcc/4.9.2/bin/../lib/gcc/x86_64-unknown-linux-gnu/4.9.2/ -mtune=corei7 -march=x86-64 -g -Og
#
# seed   -12191644  1452775437   349563939  2075308102 -1359376441   821350719  1105794974  2064566116  -601474641  1006252338  -532603345   706540405
#
#      Author: C. J. Pickard (cjp20@cam.ac.uk)
#                Space group: C2
#

%BLOCK LATTICE_ABC
      5.73351      7.83651      7.83651
     79.35079     72.96834     72.96834
%ENDBLOCK LATTICE_ABC

%BLOCK POSITIONS_FRAC
  Li  -0.0585430   0.1016848  -0.3518398 SPIN=   0.00000
  Li   0.0585430   0.3518398  -0.1016848 SPIN=   0.00000
  Li   0.4348157   0.0156617  -0.2485908 SPIN=   0.00000
  Li  -0.4348157   0.2485908  -0.0156617 SPIN=   0.00000
   O  -0.3585301  -0.2325484   0.4363239 SPIN=   0.00000
   O  -0.3819899   0.0197515   0.1706027 SPIN=   0.00000
   O  -0.7066313   0.0678289   0.4570947 SPIN=   0.00000
   O  -0.2633832   0.0696523   0.4372477 SPIN=   0.00000
   P  -0.4220158  -0.0291642   0.3792963 SPIN=   0.00000
   O   0.3585301  -0.4363239   0.2325484 SPIN=   0.00000
   O   0.3819899  -0.1706027  -0.0197515 SPIN=   0.00000
   O   0.7066313  -0.4570947  -0.0678289 SPIN=   0.00000
   O   0.2633832  -0.4372477  -0.0696523 SPIN=   0.00000
   P   0.4220158  -0.3792963   0.0291642 SPIN=   0.00000
   O  -0.2208251  -0.1800492  -0.2546810 SPIN=   0.00000
   O   0.2554032  -0.1950591  -0.3192079 SPIN=   0.00000
   O   0.1352718  -0.4688991  -0.3342935 SPIN=   0.00000
   O   0.0795340  -0.2094935  -0.5719470 SPIN=   0.00000
   P   0.0474714  -0.2583027  -0.3662733 SPIN=   0.00000
   O   0.2208251   0.2546810   0.1800492 SPIN=   0.00000
   O  -0.2554032   0.3192079   0.1950591 SPIN=   0.00000
   O  -0.1352718   0.3342935   0.4688991 SPIN=   0.00000
   O  -0.0795340   0.5719470   0.2094935 SPIN=   0.00000
   P  -0.0474714   0.3662733   0.2583027 SPIN=   0.00000
  Fe  -0.1588210  -0.2305216   0.0032005 SPIN=   2.53276
  Fe   0.1588210  -0.0032005   0.2305216 SPIN=   2.53276
  Fe  -0.3462477  -0.4250973  -0.3411114 SPIN=   5.46724
  Fe   0.3462477   0.3411114   0.4250973 SPIN=   5.46724
%ENDBLOCK POSITIONS_FRAC

# Note: total spin =  16.00

KPOINTS_MP_SPACING 0.07

%BLOCK SPECIES_POT
QC5
%ENDBLOCK SPECIES_POT

%BLOCK HUBBARD_U
Fe d:4.0
%ENDBLOCK HUBBARD_U

SNAP_TO_SYMMETRY
SYMMETRY_GENERATE

