#              Generated by Buildcell
#
# at 13:16:40 (GMT+0.0) 24th November 2020
# in /lustre/scratch/uccabz1/launch_tmp
# on node-c12f-026
# by uccabz1
#
# compiler GCC version 4.9.2
# options -cpp -iprefix /lustre/shared/ucl/apps/gcc/4.9.2/bin/../lib/gcc/x86_64-unknown-linux-gnu/4.9.2/ -mtune=corei7 -march=x86-64 -g -Og
#
# seed   725159211  -461632159 -2048411885 -2096261223  1068958203  -832643166  -558164293  -302967156 -1395761990 -1007110775  1715627638  -698183378
#
#      Author: C. J. Pickard (cjp20@cam.ac.uk)
#                Space group: C2
#

%BLOCK LATTICE_ABC
      5.65003      5.65003      5.84313
     69.50693     69.50693     72.10552
%ENDBLOCK LATTICE_ABC

%BLOCK POSITIONS_FRAC
  Li   0.3334243  -0.2740989  -0.2696068 SPIN=   0.00000
  Li   0.2740989  -0.3334243   0.2696068 SPIN=   0.00000
   O  -0.3702977  -0.2821164  -0.1230307 SPIN=   0.00000
   O  -0.2295892  -0.5246032  -0.4693699 SPIN=   0.00000
   O  -0.0894924  -0.1155029  -0.5812147 SPIN=   0.00000
   O   0.1030460  -0.5099868  -0.2851461 SPIN=   0.00000
   P  -0.1555491  -0.3558021  -0.3508845 SPIN=   0.00000
   O   0.2821164   0.3702977   0.1230307 SPIN=   0.00000
   O   0.5246032   0.2295892   0.4693699 SPIN=   0.00000
   O   0.1155029   0.0894924   0.5812147 SPIN=   0.00000
   O   0.5099868  -0.1030460   0.2851461 SPIN=   0.00000
   P   0.3558021   0.1555491   0.3508845 SPIN=   0.00000
  Fe  -0.1047008   0.4050475   0.1521032 SPIN=   4.00000
  Fe  -0.4050475   0.1047008  -0.1521032 SPIN=   4.00000
%ENDBLOCK POSITIONS_FRAC

# Note: total spin =   8.00

KPOINTS_MP_SPACING 0.07

%BLOCK SPECIES_POT
QC5
%ENDBLOCK SPECIES_POT

%BLOCK HUBBARD_U
Fe d:4.0
%ENDBLOCK HUBBARD_U

SNAP_TO_SYMMETRY
SYMMETRY_GENERATE

