#              Generated by Buildcell
#
# at 07:38:12 (GMT+0.0) 24th November 2020
# in /lustre/scratch/uccabz1/launch_tmp
# on node-c12b-020
# by uccabz1
#
# compiler GCC version 4.9.2
# options -cpp -iprefix /lustre/shared/ucl/apps/gcc/4.9.2/bin/../lib/gcc/x86_64-unknown-linux-gnu/4.9.2/ -mtune=corei7 -march=x86-64 -g -Og
#
# seed  1443259643  -461889628  1663586670 -1600252659   937673849  2093531149 -1174151888   -73857876   249927166  -558922164  1725201937  1633174347
#
#      Author: C. J. Pickard (cjp20@cam.ac.uk)
#                Space group: P21212
#

%BLOCK LATTICE_ABC
      5.19858      5.33242      5.77179
     90.00000     90.00000     90.00000
%ENDBLOCK LATTICE_ABC

%BLOCK POSITIONS_FRAC
  Li   0.0000000   0.0000000  -0.0328753 SPIN=   0.00000
  Li  -0.5000000   0.5000000   0.0328753 SPIN=   0.00000
   O  -0.1765137   0.2178458  -0.2944725 SPIN=   0.00000
   O  -0.2908529  -0.2355371  -0.1657825 SPIN=   0.00000
   O   0.1765137  -0.2178458  -0.2944725 SPIN=   0.00000
   O   0.2908529   0.2355371  -0.1657825 SPIN=   0.00000
   O  -0.3234863   0.7178458   0.2944725 SPIN=   0.00000
   O  -0.2091471   0.2644629   0.1657825 SPIN=   0.00000
   O   0.3234863  -0.7178458   0.2944725 SPIN=   0.00000
   O   0.2091471  -0.2644629   0.1657825 SPIN=   0.00000
   P  -0.5000000   0.0000000   0.1084763 SPIN=   0.00000
   P   0.0000000   0.5000000  -0.1084763 SPIN=   0.00000
  Fe  -0.5000000   0.0000000  -0.3938342 SPIN=   4.00000
  Fe   0.0000000   0.5000000   0.3938342 SPIN=   4.00000
%ENDBLOCK POSITIONS_FRAC

# Note: total spin =   8.00

KPOINTS_MP_SPACING 0.07

%BLOCK SPECIES_POT
QC5
%ENDBLOCK SPECIES_POT

%BLOCK HUBBARD_U
Fe d:4.0
%ENDBLOCK HUBBARD_U

SNAP_TO_SYMMETRY
SYMMETRY_GENERATE

