#              Generated by Buildcell
#
# at 23:11:54 (GMT+0.0) 26th November 2020
# in /lustre/scratch/uccabz1/launch_tmp
# on node-c12f-023
# by uccabz1
#
# compiler GCC version 4.9.2
# options -cpp -iprefix /lustre/shared/ucl/apps/gcc/4.9.2/bin/../lib/gcc/x86_64-unknown-linux-gnu/4.9.2/ -mtune=corei7 -march=x86-64 -g -Og
#
# seed   674458318   374215148  1675066185 -2017566799 -1486028113  2064069128  1995587245  -456205025  1545616632  -537363016   333881413  -394757954
#
#      Author: C. J. Pickard (cjp20@cam.ac.uk)
#                Space group: Cc
#

%BLOCK LATTICE_ABC
      6.07180      6.56434      9.20246
     99.08873     90.00000    117.54751
%ENDBLOCK LATTICE_ABC

%BLOCK POSITIONS_FRAC
  Li   0.1074928   0.2868298  -0.2631452 SPIN=   0.00000
  Li   0.1793370   0.2868298   0.2368548 SPIN=   0.00000
  Li   0.0739539  -0.1581156   0.3869725 SPIN=   0.00000
  Li  -0.2320695  -0.1581156  -0.1130275 SPIN=   0.00000
   O  -0.0952546  -0.0464071   0.1337814 SPIN=   0.00000
   O   0.3631716   0.0255015   0.1437064 SPIN=   0.00000
   O   0.0318502  -0.3609616   0.1769372 SPIN=   0.00000
   O   0.0666715  -0.2455339  -0.0721102 SPIN=   0.00000
   P   0.0813658  -0.1520163   0.0956339 SPIN=   0.00000
   O   0.0488475  -0.0464071  -0.3662186 SPIN=   0.00000
   O  -0.3376701   0.0255015  -0.3562936 SPIN=   0.00000
   O  -0.3928119  -0.3609616  -0.3230628 SPIN=   0.00000
   O  -0.3122055  -0.2455339  -0.5721102 SPIN=   0.00000
   P  -0.2333821  -0.1520163  -0.4043661 SPIN=   0.00000
   O   0.2790779   0.7163313   0.4959378 SPIN=   0.00000
   O  -0.1138213   0.3624599   0.3516493 SPIN=   0.00000
   O   0.1754122   0.2850275   0.4942436 SPIN=   0.00000
   O  -0.0883533   0.4421685   0.6280438 SPIN=   0.00000
   P   0.0727927   0.4654879   0.4942533 SPIN=   0.00000
   O   0.4372535   0.7163313  -0.0040622 SPIN=   0.00000
   O   0.4762813   0.3624599  -0.1483507 SPIN=   0.00000
   O   0.1096152   0.2850275  -0.0057564 SPIN=   0.00000
   O   0.5305218   0.4421685   0.1280438 SPIN=   0.00000
   P   0.3926952   0.4654879  -0.0057467 SPIN=   0.00000
  Fe   0.2666678  -0.1581048  -0.2581369 SPIN=   2.45737
  Fe  -0.4247727  -0.1581048   0.2418631 SPIN=   2.45737
  Fe  -0.2075644   0.3516197   0.0178921 SPIN=   5.54263
  Fe  -0.4408159   0.3516197  -0.4821079 SPIN=   5.54263
%ENDBLOCK POSITIONS_FRAC

# Note: total spin =  16.00

KPOINTS_MP_SPACING 0.07

%BLOCK SPECIES_POT
QC5
%ENDBLOCK SPECIES_POT

%BLOCK HUBBARD_U
Fe d:4.0
%ENDBLOCK HUBBARD_U

SNAP_TO_SYMMETRY
SYMMETRY_GENERATE

