#              Generated by Buildcell
#
# at 10:14:41 (GMT+0.0) 24th November 2020
# in /lustre/scratch/uccabz1/launch_tmp
# on node-c12o-022
# by uccabz1
#
# compiler GCC version 4.9.2
# options -cpp -iprefix /lustre/shared/ucl/apps/gcc/4.9.2/bin/../lib/gcc/x86_64-unknown-linux-gnu/4.9.2/ -mtune=corei7 -march=x86-64 -g -Og
#
# seed -1535962831  -177740192 -1038343564  -774641869   761399836 -1757866005  -275499652 -1388214854 -1859855511 -1483310546  -645508271  1379128542
#
#      Author: C. J. Pickard (cjp20@cam.ac.uk)
#                Space group: P2
#

%BLOCK LATTICE_ABC
      3.86754      5.47488      7.75563
    103.02430     90.00000     90.00000
%ENDBLOCK LATTICE_ABC

%BLOCK POSITIONS_FRAC
  Li  -0.2615692  -0.3591864  -0.3117150 SPIN=   0.00000
  Li  -0.2615692   0.3591864   0.3117150 SPIN=   0.00000
   O  -0.5053757  -0.2529001   0.3008053 SPIN=   0.00000
   O  -0.2715296  -0.2274164  -0.0086901 SPIN=   0.00000
   O   0.0181494   0.0239075   0.2564195 SPIN=   0.00000
   P  -0.1838883  -0.2289791   0.1891092 SPIN=   0.00000
   O  -0.5053757   0.2529001  -0.3008053 SPIN=   0.00000
   O  -0.2715296   0.2274164   0.0086901 SPIN=   0.00000
   O   0.0181494  -0.0239075  -0.2564195 SPIN=   0.00000
   P  -0.1838883   0.2289791  -0.1891092 SPIN=   0.00000
   O   0.2286089  -0.5000000  -0.0000000 SPIN=   0.00000
   O   0.1917975  -0.5000000  -0.5000000 SPIN=   0.00000
  Fe   0.2304561   0.0000000   0.5000000 SPIN=   6.60401
  Fe   0.2916342   0.0000000  -0.0000000 SPIN=   1.39599
%ENDBLOCK POSITIONS_FRAC

# Note: total spin =   8.00

KPOINTS_MP_SPACING 0.07

%BLOCK SPECIES_POT
QC5
%ENDBLOCK SPECIES_POT

%BLOCK HUBBARD_U
Fe d:4.0
%ENDBLOCK HUBBARD_U

SNAP_TO_SYMMETRY
SYMMETRY_GENERATE

