#              Generated by Buildcell
#
# at 13:10:57 (GMT+0.0) 24th November 2020
# in /lustre/scratch/uccabz1/launch_tmp
# on node-c12d-032
# by uccabz1
#
# compiler GCC version 4.9.2
# options -cpp -iprefix /lustre/shared/ucl/apps/gcc/4.9.2/bin/../lib/gcc/x86_64-unknown-linux-gnu/4.9.2/ -mtune=corei7 -march=x86-64 -g -Og
#
# seed  2029169344 -2133840519 -1934687592   982596047  1931696561  -880790662  -689595394  -709471977 -1712838850  -523674236  2049378026 -1835342626
#
#      Author: C. J. Pickard (cjp20@cam.ac.uk)
#                Space group: Iba2
#

%BLOCK LATTICE_ABC
      5.41701      5.60723      6.55315
    115.32974    114.41318     90.00000
%ENDBLOCK LATTICE_ABC

%BLOCK POSITIONS_FRAC
  Li   0.1644933  -0.3355067   0.3289866 SPIN=   0.00000
  Li  -0.3355067   0.1644933   0.3289866 SPIN=   0.00000
   O   0.3342102   0.0201842   0.3609329 SPIN=   0.00000
   O  -0.1268278  -0.2879917  -0.0338355 SPIN=   0.00000
   O   0.0267227   0.3407488   0.3609329 SPIN=   0.00000
   O   0.0929923   0.2541562  -0.0338355 SPIN=   0.00000
   O  -0.1657898  -0.1592512   0.3609329 SPIN=   0.00000
   O  -0.6268278  -0.2458438  -0.0338355 SPIN=   0.00000
   O  -0.4732773   0.5201842   0.3609329 SPIN=   0.00000
   O  -0.4070077   0.2120083  -0.0338355 SPIN=   0.00000
   P   0.4154899  -0.0845101  -0.1690202 SPIN=   0.00000
   P  -0.0845101   0.4154899  -0.1690202 SPIN=   0.00000
  Fe   0.3417613   0.3417613  -0.3164774 SPIN=   4.00000
  Fe  -0.1582387  -0.1582387  -0.3164774 SPIN=   4.00000
%ENDBLOCK POSITIONS_FRAC

# Note: total spin =   8.00

KPOINTS_MP_SPACING 0.07

%BLOCK SPECIES_POT
QC5
%ENDBLOCK SPECIES_POT

%BLOCK HUBBARD_U
Fe d:4.0
%ENDBLOCK HUBBARD_U

SNAP_TO_SYMMETRY
SYMMETRY_GENERATE

