#              Generated by Buildcell
#
# at 09:05:21 (GMT+0.0) 24th November 2020
# in /lustre/scratch/uccabz1/launch_tmp
# on node-c12g-024
# by uccabz1
#
# compiler GCC version 4.9.2
# options -cpp -iprefix /lustre/shared/ucl/apps/gcc/4.9.2/bin/../lib/gcc/x86_64-unknown-linux-gnu/4.9.2/ -mtune=corei7 -march=x86-64 -g -Og
#
# seed  -875359378  1565256271   737197672  1572502973  -651505566 -2141126832   870722543  -222351570 -1111026414  1625863975 -1499864314   334672665
#
#      Author: C. J. Pickard (cjp20@cam.ac.uk)
#                Space group: P21/m
#

%BLOCK LATTICE_ABC
      4.74746      5.84739      6.18831
     90.00000     90.00000    111.34980
%ENDBLOCK LATTICE_ABC

%BLOCK POSITIONS_FRAC
  Li   0.0482662  -0.4360527  -0.2500000 SPIN=   0.00000
  Li  -0.0482662   0.4360527   0.2500000 SPIN=   0.00000
   O  -0.2371722  -0.1640278   0.0536121 SPIN=   0.00000
   O  -0.2140093   0.2732918  -0.0490302 SPIN=   0.00000
   O   0.2371722   0.1640278  -0.4463879 SPIN=   0.00000
   O   0.2140093  -0.2732918  -0.5490302 SPIN=   0.00000
   O   0.2371722   0.1640278  -0.0536121 SPIN=   0.00000
   O   0.2140093  -0.2732918   0.0490302 SPIN=   0.00000
   O  -0.2371722  -0.1640278   0.4463879 SPIN=   0.00000
   O  -0.2140093   0.2732918   0.5490302 SPIN=   0.00000
   P   0.4225087   0.3122716  -0.2500000 SPIN=   0.00000
   P  -0.4225087  -0.3122716   0.2500000 SPIN=   0.00000
  Fe  -0.2675754  -0.0269178  -0.2500000 SPIN=   4.00000
  Fe   0.2675754   0.0269178   0.2500000 SPIN=   4.00000
%ENDBLOCK POSITIONS_FRAC

# Note: total spin =   8.00

KPOINTS_MP_SPACING 0.07

%BLOCK SPECIES_POT
QC5
%ENDBLOCK SPECIES_POT

%BLOCK HUBBARD_U
Fe d:4.0
%ENDBLOCK HUBBARD_U

SNAP_TO_SYMMETRY
SYMMETRY_GENERATE

