#              Generated by Buildcell
#
# at 12:03:11 (GMT+0.0) 24th November 2020
# in /lustre/scratch/uccabz1/launch_tmp
# on node-c12n-022
# by uccabz1
#
# compiler GCC version 4.9.2
# options -cpp -iprefix /lustre/shared/ucl/apps/gcc/4.9.2/bin/../lib/gcc/x86_64-unknown-linux-gnu/4.9.2/ -mtune=corei7 -march=x86-64 -g -Og
#
# seed  1330604668  -243647865  1622946980  -247694308 -1247500937  -975218328 -1583812869 -1698931617 -1073906235   195770002  1080799595   363947084
#
#      Author: C. J. Pickard (cjp20@cam.ac.uk)
#                Space group: C2
#

%BLOCK LATTICE_ABC
      3.82106      5.63953      8.03795
    100.29604     90.00000    109.80223
%ENDBLOCK LATTICE_ABC

%BLOCK POSITIONS_FRAC
  Li   0.3155951  -0.2770233  -0.4930989 SPIN=   0.00000
  Li  -0.4073816   0.2770233   0.4930989 SPIN=   0.00000
   O  -0.0818721  -0.1930969  -0.3333312 SPIN=   0.00000
   O  -0.2035277  -0.5387272  -0.1449307 SPIN=   0.00000
   O  -0.5122231  -0.2153430  -0.0820548 SPIN=   0.00000
   O  -0.7187412  -0.5554009  -0.3442444 SPIN=   0.00000
   P  -0.3672738  -0.3680438  -0.2332414 SPIN=   0.00000
   O   0.1112248   0.1930969   0.3333312 SPIN=   0.00000
   O   0.3351995   0.5387272   0.1449307 SPIN=   0.00000
   O  -0.2968800   0.2153430   0.0820548 SPIN=   0.00000
   O  -0.1633403   0.5554009   0.3442444 SPIN=   0.00000
   P   0.0007700   0.3680438   0.2332414 SPIN=   0.00000
  Fe  -0.1351927  -0.1771669   0.1900236 SPIN=   4.00000
  Fe   0.0419742   0.1771669  -0.1900236 SPIN=   4.00000
%ENDBLOCK POSITIONS_FRAC

# Note: total spin =   8.00

KPOINTS_MP_SPACING 0.07

%BLOCK SPECIES_POT
QC5
%ENDBLOCK SPECIES_POT

%BLOCK HUBBARD_U
Fe d:4.0
%ENDBLOCK HUBBARD_U

SNAP_TO_SYMMETRY
SYMMETRY_GENERATE

