#              Generated by Buildcell
#
# at 07:17:24 (GMT+0.0) 26th November 2020
# in /lustre/scratch/uccabz1/launch_tmp
# on node-c12b-021
# by uccabz1
#
# compiler GCC version 4.9.2
# options -cpp -iprefix /lustre/shared/ucl/apps/gcc/4.9.2/bin/../lib/gcc/x86_64-unknown-linux-gnu/4.9.2/ -mtune=corei7 -march=x86-64 -g -Og
#
# seed -1591014454  -257435200  -424482394    82653575  1332157919  -322548191  1373609358 -1397199473 -1528965854 -1319185208 -1623305111  -871107019
#
#      Author: C. J. Pickard (cjp20@cam.ac.uk)
#                Space group: Cm
#

%BLOCK LATTICE_ABC
      4.60021      8.34974      8.34974
     90.69407     92.64963     92.64963
%ENDBLOCK LATTICE_ABC

%BLOCK POSITIONS_FRAC
  Li  -0.0541559   0.3472260  -0.1256622 SPIN=   0.00000
  Li  -0.0541559  -0.1256622   0.3472260 SPIN=   0.00000
  Li  -0.1487805  -0.2405177  -0.2405177 SPIN=   0.00000
  Li  -0.0627683   0.0179796   0.0179796 SPIN=   0.00000
   O  -0.2197689  -0.5279539   0.2671697 SPIN=   0.00000
   O  -0.0011848  -0.2672688   0.1442239 SPIN=   0.00000
   O   0.1839234  -0.5265500   0.0595591 SPIN=   0.00000
   O  -0.3207656  -0.4556162  -0.0294736 SPIN=   0.00000
   P  -0.0991177  -0.4489318   0.1170683 SPIN=   0.00000
   O  -0.2197689   0.2671697  -0.5279539 SPIN=   0.00000
   O  -0.0011848   0.1442239  -0.2672688 SPIN=   0.00000
   O   0.1839234   0.0595591  -0.5265500 SPIN=   0.00000
   O  -0.3207656  -0.0294736  -0.4556162 SPIN=   0.00000
   P  -0.0991177   0.1170683  -0.4489318 SPIN=   0.00000
   O   0.2541043  -0.2163053   0.5603387 SPIN=   0.00000
   O   0.3060549  -0.4222668   0.3288740 SPIN=   0.00000
   O   0.4731278  -0.1408722   0.2885315 SPIN=   0.00000
   O   0.7546855  -0.3105841   0.4798920 SPIN=   0.00000
   P   0.4403538  -0.2699640   0.4229519 SPIN=   0.00000
   O   0.2541043   0.5603387  -0.2163053 SPIN=   0.00000
   O   0.3060549   0.3288740  -0.4222668 SPIN=   0.00000
   O   0.4731278   0.2885315  -0.1408722 SPIN=   0.00000
   O   0.7546855   0.4798920  -0.3105841 SPIN=   0.00000
   P   0.4403538   0.4229519  -0.2699640 SPIN=   0.00000
  Fe   0.4192241  -0.2590602   0.0651137 SPIN=   3.19724
  Fe   0.4192241   0.0651137  -0.2590602 SPIN=   3.19724
  Fe   0.4681064   0.2196480   0.2196480 SPIN=   4.40765
  Fe   0.0069940   0.4890940   0.4890940 SPIN=   5.19786
%ENDBLOCK POSITIONS_FRAC

# Note: total spin =  16.00

KPOINTS_MP_SPACING 0.07

%BLOCK SPECIES_POT
QC5
%ENDBLOCK SPECIES_POT

%BLOCK HUBBARD_U
Fe d:4.0
%ENDBLOCK HUBBARD_U

SNAP_TO_SYMMETRY
SYMMETRY_GENERATE

