#              Generated by Buildcell
#
# at 12:58:03 (GMT+0.0) 24th November 2020
# in /lustre/scratch/uccabz1/launch_tmp
# on node-c12d-022
# by uccabz1
#
# compiler GCC version 4.9.2
# options -cpp -iprefix /lustre/shared/ucl/apps/gcc/4.9.2/bin/../lib/gcc/x86_64-unknown-linux-gnu/4.9.2/ -mtune=corei7 -march=x86-64 -g -Og
#
# seed -1865507049 -1174365099   870374967  1043103646  1819675144   947028077 -1994718074   -85538960   995261872  -305549472   646897431   306622994
#
#      Author: C. J. Pickard (cjp20@cam.ac.uk)
#                Space group: Pm
#

%BLOCK LATTICE_ABC
      4.17665      5.10216      7.80035
     90.00000     90.00000    105.73000
%ENDBLOCK LATTICE_ABC

%BLOCK POSITIONS_FRAC
  Li  -0.1599631  -0.3567248   0.2515888 SPIN=   0.00000
  Li  -0.1599631  -0.3567248  -0.2515888 SPIN=   0.00000
   O  -0.6656682  -0.2433784  -0.1583419 SPIN=   0.00000
   O  -0.5414162   0.2839055  -0.1583226 SPIN=   0.00000
   O  -0.1098967   0.0785710  -0.2679414 SPIN=   0.00000
   P  -0.4980732   0.0231861  -0.2526477 SPIN=   0.00000
   O  -0.6656682  -0.2433784   0.1583419 SPIN=   0.00000
   O  -0.5414162   0.2839055   0.1583226 SPIN=   0.00000
   O  -0.1098967   0.0785710   0.2679414 SPIN=   0.00000
   P  -0.4980732   0.0231861   0.2526477 SPIN=   0.00000
   O  -0.3582627   0.4374858  -0.5000000 SPIN=   0.00000
   O   0.2271095  -0.2839990   0.5000000 SPIN=   0.00000
  Fe   0.1239610   0.2303139   0.5000000 SPIN=   2.02046
  Fe   0.0321469   0.1858993   0.0000000 SPIN=   5.97954
%ENDBLOCK POSITIONS_FRAC

# Note: total spin =   8.00

KPOINTS_MP_SPACING 0.07

%BLOCK SPECIES_POT
QC5
%ENDBLOCK SPECIES_POT

%BLOCK HUBBARD_U
Fe d:4.0
%ENDBLOCK HUBBARD_U

SNAP_TO_SYMMETRY
SYMMETRY_GENERATE

