#              Generated by Buildcell
#
# at 12:43:49 (GMT+0.0) 24th November 2020
# in /scratch/scratch/uccabz1/launch_tmp
# on node-a14f-024
# by uccabz1
#
# compiler GCC version 4.9.2
# options -cpp -iprefix /scratch/UCL/applications/gcc/4.9.2/bin/../lib/gcc/x86_64-unknown-linux-gnu/4.9.2/ -mtune=corei7 -march=x86-64 -g -O2
#
# seed -1043375227 -1042426205  1024691066 -1541791027  1769479919 -1496601922 -1550249013 -2111330170 -1358817603  2046693854  -249544928    -9158767
#
#      Author: C. J. Pickard (cjp20@cam.ac.uk)
#                Space group: C2
#

%BLOCK LATTICE_ABC
      5.45696      5.45696      6.16899
    102.66180    102.66180    109.64351
%ENDBLOCK LATTICE_ABC

%BLOCK POSITIONS_FRAC
  Li   0.1738458  -0.1738458   0.0000000 SPIN=   0.00000
  Li   0.2007271   0.7992729   0.5000000 SPIN=   0.00000
   O   0.4260858   0.6958663   0.2162488 SPIN=   0.00000
   O   0.5599435   0.2981812   0.2842838 SPIN=   0.00000
   O   0.1403369   0.3177585   0.3614225 SPIN=   0.00000
   O   0.1472873   0.1935793  -0.0521559 SPIN=   0.00000
   O  -0.6958663  -0.4260858  -0.2162488 SPIN=   0.00000
   O  -0.2981812  -0.5599435  -0.2842838 SPIN=   0.00000
   O  -0.3177585  -0.1403369  -0.3614225 SPIN=   0.00000
   O  -0.1935793  -0.1472873   0.0521559 SPIN=   0.00000
   P   0.5051950   0.4948050   0.5000000 SPIN=   0.00000
   P  -0.1272922   0.1272922  -0.0000000 SPIN=   0.00000
  Fe  -0.4463527   0.4463527  -0.0000000 SPIN=   7.46735
  Fe   0.8245818   0.1754182   0.5000000 SPIN=   0.53265
%ENDBLOCK POSITIONS_FRAC

# Note: total spin =   8.00

KPOINTS_MP_SPACING 0.07

%BLOCK SPECIES_POT
QC5
%ENDBLOCK SPECIES_POT

%BLOCK HUBBARD_U
Fe d:4.0
%ENDBLOCK HUBBARD_U

SNAP_TO_SYMMETRY
SYMMETRY_GENERATE

