#              Generated by Buildcell
#
# at 08:56:19 (GMT+0.0) 24th November 2020
# in /lustre/scratch/uccabz1/launch_tmp
# on node-c12i-033
# by uccabz1
#
# compiler GCC version 4.9.2
# options -cpp -iprefix /lustre/shared/ucl/apps/gcc/4.9.2/bin/../lib/gcc/x86_64-unknown-linux-gnu/4.9.2/ -mtune=corei7 -march=x86-64 -g -Og
#
# seed  1586235961  1493285634  -430474855   634407156   101808119   171448001  1303193265   465851351 -1742358705   967071039   689615223   692348188
#
#      Author: C. J. Pickard (cjp20@cam.ac.uk)
#                Space group: C2
#

%BLOCK LATTICE_ABC
      4.84873      6.14789      6.14789
    104.52912    105.32937    105.32937
%ENDBLOCK LATTICE_ABC

%BLOCK POSITIONS_FRAC
  Li  -0.2143654   0.3191445   0.0578505 SPIN=   0.00000
  Li   0.2143654  -0.0578505  -0.3191445 SPIN=   0.00000
   O  -0.1808964  -0.0598276   0.4334705 SPIN=   0.00000
   O  -0.2490747   0.3184735   0.6825021 SPIN=   0.00000
   O  -0.5023484   0.1661026   0.2412206 SPIN=   0.00000
   P  -0.3984653   0.0791979   0.4588666 SPIN=   0.00000
   O   0.1808964  -0.4334705   0.0598276 SPIN=   0.00000
   O   0.2490747  -0.6825021  -0.3184735 SPIN=   0.00000
   O   0.5023484  -0.2412206  -0.1661026 SPIN=   0.00000
   P   0.3984653  -0.4588666  -0.0791979 SPIN=   0.00000
   O   0.0000000   0.0963920  -0.0963920 SPIN=   0.00000
   O   0.0000000  -0.4123432   0.4123432 SPIN=   0.00000
  Fe  -0.0000000  -0.1199754   0.1199754 SPIN=   0.44309
  Fe   0.5000000  -0.4413359   0.4413359 SPIN=   7.55691
%ENDBLOCK POSITIONS_FRAC

# Note: total spin =   8.00

KPOINTS_MP_SPACING 0.07

%BLOCK SPECIES_POT
QC5
%ENDBLOCK SPECIES_POT

%BLOCK HUBBARD_U
Fe d:4.0
%ENDBLOCK HUBBARD_U

SNAP_TO_SYMMETRY
SYMMETRY_GENERATE

