#              Generated by Buildcell
#
# at 10:35:05 (GMT+0.0) 24th November 2020
# in /scratch/scratch/uccabz1/launch_tmp
# on node-a14a-004
# by uccabz1
#
# compiler GCC version 4.9.2
# options -cpp -iprefix /scratch/UCL/applications/gcc/4.9.2/bin/../lib/gcc/x86_64-unknown-linux-gnu/4.9.2/ -mtune=corei7 -march=x86-64 -g -O2
#
# seed   409755146  -473311758  -960463476  -483844962   283261469   260105053  1853605724  1989097876 -1993986578   228059222   364330181   991831719
#
#      Author: C. J. Pickard (cjp20@cam.ac.uk)
#                Space group: Cm
#

%BLOCK LATTICE_ABC
      5.18034      6.18178      6.33494
    117.13503    111.77090     94.46383
%ENDBLOCK LATTICE_ABC

%BLOCK POSITIONS_FRAC
  Li   0.5973928   0.4220956  -0.0000000 SPIN=   0.00000
  Li   0.0689201  -0.2574188   0.0000000 SPIN=   0.00000
   O   0.5164742   0.5433727   0.7168020 SPIN=   0.00000
   O   0.7174570   0.4691739   0.3774897 SPIN=   0.00000
   O   0.2958021   0.1348638   0.2449139 SPIN=   0.00000
   O   0.2317828   0.5479133   0.2875518 SPIN=   0.00000
   O  -0.2003278  -0.1734293  -0.7168020 SPIN=   0.00000
   O   0.3399673   0.0916842  -0.3774897 SPIN=   0.00000
   O   0.0508882  -0.1100501  -0.2449139 SPIN=   0.00000
   O  -0.0557690   0.2603614  -0.2875518 SPIN=   0.00000
   P  -0.4212802  -0.1447498   0.0000000 SPIN=   0.00000
   P   0.0873722   0.3090918   0.0000000 SPIN=   0.00000
  Fe  -0.3892268  -0.1405751  -0.4405036 SPIN=   4.00000
  Fe   0.0512769   0.2999286   0.4405036 SPIN=   4.00000
%ENDBLOCK POSITIONS_FRAC

# Note: total spin =   8.00

KPOINTS_MP_SPACING 0.07

%BLOCK SPECIES_POT
QC5
%ENDBLOCK SPECIES_POT

%BLOCK HUBBARD_U
Fe d:4.0
%ENDBLOCK HUBBARD_U

SNAP_TO_SYMMETRY
SYMMETRY_GENERATE

