#              Generated by Buildcell
#
# at 08:39:25 (GMT+0.0) 24th November 2020
# in /lustre/scratch/uccabz1/launch_tmp
# on node-c12h-027
# by uccabz1
#
# compiler GCC version 4.9.2
# options -cpp -iprefix /lustre/shared/ucl/apps/gcc/4.9.2/bin/../lib/gcc/x86_64-unknown-linux-gnu/4.9.2/ -mtune=corei7 -march=x86-64 -g -Og
#
# seed  -591465810   384581860  1851387630   986125539   368436710 -1716339883 -1181203214 -1028166030   647262341 -1012917612  1906276096  1561550466
#
#      Author: C. J. Pickard (cjp20@cam.ac.uk)
#                Space group: Cm
#

%BLOCK LATTICE_ABC
      4.38536      6.19313      6.19313
    106.80955     93.82803     93.82803
%ENDBLOCK LATTICE_ABC

%BLOCK POSITIONS_FRAC
  Li  -0.2332964   0.0296242   0.4623395 SPIN=   0.00000
  Li  -0.2332964   0.4623395   0.0296242 SPIN=   0.00000
   O   0.5511420   0.2199150  -0.2617922 SPIN=   0.00000
   O   0.0407175   0.3936551  -0.3220825 SPIN=   0.00000
   O   0.0152344   0.0279058  -0.2359545 SPIN=   0.00000
   O   0.2197234   0.3824483   0.0667622 SPIN=   0.00000
   P   0.2251976   0.2555532  -0.1891720 SPIN=   0.00000
   O   0.5511420  -0.2617922   0.2199150 SPIN=   0.00000
   O   0.0407175  -0.3220825   0.3936551 SPIN=   0.00000
   O   0.0152344  -0.2359545   0.0279058 SPIN=   0.00000
   O   0.2197234   0.0667622   0.3824483 SPIN=   0.00000
   P   0.2251976  -0.1891720   0.2555532 SPIN=   0.00000
  Fe  -0.4311200  -0.0776271  -0.0776271 SPIN=   3.81311
  Fe   0.2987653   0.4094834   0.4094834 SPIN=   4.18689
%ENDBLOCK POSITIONS_FRAC

# Note: total spin =   8.00

KPOINTS_MP_SPACING 0.07

%BLOCK SPECIES_POT
QC5
%ENDBLOCK SPECIES_POT

%BLOCK HUBBARD_U
Fe d:4.0
%ENDBLOCK HUBBARD_U

SNAP_TO_SYMMETRY
SYMMETRY_GENERATE

