#              Generated by Buildcell
#
# at 20:13:37 (GMT+0.0) 26th November 2020
# in /scratch/scratch/uccabz1/launch_tmp
# on node-k10f-007
# by uccabz1
#
# compiler GCC version 4.9.2
# options -cpp -iprefix /scratch/UCL/applications/gcc/4.9.2/bin/../lib/gcc/x86_64-unknown-linux-gnu/4.9.2/ -mtune=corei7 -march=x86-64 -g -O2
#
# seed     -161158  -637851498 -1250564625  1344465426   -22915855   466700322  1279506332  1754997938  -483200580 -1749694252 -1056272593 -1619476968
#
#      Author: C. J. Pickard (cjp20@cam.ac.uk)
#                Space group: Pcc2
#

%BLOCK LATTICE_ABC
      5.35522      7.34586      8.13448
     90.00000     90.00000     90.00000
%ENDBLOCK LATTICE_ABC

%BLOCK POSITIONS_FRAC
  Li   0.2484982  -0.3952228  -0.3654622 SPIN=   0.00000
  Li  -0.2484982   0.3952228  -0.3654622 SPIN=   0.00000
  Li   0.2484982   0.3952228   0.1345378 SPIN=   0.00000
  Li  -0.2484982  -0.3952228   0.1345378 SPIN=   0.00000
   O   0.2380902   0.4352710  -0.1220832 SPIN=   0.00000
   O   0.4433152   0.1644202  -0.2767776 SPIN=   0.00000
   O   0.2601652   0.1075469  -0.0028736 SPIN=   0.00000
   O  -0.0212912   0.1703015  -0.2421205 SPIN=   0.00000
   P   0.2275306   0.2303005  -0.1598513 SPIN=   0.00000
   O  -0.2380902  -0.4352710  -0.1220832 SPIN=   0.00000
   O  -0.4433152  -0.1644202  -0.2767776 SPIN=   0.00000
   O  -0.2601652  -0.1075469  -0.0028736 SPIN=   0.00000
   O   0.0212912  -0.1703015  -0.2421205 SPIN=   0.00000
   P  -0.2275306  -0.2303005  -0.1598513 SPIN=   0.00000
   O   0.2380902  -0.4352710   0.3779168 SPIN=   0.00000
   O   0.4433152  -0.1644202   0.2232224 SPIN=   0.00000
   O   0.2601652  -0.1075469   0.4971264 SPIN=   0.00000
   O  -0.0212912  -0.1703015   0.2578795 SPIN=   0.00000
   P   0.2275306  -0.2303005   0.3401487 SPIN=   0.00000
   O  -0.2380902   0.4352710   0.3779168 SPIN=   0.00000
   O  -0.4433152   0.1644202   0.2232224 SPIN=   0.00000
   O  -0.2601652   0.1075469   0.4971264 SPIN=   0.00000
   O   0.0212912   0.1703015   0.2578795 SPIN=   0.00000
   P  -0.2275306   0.2303005   0.3401487 SPIN=   0.00000
  Fe  -0.2514685  -0.1886598   0.4909772 SPIN=   4.00000
  Fe   0.2514685   0.1886598   0.4909772 SPIN=   4.00000
  Fe  -0.2514685   0.1886598  -0.0090228 SPIN=   4.00000
  Fe   0.2514685  -0.1886598  -0.0090228 SPIN=   4.00000
%ENDBLOCK POSITIONS_FRAC

# Note: total spin =  16.00

KPOINTS_MP_SPACING 0.07

%BLOCK SPECIES_POT
QC5
%ENDBLOCK SPECIES_POT

%BLOCK HUBBARD_U
Fe d:4.0
%ENDBLOCK HUBBARD_U

SNAP_TO_SYMMETRY
SYMMETRY_GENERATE

