#              Generated by Buildcell
#
# at 07:13:08 (GMT+0.0) 26th November 2020
# in /scratch/scratch/uccabz1/launch_tmp
# on node-k10a-018
# by uccabz1
#
# compiler GCC version 4.9.2
# options -cpp -iprefix /scratch/UCL/applications/gcc/4.9.2/bin/../lib/gcc/x86_64-unknown-linux-gnu/4.9.2/ -mtune=corei7 -march=x86-64 -g -O2
#
# seed -1097810420  -874163665  -749519994  -480132638  1074044428   375370049 -1723679857  -239958321 -1965617019  1242924647   288149912   524512276
#
#      Author: C. J. Pickard (cjp20@cam.ac.uk)
#                Space group: P41
#

%BLOCK LATTICE_ABC
      6.15315      6.15315      8.45191
     90.00000     90.00000     90.00000
%ENDBLOCK LATTICE_ABC

%BLOCK POSITIONS_FRAC
  Li   0.1640370  -0.1879839  -0.0316877 SPIN=   0.00000
  Li  -0.1640370   0.1879839   0.4683123 SPIN=   0.00000
  Li  -0.1879839  -0.1640370   0.2183123 SPIN=   0.00000
  Li   0.1879839   0.1640370  -0.2816877 SPIN=   0.00000
   O  -0.1301555   0.1051286  -0.1589432 SPIN=   0.00000
   O  -0.0527345   0.4113326  -0.3629528 SPIN=   0.00000
   O  -0.4321740   0.2905292  -0.3260595 SPIN=   0.00000
   O  -0.2480671   0.5027303  -0.1116601 SPIN=   0.00000
   P  -0.2116045   0.3176625  -0.2340797 SPIN=   0.00000
   O   0.1301555  -0.1051286   0.3410568 SPIN=   0.00000
   O   0.0527345  -0.4113326   0.1370472 SPIN=   0.00000
   O   0.4321740  -0.2905292   0.1739405 SPIN=   0.00000
   O   0.2480671  -0.5027303   0.3883399 SPIN=   0.00000
   P   0.2116045  -0.3176625   0.2659203 SPIN=   0.00000
   O   0.1051286   0.1301555   0.0910568 SPIN=   0.00000
   O   0.4113326   0.0527345  -0.1129528 SPIN=   0.00000
   O   0.2905292   0.4321740  -0.0760595 SPIN=   0.00000
   O   0.5027303   0.2480671   0.1383399 SPIN=   0.00000
   P   0.3176625   0.2116045   0.0159203 SPIN=   0.00000
   O  -0.1051286  -0.1301555  -0.4089432 SPIN=   0.00000
   O  -0.4113326  -0.0527345  -0.6129528 SPIN=   0.00000
   O  -0.2905292  -0.4321740  -0.5760595 SPIN=   0.00000
   O  -0.5027303  -0.2480671  -0.3616601 SPIN=   0.00000
   P  -0.3176625  -0.2116045  -0.4840797 SPIN=   0.00000
  Fe  -0.3359601  -0.1655589  -0.1534668 SPIN=   4.00000
  Fe   0.3359601   0.1655589   0.3465332 SPIN=   4.00000
  Fe  -0.1655589   0.3359601   0.0965332 SPIN=   4.00000
  Fe   0.1655589  -0.3359601  -0.4034668 SPIN=   4.00000
%ENDBLOCK POSITIONS_FRAC

# Note: total spin =  16.00

KPOINTS_MP_SPACING 0.07

%BLOCK SPECIES_POT
QC5
%ENDBLOCK SPECIES_POT

%BLOCK HUBBARD_U
Fe d:4.0
%ENDBLOCK HUBBARD_U

SNAP_TO_SYMMETRY
SYMMETRY_GENERATE

