#              Generated by Buildcell
#
# at 08:26:48 (GMT+0.0) 24th November 2020
# in /lustre/scratch/uccabz1/launch_tmp
# on node-c12h-027
# by uccabz1
#
# compiler GCC version 4.9.2
# options -cpp -iprefix /lustre/shared/ucl/apps/gcc/4.9.2/bin/../lib/gcc/x86_64-unknown-linux-gnu/4.9.2/ -mtune=corei7 -march=x86-64 -g -Og
#
# seed   115976448  -802736177   789632789   -86926293  1804958330   580206362 -2124428818  -578259349  -214858951 -1957158587  1874404514   128214027
#
#      Author: C. J. Pickard (cjp20@cam.ac.uk)
#                Space group: Pcc2
#

%BLOCK LATTICE_ABC
      4.19070      4.87153      7.83732
     90.00000     90.00000     90.00000
%ENDBLOCK LATTICE_ABC

%BLOCK POSITIONS_FRAC
  Li   0.5000000   0.0000000  -0.2519234 SPIN=   0.00000
  Li   0.5000000   0.0000000   0.2480766 SPIN=   0.00000
   O  -0.2023689  -0.3151291  -0.1347207 SPIN=   0.00000
   O  -0.7198198  -0.1812647   0.0277999 SPIN=   0.00000
   O   0.2023689   0.3151291  -0.1347207 SPIN=   0.00000
   O   0.7198198   0.1812647   0.0277999 SPIN=   0.00000
   O   0.2023689  -0.3151291   0.3652793 SPIN=   0.00000
   O   0.7198198  -0.1812647   0.5277999 SPIN=   0.00000
   O  -0.2023689   0.3151291   0.3652793 SPIN=   0.00000
   O  -0.7198198   0.1812647   0.5277999 SPIN=   0.00000
   P  -0.5000000   0.5000000  -0.1061858 SPIN=   0.00000
   P  -0.5000000   0.5000000   0.3938142 SPIN=   0.00000
  Fe  -0.0000000   0.5000000   0.1438142 SPIN=   4.00000
  Fe  -0.0000000   0.5000000  -0.3561858 SPIN=   4.00000
%ENDBLOCK POSITIONS_FRAC

# Note: total spin =   8.00

KPOINTS_MP_SPACING 0.07

%BLOCK SPECIES_POT
QC5
%ENDBLOCK SPECIES_POT

%BLOCK HUBBARD_U
Fe d:4.0
%ENDBLOCK HUBBARD_U

SNAP_TO_SYMMETRY
SYMMETRY_GENERATE

