#              Generated by Buildcell
#
# at 13:51:36 (GMT+0.0) 24th November 2020
# in /lustre/scratch/uccabz1/launch_tmp
# on node-c12g-024
# by uccabz1
#
# compiler GCC version 4.9.2
# options -cpp -iprefix /lustre/shared/ucl/apps/gcc/4.9.2/bin/../lib/gcc/x86_64-unknown-linux-gnu/4.9.2/ -mtune=corei7 -march=x86-64 -g -Og
#
# seed -1947426003 -1325937393  -255221364  1072659749 -1321502616 -1743126730  -544515908  -703462725  2134416265 -1012882270  1592276089     8058937
#
#      Author: C. J. Pickard (cjp20@cam.ac.uk)
#                Space group: C2
#

%BLOCK LATTICE_ABC
      5.40766      5.40766      6.44622
    104.64506    104.64506    109.31742
%ENDBLOCK LATTICE_ABC

%BLOCK POSITIONS_FRAC
  Li  -0.4498083   0.4498083   0.0000000 SPIN=   0.00000
  Li   0.8360354   0.1639646   0.5000000 SPIN=   0.00000
   O   0.0264597   0.8855652   0.2665926 SPIN=   0.00000
   O  -0.0832412   0.4167000  -0.0517497 SPIN=   0.00000
   O   0.4045864   0.6985034   0.2302789 SPIN=   0.00000
   O   0.0268760   0.4472583   0.3578232 SPIN=   0.00000
   O  -0.8855652  -0.0264597  -0.2665926 SPIN=   0.00000
   O  -0.4167000   0.0832412   0.0517497 SPIN=   0.00000
   O  -0.6985034  -0.4045864  -0.2302789 SPIN=   0.00000
   O  -0.4472583  -0.0268760  -0.3578232 SPIN=   0.00000
   P  -0.1455920   0.1455920  -0.0000000 SPIN=   0.00000
   P  -0.8604000  -0.1396000  -0.5000000 SPIN=   0.00000
  Fe  -0.5386654  -0.4613346  -0.5000000 SPIN=   4.42240
  Fe   0.1760629  -0.1760629  -0.0000000 SPIN=   3.57760
%ENDBLOCK POSITIONS_FRAC

# Note: total spin =   8.00

KPOINTS_MP_SPACING 0.07

%BLOCK SPECIES_POT
QC5
%ENDBLOCK SPECIES_POT

%BLOCK HUBBARD_U
Fe d:4.0
%ENDBLOCK HUBBARD_U

SNAP_TO_SYMMETRY
SYMMETRY_GENERATE

