#              Generated by Buildcell
#
# at 23:12:24 (GMT+0.0) 26th November 2020
# in /lustre/scratch/uccabz1/launch_tmp
# on node-c12f-025
# by uccabz1
#
# compiler GCC version 4.9.2
# options -cpp -iprefix /lustre/shared/ucl/apps/gcc/4.9.2/bin/../lib/gcc/x86_64-unknown-linux-gnu/4.9.2/ -mtune=corei7 -march=x86-64 -g -Og
#
# seed  1231600663  1937099868  1943366118    23617354   476311423   576478986  1883484350   196126051  1327193805 -1737809796   921058916  1181850373
#
#      Author: C. J. Pickard (cjp20@cam.ac.uk)
#                Space group: Pna21
#

%BLOCK LATTICE_ABC
      3.91622      7.58677     10.77026
     90.00000     90.00000     90.00000
%ENDBLOCK LATTICE_ABC

%BLOCK POSITIONS_FRAC
  Li   0.1091812   0.0575753   0.1710243 SPIN=   0.00000
  Li  -0.3908188  -0.0575753  -0.1710243 SPIN=   0.00000
  Li   0.1091812  -0.4424247   0.3289757 SPIN=   0.00000
  Li  -0.3908188   0.4424247  -0.3289757 SPIN=   0.00000
   O  -0.4976003   0.4987632   0.2017577 SPIN=   0.00000
   O  -0.3829843   0.1997549   0.0918058 SPIN=   0.00000
   O   0.0236157   0.4438571   0.0576196 SPIN=   0.00000
   O   0.0014687   0.2951253   0.2650487 SPIN=   0.00000
   P  -0.2264408   0.3660386   0.1579075 SPIN=   0.00000
   O   0.0023997  -0.4987632  -0.2017577 SPIN=   0.00000
   O   0.1170157  -0.1997549  -0.0918058 SPIN=   0.00000
   O   0.5236157  -0.4438571  -0.0576196 SPIN=   0.00000
   O   0.5014687  -0.2951253  -0.2650487 SPIN=   0.00000
   P   0.2735592  -0.3660386  -0.1579075 SPIN=   0.00000
   O  -0.4976003  -0.0012368   0.2982423 SPIN=   0.00000
   O  -0.3829843  -0.3002451   0.4081942 SPIN=   0.00000
   O   0.0236157  -0.0561429   0.4423804 SPIN=   0.00000
   O   0.0014687  -0.2048747   0.2349513 SPIN=   0.00000
   P  -0.2264408  -0.1339614   0.3420925 SPIN=   0.00000
   O   0.0023997   0.0012368  -0.2982423 SPIN=   0.00000
   O   0.1170157   0.3002451  -0.4081942 SPIN=   0.00000
   O   0.5236157   0.0561429  -0.4423804 SPIN=   0.00000
   O   0.5014687   0.2048747  -0.2349513 SPIN=   0.00000
   P   0.2735592   0.1339614  -0.3420925 SPIN=   0.00000
  Fe  -0.3908956  -0.2766968   0.0945963 SPIN=   4.00000
  Fe   0.1091044   0.2766968  -0.0945963 SPIN=   4.00000
  Fe  -0.3908956   0.2233032   0.4054037 SPIN=   4.00000
  Fe   0.1091044  -0.2233032  -0.4054037 SPIN=   4.00000
%ENDBLOCK POSITIONS_FRAC

# Note: total spin =  16.00

KPOINTS_MP_SPACING 0.07

%BLOCK SPECIES_POT
QC5
%ENDBLOCK SPECIES_POT

%BLOCK HUBBARD_U
Fe d:4.0
%ENDBLOCK HUBBARD_U

SNAP_TO_SYMMETRY
SYMMETRY_GENERATE

