#              Generated by Buildcell
#
# at 11:52:33 (GMT+0.0) 26th November 2020
# in /lustre/scratch/uccabz1/launch_tmp
# on node-c12i-025
# by uccabz1
#
# compiler GCC version 4.9.2
# options -cpp -iprefix /lustre/shared/ucl/apps/gcc/4.9.2/bin/../lib/gcc/x86_64-unknown-linux-gnu/4.9.2/ -mtune=corei7 -march=x86-64 -g -Og
#
# seed  1792468784   148734599  -817677991   -71502926   291385923  1807233026  -636345340 -1525906460   337531645  1857381709  -561771863  -987998375
#
#      Author: C. J. Pickard (cjp20@cam.ac.uk)
#                Space group: P42
#

%BLOCK LATTICE_ABC
      6.07960      7.25500      7.25500
     90.00000     90.00000     90.00000
%ENDBLOCK LATTICE_ABC

%BLOCK POSITIONS_FRAC
  Li   0.1710417   0.5000000  -0.0000000 SPIN=   0.00000
  Li  -0.3289583   0.0000000  -0.5000000 SPIN=   0.00000
  Li  -0.1560643  -0.5000000   0.5000000 SPIN=   0.00000
  Li   0.3439357  -0.5000000   0.5000000 SPIN=   0.00000
   O   0.3299002  -0.1810667   0.2900556 SPIN=   0.00000
   O  -0.0603598  -0.2004335   0.1454344 SPIN=   0.00000
   O   0.0907485  -0.4777662   0.2969596 SPIN=   0.00000
   O  -0.0211029  -0.2066702   0.4889980 SPIN=   0.00000
   P   0.0965973  -0.2612302   0.3067140 SPIN=   0.00000
   O   0.3299002   0.1810667  -0.2900556 SPIN=   0.00000
   O  -0.0603598   0.2004335  -0.1454344 SPIN=   0.00000
   O   0.0907485   0.4777662  -0.2969596 SPIN=   0.00000
   O  -0.0211029   0.2066702  -0.4889980 SPIN=   0.00000
   P   0.0965973   0.2612302  -0.3067140 SPIN=   0.00000
   O  -0.1700998   0.2900556   0.1810667 SPIN=   0.00000
   O  -0.5603598   0.1454344   0.2004335 SPIN=   0.00000
   O  -0.4092515   0.2969596   0.4777662 SPIN=   0.00000
   O  -0.5211029   0.4889980   0.2066702 SPIN=   0.00000
   P  -0.4034027   0.3067140   0.2612302 SPIN=   0.00000
   O  -0.1700998  -0.2900556  -0.1810667 SPIN=   0.00000
   O  -0.5603598  -0.1454344  -0.2004335 SPIN=   0.00000
   O  -0.4092515  -0.2969596  -0.4777662 SPIN=   0.00000
   O  -0.5211029  -0.4889980  -0.2066702 SPIN=   0.00000
   P  -0.4034027  -0.3067140  -0.2612302 SPIN=   0.00000
  Fe   0.1016246   0.1278933   0.2527871 SPIN=   4.00000
  Fe   0.1016246  -0.1278933  -0.2527871 SPIN=   4.00000
  Fe  -0.3983754   0.2527871  -0.1278933 SPIN=   4.00000
  Fe  -0.3983754  -0.2527871   0.1278933 SPIN=   4.00000
%ENDBLOCK POSITIONS_FRAC

# Note: total spin =  16.00

KPOINTS_MP_SPACING 0.07

%BLOCK SPECIES_POT
QC5
%ENDBLOCK SPECIES_POT

%BLOCK HUBBARD_U
Fe d:4.0
%ENDBLOCK HUBBARD_U

SNAP_TO_SYMMETRY
SYMMETRY_GENERATE

