#              Generated by Buildcell
#
# at 07:12:15 (GMT+0.0) 24th November 2020
# in /lustre/scratch/uccabz1/launch_tmp
# on node-c12g-021
# by uccabz1
#
# compiler GCC version 4.9.2
# options -cpp -iprefix /lustre/shared/ucl/apps/gcc/4.9.2/bin/../lib/gcc/x86_64-unknown-linux-gnu/4.9.2/ -mtune=corei7 -march=x86-64 -g -Og
#
# seed  -791324013 -1220311173  1052229458   436331348   -36255329 -1515913897   293277874   114002032 -1813403786  -364912284 -1155363343 -1423295407
#
#      Author: C. J. Pickard (cjp20@cam.ac.uk)
#                Space group: C2
#

%BLOCK LATTICE_ABC
      5.48484      5.49908      5.49908
     89.44776     79.21713     79.21713
%ENDBLOCK LATTICE_ABC

%BLOCK POSITIONS_FRAC
  Li   0.3398845  -0.0488299   0.4257098 SPIN=   0.00000
  Li  -0.3398845  -0.4257098   0.0488299 SPIN=   0.00000
   O  -0.2677495   0.2947917  -0.3819685 SPIN=   0.00000
   O  -0.4633962  -0.0949868  -0.2619025 SPIN=   0.00000
   O  -0.2547518  -0.0594327  -0.6960839 SPIN=   0.00000
   O   0.0074483  -0.1389204  -0.3663706 SPIN=   0.00000
   P  -0.2428697   0.0143961  -0.4234954 SPIN=   0.00000
   O   0.2677495   0.3819685  -0.2947917 SPIN=   0.00000
   O   0.4633962   0.2619025   0.0949868 SPIN=   0.00000
   O   0.2547518   0.6960839   0.0594327 SPIN=   0.00000
   O  -0.0074483   0.3663706   0.1389204 SPIN=   0.00000
   P   0.2428697   0.4234954  -0.0143961 SPIN=   0.00000
  Fe  -0.0000000   0.0106892  -0.0106892 SPIN=   5.98740
  Fe   0.0000000  -0.4879369   0.4879369 SPIN=   2.01260
%ENDBLOCK POSITIONS_FRAC

# Note: total spin =   8.00

KPOINTS_MP_SPACING 0.07

%BLOCK SPECIES_POT
QC5
%ENDBLOCK SPECIES_POT

%BLOCK HUBBARD_U
Fe d:4.0
%ENDBLOCK HUBBARD_U

SNAP_TO_SYMMETRY
SYMMETRY_GENERATE

