#              Generated by Buildcell
#
# at 13:27:01 (GMT+0.0) 24th November 2020
# in /lustre/scratch/uccabz1/launch_tmp
# on node-c12p-023
# by uccabz1
#
# compiler GCC version 4.9.2
# options -cpp -iprefix /lustre/shared/ucl/apps/gcc/4.9.2/bin/../lib/gcc/x86_64-unknown-linux-gnu/4.9.2/ -mtune=corei7 -march=x86-64 -g -Og
#
# seed  1001536526  -603974548  1180702272 -1026758015  -867938977   774556687 -1789506774  1793814828   456600922   173689370  1557586255 -1679676759
#
#      Author: C. J. Pickard (cjp20@cam.ac.uk)
#                Space group: C2
#

%BLOCK LATTICE_ABC
      4.82614      4.92916      7.78837
     86.11337     82.04133     60.68898
%ENDBLOCK LATTICE_ABC

%BLOCK POSITIONS_FRAC
  Li  -0.4889948  -0.0220104   0.0000000 SPIN=   0.00000
  Li   0.4939237   0.0121525   0.5000000 SPIN=   0.00000
   O  -0.2308897   0.6064846  -0.3543357 SPIN=   0.00000
   O   0.2217147   0.1337569  -0.2128618 SPIN=   0.00000
   O  -0.3391011   0.3027586  -0.0917948 SPIN=   0.00000
   P  -0.1259114   0.2873287  -0.2669546 SPIN=   0.00000
   O  -0.3755949   0.6064846   0.3543357 SPIN=   0.00000
   O  -0.3554716   0.1337569   0.2128618 SPIN=   0.00000
   O   0.0363426   0.3027586   0.0917948 SPIN=   0.00000
   P  -0.1614173   0.2873287   0.2669546 SPIN=   0.00000
   O   0.0096876  -0.0193752   0.5000000 SPIN=   0.00000
   O   0.0978072  -0.1956145  -0.0000000 SPIN=   0.00000
  Fe   0.1988919  -0.3716411  -0.2509090 SPIN=   4.00000
  Fe   0.1727492  -0.3716411   0.2509090 SPIN=   4.00000
%ENDBLOCK POSITIONS_FRAC

# Note: total spin =   8.00

KPOINTS_MP_SPACING 0.07

%BLOCK SPECIES_POT
QC5
%ENDBLOCK SPECIES_POT

%BLOCK HUBBARD_U
Fe d:4.0
%ENDBLOCK HUBBARD_U

SNAP_TO_SYMMETRY
SYMMETRY_GENERATE

