#              Generated by Buildcell
#
# at 20:42:46 (GMT+0.0) 26th November 2020
# in /scratch/scratch/mmm0366/launch_tmp
# on node-k98c-017
# by mmm0366
#
# compiler GCC version 4.9.2
# options -cpp -iprefix /scratch/UCL/applications/gcc/4.9.2/bin/../lib/gcc/x86_64-unknown-linux-gnu/4.9.2/ -mtune=corei7 -march=x86-64 -g -O2
#
# seed -1776453782   579671664  1431792041   354399691 -1631438574 -1682047603  -679642297 -1434781840  -252505786 -1980350737   258087325   515850725
#
#      Author: C. J. Pickard (cjp20@cam.ac.uk)
#                Space group: Pcc2
#

%BLOCK LATTICE_ABC
      6.37343      6.50928      7.71336
     90.00000     90.00000     90.00000
%ENDBLOCK LATTICE_ABC

%BLOCK POSITIONS_FRAC
  Li  -0.5000000  -0.5000000   0.0394884 SPIN=   0.00000
  Li  -0.5000000  -0.5000000  -0.4605116 SPIN=   0.00000
  Li   0.0000000   0.0000000   0.1479764 SPIN=   0.00000
  Li   0.0000000   0.0000000  -0.3520236 SPIN=   0.00000
   O   0.0244317  -0.3126198  -0.1063534 SPIN=   0.00000
   O  -0.2806180  -0.2749431   0.1147990 SPIN=   0.00000
   O  -0.2350141  -0.0047643  -0.1068680 SPIN=   0.00000
   O  -0.3640190  -0.3526197  -0.1956366 SPIN=   0.00000
   P  -0.2028926  -0.2416772  -0.0767044 SPIN=   0.00000
   O  -0.0244317   0.3126198  -0.1063534 SPIN=   0.00000
   O   0.2806180   0.2749431   0.1147990 SPIN=   0.00000
   O   0.2350141   0.0047643  -0.1068680 SPIN=   0.00000
   O   0.3640190   0.3526197  -0.1956366 SPIN=   0.00000
   P   0.2028926   0.2416772  -0.0767044 SPIN=   0.00000
   O  -0.0244317  -0.3126198   0.3936466 SPIN=   0.00000
   O   0.2806180  -0.2749431   0.6147990 SPIN=   0.00000
   O   0.2350141  -0.0047643   0.3931320 SPIN=   0.00000
   O   0.3640190  -0.3526197   0.3043634 SPIN=   0.00000
   P   0.2028926  -0.2416772   0.4232956 SPIN=   0.00000
   O   0.0244317   0.3126198   0.3936466 SPIN=   0.00000
   O  -0.2806180   0.2749431   0.6147990 SPIN=   0.00000
   O  -0.2350141   0.0047643   0.3931320 SPIN=   0.00000
   O  -0.3640190   0.3526197   0.3043634 SPIN=   0.00000
   P  -0.2028926   0.2416772   0.4232956 SPIN=   0.00000
  Fe   0.5000000   0.0000000  -0.2670777 SPIN=   5.06073
  Fe   0.5000000   0.0000000   0.2329223 SPIN=   5.06073
  Fe   0.0000000   0.5000000   0.1732362 SPIN=   2.93927
  Fe   0.0000000  -0.5000000  -0.3267638 SPIN=   2.93927
%ENDBLOCK POSITIONS_FRAC

# Note: total spin =  16.00

KPOINTS_MP_SPACING 0.07

%BLOCK SPECIES_POT
QC5
%ENDBLOCK SPECIES_POT

%BLOCK HUBBARD_U
Fe d:4.0
%ENDBLOCK HUBBARD_U

SNAP_TO_SYMMETRY
SYMMETRY_GENERATE

