#              Generated by Buildcell
#
# at 09:59:01 (GMT+0.0) 24th November 2020
# in /scratch/scratch/uccabz1/launch_tmp
# on node-a14a-009
# by uccabz1
#
# compiler GCC version 4.9.2
# options -cpp -iprefix /scratch/UCL/applications/gcc/4.9.2/bin/../lib/gcc/x86_64-unknown-linux-gnu/4.9.2/ -mtune=corei7 -march=x86-64 -g -O2
#
# seed -1644746469  -855452513  1989517132   782589228  -295887516  -131009208 -1857568637   531394403  2015803507  -800411926   127664874   265110250
#
#      Author: C. J. Pickard (cjp20@cam.ac.uk)
#                Space group: Pc
#

%BLOCK LATTICE_ABC
      4.93222      5.53775      6.24615
     90.00000     90.00000    110.30693
%ENDBLOCK LATTICE_ABC

%BLOCK POSITIONS_FRAC
  Li   0.4271707   0.2960035   0.3581213 SPIN=   0.00000
  Li  -0.0728293   0.2960035  -0.3581213 SPIN=   0.00000
   O   0.4880928   0.1677452  -0.2697020 SPIN=   0.00000
   O   0.0316953  -0.1405505  -0.4615191 SPIN=   0.00000
   O   0.1917909  -0.2886634  -0.1274149 SPIN=   0.00000
   O  -0.0247145   0.0585517  -0.1120116 SPIN=   0.00000
   P   0.1862435  -0.0378069  -0.2425599 SPIN=   0.00000
   O  -0.0119072   0.1677452   0.2697020 SPIN=   0.00000
   O  -0.4683047  -0.1405505   0.4615191 SPIN=   0.00000
   O  -0.3082091  -0.2886634   0.1274149 SPIN=   0.00000
   O  -0.5247145   0.0585517   0.1120116 SPIN=   0.00000
   P  -0.3137565  -0.0378069   0.2425599 SPIN=   0.00000
  Fe   0.0818981  -0.3099976   0.2384759 SPIN=   4.00000
  Fe  -0.4181019  -0.3099976  -0.2384759 SPIN=   4.00000
%ENDBLOCK POSITIONS_FRAC

# Note: total spin =   8.00

KPOINTS_MP_SPACING 0.07

%BLOCK SPECIES_POT
QC5
%ENDBLOCK SPECIES_POT

%BLOCK HUBBARD_U
Fe d:4.0
%ENDBLOCK HUBBARD_U

SNAP_TO_SYMMETRY
SYMMETRY_GENERATE

