#              Generated by Buildcell
#
# at 12:21:51 (GMT+0.0) 24th November 2020
# in /lustre/scratch/uccabz1/launch_tmp
# on node-c12g-024
# by uccabz1
#
# compiler GCC version 4.9.2
# options -cpp -iprefix /lustre/shared/ucl/apps/gcc/4.9.2/bin/../lib/gcc/x86_64-unknown-linux-gnu/4.9.2/ -mtune=corei7 -march=x86-64 -g -Og
#
# seed  1881340218   504156902   930602551 -1125114610  1137186320  -872456496  1134364776  1027312689   -22833827  1859424425   865172184  -592296415
#
#      Author: C. J. Pickard (cjp20@cam.ac.uk)
#                Space group: Cm
#

%BLOCK LATTICE_ABC
      5.47796      5.98871      6.22448
    115.64185    112.78112     96.30388
%ENDBLOCK LATTICE_ABC

%BLOCK POSITIONS_FRAC
  Li   0.0133240  -0.4108873   0.4683775 SPIN=   0.00000
  Li  -0.4550534   0.1207353  -0.4683775 SPIN=   0.00000
   O  -0.0944376   0.2720803  -0.4759623 SPIN=   0.00000
   O   0.1207317   0.0147988  -0.2491157 SPIN=   0.00000
   O  -0.1678911  -0.2251798  -0.7504122 SPIN=   0.00000
   P   0.0372808   0.0544760  -0.4988059 SPIN=   0.00000
   O   0.3815246  -0.2519574   0.4759623 SPIN=   0.00000
   O   0.3698474  -0.7360854   0.2491157 SPIN=   0.00000
   O   0.5825210  -0.4747676   0.7504122 SPIN=   0.00000
   P   0.5360867  -0.4467181   0.4988059 SPIN=   0.00000
   O  -0.4306738  -0.0293786   0.0000000 SPIN=   0.00000
   O  -0.1036313   0.3546662   0.0000000 SPIN=   0.00000
  Fe   0.4046892  -0.4524322   0.0000000 SPIN=   1.94818
  Fe  -0.0461763   0.0085650  -0.0000000 SPIN=   6.05182
%ENDBLOCK POSITIONS_FRAC

# Note: total spin =   8.00

KPOINTS_MP_SPACING 0.07

%BLOCK SPECIES_POT
QC5
%ENDBLOCK SPECIES_POT

%BLOCK HUBBARD_U
Fe d:4.0
%ENDBLOCK HUBBARD_U

SNAP_TO_SYMMETRY
SYMMETRY_GENERATE

