#              Generated by Buildcell
#
# at 23:34:11 (GMT+0.0) 26th November 2020
# in /lustre/scratch/uccabz1/launch_tmp
# on node-c12g-033
# by uccabz1
#
# compiler GCC version 4.9.2
# options -cpp -iprefix /lustre/shared/ucl/apps/gcc/4.9.2/bin/../lib/gcc/x86_64-unknown-linux-gnu/4.9.2/ -mtune=corei7 -march=x86-64 -g -Og
#
# seed -1085084653  -438857366 -1354139798  -426079164 -1639661712   635472481  -486997097   106535430     9406132   -30696854  1774899082  1364111904
#
#      Author: C. J. Pickard (cjp20@cam.ac.uk)
#                Space group: P21
#

%BLOCK LATTICE_ABC
      4.98639      7.88084      8.14466
     90.00000     91.11027     90.00000
%ENDBLOCK LATTICE_ABC

%BLOCK POSITIONS_FRAC
  Li   0.3048446   0.3243911   0.1890137 SPIN=   0.00000
  Li  -0.3048446  -0.1756089  -0.1890137 SPIN=   0.00000
  Li  -0.1848459   0.0594722  -0.4716553 SPIN=   0.00000
  Li   0.1848459  -0.4405278   0.4716553 SPIN=   0.00000
   O  -0.2638783  -0.4515942   0.3918343 SPIN=   0.00000
   O  -0.5595746  -0.2377234   0.5500936 SPIN=   0.00000
   O  -0.0710775  -0.2379491   0.6064704 SPIN=   0.00000
   O  -0.2481969  -0.1290390   0.3366237 SPIN=   0.00000
   P  -0.2840786  -0.2724672   0.4654379 SPIN=   0.00000
   O   0.2638783   0.0484058  -0.3918343 SPIN=   0.00000
   O   0.5595746   0.2622766  -0.5500936 SPIN=   0.00000
   O   0.0710775   0.2620509  -0.6064704 SPIN=   0.00000
   O   0.2481969   0.3709610  -0.3366237 SPIN=   0.00000
   P   0.2840786   0.2275328  -0.4654379 SPIN=   0.00000
   O   0.0729494  -0.1289674   0.0140991 SPIN=   0.00000
   O   0.3310299  -0.3383374  -0.1719346 SPIN=   0.00000
   O   0.5781465  -0.2001438   0.0572889 SPIN=   0.00000
   O   0.2344689  -0.4221620   0.1175658 SPIN=   0.00000
   P   0.2910161  -0.2665328   0.0061161 SPIN=   0.00000
   O  -0.0729494   0.3710326  -0.0140991 SPIN=   0.00000
   O  -0.3310299   0.1616626   0.1719346 SPIN=   0.00000
   O  -0.5781465   0.2998562  -0.0572889 SPIN=   0.00000
   O  -0.2344689   0.0778380  -0.1175658 SPIN=   0.00000
   P  -0.2910161   0.2334672  -0.0061161 SPIN=   0.00000
  Fe  -0.1974191  -0.4097926   0.1403030 SPIN=   1.63196
  Fe   0.1974191   0.0902074  -0.1403030 SPIN=   1.63196
  Fe   0.3090171  -0.0729034   0.3037866 SPIN=   6.36804
  Fe  -0.3090171   0.4270966  -0.3037866 SPIN=   6.36804
%ENDBLOCK POSITIONS_FRAC

# Note: total spin =  16.00

KPOINTS_MP_SPACING 0.07

%BLOCK SPECIES_POT
QC5
%ENDBLOCK SPECIES_POT

%BLOCK HUBBARD_U
Fe d:4.0
%ENDBLOCK HUBBARD_U

SNAP_TO_SYMMETRY
SYMMETRY_GENERATE

