#              Generated by Buildcell
#
# at 09:45:44 (GMT+0.0) 24th November 2020
# in /lustre/scratch/uccabz1/launch_tmp
# on node-c12o-027
# by uccabz1
#
# compiler GCC version 4.9.2
# options -cpp -iprefix /lustre/shared/ucl/apps/gcc/4.9.2/bin/../lib/gcc/x86_64-unknown-linux-gnu/4.9.2/ -mtune=corei7 -march=x86-64 -g -Og
#
# seed -2138268344 -1130990065  -170025501  -105660614  1386844989  -857205560  2037349280 -1987156494  1996965446  -630455010  1093917186  1655670412
#
#      Author: C. J. Pickard (cjp20@cam.ac.uk)
#                Space group: Pmn21
#

%BLOCK LATTICE_ABC
      5.33140      5.47483      5.48161
     90.00000     90.00000     90.00000
%ENDBLOCK LATTICE_ABC

%BLOCK POSITIONS_FRAC
  Li  -0.1546248   0.1258806   0.5000000 SPIN=   0.00000
  Li   0.1546248  -0.3741194  -0.0000000 SPIN=   0.00000
   O  -0.3268177  -0.1264248  -0.2425106 SPIN=   0.00000
   O   0.1535547  -0.0467441  -0.2471498 SPIN=   0.00000
   O   0.3268177   0.3735752  -0.2574894 SPIN=   0.00000
   O  -0.1535547   0.4532559  -0.2528502 SPIN=   0.00000
   O   0.3268177   0.3735752   0.2574894 SPIN=   0.00000
   O  -0.1535547   0.4532559   0.2528502 SPIN=   0.00000
   O  -0.3268177  -0.1264248   0.2425106 SPIN=   0.00000
   O   0.1535547  -0.0467441   0.2471498 SPIN=   0.00000
   P   0.3444385   0.1258918  -0.5000000 SPIN=   0.00000
   P  -0.3444385  -0.3741082  -0.0000000 SPIN=   0.00000
  Fe   0.4999101   0.1258877  -0.0000000 SPIN=   4.00000
  Fe  -0.4999101  -0.3741123   0.5000000 SPIN=   4.00000
%ENDBLOCK POSITIONS_FRAC

# Note: total spin =   8.00

KPOINTS_MP_SPACING 0.07

%BLOCK SPECIES_POT
QC5
%ENDBLOCK SPECIES_POT

%BLOCK HUBBARD_U
Fe d:4.0
%ENDBLOCK HUBBARD_U

SNAP_TO_SYMMETRY
SYMMETRY_GENERATE

