#              Generated by Buildcell
#
# at 17:29:20 (GMT+0.0) 26th November 2020
# in /lustre/scratch/uccabz1/launch_tmp
# on node-c12d-029
# by uccabz1
#
# compiler GCC version 4.9.2
# options -cpp -iprefix /lustre/shared/ucl/apps/gcc/4.9.2/bin/../lib/gcc/x86_64-unknown-linux-gnu/4.9.2/ -mtune=corei7 -march=x86-64 -g -Og
#
# seed    77864615  -726258971 -1040811424  1833148880 -1611637147 -1100159652  1313466131  -375141048   -22679641  1612106404  1010725829  1008093294
#
#      Author: C. J. Pickard (cjp20@cam.ac.uk)
#                Space group: Fdd2
#

%BLOCK LATTICE_ABC
      7.37921      7.37921      7.57015
    111.63118    111.63118    104.10280
%ENDBLOCK LATTICE_ABC

%BLOCK POSITIONS_FRAC
  Li  -0.0100342   0.0934217  -0.1627408 SPIN=   0.00000
  Li  -0.0934217   0.0100342   0.1627408 SPIN=   0.00000
  Li  -0.0061626  -0.4027066   0.3372592 SPIN=   0.00000
  Li   0.4027066   0.0061626  -0.3372592 SPIN=   0.00000
   O   0.2841235  -0.2883587  -0.3078755 SPIN=   0.00000
   O   0.4101346  -0.0730191   0.1084602 SPIN=   0.00000
   O   0.6043291  -0.2803839  -0.0018286 SPIN=   0.00000
   O   0.6486569   0.0552561  -0.0267356 SPIN=   0.00000
   P   0.4779288  -0.1517905  -0.0699959 SPIN=   0.00000
   O   0.2883587  -0.2841235   0.3078755 SPIN=   0.00000
   O   0.0730191  -0.4101346  -0.1084602 SPIN=   0.00000
   O   0.2803839  -0.6043291   0.0018286 SPIN=   0.00000
   O  -0.0552561  -0.6486569   0.0267356 SPIN=   0.00000
   P   0.1517905  -0.4779288   0.0699959 SPIN=   0.00000
   O   0.2304831   0.1580009   0.1921245 SPIN=   0.00000
   O   0.4314793   0.4483256   0.6084602 SPIN=   0.00000
   O   0.5285553   0.1438423   0.4981714 SPIN=   0.00000
   O   0.1680083   0.0746075   0.4732644 SPIN=   0.00000
   P   0.3317946   0.2020752   0.4300041 SPIN=   0.00000
   O  -0.1580009  -0.2304831  -0.1921245 SPIN=   0.00000
   O  -0.4483256  -0.4314793  -0.6084602 SPIN=   0.00000
   O  -0.1438423  -0.5285553  -0.4981714 SPIN=   0.00000
   O  -0.0746075  -0.1680083  -0.4732644 SPIN=   0.00000
   P  -0.2020752  -0.3317946  -0.4300041 SPIN=   0.00000
  Fe  -0.4119072  -0.1516333   0.3328168 SPIN=   4.00000
  Fe   0.1516333   0.4119072  -0.3328168 SPIN=   4.00000
  Fe  -0.2655499   0.4947239  -0.1671832 SPIN=   4.00000
  Fe  -0.4947239   0.2655499   0.1671832 SPIN=   4.00000
%ENDBLOCK POSITIONS_FRAC

# Note: total spin =  16.00

KPOINTS_MP_SPACING 0.07

%BLOCK SPECIES_POT
QC5
%ENDBLOCK SPECIES_POT

%BLOCK HUBBARD_U
Fe d:4.0
%ENDBLOCK HUBBARD_U

SNAP_TO_SYMMETRY
SYMMETRY_GENERATE

