#              Generated by Buildcell
#
# at 16:15:52 (GMT+0.0) 26th November 2020
# in /scratch/scratch/uccabz1/launch_tmp
# on node-a14c-005
# by uccabz1
#
# compiler GCC version 4.9.2
# options -cpp -iprefix /scratch/UCL/applications/gcc/4.9.2/bin/../lib/gcc/x86_64-unknown-linux-gnu/4.9.2/ -mtune=corei7 -march=x86-64 -g -O2
#
# seed  -117918897 -1070120493  -682307646  -997768986  -104793835  -783989342    43574045 -1042099588   -39623838  -354013198  2008798974  -568555861
#
#      Author: C. J. Pickard (cjp20@cam.ac.uk)
#                Space group: Cm
#

%BLOCK LATTICE_ABC
      7.30720      7.30720      7.67901
     62.43077     62.43077     82.95517
%ENDBLOCK LATTICE_ABC

%BLOCK POSITIONS_FRAC
  Li  -0.2931711  -0.2931711  -0.0122936 SPIN=   0.00000
  Li  -0.3487074  -0.3487074  -0.3496411 SPIN=   0.00000
  Li   0.3693719   0.3693719   0.1366147 SPIN=   0.00000
  Li   0.2558668   0.2558668  -0.2083234 SPIN=   0.00000
   O  -0.2714282   0.0103722   0.0153232 SPIN=   0.00000
   O  -0.5609943  -0.3024727   0.2669182 SPIN=   0.00000
   O  -0.4722461  -0.1422432   0.4435292 SPIN=   0.00000
   O  -0.6583216   0.0524058   0.2189362 SPIN=   0.00000
   P  -0.4810474  -0.0881029   0.2242139 SPIN=   0.00000
   O   0.0103722  -0.2714282   0.0153232 SPIN=   0.00000
   O  -0.3024727  -0.5609943   0.2669182 SPIN=   0.00000
   O  -0.1422432  -0.4722461   0.4435292 SPIN=   0.00000
   O   0.0524058  -0.6583216   0.2189362 SPIN=   0.00000
   P  -0.0881029  -0.4810474   0.2242139 SPIN=   0.00000
   O   0.0056951  -0.2505857  -0.4790032 SPIN=   0.00000
   O   0.1192331  -0.6162163  -0.4253427 SPIN=   0.00000
   O   0.0926664  -0.5001119  -0.1600538 SPIN=   0.00000
   O  -0.2314530  -0.5884958  -0.1538903 SPIN=   0.00000
   P  -0.0056674  -0.4773418  -0.3120819 SPIN=   0.00000
   O  -0.2505857   0.0056951  -0.4790032 SPIN=   0.00000
   O  -0.6162163   0.1192331  -0.4253427 SPIN=   0.00000
   O  -0.5001119   0.0926664  -0.1600538 SPIN=   0.00000
   O  -0.5884958  -0.2314530  -0.1538903 SPIN=   0.00000
   P  -0.4773418  -0.0056674  -0.3120819 SPIN=   0.00000
  Fe  -0.2167978   0.1854653   0.1990036 SPIN=   3.77886
  Fe   0.1854653  -0.2167978   0.1990036 SPIN=   3.77886
  Fe   0.2143376  -0.1769692  -0.3314032 SPIN=   4.22114
  Fe  -0.1769692   0.2143376  -0.3314032 SPIN=   4.22114
%ENDBLOCK POSITIONS_FRAC

# Note: total spin =  16.00

KPOINTS_MP_SPACING 0.07

%BLOCK SPECIES_POT
QC5
%ENDBLOCK SPECIES_POT

%BLOCK HUBBARD_U
Fe d:4.0
%ENDBLOCK HUBBARD_U

SNAP_TO_SYMMETRY
SYMMETRY_GENERATE

