#              Generated by Buildcell
#
# at 18:32:44 (GMT+0.0) 26th November 2020
# in /lustre/scratch/uccabz1/launch_tmp
# on node-c12g-022
# by uccabz1
#
# compiler GCC version 4.9.2
# options -cpp -iprefix /lustre/shared/ucl/apps/gcc/4.9.2/bin/../lib/gcc/x86_64-unknown-linux-gnu/4.9.2/ -mtune=corei7 -march=x86-64 -g -Og
#
# seed  -766360832  1941160359   -76186482  -896923695   749294750  -461182362  2130714659   561074223  -999679466   359335320 -1293327701  -763767030
#
#      Author: C. J. Pickard (cjp20@cam.ac.uk)
#                Space group: Aea2
#

%BLOCK LATTICE_ABC
      6.31681      6.31681      9.24832
     90.00000     90.00000    119.87152
%ENDBLOCK LATTICE_ABC

%BLOCK POSITIONS_FRAC
  Li   0.4838281   0.2610088   0.2629464 SPIN=   0.00000
  Li   0.2610088   0.4838281  -0.2629464 SPIN=   0.00000
  Li  -0.2389912  -0.0161719  -0.2370536 SPIN=   0.00000
  Li  -0.0161719  -0.2389912   0.2370536 SPIN=   0.00000
   O   0.2458276   0.3640059   0.3657564 SPIN=   0.00000
   O  -0.2261231   0.0884839   0.3614018 SPIN=   0.00000
   O  -0.0242819   0.2539495   0.5960711 SPIN=   0.00000
   O  -0.0438074   0.5351024   0.4124355 SPIN=   0.00000
   P   0.0012627   0.3158923   0.4300335 SPIN=   0.00000
   O   0.3640059   0.2458276  -0.3657564 SPIN=   0.00000
   O   0.0884839  -0.2261231  -0.3614018 SPIN=   0.00000
   O   0.2539495  -0.0242819  -0.5960711 SPIN=   0.00000
   O   0.5351024  -0.0438074  -0.4124355 SPIN=   0.00000
   P   0.3158923   0.0012627  -0.4300335 SPIN=   0.00000
   O   0.8640059   0.7458276  -0.1342436 SPIN=   0.00000
   O   0.5884839   0.2738769  -0.1385982 SPIN=   0.00000
   O   0.7539495   0.4757181   0.0960711 SPIN=   0.00000
   O   1.0351024   0.4561926  -0.0875645 SPIN=   0.00000
   P   0.8158923   0.5012627  -0.0699665 SPIN=   0.00000
   O  -0.2541724  -0.1359941   0.1342436 SPIN=   0.00000
   O  -0.7261231  -0.4115161   0.1385982 SPIN=   0.00000
   O  -0.5242819  -0.2460505  -0.0960711 SPIN=   0.00000
   O  -0.5438074   0.0351024   0.0875645 SPIN=   0.00000
   P  -0.4987373  -0.1841077   0.0699665 SPIN=   0.00000
  Fe   0.7453662   0.4590350  -0.3751374 SPIN=   4.00000
  Fe  -0.5409650  -0.2546338   0.3751374 SPIN=   4.00000
  Fe  -0.0409650   0.2453662   0.1248626 SPIN=   4.00000
  Fe   0.2453662  -0.0409650  -0.1248626 SPIN=   4.00000
%ENDBLOCK POSITIONS_FRAC

# Note: total spin =  16.00

KPOINTS_MP_SPACING 0.07

%BLOCK SPECIES_POT
QC5
%ENDBLOCK SPECIES_POT

%BLOCK HUBBARD_U
Fe d:4.0
%ENDBLOCK HUBBARD_U

SNAP_TO_SYMMETRY
SYMMETRY_GENERATE

