#              Generated by Buildcell
#
# at 07:22:23 (GMT+0.0) 24th November 2020
# in /scratch/scratch/uccabz1/launch_tmp
# on node-a14e-012
# by uccabz1
#
# compiler GCC version 4.9.2
# options -cpp -iprefix /scratch/UCL/applications/gcc/4.9.2/bin/../lib/gcc/x86_64-unknown-linux-gnu/4.9.2/ -mtune=corei7 -march=x86-64 -g -O2
#
# seed  2128999290 -1180973158  1160402252   750497887 -2057122346  1307799813  1527205750  1927242060  -698106754  1816231001 -1520990396  1516618012
#
#      Author: C. J. Pickard (cjp20@cam.ac.uk)
#                Space group: C2
#

%BLOCK LATTICE_ABC
      4.89573      5.63399      6.89540
    114.11271    110.73884     90.00000
%ENDBLOCK LATTICE_ABC

%BLOCK POSITIONS_FRAC
  Li  -0.0600099   0.3382411   0.3803715 SPIN=   0.00000
  Li   0.0600099  -0.0421303  -0.3803715 SPIN=   0.00000
   O   0.4674348   0.4163522   0.4340085 SPIN=   0.00000
   O   0.6180349  -0.0335961   0.2322776 SPIN=   0.00000
   O   0.1138823  -0.0325356   0.2330059 SPIN=   0.00000
   O   0.2458082   0.1430101  -0.0083715 SPIN=   0.00000
   P   0.3655790   0.1391433   0.2312524 SPIN=   0.00000
   O  -0.4674348  -0.0176563  -0.4340085 SPIN=   0.00000
   O  -0.6180349  -0.2658737  -0.2322776 SPIN=   0.00000
   O  -0.1138823  -0.2655415  -0.2330059 SPIN=   0.00000
   O  -0.2458082   0.1513817   0.0083715 SPIN=   0.00000
   P  -0.3655790  -0.0921091  -0.2312524 SPIN=   0.00000
  Fe   0.3774861  -0.3506149   0.2552426 SPIN=   4.00000
  Fe  -0.3774861   0.3941425  -0.2552426 SPIN=   4.00000
%ENDBLOCK POSITIONS_FRAC

# Note: total spin =   8.00

KPOINTS_MP_SPACING 0.07

%BLOCK SPECIES_POT
QC5
%ENDBLOCK SPECIES_POT

%BLOCK HUBBARD_U
Fe d:4.0
%ENDBLOCK HUBBARD_U

SNAP_TO_SYMMETRY
SYMMETRY_GENERATE

