#              Generated by Buildcell
#
# at 09:51:43 (GMT+0.0) 24th November 2020
# in /scratch/scratch/uccabz1/launch_tmp
# on node-a14e-013
# by uccabz1
#
# compiler GCC version 4.9.2
# options -cpp -iprefix /scratch/UCL/applications/gcc/4.9.2/bin/../lib/gcc/x86_64-unknown-linux-gnu/4.9.2/ -mtune=corei7 -march=x86-64 -g -O2
#
# seed   249202064  1725573342 -1720670593  1519864290    86960825  1980470179 -1206605902  -539276047  1959446534   198948601 -2104677458  -136874383
#
#      Author: C. J. Pickard (cjp20@cam.ac.uk)
#                Space group: P2
#

%BLOCK LATTICE_ABC
      3.71869      5.68709      7.57983
     90.00000     92.14317     90.00000
%ENDBLOCK LATTICE_ABC

%BLOCK POSITIONS_FRAC
  Li   0.0000000  -0.4998960   0.0000000 SPIN=   0.00000
  Li   0.0000000  -0.4217088  -0.5000000 SPIN=   0.00000
   O   0.7526113   0.3159760  -0.3119999 SPIN=   0.00000
   O   0.2432972   0.2013039  -0.1028631 SPIN=   0.00000
   O   0.2281401   0.5966570  -0.2378309 SPIN=   0.00000
   P   0.3505782   0.3368821  -0.2739568 SPIN=   0.00000
   O  -0.7526113   0.3159760   0.3119999 SPIN=   0.00000
   O  -0.2432972   0.2013039   0.1028631 SPIN=   0.00000
   O  -0.2281401   0.5966570   0.2378309 SPIN=   0.00000
   P  -0.3505782   0.3368821   0.2739568 SPIN=   0.00000
   O   0.5000000  -0.1712801   0.0000000 SPIN=   0.00000
   O  -0.5000000  -0.1523150   0.5000000 SPIN=   0.00000
  Fe   0.1749128  -0.0282968   0.2314148 SPIN=   4.00000
  Fe  -0.1749128  -0.0282968  -0.2314148 SPIN=   4.00000
%ENDBLOCK POSITIONS_FRAC

# Note: total spin =   8.00

KPOINTS_MP_SPACING 0.07

%BLOCK SPECIES_POT
QC5
%ENDBLOCK SPECIES_POT

%BLOCK HUBBARD_U
Fe d:4.0
%ENDBLOCK HUBBARD_U

SNAP_TO_SYMMETRY
SYMMETRY_GENERATE

