#              Generated by Buildcell
#
# at 06:29:43 (GMT+0.0) 24th November 2020
# in /lustre/scratch/uccabz1/launch_tmp
# on node-c12f-020
# by uccabz1
#
# compiler GCC version 4.9.2
# options -cpp -iprefix /lustre/shared/ucl/apps/gcc/4.9.2/bin/../lib/gcc/x86_64-unknown-linux-gnu/4.9.2/ -mtune=corei7 -march=x86-64 -g -Og
#
# seed  -172692204  2072519665    73692215  -384652178  -915140892  1224797567  1364541473  -908522824   534275176   220607886  1815790268  -854270965
#
#      Author: C. J. Pickard (cjp20@cam.ac.uk)
#                Space group: C2
#

%BLOCK LATTICE_ABC
      5.14934      5.14934      6.56407
    102.29259    102.29259    102.25163
%ENDBLOCK LATTICE_ABC

%BLOCK POSITIONS_FRAC
  Li   0.7068414   0.2931586  -0.5000000 SPIN=   0.00000
  Li   0.2412973  -0.2412973   0.0000000 SPIN=   0.00000
   O   0.0429552  -0.1699451   0.2471646 SPIN=   0.00000
   O  -0.0776416   0.2974222   0.2612741 SPIN=   0.00000
   O   0.3136289   0.2826900   0.5470874 SPIN=   0.00000
   O   0.3578096   0.2382980   0.1693805 SPIN=   0.00000
   P   0.1553431   0.1453347   0.3014669 SPIN=   0.00000
   O   0.1699451  -0.0429552  -0.2471646 SPIN=   0.00000
   O  -0.2974222   0.0776416  -0.2612741 SPIN=   0.00000
   O  -0.2826900  -0.3136289  -0.5470874 SPIN=   0.00000
   O  -0.2382980  -0.3578096  -0.1693805 SPIN=   0.00000
   P  -0.1453347  -0.1553431  -0.3014669 SPIN=   0.00000
  Fe   0.6480893   0.3519107   0.0000000 SPIN=   3.66590
  Fe  -0.7205356  -0.2794644  -0.5000000 SPIN=   4.33410
%ENDBLOCK POSITIONS_FRAC

# Note: total spin =   8.00

KPOINTS_MP_SPACING 0.07

%BLOCK SPECIES_POT
QC5
%ENDBLOCK SPECIES_POT

%BLOCK HUBBARD_U
Fe d:4.0
%ENDBLOCK HUBBARD_U

SNAP_TO_SYMMETRY
SYMMETRY_GENERATE

