#              Generated by Buildcell
#
# at 01:42:20 (GMT+0.0) 27th November 2020
# in /lustre/scratch/uccabz1/launch_tmp
# on node-c12m-034
# by uccabz1
#
# compiler GCC version 4.9.2
# options -cpp -iprefix /lustre/shared/ucl/apps/gcc/4.9.2/bin/../lib/gcc/x86_64-unknown-linux-gnu/4.9.2/ -mtune=corei7 -march=x86-64 -g -Og
#
# seed   432266689  1867081002 -1010273913  -737814074 -1816314943  1293464722 -1229806360  2061442925  -561496425  1186804468  1899957272  1148656398
#
#      Author: C. J. Pickard (cjp20@cam.ac.uk)
#                Space group: C2
#

%BLOCK LATTICE_ABC
      6.58942      7.10240      7.98249
     81.93143     65.62280     70.11932
%ENDBLOCK LATTICE_ABC

%BLOCK POSITIONS_FRAC
  Li  -0.3744013   0.5000000  -0.2511973 SPIN=   0.00000
  Li   0.1052263   0.0000000  -0.2104527 SPIN=   0.00000
  Li   0.3136487   0.0000000   0.3727026 SPIN=   0.00000
  Li  -0.1641687  -0.5000000   0.3283375 SPIN=   0.00000
   O   0.3975560  -0.1991509  -0.1621617 SPIN=   0.00000
   O  -0.0255282  -0.1840860   0.0649650 SPIN=   0.00000
   O   0.2916432  -0.5055781   0.0273863 SPIN=   0.00000
   O   0.2779802  -0.2215650   0.1897864 SPIN=   0.00000
   P   0.2445484  -0.2727570   0.0216484 SPIN=   0.00000
   O  -0.2353943   0.1991509  -0.1621617 SPIN=   0.00000
   O  -0.0394368   0.1840860   0.0649650 SPIN=   0.00000
   O  -0.3190295   0.5055781   0.0273863 SPIN=   0.00000
   O  -0.4677666   0.2215650   0.1897864 SPIN=   0.00000
   P  -0.2661968   0.2727570   0.0216484 SPIN=   0.00000
   O  -0.0721263  -0.3340792  -0.5193490 SPIN=   0.00000
   O   0.2498166  -0.2643666  -0.4526428 SPIN=   0.00000
   O  -0.0925924   0.0212978  -0.4533214 SPIN=   0.00000
   O  -0.1434712  -0.2294519  -0.1975911 SPIN=   0.00000
   P  -0.0191775  -0.2090293  -0.4093197 SPIN=   0.00000
   O   0.5914753   0.3340792  -0.5193490 SPIN=   0.00000
   O   0.2028262   0.2643666  -0.4526428 SPIN=   0.00000
   O   0.5459138  -0.0212978  -0.4533214 SPIN=   0.00000
   O   0.3410623   0.2294519  -0.1975911 SPIN=   0.00000
   P   0.4284973   0.2090293  -0.4093197 SPIN=   0.00000
  Fe   0.3389628  -0.5000000   0.3220744 SPIN=   4.12000
  Fe   0.0646009   0.5000000  -0.1292018 SPIN=   4.60166
  Fe  -0.1472532  -0.0000000   0.2945065 SPIN=   0.70620
  Fe  -0.4597979   0.0000000  -0.0804043 SPIN=   6.57215
%ENDBLOCK POSITIONS_FRAC

# Note: total spin =  16.00

KPOINTS_MP_SPACING 0.07

%BLOCK SPECIES_POT
QC5
%ENDBLOCK SPECIES_POT

%BLOCK HUBBARD_U
Fe d:4.0
%ENDBLOCK HUBBARD_U

SNAP_TO_SYMMETRY
SYMMETRY_GENERATE

