#              Generated by Buildcell
#
# at 23:01:19 (GMT+0.0) 26th November 2020
# in /lustre/scratch/uccabz1/launch_tmp
# on node-c12n-021
# by uccabz1
#
# compiler GCC version 4.9.2
# options -cpp -iprefix /lustre/shared/ucl/apps/gcc/4.9.2/bin/../lib/gcc/x86_64-unknown-linux-gnu/4.9.2/ -mtune=corei7 -march=x86-64 -g -Og
#
# seed -1967705620  -212763818 -1423366375   -25321995  1445756044   535031702 -1486789149  1441299995   447821554 -1930787369  1000764561  1620615598
#
#      Author: C. J. Pickard (cjp20@cam.ac.uk)
#                Space group: C2
#

%BLOCK LATTICE_ABC
      6.38643      6.38643      8.04244
     96.34665     96.34665     98.20912
%ENDBLOCK LATTICE_ABC

%BLOCK POSITIONS_FRAC
  Li  -0.2297551  -0.0831312   0.2729505 SPIN=   0.00000
  Li   0.0831312   0.2297551  -0.2729505 SPIN=   0.00000
  Li   0.1108102   0.2268021   0.1054585 SPIN=   0.00000
  Li  -0.2268021  -0.1108102  -0.1054585 SPIN=   0.00000
   O  -0.4603235  -0.3440686  -0.3199751 SPIN=   0.00000
   O  -0.1469650  -0.0456832  -0.3438457 SPIN=   0.00000
   O  -0.2082392  -0.3706575  -0.5512303 SPIN=   0.00000
   O  -0.4675993  -0.1116283  -0.5631317 SPIN=   0.00000
   P  -0.3299442  -0.2234660  -0.4393124 SPIN=   0.00000
   O   0.3440686   0.4603235   0.3199751 SPIN=   0.00000
   O   0.0456832   0.1469650   0.3438457 SPIN=   0.00000
   O   0.3706575   0.2082392   0.5512303 SPIN=   0.00000
   O   0.1116283   0.4675993   0.5631317 SPIN=   0.00000
   P   0.2234660   0.3299442   0.4393124 SPIN=   0.00000
   O   0.2314197   0.0442573  -0.0950237 SPIN=   0.00000
   O   0.4300141   0.1070699   0.2103641 SPIN=   0.00000
   O   0.4961636  -0.1971247   0.0161904 SPIN=   0.00000
   P   0.4393307   0.0347452   0.0182623 SPIN=   0.00000
   O  -0.0442573  -0.2314197   0.0950237 SPIN=   0.00000
   O  -0.1070699  -0.4300141  -0.2103641 SPIN=   0.00000
   O   0.1971247  -0.4961636  -0.0161904 SPIN=   0.00000
   P  -0.0347452  -0.4393307  -0.0182623 SPIN=   0.00000
   O   0.1480729  -0.1480729  -0.5000000 SPIN=   0.00000
   O  -0.2477629   0.2477629  -0.5000000 SPIN=   0.00000
  Fe  -0.3434372   0.3960251   0.2464030 SPIN=   3.46719
  Fe  -0.3960251   0.3434372  -0.2464030 SPIN=   3.46719
  Fe   0.2040545  -0.2505124  -0.2617804 SPIN=   4.53281
  Fe   0.2505124  -0.2040545   0.2617804 SPIN=   4.53281
%ENDBLOCK POSITIONS_FRAC

# Note: total spin =  16.00

KPOINTS_MP_SPACING 0.07

%BLOCK SPECIES_POT
QC5
%ENDBLOCK SPECIES_POT

%BLOCK HUBBARD_U
Fe d:4.0
%ENDBLOCK HUBBARD_U

SNAP_TO_SYMMETRY
SYMMETRY_GENERATE

