#              Generated by Buildcell
#
# at 10:43:13 (GMT+0.0) 24th November 2020
# in /lustre/scratch/uccabz1/launch_tmp
# on node-c12d-022
# by uccabz1
#
# compiler GCC version 4.9.2
# options -cpp -iprefix /lustre/shared/ucl/apps/gcc/4.9.2/bin/../lib/gcc/x86_64-unknown-linux-gnu/4.9.2/ -mtune=corei7 -march=x86-64 -g -Og
#
# seed  -261645588   979968694   995488825  1232046762    -4942727  1696425188   999416874  1314364545  -190807460  1571151334  1947290369  1146874300
#
#      Author: C. J. Pickard (cjp20@cam.ac.uk)
#                Space group: Cm
#

%BLOCK LATTICE_ABC
      5.00081      6.31178      6.31178
    100.65252    111.58972    111.58972
%ENDBLOCK LATTICE_ABC

%BLOCK POSITIONS_FRAC
  Li  -0.4635541   0.3219438   0.3219438 SPIN=   0.00000
  Li   0.2769750  -0.4138479  -0.4138479 SPIN=   0.00000
   O   0.4240015  -0.0985648   0.4991001 SPIN=   0.00000
   O  -0.0054982  -0.1948364   0.0578855 SPIN=   0.00000
   O  -0.2022722  -0.3082140   0.3471488 SPIN=   0.00000
   O   0.0916058   0.1349476   0.4105862 SPIN=   0.00000
   O   0.4240015   0.4991001  -0.0985648 SPIN=   0.00000
   O  -0.0054982   0.0578855  -0.1948364 SPIN=   0.00000
   O  -0.2022722   0.3471488  -0.3082140 SPIN=   0.00000
   O   0.0916058   0.4105862   0.1349476 SPIN=   0.00000
   P  -0.0915622  -0.2725211  -0.2725211 SPIN=   0.00000
   P  -0.0943040   0.1810101   0.1810101 SPIN=   0.00000
  Fe   0.4076341  -0.2470609   0.1561411 SPIN=   4.00000
  Fe   0.4076341   0.1561411  -0.2470609 SPIN=   4.00000
%ENDBLOCK POSITIONS_FRAC

# Note: total spin =   8.00

KPOINTS_MP_SPACING 0.07

%BLOCK SPECIES_POT
QC5
%ENDBLOCK SPECIES_POT

%BLOCK HUBBARD_U
Fe d:4.0
%ENDBLOCK HUBBARD_U

SNAP_TO_SYMMETRY
SYMMETRY_GENERATE

