#              Generated by Buildcell
#
# at 09:20:39 (GMT+0.0) 24th November 2020
# in /scratch/scratch/uccabz1/launch_tmp
# on node-a14e-013
# by uccabz1
#
# compiler GCC version 4.9.2
# options -cpp -iprefix /scratch/UCL/applications/gcc/4.9.2/bin/../lib/gcc/x86_64-unknown-linux-gnu/4.9.2/ -mtune=corei7 -march=x86-64 -g -O2
#
# seed  2116424888 -1630407905 -1215352585   594393836  -455135280  1060933821  1498695214  1938283003 -1486958579   226358721  1151928178  1051945879
#
#      Author: C. J. Pickard (cjp20@cam.ac.uk)
#                Space group: Pm
#

%BLOCK LATTICE_ABC
      4.04026      4.31912      9.24661
     90.00000     90.00000     97.43524
%ENDBLOCK LATTICE_ABC

%BLOCK POSITIONS_FRAC
  Li   0.4441953  -0.3452853  -0.5000000 SPIN=   0.00000
  Li   0.4543860   0.4358798   0.0000000 SPIN=   0.00000
   O  -0.6679675   0.0637037   0.3675243 SPIN=   0.00000
   O  -0.5746052   0.5929552   0.2304925 SPIN=   0.00000
   O  -0.0979972   0.4192814   0.3610013 SPIN=   0.00000
   O  -0.3107676   0.1401723   0.1354980 SPIN=   0.00000
   P  -0.4252145   0.2892984   0.2769984 SPIN=   0.00000
   O  -0.6679675   0.0637037  -0.3675243 SPIN=   0.00000
   O  -0.5746052   0.5929552  -0.2304925 SPIN=   0.00000
   O  -0.0979972   0.4192814  -0.3610013 SPIN=   0.00000
   O  -0.3107676   0.1401723  -0.1354980 SPIN=   0.00000
   P  -0.4252145   0.2892984  -0.2769984 SPIN=   0.00000
  Fe   0.0138479  -0.1611689  -0.2112415 SPIN=   4.00000
  Fe   0.0138479  -0.1611689   0.2112415 SPIN=   4.00000
%ENDBLOCK POSITIONS_FRAC

# Note: total spin =   8.00

KPOINTS_MP_SPACING 0.07

%BLOCK SPECIES_POT
QC5
%ENDBLOCK SPECIES_POT

%BLOCK HUBBARD_U
Fe d:4.0
%ENDBLOCK HUBBARD_U

SNAP_TO_SYMMETRY
SYMMETRY_GENERATE

