#              Generated by Buildcell
#
# at 14:18:29 (GMT+0.0) 24th November 2020
# in /scratch/scratch/uccabz1/launch_tmp
# on node-a14f-003
# by uccabz1
#
# compiler GCC version 4.9.2
# options -cpp -iprefix /scratch/UCL/applications/gcc/4.9.2/bin/../lib/gcc/x86_64-unknown-linux-gnu/4.9.2/ -mtune=corei7 -march=x86-64 -g -O2
#
# seed -1914132163   557984146 -1345606409 -1287827402  1491934208 -1928478049  1085457941  1893995747  1666877543  -654873141  2070444448   325039927
#
#      Author: C. J. Pickard (cjp20@cam.ac.uk)
#                Space group: Cm
#

%BLOCK LATTICE_ABC
      5.86013      6.06973      6.07021
    117.70790    116.51599     94.15773
%ENDBLOCK LATTICE_ABC

%BLOCK POSITIONS_FRAC
  Li  -0.0740177   0.1808406   0.0000000 SPIN=   0.00000
  Li   0.6939631  -0.3884164  -0.0000000 SPIN=   0.00000
   O   0.4753551   0.1782193   0.7270177 SPIN=   0.00000
   O   0.2216548   0.4946475   0.6495524 SPIN=   0.00000
   O   0.3230200   0.2168068   0.2774010 SPIN=   0.00000
   O  -0.0312197   0.0025430   0.3108263 SPIN=   0.00000
   P   0.2560649   0.2180647   0.5016269 SPIN=   0.00000
   O  -0.2516626  -0.5487983  -0.7270177 SPIN=   0.00000
   O  -0.4278976  -0.1549049  -0.6495524 SPIN=   0.00000
   O   0.0456190  -0.0605942  -0.2774010 SPIN=   0.00000
   O  -0.3420460  -0.3082834  -0.3108263 SPIN=   0.00000
   P  -0.2455621  -0.2835623  -0.5016269 SPIN=   0.00000
  Fe  -0.7075384  -0.2143258  -0.4283972 SPIN=   4.00000
  Fe  -0.2791412   0.2140714   0.4283972 SPIN=   4.00000
%ENDBLOCK POSITIONS_FRAC

# Note: total spin =   8.00

KPOINTS_MP_SPACING 0.07

%BLOCK SPECIES_POT
QC5
%ENDBLOCK SPECIES_POT

%BLOCK HUBBARD_U
Fe d:4.0
%ENDBLOCK HUBBARD_U

SNAP_TO_SYMMETRY
SYMMETRY_GENERATE

