#              Generated by Buildcell
#
# at 18:17:34 (GMT+0.0) 26th November 2020
# in /lustre/scratch/uccabz1/launch_tmp
# on node-c12d-024
# by uccabz1
#
# compiler GCC version 4.9.2
# options -cpp -iprefix /lustre/shared/ucl/apps/gcc/4.9.2/bin/../lib/gcc/x86_64-unknown-linux-gnu/4.9.2/ -mtune=corei7 -march=x86-64 -g -Og
#
# seed   141655988 -1988131786   455269026  -154442106  -610335301 -1898169963  -937489139  1825761901  -599824931 -1540488602  1391081716   973335954
#
#      Author: C. J. Pickard (cjp20@cam.ac.uk)
#                Space group: Pc
#

%BLOCK LATTICE_ABC
      4.87897      5.95129     11.18725
     90.00000     99.89711     90.00000
%ENDBLOCK LATTICE_ABC

%BLOCK POSITIONS_FRAC
  Li  -0.1889964   0.4407603  -0.2036731 SPIN=   0.00000
  Li   0.3110036  -0.4407603   0.2963269 SPIN=   0.00000
  Li  -0.6130594   0.0459873  -0.2858324 SPIN=   0.00000
  Li  -0.1130594  -0.0459873   0.2141676 SPIN=   0.00000
   O   0.1221229   0.3508035  -0.0334644 SPIN=   0.00000
   O   0.5568235   0.5595635  -0.0828600 SPIN=   0.00000
   O   0.5350320   0.1468645  -0.1059208 SPIN=   0.00000
   O   0.2188914   0.3889707  -0.2524079 SPIN=   0.00000
   P   0.3440024   0.3613019  -0.1157052 SPIN=   0.00000
   O   0.6221229  -0.3508035   0.4665356 SPIN=   0.00000
   O   1.0568235  -0.5595635   0.4171400 SPIN=   0.00000
   O   1.0350320  -0.1468645   0.3940792 SPIN=   0.00000
   O   0.7188914  -0.3889707   0.2475921 SPIN=   0.00000
   P   0.8440024  -0.3613019   0.3842948 SPIN=   0.00000
   O  -0.3931600  -0.2705099  -0.3185484 SPIN=   0.00000
   O   0.0780294  -0.2528546  -0.1698069 SPIN=   0.00000
   O   0.0719547  -0.1549855  -0.3848055 SPIN=   0.00000
   O  -0.1479383   0.1053333  -0.2529292 SPIN=   0.00000
   P  -0.1140981  -0.1470963  -0.2831565 SPIN=   0.00000
   O   0.1068400   0.2705099   0.1814516 SPIN=   0.00000
   O   0.5780294   0.2528546   0.3301931 SPIN=   0.00000
   O   0.5719547   0.1549855   0.1151945 SPIN=   0.00000
   O   0.3520617  -0.1053333   0.2470708 SPIN=   0.00000
   P   0.3859019   0.1470963   0.2168435 SPIN=   0.00000
  Fe   0.2345693  -0.0651316  -0.0146778 SPIN=   3.09185
  Fe   0.7345693   0.0651316   0.4853222 SPIN=   3.09185
  Fe  -0.7270677  -0.4547666  -0.4140282 SPIN=   4.90815
  Fe  -0.2270677   0.4547666   0.0859718 SPIN=   4.90815
%ENDBLOCK POSITIONS_FRAC

# Note: total spin =  16.00

KPOINTS_MP_SPACING 0.07

%BLOCK SPECIES_POT
QC5
%ENDBLOCK SPECIES_POT

%BLOCK HUBBARD_U
Fe d:4.0
%ENDBLOCK HUBBARD_U

SNAP_TO_SYMMETRY
SYMMETRY_GENERATE

