#              Generated by Buildcell
#
# at 07:19:00 (GMT+0.0) 24th November 2020
# in /lustre/scratch/uccabz1/launch_tmp
# on node-c12c-021
# by uccabz1
#
# compiler GCC version 4.9.2
# options -cpp -iprefix /lustre/shared/ucl/apps/gcc/4.9.2/bin/../lib/gcc/x86_64-unknown-linux-gnu/4.9.2/ -mtune=corei7 -march=x86-64 -g -Og
#
# seed -1036339936 -2097378312   467670483  -729061974 -1230990195 -1384264070 -1018862517  -830611219   174942401 -1206942995  1987856395  -980223298
#
#      Author: C. J. Pickard (cjp20@cam.ac.uk)
#                Space group: I222
#

%BLOCK LATTICE_ABC
      5.61655      5.94385      6.29992
    118.14730    116.47224     90.00000
%ENDBLOCK LATTICE_ABC

%BLOCK POSITIONS_FRAC
  Li  -0.5000000  -0.2514095  -0.0000000 SPIN=   0.00000
  Li   0.5000000   0.2514095   0.0000000 SPIN=   0.00000
   O   0.0934939   0.0565059  -0.3429294 SPIN=   0.00000
   O  -0.2506593   0.0732220  -0.1682710 SPIN=   0.00000
   O   0.4364233  -0.0565059   0.3429294 SPIN=   0.00000
   O  -0.0823883  -0.0732220   0.1682710 SPIN=   0.00000
   O  -0.4364233  -0.3994353  -0.3429294 SPIN=   0.00000
   O   0.0823883  -0.2414930  -0.1682710 SPIN=   0.00000
   O  -0.0934939   0.3994353   0.3429294 SPIN=   0.00000
   O   0.2506593   0.2414930   0.1682710 SPIN=   0.00000
   P  -0.2114328  -0.2114328  -0.4228656 SPIN=   0.00000
   P   0.2114328   0.2114328   0.4228656 SPIN=   0.00000
  Fe  -0.8017650  -0.3017650  -0.6035301 SPIN=   4.00000
  Fe   0.8017650   0.3017650   0.6035301 SPIN=   4.00000
%ENDBLOCK POSITIONS_FRAC

# Note: total spin =   8.00

KPOINTS_MP_SPACING 0.07

%BLOCK SPECIES_POT
QC5
%ENDBLOCK SPECIES_POT

%BLOCK HUBBARD_U
Fe d:4.0
%ENDBLOCK HUBBARD_U

SNAP_TO_SYMMETRY
SYMMETRY_GENERATE

