#              Generated by Buildcell
#
# at 06:14:19 (GMT+0.0) 24th November 2020
# in /lustre/scratch/uccabz1/launch_tmp
# on node-c12e-032
# by uccabz1
#
# compiler GCC version 4.9.2
# options -cpp -iprefix /lustre/shared/ucl/apps/gcc/4.9.2/bin/../lib/gcc/x86_64-unknown-linux-gnu/4.9.2/ -mtune=corei7 -march=x86-64 -g -Og
#
# seed -1733637248  1179352767  1690892832  2129946099 -2045585264  1927780394  -524944993  -400157333  -416693503 -1108631886 -1161388410 -1272707417
#
#      Author: C. J. Pickard (cjp20@cam.ac.uk)
#                Space group: P-1
#

%BLOCK LATTICE_ABC
      3.87530      6.74456      7.04278
     64.21999     86.54652     75.21916
%ENDBLOCK LATTICE_ABC

%BLOCK POSITIONS_FRAC
  Li  -0.0681157   0.0301311  -0.2187196 SPIN=   0.00000
  Li   0.0681157  -0.0301311   0.2187196 SPIN=   0.00000
   O  -0.6790180   0.4704863  -0.3437845 SPIN=   0.00000
   O  -0.6987835   0.3729073   0.0558725 SPIN=   0.00000
   O  -1.1428152   0.2747708  -0.1026459 SPIN=   0.00000
   P  -0.7482678   0.3002549  -0.1228251 SPIN=   0.00000
   O   0.6790180  -0.4704863   0.3437845 SPIN=   0.00000
   O   0.6987835  -0.3729073  -0.0558725 SPIN=   0.00000
   O   1.1428152  -0.2747708   0.1026459 SPIN=   0.00000
   P   0.7482678  -0.3002549   0.1228251 SPIN=   0.00000
   O   0.5000000   0.0000000  -0.0000000 SPIN=   0.00000
   O  -0.0000000  -0.0000000  -0.5000000 SPIN=   0.00000
  Fe  -0.3325447   0.6698825  -0.3679073 SPIN=   4.00000
  Fe   0.3325447  -0.6698825   0.3679073 SPIN=   4.00000
%ENDBLOCK POSITIONS_FRAC

# Note: total spin =   8.00

KPOINTS_MP_SPACING 0.07

%BLOCK SPECIES_POT
QC5
%ENDBLOCK SPECIES_POT

%BLOCK HUBBARD_U
Fe d:4.0
%ENDBLOCK HUBBARD_U

SNAP_TO_SYMMETRY
SYMMETRY_GENERATE

