#              Generated by Buildcell
#
# at 01:20:48 (GMT+0.0) 27th November 2020
# in /scratch/scratch/mmm0366/launch_tmp
# on node-k98n-029
# by mmm0366
#
# compiler GCC version 4.9.2
# options -cpp -iprefix /scratch/UCL/applications/gcc/4.9.2/bin/../lib/gcc/x86_64-unknown-linux-gnu/4.9.2/ -mtune=corei7 -march=x86-64 -g -O2
#
# seed   529756065 -2020871192   809646961  -490291323  2030842937   882411758  1926074165  1057106725 -1373477901  1891217497  1265954771 -1864419771
#
#      Author: C. J. Pickard (cjp20@cam.ac.uk)
#                Space group: P21
#

%BLOCK LATTICE_ABC
      5.31615      5.95135     10.13028
     90.00000     93.21382     90.00000
%ENDBLOCK LATTICE_ABC

%BLOCK POSITIONS_FRAC
  Li  -0.1860932  -0.1895196  -0.4201036 SPIN=   0.00000
  Li   0.1860932   0.3104804   0.4201036 SPIN=   0.00000
  Li  -0.4929445   0.3843755   0.0240331 SPIN=   0.00000
  Li   0.4929445  -0.1156245  -0.0240331 SPIN=   0.00000
   O   0.4890001  -0.1513155  -0.2692900 SPIN=   0.00000
   O   0.1525501  -0.0178017  -0.4481450 SPIN=   0.00000
   O   0.4681156  -0.2966469  -0.5114935 SPIN=   0.00000
   O   0.1318106  -0.4111339  -0.3615670 SPIN=   0.00000
   P   0.3177731  -0.2178734  -0.3903652 SPIN=   0.00000
   O  -0.4890001   0.3486845   0.2692900 SPIN=   0.00000
   O  -0.1525501   0.4821983   0.4481450 SPIN=   0.00000
   O  -0.4681156   0.2033531   0.5114935 SPIN=   0.00000
   O  -0.1318106   0.0888661   0.3615670 SPIN=   0.00000
   P  -0.3177731   0.2821266   0.3903652 SPIN=   0.00000
   O   0.0260101  -0.5936182   0.2335465 SPIN=   0.00000
   O  -0.2112960  -0.2701226   0.1074144 SPIN=   0.00000
   O   0.1551397  -0.1739250   0.2574540 SPIN=   0.00000
   O   0.2227131  -0.3742874   0.0449504 SPIN=   0.00000
   P   0.0490234  -0.3660520   0.1633449 SPIN=   0.00000
   O  -0.0260101  -0.0936182  -0.2335465 SPIN=   0.00000
   O   0.2112960   0.2298774  -0.1074144 SPIN=   0.00000
   O  -0.1551397   0.3260750  -0.2574540 SPIN=   0.00000
   O  -0.2227131   0.1257126  -0.0449504 SPIN=   0.00000
   P  -0.0490234   0.1339480  -0.1633449 SPIN=   0.00000
  Fe   0.0180341   0.1075159   0.1254143 SPIN=   4.14482
  Fe  -0.0180341  -0.3924841  -0.1254143 SPIN=   4.14482
  Fe  -0.4627770  -0.2867868   0.2868101 SPIN=   3.85518
  Fe   0.4627770   0.2132132  -0.2868101 SPIN=   3.85518
%ENDBLOCK POSITIONS_FRAC

# Note: total spin =  16.00

KPOINTS_MP_SPACING 0.07

%BLOCK SPECIES_POT
QC5
%ENDBLOCK SPECIES_POT

%BLOCK HUBBARD_U
Fe d:4.0
%ENDBLOCK HUBBARD_U

SNAP_TO_SYMMETRY
SYMMETRY_GENERATE

