#              Generated by Buildcell
#
# at 22:32:40 (GMT+0.0) 26th November 2020
# in /scratch/scratch/mmm0366/launch_tmp
# on node-k98p-014
# by mmm0366
#
# compiler GCC version 4.9.2
# options -cpp -iprefix /scratch/UCL/applications/gcc/4.9.2/bin/../lib/gcc/x86_64-unknown-linux-gnu/4.9.2/ -mtune=corei7 -march=x86-64 -g -O2
#
# seed -1816555903  1316933996 -2067352399  1375918033  1643210711 -1711919659   655469982     2065051   250531963  -425245698   301986904  -905468727
#
#      Author: C. J. Pickard (cjp20@cam.ac.uk)
#                Space group: P21/c
#

%BLOCK LATTICE_ABC
      5.45699      6.77201      8.96033
     90.00000     90.00000    104.89543
%ENDBLOCK LATTICE_ABC

%BLOCK POSITIONS_FRAC
  Li  -0.2247012   0.0783374  -0.4536014 SPIN=   0.00000
  Li   0.7247012   0.4216626   0.0463986 SPIN=   0.00000
  Li   0.2247012  -0.0783374   0.4536014 SPIN=   0.00000
  Li  -0.7247012  -0.4216626  -0.0463986 SPIN=   0.00000
   O  -0.2951354   0.0494402  -0.1080707 SPIN=   0.00000
   O  -0.3625796  -0.2868363   0.0441130 SPIN=   0.00000
   O  -0.4268250  -0.3112254  -0.2288104 SPIN=   0.00000
   O   0.0123238  -0.1827906  -0.1262780 SPIN=   0.00000
   P  -0.2661872  -0.1704838  -0.1051916 SPIN=   0.00000
   O  -0.2048646  -0.5494402   0.3919293 SPIN=   0.00000
   O  -0.1374204  -0.2131637   0.5441130 SPIN=   0.00000
   O  -0.0731750  -0.1887746   0.2711896 SPIN=   0.00000
   O  -0.5123238  -0.3172094   0.3737220 SPIN=   0.00000
   P  -0.2338128  -0.3295162   0.3948084 SPIN=   0.00000
   O   0.2951354  -0.0494402   0.1080707 SPIN=   0.00000
   O   0.3625796   0.2868363  -0.0441130 SPIN=   0.00000
   O   0.4268250   0.3112254   0.2288104 SPIN=   0.00000
   O  -0.0123238   0.1827906   0.1262780 SPIN=   0.00000
   P   0.2661872   0.1704838   0.1051916 SPIN=   0.00000
   O   0.2048646   0.5494402  -0.3919293 SPIN=   0.00000
   O   0.1374204   0.2131637  -0.5441130 SPIN=   0.00000
   O   0.0731750   0.1887746  -0.2711896 SPIN=   0.00000
   O   0.5123238   0.3172094  -0.3737220 SPIN=   0.00000
   P   0.2338128   0.3295162  -0.3948084 SPIN=   0.00000
  Fe   0.3413169   0.0377126  -0.1904515 SPIN=   4.00000
  Fe   0.1586831   0.4622874   0.3095485 SPIN=   4.00000
  Fe  -0.3413169  -0.0377126   0.1904515 SPIN=   4.00000
  Fe  -0.1586831  -0.4622874  -0.3095485 SPIN=   4.00000
%ENDBLOCK POSITIONS_FRAC

# Note: total spin =  16.00

KPOINTS_MP_SPACING 0.07

%BLOCK SPECIES_POT
QC5
%ENDBLOCK SPECIES_POT

%BLOCK HUBBARD_U
Fe d:4.0
%ENDBLOCK HUBBARD_U

SNAP_TO_SYMMETRY
SYMMETRY_GENERATE

