#              Generated by Buildcell
#
# at 19:53:56 (GMT+0.0) 26th November 2020
# in /lustre/scratch/uccabz1/launch_tmp
# on node-c12k-026
# by uccabz1
#
# compiler GCC version 4.9.2
# options -cpp -iprefix /lustre/shared/ucl/apps/gcc/4.9.2/bin/../lib/gcc/x86_64-unknown-linux-gnu/4.9.2/ -mtune=corei7 -march=x86-64 -g -Og
#
# seed -1137645260 -1714358722  1206538778  1230865361 -1858568858 -1313834078   621228229  1476264423  -656642751  1508571632 -1563232092 -1911650740
#
#      Author: C. J. Pickard (cjp20@cam.ac.uk)
#                Space group: Pmc21
#

%BLOCK LATTICE_ABC
      5.31347      6.54987      9.19474
     90.00000     90.00000     90.00000
%ENDBLOCK LATTICE_ABC

%BLOCK POSITIONS_FRAC
  Li  -0.1559956   0.4107212  -0.2271232 SPIN=   0.00000
  Li   0.1559956  -0.0892788   0.2271232 SPIN=   0.00000
  Li   0.1559956  -0.0892788  -0.2271232 SPIN=   0.00000
  Li  -0.1559956   0.4107212   0.2271232 SPIN=   0.00000
   O   0.5634438   0.2947627  -0.3661605 SPIN=   0.00000
   O   0.2351798   0.5118594  -0.2249553 SPIN=   0.00000
   O   0.0862180   0.2088606  -0.3597309 SPIN=   0.00000
   O   0.3437019   0.1623659  -0.1340142 SPIN=   0.00000
   P   0.3212145   0.2929193  -0.2746515 SPIN=   0.00000
   O  -0.5634438  -0.2052373   0.3661605 SPIN=   0.00000
   O  -0.2351798   0.0118594   0.2249553 SPIN=   0.00000
   O  -0.0862180  -0.2911394   0.3597309 SPIN=   0.00000
   O  -0.3437019  -0.3376341   0.1340142 SPIN=   0.00000
   P  -0.3212145  -0.2070807   0.2746515 SPIN=   0.00000
   O  -0.5634438  -0.2052373  -0.3661605 SPIN=   0.00000
   O  -0.2351798   0.0118594  -0.2249553 SPIN=   0.00000
   O  -0.0862180  -0.2911394  -0.3597309 SPIN=   0.00000
   O  -0.3437019  -0.3376341  -0.1340142 SPIN=   0.00000
   P  -0.3212145  -0.2070807  -0.2746515 SPIN=   0.00000
   O   0.5634438   0.2947627   0.3661605 SPIN=   0.00000
   O   0.2351798   0.5118594   0.2249553 SPIN=   0.00000
   O   0.0862180   0.2088606   0.3597309 SPIN=   0.00000
   O   0.3437019   0.1623659   0.1340142 SPIN=   0.00000
   P   0.3212145   0.2929193   0.2746515 SPIN=   0.00000
  Fe   0.2027692  -0.4184714   0.5000000 SPIN=   2.98379
  Fe  -0.2027692   0.0815286   0.5000000 SPIN=   2.98379
  Fe  -0.2997508   0.0368934   0.0000000 SPIN=   5.01621
  Fe   0.2997508  -0.4631066  -0.0000000 SPIN=   5.01621
%ENDBLOCK POSITIONS_FRAC

# Note: total spin =  16.00

KPOINTS_MP_SPACING 0.07

%BLOCK SPECIES_POT
QC5
%ENDBLOCK SPECIES_POT

%BLOCK HUBBARD_U
Fe d:4.0
%ENDBLOCK HUBBARD_U

SNAP_TO_SYMMETRY
SYMMETRY_GENERATE

