#              Generated by Buildcell
#
# at 20:19:26 (GMT+0.0) 26th November 2020
# in /lustre/scratch/uccabz1/launch_tmp
# on node-c12g-020
# by uccabz1
#
# compiler GCC version 4.9.2
# options -cpp -iprefix /lustre/shared/ucl/apps/gcc/4.9.2/bin/../lib/gcc/x86_64-unknown-linux-gnu/4.9.2/ -mtune=corei7 -march=x86-64 -g -Og
#
# seed  -285380805  1067801015 -1782365544   359062217  1854985673  2120332693   666096626  1377977054   651204234 -1147967356  -824683174 -1537412728
#
#      Author: C. J. Pickard (cjp20@cam.ac.uk)
#                Space group: P2/c
#

%BLOCK LATTICE_ABC
      4.66724      8.48275      8.79818
    113.26735     90.00000     90.00000
%ENDBLOCK LATTICE_ABC

%BLOCK POSITIONS_FRAC
  Li   0.2689360   0.1065944   0.4371033 SPIN=   0.00000
  Li   0.2689360  -0.1065944   0.0628967 SPIN=   0.00000
  Li  -0.2689360  -0.1065944  -0.4371033 SPIN=   0.00000
  Li  -0.2689360   0.1065944  -0.0628967 SPIN=   0.00000
   O   0.1106236  -0.1699489   0.2549826 SPIN=   0.00000
   O   0.5016479  -0.3272122   0.3524721 SPIN=   0.00000
   O   0.2887931  -0.0627321   0.5589678 SPIN=   0.00000
   O  -0.0062588  -0.3306869   0.4429060 SPIN=   0.00000
   P   0.2149669  -0.2211143   0.3949653 SPIN=   0.00000
   O   0.1106236   0.1699489   0.2450174 SPIN=   0.00000
   O   0.5016479   0.3272122   0.1475279 SPIN=   0.00000
   O   0.2887931   0.0627321  -0.0589678 SPIN=   0.00000
   O  -0.0062588   0.3306869   0.0570940 SPIN=   0.00000
   P   0.2149669   0.2211143   0.1050347 SPIN=   0.00000
   O  -0.1106236   0.1699489  -0.2549826 SPIN=   0.00000
   O  -0.5016479   0.3272122  -0.3524721 SPIN=   0.00000
   O  -0.2887931   0.0627321  -0.5589678 SPIN=   0.00000
   O   0.0062588   0.3306869  -0.4429060 SPIN=   0.00000
   P  -0.2149669   0.2211143  -0.3949653 SPIN=   0.00000
   O  -0.1106236  -0.1699489  -0.2450174 SPIN=   0.00000
   O  -0.5016479  -0.3272122  -0.1475279 SPIN=   0.00000
   O  -0.2887931  -0.0627321   0.0589678 SPIN=   0.00000
   O   0.0062588  -0.3306869  -0.0570940 SPIN=   0.00000
   P  -0.2149669  -0.2211143  -0.1050347 SPIN=   0.00000
  Fe   0.2423714  -0.3286434  -0.3411117 SPIN=   4.00000
  Fe   0.2423714   0.3286434  -0.1588883 SPIN=   4.00000
  Fe  -0.2423714   0.3286434   0.3411117 SPIN=   4.00000
  Fe  -0.2423714  -0.3286434   0.1588883 SPIN=   4.00000
%ENDBLOCK POSITIONS_FRAC

# Note: total spin =  16.00

KPOINTS_MP_SPACING 0.07

%BLOCK SPECIES_POT
QC5
%ENDBLOCK SPECIES_POT

%BLOCK HUBBARD_U
Fe d:4.0
%ENDBLOCK HUBBARD_U

SNAP_TO_SYMMETRY
SYMMETRY_GENERATE

