#              Generated by Buildcell
#
# at 14:32:24 (GMT+0.0) 26th November 2020
# in /scratch/scratch/uccabz1/launch_tmp
# on node-k10h-025
# by uccabz1
#
# compiler GCC version 4.9.2
# options -cpp -iprefix /scratch/UCL/applications/gcc/4.9.2/bin/../lib/gcc/x86_64-unknown-linux-gnu/4.9.2/ -mtune=corei7 -march=x86-64 -g -O2
#
# seed  1209377410  1166179462    -2089369   194124134  1003487646  1274398575    12217640     5490353  2002875160 -1029186258  -237636826 -1102947769
#
#      Author: C. J. Pickard (cjp20@cam.ac.uk)
#                Space group: P2/c
#

%BLOCK LATTICE_ABC
      5.85522      6.83822      8.05736
     90.00000     90.00000     97.29393
%ENDBLOCK LATTICE_ABC

%BLOCK POSITIONS_FRAC
  Li  -0.2569000  -0.2957318  -0.0027051 SPIN=   0.00000
  Li   0.2569000  -0.2042682  -0.0027051 SPIN=   0.00000
  Li   0.2569000   0.2957318   0.0027051 SPIN=   0.00000
  Li  -0.2569000   0.2042682   0.0027051 SPIN=   0.00000
   O   0.4768038   0.0170947  -0.1567511 SPIN=   0.00000
   O   0.0490644   0.0796982  -0.1383859 SPIN=   0.00000
   O   0.2885649   0.2381944  -0.3653928 SPIN=   0.00000
   O   0.1721254  -0.1270391  -0.3704222 SPIN=   0.00000
   P   0.2580154   0.0480165  -0.2536907 SPIN=   0.00000
   O  -0.4768038   0.4829053  -0.1567511 SPIN=   0.00000
   O  -0.0490644   0.4203018  -0.1383859 SPIN=   0.00000
   O  -0.2885649   0.2618056  -0.3653928 SPIN=   0.00000
   O  -0.1721254   0.6270391  -0.3704222 SPIN=   0.00000
   P  -0.2580154   0.4519835  -0.2536907 SPIN=   0.00000
   O  -0.4768038  -0.0170947   0.1567511 SPIN=   0.00000
   O  -0.0490644  -0.0796982   0.1383859 SPIN=   0.00000
   O  -0.2885649  -0.2381944   0.3653928 SPIN=   0.00000
   O  -0.1721254   0.1270391   0.3704222 SPIN=   0.00000
   P  -0.2580154  -0.0480165   0.2536907 SPIN=   0.00000
   O   0.4768038  -0.4829053   0.1567511 SPIN=   0.00000
   O   0.0490644  -0.4203018   0.1383859 SPIN=   0.00000
   O   0.2885649  -0.2618056   0.3653928 SPIN=   0.00000
   O   0.1721254  -0.6270391   0.3704222 SPIN=   0.00000
   P   0.2580154  -0.4519835   0.2536907 SPIN=   0.00000
  Fe  -0.2514168  -0.0373819  -0.3467611 SPIN=   4.00000
  Fe   0.2514168  -0.4626181  -0.3467611 SPIN=   4.00000
  Fe   0.2514168   0.0373819   0.3467611 SPIN=   4.00000
  Fe  -0.2514168   0.4626181   0.3467611 SPIN=   4.00000
%ENDBLOCK POSITIONS_FRAC

# Note: total spin =  16.00

KPOINTS_MP_SPACING 0.07

%BLOCK SPECIES_POT
QC5
%ENDBLOCK SPECIES_POT

%BLOCK HUBBARD_U
Fe d:4.0
%ENDBLOCK HUBBARD_U

SNAP_TO_SYMMETRY
SYMMETRY_GENERATE

