#              Generated by Buildcell
#
# at 19:01:52 (GMT+0.0) 26th November 2020
# in /scratch/scratch/uccabz1/launch_tmp
# on node-a14f-014
# by uccabz1
#
# compiler GCC version 4.9.2
# options -cpp -iprefix /scratch/UCL/applications/gcc/4.9.2/bin/../lib/gcc/x86_64-unknown-linux-gnu/4.9.2/ -mtune=corei7 -march=x86-64 -g -O2
#
# seed -1112841629   -56199708    12939298  -949123515    38559697 -1510532061  -375098288 -1300057074   -99038280  -700372035  -136115180   621481501
#
#      Author: C. J. Pickard (cjp20@cam.ac.uk)
#                Space group: P21
#

%BLOCK LATTICE_ABC
      4.51486      4.98809     15.06991
     90.00000     90.00000    109.45714
%ENDBLOCK LATTICE_ABC

%BLOCK POSITIONS_FRAC
  Li  -0.4540105   0.0820360   0.2942891 SPIN=   0.00000
  Li   0.4540105  -0.0820360  -0.2057109 SPIN=   0.00000
  Li   0.1332927   0.3026332   0.1779770 SPIN=   0.00000
  Li  -0.1332927  -0.3026332  -0.3220230 SPIN=   0.00000
   O  -0.3326444  -0.3352734   0.3969158 SPIN=   0.00000
   O   0.2349199   0.0266154   0.4023840 SPIN=   0.00000
   O  -0.1960719   0.1719550   0.4635277 SPIN=   0.00000
   O  -0.0264441  -0.1917954   0.5439127 SPIN=   0.00000
   P  -0.0928762  -0.0968977   0.4498572 SPIN=   0.00000
   O   0.3326444   0.3352734  -0.1030842 SPIN=   0.00000
   O  -0.2349199  -0.0266154  -0.0976160 SPIN=   0.00000
   O   0.1960719  -0.1719550  -0.0364723 SPIN=   0.00000
   O   0.0264441   0.1917954   0.0439127 SPIN=   0.00000
   P   0.0928762   0.0968977  -0.0501428 SPIN=   0.00000
   O   0.5345923   0.3193272  -0.2638234 SPIN=   0.00000
   O  -0.0210787   0.1408079  -0.3350261 SPIN=   0.00000
   O   0.0939878   0.5261820  -0.2239680 SPIN=   0.00000
   O   0.3464549   0.6256703  -0.3738703 SPIN=   0.00000
   P   0.2555292   0.4011696  -0.2981713 SPIN=   0.00000
   O  -0.5345923  -0.3193272   0.2361766 SPIN=   0.00000
   O   0.0210787  -0.1408079   0.1649739 SPIN=   0.00000
   O  -0.0939878  -0.5261820   0.2760320 SPIN=   0.00000
   O  -0.3464549  -0.6256703   0.1261297 SPIN=   0.00000
   P  -0.2555292  -0.4011696   0.2018287 SPIN=   0.00000
  Fe  -0.4883092   0.0896396  -0.4244770 SPIN=   3.73547
  Fe   0.4883092  -0.0896396   0.0755230 SPIN=   3.73547
  Fe   0.1775377   0.4845898   0.3986728 SPIN=   4.26453
  Fe  -0.1775377  -0.4845898  -0.1013272 SPIN=   4.26453
%ENDBLOCK POSITIONS_FRAC

# Note: total spin =  16.00

KPOINTS_MP_SPACING 0.07

%BLOCK SPECIES_POT
QC5
%ENDBLOCK SPECIES_POT

%BLOCK HUBBARD_U
Fe d:4.0
%ENDBLOCK HUBBARD_U

SNAP_TO_SYMMETRY
SYMMETRY_GENERATE

