#              Generated by Buildcell
#
# at 16:28:35 (GMT+0.0) 26th November 2020
# in /scratch/scratch/uccabz1/launch_tmp
# on node-k10h-025
# by uccabz1
#
# compiler GCC version 4.9.2
# options -cpp -iprefix /scratch/UCL/applications/gcc/4.9.2/bin/../lib/gcc/x86_64-unknown-linux-gnu/4.9.2/ -mtune=corei7 -march=x86-64 -g -O2
#
# seed  -249021678 -1012454200  -753094318 -1173057389  -518380558  1840910288 -1983699762 -1111948065   193529758  2060224742  1951598307    -2561840
#
#      Author: C. J. Pickard (cjp20@cam.ac.uk)
#                Space group: Pc
#

%BLOCK LATTICE_ABC
      5.08420      7.97581      8.03361
     90.00000     90.00000    100.79781
%ENDBLOCK LATTICE_ABC

%BLOCK POSITIONS_FRAC
  Li   0.1663385   0.0448660   0.4114026 SPIN=   0.00000
  Li  -0.3336615  -0.4551340  -0.4114026 SPIN=   0.00000
  Li  -0.1570010  -0.0550999   0.0966583 SPIN=   0.00000
  Li   0.3429990   0.4449001  -0.0966583 SPIN=   0.00000
   O   0.3518491   0.4219213  -0.6178485 SPIN=   0.00000
   O   0.2749455   0.5576223  -0.3321717 SPIN=   0.00000
   O  -0.0016142   0.6140300  -0.5710995 SPIN=   0.00000
   O  -0.0764362   0.3221433  -0.4442050 SPIN=   0.00000
   P   0.1460948   0.4740436  -0.4975114 SPIN=   0.00000
   O  -0.1481509  -0.0780787   0.6178485 SPIN=   0.00000
   O  -0.2250545   0.0576223   0.3321717 SPIN=   0.00000
   O  -0.5016142   0.1140300   0.5710995 SPIN=   0.00000
   O  -0.5764362  -0.1778567   0.4442050 SPIN=   0.00000
   P  -0.3539052  -0.0259564   0.4975114 SPIN=   0.00000
   O   0.2582772  -0.0593811   0.1318548 SPIN=   0.00000
   O   0.2573041   0.0796204  -0.1605677 SPIN=   0.00000
   O   0.2183544   0.2574300   0.0866735 SPIN=   0.00000
   O   0.6541992   0.1668075   0.0258215 SPIN=   0.00000
   P   0.3459328   0.1026981   0.0269084 SPIN=   0.00000
   O  -0.2417228  -0.5593811  -0.1318548 SPIN=   0.00000
   O  -0.2426959  -0.4203796   0.1605677 SPIN=   0.00000
   O  -0.2816456  -0.2425700  -0.0866735 SPIN=   0.00000
   O   0.1541992  -0.3331925  -0.0258215 SPIN=   0.00000
   P  -0.1540672  -0.3973019  -0.0269084 SPIN=   0.00000
  Fe   0.2039102  -0.2014006  -0.2612239 SPIN=   3.92259
  Fe  -0.2960898   0.2985994   0.2612239 SPIN=   3.92259
  Fe   0.2823735  -0.3029131   0.2226814 SPIN=   4.07741
  Fe  -0.2176265   0.1970869  -0.2226814 SPIN=   4.07741
%ENDBLOCK POSITIONS_FRAC

# Note: total spin =  16.00

KPOINTS_MP_SPACING 0.07

%BLOCK SPECIES_POT
QC5
%ENDBLOCK SPECIES_POT

%BLOCK HUBBARD_U
Fe d:4.0
%ENDBLOCK HUBBARD_U

SNAP_TO_SYMMETRY
SYMMETRY_GENERATE

