#              Generated by Buildcell
#
# at 12:10:01 (GMT+0.0) 24th November 2020
# in /scratch/scratch/uccabz1/launch_tmp
# on node-k10c-005
# by uccabz1
#
# compiler GCC version 4.9.2
# options -cpp -iprefix /scratch/UCL/applications/gcc/4.9.2/bin/../lib/gcc/x86_64-unknown-linux-gnu/4.9.2/ -mtune=corei7 -march=x86-64 -g -O2
#
# seed -1045328052  1284796724 -1564835677  1614992882 -2089041595  -976922925  -465596914  1111199410  1573416143  1205417505  -126954073 -1318682345
#
#      Author: C. J. Pickard (cjp20@cam.ac.uk)
#                Space group: P2
#

%BLOCK LATTICE_ABC
      4.69817      5.64062      6.31579
    107.06875     90.00000     90.00000
%ENDBLOCK LATTICE_ABC

%BLOCK POSITIONS_FRAC
  Li   0.0508534  -0.0927665  -0.2835315 SPIN=   0.00000
  Li   0.0508534   0.0927665   0.2835315 SPIN=   0.00000
   O  -0.5029423  -0.0750322  -0.2853495 SPIN=   0.00000
   O  -0.1487464   0.2493263  -0.3523415 SPIN=   0.00000
   O  -0.6446586   0.3798396  -0.2514771 SPIN=   0.00000
   O  -0.3208308   0.2952911   0.0329435 SPIN=   0.00000
   P  -0.4085620   0.1980329  -0.2149373 SPIN=   0.00000
   O  -0.5029423   0.0750322   0.2853495 SPIN=   0.00000
   O  -0.1487464  -0.2493263   0.3523415 SPIN=   0.00000
   O  -0.6446586  -0.3798396   0.2514771 SPIN=   0.00000
   O  -0.3208308  -0.2952911  -0.0329435 SPIN=   0.00000
   P  -0.4085620  -0.1980329   0.2149373 SPIN=   0.00000
  Fe   0.0540583   0.5000000   0.0000000 SPIN=   6.17677
  Fe  -0.4491107   0.5000000  -0.5000000 SPIN=   1.82323
%ENDBLOCK POSITIONS_FRAC

# Note: total spin =   8.00

KPOINTS_MP_SPACING 0.07

%BLOCK SPECIES_POT
QC5
%ENDBLOCK SPECIES_POT

%BLOCK HUBBARD_U
Fe d:4.0
%ENDBLOCK HUBBARD_U

SNAP_TO_SYMMETRY
SYMMETRY_GENERATE

