#              Generated by Buildcell
#
# at 15:34:14 (GMT+0.0) 26th November 2020
# in /lustre/scratch/uccabz1/launch_tmp
# on node-c12l-021
# by uccabz1
#
# compiler GCC version 4.9.2
# options -cpp -iprefix /lustre/shared/ucl/apps/gcc/4.9.2/bin/../lib/gcc/x86_64-unknown-linux-gnu/4.9.2/ -mtune=corei7 -march=x86-64 -g -Og
#
# seed  2093531149   778673972 -1719604597   883917686   732050913 -1533285920  2088502806  -961576172  -448587954 -1566842880 -1823722963  1264857109
#
#      Author: C. J. Pickard (cjp20@cam.ac.uk)
#                Space group: P2
#

%BLOCK LATTICE_ABC
      6.27978      6.41584      7.95807
     90.00000     93.59632     90.00000
%ENDBLOCK LATTICE_ABC

%BLOCK POSITIONS_FRAC
  Li  -0.2752878  -0.4037240  -0.2562512 SPIN=   0.00000
  Li   0.2752878  -0.4037240   0.2562512 SPIN=   0.00000
  Li   0.5000000  -0.1563311   0.0000000 SPIN=   0.00000
  Li   0.0000000  -0.1674939   0.0000000 SPIN=   0.00000
   O  -0.0810565  -0.1540149   0.2512638 SPIN=   0.00000
   O  -0.4917777  -0.1149987   0.2619672 SPIN=   0.00000
   O  -0.2860877  -0.2454201   0.5151198 SPIN=   0.00000
   O  -0.2515829   0.1285930   0.4309608 SPIN=   0.00000
   P  -0.2668525  -0.0968688   0.3595616 SPIN=   0.00000
   O   0.0810565  -0.1540149  -0.2512638 SPIN=   0.00000
   O   0.4917777  -0.1149987  -0.2619672 SPIN=   0.00000
   O   0.2860877  -0.2454201  -0.5151198 SPIN=   0.00000
   O   0.2515829   0.1285930  -0.4309608 SPIN=   0.00000
   P   0.2668525  -0.0968688  -0.3595616 SPIN=   0.00000
   O  -0.2489500   0.0430157  -0.0550041 SPIN=   0.00000
   O  -0.0403868   0.2245817   0.1965161 SPIN=   0.00000
   O  -0.2167382   0.4452271  -0.0252847 SPIN=   0.00000
   O  -0.4391835   0.2481148   0.1712830 SPIN=   0.00000
   O   0.2489500   0.0430157   0.0550041 SPIN=   0.00000
   O   0.0403868   0.2245817  -0.1965161 SPIN=   0.00000
   O   0.2167382   0.4452271   0.0252847 SPIN=   0.00000
   O   0.4391835   0.2481148  -0.1712830 SPIN=   0.00000
   P  -0.0000000   0.2510913   0.0000000 SPIN=   0.00000
   P  -0.5000000   0.3946721   0.5000000 SPIN=   0.00000
  Fe   0.2447926   0.0958630   0.3112041 SPIN=   5.39171
  Fe  -0.2447926   0.0958630  -0.3112041 SPIN=   5.39171
  Fe   0.2262354   0.4875206  -0.2368224 SPIN=   2.60829
  Fe  -0.2262354   0.4875206   0.2368224 SPIN=   2.60829
%ENDBLOCK POSITIONS_FRAC

# Note: total spin =  16.00

KPOINTS_MP_SPACING 0.07

%BLOCK SPECIES_POT
QC5
%ENDBLOCK SPECIES_POT

%BLOCK HUBBARD_U
Fe d:4.0
%ENDBLOCK HUBBARD_U

SNAP_TO_SYMMETRY
SYMMETRY_GENERATE

