#              Generated by Buildcell
#
# at 12:26:17 (GMT+0.0) 24th November 2020
# in /lustre/scratch/uccabz1/launch_tmp
# on node-c12d-022
# by uccabz1
#
# compiler GCC version 4.9.2
# options -cpp -iprefix /lustre/shared/ucl/apps/gcc/4.9.2/bin/../lib/gcc/x86_64-unknown-linux-gnu/4.9.2/ -mtune=corei7 -march=x86-64 -g -Og
#
# seed  1744147586   398186882  1715193485  -237326711  1433923040  -970840731  -907302808  -309712652  1178596469  2145871678  1206409295   556470151
#
#      Author: C. J. Pickard (cjp20@cam.ac.uk)
#                Space group: C2
#

%BLOCK LATTICE_ABC
      5.07477      5.07477      6.71120
     92.43464     92.43464    111.81203
%ENDBLOCK LATTICE_ABC

%BLOCK POSITIONS_FRAC
  Li   0.1906828   0.3675525  -0.1390314 SPIN=   0.00000
  Li  -0.3675525  -0.1906828   0.1390314 SPIN=   0.00000
   O   0.4237332   0.4734818   0.3185030 SPIN=   0.00000
   O   0.5844945   0.0537563   0.3860496 SPIN=   0.00000
   O   0.0768826  -0.0551013   0.2940195 SPIN=   0.00000
   O   0.4351980   0.1162084   0.0363867 SPIN=   0.00000
   P   0.3830521   0.1641009   0.2592978 SPIN=   0.00000
   O  -0.4734818  -0.4237332  -0.3185030 SPIN=   0.00000
   O  -0.0537563  -0.5844945  -0.3860496 SPIN=   0.00000
   O   0.0551013  -0.0768826  -0.2940195 SPIN=   0.00000
   O  -0.1162084  -0.4351980  -0.0363867 SPIN=   0.00000
   P  -0.1641009  -0.3830521  -0.2592978 SPIN=   0.00000
  Fe  -0.4606507  -0.0062312  -0.3084996 SPIN=   4.00000
  Fe   0.0062312   0.4606507   0.3084996 SPIN=   4.00000
%ENDBLOCK POSITIONS_FRAC

# Note: total spin =   8.00

KPOINTS_MP_SPACING 0.07

%BLOCK SPECIES_POT
QC5
%ENDBLOCK SPECIES_POT

%BLOCK HUBBARD_U
Fe d:4.0
%ENDBLOCK HUBBARD_U

SNAP_TO_SYMMETRY
SYMMETRY_GENERATE

