#              Generated by Buildcell
#
# at 10:46:29 (GMT+0.0) 24th November 2020
# in /scratch/scratch/uccabz1/launch_tmp
# on node-k10i-025
# by uccabz1
#
# compiler GCC version 4.9.2
# options -cpp -iprefix /scratch/UCL/applications/gcc/4.9.2/bin/../lib/gcc/x86_64-unknown-linux-gnu/4.9.2/ -mtune=corei7 -march=x86-64 -g -O2
#
# seed   -86926293  1520676269 -1557257791  -847234923  -855619959  1013998761 -1173686443   320016397   380551331  2103553960  1959868792  1603027327
#
#      Author: C. J. Pickard (cjp20@cam.ac.uk)
#                Space group: Cm
#

%BLOCK LATTICE_ABC
      5.62977      5.62977      6.41687
    115.65060    115.82895     90.57286
%ENDBLOCK LATTICE_ABC

%BLOCK POSITIONS_FRAC
  Li  -0.1924304   0.3847475   0.1923172 SPIN=   0.00000
  Li   0.2085551   0.0515412   0.2600963 SPIN=   0.00000
   O  -0.1533982  -0.2030498   0.1564367 SPIN=   0.00000
   O  -0.1077324  -0.6836349  -0.1156523 SPIN=   0.00000
   O  -0.4617905  -0.5006363  -0.3524666 SPIN=   0.00000
   P  -0.1699628  -0.4085694  -0.1064931 SPIN=   0.00000
   O   0.3594864   0.3098348   0.1564367 SPIN=   0.00000
   O   0.5679825  -0.0079199  -0.1156523 SPIN=   0.00000
   O   0.1481697   0.1093239  -0.3524666 SPIN=   0.00000
   P   0.3020762   0.0634697  -0.1064931 SPIN=   0.00000
   O  -0.0339464  -0.3672783  -0.4012247 SPIN=   0.00000
   O   0.4539265  -0.2249720   0.2289545 SPIN=   0.00000
  Fe   0.2936688  -0.4711333  -0.1774645 SPIN=   5.56482
  Fe  -0.2774496  -0.0965101  -0.3739597 SPIN=   2.43518
%ENDBLOCK POSITIONS_FRAC

# Note: total spin =   8.00

KPOINTS_MP_SPACING 0.07

%BLOCK SPECIES_POT
QC5
%ENDBLOCK SPECIES_POT

%BLOCK HUBBARD_U
Fe d:4.0
%ENDBLOCK HUBBARD_U

SNAP_TO_SYMMETRY
SYMMETRY_GENERATE

