#              Generated by Buildcell
#
# at 22:23:29 (GMT+0.0) 26th November 2020
# in /lustre/scratch/uccabz1/launch_tmp
# on node-c12c-023
# by uccabz1
#
# compiler GCC version 4.9.2
# options -cpp -iprefix /lustre/shared/ucl/apps/gcc/4.9.2/bin/../lib/gcc/x86_64-unknown-linux-gnu/4.9.2/ -mtune=corei7 -march=x86-64 -g -Og
#
# seed   157387961  -673393243  -356491195  1221262125 -1805030747 -1262210111  -832763238 -1290607002  -497546274   996863471 -1811922631  1464096977
#
#      Author: C. J. Pickard (cjp20@cam.ac.uk)
#                Space group: C2
#

%BLOCK LATTICE_ABC
      6.60288      7.66984      7.66984
     61.53018     72.55780     72.55780
%ENDBLOCK LATTICE_ABC

%BLOCK POSITIONS_FRAC
  Li   0.7451595   0.0293608  -0.4653650 SPIN=   0.00000
  Li  -0.7451595   0.4653650  -0.0293608 SPIN=   0.00000
  Li   0.6552893  -0.5036675   0.0610727 SPIN=   0.00000
  Li  -0.6552893   0.9389273  -0.4963325 SPIN=   0.00000
   O  -0.3387103   0.7855527  -0.5567346 SPIN=   0.00000
   O  -0.4195268   0.4690855  -0.2236599 SPIN=   0.00000
   O  -0.0492228   0.5401380  -0.3387772 SPIN=   0.00000
   O  -0.3483708   0.7636066  -0.2077487 SPIN=   0.00000
   P  -0.2923080   0.6488306  -0.3422474 SPIN=   0.00000
   O   0.3387103  -0.4432654   0.2144473 SPIN=   0.00000
   O   0.4195268  -0.7763401   0.5309145 SPIN=   0.00000
   O   0.0492228  -0.6612228   0.4598620 SPIN=   0.00000
   O   0.3483708  -0.7922513   0.2363934 SPIN=   0.00000
   P   0.2923080  -0.6577526   0.3511694 SPIN=   0.00000
   O  -0.1364720  -0.3382631   0.0547295 SPIN=   0.00000
   O  -0.1648851   0.0295330  -0.2250109 SPIN=   0.00000
   O   0.1509307  -0.1183016  -0.0567282 SPIN=   0.00000
   O   0.1185764  -0.2436703  -0.2930321 SPIN=   0.00000
   P  -0.0133117  -0.1776552  -0.1220978 SPIN=   0.00000
   O   0.1364720  -0.0547295   0.3382631 SPIN=   0.00000
   O   0.1648851   0.2250109  -0.0295330 SPIN=   0.00000
   O  -0.1509307   0.0567282   0.1183016 SPIN=   0.00000
   O  -0.1185764   0.2930321   0.2436703 SPIN=   0.00000
   P   0.0133117   0.1220978   0.1776552 SPIN=   0.00000
  Fe  -0.0000000  -0.2809330   0.2809330 SPIN=   3.36961
  Fe   0.5000000   0.4741890  -0.4741890 SPIN=   2.63288
  Fe   0.5000000  -0.0269102   0.0269102 SPIN=   3.33850
  Fe   0.0000000   0.2258774  -0.2258774 SPIN=   6.65901
%ENDBLOCK POSITIONS_FRAC

# Note: total spin =  16.00

KPOINTS_MP_SPACING 0.07

%BLOCK SPECIES_POT
QC5
%ENDBLOCK SPECIES_POT

%BLOCK HUBBARD_U
Fe d:4.0
%ENDBLOCK HUBBARD_U

SNAP_TO_SYMMETRY
SYMMETRY_GENERATE

