#              Generated by Buildcell
#
# at 09:53:41 (GMT+0.0) 24th November 2020
# in /lustre/scratch/uccabz1/launch_tmp
# on node-c12f-022
# by uccabz1
#
# compiler GCC version 4.9.2
# options -cpp -iprefix /lustre/shared/ucl/apps/gcc/4.9.2/bin/../lib/gcc/x86_64-unknown-linux-gnu/4.9.2/ -mtune=corei7 -march=x86-64 -g -Og
#
# seed   824968874   467982605 -1512080943 -1382888494  -649995624  -968721732   690277929 -2018044964   349043862  1822094336  -912090346 -1912985874
#
#      Author: C. J. Pickard (cjp20@cam.ac.uk)
#                Space group: Cm
#

%BLOCK LATTICE_ABC
      4.94808      5.84664      5.84664
    102.11006     99.14805     99.14805
%ENDBLOCK LATTICE_ABC

%BLOCK POSITIONS_FRAC
  Li  -0.4018469  -0.0920635  -0.4262553 SPIN=   0.00000
  Li  -0.4018469  -0.4262553  -0.0920635 SPIN=   0.00000
   O  -0.2249915  -0.2932226   0.2736338 SPIN=   0.00000
   O   0.2984486  -0.1735841   0.2556469 SPIN=   0.00000
   O   0.0536738   0.1441316   0.4111278 SPIN=   0.00000
   P   0.0576504  -0.1272499   0.3948799 SPIN=   0.00000
   O  -0.2249915   0.2736338  -0.2932226 SPIN=   0.00000
   O   0.2984486   0.2556469  -0.1735841 SPIN=   0.00000
   O   0.0536738   0.4111278   0.1441316 SPIN=   0.00000
   P   0.0576504   0.3948799  -0.1272499 SPIN=   0.00000
   O  -0.2953848  -0.0523212  -0.0523212 SPIN=   0.00000
   O   0.0984696  -0.3393798  -0.3393798 SPIN=   0.00000
  Fe  -0.1977300   0.3994528   0.3994528 SPIN=   6.03919
  Fe   0.1782606  -0.0448573  -0.0448573 SPIN=   1.96081
%ENDBLOCK POSITIONS_FRAC

# Note: total spin =   8.00

KPOINTS_MP_SPACING 0.07

%BLOCK SPECIES_POT
QC5
%ENDBLOCK SPECIES_POT

%BLOCK HUBBARD_U
Fe d:4.0
%ENDBLOCK HUBBARD_U

SNAP_TO_SYMMETRY
SYMMETRY_GENERATE

