#              Generated by Buildcell
#
# at 06:11:29 (GMT+0.0) 24th November 2020
# in /scratch/scratch/uccabz1/launch_tmp
# on node-a14a-024
# by uccabz1
#
# compiler GCC version 4.9.2
# options -cpp -iprefix /scratch/UCL/applications/gcc/4.9.2/bin/../lib/gcc/x86_64-unknown-linux-gnu/4.9.2/ -mtune=corei7 -march=x86-64 -g -O2
#
# seed  -872465026 -1028110088  -981874492   898996191  -630883150   -19044806 -1532039741  -121743979 -1980147127  1056997441   686372559 -1295918680
#
#      Author: C. J. Pickard (cjp20@cam.ac.uk)
#                Space group: Pmc21
#

%BLOCK LATTICE_ABC
      5.27422      5.33302      5.68838
     90.00000     90.00000     90.00000
%ENDBLOCK LATTICE_ABC

%BLOCK POSITIONS_FRAC
  Li  -0.5000000  -0.2783705  -0.2600071 SPIN=   0.00000
  Li   0.5000000   0.2783705   0.2399929 SPIN=   0.00000
   O   0.2587043  -0.4643680   0.5007728 SPIN=   0.00000
   O   0.2644824  -0.0391773   0.2779022 SPIN=   0.00000
   O  -0.2587043   0.4643680   0.0007728 SPIN=   0.00000
   O  -0.2644824   0.0391773  -0.2220978 SPIN=   0.00000
   O   0.2587043   0.4643680   0.0007728 SPIN=   0.00000
   O   0.2644824   0.0391773  -0.2220978 SPIN=   0.00000
   O  -0.2587043  -0.4643680   0.5007728 SPIN=   0.00000
   O  -0.2644824  -0.0391773   0.2779022 SPIN=   0.00000
   P  -0.5000000   0.2218799  -0.2269981 SPIN=   0.00000
   P  -0.5000000  -0.2218799   0.2730019 SPIN=   0.00000
  Fe  -0.0000000  -0.2500912   0.0853943 SPIN=   4.00000
  Fe   0.0000000   0.2500912  -0.4146057 SPIN=   4.00000
%ENDBLOCK POSITIONS_FRAC

# Note: total spin =   8.00

KPOINTS_MP_SPACING 0.07

%BLOCK SPECIES_POT
QC5
%ENDBLOCK SPECIES_POT

%BLOCK HUBBARD_U
Fe d:4.0
%ENDBLOCK HUBBARD_U

SNAP_TO_SYMMETRY
SYMMETRY_GENERATE

