#              Generated by Buildcell
#
# at 17:13:13 (GMT+0.0) 26th November 2020
# in /lustre/scratch/uccabz1/launch_tmp
# on node-c12e-023
# by uccabz1
#
# compiler GCC version 4.9.2
# options -cpp -iprefix /lustre/shared/ucl/apps/gcc/4.9.2/bin/../lib/gcc/x86_64-unknown-linux-gnu/4.9.2/ -mtune=corei7 -march=x86-64 -g -Og
#
# seed  1055501161  1273801617  -966393245  -304851540 -1838177732 -1965234128  1561433882  1483660565 -1629400712 -1587473430 -1766500334 -1895995100
#
#      Author: C. J. Pickard (cjp20@cam.ac.uk)
#                Space group: P21
#

%BLOCK LATTICE_ABC
      6.05725      6.92597      8.00282
     90.00000     90.00000    107.61208
%ENDBLOCK LATTICE_ABC

%BLOCK POSITIONS_FRAC
  Li  -0.3367696  -0.1230658  -0.3866717 SPIN=   0.00000
  Li   0.3367696   0.1230658   0.1133283 SPIN=   0.00000
  Li  -0.4929347   0.4840911  -0.1880266 SPIN=   0.00000
  Li   0.4929347  -0.4840911   0.3119734 SPIN=   0.00000
   O  -0.4048681   0.2097485  -0.3470911 SPIN=   0.00000
   O  -0.0142225   0.4133464  -0.2112615 SPIN=   0.00000
   O  -0.3464591   0.2560783  -0.0263039 SPIN=   0.00000
   O  -0.1535194   0.0360070  -0.1795909 SPIN=   0.00000
   P  -0.2381907   0.2255058  -0.1992343 SPIN=   0.00000
   O   0.4048681  -0.2097485   0.1529089 SPIN=   0.00000
   O   0.0142225  -0.4133464   0.2887385 SPIN=   0.00000
   O   0.3464591  -0.2560783   0.4736961 SPIN=   0.00000
   O   0.1535194  -0.0360070   0.3204091 SPIN=   0.00000
   P   0.2381907  -0.2255058   0.3007657 SPIN=   0.00000
   O  -0.0154628   0.2356964   0.4910330 SPIN=   0.00000
   O  -0.2677519  -0.0956419   0.3501856 SPIN=   0.00000
   O  -0.3845849   0.2144281   0.3175072 SPIN=   0.00000
   O  -0.0299458   0.1874349   0.1707508 SPIN=   0.00000
   P  -0.1642666   0.1414285   0.3389100 SPIN=   0.00000
   O   0.0154628  -0.2356964  -0.0089670 SPIN=   0.00000
   O   0.2677519   0.0956419  -0.1498144 SPIN=   0.00000
   O   0.3845849  -0.2144281  -0.1824928 SPIN=   0.00000
   O   0.0299458  -0.1874349  -0.3292492 SPIN=   0.00000
   P   0.1642666  -0.1414285  -0.1610900 SPIN=   0.00000
  Fe   0.0564139   0.4711278   0.0505435 SPIN=   3.73360
  Fe  -0.0564139  -0.4711278  -0.4494565 SPIN=   3.73360
  Fe  -0.2617350  -0.1130596   0.0482272 SPIN=   4.26640
  Fe   0.2617350   0.1130596  -0.4517728 SPIN=   4.26640
%ENDBLOCK POSITIONS_FRAC

# Note: total spin =  16.00

KPOINTS_MP_SPACING 0.07

%BLOCK SPECIES_POT
QC5
%ENDBLOCK SPECIES_POT

%BLOCK HUBBARD_U
Fe d:4.0
%ENDBLOCK HUBBARD_U

SNAP_TO_SYMMETRY
SYMMETRY_GENERATE

