#              Generated by Buildcell
#
# at 09:50:04 (GMT+0.0) 24th November 2020
# in /lustre/scratch/uccabz1/launch_tmp
# on node-c12j-029
# by uccabz1
#
# compiler GCC version 4.9.2
# options -cpp -iprefix /lustre/shared/ucl/apps/gcc/4.9.2/bin/../lib/gcc/x86_64-unknown-linux-gnu/4.9.2/ -mtune=corei7 -march=x86-64 -g -Og
#
# seed    35019454  1566065733   181789950 -1953080082  1965195455 -1102612329  -170136666  1480513711  -892637524   529924749  1928735924   707123265
#
#      Author: C. J. Pickard (cjp20@cam.ac.uk)
#                Space group: Cc
#

%BLOCK LATTICE_ABC
      5.40273      5.45542      6.59185
    112.95997    112.69714     93.31717
%ENDBLOCK LATTICE_ABC

%BLOCK POSITIONS_FRAC
  Li   0.3908665  -0.7312265  -0.2396777 SPIN=   0.00000
  Li   0.1305442   0.5084512   0.2396777 SPIN=   0.00000
   O   0.4850639  -0.4374094  -0.4490566 SPIN=   0.00000
   O   0.3353059  -0.3346810  -0.0998788 SPIN=   0.00000
   O   0.6332872   0.0442753  -0.0786581 SPIN=   0.00000
   O   0.1388832  -0.1391760  -0.3975917 SPIN=   0.00000
   P   0.3997041  -0.2275815  -0.2682273 SPIN=   0.00000
   O   0.4341205   0.0116472   0.4490566 SPIN=   0.00000
   O  -0.0648153  -0.2348022   0.0998788 SPIN=   0.00000
   O   0.2119453   0.1229334   0.0786581 SPIN=   0.00000
   O   0.0364750   0.2584157   0.3975917 SPIN=   0.00000
   P   0.1679314   0.0406458   0.2682273 SPIN=   0.00000
  Fe  -0.3418340  -0.1375875   0.2533962 SPIN=   4.00000
  Fe  -0.0952302  -0.3909837  -0.2533962 SPIN=   4.00000
%ENDBLOCK POSITIONS_FRAC

# Note: total spin =   8.00

KPOINTS_MP_SPACING 0.07

%BLOCK SPECIES_POT
QC5
%ENDBLOCK SPECIES_POT

%BLOCK HUBBARD_U
Fe d:4.0
%ENDBLOCK HUBBARD_U

SNAP_TO_SYMMETRY
SYMMETRY_GENERATE

