#              Generated by Buildcell
#
# at 08:55:28 (GMT+0.0) 24th November 2020
# in /scratch/scratch/uccabz1/launch_tmp
# on node-a14b-028
# by uccabz1
#
# compiler GCC version 4.9.2
# options -cpp -iprefix /scratch/UCL/applications/gcc/4.9.2/bin/../lib/gcc/x86_64-unknown-linux-gnu/4.9.2/ -mtune=corei7 -march=x86-64 -g -O2
#
# seed  1341248900 -1120495696  1028221895   619466223 -1989555262 -1480266661  1319089981 -1110652385   445434370  -168191827 -2142765765 -1682435077
#
#      Author: C. J. Pickard (cjp20@cam.ac.uk)
#                Space group: Pcc2
#

%BLOCK LATTICE_ABC
      3.92058      5.19377      7.85754
     90.00000     90.00000     90.00000
%ENDBLOCK LATTICE_ABC

%BLOCK POSITIONS_FRAC
  Li   0.5000000   0.0000000  -0.0599073 SPIN=   0.00000
  Li   0.5000000   0.0000000   0.4400927 SPIN=   0.00000
   O   0.4135355   0.2698158   0.6362962 SPIN=   0.00000
   O   0.0740482   0.2311174   0.3534889 SPIN=   0.00000
   O  -0.4135355  -0.2698158   0.6362962 SPIN=   0.00000
   O  -0.0740482  -0.2311174   0.3534889 SPIN=   0.00000
   O   0.4135355  -0.2698158   0.1362962 SPIN=   0.00000
   O   0.0740482  -0.2311174  -0.1465111 SPIN=   0.00000
   O  -0.4135355   0.2698158   0.1362962 SPIN=   0.00000
   O  -0.0740482   0.2311174  -0.1465111 SPIN=   0.00000
   P  -0.0000000   0.0000000   0.2054845 SPIN=   0.00000
   P   0.0000000  -0.0000000  -0.2945155 SPIN=   0.00000
  Fe   0.0000000   0.5000000   0.0496389 SPIN=   4.00000
  Fe   0.0000000  -0.5000000  -0.4503611 SPIN=   4.00000
%ENDBLOCK POSITIONS_FRAC

# Note: total spin =   8.00

KPOINTS_MP_SPACING 0.07

%BLOCK SPECIES_POT
QC5
%ENDBLOCK SPECIES_POT

%BLOCK HUBBARD_U
Fe d:4.0
%ENDBLOCK HUBBARD_U

SNAP_TO_SYMMETRY
SYMMETRY_GENERATE

