#              Generated by Buildcell
#
# at 13:00:49 (GMT+0.0) 24th November 2020
# in /scratch/scratch/uccabz1/launch_tmp
# on node-a14a-004
# by uccabz1
#
# compiler GCC version 4.9.2
# options -cpp -iprefix /scratch/UCL/applications/gcc/4.9.2/bin/../lib/gcc/x86_64-unknown-linux-gnu/4.9.2/ -mtune=corei7 -march=x86-64 -g -O2
#
# seed  1367810743 -1124262202  -547638907  1739591548    14488586  1639956878   847284357  2051272484  1736338118 -1607154412  1605073707  -795676614
#
#      Author: C. J. Pickard (cjp20@cam.ac.uk)
#                Space group: C2
#

%BLOCK LATTICE_ABC
      4.87641      4.87641      7.69325
     93.49620     93.49620    118.25594
%ENDBLOCK LATTICE_ABC

%BLOCK POSITIONS_FRAC
  Li   0.1118296   0.8881704   0.5000000 SPIN=   0.00000
  Li   0.0782973  -0.0782973   0.0000000 SPIN=   0.00000
   O  -0.5850208  -0.1647720  -0.1285814 SPIN=   0.00000
   O  -0.2123456  -0.3157068  -0.2866476 SPIN=   0.00000
   O  -0.6988245  -0.7393849  -0.1972569 SPIN=   0.00000
   P  -0.5598141  -0.4017110  -0.2589838 SPIN=   0.00000
   O   0.1647720   0.5850208   0.1285814 SPIN=   0.00000
   O   0.3157068   0.2123456   0.2866476 SPIN=   0.00000
   O   0.7393849   0.6988245   0.1972569 SPIN=   0.00000
   P   0.4017110   0.5598141   0.2589838 SPIN=   0.00000
   O  -0.1396699  -0.8603301  -0.5000000 SPIN=   0.00000
   O   0.3638144   0.6361856   0.5000000 SPIN=   0.00000
  Fe   0.7410211   0.2193449   0.2490383 SPIN=   4.00000
  Fe  -0.2193449  -0.7410211  -0.2490383 SPIN=   4.00000
%ENDBLOCK POSITIONS_FRAC

# Note: total spin =   8.00

KPOINTS_MP_SPACING 0.07

%BLOCK SPECIES_POT
QC5
%ENDBLOCK SPECIES_POT

%BLOCK HUBBARD_U
Fe d:4.0
%ENDBLOCK HUBBARD_U

SNAP_TO_SYMMETRY
SYMMETRY_GENERATE

