#              Generated by Buildcell
#
# at 07:30:16 (GMT+0.0) 26th November 2020
# in /lustre/scratch/uccabz1/launch_tmp
# on node-c12g-036
# by uccabz1
#
# compiler GCC version 4.9.2
# options -cpp -iprefix /lustre/shared/ucl/apps/gcc/4.9.2/bin/../lib/gcc/x86_64-unknown-linux-gnu/4.9.2/ -mtune=corei7 -march=x86-64 -g -Og
#
# seed  -980373500   708338373  1102870529  -116862721  1395742966  1143419344  1323564941  -857356356  -396799473 -1607624047 -1850280009  1500319916
#
#      Author: C. J. Pickard (cjp20@cam.ac.uk)
#                Space group: P21212
#

%BLOCK LATTICE_ABC
      6.07495      6.45413      8.16148
     90.00000     90.00000     90.00000
%ENDBLOCK LATTICE_ABC

%BLOCK POSITIONS_FRAC
  Li   0.2499991  -0.4983889  -0.0010854 SPIN=   0.00000
  Li  -0.2499991   0.4983889  -0.0010854 SPIN=   0.00000
  Li   0.2500009   0.0016111   0.0010854 SPIN=   0.00000
  Li  -0.2500009  -0.0016111   0.0010854 SPIN=   0.00000
   O  -0.4781846   0.2993555  -0.1182032 SPIN=   0.00000
   O  -0.4909847   0.2046143  -0.4274471 SPIN=   0.00000
   O  -0.1875418   0.4267517  -0.3288782 SPIN=   0.00000
   O  -0.1957442   0.0515924  -0.2507561 SPIN=   0.00000
   P  -0.3438918   0.2461526  -0.2722753 SPIN=   0.00000
   O   0.4781846  -0.2993555  -0.1182032 SPIN=   0.00000
   O   0.4909847  -0.2046143  -0.4274471 SPIN=   0.00000
   O   0.1875418  -0.4267517  -0.3288782 SPIN=   0.00000
   O   0.1957442  -0.0515924  -0.2507561 SPIN=   0.00000
   P   0.3438918  -0.2461526  -0.2722753 SPIN=   0.00000
   O  -0.0218154  -0.2006445   0.1182032 SPIN=   0.00000
   O  -0.0090153  -0.2953857   0.4274471 SPIN=   0.00000
   O  -0.3124582  -0.0732483   0.3288782 SPIN=   0.00000
   O  -0.3042558  -0.4484076   0.2507561 SPIN=   0.00000
   P  -0.1561082  -0.2538474   0.2722753 SPIN=   0.00000
   O   0.0218154   0.2006445   0.1182032 SPIN=   0.00000
   O   0.0090153   0.2953857   0.4274471 SPIN=   0.00000
   O   0.3124582   0.0732483   0.3288782 SPIN=   0.00000
   O   0.3042558   0.4484076   0.2507561 SPIN=   0.00000
   P   0.1561082   0.2538474   0.2722753 SPIN=   0.00000
  Fe  -0.3168992   0.2507438   0.3495460 SPIN=   4.00000
  Fe   0.3168992  -0.2507438   0.3495460 SPIN=   4.00000
  Fe  -0.1831008  -0.2492562  -0.3495460 SPIN=   4.00000
  Fe   0.1831008   0.2492562  -0.3495460 SPIN=   4.00000
%ENDBLOCK POSITIONS_FRAC

# Note: total spin =  16.00

KPOINTS_MP_SPACING 0.07

%BLOCK SPECIES_POT
QC5
%ENDBLOCK SPECIES_POT

%BLOCK HUBBARD_U
Fe d:4.0
%ENDBLOCK HUBBARD_U

SNAP_TO_SYMMETRY
SYMMETRY_GENERATE

