#              Generated by Buildcell
#
# at 08:40:04 (GMT+0.0) 24th November 2020
# in /scratch/scratch/uccabz1/launch_tmp
# on node-a14f-015
# by uccabz1
#
# compiler GCC version 4.9.2
# options -cpp -iprefix /scratch/UCL/applications/gcc/4.9.2/bin/../lib/gcc/x86_64-unknown-linux-gnu/4.9.2/ -mtune=corei7 -march=x86-64 -g -O2
#
# seed -1632981116 -1576675191  -391461190  -774289561   276351364  2046847768   215614471 -1096382635 -1666265657 -1093113943   412676478 -1122061928
#
#      Author: C. J. Pickard (cjp20@cam.ac.uk)
#                Space group: Pmn21
#

%BLOCK LATTICE_ABC
      5.16033      5.41216      5.72891
     90.00000     90.00000     90.00000
%ENDBLOCK LATTICE_ABC

%BLOCK POSITIONS_FRAC
  Li  -0.0846029  -0.0000000  -0.0477897 SPIN=   0.00000
  Li   0.0846029   0.5000000   0.4522103 SPIN=   0.00000
   O  -0.2244904  -0.2291064   0.5957783 SPIN=   0.00000
   O  -0.2944719  -0.2709408   0.1484214 SPIN=   0.00000
   O   0.2244904  -0.2708936   0.0957783 SPIN=   0.00000
   O   0.2944719  -0.2290592  -0.3515786 SPIN=   0.00000
   O   0.2244904   0.2708936   0.0957783 SPIN=   0.00000
   O   0.2944719   0.2290592  -0.3515786 SPIN=   0.00000
   O  -0.2244904   0.2291064   0.5957783 SPIN=   0.00000
   O  -0.2944719   0.2709408   0.1484214 SPIN=   0.00000
   P   0.4111156  -0.0000000  -0.1880827 SPIN=   0.00000
   P  -0.4111156   0.5000000   0.3119173 SPIN=   0.00000
  Fe   0.4149858   0.0000000   0.3121447 SPIN=   4.00000
  Fe  -0.4149858   0.5000000  -0.1878553 SPIN=   4.00000
%ENDBLOCK POSITIONS_FRAC

# Note: total spin =   8.00

KPOINTS_MP_SPACING 0.07

%BLOCK SPECIES_POT
QC5
%ENDBLOCK SPECIES_POT

%BLOCK HUBBARD_U
Fe d:4.0
%ENDBLOCK HUBBARD_U

SNAP_TO_SYMMETRY
SYMMETRY_GENERATE

