#              Generated by Buildcell
#
# at 07:40:12 (GMT+0.0) 24th November 2020
# in /scratch/scratch/uccabz1/launch_tmp
# on node-k10c-017
# by uccabz1
#
# compiler GCC version 4.9.2
# options -cpp -iprefix /scratch/UCL/applications/gcc/4.9.2/bin/../lib/gcc/x86_64-unknown-linux-gnu/4.9.2/ -mtune=corei7 -march=x86-64 -g -O2
#
# seed  1854458541  1822903775  1708600126   767603883   504919912    20582992 -1172047102   282800180  1040513358 -1937191213 -1909622337  -960087251
#
#      Author: C. J. Pickard (cjp20@cam.ac.uk)
#                Space group: P21212
#

%BLOCK LATTICE_ABC
      3.89799      5.67264      7.23592
     90.00000     90.00000     90.00000
%ENDBLOCK LATTICE_ABC

%BLOCK POSITIONS_FRAC
  Li  -0.0000000   0.0000000   0.4003332 SPIN=   0.00000
  Li  -0.5000000   0.5000000  -0.4003332 SPIN=   0.00000
   O   0.2128166  -0.1876808   0.1617064 SPIN=   0.00000
   O   0.7280113  -0.3183290   0.3651808 SPIN=   0.00000
   O  -0.2128166   0.1876808   0.1617064 SPIN=   0.00000
   O  -0.7280113   0.3183290   0.3651808 SPIN=   0.00000
   O   0.2871834   0.3123192  -0.1617064 SPIN=   0.00000
   O  -0.2280113   0.1816710  -0.3651808 SPIN=   0.00000
   O  -0.2871834  -0.3123192  -0.1617064 SPIN=   0.00000
   O   0.2280113  -0.1816710  -0.3651808 SPIN=   0.00000
   P  -0.5000000  -0.0000000   0.1455178 SPIN=   0.00000
   P  -0.0000000   0.5000000  -0.1455178 SPIN=   0.00000
  Fe  -0.0000000  -0.0000000  -0.1441860 SPIN=   4.00000
  Fe  -0.5000000   0.5000000   0.1441860 SPIN=   4.00000
%ENDBLOCK POSITIONS_FRAC

# Note: total spin =   8.00

KPOINTS_MP_SPACING 0.07

%BLOCK SPECIES_POT
QC5
%ENDBLOCK SPECIES_POT

%BLOCK HUBBARD_U
Fe d:4.0
%ENDBLOCK HUBBARD_U

SNAP_TO_SYMMETRY
SYMMETRY_GENERATE

