#              Generated by Buildcell
#
# at 15:01:33 (GMT+0.0) 26th November 2020
# in /lustre/scratch/uccabz1/launch_tmp
# on node-c12n-021
# by uccabz1
#
# compiler GCC version 4.9.2
# options -cpp -iprefix /lustre/shared/ucl/apps/gcc/4.9.2/bin/../lib/gcc/x86_64-unknown-linux-gnu/4.9.2/ -mtune=corei7 -march=x86-64 -g -Og
#
# seed   492178119  1805671516  -222307027  -724428125  1794049319 -1825552283  -230251188  2137679726  1960392195  -208716351   544748050  -313728793
#
#      Author: C. J. Pickard (cjp20@cam.ac.uk)
#                Space group: Cc
#

%BLOCK LATTICE_ABC
      5.67478      7.64302      7.64302
     78.11840     82.68203     82.68203
%ENDBLOCK LATTICE_ABC

%BLOCK POSITIONS_FRAC
  Li   0.3365850  -0.3294263   0.4294285 SPIN=   0.00000
  Li  -0.1634150   0.4294285  -0.3294263 SPIN=   0.00000
  Li  -0.3937860   0.2911259   0.3991031 SPIN=   0.00000
  Li   0.1062140   0.3991031   0.2911259 SPIN=   0.00000
   O  -0.0022309  -0.2306854   0.2751674 SPIN=   0.00000
   O   0.3718348  -0.3896116   0.1162837 SPIN=   0.00000
   O   0.0570165  -0.2255976  -0.0684946 SPIN=   0.00000
   O   0.3140395  -0.0532036   0.0625530 SPIN=   0.00000
   P   0.1767080  -0.2230646   0.1054979 SPIN=   0.00000
   O  -0.5022309   0.2751674  -0.2306854 SPIN=   0.00000
   O  -0.1281652   0.1162837  -0.3896116 SPIN=   0.00000
   O  -0.4429835  -0.0684946  -0.2255976 SPIN=   0.00000
   O  -0.1859605   0.0625530  -0.0532036 SPIN=   0.00000
   P  -0.3232920   0.1054979  -0.2230646 SPIN=   0.00000
   O   0.2630355   0.2277269   0.5078440 SPIN=   0.00000
   O   0.5065919   0.0170272   0.3077935 SPIN=   0.00000
   O   0.2412958  -0.1173555   0.5694038 SPIN=   0.00000
   O   0.0629694   0.0750709   0.3020787 SPIN=   0.00000
   P   0.2657585   0.0603361   0.4249498 SPIN=   0.00000
   O  -0.2369645   0.5078440   0.2277269 SPIN=   0.00000
   O   0.0065919   0.3077935   0.0170272 SPIN=   0.00000
   O  -0.2587042   0.5694038  -0.1173555 SPIN=   0.00000
   O  -0.4370306   0.3020787   0.0750709 SPIN=   0.00000
   P  -0.2342415   0.4249498   0.0603361 SPIN=   0.00000
  Fe  -0.3171150  -0.2030574   0.0627427 SPIN=   4.06695
  Fe   0.1828850   0.0627427  -0.2030574 SPIN=   4.06695
  Fe  -0.2241204  -0.1366660  -0.4659324 SPIN=   3.93305
  Fe   0.2758796  -0.4659324  -0.1366660 SPIN=   3.93305
%ENDBLOCK POSITIONS_FRAC

# Note: total spin =  16.00

KPOINTS_MP_SPACING 0.07

%BLOCK SPECIES_POT
QC5
%ENDBLOCK SPECIES_POT

%BLOCK HUBBARD_U
Fe d:4.0
%ENDBLOCK HUBBARD_U

SNAP_TO_SYMMETRY
SYMMETRY_GENERATE

