#              Generated by Buildcell
#
# at 23:35:58 (GMT+0.0) 26th November 2020
# in /lustre/scratch/uccabz1/launch_tmp
# on node-c12e-030
# by uccabz1
#
# compiler GCC version 4.9.2
# options -cpp -iprefix /lustre/shared/ucl/apps/gcc/4.9.2/bin/../lib/gcc/x86_64-unknown-linux-gnu/4.9.2/ -mtune=corei7 -march=x86-64 -g -Og
#
# seed  1146386919   207398374   491000515  1289244916  1593635568 -1715312046 -1368794895  -931519355   658709867 -1032892103  1912201293 -1360788233
#
#      Author: C. J. Pickard (cjp20@cam.ac.uk)
#                Space group: Pc
#

%BLOCK LATTICE_ABC
      4.39513      8.30449      9.65788
    114.79892     90.00000     90.00000
%ENDBLOCK LATTICE_ABC

%BLOCK POSITIONS_FRAC
  Li   0.1142751   0.4490548  -0.4316537 SPIN=   0.00000
  Li  -0.1142751  -0.0509452   0.0683463 SPIN=   0.00000
  Li   0.0220941   0.3681666   0.0251262 SPIN=   0.00000
  Li  -0.0220941  -0.1318334  -0.4748738 SPIN=   0.00000
   O   0.5007411   0.2705339   0.3156347 SPIN=   0.00000
   O   0.4601983   0.2606240   0.0437955 SPIN=   0.00000
   O   0.3615968  -0.0146879   0.0756918 SPIN=   0.00000
   O  -0.0140351   0.2347008   0.1767656 SPIN=   0.00000
   P   0.3323434   0.1927519   0.1619137 SPIN=   0.00000
   O  -0.5007411  -0.2294661  -0.1843653 SPIN=   0.00000
   O  -0.4601983  -0.2393760  -0.4562045 SPIN=   0.00000
   O  -0.3615968  -0.5146879  -0.4243082 SPIN=   0.00000
   O   0.0140351  -0.2652992  -0.3232344 SPIN=   0.00000
   P  -0.3323434  -0.3072481  -0.3380863 SPIN=   0.00000
   O   0.1727874  -0.3088614   0.0422942 SPIN=   0.00000
   O  -0.1804703  -0.1046246   0.2612359 SPIN=   0.00000
   O  -0.1038303  -0.4134378   0.2278632 SPIN=   0.00000
   O   0.3239961  -0.1954498   0.3259992 SPIN=   0.00000
   P   0.0626890  -0.2577199   0.2065047 SPIN=   0.00000
   O  -0.1727874   0.1911386  -0.4577058 SPIN=   0.00000
   O   0.1804703   0.3953754  -0.2387641 SPIN=   0.00000
   O   0.1038303   0.0865622  -0.2721368 SPIN=   0.00000
   O  -0.3239961   0.3045502  -0.1740008 SPIN=   0.00000
   P  -0.0626890   0.2422801  -0.2934953 SPIN=   0.00000
  Fe  -0.4780423   0.0620071  -0.1776426 SPIN=   4.63428
  Fe   0.4780423  -0.4379929   0.3223574 SPIN=   4.63428
  Fe  -0.4719094  -0.4336037  -0.1106333 SPIN=   3.36572
  Fe   0.4719094   0.0663963   0.3893667 SPIN=   3.36572
%ENDBLOCK POSITIONS_FRAC

# Note: total spin =  16.00

KPOINTS_MP_SPACING 0.07

%BLOCK SPECIES_POT
QC5
%ENDBLOCK SPECIES_POT

%BLOCK HUBBARD_U
Fe d:4.0
%ENDBLOCK HUBBARD_U

SNAP_TO_SYMMETRY
SYMMETRY_GENERATE

