#              Generated by Buildcell
#
# at 13:31:49 (GMT+0.0) 24th November 2020
# in /lustre/scratch/uccabz1/launch_tmp
# on node-c12n-026
# by uccabz1
#
# compiler GCC version 4.9.2
# options -cpp -iprefix /lustre/shared/ucl/apps/gcc/4.9.2/bin/../lib/gcc/x86_64-unknown-linux-gnu/4.9.2/ -mtune=corei7 -march=x86-64 -g -Og
#
# seed   951147063 -1957192422  -427728387  2017077241 -1076528434 -1130844700  -992887660  -292807208  1032871190 -2041012140 -1732558293  1497731618
#
#      Author: C. J. Pickard (cjp20@cam.ac.uk)
#                Space group: C2
#

%BLOCK LATTICE_ABC
      4.79195      4.79195      7.78410
    103.02618    103.25387    105.15556
%ENDBLOCK LATTICE_ABC

%BLOCK POSITIONS_FRAC
  Li  -0.2529447   0.7447204   0.4563535 SPIN=   0.00000
  Li   0.2883669  -0.7092982  -0.4563535 SPIN=   0.00000
   O   0.1538115   0.8423123   0.3611096 SPIN=   0.00000
   O   0.2756710   0.4111284   0.1550195 SPIN=   0.00000
   O  -0.0799703   0.2726882   0.3306942 SPIN=   0.00000
   O  -0.2420482   0.4575335   0.0601980 SPIN=   0.00000
   P   0.0304518   0.5139066   0.2319434 SPIN=   0.00000
   O   0.4812027  -0.2072982  -0.3611096 SPIN=   0.00000
   O   0.2561090   0.1206516  -0.1550195 SPIN=   0.00000
   O  -0.0580060  -0.4106646  -0.3306942 SPIN=   0.00000
   O   0.3973355  -0.3022462  -0.0601980 SPIN=   0.00000
   P   0.2819631  -0.2014917  -0.2319434 SPIN=   0.00000
  Fe  -0.1042897   0.2936856  -0.1660797 SPIN=   4.00000
  Fe   0.4597653   0.0617901   0.1660797 SPIN=   4.00000
%ENDBLOCK POSITIONS_FRAC

# Note: total spin =   8.00

KPOINTS_MP_SPACING 0.07

%BLOCK SPECIES_POT
QC5
%ENDBLOCK SPECIES_POT

%BLOCK HUBBARD_U
Fe d:4.0
%ENDBLOCK HUBBARD_U

SNAP_TO_SYMMETRY
SYMMETRY_GENERATE

