#              Generated by Buildcell
#
# at 10:23:18 (GMT+0.0) 24th November 2020
# in /scratch/scratch/uccabz1/launch_tmp
# on node-k10e-028
# by uccabz1
#
# compiler GCC version 4.9.2
# options -cpp -iprefix /scratch/UCL/applications/gcc/4.9.2/bin/../lib/gcc/x86_64-unknown-linux-gnu/4.9.2/ -mtune=corei7 -march=x86-64 -g -O2
#
# seed    83109225  -850615279  1739356041  1512981836  -771806595  1632103148 -2052393586  -288038420   228009553 -1327818344 -1176965081  2111781440
#
#      Author: C. J. Pickard (cjp20@cam.ac.uk)
#                Space group: P21
#

%BLOCK LATTICE_ABC
      3.91987      4.76056      8.57938
     92.00120     90.00000     90.00000
%ENDBLOCK LATTICE_ABC

%BLOCK POSITIONS_FRAC
  Li   0.0694334   0.2352768  -0.0352682 SPIN=   0.00000
  Li  -0.4305666  -0.2352768   0.0352682 SPIN=   0.00000
   O   0.0173912  -0.0054921  -0.2517467 SPIN=   0.00000
   O  -0.3759685   0.4273782  -0.2011515 SPIN=   0.00000
   O   0.0301259   0.4363390  -0.4210560 SPIN=   0.00000
   O  -0.4754392   0.1150565  -0.4377376 SPIN=   0.00000
   P  -0.1925849   0.2285587  -0.3251629 SPIN=   0.00000
   O   0.5173912   0.0054921   0.2517467 SPIN=   0.00000
   O   0.1240315  -0.4273782   0.2011515 SPIN=   0.00000
   O   0.5301259  -0.4363390   0.4210560 SPIN=   0.00000
   O   0.0245608  -0.1150565   0.4377376 SPIN=   0.00000
   P   0.3074151  -0.2285587   0.3251629 SPIN=   0.00000
  Fe   0.4002038  -0.2725578  -0.3428715 SPIN=   4.00000
  Fe  -0.0997962   0.2725578   0.3428715 SPIN=   4.00000
%ENDBLOCK POSITIONS_FRAC

# Note: total spin =   8.00

KPOINTS_MP_SPACING 0.07

%BLOCK SPECIES_POT
QC5
%ENDBLOCK SPECIES_POT

%BLOCK HUBBARD_U
Fe d:4.0
%ENDBLOCK HUBBARD_U

SNAP_TO_SYMMETRY
SYMMETRY_GENERATE

