#              Generated by Buildcell
#
# at 22:42:02 (GMT+0.0) 26th November 2020
# in /lustre/scratch/uccabz1/launch_tmp
# on node-c12f-021
# by uccabz1
#
# compiler GCC version 4.9.2
# options -cpp -iprefix /lustre/shared/ucl/apps/gcc/4.9.2/bin/../lib/gcc/x86_64-unknown-linux-gnu/4.9.2/ -mtune=corei7 -march=x86-64 -g -Og
#
# seed -1077643563 -1555432418 -1229395193 -1542124336 -1491029885  1599449515   130524207 -1138637240   256551856 -1635018890  1952115460  -126465196
#
#      Author: C. J. Pickard (cjp20@cam.ac.uk)
#                Space group: P21
#

%BLOCK LATTICE_ABC
      5.29148      6.57653      9.38925
     90.00000     90.00000    101.65959
%ENDBLOCK LATTICE_ABC

%BLOCK POSITIONS_FRAC
  Li   0.1671287  -0.1692034   0.2972488 SPIN=   0.00000
  Li  -0.1671287   0.1692034  -0.2027512 SPIN=   0.00000
  Li  -0.3046152  -0.4593862   0.4178280 SPIN=   0.00000
  Li   0.3046152   0.4593862  -0.0821720 SPIN=   0.00000
   O  -0.5361736  -0.2293545   0.4309312 SPIN=   0.00000
   O  -0.3538318   0.1682308   0.4262915 SPIN=   0.00000
   O  -0.0492632  -0.0667522   0.4613969 SPIN=   0.00000
   O  -0.2569121  -0.0505833   0.2231018 SPIN=   0.00000
   P  -0.3111739  -0.0545217   0.3859374 SPIN=   0.00000
   O   0.5361736   0.2293545  -0.0690688 SPIN=   0.00000
   O   0.3538318  -0.1682308  -0.0737085 SPIN=   0.00000
   O   0.0492632   0.0667522  -0.0386031 SPIN=   0.00000
   O   0.2569121   0.0505833  -0.2768982 SPIN=   0.00000
   P   0.3111739   0.0545217  -0.1140626 SPIN=   0.00000
   O  -0.2186454  -0.1820772  -0.2780140 SPIN=   0.00000
   O  -0.4053459  -0.5539267  -0.3714778 SPIN=   0.00000
   O   0.0573186  -0.4075521  -0.4103362 SPIN=   0.00000
   O  -0.1016932  -0.5084029  -0.1640005 SPIN=   0.00000
   P  -0.1690647  -0.4018208  -0.3027940 SPIN=   0.00000
   O   0.2186454   0.1820772   0.2219860 SPIN=   0.00000
   O   0.4053459   0.5539267   0.1285222 SPIN=   0.00000
   O  -0.0573186   0.4075521   0.0896638 SPIN=   0.00000
   O   0.1016932   0.5084029   0.3359995 SPIN=   0.00000
   P   0.1690647   0.4018208   0.1972060 SPIN=   0.00000
  Fe  -0.1220585  -0.2485195  -0.0159355 SPIN=   3.09775
  Fe   0.1220585   0.2485195   0.4840645 SPIN=   3.09775
  Fe  -0.4004339   0.2060498   0.1505485 SPIN=   4.90225
  Fe   0.4004339  -0.2060498  -0.3494515 SPIN=   4.90225
%ENDBLOCK POSITIONS_FRAC

# Note: total spin =  16.00

KPOINTS_MP_SPACING 0.07

%BLOCK SPECIES_POT
QC5
%ENDBLOCK SPECIES_POT

%BLOCK HUBBARD_U
Fe d:4.0
%ENDBLOCK HUBBARD_U

SNAP_TO_SYMMETRY
SYMMETRY_GENERATE

