#              Generated by Buildcell
#
# at 18:14:12 (GMT+0.0) 26th November 2020
# in /lustre/scratch/uccabz1/launch_tmp
# on node-c12k-032
# by uccabz1
#
# compiler GCC version 4.9.2
# options -cpp -iprefix /lustre/shared/ucl/apps/gcc/4.9.2/bin/../lib/gcc/x86_64-unknown-linux-gnu/4.9.2/ -mtune=corei7 -march=x86-64 -g -Og
#
# seed  1878765136   600513992  -443221818   790521885  1282411571  1290696278   850704834   953780726  1321496260 -1867429397  1463945351   648053102
#
#      Author: C. J. Pickard (cjp20@cam.ac.uk)
#                Space group: Cc
#

%BLOCK LATTICE_ABC
      5.21656      6.75543     10.38456
     73.88399     75.45329     67.28788
%ENDBLOCK LATTICE_ABC

%BLOCK POSITIONS_FRAC
  Li   0.1762673  -0.3267712   0.0054063 SPIN=   0.00000
  Li   0.1450976   0.1732288  -0.4945937 SPIN=   0.00000
  Li  -0.2191570  -0.0921306  -0.1932075 SPIN=   0.00000
  Li  -0.4955050   0.4078694   0.3067925 SPIN=   0.00000
   O  -0.1740862   0.2151450  -0.2863865 SPIN=   0.00000
   O  -0.4777155   0.0681910  -0.3736453 SPIN=   0.00000
   O  -0.6792587   0.4488201  -0.3379170 SPIN=   0.00000
   O  -0.2863586   0.3524672  -0.5309146 SPIN=   0.00000
   P  -0.3907016   0.2691330  -0.3788682 SPIN=   0.00000
   O  -0.7546722  -0.2848550   0.2136135 SPIN=   0.00000
   O  -0.2168302  -0.4318090   0.1263547 SPIN=   0.00000
   O  -0.4316445  -0.0511799   0.1620830 SPIN=   0.00000
   O  -0.5351940  -0.1475328  -0.0309146 SPIN=   0.00000
   P  -0.4995632  -0.2308670   0.1211318 SPIN=   0.00000
   O   0.0324947  -0.3911926   0.4802825 SPIN=   0.00000
   O   0.4514324  -0.2512981   0.4387136 SPIN=   0.00000
   O   0.0014579   0.0108690   0.3690845 SPIN=   0.00000
   O   0.0357014  -0.1253833   0.6165150 SPIN=   0.00000
   P   0.1239495  -0.1992499   0.4780255 SPIN=   0.00000
   O  -0.1215847   0.1088074  -0.0197175 SPIN=   0.00000
   O  -0.6388479   0.2487019  -0.0612864 SPIN=   0.00000
   O  -0.3814114   0.5108690  -0.1309155 SPIN=   0.00000
   O  -0.5268331   0.3746167   0.1165150 SPIN=   0.00000
   P  -0.4027250   0.3007501  -0.0219745 SPIN=   0.00000
  Fe   0.1233298   0.2347127  -0.1909700 SPIN=   2.68951
  Fe  -0.1670725  -0.2652873   0.3090300 SPIN=   2.68951
  Fe   0.4588907  -0.3106948  -0.3168580 SPIN=   5.31049
  Fe   0.1686622   0.1893052   0.1831420 SPIN=   5.31049
%ENDBLOCK POSITIONS_FRAC

# Note: total spin =  16.00

KPOINTS_MP_SPACING 0.07

%BLOCK SPECIES_POT
QC5
%ENDBLOCK SPECIES_POT

%BLOCK HUBBARD_U
Fe d:4.0
%ENDBLOCK HUBBARD_U

SNAP_TO_SYMMETRY
SYMMETRY_GENERATE

