#              Generated by Buildcell
#
# at 12:04:08 (GMT+0.0) 24th November 2020
# in /scratch/scratch/uccabz1/launch_tmp
# on node-a14b-007
# by uccabz1
#
# compiler GCC version 4.9.2
# options -cpp -iprefix /scratch/UCL/applications/gcc/4.9.2/bin/../lib/gcc/x86_64-unknown-linux-gnu/4.9.2/ -mtune=corei7 -march=x86-64 -g -O2
#
# seed -2092418194  1640985266 -1500295995  2102645833   492889383  1960622929   599543564   585720836  -145181804   336495000   372566154   171150300
#
#      Author: C. J. Pickard (cjp20@cam.ac.uk)
#                Space group: Pnc2
#

%BLOCK LATTICE_ABC
      4.35667      4.66837      7.86682
     90.00000     90.00000     90.00000
%ENDBLOCK LATTICE_ABC

%BLOCK POSITIONS_FRAC
  Li  -0.5000000  -0.5000000  -0.2844622 SPIN=   0.00000
  Li  -0.5000000   0.0000000   0.2155378 SPIN=   0.00000
   O  -0.3982030   0.2453492  -0.4960446 SPIN=   0.00000
   O  -0.2503841  -0.1190272  -0.2602219 SPIN=   0.00000
   O   0.3982030  -0.2453492  -0.4960446 SPIN=   0.00000
   O   0.2503841   0.1190272  -0.2602219 SPIN=   0.00000
   O  -0.3982030   0.2546508   0.0039554 SPIN=   0.00000
   O  -0.2503841   0.6190272   0.2397781 SPIN=   0.00000
   O   0.3982030  -0.2546508   0.0039554 SPIN=   0.00000
   O   0.2503841  -0.6190272   0.2397781 SPIN=   0.00000
   P   0.5000000  -0.0000000  -0.1225162 SPIN=   0.00000
   P   0.5000000   0.5000000   0.3774838 SPIN=   0.00000
  Fe   0.0000000  -0.5000000   0.0254887 SPIN=   4.00000
  Fe   0.0000000  -0.0000000  -0.4745113 SPIN=   4.00000
%ENDBLOCK POSITIONS_FRAC

# Note: total spin =   8.00

KPOINTS_MP_SPACING 0.07

%BLOCK SPECIES_POT
QC5
%ENDBLOCK SPECIES_POT

%BLOCK HUBBARD_U
Fe d:4.0
%ENDBLOCK HUBBARD_U

SNAP_TO_SYMMETRY
SYMMETRY_GENERATE

