#              Generated by Buildcell
#
# at 06:18:13 (GMT+0.0) 24th November 2020
# in /lustre/scratch/uccabz1/launch_tmp
# on node-c12l-025
# by uccabz1
#
# compiler GCC version 4.9.2
# options -cpp -iprefix /lustre/shared/ucl/apps/gcc/4.9.2/bin/../lib/gcc/x86_64-unknown-linux-gnu/4.9.2/ -mtune=corei7 -march=x86-64 -g -Og
#
# seed   -73317375   385608746  1554141383  -592442418   -50126285 -1452747605  -843719976   590589674  -950363682  -970226742   408216252  -629750474
#
#      Author: C. J. Pickard (cjp20@cam.ac.uk)
#                Space group: C2
#

%BLOCK LATTICE_ABC
      4.70368      4.70368      7.46252
     94.40592     94.40592    102.45814
%ENDBLOCK LATTICE_ABC

%BLOCK POSITIONS_FRAC
  Li   0.3665214  -0.3665214   0.0000000 SPIN=   0.00000
  Li  -0.2214290   0.2214290   0.0000000 SPIN=   0.00000
   O   0.3911423   0.6647980  -0.3232024 SPIN=   0.00000
   O   0.4228500   0.1721276  -0.1965343 SPIN=   0.00000
   O  -0.0659185   0.2706259  -0.2692059 SPIN=   0.00000
   P   0.2532287   0.3361477  -0.3292503 SPIN=   0.00000
   O  -0.6647980  -0.3911423   0.3232024 SPIN=   0.00000
   O  -0.1721276  -0.4228500   0.1965343 SPIN=   0.00000
   O  -0.2706259   0.0659185   0.2692059 SPIN=   0.00000
   P  -0.3361477  -0.2532287   0.3292503 SPIN=   0.00000
   O   0.0702536  -0.0702536   0.5000000 SPIN=   0.00000
   O   0.0658736  -0.0658736   0.0000000 SPIN=   0.00000
  Fe   0.2980762   0.1551396   0.3036321 SPIN=   4.00000
  Fe  -0.1551396  -0.2980762  -0.3036321 SPIN=   4.00000
%ENDBLOCK POSITIONS_FRAC

# Note: total spin =   8.00

KPOINTS_MP_SPACING 0.07

%BLOCK SPECIES_POT
QC5
%ENDBLOCK SPECIES_POT

%BLOCK HUBBARD_U
Fe d:4.0
%ENDBLOCK HUBBARD_U

SNAP_TO_SYMMETRY
SYMMETRY_GENERATE

