#              Generated by Buildcell
#
# at 10:33:55 (GMT+0.0) 24th November 2020
# in /scratch/scratch/uccabz1/launch_tmp
# on node-a14c-023
# by uccabz1
#
# compiler GCC version 4.9.2
# options -cpp -iprefix /scratch/UCL/applications/gcc/4.9.2/bin/../lib/gcc/x86_64-unknown-linux-gnu/4.9.2/ -mtune=corei7 -march=x86-64 -g -O2
#
# seed  1427956759 -1406233207  -476430909  1085395802 -1212620863  -197014891 -1900513009  1803662409  1251570022  1679518535   469097233 -1129146187
#
#      Author: C. J. Pickard (cjp20@cam.ac.uk)
#                Space group: Pnc2
#

%BLOCK LATTICE_ABC
      3.91465      5.51684      7.40862
     90.00000     90.00000     90.00000
%ENDBLOCK LATTICE_ABC

%BLOCK POSITIONS_FRAC
  Li  -0.5000000   0.0000000  -0.0584302 SPIN=   0.00000
  Li   0.5000000  -0.5000000   0.4415698 SPIN=   0.00000
   O  -0.0939853   0.2430156   0.0067337 SPIN=   0.00000
   O  -0.5891803   0.2330712   0.2400979 SPIN=   0.00000
   O   0.0939853  -0.2430156   0.0067337 SPIN=   0.00000
   O   0.5891803  -0.2330712   0.2400979 SPIN=   0.00000
   O  -0.0939853   0.2569844  -0.4932663 SPIN=   0.00000
   O  -0.5891803   0.2669288  -0.2599021 SPIN=   0.00000
   O   0.0939853  -0.2569844  -0.4932663 SPIN=   0.00000
   O   0.5891803  -0.2669288  -0.2599021 SPIN=   0.00000
   P   0.0000000   0.5000000   0.1925020 SPIN=   0.00000
   P   0.0000000  -0.0000000  -0.3074980 SPIN=   0.00000
  Fe   0.0000000   0.5000000  -0.1981615 SPIN=   4.00000
  Fe   0.0000000   0.0000000   0.3018385 SPIN=   4.00000
%ENDBLOCK POSITIONS_FRAC

# Note: total spin =   8.00

KPOINTS_MP_SPACING 0.07

%BLOCK SPECIES_POT
QC5
%ENDBLOCK SPECIES_POT

%BLOCK HUBBARD_U
Fe d:4.0
%ENDBLOCK HUBBARD_U

SNAP_TO_SYMMETRY
SYMMETRY_GENERATE

