#              Generated by Buildcell
#
# at 13:50:06 (GMT+0.0) 24th November 2020
# in /scratch/scratch/uccabz1/launch_tmp
# on node-a14c-005
# by uccabz1
#
# compiler GCC version 4.9.2
# options -cpp -iprefix /scratch/UCL/applications/gcc/4.9.2/bin/../lib/gcc/x86_64-unknown-linux-gnu/4.9.2/ -mtune=corei7 -march=x86-64 -g -O2
#
# seed  1609552671   435916989  1208350114  -395215574   397911778   418721434  -618513886  -253950166  -414360568  -560760254 -1004177771 -1518598492
#
#      Author: C. J. Pickard (cjp20@cam.ac.uk)
#                Space group: P21
#

%BLOCK LATTICE_ABC
      4.41546      4.73458      7.65353
     90.00000     90.00000     90.00846
%ENDBLOCK LATTICE_ABC

%BLOCK POSITIONS_FRAC
  Li  -0.2274059   0.2892445   0.3199950 SPIN=   0.00000
  Li   0.2274059  -0.2892445  -0.1800050 SPIN=   0.00000
   O   0.3059244   0.1829646  -0.1281639 SPIN=   0.00000
   O  -0.0825694   0.5337034   0.0056571 SPIN=   0.00000
   O  -0.0895352   0.0383062   0.1067396 SPIN=   0.00000
   O   0.3417741   0.3531392   0.1918108 SPIN=   0.00000
   P   0.1314869   0.2729182   0.0365876 SPIN=   0.00000
   O  -0.3059244  -0.1829646  -0.6281639 SPIN=   0.00000
   O   0.0825694  -0.5337034  -0.4943429 SPIN=   0.00000
   O   0.0895352  -0.0383062  -0.3932604 SPIN=   0.00000
   O  -0.3417741  -0.3531392  -0.3081892 SPIN=   0.00000
   P  -0.1314869  -0.2729182  -0.4634124 SPIN=   0.00000
  Fe  -0.2728286   0.2109283  -0.2537635 SPIN=   4.00000
  Fe   0.2728286  -0.2109283   0.2462365 SPIN=   4.00000
%ENDBLOCK POSITIONS_FRAC

# Note: total spin =   8.00

KPOINTS_MP_SPACING 0.07

%BLOCK SPECIES_POT
QC5
%ENDBLOCK SPECIES_POT

%BLOCK HUBBARD_U
Fe d:4.0
%ENDBLOCK HUBBARD_U

SNAP_TO_SYMMETRY
SYMMETRY_GENERATE

