#              Generated by Buildcell
#
# at 06:43:54 (GMT+0.0) 24th November 2020
# in /lustre/scratch/uccabz1/launch_tmp
# on node-c12g-020
# by uccabz1
#
# compiler GCC version 4.9.2
# options -cpp -iprefix /lustre/shared/ucl/apps/gcc/4.9.2/bin/../lib/gcc/x86_64-unknown-linux-gnu/4.9.2/ -mtune=corei7 -march=x86-64 -g -Og
#
# seed  1730093129  1446263805 -1764311642  1811184927   242199786 -1415792867  -592788679  1878529176  -619462756 -1652721653  1943197958   794745132
#
#      Author: C. J. Pickard (cjp20@cam.ac.uk)
#                Space group: Pc
#

%BLOCK LATTICE_ABC
      5.00366      5.59657      6.00694
     90.00000    107.97937     90.00000
%ENDBLOCK LATTICE_ABC

%BLOCK POSITIONS_FRAC
  Li   0.3860480  -0.2225260   0.1686222 SPIN=   0.00000
  Li   0.3860480   0.2225260  -0.3313778 SPIN=   0.00000
   O  -0.3798637  -0.0149374   0.5146122 SPIN=   0.00000
   O   0.0272791   0.1123332   0.3567180 SPIN=   0.00000
   O  -0.3899022   0.3733981   0.2751786 SPIN=   0.00000
   O  -0.0592919   0.3457111   0.6835049 SPIN=   0.00000
   P  -0.2083320   0.1941330   0.4632112 SPIN=   0.00000
   O  -0.3798637   0.0149374   0.0146122 SPIN=   0.00000
   O   0.0272791  -0.1123332  -0.1432820 SPIN=   0.00000
   O  -0.3899022  -0.3733981  -0.2248214 SPIN=   0.00000
   O  -0.0592919  -0.3457111   0.1835049 SPIN=   0.00000
   P  -0.2083320  -0.1941330  -0.0367888 SPIN=   0.00000
  Fe   0.0229096  -0.2773431  -0.4578901 SPIN=   4.00000
  Fe   0.0229096   0.2773431   0.0421099 SPIN=   4.00000
%ENDBLOCK POSITIONS_FRAC

# Note: total spin =   8.00

KPOINTS_MP_SPACING 0.07

%BLOCK SPECIES_POT
QC5
%ENDBLOCK SPECIES_POT

%BLOCK HUBBARD_U
Fe d:4.0
%ENDBLOCK HUBBARD_U

SNAP_TO_SYMMETRY
SYMMETRY_GENERATE

