#              Generated by Buildcell
#
# at 10:49:32 (GMT+0.0) 24th November 2020
# in /lustre/scratch/uccabz1/launch_tmp
# on node-c12f-026
# by uccabz1
#
# compiler GCC version 4.9.2
# options -cpp -iprefix /lustre/shared/ucl/apps/gcc/4.9.2/bin/../lib/gcc/x86_64-unknown-linux-gnu/4.9.2/ -mtune=corei7 -march=x86-64 -g -Og
#
# seed -1359480115 -2063634869 -2137268943  -364425061 -1915084088 -1605615882  -170025501 -1069867149 -1611767610 -1011513820  1070727942  -405727006
#
#      Author: C. J. Pickard (cjp20@cam.ac.uk)
#                Space group: Cc
#

%BLOCK LATTICE_ABC
      4.24104      6.71092      6.71092
    118.06678     99.30593     99.30593
%ENDBLOCK LATTICE_ABC

%BLOCK POSITIONS_FRAC
  Li  -0.3855823  -0.3036465  -0.4927009 SPIN=   0.00000
  Li   0.1144177  -0.4927009  -0.3036465 SPIN=   0.00000
   O   0.2584515   0.1123034   0.0023319 SPIN=   0.00000
   O   0.1344049  -0.2462752  -0.4181095 SPIN=   0.00000
   O   0.1714575   0.1448261  -0.3723869 SPIN=   0.00000
   O   0.6869758   0.0534035  -0.2393235 SPIN=   0.00000
   P   0.3143429   0.0216293  -0.2428636 SPIN=   0.00000
   O  -0.2415485   0.0023319   0.1123034 SPIN=   0.00000
   O  -0.3655951  -0.4181095  -0.2462752 SPIN=   0.00000
   O  -0.3285425  -0.3723869   0.1448261 SPIN=   0.00000
   O   0.1869758  -0.2393235   0.0534035 SPIN=   0.00000
   P  -0.1856571  -0.2428636   0.0216293 SPIN=   0.00000
  Fe   0.4211459   0.0807300   0.3668760 SPIN=   4.00000
  Fe  -0.0788541   0.3668760   0.0807300 SPIN=   4.00000
%ENDBLOCK POSITIONS_FRAC

# Note: total spin =   8.00

KPOINTS_MP_SPACING 0.07

%BLOCK SPECIES_POT
QC5
%ENDBLOCK SPECIES_POT

%BLOCK HUBBARD_U
Fe d:4.0
%ENDBLOCK HUBBARD_U

SNAP_TO_SYMMETRY
SYMMETRY_GENERATE

