#              Generated by Buildcell
#
# at 10:33:59 (GMT+0.0) 24th November 2020
# in /scratch/scratch/uccabz1/launch_tmp
# on node-a14c-023
# by uccabz1
#
# compiler GCC version 4.9.2
# options -cpp -iprefix /scratch/UCL/applications/gcc/4.9.2/bin/../lib/gcc/x86_64-unknown-linux-gnu/4.9.2/ -mtune=corei7 -march=x86-64 -g -O2
#
# seed  1469406205   853193643  -525821991   599555376   874316897 -1572421858  1498400067  1370606303  -285485368 -1776783944  1430415751 -1100837286
#
#      Author: C. J. Pickard (cjp20@cam.ac.uk)
#                Space group: P21
#

%BLOCK LATTICE_ABC
      3.90670      5.80442      7.21849
     90.00000     90.00000    102.18472
%ENDBLOCK LATTICE_ABC

%BLOCK POSITIONS_FRAC
  Li  -0.7000661  -0.4199467   0.4417386 SPIN=   0.00000
  Li   0.7000661   0.4199467  -0.0582614 SPIN=   0.00000
   O  -0.1982749  -0.2284660  -0.4867246 SPIN=   0.00000
   O   0.1397085  -0.4473644  -0.2597693 SPIN=   0.00000
   O   0.2769435  -0.0120253  -0.2586921 SPIN=   0.00000
   O  -0.2982576  -0.2298051  -0.1329867 SPIN=   0.00000
   P  -0.0327481  -0.2293693  -0.2935198 SPIN=   0.00000
   O   0.1982749   0.2284660   0.0132754 SPIN=   0.00000
   O  -0.1397085   0.4473644   0.2402307 SPIN=   0.00000
   O  -0.2769435   0.0120253   0.2413079 SPIN=   0.00000
   O   0.2982576   0.2298051   0.3670133 SPIN=   0.00000
   P   0.0327481   0.2293693   0.2064802 SPIN=   0.00000
  Fe  -0.3385731   0.1305785  -0.4526040 SPIN=   4.00000
  Fe   0.3385731  -0.1305785   0.0473960 SPIN=   4.00000
%ENDBLOCK POSITIONS_FRAC

# Note: total spin =   8.00

KPOINTS_MP_SPACING 0.07

%BLOCK SPECIES_POT
QC5
%ENDBLOCK SPECIES_POT

%BLOCK HUBBARD_U
Fe d:4.0
%ENDBLOCK HUBBARD_U

SNAP_TO_SYMMETRY
SYMMETRY_GENERATE

