#              Generated by Buildcell
#
# at 10:31:43 (GMT+0.0) 24th November 2020
# in /lustre/scratch/uccabz1/launch_tmp
# on node-c12g-024
# by uccabz1
#
# compiler GCC version 4.9.2
# options -cpp -iprefix /lustre/shared/ucl/apps/gcc/4.9.2/bin/../lib/gcc/x86_64-unknown-linux-gnu/4.9.2/ -mtune=corei7 -march=x86-64 -g -Og
#
# seed  1347802253   703691167   215758412   780061488 -1432996007  -137457122 -2044138840 -2021766070   499305315   555761654 -2076895080  -387735202
#
#      Author: C. J. Pickard (cjp20@cam.ac.uk)
#                Space group: Cc
#

%BLOCK LATTICE_ABC
      4.39721      6.30579      6.87021
     62.68239     81.39340     70.96848
%ENDBLOCK LATTICE_ABC

%BLOCK POSITIONS_FRAC
  Li  -0.5100996   0.2447763   0.1719426 SPIN=   0.00000
  Li  -0.0100996   0.4167188  -0.1719426 SPIN=   0.00000
   O  -0.0611387   0.2412268   0.2490531 SPIN=   0.00000
   O   0.0424157  -0.1248150   0.1461852 SPIN=   0.00000
   O   0.4641250  -0.1294559   0.3498475 SPIN=   0.00000
   O  -0.0495363  -0.2044837   0.5393441 SPIN=   0.00000
   P   0.0886891  -0.0404136   0.3198463 SPIN=   0.00000
   O  -0.5611387   0.4902799  -0.2490531 SPIN=   0.00000
   O  -0.4575843   0.0213702  -0.1461852 SPIN=   0.00000
   O  -0.0358750   0.2203916  -0.3498475 SPIN=   0.00000
   O  -0.5495363   0.3348604  -0.5393441 SPIN=   0.00000
   P  -0.4113109   0.2794327  -0.3198463 SPIN=   0.00000
  Fe   0.3011241  -0.1326103  -0.2658289 SPIN=   4.00000
  Fe   0.8011241  -0.3984393   0.2658289 SPIN=   4.00000
%ENDBLOCK POSITIONS_FRAC

# Note: total spin =   8.00

KPOINTS_MP_SPACING 0.07

%BLOCK SPECIES_POT
QC5
%ENDBLOCK SPECIES_POT

%BLOCK HUBBARD_U
Fe d:4.0
%ENDBLOCK HUBBARD_U

SNAP_TO_SYMMETRY
SYMMETRY_GENERATE

