#              Generated by Buildcell
#
# at 09:35:42 (GMT+0.0) 26th November 2020
# in /lustre/scratch/uccabz1/launch_tmp
# on node-c12c-023
# by uccabz1
#
# compiler GCC version 4.9.2
# options -cpp -iprefix /lustre/shared/ucl/apps/gcc/4.9.2/bin/../lib/gcc/x86_64-unknown-linux-gnu/4.9.2/ -mtune=corei7 -march=x86-64 -g -Og
#
# seed  1847400433 -2145477243   377588915  -556256312  -217919008 -1131612952 -1723636657   531804940 -1727226502   287333326 -1487863466   797197272
#
#      Author: C. J. Pickard (cjp20@cam.ac.uk)
#                Space group: P-1
#

%BLOCK LATTICE_ABC
      5.00522      5.06908     13.00390
     83.39751     80.82215     80.60765
%ENDBLOCK LATTICE_ABC

%BLOCK POSITIONS_FRAC
  Li   0.2523013  -0.3933574   0.1980084 SPIN=   0.00000
  Li  -0.2523013   0.3933574  -0.1980084 SPIN=   0.00000
  Li   0.3722854   0.2593674  -0.4545936 SPIN=   0.00000
  Li  -0.3722854  -0.2593674   0.4545936 SPIN=   0.00000
   O   0.3405370  -0.5928368  -0.2619467 SPIN=   0.00000
   O   0.2585867  -0.2858664  -0.4316436 SPIN=   0.00000
   O   0.4038626  -0.0897351  -0.2880331 SPIN=   0.00000
   O   0.7369634  -0.4208015  -0.3907432 SPIN=   0.00000
   P   0.4335220  -0.3612504  -0.3393335 SPIN=   0.00000
   O  -0.3405370   0.5928368   0.2619467 SPIN=   0.00000
   O  -0.2585867   0.2858664   0.4316436 SPIN=   0.00000
   O  -0.4038626   0.0897351   0.2880331 SPIN=   0.00000
   O  -0.7369634   0.4208015   0.3907432 SPIN=   0.00000
   P  -0.4335220   0.3612504   0.3393335 SPIN=   0.00000
   O  -0.1187906  -0.3106057   0.0450394 SPIN=   0.00000
   O  -0.3133664   0.0911679  -0.0778314 SPIN=   0.00000
   O   0.0213125  -0.2705426  -0.1566634 SPIN=   0.00000
   O  -0.4516761  -0.3601450  -0.0818648 SPIN=   0.00000
   P  -0.2132596  -0.2194953  -0.0619859 SPIN=   0.00000
   O   0.1187906   0.3106057  -0.0450394 SPIN=   0.00000
   O   0.3133664  -0.0911679   0.0778314 SPIN=   0.00000
   O  -0.0213125   0.2705426   0.1566634 SPIN=   0.00000
   O   0.4516761   0.3601450   0.0818648 SPIN=   0.00000
   P   0.2132596   0.2194953   0.0619859 SPIN=   0.00000
  Fe   0.1064265   0.0897041   0.3538322 SPIN=   2.85357
  Fe  -0.1064265  -0.0897041  -0.3538322 SPIN=   2.85357
  Fe   0.2852014  -0.0131672  -0.1310169 SPIN=   5.14643
  Fe  -0.2852014   0.0131672   0.1310169 SPIN=   5.14643
%ENDBLOCK POSITIONS_FRAC

# Note: total spin =  16.00

KPOINTS_MP_SPACING 0.07

%BLOCK SPECIES_POT
QC5
%ENDBLOCK SPECIES_POT

%BLOCK HUBBARD_U
Fe d:4.0
%ENDBLOCK HUBBARD_U

SNAP_TO_SYMMETRY
SYMMETRY_GENERATE

