#              Generated by Buildcell
#
# at 20:18:59 (GMT+0.0) 26th November 2020
# in /lustre/scratch/uccabz1/launch_tmp
# on node-c12d-022
# by uccabz1
#
# compiler GCC version 4.9.2
# options -cpp -iprefix /lustre/shared/ucl/apps/gcc/4.9.2/bin/../lib/gcc/x86_64-unknown-linux-gnu/4.9.2/ -mtune=corei7 -march=x86-64 -g -Og
#
# seed  -282530318 -2017908639 -1333309916   566670529  -795982816  1919934111   102604283   675662226   142985363   421352652  1979026452  -568291363
#
#      Author: C. J. Pickard (cjp20@cam.ac.uk)
#                Space group: P-1
#

%BLOCK LATTICE_ABC
      4.33718      8.14658      9.65584
    105.37524    102.05639     92.38202
%ENDBLOCK LATTICE_ABC

%BLOCK POSITIONS_FRAC
  Li  -0.2084705   0.2507410   0.0731518 SPIN=   0.00000
  Li   0.2084705  -0.2507410  -0.0731518 SPIN=   0.00000
  Li   0.3473135  -0.4782169   0.1501011 SPIN=   0.00000
  Li  -0.3473135   0.4782169  -0.1501011 SPIN=   0.00000
   O   0.2512867   0.4354812   0.5107302 SPIN=   0.00000
   O  -0.0615372   0.1991350   0.2802533 SPIN=   0.00000
   O  -0.0343840   0.4984175   0.2684246 SPIN=   0.00000
   O   0.4520710   0.3430292   0.2706519 SPIN=   0.00000
   P   0.1606960   0.3722480   0.3412740 SPIN=   0.00000
   O  -0.2512867  -0.4354812  -0.5107302 SPIN=   0.00000
   O   0.0615372  -0.1991350  -0.2802533 SPIN=   0.00000
   O   0.0343840  -0.4984175  -0.2684246 SPIN=   0.00000
   O  -0.4520710  -0.3430292  -0.2706519 SPIN=   0.00000
   P  -0.1606960  -0.3722480  -0.3412740 SPIN=   0.00000
   O   0.5778864   0.2224104  -0.1495299 SPIN=   0.00000
   O  -0.0093502   0.1022780  -0.2700898 SPIN=   0.00000
   O   0.2143903   0.0895754  -0.0164412 SPIN=   0.00000
   O   0.1113665   0.3728631  -0.0625735 SPIN=   0.00000
   P   0.2411145   0.2002243  -0.1252502 SPIN=   0.00000
   O  -0.5778864  -0.2224104   0.1495299 SPIN=   0.00000
   O   0.0093502  -0.1022780   0.2700898 SPIN=   0.00000
   O  -0.2143903  -0.0895754   0.0164412 SPIN=   0.00000
   O  -0.1113665  -0.3728631   0.0625735 SPIN=   0.00000
   P  -0.2411145  -0.2002243   0.1252502 SPIN=   0.00000
  Fe   0.0487155   0.2530278  -0.4099883 SPIN=   3.82571
  Fe  -0.0487155  -0.2530278   0.4099883 SPIN=   3.82571
  Fe   0.3772470   0.0503987   0.2411638 SPIN=   4.17429
  Fe  -0.3772470  -0.0503987  -0.2411638 SPIN=   4.17429
%ENDBLOCK POSITIONS_FRAC

# Note: total spin =  16.00

KPOINTS_MP_SPACING 0.07

%BLOCK SPECIES_POT
QC5
%ENDBLOCK SPECIES_POT

%BLOCK HUBBARD_U
Fe d:4.0
%ENDBLOCK HUBBARD_U

SNAP_TO_SYMMETRY
SYMMETRY_GENERATE

