#              Generated by Buildcell
#
# at 00:25:57 (GMT+0.0) 27th November 2020
# in /scratch/scratch/mmm0366/launch_tmp
# on node-k98e-027
# by mmm0366
#
# compiler GCC version 4.9.2
# options -cpp -iprefix /scratch/UCL/applications/gcc/4.9.2/bin/../lib/gcc/x86_64-unknown-linux-gnu/4.9.2/ -mtune=corei7 -march=x86-64 -g -O2
#
# seed  -205576085  1804552337 -1522468807   687100769  1922615960  1475462531  -222135111   516289851  1049428165 -1344387888 -1933281883   810643770
#
#      Author: C. J. Pickard (cjp20@cam.ac.uk)
#                Space group: P-1
#

%BLOCK LATTICE_ABC
      6.24210      7.23954      7.72392
     83.13091     83.95037     67.72857
%ENDBLOCK LATTICE_ABC

%BLOCK POSITIONS_FRAC
  Li  -0.0271875  -0.3214161   0.0930453 SPIN=   0.00000
  Li   0.0271875   0.3214161  -0.0930453 SPIN=   0.00000
  Li  -0.2538058   0.1206988   0.1356345 SPIN=   0.00000
  Li   0.2538058  -0.1206988  -0.1356345 SPIN=   0.00000
   O   0.1917249  -0.3847414  -0.2761325 SPIN=   0.00000
   O   0.1878835  -0.0392059  -0.4169149 SPIN=   0.00000
   O   0.5266569  -0.3424107  -0.4862361 SPIN=   0.00000
   O   0.1452196  -0.2797082  -0.6057972 SPIN=   0.00000
   P   0.2576946  -0.2682923  -0.4390938 SPIN=   0.00000
   O  -0.1917249   0.3847414   0.2761325 SPIN=   0.00000
   O  -0.1878835   0.0392059   0.4169149 SPIN=   0.00000
   O  -0.5266569   0.3424107   0.4862361 SPIN=   0.00000
   O  -0.1452196   0.2797082   0.6057972 SPIN=   0.00000
   P  -0.2576946   0.2682923   0.4390938 SPIN=   0.00000
   O  -0.3439320  -0.3129536  -0.0394834 SPIN=   0.00000
   O  -0.5237484   0.0457054  -0.1934676 SPIN=   0.00000
   O  -0.1184661  -0.0734429  -0.1112512 SPIN=   0.00000
   O  -0.2143223  -0.2209242  -0.3558350 SPIN=   0.00000
   P  -0.3014377  -0.1505414  -0.1699272 SPIN=   0.00000
   O   0.3439320   0.3129536   0.0394834 SPIN=   0.00000
   O   0.5237484  -0.0457054   0.1934676 SPIN=   0.00000
   O   0.1184661   0.0734429   0.1112512 SPIN=   0.00000
   O   0.2143223   0.2209242   0.3558350 SPIN=   0.00000
   P   0.3014377   0.1505414   0.1699272 SPIN=   0.00000
  Fe  -0.4882042   0.3923643  -0.2152583 SPIN=   3.96120
  Fe   0.4882042  -0.3923643   0.2152583 SPIN=   3.96120
  Fe  -0.0000000  -0.5000000  -0.5000000 SPIN=   0.49432
  Fe   0.5000000   0.0000000  -0.5000000 SPIN=   7.58329
%ENDBLOCK POSITIONS_FRAC

# Note: total spin =  16.00

KPOINTS_MP_SPACING 0.07

%BLOCK SPECIES_POT
QC5
%ENDBLOCK SPECIES_POT

%BLOCK HUBBARD_U
Fe d:4.0
%ENDBLOCK HUBBARD_U

SNAP_TO_SYMMETRY
SYMMETRY_GENERATE

