#              Generated by Buildcell
#
# at 09:51:37 (GMT+0.0) 24th November 2020
# in /lustre/scratch/uccabz1/launch_tmp
# on node-c12e-029
# by uccabz1
#
# compiler GCC version 4.9.2
# options -cpp -iprefix /lustre/shared/ucl/apps/gcc/4.9.2/bin/../lib/gcc/x86_64-unknown-linux-gnu/4.9.2/ -mtune=corei7 -march=x86-64 -g -Og
#
# seed -1255087830  -823041979 -1688220523 -1348198494   -80209350 -1333368884 -2081519356   510438935   -58837103   724412718  1059895637 -1690275628
#
#      Author: C. J. Pickard (cjp20@cam.ac.uk)
#                Space group: Pnc2
#

%BLOCK LATTICE_ABC
      5.31777      5.31973      5.65588
     90.00000     90.00000     90.00000
%ENDBLOCK LATTICE_ABC

%BLOCK POSITIONS_FRAC
  Li   0.0000000   0.5000000  -0.2124640 SPIN=   0.00000
  Li   0.5000000  -0.5000000   0.2875360 SPIN=   0.00000
   O   0.2366420  -0.2126331   0.3645276 SPIN=   0.00000
   O   0.1696361   0.2128456   0.5810612 SPIN=   0.00000
   O  -0.2366420   0.2126331   0.3645276 SPIN=   0.00000
   O  -0.1696361  -0.2128456   0.5810612 SPIN=   0.00000
   O   0.2633580  -0.2126331  -0.1354724 SPIN=   0.00000
   O   0.3303639   0.2128456   0.0810612 SPIN=   0.00000
   O  -0.2633580   0.2126331  -0.1354724 SPIN=   0.00000
   O  -0.3303639  -0.2128456   0.0810612 SPIN=   0.00000
   P   0.0000000   0.5000000   0.3143313 SPIN=   0.00000
   P  -0.5000000   0.5000000  -0.1856687 SPIN=   0.00000
  Fe   0.0000000   0.0000000   0.1319376 SPIN=   4.00000
  Fe  -0.5000000  -0.0000000  -0.3680624 SPIN=   4.00000
%ENDBLOCK POSITIONS_FRAC

# Note: total spin =   8.00

KPOINTS_MP_SPACING 0.07

%BLOCK SPECIES_POT
QC5
%ENDBLOCK SPECIES_POT

%BLOCK HUBBARD_U
Fe d:4.0
%ENDBLOCK HUBBARD_U

SNAP_TO_SYMMETRY
SYMMETRY_GENERATE

