#              Generated by Buildcell
#
# at 12:52:36 (GMT+0.0) 26th November 2020
# in /lustre/scratch/uccabz1/launch_tmp
# on node-c12j-020
# by uccabz1
#
# compiler GCC version 4.9.2
# options -cpp -iprefix /lustre/shared/ucl/apps/gcc/4.9.2/bin/../lib/gcc/x86_64-unknown-linux-gnu/4.9.2/ -mtune=corei7 -march=x86-64 -g -Og
#
# seed  1548886606   930465729 -1005539750 -2040864456  1890291053  1405884603  -775130753   105007885 -1797473469  -109497999 -1443583188 -2136248576
#
#      Author: C. J. Pickard (cjp20@cam.ac.uk)
#                Space group: Pc
#

%BLOCK LATTICE_ABC
      5.62014      7.37870      7.75953
     90.00000     96.03388     90.00000
%ENDBLOCK LATTICE_ABC

%BLOCK POSITIONS_FRAC
  Li   0.2060836  -0.4224676   0.4359876 SPIN=   0.00000
  Li   0.2060836   0.4224676  -0.0640124 SPIN=   0.00000
  Li  -0.2845778   0.2843499   0.0015736 SPIN=   0.00000
  Li  -0.2845778  -0.2843499  -0.4984264 SPIN=   0.00000
   O   0.1308617   0.1685769   0.4934235 SPIN=   0.00000
   O   0.1939023  -0.1487629   0.3604463 SPIN=   0.00000
   O   0.0357025  -0.1327608   0.6452340 SPIN=   0.00000
   O  -0.2232468  -0.0364744   0.3785487 SPIN=   0.00000
   P   0.0364067  -0.0263800   0.4696192 SPIN=   0.00000
   O   0.1308617  -0.1685769  -0.0065765 SPIN=   0.00000
   O   0.1939023   0.1487629  -0.1395537 SPIN=   0.00000
   O   0.0357025   0.1327608   0.1452340 SPIN=   0.00000
   O  -0.2232468   0.0364744  -0.1214513 SPIN=   0.00000
   P   0.0364067   0.0263800  -0.0303808 SPIN=   0.00000
   O  -0.4985038   0.6289498   0.2783637 SPIN=   0.00000
   O  -0.4937523   0.3352027   0.4633041 SPIN=   0.00000
   O  -0.5788027   0.3087874   0.1454749 SPIN=   0.00000
   O  -0.1650288   0.3885020   0.2749402 SPIN=   0.00000
   P  -0.4342808   0.4264161   0.2896896 SPIN=   0.00000
   O  -0.4985038  -0.6289498  -0.2216363 SPIN=   0.00000
   O  -0.4937523  -0.3352027  -0.0366959 SPIN=   0.00000
   O  -0.5788027  -0.3087874  -0.3545251 SPIN=   0.00000
   O  -0.1650288  -0.3885020  -0.2250598 SPIN=   0.00000
   P  -0.4342808  -0.4264161  -0.2103104 SPIN=   0.00000
  Fe  -0.1558844   0.2942844  -0.4007815 SPIN=   6.75226
  Fe  -0.1558844  -0.2942844   0.0992185 SPIN=   6.75226
  Fe   0.3995732  -0.0519888  -0.2442147 SPIN=   1.24774
  Fe   0.3995732   0.0519888   0.2557853 SPIN=   1.24774
%ENDBLOCK POSITIONS_FRAC

# Note: total spin =  16.00

KPOINTS_MP_SPACING 0.07

%BLOCK SPECIES_POT
QC5
%ENDBLOCK SPECIES_POT

%BLOCK HUBBARD_U
Fe d:4.0
%ENDBLOCK HUBBARD_U

SNAP_TO_SYMMETRY
SYMMETRY_GENERATE

