#              Generated by Buildcell
#
# at 13:43:52 (GMT+0.0) 26th November 2020
# in /lustre/scratch/uccabz1/launch_tmp
# on node-c12o-032
# by uccabz1
#
# compiler GCC version 4.9.2
# options -cpp -iprefix /lustre/shared/ucl/apps/gcc/4.9.2/bin/../lib/gcc/x86_64-unknown-linux-gnu/4.9.2/ -mtune=corei7 -march=x86-64 -g -Og
#
# seed -1763722808   529371398   431244173    28308617  -272252622 -1771520880   289931213   930257826  1008438821  -946188778   627829505 -2079202420
#
#      Author: C. J. Pickard (cjp20@cam.ac.uk)
#                Space group: C2
#

%BLOCK LATTICE_ABC
      6.29068      7.45959      7.90501
     61.84709     84.40322     78.07090
%ENDBLOCK LATTICE_ABC

%BLOCK POSITIONS_FRAC
  Li  -0.2605592  -0.3831766  -0.3901180 SPIN=   0.00000
  Li   0.2605592  -0.2267054  -0.3901180 SPIN=   0.00000
  Li   0.5000000   0.3754246   0.2491508 SPIN=   0.00000
  Li  -0.5000000   0.1562254  -0.3124508 SPIN=   0.00000
   O  -0.5871430  -0.2036472  -0.1544330 SPIN=   0.00000
   O  -0.2452160  -0.0689240  -0.1360621 SPIN=   0.00000
   O  -0.3595476  -0.3568015   0.1562887 SPIN=   0.00000
   O  -0.2001867  -0.4187689  -0.1185962 SPIN=   0.00000
   P  -0.3590106  -0.2607761  -0.0687121 SPIN=   0.00000
   O   0.5871430   0.3580803  -0.1544330 SPIN=   0.00000
   O   0.2452160   0.2049861  -0.1360621 SPIN=   0.00000
   O   0.3595476   0.2005128   0.1562887 SPIN=   0.00000
   O   0.2001867   0.5373651  -0.1185962 SPIN=   0.00000
   P   0.3590106   0.3294882  -0.0687121 SPIN=   0.00000
   O   0.0777658  -0.4629541   0.5941030 SPIN=   0.00000
   O   0.1690046  -0.5481821   0.3093033 SPIN=   0.00000
   O   0.2044400  -0.2032933   0.2604742 SPIN=   0.00000
   O   0.4702376  -0.5152384   0.4720132 SPIN=   0.00000
   P   0.2250678  -0.4350203   0.4195746 SPIN=   0.00000
   O  -0.0777658  -0.1311489   0.5941030 SPIN=   0.00000
   O  -0.1690046   0.2388788   0.3093033 SPIN=   0.00000
   O  -0.2044400  -0.0571809   0.2604742 SPIN=   0.00000
   O  -0.4702376   0.0432252   0.4720132 SPIN=   0.00000
   P  -0.2250678   0.0154457   0.4195746 SPIN=   0.00000
  Fe   0.0709896  -0.2776812   0.0284211 SPIN=   4.72026
  Fe  -0.0709896   0.2492601   0.0284211 SPIN=   4.72026
  Fe   0.0000000   0.2303313  -0.4606626 SPIN=   5.17250
  Fe  -0.5000000  -0.0964860   0.1929720 SPIN=   1.38697
%ENDBLOCK POSITIONS_FRAC

# Note: total spin =  16.00

KPOINTS_MP_SPACING 0.07

%BLOCK SPECIES_POT
QC5
%ENDBLOCK SPECIES_POT

%BLOCK HUBBARD_U
Fe d:4.0
%ENDBLOCK HUBBARD_U

SNAP_TO_SYMMETRY
SYMMETRY_GENERATE

