#              Generated by Buildcell
#
# at 11:43:21 (GMT+0.0) 24th November 2020
# in /lustre/scratch/uccabz1/launch_tmp
# on node-c12p-023
# by uccabz1
#
# compiler GCC version 4.9.2
# options -cpp -iprefix /lustre/shared/ucl/apps/gcc/4.9.2/bin/../lib/gcc/x86_64-unknown-linux-gnu/4.9.2/ -mtune=corei7 -march=x86-64 -g -Og
#
# seed -1785131026 -1586347842  -135424267  1634272525   423154145  -354833795  -777727753   297048962  1710294920   732693971   207616673 -1507834714
#
#      Author: C. J. Pickard (cjp20@cam.ac.uk)
#                Space group: P21
#

%BLOCK LATTICE_ABC
      3.91428      5.00203      8.47188
    105.29321     90.00000     90.00000
%ENDBLOCK LATTICE_ABC

%BLOCK POSITIONS_FRAC
  Li   0.0789014  -0.2382114   0.4832597 SPIN=   0.00000
  Li  -0.4210986   0.2382114  -0.4832597 SPIN=   0.00000
   O  -0.2234660  -0.0914704  -0.1752678 SPIN=   0.00000
   O  -0.6898726  -0.4143307  -0.3430128 SPIN=   0.00000
   O  -0.1898039  -0.6288538  -0.2472233 SPIN=   0.00000
   O  -0.6259199  -0.3819638  -0.0444221 SPIN=   0.00000
   P  -0.4234334  -0.3638700  -0.1991672 SPIN=   0.00000
   O   0.2765340   0.0914704   0.1752678 SPIN=   0.00000
   O  -0.1898726   0.4143307   0.3430128 SPIN=   0.00000
   O   0.3101961   0.6288538   0.2472233 SPIN=   0.00000
   O  -0.1259199   0.3819638   0.0444221 SPIN=   0.00000
   P   0.0765666   0.3638700   0.1991672 SPIN=   0.00000
  Fe   0.1989452   0.1758797  -0.1461502 SPIN=   4.00000
  Fe  -0.3010548  -0.1758797   0.1461502 SPIN=   4.00000
%ENDBLOCK POSITIONS_FRAC

# Note: total spin =   8.00

KPOINTS_MP_SPACING 0.07

%BLOCK SPECIES_POT
QC5
%ENDBLOCK SPECIES_POT

%BLOCK HUBBARD_U
Fe d:4.0
%ENDBLOCK HUBBARD_U

SNAP_TO_SYMMETRY
SYMMETRY_GENERATE

