#              Generated by Buildcell
#
# at 08:02:16 (GMT+0.0) 24th November 2020
# in /lustre/scratch/uccabz1/launch_tmp
# on node-c12d-032
# by uccabz1
#
# compiler GCC version 4.9.2
# options -cpp -iprefix /lustre/shared/ucl/apps/gcc/4.9.2/bin/../lib/gcc/x86_64-unknown-linux-gnu/4.9.2/ -mtune=corei7 -march=x86-64 -g -Og
#
# seed  -360131730  -503886948  -459172469 -1737587977  2036067207   583411025  2036265421   619944572   971742913  2046873740  1938039408 -1764962442
#
#      Author: C. J. Pickard (cjp20@cam.ac.uk)
#                Space group: Pmn21
#

%BLOCK LATTICE_ABC
      4.36445      5.60128      6.54491
     90.00000     90.00000     90.00000
%ENDBLOCK LATTICE_ABC

%BLOCK POSITIONS_FRAC
  Li  -0.3009432   0.0000000   0.2769944 SPIN=   0.00000
  Li   0.3009432  -0.5000000  -0.2230056 SPIN=   0.00000
   O  -0.0496917  -0.2818206  -0.3413492 SPIN=   0.00000
   O  -0.4274496  -0.2807161  -0.0345597 SPIN=   0.00000
   O   0.0496917  -0.2181794   0.1586508 SPIN=   0.00000
   O   0.4274496  -0.2192839   0.4654403 SPIN=   0.00000
   O   0.0496917   0.2181794   0.1586508 SPIN=   0.00000
   O   0.4274496   0.2192839   0.4654403 SPIN=   0.00000
   O  -0.0496917   0.2818206  -0.3413492 SPIN=   0.00000
   O  -0.4274496   0.2807161  -0.0345597 SPIN=   0.00000
   P   0.1966017   0.0000000   0.0473408 SPIN=   0.00000
   P  -0.1966017  -0.5000000  -0.4526592 SPIN=   0.00000
  Fe  -0.3066323   0.0000000  -0.2277450 SPIN=   4.00000
  Fe   0.3066323  -0.5000000   0.2722550 SPIN=   4.00000
%ENDBLOCK POSITIONS_FRAC

# Note: total spin =   8.00

KPOINTS_MP_SPACING 0.07

%BLOCK SPECIES_POT
QC5
%ENDBLOCK SPECIES_POT

%BLOCK HUBBARD_U
Fe d:4.0
%ENDBLOCK HUBBARD_U

SNAP_TO_SYMMETRY
SYMMETRY_GENERATE

