#              Generated by Buildcell
#
# at 13:38:26 (GMT+0.0) 24th November 2020
# in /scratch/scratch/uccabz1/launch_tmp
# on node-a14f-003
# by uccabz1
#
# compiler GCC version 4.9.2
# options -cpp -iprefix /scratch/UCL/applications/gcc/4.9.2/bin/../lib/gcc/x86_64-unknown-linux-gnu/4.9.2/ -mtune=corei7 -march=x86-64 -g -O2
#
# seed -1295861022  -554763543 -1362056096   302716552 -1018434596  -363203009 -1835215149  1254106961  -432958338   708973077   709768542 -1538041339
#
#      Author: C. J. Pickard (cjp20@cam.ac.uk)
#                Space group: C2/m
#

%BLOCK LATTICE_ABC
      5.52570      5.56882      6.22771
    109.01039    116.33626     90.00000
%ENDBLOCK LATTICE_ABC

%BLOCK POSITIONS_FRAC
  Li  -0.0000000   0.5000000  -0.0000000 SPIN=   0.00000
  Li   0.5000000  -0.0000000  -0.0000000 SPIN=   0.00000
   O  -0.0445652  -0.2242661  -0.6448009 SPIN=   0.00000
   O   0.1701193  -0.3088065  -0.2166466 SPIN=   0.00000
   O   0.6002357   0.2242661   0.6448009 SPIN=   0.00000
   O   0.3867659   0.3088065   0.2166466 SPIN=   0.00000
   O   0.0445652   0.2242661   0.6448009 SPIN=   0.00000
   O  -0.1701193   0.3088065   0.2166466 SPIN=   0.00000
   O  -0.6002357  -0.2242661  -0.6448009 SPIN=   0.00000
   O  -0.3867659  -0.3088065  -0.2166466 SPIN=   0.00000
   P  -0.2528824   0.2825444   0.4942351 SPIN=   0.00000
   P   0.2528824  -0.2825444  -0.4942351 SPIN=   0.00000
  Fe  -0.1875841  -0.1653383  -0.3751682 SPIN=   4.00000
  Fe   0.1875841   0.1653383   0.3751682 SPIN=   4.00000
%ENDBLOCK POSITIONS_FRAC

# Note: total spin =   8.00

KPOINTS_MP_SPACING 0.07

%BLOCK SPECIES_POT
QC5
%ENDBLOCK SPECIES_POT

%BLOCK HUBBARD_U
Fe d:4.0
%ENDBLOCK HUBBARD_U

SNAP_TO_SYMMETRY
SYMMETRY_GENERATE

