#              Generated by Buildcell
#
# at 11:48:00 (GMT+0.0) 24th November 2020
# in /scratch/scratch/uccabz1/launch_tmp
# on node-k10c-005
# by uccabz1
#
# compiler GCC version 4.9.2
# options -cpp -iprefix /scratch/UCL/applications/gcc/4.9.2/bin/../lib/gcc/x86_64-unknown-linux-gnu/4.9.2/ -mtune=corei7 -march=x86-64 -g -O2
#
# seed  -846262543  1305331880   416466526  1896912166  -464622808  -647695335 -1282590316   158339043  1379156347 -1861256643  -448105851   360281044
#
#      Author: C. J. Pickard (cjp20@cam.ac.uk)
#                Space group: P-1
#

%BLOCK LATTICE_ABC
      3.94237      5.66689      7.76757
    100.03489     97.24406    107.50182
%ENDBLOCK LATTICE_ABC

%BLOCK POSITIONS_FRAC
  Li  -0.3745586  -0.1184209   0.3401533 SPIN=   0.00000
  Li   0.3745586   0.1184209  -0.3401533 SPIN=   0.00000
   O   0.0616759   0.0099276  -0.1502913 SPIN=   0.00000
   O  -0.5644190  -0.2586092  -0.1001337 SPIN=   0.00000
   O  -0.4967620  -0.2159483  -0.4061420 SPIN=   0.00000
   O  -0.1910840  -0.4780258  -0.2596769 SPIN=   0.00000
   P  -0.2772576  -0.2254475  -0.2252282 SPIN=   0.00000
   O  -0.0616759  -0.0099276   0.1502913 SPIN=   0.00000
   O   0.5644190   0.2586092   0.1001337 SPIN=   0.00000
   O   0.4967620   0.2159483   0.4061420 SPIN=   0.00000
   O   0.1910840   0.4780258   0.2596769 SPIN=   0.00000
   P   0.2772576   0.2254475   0.2252282 SPIN=   0.00000
  Fe   0.0000000   0.5000000   0.0000000 SPIN=   5.85198
  Fe   0.0000000   0.5000000   0.5000000 SPIN=   2.14802
%ENDBLOCK POSITIONS_FRAC

# Note: total spin =   8.00

KPOINTS_MP_SPACING 0.07

%BLOCK SPECIES_POT
QC5
%ENDBLOCK SPECIES_POT

%BLOCK HUBBARD_U
Fe d:4.0
%ENDBLOCK HUBBARD_U

SNAP_TO_SYMMETRY
SYMMETRY_GENERATE

