#              Generated by Buildcell
#
# at 11:03:16 (GMT+0.0) 24th November 2020
# in /lustre/scratch/uccabz1/launch_tmp
# on node-c12e-020
# by uccabz1
#
# compiler GCC version 4.9.2
# options -cpp -iprefix /lustre/shared/ucl/apps/gcc/4.9.2/bin/../lib/gcc/x86_64-unknown-linux-gnu/4.9.2/ -mtune=corei7 -march=x86-64 -g -Og
#
# seed  -109427326   352757730  -938621701   604067924  1171973355   651143425 -1984325325  -287973937  1121744605   933377807   168690785  -613744257
#
#      Author: C. J. Pickard (cjp20@cam.ac.uk)
#                Space group: P21
#

%BLOCK LATTICE_ABC
      3.91875      6.12486      6.92452
     90.00000    105.70069     90.00000
%ENDBLOCK LATTICE_ABC

%BLOCK POSITIONS_FRAC
  Li  -0.0807505   0.4023952  -0.0270451 SPIN=   0.00000
  Li   0.0807505  -0.0976048   0.0270451 SPIN=   0.00000
   O   0.5554118   0.1823132   0.0821982 SPIN=   0.00000
   O   0.1703189   0.0502669   0.3115200 SPIN=   0.00000
   O   0.7461876   0.2249367   0.4699529 SPIN=   0.00000
   O   0.2448469   0.4515412   0.2665837 SPIN=   0.00000
   P   0.4337364   0.2275178   0.2717066 SPIN=   0.00000
   O  -0.5554118  -0.3176868  -0.0821982 SPIN=   0.00000
   O  -0.1703189  -0.4497331  -0.3115200 SPIN=   0.00000
   O  -0.7461876  -0.2750633  -0.4699529 SPIN=   0.00000
   O  -0.2448469  -0.0484588  -0.2665837 SPIN=   0.00000
   P  -0.4337364  -0.2724822  -0.2717066 SPIN=   0.00000
  Fe   0.7377536  -0.3452408   0.3560245 SPIN=   4.00000
  Fe  -0.7377536   0.1547592  -0.3560245 SPIN=   4.00000
%ENDBLOCK POSITIONS_FRAC

# Note: total spin =   8.00

KPOINTS_MP_SPACING 0.07

%BLOCK SPECIES_POT
QC5
%ENDBLOCK SPECIES_POT

%BLOCK HUBBARD_U
Fe d:4.0
%ENDBLOCK HUBBARD_U

SNAP_TO_SYMMETRY
SYMMETRY_GENERATE

