#              Generated by Buildcell
#
# at 08:54:29 (GMT+0.0) 24th November 2020
# in /lustre/scratch/uccabz1/launch_tmp
# on node-c12c-034
# by uccabz1
#
# compiler GCC version 4.9.2
# options -cpp -iprefix /lustre/shared/ucl/apps/gcc/4.9.2/bin/../lib/gcc/x86_64-unknown-linux-gnu/4.9.2/ -mtune=corei7 -march=x86-64 -g -Og
#
# seed  2018469062 -1624729209  1200961559   201438169  -799823333   341628641   168922531   548855160   883521473  -575509713  -193528718   894270421
#
#      Author: C. J. Pickard (cjp20@cam.ac.uk)
#                Space group: P-1
#

%BLOCK LATTICE_ABC
      4.29551      5.75437      7.37916
    108.12254     90.81550    111.16508
%ENDBLOCK LATTICE_ABC

%BLOCK POSITIONS_FRAC
  Li  -0.4098285  -0.2589115  -0.0642421 SPIN=   0.00000
  Li   0.4098285   0.2589115   0.0642421 SPIN=   0.00000
   O   0.4428378  -0.0857313  -0.3483427 SPIN=   0.00000
   O  -0.0052518   0.0468467  -0.1568885 SPIN=   0.00000
   O  -0.1890945  -0.3978116  -0.4045142 SPIN=   0.00000
   P   0.1236902  -0.1794700  -0.2553194 SPIN=   0.00000
   O  -0.4428378   0.0857313   0.3483427 SPIN=   0.00000
   O   0.0052518  -0.0468467   0.1568885 SPIN=   0.00000
   O   0.1890945   0.3978116   0.4045142 SPIN=   0.00000
   P  -0.1236902   0.1794700   0.2553194 SPIN=   0.00000
   O   0.0000000  -0.5000000   0.0000000 SPIN=   0.00000
   O  -0.0000000   1.0000000   0.5000000 SPIN=   0.00000
  Fe   0.1423756   0.7277104   0.2941297 SPIN=   4.00000
  Fe  -0.1423756  -0.7277104  -0.2941297 SPIN=   4.00000
%ENDBLOCK POSITIONS_FRAC

# Note: total spin =   8.00

KPOINTS_MP_SPACING 0.07

%BLOCK SPECIES_POT
QC5
%ENDBLOCK SPECIES_POT

%BLOCK HUBBARD_U
Fe d:4.0
%ENDBLOCK HUBBARD_U

SNAP_TO_SYMMETRY
SYMMETRY_GENERATE

