#              Generated by Buildcell
#
# at 09:33:01 (GMT+0.0) 24th November 2020
# in /scratch/scratch/uccabz1/launch_tmp
# on node-a14a-024
# by uccabz1
#
# compiler GCC version 4.9.2
# options -cpp -iprefix /scratch/UCL/applications/gcc/4.9.2/bin/../lib/gcc/x86_64-unknown-linux-gnu/4.9.2/ -mtune=corei7 -march=x86-64 -g -O2
#
# seed  -711746310  -645474085 -1436290407   -47792236 -1576551516  -943487969   846655979   815383246   319840731   665106031   753986525   549987573
#
#      Author: C. J. Pickard (cjp20@cam.ac.uk)
#                Space group: P-1
#

%BLOCK LATTICE_ABC
      4.82407      5.62525      6.47221
     67.70051     85.23707     79.99720
%ENDBLOCK LATTICE_ABC

%BLOCK POSITIONS_FRAC
  Li  -0.2261867  -0.2729858  -0.1260076 SPIN=   0.00000
  Li   0.2261867   0.2729858   0.1260076 SPIN=   0.00000
   O  -0.0690079   0.5575072   0.2002785 SPIN=   0.00000
   O  -0.3320779   0.2318075   0.1275678 SPIN=   0.00000
   O  -0.2153856   0.1472127   0.5161017 SPIN=   0.00000
   O  -0.5885057   0.5186032   0.3205278 SPIN=   0.00000
   P  -0.2922688   0.3759246   0.2866292 SPIN=   0.00000
   O   0.0690079  -0.5575072  -0.2002785 SPIN=   0.00000
   O   0.3320779  -0.2318075  -0.1275678 SPIN=   0.00000
   O   0.2153856  -0.1472127  -0.5161017 SPIN=   0.00000
   O   0.5885057  -0.5186032  -0.3205278 SPIN=   0.00000
   P   0.2922688  -0.3759246  -0.2866292 SPIN=   0.00000
  Fe  -0.2097839  -0.1572553   0.3355513 SPIN=   4.00000
  Fe   0.2097839   0.1572553  -0.3355513 SPIN=   4.00000
%ENDBLOCK POSITIONS_FRAC

# Note: total spin =   8.00

KPOINTS_MP_SPACING 0.07

%BLOCK SPECIES_POT
QC5
%ENDBLOCK SPECIES_POT

%BLOCK HUBBARD_U
Fe d:4.0
%ENDBLOCK HUBBARD_U

SNAP_TO_SYMMETRY
SYMMETRY_GENERATE

