#              Generated by Buildcell
#
# at 13:26:20 (GMT+0.0) 24th November 2020
# in /lustre/scratch/uccabz1/launch_tmp
# on node-c12a-034
# by uccabz1
#
# compiler GCC version 4.9.2
# options -cpp -iprefix /lustre/shared/ucl/apps/gcc/4.9.2/bin/../lib/gcc/x86_64-unknown-linux-gnu/4.9.2/ -mtune=corei7 -march=x86-64 -g -Og
#
# seed  -896254597 -2037905729 -1166860518   303136181 -1226011884  1363104214  -591449081  -664490644  -952936235 -1064116608  -359191413  -295466674
#
#      Author: C. J. Pickard (cjp20@cam.ac.uk)
#                Space group: Pc
#

%BLOCK LATTICE_ABC
      3.82459      6.05200      7.26033
     90.00000     90.00000    107.80690
%ENDBLOCK LATTICE_ABC

%BLOCK POSITIONS_FRAC
  Li   0.0620351  -0.0803072   0.4859800 SPIN=   0.00000
  Li   0.0620351   0.4196928  -0.4859800 SPIN=   0.00000
   O  -0.0822765   0.3452621  -0.1571418 SPIN=   0.00000
   O  -0.7411594   0.0649562  -0.1062434 SPIN=   0.00000
   O  -0.5742435   0.2330876  -0.4159229 SPIN=   0.00000
   O  -0.2982400  -0.0656760  -0.2989793 SPIN=   0.00000
   P  -0.4043020   0.1526227  -0.2405587 SPIN=   0.00000
   O  -0.0822765  -0.1547379   0.1571418 SPIN=   0.00000
   O  -0.7411594  -0.4350438   0.1062434 SPIN=   0.00000
   O  -0.5742435  -0.2669124   0.4159229 SPIN=   0.00000
   O  -0.2982400  -0.5656760   0.2989793 SPIN=   0.00000
   P  -0.4043020  -0.3473773   0.2405587 SPIN=   0.00000
  Fe  -0.3458579  -0.3756816  -0.1586733 SPIN=   4.00000
  Fe  -0.3458579   0.1243184   0.1586733 SPIN=   4.00000
%ENDBLOCK POSITIONS_FRAC

# Note: total spin =   8.00

KPOINTS_MP_SPACING 0.07

%BLOCK SPECIES_POT
QC5
%ENDBLOCK SPECIES_POT

%BLOCK HUBBARD_U
Fe d:4.0
%ENDBLOCK HUBBARD_U

SNAP_TO_SYMMETRY
SYMMETRY_GENERATE

