#              Generated by Buildcell
#
# at 00:23:20 (GMT+0.0) 27th November 2020
# in /lustre/scratch/uccabz1/launch_tmp
# on node-c12j-025
# by uccabz1
#
# compiler GCC version 4.9.2
# options -cpp -iprefix /lustre/shared/ucl/apps/gcc/4.9.2/bin/../lib/gcc/x86_64-unknown-linux-gnu/4.9.2/ -mtune=corei7 -march=x86-64 -g -Og
#
# seed -1782711810  1384466545  1552217903  1188950857   870617766 -1117776488 -1916599326 -1098020090   -52370082    36579940  -456200034  -265880771
#
#      Author: C. J. Pickard (cjp20@cam.ac.uk)
#                Space group: P-1
#

%BLOCK LATTICE_ABC
      4.80311      7.81520      8.63847
     98.51195     93.71880     90.03311
%ENDBLOCK LATTICE_ABC

%BLOCK POSITIONS_FRAC
  Li   0.4741339  -0.1930892  -0.2233932 SPIN=   0.00000
  Li  -0.4741339   0.1930892   0.2233932 SPIN=   0.00000
  Li  -0.5000000   0.0000000  -0.5000000 SPIN=   0.00000
  Li  -0.5000000   0.5000000  -0.5000000 SPIN=   0.00000
   O   0.2992808  -0.4644627  -0.2530900 SPIN=   0.00000
   O   0.0808448  -0.2668533  -0.0245955 SPIN=   0.00000
   O  -0.1261891  -0.2671434  -0.2939403 SPIN=   0.00000
   O  -0.1864039  -0.5273621  -0.1610069 SPIN=   0.00000
   P   0.0295204  -0.3875970  -0.1866203 SPIN=   0.00000
   O  -0.2992808   0.4644627   0.2530900 SPIN=   0.00000
   O  -0.0808448   0.2668533   0.0245955 SPIN=   0.00000
   O   0.1261891   0.2671434   0.2939403 SPIN=   0.00000
   O   0.1864039   0.5273621   0.1610069 SPIN=   0.00000
   P  -0.0295204   0.3875970   0.1866203 SPIN=   0.00000
   O   0.7728009  -0.1428269   0.1925927 SPIN=   0.00000
   O   0.4480410  -0.2765522   0.3730079 SPIN=   0.00000
   O   0.2687952  -0.0363230   0.2398936 SPIN=   0.00000
   P   0.4723707  -0.1944421   0.2187570 SPIN=   0.00000
   O  -0.7728009   0.1428269  -0.1925927 SPIN=   0.00000
   O  -0.4480410   0.2765522  -0.3730079 SPIN=   0.00000
   O  -0.2687952   0.0363230  -0.2398936 SPIN=   0.00000
   P  -0.4723707   0.1944421  -0.2187570 SPIN=   0.00000
   O   0.5000000  -0.0000000   0.0000000 SPIN=   0.00000
   O   0.0000000   0.5000000  -0.5000000 SPIN=   0.00000
  Fe  -0.0125240  -0.2728024   0.3706511 SPIN=   2.89085
  Fe   0.0125240   0.2728024  -0.3706511 SPIN=   2.89085
  Fe   0.0000000   0.0000000   0.0000000 SPIN=   8.18834
  Fe   0.5000000  -0.5000000   0.0000000 SPIN=   2.02997
%ENDBLOCK POSITIONS_FRAC

# Note: total spin =  16.00

KPOINTS_MP_SPACING 0.07

%BLOCK SPECIES_POT
QC5
%ENDBLOCK SPECIES_POT

%BLOCK HUBBARD_U
Fe d:4.0
%ENDBLOCK HUBBARD_U

SNAP_TO_SYMMETRY
SYMMETRY_GENERATE

