#              Generated by Buildcell
#
# at 20:19:14 (GMT+0.0) 26th November 2020
# in /lustre/scratch/uccabz1/launch_tmp
# on node-c12p-025
# by uccabz1
#
# compiler GCC version 4.9.2
# options -cpp -iprefix /lustre/shared/ucl/apps/gcc/4.9.2/bin/../lib/gcc/x86_64-unknown-linux-gnu/4.9.2/ -mtune=corei7 -march=x86-64 -g -Og
#
# seed -1753166154  1969520168 -1510296277   -43730960  -651956757  1180507882 -1779335176  -870367263   204215441  -816030500   -33551854   339418584
#
#      Author: C. J. Pickard (cjp20@cam.ac.uk)
#                Space group: Pca21
#

%BLOCK LATTICE_ABC
      5.33055      5.65324     10.61893
     90.00000     90.00000     90.00000
%ENDBLOCK LATTICE_ABC

%BLOCK POSITIONS_FRAC
  Li   0.2973000  -0.1697648  -0.3167678 SPIN=   0.00000
  Li  -0.2027000   0.1697648   0.3167678 SPIN=   0.00000
  Li   0.2973000   0.1697648   0.1832322 SPIN=   0.00000
  Li  -0.2027000  -0.1697648  -0.1832322 SPIN=   0.00000
   O   0.3043234   0.2588286  -0.5924995 SPIN=   0.00000
   O   0.2978153   0.4766191  -0.3770783 SPIN=   0.00000
   O   0.0704090   0.0975640  -0.3957716 SPIN=   0.00000
   O   0.5402028   0.0991305  -0.3977801 SPIN=   0.00000
   P   0.3060452   0.2328287  -0.4483531 SPIN=   0.00000
   O  -0.1956766  -0.2588286   0.5924995 SPIN=   0.00000
   O  -0.2021847  -0.4766191   0.3770783 SPIN=   0.00000
   O  -0.4295910  -0.0975640   0.3957716 SPIN=   0.00000
   O   0.0402028  -0.0991305   0.3977801 SPIN=   0.00000
   P  -0.1939548  -0.2328287   0.4483531 SPIN=   0.00000
   O   0.3043234  -0.2588286  -0.0924995 SPIN=   0.00000
   O   0.2978153  -0.4766191   0.1229217 SPIN=   0.00000
   O   0.0704090  -0.0975640   0.1042284 SPIN=   0.00000
   O   0.5402028  -0.0991305   0.1022199 SPIN=   0.00000
   P   0.3060452  -0.2328287   0.0516469 SPIN=   0.00000
   O  -0.1956766   0.2588286   0.0924995 SPIN=   0.00000
   O  -0.2021847   0.4766191  -0.1229217 SPIN=   0.00000
   O  -0.4295910   0.0975640  -0.1042284 SPIN=   0.00000
   O   0.0402028   0.0991305  -0.1022199 SPIN=   0.00000
   P  -0.1939548   0.2328287  -0.0516469 SPIN=   0.00000
  Fe   0.3060330   0.3714391  -0.1160756 SPIN=   4.00000
  Fe  -0.1939670  -0.3714391   0.1160756 SPIN=   4.00000
  Fe   0.3060330  -0.3714391   0.3839244 SPIN=   4.00000
  Fe  -0.1939670   0.3714391  -0.3839244 SPIN=   4.00000
%ENDBLOCK POSITIONS_FRAC

# Note: total spin =  16.00

KPOINTS_MP_SPACING 0.07

%BLOCK SPECIES_POT
QC5
%ENDBLOCK SPECIES_POT

%BLOCK HUBBARD_U
Fe d:4.0
%ENDBLOCK HUBBARD_U

SNAP_TO_SYMMETRY
SYMMETRY_GENERATE

