#              Generated by Buildcell
#
# at 20:34:29 (GMT+0.0) 26th November 2020
# in /lustre/scratch/uccabz1/launch_tmp
# on node-c12e-029
# by uccabz1
#
# compiler GCC version 4.9.2
# options -cpp -iprefix /lustre/shared/ucl/apps/gcc/4.9.2/bin/../lib/gcc/x86_64-unknown-linux-gnu/4.9.2/ -mtune=corei7 -march=x86-64 -g -Og
#
# seed  -174535238 -2010236906   526855358 -1235824532  -533484235 -1593546784   321511762  1242862407  1251850998   790035758  -244027324   453370340
#
#      Author: C. J. Pickard (cjp20@cam.ac.uk)
#                Space group: Pc
#

%BLOCK LATTICE_ABC
      6.43039      6.81921      7.38926
     90.00000     90.00000     99.03516
%ENDBLOCK LATTICE_ABC

%BLOCK POSITIONS_FRAC
  Li   0.2865329   0.1510663   0.1824986 SPIN=   0.00000
  Li   0.2865329  -0.3489337  -0.1824986 SPIN=   0.00000
  Li  -0.4628208   0.0461614  -0.2939338 SPIN=   0.00000
  Li  -0.4628208  -0.4538386   0.2939338 SPIN=   0.00000
   O   0.0821714  -0.1172710  -0.3105927 SPIN=   0.00000
   O   0.1918516   0.2322762  -0.1687314 SPIN=   0.00000
   O  -0.0071221  -0.0316196   0.0201758 SPIN=   0.00000
   O   0.3671193  -0.0498602  -0.0622569 SPIN=   0.00000
   P   0.1569026   0.0010037  -0.1391447 SPIN=   0.00000
   O   0.0821714  -0.6172710   0.3105927 SPIN=   0.00000
   O   0.1918516  -0.2677238   0.1687314 SPIN=   0.00000
   O  -0.0071221  -0.5316196  -0.0201758 SPIN=   0.00000
   O   0.3671193  -0.5498602   0.0622569 SPIN=   0.00000
   P   0.1569026  -0.4989963   0.1391447 SPIN=   0.00000
   O  -0.6473654  -0.1580343   0.4613176 SPIN=   0.00000
   O  -0.4308147   0.1622411   0.3262485 SPIN=   0.00000
   O  -0.2391136  -0.0792412   0.4764592 SPIN=   0.00000
   O  -0.4138575  -0.1649613   0.1776916 SPIN=   0.00000
   P  -0.4439896  -0.0664575   0.3636445 SPIN=   0.00000
   O  -0.6473654   0.3419657  -0.4613176 SPIN=   0.00000
   O  -0.4308147   0.6622411  -0.3262485 SPIN=   0.00000
   O  -0.2391136   0.4207588  -0.4764592 SPIN=   0.00000
   O  -0.4138575   0.3350387  -0.1776916 SPIN=   0.00000
   P  -0.4439896   0.4335425  -0.3636445 SPIN=   0.00000
  Fe   0.0057440   0.2763649  -0.3874469 SPIN=   6.03331
  Fe   0.0057440  -0.2236351   0.3874469 SPIN=   6.03331
  Fe  -0.2055149   0.2037638   0.1193893 SPIN=   1.96669
  Fe  -0.2055149  -0.2962362  -0.1193893 SPIN=   1.96669
%ENDBLOCK POSITIONS_FRAC

# Note: total spin =  16.00

KPOINTS_MP_SPACING 0.07

%BLOCK SPECIES_POT
QC5
%ENDBLOCK SPECIES_POT

%BLOCK HUBBARD_U
Fe d:4.0
%ENDBLOCK HUBBARD_U

SNAP_TO_SYMMETRY
SYMMETRY_GENERATE

