#              Generated by Buildcell
#
# at 22:52:32 (GMT+0.0) 26th November 2020
# in /lustre/scratch/uccabz1/launch_tmp
# on node-c12o-035
# by uccabz1
#
# compiler GCC version 4.9.2
# options -cpp -iprefix /lustre/shared/ucl/apps/gcc/4.9.2/bin/../lib/gcc/x86_64-unknown-linux-gnu/4.9.2/ -mtune=corei7 -march=x86-64 -g -Og
#
# seed   357979078   -78691140   348484885 -1443569441  1724905791 -2135037341   485406009 -1403232857  2108201702   403006092 -1659645476   -36288976
#
#      Author: C. J. Pickard (cjp20@cam.ac.uk)
#                Space group: P-1
#

%BLOCK LATTICE_ABC
      5.65279      6.75189      8.65913
     86.51431     87.36438     76.06089
%ENDBLOCK LATTICE_ABC

%BLOCK POSITIONS_FRAC
  Li   0.2577570   0.1477769  -0.0260690 SPIN=   0.00000
  Li  -0.2577570  -0.1477769   0.0260690 SPIN=   0.00000
  Li  -0.2815615   0.2941598  -0.0565192 SPIN=   0.00000
  Li   0.2815615  -0.2941598   0.0565192 SPIN=   0.00000
   O   0.3572228   0.1941411  -0.4224228 SPIN=   0.00000
   O  -0.0280760   0.1601319  -0.2575424 SPIN=   0.00000
   O   0.1636209  -0.1172295  -0.4291049 SPIN=   0.00000
   O   0.3767140  -0.0698154  -0.1917317 SPIN=   0.00000
   P   0.2266973   0.0486008  -0.3288019 SPIN=   0.00000
   O  -0.3572228  -0.1941411   0.4224228 SPIN=   0.00000
   O   0.0280760  -0.1601319   0.2575424 SPIN=   0.00000
   O  -0.1636209   0.1172295   0.4291049 SPIN=   0.00000
   O  -0.3767140   0.0698154   0.1917317 SPIN=   0.00000
   P  -0.2266973  -0.0486008   0.3288019 SPIN=   0.00000
   O   0.1662693   0.4394410   0.3712659 SPIN=   0.00000
   O   0.0461401   0.1945723   0.1853975 SPIN=   0.00000
   O  -0.0852221   0.5663806   0.1256069 SPIN=   0.00000
   O   0.3564037   0.3891710   0.0951992 SPIN=   0.00000
   P   0.1260928   0.3995331   0.2026161 SPIN=   0.00000
   O  -0.1662693  -0.4394410  -0.3712659 SPIN=   0.00000
   O  -0.0461401  -0.1945723  -0.1853975 SPIN=   0.00000
   O   0.0852221  -0.5663806  -0.1256069 SPIN=   0.00000
   O  -0.3564037  -0.3891710  -0.0951992 SPIN=   0.00000
   P  -0.1260928  -0.3995331  -0.2026161 SPIN=   0.00000
  Fe   0.3577093  -0.4064203  -0.3057133 SPIN=   3.56054
  Fe  -0.3577093   0.4064203   0.3057133 SPIN=   3.56054
  Fe  -0.2612659   0.0023238  -0.3466776 SPIN=   4.43946
  Fe   0.2612659  -0.0023238   0.3466776 SPIN=   4.43946
%ENDBLOCK POSITIONS_FRAC

# Note: total spin =  16.00

KPOINTS_MP_SPACING 0.07

%BLOCK SPECIES_POT
QC5
%ENDBLOCK SPECIES_POT

%BLOCK HUBBARD_U
Fe d:4.0
%ENDBLOCK HUBBARD_U

SNAP_TO_SYMMETRY
SYMMETRY_GENERATE

