#              Generated by Buildcell
#
# at 18:56:08 (GMT+0.0) 26th November 2020
# in /scratch/scratch/uccabz1/launch_tmp
# on node-k10f-007
# by uccabz1
#
# compiler GCC version 4.9.2
# options -cpp -iprefix /scratch/UCL/applications/gcc/4.9.2/bin/../lib/gcc/x86_64-unknown-linux-gnu/4.9.2/ -mtune=corei7 -march=x86-64 -g -O2
#
# seed -1780282785 -1738533686    49909272 -1681828304  -561474444    28806146  -743533983 -1059546783 -1447436602   689048967  -657293459   115274837
#
#      Author: C. J. Pickard (cjp20@cam.ac.uk)
#                Space group: Pca21
#

%BLOCK LATTICE_ABC
      4.83294      7.83987      8.44559
     90.00000     90.00000     90.00000
%ENDBLOCK LATTICE_ABC

%BLOCK POSITIONS_FRAC
  Li   0.2828570  -0.1762545  -0.0571141 SPIN=   0.00000
  Li  -0.2828570   0.3237455   0.0571141 SPIN=   0.00000
  Li  -0.2828570  -0.1762545   0.4428859 SPIN=   0.00000
  Li   0.2828570   0.3237455  -0.4428859 SPIN=   0.00000
   O   0.2075119  -0.3114104  -0.5138857 SPIN=   0.00000
   O   0.0115987  -0.1776702  -0.2557168 SPIN=   0.00000
   O   0.5107147  -0.2441904  -0.2676444 SPIN=   0.00000
   O   0.3219233  -0.0028301  -0.4290747 SPIN=   0.00000
   P   0.2606821  -0.1886696  -0.3751612 SPIN=   0.00000
   O  -0.2075119   0.1885896   0.5138857 SPIN=   0.00000
   O  -0.0115987   0.3223298   0.2557168 SPIN=   0.00000
   O  -0.5107147   0.2558096   0.2676444 SPIN=   0.00000
   O  -0.3219233   0.4971699   0.4290747 SPIN=   0.00000
   P  -0.2606821   0.3113304   0.3751612 SPIN=   0.00000
   O  -0.2075119  -0.3114104  -0.0138857 SPIN=   0.00000
   O  -0.0115987  -0.1776702   0.2442832 SPIN=   0.00000
   O  -0.5107147  -0.2441904   0.2323556 SPIN=   0.00000
   O  -0.3219233  -0.0028301   0.0709253 SPIN=   0.00000
   P  -0.2606821  -0.1886696   0.1248388 SPIN=   0.00000
   O   0.2075119   0.1885896   0.0138857 SPIN=   0.00000
   O   0.0115987   0.3223298  -0.2442832 SPIN=   0.00000
   O   0.5107147   0.2558096  -0.2323556 SPIN=   0.00000
   O   0.3219233   0.4971699  -0.0709253 SPIN=   0.00000
   P   0.2606821   0.3113304  -0.1248388 SPIN=   0.00000
  Fe  -0.1541550  -0.4262545  -0.2500000 SPIN=   4.00000
  Fe   0.1541550   0.0737455   0.2500000 SPIN=   4.00000
  Fe   0.1541550  -0.4262545   0.2500000 SPIN=   4.00000
  Fe  -0.1541550   0.0737455  -0.2500000 SPIN=   4.00000
%ENDBLOCK POSITIONS_FRAC

# Note: total spin =  16.00

KPOINTS_MP_SPACING 0.07

%BLOCK SPECIES_POT
QC5
%ENDBLOCK SPECIES_POT

%BLOCK HUBBARD_U
Fe d:4.0
%ENDBLOCK HUBBARD_U

SNAP_TO_SYMMETRY
SYMMETRY_GENERATE

