#              Generated by Buildcell
#
# at 01:20:02 (GMT+0.0) 27th November 2020
# in /lustre/scratch/uccabz1/launch_tmp
# on node-c12g-033
# by uccabz1
#
# compiler GCC version 4.9.2
# options -cpp -iprefix /lustre/shared/ucl/apps/gcc/4.9.2/bin/../lib/gcc/x86_64-unknown-linux-gnu/4.9.2/ -mtune=corei7 -march=x86-64 -g -Og
#
# seed -1809410544   819400808 -1499321895   101851503 -1704140138   919519310  -521514803   868143384   672983097 -1313707773   662990420   817624986
#
#      Author: C. J. Pickard (cjp20@cam.ac.uk)
#                Space group: Cm
#

%BLOCK LATTICE_ABC
      4.94219      8.38117      8.38117
     70.08697     80.71331     80.71331
%ENDBLOCK LATTICE_ABC

%BLOCK POSITIONS_FRAC
  Li  -0.1666828   0.4062373  -0.0314511 SPIN=   0.00000
  Li  -0.1666828  -0.0314511   0.4062373 SPIN=   0.00000
  Li   0.0889654  -0.2022711   0.1415155 SPIN=   0.00000
  Li   0.0889654   0.1415155  -0.2022711 SPIN=   0.00000
   O  -0.4285684  -0.1151741   0.1409321 SPIN=   0.00000
   O  -0.2663442  -0.3123536   0.4310334 SPIN=   0.00000
   O  -0.7280420  -0.3334144   0.3679148 SPIN=   0.00000
   O  -0.3065811  -0.4410199   0.2076616 SPIN=   0.00000
   P  -0.4306961  -0.2922817   0.2781793 SPIN=   0.00000
   O  -0.4285684   0.1409321  -0.1151741 SPIN=   0.00000
   O  -0.2663442   0.4310334  -0.3123536 SPIN=   0.00000
   O  -0.7280420   0.3679148  -0.3334144 SPIN=   0.00000
   O  -0.3065811   0.2076616  -0.4410199 SPIN=   0.00000
   P  -0.4306961   0.2781793  -0.2922817 SPIN=   0.00000
   O   0.0115817  -0.3257807  -0.0520173 SPIN=   0.00000
   O   0.2661564  -0.6252507  -0.0408287 SPIN=   0.00000
   O   0.5417175  -0.3823003  -0.1262216 SPIN=   0.00000
   P   0.2741290  -0.4510484  -0.0103594 SPIN=   0.00000
   O   0.0115817  -0.0520173  -0.3257807 SPIN=   0.00000
   O   0.2661564  -0.0408287  -0.6252507 SPIN=   0.00000
   O   0.5417175  -0.1262216  -0.3823003 SPIN=   0.00000
   P   0.2741290  -0.0103594  -0.4510484 SPIN=   0.00000
   O   0.0006456   0.2441588   0.2441588 SPIN=   0.00000
   O  -0.0456815   0.0678806   0.0678806 SPIN=   0.00000
  Fe   0.3043714  -0.3743307  -0.3743307 SPIN=   0.31430
  Fe  -0.0691618   0.4006939   0.4006939 SPIN=   5.65167
  Fe  -0.3223834  -0.1500666  -0.1500666 SPIN=   8.11688
  Fe   0.3708214   0.1329093   0.1329093 SPIN=   1.91715
%ENDBLOCK POSITIONS_FRAC

# Note: total spin =  16.00

KPOINTS_MP_SPACING 0.07

%BLOCK SPECIES_POT
QC5
%ENDBLOCK SPECIES_POT

%BLOCK HUBBARD_U
Fe d:4.0
%ENDBLOCK HUBBARD_U

SNAP_TO_SYMMETRY
SYMMETRY_GENERATE

