#              Generated by Buildcell
#
# at 09:55:07 (GMT+0.0) 24th November 2020
# in /lustre/scratch/uccabz1/launch_tmp
# on node-c12p-022
# by uccabz1
#
# compiler GCC version 4.9.2
# options -cpp -iprefix /lustre/shared/ucl/apps/gcc/4.9.2/bin/../lib/gcc/x86_64-unknown-linux-gnu/4.9.2/ -mtune=corei7 -march=x86-64 -g -Og
#
# seed   427156971  1576426039   155252951  2024945227  -683877082 -1673400844 -1572342277 -1377984615  1619978466   196920807  1453807087  -413415058
#
#      Author: C. J. Pickard (cjp20@cam.ac.uk)
#                Space group: Cm
#

%BLOCK LATTICE_ABC
      3.89604      6.41856      6.41856
     88.13630     87.00787     87.00787
%ENDBLOCK LATTICE_ABC

%BLOCK POSITIONS_FRAC
  Li  -0.4225163   0.1417128   0.1417128 SPIN=   0.00000
  Li  -0.1188193   0.4876272   0.4876272 SPIN=   0.00000
   O  -0.1255804  -0.1909344   0.1741323 SPIN=   0.00000
   O   0.3697786  -0.1113003   0.4106536 SPIN=   0.00000
   O  -0.1511385   0.1253277   0.4179980 SPIN=   0.00000
   P  -0.0296995  -0.1093865   0.3850006 SPIN=   0.00000
   O  -0.1255804   0.1741323  -0.1909344 SPIN=   0.00000
   O   0.3697786   0.4106536  -0.1113003 SPIN=   0.00000
   O  -0.1511385   0.4179980   0.1253277 SPIN=   0.00000
   P  -0.0296995   0.3850006  -0.1093865 SPIN=   0.00000
   O  -0.4626946  -0.1394164  -0.1394164 SPIN=   0.00000
   O   0.0651465  -0.3033553  -0.3033553 SPIN=   0.00000
  Fe   0.4020116  -0.3513532   0.1009055 SPIN=   4.00000
  Fe   0.4020116   0.1009055  -0.3513532 SPIN=   4.00000
%ENDBLOCK POSITIONS_FRAC

# Note: total spin =   8.00

KPOINTS_MP_SPACING 0.07

%BLOCK SPECIES_POT
QC5
%ENDBLOCK SPECIES_POT

%BLOCK HUBBARD_U
Fe d:4.0
%ENDBLOCK HUBBARD_U

SNAP_TO_SYMMETRY
SYMMETRY_GENERATE

