#              Generated by Buildcell
#
# at 09:38:44 (GMT+0.0) 24th November 2020
# in /lustre/scratch/uccabz1/launch_tmp
# on node-c12j-029
# by uccabz1
#
# compiler GCC version 4.9.2
# options -cpp -iprefix /lustre/shared/ucl/apps/gcc/4.9.2/bin/../lib/gcc/x86_64-unknown-linux-gnu/4.9.2/ -mtune=corei7 -march=x86-64 -g -Og
#
# seed  1803186135  1745052254 -1186412908   -44468586  -234414370  1407527315  1830347121  -529613181  1398542659  2030430707   -59687018   877660641
#
#      Author: C. J. Pickard (cjp20@cam.ac.uk)
#                Space group: Fdd2
#

%BLOCK LATTICE_ABC
      5.38474      5.38474      6.58737
    109.86306    109.86306     99.71127
%ENDBLOCK LATTICE_ABC

%BLOCK POSITIONS_FRAC
  Li   0.2859831  -0.2140169  -0.4280338 SPIN=   0.00000
  Li  -0.4640169  -0.4640169  -0.9280338 SPIN=   0.00000
   O  -0.0506193   0.4493171   0.2775675 SPIN=   0.00000
   O  -0.1825885   0.0100904   0.3496631 SPIN=   0.00000
   O   0.3281869  -0.1717496   0.2775675 SPIN=   0.00000
   O   0.5322517   0.3395727   0.3496631 SPIN=   0.00000
   O  -0.4217496  -0.4218131  -0.2224325 SPIN=   0.00000
   O   0.0895727  -0.2177483  -0.1503369 SPIN=   0.00000
   O   0.1993171   0.1993807  -0.2224325 SPIN=   0.00000
   O  -0.2399096   0.0674115  -0.1503369 SPIN=   0.00000
   P  -0.2241162  -0.2241162  -0.4482323 SPIN=   0.00000
   P   0.5258838   0.0258838   0.0517677 SPIN=   0.00000
  Fe   0.8628081   0.3628081   0.7256163 SPIN=   4.00000
  Fe   0.1128081   0.1128081   0.2256163 SPIN=   4.00000
%ENDBLOCK POSITIONS_FRAC

# Note: total spin =   8.00

KPOINTS_MP_SPACING 0.07

%BLOCK SPECIES_POT
QC5
%ENDBLOCK SPECIES_POT

%BLOCK HUBBARD_U
Fe d:4.0
%ENDBLOCK HUBBARD_U

SNAP_TO_SYMMETRY
SYMMETRY_GENERATE

