#              Generated by Buildcell
#
# at 07:57:19 (GMT+0.0) 24th November 2020
# in /lustre/scratch/uccabz1/launch_tmp
# on node-c12a-034
# by uccabz1
#
# compiler GCC version 4.9.2
# options -cpp -iprefix /lustre/shared/ucl/apps/gcc/4.9.2/bin/../lib/gcc/x86_64-unknown-linux-gnu/4.9.2/ -mtune=corei7 -march=x86-64 -g -Og
#
# seed   798635452 -1844607016 -1487018378 -1616988044 -1162969419  -274877049   759605305  -937669799 -1661744478 -1484785994   637249558   110182016
#
#      Author: C. J. Pickard (cjp20@cam.ac.uk)
#                Space group: C2/m
#

%BLOCK LATTICE_ABC
      5.47937      5.48327      6.50115
    112.57757    112.55733     95.14364
%ENDBLOCK LATTICE_ABC

%BLOCK POSITIONS_FRAC
  Li   0.0000000  -0.0000000   0.0000000 SPIN=   0.00000
  Li  -0.5000000  -0.5000000  -0.0000000 SPIN=   0.00000
   O  -0.0428552   0.3052574   0.2966135 SPIN=   0.00000
   O  -0.2316838  -0.1312537   0.3184948 SPIN=   0.00000
   O   0.3394688  -0.0086439   0.2966135 SPIN=   0.00000
   O   0.5501786   0.4497485   0.3184948 SPIN=   0.00000
   O   0.0428552  -0.3052574  -0.2966135 SPIN=   0.00000
   O   0.2316838   0.1312537  -0.3184948 SPIN=   0.00000
   O  -0.3394688   0.0086439  -0.2966135 SPIN=   0.00000
   O  -0.5501786  -0.4497485  -0.3184948 SPIN=   0.00000
   P  -0.2499584  -0.2499584  -0.4999168 SPIN=   0.00000
   P   0.2499584   0.2499584   0.4999168 SPIN=   0.00000
  Fe  -0.1807156   0.3192844   0.6385687 SPIN=   4.00000
  Fe  -0.8192844  -0.3192844  -0.6385687 SPIN=   4.00000
%ENDBLOCK POSITIONS_FRAC

# Note: total spin =   8.00

KPOINTS_MP_SPACING 0.07

%BLOCK SPECIES_POT
QC5
%ENDBLOCK SPECIES_POT

%BLOCK HUBBARD_U
Fe d:4.0
%ENDBLOCK HUBBARD_U

SNAP_TO_SYMMETRY
SYMMETRY_GENERATE

