#              Generated by Buildcell
#
# at 13:01:19 (GMT+0.0) 24th November 2020
# in /lustre/scratch/uccabz1/launch_tmp
# on node-c12o-023
# by uccabz1
#
# compiler GCC version 4.9.2
# options -cpp -iprefix /lustre/shared/ucl/apps/gcc/4.9.2/bin/../lib/gcc/x86_64-unknown-linux-gnu/4.9.2/ -mtune=corei7 -march=x86-64 -g -Og
#
# seed -1580205326  1324315780   453897039 -1029052380   948998773   257824375  -231450292  1604737233 -1679498109   918693995   959597754  1247049402
#
#      Author: C. J. Pickard (cjp20@cam.ac.uk)
#                Space group: Cm
#

%BLOCK LATTICE_ABC
      5.54423      6.13230      6.13230
     93.07072    116.11284    116.11284
%ENDBLOCK LATTICE_ABC

%BLOCK POSITIONS_FRAC
  Li  -0.4220957   0.4274189  -0.0734244 SPIN=   0.00000
  Li  -0.4220957  -0.0734244   0.4274189 SPIN=   0.00000
   O   0.3978075   0.6341082   0.0173828 SPIN=   0.00000
   O   0.1348767   0.1412418  -0.1329909 SPIN=   0.00000
   O  -0.0816937   0.3220546   0.0472011 SPIN=   0.00000
   O  -0.1542020   0.3448001  -0.3822022 SPIN=   0.00000
   O   0.3978075   0.0173828   0.6341082 SPIN=   0.00000
   O   0.1348767  -0.1329909   0.1412418 SPIN=   0.00000
   O  -0.0816937   0.0472011   0.3220546 SPIN=   0.00000
   O  -0.1542020  -0.3822022   0.3448001 SPIN=   0.00000
   P  -0.1199243   0.3858251   0.3858251 SPIN=   0.00000
   P  -0.2464459  -0.1004807  -0.1004807 SPIN=   0.00000
  Fe   0.1658379  -0.1919131  -0.1919131 SPIN=   3.85401
  Fe   0.3093476   0.3155608   0.3155608 SPIN=   4.14599
%ENDBLOCK POSITIONS_FRAC

# Note: total spin =   8.00

KPOINTS_MP_SPACING 0.07

%BLOCK SPECIES_POT
QC5
%ENDBLOCK SPECIES_POT

%BLOCK HUBBARD_U
Fe d:4.0
%ENDBLOCK HUBBARD_U

SNAP_TO_SYMMETRY
SYMMETRY_GENERATE

