#              Generated by Buildcell
#
# at 13:27:30 (GMT+0.0) 24th November 2020
# in /lustre/scratch/uccabz1/launch_tmp
# on node-c12j-029
# by uccabz1
#
# compiler GCC version 4.9.2
# options -cpp -iprefix /lustre/shared/ucl/apps/gcc/4.9.2/bin/../lib/gcc/x86_64-unknown-linux-gnu/4.9.2/ -mtune=corei7 -march=x86-64 -g -Og
#
# seed  1858830109   821217492 -1001726683  1439314429  -264320250 -1158578744 -1495052294  1095990455   876586200   899848203  -783004607  -517912192
#
#      Author: C. J. Pickard (cjp20@cam.ac.uk)
#                Space group: P-1
#

%BLOCK LATTICE_ABC
      4.44325      5.07553      7.72409
     94.72666     95.30557    111.58748
%ENDBLOCK LATTICE_ABC

%BLOCK POSITIONS_FRAC
  Li  -0.1749169   0.0335473   0.2852071 SPIN=   0.00000
  Li   0.1749169  -0.0335473  -0.2852071 SPIN=   0.00000
   O   0.2440327   0.4378605   0.2338903 SPIN=   0.00000
   O   0.1862792  -0.0905958   0.1714852 SPIN=   0.00000
   O   0.3963237   0.2324867  -0.0494162 SPIN=   0.00000
   P   0.3891352   0.2311167   0.1537346 SPIN=   0.00000
   O  -0.2440327  -0.4378605  -0.2338903 SPIN=   0.00000
   O  -0.1862792   0.0905958  -0.1714852 SPIN=   0.00000
   O  -0.3963237  -0.2324867   0.0494162 SPIN=   0.00000
   P  -0.3891352  -0.2311167  -0.1537346 SPIN=   0.00000
   O   0.5000000   0.0000000  -0.5000000 SPIN=   0.00000
   O   0.0000000   0.5000000  -0.5000000 SPIN=   0.00000
  Fe  -0.5000000  -0.5000000  -0.5000000 SPIN=   5.14512
  Fe   1.0000000   0.5000000  -0.0000000 SPIN=   2.85488
%ENDBLOCK POSITIONS_FRAC

# Note: total spin =   8.00

KPOINTS_MP_SPACING 0.07

%BLOCK SPECIES_POT
QC5
%ENDBLOCK SPECIES_POT

%BLOCK HUBBARD_U
Fe d:4.0
%ENDBLOCK HUBBARD_U

SNAP_TO_SYMMETRY
SYMMETRY_GENERATE

