#              Generated by Buildcell
#
# at 14:02:28 (GMT+0.0) 24th November 2020
# in /lustre/scratch/uccabz1/launch_tmp
# on node-c12n-028
# by uccabz1
#
# compiler GCC version 4.9.2
# options -cpp -iprefix /lustre/shared/ucl/apps/gcc/4.9.2/bin/../lib/gcc/x86_64-unknown-linux-gnu/4.9.2/ -mtune=corei7 -march=x86-64 -g -Og
#
# seed  1269221279 -1088904234    28732232   371014977 -1575662350 -1783339236 -1914696777  1149979832   924596031  1683545045  -195337979   587673617
#
#      Author: C. J. Pickard (cjp20@cam.ac.uk)
#                Space group: P-1
#

%BLOCK LATTICE_ABC
      5.00201      6.07191      6.23311
     67.14603     67.98402     88.79496
%ENDBLOCK LATTICE_ABC

%BLOCK POSITIONS_FRAC
  Li  -0.4719412  -0.2607200  -0.4812410 SPIN=   0.00000
  Li   0.4719412   0.2607200   0.4812410 SPIN=   0.00000
   O  -0.1486813   0.1327925   0.3066490 SPIN=   0.00000
   O   0.2569813   0.4946196  -0.0280575 SPIN=   0.00000
   O   0.3961930   0.1300688   0.2392447 SPIN=   0.00000
   O   0.2447821   0.1149898  -0.0955107 SPIN=   0.00000
   P   0.1701065   0.2123576   0.1139141 SPIN=   0.00000
   O   0.1486813  -0.1327925  -0.3066490 SPIN=   0.00000
   O  -0.2569813  -0.4946196   0.0280575 SPIN=   0.00000
   O  -0.3961930  -0.1300688  -0.2392447 SPIN=   0.00000
   O  -0.2447821  -0.1149898   0.0955107 SPIN=   0.00000
   P  -0.1701065  -0.2123576  -0.1139141 SPIN=   0.00000
  Fe  -0.1997294   0.2717912  -0.1520713 SPIN=   4.00000
  Fe   0.1997294  -0.2717912   0.1520713 SPIN=   4.00000
%ENDBLOCK POSITIONS_FRAC

# Note: total spin =   8.00

KPOINTS_MP_SPACING 0.07

%BLOCK SPECIES_POT
QC5
%ENDBLOCK SPECIES_POT

%BLOCK HUBBARD_U
Fe d:4.0
%ENDBLOCK HUBBARD_U

SNAP_TO_SYMMETRY
SYMMETRY_GENERATE

