#              Generated by Buildcell
#
# at 21:03:45 (GMT+0.0) 26th November 2020
# in /lustre/scratch/uccabz1/launch_tmp
# on node-c12b-023
# by uccabz1
#
# compiler GCC version 4.9.2
# options -cpp -iprefix /lustre/shared/ucl/apps/gcc/4.9.2/bin/../lib/gcc/x86_64-unknown-linux-gnu/4.9.2/ -mtune=corei7 -march=x86-64 -g -Og
#
# seed -1774524813  1575516200 -1654312086  -292261101   316650648   942917590  1322012658  1316812885 -2117124276  1144847087   882396307 -1690270929
#
#      Author: C. J. Pickard (cjp20@cam.ac.uk)
#                Space group: Pmn21
#

%BLOCK LATTICE_ABC
      6.50149      6.61526      7.44029
     90.00000     90.00000     90.00000
%ENDBLOCK LATTICE_ABC

%BLOCK POSITIONS_FRAC
  Li   0.4872499  -0.3290101   0.0000000 SPIN=   0.00000
  Li  -0.4872499   0.1709899  -0.5000000 SPIN=   0.00000
  Li  -0.0243815   0.0648972   0.0000000 SPIN=   0.00000
  Li   0.0243815  -0.4351028  -0.5000000 SPIN=   0.00000
   O  -0.3354771   0.4800304  -0.1659121 SPIN=   0.00000
   O   0.0195593   0.3084879  -0.2151293 SPIN=   0.00000
   O  -0.2854272   0.0905142  -0.1748509 SPIN=   0.00000
   P  -0.2187029   0.3022251  -0.2514208 SPIN=   0.00000
   O   0.3354771  -0.0199696  -0.3340879 SPIN=   0.00000
   O  -0.0195593  -0.1915121  -0.2848707 SPIN=   0.00000
   O   0.2854272  -0.4094858  -0.3251491 SPIN=   0.00000
   P   0.2187029  -0.1977749  -0.2485792 SPIN=   0.00000
   O   0.3354771  -0.0199696   0.3340879 SPIN=   0.00000
   O  -0.0195593  -0.1915121   0.2848707 SPIN=   0.00000
   O   0.2854272  -0.4094858   0.3251491 SPIN=   0.00000
   P   0.2187029  -0.1977749   0.2485792 SPIN=   0.00000
   O  -0.3354771   0.4800304   0.1659121 SPIN=   0.00000
   O   0.0195593   0.3084879   0.2151293 SPIN=   0.00000
   O  -0.2854272   0.0905142   0.1748509 SPIN=   0.00000
   P  -0.2187029   0.3022251   0.2514208 SPIN=   0.00000
   O   0.2687431  -0.0890398   0.0000000 SPIN=   0.00000
   O  -0.2687431   0.4109602   0.5000000 SPIN=   0.00000
   O   0.2827080   0.4243241   0.0000000 SPIN=   0.00000
   O  -0.2827080  -0.0756759   0.5000000 SPIN=   0.00000
  Fe   0.4745486   0.1697429   0.0000000 SPIN=   3.33815
  Fe  -0.4745486  -0.3302571  -0.5000000 SPIN=   3.33815
  Fe  -0.0163870  -0.4352396   0.0000000 SPIN=   4.66185
  Fe   0.0163870   0.0647604  -0.5000000 SPIN=   4.66185
%ENDBLOCK POSITIONS_FRAC

# Note: total spin =  16.00

KPOINTS_MP_SPACING 0.07

%BLOCK SPECIES_POT
QC5
%ENDBLOCK SPECIES_POT

%BLOCK HUBBARD_U
Fe d:4.0
%ENDBLOCK HUBBARD_U

SNAP_TO_SYMMETRY
SYMMETRY_GENERATE

