#              Generated by Buildcell
#
# at 07:54:21 (GMT+0.0) 24th November 2020
# in /scratch/scratch/uccabz1/launch_tmp
# on node-a14c-023
# by uccabz1
#
# compiler GCC version 4.9.2
# options -cpp -iprefix /scratch/UCL/applications/gcc/4.9.2/bin/../lib/gcc/x86_64-unknown-linux-gnu/4.9.2/ -mtune=corei7 -march=x86-64 -g -O2
#
# seed  1364063126   500940638 -1035563423  1025793919  1174186337  1168955332  -284991531 -1973602221  1825143361  -908443823  -212958214   261261482
#
#      Author: C. J. Pickard (cjp20@cam.ac.uk)
#                Space group: P2
#

%BLOCK LATTICE_ABC
      3.84193      5.60423      7.45601
     94.68305     90.00000     90.00000
%ENDBLOCK LATTICE_ABC

%BLOCK POSITIONS_FRAC
  Li  -0.1626980  -0.1097753   0.2289465 SPIN=   0.00000
  Li  -0.1626980   0.1097753  -0.2289465 SPIN=   0.00000
   O  -0.1511176  -0.1861818  -0.4183533 SPIN=   0.00000
   O  -0.1588710  -0.2311197  -0.0743111 SPIN=   0.00000
   O  -0.6625024  -0.0389851  -0.2097596 SPIN=   0.00000
   O  -0.5655807  -0.4794685  -0.2747179 SPIN=   0.00000
   O  -0.1511176   0.1861818   0.4183533 SPIN=   0.00000
   O  -0.1588710   0.2311197   0.0743111 SPIN=   0.00000
   O  -0.6625024   0.0389851   0.2097596 SPIN=   0.00000
   O  -0.5655807   0.4794685   0.2747179 SPIN=   0.00000
   P   0.3368588  -0.0000000   0.0000000 SPIN=   0.00000
   P   0.3623533  -0.0000000  -0.5000000 SPIN=   0.00000
  Fe   0.1121576   0.5000000  -0.5000000 SPIN=   5.85984
  Fe   0.3419498   0.5000000  -0.0000000 SPIN=   2.14016
%ENDBLOCK POSITIONS_FRAC

# Note: total spin =   8.00

KPOINTS_MP_SPACING 0.07

%BLOCK SPECIES_POT
QC5
%ENDBLOCK SPECIES_POT

%BLOCK HUBBARD_U
Fe d:4.0
%ENDBLOCK HUBBARD_U

SNAP_TO_SYMMETRY
SYMMETRY_GENERATE

