#              Generated by Buildcell
#
# at 10:39:11 (GMT+0.0) 24th November 2020
# in /lustre/scratch/uccabz1/launch_tmp
# on node-c12n-028
# by uccabz1
#
# compiler GCC version 4.9.2
# options -cpp -iprefix /lustre/shared/ucl/apps/gcc/4.9.2/bin/../lib/gcc/x86_64-unknown-linux-gnu/4.9.2/ -mtune=corei7 -march=x86-64 -g -Og
#
# seed   296567268    55019069   395847219  1345161529    71675928  1106775353   237101538  -305098431 -1768895854 -2029210122 -2109386812  1005057004
#
#      Author: C. J. Pickard (cjp20@cam.ac.uk)
#                Space group: P21/c
#

%BLOCK LATTICE_ABC
      5.35675      5.52014      5.69251
    108.09795     90.00000     90.00000
%ENDBLOCK LATTICE_ABC

%BLOCK POSITIONS_FRAC
  Li  -0.5000000   0.0000000   0.5000000 SPIN=   0.00000
  Li  -0.0000000  -0.5000000  -0.5000000 SPIN=   0.00000
   O   0.2599606  -0.2057735   0.2069016 SPIN=   0.00000
   O   0.6499356   0.0632691   0.1777909 SPIN=   0.00000
   O  -0.2400394  -0.2942265  -0.2069016 SPIN=   0.00000
   O   0.1499356  -0.5632691  -0.1777909 SPIN=   0.00000
   O  -0.2599606   0.2057735  -0.2069016 SPIN=   0.00000
   O  -0.6499356  -0.0632691  -0.1777909 SPIN=   0.00000
   O   0.2400394   0.2942265   0.2069016 SPIN=   0.00000
   O  -0.1499356   0.5632691   0.1777909 SPIN=   0.00000
   P  -0.0000000  -0.0000000  -0.5000000 SPIN=   0.00000
   P   0.5000000  -0.5000000  -0.5000000 SPIN=   0.00000
  Fe   0.0000000   0.0000000   0.0000000 SPIN=   4.00000
  Fe  -0.5000000  -0.5000000   0.0000000 SPIN=   4.00000
%ENDBLOCK POSITIONS_FRAC

# Note: total spin =   8.00

KPOINTS_MP_SPACING 0.07

%BLOCK SPECIES_POT
QC5
%ENDBLOCK SPECIES_POT

%BLOCK HUBBARD_U
Fe d:4.0
%ENDBLOCK HUBBARD_U

SNAP_TO_SYMMETRY
SYMMETRY_GENERATE

