#              Generated by Buildcell
#
# at 08:29:30 (GMT+0.0) 24th November 2020
# in /scratch/scratch/uccabz1/launch_tmp
# on node-a14c-007
# by uccabz1
#
# compiler GCC version 4.9.2
# options -cpp -iprefix /scratch/UCL/applications/gcc/4.9.2/bin/../lib/gcc/x86_64-unknown-linux-gnu/4.9.2/ -mtune=corei7 -march=x86-64 -g -O2
#
# seed  2020048257  1762671501 -1085445969 -1898869992 -1912240299 -1811890742 -1297267073  2111144550   247049646    44071581  -433030390  1831541226
#
#      Author: C. J. Pickard (cjp20@cam.ac.uk)
#                Space group: Pba2
#

%BLOCK LATTICE_ABC
      5.26588      5.51165      5.51274
     90.00000     90.00000     90.00000
%ENDBLOCK LATTICE_ABC

%BLOCK POSITIONS_FRAC
  Li  -0.3199510  -0.5000000   0.0000000 SPIN=   0.00000
  Li  -0.3199510  -0.0000000  -0.5000000 SPIN=   0.00000
   O   0.0364712   0.2623257  -0.1055432 SPIN=   0.00000
   O  -0.3579708   0.1573702   0.1573931 SPIN=   0.00000
   O   0.0364712  -0.2623257   0.1055432 SPIN=   0.00000
   O  -0.3579708  -0.1573702  -0.1573931 SPIN=   0.00000
   O   0.0364712   0.2376743  -0.6055432 SPIN=   0.00000
   O  -0.3579708   0.3426298  -0.3426069 SPIN=   0.00000
   O   0.0364712  -0.2376743   0.6055432 SPIN=   0.00000
   O  -0.3579708  -0.3426298   0.3426069 SPIN=   0.00000
   P   0.1790236  -0.0000000  -0.5000000 SPIN=   0.00000
   P   0.1790236  -0.5000000  -0.0000000 SPIN=   0.00000
  Fe   0.3197663   0.0000000   0.0000000 SPIN=   4.00000
  Fe   0.3197663  -0.5000000   0.5000000 SPIN=   4.00000
%ENDBLOCK POSITIONS_FRAC

# Note: total spin =   8.00

KPOINTS_MP_SPACING 0.07

%BLOCK SPECIES_POT
QC5
%ENDBLOCK SPECIES_POT

%BLOCK HUBBARD_U
Fe d:4.0
%ENDBLOCK HUBBARD_U

SNAP_TO_SYMMETRY
SYMMETRY_GENERATE

