#              Generated by Buildcell
#
# at 11:47:27 (GMT+0.0) 24th November 2020
# in /lustre/scratch/uccabz1/launch_tmp
# on node-c12c-026
# by uccabz1
#
# compiler GCC version 4.9.2
# options -cpp -iprefix /lustre/shared/ucl/apps/gcc/4.9.2/bin/../lib/gcc/x86_64-unknown-linux-gnu/4.9.2/ -mtune=corei7 -march=x86-64 -g -Og
#
# seed  -720627312   -75335844 -1214991058   295838436 -1289057916   468737208  -338110737   -40447052 -1184009101  -520577050  1202595896 -1238204062
#
#      Author: C. J. Pickard (cjp20@cam.ac.uk)
#                Space group: I-4
#

%BLOCK LATTICE_ABC
      5.29139      5.29139      6.83046
    112.78893    112.78893     90.00000
%ENDBLOCK LATTICE_ABC

%BLOCK POSITIONS_FRAC
  Li  -0.4999979   0.0000021   0.0000043 SPIN=   0.00000
  Li  -0.0000021   0.4999979  -0.0000043 SPIN=   0.00000
   O   0.1685270  -0.3551064  -0.1799630 SPIN=   0.00000
   O   0.4952230  -0.4397320  -0.3929922 SPIN=   0.00000
   O   0.6515100   0.1751434  -0.1799630 SPIN=   0.00000
   O   0.1117848   0.0467399  -0.3929922 SPIN=   0.00000
   O  -0.1751434  -0.1685270   0.1799630 SPIN=   0.00000
   O  -0.0467399  -0.4952230   0.3929922 SPIN=   0.00000
   O   0.3551064  -0.6515100   0.1799630 SPIN=   0.00000
   O   0.4397320  -0.1117848   0.3929922 SPIN=   0.00000
   P  -0.2500000   0.2500000  -0.5000000 SPIN=   0.00000
   P   0.2500000  -0.2500000   0.5000000 SPIN=   0.00000
  Fe   0.1688038   0.1688038   0.3376076 SPIN=   4.00000
  Fe  -0.1688038  -0.1688038  -0.3376076 SPIN=   4.00000
%ENDBLOCK POSITIONS_FRAC

# Note: total spin =   8.00

KPOINTS_MP_SPACING 0.07

%BLOCK SPECIES_POT
QC5
%ENDBLOCK SPECIES_POT

%BLOCK HUBBARD_U
Fe d:4.0
%ENDBLOCK HUBBARD_U

SNAP_TO_SYMMETRY
SYMMETRY_GENERATE

