#              Generated by Buildcell
#
# at 12:05:16 (GMT+0.0) 24th November 2020
# in /scratch/scratch/uccabz1/launch_tmp
# on node-a14c-025
# by uccabz1
#
# compiler GCC version 4.9.2
# options -cpp -iprefix /scratch/UCL/applications/gcc/4.9.2/bin/../lib/gcc/x86_64-unknown-linux-gnu/4.9.2/ -mtune=corei7 -march=x86-64 -g -O2
#
# seed  1662842380 -1102831794  1822123237 -1001323836  -649778081 -1397015715  1035351960  -618262920   780172759   553535837 -1696696868 -2079838468
#
#      Author: C. J. Pickard (cjp20@cam.ac.uk)
#                Space group: Imm2
#

%BLOCK LATTICE_ABC
      5.37251      5.75285      6.50298
    116.25227    114.39850     90.00000
%ENDBLOCK LATTICE_ABC

%BLOCK POSITIONS_FRAC
  Li   0.0138129   0.0000000  -0.0000000 SPIN=   0.00000
  Li  -0.1827887   0.5000000  -0.0000000 SPIN=   0.00000
   O  -0.5591752   0.4046089  -0.7614384 SPIN=   0.00000
   O  -0.0568503   0.3813302  -0.7145021 SPIN=   0.00000
   O   0.2022632  -0.4046089   0.7614384 SPIN=   0.00000
   O   0.6576518  -0.3813302   0.7145021 SPIN=   0.00000
   O  -0.5591752  -0.1660473  -0.7614384 SPIN=   0.00000
   O  -0.0568503  -0.0958323  -0.7145021 SPIN=   0.00000
   O   0.2022632   0.1660473   0.7614384 SPIN=   0.00000
   O   0.6576518   0.0958323   0.7145021 SPIN=   0.00000
   P  -0.2742770  -0.2918785  -0.5837569 SPIN=   0.00000
   P   0.3094799   0.2918785   0.5837569 SPIN=   0.00000
  Fe  -0.2879588   0.1944131  -0.6111739 SPIN=   4.00000
  Fe   0.3232150  -0.1944131   0.6111739 SPIN=   4.00000
%ENDBLOCK POSITIONS_FRAC

# Note: total spin =   8.00

KPOINTS_MP_SPACING 0.07

%BLOCK SPECIES_POT
QC5
%ENDBLOCK SPECIES_POT

%BLOCK HUBBARD_U
Fe d:4.0
%ENDBLOCK HUBBARD_U

SNAP_TO_SYMMETRY
SYMMETRY_GENERATE

