#              Generated by Buildcell
#
# at 07:25:06 (GMT+0.0) 24th November 2020
# in /lustre/scratch/uccabz1/launch_tmp
# on node-c12p-023
# by uccabz1
#
# compiler GCC version 4.9.2
# options -cpp -iprefix /lustre/shared/ucl/apps/gcc/4.9.2/bin/../lib/gcc/x86_64-unknown-linux-gnu/4.9.2/ -mtune=corei7 -march=x86-64 -g -Og
#
# seed  1700494618  1735098073 -1847934048 -1079505547  1004193992 -1320538280 -1676415593  -359595818  1654940997   557506668  1624260558 -1462793071
#
#      Author: C. J. Pickard (cjp20@cam.ac.uk)
#                Space group: P-1
#

%BLOCK LATTICE_ABC
      4.55007      6.32201      6.59515
    116.67205    101.91963     97.92303
%ENDBLOCK LATTICE_ABC

%BLOCK POSITIONS_FRAC
  Li   0.0255856  -0.2289202  -0.4826751 SPIN=   0.00000
  Li  -0.0255856   0.2289202   0.4826751 SPIN=   0.00000
   O   0.3920383  -0.3352420   0.2075339 SPIN=   0.00000
   O   0.4339231   0.1269725   0.3529461 SPIN=   0.00000
   O   0.2147818  -0.1664862  -0.0780525 SPIN=   0.00000
   O  -0.0926377  -0.1657927   0.1963460 SPIN=   0.00000
   P   0.2413896  -0.1461534   0.1720228 SPIN=   0.00000
   O  -0.3920383   0.3352420  -0.2075339 SPIN=   0.00000
   O  -0.4339231  -0.1269725  -0.3529461 SPIN=   0.00000
   O  -0.2147818   0.1664862   0.0780525 SPIN=   0.00000
   O   0.0926377   0.1657927  -0.1963460 SPIN=   0.00000
   P  -0.2413896   0.1461534  -0.1720228 SPIN=   0.00000
  Fe  -0.3862891  -0.3098972  -0.1519978 SPIN=   4.00000
  Fe   0.3862891   0.3098972   0.1519978 SPIN=   4.00000
%ENDBLOCK POSITIONS_FRAC

# Note: total spin =   8.00

KPOINTS_MP_SPACING 0.07

%BLOCK SPECIES_POT
QC5
%ENDBLOCK SPECIES_POT

%BLOCK HUBBARD_U
Fe d:4.0
%ENDBLOCK HUBBARD_U

SNAP_TO_SYMMETRY
SYMMETRY_GENERATE

