#              Generated by Buildcell
#
# at 08:30:03 (GMT+0.0) 24th November 2020
# in /scratch/scratch/uccabz1/launch_tmp
# on node-a14a-024
# by uccabz1
#
# compiler GCC version 4.9.2
# options -cpp -iprefix /scratch/UCL/applications/gcc/4.9.2/bin/../lib/gcc/x86_64-unknown-linux-gnu/4.9.2/ -mtune=corei7 -march=x86-64 -g -O2
#
# seed -1003564911   162651117   575914860   927135423   -70792903  -335025501  2042330852 -1202667853  2121640952  1254017087   829350111   637013598
#
#      Author: C. J. Pickard (cjp20@cam.ac.uk)
#                Space group: P2/c
#

%BLOCK LATTICE_ABC
      3.91082      5.04555      8.16948
     90.00000     90.00000     97.00168
%ENDBLOCK LATTICE_ABC

%BLOCK POSITIONS_FRAC
  Li   0.0000000   0.0000000  -0.0000000 SPIN=   0.00000
  Li  -0.5000000  -0.5000000  -0.0000000 SPIN=   0.00000
   O   0.4852312  -0.0169305   0.1535064 SPIN=   0.00000
   O   0.4825541  -0.4077428   0.3607550 SPIN=   0.00000
   O   0.0147688  -0.4830695   0.1535064 SPIN=   0.00000
   O   0.0174459  -0.0922572   0.3607550 SPIN=   0.00000
   O  -0.4852312   0.0169305  -0.1535064 SPIN=   0.00000
   O  -0.4825541   0.4077428  -0.3607550 SPIN=   0.00000
   O  -0.0147688   0.4830695  -0.1535064 SPIN=   0.00000
   O  -0.0174459   0.0922572  -0.3607550 SPIN=   0.00000
   P   0.2500000  -0.2500000   0.2560560 SPIN=   0.00000
   P  -0.2500000   0.2500000  -0.2560560 SPIN=   0.00000
  Fe  -0.2500000   0.2500000   0.3471376 SPIN=   4.00000
  Fe   0.2500000  -0.2500000  -0.3471376 SPIN=   4.00000
%ENDBLOCK POSITIONS_FRAC

# Note: total spin =   8.00

KPOINTS_MP_SPACING 0.07

%BLOCK SPECIES_POT
QC5
%ENDBLOCK SPECIES_POT

%BLOCK HUBBARD_U
Fe d:4.0
%ENDBLOCK HUBBARD_U

SNAP_TO_SYMMETRY
SYMMETRY_GENERATE

