#              Generated by Buildcell
#
# at 08:33:53 (GMT+0.0) 24th November 2020
# in /lustre/scratch/uccabz1/launch_tmp
# on node-c12c-026
# by uccabz1
#
# compiler GCC version 4.9.2
# options -cpp -iprefix /lustre/shared/ucl/apps/gcc/4.9.2/bin/../lib/gcc/x86_64-unknown-linux-gnu/4.9.2/ -mtune=corei7 -march=x86-64 -g -Og
#
# seed  -136414655  1128043249 -1757617716 -1661533377  1666519173   972846039 -1817255782  1854198873  1779501581  1393432617  -725943583  -431731122
#
#      Author: C. J. Pickard (cjp20@cam.ac.uk)
#                Space group: P21
#

%BLOCK LATTICE_ABC
      4.24666      4.47048      8.47622
     90.00000     90.00000     96.12237
%ENDBLOCK LATTICE_ABC

%BLOCK POSITIONS_FRAC
  Li  -0.3932674   0.4157124  -0.0424337 SPIN=   0.00000
  Li   0.3932674  -0.4157124   0.4575663 SPIN=   0.00000
   O   0.3346534  -0.0230250  -0.1762145 SPIN=   0.00000
   O  -0.2179276  -0.3113757  -0.2324070 SPIN=   0.00000
   O   0.2580159  -0.5473423  -0.3113819 SPIN=   0.00000
   O   0.1271801  -0.5054169  -0.0246758 SPIN=   0.00000
   P   0.1366379  -0.3314231  -0.1837339 SPIN=   0.00000
   O  -0.3346534   0.0230250   0.3237855 SPIN=   0.00000
   O   0.2179276   0.3113757   0.2675930 SPIN=   0.00000
   O  -0.2580159   0.5473423   0.1886181 SPIN=   0.00000
   O  -0.1271801   0.5054169   0.4753242 SPIN=   0.00000
   P  -0.1366379   0.3314231   0.3162661 SPIN=   0.00000
  Fe  -0.1390311   0.1130537  -0.3654148 SPIN=   4.00000
  Fe   0.1390311  -0.1130537   0.1345852 SPIN=   4.00000
%ENDBLOCK POSITIONS_FRAC

# Note: total spin =   8.00

KPOINTS_MP_SPACING 0.07

%BLOCK SPECIES_POT
QC5
%ENDBLOCK SPECIES_POT

%BLOCK HUBBARD_U
Fe d:4.0
%ENDBLOCK HUBBARD_U

SNAP_TO_SYMMETRY
SYMMETRY_GENERATE

