#              Generated by Buildcell
#
# at 14:19:25 (GMT+0.0) 24th November 2020
# in /lustre/scratch/uccabz1/launch_tmp
# on node-c12a-027
# by uccabz1
#
# compiler GCC version 4.9.2
# options -cpp -iprefix /lustre/shared/ucl/apps/gcc/4.9.2/bin/../lib/gcc/x86_64-unknown-linux-gnu/4.9.2/ -mtune=corei7 -march=x86-64 -g -Og
#
# seed  1344676709  1783453908   254165792  1544653190   -59680627  1017734486  1690529577  1021599466   -13711323  -566064410   512916104  -948904877
#
#      Author: C. J. Pickard (cjp20@cam.ac.uk)
#                Space group: P4
#

%BLOCK LATTICE_ABC
      5.28567      5.28567      5.72689
     90.00000     90.00000     90.00000
%ENDBLOCK LATTICE_ABC

%BLOCK POSITIONS_FRAC
  Li   0.5000000   0.0000000   0.0558714 SPIN=   0.00000
  Li   0.0000000   0.5000000   0.0558714 SPIN=   0.00000
   O   0.1269559  -0.3046254  -0.6056779 SPIN=   0.00000
   O  -0.1666074  -0.3368356  -0.2430311 SPIN=   0.00000
   O  -0.1269559   0.3046254  -0.6056779 SPIN=   0.00000
   O   0.1666074   0.3368356  -0.2430311 SPIN=   0.00000
   O  -0.3046254  -0.1269559  -0.6056779 SPIN=   0.00000
   O  -0.3368356   0.1666074  -0.2430311 SPIN=   0.00000
   O   0.3046254   0.1269559  -0.6056779 SPIN=   0.00000
   O   0.3368356  -0.1666074  -0.2430311 SPIN=   0.00000
   P   0.5000000  -0.5000000  -0.0802744 SPIN=   0.00000
   P   0.0000000   0.0000000   0.1390818 SPIN=   0.00000
  Fe  -0.0000000   0.0000000  -0.3612309 SPIN=   0.86210
  Fe  -0.5000000   0.5000000   0.4197256 SPIN=   7.13790
%ENDBLOCK POSITIONS_FRAC

# Note: total spin =   8.00

KPOINTS_MP_SPACING 0.07

%BLOCK SPECIES_POT
QC5
%ENDBLOCK SPECIES_POT

%BLOCK HUBBARD_U
Fe d:4.0
%ENDBLOCK HUBBARD_U

SNAP_TO_SYMMETRY
SYMMETRY_GENERATE

