#              Generated by Buildcell
#
# at 14:47:18 (GMT+0.0) 26th November 2020
# in /lustre/scratch/uccabz1/launch_tmp
# on node-c12e-024
# by uccabz1
#
# compiler GCC version 4.9.2
# options -cpp -iprefix /lustre/shared/ucl/apps/gcc/4.9.2/bin/../lib/gcc/x86_64-unknown-linux-gnu/4.9.2/ -mtune=corei7 -march=x86-64 -g -Og
#
# seed  2011116488   909211253   470831532   667982056  2041963098 -1267029523 -2026619928  1380699684 -1533031926  -982179076  -138672036 -1359498437
#
#      Author: C. J. Pickard (cjp20@cam.ac.uk)
#                Space group: Pm
#

%BLOCK LATTICE_ABC
      4.15487      5.73551     13.96579
     90.00000     90.00000    105.94796
%ENDBLOCK LATTICE_ABC

%BLOCK POSITIONS_FRAC
  Li  -0.4589071   0.4490867  -0.2960487 SPIN=   0.00000
  Li  -0.4589071   0.4490867   0.2960487 SPIN=   0.00000
  Li  -0.1716978   0.2487167   0.1085272 SPIN=   0.00000
  Li  -0.1716978   0.2487167  -0.1085272 SPIN=   0.00000
   O   0.2117936   0.1096683   0.3573413 SPIN=   0.00000
   O  -0.3936365  -0.1157786   0.4098484 SPIN=   0.00000
   O  -0.2232130   0.3320634   0.4123109 SPIN=   0.00000
   O  -0.3046914   0.1136419   0.2550945 SPIN=   0.00000
   P  -0.1582140   0.1099306   0.3573571 SPIN=   0.00000
   O   0.2117936   0.1096683  -0.3573413 SPIN=   0.00000
   O  -0.3936365  -0.1157786  -0.4098484 SPIN=   0.00000
   O  -0.2232130   0.3320634  -0.4123109 SPIN=   0.00000
   O  -0.3046914   0.1136419  -0.2550945 SPIN=   0.00000
   P  -0.1582140   0.1099306  -0.3573571 SPIN=   0.00000
   O   0.0746039  -0.3793086   0.0880995 SPIN=   0.00000
   O   0.3213743  -0.7181023   0.1532563 SPIN=   0.00000
   O   0.6273637  -0.2914157   0.1856872 SPIN=   0.00000
   O   0.0822942  -0.4757849   0.2685992 SPIN=   0.00000
   O   0.0746039  -0.3793086  -0.0880995 SPIN=   0.00000
   O   0.3213743  -0.7181023  -0.1532563 SPIN=   0.00000
   O   0.6273637  -0.2914157  -0.1856872 SPIN=   0.00000
   O   0.0822942  -0.4757849  -0.2685992 SPIN=   0.00000
   P   0.4813798  -0.4462266  -0.5000000 SPIN=   0.00000
   P   0.2646629   0.0940649   0.0000000 SPIN=   0.00000
  Fe   0.1933958  -0.1123552  -0.2251294 SPIN=   1.27884
  Fe   0.1933958  -0.1123552   0.2251294 SPIN=   1.27884
  Fe  -0.3802949  -0.3020756   0.0000000 SPIN=   3.92313
  Fe   0.3045900   0.0326202   0.5000000 SPIN=   9.51920
%ENDBLOCK POSITIONS_FRAC

# Note: total spin =  16.00

KPOINTS_MP_SPACING 0.07

%BLOCK SPECIES_POT
QC5
%ENDBLOCK SPECIES_POT

%BLOCK HUBBARD_U
Fe d:4.0
%ENDBLOCK HUBBARD_U

SNAP_TO_SYMMETRY
SYMMETRY_GENERATE

