#              Generated by Buildcell
#
# at 14:30:07 (GMT+0.0) 24th November 2020
# in /lustre/scratch/uccabz1/launch_tmp
# on node-c12d-022
# by uccabz1
#
# compiler GCC version 4.9.2
# options -cpp -iprefix /lustre/shared/ucl/apps/gcc/4.9.2/bin/../lib/gcc/x86_64-unknown-linux-gnu/4.9.2/ -mtune=corei7 -march=x86-64 -g -Og
#
# seed -1949296267  -295800962 -1100628388  1170049125 -1055182989   -18972590  -627616213 -1223109582 -2019105320  1717616196 -1777121654  2012512123
#
#      Author: C. J. Pickard (cjp20@cam.ac.uk)
#                Space group: Cc
#

%BLOCK LATTICE_ABC
      3.99465      6.07751      7.14651
     85.93241     77.53534     70.81362
%ENDBLOCK LATTICE_ABC

%BLOCK POSITIONS_FRAC
  Li  -0.1663737   0.0761182  -0.1933298 SPIN=   0.00000
  Li   0.4097445  -0.0761182   0.3066702 SPIN=   0.00000
   O  -0.1901705  -0.2537331  -0.0950770 SPIN=   0.00000
   O  -0.1063274  -0.3575920   0.2544877 SPIN=   0.00000
   O   0.4238358  -0.5017808  -0.0094318 SPIN=   0.00000
   O   0.1776599  -0.0761008   0.0692735 SPIN=   0.00000
   P   0.0632606  -0.2923714   0.0470029 SPIN=   0.00000
   O   0.0560964   0.2537331  -0.5950770 SPIN=   0.00000
   O   0.0360806   0.3575920  -0.2455123 SPIN=   0.00000
   O   0.4220549   0.5017808  -0.5094318 SPIN=   0.00000
   O   0.6015591   0.0761008  -0.4307265 SPIN=   0.00000
   P   0.2708892   0.2923714  -0.4529971 SPIN=   0.00000
  Fe  -0.2671481   0.3625358   0.1992548 SPIN=   4.00000
  Fe  -0.4046123  -0.3625358  -0.3007452 SPIN=   4.00000
%ENDBLOCK POSITIONS_FRAC

# Note: total spin =   8.00

KPOINTS_MP_SPACING 0.07

%BLOCK SPECIES_POT
QC5
%ENDBLOCK SPECIES_POT

%BLOCK HUBBARD_U
Fe d:4.0
%ENDBLOCK HUBBARD_U

SNAP_TO_SYMMETRY
SYMMETRY_GENERATE

