#              Generated by Buildcell
#
# at 14:04:16 (GMT+0.0) 24th November 2020
# in /lustre/scratch/uccabz1/launch_tmp
# on node-c12e-029
# by uccabz1
#
# compiler GCC version 4.9.2
# options -cpp -iprefix /lustre/shared/ucl/apps/gcc/4.9.2/bin/../lib/gcc/x86_64-unknown-linux-gnu/4.9.2/ -mtune=corei7 -march=x86-64 -g -Og
#
# seed  1834971193   814082940  1778469905  2099381431  -653488025 -1241326812   148960098  1669285516 -2061910975  -948009059   720046205   109915395
#
#      Author: C. J. Pickard (cjp20@cam.ac.uk)
#                Space group: Cc
#

%BLOCK LATTICE_ABC
      4.87463      4.89580      7.83496
     98.11902     90.00000    119.85709
%ENDBLOCK LATTICE_ABC

%BLOCK POSITIONS_FRAC
  Li   0.0900566  -0.3073168   0.1423943 SPIN=   0.00000
  Li   0.1026266  -0.3073168  -0.3576057 SPIN=   0.00000
   O  -0.4130307   0.0430150  -0.6000440 SPIN=   0.00000
   O  -0.4078010  -0.2878896  -0.3696767 SPIN=   0.00000
   O   0.1045851   0.1460353  -0.4398654 SPIN=   0.00000
   O  -0.2642934   0.2810545  -0.2754947 SPIN=   0.00000
   P  -0.2543007   0.0481977  -0.4290687 SPIN=   0.00000
   O  -0.0439543   0.0430150  -0.1000440 SPIN=   0.00000
   O  -0.3800886  -0.2878896   0.1303233 SPIN=   0.00000
   O  -0.4585498   0.1460353   0.0601346 SPIN=   0.00000
   O   0.0453479   0.2810545   0.2245053 SPIN=   0.00000
   P  -0.1975015   0.0481977   0.0709313 SPIN=   0.00000
  Fe   0.4654909   0.4183252   0.3730293 SPIN=   4.00000
  Fe   0.4528344   0.4183252  -0.1269707 SPIN=   4.00000
%ENDBLOCK POSITIONS_FRAC

# Note: total spin =   8.00

KPOINTS_MP_SPACING 0.07

%BLOCK SPECIES_POT
QC5
%ENDBLOCK SPECIES_POT

%BLOCK HUBBARD_U
Fe d:4.0
%ENDBLOCK HUBBARD_U

SNAP_TO_SYMMETRY
SYMMETRY_GENERATE

