#              Generated by Buildcell
#
# at 18:17:52 (GMT+0.0) 26th November 2020
# in /lustre/scratch/uccabz1/launch_tmp
# on node-c12j-022
# by uccabz1
#
# compiler GCC version 4.9.2
# options -cpp -iprefix /lustre/shared/ucl/apps/gcc/4.9.2/bin/../lib/gcc/x86_64-unknown-linux-gnu/4.9.2/ -mtune=corei7 -march=x86-64 -g -Og
#
# seed  1561345165  2136671630 -2049105993  -877805643 -1885694782  1454676544 -1569532516   102748869   506250796   497353696   802908112  -943286186
#
#      Author: C. J. Pickard (cjp20@cam.ac.uk)
#                Space group: P-1
#

%BLOCK LATTICE_ABC
      6.00041      7.52954      8.27566
     95.87036    109.65116    110.27899
%ENDBLOCK LATTICE_ABC

%BLOCK POSITIONS_FRAC
  Li  -0.2753658   0.4935734   0.4586204 SPIN=   0.00000
  Li   0.2753658  -0.4935734  -0.4586204 SPIN=   0.00000
  Li   0.3506441  -0.4089658   0.0658777 SPIN=   0.00000
  Li  -0.3506441   0.4089658  -0.0658777 SPIN=   0.00000
   O  -0.5316265  -0.2232359   0.4994576 SPIN=   0.00000
   O  -0.5762484  -0.1286053   0.2004449 SPIN=   0.00000
   O  -0.1702966   0.0623127   0.4632849 SPIN=   0.00000
   O  -0.2679564  -0.2823246   0.3252159 SPIN=   0.00000
   P  -0.3928583  -0.1488820   0.3783286 SPIN=   0.00000
   O   0.5316265   0.2232359  -0.4994576 SPIN=   0.00000
   O   0.5762484   0.1286053  -0.2004449 SPIN=   0.00000
   O   0.1702966  -0.0623127  -0.4632849 SPIN=   0.00000
   O   0.2679564   0.2823246  -0.3252159 SPIN=   0.00000
   P   0.3928583   0.1488820  -0.3783286 SPIN=   0.00000
   O   0.3411379   0.4499974   0.3115460 SPIN=   0.00000
   O   0.1332134   0.0703477   0.2291804 SPIN=   0.00000
   O   0.0384259   0.2397873  -0.0090326 SPIN=   0.00000
   O   0.4820505   0.2446255   0.1291645 SPIN=   0.00000
   P   0.2563821   0.2616975   0.1725806 SPIN=   0.00000
   O  -0.3411379  -0.4499974  -0.3115460 SPIN=   0.00000
   O  -0.1332134  -0.0703477  -0.2291804 SPIN=   0.00000
   O  -0.0384259  -0.2397873   0.0090326 SPIN=   0.00000
   O  -0.4820505  -0.2446255  -0.1291645 SPIN=   0.00000
   P  -0.2563821  -0.2616975  -0.1725806 SPIN=   0.00000
  Fe   0.2148210  -0.1548980  -0.2188596 SPIN=   3.12430
  Fe  -0.2148210   0.1548980   0.2188596 SPIN=   3.12430
  Fe   0.0751960  -0.2279104   0.2796669 SPIN=   4.87570
  Fe  -0.0751960   0.2279104  -0.2796669 SPIN=   4.87570
%ENDBLOCK POSITIONS_FRAC

# Note: total spin =  16.00

KPOINTS_MP_SPACING 0.07

%BLOCK SPECIES_POT
QC5
%ENDBLOCK SPECIES_POT

%BLOCK HUBBARD_U
Fe d:4.0
%ENDBLOCK HUBBARD_U

SNAP_TO_SYMMETRY
SYMMETRY_GENERATE

