#              Generated by Buildcell
#
# at 10:15:04 (GMT+0.0) 26th November 2020
# in /lustre/scratch/uccabz1/launch_tmp
# on node-c12k-022
# by uccabz1
#
# compiler GCC version 4.9.2
# options -cpp -iprefix /lustre/shared/ucl/apps/gcc/4.9.2/bin/../lib/gcc/x86_64-unknown-linux-gnu/4.9.2/ -mtune=corei7 -march=x86-64 -g -Og
#
# seed  2043267592  -370663301   -69725084 -1277764160  1182310055  2017082273  1951344961   -57635800  1434729010  1081176705   240213990 -1587020155
#
#      Author: C. J. Pickard (cjp20@cam.ac.uk)
#                Space group: Cm
#

%BLOCK LATTICE_ABC
      4.46728      7.26395     10.60734
     69.97670     87.15569     81.66714
%ENDBLOCK LATTICE_ABC

%BLOCK POSITIONS_FRAC
  Li  -0.4201927   0.1106804   0.3130993 SPIN=   0.00000
  Li  -0.4201927   0.4237798  -0.3130993 SPIN=   0.00000
  Li  -0.0807118  -0.3583922  -0.0000000 SPIN=   0.00000
  Li  -0.3432158   0.1790694   0.0000000 SPIN=   0.00000
   O  -1.2627730   0.4765128  -0.1227671 SPIN=   0.00000
   O  -0.7315233   0.2756830  -0.1218961 SPIN=   0.00000
   O  -0.9631112   0.4832250  -0.3402136 SPIN=   0.00000
   O  -0.7796732   0.6445918  -0.1899874 SPIN=   0.00000
   P  -0.9499369   0.4724101  -0.1898943 SPIN=   0.00000
   O  -0.2627730   0.3537457   0.1227671 SPIN=   0.00000
   O   0.2684767   0.1537870   0.1218961 SPIN=   0.00000
   O   0.0368888   0.1430115   0.3402136 SPIN=   0.00000
   O   0.2203268   0.4546044   0.1899874 SPIN=   0.00000
   P   0.0500631   0.2825157   0.1898943 SPIN=   0.00000
   O   1.0250387  -0.3486202   0.4160040 SPIN=   0.00000
   O   0.4894467  -0.1769865   0.4488053 SPIN=   0.00000
   O   0.6878078  -0.1095010   0.2181538 SPIN=   0.00000
   O   0.5393725  -0.4429827   0.3458449 SPIN=   0.00000
   P   0.7017761  -0.2757812   0.3601989 SPIN=   0.00000
   O   0.0250387   0.0673838  -0.4160040 SPIN=   0.00000
   O  -0.5105533   0.2718189  -0.4488053 SPIN=   0.00000
   O  -0.3121922   0.1086528  -0.2181538 SPIN=   0.00000
   O  -0.4606275  -0.0971378  -0.3458449 SPIN=   0.00000
   P  -0.2982239   0.0844177  -0.3601989 SPIN=   0.00000
  Fe   0.1931333   0.0465936  -0.1891411 SPIN=   4.24965
  Fe   0.1931333  -0.1425475   0.1891411 SPIN=   4.24965
  Fe   0.0404294   0.3470691   0.4390375 SPIN=   3.75035
  Fe   0.0404294  -0.2138934  -0.4390375 SPIN=   3.75035
%ENDBLOCK POSITIONS_FRAC

# Note: total spin =  16.00

KPOINTS_MP_SPACING 0.07

%BLOCK SPECIES_POT
QC5
%ENDBLOCK SPECIES_POT

%BLOCK HUBBARD_U
Fe d:4.0
%ENDBLOCK HUBBARD_U

SNAP_TO_SYMMETRY
SYMMETRY_GENERATE

