#              Generated by Buildcell
#
# at 11:55:20 (GMT+0.0) 24th November 2020
# in /scratch/scratch/uccabz1/launch_tmp
# on node-a14c-025
# by uccabz1
#
# compiler GCC version 4.9.2
# options -cpp -iprefix /scratch/UCL/applications/gcc/4.9.2/bin/../lib/gcc/x86_64-unknown-linux-gnu/4.9.2/ -mtune=corei7 -march=x86-64 -g -O2
#
# seed   -14315554 -1372536248 -1265989215  -303702774  -122057161 -1016758110   695078275 -1392595566 -1946284023  1796935551   317454374    99569272
#
#      Author: C. J. Pickard (cjp20@cam.ac.uk)
#                Space group: P-1
#

%BLOCK LATTICE_ABC
      4.00798      5.91089      7.47442
     75.46176     75.73851     71.66575
%ENDBLOCK LATTICE_ABC

%BLOCK POSITIONS_FRAC
  Li   0.1493533  -0.4531648   0.1445437 SPIN=   0.00000
  Li  -0.1493533   0.4531648  -0.1445437 SPIN=   0.00000
   O  -0.1156881  -0.0506532   0.1689120 SPIN=   0.00000
   O   0.2632700   0.1758105   0.2571659 SPIN=   0.00000
   O  -0.3011648   0.4163733   0.1485185 SPIN=   0.00000
   O  -0.3210191   0.1435238   0.4648670 SPIN=   0.00000
   P  -0.1208809   0.1591202   0.2574422 SPIN=   0.00000
   O   0.1156881   0.0506532  -0.1689120 SPIN=   0.00000
   O  -0.2632700  -0.1758105  -0.2571659 SPIN=   0.00000
   O   0.3011648  -0.4163733  -0.1485185 SPIN=   0.00000
   O   0.3210191  -0.1435238  -0.4648670 SPIN=   0.00000
   P   0.1208809  -0.1591202  -0.2574422 SPIN=   0.00000
  Fe   0.5000000   0.5000000  -0.5000000 SPIN=   4.03238
  Fe  -0.5000000   0.0000000  -0.0000000 SPIN=   3.96762
%ENDBLOCK POSITIONS_FRAC

# Note: total spin =   8.00

KPOINTS_MP_SPACING 0.07

%BLOCK SPECIES_POT
QC5
%ENDBLOCK SPECIES_POT

%BLOCK HUBBARD_U
Fe d:4.0
%ENDBLOCK HUBBARD_U

SNAP_TO_SYMMETRY
SYMMETRY_GENERATE

