#              Generated by Buildcell
#
# at 11:10:39 (GMT+0.0) 26th November 2020
# in /lustre/scratch/uccabz1/launch_tmp
# on node-c12n-022
# by uccabz1
#
# compiler GCC version 4.9.2
# options -cpp -iprefix /lustre/shared/ucl/apps/gcc/4.9.2/bin/../lib/gcc/x86_64-unknown-linux-gnu/4.9.2/ -mtune=corei7 -march=x86-64 -g -Og
#
# seed -1398512027  1507608693  1355652681  2129957686  1430123303   180611952  1253848667  -313549530   537321885   -16204271 -1144464361   970535146
#
#      Author: C. J. Pickard (cjp20@cam.ac.uk)
#                Space group: Aea2
#

%BLOCK LATTICE_ABC
      4.39713      4.39713     17.02571
     90.00000     90.00000    103.56908
%ENDBLOCK LATTICE_ABC

%BLOCK POSITIONS_FRAC
  Li   0.0947866  -0.4979894  -0.0321227 SPIN=   0.00000
  Li  -0.4979894   0.0947866   0.0321227 SPIN=   0.00000
  Li   0.0020106  -0.4052134   0.4678773 SPIN=   0.00000
  Li  -0.4052134   0.0020106  -0.4678773 SPIN=   0.00000
   O   0.1350344  -0.1495374   0.3523234 SPIN=   0.00000
   O  -0.1485826   0.3016692   0.3706507 SPIN=   0.00000
   O  -0.3754403  -0.1247367   0.2783814 SPIN=   0.00000
   O  -0.3976542  -0.2306851   0.4230480 SPIN=   0.00000
   P  -0.1813715  -0.0582011   0.3566898 SPIN=   0.00000
   O  -0.1495374   0.1350344  -0.3523234 SPIN=   0.00000
   O   0.3016692  -0.1485826  -0.3706507 SPIN=   0.00000
   O  -0.1247367  -0.3754403  -0.2783814 SPIN=   0.00000
   O  -0.2306851  -0.3976542  -0.4230480 SPIN=   0.00000
   P  -0.0582011  -0.1813715  -0.3566898 SPIN=   0.00000
   O   0.3504626   0.6350344  -0.1476766 SPIN=   0.00000
   O   0.8016692   0.3514174  -0.1293493 SPIN=   0.00000
   O   0.3752633   0.1245597  -0.2216186 SPIN=   0.00000
   O   0.2693149   0.1023458  -0.0769520 SPIN=   0.00000
   P   0.4417989   0.3186285  -0.1433102 SPIN=   0.00000
   O   0.6350344   0.3504626   0.1476766 SPIN=   0.00000
   O   0.3514174   0.8016692   0.1293493 SPIN=   0.00000
   O   0.1245597   0.3752633   0.2216186 SPIN=   0.00000
   O   0.1023458   0.2693149   0.0769520 SPIN=   0.00000
   P   0.3186285   0.4417989   0.1433102 SPIN=   0.00000
  Fe  -0.1521162  -0.0874953  -0.1688516 SPIN=   4.00000
  Fe  -0.0874953  -0.1521162   0.1688516 SPIN=   4.00000
  Fe   0.4125047   0.3478838   0.3311484 SPIN=   4.00000
  Fe   0.3478838   0.4125047  -0.3311484 SPIN=   4.00000
%ENDBLOCK POSITIONS_FRAC

# Note: total spin =  16.00

KPOINTS_MP_SPACING 0.07

%BLOCK SPECIES_POT
QC5
%ENDBLOCK SPECIES_POT

%BLOCK HUBBARD_U
Fe d:4.0
%ENDBLOCK HUBBARD_U

SNAP_TO_SYMMETRY
SYMMETRY_GENERATE

