#              Generated by Buildcell
#
# at 14:48:44 (GMT+0.0) 24th November 2020
# in /lustre/scratch/uccabz1/launch_tmp
# on node-c12a-027
# by uccabz1
#
# compiler GCC version 4.9.2
# options -cpp -iprefix /lustre/shared/ucl/apps/gcc/4.9.2/bin/../lib/gcc/x86_64-unknown-linux-gnu/4.9.2/ -mtune=corei7 -march=x86-64 -g -Og
#
# seed   808889274 -1545323886  1858029412  -401262968  1332554027 -1252017441  1445756044  1930751691 -1390078696  -894544123  2129752046 -1234696151
#
#      Author: C. J. Pickard (cjp20@cam.ac.uk)
#                Space group: P2
#

%BLOCK LATTICE_ABC
      4.72351      5.65113      6.25984
    106.75636     90.00000     90.00000
%ENDBLOCK LATTICE_ABC

%BLOCK POSITIONS_FRAC
  Li   0.3454869  -0.0930459  -0.2874728 SPIN=   0.00000
  Li   0.3454869   0.0930459   0.2874728 SPIN=   0.00000
   O  -0.2111853   0.0716246   0.2786381 SPIN=   0.00000
   O  -0.0093638  -0.2965509  -0.0357588 SPIN=   0.00000
   O   0.1555003  -0.2396500   0.3502576 SPIN=   0.00000
   O  -0.3410691  -0.3815607   0.2454416 SPIN=   0.00000
   P  -0.1101949  -0.1984640   0.2137406 SPIN=   0.00000
   O  -0.2111853  -0.0716246  -0.2786381 SPIN=   0.00000
   O  -0.0093638   0.2965509   0.0357588 SPIN=   0.00000
   O   0.1555003   0.2396500  -0.3502576 SPIN=   0.00000
   O  -0.3410691   0.3815607  -0.2454416 SPIN=   0.00000
   P  -0.1101949   0.1984640  -0.2137406 SPIN=   0.00000
  Fe  -0.1537400  -0.5000000  -0.5000000 SPIN=   6.06481
  Fe   0.3497881   0.5000000   0.0000000 SPIN=   1.93519
%ENDBLOCK POSITIONS_FRAC

# Note: total spin =   8.00

KPOINTS_MP_SPACING 0.07

%BLOCK SPECIES_POT
QC5
%ENDBLOCK SPECIES_POT

%BLOCK HUBBARD_U
Fe d:4.0
%ENDBLOCK HUBBARD_U

SNAP_TO_SYMMETRY
SYMMETRY_GENERATE

