#              Generated by Buildcell
#
# at 00:54:29 (GMT+0.0) 27th November 2020
# in /lustre/scratch/uccabz1/launch_tmp
# on node-c12n-030
# by uccabz1
#
# compiler GCC version 4.9.2
# options -cpp -iprefix /lustre/shared/ucl/apps/gcc/4.9.2/bin/../lib/gcc/x86_64-unknown-linux-gnu/4.9.2/ -mtune=corei7 -march=x86-64 -g -Og
#
# seed    94610738   439129105  1775370569 -2012953738  -252382366  1272188267 -1913235298   216304828 -1680088256 -1409656630   816204153  1543379233
#
#      Author: C. J. Pickard (cjp20@cam.ac.uk)
#                Space group: Cmc21
#

%BLOCK LATTICE_ABC
      6.69017      6.99283      6.99283
    101.99797     90.00000     90.00000
%ENDBLOCK LATTICE_ABC

%BLOCK POSITIONS_FRAC
  Li  -0.3257484  -0.4865542   0.1461322 SPIN=   0.00000
  Li   0.1742516   0.4865542  -0.1461322 SPIN=   0.00000
  Li   0.1742516   0.1461322  -0.4865542 SPIN=   0.00000
  Li  -0.3257484  -0.1461322   0.4865542 SPIN=   0.00000
   O  -0.1558379   0.2761359   0.0006223 SPIN=   0.00000
   O  -0.0104441   0.2922999   0.3481307 SPIN=   0.00000
   O   0.2185134   0.2139285   0.0655625 SPIN=   0.00000
   O   0.0809731   0.5530164   0.1665855 SPIN=   0.00000
   P   0.0237929   0.3333589   0.1377780 SPIN=   0.00000
   O  -0.6558379  -0.2761359  -0.0006223 SPIN=   0.00000
   O  -0.5104441  -0.2922999  -0.3481307 SPIN=   0.00000
   O  -0.2814866  -0.2139285  -0.0655625 SPIN=   0.00000
   O  -0.4190269  -0.5530164  -0.1665855 SPIN=   0.00000
   P  -0.4762071  -0.3333589  -0.1377780 SPIN=   0.00000
   O  -0.6558379   0.0006223   0.2761359 SPIN=   0.00000
   O  -0.5104441   0.3481307   0.2922999 SPIN=   0.00000
   O  -0.2814866   0.0655625   0.2139285 SPIN=   0.00000
   O  -0.4190269   0.1665855   0.5530164 SPIN=   0.00000
   P  -0.4762071   0.1377780   0.3333589 SPIN=   0.00000
   O  -0.1558379  -0.0006223  -0.2761359 SPIN=   0.00000
   O  -0.0104441  -0.3481307  -0.2922999 SPIN=   0.00000
   O   0.2185134  -0.0655625  -0.2139285 SPIN=   0.00000
   O   0.0809731  -0.1665855  -0.5530164 SPIN=   0.00000
   P   0.0237929  -0.1377780  -0.3333589 SPIN=   0.00000
  Fe   0.4819678   0.0963274  -0.0963274 SPIN=   5.08867
  Fe  -0.0180322  -0.0963274   0.0963274 SPIN=   5.08867
  Fe   0.2676133  -0.4115066   0.4115066 SPIN=   2.91133
  Fe  -0.2323867   0.4115066  -0.4115066 SPIN=   2.91133
%ENDBLOCK POSITIONS_FRAC

# Note: total spin =  16.00

KPOINTS_MP_SPACING 0.07

%BLOCK SPECIES_POT
QC5
%ENDBLOCK SPECIES_POT

%BLOCK HUBBARD_U
Fe d:4.0
%ENDBLOCK HUBBARD_U

SNAP_TO_SYMMETRY
SYMMETRY_GENERATE

