#              Generated by Buildcell
#
# at 09:24:05 (GMT+0.0) 24th November 2020
# in /lustre/scratch/uccabz1/launch_tmp
# on node-c12b-020
# by uccabz1
#
# compiler GCC version 4.9.2
# options -cpp -iprefix /lustre/shared/ucl/apps/gcc/4.9.2/bin/../lib/gcc/x86_64-unknown-linux-gnu/4.9.2/ -mtune=corei7 -march=x86-64 -g -Og
#
# seed   926446111  -247536609 -1284456352 -2093958712 -1432903998  1271802878  1539518095  1987481725  -470375706  -514759434  1886762950   245209021
#
#      Author: C. J. Pickard (cjp20@cam.ac.uk)
#                Space group: Pc
#

%BLOCK LATTICE_ABC
      4.68432      5.90292      6.35211
    114.36476     90.00000     90.00000
%ENDBLOCK LATTICE_ABC

%BLOCK POSITIONS_FRAC
  Li  -0.2860273  -0.2412818  -0.0402866 SPIN=   0.00000
  Li   0.2860273   0.2587182   0.4597134 SPIN=   0.00000
   O   0.3455477  -0.5058324   0.1994493 SPIN=   0.00000
   O   0.5650323  -0.0693922   0.2989970 SPIN=   0.00000
   O   0.1532099  -0.2007281   0.0327574 SPIN=   0.00000
   O   0.0810548  -0.1004490   0.4525167 SPIN=   0.00000
   P   0.2869495  -0.2329672   0.2458932 SPIN=   0.00000
   O  -0.3455477  -0.0058324  -0.3005507 SPIN=   0.00000
   O  -0.5650323   0.4306078  -0.2010030 SPIN=   0.00000
   O  -0.1532099   0.2992719  -0.4672426 SPIN=   0.00000
   O  -0.0810548   0.3995510  -0.0474833 SPIN=   0.00000
   P  -0.2869495   0.2670328  -0.2541068 SPIN=   0.00000
  Fe  -0.2152821  -0.3821438   0.4068920 SPIN=   4.00000
  Fe   0.2152821   0.1178562  -0.0931080 SPIN=   4.00000
%ENDBLOCK POSITIONS_FRAC

# Note: total spin =   8.00

KPOINTS_MP_SPACING 0.07

%BLOCK SPECIES_POT
QC5
%ENDBLOCK SPECIES_POT

%BLOCK HUBBARD_U
Fe d:4.0
%ENDBLOCK HUBBARD_U

SNAP_TO_SYMMETRY
SYMMETRY_GENERATE

