#              Generated by Buildcell
#
# at 00:19:42 (GMT+0.0) 27th November 2020
# in /scratch/scratch/uccabz1/launch_tmp
# on node-k10h-025
# by uccabz1
#
# compiler GCC version 4.9.2
# options -cpp -iprefix /scratch/UCL/applications/gcc/4.9.2/bin/../lib/gcc/x86_64-unknown-linux-gnu/4.9.2/ -mtune=corei7 -march=x86-64 -g -O2
#
# seed  1969928681  -863164404 -1380580147   109584868  -392193810   443912665   868145086  1367940559   739518593  1824070978  2019293174   707661820
#
#      Author: C. J. Pickard (cjp20@cam.ac.uk)
#                Space group: C2
#

%BLOCK LATTICE_ABC
      5.44617      6.87615      9.21158
    111.91522     90.77176     90.00000
%ENDBLOCK LATTICE_ABC

%BLOCK POSITIONS_FRAC
  Li   0.0086148  -0.2702181  -0.4960712 SPIN=   0.00000
  Li  -0.0086148   0.2258531   0.4960712 SPIN=   0.00000
  Li   0.2471132  -0.3667617  -0.0691610 SPIN=   0.00000
  Li  -0.2471132  -0.2976007   0.0691610 SPIN=   0.00000
   O   0.2724016   0.2611305  -0.0810236 SPIN=   0.00000
   O   0.2124414   0.4108289  -0.2996108 SPIN=   0.00000
   O   0.4801595   0.1027706  -0.3521602 SPIN=   0.00000
   O   0.0255837   0.0629930  -0.3349707 SPIN=   0.00000
   P   0.2463440   0.2104554  -0.2578449 SPIN=   0.00000
   O  -0.2724016   0.3421540   0.0810236 SPIN=   0.00000
   O  -0.2124414   0.7104398   0.2996108 SPIN=   0.00000
   O  -0.4801595   0.4549309   0.3521602 SPIN=   0.00000
   O  -0.0255837   0.3979637   0.3349707 SPIN=   0.00000
   P  -0.2463440   0.4683004   0.2578449 SPIN=   0.00000
   O  -0.2959361  -0.2138840  -0.3490984 SPIN=   0.00000
   O  -0.2122308  -0.0394450  -0.0496895 SPIN=   0.00000
   O  -0.1906044  -0.4252711  -0.1744693 SPIN=   0.00000
   O   0.1360820  -0.2051527  -0.2275745 SPIN=   0.00000
   P  -0.1456734  -0.2203763  -0.2084586 SPIN=   0.00000
   O   0.2959361   0.1352144   0.3490984 SPIN=   0.00000
   O   0.2122308   0.0102445   0.0496895 SPIN=   0.00000
   O   0.1906044  -0.2508018   0.1744693 SPIN=   0.00000
   O  -0.1360820   0.0224218   0.2275745 SPIN=   0.00000
   P   0.1456734  -0.0119177   0.2084586 SPIN=   0.00000
  Fe   0.4940665  -0.4878308  -0.4083011 SPIN=   2.28679
  Fe  -0.4940665  -0.0795296   0.4083011 SPIN=   2.28679
  Fe   0.2519034   0.3663742   0.1632943 SPIN=   5.71321
  Fe  -0.2519034   0.2030798  -0.1632943 SPIN=   5.71321
%ENDBLOCK POSITIONS_FRAC

# Note: total spin =  16.00

KPOINTS_MP_SPACING 0.07

%BLOCK SPECIES_POT
QC5
%ENDBLOCK SPECIES_POT

%BLOCK HUBBARD_U
Fe d:4.0
%ENDBLOCK HUBBARD_U

SNAP_TO_SYMMETRY
SYMMETRY_GENERATE

