#              Generated by Buildcell
#
# at 10:33:56 (GMT+0.0) 24th November 2020
# in /scratch/scratch/uccabz1/launch_tmp
# on node-a14c-023
# by uccabz1
#
# compiler GCC version 4.9.2
# options -cpp -iprefix /scratch/UCL/applications/gcc/4.9.2/bin/../lib/gcc/x86_64-unknown-linux-gnu/4.9.2/ -mtune=corei7 -march=x86-64 -g -O2
#
# seed  1040725190   350023907  1119394392 -2124820243  1868531662  1282485077 -1328682530 -1130687403  -969934544  1328522448 -1362811543 -1180218775
#
#      Author: C. J. Pickard (cjp20@cam.ac.uk)
#                Space group: Cm
#

%BLOCK LATTICE_ABC
      4.39231      6.31367      6.31367
    101.29405    103.29960    103.29960
%ENDBLOCK LATTICE_ABC

%BLOCK POSITIONS_FRAC
  Li   0.0459698   0.2594816  -0.0518887 SPIN=   0.00000
  Li   0.0459698  -0.0518887   0.2594816 SPIN=   0.00000
   O  -0.1430341  -0.2821120   0.4636781 SPIN=   0.00000
   O  -0.3482514   0.0735310   0.4789975 SPIN=   0.00000
   O  -0.6778187  -0.2769638   0.1863235 SPIN=   0.00000
   P  -0.4413730  -0.1905289   0.4336568 SPIN=   0.00000
   O  -0.1430341   0.4636781  -0.2821120 SPIN=   0.00000
   O  -0.3482514   0.4789975   0.0735310 SPIN=   0.00000
   O  -0.6778187   0.1863235  -0.2769638 SPIN=   0.00000
   P  -0.4413730   0.4336568  -0.1905289 SPIN=   0.00000
   O   0.3763362   0.1031759   0.1031759 SPIN=   0.00000
   O   0.1931998   0.3606594   0.3606594 SPIN=   0.00000
  Fe  -0.2819615   0.3650210   0.3650210 SPIN=   4.34512
  Fe   0.3755432  -0.1576247  -0.1576247 SPIN=   3.65488
%ENDBLOCK POSITIONS_FRAC

# Note: total spin =   8.00

KPOINTS_MP_SPACING 0.07

%BLOCK SPECIES_POT
QC5
%ENDBLOCK SPECIES_POT

%BLOCK HUBBARD_U
Fe d:4.0
%ENDBLOCK HUBBARD_U

SNAP_TO_SYMMETRY
SYMMETRY_GENERATE

