#              Generated by Buildcell
#
# at 13:58:42 (GMT+0.0) 26th November 2020
# in /lustre/scratch/uccabz1/launch_tmp
# on node-c12g-022
# by uccabz1
#
# compiler GCC version 4.9.2
# options -cpp -iprefix /lustre/shared/ucl/apps/gcc/4.9.2/bin/../lib/gcc/x86_64-unknown-linux-gnu/4.9.2/ -mtune=corei7 -march=x86-64 -g -Og
#
# seed  -504908522 -1027854450  -434025906  -322557160 -1884545467      426530  1326924212   466753650   337485635  -177919056 -1277596617  -198767366
#
#      Author: C. J. Pickard (cjp20@cam.ac.uk)
#                Space group: Cc
#

%BLOCK LATTICE_ABC
      7.19176      7.19176      7.78378
     68.36094     68.36094     61.66024
%ENDBLOCK LATTICE_ABC

%BLOCK POSITIONS_FRAC
  Li   0.1153044   0.4273885   0.0682897 SPIN=   0.00000
  Li   0.4273885   0.1153044  -0.4317103 SPIN=   0.00000
  Li   0.2850850  -0.4213748   0.3271398 SPIN=   0.00000
  Li  -0.4213748   0.2850850  -0.1728602 SPIN=   0.00000
   O  -0.0169057   0.6828058  -0.3517311 SPIN=   0.00000
   O   0.2124008   0.2793379  -0.2145444 SPIN=   0.00000
   O  -0.1878352   0.4115480  -0.1074065 SPIN=   0.00000
   O  -0.0062938   0.3649591  -0.4406125 SPIN=   0.00000
   P  -0.0006551   0.4470525  -0.2843811 SPIN=   0.00000
   O   0.6828058  -0.0169057   0.1482689 SPIN=   0.00000
   O   0.2793379   0.2124008   0.2854556 SPIN=   0.00000
   O   0.4115480  -0.1878352   0.3925935 SPIN=   0.00000
   O   0.3649591  -0.0062938   0.0593875 SPIN=   0.00000
   P   0.4470525  -0.0006551   0.2156189 SPIN=   0.00000
   O  -0.3412440   0.3249856   0.5103307 SPIN=   0.00000
   O  -0.0434374   0.1903172   0.2185066 SPIN=   0.00000
   O  -0.4286192   0.3394289   0.2090600 SPIN=   0.00000
   O  -0.2656681   0.5894791   0.1877248 SPIN=   0.00000
   P  -0.2735012   0.3618280   0.2924891 SPIN=   0.00000
   O   0.3249856  -0.3412440   0.0103307 SPIN=   0.00000
   O   0.1903172  -0.0434374  -0.2814934 SPIN=   0.00000
   O   0.3394289  -0.4286192  -0.2909400 SPIN=   0.00000
   O   0.5894791  -0.2656681  -0.3122752 SPIN=   0.00000
   P   0.3618280  -0.2735012  -0.2075109 SPIN=   0.00000
  Fe   0.0161991   0.0511222  -0.0006720 SPIN=   3.43604
  Fe   0.0511222   0.0161991   0.4993280 SPIN=   3.43604
  Fe  -0.3351707  -0.2333341  -0.0796959 SPIN=   4.56396
  Fe  -0.2333341  -0.3351707   0.4203041 SPIN=   4.56396
%ENDBLOCK POSITIONS_FRAC

# Note: total spin =  16.00

KPOINTS_MP_SPACING 0.07

%BLOCK SPECIES_POT
QC5
%ENDBLOCK SPECIES_POT

%BLOCK HUBBARD_U
Fe d:4.0
%ENDBLOCK HUBBARD_U

SNAP_TO_SYMMETRY
SYMMETRY_GENERATE

