#              Generated by Buildcell
#
# at 08:00:31 (GMT+0.0) 24th November 2020
# in /lustre/scratch/uccabz1/launch_tmp
# on node-c12l-023
# by uccabz1
#
# compiler GCC version 4.9.2
# options -cpp -iprefix /lustre/shared/ucl/apps/gcc/4.9.2/bin/../lib/gcc/x86_64-unknown-linux-gnu/4.9.2/ -mtune=corei7 -march=x86-64 -g -Og
#
# seed  -759819912 -1903961808 -2029261729  -168015072   113828769 -1146689972   945624149  1861793482    14336753  1517251145 -1789524181 -1859307257
#
#      Author: C. J. Pickard (cjp20@cam.ac.uk)
#                Space group: P-1
#

%BLOCK LATTICE_ABC
      4.38100      4.93523      7.84809
     86.50992     88.75723     70.85227
%ENDBLOCK LATTICE_ABC

%BLOCK POSITIONS_FRAC
  Li   0.3597861  -0.1551281   0.2345907 SPIN=   0.00000
  Li  -0.3597861   0.1551281  -0.2345907 SPIN=   0.00000
   O   0.1328225   0.1455367  -0.2477809 SPIN=   0.00000
   O   0.0003500  -0.3286481  -0.2616466 SPIN=   0.00000
   O   0.4176409  -0.2499777  -0.4563835 SPIN=   0.00000
   P   0.2667817  -0.1785493  -0.2741423 SPIN=   0.00000
   O  -0.1328225  -0.1455367   0.2477809 SPIN=   0.00000
   O  -0.0003500   0.3286481   0.2616466 SPIN=   0.00000
   O  -0.4176409   0.2499777   0.4563835 SPIN=   0.00000
   P  -0.2667817   0.1785493   0.2741423 SPIN=   0.00000
   O   0.5000000  -0.0000000   0.0000000 SPIN=   0.00000
   O  -0.5000000   0.5000000  -0.0000000 SPIN=   0.00000
  Fe  -0.0000000   0.5000000   0.0000000 SPIN=   5.64189
  Fe   0.0000000   0.5000000  -0.5000000 SPIN=   2.35811
%ENDBLOCK POSITIONS_FRAC

# Note: total spin =   8.00

KPOINTS_MP_SPACING 0.07

%BLOCK SPECIES_POT
QC5
%ENDBLOCK SPECIES_POT

%BLOCK HUBBARD_U
Fe d:4.0
%ENDBLOCK HUBBARD_U

SNAP_TO_SYMMETRY
SYMMETRY_GENERATE

