#              Generated by Buildcell
#
# at 19:53:06 (GMT+0.0) 26th November 2020
# in /lustre/scratch/uccabz1/launch_tmp
# on node-c12g-033
# by uccabz1
#
# compiler GCC version 4.9.2
# options -cpp -iprefix /lustre/shared/ucl/apps/gcc/4.9.2/bin/../lib/gcc/x86_64-unknown-linux-gnu/4.9.2/ -mtune=corei7 -march=x86-64 -g -Og
#
# seed  -414966776 -2096247412 -1756420343 -1212110916    12186393  -326314544  -194207149 -1358788289   615365547  -499589593   499928665    74729873
#
#      Author: C. J. Pickard (cjp20@cam.ac.uk)
#                Space group: Pc
#

%BLOCK LATTICE_ABC
      6.02882      6.85024      8.08616
     90.00000     90.00000    106.61860
%ENDBLOCK LATTICE_ABC

%BLOCK POSITIONS_FRAC
  Li  -0.1343513   0.3284381   0.1694348 SPIN=   0.00000
  Li   0.3656487  -0.1715619  -0.1694348 SPIN=   0.00000
  Li   0.3345152   0.2726963   0.2519825 SPIN=   0.00000
  Li  -0.1654848  -0.2273037  -0.2519825 SPIN=   0.00000
   O  -0.3366233   0.4558620  -0.6754923 SPIN=   0.00000
   O  -0.1856612   0.4960549  -0.3728422 SPIN=   0.00000
   O  -0.4833376   0.6622864  -0.4524569 SPIN=   0.00000
   O  -0.5905839   0.2820959  -0.4296190 SPIN=   0.00000
   P  -0.3979878   0.4708395  -0.4922477 SPIN=   0.00000
   O   0.1633767  -0.0441380   0.6754923 SPIN=   0.00000
   O   0.3143388  -0.0039451   0.3728422 SPIN=   0.00000
   O   0.0166624   0.1622864   0.4524569 SPIN=   0.00000
   O  -0.0905839  -0.2179041   0.4296190 SPIN=   0.00000
   P   0.1020122  -0.0291605   0.4922477 SPIN=   0.00000
   O  -0.1806452   0.4363203  -0.0686600 SPIN=   0.00000
   O  -0.1889287   0.1511960  -0.2824443 SPIN=   0.00000
   O   0.1681892   0.4371647  -0.2575944 SPIN=   0.00000
   O   0.0576464   0.1806755  -0.0292138 SPIN=   0.00000
   P  -0.0425354   0.3071022  -0.1531052 SPIN=   0.00000
   O   0.3193548  -0.0636797   0.0686600 SPIN=   0.00000
   O   0.3110713  -0.3488040   0.2824443 SPIN=   0.00000
   O   0.6681892  -0.0628353   0.2575944 SPIN=   0.00000
   O   0.5576464  -0.3193245   0.0292138 SPIN=   0.00000
   P   0.4574646  -0.1928978   0.1531052 SPIN=   0.00000
  Fe   0.4444928   0.3474067  -0.1435685 SPIN=   5.98009
  Fe  -0.0555072  -0.1525933   0.1435685 SPIN=   5.98009
  Fe  -0.3666771   0.0559263   0.4950358 SPIN=   2.01991
  Fe   0.1333229  -0.4440737  -0.4950358 SPIN=   2.01991
%ENDBLOCK POSITIONS_FRAC

# Note: total spin =  16.00

KPOINTS_MP_SPACING 0.07

%BLOCK SPECIES_POT
QC5
%ENDBLOCK SPECIES_POT

%BLOCK HUBBARD_U
Fe d:4.0
%ENDBLOCK HUBBARD_U

SNAP_TO_SYMMETRY
SYMMETRY_GENERATE

