#              Generated by Buildcell
#
# at 10:15:42 (GMT+0.0) 24th November 2020
# in /scratch/scratch/uccabz1/launch_tmp
# on node-k10e-034
# by uccabz1
#
# compiler GCC version 4.9.2
# options -cpp -iprefix /scratch/UCL/applications/gcc/4.9.2/bin/../lib/gcc/x86_64-unknown-linux-gnu/4.9.2/ -mtune=corei7 -march=x86-64 -g -O2
#
# seed -1083688074 -2013716491   864350459 -1974707500  1823953594  -665619608   934828905  1414168260  2115013403  1257795596    54870566  2094835184
#
#      Author: C. J. Pickard (cjp20@cam.ac.uk)
#                Space group: C2
#

%BLOCK LATTICE_ABC
      5.09010      5.09010      6.40466
    100.73198    100.73198     90.67216
%ENDBLOCK LATTICE_ABC

%BLOCK POSITIONS_FRAC
  Li  -0.0098679   0.0098679   0.0000000 SPIN=   0.00000
  Li   0.4069340  -0.4069340  -0.0000000 SPIN=   0.00000
   O  -0.4145991  -0.5113306  -0.2741062 SPIN=   0.00000
   O   0.0137657  -0.7853525  -0.2539973 SPIN=   0.00000
   O   0.0561128  -0.3064675  -0.2717026 SPIN=   0.00000
   O  -0.0387457  -0.4373454   0.0659634 SPIN=   0.00000
   P  -0.1121634  -0.5093294  -0.1853437 SPIN=   0.00000
   O   0.5113306   0.4145991   0.2741062 SPIN=   0.00000
   O   0.7853525  -0.0137657   0.2539973 SPIN=   0.00000
   O   0.3064675  -0.0561128   0.2717026 SPIN=   0.00000
   O   0.4373454   0.0387457  -0.0659634 SPIN=   0.00000
   P   0.5093294   0.1121634   0.1853437 SPIN=   0.00000
  Fe  -0.0794784   0.5233364   0.3787795 SPIN=   4.00000
  Fe  -0.5233364   0.0794784  -0.3787795 SPIN=   4.00000
%ENDBLOCK POSITIONS_FRAC

# Note: total spin =   8.00

KPOINTS_MP_SPACING 0.07

%BLOCK SPECIES_POT
QC5
%ENDBLOCK SPECIES_POT

%BLOCK HUBBARD_U
Fe d:4.0
%ENDBLOCK HUBBARD_U

SNAP_TO_SYMMETRY
SYMMETRY_GENERATE

