#              Generated by Buildcell
#
# at 11:25:11 (GMT+0.0) 24th November 2020
# in /scratch/scratch/uccabz1/launch_tmp
# on node-a14c-025
# by uccabz1
#
# compiler GCC version 4.9.2
# options -cpp -iprefix /scratch/UCL/applications/gcc/4.9.2/bin/../lib/gcc/x86_64-unknown-linux-gnu/4.9.2/ -mtune=corei7 -march=x86-64 -g -O2
#
# seed -1216144534  1671999431  -790730552 -1041454041 -1701400650 -1438746432  -185972144  1363022364 -2012970109  -290905006   275955470  -234189350
#
#      Author: C. J. Pickard (cjp20@cam.ac.uk)
#                Space group: Pm
#

%BLOCK LATTICE_ABC
      3.85881      5.19687      8.04748
     90.00000     90.00000     97.50298
%ENDBLOCK LATTICE_ABC

%BLOCK POSITIONS_FRAC
  Li   0.4328270   0.2342049  -0.5000000 SPIN=   0.00000
  Li  -0.3238472   0.3984545   0.0000000 SPIN=   0.00000
   O   0.4468218   0.6464887   0.3154013 SPIN=   0.00000
   O   0.3451449   0.1919649   0.1759977 SPIN=   0.00000
   O  -0.1308768   0.3317181   0.3450498 SPIN=   0.00000
   P   0.1828219   0.4416372   0.2296011 SPIN=   0.00000
   O   0.4468218   0.6464887  -0.3154013 SPIN=   0.00000
   O   0.3451449   0.1919649  -0.1759977 SPIN=   0.00000
   O  -0.1308768   0.3317181  -0.3450498 SPIN=   0.00000
   P   0.1828219   0.4416372  -0.2296011 SPIN=   0.00000
   O   0.0629643  -0.1663987   0.0000000 SPIN=   0.00000
   O   0.0588414  -0.1008912  -0.5000000 SPIN=   0.00000
  Fe  -0.1253574  -0.0888331   0.2413361 SPIN=   4.00000
  Fe  -0.1253574  -0.0888331  -0.2413361 SPIN=   4.00000
%ENDBLOCK POSITIONS_FRAC

# Note: total spin =   8.00

KPOINTS_MP_SPACING 0.07

%BLOCK SPECIES_POT
QC5
%ENDBLOCK SPECIES_POT

%BLOCK HUBBARD_U
Fe d:4.0
%ENDBLOCK HUBBARD_U

SNAP_TO_SYMMETRY
SYMMETRY_GENERATE

