#              Generated by Buildcell
#
# at 11:51:56 (GMT+0.0) 24th November 2020
# in /scratch/scratch/uccabz1/launch_tmp
# on node-k10i-019
# by uccabz1
#
# compiler GCC version 4.9.2
# options -cpp -iprefix /scratch/UCL/applications/gcc/4.9.2/bin/../lib/gcc/x86_64-unknown-linux-gnu/4.9.2/ -mtune=corei7 -march=x86-64 -g -O2
#
# seed -1998100066  2064353767  -536843967  1593058164  1201364616  1223504059  -712693440  1040720280   242281896 -1165651063  -621997387  1812793239
#
#      Author: C. J. Pickard (cjp20@cam.ac.uk)
#                Space group: P21212
#

%BLOCK LATTICE_ABC
      5.26161      5.27544      5.76426
     90.00000     90.00000     90.00000
%ENDBLOCK LATTICE_ABC

%BLOCK POSITIONS_FRAC
  Li   0.0000000   0.5000000   0.0037662 SPIN=   0.00000
  Li  -0.5000000   0.0000000  -0.0037662 SPIN=   0.00000
   O  -0.3469120   0.1959034   0.3774827 SPIN=   0.00000
   O  -0.2315177  -0.2268216   0.1716177 SPIN=   0.00000
   O   0.3469120  -0.1959034   0.3774827 SPIN=   0.00000
   O   0.2315177   0.2268216   0.1716177 SPIN=   0.00000
   O   0.1530880  -0.6959034  -0.3774827 SPIN=   0.00000
   O   0.2684823  -0.2731784  -0.1716177 SPIN=   0.00000
   O  -0.1530880   0.6959034  -0.3774827 SPIN=   0.00000
   O  -0.2684823   0.2731784  -0.1716177 SPIN=   0.00000
   P  -0.0000000   0.0000000  -0.1072335 SPIN=   0.00000
   P  -0.5000000   0.5000000   0.1072335 SPIN=   0.00000
  Fe  -0.0000000   0.0000000   0.3908103 SPIN=   4.00000
  Fe  -0.5000000   0.5000000  -0.3908103 SPIN=   4.00000
%ENDBLOCK POSITIONS_FRAC

# Note: total spin =   8.00

KPOINTS_MP_SPACING 0.07

%BLOCK SPECIES_POT
QC5
%ENDBLOCK SPECIES_POT

%BLOCK HUBBARD_U
Fe d:4.0
%ENDBLOCK HUBBARD_U

SNAP_TO_SYMMETRY
SYMMETRY_GENERATE

