#              Generated by Buildcell
#
# at 09:30:54 (GMT+0.0) 24th November 2020
# in /lustre/scratch/uccabz1/launch_tmp
# on node-c12f-031
# by uccabz1
#
# compiler GCC version 4.9.2
# options -cpp -iprefix /lustre/shared/ucl/apps/gcc/4.9.2/bin/../lib/gcc/x86_64-unknown-linux-gnu/4.9.2/ -mtune=corei7 -march=x86-64 -g -Og
#
# seed -1469383188  -369012599  -309830442  -199711231  1135172811  1104976069 -1728771389   589211320   373760605  2093184564  1736144834 -1186127097
#
#      Author: C. J. Pickard (cjp20@cam.ac.uk)
#                Space group: P-1
#

%BLOCK LATTICE_ABC
      5.37932      5.73850      5.77417
     70.09242     87.93525     73.14086
%ENDBLOCK LATTICE_ABC

%BLOCK POSITIONS_FRAC
  Li  -1.0000000  -0.0000000   0.5000000 SPIN=   0.00000
  Li   0.5000000   0.0000000  -0.0000000 SPIN=   0.00000
   O   0.3085056  -0.1069687  -0.2374593 SPIN=   0.00000
   O   0.2599643   0.3548546  -0.2317706 SPIN=   0.00000
   O   0.1607699   0.3095439  -0.6258409 SPIN=   0.00000
   O  -0.1402311   0.2339780  -0.2853796 SPIN=   0.00000
   O  -0.3085056   0.1069687   0.2374593 SPIN=   0.00000
   O  -0.2599643  -0.3548546   0.2317706 SPIN=   0.00000
   O  -0.1607699  -0.3095439   0.6258409 SPIN=   0.00000
   O   0.1402311  -0.2339780   0.2853796 SPIN=   0.00000
   P  -0.5000000   0.0000000   0.5000000 SPIN=   0.00000
   P   0.0000000   0.0000000  -0.0000000 SPIN=   0.00000
  Fe   1.0000000   0.5000000  -1.0000000 SPIN=   0.97201
  Fe   0.5000000   0.5000000  -0.5000000 SPIN=   7.02799
%ENDBLOCK POSITIONS_FRAC

# Note: total spin =   8.00

KPOINTS_MP_SPACING 0.07

%BLOCK SPECIES_POT
QC5
%ENDBLOCK SPECIES_POT

%BLOCK HUBBARD_U
Fe d:4.0
%ENDBLOCK HUBBARD_U

SNAP_TO_SYMMETRY
SYMMETRY_GENERATE

