#              Generated by Buildcell
#
# at 14:40:19 (GMT+0.0) 24th November 2020
# in /scratch/scratch/uccabz1/launch_tmp
# on node-k10i-025
# by uccabz1
#
# compiler GCC version 4.9.2
# options -cpp -iprefix /scratch/UCL/applications/gcc/4.9.2/bin/../lib/gcc/x86_64-unknown-linux-gnu/4.9.2/ -mtune=corei7 -march=x86-64 -g -O2
#
# seed   818910716  1813525886  -278342221   173435630 -1239994271  -124224743    43106545   477162120  2066258025   284327799   736532115  1888436721
#
#      Author: C. J. Pickard (cjp20@cam.ac.uk)
#                Space group: Cm
#

%BLOCK LATTICE_ABC
      3.99047      6.36090      6.36090
     97.54951     91.02226     91.02226
%ENDBLOCK LATTICE_ABC

%BLOCK POSITIONS_FRAC
  Li  -0.1024712   0.1722077   0.1722077 SPIN=   0.00000
  Li   0.4138517  -0.1092198  -0.1092198 SPIN=   0.00000
   O   0.1955513   0.5851204  -0.1580055 SPIN=   0.00000
   O   0.7202397   0.4200912  -0.0018931 SPIN=   0.00000
   O   0.2235790   0.4797494   0.2228387 SPIN=   0.00000
   O   0.2031504   0.1941769  -0.0884951 SPIN=   0.00000
   P   0.3266082   0.4259254  -0.0154306 SPIN=   0.00000
   O   0.1955513  -0.1580055   0.5851204 SPIN=   0.00000
   O   0.7202397  -0.0018931   0.4200912 SPIN=   0.00000
   O   0.2235790   0.2228387   0.4797494 SPIN=   0.00000
   O   0.2031504  -0.0884951   0.1941769 SPIN=   0.00000
   P   0.3266082  -0.0154306   0.4259254 SPIN=   0.00000
  Fe  -0.1884638   0.2732102  -0.3176038 SPIN=   4.00000
  Fe  -0.1884638  -0.3176038   0.2732102 SPIN=   4.00000
%ENDBLOCK POSITIONS_FRAC

# Note: total spin =   8.00

KPOINTS_MP_SPACING 0.07

%BLOCK SPECIES_POT
QC5
%ENDBLOCK SPECIES_POT

%BLOCK HUBBARD_U
Fe d:4.0
%ENDBLOCK HUBBARD_U

SNAP_TO_SYMMETRY
SYMMETRY_GENERATE

