#              Generated by Buildcell
#
# at 10:27:19 (GMT+0.0) 24th November 2020
# in /lustre/scratch/uccabz1/launch_tmp
# on node-c12p-023
# by uccabz1
#
# compiler GCC version 4.9.2
# options -cpp -iprefix /lustre/shared/ucl/apps/gcc/4.9.2/bin/../lib/gcc/x86_64-unknown-linux-gnu/4.9.2/ -mtune=corei7 -march=x86-64 -g -Og
#
# seed   805637801   -85253288  1735225395  1883148914  -612434893 -1197440279  1337795228  -965571008   609597331 -1426558976   858368174  1069079180
#
#      Author: C. J. Pickard (cjp20@cam.ac.uk)
#                Space group: P-1
#

%BLOCK LATTICE_ABC
      5.08873      5.67469      6.24801
     89.09402     82.26231     63.64368
%ENDBLOCK LATTICE_ABC

%BLOCK POSITIONS_FRAC
  Li   0.0000000   0.5000000  -0.5000000 SPIN=   0.00000
  Li   1.0000000  -0.5000000  -0.0000000 SPIN=   0.00000
   O   0.1758598  -0.2289733   0.5274093 SPIN=   0.00000
   O   0.3456532  -0.5104843   0.1663941 SPIN=   0.00000
   O   0.1628863  -0.0290403   0.1497570 SPIN=   0.00000
   O   0.6529909  -0.3009888   0.2741148 SPIN=   0.00000
   P   0.3296692  -0.2657239   0.2925605 SPIN=   0.00000
   O  -0.1758598   0.2289733  -0.5274093 SPIN=   0.00000
   O  -0.3456532   0.5104843  -0.1663941 SPIN=   0.00000
   O  -0.1628863   0.0290403  -0.1497570 SPIN=   0.00000
   O  -0.6529909   0.3009888  -0.2741148 SPIN=   0.00000
   P  -0.3296692   0.2657239  -0.2925605 SPIN=   0.00000
  Fe  -0.3421675   0.1096182   0.2276548 SPIN=   4.00000
  Fe   0.3421675  -0.1096182  -0.2276548 SPIN=   4.00000
%ENDBLOCK POSITIONS_FRAC

# Note: total spin =   8.00

KPOINTS_MP_SPACING 0.07

%BLOCK SPECIES_POT
QC5
%ENDBLOCK SPECIES_POT

%BLOCK HUBBARD_U
Fe d:4.0
%ENDBLOCK HUBBARD_U

SNAP_TO_SYMMETRY
SYMMETRY_GENERATE

