#              Generated by Buildcell
#
# at 13:13:44 (GMT+0.0) 24th November 2020
# in /lustre/scratch/uccabz1/launch_tmp
# on node-c12n-028
# by uccabz1
#
# compiler GCC version 4.9.2
# options -cpp -iprefix /lustre/shared/ucl/apps/gcc/4.9.2/bin/../lib/gcc/x86_64-unknown-linux-gnu/4.9.2/ -mtune=corei7 -march=x86-64 -g -Og
#
# seed  -313135918   738023017  2065810856 -1242430515   996888917  -999508435 -1122763544 -2036421314 -1606447612  -196359016  1157523665 -1792914003
#
#      Author: C. J. Pickard (cjp20@cam.ac.uk)
#                Space group: P-1
#

%BLOCK LATTICE_ABC
      4.13982      6.05676      7.25486
     67.45680     73.60111     89.91401
%ENDBLOCK LATTICE_ABC

%BLOCK POSITIONS_FRAC
  Li   0.6166913  -0.0271674  -0.2349224 SPIN=   0.00000
  Li  -0.6166913   0.0271674   0.2349224 SPIN=   0.00000
   O   0.7975246   0.3412998   0.0131644 SPIN=   0.00000
   O   0.9528552   0.2881279  -0.3390715 SPIN=   0.00000
   O   0.3489411   0.2203530  -0.1303489 SPIN=   0.00000
   O   0.6540467   0.6391022  -0.3110550 SPIN=   0.00000
   O  -0.7975246  -0.3412998  -0.0131644 SPIN=   0.00000
   O  -0.9528552  -0.2881279   0.3390715 SPIN=   0.00000
   O  -0.3489411  -0.2203530   0.1303489 SPIN=   0.00000
   O  -0.6540467  -0.6391022   0.3110550 SPIN=   0.00000
   P   0.5000000  -0.5000000  -0.0000000 SPIN=   0.00000
   P  -0.0000000   0.0000000   0.0000000 SPIN=   0.00000
  Fe  -0.1493929   0.4183876   0.3010266 SPIN=   4.00000
  Fe   0.1493929  -0.4183876  -0.3010266 SPIN=   4.00000
%ENDBLOCK POSITIONS_FRAC

# Note: total spin =   8.00

KPOINTS_MP_SPACING 0.07

%BLOCK SPECIES_POT
QC5
%ENDBLOCK SPECIES_POT

%BLOCK HUBBARD_U
Fe d:4.0
%ENDBLOCK HUBBARD_U

SNAP_TO_SYMMETRY
SYMMETRY_GENERATE

