#              Generated by Buildcell
#
# at 12:55:27 (GMT+0.0) 24th November 2020
# in /lustre/scratch/uccabz1/launch_tmp
# on node-c12o-027
# by uccabz1
#
# compiler GCC version 4.9.2
# options -cpp -iprefix /lustre/shared/ucl/apps/gcc/4.9.2/bin/../lib/gcc/x86_64-unknown-linux-gnu/4.9.2/ -mtune=corei7 -march=x86-64 -g -Og
#
# seed -1682736991  -374530215  -738207666 -1682895370   452262472 -1655296439  -582100669  1485193687 -1098932046  1752777000  2103825381 -1528626571
#
#      Author: C. J. Pickard (cjp20@cam.ac.uk)
#                Space group: Pma2
#

%BLOCK LATTICE_ABC
      3.89313      5.21559      7.87985
     90.00000     90.00000     90.00000
%ENDBLOCK LATTICE_ABC

%BLOCK POSITIONS_FRAC
  Li   0.2076646   0.0239660  -0.2500000 SPIN=   0.00000
  Li   0.2076646  -0.0239660   0.2500000 SPIN=   0.00000
   O  -0.4367544   0.2169756   0.5955421 SPIN=   0.00000
   O   0.0903371   0.3147463   0.4039569 SPIN=   0.00000
   O  -0.4367544  -0.2169756  -0.5955421 SPIN=   0.00000
   O   0.0903371  -0.3147463  -0.4039569 SPIN=   0.00000
   O  -0.4367544  -0.2169756   0.0955421 SPIN=   0.00000
   O   0.0903371  -0.3147463  -0.0960431 SPIN=   0.00000
   O  -0.4367544   0.2169756  -0.0955421 SPIN=   0.00000
   O   0.0903371   0.3147463   0.0960431 SPIN=   0.00000
   P  -0.2552921  -0.0000000   0.0000000 SPIN=   0.00000
   P  -0.2552921   0.0000000  -0.5000000 SPIN=   0.00000
  Fe  -0.2928526  -0.4748148  -0.2500000 SPIN=   4.00000
  Fe  -0.2928526   0.4748148   0.2500000 SPIN=   4.00000
%ENDBLOCK POSITIONS_FRAC

# Note: total spin =   8.00

KPOINTS_MP_SPACING 0.07

%BLOCK SPECIES_POT
QC5
%ENDBLOCK SPECIES_POT

%BLOCK HUBBARD_U
Fe d:4.0
%ENDBLOCK HUBBARD_U

SNAP_TO_SYMMETRY
SYMMETRY_GENERATE

