#              Generated by Buildcell
#
# at 19:34:22 (GMT+0.0) 26th November 2020
# in /lustre/scratch/uccabz1/launch_tmp
# on node-c12f-025
# by uccabz1
#
# compiler GCC version 4.9.2
# options -cpp -iprefix /lustre/shared/ucl/apps/gcc/4.9.2/bin/../lib/gcc/x86_64-unknown-linux-gnu/4.9.2/ -mtune=corei7 -march=x86-64 -g -Og
#
# seed  -770280030  2102930909   725502913  1877126063 -1198229094 -1709989631  1924577251  1548013419  -187179521 -1390705503 -1652382868 -1083441108
#
#      Author: C. J. Pickard (cjp20@cam.ac.uk)
#                Space group: P21
#

%BLOCK LATTICE_ABC
      5.66936      7.73840      7.77501
     90.00000     90.00000    110.25982
%ENDBLOCK LATTICE_ABC

%BLOCK POSITIONS_FRAC
  Li  -0.0342416   0.0443857   0.3442352 SPIN=   0.00000
  Li   0.0342416  -0.0443857  -0.1557648 SPIN=   0.00000
  Li   0.0321084   0.4508722   0.3630594 SPIN=   0.00000
  Li  -0.0321084  -0.4508722  -0.1369406 SPIN=   0.00000
   O  -0.3143750  -0.1274002  -0.0263789 SPIN=   0.00000
   O  -0.2771687  -0.2722867  -0.3220476 SPIN=   0.00000
   O  -0.5156225  -0.4774947  -0.0905978 SPIN=   0.00000
   O  -0.6938446  -0.2583455  -0.2308006 SPIN=   0.00000
   P  -0.4458925  -0.2752485  -0.1606921 SPIN=   0.00000
   O   0.3143750   0.1274002   0.4736211 SPIN=   0.00000
   O   0.2771687   0.2722867   0.1779524 SPIN=   0.00000
   O   0.5156225   0.4774947   0.4094022 SPIN=   0.00000
   O   0.6938446   0.2583455   0.2691994 SPIN=   0.00000
   P   0.4458925   0.2752485   0.3393079 SPIN=   0.00000
   O  -0.1553112   0.0604836  -0.4015764 SPIN=   0.00000
   O  -0.1251139   0.4029590  -0.3879293 SPIN=   0.00000
   O  -0.4534930   0.1744241  -0.2159722 SPIN=   0.00000
   O  -0.0016909   0.2600322  -0.1299583 SPIN=   0.00000
   P  -0.1802296   0.2161626  -0.2883107 SPIN=   0.00000
   O   0.1553112  -0.0604836   0.0984236 SPIN=   0.00000
   O   0.1251139  -0.4029590   0.1120707 SPIN=   0.00000
   O   0.4534930  -0.1744241   0.2840278 SPIN=   0.00000
   O   0.0016909  -0.2600322   0.3700417 SPIN=   0.00000
   P   0.1802296  -0.2161626   0.2116893 SPIN=   0.00000
  Fe   0.3575855   0.3662675  -0.3145967 SPIN=   4.32857
  Fe  -0.3575855  -0.3662675   0.1854033 SPIN=   4.32857
  Fe  -0.4096208   0.1046053   0.0415425 SPIN=   3.67143
  Fe   0.4096208  -0.1046053  -0.4584575 SPIN=   3.67143
%ENDBLOCK POSITIONS_FRAC

# Note: total spin =  16.00

KPOINTS_MP_SPACING 0.07

%BLOCK SPECIES_POT
QC5
%ENDBLOCK SPECIES_POT

%BLOCK HUBBARD_U
Fe d:4.0
%ENDBLOCK HUBBARD_U

SNAP_TO_SYMMETRY
SYMMETRY_GENERATE

