#              Generated by Buildcell
#
# at 23:05:28 (GMT+0.0) 26th November 2020
# in /lustre/scratch/uccabz1/launch_tmp
# on node-c12g-023
# by uccabz1
#
# compiler GCC version 4.9.2
# options -cpp -iprefix /lustre/shared/ucl/apps/gcc/4.9.2/bin/../lib/gcc/x86_64-unknown-linux-gnu/4.9.2/ -mtune=corei7 -march=x86-64 -g -Og
#
# seed -1389198912   298172542  1943068370  1719300841   572414610   878213260  -661132410  1487328293   751947816  -177801951   197766221  1859356414
#
#      Author: C. J. Pickard (cjp20@cam.ac.uk)
#                Space group: P-1
#

%BLOCK LATTICE_ABC
      4.82390      8.29119      8.36405
     89.48704     81.13205     75.60430
%ENDBLOCK LATTICE_ABC

%BLOCK POSITIONS_FRAC
  Li  -0.1870375   0.0369170   0.2055184 SPIN=   0.00000
  Li   0.1870375  -0.0369170  -0.2055184 SPIN=   0.00000
  Li  -0.3084866   0.4450868   0.2989226 SPIN=   0.00000
  Li   0.3084866  -0.4450868  -0.2989226 SPIN=   0.00000
   O   0.2602318  -0.4895125   0.2320074 SPIN=   0.00000
   O   0.3315190  -0.2032748   0.1305889 SPIN=   0.00000
   O   0.1521403  -0.3761976  -0.0484190 SPIN=   0.00000
   O  -0.1717334  -0.2406165   0.2026506 SPIN=   0.00000
   P   0.1455647  -0.3350079   0.1355473 SPIN=   0.00000
   O  -0.2602318   0.4895125  -0.2320074 SPIN=   0.00000
   O  -0.3315190   0.2032748  -0.1305889 SPIN=   0.00000
   O  -0.1521403   0.3761976   0.0484190 SPIN=   0.00000
   O   0.1717334   0.2406165  -0.2026506 SPIN=   0.00000
   P  -0.1455647   0.3350079  -0.1355473 SPIN=   0.00000
   O  -0.4441984  -0.2894576  -0.4176451 SPIN=   0.00000
   O  -0.1938994  -0.0605497  -0.5339065 SPIN=   0.00000
   O  -0.1286613  -0.1576352  -0.2589260 SPIN=   0.00000
   O   0.1109715  -0.3469968  -0.4990062 SPIN=   0.00000
   P  -0.1756246  -0.2192692  -0.4276985 SPIN=   0.00000
   O   0.4441984   0.2894576   0.4176451 SPIN=   0.00000
   O   0.1938994   0.0605497   0.5339065 SPIN=   0.00000
   O   0.1286613   0.1576352   0.2589260 SPIN=   0.00000
   O  -0.1109715   0.3469968   0.4990062 SPIN=   0.00000
   P   0.1756246   0.2192692   0.4276985 SPIN=   0.00000
  Fe   0.3474862  -0.1619949   0.3942590 SPIN=   4.96390
  Fe  -0.3474862   0.1619949  -0.3942590 SPIN=   4.96390
  Fe  -0.3129768  -0.3156270  -0.0513396 SPIN=   3.03610
  Fe   0.3129768   0.3156270   0.0513396 SPIN=   3.03610
%ENDBLOCK POSITIONS_FRAC

# Note: total spin =  16.00

KPOINTS_MP_SPACING 0.07

%BLOCK SPECIES_POT
QC5
%ENDBLOCK SPECIES_POT

%BLOCK HUBBARD_U
Fe d:4.0
%ENDBLOCK HUBBARD_U

SNAP_TO_SYMMETRY
SYMMETRY_GENERATE

