#              Generated by Buildcell
#
# at 12:57:23 (GMT+0.0) 26th November 2020
# in /lustre/scratch/uccabz1/launch_tmp
# on node-c12f-029
# by uccabz1
#
# compiler GCC version 4.9.2
# options -cpp -iprefix /lustre/shared/ucl/apps/gcc/4.9.2/bin/../lib/gcc/x86_64-unknown-linux-gnu/4.9.2/ -mtune=corei7 -march=x86-64 -g -Og
#
# seed  -534292134 -1925768571 -1098914224  1799986951 -1302339946 -1068381280  -102603776  -663038289  1637723207   403915722   102318865  -757578828
#
#      Author: C. J. Pickard (cjp20@cam.ac.uk)
#                Space group: P-1
#

%BLOCK LATTICE_ABC
      6.49306      6.69230      8.74539
    111.21950     91.25004    113.04720
%ENDBLOCK LATTICE_ABC

%BLOCK POSITIONS_FRAC
  Li   0.2277195  -0.1279224  -0.4427172 SPIN=   0.00000
  Li  -0.2277195   0.1279224   0.4427172 SPIN=   0.00000
  Li   0.2517948  -0.2117135  -0.1249190 SPIN=   0.00000
  Li  -0.2517948   0.2117135   0.1249190 SPIN=   0.00000
   O   0.3910404   0.6282767  -0.4597747 SPIN=   0.00000
   O   0.1221424   0.1802024  -0.5577499 SPIN=   0.00000
   O   0.3225460   0.4050230  -0.2633984 SPIN=   0.00000
   O   0.0072904   0.4814616  -0.3628124 SPIN=   0.00000
   P   0.2179530   0.4353126  -0.4129665 SPIN=   0.00000
   O  -0.3910404  -0.6282767   0.4597747 SPIN=   0.00000
   O  -0.1221424  -0.1802024   0.5577499 SPIN=   0.00000
   O  -0.3225460  -0.4050230   0.2633984 SPIN=   0.00000
   O  -0.0072904  -0.4814616   0.3628124 SPIN=   0.00000
   P  -0.2179530  -0.4353126   0.4129665 SPIN=   0.00000
   O  -0.6706169   0.1577572  -0.1106130 SPIN=   0.00000
   O  -0.4419634   0.1528043  -0.3510217 SPIN=   0.00000
   O  -0.2328737   0.4056049  -0.0604824 SPIN=   0.00000
   O  -0.3900822  -0.0362802  -0.1619791 SPIN=   0.00000
   P  -0.4459721   0.1668872  -0.1677008 SPIN=   0.00000
   O   0.6706169  -0.1577572   0.1106130 SPIN=   0.00000
   O   0.4419634  -0.1528043   0.3510217 SPIN=   0.00000
   O   0.2328737  -0.4056049   0.0604824 SPIN=   0.00000
   O   0.3900822   0.0362802   0.1619791 SPIN=   0.00000
   P   0.4459721  -0.1668872   0.1677008 SPIN=   0.00000
  Fe   0.0228986   0.2207667  -0.1886780 SPIN=   7.38241
  Fe  -0.0228986  -0.2207667   0.1886780 SPIN=   7.38241
  Fe   0.3256759   0.4495640   0.2735232 SPIN=   0.61759
  Fe  -0.3256759  -0.4495640  -0.2735232 SPIN=   0.61759
%ENDBLOCK POSITIONS_FRAC

# Note: total spin =  16.00

KPOINTS_MP_SPACING 0.07

%BLOCK SPECIES_POT
QC5
%ENDBLOCK SPECIES_POT

%BLOCK HUBBARD_U
Fe d:4.0
%ENDBLOCK HUBBARD_U

SNAP_TO_SYMMETRY
SYMMETRY_GENERATE

