#              Generated by Buildcell
#
# at 12:59:27 (GMT+0.0) 26th November 2020
# in /lustre/scratch/uccabz1/launch_tmp
# on node-c12f-021
# by uccabz1
#
# compiler GCC version 4.9.2
# options -cpp -iprefix /lustre/shared/ucl/apps/gcc/4.9.2/bin/../lib/gcc/x86_64-unknown-linux-gnu/4.9.2/ -mtune=corei7 -march=x86-64 -g -Og
#
# seed  -899616963 -1038343564  1384922797 -1817295275  -813793489  1464332913  2095673397  1393386364   914157926  -343271452  2074630984  -910470266
#
#      Author: C. J. Pickard (cjp20@cam.ac.uk)
#                Space group: Iba2
#

%BLOCK LATTICE_ABC
      7.53589      7.53589      7.53589
    100.99323    108.04099    119.97418
%ENDBLOCK LATTICE_ABC

%BLOCK POSITIONS_FRAC
  Li   0.4801657   0.1750531   0.2605461 SPIN=   0.00000
  Li   0.0854930  -0.1750531   0.3051127 SPIN=   0.00000
  Li  -0.0198343   0.2196196  -0.1948873 SPIN=   0.00000
  Li  -0.4145070  -0.2196196  -0.2394539 SPIN=   0.00000
   O  -1.0275690  -0.5767466   0.2740488 SPIN=   0.00000
   O  -0.7846412  -0.6408105   0.1269205 SPIN=   0.00000
   O  -0.9875534  -0.4946425  -0.0364077 SPIN=   0.00000
   O  -0.6417408  -0.2458356   0.3151264 SPIN=   0.00000
   P  -0.8666982  -0.4912782   0.1771798 SPIN=   0.00000
   O   0.8507955   0.5767466  -0.4508224 SPIN=   0.00000
   O   0.7677311   0.6408105  -0.1438307 SPIN=   0.00000
   O   0.4582348   0.4946425  -0.4929109 SPIN=   0.00000
   O   0.5609620   0.2458356  -0.3959052 SPIN=   0.00000
   P   0.6684580   0.4912782  -0.3754199 SPIN=   0.00000
   O  -0.5275690  -0.3016179   0.0491776 SPIN=   0.00000
   O  -0.2846412   0.0884382   0.3561693 SPIN=   0.00000
   O  -0.4875534   0.0488543   0.0070891 SPIN=   0.00000
   O  -0.1417408   0.0431328   0.1040948 SPIN=   0.00000
   P  -0.3666982  -0.0438780   0.1245801 SPIN=   0.00000
   O   0.3507955   0.3016179  -0.2259512 SPIN=   0.00000
   O   0.2677311  -0.0884382  -0.3730795 SPIN=   0.00000
   O  -0.0417652  -0.0488543  -0.5364077 SPIN=   0.00000
   O   0.0609620  -0.0431328  -0.1848736 SPIN=   0.00000
   P   0.1684580   0.0438780  -0.3228202 SPIN=   0.00000
  Fe   0.1076445   0.2752669   0.4317700 SPIN=   4.00000
  Fe   0.1565031  -0.2752669  -0.1676223 SPIN=   4.00000
  Fe  -0.3923555  -0.3241254   0.3323777 SPIN=   4.00000
  Fe   0.6565031   0.3241254  -0.0682300 SPIN=   4.00000
%ENDBLOCK POSITIONS_FRAC

# Note: total spin =  16.00

KPOINTS_MP_SPACING 0.07

%BLOCK SPECIES_POT
QC5
%ENDBLOCK SPECIES_POT

%BLOCK HUBBARD_U
Fe d:4.0
%ENDBLOCK HUBBARD_U

SNAP_TO_SYMMETRY
SYMMETRY_GENERATE

