#              Generated by Buildcell
#
# at 12:20:16 (GMT+0.0) 24th November 2020
# in /scratch/scratch/uccabz1/launch_tmp
# on node-a14b-007
# by uccabz1
#
# compiler GCC version 4.9.2
# options -cpp -iprefix /scratch/UCL/applications/gcc/4.9.2/bin/../lib/gcc/x86_64-unknown-linux-gnu/4.9.2/ -mtune=corei7 -march=x86-64 -g -O2
#
# seed  1164244100 -1052640659   604320733   845818414   307028029 -2123338709  -748199587  1335912575    41446613   710498166   910983735 -1801092031
#
#      Author: C. J. Pickard (cjp20@cam.ac.uk)
#                Space group: C2
#

%BLOCK LATTICE_ABC
      5.42956      5.42956      5.60464
     86.94235     86.94235     76.07244
%ENDBLOCK LATTICE_ABC

%BLOCK POSITIONS_FRAC
  Li  -0.2189103   0.0954873  -0.2439128 SPIN=   0.00000
  Li  -0.0954873   0.2189103   0.2439128 SPIN=   0.00000
   O   0.1700713  -0.1261895   0.2819290 SPIN=   0.00000
   O  -0.0301038  -0.4747194   0.4907291 SPIN=   0.00000
   O  -0.0578170  -0.4050415   0.0528785 SPIN=   0.00000
   O   0.3625055  -0.6043913   0.2273302 SPIN=   0.00000
   P   0.1172666  -0.3902502   0.2637896 SPIN=   0.00000
   O   0.1261895  -0.1700713  -0.2819290 SPIN=   0.00000
   O   0.4747194   0.0301038  -0.4907291 SPIN=   0.00000
   O   0.4050415   0.0578170  -0.0528785 SPIN=   0.00000
   O   0.6043913  -0.3625055  -0.2273302 SPIN=   0.00000
   P   0.3902502  -0.1172666  -0.2637896 SPIN=   0.00000
  Fe  -0.4360295  -0.2017197   0.2171949 SPIN=   4.00000
  Fe   0.2017197   0.4360295  -0.2171949 SPIN=   4.00000
%ENDBLOCK POSITIONS_FRAC

# Note: total spin =   8.00

KPOINTS_MP_SPACING 0.07

%BLOCK SPECIES_POT
QC5
%ENDBLOCK SPECIES_POT

%BLOCK HUBBARD_U
Fe d:4.0
%ENDBLOCK HUBBARD_U

SNAP_TO_SYMMETRY
SYMMETRY_GENERATE

