#              Generated by Buildcell
#
# at 09:04:26 (GMT+0.0) 24th November 2020
# in /lustre/scratch/uccabz1/launch_tmp
# on node-c12o-036
# by uccabz1
#
# compiler GCC version 4.9.2
# options -cpp -iprefix /lustre/shared/ucl/apps/gcc/4.9.2/bin/../lib/gcc/x86_64-unknown-linux-gnu/4.9.2/ -mtune=corei7 -march=x86-64 -g -Og
#
# seed -1460575865  -831526305  2059182336  -602232169 -1784611206  2011267820   898640363 -2023978109  -467601348  1096077195    30969314  1317520666
#
#      Author: C. J. Pickard (cjp20@cam.ac.uk)
#                Space group: P4
#

%BLOCK LATTICE_ABC
      5.33269      5.47755      5.47755
     90.00000     90.00000     90.00000
%ENDBLOCK LATTICE_ABC

%BLOCK POSITIONS_FRAC
  Li  -0.0361042   0.5000000  -0.5000000 SPIN=   0.00000
  Li  -0.3440497  -0.0000000   0.0000000 SPIN=   0.00000
   O  -0.3571475  -0.6096760  -0.1995343 SPIN=   0.00000
   O  -0.0014134  -0.2959797  -0.1181438 SPIN=   0.00000
   O  -0.3571475   0.6096760   0.1995343 SPIN=   0.00000
   O  -0.0014134   0.2959797   0.1181438 SPIN=   0.00000
   O  -0.3571475   0.1995343  -0.6096760 SPIN=   0.00000
   O  -0.0014134   0.1181438  -0.2959797 SPIN=   0.00000
   O  -0.3571475  -0.1995343   0.6096760 SPIN=   0.00000
   O  -0.0014134  -0.1181438   0.2959797 SPIN=   0.00000
   P   0.1550996   0.0000000   0.0000000 SPIN=   0.00000
   P   0.4647747   0.5000000  -0.5000000 SPIN=   0.00000
  Fe   0.3097657  -0.5000000  -0.0000000 SPIN=   4.00000
  Fe   0.3097657   0.0000000  -0.5000000 SPIN=   4.00000
%ENDBLOCK POSITIONS_FRAC

# Note: total spin =   8.00

KPOINTS_MP_SPACING 0.07

%BLOCK SPECIES_POT
QC5
%ENDBLOCK SPECIES_POT

%BLOCK HUBBARD_U
Fe d:4.0
%ENDBLOCK HUBBARD_U

SNAP_TO_SYMMETRY
SYMMETRY_GENERATE

