#              Generated by Buildcell
#
# at 13:21:35 (GMT+0.0) 26th November 2020
# in /lustre/scratch/uccabz1/launch_tmp
# on node-c12i-031
# by uccabz1
#
# compiler GCC version 4.9.2
# options -cpp -iprefix /lustre/shared/ucl/apps/gcc/4.9.2/bin/../lib/gcc/x86_64-unknown-linux-gnu/4.9.2/ -mtune=corei7 -march=x86-64 -g -Og
#
# seed  1997013792   493155393 -1406830851 -1151893817   558630646   258647536  -977349905  -464484405  1111768836  -801623142 -1325761696 -1834465592
#
#      Author: C. J. Pickard (cjp20@cam.ac.uk)
#                Space group: P41
#

%BLOCK LATTICE_ABC
      6.07692      6.07692      8.66528
     90.00000     90.00000     90.00000
%ENDBLOCK LATTICE_ABC

%BLOCK POSITIONS_FRAC
  Li   0.1526005   0.2376758  -0.1508606 SPIN=   0.00000
  Li  -0.1526005  -0.2376758   0.3491394 SPIN=   0.00000
  Li  -0.2376758   0.1526005   0.0991394 SPIN=   0.00000
  Li   0.2376758  -0.1526005  -0.4008606 SPIN=   0.00000
   O  -0.0225576  -0.3731624  -0.4461654 SPIN=   0.00000
   O  -0.1503951  -0.1247990  -0.2191845 SPIN=   0.00000
   O  -0.3964788  -0.1659009  -0.4442087 SPIN=   0.00000
   O  -0.3411018  -0.4842773  -0.2648566 SPIN=   0.00000
   P  -0.2180531  -0.2939484  -0.3481354 SPIN=   0.00000
   O   0.0225576   0.3731624   0.0538346 SPIN=   0.00000
   O   0.1503951   0.1247990   0.2808155 SPIN=   0.00000
   O   0.3964788   0.1659009   0.0557913 SPIN=   0.00000
   O   0.3411018   0.4842773   0.2351434 SPIN=   0.00000
   P   0.2180531   0.2939484   0.1518646 SPIN=   0.00000
   O   0.3731624  -0.0225576  -0.1961654 SPIN=   0.00000
   O   0.1247990  -0.1503951   0.0308155 SPIN=   0.00000
   O   0.1659009  -0.3964788  -0.1942087 SPIN=   0.00000
   O   0.4842773  -0.3411018  -0.0148566 SPIN=   0.00000
   P   0.2939484  -0.2180531  -0.0981354 SPIN=   0.00000
   O  -0.3731624   0.0225576   0.3038346 SPIN=   0.00000
   O  -0.1247990   0.1503951   0.5308155 SPIN=   0.00000
   O  -0.1659009   0.3964788   0.3057913 SPIN=   0.00000
   O  -0.4842773   0.3411018   0.4851434 SPIN=   0.00000
   P  -0.2939484   0.2180531   0.4018646 SPIN=   0.00000
  Fe   0.3478169  -0.1474379   0.2250814 SPIN=   4.00000
  Fe  -0.3478169   0.1474379  -0.2749186 SPIN=   4.00000
  Fe   0.1474379   0.3478169   0.4750814 SPIN=   4.00000
  Fe  -0.1474379  -0.3478169  -0.0249186 SPIN=   4.00000
%ENDBLOCK POSITIONS_FRAC

# Note: total spin =  16.00

KPOINTS_MP_SPACING 0.07

%BLOCK SPECIES_POT
QC5
%ENDBLOCK SPECIES_POT

%BLOCK HUBBARD_U
Fe d:4.0
%ENDBLOCK HUBBARD_U

SNAP_TO_SYMMETRY
SYMMETRY_GENERATE

