#              Generated by Buildcell
#
# at 10:50:09 (GMT+0.0) 24th November 2020
# in /scratch/scratch/uccabz1/launch_tmp
# on node-k10h-026
# by uccabz1
#
# compiler GCC version 4.9.2
# options -cpp -iprefix /scratch/UCL/applications/gcc/4.9.2/bin/../lib/gcc/x86_64-unknown-linux-gnu/4.9.2/ -mtune=corei7 -march=x86-64 -g -O2
#
# seed  1793536549   996322139   266644207  1165929823 -1092444906 -1189994979  1725942413   885043236 -1085171689  -372446353  1601958519   509564647
#
#      Author: C. J. Pickard (cjp20@cam.ac.uk)
#                Space group: Cm
#

%BLOCK LATTICE_ABC
      4.28144      6.38606      6.38606
    105.03933    101.07566    101.07566
%ENDBLOCK LATTICE_ABC

%BLOCK POSITIONS_FRAC
  Li   0.0766745   0.0339136   0.3324345 SPIN=   0.00000
  Li   0.0766745   0.3324345   0.0339136 SPIN=   0.00000
   O  -0.1121098  -0.4199297  -0.1767848 SPIN=   0.00000
   O  -0.5571233  -0.3844473   0.0461935 SPIN=   0.00000
   O  -0.7359902  -0.6052408  -0.3552146 SPIN=   0.00000
   P  -0.4385837  -0.5372170  -0.1423279 SPIN=   0.00000
   O  -0.1121098  -0.1767848  -0.4199297 SPIN=   0.00000
   O  -0.5571233   0.0461935  -0.3844473 SPIN=   0.00000
   O  -0.7359902  -0.3552146  -0.6052408 SPIN=   0.00000
   P  -0.4385837  -0.1423279  -0.5372170 SPIN=   0.00000
   O  -0.3298875   0.1742092   0.1742092 SPIN=   0.00000
   O   0.0433746  -0.0096203  -0.0096203 SPIN=   0.00000
  Fe  -0.2689622   0.4499088   0.4499088 SPIN=   7.10371
  Fe   0.4475761  -0.1055270  -0.1055270 SPIN=   0.89629
%ENDBLOCK POSITIONS_FRAC

# Note: total spin =   8.00

KPOINTS_MP_SPACING 0.07

%BLOCK SPECIES_POT
QC5
%ENDBLOCK SPECIES_POT

%BLOCK HUBBARD_U
Fe d:4.0
%ENDBLOCK HUBBARD_U

SNAP_TO_SYMMETRY
SYMMETRY_GENERATE

