#              Generated by Buildcell
#
# at 19:10:43 (GMT+0.0) 26th November 2020
# in /lustre/scratch/uccabz1/launch_tmp
# on node-c12d-022
# by uccabz1
#
# compiler GCC version 4.9.2
# options -cpp -iprefix /lustre/shared/ucl/apps/gcc/4.9.2/bin/../lib/gcc/x86_64-unknown-linux-gnu/4.9.2/ -mtune=corei7 -march=x86-64 -g -Og
#
# seed -1662683265  -502264638  -229839965 -2034717453  1709256475   553847067 -1232565623   939885338   693550535   786303070   867040507  1584387181
#
#      Author: C. J. Pickard (cjp20@cam.ac.uk)
#                Space group: Pc
#

%BLOCK LATTICE_ABC
      6.25726      6.87445      7.98556
     90.00000    111.31664     90.00000
%ENDBLOCK LATTICE_ABC

%BLOCK POSITIONS_FRAC
  Li   0.3362419  -0.2531911   0.2864008 SPIN=   0.00000
  Li   0.3362419   0.2531911  -0.2135992 SPIN=   0.00000
  Li   0.1254302   0.0817424   0.4148752 SPIN=   0.00000
  Li   0.1254302  -0.0817424  -0.0851248 SPIN=   0.00000
   O   0.5417749   0.2785451   0.6297341 SPIN=   0.00000
   O   0.2681739   0.5739275   0.5157099 SPIN=   0.00000
   O   0.5886504   0.5359188   0.4073130 SPIN=   0.00000
   O   0.2572627   0.3044339   0.3017309 SPIN=   0.00000
   P   0.4189214   0.4141022   0.4705561 SPIN=   0.00000
   O   0.5417749  -0.2785451   0.1297341 SPIN=   0.00000
   O   0.2681739  -0.5739275   0.0157099 SPIN=   0.00000
   O   0.5886504  -0.5359188  -0.0926870 SPIN=   0.00000
   O   0.2572627  -0.3044339  -0.1982691 SPIN=   0.00000
   P   0.4189214  -0.4141022  -0.0294439 SPIN=   0.00000
   O  -0.1433212  -0.1883493  -0.3119595 SPIN=   0.00000
   O  -0.1293056  -0.1325968  -0.6295907 SPIN=   0.00000
   O  -0.4666395  -0.0129181  -0.5694074 SPIN=   0.00000
   O  -0.0872770   0.1528239  -0.4251639 SPIN=   0.00000
   P  -0.2018560  -0.0505413  -0.4741738 SPIN=   0.00000
   O  -0.1433212   0.1883493   0.1880405 SPIN=   0.00000
   O  -0.1293056   0.1325968  -0.1295907 SPIN=   0.00000
   O  -0.4666395   0.0129181  -0.0694074 SPIN=   0.00000
   O  -0.0872770  -0.1528239   0.0748361 SPIN=   0.00000
   P  -0.2018560   0.0505413   0.0258262 SPIN=   0.00000
  Fe  -0.0562087   0.4454537   0.0354976 SPIN=   2.53433
  Fe  -0.0562087  -0.4454537  -0.4645024 SPIN=   2.53433
  Fe  -0.4734506  -0.1747549  -0.2778633 SPIN=   5.46567
  Fe  -0.4734506   0.1747549   0.2221367 SPIN=   5.46567
%ENDBLOCK POSITIONS_FRAC

# Note: total spin =  16.00

KPOINTS_MP_SPACING 0.07

%BLOCK SPECIES_POT
QC5
%ENDBLOCK SPECIES_POT

%BLOCK HUBBARD_U
Fe d:4.0
%ENDBLOCK HUBBARD_U

SNAP_TO_SYMMETRY
SYMMETRY_GENERATE

