#              Generated by Buildcell
#
# at 15:35:17 (GMT+0.0) 26th November 2020
# in /lustre/scratch/uccabz1/launch_tmp
# on node-c12m-023
# by uccabz1
#
# compiler GCC version 4.9.2
# options -cpp -iprefix /lustre/shared/ucl/apps/gcc/4.9.2/bin/../lib/gcc/x86_64-unknown-linux-gnu/4.9.2/ -mtune=corei7 -march=x86-64 -g -Og
#
# seed  1257726895  1453179232  1373190747  1933245545 -1600494152   332938688 -1814601045 -1971634982  1232606752 -1512756116 -1870901590 -1390866201
#
#      Author: C. J. Pickard (cjp20@cam.ac.uk)
#                Space group: Cc
#

%BLOCK LATTICE_ABC
      5.60336      5.86608     11.57016
     75.39374     75.98670     61.47076
%ENDBLOCK LATTICE_ABC

%BLOCK POSITIONS_FRAC
  Li  -0.3968227  -0.1038361   0.0730506 SPIN=   0.00000
  Li   0.4276083   0.3961639  -0.4269494 SPIN=   0.00000
  Li  -0.4387559   0.0130874  -0.1938859 SPIN=   0.00000
  Li  -0.3804456  -0.4869126   0.3061141 SPIN=   0.00000
   O   0.4266243  -0.4309916  -0.2135469 SPIN=   0.00000
   O   0.0439676  -0.3386987  -0.0279375 SPIN=   0.00000
   O   0.4277378  -0.2369216  -0.0352359 SPIN=   0.00000
   O   0.0803234   0.0404977  -0.1762241 SPIN=   0.00000
   P   0.2524124  -0.2482883  -0.1193205 SPIN=   0.00000
   O   0.2179142  -0.9309916   0.2864531 SPIN=   0.00000
   O   0.3226686  -0.8386987   0.4720625 SPIN=   0.00000
   O  -0.1555804  -0.7369216   0.4647641 SPIN=   0.00000
   O   0.0554030  -0.4595023   0.3237759 SPIN=   0.00000
   P   0.1151964  -0.7482883   0.3806795 SPIN=   0.00000
   O  -0.1145373   0.3963217  -0.3433837 SPIN=   0.00000
   O  -0.4275560   0.8983725  -0.3545928 SPIN=   0.00000
   O  -0.0526482   0.6908601  -0.2302921 SPIN=   0.00000
   O   0.0601236   0.7405925  -0.4555458 SPIN=   0.00000
   P  -0.1303498   0.6670474  -0.3471101 SPIN=   0.00000
   O   0.0615992  -0.1036783   0.1566163 SPIN=   0.00000
   O  -0.1162236   0.3983725   0.1454072 SPIN=   0.00000
   O  -0.4079198   0.1908601   0.2697079 SPIN=   0.00000
   O  -0.3451704   0.2405925   0.0444542 SPIN=   0.00000
   P  -0.1895875   0.1670474   0.1528899 SPIN=   0.00000
  Fe   0.2356560  -0.4975820   0.1326882 SPIN=   5.21223
  Fe   0.1292378   0.0024180  -0.3673118 SPIN=   5.21223
  Fe  -0.1949658  -0.1203027   0.4042618 SPIN=   2.78777
  Fe  -0.0889933   0.3796973  -0.0957382 SPIN=   2.78777
%ENDBLOCK POSITIONS_FRAC

# Note: total spin =  16.00

KPOINTS_MP_SPACING 0.07

%BLOCK SPECIES_POT
QC5
%ENDBLOCK SPECIES_POT

%BLOCK HUBBARD_U
Fe d:4.0
%ENDBLOCK HUBBARD_U

SNAP_TO_SYMMETRY
SYMMETRY_GENERATE

