#              Generated by Buildcell
#
# at 14:13:46 (GMT+0.0) 24th November 2020
# in /lustre/scratch/uccabz1/launch_tmp
# on node-c12c-035
# by uccabz1
#
# compiler GCC version 4.9.2
# options -cpp -iprefix /lustre/shared/ucl/apps/gcc/4.9.2/bin/../lib/gcc/x86_64-unknown-linux-gnu/4.9.2/ -mtune=corei7 -march=x86-64 -g -Og
#
# seed   962394193  -318011726  -246943693  -210193442  1145495580 -1886438687  -226499582 -2112994724  1826607265 -1489620960  -690775147    96384565
#
#      Author: C. J. Pickard (cjp20@cam.ac.uk)
#                Space group: P-1
#

%BLOCK LATTICE_ABC
      4.26637      5.01430      7.86835
     92.85508     99.46833    104.51764
%ENDBLOCK LATTICE_ABC

%BLOCK POSITIONS_FRAC
  Li  -0.5000000   0.0000000   0.0000000 SPIN=   0.00000
  Li  -0.5000000   0.0000000  -0.5000000 SPIN=   0.00000
   O   0.0313584  -0.3008922  -0.0884430 SPIN=   0.00000
   O   0.1315281  -0.0126048  -0.3490224 SPIN=   0.00000
   O  -0.4121082  -0.3432429  -0.3647272 SPIN=   0.00000
   P  -0.1186427  -0.1478587  -0.2317403 SPIN=   0.00000
   O  -0.0313584   0.3008922   0.0884430 SPIN=   0.00000
   O  -0.1315281   0.0126048   0.3490224 SPIN=   0.00000
   O   0.4121082   0.3432429   0.3647272 SPIN=   0.00000
   P   0.1186427   0.1478587   0.2317403 SPIN=   0.00000
   O  -0.5000000  -0.5000000   0.0000000 SPIN=   0.00000
   O   1.0000000  -0.5000000   0.5000000 SPIN=   0.00000
  Fe  -0.2081557  -0.4181874   0.2547053 SPIN=   4.00000
  Fe   0.2081557   0.4181874  -0.2547053 SPIN=   4.00000
%ENDBLOCK POSITIONS_FRAC

# Note: total spin =   8.00

KPOINTS_MP_SPACING 0.07

%BLOCK SPECIES_POT
QC5
%ENDBLOCK SPECIES_POT

%BLOCK HUBBARD_U
Fe d:4.0
%ENDBLOCK HUBBARD_U

SNAP_TO_SYMMETRY
SYMMETRY_GENERATE

