#              Generated by Buildcell
#
# at 07:53:43 (GMT+0.0) 24th November 2020
# in /lustre/scratch/uccabz1/launch_tmp
# on node-c12k-029
# by uccabz1
#
# compiler GCC version 4.9.2
# options -cpp -iprefix /lustre/shared/ucl/apps/gcc/4.9.2/bin/../lib/gcc/x86_64-unknown-linux-gnu/4.9.2/ -mtune=corei7 -march=x86-64 -g -Og
#
# seed  -856689318 -1648307832  -878690776  2113155913  1660635151   881292780  1899288855   470554269 -1774358215    51731250  2049717611   -80399251
#
#      Author: C. J. Pickard (cjp20@cam.ac.uk)
#                Space group: P-1
#

%BLOCK LATTICE_ABC
      5.54516      5.74394      6.04861
    118.08804    106.53140     91.48643
%ENDBLOCK LATTICE_ABC

%BLOCK POSITIONS_FRAC
  Li  -0.2442677  -0.3961949  -0.4905792 SPIN=   0.00000
  Li   0.2442677   0.3961949   0.4905792 SPIN=   0.00000
   O   0.1609458  -0.0045526   0.1837080 SPIN=   0.00000
   O   0.0119111  -0.5006692  -0.2001596 SPIN=   0.00000
   O   0.3973859  -0.2342913  -0.1559086 SPIN=   0.00000
   O   0.4158144  -0.3752633   0.1814625 SPIN=   0.00000
   P   0.2439561  -0.2652371   0.0140506 SPIN=   0.00000
   O  -0.1609458   0.0045526  -0.1837080 SPIN=   0.00000
   O  -0.0119111   0.5006692   0.2001596 SPIN=   0.00000
   O  -0.3973859   0.2342913   0.1559086 SPIN=   0.00000
   O  -0.4158144   0.3752633  -0.1814625 SPIN=   0.00000
   P  -0.2439561   0.2652371  -0.0140506 SPIN=   0.00000
  Fe   0.2158024   0.1432540  -0.1311190 SPIN=   4.00000
  Fe  -0.2158024  -0.1432540   0.1311190 SPIN=   4.00000
%ENDBLOCK POSITIONS_FRAC

# Note: total spin =   8.00

KPOINTS_MP_SPACING 0.07

%BLOCK SPECIES_POT
QC5
%ENDBLOCK SPECIES_POT

%BLOCK HUBBARD_U
Fe d:4.0
%ENDBLOCK HUBBARD_U

SNAP_TO_SYMMETRY
SYMMETRY_GENERATE

