#              Generated by Buildcell
#
# at 14:33:27 (GMT+0.0) 24th November 2020
# in /scratch/scratch/uccabz1/launch_tmp
# on node-a14a-027
# by uccabz1
#
# compiler GCC version 4.9.2
# options -cpp -iprefix /scratch/UCL/applications/gcc/4.9.2/bin/../lib/gcc/x86_64-unknown-linux-gnu/4.9.2/ -mtune=corei7 -march=x86-64 -g -O2
#
# seed    79302482   680910656  1078533824 -1459926056  -300254434  1050590494  1258243115  1310852048 -2136495215   599183584 -1405969873  -753358648
#
#      Author: C. J. Pickard (cjp20@cam.ac.uk)
#                Space group: C2
#

%BLOCK LATTICE_ABC
      4.60621      6.02882      6.66593
    109.09196     90.00000    112.45857
%ENDBLOCK LATTICE_ABC

%BLOCK POSITIONS_FRAC
  Li   0.2998752   0.1896034   0.3845927 SPIN=   0.00000
  Li   0.1102717  -0.1896034  -0.3845927 SPIN=   0.00000
   O  -0.0525172   0.3353917   0.4528761 SPIN=   0.00000
   O  -0.4304266   0.3628424   0.1813349 SPIN=   0.00000
   O   0.1221764   0.6881671   0.2818176 SPIN=   0.00000
   O   0.0128910   0.2350762   0.0522360 SPIN=   0.00000
   P  -0.0839563   0.3996337   0.2510506 SPIN=   0.00000
   O  -0.3879088  -0.3353917  -0.4528761 SPIN=   0.00000
   O  -0.7932690  -0.3628424  -0.1813349 SPIN=   0.00000
   O  -0.5659907  -0.6881671  -0.2818176 SPIN=   0.00000
   O  -0.2221853  -0.2350762  -0.0522360 SPIN=   0.00000
   P  -0.4835900  -0.3996337  -0.2510506 SPIN=   0.00000
  Fe  -0.4185509  -0.2742683   0.2234400 SPIN=   4.00000
  Fe  -0.1442826   0.2742683  -0.2234400 SPIN=   4.00000
%ENDBLOCK POSITIONS_FRAC

# Note: total spin =   8.00

KPOINTS_MP_SPACING 0.07

%BLOCK SPECIES_POT
QC5
%ENDBLOCK SPECIES_POT

%BLOCK HUBBARD_U
Fe d:4.0
%ENDBLOCK HUBBARD_U

SNAP_TO_SYMMETRY
SYMMETRY_GENERATE

