#              Generated by Buildcell
#
# at 07:18:21 (GMT+0.0) 24th November 2020
# in /lustre/scratch/uccabz1/launch_tmp
# on node-c12b-026
# by uccabz1
#
# compiler GCC version 4.9.2
# options -cpp -iprefix /lustre/shared/ucl/apps/gcc/4.9.2/bin/../lib/gcc/x86_64-unknown-linux-gnu/4.9.2/ -mtune=corei7 -march=x86-64 -g -Og
#
# seed  -754947750 -2019219361  -881294559 -1819264184  1682935549 -2060875770 -1115043540  -749398179  -708802071 -1543593222  1064909017  1858646704
#
#      Author: C. J. Pickard (cjp20@cam.ac.uk)
#                Space group: Cm
#

%BLOCK LATTICE_ABC
      4.82310      6.22566      6.22566
     94.37621    110.40269    110.40269
%ENDBLOCK LATTICE_ABC

%BLOCK POSITIONS_FRAC
  Li  -0.4075534   0.3810284   0.0034043 SPIN=   0.00000
  Li  -0.4075534   0.0034043   0.3810284 SPIN=   0.00000
   O  -0.3548846  -0.3762355   0.3217566 SPIN=   0.00000
   O   0.2556651  -0.2787809   0.4415166 SPIN=   0.00000
   O  -0.0465920  -0.2062236   0.0633407 SPIN=   0.00000
   O   0.0714303   0.0508622   0.4410297 SPIN=   0.00000
   P  -0.0354386  -0.2088489   0.3186336 SPIN=   0.00000
   O  -0.3548846   0.3217566  -0.3762355 SPIN=   0.00000
   O   0.2556651   0.4415166  -0.2787809 SPIN=   0.00000
   O  -0.0465920   0.0633407  -0.2062236 SPIN=   0.00000
   O   0.0714303   0.4410297   0.0508622 SPIN=   0.00000
   P  -0.0354386   0.3186336  -0.2088489 SPIN=   0.00000
  Fe   0.2694843   0.3893989   0.3893989 SPIN=   2.18587
  Fe   0.1524480  -0.1883924  -0.1883924 SPIN=   5.81413
%ENDBLOCK POSITIONS_FRAC

# Note: total spin =   8.00

KPOINTS_MP_SPACING 0.07

%BLOCK SPECIES_POT
QC5
%ENDBLOCK SPECIES_POT

%BLOCK HUBBARD_U
Fe d:4.0
%ENDBLOCK HUBBARD_U

SNAP_TO_SYMMETRY
SYMMETRY_GENERATE

