#              Generated by Buildcell
#
# at 11:28:45 (GMT+0.0) 24th November 2020
# in /lustre/scratch/uccabz1/launch_tmp
# on node-c12c-026
# by uccabz1
#
# compiler GCC version 4.9.2
# options -cpp -iprefix /lustre/shared/ucl/apps/gcc/4.9.2/bin/../lib/gcc/x86_64-unknown-linux-gnu/4.9.2/ -mtune=corei7 -march=x86-64 -g -Og
#
# seed -1787526503 -2008480709 -2046139861  1457439013 -1301246678 -1624008818   163922644  1119524698   746439577 -1480973401 -1544637599 -1290534966
#
#      Author: C. J. Pickard (cjp20@cam.ac.uk)
#                Space group: Fdd2
#

%BLOCK LATTICE_ABC
      5.42238      5.42238      6.57245
    105.77466    105.77466    109.93603
%ENDBLOCK LATTICE_ABC

%BLOCK POSITIONS_FRAC
  Li   0.2745959  -0.2745959   0.0000000 SPIN=   0.00000
  Li  -0.4754041   0.4754041   0.5000000 SPIN=   0.00000
   O  -0.0878626  -0.2570306  -0.2055566 SPIN=   0.00000
   O  -0.2469640  -0.1993599   0.1364197 SPIN=   0.00000
   O   0.2570306   0.0878626   0.2055566 SPIN=   0.00000
   O   0.1993599   0.2469640  -0.1364197 SPIN=   0.00000
   O   0.3014741   0.6323060   0.2944434 SPIN=   0.00000
   O   0.5857795   1.1333837   0.6364197 SPIN=   0.00000
   O   0.3676940  -0.3014741  -0.2944434 SPIN=   0.00000
   O  -0.1333837  -0.5857795  -0.6364197 SPIN=   0.00000
   P  -0.0285306   0.0285306   0.0000000 SPIN=   0.00000
   P   0.2214694  -0.2214694  -0.5000000 SPIN=   0.00000
  Fe  -0.3519015   0.3519015   0.0000000 SPIN=   4.00000
  Fe  -0.1019015  -0.8980985  -0.5000000 SPIN=   4.00000
%ENDBLOCK POSITIONS_FRAC

# Note: total spin =   8.00

KPOINTS_MP_SPACING 0.07

%BLOCK SPECIES_POT
QC5
%ENDBLOCK SPECIES_POT

%BLOCK HUBBARD_U
Fe d:4.0
%ENDBLOCK HUBBARD_U

SNAP_TO_SYMMETRY
SYMMETRY_GENERATE

