#              Generated by Buildcell
#
# at 20:28:16 (GMT+0.0) 26th November 2020
# in /scratch/scratch/mmm0366/launch_tmp
# on node-k98k-028
# by mmm0366
#
# compiler GCC version 4.9.2
# options -cpp -iprefix /scratch/UCL/applications/gcc/4.9.2/bin/../lib/gcc/x86_64-unknown-linux-gnu/4.9.2/ -mtune=corei7 -march=x86-64 -g -O2
#
# seed  1049153310  1147456193 -1516211288 -1638181032  -391145917 -1986298460  -343826375    82137895   257239948  1467658314 -1513034411  1135539908
#
#      Author: C. J. Pickard (cjp20@cam.ac.uk)
#                Space group: Pc
#

%BLOCK LATTICE_ABC
      3.99942      5.02351     15.94441
     90.00000     90.00000     92.64389
%ENDBLOCK LATTICE_ABC

%BLOCK POSITIONS_FRAC
  Li  -0.2108009  -0.4165923  -0.4502777 SPIN=   0.00000
  Li  -0.2108009   0.0834077   0.4502777 SPIN=   0.00000
  Li  -0.2496521  -0.0548946  -0.2281707 SPIN=   0.00000
  Li  -0.2496521   0.4451054   0.2281707 SPIN=   0.00000
   O   0.0998488   0.5380751   0.3286641 SPIN=   0.00000
   O   0.6288960   0.6648103   0.4171821 SPIN=   0.00000
   O   0.2526976   0.2927668   0.4659029 SPIN=   0.00000
   O   0.6027561   0.2346646   0.3375400 SPIN=   0.00000
   P   0.3827178   0.4358608   0.3836115 SPIN=   0.00000
   O   0.0998488   0.0380751  -0.3286641 SPIN=   0.00000
   O   0.6288960   0.1648103  -0.4171821 SPIN=   0.00000
   O   0.2526976  -0.2072332  -0.4659029 SPIN=   0.00000
   O   0.6027561  -0.2653354  -0.3375400 SPIN=   0.00000
   P   0.3827178  -0.0641392  -0.3836115 SPIN=   0.00000
   O   0.0640742  -0.7154305   0.1365646 SPIN=   0.00000
   O   0.0998679  -0.3132440   0.0340025 SPIN=   0.00000
   O   0.4484257  -0.2919677   0.1619196 SPIN=   0.00000
   O   0.5884627  -0.6051836   0.0462540 SPIN=   0.00000
   P   0.2910364  -0.4953745   0.0963435 SPIN=   0.00000
   O   0.0640742  -0.2154305  -0.1365646 SPIN=   0.00000
   O   0.0998679   0.1867560  -0.0340025 SPIN=   0.00000
   O   0.4484257   0.2080323  -0.1619196 SPIN=   0.00000
   O   0.5884627  -0.1051836  -0.0462540 SPIN=   0.00000
   P   0.2910364   0.0046255  -0.0963435 SPIN=   0.00000
  Fe   0.2781584   0.4223938  -0.2968758 SPIN=   4.91552
  Fe   0.2781584  -0.0776062   0.2968758 SPIN=   4.91552
  Fe  -0.2198646  -0.0464696   0.0909682 SPIN=   3.08448
  Fe  -0.2198646   0.4535304  -0.0909682 SPIN=   3.08448
%ENDBLOCK POSITIONS_FRAC

# Note: total spin =  16.00

KPOINTS_MP_SPACING 0.07

%BLOCK SPECIES_POT
QC5
%ENDBLOCK SPECIES_POT

%BLOCK HUBBARD_U
Fe d:4.0
%ENDBLOCK HUBBARD_U

SNAP_TO_SYMMETRY
SYMMETRY_GENERATE

