#              Generated by Buildcell
#
# at 07:39:44 (GMT+0.0) 26th November 2020
# in /lustre/scratch/uccabz1/launch_tmp
# on node-c12c-032
# by uccabz1
#
# compiler GCC version 4.9.2
# options -cpp -iprefix /lustre/shared/ucl/apps/gcc/4.9.2/bin/../lib/gcc/x86_64-unknown-linux-gnu/4.9.2/ -mtune=corei7 -march=x86-64 -g -Og
#
# seed    43833296  1053374823  1258564681  -595626152  -369244696   -76007756   265253143   669815172   216638753 -1449460050   446161256   226712242
#
#      Author: C. J. Pickard (cjp20@cam.ac.uk)
#                Space group: Pnn2
#

%BLOCK LATTICE_ABC
      3.87526      8.86344      9.31429
     90.00000     90.00000     90.00000
%ENDBLOCK LATTICE_ABC

%BLOCK POSITIONS_FRAC
  Li  -0.4009835   0.2589524   0.1981417 SPIN=   0.00000
  Li   0.4009835   0.2589524  -0.1981417 SPIN=   0.00000
  Li  -0.0990165  -0.2410476  -0.3018583 SPIN=   0.00000
  Li   0.0990165  -0.2410476   0.3018583 SPIN=   0.00000
   O   0.0473170  -0.5058883  -0.2915722 SPIN=   0.00000
   O   0.4090324  -0.2754347  -0.2075262 SPIN=   0.00000
   O   0.5808217  -0.5290672  -0.1240970 SPIN=   0.00000
   P   0.4089786  -0.4457595  -0.2549519 SPIN=   0.00000
   O  -0.0473170  -0.5058883   0.2915722 SPIN=   0.00000
   O  -0.4090324  -0.2754347   0.2075262 SPIN=   0.00000
   O  -0.5808217  -0.5290672   0.1240970 SPIN=   0.00000
   P  -0.4089786  -0.4457595   0.2549519 SPIN=   0.00000
   O   0.4526830  -0.0058883   0.2084278 SPIN=   0.00000
   O   0.0909676   0.2245653   0.2924738 SPIN=   0.00000
   O  -0.0808217  -0.0290672   0.3759030 SPIN=   0.00000
   P   0.0910214   0.0542405   0.2450481 SPIN=   0.00000
   O  -0.4526830  -0.0058883  -0.2084278 SPIN=   0.00000
   O  -0.0909676   0.2245653  -0.2924738 SPIN=   0.00000
   O   0.0808217  -0.0290672  -0.3759030 SPIN=   0.00000
   P  -0.0910214   0.0542405  -0.2450481 SPIN=   0.00000
   O   0.5000000   0.1535374   0.0000000 SPIN=   0.00000
   O  -0.0000000  -0.3464626  -0.5000000 SPIN=   0.00000
   O  -0.5000000  -0.1872336  -0.5000000 SPIN=   0.00000
   O   0.0000000   0.3127664   0.0000000 SPIN=   0.00000
  Fe  -0.5000000  -0.0813321  -0.0000000 SPIN=   3.34541
  Fe   0.0000000   0.4186679  -0.5000000 SPIN=   3.34541
  Fe  -0.0000000  -0.4550010   0.0000000 SPIN=   4.65459
  Fe   0.5000000   0.0449990  -0.5000000 SPIN=   4.65459
%ENDBLOCK POSITIONS_FRAC

# Note: total spin =  16.00

KPOINTS_MP_SPACING 0.07

%BLOCK SPECIES_POT
QC5
%ENDBLOCK SPECIES_POT

%BLOCK HUBBARD_U
Fe d:4.0
%ENDBLOCK HUBBARD_U

SNAP_TO_SYMMETRY
SYMMETRY_GENERATE

