#              Generated by Buildcell
#
# at 08:56:58 (GMT+0.0) 24th November 2020
# in /lustre/scratch/uccabz1/launch_tmp
# on node-c12f-022
# by uccabz1
#
# compiler GCC version 4.9.2
# options -cpp -iprefix /lustre/shared/ucl/apps/gcc/4.9.2/bin/../lib/gcc/x86_64-unknown-linux-gnu/4.9.2/ -mtune=corei7 -march=x86-64 -g -Og
#
# seed   660111240 -1333986667  1696306296 -1482477196  -836435609  -948666306 -1933783166 -1875657621   101851503  1749040055 -1837070317    54110393
#
#      Author: C. J. Pickard (cjp20@cam.ac.uk)
#                Space group: P2/c
#

%BLOCK LATTICE_ABC
      3.90273      4.23341      9.72904
     90.00000     95.50600     90.00000
%ENDBLOCK LATTICE_ABC

%BLOCK POSITIONS_FRAC
  Li   0.5000000  -0.5000000   0.0000000 SPIN=   0.00000
  Li   0.0000000   0.5000000  -0.5000000 SPIN=   0.00000
   O  -0.0474747   0.3787960   0.1261508 SPIN=   0.00000
   O   0.3126654  -0.1364862   0.1210228 SPIN=   0.00000
   O   0.5474747   0.3787960   0.3738492 SPIN=   0.00000
   O   0.1873346  -0.1364862   0.3789772 SPIN=   0.00000
   O   0.0474747  -0.3787960  -0.1261508 SPIN=   0.00000
   O  -0.3126654   0.1364862  -0.1210228 SPIN=   0.00000
   O  -0.5474747  -0.3787960  -0.3738492 SPIN=   0.00000
   O  -0.1873346   0.1364862  -0.3789772 SPIN=   0.00000
   P   0.2500000   0.4992408   0.2500000 SPIN=   0.00000
   P  -0.2500000  -0.4992408  -0.2500000 SPIN=   0.00000
  Fe   0.2500000   0.0001235  -0.2500000 SPIN=   4.00000
  Fe  -0.2500000  -0.0001235   0.2500000 SPIN=   4.00000
%ENDBLOCK POSITIONS_FRAC

# Note: total spin =   8.00

KPOINTS_MP_SPACING 0.07

%BLOCK SPECIES_POT
QC5
%ENDBLOCK SPECIES_POT

%BLOCK HUBBARD_U
Fe d:4.0
%ENDBLOCK HUBBARD_U

SNAP_TO_SYMMETRY
SYMMETRY_GENERATE

