#              Generated by Buildcell
#
# at 08:09:29 (GMT+0.0) 24th November 2020
# in /lustre/scratch/uccabz1/launch_tmp
# on node-c12a-028
# by uccabz1
#
# compiler GCC version 4.9.2
# options -cpp -iprefix /lustre/shared/ucl/apps/gcc/4.9.2/bin/../lib/gcc/x86_64-unknown-linux-gnu/4.9.2/ -mtune=corei7 -march=x86-64 -g -Og
#
# seed  -485287847  1234544999 -1607277126 -1686402166  1511228632 -1542768475  -260546010 -1637723280  -818236063  -197737624  1655143971 -1857000325
#
#      Author: C. J. Pickard (cjp20@cam.ac.uk)
#                Space group: P-1
#

%BLOCK LATTICE_ABC
      4.99871      5.07341      7.38808
     89.92657     80.19350     60.53355
%ENDBLOCK LATTICE_ABC

%BLOCK POSITIONS_FRAC
  Li   1.0000000   0.0000000  -0.5000000 SPIN=   0.00000
  Li   0.0000000  -0.0000000  -0.0000000 SPIN=   0.00000
   O   0.2713868  -0.1347555  -0.2924053 SPIN=   0.00000
   O   0.8260143  -0.6066549  -0.3171347 SPIN=   0.00000
   O   0.7531338  -0.0998649  -0.2372716 SPIN=   0.00000
   P   0.5748616  -0.2848353  -0.2151133 SPIN=   0.00000
   O  -0.2713868   0.1347555   0.2924053 SPIN=   0.00000
   O  -0.8260143   0.6066549   0.3171347 SPIN=   0.00000
   O  -0.7531338   0.0998649   0.2372716 SPIN=   0.00000
   P  -0.5748616   0.2848353   0.2151133 SPIN=   0.00000
   O   0.5000000  -0.5000000  -0.0000000 SPIN=   0.00000
   O  -1.0000000   0.5000000   0.0000000 SPIN=   0.00000
  Fe  -0.2549460  -0.3793813   0.2788023 SPIN=   4.00000
  Fe   0.2549460   0.3793813  -0.2788023 SPIN=   4.00000
%ENDBLOCK POSITIONS_FRAC

# Note: total spin =   8.00

KPOINTS_MP_SPACING 0.07

%BLOCK SPECIES_POT
QC5
%ENDBLOCK SPECIES_POT

%BLOCK HUBBARD_U
Fe d:4.0
%ENDBLOCK HUBBARD_U

SNAP_TO_SYMMETRY
SYMMETRY_GENERATE

