#              Generated by Buildcell
#
# at 10:34:01 (GMT+0.0) 24th November 2020
# in /scratch/scratch/uccabz1/launch_tmp
# on node-a14c-023
# by uccabz1
#
# compiler GCC version 4.9.2
# options -cpp -iprefix /scratch/UCL/applications/gcc/4.9.2/bin/../lib/gcc/x86_64-unknown-linux-gnu/4.9.2/ -mtune=corei7 -march=x86-64 -g -O2
#
# seed  1148868117  1014386237   746072348 -2132891952   258109438   575950875 -1926881608  -453767138  1695946470  1201096566  1889756578  -101299780
#
#      Author: C. J. Pickard (cjp20@cam.ac.uk)
#                Space group: P21
#

%BLOCK LATTICE_ABC
      4.54896      5.85046      6.48412
    111.99963     90.00000     90.00000
%ENDBLOCK LATTICE_ABC

%BLOCK POSITIONS_FRAC
  Li  -0.3764650  -0.4026796  -0.1040341 SPIN=   0.00000
  Li   0.1235350   0.4026796   0.1040341 SPIN=   0.00000
   O   0.3007283  -0.2551913   0.3162376 SPIN=   0.00000
   O   0.1663212   0.1795445   0.3239481 SPIN=   0.00000
   O   0.2167646  -0.1620599  -0.0408796 SPIN=   0.00000
   O  -0.2130656  -0.1548682   0.2028101 SPIN=   0.00000
   P   0.1235299  -0.1071751   0.2067169 SPIN=   0.00000
   O  -0.1992717   0.2551913  -0.3162376 SPIN=   0.00000
   O  -0.3336788  -0.1795445  -0.3239481 SPIN=   0.00000
   O  -0.2832354   0.1620599   0.0408796 SPIN=   0.00000
   O  -0.7130656   0.1548682  -0.2028101 SPIN=   0.00000
   P  -0.3764701   0.1071751  -0.2067169 SPIN=   0.00000
  Fe   0.1235442  -0.2079036  -0.3713470 SPIN=   4.00000
  Fe  -0.3764558   0.2079036   0.3713470 SPIN=   4.00000
%ENDBLOCK POSITIONS_FRAC

# Note: total spin =   8.00

KPOINTS_MP_SPACING 0.07

%BLOCK SPECIES_POT
QC5
%ENDBLOCK SPECIES_POT

%BLOCK HUBBARD_U
Fe d:4.0
%ENDBLOCK HUBBARD_U

SNAP_TO_SYMMETRY
SYMMETRY_GENERATE

