#              Generated by Buildcell
#
# at 23:16:22 (GMT+0.0) 26th November 2020
# in /lustre/scratch/uccabz1/launch_tmp
# on node-c12l-026
# by uccabz1
#
# compiler GCC version 4.9.2
# options -cpp -iprefix /lustre/shared/ucl/apps/gcc/4.9.2/bin/../lib/gcc/x86_64-unknown-linux-gnu/4.9.2/ -mtune=corei7 -march=x86-64 -g -Og
#
# seed -1520795789 -1886582843  -129667735  2054230982   -42649107  1990861586  -189578674 -1541833682 -1369112254  -501320919   -67751026 -1020399268
#
#      Author: C. J. Pickard (cjp20@cam.ac.uk)
#                Space group: C2
#

%BLOCK LATTICE_ABC
      6.09302      7.77929      7.77929
    112.52346    100.96763    100.96763
%ENDBLOCK LATTICE_ABC

%BLOCK POSITIONS_FRAC
  Li  -0.3987561  -0.3522387  -0.2807665 SPIN=   0.00000
  Li   0.3987561   0.2807665   0.3522387 SPIN=   0.00000
  Li   0.5000000  -0.0313725   0.0313725 SPIN=   0.00000
  Li   0.5000000  -0.3318324   0.3318324 SPIN=   0.00000
   O   0.2752002  -0.3865844  -0.5079009 SPIN=   0.00000
   O   0.5550932  -0.0576315  -0.2360768 SPIN=   0.00000
   O   0.2732289  -0.0524892  -0.5067974 SPIN=   0.00000
   O   0.1288081  -0.1386013  -0.2611309 SPIN=   0.00000
   P   0.3042162  -0.1707149  -0.3835154 SPIN=   0.00000
   O  -0.2752002   0.5079009   0.3865844 SPIN=   0.00000
   O  -0.5550932   0.2360768   0.0576315 SPIN=   0.00000
   O  -0.2732289   0.5067974   0.0524892 SPIN=   0.00000
   O  -0.1288081   0.2611309   0.1386013 SPIN=   0.00000
   P  -0.3042162   0.3835154   0.1707149 SPIN=   0.00000
   O  -0.0003894  -0.3978895  -0.1604250 SPIN=   0.00000
   O   0.2129931  -0.6614009  -0.1827664 SPIN=   0.00000
   O   0.4418921  -0.3159537   0.0082094 SPIN=   0.00000
   O   0.1481404  -0.4659514   0.1340945 SPIN=   0.00000
   P   0.1893344  -0.4570426  -0.0539145 SPIN=   0.00000
   O   0.0003894   0.1604250   0.3978895 SPIN=   0.00000
   O  -0.2129931   0.1827664   0.6614009 SPIN=   0.00000
   O  -0.4418921  -0.0082094   0.3159537 SPIN=   0.00000
   O  -0.1481404  -0.1340945   0.4659514 SPIN=   0.00000
   P  -0.1893344   0.0539145   0.4570426 SPIN=   0.00000
  Fe   0.0000000  -0.2377306   0.2377306 SPIN=   3.81041
  Fe  -0.0000000   0.4542599  -0.4542599 SPIN=   8.86312
  Fe   0.0000000   0.0631713  -0.0631713 SPIN=  -0.00000
  Fe   0.5000000   0.2406570  -0.2406570 SPIN=   3.32647
%ENDBLOCK POSITIONS_FRAC

# Note: total spin =  16.00

KPOINTS_MP_SPACING 0.07

%BLOCK SPECIES_POT
QC5
%ENDBLOCK SPECIES_POT

%BLOCK HUBBARD_U
Fe d:4.0
%ENDBLOCK HUBBARD_U

SNAP_TO_SYMMETRY
SYMMETRY_GENERATE

