#              Generated by Buildcell
#
# at 22:40:30 (GMT+0.0) 26th November 2020
# in /scratch/scratch/uccabz1/launch_tmp
# on node-k10f-007
# by uccabz1
#
# compiler GCC version 4.9.2
# options -cpp -iprefix /scratch/UCL/applications/gcc/4.9.2/bin/../lib/gcc/x86_64-unknown-linux-gnu/4.9.2/ -mtune=corei7 -march=x86-64 -g -O2
#
# seed  -802594427  1139641099 -2000226842    80063043 -1962051963   -33020390   433660194  1895560658 -1151077938  -666107985   435582357  -655082784
#
#      Author: C. J. Pickard (cjp20@cam.ac.uk)
#                Space group: P2
#

%BLOCK LATTICE_ABC
      5.22978      7.52950      8.42196
    105.22300     90.00000     90.00000
%ENDBLOCK LATTICE_ABC

%BLOCK POSITIONS_FRAC
  Li  -0.2043208   0.4898377  -0.3220241 SPIN=   0.00000
  Li  -0.2043208  -0.4898377   0.3220241 SPIN=   0.00000
  Li  -0.2270835   0.0000000  -0.5000000 SPIN=   0.00000
  Li   0.1298274   0.0000000   0.0000000 SPIN=   0.00000
   O   0.5307708  -0.2846966   0.3016272 SPIN=   0.00000
   O   0.0559475  -0.2574075   0.3956304 SPIN=   0.00000
   O   0.1483530  -0.3458014   0.0975620 SPIN=   0.00000
   O   0.2382541  -0.5690477   0.2647402 SPIN=   0.00000
   P   0.2585762  -0.3624200   0.2668443 SPIN=   0.00000
   O   0.5307708   0.2846966  -0.3016272 SPIN=   0.00000
   O   0.0559475   0.2574075  -0.3956304 SPIN=   0.00000
   O   0.1483530   0.3458014  -0.0975620 SPIN=   0.00000
   O   0.2382541   0.5690477  -0.2647402 SPIN=   0.00000
   P   0.2585762   0.3624200  -0.2668443 SPIN=   0.00000
   O  -0.2836371  -0.2754036  -0.4057209 SPIN=   0.00000
   O  -0.1030851  -0.2328778  -0.1106968 SPIN=   0.00000
   O  -0.0434345   0.0190462  -0.2449742 SPIN=   0.00000
   O  -0.4806328  -0.0455108  -0.1523464 SPIN=   0.00000
   P  -0.2336608  -0.1401917  -0.2369763 SPIN=   0.00000
   O  -0.2836371   0.2754036   0.4057209 SPIN=   0.00000
   O  -0.1030851   0.2328778   0.1106968 SPIN=   0.00000
   O  -0.0434345  -0.0190462   0.2449742 SPIN=   0.00000
   O  -0.4806328   0.0455108   0.1523464 SPIN=   0.00000
   P  -0.2336608   0.1401917   0.2369763 SPIN=   0.00000
  Fe  -0.3697014   0.2319294  -0.0755869 SPIN=   4.36696
  Fe  -0.3697014  -0.2319294   0.0755869 SPIN=   4.36696
  Fe   0.2701104  -0.2189734  -0.3832546 SPIN=   3.63304
  Fe   0.2701104   0.2189734   0.3832546 SPIN=   3.63304
%ENDBLOCK POSITIONS_FRAC

# Note: total spin =  16.00

KPOINTS_MP_SPACING 0.07

%BLOCK SPECIES_POT
QC5
%ENDBLOCK SPECIES_POT

%BLOCK HUBBARD_U
Fe d:4.0
%ENDBLOCK HUBBARD_U

SNAP_TO_SYMMETRY
SYMMETRY_GENERATE

