#              Generated by Buildcell
#
# at 08:29:05 (GMT+0.0) 24th November 2020
# in /scratch/scratch/uccabz1/launch_tmp
# on node-k10h-026
# by uccabz1
#
# compiler GCC version 4.9.2
# options -cpp -iprefix /scratch/UCL/applications/gcc/4.9.2/bin/../lib/gcc/x86_64-unknown-linux-gnu/4.9.2/ -mtune=corei7 -march=x86-64 -g -O2
#
# seed  1571448856   428068508  -885226227  1965387438  -811314303   409882341   888101223 -1626570205  1301619225   650403014 -1297607745  -981312096
#
#      Author: C. J. Pickard (cjp20@cam.ac.uk)
#                Space group: P-1
#

%BLOCK LATTICE_ABC
      4.62841      4.78364      7.83580
     96.09854     92.51804    111.37536
%ENDBLOCK LATTICE_ABC

%BLOCK POSITIONS_FRAC
  Li   0.3554100   0.1673440   0.2369641 SPIN=   0.00000
  Li  -0.3554100  -0.1673440  -0.2369641 SPIN=   0.00000
   O  -0.0052864   0.2574692  -0.2542189 SPIN=   0.00000
   O   0.5778549   0.4160485  -0.1459000 SPIN=   0.00000
   O   0.2021768  -0.0653933  -0.0730429 SPIN=   0.00000
   O   0.3370458  -0.0238793  -0.3777669 SPIN=   0.00000
   P   0.2635644   0.1499878  -0.2168887 SPIN=   0.00000
   O   0.0052864  -0.2574692   0.2542189 SPIN=   0.00000
   O  -0.5778549  -0.4160485   0.1459000 SPIN=   0.00000
   O  -0.2021768   0.0653933   0.0730429 SPIN=   0.00000
   O  -0.3370458   0.0238793   0.3777669 SPIN=   0.00000
   P  -0.2635644  -0.1499878   0.2168887 SPIN=   0.00000
  Fe   0.0000000   0.5000000   0.0000000 SPIN=   2.84468
  Fe   0.0000000  -0.5000000  -0.5000000 SPIN=   5.15532
%ENDBLOCK POSITIONS_FRAC

# Note: total spin =   8.00

KPOINTS_MP_SPACING 0.07

%BLOCK SPECIES_POT
QC5
%ENDBLOCK SPECIES_POT

%BLOCK HUBBARD_U
Fe d:4.0
%ENDBLOCK HUBBARD_U

SNAP_TO_SYMMETRY
SYMMETRY_GENERATE

