#              Generated by Buildcell
#
# at 10:15:02 (GMT+0.0) 26th November 2020
# in /lustre/scratch/uccabz1/launch_tmp
# on node-c12k-022
# by uccabz1
#
# compiler GCC version 4.9.2
# options -cpp -iprefix /lustre/shared/ucl/apps/gcc/4.9.2/bin/../lib/gcc/x86_64-unknown-linux-gnu/4.9.2/ -mtune=corei7 -march=x86-64 -g -Og
#
# seed  1243378468   653554018 -1710964123   583393039 -2037203388  -896058981  1914846493 -1607531086 -1746878189 -1870752032  1604325280  -449125185
#
#      Author: C. J. Pickard (cjp20@cam.ac.uk)
#                Space group: P-1
#

%BLOCK LATTICE_ABC
      6.05808      7.24234      8.24265
    114.37339     98.96984     95.66134
%ENDBLOCK LATTICE_ABC

%BLOCK POSITIONS_FRAC
  Li  -0.2239014   0.0347965   0.0582248 SPIN=   0.00000
  Li   0.2239014  -0.0347965  -0.0582248 SPIN=   0.00000
  Li  -0.1981700   0.2966925   0.4607735 SPIN=   0.00000
  Li   0.1981700  -0.2966925  -0.4607735 SPIN=   0.00000
   O   0.5412235   0.2116282  -0.3601108 SPIN=   0.00000
   O   0.1520057   0.0114752  -0.3760629 SPIN=   0.00000
   O   0.4952394  -0.0123569  -0.1853145 SPIN=   0.00000
   O   0.3463271   0.3187735  -0.0858619 SPIN=   0.00000
   P   0.3916452   0.1387992  -0.2556439 SPIN=   0.00000
   O  -0.5412235  -0.2116282   0.3601108 SPIN=   0.00000
   O  -0.1520057  -0.0114752   0.3760629 SPIN=   0.00000
   O  -0.4952394   0.0123569   0.1853145 SPIN=   0.00000
   O  -0.3463271  -0.3187735   0.0858619 SPIN=   0.00000
   P  -0.3916452  -0.1387992   0.2556439 SPIN=   0.00000
   O  -0.1427750   0.6189865   0.3634268 SPIN=   0.00000
   O   0.1355650   0.5189519   0.1439991 SPIN=   0.00000
   O   0.0294409   0.2853190   0.2797511 SPIN=   0.00000
   O  -0.2591291   0.3139168   0.0421970 SPIN=   0.00000
   P  -0.0660323   0.4427070   0.2137052 SPIN=   0.00000
   O   0.1427750  -0.6189865  -0.3634268 SPIN=   0.00000
   O  -0.1355650  -0.5189519  -0.1439991 SPIN=   0.00000
   O  -0.0294409  -0.2853190  -0.2797511 SPIN=   0.00000
   O   0.2591291  -0.3139168  -0.0421970 SPIN=   0.00000
   P   0.0660323  -0.4427070  -0.2137052 SPIN=   0.00000
  Fe   0.2241818   0.0411595   0.3656229 SPIN=   5.71882
  Fe  -0.2241818  -0.0411595  -0.3656229 SPIN=   5.71882
  Fe  -0.4570228  -0.4517112  -0.2104704 SPIN=   2.28118
  Fe   0.4570228   0.4517112   0.2104704 SPIN=   2.28118
%ENDBLOCK POSITIONS_FRAC

# Note: total spin =  16.00

KPOINTS_MP_SPACING 0.07

%BLOCK SPECIES_POT
QC5
%ENDBLOCK SPECIES_POT

%BLOCK HUBBARD_U
Fe d:4.0
%ENDBLOCK HUBBARD_U

SNAP_TO_SYMMETRY
SYMMETRY_GENERATE

