#              Generated by Buildcell
#
# at 12:28:35 (GMT+0.0) 24th November 2020
# in /lustre/scratch/uccabz1/launch_tmp
# on node-c12c-023
# by uccabz1
#
# compiler GCC version 4.9.2
# options -cpp -iprefix /lustre/shared/ucl/apps/gcc/4.9.2/bin/../lib/gcc/x86_64-unknown-linux-gnu/4.9.2/ -mtune=corei7 -march=x86-64 -g -Og
#
# seed   442855857 -1761572861  1015265940 -1821887477  1493705450 -1197985283  -492055509 -1369967017  1274363606 -2004340061  -170272282  1400262056
#
#      Author: C. J. Pickard (cjp20@cam.ac.uk)
#                Space group: C2
#

%BLOCK LATTICE_ABC
      5.10619      6.25381      6.25381
     66.47776     66.00019     66.00019
%ENDBLOCK LATTICE_ABC

%BLOCK POSITIONS_FRAC
  Li  -0.0000000  -0.0505110   0.0505110 SPIN=   0.00000
  Li  -0.5000000   0.4378456  -0.4378456 SPIN=   0.00000
   O   0.7202387  -0.1860227  -0.6055729 SPIN=   0.00000
   O   0.1869031  -0.0747088  -0.6390348 SPIN=   0.00000
   O   0.2769273  -0.3064801  -0.2378344 SPIN=   0.00000
   O   0.2686837   0.1321732  -0.4112600 SPIN=   0.00000
   O  -0.7202387   0.6055729   0.1860227 SPIN=   0.00000
   O  -0.1869031   0.6390348   0.0747088 SPIN=   0.00000
   O  -0.2769273   0.2378344   0.3064801 SPIN=   0.00000
   O  -0.2686837   0.4112600  -0.1321732 SPIN=   0.00000
   P   0.0000000   0.3462662  -0.3462662 SPIN=   0.00000
   P  -0.5000000  -0.1734988   0.1734988 SPIN=   0.00000
  Fe  -0.8119192   0.3242713   0.1621111 SPIN=   4.00000
  Fe   0.8119192  -0.1621111  -0.3242713 SPIN=   4.00000
%ENDBLOCK POSITIONS_FRAC

# Note: total spin =   8.00

KPOINTS_MP_SPACING 0.07

%BLOCK SPECIES_POT
QC5
%ENDBLOCK SPECIES_POT

%BLOCK HUBBARD_U
Fe d:4.0
%ENDBLOCK HUBBARD_U

SNAP_TO_SYMMETRY
SYMMETRY_GENERATE

