#              Generated by Buildcell
#
# at 00:56:50 (GMT+0.0) 27th November 2020
# in /lustre/scratch/uccabz1/launch_tmp
# on node-c12i-025
# by uccabz1
#
# compiler GCC version 4.9.2
# options -cpp -iprefix /lustre/shared/ucl/apps/gcc/4.9.2/bin/../lib/gcc/x86_64-unknown-linux-gnu/4.9.2/ -mtune=corei7 -march=x86-64 -g -Og
#
# seed   -95569267  1039362276  -940700361  2034406728  -965454033  1019792423 -1621024358  1045637919   593077822  1431298701  1100575495  -495551933
#
#      Author: C. J. Pickard (cjp20@cam.ac.uk)
#                Space group: P21
#

%BLOCK LATTICE_ABC
      4.71740      7.39549      9.40602
     90.00000    102.79782     90.00000
%ENDBLOCK LATTICE_ABC

%BLOCK POSITIONS_FRAC
  Li   0.2204712   0.2149704  -0.3123408 SPIN=   0.00000
  Li  -0.2204712  -0.2850296   0.3123408 SPIN=   0.00000
  Li  -0.2388984   0.4428472  -0.2005718 SPIN=   0.00000
  Li   0.2388984  -0.0571528   0.2005718 SPIN=   0.00000
   O   0.2535217   0.0213996  -0.1092596 SPIN=   0.00000
   O   0.2294335   0.2098839   0.1208584 SPIN=   0.00000
   O   0.6945362   0.1985058   0.0416288 SPIN=   0.00000
   O   0.2748963   0.3704016  -0.1074728 SPIN=   0.00000
   P   0.3562217   0.1925460  -0.0197650 SPIN=   0.00000
   O  -0.2535217  -0.4786004   0.1092596 SPIN=   0.00000
   O  -0.2294335  -0.2901161  -0.1208584 SPIN=   0.00000
   O  -0.6945362  -0.3014942  -0.0416288 SPIN=   0.00000
   O  -0.2748963  -0.1295984   0.1074728 SPIN=   0.00000
   P  -0.3562217  -0.3074540   0.0197650 SPIN=   0.00000
   O   0.7748673  -0.0615119   0.4511374 SPIN=   0.00000
   O   0.4851228  -0.0911904   0.6548910 SPIN=   0.00000
   O   0.3158445   0.1297585   0.4574137 SPIN=   0.00000
   O   0.2608892  -0.2015953   0.4034234 SPIN=   0.00000
   P   0.4736497  -0.0581377   0.4885138 SPIN=   0.00000
   O  -0.7748673   0.4384881  -0.4511374 SPIN=   0.00000
   O  -0.4851228   0.4088096  -0.6548910 SPIN=   0.00000
   O  -0.3158445   0.6297585  -0.4574137 SPIN=   0.00000
   O  -0.2608892   0.2984047  -0.4034234 SPIN=   0.00000
   P  -0.4736497   0.4418623  -0.4885138 SPIN=   0.00000
  Fe  -0.1961927   0.0062913  -0.1233642 SPIN=   4.42956
  Fe   0.1961927  -0.4937087   0.1233642 SPIN=   4.42956
  Fe   0.1932628  -0.3086206  -0.3546690 SPIN=   3.57044
  Fe  -0.1932628   0.1913794   0.3546690 SPIN=   3.57044
%ENDBLOCK POSITIONS_FRAC

# Note: total spin =  16.00

KPOINTS_MP_SPACING 0.07

%BLOCK SPECIES_POT
QC5
%ENDBLOCK SPECIES_POT

%BLOCK HUBBARD_U
Fe d:4.0
%ENDBLOCK HUBBARD_U

SNAP_TO_SYMMETRY
SYMMETRY_GENERATE

