#              Generated by Buildcell
#
# at 14:39:35 (GMT+0.0) 24th November 2020
# in /scratch/scratch/uccabz1/launch_tmp
# on node-a14e-013
# by uccabz1
#
# compiler GCC version 4.9.2
# options -cpp -iprefix /scratch/UCL/applications/gcc/4.9.2/bin/../lib/gcc/x86_64-unknown-linux-gnu/4.9.2/ -mtune=corei7 -march=x86-64 -g -O2
#
# seed    76785378  2051979488  1014397829  1732788615  2084445159  -754376487  1184887787  1577267985  -752896045 -1528425686 -1421368716   959064386
#
#      Author: C. J. Pickard (cjp20@cam.ac.uk)
#                Space group: C2
#

%BLOCK LATTICE_ABC
      5.13821      5.82783      6.43198
    109.87377     90.00000    116.15710
%ENDBLOCK LATTICE_ABC

%BLOCK POSITIONS_FRAC
  Li  -0.3528171   0.1961432  -0.2289607 SPIN=   0.00000
  Li   0.4510397  -0.1961432   0.2289607 SPIN=   0.00000
   O  -0.3024420   0.2990507   0.4189790 SPIN=   0.00000
   O  -0.0728371   0.2825476   0.0576654 SPIN=   0.00000
   O  -0.5465517   0.2961804   0.0637331 SPIN=   0.00000
   O  -0.0845765   0.7167824   0.2979523 SPIN=   0.00000
   P  -0.2523377   0.3970920   0.2217746 SPIN=   0.00000
   O   0.3985073  -0.2990507  -0.4189790 SPIN=   0.00000
   O   0.6446153  -0.2825476  -0.0576654 SPIN=   0.00000
   O   0.1572679  -0.2961804  -0.0637331 SPIN=   0.00000
   O   0.1986411  -0.7167824  -0.2979523 SPIN=   0.00000
   P   0.3505703  -0.3970920  -0.2217746 SPIN=   0.00000
  Fe  -0.0637474  -0.2257237  -0.3191251 SPIN=   4.00000
  Fe   0.1619762   0.2257237   0.3191251 SPIN=   4.00000
%ENDBLOCK POSITIONS_FRAC

# Note: total spin =   8.00

KPOINTS_MP_SPACING 0.07

%BLOCK SPECIES_POT
QC5
%ENDBLOCK SPECIES_POT

%BLOCK HUBBARD_U
Fe d:4.0
%ENDBLOCK HUBBARD_U

SNAP_TO_SYMMETRY
SYMMETRY_GENERATE

