#              Generated by Buildcell
#
# at 09:17:28 (GMT+0.0) 24th November 2020
# in /scratch/scratch/uccabz1/launch_tmp
# on node-a14a-017
# by uccabz1
#
# compiler GCC version 4.9.2
# options -cpp -iprefix /scratch/UCL/applications/gcc/4.9.2/bin/../lib/gcc/x86_64-unknown-linux-gnu/4.9.2/ -mtune=corei7 -march=x86-64 -g -O2
#
# seed  1067227919  -172330687  -953295473  -860966091  1509728407  1000689430  1940779799   750593311 -1838165664   821451382   351974423   174549429
#
#      Author: C. J. Pickard (cjp20@cam.ac.uk)
#                Space group: Fdd2
#

%BLOCK LATTICE_ABC
      5.78507      5.78507      6.06929
    109.06248    109.06248    108.34334
%ENDBLOCK LATTICE_ABC

%BLOCK POSITIONS_FRAC
  Li   0.3757134   0.3757134   0.7514269 SPIN=   0.00000
  Li   0.6257134   0.1257134   0.2514269 SPIN=   0.00000
   O  -0.1902144  -0.2711258  -0.0832733 SPIN=   0.00000
   O   0.2713625  -0.2345657  -0.0770614 SPIN=   0.00000
   O   0.1069410   0.1878524  -0.0832733 SPIN=   0.00000
   O  -0.3484239   0.1575043  -0.0770614 SPIN=   0.00000
   O  -0.5621476  -0.1430590  -0.5832733 SPIN=   0.00000
   O  -0.5924957  -0.5984239  -0.5770614 SPIN=   0.00000
   O  -0.0211258  -0.4402144  -0.5832733 SPIN=   0.00000
   O   0.0154343   0.0213625  -0.5770614 SPIN=   0.00000
   P   0.0868781   0.0868781   0.1737562 SPIN=   0.00000
   P  -0.6631219  -0.1631219  -0.3262438 SPIN=   0.00000
  Fe  -0.2151440  -0.2151440  -0.4302880 SPIN=   4.00000
  Fe   0.0348560  -0.4651440  -0.9302880 SPIN=   4.00000
%ENDBLOCK POSITIONS_FRAC

# Note: total spin =   8.00

KPOINTS_MP_SPACING 0.07

%BLOCK SPECIES_POT
QC5
%ENDBLOCK SPECIES_POT

%BLOCK HUBBARD_U
Fe d:4.0
%ENDBLOCK HUBBARD_U

SNAP_TO_SYMMETRY
SYMMETRY_GENERATE

