#              Generated by Buildcell
#
# at 14:43:27 (GMT+0.0) 24th November 2020
# in /scratch/scratch/uccabz1/launch_tmp
# on node-a14c-023
# by uccabz1
#
# compiler GCC version 4.9.2
# options -cpp -iprefix /scratch/UCL/applications/gcc/4.9.2/bin/../lib/gcc/x86_64-unknown-linux-gnu/4.9.2/ -mtune=corei7 -march=x86-64 -g -O2
#
# seed   804554892  2066722139  1098215743  1171288013  -514234593   778790777 -1094099215  2013353512  2052939631  1473489395  1258235095   998302227
#
#      Author: C. J. Pickard (cjp20@cam.ac.uk)
#                Space group: C2
#

%BLOCK LATTICE_ABC
      4.41107      4.41107      8.23469
     89.28803     89.28803     87.11574
%ENDBLOCK LATTICE_ABC

%BLOCK POSITIONS_FRAC
  Li  -0.2539130   0.2539130  -0.0000000 SPIN=   0.00000
  Li   0.2460569  -0.2460569  -0.0000000 SPIN=   0.00000
   O   0.4062428   0.1884204   0.4279652 SPIN=   0.00000
   O   0.8423026   0.0083851   0.2314530 SPIN=   0.00000
   O   0.4136824  -0.3238189   0.2752567 SPIN=   0.00000
   O   0.3327177   0.1623412   0.1178496 SPIN=   0.00000
   P   0.4918524   0.0202057   0.2701932 SPIN=   0.00000
   O  -0.1884204  -0.4062428  -0.4279652 SPIN=   0.00000
   O  -0.0083851  -0.8423026  -0.2314530 SPIN=   0.00000
   O   0.3238189  -0.4136824  -0.2752567 SPIN=   0.00000
   O  -0.1623412  -0.3327177  -0.1178496 SPIN=   0.00000
   P  -0.0202057  -0.4918524  -0.2701932 SPIN=   0.00000
  Fe   0.0187298   0.4652869   0.3507173 SPIN=   4.00000
  Fe  -0.4652869  -0.0187298  -0.3507173 SPIN=   4.00000
%ENDBLOCK POSITIONS_FRAC

# Note: total spin =   8.00

KPOINTS_MP_SPACING 0.07

%BLOCK SPECIES_POT
QC5
%ENDBLOCK SPECIES_POT

%BLOCK HUBBARD_U
Fe d:4.0
%ENDBLOCK HUBBARD_U

SNAP_TO_SYMMETRY
SYMMETRY_GENERATE

