#              Generated by Buildcell
#
# at 17:59:36 (GMT+0.0) 26th November 2020
# in /scratch/scratch/uccabz1/launch_tmp
# on node-a14e-008
# by uccabz1
#
# compiler GCC version 4.9.2
# options -cpp -iprefix /scratch/UCL/applications/gcc/4.9.2/bin/../lib/gcc/x86_64-unknown-linux-gnu/4.9.2/ -mtune=corei7 -march=x86-64 -g -O2
#
# seed  -909739262  -527856066   586593552  1385766428   920665569   966560681    63302366 -1210236340 -1023632439  -879595932   153405645 -1233130768
#
#      Author: C. J. Pickard (cjp20@cam.ac.uk)
#                Space group: P-1
#

%BLOCK LATTICE_ABC
      5.16975      6.83636      9.91958
     77.48950     88.00145     69.37948
%ENDBLOCK LATTICE_ABC

%BLOCK POSITIONS_FRAC
  Li  -0.0985769  -0.3857555   0.1177469 SPIN=   0.00000
  Li   0.0985769   0.3857555  -0.1177469 SPIN=   0.00000
  Li  -0.1315952   0.2315083   0.3837928 SPIN=   0.00000
  Li   0.1315952  -0.2315083  -0.3837928 SPIN=   0.00000
   O   0.4921315   0.1851102   0.3585110 SPIN=   0.00000
   O   0.0115811   0.4904467   0.3301598 SPIN=   0.00000
   O   0.4231941   0.5734461   0.3770925 SPIN=   0.00000
   O   0.3538100   0.5019594   0.1463485 SPIN=   0.00000
   P   0.3297316   0.4250471   0.3041332 SPIN=   0.00000
   O  -0.4921315  -0.1851102  -0.3585110 SPIN=   0.00000
   O  -0.0115811  -0.4904467  -0.3301598 SPIN=   0.00000
   O  -0.4231941  -0.5734461  -0.3770925 SPIN=   0.00000
   O  -0.3538100  -0.5019594  -0.1463485 SPIN=   0.00000
   P  -0.3297316  -0.4250471  -0.3041332 SPIN=   0.00000
   O  -0.5529193   0.1087746  -0.1205886 SPIN=   0.00000
   O  -0.2181446   0.0315308  -0.3198251 SPIN=   0.00000
   O  -0.0549613   0.1176249  -0.1166828 SPIN=   0.00000
   O  -0.1190038  -0.2344808  -0.0933163 SPIN=   0.00000
   P  -0.2517342   0.0085056  -0.1595485 SPIN=   0.00000
   O   0.5529193  -0.1087746   0.1205886 SPIN=   0.00000
   O   0.2181446  -0.0315308   0.3198251 SPIN=   0.00000
   O   0.0549613  -0.1176249   0.1166828 SPIN=   0.00000
   O   0.1190038   0.2344808   0.0933163 SPIN=   0.00000
   P   0.2517342  -0.0085056   0.1595485 SPIN=   0.00000
  Fe  -0.3473628  -0.2384649   0.4064582 SPIN=   4.70897
  Fe   0.3473628   0.2384649  -0.4064582 SPIN=   4.70897
  Fe   0.3251310  -0.1931737  -0.0789599 SPIN=   3.29103
  Fe  -0.3251310   0.1931737   0.0789599 SPIN=   3.29103
%ENDBLOCK POSITIONS_FRAC

# Note: total spin =  16.00

KPOINTS_MP_SPACING 0.07

%BLOCK SPECIES_POT
QC5
%ENDBLOCK SPECIES_POT

%BLOCK HUBBARD_U
Fe d:4.0
%ENDBLOCK HUBBARD_U

SNAP_TO_SYMMETRY
SYMMETRY_GENERATE

