#              Generated by Buildcell
#
# at 10:45:42 (GMT+0.0) 24th November 2020
# in /lustre/scratch/uccabz1/launch_tmp
# on node-c12b-025
# by uccabz1
#
# compiler GCC version 4.9.2
# options -cpp -iprefix /lustre/shared/ucl/apps/gcc/4.9.2/bin/../lib/gcc/x86_64-unknown-linux-gnu/4.9.2/ -mtune=corei7 -march=x86-64 -g -Og
#
# seed  -937726389   326465256   -38917431   -75449722  -319650668 -1222923658 -1890140886  -978878495  -133832132  1378729873 -2117597929  -721868105
#
#      Author: C. J. Pickard (cjp20@cam.ac.uk)
#                Space group: Cc
#

%BLOCK LATTICE_ABC
      4.73418      4.73418      7.50947
     77.21187     77.21187     88.68025
%ENDBLOCK LATTICE_ABC

%BLOCK POSITIONS_FRAC
  Li  -0.4411516   0.3527956   0.4908214 SPIN=   0.00000
  Li   0.3527956  -0.4411516  -0.0091786 SPIN=   0.00000
   O   0.4630781   0.2994441  -0.2130888 SPIN=   0.00000
   O   0.0441843   0.2833846  -0.3835121 SPIN=   0.00000
   O   0.0806059  -0.1227771  -0.1197230 SPIN=   0.00000
   O  -0.0711385   0.3623427  -0.0564946 SPIN=   0.00000
   P   0.1445967   0.2124452  -0.1926500 SPIN=   0.00000
   O   0.2994441   0.4630781   0.2869112 SPIN=   0.00000
   O   0.2833846   0.0441843   0.1164879 SPIN=   0.00000
   O  -0.1227771   0.0806059   0.3802770 SPIN=   0.00000
   O   0.3623427  -0.0711385   0.4435054 SPIN=   0.00000
   P   0.2124452   0.1445967   0.3073500 SPIN=   0.00000
  Fe  -0.0600638  -0.2299185  -0.3434172 SPIN=   4.00000
  Fe  -0.2299185  -0.0600638   0.1565828 SPIN=   4.00000
%ENDBLOCK POSITIONS_FRAC

# Note: total spin =   8.00

KPOINTS_MP_SPACING 0.07

%BLOCK SPECIES_POT
QC5
%ENDBLOCK SPECIES_POT

%BLOCK HUBBARD_U
Fe d:4.0
%ENDBLOCK HUBBARD_U

SNAP_TO_SYMMETRY
SYMMETRY_GENERATE

