#              Generated by Buildcell
#
# at 21:58:00 (GMT+0.0) 26th November 2020
# in /lustre/scratch/uccabz1/launch_tmp
# on node-c12a-032
# by uccabz1
#
# compiler GCC version 4.9.2
# options -cpp -iprefix /lustre/shared/ucl/apps/gcc/4.9.2/bin/../lib/gcc/x86_64-unknown-linux-gnu/4.9.2/ -mtune=corei7 -march=x86-64 -g -Og
#
# seed -1137711174  -839587130 -2068004012 -1031014130 -1787750826    -3899445  -410727516    24172545  -825288410   216373330  -949715747  1826512472
#
#      Author: C. J. Pickard (cjp20@cam.ac.uk)
#                Space group: Cc
#

%BLOCK LATTICE_ABC
      7.55269      7.56766      7.56766
     84.62659     60.33978     60.33978
%ENDBLOCK LATTICE_ABC

%BLOCK POSITIONS_FRAC
  Li   0.4268934  -0.2930561  -0.3320471 SPIN=   0.00000
  Li  -0.0731066  -0.3320471  -0.2930561 SPIN=   0.00000
  Li  -0.4572398  -0.4142706   0.0020828 SPIN=   0.00000
  Li   0.0427602   0.0020828  -0.4142706 SPIN=   0.00000
   O   0.2263226  -0.3839338   0.0038203 SPIN=   0.00000
   O  -0.1626928  -0.0426840   0.2503406 SPIN=   0.00000
   O   0.2221897  -0.0891473   0.1593748 SPIN=   0.00000
   O   0.1091921  -0.0303092  -0.1103775 SPIN=   0.00000
   P   0.1056685  -0.1484388   0.0697606 SPIN=   0.00000
   O  -0.2736774   0.0038203  -0.3839338 SPIN=   0.00000
   O  -0.6626928   0.2503406  -0.0426840 SPIN=   0.00000
   O  -0.2778103   0.1593748  -0.0891473 SPIN=   0.00000
   O  -0.3908079  -0.1103775  -0.0303092 SPIN=   0.00000
   P  -0.3943315   0.0697606  -0.1484388 SPIN=   0.00000
   O  -0.0808244   0.3811535  -0.2372211 SPIN=   0.00000
   O   0.0350339   0.2296644  -0.5976380 SPIN=   0.00000
   O  -0.3858918   0.3931634  -0.3135165 SPIN=   0.00000
   O  -0.2103471   0.6151229  -0.4721888 SPIN=   0.00000
   P  -0.1568527   0.4060006  -0.3969914 SPIN=   0.00000
   O   0.4191756  -0.2372211   0.3811535 SPIN=   0.00000
   O   0.5350339  -0.5976380   0.2296644 SPIN=   0.00000
   O   0.1141082  -0.3135165   0.3931634 SPIN=   0.00000
   O   0.2896529  -0.4721888   0.6151229 SPIN=   0.00000
   P   0.3431473  -0.3969914   0.4060006 SPIN=   0.00000
  Fe  -0.2653384  -0.2331796   0.2005666 SPIN=   2.67510
  Fe   0.2346616   0.2005666  -0.2331796 SPIN=   2.67510
  Fe  -0.2301429   0.2468408   0.3373082 SPIN=   5.32490
  Fe   0.2698571   0.3373082   0.2468408 SPIN=   5.32490
%ENDBLOCK POSITIONS_FRAC

# Note: total spin =  16.00

KPOINTS_MP_SPACING 0.07

%BLOCK SPECIES_POT
QC5
%ENDBLOCK SPECIES_POT

%BLOCK HUBBARD_U
Fe d:4.0
%ENDBLOCK HUBBARD_U

SNAP_TO_SYMMETRY
SYMMETRY_GENERATE

