#              Generated by Buildcell
#
# at 07:07:47 (GMT+0.0) 24th November 2020
# in /lustre/scratch/uccabz1/launch_tmp
# on node-c12f-020
# by uccabz1
#
# compiler GCC version 4.9.2
# options -cpp -iprefix /lustre/shared/ucl/apps/gcc/4.9.2/bin/../lib/gcc/x86_64-unknown-linux-gnu/4.9.2/ -mtune=corei7 -march=x86-64 -g -Og
#
# seed  -905474875 -1640543637 -1706290000 -1982573645 -1692654603  -601448823   374864542   -38149884   557466864  1987599668 -2023784118 -1344912086
#
#      Author: C. J. Pickard (cjp20@cam.ac.uk)
#                Space group: Cm
#

%BLOCK LATTICE_ABC
      3.84765      6.45824      6.45824
     85.90328     88.75149     88.75149
%ENDBLOCK LATTICE_ABC

%BLOCK POSITIONS_FRAC
  Li   0.2034959   0.0177666   0.0177666 SPIN=   0.00000
  Li  -0.4893495   0.3179759   0.3179759 SPIN=   0.00000
   O  -0.1947787   0.0746737  -0.2101729 SPIN=   0.00000
   O   0.3271556   0.2809038  -0.3740880 SPIN=   0.00000
   O   0.3423262  -0.1011133  -0.3807152 SPIN=   0.00000
   O  -0.0748678   0.1097012  -0.6060612 SPIN=   0.00000
   P   0.0822024   0.0903901  -0.3855547 SPIN=   0.00000
   O  -0.1947787  -0.2101729   0.0746737 SPIN=   0.00000
   O   0.3271556  -0.3740880   0.2809038 SPIN=   0.00000
   O   0.3423262  -0.3807152  -0.1011133 SPIN=   0.00000
   O  -0.0748678  -0.6060612   0.1097012 SPIN=   0.00000
   P   0.0822024  -0.3855547   0.0903901 SPIN=   0.00000
  Fe  -0.3055013  -0.1795409   0.3896087 SPIN=   4.00000
  Fe  -0.3055013   0.3896087  -0.1795409 SPIN=   4.00000
%ENDBLOCK POSITIONS_FRAC

# Note: total spin =   8.00

KPOINTS_MP_SPACING 0.07

%BLOCK SPECIES_POT
QC5
%ENDBLOCK SPECIES_POT

%BLOCK HUBBARD_U
Fe d:4.0
%ENDBLOCK HUBBARD_U

SNAP_TO_SYMMETRY
SYMMETRY_GENERATE

