#              Generated by Buildcell
#
# at 15:16:36 (GMT+0.0) 26th November 2020
# in /lustre/scratch/uccabz1/launch_tmp
# on node-c12c-024
# by uccabz1
#
# compiler GCC version 4.9.2
# options -cpp -iprefix /lustre/shared/ucl/apps/gcc/4.9.2/bin/../lib/gcc/x86_64-unknown-linux-gnu/4.9.2/ -mtune=corei7 -march=x86-64 -g -Og
#
# seed  1006075761   698594764  -305083824 -1536352918 -1260066221   484199629  1869077690  1899432181  1977434846 -1466442240  1463945351  1573100187
#
#      Author: C. J. Pickard (cjp20@cam.ac.uk)
#                Space group: C2221
#

%BLOCK LATTICE_ABC
      4.92816      5.89112     12.13464
     90.00000     90.00000    114.72545
%ENDBLOCK LATTICE_ABC

%BLOCK POSITIONS_FRAC
  Li  -0.1635472   0.1374724   0.0822799 SPIN=   0.00000
  Li   0.1635472  -0.1374724  -0.4177201 SPIN=   0.00000
  Li  -0.3010196  -0.1374724   0.4177201 SPIN=   0.00000
  Li   0.3010196   0.1374724  -0.0822799 SPIN=   0.00000
   O   0.2542076   0.4081464  -0.1848237 SPIN=   0.00000
   O  -0.2540003   0.1754210  -0.0849059 SPIN=   0.00000
   O   0.0343670   0.6253512  -0.0474418 SPIN=   0.00000
   P  -0.0298479   0.4242113  -0.1408105 SPIN=   0.00000
   O  -0.2542076  -0.4081464   0.3151763 SPIN=   0.00000
   O   0.2540003  -0.1754210   0.4150941 SPIN=   0.00000
   O  -0.0343670  -0.6253512   0.4525582 SPIN=   0.00000
   P   0.0298479  -0.4242113   0.3591895 SPIN=   0.00000
   O  -0.1539389  -0.4081464  -0.3151763 SPIN=   0.00000
   O  -0.4294213  -0.1754210  -0.4150941 SPIN=   0.00000
   O  -0.5909843  -0.6253512  -0.4525582 SPIN=   0.00000
   P  -0.4540592  -0.4242113  -0.3591895 SPIN=   0.00000
   O   0.1539389   0.4081464   0.1848237 SPIN=   0.00000
   O   0.4294213   0.1754210   0.0849059 SPIN=   0.00000
   O   0.5909843   0.6253512   0.0474418 SPIN=   0.00000
   P   0.4540592   0.4242113   0.1408105 SPIN=   0.00000
   O  -0.3809153  -0.0000000   0.2500000 SPIN=   0.00000
   O   0.3809153   0.0000000  -0.2500000 SPIN=   0.00000
   O   0.1190564  -0.0000000   0.2500000 SPIN=   0.00000
   O  -0.1190564   0.0000000  -0.2500000 SPIN=   0.00000
  Fe  -0.1393532   0.2566549  -0.3659731 SPIN=   4.00000
  Fe   0.1393532  -0.2566549   0.1340269 SPIN=   4.00000
  Fe  -0.3960081  -0.2566549  -0.1340269 SPIN=   4.00000
  Fe   0.3960081   0.2566549   0.3659731 SPIN=   4.00000
%ENDBLOCK POSITIONS_FRAC

# Note: total spin =  16.00

KPOINTS_MP_SPACING 0.07

%BLOCK SPECIES_POT
QC5
%ENDBLOCK SPECIES_POT

%BLOCK HUBBARD_U
Fe d:4.0
%ENDBLOCK HUBBARD_U

SNAP_TO_SYMMETRY
SYMMETRY_GENERATE

