#              Generated by Buildcell
#
# at 08:34:36 (GMT+0.0) 24th November 2020
# in /lustre/scratch/uccabz1/launch_tmp
# on node-c12e-024
# by uccabz1
#
# compiler GCC version 4.9.2
# options -cpp -iprefix /lustre/shared/ucl/apps/gcc/4.9.2/bin/../lib/gcc/x86_64-unknown-linux-gnu/4.9.2/ -mtune=corei7 -march=x86-64 -g -Og
#
# seed -2083452548 -1943206379  1747773248  1640553217 -1713521605  -108988453 -1351866796   282385211  1146376776   322564637   -24889963 -1448478871
#
#      Author: C. J. Pickard (cjp20@cam.ac.uk)
#                Space group: P-1
#

%BLOCK LATTICE_ABC
      4.69921      5.84374      6.82878
     91.55364    109.18728    113.28163
%ENDBLOCK LATTICE_ABC

%BLOCK POSITIONS_FRAC
  Li   0.5992839   0.2276772  -0.1071764 SPIN=   0.00000
  Li  -0.5992839  -0.2276772   0.1071764 SPIN=   0.00000
   O   0.4024294   0.4728230  -0.3161061 SPIN=   0.00000
   O  -0.0030845   0.5564174  -0.1734159 SPIN=   0.00000
   O  -0.2361554   0.1910662  -0.4598558 SPIN=   0.00000
   O   0.1132134   0.1787083  -0.0969243 SPIN=   0.00000
   P   0.0873694   0.3542881  -0.2625359 SPIN=   0.00000
   O  -0.4024294  -0.4728230   0.3161061 SPIN=   0.00000
   O   0.0030845  -0.5564174   0.1734159 SPIN=   0.00000
   O   0.2361554  -0.1910662   0.4598558 SPIN=   0.00000
   O  -0.1132134  -0.1787083   0.0969243 SPIN=   0.00000
   P  -0.0873694  -0.3542881   0.2625359 SPIN=   0.00000
  Fe   0.1940749   0.1860647   0.2955338 SPIN=   4.00000
  Fe  -0.1940749  -0.1860647  -0.2955338 SPIN=   4.00000
%ENDBLOCK POSITIONS_FRAC

# Note: total spin =   8.00

KPOINTS_MP_SPACING 0.07

%BLOCK SPECIES_POT
QC5
%ENDBLOCK SPECIES_POT

%BLOCK HUBBARD_U
Fe d:4.0
%ENDBLOCK HUBBARD_U

SNAP_TO_SYMMETRY
SYMMETRY_GENERATE

