%BLOCK LATTICE_CART
    2.97325000000000    0.00000000000000    0.00000000000000
    0.00000000000000   10.10349000000000    0.00000000000000
    0.00000000000000  -13.12293079405820    4.10096498868974
%ENDBLOCK LATTICE_CART

%BLOCK POSITIONS_FRAC
Li   -0.39974712752810    0.59195315762790    0.33982905933050
Li    0.10025287247190   -0.59195315762790   -0.33982905933050
Li    0.15731728370780    0.09489534778130   -0.15775272128170
Li   -0.34268271629220   -0.09489534778130    0.15775272128170
N   -0.34210477129380   -0.09292954547510    0.33438801355220
N    0.15789522870620    0.09292954547510   -0.33438801355220
N    0.22248737661690    0.09115136066800    0.16487896229280
N   -0.27751262338310   -0.09115136066800   -0.16487896229280
N    0.15693932646220    0.40809817518780   -0.16487956371830
N   -0.34306067353780   -0.40809817518780    0.16487956371830
N    0.22420471203490    0.40582594801700    0.33413282977470
N    0.72420471203490   -0.40582594801700   -0.33413282977470
%ENDBLOCK POSITIONS_FRAC

#VARVOL=30 


##SPECIES=Li,N
##NATOM=3-9
##FOCUS=2
 
#SYMMOPS=2-4
##SGRANK=20
#NFORM={2,3,4,6}
##ADJGEN=0-1
#SLACK=0.25
#OVERLAP=0.1
#MINSEP=1.2 Li-Li=2.5 Li-N=1.9 N-N=1.5
#COMPACT
#CELLADAPT
##SYSTEM={Rhom,Tric,Mono,Cubi,Hexa,Orth,Tetra}
 
KPOINTS_MP_SPACING 0.05
 
SYMMETRY_GENERATE
SNAP_TO_SYMMETRY
 
%BLOCK SPECIES_POT
C19
%ENDBLOCK SPECIES_POT
 
%BLOCK EXTERNAL_PRESSURE
0 0 0
0 0
0
%ENDBLOCK EXTERNAL_PRESSURE
