%BLOCK LATTICE_CART
    9.90421000000000    0.00000000000000    0.00000000000000
    2.75363983854049    3.33494852422083    0.00000000000000
    7.34686696425247    7.65951073366398    5.38310481050313
%ENDBLOCK LATTICE_CART

%BLOCK POSITIONS_FRAC
Li    0.33714509950610    0.32542117632930   -0.08057370169350
Li   -0.33714509950610   -0.32542117632930    0.08057370169350
Li    0.33724682779160   -0.67286603083430    0.41775035362670
Li   -0.33724682779160    0.67286603083430   -0.41775035362670
Li    0.00026061160980   -0.00046850093540   -0.25014000323360
Li   -0.00026061160980    0.00046850093540    0.25014000323360
N    0.15362160578610   -0.10819352484730    0.05322281981660
N   -0.15362160578610    0.10819352484730   -0.05322281981660
N    0.18226716789720    0.44754491708110   -0.38852850107490
N   -0.18226716789720   -0.44754491708110    0.38852850107490
N    0.18072463924390    0.44074208132130    0.11689040195350
N   -0.18072463924390   -0.44074208132130   -0.11689040195350
N   -0.48589867009130   -0.22575328753970    0.28143642890770
N    0.48589867009130    0.22575328753970   -0.28143642890770
N   -0.48783930177530   -0.23353497118270   -0.21347049261720
N    0.48783930177530    0.23353497118270    0.21347049261720
N    0.15451539824440   -0.10292095406710   -0.45101478246830
N   -0.15451539824440    0.10292095406710    0.45101478246830
%ENDBLOCK POSITIONS_FRAC

#VARVOL=30 


##SPECIES=Li,N
##NATOM=3-9
##FOCUS=2
 
#SYMMOPS=2-4
##SGRANK=20
#NFORM={2,3,4,6}
##ADJGEN=0-1
#SLACK=0.25
#OVERLAP=0.1
#MINSEP=1.2 Li-Li=2.5 Li-N=1.9 N-N=1.5
#COMPACT
#CELLADAPT
##SYSTEM={Rhom,Tric,Mono,Cubi,Hexa,Orth,Tetra}
 
KPOINTS_MP_SPACING 0.05
 
SYMMETRY_GENERATE
SNAP_TO_SYMMETRY
 
%BLOCK SPECIES_POT
C19
%ENDBLOCK SPECIES_POT
 
%BLOCK EXTERNAL_PRESSURE
0 0 0
0 0
0
%ENDBLOCK EXTERNAL_PRESSURE
