#              Generated by Buildcell
#
# at 14:36:46 (GMT+0.0) 26th March 2023
# in /home/bonan/nas/work/m3gnet/with-u-rerun-extras
# on kiwi-c
# by bonan
#
# compiler GCC version 11.3.0
# options -cpp -imultiarch x86_64-linux-gnu -mtune=generic -march=x86-64 -g -Og -fpre-include=/usr/include/finclude/math-vector-fortran.h
#
# seed -1800108542  -217431598  1349273385  1418762980   573244286   861635555   171223573  1149182949
#
#      Author: C. J. Pickard (cjp20@cam.ac.uk)
#                Space group: Pc
#

%BLOCK LATTICE_ABC
      5.56343      6.18915      9.59154
    104.32224     90.00000     90.00000
%ENDBLOCK LATTICE_ABC

%BLOCK POSITIONS_FRAC
  Li   0.2077157   0.5415768   0.0700424 SPIN=   0.00000
  Li  -0.2077157   0.0415768   0.0700424 SPIN=   0.00000
  Li  -0.2951009  -0.2653076  -0.2191097 SPIN=   0.00000
  Li   0.2951009   0.2346924  -0.2191097 SPIN=   0.00000
   O  -0.3313012  -0.6334489   0.0864410 SPIN=   0.00000
   O  -0.5317770  -0.4695225  -0.1095301 SPIN=   0.00000
   O  -0.1317399  -0.3284276  -0.0185070 SPIN=   0.00000
   O  -0.1713631  -0.7164354  -0.1742316 SPIN=   0.00000
   P  -0.2922439  -0.5442143  -0.0479008 SPIN=   0.00000
   O   0.3313012  -0.1334489   0.0864410 SPIN=   0.00000
   O   0.5317770   0.0304775  -0.1095301 SPIN=   0.00000
   O   0.1317399   0.1715724  -0.0185070 SPIN=   0.00000
   O   0.1713631  -0.2164354  -0.1742316 SPIN=   0.00000
   P   0.2922439  -0.0442143  -0.0479008 SPIN=   0.00000
   O   0.5271291   0.0608536  -0.5833527 SPIN=   0.00000
   O   0.3963701  -0.0820019  -0.3619403 SPIN=   0.00000
   O   0.1553275   0.2144630  -0.4260207 SPIN=   0.00000
   O   0.1425709  -0.1733830  -0.5844648 SPIN=   0.00000
   P   0.3152371   0.0058528  -0.4950986 SPIN=   0.00000
   O  -0.5271291  -0.4391464  -0.5833527 SPIN=   0.00000
   O  -0.3963701  -0.5820019  -0.3619403 SPIN=   0.00000
   O  -0.1553275  -0.2855370  -0.4260207 SPIN=   0.00000
   O  -0.1425709  -0.6733830  -0.5844648 SPIN=   0.00000
   P  -0.3152371  -0.4941472  -0.4950986 SPIN=   0.00000
  Fe   0.2060518  -0.3826003  -0.3985454 SPIN=   5.57577
  Fe  -0.2060518  -0.8826003  -0.3985454 SPIN=   5.57577
  Fe  -0.2894283   0.6609030   0.2515239 SPIN=   2.42423
  Fe   0.2894283   0.1609030   0.2515239 SPIN=   2.42423
%ENDBLOCK POSITIONS_FRAC

# Note: total spin =  16.00

KPOINTS_MP_SPACING 0.07

%BLOCK SPECIES_POT
QC5
%ENDBLOCK SPECIES_POT

SNAP_TO_SYMMETRY
SYMMETRY_GENERATE

