#              Generated by Buildcell
#
# at 14:48:16 (GMT+0.0) 26th March 2023
# in /home/bonan/nas/work/m3gnet/with-u-rerun-extras
# on kiwi-c
# by bonan
#
# compiler GCC version 11.3.0
# options -cpp -imultiarch x86_64-linux-gnu -mtune=generic -march=x86-64 -g -Og -fpre-include=/usr/include/finclude/math-vector-fortran.h
#
# seed   425521766  1935785683 -1274129164  1293511097  1756922495 -2059492694   290674065  1835182054
#
#      Author: C. J. Pickard (cjp20@cam.ac.uk)
#                Space group: Iba2
#

%BLOCK LATTICE_ABC
      5.61318      8.21504      8.21504
     67.98812     70.02316     70.02316
%ENDBLOCK LATTICE_ABC

%BLOCK POSITIONS_FRAC
  Li  -0.2454929   0.4533490   0.3165199 SPIN=   0.00000
  Li  -0.4756239  -0.4533490  -0.3165199 SPIN=   0.00000
  Li   0.0243761  -0.3165199  -0.4533490 SPIN=   0.00000
  Li   0.2545071   0.3165199   0.4533490 SPIN=   0.00000
   O   0.2103564  -0.1324142   0.3235465 SPIN=   0.00000
   O  -0.2805382   0.0216563   0.4285351 SPIN=   0.00000
   O   0.0398371   0.2087160   0.3060960 SPIN=   0.00000
   O  -0.0606161   0.0977072   0.0974250 SPIN=   0.00000
   P  -0.0107760   0.0398371   0.2884858 SPIN=   0.00000
   O   0.4014887   0.1324142  -0.3235465 SPIN=   0.00000
   O   0.1696532  -0.0216563  -0.4285351 SPIN=   0.00000
   O   0.5546491  -0.2087160  -0.3060960 SPIN=   0.00000
   O   0.1345161  -0.0977072  -0.0974250 SPIN=   0.00000
   P   0.3175469  -0.0398371  -0.2884858 SPIN=   0.00000
   O  -0.0985113  -0.3235465   0.1324142 SPIN=   0.00000
   O  -0.3303468  -0.4285351  -0.0216563 SPIN=   0.00000
   O   0.0546491  -0.3060960  -0.2087160 SPIN=   0.00000
   O  -0.3654839  -0.0974250  -0.0977072 SPIN=   0.00000
   P  -0.1824531  -0.2884858  -0.0398371 SPIN=   0.00000
   O   0.7103564   0.3235465  -0.1324142 SPIN=   0.00000
   O   0.2194618   0.4285351   0.0216563 SPIN=   0.00000
   O   0.5398371   0.3060960   0.2087160 SPIN=   0.00000
   O   0.4393839   0.0974250   0.0977072 SPIN=   0.00000
   P   0.4892240   0.2884858   0.0398371 SPIN=   0.00000
  Fe  -0.4328985  -0.1016216   0.3196192 SPIN=   4.00000
  Fe  -0.2149010   0.1016216  -0.3196192 SPIN=   4.00000
  Fe   0.2850990  -0.3196192   0.1016216 SPIN=   4.00000
  Fe   0.0671015   0.3196192  -0.1016216 SPIN=   4.00000
%ENDBLOCK POSITIONS_FRAC

# Note: total spin =  16.00

KPOINTS_MP_SPACING 0.07

%BLOCK SPECIES_POT
QC5
%ENDBLOCK SPECIES_POT

SNAP_TO_SYMMETRY
SYMMETRY_GENERATE

