#              Generated by Buildcell
#
# at 14:27:31 (GMT+0.0) 26th March 2023
# in /home/bonan/nas/work/m3gnet/with-u-rerun-extras
# on kiwi-c
# by bonan
#
# compiler GCC version 11.3.0
# options -cpp -imultiarch x86_64-linux-gnu -mtune=generic -march=x86-64 -g -Og -fpre-include=/usr/include/finclude/math-vector-fortran.h
#
# seed -1868416466  1030864995  1148549909   905588873   754335039  1638496487  -193805775   221015513
#
#      Author: C. J. Pickard (cjp20@cam.ac.uk)
#                Space group: P21
#

%BLOCK LATTICE_ABC
      5.45154      5.90432     10.18193
    102.47049     90.00000     90.00000
%ENDBLOCK LATTICE_ABC

%BLOCK POSITIONS_FRAC
  Li   0.2174632   0.3214173   0.1819449 SPIN=   0.00000
  Li  -0.2825368  -0.3214173  -0.1819449 SPIN=   0.00000
  Li   0.3946486  -0.1827043   0.3323924 SPIN=   0.00000
  Li  -0.1053514   0.1827043  -0.3323924 SPIN=   0.00000
   O  -0.0831795  -0.0177200   0.2652595 SPIN=   0.00000
   O  -0.5105172  -0.0877520   0.1507252 SPIN=   0.00000
   O  -0.1412574  -0.1534174   0.0069404 SPIN=   0.00000
   O  -0.2392495  -0.4280956   0.1557315 SPIN=   0.00000
   P  -0.2349612  -0.1665703   0.1512159 SPIN=   0.00000
   O   0.4168205   0.0177200  -0.2652595 SPIN=   0.00000
   O  -0.0105172   0.0877520  -0.1507252 SPIN=   0.00000
   O   0.3587426   0.1534174  -0.0069404 SPIN=   0.00000
   O   0.2607505   0.4280956  -0.1557315 SPIN=   0.00000
   P   0.2650388   0.1665703  -0.1512159 SPIN=   0.00000
   O  -0.1400491  -0.2163666  -0.3520558 SPIN=   0.00000
   O  -0.0704164  -0.3374977  -0.6101539 SPIN=   0.00000
   O  -0.4890805  -0.3661888  -0.5224419 SPIN=   0.00000
   O  -0.3063153   0.0251956  -0.5160252 SPIN=   0.00000
   P  -0.2461802  -0.2203857  -0.4924700 SPIN=   0.00000
   O   0.3599509   0.2163666   0.3520558 SPIN=   0.00000
   O   0.4295836   0.3374977   0.6101539 SPIN=   0.00000
   O   0.0109195   0.3661888   0.5224419 SPIN=   0.00000
   O   0.1936847  -0.0251956   0.5160252 SPIN=   0.00000
   P   0.2538198   0.2203857   0.4924700 SPIN=   0.00000
  Fe   0.2343924  -0.2985548  -0.3755864 SPIN=   5.31334
  Fe  -0.2656076   0.2985548   0.3755864 SPIN=   5.31334
  Fe   0.2260205  -0.2574728   0.0137027 SPIN=   2.68666
  Fe  -0.2739795   0.2574728  -0.0137027 SPIN=   2.68666
%ENDBLOCK POSITIONS_FRAC

# Note: total spin =  16.00

KPOINTS_MP_SPACING 0.07

%BLOCK SPECIES_POT
QC5
%ENDBLOCK SPECIES_POT

SNAP_TO_SYMMETRY
SYMMETRY_GENERATE

