#              Generated by Buildcell
#
# at 14:44:45 (GMT+0.0) 26th March 2023
# in /home/bonan/nas/work/m3gnet/with-u-rerun-extras
# on kiwi-c
# by bonan
#
# compiler GCC version 11.3.0
# options -cpp -imultiarch x86_64-linux-gnu -mtune=generic -march=x86-64 -g -Og -fpre-include=/usr/include/finclude/math-vector-fortran.h
#
# seed  2056404777  -749554597  -667149397  -757508547  1619979764  -295289185  2055912715  1101197447
#
#      Author: C. J. Pickard (cjp20@cam.ac.uk)
#                Space group: Cc
#

%BLOCK LATTICE_ABC
      5.66294      7.63940      8.24733
    103.96368     90.00000    111.75514
%ENDBLOCK LATTICE_ABC

%BLOCK POSITIONS_FRAC
  Li  -0.3460236  -0.3415303   0.2918142 SPIN=   0.00000
  Li   0.0044933  -0.3415303  -0.2081858 SPIN=   0.00000
  Li  -0.1398940   0.3676679   0.3619666 SPIN=   0.00000
  Li  -0.4924382   0.3676679  -0.1380334 SPIN=   0.00000
   O  -0.1156043   0.1121897   0.1045398 SPIN=   0.00000
   O   0.0291835   0.3967043  -0.0401087 SPIN=   0.00000
   O  -0.3888892   0.1269255  -0.1410664 SPIN=   0.00000
   O  -0.3323910   0.3611770   0.1406450 SPIN=   0.00000
   P  -0.1988687   0.2432723   0.0221876 SPIN=   0.00000
   O   0.2277939   0.1121897  -0.3954602 SPIN=   0.00000
   O   0.3675207   0.3967043  -0.5401087 SPIN=   0.00000
   O   0.5158147   0.1269255  -0.6410664 SPIN=   0.00000
   O   0.6935681   0.3611770  -0.3593550 SPIN=   0.00000
   P   0.4421409   0.2432723  -0.4778124 SPIN=   0.00000
   O  -0.1692048  -0.3590050   0.0163329 SPIN=   0.00000
   O   0.2187490  -0.3242218   0.2075772 SPIN=   0.00000
   O   0.2809756  -0.0861716   0.0392879 SPIN=   0.00000
   O   0.0197765  -0.0759234   0.2838484 SPIN=   0.00000
   P   0.0731018  -0.2175955   0.1320852 SPIN=   0.00000
   O  -0.1898002  -0.3590050  -0.4836671 SPIN=   0.00000
   O  -0.5429707  -0.3242218  -0.2924228 SPIN=   0.00000
   O  -0.3671472  -0.0861716  -0.4607121 SPIN=   0.00000
   O  -0.0956999  -0.0759234  -0.2161516 SPIN=   0.00000
   P  -0.2906972  -0.2175955  -0.3679148 SPIN=   0.00000
  Fe   0.2414131  -0.1685111   0.4735933 SPIN=   3.53697
  Fe  -0.4099242  -0.1685111  -0.0264067 SPIN=   3.53697
  Fe  -0.0778548   0.1944343  -0.3192190 SPIN=   4.46303
  Fe   0.2722891   0.1944343   0.1807810 SPIN=   4.46303
%ENDBLOCK POSITIONS_FRAC

# Note: total spin =  16.00

KPOINTS_MP_SPACING 0.07

%BLOCK SPECIES_POT
QC5
%ENDBLOCK SPECIES_POT

SNAP_TO_SYMMETRY
SYMMETRY_GENERATE

