#              Generated by Buildcell
#
# at 14:32:14 (GMT+0.0) 26th March 2023
# in /home/bonan/nas/work/m3gnet/with-u-rerun-extras
# on kiwi-c
# by bonan
#
# compiler GCC version 11.3.0
# options -cpp -imultiarch x86_64-linux-gnu -mtune=generic -march=x86-64 -g -Og -fpre-include=/usr/include/finclude/math-vector-fortran.h
#
# seed -2138065543  -669820897 -1988397987  1370390003 -1969366862     9469457  -612087974  1851351432
#
#      Author: C. J. Pickard (cjp20@cam.ac.uk)
#                Space group: P21212
#

%BLOCK LATTICE_ABC
      5.42015      5.72583     10.31098
     90.00000     90.00000     90.00000
%ENDBLOCK LATTICE_ABC

%BLOCK POSITIONS_FRAC
  Li   0.2550693  -0.2519981   0.4474366 SPIN=   0.00000
  Li   0.2550693   0.2519981  -0.4474366 SPIN=   0.00000
  Li  -0.2550693  -0.2480019  -0.0525634 SPIN=   0.00000
  Li  -0.2550693   0.2480019   0.0525634 SPIN=   0.00000
   O   0.4972386   0.4241000  -0.1206047 SPIN=   0.00000
   O   0.1379942   0.2399407  -0.2523973 SPIN=   0.00000
   O   0.4121915  -0.0222335  -0.1282523 SPIN=   0.00000
   O   0.1175420   0.2384767  -0.0097536 SPIN=   0.00000
   P   0.3001600   0.2311517  -0.1259789 SPIN=   0.00000
   O   0.4972386  -0.4241000   0.1206047 SPIN=   0.00000
   O   0.1379942  -0.2399407   0.2523973 SPIN=   0.00000
   O   0.4121915   0.0222335   0.1282523 SPIN=   0.00000
   O   0.1175420  -0.2384767   0.0097536 SPIN=   0.00000
   P   0.3001600  -0.2311517   0.1259789 SPIN=   0.00000
   O  -0.4972386   0.0759000   0.3793953 SPIN=   0.00000
   O  -0.1379942   0.2600593   0.2476027 SPIN=   0.00000
   O  -0.4121915   0.5222335   0.3717477 SPIN=   0.00000
   O  -0.1175420   0.2615233   0.4902464 SPIN=   0.00000
   P  -0.3001600   0.2688483   0.3740211 SPIN=   0.00000
   O  -0.4972386  -0.0759000  -0.3793953 SPIN=   0.00000
   O  -0.1379942  -0.2600593  -0.2476027 SPIN=   0.00000
   O  -0.4121915  -0.5222335  -0.3717477 SPIN=   0.00000
   O  -0.1175420  -0.2615233  -0.4902464 SPIN=   0.00000
   P  -0.3001600  -0.2688483  -0.3740211 SPIN=   0.00000
  Fe  -0.2449473   0.1905017  -0.2666140 SPIN=   4.00000
  Fe  -0.2449473  -0.1905017   0.2666140 SPIN=   4.00000
  Fe   0.2449473   0.3094983   0.2333860 SPIN=   4.00000
  Fe   0.2449473  -0.3094983  -0.2333860 SPIN=   4.00000
%ENDBLOCK POSITIONS_FRAC

# Note: total spin =  16.00

KPOINTS_MP_SPACING 0.07

%BLOCK SPECIES_POT
QC5
%ENDBLOCK SPECIES_POT

SNAP_TO_SYMMETRY
SYMMETRY_GENERATE

