#              Generated by Buildcell
#
# at 14:38:29 (GMT+0.0) 26th March 2023
# in /home/bonan/nas/work/m3gnet/with-u-rerun-extras
# on kiwi-c
# by bonan
#
# compiler GCC version 11.3.0
# options -cpp -imultiarch x86_64-linux-gnu -mtune=generic -march=x86-64 -g -Og -fpre-include=/usr/include/finclude/math-vector-fortran.h
#
# seed  1248946446  1170080510   611207755   177906496   -58567442   955874037   570375760   657839434
#
#      Author: C. J. Pickard (cjp20@cam.ac.uk)
#                Space group: Pc
#

%BLOCK LATTICE_ABC
      3.90733      7.39278     11.09720
     90.00000     93.36851     90.00000
%ENDBLOCK LATTICE_ABC

%BLOCK POSITIONS_FRAC
  Li  -0.2801837  -0.1747115   0.3642469 SPIN=   0.00000
  Li   0.2198163   0.1747115  -0.1357531 SPIN=   0.00000
  Li   0.2268859  -0.3276035   0.1682112 SPIN=   0.00000
  Li  -0.2731141   0.3276035  -0.3317888 SPIN=   0.00000
   O  -0.6724783   0.1403549  -0.3685306 SPIN=   0.00000
   O  -0.2458693   0.0475321  -0.1908760 SPIN=   0.00000
   O  -0.7119186  -0.1642611  -0.2534200 SPIN=   0.00000
   O  -0.2286018  -0.1152345  -0.3883441 SPIN=   0.00000
   P  -0.4729928  -0.0152991  -0.3049651 SPIN=   0.00000
   O  -0.1724783  -0.1403549   0.1314694 SPIN=   0.00000
   O   0.2541307  -0.0475321   0.3091240 SPIN=   0.00000
   O  -0.2119186   0.1642611   0.2465800 SPIN=   0.00000
   O   0.2713982   0.1152345   0.1116559 SPIN=   0.00000
   P   0.0270072   0.0152991   0.1950349 SPIN=   0.00000
   O  -0.2090716  -0.3663851  -0.2382374 SPIN=   0.00000
   O  -0.1128736  -0.6218728  -0.0790853 SPIN=   0.00000
   O   0.3132965  -0.5842709  -0.2329778 SPIN=   0.00000
   O   0.2756260  -0.3521743  -0.0699067 SPIN=   0.00000
   P   0.0545235  -0.4735414  -0.1584762 SPIN=   0.00000
   O  -0.7090716   0.3663851   0.2617626 SPIN=   0.00000
   O  -0.6128736   0.6218728   0.4209147 SPIN=   0.00000
   O  -0.1867035   0.5842709   0.2670222 SPIN=   0.00000
   O  -0.2243740   0.3521743   0.4300933 SPIN=   0.00000
   P  -0.4454765   0.4735414   0.3415238 SPIN=   0.00000
  Fe  -0.2953216  -0.1760216  -0.0544709 SPIN=   5.33217
  Fe   0.2046784   0.1760216   0.4455291 SPIN=   5.33217
  Fe  -0.2894662   0.3317509   0.0928632 SPIN=   2.66783
  Fe   0.2105338  -0.3317509  -0.4071368 SPIN=   2.66783
%ENDBLOCK POSITIONS_FRAC

# Note: total spin =  16.00

KPOINTS_MP_SPACING 0.07

%BLOCK SPECIES_POT
QC5
%ENDBLOCK SPECIES_POT

SNAP_TO_SYMMETRY
SYMMETRY_GENERATE

