#              Generated by Buildcell
#
# at 14:47:11 (GMT+0.0) 26th March 2023
# in /home/bonan/nas/work/m3gnet/with-u-rerun-extras
# on kiwi-c
# by bonan
#
# compiler GCC version 11.3.0
# options -cpp -imultiarch x86_64-linux-gnu -mtune=generic -march=x86-64 -g -Og -fpre-include=/usr/include/finclude/math-vector-fortran.h
#
# seed -1224352347  1943771921   -24569227  1673507249 -1577541121  1663120957 -1826594427  1604161167
#
#      Author: C. J. Pickard (cjp20@cam.ac.uk)
#                Space group: P43
#

%BLOCK LATTICE_ABC
      5.96454      5.96454      8.99491
     90.00000     90.00000     90.00000
%ENDBLOCK LATTICE_ABC

%BLOCK POSITIONS_FRAC
  Li  -0.2272675  -0.1073637  -0.1291328 SPIN=   0.00000
  Li   0.2272675   0.1073637   0.3708672 SPIN=   0.00000
  Li   0.1073637  -0.2272675  -0.3791328 SPIN=   0.00000
  Li  -0.1073637   0.2272675   0.1208672 SPIN=   0.00000
   O  -0.2812427   0.5182493  -0.2516152 SPIN=   0.00000
   O  -0.0573139   0.2018454  -0.1198604 SPIN=   0.00000
   O   0.1346728   0.5607133  -0.1705475 SPIN=   0.00000
   O  -0.1646787   0.5445485   0.0243897 SPIN=   0.00000
   P  -0.1030654   0.4606765  -0.1341002 SPIN=   0.00000
   O   0.2812427  -0.5182493   0.2483848 SPIN=   0.00000
   O   0.0573139  -0.2018454   0.3801396 SPIN=   0.00000
   O  -0.1346728  -0.5607133   0.3294525 SPIN=   0.00000
   O   0.1646787  -0.5445485   0.5243897 SPIN=   0.00000
   P   0.1030654  -0.4606765   0.3658998 SPIN=   0.00000
   O  -0.5182493  -0.2812427  -0.5016152 SPIN=   0.00000
   O  -0.2018454  -0.0573139  -0.3698604 SPIN=   0.00000
   O  -0.5607133   0.1346728  -0.4205475 SPIN=   0.00000
   O  -0.5445485  -0.1646787  -0.2256103 SPIN=   0.00000
   P  -0.4606765  -0.1030654  -0.3841002 SPIN=   0.00000
   O   0.5182493   0.2812427  -0.0016152 SPIN=   0.00000
   O   0.2018454   0.0573139   0.1301396 SPIN=   0.00000
   O   0.5607133  -0.1346728   0.0794525 SPIN=   0.00000
   O   0.5445485   0.1646787   0.2743897 SPIN=   0.00000
   P   0.4606765   0.1030654   0.1158998 SPIN=   0.00000
  Fe   0.3137403   0.1872605  -0.1809242 SPIN=   4.00000
  Fe  -0.3137403  -0.1872605   0.3190758 SPIN=   4.00000
  Fe  -0.1872605   0.3137403  -0.4309242 SPIN=   4.00000
  Fe   0.1872605  -0.3137403   0.0690758 SPIN=   4.00000
%ENDBLOCK POSITIONS_FRAC

# Note: total spin =  16.00

KPOINTS_MP_SPACING 0.07

%BLOCK SPECIES_POT
QC5
%ENDBLOCK SPECIES_POT

SNAP_TO_SYMMETRY
SYMMETRY_GENERATE

