#              Generated by Buildcell
#
# at 14:41:11 (GMT+0.0) 26th March 2023
# in /home/bonan/nas/work/m3gnet/with-u-rerun-extras
# on kiwi-c
# by bonan
#
# compiler GCC version 11.3.0
# options -cpp -imultiarch x86_64-linux-gnu -mtune=generic -march=x86-64 -g -Og -fpre-include=/usr/include/finclude/math-vector-fortran.h
#
# seed   177723766   886521284    64539065  1895075463  1922278630  -102390928 -1627321474  1149778023
#
#      Author: C. J. Pickard (cjp20@cam.ac.uk)
#                Space group: Ima2
#

%BLOCK LATTICE_ABC
      7.51853      7.51853      7.51853
    101.03567    109.78910    118.03566
%ENDBLOCK LATTICE_ABC

%BLOCK POSITIONS_FRAC
  Li   0.1434837   0.0506920   0.4072082 SPIN=   0.00000
  Li  -0.3565163  -0.2637245  -0.4072082 SPIN=   0.00000
  Li  -0.2509060  -0.4623584   0.2885477 SPIN=   0.00000
  Li   0.2490940   0.4605463  -0.2885477 SPIN=   0.00000
   O  -0.4360952  -0.4823125  -0.2622524 SPIN=   0.00000
   O  -0.5363395  -0.7163742  -0.0531901 SPIN=   0.00000
   O  -0.5420621  -0.8833255  -0.3735577 SPIN=   0.00000
   P  -0.4171245  -0.6531437  -0.1888683 SPIN=   0.00000
   O  -0.2200600  -0.1738427   0.2622524 SPIN=   0.00000
   O  -0.6631841  -0.4831493   0.0531901 SPIN=   0.00000
   O  -0.5097677  -0.1685044   0.3735577 SPIN=   0.00000
   P  -0.4642754  -0.2282561   0.1888683 SPIN=   0.00000
   O   0.0639048  -0.1738427  -0.4537827 SPIN=   0.00000
   O  -0.0363395  -0.4831493  -0.3199653 SPIN=   0.00000
   O  -0.0420621  -0.1685044  -0.1587367 SPIN=   0.00000
   P   0.0828755  -0.2282561  -0.2639807 SPIN=   0.00000
   O   0.2799400   0.5176875   0.4537827 SPIN=   0.00000
   O  -0.1631841   0.2836258   0.3199653 SPIN=   0.00000
   O  -0.0097677   0.1166745   0.1587367 SPIN=   0.00000
   P   0.0357246   0.3468563   0.2639807 SPIN=   0.00000
   O   0.3756669  -0.0088473   0.1154859 SPIN=   0.00000
   O  -0.1243331   0.2601810  -0.1154859 SPIN=   0.00000
   O  -0.0364139   0.0995691  -0.3640169 SPIN=   0.00000
   O   0.4635861   0.3276030   0.3640169 SPIN=   0.00000
  Fe   0.0752639  -0.3567553   0.0679808 SPIN=   3.05780
  Fe  -0.4247361   0.0072832  -0.0679808 SPIN=   3.05780
  Fe   0.1799144   0.1799144  -0.0000000 SPIN=   4.94220
  Fe  -0.3200856   0.1799144  -0.5000000 SPIN=   4.94220
%ENDBLOCK POSITIONS_FRAC

# Note: total spin =  16.00

KPOINTS_MP_SPACING 0.07

%BLOCK SPECIES_POT
QC5
%ENDBLOCK SPECIES_POT

SNAP_TO_SYMMETRY
SYMMETRY_GENERATE

