#              Generated by Buildcell
#
# at 14:27:27 (GMT+0.0) 26th March 2023
# in /home/bonan/nas/work/m3gnet/with-u-rerun-extras
# on kiwi-c
# by bonan
#
# compiler GCC version 11.3.0
# options -cpp -imultiarch x86_64-linux-gnu -mtune=generic -march=x86-64 -g -Og -fpre-include=/usr/include/finclude/math-vector-fortran.h
#
# seed  -381619271 -1141006899  1181332625  1785979471  1103173380   464694661  -635680705 -1679439166
#
#      Author: C. J. Pickard (cjp20@cam.ac.uk)
#                Space group: C2
#

%BLOCK LATTICE_ABC
      5.69473      5.69473     10.10160
     93.59954     93.59954    101.00450
%ENDBLOCK LATTICE_ABC

%BLOCK POSITIONS_FRAC
  Li   0.2493091   0.4754426  -0.3682894 SPIN=   0.00000
  Li  -0.4754426  -0.2493091   0.3682894 SPIN=   0.00000
  Li   0.0147889  -0.0147889   0.5000000 SPIN=   0.00000
  Li  -0.3301128   0.3301128  -0.5000000 SPIN=   0.00000
   O   0.2773326  -0.1242479  -0.2903640 SPIN=   0.00000
   O   0.3958969   0.0192597  -0.5204342 SPIN=   0.00000
   O   0.6857572   0.1493319  -0.3252840 SPIN=   0.00000
   O   0.6048337  -0.2801026  -0.4162600 SPIN=   0.00000
   P   0.4809246  -0.0650270  -0.3832149 SPIN=   0.00000
   O   0.1242479  -0.2773326   0.2903640 SPIN=   0.00000
   O  -0.0192597  -0.3958969   0.5204342 SPIN=   0.00000
   O  -0.1493319  -0.6857572   0.3252840 SPIN=   0.00000
   O   0.2801026  -0.6048337   0.4162600 SPIN=   0.00000
   P   0.0650270  -0.4809246   0.3832149 SPIN=   0.00000
   O  -0.4173148   0.2365448   0.1128629 SPIN=   0.00000
   O  -0.2547539  -0.0823290  -0.0311490 SPIN=   0.00000
   O  -0.2144758  -0.0907485   0.2133076 SPIN=   0.00000
   P  -0.3818682  -0.0245150   0.0974092 SPIN=   0.00000
   O  -0.2365448   0.4173148  -0.1128629 SPIN=   0.00000
   O   0.0823290   0.2547539   0.0311490 SPIN=   0.00000
   O   0.0907485   0.2144758  -0.2133076 SPIN=   0.00000
   P   0.0245150   0.3818682  -0.0974092 SPIN=   0.00000
   O   0.1575346  -0.1575346   0.0000000 SPIN=   0.00000
   O   0.4386849  -0.4386849  -0.0000000 SPIN=   0.00000
  Fe  -0.1771803  -0.2817283  -0.2409975 SPIN=   4.08408
  Fe   0.2817283   0.1771803   0.2409975 SPIN=   4.08408
  Fe  -0.1538700  -0.4185995   0.1310729 SPIN=   3.91592
  Fe   0.4185995   0.1538700  -0.1310729 SPIN=   3.91592
%ENDBLOCK POSITIONS_FRAC

# Note: total spin =  16.00

KPOINTS_MP_SPACING 0.07

%BLOCK SPECIES_POT
QC5
%ENDBLOCK SPECIES_POT

SNAP_TO_SYMMETRY
SYMMETRY_GENERATE

