#              Generated by Buildcell
#
# at 14:39:05 (GMT+0.0) 26th March 2023
# in /home/bonan/nas/work/m3gnet/with-u-rerun-extras
# on kiwi-c
# by bonan
#
# compiler GCC version 11.3.0
# options -cpp -imultiarch x86_64-linux-gnu -mtune=generic -march=x86-64 -g -Og -fpre-include=/usr/include/finclude/math-vector-fortran.h
#
# seed -1940239765 -1827484815  -101910758  -239042698   297646097 -2004791233    30509685  -366890789
#
#      Author: C. J. Pickard (cjp20@cam.ac.uk)
#                Space group: Cm
#

%BLOCK LATTICE_ABC
      7.41763      7.41763      7.66418
    115.46793    115.60223     96.27020
%ENDBLOCK LATTICE_ABC

%BLOCK POSITIONS_FRAC
  Li   0.4711300  -0.2578244   0.2133055 SPIN=   0.00000
  Li  -0.1178942  -0.3451531  -0.4630473 SPIN=   0.00000
  Li  -0.2358416   0.0177670  -0.2180746 SPIN=   0.00000
  Li   0.1393779  -0.0507925   0.0885855 SPIN=   0.00000
   O   0.2065386   0.3938994   0.2723363 SPIN=   0.00000
   O   0.5287685   0.4380882   0.2200768 SPIN=   0.00000
   O   0.2136231   0.1011201  -0.0662790 SPIN=   0.00000
   O   0.1850705   0.4404714  -0.0504528 SPIN=   0.00000
   P   0.2782408   0.3472295   0.1017163 SPIN=   0.00000
   O  -0.1215632   0.0657977   0.2723363 SPIN=   0.00000
   O  -0.2180114  -0.3086917   0.2200768 SPIN=   0.00000
   O  -0.1673991  -0.2799022  -0.0662790 SPIN=   0.00000
   O  -0.4909242  -0.2355233  -0.0504528 SPIN=   0.00000
   P  -0.2455132  -0.1765245   0.1017163 SPIN=   0.00000
   O  -0.2544580   0.0217756  -0.4982272 SPIN=   0.00000
   O  -0.2917132   0.3358174  -0.2039710 SPIN=   0.00000
   O  -0.1132074   0.4162287  -0.3832271 SPIN=   0.00000
   O  -0.5094836   0.2142284  -0.6176674 SPIN=   0.00000
   P  -0.2927692   0.2346329  -0.4318955 SPIN=   0.00000
   O  -0.5200028  -0.2437692  -0.4982272 SPIN=   0.00000
   O  -0.5397884   0.0877422  -0.2039710 SPIN=   0.00000
   O  -0.7994558  -0.2700196  -0.3832271 SPIN=   0.00000
   O  -0.8318958  -0.1081838  -0.6176674 SPIN=   0.00000
   P  -0.6665284  -0.1391263  -0.4318955 SPIN=   0.00000
  Fe   0.0813179   0.1337627  -0.3880574 SPIN=   2.30282
  Fe  -0.5218201  -0.4693753  -0.3880574 SPIN=   2.30282
  Fe   0.5842638   0.1491135   0.1262396 SPIN=   5.69718
  Fe  -0.0228740  -0.4580243   0.1262396 SPIN=   5.69718
%ENDBLOCK POSITIONS_FRAC

# Note: total spin =  16.00

KPOINTS_MP_SPACING 0.07

%BLOCK SPECIES_POT
QC5
%ENDBLOCK SPECIES_POT

SNAP_TO_SYMMETRY
SYMMETRY_GENERATE

