#              Generated by Buildcell
#
# at 14:25:52 (GMT+0.0) 26th March 2023
# in /home/bonan/nas/work/m3gnet/with-u-rerun-extras
# on kiwi-c
# by bonan
#
# compiler GCC version 11.3.0
# options -cpp -imultiarch x86_64-linux-gnu -mtune=generic -march=x86-64 -g -Og -fpre-include=/usr/include/finclude/math-vector-fortran.h
#
# seed  -137278929  -146498073  -504126115  1536133105 -1253633379   140139882 -1888044469  1309106062
#
#      Author: C. J. Pickard (cjp20@cam.ac.uk)
#                Space group: P-1
#

%BLOCK LATTICE_ABC
      5.17861      6.57686      9.96890
    102.58908    102.79242     94.82716
%ENDBLOCK LATTICE_ABC

%BLOCK POSITIONS_FRAC
  Li   0.4845996   0.2007736   0.4290885 SPIN=   0.00000
  Li  -0.4845996  -0.2007736  -0.4290885 SPIN=   0.00000
  Li  -0.0000000  -0.0000000   0.5000000 SPIN=   0.00000
  Li  -0.0000000  -0.5000000  -0.5000000 SPIN=   0.00000
   O  -0.0215028   0.2108293   0.3537401 SPIN=   0.00000
   O   0.1185154   0.3994769   0.1721748 SPIN=   0.00000
   O   0.3170275   0.0809265   0.2080947 SPIN=   0.00000
   O  -0.1665960   0.0476095   0.0837247 SPIN=   0.00000
   P   0.0547263   0.1844833   0.2109589 SPIN=   0.00000
   O   0.0215028  -0.2108293  -0.3537401 SPIN=   0.00000
   O  -0.1185154  -0.3994769  -0.1721748 SPIN=   0.00000
   O  -0.3170275  -0.0809265  -0.2080947 SPIN=   0.00000
   O   0.1665960  -0.0476095  -0.0837247 SPIN=   0.00000
   P  -0.0547263  -0.1844833  -0.2109589 SPIN=   0.00000
   O   0.0374571   0.3017077  -0.3592905 SPIN=   0.00000
   O   0.4816368   0.5015629  -0.3732058 SPIN=   0.00000
   O   0.4715672   0.3808870  -0.1562675 SPIN=   0.00000
   O   0.4515875   0.1165281  -0.3823594 SPIN=   0.00000
   P   0.3444326   0.3214599  -0.3207531 SPIN=   0.00000
   O  -0.0374571  -0.3017077   0.3592905 SPIN=   0.00000
   O  -0.4816368  -0.5015629   0.3732058 SPIN=   0.00000
   O  -0.4715672  -0.3808870   0.1562675 SPIN=   0.00000
   O  -0.4515875  -0.1165281   0.3823594 SPIN=   0.00000
   P  -0.3444326  -0.3214599   0.3207531 SPIN=   0.00000
  Fe  -0.4742959   0.2814403   0.1182269 SPIN=   3.04269
  Fe   0.4742959  -0.2814403  -0.1182269 SPIN=   3.04269
  Fe   0.1301167  -0.2449291   0.1957502 SPIN=   4.95731
  Fe  -0.1301167   0.2449291  -0.1957502 SPIN=   4.95731
%ENDBLOCK POSITIONS_FRAC

# Note: total spin =  16.00

KPOINTS_MP_SPACING 0.07

%BLOCK SPECIES_POT
QC5
%ENDBLOCK SPECIES_POT

SNAP_TO_SYMMETRY
SYMMETRY_GENERATE

