#              Generated by Buildcell
#
# at 14:32:56 (GMT+0.0) 26th March 2023
# in /home/bonan/nas/work/m3gnet/with-u-rerun-extras
# on kiwi-c
# by bonan
#
# compiler GCC version 11.3.0
# options -cpp -imultiarch x86_64-linux-gnu -mtune=generic -march=x86-64 -g -Og -fpre-include=/usr/include/finclude/math-vector-fortran.h
#
# seed   -70562200  1354450255  -925610431  -764582846   899128061 -1745538051  2085425361   403359480
#
#      Author: C. J. Pickard (cjp20@cam.ac.uk)
#                Space group: Pc
#

%BLOCK LATTICE_ABC
      4.76535      8.20678      8.23954
     90.00000     90.00000     96.75028
%ENDBLOCK LATTICE_ABC

%BLOCK POSITIONS_FRAC
  Li   0.0792495  -0.4638476  -0.2720409 SPIN=   0.00000
  Li  -0.4207505   0.0361524   0.2720409 SPIN=   0.00000
  Li  -0.3758398  -0.2482007  -0.2084206 SPIN=   0.00000
  Li   0.1241602   0.2517993   0.2084206 SPIN=   0.00000
   O  -0.0428024  -0.2568277  -0.0422940 SPIN=   0.00000
   O  -0.2097943  -0.2013411   0.2506019 SPIN=   0.00000
   O   0.2057895  -0.0269431   0.1422745 SPIN=   0.00000
   O  -0.2751097   0.0023121   0.0314935 SPIN=   0.00000
   P  -0.0807700  -0.1264964   0.0874256 SPIN=   0.00000
   O   0.4571976   0.2431723   0.0422940 SPIN=   0.00000
   O   0.2902057   0.2986589  -0.2506019 SPIN=   0.00000
   O   0.7057895   0.4730569  -0.1422745 SPIN=   0.00000
   O   0.2248903   0.5023121  -0.0314935 SPIN=   0.00000
   P   0.4192300   0.3735036  -0.0874256 SPIN=   0.00000
   O   0.7031889   0.1472297  -0.3511280 SPIN=   0.00000
   O   0.5169115  -0.1514078  -0.4340440 SPIN=   0.00000
   O   0.3529941  -0.0444314  -0.1749150 SPIN=   0.00000
   O   0.1851693   0.0636818  -0.4374193 SPIN=   0.00000
   P   0.4506004   0.0121137  -0.3505089 SPIN=   0.00000
   O   0.2031889  -0.3527703   0.3511280 SPIN=   0.00000
   O   0.0169115  -0.6514078   0.4340440 SPIN=   0.00000
   O  -0.1470059  -0.5444314   0.1749150 SPIN=   0.00000
   O  -0.3148307  -0.4363182   0.4374193 SPIN=   0.00000
   P  -0.0493996  -0.4878863   0.3505089 SPIN=   0.00000
  Fe   0.0195172  -0.1642888   0.4672156 SPIN=   4.70087
  Fe  -0.4804828   0.3357112  -0.4672156 SPIN=   4.70087
  Fe  -0.0231441   0.1188383  -0.1587818 SPIN=   3.29913
  Fe   0.4768559  -0.3811617   0.1587818 SPIN=   3.29913
%ENDBLOCK POSITIONS_FRAC

# Note: total spin =  16.00

KPOINTS_MP_SPACING 0.07

%BLOCK SPECIES_POT
QC5
%ENDBLOCK SPECIES_POT

SNAP_TO_SYMMETRY
SYMMETRY_GENERATE

