#              Generated by Buildcell
#
# at 14:43:21 (GMT+0.0) 26th March 2023
# in /home/bonan/nas/work/m3gnet/with-u-rerun-extras
# on kiwi-c
# by bonan
#
# compiler GCC version 11.3.0
# options -cpp -imultiarch x86_64-linux-gnu -mtune=generic -march=x86-64 -g -Og -fpre-include=/usr/include/finclude/math-vector-fortran.h
#
# seed  -585615144   854537332  -636564832     -774574  2089454234   476068672  1004863814  -390089930
#
#      Author: C. J. Pickard (cjp20@cam.ac.uk)
#                Space group: Cc
#

%BLOCK LATTICE_ABC
      6.49849      7.76309      7.76309
    118.50664    100.84488    100.84488
%ENDBLOCK LATTICE_ABC

%BLOCK POSITIONS_FRAC
  Li  -0.3643386  -0.0073054   0.2375633 SPIN=   0.00000
  Li   0.1356614  -0.2624367   0.4926946 SPIN=   0.00000
  Li  -0.2034348  -0.3661084  -0.0019638 SPIN=   0.00000
  Li   0.2965652   0.4980362   0.1338916 SPIN=   0.00000
   O  -0.2484951   0.1152794   0.0378345 SPIN=   0.00000
   O   0.1692574   0.3153771   0.2440897 SPIN=   0.00000
   O  -0.0432170   0.4623505   0.0820127 SPIN=   0.00000
   O  -0.1127083   0.4631160   0.3888927 SPIN=   0.00000
   P  -0.0695278   0.3285814   0.1825691 SPIN=   0.00000
   O   0.2515049  -0.4621655  -0.3847206 SPIN=   0.00000
   O   0.6692574  -0.2559103  -0.1846229 SPIN=   0.00000
   O   0.4567830  -0.4179873  -0.0376495 SPIN=   0.00000
   O   0.3872917  -0.1111073  -0.0368840 SPIN=   0.00000
   P   0.4304722  -0.3174309  -0.1714186 SPIN=   0.00000
   O   0.3347066  -0.1893302   0.2458600 SPIN=   0.00000
   O   0.2743318   0.0497596   0.5926969 SPIN=   0.00000
   O   0.4570860   0.2113837   0.4298628 SPIN=   0.00000
   O   0.0528911   0.0084549   0.2663277 SPIN=   0.00000
   P   0.2800026   0.0087806   0.3749633 SPIN=   0.00000
   O  -0.1652934  -0.2541400  -0.6893302 SPIN=   0.00000
   O  -0.2256682   0.0926969  -0.4502404 SPIN=   0.00000
   O  -0.0429140  -0.0701372  -0.2886163 SPIN=   0.00000
   O  -0.4471089  -0.2336723  -0.4915451 SPIN=   0.00000
   P  -0.2199974  -0.1250367  -0.4912194 SPIN=   0.00000
  Fe  -0.4087396   0.1335006  -0.2086318 SPIN=   2.74909
  Fe   0.0912604   0.2913682  -0.3664994 SPIN=   2.74909
  Fe   0.1299963   0.0142016   0.0094308 SPIN=   5.25091
  Fe  -0.3700037  -0.4905692  -0.4857984 SPIN=   5.25091
%ENDBLOCK POSITIONS_FRAC

# Note: total spin =  16.00

KPOINTS_MP_SPACING 0.07

%BLOCK SPECIES_POT
QC5
%ENDBLOCK SPECIES_POT

SNAP_TO_SYMMETRY
SYMMETRY_GENERATE

