#              Generated by Buildcell
#
# at 14:24:36 (GMT+0.0) 26th March 2023
# in /home/bonan/nas/work/m3gnet/with-u-rerun-extras
# on kiwi-c
# by bonan
#
# compiler GCC version 11.3.0
# options -cpp -imultiarch x86_64-linux-gnu -mtune=generic -march=x86-64 -g -Og -fpre-include=/usr/include/finclude/math-vector-fortran.h
#
# seed  1884752568   610151645  1349543857   394436579  -934297985    57626776 -1168241911  1866239035
#
#      Author: C. J. Pickard (cjp20@cam.ac.uk)
#                Space group: P-1
#

%BLOCK LATTICE_ABC
      6.61806      6.82267      7.83792
     80.86331     85.26054     66.35090
%ENDBLOCK LATTICE_ABC

%BLOCK POSITIONS_FRAC
  Li  -0.4303559  -0.1358589  -0.3059829 SPIN=   0.00000
  Li   0.4303559   0.1358589   0.3059829 SPIN=   0.00000
  Li   0.0000000  -0.5000000  -0.5000000 SPIN=   0.00000
  Li  -0.0000000  -0.0000000   0.5000000 SPIN=   0.00000
   O  -0.2431618   0.4089288  -0.2533468 SPIN=   0.00000
   O  -0.0211023  -0.0034804  -0.1722127 SPIN=   0.00000
   O  -0.4050750   0.1565162  -0.0624450 SPIN=   0.00000
   O  -0.3329476   0.1251156  -0.3777350 SPIN=   0.00000
   P  -0.2511492   0.1838470  -0.2203038 SPIN=   0.00000
   O   0.2431618  -0.4089288   0.2533468 SPIN=   0.00000
   O   0.0211023   0.0034804   0.1722127 SPIN=   0.00000
   O   0.4050750  -0.1565162   0.0624450 SPIN=   0.00000
   O   0.3329476  -0.1251156   0.3777350 SPIN=   0.00000
   P   0.2511492  -0.1838470   0.2203038 SPIN=   0.00000
   O  -0.1240966   0.4037091   0.0378653 SPIN=   0.00000
   O  -0.2975864   0.2691059   0.3172927 SPIN=   0.00000
   O   0.0770297   0.2616052   0.3309099 SPIN=   0.00000
   O  -0.2475818   0.6168694   0.2985363 SPIN=   0.00000
   P  -0.1479574   0.3913713   0.2356791 SPIN=   0.00000
   O   0.1240966  -0.4037091  -0.0378653 SPIN=   0.00000
   O   0.2975864  -0.2691059  -0.3172927 SPIN=   0.00000
   O  -0.0770297  -0.2616052  -0.3309099 SPIN=   0.00000
   O   0.2475818  -0.6168694  -0.2985363 SPIN=   0.00000
   P   0.1479574  -0.3913713  -0.2356791 SPIN=   0.00000
  Fe  -0.1415784  -0.1954134   0.1005194 SPIN=   3.11066
  Fe   0.1415784   0.1954134  -0.1005194 SPIN=   3.11066
  Fe   0.5000000  -0.5000000   0.5000000 SPIN=   4.89988
  Fe   0.5000000  -0.5000000  -0.0000000 SPIN=   4.87880
%ENDBLOCK POSITIONS_FRAC

# Note: total spin =  16.00

KPOINTS_MP_SPACING 0.07

%BLOCK SPECIES_POT
QC5
%ENDBLOCK SPECIES_POT

SNAP_TO_SYMMETRY
SYMMETRY_GENERATE

