#              Generated by Buildcell
#
# at 14:42:07 (GMT+0.0) 26th March 2023
# in /home/bonan/nas/work/m3gnet/with-u-rerun-extras
# on kiwi-c
# by bonan
#
# compiler GCC version 11.3.0
# options -cpp -imultiarch x86_64-linux-gnu -mtune=generic -march=x86-64 -g -Og -fpre-include=/usr/include/finclude/math-vector-fortran.h
#
# seed -1361212158   -26744169 -2031949842 -1340958807  -874500112 -1401390938 -1379334090 -2011969750
#
#      Author: C. J. Pickard (cjp20@cam.ac.uk)
#                Space group: C2
#

%BLOCK LATTICE_ABC
      5.44204      5.44204     11.26460
    101.52004    101.52004     90.11292
%ENDBLOCK LATTICE_ABC

%BLOCK POSITIONS_FRAC
  Li   0.5232426  -0.1480733   0.3185046 SPIN=   0.00000
  Li   0.1480733  -0.5232426  -0.3185046 SPIN=   0.00000
  Li   0.0390670  -0.1549355   0.1351346 SPIN=   0.00000
  Li   0.1549355  -0.0390670  -0.1351346 SPIN=   0.00000
   O  -0.4504654   0.0973086  -0.0917684 SPIN=   0.00000
   O  -0.5451376  -0.3739511  -0.0984993 SPIN=   0.00000
   O  -0.1023183  -0.2229150  -0.0594519 SPIN=   0.00000
   O  -0.3546435  -0.0932807   0.1040814 SPIN=   0.00000
   P  -0.3676905  -0.1344887  -0.0376992 SPIN=   0.00000
   O  -0.0973086   0.4504654   0.0917684 SPIN=   0.00000
   O   0.3739511   0.5451376   0.0984993 SPIN=   0.00000
   O   0.2229150   0.1023183   0.0594519 SPIN=   0.00000
   O   0.0932807   0.3546435  -0.1040814 SPIN=   0.00000
   P   0.1344887   0.3676905   0.0376992 SPIN=   0.00000
   O  -0.2200531   0.5036449   0.3445321 SPIN=   0.00000
   O   0.1179415   0.2988630   0.4871755 SPIN=   0.00000
   O   0.0992944   0.1946310   0.2617677 SPIN=   0.00000
   O   0.2523788   0.6245052   0.3816669 SPIN=   0.00000
   P   0.0495937   0.4132271   0.3676462 SPIN=   0.00000
   O  -0.5036449   0.2200531  -0.3445321 SPIN=   0.00000
   O  -0.2988630  -0.1179415  -0.4871755 SPIN=   0.00000
   O  -0.1946310  -0.0992944  -0.2617677 SPIN=   0.00000
   O  -0.6245052  -0.2523788  -0.3816669 SPIN=   0.00000
   P  -0.4132271  -0.0495937  -0.3676462 SPIN=   0.00000
  Fe  -0.2916726  -0.6300327  -0.1622154 SPIN=   3.46795
  Fe   0.6300327   0.2916726   0.1622154 SPIN=   3.46795
  Fe   0.0779211   0.9220789   0.5000000 SPIN=   6.80518
  Fe  -0.4250988  -0.5749012  -0.5000000 SPIN=   2.25892
%ENDBLOCK POSITIONS_FRAC

# Note: total spin =  16.00

KPOINTS_MP_SPACING 0.07

%BLOCK SPECIES_POT
QC5
%ENDBLOCK SPECIES_POT

SNAP_TO_SYMMETRY
SYMMETRY_GENERATE

