#              Generated by Buildcell
#
# at 14:49:04 (GMT+0.0) 26th March 2023
# in /home/bonan/nas/work/m3gnet/with-u-rerun-extras
# on kiwi-c
# by bonan
#
# compiler GCC version 11.3.0
# options -cpp -imultiarch x86_64-linux-gnu -mtune=generic -march=x86-64 -g -Og -fpre-include=/usr/include/finclude/math-vector-fortran.h
#
# seed -1783651728  -984676466   872697229  1720513952   757853857  1733809671    81337165  -555113637
#
#      Author: C. J. Pickard (cjp20@cam.ac.uk)
#                Space group: P212121
#

%BLOCK LATTICE_ABC
      5.98657      7.28430      7.33810
     90.00000     90.00000     90.00000
%ENDBLOCK LATTICE_ABC

%BLOCK POSITIONS_FRAC
  Li  -0.1078317   0.3162668  -0.1724906 SPIN=   0.00000
  Li   0.1078317   0.1837332   0.3275094 SPIN=   0.00000
  Li   0.3921683  -0.3162668  -0.3275094 SPIN=   0.00000
  Li  -0.3921683  -0.1837332   0.1724906 SPIN=   0.00000
   O  -0.0844567   0.0508693   0.6053995 SPIN=   0.00000
   O  -0.1892471   0.0338788   0.2622380 SPIN=   0.00000
   O  -0.4324801  -0.1239380   0.4844516 SPIN=   0.00000
   O  -0.4276993   0.2196642   0.4734679 SPIN=   0.00000
   P  -0.2745763   0.0474846   0.4645248 SPIN=   0.00000
   O   0.0844567   0.4491307   0.1053995 SPIN=   0.00000
   O   0.1892471   0.4661212  -0.2377620 SPIN=   0.00000
   O   0.4324801   0.6239380  -0.0155484 SPIN=   0.00000
   O   0.4276993   0.2803358  -0.0265321 SPIN=   0.00000
   P   0.2745763   0.4525154  -0.0354752 SPIN=   0.00000
   O   0.4155433  -0.0508693  -0.1053995 SPIN=   0.00000
   O   0.3107529  -0.0338788   0.2377620 SPIN=   0.00000
   O   0.0675199   0.1239380   0.0155484 SPIN=   0.00000
   O   0.0723007  -0.2196642   0.0265321 SPIN=   0.00000
   P   0.2254237  -0.0474846   0.0354752 SPIN=   0.00000
   O  -0.4155433  -0.4491307  -0.6053995 SPIN=   0.00000
   O  -0.3107529  -0.4661212  -0.2622380 SPIN=   0.00000
   O  -0.0675199  -0.6239380  -0.4844516 SPIN=   0.00000
   O  -0.0723007  -0.2803358  -0.4734679 SPIN=   0.00000
   P  -0.2254237  -0.4525154  -0.4645248 SPIN=   0.00000
  Fe   0.3903759   0.1688458  -0.2878569 SPIN=   4.00000
  Fe  -0.3903759   0.3311542   0.2121431 SPIN=   4.00000
  Fe  -0.1096241  -0.1688458  -0.2121431 SPIN=   4.00000
  Fe   0.1096241  -0.3311542   0.2878569 SPIN=   4.00000
%ENDBLOCK POSITIONS_FRAC

# Note: total spin =  16.00

KPOINTS_MP_SPACING 0.07

%BLOCK SPECIES_POT
QC5
%ENDBLOCK SPECIES_POT

SNAP_TO_SYMMETRY
SYMMETRY_GENERATE

