#              Generated by Buildcell
#
# at 14:40:18 (GMT+0.0) 26th March 2023
# in /home/bonan/nas/work/m3gnet/with-u-rerun-extras
# on kiwi-c
# by bonan
#
# compiler GCC version 11.3.0
# options -cpp -imultiarch x86_64-linux-gnu -mtune=generic -march=x86-64 -g -Og -fpre-include=/usr/include/finclude/math-vector-fortran.h
#
# seed  1471685099 -1435774112   358427790  2115787090 -1626534284   547761047  1952053680 -1919747194
#
#      Author: C. J. Pickard (cjp20@cam.ac.uk)
#                Space group: Cc
#

%BLOCK LATTICE_ABC
      5.91339      5.91339     10.04030
     73.87293     73.87293     77.18789
%ENDBLOCK LATTICE_ABC

%BLOCK POSITIONS_FRAC
  Li   0.3326994  -0.2744089  -0.4712982 SPIN=   0.00000
  Li  -0.2744089   0.3326994   0.0287018 SPIN=   0.00000
  Li   0.4364824   0.1847496  -0.3881201 SPIN=   0.00000
  Li   0.1847496   0.4364824   0.1118799 SPIN=   0.00000
   O   0.4527751   0.2526744  -0.0555692 SPIN=   0.00000
   O   0.3974886   0.7135780  -0.1450267 SPIN=   0.00000
   O   0.5012924   0.4685968  -0.3229505 SPIN=   0.00000
   O   0.0944154   0.4912223  -0.1601853 SPIN=   0.00000
   P   0.3632014   0.4694476  -0.1646635 SPIN=   0.00000
   O  -0.7473256   0.4527751   0.4444308 SPIN=   0.00000
   O  -0.2864220   0.3974886   0.3549733 SPIN=   0.00000
   O  -0.5314032   0.5012924   0.1770495 SPIN=   0.00000
   O  -0.5087777   0.0944154   0.3398147 SPIN=   0.00000
   P  -0.5305524   0.3632014   0.3353365 SPIN=   0.00000
   O   0.1321278  -0.1038762  -0.3082968 SPIN=   0.00000
   O  -0.0518019   0.3415127  -0.3219951 SPIN=   0.00000
   O  -0.3241363   0.0453762  -0.2537739 SPIN=   0.00000
   O  -0.0886265   0.0547812  -0.0835787 SPIN=   0.00000
   P  -0.0717140   0.0740710  -0.2435773 SPIN=   0.00000
   O  -0.1038762   0.1321278   0.1917032 SPIN=   0.00000
   O   0.3415127  -0.0518019   0.1780049 SPIN=   0.00000
   O   0.0453762  -0.3241363   0.2462261 SPIN=   0.00000
   O   0.0547812  -0.0886265   0.4164213 SPIN=   0.00000
   P   0.0740710  -0.0717140   0.2564227 SPIN=   0.00000
  Fe  -0.0031091   0.2509262   0.4551456 SPIN=   3.76877
  Fe   0.2509262  -0.0031091  -0.0448544 SPIN=   3.76877
  Fe  -0.3199967  -0.2175544   0.2093846 SPIN=   4.23123
  Fe   0.7824456  -0.3199967  -0.2906154 SPIN=   4.23123
%ENDBLOCK POSITIONS_FRAC

# Note: total spin =  16.00

KPOINTS_MP_SPACING 0.07

%BLOCK SPECIES_POT
QC5
%ENDBLOCK SPECIES_POT

SNAP_TO_SYMMETRY
SYMMETRY_GENERATE

