#              Generated by Buildcell
#
# at 14:28:24 (GMT+0.0) 26th March 2023
# in /home/bonan/nas/work/m3gnet/with-u-rerun-extras
# on kiwi-c
# by bonan
#
# compiler GCC version 11.3.0
# options -cpp -imultiarch x86_64-linux-gnu -mtune=generic -march=x86-64 -g -Og -fpre-include=/usr/include/finclude/math-vector-fortran.h
#
# seed  1316277227  1422365363   974134281   896358090  -452904422 -1620961326  1471915003 -1068917735
#
#      Author: C. J. Pickard (cjp20@cam.ac.uk)
#                Space group: C2221
#

%BLOCK LATTICE_ABC
      5.67703      7.02267      8.77526
     90.00000     90.00000    113.84054
%ENDBLOCK LATTICE_ABC

%BLOCK POSITIONS_FRAC
  Li   0.2008154  -0.4979159   0.1684386 SPIN=   0.00000
  Li  -0.2008154   0.4979159  -0.3315614 SPIN=   0.00000
  Li  -0.3012686   0.4979159   0.3315614 SPIN=   0.00000
  Li   0.3012686  -0.4979159  -0.1684386 SPIN=   0.00000
   O  -0.4474980  -0.5082796   0.1104706 SPIN=   0.00000
   O  -0.0421757  -0.2199318   0.2311469 SPIN=   0.00000
   O  -0.3444650  -0.1136124   0.0887007 SPIN=   0.00000
   O  -0.4765003  -0.2906996   0.3413904 SPIN=   0.00000
   O   0.4474980   0.5082796  -0.3895294 SPIN=   0.00000
   O   0.0421757   0.2199318  -0.2688531 SPIN=   0.00000
   O   0.3444650   0.1136124  -0.4112993 SPIN=   0.00000
   O   0.4765003   0.2906996  -0.1586096 SPIN=   0.00000
   O   0.0607816   0.5082796   0.3895294 SPIN=   0.00000
   O   0.1777561   0.2199318   0.2688531 SPIN=   0.00000
   O  -0.2308525   0.1136124   0.4112993 SPIN=   0.00000
   O  -0.1858007   0.2906996   0.1586096 SPIN=   0.00000
   O  -0.0607816  -0.5082796  -0.1104706 SPIN=   0.00000
   O  -0.1777561  -0.2199318  -0.2311469 SPIN=   0.00000
   O   0.2308525  -0.1136124  -0.0887007 SPIN=   0.00000
   O   0.1858007  -0.2906996  -0.3413904 SPIN=   0.00000
   P  -0.3592826   0.2814349  -0.0000000 SPIN=   0.00000
   P   0.3592826  -0.2814349   0.5000000 SPIN=   0.00000
   P   0.0327952   0.0000000  -0.2500000 SPIN=   0.00000
   P  -0.0327952  -0.0000000   0.2500000 SPIN=   0.00000
  Fe  -0.1379574  -0.2759149  -0.0000000 SPIN=   3.70850
  Fe   0.1379574   0.2759149   0.5000000 SPIN=   3.70850
  Fe  -0.4693195  -0.0000000  -0.2500000 SPIN=   4.29150
  Fe   0.4693195   0.0000000   0.2500000 SPIN=   4.29150
%ENDBLOCK POSITIONS_FRAC

# Note: total spin =  16.00

KPOINTS_MP_SPACING 0.07

%BLOCK SPECIES_POT
QC5
%ENDBLOCK SPECIES_POT

SNAP_TO_SYMMETRY
SYMMETRY_GENERATE

