#              Generated by Buildcell
#
# at 14:34:07 (GMT+0.0) 26th March 2023
# in /home/bonan/nas/work/m3gnet/with-u-rerun-extras
# on kiwi-c
# by bonan
#
# compiler GCC version 11.3.0
# options -cpp -imultiarch x86_64-linux-gnu -mtune=generic -march=x86-64 -g -Og -fpre-include=/usr/include/finclude/math-vector-fortran.h
#
# seed   333836002 -1078074143 -1035246297  -807856764 -2106499138  -277057299  -712391875   764429858
#
#      Author: C. J. Pickard (cjp20@cam.ac.uk)
#                Space group: P2
#

%BLOCK LATTICE_ABC
      6.18918      7.17125      7.33149
     90.00000     90.00000    100.45480
%ENDBLOCK LATTICE_ABC

%BLOCK POSITIONS_FRAC
  Li   0.1146672   0.2685693   0.3141184 SPIN=   0.00000
  Li  -0.1146672  -0.2685693   0.3141184 SPIN=   0.00000
  Li   0.4157380   0.2734727  -0.3542719 SPIN=   0.00000
  Li  -0.4157380  -0.2734727  -0.3542719 SPIN=   0.00000
   O  -0.2087198   0.5185196   0.5103265 SPIN=   0.00000
   O  -0.5378137   0.3155280   0.3400584 SPIN=   0.00000
   O  -0.1937040   0.4230415   0.1693473 SPIN=   0.00000
   O  -0.2061340   0.1736239   0.4101445 SPIN=   0.00000
   P  -0.2814971   0.3640702   0.3662297 SPIN=   0.00000
   O   0.2087198  -0.5185196   0.5103265 SPIN=   0.00000
   O   0.5378137  -0.3155280   0.3400584 SPIN=   0.00000
   O   0.1937040  -0.4230415   0.1693473 SPIN=   0.00000
   O   0.2061340  -0.1736239   0.4101445 SPIN=   0.00000
   P   0.2814971  -0.3640702   0.3662297 SPIN=   0.00000
   O   0.1763814  -0.0573338  -0.2776890 SPIN=   0.00000
   O   0.3303422  -0.3447967  -0.1497800 SPIN=   0.00000
   O   0.2770090  -0.0902980   0.0633814 SPIN=   0.00000
   O  -0.0511537  -0.3060341  -0.0655496 SPIN=   0.00000
   O  -0.1763814   0.0573338  -0.2776890 SPIN=   0.00000
   O  -0.3303422   0.3447967  -0.1497800 SPIN=   0.00000
   O  -0.2770090   0.0902980   0.0633814 SPIN=   0.00000
   O   0.0511537   0.3060341  -0.0655496 SPIN=   0.00000
   P  -0.0000000   0.0000000  -0.4338393 SPIN=   0.00000
   P   0.5000000  -0.0000000  -0.1276746 SPIN=   0.00000
  Fe  -0.5000000   0.0000000   0.2738254 SPIN=   3.68399
  Fe  -0.0000000  -0.0000000  -0.0473135 SPIN=   5.26411
  Fe  -0.5000000   0.5000000   0.0498342 SPIN=   5.25067
  Fe   0.0000000  -0.5000000  -0.2690453 SPIN=   1.80124
%ENDBLOCK POSITIONS_FRAC

# Note: total spin =  16.00

KPOINTS_MP_SPACING 0.07

%BLOCK SPECIES_POT
QC5
%ENDBLOCK SPECIES_POT

SNAP_TO_SYMMETRY
SYMMETRY_GENERATE

