#              Generated by Buildcell
#
# at 14:45:38 (GMT+0.0) 26th March 2023
# in /home/bonan/nas/work/m3gnet/with-u-rerun-extras
# on kiwi-c
# by bonan
#
# compiler GCC version 11.3.0
# options -cpp -imultiarch x86_64-linux-gnu -mtune=generic -march=x86-64 -g -Og -fpre-include=/usr/include/finclude/math-vector-fortran.h
#
# seed  -204187745  1833492192 -1786203916   397915723 -1503008559 -1972332392   184758924   691781647
#
#      Author: C. J. Pickard (cjp20@cam.ac.uk)
#                Space group: P2
#

%BLOCK LATTICE_ABC
      5.75390      6.83715      8.13480
     90.00000     90.00000     90.71441
%ENDBLOCK LATTICE_ABC

%BLOCK POSITIONS_FRAC
  Li   0.2489649  -0.0662342  -0.3167572 SPIN=   0.00000
  Li  -0.2489649   0.0662342  -0.3167572 SPIN=   0.00000
  Li  -0.2489492  -0.4286563  -0.3260579 SPIN=   0.00000
  Li   0.2489492   0.4286563  -0.3260579 SPIN=   0.00000
   O  -0.2126554  -0.0263802   0.3095024 SPIN=   0.00000
   O  -0.0294476  -0.2822318   0.5051364 SPIN=   0.00000
   O  -0.4564455  -0.2493283   0.5043363 SPIN=   0.00000
   O  -0.2583966  -0.3982785   0.2613478 SPIN=   0.00000
   P  -0.2380470  -0.2296098   0.3889459 SPIN=   0.00000
   O   0.2126554   0.0263802   0.3095024 SPIN=   0.00000
   O   0.0294476   0.2822318   0.5051364 SPIN=   0.00000
   O   0.4564455   0.2493283   0.5043363 SPIN=   0.00000
   O   0.2583966   0.3982785   0.2613478 SPIN=   0.00000
   P   0.2380470   0.2296098   0.3889459 SPIN=   0.00000
   O   0.2136647  -0.5147924  -0.0316877 SPIN=   0.00000
   O   0.3816091  -0.2026190   0.1091199 SPIN=   0.00000
   O   0.4766680  -0.2608277  -0.1827633 SPIN=   0.00000
   O   0.0715343  -0.1686157  -0.1046592 SPIN=   0.00000
   P   0.2794951  -0.2974641  -0.0520051 SPIN=   0.00000
   O  -0.2136647   0.5147924  -0.0316877 SPIN=   0.00000
   O  -0.3816091   0.2026190   0.1091199 SPIN=   0.00000
   O  -0.4766680   0.2608277  -0.1827633 SPIN=   0.00000
   O  -0.0715343   0.1686157  -0.1046592 SPIN=   0.00000
   P  -0.2794951   0.2974641  -0.0520051 SPIN=   0.00000
  Fe   0.2509553  -0.3071637   0.3339113 SPIN=   4.00539
  Fe  -0.2509553   0.3071637   0.3339113 SPIN=   4.00539
  Fe  -0.2508504  -0.1901975   0.0268579 SPIN=   3.99461
  Fe   0.2508504   0.1901975   0.0268579 SPIN=   3.99461
%ENDBLOCK POSITIONS_FRAC

# Note: total spin =  16.00

KPOINTS_MP_SPACING 0.07

%BLOCK SPECIES_POT
QC5
%ENDBLOCK SPECIES_POT

SNAP_TO_SYMMETRY
SYMMETRY_GENERATE

