#              Generated by Buildcell
#
# at 14:26:23 (GMT+0.0) 26th March 2023
# in /home/bonan/nas/work/m3gnet/with-u-rerun-extras
# on kiwi-c
# by bonan
#
# compiler GCC version 11.3.0
# options -cpp -imultiarch x86_64-linux-gnu -mtune=generic -march=x86-64 -g -Og -fpre-include=/usr/include/finclude/math-vector-fortran.h
#
# seed   283280930 -1493748034 -1733437875 -1536870743  -343830800   276666949 -1808921690 -1271466550
#
#      Author: C. J. Pickard (cjp20@cam.ac.uk)
#                Space group: Ima2
#

%BLOCK LATTICE_ABC
      7.08967      7.77841      7.77841
     61.66765     62.88823     62.88823
%ENDBLOCK LATTICE_ABC

%BLOCK POSITIONS_FRAC
  Li  -0.3740634   0.0948223   0.4051777 SPIN=   0.00000
  Li   0.3740634  -0.4051777  -0.0948223 SPIN=   0.00000
  Li  -0.0000000  -0.0871621   0.0871621 SPIN=   0.00000
  Li  -0.5000000   0.4128379  -0.4128379 SPIN=   0.00000
   O  -0.2025880   0.6910128   0.5934791 SPIN=   0.00000
   O  -0.2125982   0.5131669   0.3884170 SPIN=   0.00000
   O  -0.5694120   0.7085560   0.5776350 SPIN=   0.00000
   O  -0.3195728   0.8965418   0.2634176 SPIN=   0.00000
   P  -0.3193930   0.7040094   0.4608016 SPIN=   0.00000
   O   0.2025880  -0.5934791   0.3089872 SPIN=   0.00000
   O   0.2125982  -0.3884170   0.4868331 SPIN=   0.00000
   O   0.5694120  -0.5776350   0.2914440 SPIN=   0.00000
   O   0.3195728  -0.2634176   0.1034582 SPIN=   0.00000
   P   0.3193930  -0.4608016   0.2959906 SPIN=   0.00000
   O  -0.5819038   0.1910128   0.0934791 SPIN=   0.00000
   O  -0.1889856   0.0131669  -0.1115830 SPIN=   0.00000
   O  -0.2167791   0.2085560   0.0776350 SPIN=   0.00000
   O  -0.3403866   0.3965418  -0.2365824 SPIN=   0.00000
   P  -0.3454180   0.2040094  -0.0391984 SPIN=   0.00000
   O   0.5819038  -0.0934791  -0.1910128 SPIN=   0.00000
   O   0.1889856   0.1115830  -0.0131669 SPIN=   0.00000
   O   0.2167791  -0.0776350  -0.2085560 SPIN=   0.00000
   O   0.3403866   0.2365824  -0.3965418 SPIN=   0.00000
   P   0.3454180   0.0391984  -0.2040094 SPIN=   0.00000
  Fe  -0.0070570   0.3547248   0.1452752 SPIN=   3.67290
  Fe   0.0070570  -0.1452752  -0.3547248 SPIN=   3.67290
  Fe   0.5000000  -0.1389127   0.1389127 SPIN=   4.32710
  Fe  -0.0000000   0.3610873  -0.3610873 SPIN=   4.32710
%ENDBLOCK POSITIONS_FRAC

# Note: total spin =  16.00

KPOINTS_MP_SPACING 0.07

%BLOCK SPECIES_POT
QC5
%ENDBLOCK SPECIES_POT

SNAP_TO_SYMMETRY
SYMMETRY_GENERATE

