#              Generated by Buildcell
#
# at 14:27:34 (GMT+0.0) 26th March 2023
# in /home/bonan/nas/work/m3gnet/with-u-rerun-extras
# on kiwi-c
# by bonan
#
# compiler GCC version 11.3.0
# options -cpp -imultiarch x86_64-linux-gnu -mtune=generic -march=x86-64 -g -Og -fpre-include=/usr/include/finclude/math-vector-fortran.h
#
# seed  -199168430 -1416413932  1841684469   308957783   -91008702 -1693711614 -1417291422   732070574
#
#      Author: C. J. Pickard (cjp20@cam.ac.uk)
#                Space group: Cc
#

%BLOCK LATTICE_ABC
      6.72503      6.72503      7.26738
     95.80241     95.80241     99.66978
%ENDBLOCK LATTICE_ABC

%BLOCK POSITIONS_FRAC
  Li   0.0476333   0.2057644  -0.1115809 SPIN=   0.00000
  Li  -0.2942356  -0.4523667   0.3884191 SPIN=   0.00000
  Li  -0.4737038   0.1113446   0.3923856 SPIN=   0.00000
  Li  -0.3886554   0.0262962  -0.1076144 SPIN=   0.00000
   O   0.3788815   0.0533373  -0.3714103 SPIN=   0.00000
   O   0.1704007  -0.3050544  -0.4944645 SPIN=   0.00000
   O   0.5302556  -0.2294114  -0.5497182 SPIN=   0.00000
   O   0.4442448  -0.2683879  -0.2264234 SPIN=   0.00000
   P   0.3815827  -0.1755181  -0.4062502 SPIN=   0.00000
   O   0.5533373  -0.1211185   0.1285897 SPIN=   0.00000
   O   0.1949456  -0.3295993   0.0055355 SPIN=   0.00000
   O   0.2705886   0.0302556  -0.0497182 SPIN=   0.00000
   O   0.2316121  -0.0557552   0.2735766 SPIN=   0.00000
   P   0.3244819  -0.1184173   0.0937498 SPIN=   0.00000
   O  -0.2069031  -0.2400394  -0.0709174 SPIN=   0.00000
   O  -0.0636711  -0.3930383   0.2178036 SPIN=   0.00000
   O  -0.4310980  -0.4863411   0.1100945 SPIN=   0.00000
   O  -0.1823729  -0.6201411  -0.0816102 SPIN=   0.00000
   P  -0.2198041  -0.4267013   0.0362517 SPIN=   0.00000
   O   0.2599606   0.2930969  -0.5709174 SPIN=   0.00000
   O   0.1069617   0.4363289  -0.2821964 SPIN=   0.00000
   O   0.0136589   0.0689020  -0.3899055 SPIN=   0.00000
   O  -0.1201411   0.3176271  -0.5816102 SPIN=   0.00000
   P   0.0732987   0.2801959  -0.4637483 SPIN=   0.00000
  Fe   0.4650360   0.4252584  -0.2559538 SPIN=   6.42231
  Fe  -0.0747416  -0.0349640   0.2440462 SPIN=   6.42231
  Fe   0.2210289  -0.4784671   0.2615997 SPIN=   1.57769
  Fe   0.0215329  -0.2789711  -0.2384003 SPIN=   1.57769
%ENDBLOCK POSITIONS_FRAC

# Note: total spin =  16.00

KPOINTS_MP_SPACING 0.07

%BLOCK SPECIES_POT
QC5
%ENDBLOCK SPECIES_POT

SNAP_TO_SYMMETRY
SYMMETRY_GENERATE

