#              Generated by Buildcell
#
# at 14:43:13 (GMT+0.0) 26th March 2023
# in /home/bonan/nas/work/m3gnet/with-u-rerun-extras
# on kiwi-c
# by bonan
#
# compiler GCC version 11.3.0
# options -cpp -imultiarch x86_64-linux-gnu -mtune=generic -march=x86-64 -g -Og -fpre-include=/usr/include/finclude/math-vector-fortran.h
#
# seed  -903358786  1340188793  -718626949 -1696751140  -842297923 -2091997764  2097600904  -322090287
#
#      Author: C. J. Pickard (cjp20@cam.ac.uk)
#                Space group: P21
#

%BLOCK LATTICE_ABC
      5.55195      6.66072      8.74150
     90.00000     98.14460     90.00000
%ENDBLOCK LATTICE_ABC

%BLOCK POSITIONS_FRAC
  Li   0.3418561  -0.0962157   0.3062896 SPIN=   0.00000
  Li  -0.3418561   0.4037843  -0.3062896 SPIN=   0.00000
  Li   0.2143771  -0.2360697  -0.0255361 SPIN=   0.00000
  Li  -0.2143771   0.2639303   0.0255361 SPIN=   0.00000
   O   0.1524020   0.1380669   0.0813473 SPIN=   0.00000
   O   0.0791789   0.3547288  -0.1680593 SPIN=   0.00000
   O   0.4650775   0.1666684  -0.1123599 SPIN=   0.00000
   O   0.0757091  -0.0200754  -0.1910006 SPIN=   0.00000
   P   0.1895401   0.1565642  -0.0890976 SPIN=   0.00000
   O  -0.1524020  -0.3619331  -0.0813473 SPIN=   0.00000
   O  -0.0791789  -0.1452712   0.1680593 SPIN=   0.00000
   O  -0.4650775  -0.3333316   0.1123599 SPIN=   0.00000
   O  -0.0757091  -0.5200754   0.1910006 SPIN=   0.00000
   P  -0.1895401  -0.3434358   0.0890976 SPIN=   0.00000
   O  -0.0136306  -0.3364399  -0.3361139 SPIN=   0.00000
   O   0.3794276  -0.1504338  -0.3854632 SPIN=   0.00000
   O   0.4092712  -0.3994135  -0.1742219 SPIN=   0.00000
   O   0.3337844  -0.5162698  -0.4491498 SPIN=   0.00000
   P   0.2623948  -0.3518378  -0.3375631 SPIN=   0.00000
   O   0.0136306   0.1635601   0.3361139 SPIN=   0.00000
   O  -0.3794276   0.3495662   0.3854632 SPIN=   0.00000
   O  -0.4092712   0.1005865   0.1742219 SPIN=   0.00000
   O  -0.3337844  -0.0162698   0.4491498 SPIN=   0.00000
   P  -0.2623948   0.1481622   0.3375631 SPIN=   0.00000
  Fe   0.1335822   0.1804012  -0.4159142 SPIN=   5.23811
  Fe  -0.1335822  -0.3195988   0.4159142 SPIN=   5.23811
  Fe   0.3254247   0.3795701   0.2048417 SPIN=   2.76189
  Fe  -0.3254247  -0.1204299  -0.2048417 SPIN=   2.76189
%ENDBLOCK POSITIONS_FRAC

# Note: total spin =  16.00

KPOINTS_MP_SPACING 0.07

%BLOCK SPECIES_POT
QC5
%ENDBLOCK SPECIES_POT

SNAP_TO_SYMMETRY
SYMMETRY_GENERATE

