#              Generated by Buildcell
#
# at 14:25:28 (GMT+0.0) 26th March 2023
# in /home/bonan/nas/work/m3gnet/with-u-rerun-extras
# on kiwi-c
# by bonan
#
# compiler GCC version 11.3.0
# options -cpp -imultiarch x86_64-linux-gnu -mtune=generic -march=x86-64 -g -Og -fpre-include=/usr/include/finclude/math-vector-fortran.h
#
# seed -1738032976 -1054979232   269730999  -831805272 -1049638231  1446560292   160568602 -1560894143
#
#      Author: C. J. Pickard (cjp20@cam.ac.uk)
#                Space group: P2
#

%BLOCK LATTICE_ABC
      5.90667      7.11870      7.80775
     90.00000    102.91005     90.00000
%ENDBLOCK LATTICE_ABC

%BLOCK POSITIONS_FRAC
  Li  -0.5000000   0.3747697   0.5000000 SPIN=   0.00000
  Li  -0.5000000  -0.2084312  -0.5000000 SPIN=   0.00000
  Li   0.0000000   0.3178636  -0.5000000 SPIN=   0.00000
  Li  -0.0000000  -0.1140746   0.5000000 SPIN=   0.00000
   O   0.5512652  -0.4255237   0.3165346 SPIN=   0.00000
   O   0.2115199  -0.6123920   0.1215062 SPIN=   0.00000
   O   0.1224505  -0.3945773   0.3437799 SPIN=   0.00000
   O   0.2378055  -0.2653032   0.0773487 SPIN=   0.00000
   P   0.2946564  -0.4226282   0.2185876 SPIN=   0.00000
   O  -0.5512652  -0.4255237  -0.3165346 SPIN=   0.00000
   O  -0.2115199  -0.6123920  -0.1215062 SPIN=   0.00000
   O  -0.1224505  -0.3945773  -0.3437799 SPIN=   0.00000
   O  -0.2378055  -0.2653032  -0.0773487 SPIN=   0.00000
   P  -0.2946564  -0.4226282  -0.2185876 SPIN=   0.00000
   O  -0.0099611  -0.0683978  -0.2359314 SPIN=   0.00000
   O   0.4251777  -0.0914451  -0.2479903 SPIN=   0.00000
   O   0.2394235   0.2213132  -0.2782631 SPIN=   0.00000
   P   0.2306233   0.0250323  -0.1874541 SPIN=   0.00000
   O   0.0099611  -0.0683978   0.2359314 SPIN=   0.00000
   O  -0.4251777  -0.0914451   0.2479903 SPIN=   0.00000
   O  -0.2394235   0.2213132   0.2782631 SPIN=   0.00000
   P  -0.2306233   0.0250323   0.1874541 SPIN=   0.00000
   O  -0.5000000   0.1304454  -0.0000000 SPIN=   0.00000
   O   0.5000000   0.0839620   0.5000000 SPIN=   0.00000
  Fe  -0.2860972   0.0862870  -0.1796119 SPIN=   2.86189
  Fe   0.2860972   0.0862870   0.1796119 SPIN=   2.86189
  Fe  -0.2002839  -0.3990257   0.1660311 SPIN=   5.13811
  Fe   0.2002839  -0.3990257  -0.1660311 SPIN=   5.13811
%ENDBLOCK POSITIONS_FRAC

# Note: total spin =  16.00

KPOINTS_MP_SPACING 0.07

%BLOCK SPECIES_POT
QC5
%ENDBLOCK SPECIES_POT

SNAP_TO_SYMMETRY
SYMMETRY_GENERATE

