#              Generated by Buildcell
#
# at 14:38:11 (GMT+0.0) 26th March 2023
# in /home/bonan/nas/work/m3gnet/with-u-rerun-extras
# on kiwi-c
# by bonan
#
# compiler GCC version 11.3.0
# options -cpp -imultiarch x86_64-linux-gnu -mtune=generic -march=x86-64 -g -Og -fpre-include=/usr/include/finclude/math-vector-fortran.h
#
# seed -1409251026   471126751  1369145069   468010810 -1539193470  1199595717  1738113786  1786614648
#
#      Author: C. J. Pickard (cjp20@cam.ac.uk)
#                Space group: P-1
#

%BLOCK LATTICE_ABC
      6.47324      6.71065      8.27821
    104.00423    111.34444     93.98829
%ENDBLOCK LATTICE_ABC

%BLOCK POSITIONS_FRAC
  Li   0.3147547  -0.4123792   0.3482091 SPIN=   0.00000
  Li  -0.3147547   0.4123792  -0.3482091 SPIN=   0.00000
  Li  -0.1516086  -0.2338075  -0.0022139 SPIN=   0.00000
  Li   0.1516086   0.2338075   0.0022139 SPIN=   0.00000
   O  -0.3561149  -0.3487766   0.1678174 SPIN=   0.00000
   O  -0.0678648  -0.3350335   0.4872833 SPIN=   0.00000
   O  -0.0526953  -0.5867903   0.2210148 SPIN=   0.00000
   O   0.0675395  -0.2047546   0.2778441 SPIN=   0.00000
   P  -0.1137950  -0.3658342   0.2819391 SPIN=   0.00000
   O   0.3561149   0.3487766  -0.1678174 SPIN=   0.00000
   O   0.0678648   0.3350335  -0.4872833 SPIN=   0.00000
   O   0.0526953   0.5867903  -0.2210148 SPIN=   0.00000
   O  -0.0675395   0.2047546  -0.2778441 SPIN=   0.00000
   P   0.1137950   0.3658342  -0.2819391 SPIN=   0.00000
   O  -0.6048188   0.0554497   0.0960862 SPIN=   0.00000
   O  -0.3971318  -0.0261845   0.4001546 SPIN=   0.00000
   O  -0.1728914   0.0632806   0.2337173 SPIN=   0.00000
   O  -0.3375900   0.3402865   0.3845147 SPIN=   0.00000
   P  -0.3897011   0.1081377   0.2701490 SPIN=   0.00000
   O   0.6048188  -0.0554497  -0.0960862 SPIN=   0.00000
   O   0.3971318   0.0261845  -0.4001546 SPIN=   0.00000
   O   0.1728914  -0.0632806  -0.2337173 SPIN=   0.00000
   O   0.3375900  -0.3402865  -0.3845147 SPIN=   0.00000
   P   0.3897011  -0.1081377  -0.2701490 SPIN=   0.00000
  Fe  -0.2003982  -0.1128061  -0.3736024 SPIN=   2.85069
  Fe   0.2003982   0.1128061   0.3736024 SPIN=   2.85069
  Fe   0.3471715  -0.2674475   0.0065240 SPIN=   5.14931
  Fe  -0.3471715   0.2674475  -0.0065240 SPIN=   5.14931
%ENDBLOCK POSITIONS_FRAC

# Note: total spin =  16.00

KPOINTS_MP_SPACING 0.07

%BLOCK SPECIES_POT
QC5
%ENDBLOCK SPECIES_POT

SNAP_TO_SYMMETRY
SYMMETRY_GENERATE

