#              Generated by Buildcell
#
# at 14:47:34 (GMT+0.0) 26th March 2023
# in /home/bonan/nas/work/m3gnet/with-u-rerun-extras
# on kiwi-c
# by bonan
#
# compiler GCC version 11.3.0
# options -cpp -imultiarch x86_64-linux-gnu -mtune=generic -march=x86-64 -g -Og -fpre-include=/usr/include/finclude/math-vector-fortran.h
#
# seed  -406408110  -489198107   226623939   342414443 -1710230476 -1794896761  -201892088   140850874
#
#      Author: C. J. Pickard (cjp20@cam.ac.uk)
#                Space group: P-1
#

%BLOCK LATTICE_ABC
      4.69735      7.94869      8.98831
    105.20632     92.64492     97.43934
%ENDBLOCK LATTICE_ABC

%BLOCK POSITIONS_FRAC
  Li  -0.2700883   0.0481325  -0.3656155 SPIN=   0.00000
  Li   0.2700883  -0.0481325   0.3656155 SPIN=   0.00000
  Li  -0.2516972   0.2432203   0.3532798 SPIN=   0.00000
  Li   0.2516972  -0.2432203  -0.3532798 SPIN=   0.00000
   O  -0.5539866  -0.4035880  -0.2068916 SPIN=   0.00000
   O  -0.1481673  -0.4381388  -0.3947547 SPIN=   0.00000
   O  -0.0429554  -0.2202586  -0.1393753 SPIN=   0.00000
   O  -0.1042649  -0.5425561  -0.1560645 SPIN=   0.00000
   P  -0.2292589  -0.4029349  -0.2225412 SPIN=   0.00000
   O   0.5539866   0.4035880   0.2068916 SPIN=   0.00000
   O   0.1481673   0.4381388   0.3947547 SPIN=   0.00000
   O   0.0429554   0.2202586   0.1393753 SPIN=   0.00000
   O   0.1042649   0.5425561   0.1560645 SPIN=   0.00000
   P   0.2292589   0.4029349   0.2225412 SPIN=   0.00000
   O  -0.4154281   0.0283445   0.1374408 SPIN=   0.00000
   O  -0.1959477  -0.0459793   0.3789965 SPIN=   0.00000
   O  -0.3756190  -0.2912264   0.1484193 SPIN=   0.00000
   O   0.0735157  -0.0870340   0.1410946 SPIN=   0.00000
   P  -0.2347671  -0.0920538   0.1973649 SPIN=   0.00000
   O   0.4154281  -0.0283445  -0.1374408 SPIN=   0.00000
   O   0.1959477   0.0459793  -0.3789965 SPIN=   0.00000
   O   0.3756190   0.2912264  -0.1484193 SPIN=   0.00000
   O  -0.0735157   0.0870340  -0.1410946 SPIN=   0.00000
   P   0.2347671   0.0920538  -0.1973649 SPIN=   0.00000
  Fe  -0.2928883  -0.3391453   0.3789005 SPIN=   4.40598
  Fe   0.2928883   0.3391453  -0.3789005 SPIN=   4.40598
  Fe  -0.7337480  -0.2887723   0.0015777 SPIN=   3.59402
  Fe   0.7337480   0.2887723  -0.0015777 SPIN=   3.59402
%ENDBLOCK POSITIONS_FRAC

# Note: total spin =  16.00

KPOINTS_MP_SPACING 0.07

%BLOCK SPECIES_POT
QC5
%ENDBLOCK SPECIES_POT

SNAP_TO_SYMMETRY
SYMMETRY_GENERATE

