#              Generated by Buildcell
#
# at 14:28:25 (GMT+0.0) 26th March 2023
# in /home/bonan/nas/work/m3gnet/with-u-rerun-extras
# on kiwi-c
# by bonan
#
# compiler GCC version 11.3.0
# options -cpp -imultiarch x86_64-linux-gnu -mtune=generic -march=x86-64 -g -Og -fpre-include=/usr/include/finclude/math-vector-fortran.h
#
# seed -2005575219   614112861  1836076552  -294957832 -1740339810  -185318126  -442714637   386292634
#
#      Author: C. J. Pickard (cjp20@cam.ac.uk)
#                Space group: Pca21
#

%BLOCK LATTICE_ABC
      4.64669      6.45693     10.66547
     90.00000     90.00000     90.00000
%ENDBLOCK LATTICE_ABC

%BLOCK POSITIONS_FRAC
  Li  -0.2549447   0.0190692   0.1513899 SPIN=   0.00000
  Li   0.2549447  -0.4809308  -0.1513899 SPIN=   0.00000
  Li   0.2549447   0.0190692  -0.3486101 SPIN=   0.00000
  Li  -0.2549447  -0.4809308   0.3486101 SPIN=   0.00000
   O   0.4665695   0.3063872  -0.3299546 SPIN=   0.00000
   O   0.2040964   0.6519915  -0.3798044 SPIN=   0.00000
   O   0.3644823   0.4337538  -0.5567039 SPIN=   0.00000
   O  -0.0467533   0.3160926  -0.4226832 SPIN=   0.00000
   P   0.2553167   0.4193218  -0.4173750 SPIN=   0.00000
   O  -0.4665695  -0.1936128   0.3299546 SPIN=   0.00000
   O  -0.2040964   0.1519915   0.3798044 SPIN=   0.00000
   O  -0.3644823  -0.0662462   0.5567039 SPIN=   0.00000
   O   0.0467533  -0.1839074   0.4226832 SPIN=   0.00000
   P  -0.2553167  -0.0806782   0.4173750 SPIN=   0.00000
   O  -0.4665695   0.3063872   0.1700454 SPIN=   0.00000
   O  -0.2040964   0.6519915   0.1201956 SPIN=   0.00000
   O  -0.3644823   0.4337538  -0.0567039 SPIN=   0.00000
   O   0.0467533   0.3160926   0.0773168 SPIN=   0.00000
   P  -0.2553167   0.4193218   0.0826250 SPIN=   0.00000
   O   0.4665695  -0.1936128  -0.1700454 SPIN=   0.00000
   O   0.2040964   0.1519915  -0.1201956 SPIN=   0.00000
   O   0.3644823  -0.0662462   0.0567039 SPIN=   0.00000
   O  -0.0467533  -0.1839074  -0.0773168 SPIN=   0.00000
   P   0.2553167  -0.0806782  -0.0826250 SPIN=   0.00000
  Fe  -0.2448723   0.1569240  -0.1458847 SPIN=   4.00000
  Fe   0.2448723  -0.3430760   0.1458847 SPIN=   4.00000
  Fe   0.2448723   0.1569240   0.3541153 SPIN=   4.00000
  Fe  -0.2448723  -0.3430760  -0.3541153 SPIN=   4.00000
%ENDBLOCK POSITIONS_FRAC

# Note: total spin =  16.00

KPOINTS_MP_SPACING 0.07

%BLOCK SPECIES_POT
QC5
%ENDBLOCK SPECIES_POT

SNAP_TO_SYMMETRY
SYMMETRY_GENERATE

