#              Generated by Buildcell
#
# at 14:41:12 (GMT+0.0) 26th March 2023
# in /home/bonan/nas/work/m3gnet/with-u-rerun-extras
# on kiwi-c
# by bonan
#
# compiler GCC version 11.3.0
# options -cpp -imultiarch x86_64-linux-gnu -mtune=generic -march=x86-64 -g -Og -fpre-include=/usr/include/finclude/math-vector-fortran.h
#
# seed  1650202421   321114655 -1442734176  -127418836  -430475847  -632680581   919551854 -1166102612
#
#      Author: C. J. Pickard (cjp20@cam.ac.uk)
#                Space group: Cc
#

%BLOCK LATTICE_ABC
      5.80464      7.65321      7.65321
     81.64977     76.50993     76.50993
%ENDBLOCK LATTICE_ABC

%BLOCK POSITIONS_FRAC
  Li  -0.0766690  -0.1537988  -0.2505533 SPIN=   0.00000
  Li   0.4233310  -0.2505533  -0.1537988 SPIN=   0.00000
  Li  -0.4515495   0.0631647   0.0267898 SPIN=   0.00000
  Li   0.0484505   0.0267898   0.0631647 SPIN=   0.00000
   O  -0.5516753   0.3896067  -0.0622561 SPIN=   0.00000
   O  -0.2337666   0.4977683  -0.3302083 SPIN=   0.00000
   O  -0.0892731   0.3106342  -0.0703321 SPIN=   0.00000
   O  -0.2529511   0.1702928  -0.2784379 SPIN=   0.00000
   P  -0.2959380   0.3425791  -0.1798557 SPIN=   0.00000
   O  -0.0516753  -0.0622561   0.3896067 SPIN=   0.00000
   O   0.2662334  -0.3302083   0.4977683 SPIN=   0.00000
   O   0.4107269  -0.0703321   0.3106342 SPIN=   0.00000
   O   0.2470489  -0.2784379   0.1702928 SPIN=   0.00000
   P   0.2040620  -0.1798557   0.3425791 SPIN=   0.00000
   O   0.1633261   0.0104184  -0.3943782 SPIN=   0.00000
   O   0.4635723   0.2280945  -0.4864980 SPIN=   0.00000
   O   0.3237082   0.1410025  -0.1620337 SPIN=   0.00000
   O   0.6074943  -0.0877649  -0.3570069 SPIN=   0.00000
   P   0.3800536   0.0677123  -0.3524262 SPIN=   0.00000
   O  -0.3366739  -0.3943782   0.0104184 SPIN=   0.00000
   O  -0.0364277  -0.4864980   0.2280945 SPIN=   0.00000
   O  -0.1762918  -0.1620337   0.1410025 SPIN=   0.00000
   O   0.1074943  -0.3570069  -0.0877649 SPIN=   0.00000
   P  -0.1199464  -0.3524262   0.0677123 SPIN=   0.00000
  Fe   0.2001148   0.4173744  -0.2329041 SPIN=   3.40839
  Fe  -0.2998852  -0.2329041   0.4173744 SPIN=   3.40839
  Fe   0.4323054   0.4527606   0.1985770 SPIN=   4.59161
  Fe  -0.0676946   0.1985770   0.4527606 SPIN=   4.59161
%ENDBLOCK POSITIONS_FRAC

# Note: total spin =  16.00

KPOINTS_MP_SPACING 0.07

%BLOCK SPECIES_POT
QC5
%ENDBLOCK SPECIES_POT

SNAP_TO_SYMMETRY
SYMMETRY_GENERATE

