#              Generated by Buildcell
#
# at 14:28:30 (GMT+0.0) 26th March 2023
# in /home/bonan/nas/work/m3gnet/with-u-rerun-extras
# on kiwi-c
# by bonan
#
# compiler GCC version 11.3.0
# options -cpp -imultiarch x86_64-linux-gnu -mtune=generic -march=x86-64 -g -Og -fpre-include=/usr/include/finclude/math-vector-fortran.h
#
# seed   601531108 -1658444325   256694453  -629389412 -1202477396 -1825800124 -1460054151  -824101714
#
#      Author: C. J. Pickard (cjp20@cam.ac.uk)
#                Space group: P21
#

%BLOCK LATTICE_ABC
      4.23397      8.69422      8.71305
     93.88332     90.00000     90.00000
%ENDBLOCK LATTICE_ABC

%BLOCK POSITIONS_FRAC
  Li   0.1653225   0.0583226  -0.2797515 SPIN=   0.00000
  Li  -0.3346775  -0.0583226   0.2797515 SPIN=   0.00000
  Li  -0.2723857   0.4677062   0.1887662 SPIN=   0.00000
  Li   0.2276143  -0.4677062  -0.1887662 SPIN=   0.00000
   O  -0.2249697   0.4874737  -0.1007686 SPIN=   0.00000
   O  -0.7179471   0.3091293  -0.1115574 SPIN=   0.00000
   O  -0.2179395   0.2064146  -0.2227577 SPIN=   0.00000
   O  -0.2695200   0.2517021   0.0630627 SPIN=   0.00000
   P  -0.3494932   0.3222022  -0.0915768 SPIN=   0.00000
   O   0.2750303  -0.4874737   0.1007686 SPIN=   0.00000
   O  -0.2179471  -0.3091293   0.1115574 SPIN=   0.00000
   O   0.2820605  -0.2064146   0.2227577 SPIN=   0.00000
   O   0.2304800  -0.2517021  -0.0630627 SPIN=   0.00000
   P   0.1505068  -0.3222022   0.0915768 SPIN=   0.00000
   O   0.0841060   0.0071001   0.3980852 SPIN=   0.00000
   O   0.0951765   0.2859667   0.3082679 SPIN=   0.00000
   O   0.1914528   0.2486256   0.5828555 SPIN=   0.00000
   O   0.6004971   0.1641772   0.3873143 SPIN=   0.00000
   P   0.2385791   0.1673044   0.4176346 SPIN=   0.00000
   O  -0.4158940  -0.0071001  -0.3980852 SPIN=   0.00000
   O  -0.4048235  -0.2859667  -0.3082679 SPIN=   0.00000
   O  -0.3085472  -0.2486256  -0.5828555 SPIN=   0.00000
   O   0.1004971  -0.1641772  -0.3873143 SPIN=   0.00000
   P  -0.2614209  -0.1673044  -0.4176346 SPIN=   0.00000
  Fe   0.1942355   0.1726189   0.0900303 SPIN=   4.46567
  Fe  -0.3057645  -0.1726189  -0.0900303 SPIN=   4.46567
  Fe   0.2284785  -0.3348682   0.4175405 SPIN=   3.53433
  Fe  -0.2715215   0.3348682  -0.4175405 SPIN=   3.53433
%ENDBLOCK POSITIONS_FRAC

# Note: total spin =  16.00

KPOINTS_MP_SPACING 0.07

%BLOCK SPECIES_POT
QC5
%ENDBLOCK SPECIES_POT

SNAP_TO_SYMMETRY
SYMMETRY_GENERATE

