#              Generated by Buildcell
#
# at 14:35:55 (GMT+0.0) 26th March 2023
# in /home/bonan/nas/work/m3gnet/with-u-rerun-extras
# on kiwi-c
# by bonan
#
# compiler GCC version 11.3.0
# options -cpp -imultiarch x86_64-linux-gnu -mtune=generic -march=x86-64 -g -Og -fpre-include=/usr/include/finclude/math-vector-fortran.h
#
# seed -1515029724  1232291452 -2124967387 -1417403718  1390256805   448602737  1905263825  2140051789
#
#      Author: C. J. Pickard (cjp20@cam.ac.uk)
#                Space group: P21212
#

%BLOCK LATTICE_ABC
      5.08927      6.34804      9.90500
     90.00000     90.00000     90.00000
%ENDBLOCK LATTICE_ABC

%BLOCK POSITIONS_FRAC
  Li  -0.2347374   0.1450339  -0.2499835 SPIN=   0.00000
  Li   0.2347374  -0.1450339  -0.2499835 SPIN=   0.00000
  Li  -0.2652626  -0.3549661   0.2499835 SPIN=   0.00000
  Li   0.2652626   0.3549661   0.2499835 SPIN=   0.00000
   O  -0.0789942   0.3003718   0.3739290 SPIN=   0.00000
   O  -0.1002501   0.2825098   0.1121080 SPIN=   0.00000
   O  -0.2588382  -0.0234694   0.2428337 SPIN=   0.00000
   P  -0.2339559   0.2232495   0.2501551 SPIN=   0.00000
   O   0.0789942  -0.3003718   0.3739290 SPIN=   0.00000
   O   0.1002501  -0.2825098   0.1121080 SPIN=   0.00000
   O   0.2588382   0.0234694   0.2428337 SPIN=   0.00000
   P   0.2339559  -0.2232495   0.2501551 SPIN=   0.00000
   O  -0.4210058  -0.1996282  -0.3739290 SPIN=   0.00000
   O  -0.3997499  -0.2174902  -0.1121080 SPIN=   0.00000
   O  -0.2411618  -0.5234694  -0.2428337 SPIN=   0.00000
   P  -0.2660441  -0.2767505  -0.2501551 SPIN=   0.00000
   O   0.4210058   0.1996282  -0.3739290 SPIN=   0.00000
   O   0.3997499   0.2174902  -0.1121080 SPIN=   0.00000
   O   0.2411618   0.5234694  -0.2428337 SPIN=   0.00000
   P   0.2660441   0.2767505  -0.2501551 SPIN=   0.00000
   O   0.0000000  -0.0000000  -0.0535855 SPIN=   0.00000
   O  -0.5000000   0.5000000   0.0535855 SPIN=   0.00000
   O  -0.0000000  -0.0000000  -0.4197151 SPIN=   0.00000
   O   0.5000000  -0.5000000   0.4197151 SPIN=   0.00000
  Fe  -0.0000000  -0.5000000  -0.4611439 SPIN=   3.06672
  Fe   0.5000000  -0.0000000   0.4611439 SPIN=   3.06672
  Fe   0.0000000   0.5000000  -0.0390749 SPIN=   4.93328
  Fe  -0.5000000   0.0000000   0.0390749 SPIN=   4.93328
%ENDBLOCK POSITIONS_FRAC

# Note: total spin =  16.00

KPOINTS_MP_SPACING 0.07

%BLOCK SPECIES_POT
QC5
%ENDBLOCK SPECIES_POT

SNAP_TO_SYMMETRY
SYMMETRY_GENERATE

