#              Generated by Buildcell
#
# at 14:38:30 (GMT+0.0) 26th March 2023
# in /home/bonan/nas/work/m3gnet/with-u-rerun-extras
# on kiwi-c
# by bonan
#
# compiler GCC version 11.3.0
# options -cpp -imultiarch x86_64-linux-gnu -mtune=generic -march=x86-64 -g -Og -fpre-include=/usr/include/finclude/math-vector-fortran.h
#
# seed  -466300129  -930844687 -1281162712    75414697  -554890701   305111155   190591598 -1551440495
#
#      Author: C. J. Pickard (cjp20@cam.ac.uk)
#                Space group: Imm2
#

%BLOCK LATTICE_ABC
      4.52427      9.18783      9.18783
     60.96311     75.74665     75.74665
%ENDBLOCK LATTICE_ABC

%BLOCK POSITIONS_FRAC
  Li  -0.4381330   0.1482545   0.1482545 SPIN=   0.00000
  Li  -0.1416240  -0.1482545  -0.1482545 SPIN=   0.00000
  Li   0.2742864   0.5000000  -0.5000000 SPIN=   0.00000
  Li   0.2698952  -0.0000000  -0.0000000 SPIN=   0.00000
   O   0.3312286  -0.1358029   0.3077863 SPIN=   0.00000
   O  -0.0910523   0.0310948   0.4418188 SPIN=   0.00000
   O  -0.2018406  -0.2300468   0.4648036 SPIN=   0.00000
   P   0.0714265  -0.1462772   0.4548861 SPIN=   0.00000
   O   0.5032119   0.1358029  -0.3077863 SPIN=   0.00000
   O   0.3818613  -0.0310948  -0.4418188 SPIN=   0.00000
   O   0.0329163   0.2300468  -0.4648036 SPIN=   0.00000
   P   0.3800355   0.1462772  -0.4548861 SPIN=   0.00000
   O   0.5032119  -0.3077863   0.1358029 SPIN=   0.00000
   O   0.3818613  -0.4418188  -0.0310948 SPIN=   0.00000
   O   0.0329163  -0.4648036   0.2300468 SPIN=   0.00000
   P   0.3800355  -0.4548861   0.1462772 SPIN=   0.00000
   O   0.3312286   0.3077863  -0.1358029 SPIN=   0.00000
   O  -0.0910523   0.4418188   0.0310948 SPIN=   0.00000
   O  -0.2018406   0.4648036  -0.2300468 SPIN=   0.00000
   P   0.0714265   0.4548861  -0.1462772 SPIN=   0.00000
   O   0.4484870  -0.7090041   0.2909959 SPIN=   0.00000
   O   0.0304788   0.7090041  -0.2909959 SPIN=   0.00000
   O   0.0377246   0.1352840   0.1352840 SPIN=   0.00000
   O   0.3082927  -0.1352840  -0.1352840 SPIN=   0.00000
  Fe  -0.0917463  -0.6992028   0.3007972 SPIN=   3.58667
  Fe  -0.4901520   0.6992028  -0.3007972 SPIN=   3.58667
  Fe  -0.2251188  -0.2499527   0.2499527 SPIN=   4.41333
  Fe  -0.2251188   0.2499527  -0.2499527 SPIN=   4.41333
%ENDBLOCK POSITIONS_FRAC

# Note: total spin =  16.00

KPOINTS_MP_SPACING 0.07

%BLOCK SPECIES_POT
QC5
%ENDBLOCK SPECIES_POT

SNAP_TO_SYMMETRY
SYMMETRY_GENERATE

