#              Generated by Buildcell
#
# at 14:22:00 (GMT+0.0) 26th March 2023
# in /home/bonan/nas/work/m3gnet/with-u-rerun-extras
# on kiwi-c
# by bonan
#
# compiler GCC version 11.3.0
# options -cpp -imultiarch x86_64-linux-gnu -mtune=generic -march=x86-64 -g -Og -fpre-include=/usr/include/finclude/math-vector-fortran.h
#
# seed -1277644163  1167703525  1286698843  -281175223   879293685 -1990538200   686252094   123262964
#
#      Author: C. J. Pickard (cjp20@cam.ac.uk)
#                Space group: Cc
#

%BLOCK LATTICE_ABC
      6.22166      6.22166      9.32089
     75.85784     75.85784     68.15862
%ENDBLOCK LATTICE_ABC

%BLOCK POSITIONS_FRAC
  Li  -0.1741281  -0.1946486  -0.2218978 SPIN=   0.00000
  Li   0.3053514   0.3258719   0.2781022 SPIN=   0.00000
  Li  -0.2476624   0.1761613   0.0541562 SPIN=   0.00000
  Li  -0.3238387   0.2523376  -0.4458438 SPIN=   0.00000
   O   0.0238874   0.3933141   0.1338782 SPIN=   0.00000
   O  -0.0892712   0.0166426   0.2457671 SPIN=   0.00000
   O   0.0368965   0.1857662   0.4112219 SPIN=   0.00000
   O  -0.3530661   0.3975846   0.3277003 SPIN=   0.00000
   P  -0.0920784   0.2578081   0.2724478 SPIN=   0.00000
   O  -0.1066859   0.5238874  -0.3661218 SPIN=   0.00000
   O  -0.4833574   0.4107288  -0.2542329 SPIN=   0.00000
   O  -0.3142338   0.5368965  -0.0887781 SPIN=   0.00000
   O  -0.1024154   0.1469339  -0.1722997 SPIN=   0.00000
   P  -0.2421919   0.4079216  -0.2275522 SPIN=   0.00000
   O   0.1764697   0.0543096   0.0036945 SPIN=   0.00000
   O  -0.1046629  -0.1822889   0.0369834 SPIN=   0.00000
   O   0.2250625  -0.2259814  -0.1766494 SPIN=   0.00000
   O   0.3072893  -0.3966522   0.0848787 SPIN=   0.00000
   P   0.1542376  -0.1772363  -0.0107440 SPIN=   0.00000
   O   0.5543096  -0.3235303   0.5036945 SPIN=   0.00000
   O   0.3177111  -0.6046629   0.5369834 SPIN=   0.00000
   O   0.2740186  -0.2749375   0.3233506 SPIN=   0.00000
   O   0.1033478  -0.1927107   0.5848787 SPIN=   0.00000
   P   0.3227637  -0.3457624   0.4892560 SPIN=   0.00000
  Fe   0.2311475   0.0511264  -0.3746450 SPIN=   6.26025
  Fe  -0.4488736  -0.2688525   0.1253550 SPIN=   6.26025
  Fe  -0.1313747  -0.2484500   0.4272701 SPIN=   1.73975
  Fe   0.2515500   0.3686253  -0.0727299 SPIN=   1.73975
%ENDBLOCK POSITIONS_FRAC

# Note: total spin =  16.00

KPOINTS_MP_SPACING 0.07

%BLOCK SPECIES_POT
QC5
%ENDBLOCK SPECIES_POT

SNAP_TO_SYMMETRY
SYMMETRY_GENERATE

