#              Generated by Buildcell
#
# at 14:48:41 (GMT+0.0) 26th March 2023
# in /home/bonan/nas/work/m3gnet/with-u-rerun-extras
# on kiwi-c
# by bonan
#
# compiler GCC version 11.3.0
# options -cpp -imultiarch x86_64-linux-gnu -mtune=generic -march=x86-64 -g -Og -fpre-include=/usr/include/finclude/math-vector-fortran.h
#
# seed  1249556075  1333058612  -263977021   -84043908 -1760841891  -871391506 -1463026882     8356626
#
#      Author: C. J. Pickard (cjp20@cam.ac.uk)
#                Space group: Pm
#

%BLOCK LATTICE_ABC
      4.20783      6.25951     12.66987
     90.00000     90.00000    106.48132
%ENDBLOCK LATTICE_ABC

%BLOCK POSITIONS_FRAC
  Li  -0.4570395   0.2987284   0.5000000 SPIN=   0.00000
  Li   0.2333923  -0.2728189   0.5000000 SPIN=   0.00000
  Li   0.0587678  -0.3147893   0.0000000 SPIN=   0.00000
  Li  -0.2506982   0.1279879  -0.0000000 SPIN=   0.00000
   O   0.4964078  -0.1434100   0.0986286 SPIN=   0.00000
   O  -0.0515206  -0.2111138   0.2047855 SPIN=   0.00000
   O   0.4407336   0.0810499   0.2666952 SPIN=   0.00000
   O   0.1555801   0.1408590   0.1004393 SPIN=   0.00000
   P   0.2716359  -0.0369708   0.1631698 SPIN=   0.00000
   O   0.4964078  -0.1434100  -0.0986286 SPIN=   0.00000
   O  -0.0515206  -0.2111138  -0.2047855 SPIN=   0.00000
   O   0.4407336   0.0810499  -0.2666952 SPIN=   0.00000
   O   0.1555801   0.1408590  -0.1004393 SPIN=   0.00000
   P   0.2716359  -0.0369708  -0.1631698 SPIN=   0.00000
   O  -0.2003348   0.5674998   0.4022358 SPIN=   0.00000
   O   0.3412075   0.6187576   0.2943246 SPIN=   0.00000
   O   0.1325644   0.2757373   0.3999052 SPIN=   0.00000
   P   0.0103595   0.4529684   0.3360086 SPIN=   0.00000
   O  -0.2003348   0.5674998  -0.4022358 SPIN=   0.00000
   O   0.3412075   0.6187576  -0.2943246 SPIN=   0.00000
   O   0.1325644   0.2757373  -0.3999052 SPIN=   0.00000
   P   0.0103595   0.4529684  -0.3360086 SPIN=   0.00000
   O   0.4015806   0.4882548   0.0000000 SPIN=   0.00000
   O  -0.2436100  -0.0858799  -0.5000000 SPIN=   0.00000
  Fe  -0.1623503  -0.0252801   0.3361920 SPIN=   1.88574
  Fe  -0.1623503  -0.0252801  -0.3361920 SPIN=   1.88574
  Fe   0.4584730   0.4404429  -0.1655123 SPIN=   6.11426
  Fe   0.4584730   0.4404429   0.1655123 SPIN=   6.11426
%ENDBLOCK POSITIONS_FRAC

# Note: total spin =  16.00

KPOINTS_MP_SPACING 0.07

%BLOCK SPECIES_POT
QC5
%ENDBLOCK SPECIES_POT

SNAP_TO_SYMMETRY
SYMMETRY_GENERATE

