#              Generated by Buildcell
#
# at 14:46:21 (GMT+0.0) 26th March 2023
# in /home/bonan/nas/work/m3gnet/with-u-rerun-extras
# on kiwi-c
# by bonan
#
# compiler GCC version 11.3.0
# options -cpp -imultiarch x86_64-linux-gnu -mtune=generic -march=x86-64 -g -Og -fpre-include=/usr/include/finclude/math-vector-fortran.h
#
# seed  1832139464  -868735608  1277219982  1218794844 -1144695471 -1419825191  -297888478   731012032
#
#      Author: C. J. Pickard (cjp20@cam.ac.uk)
#                Space group: P2
#

%BLOCK LATTICE_ABC
      4.00508      8.71881      9.17263
     90.00000     92.49559     90.00000
%ENDBLOCK LATTICE_ABC

%BLOCK POSITIONS_FRAC
  Li  -0.5000000   0.0136166  -0.0000000 SPIN=   0.00000
  Li  -0.5000000   0.4373310  -0.5000000 SPIN=   0.00000
  Li   0.5000000  -0.1846502   0.5000000 SPIN=   0.00000
  Li   0.0000000  -0.2430886   0.0000000 SPIN=   0.00000
   O  -0.3043250  -0.1365369  -0.1909361 SPIN=   0.00000
   O  -0.3087531  -0.4182574  -0.0987456 SPIN=   0.00000
   O  -0.8256853  -0.3133538  -0.2168285 SPIN=   0.00000
   O  -0.3327018  -0.3672466  -0.3676834 SPIN=   0.00000
   P  -0.4341896  -0.3003631  -0.2188381 SPIN=   0.00000
   O   0.3043250  -0.1365369   0.1909361 SPIN=   0.00000
   O   0.3087531  -0.4182574   0.0987456 SPIN=   0.00000
   O   0.8256853  -0.3133538   0.2168285 SPIN=   0.00000
   O   0.3327018  -0.3672466   0.3676834 SPIN=   0.00000
   P   0.4341896  -0.3003631   0.2188381 SPIN=   0.00000
   O   0.4825390   0.3661630   0.2499527 SPIN=   0.00000
   O   1.0194237   0.2436596   0.3688680 SPIN=   0.00000
   O   0.5136469   0.0828848   0.3373718 SPIN=   0.00000
   O   0.8235452   0.1610794   0.1179991 SPIN=   0.00000
   O  -0.4825390   0.3661630  -0.2499527 SPIN=   0.00000
   O  -1.0194237   0.2436596  -0.3688680 SPIN=   0.00000
   O  -0.5136469   0.0828848  -0.3373718 SPIN=   0.00000
   O  -0.8235452   0.1610794  -0.1179991 SPIN=   0.00000
   P   0.5000000   0.1289044   0.5000000 SPIN=   0.00000
   P  -0.5000000   0.3212695   0.0000000 SPIN=   0.00000
  Fe   0.0028983   0.0192395  -0.2897081 SPIN=   3.24499
  Fe  -0.0028983   0.0192395   0.2897081 SPIN=   3.24499
  Fe  -0.0418465   0.4547172   0.2121614 SPIN=   4.75501
  Fe   0.0418465   0.4547172  -0.2121614 SPIN=   4.75501
%ENDBLOCK POSITIONS_FRAC

# Note: total spin =  16.00

KPOINTS_MP_SPACING 0.07

%BLOCK SPECIES_POT
QC5
%ENDBLOCK SPECIES_POT

SNAP_TO_SYMMETRY
SYMMETRY_GENERATE

