#              Generated by Buildcell
#
# at 14:31:24 (GMT+0.0) 26th March 2023
# in /home/bonan/nas/work/m3gnet/with-u-rerun-extras
# on kiwi-c
# by bonan
#
# compiler GCC version 11.3.0
# options -cpp -imultiarch x86_64-linux-gnu -mtune=generic -march=x86-64 -g -Og -fpre-include=/usr/include/finclude/math-vector-fortran.h
#
# seed   411015434 -1087276865 -1802796423   -36027859  -402823850 -1617105287  1448448755  1857019664
#
#      Author: C. J. Pickard (cjp20@cam.ac.uk)
#                Space group: Pm
#

%BLOCK LATTICE_ABC
      4.21105      7.96115      9.59249
     90.00000     90.00000     95.69314
%ENDBLOCK LATTICE_ABC

%BLOCK POSITIONS_FRAC
  Li   0.2318204   0.2488013   0.0000000 SPIN=   0.00000
  Li  -0.4347478   0.4594576  -0.5000000 SPIN=   0.00000
  Li   0.3987116  -0.1811140  -0.5000000 SPIN=   0.00000
  Li   0.3606149  -0.3715447  -0.0000000 SPIN=   0.00000
   O   0.4953095  -0.1803153  -0.1463035 SPIN=   0.00000
   O   0.2967747  -0.0029545  -0.3501363 SPIN=   0.00000
   O  -0.0014026  -0.0122985  -0.1280809 SPIN=   0.00000
   O   0.5426746   0.1455755  -0.1404890 SPIN=   0.00000
   P   0.3444336  -0.0195682  -0.1882601 SPIN=   0.00000
   O   0.4953095  -0.1803153   0.1463035 SPIN=   0.00000
   O   0.2967747  -0.0029545   0.3501363 SPIN=   0.00000
   O  -0.0014026  -0.0122985   0.1280809 SPIN=   0.00000
   O   0.5426746   0.1455755   0.1404890 SPIN=   0.00000
   P   0.3444336  -0.0195682   0.1882601 SPIN=   0.00000
   O   0.2957379   0.6273138   0.3318526 SPIN=   0.00000
   O   0.3550034   0.3056366   0.3371275 SPIN=   0.00000
   O   0.0328028   0.4161980   0.1492433 SPIN=   0.00000
   P   0.3293529   0.4674437   0.2453205 SPIN=   0.00000
   O   0.2957379   0.6273138  -0.3318526 SPIN=   0.00000
   O   0.3550034   0.3056366  -0.3371275 SPIN=   0.00000
   O   0.0328028   0.4161980  -0.1492433 SPIN=   0.00000
   P   0.3293529   0.4674437  -0.2453205 SPIN=   0.00000
   O  -0.1114885  -0.2640653  -0.5000000 SPIN=   0.00000
   O  -0.2257212   0.0874585   0.5000000 SPIN=   0.00000
  Fe  -0.1241499   0.1876450  -0.3002335 SPIN=   1.42710
  Fe  -0.1241499   0.1876450   0.3002335 SPIN=   1.42710
  Fe  -0.1252189  -0.2914842  -0.2525416 SPIN=   6.57290
  Fe  -0.1252189  -0.2914842   0.2525416 SPIN=   6.57290
%ENDBLOCK POSITIONS_FRAC

# Note: total spin =  16.00

KPOINTS_MP_SPACING 0.07

%BLOCK SPECIES_POT
QC5
%ENDBLOCK SPECIES_POT

SNAP_TO_SYMMETRY
SYMMETRY_GENERATE

