#              Generated by Buildcell
#
# at 14:24:42 (GMT+0.0) 26th March 2023
# in /home/bonan/nas/work/m3gnet/with-u-rerun-extras
# on kiwi-c
# by bonan
#
# compiler GCC version 11.3.0
# options -cpp -imultiarch x86_64-linux-gnu -mtune=generic -march=x86-64 -g -Og -fpre-include=/usr/include/finclude/math-vector-fortran.h
#
# seed  1900472209  1273112274  -345654011  -738871800 -1774107717  -468887487  2082584563 -1228581844
#
#      Author: C. J. Pickard (cjp20@cam.ac.uk)
#                Space group: P-1
#

%BLOCK LATTICE_ABC
      4.89532      7.90036      8.36789
     87.31089     88.06764     81.99576
%ENDBLOCK LATTICE_ABC

%BLOCK POSITIONS_FRAC
  Li   0.0973124  -0.4075681  -0.3053242 SPIN=   0.00000
  Li  -0.0973124   0.4075681   0.3053242 SPIN=   0.00000
  Li   0.0550705   0.0211881   0.3211321 SPIN=   0.00000
  Li  -0.0550705  -0.0211881  -0.3211321 SPIN=   0.00000
   O   0.4767415   0.0886090  -0.1253645 SPIN=   0.00000
   O   0.7258391  -0.2125209  -0.1940240 SPIN=   0.00000
   O   0.2328847  -0.1837191  -0.1115642 SPIN=   0.00000
   O   0.3706692  -0.0617519  -0.3790949 SPIN=   0.00000
   P   0.4519216  -0.0823498  -0.2004880 SPIN=   0.00000
   O  -0.4767415  -0.0886090   0.1253645 SPIN=   0.00000
   O  -0.7258391   0.2125209   0.1940240 SPIN=   0.00000
   O  -0.2328847   0.1837191   0.1115642 SPIN=   0.00000
   O  -0.3706692   0.0617519   0.3790949 SPIN=   0.00000
   P  -0.4519216   0.0823498   0.2004880 SPIN=   0.00000
   O   0.1466500  -0.2381736   0.2649894 SPIN=   0.00000
   O   0.2211281  -0.4929610   0.0756833 SPIN=   0.00000
   O   0.6306232  -0.3982524   0.1896176 SPIN=   0.00000
   O   0.3102931  -0.5478877   0.3677569 SPIN=   0.00000
   P   0.3173624  -0.4111909   0.2283575 SPIN=   0.00000
   O  -0.1466500   0.2381736  -0.2649894 SPIN=   0.00000
   O  -0.2211281   0.4929610  -0.0756833 SPIN=   0.00000
   O  -0.6306232   0.3982524  -0.1896176 SPIN=   0.00000
   O  -0.3102931   0.5478877  -0.3677569 SPIN=   0.00000
   P  -0.3173624   0.4111909  -0.2283575 SPIN=   0.00000
  Fe  -0.4261014  -0.2463624   0.4695962 SPIN=   5.02140
  Fe   0.4261014   0.2463624  -0.4695962 SPIN=   5.02140
  Fe  -0.1087431  -0.2283168   0.0351153 SPIN=   2.97860
  Fe   0.1087431   0.2283168  -0.0351153 SPIN=   2.97860
%ENDBLOCK POSITIONS_FRAC

# Note: total spin =  16.00

KPOINTS_MP_SPACING 0.07

%BLOCK SPECIES_POT
QC5
%ENDBLOCK SPECIES_POT

SNAP_TO_SYMMETRY
SYMMETRY_GENERATE

