#              Generated by Buildcell
#
# at 14:22:49 (GMT+0.0) 26th March 2023
# in /home/bonan/nas/work/m3gnet/with-u-rerun-extras
# on kiwi-c
# by bonan
#
# compiler GCC version 11.3.0
# options -cpp -imultiarch x86_64-linux-gnu -mtune=generic -march=x86-64 -g -Og -fpre-include=/usr/include/finclude/math-vector-fortran.h
#
# seed  -851969883  1930032595  1126605609  1693271708 -1471759064   -25837014  1499707835  -822804734
#
#      Author: C. J. Pickard (cjp20@cam.ac.uk)
#                Space group: P21
#

%BLOCK LATTICE_ABC
      4.98046      8.09939      8.31291
     90.00000     90.00000    107.39259
%ENDBLOCK LATTICE_ABC

%BLOCK POSITIONS_FRAC
  Li   0.3076300  -0.0155900  -0.0440015 SPIN=   0.00000
  Li  -0.3076300   0.0155900   0.4559985 SPIN=   0.00000
  Li  -0.0596303   0.2622609  -0.2700086 SPIN=   0.00000
  Li   0.0596303  -0.2622609   0.2299914 SPIN=   0.00000
   O   0.0645482   0.2049526   0.3848108 SPIN=   0.00000
   O   0.1895296  -0.0817407   0.4240726 SPIN=   0.00000
   O   0.0260705  -0.0200708   0.1565565 SPIN=   0.00000
   O   0.5028562   0.1530034   0.2541404 SPIN=   0.00000
   P   0.1923894   0.0725891   0.3085513 SPIN=   0.00000
   O  -0.0645482  -0.2049526  -0.1151892 SPIN=   0.00000
   O  -0.1895296   0.0817407  -0.0759274 SPIN=   0.00000
   O  -0.0260705   0.0200708  -0.3434435 SPIN=   0.00000
   O  -0.5028562  -0.1530034  -0.2458596 SPIN=   0.00000
   P  -0.1923894  -0.0725891  -0.1914487 SPIN=   0.00000
   O   0.3470619   0.4380855  -0.2486505 SPIN=   0.00000
   O   0.7749786   0.3933398  -0.0957882 SPIN=   0.00000
   O   0.2972405   0.2386138   0.0013167 SPIN=   0.00000
   O   0.4673601   0.1493702  -0.2585137 SPIN=   0.00000
   P   0.4649753   0.3101115  -0.1569155 SPIN=   0.00000
   O  -0.3470619  -0.4380855   0.2513495 SPIN=   0.00000
   O  -0.7749786  -0.3933398   0.4042118 SPIN=   0.00000
   O  -0.2972405  -0.2386138   0.5013167 SPIN=   0.00000
   O  -0.4673601  -0.1493702   0.2414863 SPIN=   0.00000
   P  -0.4649753  -0.3101115   0.3430845 SPIN=   0.00000
  Fe  -0.1232200   0.2469898   0.1239716 SPIN=   4.86980
  Fe   0.1232200  -0.2469898  -0.3760284 SPIN=   4.86980
  Fe   0.4889798   0.3665921   0.4925633 SPIN=   3.13020
  Fe  -0.4889798  -0.3665921  -0.0074367 SPIN=   3.13020
%ENDBLOCK POSITIONS_FRAC

# Note: total spin =  16.00

KPOINTS_MP_SPACING 0.07

%BLOCK SPECIES_POT
QC5
%ENDBLOCK SPECIES_POT

SNAP_TO_SYMMETRY
SYMMETRY_GENERATE

