#              Generated by Buildcell
#
# at 14:25:02 (GMT+0.0) 26th March 2023
# in /home/bonan/nas/work/m3gnet/with-u-rerun-extras
# on kiwi-c
# by bonan
#
# compiler GCC version 11.3.0
# options -cpp -imultiarch x86_64-linux-gnu -mtune=generic -march=x86-64 -g -Og -fpre-include=/usr/include/finclude/math-vector-fortran.h
#
# seed   724081620 -2059913773  -277409052 -1730290727  -848691552  -344919499  -535550397  1002554937
#
#      Author: C. J. Pickard (cjp20@cam.ac.uk)
#                Space group: P-1
#

%BLOCK LATTICE_ABC
      4.80180      8.10306      8.59968
     75.73323     84.46051     81.37524
%ENDBLOCK LATTICE_ABC

%BLOCK POSITIONS_FRAC
  Li  -0.1404524   0.4139108   0.3315793 SPIN=   0.00000
  Li   0.1404524  -0.4139108  -0.3315793 SPIN=   0.00000
  Li  -0.1469206   0.1060069  -0.1536506 SPIN=   0.00000
  Li   0.1469206  -0.1060069   0.1536506 SPIN=   0.00000
   O  -0.4067253   0.1579499   0.3474348 SPIN=   0.00000
   O  -0.2726181   0.3470777   0.0671158 SPIN=   0.00000
   O   0.1012425   0.1396813   0.2123723 SPIN=   0.00000
   O  -0.2767580   0.0319694   0.0977788 SPIN=   0.00000
   P  -0.2247356   0.1669531   0.1890437 SPIN=   0.00000
   O   0.4067253  -0.1579499  -0.3474348 SPIN=   0.00000
   O   0.2726181  -0.3470777  -0.0671158 SPIN=   0.00000
   O  -0.1012425  -0.1396813  -0.2123723 SPIN=   0.00000
   O   0.2767580  -0.0319694  -0.0977788 SPIN=   0.00000
   P   0.2247356  -0.1669531  -0.1890437 SPIN=   0.00000
   O   0.5087398  -0.2921275   0.2163346 SPIN=   0.00000
   O   0.0265344  -0.3533791   0.3679150 SPIN=   0.00000
   O   0.2558021  -0.5486072   0.1998500 SPIN=   0.00000
   P   0.3257945  -0.4302390   0.3070069 SPIN=   0.00000
   O  -0.5087398   0.2921275  -0.2163346 SPIN=   0.00000
   O  -0.0265344   0.3533791  -0.3679150 SPIN=   0.00000
   O  -0.2558021   0.5486072  -0.1998500 SPIN=   0.00000
   P  -0.3257945   0.4302390  -0.3070069 SPIN=   0.00000
   O  -0.5000000   0.5000000  -0.5000000 SPIN=   0.00000
   O  -0.0000000  -0.0000000  -0.5000000 SPIN=   0.00000
  Fe  -0.7146994   0.2993987   0.0092104 SPIN=   2.27199
  Fe   0.7146994  -0.2993987  -0.0092104 SPIN=   2.27199
  Fe  -0.6343959   0.2115992  -0.4295658 SPIN=   5.72801
  Fe   0.6343959  -0.2115992   0.4295658 SPIN=   5.72801
%ENDBLOCK POSITIONS_FRAC

# Note: total spin =  16.00

KPOINTS_MP_SPACING 0.07

%BLOCK SPECIES_POT
QC5
%ENDBLOCK SPECIES_POT

SNAP_TO_SYMMETRY
SYMMETRY_GENERATE

