#              Generated by Buildcell
#
# at 14:44:05 (GMT+0.0) 26th March 2023
# in /home/bonan/nas/work/m3gnet/with-u-rerun-extras
# on kiwi-c
# by bonan
#
# compiler GCC version 11.3.0
# options -cpp -imultiarch x86_64-linux-gnu -mtune=generic -march=x86-64 -g -Og -fpre-include=/usr/include/finclude/math-vector-fortran.h
#
# seed   716229046 -2111167493 -1026439695 -1497259680  -439710056   846318151  1774968858  1406501430
#
#      Author: C. J. Pickard (cjp20@cam.ac.uk)
#                Space group: P21
#

%BLOCK LATTICE_ABC
      4.60438      6.83039     10.21090
     94.80785     90.00000     90.00000
%ENDBLOCK LATTICE_ABC

%BLOCK POSITIONS_FRAC
  Li   0.4612527  -0.1044713   0.4263170 SPIN=   0.00000
  Li  -0.0387473   0.1044713  -0.4263170 SPIN=   0.00000
  Li   0.0043839   0.3748209  -0.0524918 SPIN=   0.00000
  Li  -0.4956161  -0.3748209   0.0524918 SPIN=   0.00000
   O  -0.4688941   0.5089380   0.2973373 SPIN=   0.00000
   O  -0.1120238   0.2775004   0.4070169 SPIN=   0.00000
   O  -0.5698662   0.3700512   0.5221364 SPIN=   0.00000
   O  -0.5835597   0.1423498   0.3168114 SPIN=   0.00000
   P  -0.4372358   0.3323670   0.3802995 SPIN=   0.00000
   O   0.0311059  -0.5089380  -0.2973373 SPIN=   0.00000
   O   0.3879762  -0.2775004  -0.4070169 SPIN=   0.00000
   O  -0.0698662  -0.3700512  -0.5221364 SPIN=   0.00000
   O  -0.0835597  -0.1423498  -0.3168114 SPIN=   0.00000
   P   0.0627642  -0.3323670  -0.3802995 SPIN=   0.00000
   O   0.8009118   0.1502977  -0.1708712 SPIN=   0.00000
   O   0.5086078  -0.1741350  -0.1645965 SPIN=   0.00000
   O   0.2886255   0.1333707  -0.0657550 SPIN=   0.00000
   O   0.3388230   0.0799713  -0.3103581 SPIN=   0.00000
   P   0.4993870   0.0532409  -0.1790844 SPIN=   0.00000
   O   0.3009118  -0.1502977   0.1708712 SPIN=   0.00000
   O   0.0086078   0.1741350   0.1645965 SPIN=   0.00000
   O  -0.2113745  -0.1333707   0.0657550 SPIN=   0.00000
   O  -0.1611770  -0.0799713   0.3103581 SPIN=   0.00000
   P  -0.0006130  -0.0532409   0.1790844 SPIN=   0.00000
  Fe   0.0059199  -0.4294916   0.2778396 SPIN=   4.55211
  Fe  -0.4940801   0.4294916  -0.2778396 SPIN=   4.55211
  Fe   0.0018108  -0.1619446  -0.1165896 SPIN=   3.44789
  Fe  -0.4981892   0.1619446   0.1165896 SPIN=   3.44789
%ENDBLOCK POSITIONS_FRAC

# Note: total spin =  16.00

KPOINTS_MP_SPACING 0.07

%BLOCK SPECIES_POT
QC5
%ENDBLOCK SPECIES_POT

SNAP_TO_SYMMETRY
SYMMETRY_GENERATE

