#              Generated by Buildcell
#
# at 14:27:37 (GMT+0.0) 26th March 2023
# in /home/bonan/nas/work/m3gnet/with-u-rerun-extras
# on kiwi-c
# by bonan
#
# compiler GCC version 11.3.0
# options -cpp -imultiarch x86_64-linux-gnu -mtune=generic -march=x86-64 -g -Og -fpre-include=/usr/include/finclude/math-vector-fortran.h
#
# seed -1008674754   807765997  -484634994   337409973  2077828729 -1339170822   -47693627 -1232835367
#
#      Author: C. J. Pickard (cjp20@cam.ac.uk)
#                Space group: C2
#

%BLOCK LATTICE_ABC
      7.39214      7.39214      7.62964
    102.41673    117.68653    107.36810
%ENDBLOCK LATTICE_ABC

%BLOCK POSITIONS_FRAC
  Li   0.4745111   0.3843853   0.7913057 SPIN=   0.00000
  Li  -0.4069204  -0.3167946  -0.7913057 SPIN=   0.00000
  Li   0.3520077   0.0373945  -0.0107377 SPIN=   0.00000
  Li   0.0481322   0.3627454   0.0107377 SPIN=   0.00000
   O   0.1986888   0.3802102  -0.1903125 SPIN=   0.00000
   O  -0.0503610   0.0432645  -0.1953564 SPIN=   0.00000
   O  -0.1523633   0.0596762  -0.5471334 SPIN=   0.00000
   O   0.2059319   0.0314527  -0.3211971 SPIN=   0.00000
   P   0.0602004   0.1408981  -0.3070315 SPIN=   0.00000
   O   0.5705227   0.3890013   0.1903125 SPIN=   0.00000
   O   0.2386209   0.1449954   0.1953564 SPIN=   0.00000
   O   0.6068096   0.3947702   0.5471334 SPIN=   0.00000
   O   0.3526498   0.5271291   0.3211971 SPIN=   0.00000
   P   0.4479297   0.3672319   0.3070315 SPIN=   0.00000
   O  -0.3408207   0.0245274   0.0704896 SPIN=   0.00000
   O  -0.4800721  -0.2013647  -0.3212612 SPIN=   0.00000
   O  -0.3989430   0.1679499  -0.2238192 SPIN=   0.00000
   P  -0.3210833   0.0189827  -0.1223445 SPIN=   0.00000
   O  -0.0459621  -0.4113103  -0.0704896 SPIN=   0.00000
   O   0.1198965  -0.1588109   0.3212612 SPIN=   0.00000
   O   0.3917691  -0.1751238   0.2238192 SPIN=   0.00000
   P   0.1413272  -0.1987388   0.1223445 SPIN=   0.00000
   O  -0.0773032   0.4226968   0.5000000 SPIN=   0.00000
   O  -0.2964321  -0.2964321  -0.0000000 SPIN=   0.00000
  Fe   0.0148666   0.0823047   0.2943007 SPIN=   5.23679
  Fe  -0.2119960  -0.2794342  -0.2943007 SPIN=   5.23679
  Fe  -0.8375736  -0.3375736  -0.5000000 SPIN=   4.16039
  Fe  -0.3914636   0.1085364   0.5000000 SPIN=   1.36602
%ENDBLOCK POSITIONS_FRAC

# Note: total spin =  16.00

KPOINTS_MP_SPACING 0.07

%BLOCK SPECIES_POT
QC5
%ENDBLOCK SPECIES_POT

SNAP_TO_SYMMETRY
SYMMETRY_GENERATE

