#              Generated by Buildcell
#
# at 14:33:41 (GMT+0.0) 26th March 2023
# in /home/bonan/nas/work/m3gnet/with-u-rerun-extras
# on kiwi-c
# by bonan
#
# compiler GCC version 11.3.0
# options -cpp -imultiarch x86_64-linux-gnu -mtune=generic -march=x86-64 -g -Og -fpre-include=/usr/include/finclude/math-vector-fortran.h
#
# seed -1007518601  -226370670   668503962   288882562  1416943056  -242423755 -1198300825  -183528787
#
#      Author: C. J. Pickard (cjp20@cam.ac.uk)
#                Space group: Pca21
#

%BLOCK LATTICE_ABC
      4.79961      7.07438      9.42444
     90.00000     90.00000     90.00000
%ENDBLOCK LATTICE_ABC

%BLOCK POSITIONS_FRAC
  Li   0.1694632   0.0105349   0.1519513 SPIN=   0.00000
  Li  -0.3305368  -0.0105349  -0.1519513 SPIN=   0.00000
  Li   0.1694632  -0.0105349  -0.3480487 SPIN=   0.00000
  Li  -0.3305368   0.0105349   0.3480487 SPIN=   0.00000
   O  -0.5060117   0.4192473  -0.3513667 SPIN=   0.00000
   O  -0.3260826   0.2985716  -0.5950752 SPIN=   0.00000
   O  -0.0087030   0.2831994  -0.3890922 SPIN=   0.00000
   O  -0.4189959   0.0650704  -0.4010334 SPIN=   0.00000
   P  -0.3263494   0.2722767  -0.4293438 SPIN=   0.00000
   O  -0.0060117  -0.4192473   0.3513667 SPIN=   0.00000
   O   0.1739174  -0.2985716   0.5950752 SPIN=   0.00000
   O   0.4912970  -0.2831994   0.3890922 SPIN=   0.00000
   O   0.0810041  -0.0650704   0.4010334 SPIN=   0.00000
   P   0.1736506  -0.2722767   0.4293438 SPIN=   0.00000
   O  -0.5060117  -0.4192473   0.1486333 SPIN=   0.00000
   O  -0.3260826  -0.2985716  -0.0950752 SPIN=   0.00000
   O  -0.0087030  -0.2831994   0.1109078 SPIN=   0.00000
   O  -0.4189959  -0.0650704   0.0989666 SPIN=   0.00000
   P  -0.3263494  -0.2722767   0.0706562 SPIN=   0.00000
   O  -0.0060117   0.4192473  -0.1486333 SPIN=   0.00000
   O   0.1739174   0.2985716   0.0950752 SPIN=   0.00000
   O   0.4912970   0.2831994  -0.1109078 SPIN=   0.00000
   O   0.0810041   0.0650704  -0.0989666 SPIN=   0.00000
   P   0.1736506   0.2722767  -0.0706562 SPIN=   0.00000
  Fe   0.1732095  -0.3219918  -0.0893585 SPIN=   4.00000
  Fe  -0.3267905   0.3219918   0.0893585 SPIN=   4.00000
  Fe   0.1732095   0.3219918   0.4106415 SPIN=   4.00000
  Fe  -0.3267905  -0.3219918  -0.4106415 SPIN=   4.00000
%ENDBLOCK POSITIONS_FRAC

# Note: total spin =  16.00

KPOINTS_MP_SPACING 0.07

%BLOCK SPECIES_POT
QC5
%ENDBLOCK SPECIES_POT

SNAP_TO_SYMMETRY
SYMMETRY_GENERATE

