#              Generated by Buildcell
#
# at 14:23:10 (GMT+0.0) 26th March 2023
# in /home/bonan/nas/work/m3gnet/with-u-rerun-extras
# on kiwi-c
# by bonan
#
# compiler GCC version 11.3.0
# options -cpp -imultiarch x86_64-linux-gnu -mtune=generic -march=x86-64 -g -Og -fpre-include=/usr/include/finclude/math-vector-fortran.h
#
# seed  1852858705  -135026117 -1886378692   558436819   191649516    51037882  1195796867  1882655230
#
#      Author: C. J. Pickard (cjp20@cam.ac.uk)
#                Space group: C2
#

%BLOCK LATTICE_ABC
      6.97033      6.97033      7.43193
     96.42978     96.42978    115.02496
%ENDBLOCK LATTICE_ABC

%BLOCK POSITIONS_FRAC
  Li  -0.1723147  -0.4524126  -0.3735660 SPIN=   0.00000
  Li   0.4524126   0.1723147   0.3735660 SPIN=   0.00000
  Li  -0.4419603  -0.1576724  -0.0110145 SPIN=   0.00000
  Li   0.1576724   0.4419603   0.0110145 SPIN=   0.00000
   O   0.6201739   0.5450554  -0.1872640 SPIN=   0.00000
   O   0.2606894   0.5774015  -0.2334353 SPIN=   0.00000
   O   0.3259557   0.3557340  -0.4800547 SPIN=   0.00000
   O   0.2551204   0.2261442  -0.1822953 SPIN=   0.00000
   P   0.3777434   0.4300589  -0.2652724 SPIN=   0.00000
   O  -0.5450554  -0.6201739   0.1872640 SPIN=   0.00000
   O  -0.5774015  -0.2606894   0.2334353 SPIN=   0.00000
   O  -0.3557340  -0.3259557   0.4800547 SPIN=   0.00000
   O  -0.2261442  -0.2551204   0.1822953 SPIN=   0.00000
   P  -0.4300589  -0.3777434   0.2652724 SPIN=   0.00000
   O  -0.5532427  -0.0240213  -0.2234593 SPIN=   0.00000
   O  -0.1965667  -0.0575881  -0.2289281 SPIN=   0.00000
   O  -0.3566248   0.0275419  -0.5041299 SPIN=   0.00000
   O  -0.1915936   0.3050387  -0.2166134 SPIN=   0.00000
   P  -0.3351175   0.0609824  -0.2886601 SPIN=   0.00000
   O   0.0240213   0.5532427   0.2234593 SPIN=   0.00000
   O   0.0575881   0.1965667   0.2289281 SPIN=   0.00000
   O  -0.0275419   0.3566248   0.5041299 SPIN=   0.00000
   O  -0.3050387   0.1915936   0.2166134 SPIN=   0.00000
   P  -0.0609824   0.3351175   0.2886601 SPIN=   0.00000
  Fe  -0.0292501   0.0292501   0.5000000 SPIN=   2.94775
  Fe   0.0657416  -0.0657416  -0.0000000 SPIN=   5.03275
  Fe  -0.3508675   0.3508675  -0.0000000 SPIN=   3.58711
  Fe   0.3021860  -0.3021860   0.5000000 SPIN=   4.43240
%ENDBLOCK POSITIONS_FRAC

# Note: total spin =  16.00

KPOINTS_MP_SPACING 0.07

%BLOCK SPECIES_POT
QC5
%ENDBLOCK SPECIES_POT

SNAP_TO_SYMMETRY
SYMMETRY_GENERATE

