#              Generated by Buildcell
#
# at 14:35:12 (GMT+0.0) 26th March 2023
# in /home/bonan/nas/work/m3gnet/with-u-rerun-extras
# on kiwi-c
# by bonan
#
# compiler GCC version 11.3.0
# options -cpp -imultiarch x86_64-linux-gnu -mtune=generic -march=x86-64 -g -Og -fpre-include=/usr/include/finclude/math-vector-fortran.h
#
# seed  1305320175  -125690296  1825824792   412093060   -92234622   390709121 -1743048805 -1666274435
#
#      Author: C. J. Pickard (cjp20@cam.ac.uk)
#                Space group: P-1
#

%BLOCK LATTICE_ABC
      5.90971      7.21348      7.82332
     75.10137     83.18990     87.65703
%ENDBLOCK LATTICE_ABC

%BLOCK POSITIONS_FRAC
  Li   0.0299263  -0.4320986  -0.2018181 SPIN=   0.00000
  Li  -0.0299263   0.4320986   0.2018181 SPIN=   0.00000
  Li   0.2616239  -0.0509777  -0.3751637 SPIN=   0.00000
  Li  -0.2616239   0.0509777   0.3751637 SPIN=   0.00000
   O  -0.4552295  -0.1510908  -0.1778367 SPIN=   0.00000
   O  -0.4671496  -0.1891496  -0.4979725 SPIN=   0.00000
   O  -0.0929139  -0.1495608  -0.4014987 SPIN=   0.00000
   O  -0.3053078  -0.4561807  -0.2709831 SPIN=   0.00000
   P  -0.3365169  -0.2345406  -0.3278143 SPIN=   0.00000
   O   0.4552295   0.1510908   0.1778367 SPIN=   0.00000
   O   0.4671496   0.1891496   0.4979725 SPIN=   0.00000
   O   0.0929139   0.1495608   0.4014987 SPIN=   0.00000
   O   0.3053078   0.4561807   0.2709831 SPIN=   0.00000
   P   0.3365169   0.2345406   0.3278143 SPIN=   0.00000
   O   0.1489645  -0.0021345  -0.1242128 SPIN=   0.00000
   O   0.1039757   0.3383194  -0.3325763 SPIN=   0.00000
   O   0.1168797   0.3081729  -0.0121498 SPIN=   0.00000
   O   0.4710441   0.2471577  -0.2004721 SPIN=   0.00000
   P   0.2100327   0.2111846  -0.1654466 SPIN=   0.00000
   O  -0.1489645   0.0021345   0.1242128 SPIN=   0.00000
   O  -0.1039757  -0.3383194   0.3325763 SPIN=   0.00000
   O  -0.1168797  -0.3081729   0.0121498 SPIN=   0.00000
   O  -0.4710441  -0.2471577   0.2004721 SPIN=   0.00000
   P  -0.2100327  -0.2111846   0.1654466 SPIN=   0.00000
  Fe   0.2312972  -0.0669026   0.1741890 SPIN=   5.40727
  Fe  -0.2312972   0.0669026  -0.1741890 SPIN=   5.40727
  Fe   0.5000000  -0.5000000  -0.0000000 SPIN=   0.24443
  Fe  -0.5000000  -0.5000000   0.5000000 SPIN=   4.94103
%ENDBLOCK POSITIONS_FRAC

# Note: total spin =  16.00

KPOINTS_MP_SPACING 0.07

%BLOCK SPECIES_POT
QC5
%ENDBLOCK SPECIES_POT

SNAP_TO_SYMMETRY
SYMMETRY_GENERATE

