#              Generated by Buildcell
#
# at 14:30:57 (GMT+0.0) 26th March 2023
# in /home/bonan/nas/work/m3gnet/with-u-rerun-extras
# on kiwi-c
# by bonan
#
# compiler GCC version 11.3.0
# options -cpp -imultiarch x86_64-linux-gnu -mtune=generic -march=x86-64 -g -Og -fpre-include=/usr/include/finclude/math-vector-fortran.h
#
# seed  1375093707  1039075445   963700415  2081434639 -1089883493   831137129  1063804755  1759136782
#
#      Author: C. J. Pickard (cjp20@cam.ac.uk)
#                Space group: Fdd2
#

%BLOCK LATTICE_ABC
      6.37719      6.37719      9.15866
    103.01865    103.01865    110.66830
%ENDBLOCK LATTICE_ABC

%BLOCK POSITIONS_FRAC
  Li   0.3294502   0.0442382  -0.3476946 SPIN=   0.00000
  Li  -0.0442382  -0.3294502   0.3476946 SPIN=   0.00000
  Li   0.3580672  -0.4271448   0.1523054 SPIN=   0.00000
  Li   0.4271448  -0.3580672  -0.1523054 SPIN=   0.00000
   O  -0.1070152   0.0080863  -0.1726581 SPIN=   0.00000
   O   0.0685066   0.4690074  -0.0591889 SPIN=   0.00000
   O   0.3413085   0.2766220  -0.0165481 SPIN=   0.00000
   O   0.1646373   0.2777246  -0.2897059 SPIN=   0.00000
   P   0.1055029   0.2447953  -0.1383869 SPIN=   0.00000
   O  -0.0080863   0.1070152   0.1726581 SPIN=   0.00000
   O  -0.4690074  -0.0685066   0.0591889 SPIN=   0.00000
   O  -0.2766220  -0.3413085   0.0165481 SPIN=   0.00000
   O  -0.2777246  -0.1646373   0.2897059 SPIN=   0.00000
   P  -0.2447953  -0.1055029   0.1383869 SPIN=   0.00000
   O   0.5692556   0.1843572   0.3273419 SPIN=   0.00000
   O   0.2218037   0.1223045   0.4408111 SPIN=   0.00000
   O   0.4568299  -0.1078566   0.4834519 SPIN=   0.00000
   O   0.1825695  -0.2043431   0.2102941 SPIN=   0.00000
   P   0.3668178   0.0061102   0.3616131 SPIN=   0.00000
   O  -0.1843572  -0.5692556  -0.3273419 SPIN=   0.00000
   O  -0.1223045  -0.2218037  -0.4408111 SPIN=   0.00000
   O   0.1078566  -0.4568299  -0.4834519 SPIN=   0.00000
   O   0.2043431  -0.1825695  -0.2102941 SPIN=   0.00000
   P  -0.0061102  -0.3668178  -0.3616131 SPIN=   0.00000
  Fe   0.1139359  -0.1139359   0.0000000 SPIN=   3.13731
  Fe  -0.1360641   0.1360641  -0.5000000 SPIN=   3.13731
  Fe   0.4956881  -0.4956881   0.5000000 SPIN=   4.86269
  Fe  -0.2543119   0.2543119   0.0000000 SPIN=   4.86269
%ENDBLOCK POSITIONS_FRAC

# Note: total spin =  16.00

KPOINTS_MP_SPACING 0.07

%BLOCK SPECIES_POT
QC5
%ENDBLOCK SPECIES_POT

SNAP_TO_SYMMETRY
SYMMETRY_GENERATE

