#              Generated by Buildcell
#
# at 14:43:53 (GMT+0.0) 26th March 2023
# in /home/bonan/nas/work/m3gnet/with-u-rerun-extras
# on kiwi-c
# by bonan
#
# compiler GCC version 11.3.0
# options -cpp -imultiarch x86_64-linux-gnu -mtune=generic -march=x86-64 -g -Og -fpre-include=/usr/include/finclude/math-vector-fortran.h
#
# seed  1678345818  -687148946 -1910193877  -672930685 -2083250659   726361263 -2118645293 -1101398880
#
#      Author: C. J. Pickard (cjp20@cam.ac.uk)
#                Space group: P21
#

%BLOCK LATTICE_ABC
      4.02184      5.02313     15.83987
     90.00000     90.00000     90.00101
%ENDBLOCK LATTICE_ABC

%BLOCK POSITIONS_FRAC
  Li   0.4844177  -0.3775353  -0.4799557 SPIN=   0.00000
  Li  -0.4844177   0.3775353   0.0200443 SPIN=   0.00000
  Li  -0.4720250  -0.0503202   0.2442044 SPIN=   0.00000
  Li   0.4720250   0.0503202  -0.2557956 SPIN=   0.00000
   O   0.0831538  -0.2295991  -0.2665621 SPIN=   0.00000
   O  -0.3957353  -0.1272417  -0.3717490 SPIN=   0.00000
   O   0.0218675  -0.4649543  -0.4117870 SPIN=   0.00000
   O  -0.3870414  -0.5664742  -0.2969767 SPIN=   0.00000
   P  -0.1585575  -0.3434019  -0.3325609 SPIN=   0.00000
   O  -0.0831538   0.2295991   0.2334379 SPIN=   0.00000
   O   0.3957353   0.1272417   0.1282510 SPIN=   0.00000
   O  -0.0218675   0.4649543   0.0882130 SPIN=   0.00000
   O   0.3870414   0.5664742   0.2030233 SPIN=   0.00000
   P   0.1585575   0.3434019   0.1674391 SPIN=   0.00000
   O  -0.3842965  -0.0236059  -0.0102043 SPIN=   0.00000
   O  -0.3642378   0.2783214  -0.1432811 SPIN=   0.00000
   O   0.1359551   0.0175838  -0.1065537 SPIN=   0.00000
   O  -0.3695208  -0.2169970  -0.1612499 SPIN=   0.00000
   P  -0.2543772   0.0091086  -0.1009177 SPIN=   0.00000
   O   0.3842965   0.0236059   0.4897957 SPIN=   0.00000
   O   0.3642378  -0.2783214   0.3567189 SPIN=   0.00000
   O  -0.1359551  -0.0175838   0.3934463 SPIN=   0.00000
   O   0.3695208   0.2169970   0.3387501 SPIN=   0.00000
   P   0.2543772  -0.0091086   0.3990823 SPIN=   0.00000
  Fe  -0.1155682   0.4497028   0.3458471 SPIN=   5.74579
  Fe   0.1155682  -0.4497028  -0.1541529 SPIN=   5.74579
  Fe  -0.0155764   0.1224729  -0.4309297 SPIN=   2.25421
  Fe   0.0155764  -0.1224729   0.0690703 SPIN=   2.25421
%ENDBLOCK POSITIONS_FRAC

# Note: total spin =  16.00

KPOINTS_MP_SPACING 0.07

%BLOCK SPECIES_POT
QC5
%ENDBLOCK SPECIES_POT

SNAP_TO_SYMMETRY
SYMMETRY_GENERATE

