#              Generated by Buildcell
#
# at 14:35:22 (GMT+0.0) 26th March 2023
# in /home/bonan/nas/work/m3gnet/with-u-rerun-extras
# on kiwi-c
# by bonan
#
# compiler GCC version 11.3.0
# options -cpp -imultiarch x86_64-linux-gnu -mtune=generic -march=x86-64 -g -Og -fpre-include=/usr/include/finclude/math-vector-fortran.h
#
# seed  1283038511 -1045654373 -1530239938   980606258  -990337266 -2105608903  1966149281  2039654606
#
#      Author: C. J. Pickard (cjp20@cam.ac.uk)
#                Space group: Aea2
#

%BLOCK LATTICE_ABC
      4.67254      4.67254     15.05471
     90.00000     90.00000    103.20032
%ENDBLOCK LATTICE_ABC

%BLOCK POSITIONS_FRAC
  Li   0.0352900  -0.3704229  -0.4978851 SPIN=   0.00000
  Li  -0.3704229   0.0352900   0.4978851 SPIN=   0.00000
  Li   0.1295771  -0.4647100   0.0021149 SPIN=   0.00000
  Li  -0.4647100   0.1295771  -0.0021149 SPIN=   0.00000
   O  -0.4179142   0.0312111   0.3278048 SPIN=   0.00000
   O  -0.5080250  -0.5062896   0.2703555 SPIN=   0.00000
   O  -0.0823325  -0.3224603   0.3685854 SPIN=   0.00000
   O  -0.5918046  -0.4158178   0.4312110 SPIN=   0.00000
   P  -0.4032352  -0.2868534   0.3492990 SPIN=   0.00000
   O   0.0312111  -0.4179142  -0.3278048 SPIN=   0.00000
   O  -0.5062896  -0.5080250  -0.2703555 SPIN=   0.00000
   O  -0.3224603  -0.0823325  -0.3685854 SPIN=   0.00000
   O  -0.4158178  -0.5918046  -0.4312110 SPIN=   0.00000
   P  -0.2868534  -0.4032352  -0.3492990 SPIN=   0.00000
   O   0.5312111   0.0820858  -0.1721952 SPIN=   0.00000
   O  -0.0062896  -0.0080250  -0.2296445 SPIN=   0.00000
   O   0.1775397   0.4176675  -0.1314146 SPIN=   0.00000
   O   0.0841822  -0.0918046  -0.0687890 SPIN=   0.00000
   P   0.2131466   0.0967648  -0.1507010 SPIN=   0.00000
   O   0.0820858   0.5312111   0.1721952 SPIN=   0.00000
   O  -0.0080250  -0.0062896   0.2296445 SPIN=   0.00000
   O   0.4176675   0.1775397   0.1314146 SPIN=   0.00000
   O  -0.0918046   0.0841822   0.0687890 SPIN=   0.00000
   P   0.0967648   0.2131466   0.1507010 SPIN=   0.00000
  Fe   0.1713522   0.1641064  -0.3499926 SPIN=   4.00000
  Fe   0.1641064   0.1713522   0.3499926 SPIN=   4.00000
  Fe  -0.3358936  -0.3286478   0.1500074 SPIN=   4.00000
  Fe  -0.3286478  -0.3358936  -0.1500074 SPIN=   4.00000
%ENDBLOCK POSITIONS_FRAC

# Note: total spin =  16.00

KPOINTS_MP_SPACING 0.07

%BLOCK SPECIES_POT
QC5
%ENDBLOCK SPECIES_POT

SNAP_TO_SYMMETRY
SYMMETRY_GENERATE

