#              Generated by Buildcell
#
# at 14:21:46 (GMT+0.0) 26th March 2023
# in /home/bonan/nas/work/m3gnet/with-u-rerun-extras
# on kiwi-c
# by bonan
#
# compiler GCC version 11.3.0
# options -cpp -imultiarch x86_64-linux-gnu -mtune=generic -march=x86-64 -g -Og -fpre-include=/usr/include/finclude/math-vector-fortran.h
#
# seed  1748450163   -61774892  1453331305  -232170955    34146840 -1061837349  1166009337  1606989344
#
#      Author: C. J. Pickard (cjp20@cam.ac.uk)
#                Space group: Cc
#

%BLOCK LATTICE_ABC
      4.66020      5.54942     13.71192
     95.55587     90.00000    114.82710
%ENDBLOCK LATTICE_ABC

%BLOCK POSITIONS_FRAC
  Li  -0.1118719   0.2417894  -0.2557940 SPIN=   0.00000
  Li  -0.1463387   0.2417894   0.2442060 SPIN=   0.00000
  Li   0.4889586  -0.4667545   0.3664222 SPIN=   0.00000
  Li  -0.4557131  -0.4667545  -0.1335778 SPIN=   0.00000
   O   0.0727068  -0.0960756   0.4761521 SPIN=   0.00000
   O   0.1828846   0.1353933   0.3156607 SPIN=   0.00000
   O   0.5284671  -0.0746988   0.3631521 SPIN=   0.00000
   O  -0.0323784  -0.3631290   0.3048234 SPIN=   0.00000
   P   0.1791857  -0.1025480   0.3701587 SPIN=   0.00000
   O   0.3312176  -0.0960756  -0.0238479 SPIN=   0.00000
   O   0.4525087   0.1353933  -0.1843393 SPIN=   0.00000
   O  -0.1031659  -0.0746988  -0.1368479 SPIN=   0.00000
   O   0.1692494  -0.3631290  -0.1951766 SPIN=   0.00000
   P   0.2182663  -0.1025480  -0.1298413 SPIN=   0.00000
   O   0.4577148  -0.7780486   0.1258216 SPIN=   0.00000
   O   0.5708116  -0.2984922   0.2026870 SPIN=   0.00000
   O   0.7567347  -0.3547181   0.0369756 SPIN=   0.00000
   O   0.1763113  -0.5076534   0.0610232 SPIN=   0.00000
   P   0.4849466  -0.5006165   0.1071107 SPIN=   0.00000
   O  -0.7357634  -0.7780486  -0.3741784 SPIN=   0.00000
   O  -0.3693039  -0.2984922  -0.2973130 SPIN=   0.00000
   O  -0.6114528  -0.3547181  -0.4630244 SPIN=   0.00000
   O  -0.1839647  -0.5076534  -0.4389768 SPIN=   0.00000
   P  -0.4855631  -0.5006165  -0.3928893 SPIN=   0.00000
  Fe  -0.1856667   0.1628349  -0.0214797 SPIN=   5.21137
  Fe  -0.1514984   0.1628349   0.4785203 SPIN=   5.21137
  Fe   0.1438417  -0.1781455   0.1560781 SPIN=   2.78863
  Fe   0.1780128  -0.1781455  -0.3439219 SPIN=   2.78863
%ENDBLOCK POSITIONS_FRAC

# Note: total spin =  16.00

KPOINTS_MP_SPACING 0.07

%BLOCK SPECIES_POT
QC5
%ENDBLOCK SPECIES_POT

SNAP_TO_SYMMETRY
SYMMETRY_GENERATE

