#              Generated by Buildcell
#
# at 14:25:36 (GMT+0.0) 26th March 2023
# in /home/bonan/nas/work/m3gnet/with-u-rerun-extras
# on kiwi-c
# by bonan
#
# compiler GCC version 11.3.0
# options -cpp -imultiarch x86_64-linux-gnu -mtune=generic -march=x86-64 -g -Og -fpre-include=/usr/include/finclude/math-vector-fortran.h
#
# seed  -952935577  -452522022  -448619423  1134903089  -810362117   703170852  -218822929 -1108950781
#
#      Author: C. J. Pickard (cjp20@cam.ac.uk)
#                Space group: P21
#

%BLOCK LATTICE_ABC
      4.95796      6.55155     10.05496
     90.00000     90.00000    101.54521
%ENDBLOCK LATTICE_ABC

%BLOCK POSITIONS_FRAC
  Li   0.3235975  -0.2793163   0.1386053 SPIN=   0.00000
  Li  -0.3235975   0.2793163  -0.3613947 SPIN=   0.00000
  Li   0.2331138   0.1654649   0.1523439 SPIN=   0.00000
  Li  -0.2331138  -0.1654649  -0.3476561 SPIN=   0.00000
   O   0.2298194   0.2228472  -0.4841449 SPIN=   0.00000
   O   0.0039110   0.5282474  -0.4074283 SPIN=   0.00000
   O   0.4934782   0.5433872  -0.3533394 SPIN=   0.00000
   O   0.3557874   0.5892215  -0.5893938 SPIN=   0.00000
   P   0.2695732   0.4591129  -0.4614818 SPIN=   0.00000
   O  -0.2298194  -0.2228472   0.0158551 SPIN=   0.00000
   O  -0.0039110  -0.5282474   0.0925717 SPIN=   0.00000
   O  -0.4934782  -0.5433872   0.1466606 SPIN=   0.00000
   O  -0.3557874  -0.5892215  -0.0893938 SPIN=   0.00000
   P  -0.2695732  -0.4591129   0.0385182 SPIN=   0.00000
   O   0.0323299   0.1187642  -0.2082934 SPIN=   0.00000
   O   0.4537261  -0.0549600  -0.2451960 SPIN=   0.00000
   O   0.2588379  -0.0581504  -0.0189570 SPIN=   0.00000
   O  -0.0065838  -0.2799157  -0.1967118 SPIN=   0.00000
   P   0.1742152  -0.0610853  -0.1698201 SPIN=   0.00000
   O  -0.0323299  -0.1187642   0.2917066 SPIN=   0.00000
   O  -0.4537261   0.0549600   0.2548040 SPIN=   0.00000
   O  -0.2588379   0.0581504   0.4810430 SPIN=   0.00000
   O   0.0065838   0.2799157   0.3032882 SPIN=   0.00000
   P  -0.1742152   0.0610853   0.3301799 SPIN=   0.00000
  Fe   0.3063127  -0.4779812  -0.1652224 SPIN=   4.31257
  Fe  -0.3063127   0.4779812   0.3347776 SPIN=   4.31257
  Fe  -0.2914711   0.0714969  -0.0555555 SPIN=   3.68743
  Fe   0.2914711  -0.0714969   0.4444445 SPIN=   3.68743
%ENDBLOCK POSITIONS_FRAC

# Note: total spin =  16.00

KPOINTS_MP_SPACING 0.07

%BLOCK SPECIES_POT
QC5
%ENDBLOCK SPECIES_POT

SNAP_TO_SYMMETRY
SYMMETRY_GENERATE

