#              Generated by Buildcell
#
# at 14:39:05 (GMT+0.0) 26th March 2023
# in /home/bonan/nas/work/m3gnet/with-u-rerun-extras
# on kiwi-c
# by bonan
#
# compiler GCC version 11.3.0
# options -cpp -imultiarch x86_64-linux-gnu -mtune=generic -march=x86-64 -g -Og -fpre-include=/usr/include/finclude/math-vector-fortran.h
#
# seed -1617464664 -1007615133 -1854274530  1543824721 -1933348756  -707632334  -449070549  -590499597
#
#      Author: C. J. Pickard (cjp20@cam.ac.uk)
#                Space group: P-1
#

%BLOCK LATTICE_ABC
      6.90472      7.45896      7.69508
    118.67400    109.49847     91.07974
%ENDBLOCK LATTICE_ABC

%BLOCK POSITIONS_FRAC
  Li  -0.2495445   0.1180320   0.0596935 SPIN=   0.00000
  Li   0.2495445  -0.1180320  -0.0596935 SPIN=   0.00000
  Li  -0.0000000   0.5000000  -0.5000000 SPIN=   0.00000
  Li   0.5000000  -0.5000000  -0.0000000 SPIN=   0.00000
   O  -0.2758804   0.1464980   0.3386933 SPIN=   0.00000
   O  -0.2546076  -0.1957310   0.3492751 SPIN=   0.00000
   O  -0.5923598  -0.0816386   0.3026467 SPIN=   0.00000
   O  -0.4663964  -0.2181058   0.0016845 SPIN=   0.00000
   P  -0.3916607  -0.0763430   0.2499922 SPIN=   0.00000
   O   0.2758804  -0.1464980  -0.3386933 SPIN=   0.00000
   O   0.2546076   0.1957310  -0.3492751 SPIN=   0.00000
   O   0.5923598   0.0816386  -0.3026467 SPIN=   0.00000
   O   0.4663964   0.2181058  -0.0016845 SPIN=   0.00000
   P   0.3916607   0.0763430  -0.2499922 SPIN=   0.00000
   O   0.3494176   0.4767180   0.2859238 SPIN=   0.00000
   O  -0.0574518   0.4250177   0.1268073 SPIN=   0.00000
   O   0.1012627   0.1287504  -0.0464163 SPIN=   0.00000
   O   0.1041448   0.2378928   0.3172901 SPIN=   0.00000
   P   0.1360891   0.3246592   0.1787532 SPIN=   0.00000
   O  -0.3494176  -0.4767180  -0.2859238 SPIN=   0.00000
   O   0.0574518  -0.4250177  -0.1268073 SPIN=   0.00000
   O  -0.1012627  -0.1287504   0.0464163 SPIN=   0.00000
   O  -0.1041448  -0.2378928  -0.3172901 SPIN=   0.00000
   P  -0.1360891  -0.3246592  -0.1787532 SPIN=   0.00000
  Fe   0.0051927   0.2510251  -0.2473037 SPIN=   1.31498
  Fe  -0.0051927  -0.2510251   0.2473037 SPIN=   1.31498
  Fe  -0.4176084  -0.2420144  -0.4847904 SPIN=   6.68502
  Fe   0.4176084   0.2420144   0.4847904 SPIN=   6.68502
%ENDBLOCK POSITIONS_FRAC

# Note: total spin =  16.00

KPOINTS_MP_SPACING 0.07

%BLOCK SPECIES_POT
QC5
%ENDBLOCK SPECIES_POT

SNAP_TO_SYMMETRY
SYMMETRY_GENERATE

