#              Generated by Buildcell
#
# at 14:26:59 (GMT+0.0) 26th March 2023
# in /home/bonan/nas/work/m3gnet/with-u-rerun-extras
# on kiwi-c
# by bonan
#
# compiler GCC version 11.3.0
# options -cpp -imultiarch x86_64-linux-gnu -mtune=generic -march=x86-64 -g -Og -fpre-include=/usr/include/finclude/math-vector-fortran.h
#
# seed  1085201470  2104556359  1114488458  1726222578  -260770620 -1546102251 -1855164526  1325249562
#
#      Author: C. J. Pickard (cjp20@cam.ac.uk)
#                Space group: Cc
#

%BLOCK LATTICE_ABC
      5.64292      5.64292     10.53646
    101.57016    101.57016     93.83426
%ENDBLOCK LATTICE_ABC

%BLOCK POSITIONS_FRAC
  Li  -0.3506661  -0.4162857  -0.4288341 SPIN=   0.00000
  Li  -0.4162857  -0.3506661   0.0711659 SPIN=   0.00000
  Li  -0.0592622   0.1084817  -0.3779726 SPIN=   0.00000
  Li   0.1084817  -0.0592622   0.1220274 SPIN=   0.00000
   O   0.4767660   0.2637897   0.1166827 SPIN=   0.00000
   O   0.3703072   0.4080911   0.3465907 SPIN=   0.00000
   O   0.3250997   0.6836776   0.1904552 SPIN=   0.00000
   O   0.0347371   0.3049936   0.1423259 SPIN=   0.00000
   P   0.3078967   0.4057796   0.1939610 SPIN=   0.00000
   O   0.2637897   0.4767660  -0.3833173 SPIN=   0.00000
   O   0.4080911   0.3703072  -0.1534093 SPIN=   0.00000
   O   0.6836776   0.3250997  -0.3095448 SPIN=   0.00000
   O   0.3049936   0.0347371  -0.3576741 SPIN=   0.00000
   P   0.4057796   0.3078967  -0.3060390 SPIN=   0.00000
   O  -0.4003364   0.0555576   0.3002578 SPIN=   0.00000
   O  -0.0653243  -0.2194873   0.2482329 SPIN=   0.00000
   O   0.0538231   0.1565481   0.4233744 SPIN=   0.00000
   O  -0.1955722  -0.1935734   0.4638121 SPIN=   0.00000
   P  -0.1655990  -0.0462971   0.3570337 SPIN=   0.00000
   O   0.0555576  -0.4003364  -0.1997422 SPIN=   0.00000
   O  -0.2194873  -0.0653243  -0.2517671 SPIN=   0.00000
   O   0.1565481   0.0538231  -0.0766256 SPIN=   0.00000
   O  -0.1935734  -0.1955722  -0.0361879 SPIN=   0.00000
   P  -0.0462971  -0.1655990  -0.1429663 SPIN=   0.00000
  Fe   0.3831454   0.0053899   0.4372169 SPIN=   3.56466
  Fe   0.0053899   0.3831454  -0.0627831 SPIN=   3.56466
  Fe   0.4351727  -0.1030669  -0.1864466 SPIN=   4.43534
  Fe  -0.1030669   0.4351727   0.3135534 SPIN=   4.43534
%ENDBLOCK POSITIONS_FRAC

# Note: total spin =  16.00

KPOINTS_MP_SPACING 0.07

%BLOCK SPECIES_POT
QC5
%ENDBLOCK SPECIES_POT

SNAP_TO_SYMMETRY
SYMMETRY_GENERATE

