#              Generated by Buildcell
#
# at 18:04:05 (GMT+1.0) 26th March 2023
# in /scratch/scratch/uccabz1/launch_tmp_michael
# on node-a14b-022
# by uccabz1
#
# compiler GCC version 4.9.2
# options -cpp -iprefix /scratch/UCL/applications/gcc/4.9.2/bin/../lib/gcc/x86_64-unknown-linux-gnu/4.9.2/ -mtune=corei7 -march=x86-64 -g -Og
#
# seed  -110161935 -1278726936 -1265140306 -1235546695 -1804869712   926297372  -954093719 -1768407989  1802503132  -726077286  2045718975  -898590661
#
#      Author: C. J. Pickard (cjp20@cam.ac.uk)
#                Space group: P-1
#

%BLOCK LATTICE_ABC
      4.51132      5.81197      7.95611
    111.26967     90.50329    110.16312
%ENDBLOCK LATTICE_ABC

%BLOCK POSITIONS_FRAC
  Li        0.3695238       -0.3535799       -0.0923311
  Li       -0.3695238        0.3535799        0.0923311
  Li        0.1135291       -0.3763155        0.4010612
  Li       -0.1135291        0.3763155       -0.4010612
  Li       -0.1300034       -0.0379552       -0.1521458
  Li        0.1300034        0.0379552        0.1521458
   N       -0.1416111        0.2481019       -0.2109716
   N        0.1416111       -0.2481019        0.2109716
   N        0.4262578       -0.1293994       -0.2254841
   N       -0.4262578        0.1293994        0.2254841
   N        0.2039202       -0.0202212        0.4247871
   N       -0.2039202        0.0202212       -0.4247871
   N        0.3867502       -0.4693910       -0.4347270
   N       -0.3867502        0.4693910        0.4347270
   N        0.4333849        0.3221851       -0.1311399
   N       -0.4333849       -0.3221851        0.1311399
   N        0.3010557        0.4140704        0.2279801
   N       -0.3010557       -0.4140704       -0.2279801
%ENDBLOCK POSITIONS_FRAC

KPOINTS_MP_SPACING 0.07

%BLOCK SPECIES_POT
QC5
%ENDBLOCK SPECIES_POT

SNAP_TO_SYMMETRY
SYMMETRY_GENERATE

