#              Generated by Buildcell
#
# at 19:15:59 (GMT+1.0) 26th March 2023
# in /scratch/scratch/uccabz1/launch_tmp_michael
# on node-a14f-035
# by uccabz1
#
# compiler GCC version 4.9.2
# options -cpp -iprefix /scratch/UCL/applications/gcc/4.9.2/bin/../lib/gcc/x86_64-unknown-linux-gnu/4.9.2/ -mtune=corei7 -march=x86-64 -g -Og
#
# seed  2030954099  -870886436   604442943  1939216261  -908700288   552532103 -1173777573    63335251    -1239279 -1267656213   436623009  -834865614
#
#      Author: C. J. Pickard (cjp20@cam.ac.uk)
#                Space group: C2
#

%BLOCK LATTICE_ABC
      4.98606      4.98606      7.44335
     84.10787     84.10787     88.07714
%ENDBLOCK LATTICE_ABC

%BLOCK POSITIONS_FRAC
  Li       -0.4700190        0.1182071        0.0334744
  Li       -0.1182071        0.4700190       -0.0334744
  Li       -0.4222646        0.1363999        0.3678001
  Li       -0.1363999        0.4222646       -0.3678001
  Li        0.1516156       -0.2063478        0.3378670
  Li        0.2063478       -0.1516156       -0.3378670
   N       -0.0450358       -0.3877540        0.1831978
   N        0.3877540        0.0450358       -0.1831978
   N       -0.2598527        0.0780230       -0.4056852
   N       -0.0780230        0.2598527        0.4056852
   N        0.4721895       -0.2132908       -0.0780642
   N        0.2132908       -0.4721895        0.0780642
   N        0.0965498        0.3156399        0.2301369
   N       -0.3156399       -0.0965498       -0.2301369
   N        0.1740937        0.1122126        0.4575735
   N       -0.1122126       -0.1740937       -0.4575735
   N        0.2860699       -0.1702752        0.0885403
   N        0.1702752       -0.2860699       -0.0885403
%ENDBLOCK POSITIONS_FRAC

KPOINTS_MP_SPACING 0.07

%BLOCK SPECIES_POT
QC5
%ENDBLOCK SPECIES_POT

SNAP_TO_SYMMETRY
SYMMETRY_GENERATE

