#              Generated by Buildcell
#
# at 19:01:42 (GMT+1.0) 26th March 2023
# in /scratch/scratch/uccabz1/launch_tmp_michael
# on node-a14e-021
# by uccabz1
#
# compiler GCC version 4.9.2
# options -cpp -iprefix /scratch/UCL/applications/gcc/4.9.2/bin/../lib/gcc/x86_64-unknown-linux-gnu/4.9.2/ -mtune=corei7 -march=x86-64 -g -Og
#
# seed  1150483675  2062401820 -1875086256   883250341 -1665815126  -734410358 -1873802856  -910940141  1499749595 -1004560967  -779510205 -1714598683
#
#      Author: C. J. Pickard (cjp20@cam.ac.uk)
#                Space group: P-4
#

%BLOCK LATTICE_ABC
      3.08481      3.08481      9.75623
     90.00000     90.00000     90.00000
%ENDBLOCK LATTICE_ABC

%BLOCK POSITIONS_FRAC
  Li        0.0000000       -0.5000000        0.4373997
  Li        0.5000000        0.0000000       -0.4373997
  Li        0.0000000        0.0000000        0.0000000
   N       -0.2877286        0.2881673        0.2787692
   N        0.2877286       -0.2881673        0.2787692
   N       -0.2881673       -0.2877286       -0.2787692
   N        0.2881673        0.2877286       -0.2787692
   N       -0.0000000       -0.0000000       -0.1947472
   N       -0.0000000       -0.0000000        0.1947472
%ENDBLOCK POSITIONS_FRAC

KPOINTS_MP_SPACING 0.07

%BLOCK SPECIES_POT
QC5
%ENDBLOCK SPECIES_POT

SNAP_TO_SYMMETRY
SYMMETRY_GENERATE

