#              Generated by Buildcell
#
# at 15:25:28 (GMT+1.0) 26th March 2023
# in /scratch/scratch/uccabz1/launch_tmp_michael
# on node-a14c-005
# by uccabz1
#
# compiler GCC version 4.9.2
# options -cpp -iprefix /scratch/UCL/applications/gcc/4.9.2/bin/../lib/gcc/x86_64-unknown-linux-gnu/4.9.2/ -mtune=corei7 -march=x86-64 -g -Og
#
# seed -1644668219   -58354163 -1894074053 -1329857592   801661068 -1368481542 -1241057592   703359909  -570577947   528656525   972440322  1643328587
#
#      Author: C. J. Pickard (cjp20@cam.ac.uk)
#                Space group: Pna21
#

%BLOCK LATTICE_ABC
      3.32652      5.73147      6.16420
     90.00000     90.00000     90.00000
%ENDBLOCK LATTICE_ABC

%BLOCK POSITIONS_FRAC
  Li        0.2669006       -0.2123345       -0.2555655
  Li       -0.2669006        0.2123345        0.2444345
  Li        0.2330994        0.2876655       -0.2555655
  Li       -0.2330994       -0.2876655        0.2444345
   N       -0.2624965       -0.0379476        0.0423214
   N        0.2624965        0.0379476       -0.4576786
   N       -0.2375035        0.4620524        0.0423214
   N        0.2375035       -0.4620524       -0.4576786
   N        0.1889464       -0.2023430        0.4363711
   N       -0.1889464        0.2023430       -0.0636289
   N        0.3110536        0.2976570        0.4363711
   N       -0.3110536       -0.2976570       -0.0636289
%ENDBLOCK POSITIONS_FRAC

KPOINTS_MP_SPACING 0.07

%BLOCK SPECIES_POT
QC5
%ENDBLOCK SPECIES_POT

SNAP_TO_SYMMETRY
SYMMETRY_GENERATE

