#              Generated by Buildcell
#
# at 16:59:36 (GMT+1.0) 26th March 2023
# in /scratch/scratch/uccabz1/launch_tmp_michael
# on node-a14c-005
# by uccabz1
#
# compiler GCC version 4.9.2
# options -cpp -iprefix /scratch/UCL/applications/gcc/4.9.2/bin/../lib/gcc/x86_64-unknown-linux-gnu/4.9.2/ -mtune=corei7 -march=x86-64 -g -Og
#
# seed  2145319579  -874385673  -204160044   599629504 -1144442964  2133176208  2126969315   176033943  1913070478  1814059611  -699389560  1118798961
#
#      Author: C. J. Pickard (cjp20@cam.ac.uk)
#                Space group: P32
#

%BLOCK LATTICE_ABC
      5.67041      6.01878      6.01878
    120.00000     90.00000     90.00000
%ENDBLOCK LATTICE_ABC

%BLOCK POSITIONS_FRAC
  Li        0.3695251       -0.3020789        0.1477302
  Li        0.0361918       -0.1477302       -0.4498091
  Li       -0.2971415        0.4498091        0.3020789
  Li       -0.3068658       -0.0210456        0.1453744
  Li        0.3598009       -0.1453744       -0.1664200
  Li        0.0264675        0.1664200        0.0210456
   N       -0.1905238        0.4834538       -0.1805194
   N        0.4761428        0.1805194       -0.3360268
   N        0.1428095        0.3360268       -0.4834538
   N        0.0394954       -0.2438288        0.1976467
   N       -0.2938380       -0.1976467       -0.4414756
   N        0.3728287        0.4414756        0.2438288
   N       -0.3903969       -0.3760458       -0.3477815
   N        0.2762698        0.3477815       -0.0282642
   N       -0.0570635        0.0282642        0.3760458
   N       -0.3109714        0.0858572       -0.2601063
   N        0.3556952        0.2601063        0.3459634
   N        0.0223619       -0.3459634       -0.0858572
%ENDBLOCK POSITIONS_FRAC

KPOINTS_MP_SPACING 0.07

%BLOCK SPECIES_POT
QC5
%ENDBLOCK SPECIES_POT

SNAP_TO_SYMMETRY
SYMMETRY_GENERATE

