#              Generated by Buildcell
#
# at 20:05:27 (GMT+1.0) 26th March 2023
# in /scratch/scratch/uccabz1/launch_tmp_michael
# on node-a14e-007
# by uccabz1
#
# compiler GCC version 4.9.2
# options -cpp -iprefix /scratch/UCL/applications/gcc/4.9.2/bin/../lib/gcc/x86_64-unknown-linux-gnu/4.9.2/ -mtune=corei7 -march=x86-64 -g -Og
#
# seed  1963231083  1530712783  -747831746  1654749850   -71058410 -1208697806  1180864068   233583061 -1257752302  1583765272   526027404  1802717762
#
#      Author: C. J. Pickard (cjp20@cam.ac.uk)
#                Space group: R3
#

%BLOCK LATTICE_ABC
      4.54564      4.54564      4.54564
     80.93242     80.93242     80.93242
%ENDBLOCK LATTICE_ABC

%BLOCK POSITIONS_FRAC
  Li       -0.1827099        0.1180368        0.3072352
  Li        0.1180368        0.3072352       -0.1827099
  Li        0.3072352       -0.1827099        0.1180368
   N        0.4082345        0.1998531        0.4870703
   N        0.1998531        0.4870703        0.4082345
   N        0.4870703        0.4082345        0.1998531
   N        0.3766337       -0.2570305       -0.4701306
   N       -0.2570305       -0.4701306        0.3766337
   N       -0.4701306        0.3766337       -0.2570305
%ENDBLOCK POSITIONS_FRAC

KPOINTS_MP_SPACING 0.07

%BLOCK SPECIES_POT
QC5
%ENDBLOCK SPECIES_POT

SNAP_TO_SYMMETRY
SYMMETRY_GENERATE

