#              Generated by Buildcell
#
# at 16:34:01 (GMT+1.0) 26th March 2023
# in /scratch/scratch/uccabz1/launch_tmp_michael
# on node-a14a-001
# by uccabz1
#
# compiler GCC version 4.9.2
# options -cpp -iprefix /scratch/UCL/applications/gcc/4.9.2/bin/../lib/gcc/x86_64-unknown-linux-gnu/4.9.2/ -mtune=corei7 -march=x86-64 -g -Og
#
# seed -2142366712  1225949276  -694806458 -1102926046  -967328659  1928700926   831648133   453689987   966262461  -928569288  -495920233 -1612665891
#
#      Author: C. J. Pickard (cjp20@cam.ac.uk)
#                Space group: I222
#

%BLOCK LATTICE_ABC
      3.36165      5.63318      5.63318
     62.96055     72.63970     72.63970
%ENDBLOCK LATTICE_ABC

%BLOCK POSITIONS_FRAC
  Li       -0.2055940        0.2055940        0.2055940
  Li        0.2055940       -0.2055940       -0.2055940
  Li        0.5000000        0.0000000       -0.0000000
   N        0.2843726        0.2021301        0.4771614
   N       -0.0363359       -0.2021301       -0.4771614
   N        0.0363359        0.4771614        0.2021301
   N       -0.2843726       -0.4771614       -0.2021301
   N        0.4166780       -0.4166780       -0.4166780
   N       -0.4166780        0.4166780        0.4166780
%ENDBLOCK POSITIONS_FRAC

KPOINTS_MP_SPACING 0.07

%BLOCK SPECIES_POT
QC5
%ENDBLOCK SPECIES_POT

SNAP_TO_SYMMETRY
SYMMETRY_GENERATE

