#              Generated by Buildcell
#
# at 15:45:16 (GMT+1.0) 26th March 2023
# in /scratch/scratch/uccabz1/launch_tmp_michael
# on node-a14e-007
# by uccabz1
#
# compiler GCC version 4.9.2
# options -cpp -iprefix /scratch/UCL/applications/gcc/4.9.2/bin/../lib/gcc/x86_64-unknown-linux-gnu/4.9.2/ -mtune=corei7 -march=x86-64 -g -Og
#
# seed  1805829651  -288958767  -265685188  1439368842 -1078642453  -639355519   626178385  -116410562  -460388268 -1347434834  1908217366   197714306
#
#      Author: C. J. Pickard (cjp20@cam.ac.uk)
#                Space group: P32
#

%BLOCK LATTICE_ABC
      3.97811      5.12284      5.12284
    120.00000     90.00000     90.00000
%ENDBLOCK LATTICE_ABC

%BLOCK POSITIONS_FRAC
  Li       -0.1905982        0.2677495       -0.0487599
  Li        0.4760685        0.0487599        0.3165094
  Li        0.1427352       -0.3165094       -0.2677495
   N       -0.4741565       -0.0292896       -0.3485997
   N        0.1925102        0.3485997        0.3193101
   N       -0.1408232       -0.3193101        0.0292896
   N       -0.0944319       -0.4322698        0.3610473
   N       -0.4277652       -0.3610473        0.2066829
   N        0.2389014       -0.2066829        0.4322698
%ENDBLOCK POSITIONS_FRAC

KPOINTS_MP_SPACING 0.07

%BLOCK SPECIES_POT
QC5
%ENDBLOCK SPECIES_POT

SNAP_TO_SYMMETRY
SYMMETRY_GENERATE

