#              Generated by Buildcell
#
# at 16:50:26 (GMT+1.0) 26th March 2023
# in /scratch/scratch/uccabz1/launch_tmp_michael
# on node-a14e-007
# by uccabz1
#
# compiler GCC version 4.9.2
# options -cpp -iprefix /scratch/UCL/applications/gcc/4.9.2/bin/../lib/gcc/x86_64-unknown-linux-gnu/4.9.2/ -mtune=corei7 -march=x86-64 -g -Og
#
# seed -1167344438   596293353  1040561195   233794359   838289678   431458455  1124580399    -8732152  1153008083  -533086679 -1300696539 -1895980423
#
#      Author: C. J. Pickard (cjp20@cam.ac.uk)
#                Space group: R3
#

%BLOCK LATTICE_ABC
      4.08732      4.08732      4.08732
     70.41623     70.41623     70.41623
%ENDBLOCK LATTICE_ABC

%BLOCK POSITIONS_FRAC
  Li       -0.4354116       -0.4354116       -0.4354116
  Li        0.2899068        0.2899068        0.2899068
   N       -0.1357262       -0.2639746        0.1110730
   N       -0.2639746        0.1110730       -0.1357262
   N        0.1110730       -0.1357262       -0.2639746
   N       -0.2277273       -0.2277273       -0.2277273
%ENDBLOCK POSITIONS_FRAC

KPOINTS_MP_SPACING 0.07

%BLOCK SPECIES_POT
QC5
%ENDBLOCK SPECIES_POT

SNAP_TO_SYMMETRY
SYMMETRY_GENERATE

