#              Generated by Buildcell
#
# at 19:28:01 (GMT+1.0) 26th March 2023
# in /scratch/scratch/uccabz1/launch_tmp_michael
# on node-a14a-019
# by uccabz1
#
# compiler GCC version 4.9.2
# options -cpp -iprefix /scratch/UCL/applications/gcc/4.9.2/bin/../lib/gcc/x86_64-unknown-linux-gnu/4.9.2/ -mtune=corei7 -march=x86-64 -g -Og
#
# seed  -840155658 -1674571409 -1652345100  1430303148  -472047039  -841416023  -228660687  -266905758  2129253414  -185592204  -548120671   338589673
#
#      Author: C. J. Pickard (cjp20@cam.ac.uk)
#                Space group: Pm
#

%BLOCK LATTICE_ABC
      2.71180      4.43348      5.02385
     90.00000     90.00000    100.56437
%ENDBLOCK LATTICE_ABC

%BLOCK POSITIONS_FRAC
  Li        0.3470720        0.1091849        0.2488137
  Li        0.3470720        0.1091849       -0.2488137
   N       -0.4896336       -0.3804278       -0.1493238
   N       -0.4896336       -0.3804278        0.1493238
   N       -0.1429749        0.4426304        0.3506611
   N       -0.1429749        0.4426304       -0.3506611
%ENDBLOCK POSITIONS_FRAC

KPOINTS_MP_SPACING 0.07

%BLOCK SPECIES_POT
QC5
%ENDBLOCK SPECIES_POT

SNAP_TO_SYMMETRY
SYMMETRY_GENERATE

