#              Generated by Buildcell
#
# at 18:12:47 (GMT+1.0) 26th March 2023
# in /scratch/scratch/uccabz1/launch_tmp_michael
# on node-a14a-019
# by uccabz1
#
# compiler GCC version 4.9.2
# options -cpp -iprefix /scratch/UCL/applications/gcc/4.9.2/bin/../lib/gcc/x86_64-unknown-linux-gnu/4.9.2/ -mtune=corei7 -march=x86-64 -g -Og
#
# seed    -2867351  1786277105  1573987129  1024895265  -122842126 -1292144069   895244584   920795029   800711949 -1674787144 -1130196228 -1602384011
#
#      Author: C. J. Pickard (cjp20@cam.ac.uk)
#                Space group: Imm2
#

%BLOCK LATTICE_ABC
      2.76143      4.91227      4.91227
     84.52359     73.67562     73.67562
%ENDBLOCK LATTICE_ABC

%BLOCK POSITIONS_FRAC
  Li       -0.1288811       -0.1995402        0.1995402
  Li       -0.1288811        0.1995402       -0.1995402
   N       -0.4647871       -0.4864513        0.1572457
   N        0.2060074        0.4864513       -0.1572457
   N        0.2060074       -0.1572457        0.4864513
   N       -0.4647871        0.1572457       -0.4864513
%ENDBLOCK POSITIONS_FRAC

KPOINTS_MP_SPACING 0.07

%BLOCK SPECIES_POT
QC5
%ENDBLOCK SPECIES_POT

SNAP_TO_SYMMETRY
SYMMETRY_GENERATE

