#              Generated by Buildcell
#
# at 16:43:48 (GMT+1.0) 26th March 2023
# in /scratch/scratch/uccabz1/launch_tmp_michael
# on node-a14a-003
# by uccabz1
#
# compiler GCC version 4.9.2
# options -cpp -iprefix /scratch/UCL/applications/gcc/4.9.2/bin/../lib/gcc/x86_64-unknown-linux-gnu/4.9.2/ -mtune=corei7 -march=x86-64 -g -Og
#
# seed -1582202377    -1487044  1451099617   332587600   989278054  1365058165  1502482417  -666070938 -2074423468  1409367627   754167224 -1587327113
#
#      Author: C. J. Pickard (cjp20@cam.ac.uk)
#                Space group: Pmm2
#

%BLOCK LATTICE_ABC
      2.74319      5.58944      5.72573
     90.00000     90.00000     90.00000
%ENDBLOCK LATTICE_ABC

%BLOCK POSITIONS_FRAC
  Li       -0.4105236        0.2236359       -0.5000000
  Li       -0.4105236       -0.2236359       -0.5000000
  Li       -0.0194988        0.5000000        0.0000000
   N        0.1343207       -0.1341959        0.2547034
   N        0.1343207        0.1341959       -0.2547034
   N        0.1343207        0.1341959        0.2547034
   N        0.1343207       -0.1341959       -0.2547034
   N       -0.1215649       -0.5000000       -0.3529066
   N       -0.1215649        0.5000000        0.3529066
%ENDBLOCK POSITIONS_FRAC

KPOINTS_MP_SPACING 0.07

%BLOCK SPECIES_POT
QC5
%ENDBLOCK SPECIES_POT

SNAP_TO_SYMMETRY
SYMMETRY_GENERATE

