#              Generated by Buildcell
#
# at 18:46:17 (GMT+1.0) 26th March 2023
# in /scratch/scratch/uccabz1/launch_tmp_michael
# on node-a14a-001
# by uccabz1
#
# compiler GCC version 4.9.2
# options -cpp -iprefix /scratch/UCL/applications/gcc/4.9.2/bin/../lib/gcc/x86_64-unknown-linux-gnu/4.9.2/ -mtune=corei7 -march=x86-64 -g -Og
#
# seed -1366598236  1724808132 -2027194785  -807019767  -591427247 -1750942662   253547248     -576157   845737114  1908702301 -1707509717 -1383505210
#
#      Author: C. J. Pickard (cjp20@cam.ac.uk)
#                Space group: Cc
#

%BLOCK LATTICE_ABC
      2.69690      5.17597     13.17302
     88.77677     85.29978     74.89903
%ENDBLOCK LATTICE_ABC

%BLOCK POSITIONS_FRAC
  Li       -0.0099996       -0.2775426       -0.2486755
  Li        0.2124578        0.2775426        0.2513245
  Li        0.4866807       -0.1213018       -0.0833701
  Li       -0.1346211        0.1213018        0.4166299
  Li        0.2050669       -0.3783385        0.3821555
  Li        0.3267284        0.3783385       -0.1178445
   N       -0.1468046        0.1609662       -0.0427732
   N       -0.4858384       -0.1609662        0.4572268
   N       -0.3417470        0.1924301       -0.4102769
   N        0.3506831       -0.1924301        0.0897231
   N        0.3540949        0.0777112        0.1282140
   N       -0.0681939       -0.0777112       -0.3717860
   N       -0.0674036       -0.0991619        0.0186842
   N        0.3334345        0.0991619       -0.4813158
   N       -0.4495512       -0.3903457       -0.3507895
   N       -0.3398969        0.3903457        0.1492105
   N        0.0937045       -0.3574231       -0.4132304
   N        0.2362813        0.3574231        0.0867696
%ENDBLOCK POSITIONS_FRAC

KPOINTS_MP_SPACING 0.07

%BLOCK SPECIES_POT
QC5
%ENDBLOCK SPECIES_POT

SNAP_TO_SYMMETRY
SYMMETRY_GENERATE

