#              Generated by Buildcell
#
# at 20:02:50 (GMT+1.0) 26th March 2023
# in /scratch/scratch/uccabz1/launch_tmp_michael
# on node-a14c-005
# by uccabz1
#
# compiler GCC version 4.9.2
# options -cpp -iprefix /scratch/UCL/applications/gcc/4.9.2/bin/../lib/gcc/x86_64-unknown-linux-gnu/4.9.2/ -mtune=corei7 -march=x86-64 -g -Og
#
# seed  -562380565 -2124903538  -743377956  1458292255  -798300034  -636715897   359136382  1126813607 -1734096354 -1312161838   520244688    46845707
#
#      Author: C. J. Pickard (cjp20@cam.ac.uk)
#                Space group: F222
#

%BLOCK LATTICE_ABC
      4.85765      4.85765      4.99112
    118.00459    118.00459     92.01226
%ENDBLOCK LATTICE_ABC

%BLOCK POSITIONS_FRAC
  Li        0.4199086       -0.0800914       -0.1601829
  Li        0.0800914       -0.4199086        0.1601829
  Li        0.5000000        0.5000000        0.0000000
   N       -0.4552438       -0.0566544        0.3192064
   N        0.0566544        0.4552438       -0.3192064
   N       -0.2255497        0.3758608        0.3192064
   N       -0.3758608        0.2255497       -0.3192064
   N       -0.2227929       -0.2227929       -0.4455857
   N        0.2227929        0.2227929        0.4455857
%ENDBLOCK POSITIONS_FRAC

KPOINTS_MP_SPACING 0.07

%BLOCK SPECIES_POT
QC5
%ENDBLOCK SPECIES_POT

SNAP_TO_SYMMETRY
SYMMETRY_GENERATE

