#              Generated by Buildcell
#
# at 16:17:41 (GMT+1.0) 26th March 2023
# in /scratch/scratch/uccabz1/launch_tmp_michael
# on node-a14a-003
# by uccabz1
#
# compiler GCC version 4.9.2
# options -cpp -iprefix /scratch/UCL/applications/gcc/4.9.2/bin/../lib/gcc/x86_64-unknown-linux-gnu/4.9.2/ -mtune=corei7 -march=x86-64 -g -Og
#
# seed -1773993307   475295284    45349517 -1266397129  1781414710  1295764167  1855935807  -896415525  -873188154  1295358566  1082442086   213717286
#
#      Author: C. J. Pickard (cjp20@cam.ac.uk)
#                Space group: P2/c
#

%BLOCK LATTICE_ABC
      3.12249      6.41630      8.89343
     90.00000     90.00000     95.86620
%ENDBLOCK LATTICE_ABC

%BLOCK POSITIONS_FRAC
  Li        0.0676578       -0.2529940        0.3755976
  Li        0.4323422        0.2529940        0.3755976
  Li       -0.0676578        0.2529940       -0.3755976
  Li       -0.4323422       -0.2529940       -0.3755976
  Li        0.2500000       -0.5000000       -0.1611101
  Li       -0.2500000       -0.5000000        0.1611101
   N        0.2169820        0.3435964        0.1100472
   N        0.2830180       -0.3435964        0.1100472
   N       -0.2169820       -0.3435964       -0.1100472
   N       -0.2830180        0.3435964       -0.1100472
   N        0.4747155       -0.1066402        0.1806692
   N        0.0252845        0.1066402        0.1806692
   N       -0.4747155        0.1066402       -0.1806692
   N       -0.0252845       -0.1066402       -0.1806692
   N       -0.1668471       -0.1576588       -0.0069708
   N       -0.3331529        0.1576588       -0.0069708
   N        0.1668471        0.1576588        0.0069708
   N        0.3331529       -0.1576588        0.0069708
%ENDBLOCK POSITIONS_FRAC

KPOINTS_MP_SPACING 0.07

%BLOCK SPECIES_POT
QC5
%ENDBLOCK SPECIES_POT

SNAP_TO_SYMMETRY
SYMMETRY_GENERATE

