#              Generated by Buildcell
#
# at 17:34:36 (GMT+1.0) 26th March 2023
# in /scratch/scratch/uccabz1/launch_tmp_michael
# on node-a14a-019
# by uccabz1
#
# compiler GCC version 4.9.2
# options -cpp -iprefix /scratch/UCL/applications/gcc/4.9.2/bin/../lib/gcc/x86_64-unknown-linux-gnu/4.9.2/ -mtune=corei7 -march=x86-64 -g -Og
#
# seed   634696427   121256623  1219612305  1297145064  -104128780  -713286604 -1305179710  -614135611 -2094496870   527466431  1575554761   620900858
#
#      Author: C. J. Pickard (cjp20@cam.ac.uk)
#                Space group: P2
#

%BLOCK LATTICE_ABC
      2.50000      6.15165      7.56356
     90.00000     90.13328     90.00000
%ENDBLOCK LATTICE_ABC

%BLOCK POSITIONS_FRAC
  Li       -0.1067202        0.3629181       -0.2882727
  Li        0.1067202        0.3629181        0.2882727
  Li        0.0889845       -0.2453335        0.2005172
  Li       -0.0889845       -0.2453335       -0.2005172
   N        0.3836106        0.4446712       -0.0920554
   N       -0.3836106        0.4446712        0.0920554
   N        0.4747586        0.1947911       -0.1296021
   N       -0.4747586        0.1947911        0.1296021
   N       -0.2069392       -0.1132427        0.4063355
   N        0.2069392       -0.1132427       -0.4063355
   N        0.2504023       -0.0019495        0.0548912
   N       -0.2504023       -0.0019495       -0.0548912
%ENDBLOCK POSITIONS_FRAC

KPOINTS_MP_SPACING 0.07

%BLOCK SPECIES_POT
QC5
%ENDBLOCK SPECIES_POT

SNAP_TO_SYMMETRY
SYMMETRY_GENERATE

