#              Generated by Buildcell
#
# at 17:36:17 (GMT+1.0) 26th March 2023
# in /scratch/scratch/uccabz1/launch_tmp_michael
# on node-a14b-028
# by uccabz1
#
# compiler GCC version 4.9.2
# options -cpp -iprefix /scratch/UCL/applications/gcc/4.9.2/bin/../lib/gcc/x86_64-unknown-linux-gnu/4.9.2/ -mtune=corei7 -march=x86-64 -g -Og
#
# seed -2126259716  1677361390 -1118567436   106608645 -2049096570  -900484533   404978346   111817620   224125816 -1035151172  -212448173  -423127542
#
#      Author: C. J. Pickard (cjp20@cam.ac.uk)
#                Space group: P21
#

%BLOCK LATTICE_ABC
      3.23990      4.15467      9.02855
    101.67586     90.00000     90.00000
%ENDBLOCK LATTICE_ABC

%BLOCK POSITIONS_FRAC
  Li       -0.3723015        0.3235527       -0.1848405
  Li        0.1276985       -0.3235527        0.1848405
  Li        0.3632876       -0.3031921       -0.3485162
  Li       -0.1367124        0.3031921        0.3485162
   N        0.3632876        0.4527807        0.4493307
   N       -0.1367124       -0.4527807       -0.4493307
   N        0.0978276        0.1262473       -0.3560450
   N       -0.4021724       -0.1262473        0.3560450
   N        0.3384317       -0.0281211        0.0153090
   N       -0.1615683        0.0281211       -0.0153090
   N       -0.4664813       -0.0966293       -0.1385938
   N        0.0335187        0.0966293        0.1385938
%ENDBLOCK POSITIONS_FRAC

KPOINTS_MP_SPACING 0.07

%BLOCK SPECIES_POT
QC5
%ENDBLOCK SPECIES_POT

SNAP_TO_SYMMETRY
SYMMETRY_GENERATE

