#              Generated by Buildcell
#
# at 15:19:24 (GMT+1.0) 26th March 2023
# in /scratch/scratch/uccabz1/launch_tmp_michael
# on node-a14b-031
# by uccabz1
#
# compiler GCC version 4.9.2
# options -cpp -iprefix /scratch/UCL/applications/gcc/4.9.2/bin/../lib/gcc/x86_64-unknown-linux-gnu/4.9.2/ -mtune=corei7 -march=x86-64 -g -Og
#
# seed -1620700649  1703541386  1407125388  1063535182  1183239723  -544906022 -1106777898  -236285867   289941049  1465546582  1714347890  1694926294
#
#      Author: C. J. Pickard (cjp20@cam.ac.uk)
#                Space group: P21/m
#

%BLOCK LATTICE_ABC
      2.50000      4.79961      5.02443
     90.00000    104.36878     90.00000
%ENDBLOCK LATTICE_ABC

%BLOCK POSITIONS_FRAC
  Li       -0.1770498       -0.2500000       -0.0385677
  Li        0.1770498        0.2500000        0.0385677
   N        0.3057151       -0.4072431       -0.3496469
   N       -0.3057151        0.0927569        0.3496469
   N       -0.3057151        0.4072431        0.3496469
   N        0.3057151       -0.0927569       -0.3496469
%ENDBLOCK POSITIONS_FRAC

KPOINTS_MP_SPACING 0.07

%BLOCK SPECIES_POT
QC5
%ENDBLOCK SPECIES_POT

SNAP_TO_SYMMETRY
SYMMETRY_GENERATE

