#              Generated by Buildcell
#
# at 20:25:19 (GMT+1.0) 26th March 2023
# in /scratch/scratch/uccabz1/launch_tmp_michael
# on node-a14b-028
# by uccabz1
#
# compiler GCC version 4.9.2
# options -cpp -iprefix /scratch/UCL/applications/gcc/4.9.2/bin/../lib/gcc/x86_64-unknown-linux-gnu/4.9.2/ -mtune=corei7 -march=x86-64 -g -Og
#
# seed  -894096333 -1551915258 -1702690540  1067911688   611458672 -1202453291 -1787979640 -1628580048   239146574   928407307  -533447011  -365701767
#
#      Author: C. J. Pickard (cjp20@cam.ac.uk)
#                Space group: R3
#

%BLOCK LATTICE_ABC
      4.49525      4.49525      4.49525
     95.48296     95.48296     95.48296
%ENDBLOCK LATTICE_ABC

%BLOCK POSITIONS_FRAC
  Li        0.0968584       -0.1028529       -0.4343696
  Li       -0.4343696        0.0968584       -0.1028529
  Li       -0.1028529       -0.4343696        0.0968584
   N        0.2146259       -0.1402542       -0.0234552
   N       -0.0234552        0.2146259       -0.1402542
   N       -0.1402542       -0.0234552        0.2146259
   N        0.2950004       -0.4536073        0.4807269
   N        0.4807269        0.2950004       -0.4536073
   N       -0.4536073        0.4807269        0.2950004
%ENDBLOCK POSITIONS_FRAC

KPOINTS_MP_SPACING 0.07

%BLOCK SPECIES_POT
QC5
%ENDBLOCK SPECIES_POT

SNAP_TO_SYMMETRY
SYMMETRY_GENERATE

