#              Generated by Buildcell
#
# at 18:52:16 (GMT+1.0) 26th March 2023
# in /scratch/scratch/uccabz1/launch_tmp_michael
# on node-a14a-019
# by uccabz1
#
# compiler GCC version 4.9.2
# options -cpp -iprefix /scratch/UCL/applications/gcc/4.9.2/bin/../lib/gcc/x86_64-unknown-linux-gnu/4.9.2/ -mtune=corei7 -march=x86-64 -g -Og
#
# seed   363466227 -1168181300  1812387167  -292248512  1700332088 -1717496941   693068694  -535616342  1984906573    74332670   539428084  -159306779
#
#      Author: C. J. Pickard (cjp20@cam.ac.uk)
#                Space group: Pmc21
#

%BLOCK LATTICE_ABC
      3.15326      4.11332      4.80468
     90.00000     90.00000     90.00000
%ENDBLOCK LATTICE_ABC

%BLOCK POSITIONS_FRAC
  Li        0.1011727       -0.5000000        0.2980962
  Li       -0.3988273        0.5000000       -0.2980962
   N        0.0952971       -0.1823470       -0.3156747
   N       -0.4047029        0.1823470        0.3156747
   N       -0.4047029       -0.1823470        0.3156747
   N        0.0952971        0.1823470       -0.3156747
%ENDBLOCK POSITIONS_FRAC

KPOINTS_MP_SPACING 0.07

%BLOCK SPECIES_POT
QC5
%ENDBLOCK SPECIES_POT

SNAP_TO_SYMMETRY
SYMMETRY_GENERATE

