#              Generated by Buildcell
#
# at 14:50:02 (GMT+1.0) 26th March 2023
# in /scratch/scratch/uccabz1/launch_tmp_michael
# on node-a14a-019
# by uccabz1
#
# compiler GCC version 4.9.2
# options -cpp -iprefix /scratch/UCL/applications/gcc/4.9.2/bin/../lib/gcc/x86_64-unknown-linux-gnu/4.9.2/ -mtune=corei7 -march=x86-64 -g -Og
#
# seed  1052501383  1760399929 -1810609391   259042561  1372039367   134036318  -673488052   622223903   -36050684 -1844617010   540665635   422160360
#
#      Author: C. J. Pickard (cjp20@cam.ac.uk)
#                Space group: R3
#

%BLOCK LATTICE_ABC
      4.14150      4.14150      4.67359
     63.69976     63.69976     60.00000
%ENDBLOCK LATTICE_ABC

%BLOCK POSITIONS_FRAC
  Li        0.4179520        0.4179520       -0.2538559
  Li       -0.3653919       -0.3653919        0.0961758
   N        0.0479489        0.4624881        0.2822919
   N        0.4624881        0.2072711        0.2822919
   N        0.2072711        0.0479489        0.2822919
   N       -0.1187554       -0.1187554        0.3562663
%ENDBLOCK POSITIONS_FRAC

KPOINTS_MP_SPACING 0.07

%BLOCK SPECIES_POT
QC5
%ENDBLOCK SPECIES_POT

SNAP_TO_SYMMETRY
SYMMETRY_GENERATE

