#              Generated by Buildcell
#
# at 18:48:48 (GMT+1.0) 26th March 2023
# in /scratch/scratch/uccabz1/launch_tmp_michael
# on node-a14b-028
# by uccabz1
#
# compiler GCC version 4.9.2
# options -cpp -iprefix /scratch/UCL/applications/gcc/4.9.2/bin/../lib/gcc/x86_64-unknown-linux-gnu/4.9.2/ -mtune=corei7 -march=x86-64 -g -Og
#
# seed -1146304710  1819557432 -1063093673   718812485 -1886098073   973288808   477038130   374841978  1905169010   176435715  1054583327  -830190199
#
#      Author: C. J. Pickard (cjp20@cam.ac.uk)
#                Space group: R3
#

%BLOCK LATTICE_ABC
      3.94275      3.94275      3.94275
     82.60992     82.60992     82.60992
%ENDBLOCK LATTICE_ABC

%BLOCK POSITIONS_FRAC
  Li       -0.2219366       -0.2219366       -0.2219366
  Li        0.4515522        0.4515522        0.4515522
   N       -0.1523807        0.4017883        0.1242601
   N        0.4017883        0.1242601       -0.1523807
   N        0.1242601       -0.1523807        0.4017883
   N        0.1974940        0.1974940        0.1974940
%ENDBLOCK POSITIONS_FRAC

KPOINTS_MP_SPACING 0.07

%BLOCK SPECIES_POT
QC5
%ENDBLOCK SPECIES_POT

SNAP_TO_SYMMETRY
SYMMETRY_GENERATE

