#              Generated by Buildcell
#
# at 16:59:33 (GMT+1.0) 26th March 2023
# in /scratch/scratch/uccabz1/launch_tmp_michael
# on node-a14b-028
# by uccabz1
#
# compiler GCC version 4.9.2
# options -cpp -iprefix /scratch/UCL/applications/gcc/4.9.2/bin/../lib/gcc/x86_64-unknown-linux-gnu/4.9.2/ -mtune=corei7 -march=x86-64 -g -Og
#
# seed   762732278 -1278469095  -940320092 -1332189507 -1473850980  -588939577   576271768   810087440  1858622309  -114774317  1389350529    49760409
#
#      Author: C. J. Pickard (cjp20@cam.ac.uk)
#                Space group: Cm
#

%BLOCK LATTICE_ABC
      3.84930      3.84930      6.49673
    104.15575    104.15575     90.24755
%ENDBLOCK LATTICE_ABC

%BLOCK POSITIONS_FRAC
  Li        0.1116666       -0.4300789        0.2448552
  Li       -0.4300789        0.1116666        0.2448552
  Li        0.1347114        0.1347114       -0.4621114
   N       -0.3562799        0.0864920       -0.4571375
   N        0.0864920       -0.3562799       -0.4571375
   N        0.4773472       -0.2476967       -0.0410943
   N       -0.2476967        0.4773472       -0.0410943
   N       -0.1283077        0.1466484        0.0322278
   N        0.1466484       -0.1283077        0.0322278
%ENDBLOCK POSITIONS_FRAC

KPOINTS_MP_SPACING 0.07

%BLOCK SPECIES_POT
QC5
%ENDBLOCK SPECIES_POT

SNAP_TO_SYMMETRY
SYMMETRY_GENERATE

