#              Generated by Buildcell
#
# at 19:58:25 (GMT+1.0) 26th March 2023
# in /scratch/scratch/uccabz1/launch_tmp_michael
# on node-a14c-005
# by uccabz1
#
# compiler GCC version 4.9.2
# options -cpp -iprefix /scratch/UCL/applications/gcc/4.9.2/bin/../lib/gcc/x86_64-unknown-linux-gnu/4.9.2/ -mtune=corei7 -march=x86-64 -g -Og
#
# seed -1410536423   -85714588 -1167709805 -1600854937  -268235862  1659385350 -1610669844  1340270315 -2011063827  -500622089   730590227  1536963025
#
#      Author: C. J. Pickard (cjp20@cam.ac.uk)
#                Space group: R3
#

%BLOCK LATTICE_ABC
      4.22592      4.22592      4.22592
     63.81949     63.81949     63.81949
%ENDBLOCK LATTICE_ABC

%BLOCK POSITIONS_FRAC
  Li        0.2172187        0.2172187        0.2172187
  Li       -0.4903479       -0.4903479       -0.4903479
   N       -0.4023400       -0.0176206       -0.2863999
   N       -0.2863999       -0.4023400       -0.0176206
   N       -0.0176206       -0.2863999       -0.4023400
   N       -0.0975723       -0.0975723       -0.0975723
%ENDBLOCK POSITIONS_FRAC

KPOINTS_MP_SPACING 0.07

%BLOCK SPECIES_POT
QC5
%ENDBLOCK SPECIES_POT

SNAP_TO_SYMMETRY
SYMMETRY_GENERATE

