#              Generated by Buildcell
#
# at 15:37:02 (GMT+1.0) 26th March 2023
# in /scratch/scratch/uccabz1/launch_tmp_michael
# on node-a14a-019
# by uccabz1
#
# compiler GCC version 4.9.2
# options -cpp -iprefix /scratch/UCL/applications/gcc/4.9.2/bin/../lib/gcc/x86_64-unknown-linux-gnu/4.9.2/ -mtune=corei7 -march=x86-64 -g -Og
#
# seed -2045715671   779794113 -1138687209   626609963 -1964981887 -1067730164  2005971052 -1368783820  1224328416  1558070366   148631477   280275849
#
#      Author: C. J. Pickard (cjp20@cam.ac.uk)
#                Space group: Pmm2
#

%BLOCK LATTICE_ABC
      5.00000      5.65435      6.65452
     90.00000     90.00000     90.00000
%ENDBLOCK LATTICE_ABC

%BLOCK POSITIONS_FRAC
  Li       -0.2500001        0.0381060        0.1878426
  Li        0.2500001        0.0381060       -0.1878426
  Li        0.2500001        0.0381060        0.1878426
  Li       -0.2500001        0.0381060       -0.1878426
  Li        0.0000000       -0.3448017        0.1878427
  Li        0.0000000       -0.3448017       -0.1878427
   N       -0.1757901        0.3593052        0.1205491
   N        0.1757901        0.3593052       -0.1205491
   N        0.1757901        0.3593052        0.1205491
   N       -0.1757901        0.3593052       -0.1205491
   N        0.1717232        0.2684544        0.3872556
   N       -0.1717232        0.2684544       -0.3872556
   N       -0.1717232        0.2684544        0.3872556
   N        0.1717232        0.2684544       -0.3872556
   N        0.3356171       -0.4878213       -0.2610411
   N       -0.3356171       -0.4878213        0.2610411
   N       -0.3356171       -0.4878213       -0.2610411
   N        0.3356171       -0.4878213        0.2610411
%ENDBLOCK POSITIONS_FRAC

KPOINTS_MP_SPACING 0.07

%BLOCK SPECIES_POT
QC5
%ENDBLOCK SPECIES_POT

SNAP_TO_SYMMETRY
SYMMETRY_GENERATE

