#              Generated by Buildcell
#
# at 20:19:53 (GMT+1.0) 26th March 2023
# in /scratch/scratch/uccabz1/launch_tmp_michael
# on node-a14a-001
# by uccabz1
#
# compiler GCC version 4.9.2
# options -cpp -iprefix /scratch/UCL/applications/gcc/4.9.2/bin/../lib/gcc/x86_64-unknown-linux-gnu/4.9.2/ -mtune=corei7 -march=x86-64 -g -Og
#
# seed  -235535468 -2135027643 -1223583790  1808535908   212018915 -1176907690 -1886341010  1575285701  2040663274   261271863 -1564268157  -913471605
#
#      Author: C. J. Pickard (cjp20@cam.ac.uk)
#                Space group: P2
#

%BLOCK LATTICE_ABC
      2.74990      4.53634      7.07088
     90.00000     90.00000     98.49469
%ENDBLOCK LATTICE_ABC

%BLOCK POSITIONS_FRAC
  Li       -0.1933414       -0.2672958       -0.4210852
  Li        0.1933414        0.2672958       -0.4210852
  Li       -0.5000000       -0.5000000        0.1310514
   N       -0.3244852       -0.1118159        0.3367292
   N        0.3244852        0.1118159        0.3367292
   N        0.0927926       -0.2755237        0.2852945
   N       -0.0927926        0.2755237        0.2852945
   N        0.4376239        0.1586747       -0.1835338
   N       -0.4376239       -0.1586747       -0.1835338
%ENDBLOCK POSITIONS_FRAC

KPOINTS_MP_SPACING 0.07

%BLOCK SPECIES_POT
QC5
%ENDBLOCK SPECIES_POT

SNAP_TO_SYMMETRY
SYMMETRY_GENERATE

