#              Generated by Buildcell
#
# at 19:08:21 (GMT+1.0) 26th March 2023
# in /scratch/scratch/uccabz1/launch_tmp_michael
# on node-a14e-007
# by uccabz1
#
# compiler GCC version 4.9.2
# options -cpp -iprefix /scratch/UCL/applications/gcc/4.9.2/bin/../lib/gcc/x86_64-unknown-linux-gnu/4.9.2/ -mtune=corei7 -march=x86-64 -g -Og
#
# seed -1124015843  2022300691   534902328 -1685691241 -2010874030   534482917  1941455373 -1581525894 -1837681068  1087465067  1715198284  1221543108
#
#      Author: C. J. Pickard (cjp20@cam.ac.uk)
#                Space group: P-1
#

%BLOCK LATTICE_ABC
      3.98221      4.39147     10.00378
     95.28095     92.36240     97.58405
%ENDBLOCK LATTICE_ABC

%BLOCK POSITIONS_FRAC
  Li        0.0885747        0.2711793        0.0506303
  Li       -0.0885747       -0.2711793       -0.0506303
  Li       -0.4872712       -0.0178936       -0.2789760
  Li        0.4872712        0.0178936        0.2789760
  Li       -0.3153342        0.2998312       -0.4670218
  Li        0.3153342       -0.2998312        0.4670218
   N       -0.0555027        0.1723302       -0.3239321
   N        0.0555027       -0.1723302        0.3239321
   N       -0.0394673        0.4145516       -0.1893594
   N        0.0394673       -0.4145516        0.1893594
   N       -0.4516321       -0.4160351       -0.2243745
   N        0.4516321        0.4160351        0.2243745
   N       -0.2677814       -0.1468822       -0.4354083
   N        0.2677814        0.1468822        0.4354083
   N       -0.3523887        0.3259844        0.1055434
   N        0.3523887       -0.3259844       -0.1055434
   N       -0.0253218       -0.0649086       -0.2267346
   N        0.0253218        0.0649086        0.2267346
%ENDBLOCK POSITIONS_FRAC

KPOINTS_MP_SPACING 0.07

%BLOCK SPECIES_POT
QC5
%ENDBLOCK SPECIES_POT

SNAP_TO_SYMMETRY
SYMMETRY_GENERATE

