#              Generated by Buildcell
#
# at 17:46:51 (GMT+1.0) 26th March 2023
# in /scratch/scratch/uccabz1/launch_tmp_michael
# on node-a14b-022
# by uccabz1
#
# compiler GCC version 4.9.2
# options -cpp -iprefix /scratch/UCL/applications/gcc/4.9.2/bin/../lib/gcc/x86_64-unknown-linux-gnu/4.9.2/ -mtune=corei7 -march=x86-64 -g -Og
#
# seed  -346844695   499548132  2014233556  -482857027   -83284419   581066899  1674439925   291071284  -218650709   367327886  1095796172  2077174146
#
#      Author: C. J. Pickard (cjp20@cam.ac.uk)
#                Space group: C2
#

%BLOCK LATTICE_ABC
      4.13693      4.31420      5.93087
    102.52258     90.00000    118.64979
%ENDBLOCK LATTICE_ABC

%BLOCK POSITIONS_FRAC
  Li        0.0830618       -0.1445361       -0.2420097
  Li        0.2275979        0.1445361        0.2420097
  Li       -0.3446684       -0.0000000        0.0000000
   N       -0.1344404        0.1471304       -0.2730275
   N       -0.2815708       -0.1471304        0.2730275
   N        0.3175575        0.3684196       -0.2043082
   N       -0.0508621       -0.3684196        0.2043082
   N        0.3461220       -0.3215632       -0.4447573
   N       -0.3323148        0.3215632        0.4447573
%ENDBLOCK POSITIONS_FRAC

KPOINTS_MP_SPACING 0.07

%BLOCK SPECIES_POT
QC5
%ENDBLOCK SPECIES_POT

SNAP_TO_SYMMETRY
SYMMETRY_GENERATE

