#              Generated by Buildcell
#
# at 17:39:11 (GMT+1.0) 26th March 2023
# in /scratch/scratch/uccabz1/launch_tmp_michael
# on node-a14a-019
# by uccabz1
#
# compiler GCC version 4.9.2
# options -cpp -iprefix /scratch/UCL/applications/gcc/4.9.2/bin/../lib/gcc/x86_64-unknown-linux-gnu/4.9.2/ -mtune=corei7 -march=x86-64 -g -Og
#
# seed   373538824    -1433384  1952678512  -565900359  -130364934  -365099241  -921442477 -1272821397 -1379934687 -1031678291  1838134477  -906614945
#
#      Author: C. J. Pickard (cjp20@cam.ac.uk)
#                Space group: Pca21
#

%BLOCK LATTICE_ABC
      3.10265      6.10735      6.24662
     90.00000     90.00000     90.00000
%ENDBLOCK LATTICE_ABC

%BLOCK POSITIONS_FRAC
  Li       -0.1265978        0.0104673        0.2455826
  Li        0.1265978       -0.4895327       -0.2455826
  Li        0.3734022        0.0104673       -0.2455826
  Li       -0.3734022       -0.4895327        0.2455826
   N       -0.3746848        0.4952992       -0.0696951
   N        0.3746848       -0.0047008        0.0696951
   N        0.1253152        0.4952992        0.0696951
   N       -0.1253152       -0.0047008       -0.0696951
   N        0.0026656       -0.2453186       -0.0529661
   N       -0.0026656        0.2546814        0.0529661
   N       -0.4973344       -0.2453186        0.0529661
   N        0.4973344        0.2546814       -0.0529661
%ENDBLOCK POSITIONS_FRAC

KPOINTS_MP_SPACING 0.07

%BLOCK SPECIES_POT
QC5
%ENDBLOCK SPECIES_POT

SNAP_TO_SYMMETRY
SYMMETRY_GENERATE

