#              Generated by Buildcell
#
# at 18:14:08 (GMT+1.0) 26th March 2023
# in /scratch/scratch/uccabz1/launch_tmp_michael
# on node-a14a-003
# by uccabz1
#
# compiler GCC version 4.9.2
# options -cpp -iprefix /scratch/UCL/applications/gcc/4.9.2/bin/../lib/gcc/x86_64-unknown-linux-gnu/4.9.2/ -mtune=corei7 -march=x86-64 -g -Og
#
# seed   644793939 -1035423019    60501847   514153072 -1302202333  -895572417 -1025947129  1204026102  1485006463  1365761114   118159623  1698978913
#
#      Author: C. J. Pickard (cjp20@cam.ac.uk)
#                Space group: Aea2
#

%BLOCK LATTICE_ABC
      3.69614      3.69614      4.43143
     90.00000     90.00000    101.96119
%ENDBLOCK LATTICE_ABC

%BLOCK POSITIONS_FRAC
  Li       -0.2409027       -0.2409027       -0.0000000
  Li        0.2590973        0.2590973       -0.5000000
   N        0.2483322       -0.2930983        0.1061912
   N       -0.2930983        0.2483322       -0.1061912
   N        0.2069017       -0.2516678       -0.3938088
   N       -0.2516678        0.2069017        0.3938088
%ENDBLOCK POSITIONS_FRAC

KPOINTS_MP_SPACING 0.07

%BLOCK SPECIES_POT
QC5
%ENDBLOCK SPECIES_POT

SNAP_TO_SYMMETRY
SYMMETRY_GENERATE

