#              Generated by Buildcell
#
# at 18:49:38 (GMT+1.0) 26th March 2023
# in /scratch/scratch/uccabz1/launch_tmp_michael
# on node-a14b-028
# by uccabz1
#
# compiler GCC version 4.9.2
# options -cpp -iprefix /scratch/UCL/applications/gcc/4.9.2/bin/../lib/gcc/x86_64-unknown-linux-gnu/4.9.2/ -mtune=corei7 -march=x86-64 -g -Og
#
# seed   658955329   618572512   317484327   371782534   -51130496   480454151  -255527645   378701174  1605361950  -500780695  -996502002   943227169
#
#      Author: C. J. Pickard (cjp20@cam.ac.uk)
#                Space group: P32
#

%BLOCK LATTICE_ABC
      5.57903      5.57903      6.85729
     90.00000     90.00000    120.00000
%ENDBLOCK LATTICE_ABC

%BLOCK POSITIONS_FRAC
  Li       -0.1253605        0.0015480        0.1403146
  Li        0.1269085        0.1253605        0.4736479
  Li       -0.0015480       -0.1269085       -0.1930187
  Li        0.4519196       -0.2948448        0.3388538
  Li        0.2532357       -0.4519196       -0.3278129
  Li        0.2948448       -0.2532357        0.0055204
   N        0.2142924       -0.1287727       -0.4069033
   N       -0.3430651       -0.2142924       -0.0735699
   N        0.1287727        0.3430651        0.2597634
   N        0.2177326        0.1002346        0.0185783
   N       -0.1174979       -0.2177326        0.3519116
   N       -0.1002346        0.1174979       -0.3147550
   N        0.1909879       -0.1044719        0.2170773
   N       -0.2954598       -0.1909879       -0.4495894
   N        0.1044719        0.2954598       -0.1162561
   N       -0.3806290        0.0875127       -0.3426496
   N        0.4681416        0.3806290       -0.0093162
   N       -0.0875127       -0.4681416        0.3240171
%ENDBLOCK POSITIONS_FRAC

KPOINTS_MP_SPACING 0.07

%BLOCK SPECIES_POT
QC5
%ENDBLOCK SPECIES_POT

SNAP_TO_SYMMETRY
SYMMETRY_GENERATE

