#              Generated by Buildcell
#
# at 16:57:05 (GMT+1.0) 26th March 2023
# in /scratch/scratch/uccabz1/launch_tmp_michael
# on node-a14e-007
# by uccabz1
#
# compiler GCC version 4.9.2
# options -cpp -iprefix /scratch/UCL/applications/gcc/4.9.2/bin/../lib/gcc/x86_64-unknown-linux-gnu/4.9.2/ -mtune=corei7 -march=x86-64 -g -Og
#
# seed   672728661  -864147209    79578579   745390808 -1314265173 -1355053807   155170575   591608088  1846998778 -1944401609  1211584192  -203589467
#
#      Author: C. J. Pickard (cjp20@cam.ac.uk)
#                Space group: P2/m
#

%BLOCK LATTICE_ABC
      3.00022      5.26800      5.57899
     90.36159     90.00000     90.00000
%ENDBLOCK LATTICE_ABC

%BLOCK POSITIONS_FRAC
  Li        0.5000000       -0.3426828       -0.3253659
  Li       -0.5000000        0.3426828        0.3253659
  Li        0.0000000       -0.5000000        0.0000000
   N        0.2500000       -0.0273376       -0.2249320
   N        0.2500000        0.0273376        0.2249320
   N       -0.2500000        0.0273376        0.2249320
   N       -0.2500000       -0.0273376       -0.2249320
   N        0.5000000       -0.2497996        0.3451718
   N        0.5000000        0.2497996       -0.3451718
%ENDBLOCK POSITIONS_FRAC

KPOINTS_MP_SPACING 0.07

%BLOCK SPECIES_POT
QC5
%ENDBLOCK SPECIES_POT

SNAP_TO_SYMMETRY
SYMMETRY_GENERATE

