#              Generated by Buildcell
#
# at 15:50:00 (GMT+1.0) 26th March 2023
# in /scratch/scratch/uccabz1/launch_tmp_michael
# on node-a14a-003
# by uccabz1
#
# compiler GCC version 4.9.2
# options -cpp -iprefix /scratch/UCL/applications/gcc/4.9.2/bin/../lib/gcc/x86_64-unknown-linux-gnu/4.9.2/ -mtune=corei7 -march=x86-64 -g -Og
#
# seed  1462037678  -322848991  -564035764  1640346483 -1505847759 -1855223398  1634291277 -1934869980   192747105  1891770790  1018396381   110573729
#
#      Author: C. J. Pickard (cjp20@cam.ac.uk)
#                Space group: C222
#

%BLOCK LATTICE_ABC
      2.94358      2.94358     11.13596
     90.00000     90.00000    113.21678
%ENDBLOCK LATTICE_ABC

%BLOCK POSITIONS_FRAC
  Li       -0.5000000        0.0000000        0.2056382
  Li        0.0000000        0.5000000       -0.2056382
  Li        0.0000000        0.0000000        0.0000000
   N        0.0633933        0.2748022        0.4480861
   N       -0.0633933       -0.2748022        0.4480861
   N       -0.2748022       -0.0633933       -0.4480861
   N        0.2748022        0.0633933       -0.4480861
   N       -0.5000000        0.0000000       -0.1079150
   N        0.0000000       -0.5000000        0.1079150
%ENDBLOCK POSITIONS_FRAC

KPOINTS_MP_SPACING 0.07

%BLOCK SPECIES_POT
QC5
%ENDBLOCK SPECIES_POT

SNAP_TO_SYMMETRY
SYMMETRY_GENERATE

