#              Generated by Buildcell
#
# at 16:21:27 (GMT+1.0) 26th March 2023
# in /scratch/scratch/uccabz1/launch_tmp_michael
# on node-a14f-035
# by uccabz1
#
# compiler GCC version 4.9.2
# options -cpp -iprefix /scratch/UCL/applications/gcc/4.9.2/bin/../lib/gcc/x86_64-unknown-linux-gnu/4.9.2/ -mtune=corei7 -march=x86-64 -g -Og
#
# seed  1902586123 -1600773272  1260000444 -1637445874  1940802586  -602314919  1919702216 -1310395550  1558058102 -1762359121 -1316249765 -1745200475
#
#      Author: C. J. Pickard (cjp20@cam.ac.uk)
#                Space group: P-1
#

%BLOCK LATTICE_ABC
      2.72423      4.13821      7.79688
     86.45808     89.09425     77.10946
%ENDBLOCK LATTICE_ABC

%BLOCK POSITIONS_FRAC
  Li        0.0306330        0.3307679        0.2837414
  Li       -0.0306330       -0.3307679       -0.2837414
  Li        0.0000000        0.0000000        0.0000000
   N       -0.4282986        0.3823549       -0.3592591
   N        0.4282986       -0.3823549        0.3592591
   N       -0.2557790        0.0858071       -0.4668765
   N        0.2557790       -0.0858071        0.4668765
   N        0.1932281        0.2334065       -0.4453408
   N       -0.1932281       -0.2334065        0.4453408
%ENDBLOCK POSITIONS_FRAC

KPOINTS_MP_SPACING 0.07

%BLOCK SPECIES_POT
QC5
%ENDBLOCK SPECIES_POT

SNAP_TO_SYMMETRY
SYMMETRY_GENERATE

