#              Generated by Buildcell
#
# at 15:25:14 (GMT+1.0) 26th March 2023
# in /scratch/scratch/uccabz1/launch_tmp_michael
# on node-a14a-003
# by uccabz1
#
# compiler GCC version 4.9.2
# options -cpp -iprefix /scratch/UCL/applications/gcc/4.9.2/bin/../lib/gcc/x86_64-unknown-linux-gnu/4.9.2/ -mtune=corei7 -march=x86-64 -g -Og
#
# seed  1749235274  -213463243   604320733  -336056538  -951643583  -314801022  1364676262  -948693469 -1432196828 -1558961245   825629965  -970978498
#
#      Author: C. J. Pickard (cjp20@cam.ac.uk)
#                Space group: P3
#

%BLOCK LATTICE_ABC
      4.90603      4.90603      8.22055
     90.00000     90.00000    120.00000
%ENDBLOCK LATTICE_ABC

%BLOCK POSITIONS_FRAC
  Li        0.4412711        0.0001882        0.3335941
  Li       -0.4410829       -0.4412711        0.3335941
  Li       -0.0001882        0.4410829        0.3335941
  Li        0.1090155       -0.2243158       -0.4112204
  Li       -0.3333313       -0.1090155       -0.4112204
  Li        0.2243158        0.3333313       -0.4112204
   N        0.4230577       -0.4550953       -0.2151237
   N        0.1218470       -0.4230577       -0.2151237
   N        0.4550953       -0.1218470       -0.2151237
   N        0.2544525       -0.2054504       -0.0653185
   N       -0.4599028       -0.2544525       -0.0653185
   N        0.2054504        0.4599028       -0.0653185
   N        0.2392986       -0.2045109        0.1356160
   N       -0.4438095       -0.2392986        0.1356160
   N        0.2045109        0.4438095        0.1356160
   N        0.2394346        0.1801035        0.0532687
   N       -0.0593311       -0.2394346        0.0532687
   N       -0.1801035        0.0593311        0.0532687
%ENDBLOCK POSITIONS_FRAC

KPOINTS_MP_SPACING 0.07

%BLOCK SPECIES_POT
QC5
%ENDBLOCK SPECIES_POT

SNAP_TO_SYMMETRY
SYMMETRY_GENERATE

