#              Generated by Buildcell
#
# at 15:08:58 (GMT+1.0) 26th March 2023
# in /scratch/scratch/uccabz1/launch_tmp_michael
# on node-a14f-035
# by uccabz1
#
# compiler GCC version 4.9.2
# options -cpp -iprefix /scratch/UCL/applications/gcc/4.9.2/bin/../lib/gcc/x86_64-unknown-linux-gnu/4.9.2/ -mtune=corei7 -march=x86-64 -g -Og
#
# seed  1249131913   675789807   368949107  2037785719   719253116    74588394   -50126285   -57630761  2021936430  1078757872 -1480820178     7150632
#
#      Author: C. J. Pickard (cjp20@cam.ac.uk)
#                Space group: R3
#

%BLOCK LATTICE_ABC
      4.21620      4.21620      4.21620
     67.97024     67.97024     67.97024
%ENDBLOCK LATTICE_ABC

%BLOCK POSITIONS_FRAC
  Li        0.1312992        0.1312992        0.1312992
  Li       -0.4368448       -0.4368448       -0.4368448
   N       -0.3106221        0.2405947        0.0377992
   N        0.0377992       -0.3106221        0.2405947
   N        0.2405947        0.0377992       -0.3106221
   N        0.3664883        0.3664883        0.3664883
%ENDBLOCK POSITIONS_FRAC

KPOINTS_MP_SPACING 0.07

%BLOCK SPECIES_POT
QC5
%ENDBLOCK SPECIES_POT

SNAP_TO_SYMMETRY
SYMMETRY_GENERATE

