#              Generated by Buildcell
#
# at 18:37:12 (GMT+1.0) 26th March 2023
# in /scratch/scratch/uccabz1/launch_tmp_michael
# on node-a14e-007
# by uccabz1
#
# compiler GCC version 4.9.2
# options -cpp -iprefix /scratch/UCL/applications/gcc/4.9.2/bin/../lib/gcc/x86_64-unknown-linux-gnu/4.9.2/ -mtune=corei7 -march=x86-64 -g -Og
#
# seed  -503886948  1216978624  -272252622   535895961   559072039  1754598168 -1082813558  -526608674   -41136990  1450244833   175533110  1733204217
#
#      Author: C. J. Pickard (cjp20@cam.ac.uk)
#                Space group: P3
#

%BLOCK LATTICE_ABC
      4.12449      4.12449      4.15933
     90.00000     90.00000    120.00000
%ENDBLOCK LATTICE_ABC

%BLOCK POSITIONS_FRAC
  Li       -0.3333333        0.3333333        0.1173627
  Li        0.3333333       -0.3333333       -0.0685879
   N       -0.3084458       -0.3132313        0.4834675
   N       -0.0047856        0.3084458        0.4834675
   N        0.3132313        0.0047856        0.4834675
   N        0.0000000        0.0000000        0.2957510
%ENDBLOCK POSITIONS_FRAC

KPOINTS_MP_SPACING 0.07

%BLOCK SPECIES_POT
QC5
%ENDBLOCK SPECIES_POT

SNAP_TO_SYMMETRY
SYMMETRY_GENERATE

