#              Generated by Buildcell
#
# at 15:36:37 (GMT+1.0) 26th March 2023
# in /scratch/scratch/uccabz1/launch_tmp_michael
# on node-a14e-007
# by uccabz1
#
# compiler GCC version 4.9.2
# options -cpp -iprefix /scratch/UCL/applications/gcc/4.9.2/bin/../lib/gcc/x86_64-unknown-linux-gnu/4.9.2/ -mtune=corei7 -march=x86-64 -g -Og
#
# seed  -446901153   759577503  -789689052 -1502277529  -179674641 -1795277788  1952800904  1303998100  1873587427 -2107443936  1945939368 -1011665797
#
#      Author: C. J. Pickard (cjp20@cam.ac.uk)
#                Space group: Pm
#

%BLOCK LATTICE_ABC
      3.42144      3.67374      5.00048
     90.00000     90.00000     91.75480
%ENDBLOCK LATTICE_ABC

%BLOCK POSITIONS_FRAC
  Li        0.2629985       -0.1647330        0.2499999
  Li        0.2629985       -0.1647330       -0.2499999
   N       -0.1543134        0.4813800       -0.2324813
   N       -0.1543134        0.4813800        0.2324813
   N       -0.2318954        0.0649085        0.2401006
   N       -0.2318954        0.0649085       -0.2401006
%ENDBLOCK POSITIONS_FRAC

KPOINTS_MP_SPACING 0.07

%BLOCK SPECIES_POT
QC5
%ENDBLOCK SPECIES_POT

SNAP_TO_SYMMETRY
SYMMETRY_GENERATE

