#              Generated by Buildcell
#
# at 16:25:41 (GMT+1.0) 26th March 2023
# in /scratch/scratch/uccabz1/launch_tmp_michael
# on node-a14b-028
# by uccabz1
#
# compiler GCC version 4.9.2
# options -cpp -iprefix /scratch/UCL/applications/gcc/4.9.2/bin/../lib/gcc/x86_64-unknown-linux-gnu/4.9.2/ -mtune=corei7 -march=x86-64 -g -Og
#
# seed  1448752993  1922253519  -731979880 -1270039837   778605008  -579987008 -1571687157  2054523276   710081366  -611380461   924532318   748354686
#
#      Author: C. J. Pickard (cjp20@cam.ac.uk)
#                Space group: P-1
#

%BLOCK LATTICE_ABC
      2.81921      4.39414      5.30973
     96.64488    103.98123    103.89244
%ENDBLOCK LATTICE_ABC

%BLOCK POSITIONS_FRAC
  Li        0.1711757       -0.3348323        0.2583549
  Li       -0.1711757        0.3348323       -0.2583549
   N        0.4586557       -0.3582939       -0.3122424
   N       -0.4586557        0.3582939        0.3122424
   N        0.1910905        0.3044808        0.4852185
   N       -0.1910905       -0.3044808       -0.4852185
%ENDBLOCK POSITIONS_FRAC

KPOINTS_MP_SPACING 0.07

%BLOCK SPECIES_POT
QC5
%ENDBLOCK SPECIES_POT

SNAP_TO_SYMMETRY
SYMMETRY_GENERATE

