#              Generated by Buildcell
#
# at 19:46:22 (GMT+1.0) 26th March 2023
# in /scratch/scratch/uccabz1/launch_tmp_michael
# on node-a14a-019
# by uccabz1
#
# compiler GCC version 4.9.2
# options -cpp -iprefix /scratch/UCL/applications/gcc/4.9.2/bin/../lib/gcc/x86_64-unknown-linux-gnu/4.9.2/ -mtune=corei7 -march=x86-64 -g -Og
#
# seed -1249982332    57233644   216701664 -1353975230 -2095557299   650519468 -1359130418    51416303  -981612674  1389372568  -170646201 -1966513934
#
#      Author: C. J. Pickard (cjp20@cam.ac.uk)
#                Space group: P2
#

%BLOCK LATTICE_ABC
      2.49999      4.60235      5.12120
     90.00000     90.00000     96.98187
%ENDBLOCK LATTICE_ABC

%BLOCK POSITIONS_FRAC
  Li        0.3027487       -0.2629364       -0.3583473
  Li       -0.3027487        0.2629364       -0.3583473
   N        0.1977779       -0.2161112        0.1835723
   N       -0.1977779        0.2161112        0.1835723
   N        0.1688267        0.1572945       -0.0796559
   N       -0.1688267       -0.1572945       -0.0796559
%ENDBLOCK POSITIONS_FRAC

KPOINTS_MP_SPACING 0.07

%BLOCK SPECIES_POT
QC5
%ENDBLOCK SPECIES_POT

SNAP_TO_SYMMETRY
SYMMETRY_GENERATE

