#              Generated by Buildcell
#
# at 18:15:45 (GMT+1.0) 26th March 2023
# in /scratch/scratch/uccabz1/launch_tmp_michael
# on node-a14a-019
# by uccabz1
#
# compiler GCC version 4.9.2
# options -cpp -iprefix /scratch/UCL/applications/gcc/4.9.2/bin/../lib/gcc/x86_64-unknown-linux-gnu/4.9.2/ -mtune=corei7 -march=x86-64 -g -Og
#
# seed  -342639531  2019348002  -774942503  1399400884  2123272434  1642347072  -264702804   534874323  1780080944 -1851947636 -1986695886  -739306020
#
#      Author: C. J. Pickard (cjp20@cam.ac.uk)
#                Space group: Fdd2
#

%BLOCK LATTICE_ABC
      5.17251      5.17251      5.68708
    106.62719    106.62719    111.76387
%ENDBLOCK LATTICE_ABC

%BLOCK POSITIONS_FRAC
  Li       -0.3879226       -0.2564603       -0.3493674
  Li        0.0929071       -0.0385552        0.3493674
  Li       -0.0064603        0.3620774        0.1506326
  Li        0.2114448       -0.1570929       -0.1506326
   N       -0.4166163        0.2125506        0.1181147
   N        0.0944358        0.4652690       -0.1181147
   N        0.4625506        0.3333837       -0.3818853
   N       -0.2847310       -0.1555642        0.3818853
   N        0.0026816        0.3272657       -0.4191401
   N       -0.2535942        0.4218217        0.4191401
   N       -0.4227343       -0.2473184        0.0808599
   N       -0.3281783        0.4964058       -0.0808599
%ENDBLOCK POSITIONS_FRAC

KPOINTS_MP_SPACING 0.07

%BLOCK SPECIES_POT
QC5
%ENDBLOCK SPECIES_POT

SNAP_TO_SYMMETRY
SYMMETRY_GENERATE

