#              Generated by Buildcell
#
# at 15:07:24 (GMT+1.0) 26th March 2023
# in /scratch/scratch/uccabz1/launch_tmp_michael
# on node-a14e-007
# by uccabz1
#
# compiler GCC version 4.9.2
# options -cpp -iprefix /scratch/UCL/applications/gcc/4.9.2/bin/../lib/gcc/x86_64-unknown-linux-gnu/4.9.2/ -mtune=corei7 -march=x86-64 -g -Og
#
# seed -1905227451   473456491  1660029745  -855987251 -1474278468  1476159415  -370134732 -1157651125   -60377223  1102048260   307214421  1782328664
#
#      Author: C. J. Pickard (cjp20@cam.ac.uk)
#                Space group: P-1
#

%BLOCK LATTICE_ABC
      2.50000      4.16728      5.84965
    104.43465     92.83112    103.06971
%ENDBLOCK LATTICE_ABC

%BLOCK POSITIONS_FRAC
  Li       -0.4400899       -0.6963870       -0.3663886
  Li        0.4400899        0.6963870        0.3663886
   N        0.1257686       -0.2261544       -0.2935833
   N       -0.1257686        0.2261544        0.2935833
   N       -0.1309909       -0.2048172       -0.0519602
   N        0.1309909        0.2048172        0.0519602
%ENDBLOCK POSITIONS_FRAC

KPOINTS_MP_SPACING 0.07

%BLOCK SPECIES_POT
QC5
%ENDBLOCK SPECIES_POT

SNAP_TO_SYMMETRY
SYMMETRY_GENERATE

