#              Generated by Buildcell
#
# at 17:41:54 (GMT+1.0) 26th March 2023
# in /scratch/scratch/uccabz1/launch_tmp_michael
# on node-a14a-003
# by uccabz1
#
# compiler GCC version 4.9.2
# options -cpp -iprefix /scratch/UCL/applications/gcc/4.9.2/bin/../lib/gcc/x86_64-unknown-linux-gnu/4.9.2/ -mtune=corei7 -march=x86-64 -g -Og
#
# seed  -962934952 -1372332202 -1199465771 -2094462190  2016286615 -1650344930  -938767643  2117856272   230632512 -1139949658  1326272914 -1149603864
#
#      Author: C. J. Pickard (cjp20@cam.ac.uk)
#                Space group: R3
#

%BLOCK LATTICE_ABC
      5.23694      5.23694      5.71553
     62.73331     62.73331     60.00000
%ENDBLOCK LATTICE_ABC

%BLOCK POSITIONS_FRAC
  Li       -0.2682091        0.3497868       -0.1257222
  Li        0.0441445       -0.2682091       -0.1257222
  Li        0.3497868        0.0441445       -0.1257222
  Li       -0.0890536       -0.0890536        0.2671608
   N       -0.1930786        0.4754894        0.0927660
   N       -0.3751768       -0.1930786        0.0927660
   N        0.4754894       -0.3751768        0.0927660
   N       -0.1831401        0.3609729        0.3829711
   N        0.4391961       -0.1831401        0.3829711
   N        0.3609729        0.4391961        0.3829711
   N        0.2180584        0.2180584        0.3458247
   N        0.4161634        0.4161634       -0.2484902
%ENDBLOCK POSITIONS_FRAC

KPOINTS_MP_SPACING 0.07

%BLOCK SPECIES_POT
QC5
%ENDBLOCK SPECIES_POT

SNAP_TO_SYMMETRY
SYMMETRY_GENERATE

