#              Generated by Buildcell
#
# at 18:47:04 (GMT+1.0) 26th March 2023
# in /scratch/scratch/uccabz1/launch_tmp_michael
# on node-a14a-001
# by uccabz1
#
# compiler GCC version 4.9.2
# options -cpp -iprefix /scratch/UCL/applications/gcc/4.9.2/bin/../lib/gcc/x86_64-unknown-linux-gnu/4.9.2/ -mtune=corei7 -march=x86-64 -g -Og
#
# seed   747521857   133271718  -318624892  -136624972  1036295313  -970346432  -527013221  1656129133   423486800  -858266683  -634865092   153255375
#
#      Author: C. J. Pickard (cjp20@cam.ac.uk)
#                Space group: Cm
#

%BLOCK LATTICE_ABC
      4.09259      4.09259      4.40664
    114.22284    115.39910     95.53166
%ENDBLOCK LATTICE_ABC

%BLOCK POSITIONS_FRAC
  Li        0.1566468        0.1766301       -0.2119057
  Li       -0.3885358       -0.3685525       -0.2119057
   N        0.0801935       -0.0759969        0.2780331
   N        0.3540299        0.1978395        0.2780331
   N        0.1170460       -0.4577792        0.3863526
   N       -0.1558682        0.2693066        0.3863526
%ENDBLOCK POSITIONS_FRAC

KPOINTS_MP_SPACING 0.07

%BLOCK SPECIES_POT
QC5
%ENDBLOCK SPECIES_POT

SNAP_TO_SYMMETRY
SYMMETRY_GENERATE

