#              Generated by Buildcell
#
# at 19:29:47 (GMT+1.0) 26th March 2023
# in /scratch/scratch/uccabz1/launch_tmp_michael
# on node-a14f-035
# by uccabz1
#
# compiler GCC version 4.9.2
# options -cpp -iprefix /scratch/UCL/applications/gcc/4.9.2/bin/../lib/gcc/x86_64-unknown-linux-gnu/4.9.2/ -mtune=corei7 -march=x86-64 -g -Og
#
# seed   865371205   231130232   942182352   459101998   688227376  1298653304 -1320324243   475415671  1249464798  -986657304    15550015  1491249582
#
#      Author: C. J. Pickard (cjp20@cam.ac.uk)
#                Space group: Cc
#

%BLOCK LATTICE_ABC
      4.16904      4.16904     10.87746
     80.78771     80.78771     79.61002
%ENDBLOCK LATTICE_ABC

%BLOCK POSITIONS_FRAC
  Li        0.2284545       -0.0933152        0.2008429
  Li        0.4066848       -0.2715455       -0.2991571
  Li        0.2111421        0.1780682       -0.4644526
  Li       -0.3219318       -0.2888579        0.0355474
  Li        0.2494911       -0.4518231       -0.0702517
  Li        0.0481769       -0.2505089        0.4297483
   N        0.2290494       -0.1067292        0.0269853
   N        0.3932708       -0.2709506       -0.4730147
   N        0.1131837        0.3374779        0.3291336
   N       -0.1625221       -0.3868163       -0.1708664
   N        0.0998042       -0.4722683       -0.3612677
   N        0.0277317       -0.4001958        0.1387323
   N        0.2588292        0.2931426       -0.2594614
   N       -0.2068574       -0.2411708        0.2405386
   N        0.3582647        0.3136162        0.2125833
   N       -0.1863838       -0.1417353       -0.2874167
   N       -0.3501326        0.0880501        0.3466570
   N       -0.4119499        0.1498674       -0.1533430
%ENDBLOCK POSITIONS_FRAC

KPOINTS_MP_SPACING 0.07

%BLOCK SPECIES_POT
QC5
%ENDBLOCK SPECIES_POT

SNAP_TO_SYMMETRY
SYMMETRY_GENERATE

