#              Generated by Buildcell
#
# at 16:57:41 (GMT+1.0) 26th March 2023
# in /scratch/scratch/uccabz1/launch_tmp_michael
# on node-a14f-035
# by uccabz1
#
# compiler GCC version 4.9.2
# options -cpp -iprefix /scratch/UCL/applications/gcc/4.9.2/bin/../lib/gcc/x86_64-unknown-linux-gnu/4.9.2/ -mtune=corei7 -march=x86-64 -g -Og
#
# seed -1554553184 -1581121640   620633364  -278351811  -317150146  1961453873   568525302 -1944900453  -107610887  -143043258 -1157403871   650065415
#
#      Author: C. J. Pickard (cjp20@cam.ac.uk)
#                Space group: P31
#

%BLOCK LATTICE_ABC
      4.72899      6.61812      6.61812
    120.00000     90.00000     90.00000
%ENDBLOCK LATTICE_ABC

%BLOCK POSITIONS_FRAC
  Li        0.0100858       -0.3818638        0.0549612
  Li       -0.3232475        0.4368250        0.3818638
  Li        0.3434192       -0.0549612       -0.4368250
  Li       -0.0796573        0.1933549       -0.2414618
  Li       -0.4129906       -0.4348167       -0.1933549
  Li        0.2536761        0.2414618        0.4348167
   N       -0.0049293       -0.4544438       -0.4160407
   N       -0.3382627        0.0384031        0.4544438
   N        0.3284040        0.4160407       -0.0384031
   N       -0.4658190        0.2449562       -0.2811214
   N        0.2008476        0.4739223       -0.2449562
   N       -0.1324857        0.2811214       -0.4739223
   N        0.3329404        0.4857419        0.2158083
   N       -0.0003930       -0.2699336       -0.4857419
   N       -0.3337263       -0.2158083        0.2699336
   N        0.1396486       -0.0244164       -0.0044466
   N       -0.1936847        0.0199697        0.0244164
   N        0.4729820        0.0044466       -0.0199697
%ENDBLOCK POSITIONS_FRAC

KPOINTS_MP_SPACING 0.07

%BLOCK SPECIES_POT
QC5
%ENDBLOCK SPECIES_POT

SNAP_TO_SYMMETRY
SYMMETRY_GENERATE

