#              Generated by Buildcell
#
# at 19:54:03 (GMT+1.0) 26th March 2023
# in /scratch/scratch/uccabz1/launch_tmp_michael
# on node-a14b-028
# by uccabz1
#
# compiler GCC version 4.9.2
# options -cpp -iprefix /scratch/UCL/applications/gcc/4.9.2/bin/../lib/gcc/x86_64-unknown-linux-gnu/4.9.2/ -mtune=corei7 -march=x86-64 -g -Og
#
# seed -1383597601 -1023661783   487660921 -1885419962  1529593486  -350696209  -454164731   -91953520  1239023701  -443506153   674894659   341628641
#
#      Author: C. J. Pickard (cjp20@cam.ac.uk)
#                Space group: P2
#

%BLOCK LATTICE_ABC
      2.64751      7.66899      8.89851
     90.00000     90.00000     93.21003
%ENDBLOCK LATTICE_ABC

%BLOCK POSITIONS_FRAC
  Li        0.0764219        0.3406153       -0.4171946
  Li       -0.0764219       -0.3406153       -0.4171946
  Li        0.0006722        0.2804583       -0.0626464
  Li       -0.0006722       -0.2804583       -0.0626464
  Li        0.2409582       -0.3550955        0.2777163
  Li       -0.2409582        0.3550955        0.2777163
   N       -0.2119154       -0.0692577       -0.4066842
   N        0.2119154        0.0692577       -0.4066842
   N       -0.3499950        0.2985664       -0.2477942
   N        0.3499950       -0.2985664       -0.2477942
   N        0.2301192        0.3910503        0.1179612
   N       -0.2301192       -0.3910503        0.1179612
   N       -0.3196677       -0.1546109        0.2434081
   N        0.3196677        0.1546109        0.2434081
   N       -0.3976777       -0.1815828        0.4555111
   N        0.3976777        0.1815828        0.4555111
   N        0.4707585        0.2119290        0.0858476
   N       -0.4707585       -0.2119290        0.0858476
%ENDBLOCK POSITIONS_FRAC

KPOINTS_MP_SPACING 0.07

%BLOCK SPECIES_POT
QC5
%ENDBLOCK SPECIES_POT

SNAP_TO_SYMMETRY
SYMMETRY_GENERATE

