#              Generated by Buildcell
#
# at 18:45:54 (GMT+1.0) 26th March 2023
# in /scratch/scratch/uccabz1/launch_tmp_michael
# on node-a14c-005
# by uccabz1
#
# compiler GCC version 4.9.2
# options -cpp -iprefix /scratch/UCL/applications/gcc/4.9.2/bin/../lib/gcc/x86_64-unknown-linux-gnu/4.9.2/ -mtune=corei7 -march=x86-64 -g -Og
#
# seed  -978539395   596831860  -106371236 -1595039248   972173236  -784816528  1500737043   873595817  -449561768 -1046764074   351652046  -136179113
#
#      Author: C. J. Pickard (cjp20@cam.ac.uk)
#                Space group: Cc
#

%BLOCK LATTICE_ABC
      3.54434      7.48221      7.98844
     62.07504     88.35087     86.47686
%ENDBLOCK LATTICE_ABC

%BLOCK POSITIONS_FRAC
  Li       -0.2193683       -0.1462247        0.4083176
  Li        0.2806317        0.2620929       -0.4083176
  Li       -0.3821675       -0.0111106       -0.1250700
  Li        0.1178325       -0.1361806        0.1250700
  Li       -0.0925908       -0.4953781       -0.3259083
  Li        0.4074092        0.1787136        0.3259083
   N        0.4471166       -0.2787343        0.0281727
   N       -0.0528834       -0.2505616       -0.0281727
   N       -0.4899079        0.3653649       -0.1595914
   N        0.0100921        0.2057735        0.1595914
   N        0.4055290       -0.4207687       -0.4620524
   N       -0.0944710        0.1171789        0.4620524
   N       -0.2378888        0.1805698       -0.0466126
   N        0.2621112        0.1339573        0.0466126
   N        0.3402243       -0.2410320       -0.4252017
   N       -0.1597757        0.3337663        0.4252017
   N        0.2959415       -0.1578315       -0.2139323
   N       -0.2040585       -0.3717638        0.2139323
%ENDBLOCK POSITIONS_FRAC

KPOINTS_MP_SPACING 0.07

%BLOCK SPECIES_POT
QC5
%ENDBLOCK SPECIES_POT

SNAP_TO_SYMMETRY
SYMMETRY_GENERATE

