#              Generated by Buildcell
#
# at 19:09:22 (GMT+1.0) 26th March 2023
# in /scratch/scratch/uccabz1/launch_tmp_michael
# on node-a14b-028
# by uccabz1
#
# compiler GCC version 4.9.2
# options -cpp -iprefix /scratch/UCL/applications/gcc/4.9.2/bin/../lib/gcc/x86_64-unknown-linux-gnu/4.9.2/ -mtune=corei7 -march=x86-64 -g -Og
#
# seed  1258062260   915333296   697674651  1879402093  1641345577   454000167 -1894219857   998603911  1495439020   221729512 -2120999141 -1150517315
#
#      Author: C. J. Pickard (cjp20@cam.ac.uk)
#                Space group: P3
#

%BLOCK LATTICE_ABC
      4.31653      4.31653      7.72494
     90.00000     90.00000    120.00000
%ENDBLOCK LATTICE_ABC

%BLOCK POSITIONS_FRAC
  Li       -0.0000000       -0.3333333        0.4440210
  Li       -0.3333333        0.0000000        0.4440210
  Li        0.3333333        0.3333333        0.4440210
  Li        0.0000000        0.0000000       -0.1748344
   N       -0.4508242       -0.2993909        0.2276830
   N        0.1514333        0.4508242        0.2276830
   N        0.2993909       -0.1514333        0.2276830
   N        0.3979793        0.3197277        0.1694572
   N       -0.0782517       -0.3979793        0.1694572
   N       -0.3197277        0.0782517        0.1694572
   N       -0.3333333        0.3333333       -0.2305062
   N       -0.0000000       -0.0000000        0.2605030
%ENDBLOCK POSITIONS_FRAC

KPOINTS_MP_SPACING 0.07

%BLOCK SPECIES_POT
QC5
%ENDBLOCK SPECIES_POT

SNAP_TO_SYMMETRY
SYMMETRY_GENERATE

