#              Generated by Buildcell
#
# at 15:46:38 (GMT+1.0) 26th March 2023
# in /scratch/scratch/uccabz1/launch_tmp_michael
# on node-a14e-021
# by uccabz1
#
# compiler GCC version 4.9.2
# options -cpp -iprefix /scratch/UCL/applications/gcc/4.9.2/bin/../lib/gcc/x86_64-unknown-linux-gnu/4.9.2/ -mtune=corei7 -march=x86-64 -g -Og
#
# seed  -762829879  1283598859   598148260 -1253126600  -585221601 -1186255453  -635563592   818038977   844480987  1641802205  -708337901  -564804915
#
#      Author: C. J. Pickard (cjp20@cam.ac.uk)
#                Space group: P31
#

%BLOCK LATTICE_ABC
      2.75334      8.48517      8.48517
    120.00000     90.00000     90.00000
%ENDBLOCK LATTICE_ABC

%BLOCK POSITIONS_FRAC
  Li       -0.0997676        0.4781378        0.3826231
  Li        0.2335657       -0.0955147       -0.4781378
  Li       -0.4331010       -0.3826231        0.0955147
  Li       -0.4608183        0.1750173       -0.4914738
  Li       -0.1274850        0.3335089       -0.1750173
  Li        0.2058483        0.4914738       -0.3335089
   N        0.0231943       -0.2830590        0.2894594
   N        0.3565276       -0.4274816        0.2830590
   N       -0.3101391       -0.2894594        0.4274816
   N       -0.4250295        0.3634514        0.1545873
   N       -0.0916961       -0.2088641       -0.3634514
   N        0.2416372       -0.1545873        0.2088641
   N        0.3664330        0.1529547       -0.2671864
   N       -0.3002336       -0.4201412       -0.1529547
   N        0.0330997        0.2671864        0.4201412
   N        0.1322436       -0.0591695        0.0634737
   N        0.4655770        0.1226432        0.0591695
   N       -0.2010897       -0.0634737       -0.1226432
%ENDBLOCK POSITIONS_FRAC

KPOINTS_MP_SPACING 0.07

%BLOCK SPECIES_POT
QC5
%ENDBLOCK SPECIES_POT

SNAP_TO_SYMMETRY
SYMMETRY_GENERATE

