#              Generated by Buildcell
#
# at 18:13:47 (GMT+1.0) 26th March 2023
# in /scratch/scratch/uccabz1/launch_tmp_michael
# on node-a14a-001
# by uccabz1
#
# compiler GCC version 4.9.2
# options -cpp -iprefix /scratch/UCL/applications/gcc/4.9.2/bin/../lib/gcc/x86_64-unknown-linux-gnu/4.9.2/ -mtune=corei7 -march=x86-64 -g -Og
#
# seed   114524426  1870098411   -50568846  -539000918  -107308009   694504023   427121463  -327145657  -344021271   511599969   -63518303  1509974486
#
#      Author: C. J. Pickard (cjp20@cam.ac.uk)
#                Space group: Cm
#

%BLOCK LATTICE_ABC
      5.00489      5.80134      7.02948
    114.37102     91.49255     90.00000
%ENDBLOCK LATTICE_ABC

%BLOCK POSITIONS_FRAC
  Li       -0.2506420        0.2244870       -0.0115261
  Li       -0.2506420       -0.2360131       -0.0115261
  Li        0.2341585        0.2437339       -0.0815960
  Li        0.2341585       -0.3253299       -0.0815960
  Li        0.2920688       -0.0160360       -0.4630282
  Li        0.2920688       -0.4469922       -0.4630282
   N        0.2009333        0.4840614        0.2335830
   N        0.2009333       -0.2504783        0.2335830
   N       -0.1947101        0.2635801        0.2685998
   N       -0.1947101        0.0050197        0.2685998
   N       -0.0891923       -0.4862144        0.2861316
   N       -0.0891923       -0.2276540        0.2861316
   N       -0.0818633        0.4687412        0.4815376
   N       -0.0818633        0.0127964        0.4815376
   N       -0.4418759        0.4884404       -0.2843156
   N       -0.4418759        0.2272440       -0.2843156
   N        0.4728677       -0.3001397        0.1410361
   N        0.4728677        0.4411758        0.1410361
%ENDBLOCK POSITIONS_FRAC

KPOINTS_MP_SPACING 0.07

%BLOCK SPECIES_POT
QC5
%ENDBLOCK SPECIES_POT

SNAP_TO_SYMMETRY
SYMMETRY_GENERATE

