#              Generated by Buildcell
#
# at 14:51:02 (GMT+1.0) 26th March 2023
# in /scratch/scratch/uccabz1/launch_tmp_michael
# on node-a14e-021
# by uccabz1
#
# compiler GCC version 4.9.2
# options -cpp -iprefix /scratch/UCL/applications/gcc/4.9.2/bin/../lib/gcc/x86_64-unknown-linux-gnu/4.9.2/ -mtune=corei7 -march=x86-64 -g -Og
#
# seed  1353471975 -1049897057   405093058   130643806   -49718406  1001593443  1559319773  1063362981  -705769622   669059066  -634219932  2077054074
#
#      Author: C. J. Pickard (cjp20@cam.ac.uk)
#                Space group: P32
#

%BLOCK LATTICE_ABC
      3.62941      3.62941      7.51204
     90.00000     90.00000    120.00000
%ENDBLOCK LATTICE_ABC

%BLOCK POSITIONS_FRAC
  Li       -0.4869056        0.0624882        0.3181697
  Li       -0.0624882        0.4506062       -0.3484970
  Li       -0.4506062        0.4869056       -0.0151636
   N       -0.3150802       -0.2524769       -0.2434249
   N        0.2524769       -0.0626033        0.0899084
   N        0.0626033        0.3150802        0.4232417
   N       -0.3270279       -0.3698355        0.2432365
   N        0.3698355        0.0428076       -0.4234301
   N       -0.0428076        0.3270279       -0.0900968
%ENDBLOCK POSITIONS_FRAC

KPOINTS_MP_SPACING 0.07

%BLOCK SPECIES_POT
QC5
%ENDBLOCK SPECIES_POT

SNAP_TO_SYMMETRY
SYMMETRY_GENERATE

