#              Generated by Buildcell
#
# at 17:28:22 (GMT+1.0) 26th March 2023
# in /scratch/scratch/uccabz1/launch_tmp_michael
# on node-a14a-001
# by uccabz1
#
# compiler GCC version 4.9.2
# options -cpp -iprefix /scratch/UCL/applications/gcc/4.9.2/bin/../lib/gcc/x86_64-unknown-linux-gnu/4.9.2/ -mtune=corei7 -march=x86-64 -g -Og
#
# seed -1789367538   264990809  1535825228  2118438275   -39309882   361376479  1157246781 -1662810954 -1356962357 -1706223512  1908418105   183916597
#
#      Author: C. J. Pickard (cjp20@cam.ac.uk)
#                Space group: P21
#

%BLOCK LATTICE_ABC
      3.35431      6.06134      9.09982
     90.00000     90.00000     99.83200
%ENDBLOCK LATTICE_ABC

%BLOCK POSITIONS_FRAC
  Li        0.3687839        0.1407780       -0.3306366
  Li       -0.3687839       -0.1407780        0.1693634
  Li        0.3658779       -0.4057430       -0.2478159
  Li       -0.3658779        0.4057430        0.2521841
  Li       -0.0647975       -0.2448630       -0.0661431
  Li        0.0647975        0.2448630        0.4338569
   N       -0.1028628        0.0737651       -0.1799630
   N        0.1028628       -0.0737651        0.3200370
   N       -0.0296001        0.3977860        0.0047342
   N        0.0296001       -0.3977860       -0.4952658
   N       -0.4613718        0.4840694       -0.0428744
   N        0.4613718       -0.4840694        0.4571256
   N       -0.1267531       -0.3444445       -0.3455845
   N        0.1267531        0.3444445        0.1544155
   N       -0.2316458        0.4041059       -0.3332749
   N        0.2316458       -0.4041059        0.1667251
   N        0.3625877       -0.1561710        0.4434513
   N       -0.3625877        0.1561710       -0.0565487
%ENDBLOCK POSITIONS_FRAC

KPOINTS_MP_SPACING 0.07

%BLOCK SPECIES_POT
QC5
%ENDBLOCK SPECIES_POT

SNAP_TO_SYMMETRY
SYMMETRY_GENERATE

