#              Generated by Buildcell
#
# at 17:11:10 (GMT+1.0) 26th March 2023
# in /scratch/scratch/uccabz1/launch_tmp_michael
# on node-a14a-003
# by uccabz1
#
# compiler GCC version 4.9.2
# options -cpp -iprefix /scratch/UCL/applications/gcc/4.9.2/bin/../lib/gcc/x86_64-unknown-linux-gnu/4.9.2/ -mtune=corei7 -march=x86-64 -g -Og
#
# seed -1835711647  1445813935   452726759   597651169  1575121995 -1038734603  1081126927  1348693244  -253069899 -1572726260   772366569   723460463
#
#      Author: C. J. Pickard (cjp20@cam.ac.uk)
#                Space group: Ima2
#

%BLOCK LATTICE_ABC
      5.26697      6.31248      6.74152
    117.91615    112.99414     90.00000
%ENDBLOCK LATTICE_ABC

%BLOCK POSITIONS_FRAC
  Li       -0.1462574        0.0388086       -0.3178589
  Li       -0.1716016       -0.3566675       -0.3178589
  Li        0.3537426       -0.3566675       -0.3178589
  Li        0.3283984        0.0388086       -0.3178589
  Li       -0.0930115        0.2960412        0.3139769
  Li        0.4069885        0.0179357        0.3139769
   N       -0.1013269        0.2520008        0.0125513
   N        0.1138782       -0.2394495        0.0125513
   N        0.3986731       -0.2394495        0.0125513
   N       -0.3861218        0.2520008        0.0125513
   N        0.1147196        0.4877272        0.2126668
   N        0.0979472       -0.2750604        0.2126668
   N       -0.3852804       -0.2750604        0.2126668
   N       -0.4020528        0.4877272        0.2126668
   N        0.0785799       -0.0149751        0.3614912
   N        0.2829112        0.3764663        0.3614912
   N       -0.4214201        0.3764663        0.3614912
   N       -0.2170888       -0.0149751        0.3614912
%ENDBLOCK POSITIONS_FRAC

KPOINTS_MP_SPACING 0.07

%BLOCK SPECIES_POT
QC5
%ENDBLOCK SPECIES_POT

SNAP_TO_SYMMETRY
SYMMETRY_GENERATE

