#              Generated by Buildcell
#
# at 18:05:00 (GMT+1.0) 26th March 2023
# in /scratch/scratch/uccabz1/launch_tmp_michael
# on node-a14a-001
# by uccabz1
#
# compiler GCC version 4.9.2
# options -cpp -iprefix /scratch/UCL/applications/gcc/4.9.2/bin/../lib/gcc/x86_64-unknown-linux-gnu/4.9.2/ -mtune=corei7 -march=x86-64 -g -Og
#
# seed   811118129   636168477   856386088  1969302614   256031659 -1490071826 -1032829020  -346997032  -174508159   408569393  2120083278   974404352
#
#      Author: C. J. Pickard (cjp20@cam.ac.uk)
#                Space group: P21
#

%BLOCK LATTICE_ABC
      2.50000      4.42086      5.76598
     99.76468     90.00000     90.00000
%ENDBLOCK LATTICE_ABC

%BLOCK POSITIONS_FRAC
  Li        0.1891130       -0.2876782       -0.3604420
  Li       -0.3108870        0.2876782        0.3604420
   N       -0.0881521        0.3476450       -0.2481241
   N        0.4118479       -0.3476450        0.2481241
   N       -0.3182144       -0.1269224       -0.1122767
   N        0.1817856        0.1269224        0.1122767
%ENDBLOCK POSITIONS_FRAC

KPOINTS_MP_SPACING 0.07

%BLOCK SPECIES_POT
QC5
%ENDBLOCK SPECIES_POT

SNAP_TO_SYMMETRY
SYMMETRY_GENERATE

