#              Generated by Buildcell
#
# at 19:24:52 (GMT+1.0) 26th March 2023
# in /scratch/scratch/uccabz1/launch_tmp_michael
# on node-a14b-031
# by uccabz1
#
# compiler GCC version 4.9.2
# options -cpp -iprefix /scratch/UCL/applications/gcc/4.9.2/bin/../lib/gcc/x86_64-unknown-linux-gnu/4.9.2/ -mtune=corei7 -march=x86-64 -g -Og
#
# seed  -551864603  -379603395 -1419058956  1296078969 -1410901325   382784912  1937687171 -1971316875   458100975 -1305151695 -1618791838   488206891
#
#      Author: C. J. Pickard (cjp20@cam.ac.uk)
#                Space group: Amm2
#

%BLOCK LATTICE_ABC
      4.28809      4.28809      5.43813
     90.00000     90.00000    116.53325
%ENDBLOCK LATTICE_ABC

%BLOCK POSITIONS_FRAC
  Li       -0.0386784        0.0386784        0.2697663
  Li       -0.0386784        0.0386784       -0.2697663
  Li       -0.3482679        0.3482679        0.0000000
   N        0.4295558       -0.0838191       -0.3620850
   N        0.0838191       -0.4295558        0.3620850
   N        0.0838191       -0.4295558       -0.3620850
   N        0.4295558       -0.0838191        0.3620850
   N        0.2025677       -0.2025677       -0.1379150
   N        0.2025677       -0.2025677        0.1379150
%ENDBLOCK POSITIONS_FRAC

KPOINTS_MP_SPACING 0.07

%BLOCK SPECIES_POT
QC5
%ENDBLOCK SPECIES_POT

SNAP_TO_SYMMETRY
SYMMETRY_GENERATE

