#              Generated by Buildcell
#
# at 17:42:44 (GMT+1.0) 26th March 2023
# in /scratch/scratch/uccabz1/launch_tmp_michael
# on node-a14b-022
# by uccabz1
#
# compiler GCC version 4.9.2
# options -cpp -iprefix /scratch/UCL/applications/gcc/4.9.2/bin/../lib/gcc/x86_64-unknown-linux-gnu/4.9.2/ -mtune=corei7 -march=x86-64 -g -Og
#
# seed -1574001231 -1512401750 -1174027990  1231083584 -1565443036   647084593  -529613181   622228442  -102251239   604740184 -1855764473   -65515979
#
#      Author: C. J. Pickard (cjp20@cam.ac.uk)
#                Space group: I222
#

%BLOCK LATTICE_ABC
      3.62477      5.96779      5.96779
     73.90372     72.32032     72.32032
%ENDBLOCK LATTICE_ABC

%BLOCK POSITIONS_FRAC
  Li       -0.3476073       -0.0477044        0.2428944
  Li        0.1524173        0.2428944       -0.0477044
  Li        0.3476073       -0.2428944        0.0477044
  Li       -0.1524173        0.0477044       -0.2428944
   N       -0.3026785        0.1729491        0.4038882
   N       -0.2741587        0.4038882        0.1729491
   N        0.3026785       -0.4038882       -0.1729491
   N        0.2741587       -0.1729491       -0.4038882
   N       -0.1734900       -0.1135598       -0.4705250
   N       -0.2424252       -0.4705250       -0.1135598
   N        0.1734900        0.4705250        0.1135598
   N        0.2424252        0.1135598        0.4705250
%ENDBLOCK POSITIONS_FRAC

KPOINTS_MP_SPACING 0.07

%BLOCK SPECIES_POT
QC5
%ENDBLOCK SPECIES_POT

SNAP_TO_SYMMETRY
SYMMETRY_GENERATE

