#              Generated by Buildcell
#
# at 16:42:48 (GMT+1.0) 26th March 2023
# in /scratch/scratch/uccabz1/launch_tmp_michael
# on node-a14c-005
# by uccabz1
#
# compiler GCC version 4.9.2
# options -cpp -iprefix /scratch/UCL/applications/gcc/4.9.2/bin/../lib/gcc/x86_64-unknown-linux-gnu/4.9.2/ -mtune=corei7 -march=x86-64 -g -Og
#
# seed  -312169620 -1338730414   948076895 -1730677683   986198820   566394958  -405784331  -997451128  -760709099  1585895670  1895560658  -801678050
#
#      Author: C. J. Pickard (cjp20@cam.ac.uk)
#                Space group: R3
#

%BLOCK LATTICE_ABC
      4.05150      4.05150      4.05150
     74.07755     74.07755     74.07755
%ENDBLOCK LATTICE_ABC

%BLOCK POSITIONS_FRAC
  Li        0.3237855        0.3237855        0.3237855
  Li       -0.3863969       -0.3863969       -0.3863969
   N        0.3681866        0.2514940       -0.1326000
   N       -0.1326000        0.3681866        0.2514940
   N        0.2514940       -0.1326000        0.3681866
   N        0.0726016        0.0726016        0.0726016
%ENDBLOCK POSITIONS_FRAC

KPOINTS_MP_SPACING 0.07

%BLOCK SPECIES_POT
QC5
%ENDBLOCK SPECIES_POT

SNAP_TO_SYMMETRY
SYMMETRY_GENERATE

