#              Generated by Buildcell
#
# at 15:08:09 (GMT+1.0) 26th March 2023
# in /scratch/scratch/uccabz1/launch_tmp_michael
# on node-a14b-022
# by uccabz1
#
# compiler GCC version 4.9.2
# options -cpp -iprefix /scratch/UCL/applications/gcc/4.9.2/bin/../lib/gcc/x86_64-unknown-linux-gnu/4.9.2/ -mtune=corei7 -march=x86-64 -g -Og
#
# seed  -233155490   999692769  1999180242 -1426554872  -523039792   982612382  1011216221  1088364794 -1131417799  2054744994 -1012429885  2004058475
#
#      Author: C. J. Pickard (cjp20@cam.ac.uk)
#                Space group: Cmm2
#

%BLOCK LATTICE_ABC
      2.49803      7.11340      7.11340
     95.38645     90.00000     90.00000
%ENDBLOCK LATTICE_ABC

%BLOCK POSITIONS_FRAC
  Li       -0.2360180       -0.4283856        0.1673275
  Li       -0.2360180        0.4283856       -0.1673275
  Li       -0.2360180        0.1673275       -0.4283856
  Li       -0.2360180       -0.1673275        0.4283856
   N       -0.2218383       -0.3040784       -0.1615133
   N       -0.2218383        0.3040784        0.1615133
   N       -0.2218383       -0.1615133       -0.3040784
   N       -0.2218383        0.1615133        0.3040784
   N        0.2396308       -0.0480155       -0.3891465
   N        0.2396308        0.0480155        0.3891465
   N        0.2396308       -0.3891465       -0.0480155
   N        0.2396308        0.3891465        0.0480155
%ENDBLOCK POSITIONS_FRAC

KPOINTS_MP_SPACING 0.07

%BLOCK SPECIES_POT
QC5
%ENDBLOCK SPECIES_POT

SNAP_TO_SYMMETRY
SYMMETRY_GENERATE

