#              Generated by Buildcell
#
# at 18:23:07 (GMT+1.0) 26th March 2023
# in /scratch/scratch/uccabz1/launch_tmp_michael
# on node-a14a-019
# by uccabz1
#
# compiler GCC version 4.9.2
# options -cpp -iprefix /scratch/UCL/applications/gcc/4.9.2/bin/../lib/gcc/x86_64-unknown-linux-gnu/4.9.2/ -mtune=corei7 -march=x86-64 -g -Og
#
# seed   415457159  1539274887   367745581  1922134616  -435475265  -120369425 -1287576279 -1029193791  2034808314  1068057686  1293794603  1562635815
#
#      Author: C. J. Pickard (cjp20@cam.ac.uk)
#                Space group: P32
#

%BLOCK LATTICE_ABC
      4.28297      4.93832      4.93832
    120.00000     90.00000     90.00000
%ENDBLOCK LATTICE_ABC

%BLOCK POSITIONS_FRAC
  Li        0.1401113        0.1267776       -0.1667543
  Li       -0.1932220       -0.2935319       -0.1267776
  Li        0.4734447        0.1667543        0.2935319
   N       -0.3161749        0.1360062       -0.3519602
   N        0.3504918       -0.4879664       -0.1360062
   N        0.0171584        0.3519602        0.4879664
   N       -0.4437527        0.3079788       -0.0122495
   N        0.2229139       -0.3202283       -0.3079788
   N       -0.1104194        0.0122495        0.3202283
%ENDBLOCK POSITIONS_FRAC

KPOINTS_MP_SPACING 0.07

%BLOCK SPECIES_POT
QC5
%ENDBLOCK SPECIES_POT

SNAP_TO_SYMMETRY
SYMMETRY_GENERATE

