#              Generated by Buildcell
#
# at 15:52:33 (GMT+1.0) 26th March 2023
# in /scratch/scratch/uccabz1/launch_tmp_michael
# on node-a14b-028
# by uccabz1
#
# compiler GCC version 4.9.2
# options -cpp -iprefix /scratch/UCL/applications/gcc/4.9.2/bin/../lib/gcc/x86_64-unknown-linux-gnu/4.9.2/ -mtune=corei7 -march=x86-64 -g -Og
#
# seed  1580194819  1179722454    67444035 -1668663166  -622657246 -1984750717   -52577936     -551824 -1664245222  -299382600  2005090526  1993258595
#
#      Author: C. J. Pickard (cjp20@cam.ac.uk)
#                Space group: Pc
#

%BLOCK LATTICE_ABC
      3.70840      5.32722      8.67630
     90.00000     91.74298     90.00000
%ENDBLOCK LATTICE_ABC

%BLOCK POSITIONS_FRAC
  Li        0.4255778        0.1629773       -0.2545850
  Li        0.4255778       -0.1629773        0.2454150
  Li        0.3286684        0.3187611        0.4504838
  Li        0.3286684       -0.3187611       -0.0495162
  Li       -0.0823090        0.0531099       -0.0630502
  Li       -0.0823090       -0.0531099        0.4369498
   N        0.1609300        0.3570296       -0.1082108
   N        0.1609300       -0.3570296        0.3917892
   N        0.4057688       -0.0063180       -0.4640914
   N        0.4057688        0.0063180        0.0359086
   N       -0.2335471        0.2000103        0.2103834
   N       -0.2335471       -0.2000103       -0.2896166
   N        0.1485601       -0.3007996       -0.2640253
   N        0.1485601        0.3007996        0.2359747
   N       -0.1601736        0.2519569       -0.4555366
   N       -0.1601736       -0.2519569        0.0444634
   N       -0.1301569        0.4536571        0.1377441
   N       -0.1301569       -0.4536571       -0.3622559
%ENDBLOCK POSITIONS_FRAC

KPOINTS_MP_SPACING 0.07

%BLOCK SPECIES_POT
QC5
%ENDBLOCK SPECIES_POT

SNAP_TO_SYMMETRY
SYMMETRY_GENERATE

