#              Generated by Buildcell
#
# at 19:25:03 (GMT+1.0) 26th March 2023
# in /scratch/scratch/uccabz1/launch_tmp_michael
# on node-a14e-021
# by uccabz1
#
# compiler GCC version 4.9.2
# options -cpp -iprefix /scratch/UCL/applications/gcc/4.9.2/bin/../lib/gcc/x86_64-unknown-linux-gnu/4.9.2/ -mtune=corei7 -march=x86-64 -g -Og
#
# seed -1408791064 -1413623516  1256960920  -225642354 -1807072000 -2108437035  -630178426  -430731666   382758146  1050002604  -192649816 -1762633326
#
#      Author: C. J. Pickard (cjp20@cam.ac.uk)
#                Space group: P3
#

%BLOCK LATTICE_ABC
      2.50016      7.41035      7.41035
    120.00000     90.00000     90.00000
%ENDBLOCK LATTICE_ABC

%BLOCK POSITIONS_FRAC
  Li       -0.4001538        0.0600578       -0.4412946
  Li       -0.4001538        0.4986476       -0.0600578
  Li       -0.4001538        0.4412946       -0.4986476
  Li       -0.4927484       -0.0000000       -0.0000000
   N       -0.4423173       -0.2231874        0.3192743
   N       -0.4423173       -0.4575383        0.2231874
   N       -0.4423173       -0.3192743        0.4575383
   N        0.0920653        0.3061907       -0.0292356
   N        0.0920653       -0.3354263       -0.3061907
   N        0.0920653        0.0292356        0.3354263
   N        0.3200572        0.3333333       -0.3333333
   N        0.0592585       -0.3333333        0.3333333
%ENDBLOCK POSITIONS_FRAC

KPOINTS_MP_SPACING 0.07

%BLOCK SPECIES_POT
QC5
%ENDBLOCK SPECIES_POT

SNAP_TO_SYMMETRY
SYMMETRY_GENERATE

