#              Generated by Buildcell
#
# at 18:01:57 (GMT+1.0) 26th March 2023
# in /scratch/scratch/uccabz1/launch_tmp_michael
# on node-a14b-028
# by uccabz1
#
# compiler GCC version 4.9.2
# options -cpp -iprefix /scratch/UCL/applications/gcc/4.9.2/bin/../lib/gcc/x86_64-unknown-linux-gnu/4.9.2/ -mtune=corei7 -march=x86-64 -g -Og
#
# seed   220704774 -1781241363 -1450122075  -877081244  1301004979  1579589801  -319277432   842736503   -51739059 -1536015506  -112549999  1022535712
#
#      Author: C. J. Pickard (cjp20@cam.ac.uk)
#                Space group: C2/m
#

%BLOCK LATTICE_ABC
      3.04448      4.63442      7.02827
     97.82614     90.00000    109.17556
%ENDBLOCK LATTICE_ABC

%BLOCK POSITIONS_FRAC
  Li        0.3558823       -0.2882354       -0.0345669
  Li       -0.3558823        0.2882354        0.0345669
  Li        0.5000000        0.0000000       -0.5000000
   N        0.2245434       -0.0436090       -0.2082539
   N        0.2681524        0.0436090        0.2082539
   N       -0.2245434        0.0436090        0.2082539
   N       -0.2681524       -0.0436090       -0.2082539
   N       -0.3834533        0.2330935       -0.2500627
   N        0.3834533       -0.2330935        0.2500627
%ENDBLOCK POSITIONS_FRAC

KPOINTS_MP_SPACING 0.07

%BLOCK SPECIES_POT
QC5
%ENDBLOCK SPECIES_POT

SNAP_TO_SYMMETRY
SYMMETRY_GENERATE

