#              Generated by Buildcell
#
# at 18:46:48 (GMT+1.0) 26th March 2023
# in /scratch/scratch/uccabz1/launch_tmp_michael
# on node-a14e-007
# by uccabz1
#
# compiler GCC version 4.9.2
# options -cpp -iprefix /scratch/UCL/applications/gcc/4.9.2/bin/../lib/gcc/x86_64-unknown-linux-gnu/4.9.2/ -mtune=corei7 -march=x86-64 -g -Og
#
# seed  -800694764  2107934312  -814854750 -1256955346 -2008282832  1714009888  1656876278  1983057112  1876698894 -1583629504   997353590   406064705
#
#      Author: C. J. Pickard (cjp20@cam.ac.uk)
#                Space group: P3
#

%BLOCK LATTICE_ABC
      2.83381      4.89683      4.89683
    120.00000     90.00000     90.00000
%ENDBLOCK LATTICE_ABC

%BLOCK POSITIONS_FRAC
  Li       -0.0763811        0.3333333       -0.3333333
  Li        0.4466983        0.0000000        0.0000000
   N       -0.4386406       -0.0181733       -0.3910530
   N       -0.4386406        0.3910530        0.3728797
   N       -0.4386406       -0.3728797        0.0181733
   N       -0.3115886       -0.3333333        0.3333333
%ENDBLOCK POSITIONS_FRAC

KPOINTS_MP_SPACING 0.07

%BLOCK SPECIES_POT
QC5
%ENDBLOCK SPECIES_POT

SNAP_TO_SYMMETRY
SYMMETRY_GENERATE

