#              Generated by Buildcell
#
# at 20:20:16 (GMT+1.0) 26th March 2023
# in /scratch/scratch/uccabz1/launch_tmp_michael
# on node-a14a-019
# by uccabz1
#
# compiler GCC version 4.9.2
# options -cpp -iprefix /scratch/UCL/applications/gcc/4.9.2/bin/../lib/gcc/x86_64-unknown-linux-gnu/4.9.2/ -mtune=corei7 -march=x86-64 -g -Og
#
# seed   613861437  -706418603  -169500868  1745810734  1371512121  1730358401 -1146945196   803408996   315007200  1246981532   327784755  -169944259
#
#      Author: C. J. Pickard (cjp20@cam.ac.uk)
#                Space group: P3
#

%BLOCK LATTICE_ABC
      3.99912      3.99912      4.27579
     90.00000     90.00000    120.00000
%ENDBLOCK LATTICE_ABC

%BLOCK POSITIONS_FRAC
  Li        0.0000000       -0.0000000        0.2370551
  Li       -0.3333333        0.3333333       -0.4534647
   N       -0.4845888       -0.0628683       -0.1430699
   N        0.4217205        0.4845888       -0.1430699
   N        0.0628683       -0.4217205       -0.1430699
   N        0.3333333       -0.3333333        0.1329943
%ENDBLOCK POSITIONS_FRAC

KPOINTS_MP_SPACING 0.07

%BLOCK SPECIES_POT
QC5
%ENDBLOCK SPECIES_POT

SNAP_TO_SYMMETRY
SYMMETRY_GENERATE

