#              Generated by Buildcell
#
# at 18:42:04 (GMT+1.0) 26th March 2023
# in /scratch/scratch/uccabz1/launch_tmp_michael
# on node-a14e-021
# by uccabz1
#
# compiler GCC version 4.9.2
# options -cpp -iprefix /scratch/UCL/applications/gcc/4.9.2/bin/../lib/gcc/x86_64-unknown-linux-gnu/4.9.2/ -mtune=corei7 -march=x86-64 -g -Og
#
# seed  1574658929   912443282 -1228945343  -172114313  -790628228  -689894655  2037672514  -530546896    67044174  1861677650  1878419117  1371791020
#
#      Author: C. J. Pickard (cjp20@cam.ac.uk)
#                Space group: P2/c
#

%BLOCK LATTICE_ABC
      3.54544      5.25511      6.92004
    112.06472     90.00000     90.00000
%ENDBLOCK LATTICE_ABC

%BLOCK POSITIONS_FRAC
  Li       -0.3176191        0.0741061       -0.1404012
  Li       -0.3176191        0.4258939       -0.3595988
  Li        0.3176191       -0.0741061        0.1404012
  Li        0.3176191       -0.4258939        0.3595988
   N        0.3395551       -0.0383830        0.4237722
   N        0.3395551       -0.4616170        0.0762278
   N       -0.3395551        0.0383830       -0.4237722
   N       -0.3395551        0.4616170       -0.0762278
   N       -0.3806544       -0.2610141       -0.0978101
   N       -0.3806544       -0.2389859       -0.4021899
   N        0.3806544        0.2610141        0.0978101
   N        0.3806544        0.2389859        0.4021899
%ENDBLOCK POSITIONS_FRAC

KPOINTS_MP_SPACING 0.07

%BLOCK SPECIES_POT
QC5
%ENDBLOCK SPECIES_POT

SNAP_TO_SYMMETRY
SYMMETRY_GENERATE

