#              Generated by Buildcell
#
# at 20:04:48 (GMT+1.0) 26th March 2023
# in /scratch/scratch/uccabz1/launch_tmp_michael
# on node-a14c-005
# by uccabz1
#
# compiler GCC version 4.9.2
# options -cpp -iprefix /scratch/UCL/applications/gcc/4.9.2/bin/../lib/gcc/x86_64-unknown-linux-gnu/4.9.2/ -mtune=corei7 -march=x86-64 -g -Og
#
# seed   -59644511 -1970088039   690252576  1909763566  1089865401 -1891288639   190218560   719433313  1660437972   146670903   386754813   109845229
#
#      Author: C. J. Pickard (cjp20@cam.ac.uk)
#                Space group: P21
#

%BLOCK LATTICE_ABC
      3.47766      6.36282      8.15858
    102.34509     90.00000     90.00000
%ENDBLOCK LATTICE_ABC

%BLOCK POSITIONS_FRAC
  Li       -0.2962956       -0.3437005       -0.2245600
  Li        0.2037044        0.3437005        0.2245600
  Li        0.0994913        0.0747168        0.4031553
  Li       -0.4005087       -0.0747168       -0.4031553
  Li       -0.3117746        0.2970476       -0.0067777
  Li        0.1882254       -0.2970476        0.0067777
   N        0.4745098        0.2034455       -0.4373117
   N       -0.0254902       -0.2034455        0.4373117
   N        0.0185073       -0.3087938        0.2552157
   N       -0.4814927        0.3087938       -0.2552157
   N        0.4354187       -0.2028774        0.3361839
   N       -0.0645813        0.2028774       -0.3361839
   N        0.2170902       -0.2975560       -0.4439118
   N       -0.2829098        0.2975560        0.4439118
   N        0.1760427        0.3599788       -0.4694763
   N       -0.3239573       -0.3599788        0.4694763
   N       -0.4903816        0.0207975       -0.1172101
   N        0.0096184       -0.0207975        0.1172101
%ENDBLOCK POSITIONS_FRAC

KPOINTS_MP_SPACING 0.07

%BLOCK SPECIES_POT
QC5
%ENDBLOCK SPECIES_POT

SNAP_TO_SYMMETRY
SYMMETRY_GENERATE

