#              Generated by Buildcell
#
# at 15:38:07 (GMT+1.0) 26th March 2023
# in /scratch/scratch/uccabz1/launch_tmp_michael
# on node-a14b-028
# by uccabz1
#
# compiler GCC version 4.9.2
# options -cpp -iprefix /scratch/UCL/applications/gcc/4.9.2/bin/../lib/gcc/x86_64-unknown-linux-gnu/4.9.2/ -mtune=corei7 -march=x86-64 -g -Og
#
# seed -1728211939  1123188144 -1216242802  -261653186   882969388   264539045  -114534262   359077621 -1244776935 -1477592860   619405224 -2075625983
#
#      Author: C. J. Pickard (cjp20@cam.ac.uk)
#                Space group: I-4
#

%BLOCK LATTICE_ABC
      4.28129      4.28129      5.75319
    111.84391    111.84391     90.00000
%ENDBLOCK LATTICE_ABC

%BLOCK POSITIONS_FRAC
  Li        0.3741920        0.3741920       -0.2516161
  Li       -0.3741920       -0.3741920        0.2516161
  Li       -0.2500000        0.2500000       -0.5000000
   N        0.0638421        0.0335764        0.3527116
   N        0.2888695        0.3191351        0.3527116
   N       -0.0335764       -0.2888695       -0.3527116
   N       -0.3191351       -0.0638421       -0.3527116
   N       -0.0470927        0.4529073       -0.0941854
   N       -0.4529073        0.0470927        0.0941854
%ENDBLOCK POSITIONS_FRAC

KPOINTS_MP_SPACING 0.07

%BLOCK SPECIES_POT
QC5
%ENDBLOCK SPECIES_POT

SNAP_TO_SYMMETRY
SYMMETRY_GENERATE

