#              Generated by Buildcell
#
# at 17:51:46 (GMT+1.0) 26th March 2023
# in /scratch/scratch/uccabz1/launch_tmp_michael
# on node-a14a-003
# by uccabz1
#
# compiler GCC version 4.9.2
# options -cpp -iprefix /scratch/UCL/applications/gcc/4.9.2/bin/../lib/gcc/x86_64-unknown-linux-gnu/4.9.2/ -mtune=corei7 -march=x86-64 -g -Og
#
# seed   895624336 -1707034776  -397505221  1863130025 -1421787724 -1436008217  -294069741  1978848550  1369851287  -217683331  -427723212  1793899903
#
#      Author: C. J. Pickard (cjp20@cam.ac.uk)
#                Space group: Cmc21
#

%BLOCK LATTICE_ABC
      3.24230      4.79578      8.43022
    106.52537     90.00000     90.00000
%ENDBLOCK LATTICE_ABC

%BLOCK POSITIONS_FRAC
  Li        0.3227348        0.4177407        0.2805111
  Li       -0.1772652       -0.4177407       -0.2805111
  Li       -0.1772652       -0.1372297        0.2805111
  Li        0.3227348        0.1372297       -0.2805111
   N       -0.2134826        0.4026339        0.1400972
   N        0.2865174       -0.4026339       -0.1400972
   N        0.2865174       -0.2625367        0.1400972
   N       -0.2134826        0.2625367       -0.1400972
   N        0.4282576        0.0962859        0.0927999
   N       -0.0717424       -0.0962859       -0.0927999
   N       -0.0717424       -0.0034860        0.0927999
   N        0.4282576        0.0034860       -0.0927999
%ENDBLOCK POSITIONS_FRAC

KPOINTS_MP_SPACING 0.07

%BLOCK SPECIES_POT
QC5
%ENDBLOCK SPECIES_POT

SNAP_TO_SYMMETRY
SYMMETRY_GENERATE

