#              Generated by Buildcell
#
# at 16:24:50 (GMT+1.0) 26th March 2023
# in /scratch/scratch/uccabz1/launch_tmp_michael
# on node-a14f-035
# by uccabz1
#
# compiler GCC version 4.9.2
# options -cpp -iprefix /scratch/UCL/applications/gcc/4.9.2/bin/../lib/gcc/x86_64-unknown-linux-gnu/4.9.2/ -mtune=corei7 -march=x86-64 -g -Og
#
# seed  2143799721   699188805 -1661729693  -516946760 -1999906820  -380149967   643384221   652146668  1290274013  1712363581  -141333214   984995862
#
#      Author: C. J. Pickard (cjp20@cam.ac.uk)
#                Space group: C2
#

%BLOCK LATTICE_ABC
      2.94857      5.66458      5.66458
     77.32908     75.20055     75.20055
%ENDBLOCK LATTICE_ABC

%BLOCK POSITIONS_FRAC
  Li        0.3966766        0.4755650        0.2503354
  Li       -0.3966766       -0.2503354       -0.4755650
  Li       -0.0000000       -0.0930567        0.0930567
   N       -0.0564458       -0.4629301       -0.2392626
   N        0.0564458        0.2392626        0.4629301
   N       -0.2752017        0.3630806       -0.3181179
   N        0.2752017        0.3181179       -0.3630806
   N       -0.2404935       -0.3058221       -0.0393037
   N        0.2404935        0.0393037        0.3058221
%ENDBLOCK POSITIONS_FRAC

KPOINTS_MP_SPACING 0.07

%BLOCK SPECIES_POT
QC5
%ENDBLOCK SPECIES_POT

SNAP_TO_SYMMETRY
SYMMETRY_GENERATE

