#              Generated by Buildcell
#
# at 18:20:52 (GMT+1.0) 26th March 2023
# in /scratch/scratch/uccabz1/launch_tmp_michael
# on node-a14f-035
# by uccabz1
#
# compiler GCC version 4.9.2
# options -cpp -iprefix /scratch/UCL/applications/gcc/4.9.2/bin/../lib/gcc/x86_64-unknown-linux-gnu/4.9.2/ -mtune=corei7 -march=x86-64 -g -Og
#
# seed   -76778414   323334247  2020639494  1923546897 -1578344253  -730026950  1613831855  -749087595   966358164   391724352   779121800 -1408907240
#
#      Author: C. J. Pickard (cjp20@cam.ac.uk)
#                Space group: C2/c
#

%BLOCK LATTICE_ABC
      6.28630      6.30480      6.34634
    119.15178    119.05438     91.11095
%ENDBLOCK LATTICE_ABC

%BLOCK POSITIONS_FRAC
  Li        0.2383173       -0.1790602       -0.1228794
  Li       -0.3611967       -0.4438192       -0.1228794
  Li       -0.2383173        0.1790602        0.1228794
  Li        0.3611967        0.4438192        0.1228794
  Li        0.5000000       -0.0000000       -0.5000000
  Li        0.0000000       -0.0000000        0.5000000
   N        0.3667896        0.1095531       -0.1037042
   N       -0.4704938        0.2867427       -0.1037042
   N       -0.3667896       -0.1095531        0.1037042
   N        0.4704938       -0.2867427        0.1037042
   N        0.3637368       -0.1143807       -0.3493986
   N        0.2868646        0.2649821       -0.3493986
   N       -0.3637368        0.1143807        0.3493986
   N       -0.2868646       -0.2649821        0.3493986
   N        0.0402388       -0.4040061       -0.1159078
   N       -0.1561466       -0.2119017       -0.1159078
   N       -0.0402388        0.4040061        0.1159078
   N        0.1561466        0.2119017        0.1159078
%ENDBLOCK POSITIONS_FRAC

KPOINTS_MP_SPACING 0.07

%BLOCK SPECIES_POT
QC5
%ENDBLOCK SPECIES_POT

SNAP_TO_SYMMETRY
SYMMETRY_GENERATE

