#              Generated by Buildcell
#
# at 18:31:16 (GMT+1.0) 26th March 2023
# in /scratch/scratch/uccabz1/launch_tmp_michael
# on node-a14a-003
# by uccabz1
#
# compiler GCC version 4.9.2
# options -cpp -iprefix /scratch/UCL/applications/gcc/4.9.2/bin/../lib/gcc/x86_64-unknown-linux-gnu/4.9.2/ -mtune=corei7 -march=x86-64 -g -Og
#
# seed   580188700   145605478  1278485027   552004382   602712068   341913609  -659882545  1376897712 -1567483024   584974223   824953252  1803844537
#
#      Author: C. J. Pickard (cjp20@cam.ac.uk)
#                Space group: P2
#

%BLOCK LATTICE_ABC
      2.91185      5.18957      5.86466
     90.00000     90.00000     94.53533
%ENDBLOCK LATTICE_ABC

%BLOCK POSITIONS_FRAC
  Li       -0.2402209        0.2036297        0.2651643
  Li        0.2402209       -0.2036297        0.2651643
  Li       -0.0000000        0.0000000       -0.0976355
   N       -0.2885220       -0.4075858        0.3698578
   N        0.2885220        0.4075858        0.3698578
   N        0.2023515       -0.2923173       -0.2520579
   N       -0.2023515        0.2923173       -0.2520579
   N       -0.2035738       -0.4199248       -0.3772391
   N        0.2035738        0.4199248       -0.3772391
%ENDBLOCK POSITIONS_FRAC

KPOINTS_MP_SPACING 0.07

%BLOCK SPECIES_POT
QC5
%ENDBLOCK SPECIES_POT

SNAP_TO_SYMMETRY
SYMMETRY_GENERATE

