#              Generated by Buildcell
#
# at 15:05:04 (GMT+1.0) 26th March 2023
# in /scratch/scratch/uccabz1/launch_tmp_michael
# on node-a14b-031
# by uccabz1
#
# compiler GCC version 4.9.2
# options -cpp -iprefix /scratch/UCL/applications/gcc/4.9.2/bin/../lib/gcc/x86_64-unknown-linux-gnu/4.9.2/ -mtune=corei7 -march=x86-64 -g -Og
#
# seed -1574156002  1391291222   722646247  1922682586  2113950028  2093184564 -1663133724  -363319633  2021413438 -2089926179  -647295970   253232817
#
#      Author: C. J. Pickard (cjp20@cam.ac.uk)
#                Space group: I-4
#

%BLOCK LATTICE_ABC
      3.86555      3.86555      4.73398
    114.09660    114.09660     90.00000
%ENDBLOCK LATTICE_ABC

%BLOCK POSITIONS_FRAC
  Li        0.1617015        0.1617015        0.3234030
  Li       -0.1617015       -0.1617015       -0.3234030
   N        0.2295450        0.2164035       -0.2386375
   N       -0.4681824       -0.4550410       -0.2386375
   N       -0.2164035        0.4681824        0.2386375
   N        0.4550410       -0.2295450        0.2386375
%ENDBLOCK POSITIONS_FRAC

KPOINTS_MP_SPACING 0.07

%BLOCK SPECIES_POT
QC5
%ENDBLOCK SPECIES_POT

SNAP_TO_SYMMETRY
SYMMETRY_GENERATE

