#              Generated by Buildcell
#
# at 17:48:36 (GMT+1.0) 26th March 2023
# in /scratch/scratch/uccabz1/launch_tmp_michael
# on node-a14c-005
# by uccabz1
#
# compiler GCC version 4.9.2
# options -cpp -iprefix /scratch/UCL/applications/gcc/4.9.2/bin/../lib/gcc/x86_64-unknown-linux-gnu/4.9.2/ -mtune=corei7 -march=x86-64 -g -Og
#
# seed -1354405683 -1753158586  -446212427 -1400384209   843779963 -1860185304   956305020   215081158   942686146   381910389  1272380340 -1435115278
#
#      Author: C. J. Pickard (cjp20@cam.ac.uk)
#                Space group: R3
#

%BLOCK LATTICE_ABC
      4.43284      4.43284      4.43284
     60.56821     60.56821     60.56821
%ENDBLOCK LATTICE_ABC

%BLOCK POSITIONS_FRAC
  Li       -0.4906347       -0.4906347       -0.4906347
  Li        0.2701074        0.2701074        0.2701074
   N       -0.3557541        0.4676804       -0.1155919
   N        0.4676804       -0.1155919       -0.3557541
   N       -0.1155919       -0.3557541        0.4676804
   N       -0.2183480       -0.2183480       -0.2183480
%ENDBLOCK POSITIONS_FRAC

KPOINTS_MP_SPACING 0.07

%BLOCK SPECIES_POT
QC5
%ENDBLOCK SPECIES_POT

SNAP_TO_SYMMETRY
SYMMETRY_GENERATE

