#              Generated by Buildcell
#
# at 18:38:55 (GMT+1.0) 26th March 2023
# in /scratch/scratch/uccabz1/launch_tmp_michael
# on node-a14a-019
# by uccabz1
#
# compiler GCC version 4.9.2
# options -cpp -iprefix /scratch/UCL/applications/gcc/4.9.2/bin/../lib/gcc/x86_64-unknown-linux-gnu/4.9.2/ -mtune=corei7 -march=x86-64 -g -Og
#
# seed   324600080  1202713628  1128695274   479164370 -1350660013  -893366679 -1329153973  1656759697 -1733807897   616195618  1146753932 -1796314248
#
#      Author: C. J. Pickard (cjp20@cam.ac.uk)
#                Space group: C222
#

%BLOCK LATTICE_ABC
      4.15085      4.41227      7.21216
     90.00000     90.00000    118.05875
%ENDBLOCK LATTICE_ABC

%BLOCK POSITIONS_FRAC
  Li        0.1605144        0.3210287        0.3115079
  Li       -0.1605144       -0.3210287        0.3115079
  Li        0.1605144        0.3210287       -0.3115079
  Li       -0.1605144       -0.3210287       -0.3115079
   N        0.4827685        0.2994845       -0.1205919
   N       -0.4827685       -0.2994845       -0.1205919
   N       -0.1832840        0.2994845        0.1205919
   N        0.1832840       -0.2994845        0.1205919
   N       -0.0411376        0.1885374       -0.0701646
   N        0.0411376       -0.1885374       -0.0701646
   N        0.2296751        0.1885374        0.0701646
   N       -0.2296751       -0.1885374        0.0701646
%ENDBLOCK POSITIONS_FRAC

KPOINTS_MP_SPACING 0.07

%BLOCK SPECIES_POT
QC5
%ENDBLOCK SPECIES_POT

SNAP_TO_SYMMETRY
SYMMETRY_GENERATE

