#              Generated by Buildcell
#
# at 14:54:01 (GMT+1.0) 26th March 2023
# in /scratch/scratch/uccabz1/launch_tmp_michael
# on node-a14b-028
# by uccabz1
#
# compiler GCC version 4.9.2
# options -cpp -iprefix /scratch/UCL/applications/gcc/4.9.2/bin/../lib/gcc/x86_64-unknown-linux-gnu/4.9.2/ -mtune=corei7 -march=x86-64 -g -Og
#
# seed   833152616  1098244886  1177827197   440008704 -1652453239  -453664572  -785826736 -1614772755 -1247012077  1928426051  2112650380 -1758496352
#
#      Author: C. J. Pickard (cjp20@cam.ac.uk)
#                Space group: P32
#

%BLOCK LATTICE_ABC
      4.75927      4.77639      4.77639
    120.00000     90.00000     90.00000
%ENDBLOCK LATTICE_ABC

%BLOCK POSITIONS_FRAC
  Li        0.4470249       -0.1444654       -0.2731165
  Li        0.1136916       -0.1286511        0.1444654
  Li       -0.2196417        0.2731165        0.1286511
   N       -0.2234362       -0.4030132       -0.3855669
   N        0.4432305        0.0174463        0.4030132
   N        0.1098972        0.3855669       -0.0174463
   N        0.4150547        0.3114987       -0.0091500
   N        0.0817214       -0.3206487       -0.3114987
   N       -0.2516119        0.0091500        0.3206487
%ENDBLOCK POSITIONS_FRAC

KPOINTS_MP_SPACING 0.07

%BLOCK SPECIES_POT
QC5
%ENDBLOCK SPECIES_POT

SNAP_TO_SYMMETRY
SYMMETRY_GENERATE

