#              Generated by Buildcell
#
# at 16:08:38 (GMT+1.0) 26th March 2023
# in /scratch/scratch/uccabz1/launch_tmp_michael
# on node-a14e-021
# by uccabz1
#
# compiler GCC version 4.9.2
# options -cpp -iprefix /scratch/UCL/applications/gcc/4.9.2/bin/../lib/gcc/x86_64-unknown-linux-gnu/4.9.2/ -mtune=corei7 -march=x86-64 -g -Og
#
# seed  -711361807  -588509717   847101152 -2058684360 -1272695082 -1041601773 -1385494633 -1083237564   749741313  1381292110 -1842404151 -1702354149
#
#      Author: C. J. Pickard (cjp20@cam.ac.uk)
#                Space group: P222
#

%BLOCK LATTICE_ABC
      2.50002      4.78873      7.79988
     90.00000     90.00000     90.00000
%ENDBLOCK LATTICE_ABC

%BLOCK POSITIONS_FRAC
  Li       -0.0000000       -0.0000000       -0.3397442
  Li        0.0000000        0.0000000        0.3397442
  Li       -0.5000000        0.5000000        0.0000000
   N        0.2829733        0.3376038       -0.4323893
   N       -0.2829733       -0.3376038       -0.4323893
   N       -0.2829733        0.3376038        0.4323893
   N        0.2829733       -0.3376038        0.4323893
   N       -0.0000000       -0.0000000       -0.0961542
   N        0.0000000        0.0000000        0.0961542
%ENDBLOCK POSITIONS_FRAC

KPOINTS_MP_SPACING 0.07

%BLOCK SPECIES_POT
QC5
%ENDBLOCK SPECIES_POT

SNAP_TO_SYMMETRY
SYMMETRY_GENERATE

