#              Generated by Buildcell
#
# at 17:46:15 (GMT+1.0) 26th March 2023
# in /scratch/scratch/uccabz1/launch_tmp_michael
# on node-a14e-021
# by uccabz1
#
# compiler GCC version 4.9.2
# options -cpp -iprefix /scratch/UCL/applications/gcc/4.9.2/bin/../lib/gcc/x86_64-unknown-linux-gnu/4.9.2/ -mtune=corei7 -march=x86-64 -g -Og
#
# seed   720289415  -566088189 -1644107435    53497220  1811428207  -137058720   261724792 -1053017783  -131084450   972173236 -1107592173  1028167029
#
#      Author: C. J. Pickard (cjp20@cam.ac.uk)
#                Space group: C2
#

%BLOCK LATTICE_ABC
      3.51506      3.98596      4.68977
     87.18491     67.99063     82.46960
%ENDBLOCK LATTICE_ABC

%BLOCK POSITIONS_FRAC
  Li        0.2773271        0.2249738       -0.1215139
  Li       -0.1558132       -0.2249738       -0.1215139
   N        0.4944395       -0.3091398       -0.3316227
   N       -0.1628168        0.3091398       -0.3316227
   N       -0.0704345       -0.3738883        0.4340601
   N       -0.3636256        0.3738883        0.4340601
%ENDBLOCK POSITIONS_FRAC

KPOINTS_MP_SPACING 0.07

%BLOCK SPECIES_POT
QC5
%ENDBLOCK SPECIES_POT

SNAP_TO_SYMMETRY
SYMMETRY_GENERATE

