#              Generated by Buildcell
#
# at 17:56:28 (GMT+1.0) 26th March 2023
# in /scratch/scratch/uccabz1/launch_tmp_michael
# on node-a14a-003
# by uccabz1
#
# compiler GCC version 4.9.2
# options -cpp -iprefix /scratch/UCL/applications/gcc/4.9.2/bin/../lib/gcc/x86_64-unknown-linux-gnu/4.9.2/ -mtune=corei7 -march=x86-64 -g -Og
#
# seed -1065266851   -77829713   -36610014  -934576979  -831242568  1547809213   191212015   361540693  2102869064   425198163    15381318  1616379135
#
#      Author: C. J. Pickard (cjp20@cam.ac.uk)
#                Space group: Imm2
#

%BLOCK LATTICE_ABC
      4.11387      4.99891      5.39878
    117.57869    112.39562     90.00000
%ENDBLOCK LATTICE_ABC

%BLOCK POSITIONS_FRAC
  Li        0.1571173        0.4071174        0.3142346
  Li        0.1571173       -0.0928828        0.3142346
  Li       -0.0934450       -0.0934450       -0.1868901
   N       -0.3698509        0.1257022       -0.3750825
   N       -0.0052316        0.4992154       -0.3750825
   N       -0.0052316        0.1257022       -0.3750825
   N       -0.3698509        0.4992154       -0.3750825
   N       -0.3853781        0.4321184       -0.1357631
   N        0.2496150        0.4321184       -0.1357631
%ENDBLOCK POSITIONS_FRAC

KPOINTS_MP_SPACING 0.07

%BLOCK SPECIES_POT
QC5
%ENDBLOCK SPECIES_POT

SNAP_TO_SYMMETRY
SYMMETRY_GENERATE

