#              Generated by Buildcell
#
# at 17:55:27 (GMT+1.0) 26th March 2023
# in /scratch/scratch/uccabz1/launch_tmp_michael
# on node-a14a-019
# by uccabz1
#
# compiler GCC version 4.9.2
# options -cpp -iprefix /scratch/UCL/applications/gcc/4.9.2/bin/../lib/gcc/x86_64-unknown-linux-gnu/4.9.2/ -mtune=corei7 -march=x86-64 -g -Og
#
# seed   312005715  -640033536  -231728810 -1346719802  1914922305   557887179 -1600966950  1161383178 -1558857484  1825888567  1690347533  -196901854
#
#      Author: C. J. Pickard (cjp20@cam.ac.uk)
#                Space group: R3
#

%BLOCK LATTICE_ABC
      5.35021      5.35021      5.67250
     61.86231     61.86231     60.00000
%ENDBLOCK LATTICE_ABC

%BLOCK POSITIONS_FRAC
  Li       -0.2548666       -0.1150403        0.0484646
  Li        0.3214424       -0.2548666        0.0484646
  Li       -0.1150403        0.3214424        0.0484646
  Li        0.4305731        0.4305731       -0.2917193
   N       -0.2183197       -0.2832963        0.4319334
   N        0.0696826       -0.2183197        0.4319334
   N       -0.2832963        0.0696826        0.4319334
   N        0.1319520        0.0706391        0.3100901
   N        0.4873188        0.1319520        0.3100901
   N        0.0706391        0.4873188        0.3100901
   N        0.2974554        0.2974554        0.1076338
   N       -0.4272670       -0.4272670        0.2818011
%ENDBLOCK POSITIONS_FRAC

KPOINTS_MP_SPACING 0.07

%BLOCK SPECIES_POT
QC5
%ENDBLOCK SPECIES_POT

SNAP_TO_SYMMETRY
SYMMETRY_GENERATE

