#              Generated by Buildcell
#
# at 14:50:02 (GMT+1.0) 26th March 2023
# in /scratch/scratch/uccabz1/launch_tmp_michael
# on node-a14a-001
# by uccabz1
#
# compiler GCC version 4.9.2
# options -cpp -iprefix /scratch/UCL/applications/gcc/4.9.2/bin/../lib/gcc/x86_64-unknown-linux-gnu/4.9.2/ -mtune=corei7 -march=x86-64 -g -Og
#
# seed -1087705430  -523662124  1318623635   344308452   448482341 -1982164074 -1100912718  1518008573 -1098374914   403922702  -796847927 -1665717467
#
#      Author: C. J. Pickard (cjp20@cam.ac.uk)
#                Space group: C2
#

%BLOCK LATTICE_ABC
      3.90039      5.68386      5.68386
    103.23748     90.44454     90.44454
%ENDBLOCK LATTICE_ABC

%BLOCK POSITIONS_FRAC
  Li        0.2474942       -0.0285933       -0.1930419
  Li       -0.2474942        0.1930419        0.0285933
  Li        0.3078533        0.1870078        0.4720898
  Li       -0.3078533       -0.4720898       -0.1870078
   N        0.4815257       -0.3511802       -0.4373472
   N       -0.4815257        0.4373472        0.3511802
   N       -0.1360372        0.1223813        0.3309086
   N        0.1360372       -0.3309086       -0.1223813
   N       -0.1545285        0.3693959       -0.4991979
   N        0.1545285        0.4991979       -0.3693959
   N        0.1914931       -0.0736906        0.1369380
   N       -0.1914931       -0.1369380        0.0736906
%ENDBLOCK POSITIONS_FRAC

KPOINTS_MP_SPACING 0.07

%BLOCK SPECIES_POT
QC5
%ENDBLOCK SPECIES_POT

SNAP_TO_SYMMETRY
SYMMETRY_GENERATE

