#              Generated by Buildcell
#
# at 20:00:25 (GMT+1.0) 26th March 2023
# in /scratch/scratch/uccabz1/launch_tmp_michael
# on node-a14f-035
# by uccabz1
#
# compiler GCC version 4.9.2
# options -cpp -iprefix /scratch/UCL/applications/gcc/4.9.2/bin/../lib/gcc/x86_64-unknown-linux-gnu/4.9.2/ -mtune=corei7 -march=x86-64 -g -Og
#
# seed -1361307138  -138472855 -1564269230 -1435512623   911835396   991605862  -940235495  -827144948  -740308383 -2117204121  1102334617 -1687463321
#
#      Author: C. J. Pickard (cjp20@cam.ac.uk)
#                Space group: R3
#

%BLOCK LATTICE_ABC
      4.52787      4.52787      4.52787
     99.72850     99.72850     99.72850
%ENDBLOCK LATTICE_ABC

%BLOCK POSITIONS_FRAC
  Li        0.3218513       -0.2815292       -0.3258558
  Li       -0.3258558        0.3218513       -0.2815292
  Li       -0.2815292       -0.3258558        0.3218513
   N        0.3142946        0.0644461       -0.0263590
   N       -0.0263590        0.3142946        0.0644461
   N        0.0644461       -0.0263590        0.3142946
   N        0.4030266        0.4820466       -0.0237442
   N       -0.0237442        0.4030266        0.4820466
   N        0.4820466       -0.0237442        0.4030266
%ENDBLOCK POSITIONS_FRAC

KPOINTS_MP_SPACING 0.07

%BLOCK SPECIES_POT
QC5
%ENDBLOCK SPECIES_POT

SNAP_TO_SYMMETRY
SYMMETRY_GENERATE

