#              Generated by Buildcell
#
# at 16:17:28 (GMT+1.0) 26th March 2023
# in /scratch/scratch/uccabz1/launch_tmp_michael
# on node-a14b-031
# by uccabz1
#
# compiler GCC version 4.9.2
# options -cpp -iprefix /scratch/UCL/applications/gcc/4.9.2/bin/../lib/gcc/x86_64-unknown-linux-gnu/4.9.2/ -mtune=corei7 -march=x86-64 -g -Og
#
# seed  -524227946   423620156 -1473499122   932182742  2061218364  1383266139 -1589546997   917573651   571208243  -448029863  -454780036 -1128477450
#
#      Author: C. J. Pickard (cjp20@cam.ac.uk)
#                Space group: Cm
#

%BLOCK LATTICE_ABC
      4.36506      4.36506      7.19774
     76.04403     76.04403     69.88066
%ENDBLOCK LATTICE_ABC

%BLOCK POSITIONS_FRAC
  Li        0.0815354       -0.4184646        0.3946776
  Li       -0.4184646        0.0815354        0.3946776
  Li        0.4802675       -0.0197325       -0.0325801
  Li       -0.0197325        0.4802675       -0.0325801
   N       -0.3218654        0.3764720       -0.1403041
   N        0.3764720       -0.3218654       -0.1403041
   N       -0.2511513        0.4487861        0.3359896
   N        0.4487861       -0.2511513        0.3359896
   N       -0.2154322        0.1007825       -0.2552898
   N        0.1007825       -0.2154322       -0.2552898
   N       -0.2182127        0.1089778        0.0608799
   N        0.1089778       -0.2182127        0.0608799
%ENDBLOCK POSITIONS_FRAC

KPOINTS_MP_SPACING 0.07

%BLOCK SPECIES_POT
QC5
%ENDBLOCK SPECIES_POT

SNAP_TO_SYMMETRY
SYMMETRY_GENERATE

