#              Generated by Buildcell
#
# at 18:34:03 (GMT+1.0) 26th March 2023
# in /scratch/scratch/uccabz1/launch_tmp_michael
# on node-a14a-019
# by uccabz1
#
# compiler GCC version 4.9.2
# options -cpp -iprefix /scratch/UCL/applications/gcc/4.9.2/bin/../lib/gcc/x86_64-unknown-linux-gnu/4.9.2/ -mtune=corei7 -march=x86-64 -g -Og
#
# seed -1664189555 -1834982595  2129236441  -549841200  -665156641  1926302523  -471377727  1843019129  1644744962   160855032   857599953 -1488145173
#
#      Author: C. J. Pickard (cjp20@cam.ac.uk)
#                Space group: P-1
#

%BLOCK LATTICE_ABC
      2.75086      8.37062      8.86801
     67.01754     83.48153     89.55971
%ENDBLOCK LATTICE_ABC

%BLOCK POSITIONS_FRAC
  Li       -0.2484106       -0.0363256        0.1700475
  Li        0.2484106        0.0363256       -0.1700475
  Li        0.2601928       -0.2702240        0.1332730
  Li       -0.2601928        0.2702240       -0.1332730
  Li        0.0203390       -0.1449281        0.4551460
  Li       -0.0203390        0.1449281       -0.4551460
   N       -0.4813269        0.2200841        0.3758861
   N        0.4813269       -0.2200841       -0.3758861
   N        0.4495235        0.2262883        0.1020667
   N       -0.4495235       -0.2262883       -0.1020667
   N       -0.1017508        0.3859464        0.0631485
   N        0.1017508       -0.3859464       -0.0631485
   N       -0.2988087       -0.1000621       -0.0296868
   N        0.2988087        0.1000621        0.0296868
   N        0.1105818       -0.4845435        0.1186318
   N       -0.1105818        0.4845435       -0.1186318
   N       -0.0130592       -0.2387974       -0.2165134
   N        0.0130592        0.2387974        0.2165134
%ENDBLOCK POSITIONS_FRAC

KPOINTS_MP_SPACING 0.07

%BLOCK SPECIES_POT
QC5
%ENDBLOCK SPECIES_POT

SNAP_TO_SYMMETRY
SYMMETRY_GENERATE

