#              Generated by Buildcell
#
# at 19:06:25 (GMT+1.0) 26th March 2023
# in /scratch/scratch/uccabz1/launch_tmp_michael
# on node-a14a-019
# by uccabz1
#
# compiler GCC version 4.9.2
# options -cpp -iprefix /scratch/UCL/applications/gcc/4.9.2/bin/../lib/gcc/x86_64-unknown-linux-gnu/4.9.2/ -mtune=corei7 -march=x86-64 -g -Og
#
# seed -2147081936  2051914872  1123962843   128150740  2043956036 -1309784521 -2121783798    62151942  1650030297    55947318   823605908 -1397014961
#
#      Author: C. J. Pickard (cjp20@cam.ac.uk)
#                Space group: P-4
#

%BLOCK LATTICE_ABC
      3.73254      3.73254      6.32518
     90.00000     90.00000     90.00000
%ENDBLOCK LATTICE_ABC

%BLOCK POSITIONS_FRAC
  Li        0.5000000        0.0000000        0.2629874
  Li        0.0000000       -0.5000000       -0.2629874
  Li        0.5000000       -0.5000000        0.0000000
   N       -0.1308858       -0.3446672        0.2251974
   N        0.1308858        0.3446672        0.2251974
   N        0.3446672       -0.1308858       -0.2251974
   N       -0.3446672        0.1308858       -0.2251974
   N       -0.0000000        0.5000000        0.4366258
   N       -0.5000000        0.0000000       -0.4366258
%ENDBLOCK POSITIONS_FRAC

KPOINTS_MP_SPACING 0.07

%BLOCK SPECIES_POT
QC5
%ENDBLOCK SPECIES_POT

SNAP_TO_SYMMETRY
SYMMETRY_GENERATE

