#              Generated by Buildcell
#
# at 15:22:33 (GMT+1.0) 26th March 2023
# in /scratch/scratch/uccabz1/launch_tmp_michael
# on node-a14b-022
# by uccabz1
#
# compiler GCC version 4.9.2
# options -cpp -iprefix /scratch/UCL/applications/gcc/4.9.2/bin/../lib/gcc/x86_64-unknown-linux-gnu/4.9.2/ -mtune=corei7 -march=x86-64 -g -Og
#
# seed   740067239  1726262639  1137617748  -329349497 -1086416974 -1763851373  1754707643 -1853884198   996687007  -466186261   735508591  2074779512
#
#      Author: C. J. Pickard (cjp20@cam.ac.uk)
#                Space group: P3
#

%BLOCK LATTICE_ABC
      3.78646      3.78646      4.74199
     90.00000     90.00000    120.00000
%ENDBLOCK LATTICE_ABC

%BLOCK POSITIONS_FRAC
  Li        0.0000000       -0.0000000       -0.3696028
  Li        0.3333333       -0.3333333        0.2350691
   N        0.2270827        0.2303401       -0.0129543
   N        0.0032574       -0.2270827       -0.0129543
   N       -0.2303401       -0.0032574       -0.0129543
   N        0.3333333       -0.3333333       -0.1732519
%ENDBLOCK POSITIONS_FRAC

KPOINTS_MP_SPACING 0.07

%BLOCK SPECIES_POT
QC5
%ENDBLOCK SPECIES_POT

SNAP_TO_SYMMETRY
SYMMETRY_GENERATE

