#              Generated by Buildcell
#
# at 15:02:43 (GMT+1.0) 26th March 2023
# in /scratch/scratch/uccabz1/launch_tmp_michael
# on node-a14a-003
# by uccabz1
#
# compiler GCC version 4.9.2
# options -cpp -iprefix /scratch/UCL/applications/gcc/4.9.2/bin/../lib/gcc/x86_64-unknown-linux-gnu/4.9.2/ -mtune=corei7 -march=x86-64 -g -Og
#
# seed  1322177887  1048574013   -17588677   814484896 -1272529707   417751752 -2034668824  1980483771   714065791   456079214  1558541266 -1050861080
#
#      Author: C. J. Pickard (cjp20@cam.ac.uk)
#                Space group: P21/m
#

%BLOCK LATTICE_ABC
      2.72075      4.60364      9.41801
     90.00000     90.00000    101.06094
%ENDBLOCK LATTICE_ABC

%BLOCK POSITIONS_FRAC
  Li        0.3706933       -0.2266237       -0.1172757
  Li       -0.3706933        0.2266237        0.3827243
  Li       -0.3706933        0.2266237        0.1172757
  Li        0.3706933       -0.2266237       -0.3827243
   N        0.3103009        0.3880528       -0.0386631
   N       -0.3103009       -0.3880528        0.4613369
   N       -0.3103009       -0.3880528        0.0386631
   N        0.3103009        0.3880528       -0.4613369
   N       -0.3581629        0.1796407       -0.0841739
   N        0.3581629       -0.1796407        0.4158261
   N        0.3581629       -0.1796407        0.0841739
   N       -0.3581629        0.1796407       -0.4158261
%ENDBLOCK POSITIONS_FRAC

KPOINTS_MP_SPACING 0.07

%BLOCK SPECIES_POT
QC5
%ENDBLOCK SPECIES_POT

SNAP_TO_SYMMETRY
SYMMETRY_GENERATE

