#              Generated by Buildcell
#
# at 20:25:52 (GMT+1.0) 26th March 2023
# in /scratch/scratch/uccabz1/launch_tmp_michael
# on node-a14a-003
# by uccabz1
#
# compiler GCC version 4.9.2
# options -cpp -iprefix /scratch/UCL/applications/gcc/4.9.2/bin/../lib/gcc/x86_64-unknown-linux-gnu/4.9.2/ -mtune=corei7 -march=x86-64 -g -Og
#
# seed  -760709099  1946721637  -230269774 -1609996976  -615569497  1947982246   479230093  1204160252 -2142637386  -363704250  -231248054   354069774
#
#      Author: C. J. Pickard (cjp20@cam.ac.uk)
#                Space group: Ima2
#

%BLOCK LATTICE_ABC
      4.31514      4.31514      4.31514
    102.12590    112.25871    114.27710
%ENDBLOCK LATTICE_ABC

%BLOCK POSITIONS_FRAC
  Li       -0.0922990       -0.1833808       -0.4089182
  Li        0.2255375        0.3166192        0.4089182
   N        0.0490843       -0.1945261        0.1572180
   N       -0.3517442       -0.1081338       -0.1572180
   N       -0.3517442        0.3054739        0.2563896
   N        0.0490843        0.3918662       -0.2563896
%ENDBLOCK POSITIONS_FRAC

KPOINTS_MP_SPACING 0.07

%BLOCK SPECIES_POT
QC5
%ENDBLOCK SPECIES_POT

SNAP_TO_SYMMETRY
SYMMETRY_GENERATE

