#              Generated by Buildcell
#
# at 15:07:39 (GMT+1.0) 26th March 2023
# in /scratch/scratch/uccabz1/launch_tmp_michael
# on node-a14b-031
# by uccabz1
#
# compiler GCC version 4.9.2
# options -cpp -iprefix /scratch/UCL/applications/gcc/4.9.2/bin/../lib/gcc/x86_64-unknown-linux-gnu/4.9.2/ -mtune=corei7 -march=x86-64 -g -Og
#
# seed  -371385517   968636135  1058280799   990143670  1061469146  -418325279  -174517504   827542197 -1605060903  -935013556  -975845287   777022188
#
#      Author: C. J. Pickard (cjp20@cam.ac.uk)
#                Space group: R3
#

%BLOCK LATTICE_ABC
      4.25982      4.25982      4.25982
     65.76598     65.76598     65.76598
%ENDBLOCK LATTICE_ABC

%BLOCK POSITIONS_FRAC
  Li       -0.4367009       -0.4367009       -0.4367009
  Li        0.3103817        0.3103817        0.3103817
   N        0.0068313       -0.4083327       -0.2498811
   N       -0.2498811        0.0068313       -0.4083327
   N       -0.4083327       -0.2498811        0.0068313
   N       -0.1021304       -0.1021304       -0.1021304
%ENDBLOCK POSITIONS_FRAC

KPOINTS_MP_SPACING 0.07

%BLOCK SPECIES_POT
QC5
%ENDBLOCK SPECIES_POT

SNAP_TO_SYMMETRY
SYMMETRY_GENERATE

