#              Generated by Buildcell
#
# at 15:47:02 (GMT+1.0) 26th March 2023
# in /scratch/scratch/uccabz1/launch_tmp_michael
# on node-a14a-019
# by uccabz1
#
# compiler GCC version 4.9.2
# options -cpp -iprefix /scratch/UCL/applications/gcc/4.9.2/bin/../lib/gcc/x86_64-unknown-linux-gnu/4.9.2/ -mtune=corei7 -march=x86-64 -g -Og
#
# seed  1447860566  -436557133 -1786037930  -784259082   841545445   533288847  1585792638 -1277290137  -573448037  -942335810  1612699831  -428571348
#
#      Author: C. J. Pickard (cjp20@cam.ac.uk)
#                Space group: R3
#

%BLOCK LATTICE_ABC
      5.69500      5.69500      5.69500
     89.24947     89.24947     89.24947
%ENDBLOCK LATTICE_ABC

%BLOCK POSITIONS_FRAC
  Li        0.2587729       -0.4666353       -0.0380208
  Li       -0.4666353       -0.0380208        0.2587729
  Li       -0.0380208        0.2587729       -0.4666353
  Li        0.1612928       -0.0320517       -0.1991878
  Li       -0.0320517       -0.1991878        0.1612928
  Li       -0.1991878        0.1612928       -0.0320517
   N        0.0690766       -0.3771754        0.4266336
   N       -0.3771754        0.4266336        0.0690766
   N        0.4266336        0.0690766       -0.3771754
   N        0.2308282        0.2871084       -0.2679422
   N        0.2871084       -0.2679422        0.2308282
   N       -0.2679422        0.2308282        0.2871084
   N        0.4567653        0.0228093       -0.0602874
   N        0.0228093       -0.0602874        0.4567653
   N       -0.0602874        0.4567653        0.0228093
   N       -0.2090734       -0.4701011        0.2403517
   N       -0.4701011        0.2403517       -0.2090734
   N        0.2403517       -0.2090734       -0.4701011
%ENDBLOCK POSITIONS_FRAC

KPOINTS_MP_SPACING 0.07

%BLOCK SPECIES_POT
QC5
%ENDBLOCK SPECIES_POT

SNAP_TO_SYMMETRY
SYMMETRY_GENERATE

