#              Generated by Buildcell
#
# at 17:22:11 (GMT+1.0) 26th March 2023
# in /scratch/scratch/uccabz1/launch_tmp_michael
# on node-a14a-019
# by uccabz1
#
# compiler GCC version 4.9.2
# options -cpp -iprefix /scratch/UCL/applications/gcc/4.9.2/bin/../lib/gcc/x86_64-unknown-linux-gnu/4.9.2/ -mtune=corei7 -march=x86-64 -g -Og
#
# seed  1776230934 -1329865068  -730895558  1341224634  2062341448 -1753235577   -23055621   901495099 -1955333018  2087262905 -1581751339  1654106002
#
#      Author: C. J. Pickard (cjp20@cam.ac.uk)
#                Space group: P3
#

%BLOCK LATTICE_ABC
      3.22851      7.85449      7.85449
    120.00000     90.00000     90.00000
%ENDBLOCK LATTICE_ABC

%BLOCK POSITIONS_FRAC
  Li       -0.4182002       -0.2798013        0.1161895
  Li       -0.4182002       -0.1161895       -0.3959908
  Li       -0.4182002        0.3959908        0.2798013
  Li        0.3638279       -0.2064424       -0.1458692
  Li        0.3638279        0.1458692       -0.0605732
  Li        0.3638279        0.0605732        0.2064424
   N       -0.1506750       -0.4297692        0.2131234
   N       -0.1506750       -0.2131234        0.3571075
   N       -0.1506750       -0.3571075        0.4297692
   N       -0.1061134        0.3791535       -0.4525404
   N       -0.1061134        0.4525404       -0.1683062
   N       -0.1061134        0.1683062       -0.3791535
   N       -0.3320071       -0.4307633       -0.3297560
   N       -0.3320071        0.3297560       -0.1010073
   N       -0.3320071        0.1010073        0.4307633
   N        0.3320543        0.1204716       -0.3549328
   N        0.3320543        0.3549328        0.4754044
   N        0.3320543       -0.4754044       -0.1204716
%ENDBLOCK POSITIONS_FRAC

KPOINTS_MP_SPACING 0.07

%BLOCK SPECIES_POT
QC5
%ENDBLOCK SPECIES_POT

SNAP_TO_SYMMETRY
SYMMETRY_GENERATE

