#              Generated by Buildcell
#
# at 20:03:01 (GMT+1.0) 26th March 2023
# in /scratch/scratch/uccabz1/launch_tmp_michael
# on node-a14a-001
# by uccabz1
#
# compiler GCC version 4.9.2
# options -cpp -iprefix /scratch/UCL/applications/gcc/4.9.2/bin/../lib/gcc/x86_64-unknown-linux-gnu/4.9.2/ -mtune=corei7 -march=x86-64 -g -Og
#
# seed  1541421956  1980978247   515607925   259395626 -1459859049  1318345545  1780265858   197729793 -1376209913  1046227103  -925670070  -230299271
#
#      Author: C. J. Pickard (cjp20@cam.ac.uk)
#                Space group: P-1
#

%BLOCK LATTICE_ABC
      3.25650      5.21937      5.85567
     72.88366     84.68350     73.11491
%ENDBLOCK LATTICE_ABC

%BLOCK POSITIONS_FRAC
  Li       -0.4662265        0.2590121        0.2955819
  Li        0.4662265       -0.2590121       -0.2955819
  Li        0.5000000       -0.0000000       -0.0000000
   N        0.2926515       -0.2034317        0.3686374
   N       -0.2926515        0.2034317       -0.3686374
   N        0.0642524        0.1350948        0.4588830
   N       -0.0642524       -0.1350948       -0.4588830
   N       -0.4710798        0.3705648       -0.0478765
   N        0.4710798       -0.3705648        0.0478765
%ENDBLOCK POSITIONS_FRAC

KPOINTS_MP_SPACING 0.07

%BLOCK SPECIES_POT
QC5
%ENDBLOCK SPECIES_POT

SNAP_TO_SYMMETRY
SYMMETRY_GENERATE

