#              Generated by Buildcell
#
# at 18:05:47 (GMT+1.0) 26th March 2023
# in /scratch/scratch/uccabz1/launch_tmp_michael
# on node-a14a-019
# by uccabz1
#
# compiler GCC version 4.9.2
# options -cpp -iprefix /scratch/UCL/applications/gcc/4.9.2/bin/../lib/gcc/x86_64-unknown-linux-gnu/4.9.2/ -mtune=corei7 -march=x86-64 -g -Og
#
# seed -1786960723  1556235523   -99358553   382294831 -1661131811   679542115  1306151021  1045852324 -2025673387   -36774687 -1900723364  2021541374
#
#      Author: C. J. Pickard (cjp20@cam.ac.uk)
#                Space group: P222
#

%BLOCK LATTICE_ABC
      2.50000      4.66993      7.72377
     90.00000     90.00000     90.00000
%ENDBLOCK LATTICE_ABC

%BLOCK POSITIONS_FRAC
  Li        0.5000000        0.0000000        0.2248728
  Li        0.5000000        0.0000000       -0.2248728
  Li       -0.5000000        0.5000000        0.0000000
   N        0.1908721        0.2998493        0.4228660
   N       -0.1908721       -0.2998493        0.4228660
   N        0.1908721       -0.2998493       -0.4228660
   N       -0.1908721        0.2998493       -0.4228660
   N        0.0000000        0.1915457       -0.0000000
   N        0.0000000       -0.1915457        0.0000000
%ENDBLOCK POSITIONS_FRAC

KPOINTS_MP_SPACING 0.07

%BLOCK SPECIES_POT
QC5
%ENDBLOCK SPECIES_POT

SNAP_TO_SYMMETRY
SYMMETRY_GENERATE

