#              Generated by Buildcell
#
# at 18:51:44 (GMT+1.0) 26th March 2023
# in /scratch/scratch/uccabz1/launch_tmp_michael
# on node-a14e-021
# by uccabz1
#
# compiler GCC version 4.9.2
# options -cpp -iprefix /scratch/UCL/applications/gcc/4.9.2/bin/../lib/gcc/x86_64-unknown-linux-gnu/4.9.2/ -mtune=corei7 -march=x86-64 -g -Og
#
# seed    15792162   775056982   950155097   153416756  1381416924   102438240 -2046601246  -204757683   848660297  -990117566   192111052 -1518265203
#
#      Author: C. J. Pickard (cjp20@cam.ac.uk)
#                Space group: P2221
#

%BLOCK LATTICE_ABC
      4.44471      4.66719      5.88206
     90.00000     90.00000     90.00000
%ENDBLOCK LATTICE_ABC

%BLOCK POSITIONS_FRAC
  Li       -0.1008898       -0.2500000       -0.1801819
  Li        0.3991102        0.2500000        0.1801819
  Li       -0.3991102       -0.2500000        0.1801819
  Li        0.1008898        0.2500000       -0.1801819
   N        0.1583805       -0.4423601        0.2881879
   N       -0.3416195        0.4423601       -0.2881879
   N        0.3416195       -0.4423601       -0.2881879
   N       -0.1583805        0.4423601        0.2881879
   N        0.2185063       -0.0670050       -0.3623160
   N       -0.2814937        0.0670050        0.3623160
   N        0.2814937       -0.0670050        0.3623160
   N       -0.2185063        0.0670050       -0.3623160
%ENDBLOCK POSITIONS_FRAC

KPOINTS_MP_SPACING 0.07

%BLOCK SPECIES_POT
QC5
%ENDBLOCK SPECIES_POT

SNAP_TO_SYMMETRY
SYMMETRY_GENERATE

