#              Generated by Buildcell
#
# at 16:55:03 (GMT+1.0) 26th March 2023
# in /scratch/scratch/uccabz1/launch_tmp_michael
# on node-a14c-005
# by uccabz1
#
# compiler GCC version 4.9.2
# options -cpp -iprefix /scratch/UCL/applications/gcc/4.9.2/bin/../lib/gcc/x86_64-unknown-linux-gnu/4.9.2/ -mtune=corei7 -march=x86-64 -g -Og
#
# seed -1996544300  1215176647   128594718  1524823199 -1126241577   -48622104 -1900426166 -1287280079   562465226 -1506104424   816079087  1540459580
#
#      Author: C. J. Pickard (cjp20@cam.ac.uk)
#                Space group: P2221
#

%BLOCK LATTICE_ABC
      2.92779      4.23265      5.00279
     90.00000     90.00000     90.00000
%ENDBLOCK LATTICE_ABC

%BLOCK POSITIONS_FRAC
  Li        0.2725741       -0.2500000       -0.5000000
  Li       -0.2725741        0.2500000        0.5000000
   N        0.1818389       -0.1572674        0.1297450
   N       -0.1818389        0.3427326       -0.1297450
   N        0.1818389       -0.3427326       -0.1297450
   N       -0.1818389        0.1572674        0.1297450
%ENDBLOCK POSITIONS_FRAC

KPOINTS_MP_SPACING 0.07

%BLOCK SPECIES_POT
QC5
%ENDBLOCK SPECIES_POT

SNAP_TO_SYMMETRY
SYMMETRY_GENERATE

