#              Generated by Buildcell
#
# at 18:01:49 (GMT+1.0) 26th March 2023
# in /scratch/scratch/uccabz1/launch_tmp_michael
# on node-a14b-031
# by uccabz1
#
# compiler GCC version 4.9.2
# options -cpp -iprefix /scratch/UCL/applications/gcc/4.9.2/bin/../lib/gcc/x86_64-unknown-linux-gnu/4.9.2/ -mtune=corei7 -march=x86-64 -g -Og
#
# seed  -280194370  -970211656  1188384253   193142729 -1335633401   607190937  -416217297 -1838911762 -1958144984 -1967728402  -670581896   989016379
#
#      Author: C. J. Pickard (cjp20@cam.ac.uk)
#                Space group: C2
#

%BLOCK LATTICE_ABC
      5.57716      5.90696      5.90696
     74.01472     88.66275     88.66275
%ENDBLOCK LATTICE_ABC

%BLOCK POSITIONS_FRAC
  Li        0.1602212       -0.1660648        0.4518880
  Li       -0.1602212       -0.4518880        0.1660648
  Li        0.3167511        0.3112442       -0.1522022
  Li       -0.3167511        0.1522022       -0.3112442
  Li       -0.1593466       -0.3865108       -0.2779418
  Li        0.1593466        0.2779418        0.3865108
   N        0.0172168        0.2075596       -0.0048145
   N       -0.0172168        0.0048145       -0.2075596
   N       -0.4934565       -0.4151760       -0.2084805
   N        0.4934565        0.2084805        0.4151760
   N       -0.1290845        0.3962316        0.4925715
   N        0.1290845       -0.4925715       -0.3962316
   N        0.4045558       -0.3849546        0.0188384
   N       -0.4045558       -0.0188384        0.3849546
   N       -0.3883152        0.4614572        0.4355959
   N        0.3883152       -0.4355959       -0.4614572
   N        0.3572976        0.0733973        0.2617788
   N       -0.3572976       -0.2617788       -0.0733973
%ENDBLOCK POSITIONS_FRAC

KPOINTS_MP_SPACING 0.07

%BLOCK SPECIES_POT
QC5
%ENDBLOCK SPECIES_POT

SNAP_TO_SYMMETRY
SYMMETRY_GENERATE

