#              Generated by Buildcell
#
# at 19:06:26 (GMT+1.0) 26th March 2023
# in /scratch/scratch/uccabz1/launch_tmp_michael
# on node-a14a-003
# by uccabz1
#
# compiler GCC version 4.9.2
# options -cpp -iprefix /scratch/UCL/applications/gcc/4.9.2/bin/../lib/gcc/x86_64-unknown-linux-gnu/4.9.2/ -mtune=corei7 -march=x86-64 -g -Og
#
# seed -1556053098   736853479  -172503359 -1512636346 -1030575892    53190724  -325475169  1795872755   976664426   719281844  2139681060  1090994189
#
#      Author: C. J. Pickard (cjp20@cam.ac.uk)
#                Space group: R3
#

%BLOCK LATTICE_ABC
      5.25681      5.25681      5.91077
     63.59712     63.59712     60.00000
%ENDBLOCK LATTICE_ABC

%BLOCK POSITIONS_FRAC
  Li       -0.0567388        0.1963853        0.2125688
  Li       -0.3522153       -0.0567388        0.2125688
  Li        0.1963853       -0.3522153        0.2125688
  Li       -0.3036522       -0.3036522       -0.0890435
   N        0.3853394        0.2231237        0.4179084
   N       -0.0263714        0.3853394        0.4179084
   N        0.2231237       -0.0263714        0.4179084
   N        0.2671003        0.4363976       -0.4228915
   N       -0.2806064        0.2671003       -0.4228915
   N        0.4363976       -0.2806064       -0.4228915
   N       -0.1529661       -0.1529661        0.4588984
   N        0.0616608        0.0616608       -0.1849824
%ENDBLOCK POSITIONS_FRAC

KPOINTS_MP_SPACING 0.07

%BLOCK SPECIES_POT
QC5
%ENDBLOCK SPECIES_POT

SNAP_TO_SYMMETRY
SYMMETRY_GENERATE

