#              Generated by Buildcell
#
# at 15:08:05 (GMT+1.0) 26th March 2023
# in /scratch/scratch/uccabz1/launch_tmp_michael
# on node-a14b-031
# by uccabz1
#
# compiler GCC version 4.9.2
# options -cpp -iprefix /scratch/UCL/applications/gcc/4.9.2/bin/../lib/gcc/x86_64-unknown-linux-gnu/4.9.2/ -mtune=corei7 -march=x86-64 -g -Og
#
# seed  -928182920  2103934878  -952388198   908064557 -1121293195 -1630340599 -1524985669 -1674261504  1719167315   436484715  1000116288  1504287167
#
#      Author: C. J. Pickard (cjp20@cam.ac.uk)
#                Space group: C222
#

%BLOCK LATTICE_ABC
      3.55485      3.55485      4.91436
     90.00000     90.00000     90.63684
%ENDBLOCK LATTICE_ABC

%BLOCK POSITIONS_FRAC
  Li        0.2527291       -0.2527291        0.0000000
  Li       -0.2527291        0.2527291       -0.0000000
   N       -0.2719176        0.0932576        0.3756421
   N        0.2719176       -0.0932576        0.3756421
   N        0.0932576       -0.2719176       -0.3756421
   N       -0.0932576        0.2719176       -0.3756421
%ENDBLOCK POSITIONS_FRAC

KPOINTS_MP_SPACING 0.07

%BLOCK SPECIES_POT
QC5
%ENDBLOCK SPECIES_POT

SNAP_TO_SYMMETRY
SYMMETRY_GENERATE

