#              Generated by Buildcell
#
# at 19:57:56 (GMT+1.0) 26th March 2023
# in /scratch/scratch/uccabz1/launch_tmp_michael
# on node-a14e-007
# by uccabz1
#
# compiler GCC version 4.9.2
# options -cpp -iprefix /scratch/UCL/applications/gcc/4.9.2/bin/../lib/gcc/x86_64-unknown-linux-gnu/4.9.2/ -mtune=corei7 -march=x86-64 -g -Og
#
# seed  -930404619 -1943947442  1630093868 -1110762193   776116828  1089121387 -2079202420    62139273  -851151188   -66865678   886501911   740651758
#
#      Author: C. J. Pickard (cjp20@cam.ac.uk)
#                Space group: P21/c
#

%BLOCK LATTICE_ABC
      4.86223      5.30729      7.37471
     90.00000    101.00620     90.00000
%ENDBLOCK LATTICE_ABC

%BLOCK POSITIONS_FRAC
  Li       -0.2446696       -0.3522190       -0.1911818
  Li       -0.2553304        0.1477810       -0.3088182
  Li        0.2446696        0.3522190        0.1911818
  Li        0.2553304       -0.1477810        0.3088182
  Li        0.0000000        0.0000000        0.0000000
  Li       -0.5000000        0.5000000       -0.5000000
   N        0.1540275       -0.3709149       -0.4562415
   N        0.3459725        0.1290851       -0.0437585
   N       -0.1540275        0.3709149        0.4562415
   N       -0.3459725       -0.1290851        0.0437585
   N        0.1016564       -0.3862697        0.0214873
   N        0.3983436        0.1137303        0.4785127
   N       -0.1016564        0.3862697       -0.0214873
   N       -0.3983436       -0.1137303       -0.4785127
   N       -0.1565466       -0.3383989        0.4563542
   N       -0.3434534        0.1616011        0.0436458
   N        0.1565466        0.3383989       -0.4563542
   N        0.3434534       -0.1616011       -0.0436458
%ENDBLOCK POSITIONS_FRAC

KPOINTS_MP_SPACING 0.07

%BLOCK SPECIES_POT
QC5
%ENDBLOCK SPECIES_POT

SNAP_TO_SYMMETRY
SYMMETRY_GENERATE

