#              Generated by Buildcell
#
# at 19:01:47 (GMT+1.0) 26th March 2023
# in /scratch/scratch/uccabz1/launch_tmp_michael
# on node-a14e-007
# by uccabz1
#
# compiler GCC version 4.9.2
# options -cpp -iprefix /scratch/UCL/applications/gcc/4.9.2/bin/../lib/gcc/x86_64-unknown-linux-gnu/4.9.2/ -mtune=corei7 -march=x86-64 -g -Og
#
# seed -1478292501   248666256 -1731772405   688092557  1537736371  -215569785 -1928203426  1222257324  -545635259  1428466482   295523998  1911433981
#
#      Author: C. J. Pickard (cjp20@cam.ac.uk)
#                Space group: Cc
#

%BLOCK LATTICE_ABC
      3.60420      3.83454      5.24789
     83.99768     77.14388     61.96801
%ENDBLOCK LATTICE_ABC

%BLOCK POSITIONS_FRAC
  Li       -0.0568044       -0.2189495        0.3480424
  Li       -0.2757539        0.2189495       -0.1519576
   N       -0.4700544       -0.4083602        0.4037703
   N        0.1215854        0.4083602       -0.0962297
   N        0.2605503       -0.2951154       -0.2318406
   N       -0.0345651        0.2951154        0.2681594
%ENDBLOCK POSITIONS_FRAC

KPOINTS_MP_SPACING 0.07

%BLOCK SPECIES_POT
QC5
%ENDBLOCK SPECIES_POT

SNAP_TO_SYMMETRY
SYMMETRY_GENERATE

