#              Generated by Buildcell
#
# at 16:33:27 (GMT+1.0) 26th March 2023
# in /scratch/scratch/uccabz1/launch_tmp_michael
# on node-a14a-003
# by uccabz1
#
# compiler GCC version 4.9.2
# options -cpp -iprefix /scratch/UCL/applications/gcc/4.9.2/bin/../lib/gcc/x86_64-unknown-linux-gnu/4.9.2/ -mtune=corei7 -march=x86-64 -g -Og
#
# seed -1639325924 -1578927129   810953137 -2104526788  2142750533  1280844063  1717592358  -182377310   996079444   304714918  -602214709   242930048
#
#      Author: C. J. Pickard (cjp20@cam.ac.uk)
#                Space group: P2
#

%BLOCK LATTICE_ABC
      3.92573      3.96642      7.97243
     90.00000     91.36424     90.00000
%ENDBLOCK LATTICE_ABC

%BLOCK POSITIONS_FRAC
  Li       -0.4129561       -0.4721792        0.3039895
  Li        0.4129561       -0.4721792       -0.3039895
  Li        0.2546961       -0.1218913        0.0971294
  Li       -0.2546961       -0.1218913       -0.0971294
   N        0.0618619        0.4793036        0.3493023
   N       -0.0618619        0.4793036       -0.3493023
   N        0.4420921        0.0291677       -0.2705941
   N       -0.4420921        0.0291677        0.2705941
   N        0.1549624        0.4212645        0.1602444
   N       -0.1549624        0.4212645       -0.1602444
   N       -0.3075600       -0.3071242       -0.4771357
   N        0.3075600       -0.3071242        0.4771357
%ENDBLOCK POSITIONS_FRAC

KPOINTS_MP_SPACING 0.07

%BLOCK SPECIES_POT
QC5
%ENDBLOCK SPECIES_POT

SNAP_TO_SYMMETRY
SYMMETRY_GENERATE

