#              Generated by Buildcell
#
# at 19:50:44 (GMT+1.0) 26th March 2023
# in /scratch/scratch/uccabz1/launch_tmp_michael
# on node-a14e-021
# by uccabz1
#
# compiler GCC version 4.9.2
# options -cpp -iprefix /scratch/UCL/applications/gcc/4.9.2/bin/../lib/gcc/x86_64-unknown-linux-gnu/4.9.2/ -mtune=corei7 -march=x86-64 -g -Og
#
# seed   747838589  1852498207  -396574201 -1155522326  1496769805 -1660655472   970631166 -1860351614  1408628581   394505667 -1466333188  1797426876
#
#      Author: C. J. Pickard (cjp20@cam.ac.uk)
#                Space group: P2
#

%BLOCK LATTICE_ABC
      2.68904      4.87226      5.17866
    112.55324     90.00000     90.00000
%ENDBLOCK LATTICE_ABC

%BLOCK POSITIONS_FRAC
  Li        0.3134540       -0.2344125        0.2630950
  Li        0.3134540        0.2344125       -0.2630950
   N        0.4510624        0.1345168        0.2317035
   N        0.4510624       -0.1345168       -0.2317035
   N       -0.1409687        0.1554741        0.4359746
   N       -0.1409687       -0.1554741       -0.4359746
%ENDBLOCK POSITIONS_FRAC

KPOINTS_MP_SPACING 0.07

%BLOCK SPECIES_POT
QC5
%ENDBLOCK SPECIES_POT

SNAP_TO_SYMMETRY
SYMMETRY_GENERATE

