#              Generated by Buildcell
#
# at 17:40:02 (GMT+1.0) 26th March 2023
# in /scratch/scratch/uccabz1/launch_tmp_michael
# on node-a14c-005
# by uccabz1
#
# compiler GCC version 4.9.2
# options -cpp -iprefix /scratch/UCL/applications/gcc/4.9.2/bin/../lib/gcc/x86_64-unknown-linux-gnu/4.9.2/ -mtune=corei7 -march=x86-64 -g -Og
#
# seed -1226362159 -1483336478  -823258445  -167867509   127475385 -1204762511 -1943185105 -1904592011  1220073760   204027891   911835396 -1218431490
#
#      Author: C. J. Pickard (cjp20@cam.ac.uk)
#                Space group: P4
#

%BLOCK LATTICE_ABC
      5.57879      5.57879      5.71272
     90.00000     90.00000     90.00000
%ENDBLOCK LATTICE_ABC

%BLOCK POSITIONS_FRAC
  Li       -0.3986216        0.1998016        0.1258494
  Li        0.3986216       -0.1998016        0.1258494
  Li        0.1998016        0.3986216        0.1258494
  Li       -0.1998016       -0.3986216        0.1258494
  Li        0.0000000       -0.5000000       -0.4487759
  Li        0.5000000       -0.0000000       -0.4487759
   N       -0.4515424        0.3161542        0.4341265
   N        0.4515424       -0.3161542        0.4341265
   N        0.3161542        0.4515424        0.4341265
   N       -0.3161542       -0.4515424        0.4341265
   N       -0.0599442        0.1804244        0.0964208
   N        0.0599442       -0.1804244        0.0964208
   N        0.1804244        0.0599442        0.0964208
   N       -0.1804244       -0.0599442        0.0964208
   N        0.1765449       -0.0711213       -0.3697289
   N       -0.1765449        0.0711213       -0.3697289
   N       -0.0711213       -0.1765449       -0.3697289
   N        0.0711213        0.1765449       -0.3697289
%ENDBLOCK POSITIONS_FRAC

KPOINTS_MP_SPACING 0.07

%BLOCK SPECIES_POT
QC5
%ENDBLOCK SPECIES_POT

SNAP_TO_SYMMETRY
SYMMETRY_GENERATE

