#              Generated by Buildcell
#
# at 17:54:41 (GMT+1.0) 26th March 2023
# in /scratch/scratch/uccabz1/launch_tmp_michael
# on node-a14a-001
# by uccabz1
#
# compiler GCC version 4.9.2
# options -cpp -iprefix /scratch/UCL/applications/gcc/4.9.2/bin/../lib/gcc/x86_64-unknown-linux-gnu/4.9.2/ -mtune=corei7 -march=x86-64 -g -Og
#
# seed   441790673  -420504469  -414577277  1820945970  1966530207  -945631126 -1728801423   165123834 -1352946047   353005828  -665828709  -789542466
#
#      Author: C. J. Pickard (cjp20@cam.ac.uk)
#                Space group: P21/c
#

%BLOCK LATTICE_ABC
      2.97168      7.44495      8.10916
     90.00000     90.00000     97.13963
%ENDBLOCK LATTICE_ABC

%BLOCK POSITIONS_FRAC
  Li       -0.0059914        0.1677007       -0.2778847
  Li       -0.4940086        0.3322993        0.2221153
  Li        0.0059914       -0.1677007        0.2778847
  Li        0.4940086       -0.3322993       -0.2221153
  Li       -0.0000000        0.0000000       -0.0000000
  Li        0.5000000        0.5000000        0.5000000
   N        0.0437298       -0.3353658       -0.4461299
   N        0.4562702       -0.1646342        0.0538701
   N       -0.0437298        0.3353658        0.4461299
   N       -0.4562702        0.1646342       -0.0538701
   N       -0.1419504       -0.4647771        0.1071201
   N       -0.3580496       -0.0352229       -0.3928799
   N        0.1419504        0.4647771       -0.1071201
   N        0.3580496        0.0352229        0.3928799
   N        0.0056732        0.1423488        0.4890635
   N        0.4943268        0.3576512       -0.0109365
   N       -0.0056732       -0.1423488       -0.4890635
   N       -0.4943268       -0.3576512        0.0109365
%ENDBLOCK POSITIONS_FRAC

KPOINTS_MP_SPACING 0.07

%BLOCK SPECIES_POT
QC5
%ENDBLOCK SPECIES_POT

SNAP_TO_SYMMETRY
SYMMETRY_GENERATE

