#              Generated by Buildcell
#
# at 18:52:55 (GMT+1.0) 26th March 2023
# in /scratch/scratch/uccabz1/launch_tmp_michael
# on node-a14a-001
# by uccabz1
#
# compiler GCC version 4.9.2
# options -cpp -iprefix /scratch/UCL/applications/gcc/4.9.2/bin/../lib/gcc/x86_64-unknown-linux-gnu/4.9.2/ -mtune=corei7 -march=x86-64 -g -Og
#
# seed   568516547 -1999424038  -434843892   626156331   -99136830  -532308923  1311046677 -2040113027  1100858605   594958383   527550659   228655434
#
#      Author: C. J. Pickard (cjp20@cam.ac.uk)
#                Space group: R3
#

%BLOCK LATTICE_ABC
      5.65074      6.24301      6.24301
    111.31262    107.56035    107.56035
%ENDBLOCK LATTICE_ABC

%BLOCK POSITIONS_FRAC
  Li       -0.1277521        0.2434874        0.2850793
  Li       -0.4128314       -0.2850793       -0.0415919
  Li       -0.3712395        0.0415919       -0.2434874
  Li       -0.1095862       -0.2221933       -0.2943600
  Li        0.1847737        0.2943600        0.0721667
  Li        0.1126070       -0.0721667        0.2221933
   N        0.2476667        0.4785250       -0.3888415
   N       -0.3634918        0.3888415       -0.1326335
   N       -0.2308583        0.1326335       -0.4785250
   N        0.2132164       -0.4550492        0.3779621
   N       -0.1647457       -0.3779621        0.1669887
   N       -0.3317344       -0.1669887        0.4550492
   N       -0.1167639        0.4554377       -0.3262645
   N        0.2095006        0.3262645       -0.2182978
   N        0.4277984        0.2182978       -0.4554377
   N        0.4628539        0.2172892       -0.0362036
   N        0.4990576        0.0362036        0.2534928
   N        0.2455647       -0.2534928       -0.2172892
%ENDBLOCK POSITIONS_FRAC

KPOINTS_MP_SPACING 0.07

%BLOCK SPECIES_POT
QC5
%ENDBLOCK SPECIES_POT

SNAP_TO_SYMMETRY
SYMMETRY_GENERATE

