#              Generated by Buildcell
#
# at 14:58:00 (GMT+1.0) 26th March 2023
# in /scratch/scratch/uccabz1/launch_tmp_michael
# on node-a14b-028
# by uccabz1
#
# compiler GCC version 4.9.2
# options -cpp -iprefix /scratch/UCL/applications/gcc/4.9.2/bin/../lib/gcc/x86_64-unknown-linux-gnu/4.9.2/ -mtune=corei7 -march=x86-64 -g -Og
#
# seed  1153823313   604024419  -675799201   565203446 -1875657621   377008583   797295068  1264378806 -1154254495 -1246177349  -701934707   985447960
#
#      Author: C. J. Pickard (cjp20@cam.ac.uk)
#                Space group: P-1
#

%BLOCK LATTICE_ABC
      3.35730      5.37020      7.03633
    102.04310     99.04841    106.43910
%ENDBLOCK LATTICE_ABC

%BLOCK POSITIONS_FRAC
  Li       -0.1864949        0.0504594        0.1409082
  Li        0.1864949       -0.0504594       -0.1409082
  Li        0.0743303       -0.2104871        0.3588042
  Li       -0.0743303        0.2104871       -0.3588042
   N       -0.0325986       -0.3674948        0.0398412
   N        0.0325986        0.3674948       -0.0398412
   N       -0.4424055        0.4588999       -0.1109725
   N        0.4424055       -0.4588999        0.1109725
   N       -0.3490980        0.3318022        0.0555630
   N        0.3490980       -0.3318022       -0.0555630
   N       -0.1608416       -0.4183211       -0.2367169
   N        0.1608416        0.4183211        0.2367169
%ENDBLOCK POSITIONS_FRAC

KPOINTS_MP_SPACING 0.07

%BLOCK SPECIES_POT
QC5
%ENDBLOCK SPECIES_POT

SNAP_TO_SYMMETRY
SYMMETRY_GENERATE

