#              Generated by Buildcell
#
# at 20:27:06 (GMT+1.0) 26th March 2023
# in /scratch/scratch/uccabz1/launch_tmp_michael
# on node-a14b-028
# by uccabz1
#
# compiler GCC version 4.9.2
# options -cpp -iprefix /scratch/UCL/applications/gcc/4.9.2/bin/../lib/gcc/x86_64-unknown-linux-gnu/4.9.2/ -mtune=corei7 -march=x86-64 -g -Og
#
# seed   882085525 -1378509966   202809389  1875965801  -103340306 -1074618782 -1639731763 -1941932106  1224865298  1458513837  -882907574 -1616336116
#
#      Author: C. J. Pickard (cjp20@cam.ac.uk)
#                Space group: P2/c
#

%BLOCK LATTICE_ABC
      2.50052      5.79739      8.03388
     90.00000     95.88674     90.00000
%ENDBLOCK LATTICE_ABC

%BLOCK POSITIONS_FRAC
  Li       -0.4910663       -0.3132645        0.2340743
  Li       -0.0089337       -0.3132645       -0.2340743
  Li        0.4910663        0.3132645       -0.2340743
  Li        0.0089337        0.3132645        0.2340743
   N        0.0703567        0.4151663       -0.4307188
   N        0.4296433        0.4151663        0.4307188
   N       -0.0703567       -0.4151663        0.4307188
   N       -0.4296433       -0.4151663       -0.4307188
   N       -0.3334636       -0.0715154        0.0870461
   N       -0.1665364       -0.0715154       -0.0870461
   N        0.3334636        0.0715154       -0.0870461
   N        0.1665364        0.0715154        0.0870461
%ENDBLOCK POSITIONS_FRAC

KPOINTS_MP_SPACING 0.07

%BLOCK SPECIES_POT
QC5
%ENDBLOCK SPECIES_POT

SNAP_TO_SYMMETRY
SYMMETRY_GENERATE

