#              Generated by Buildcell
#
# at 16:21:21 (GMT+1.0) 26th March 2023
# in /scratch/scratch/uccabz1/launch_tmp_michael
# on node-a14f-035
# by uccabz1
#
# compiler GCC version 4.9.2
# options -cpp -iprefix /scratch/UCL/applications/gcc/4.9.2/bin/../lib/gcc/x86_64-unknown-linux-gnu/4.9.2/ -mtune=corei7 -march=x86-64 -g -Og
#
# seed  1013441957  -966331956    99975633  1978636768 -1523320839    47066765 -1024356967   756897239   138963191  -929784117 -1228041211 -1036726781
#
#      Author: C. J. Pickard (cjp20@cam.ac.uk)
#                Space group: P31
#

%BLOCK LATTICE_ABC
      2.66454      6.26079      6.26079
    120.00000     90.00000     90.00000
%ENDBLOCK LATTICE_ABC

%BLOCK POSITIONS_FRAC
  Li       -0.2017651        0.1513903       -0.2772872
  Li        0.4649015        0.2772872        0.4286776
  Li        0.1315682       -0.4286776       -0.1513903
   N       -0.1550847       -0.0184302        0.2618748
   N       -0.4884180       -0.2618748       -0.2803050
   N        0.1782486        0.2803050        0.0184302
   N       -0.3567579        0.2144200        0.1085005
   N        0.3099088       -0.1085005        0.1059195
   N       -0.0234246       -0.1059195       -0.2144200
%ENDBLOCK POSITIONS_FRAC

KPOINTS_MP_SPACING 0.07

%BLOCK SPECIES_POT
QC5
%ENDBLOCK SPECIES_POT

SNAP_TO_SYMMETRY
SYMMETRY_GENERATE

