#              Generated by Buildcell
#
# at 17:54:12 (GMT+1.0) 26th March 2023
# in /scratch/scratch/uccabz1/launch_tmp_michael
# on node-a14c-005
# by uccabz1
#
# compiler GCC version 4.9.2
# options -cpp -iprefix /scratch/UCL/applications/gcc/4.9.2/bin/../lib/gcc/x86_64-unknown-linux-gnu/4.9.2/ -mtune=corei7 -march=x86-64 -g -Og
#
# seed   984993850 -1082466506  -979475933  -935434301    81604129  1846835666    68964475  1707722863  1526377767 -2105310260   243649190  1651208915
#
#      Author: C. J. Pickard (cjp20@cam.ac.uk)
#                Space group: P32
#

%BLOCK LATTICE_ABC
      4.59306      4.59306     10.26099
     90.00000     90.00000    120.00000
%ENDBLOCK LATTICE_ABC

%BLOCK POSITIONS_FRAC
  Li        0.1472054        0.3628270       -0.1201112
  Li        0.2156215       -0.1472054       -0.4534446
  Li       -0.3628270       -0.2156215        0.2132221
  Li       -0.0910457       -0.1844967       -0.0013978
  Li       -0.0934511        0.0910457       -0.3347311
  Li        0.1844967        0.0934511        0.3319356
   N       -0.2559210        0.3328997       -0.0438486
   N       -0.4111794        0.2559210       -0.3771820
   N       -0.3328997        0.4111794        0.2894847
   N       -0.4014806       -0.0380742        0.0419888
   N        0.3634064        0.4014806       -0.2913445
   N        0.0380742       -0.3634064        0.3753222
   N       -0.1448127        0.4478325       -0.2670511
   N       -0.4073548        0.1448127        0.3996156
   N       -0.4478325        0.4073548        0.0662823
   N       -0.4704301       -0.2868705       -0.4105021
   N        0.1835595        0.4704301        0.2561646
   N        0.2868705       -0.1835595       -0.0771687
%ENDBLOCK POSITIONS_FRAC

KPOINTS_MP_SPACING 0.07

%BLOCK SPECIES_POT
QC5
%ENDBLOCK SPECIES_POT

SNAP_TO_SYMMETRY
SYMMETRY_GENERATE

