#              Generated by Buildcell
#
# at 16:29:13 (GMT+1.0) 26th March 2023
# in /scratch/scratch/uccabz1/launch_tmp_michael
# on node-a14f-035
# by uccabz1
#
# compiler GCC version 4.9.2
# options -cpp -iprefix /scratch/UCL/applications/gcc/4.9.2/bin/../lib/gcc/x86_64-unknown-linux-gnu/4.9.2/ -mtune=corei7 -march=x86-64 -g -Og
#
# seed  -979875776      561478   100969810 -2000406876  -425156612  1907709828 -1744104382 -1589972752 -1092000190  -416964181  1007568065  1851096254
#
#      Author: C. J. Pickard (cjp20@cam.ac.uk)
#                Space group: P-1
#

%BLOCK LATTICE_ABC
      3.68184      5.97236      8.34205
     86.00374     86.67366     80.95112
%ENDBLOCK LATTICE_ABC

%BLOCK POSITIONS_FRAC
  Li       -0.2064192        0.3382285       -0.4795261
  Li        0.2064192       -0.3382285        0.4795261
  Li       -0.1020993        0.0151025        0.2699294
  Li        0.1020993       -0.0151025       -0.2699294
  Li        0.4270678       -0.3194926       -0.0850841
  Li       -0.4270678        0.3194926        0.0850841
   N        0.4190518        0.2924771       -0.2977121
   N       -0.4190518       -0.2924771        0.2977121
   N       -0.2329061        0.4006142        0.2920920
   N        0.2329061       -0.4006142       -0.2920920
   N       -0.4923264        0.2068554        0.3808334
   N        0.4923264       -0.2068554       -0.3808334
   N        0.3477823        0.4369114        0.3106230
   N       -0.3477823       -0.4369114       -0.3106230
   N       -0.3316752       -0.0411535       -0.0515541
   N        0.3316752        0.0411535        0.0515541
   N       -0.1119660       -0.2740893       -0.0122719
   N        0.1119660        0.2740893        0.0122719
%ENDBLOCK POSITIONS_FRAC

KPOINTS_MP_SPACING 0.07

%BLOCK SPECIES_POT
QC5
%ENDBLOCK SPECIES_POT

SNAP_TO_SYMMETRY
SYMMETRY_GENERATE

