#              Generated by Buildcell
#
# at 17:46:21 (GMT+1.0) 26th March 2023
# in /scratch/scratch/uccabz1/launch_tmp_michael
# on node-a14c-005
# by uccabz1
#
# compiler GCC version 4.9.2
# options -cpp -iprefix /scratch/UCL/applications/gcc/4.9.2/bin/../lib/gcc/x86_64-unknown-linux-gnu/4.9.2/ -mtune=corei7 -march=x86-64 -g -Og
#
# seed   167145892   615561000  -929685224 -1769412197  1878910542   797311353   905792720  -944721521  -398711821  1497591894  -616103462   -97280559
#
#      Author: C. J. Pickard (cjp20@cam.ac.uk)
#                Space group: P2/m
#

%BLOCK LATTICE_ABC
      2.70660      4.32883      7.83438
     90.00000     90.65446     90.00000
%ENDBLOCK LATTICE_ABC

%BLOCK POSITIONS_FRAC
  Li        0.4887316        0.0000000        0.1594612
  Li       -0.4887316        0.0000000       -0.1594612
  Li        0.5000000        0.0000000        0.5000000
   N        0.3377837        0.2986089        0.3294934
   N       -0.3377837        0.2986089       -0.3294934
   N       -0.3377837       -0.2986089       -0.3294934
   N        0.3377837       -0.2986089        0.3294934
   N       -0.0056340        0.0000000        0.3297250
   N        0.0056340        0.0000000       -0.3297250
%ENDBLOCK POSITIONS_FRAC

KPOINTS_MP_SPACING 0.07

%BLOCK SPECIES_POT
QC5
%ENDBLOCK SPECIES_POT

SNAP_TO_SYMMETRY
SYMMETRY_GENERATE

