#              Generated by Buildcell
#
# at 16:41:31 (GMT+1.0) 26th March 2023
# in /scratch/scratch/uccabz1/launch_tmp_michael
# on node-a14b-031
# by uccabz1
#
# compiler GCC version 4.9.2
# options -cpp -iprefix /scratch/UCL/applications/gcc/4.9.2/bin/../lib/gcc/x86_64-unknown-linux-gnu/4.9.2/ -mtune=corei7 -march=x86-64 -g -Og
#
# seed   524209656   255616122 -1139028127 -1589369728  1659919309  1069276164 -1062769406  -923700960 -1563730266 -1894737205  1023934000 -1499809903
#
#      Author: C. J. Pickard (cjp20@cam.ac.uk)
#                Space group: Pm
#

%BLOCK LATTICE_ABC
      3.48181      5.00016      5.29098
     90.00000    108.01173     90.00000
%ENDBLOCK LATTICE_ABC

%BLOCK POSITIONS_FRAC
  Li       -0.4757164       -0.2499998       -0.4055445
  Li       -0.4757164        0.2499998       -0.4055445
  Li       -0.4180985        0.0000000        0.0401837
   N        0.1528881       -0.1784172       -0.2158229
   N        0.1528881        0.1784172       -0.2158229
   N        0.6654737       -0.3279610        0.2826541
   N        0.6654737        0.3279610        0.2826541
   N        0.0379382        0.1759039        0.2786927
   N        0.0379382       -0.1759039        0.2786927
%ENDBLOCK POSITIONS_FRAC

KPOINTS_MP_SPACING 0.07

%BLOCK SPECIES_POT
QC5
%ENDBLOCK SPECIES_POT

SNAP_TO_SYMMETRY
SYMMETRY_GENERATE

