#              Generated by Buildcell
#
# at 17:18:10 (GMT+1.0) 26th March 2023
# in /scratch/scratch/uccabz1/launch_tmp_michael
# on node-a14b-031
# by uccabz1
#
# compiler GCC version 4.9.2
# options -cpp -iprefix /scratch/UCL/applications/gcc/4.9.2/bin/../lib/gcc/x86_64-unknown-linux-gnu/4.9.2/ -mtune=corei7 -march=x86-64 -g -Og
#
# seed -1908252856  -272692500 -1051480702  1975353371   634132448  -204281348 -1058685251  1319930496 -1230969562  1330010140 -1971634982  -614379515
#
#      Author: C. J. Pickard (cjp20@cam.ac.uk)
#                Space group: P222
#

%BLOCK LATTICE_ABC
      4.44985      4.51415      5.82155
     90.00000     90.00000     90.00000
%ENDBLOCK LATTICE_ABC

%BLOCK POSITIONS_FRAC
  Li        0.1986302        0.3042017       -0.1517853
  Li       -0.1986302        0.3042017        0.1517853
  Li        0.1986302       -0.3042017        0.1517853
  Li       -0.1986302       -0.3042017       -0.1517853
   N        0.1358461       -0.3788529       -0.4060998
   N       -0.1358461       -0.3788529        0.4060998
   N        0.1358461        0.3788529        0.4060998
   N       -0.1358461        0.3788529       -0.4060998
   N        0.3808213        0.1174801       -0.4089182
   N       -0.3808213        0.1174801        0.4089182
   N        0.3808213       -0.1174801        0.4089182
   N       -0.3808213       -0.1174801       -0.4089182
%ENDBLOCK POSITIONS_FRAC

KPOINTS_MP_SPACING 0.07

%BLOCK SPECIES_POT
QC5
%ENDBLOCK SPECIES_POT

SNAP_TO_SYMMETRY
SYMMETRY_GENERATE

