#              Generated by Buildcell
#
# at 18:13:32 (GMT+1.0) 26th March 2023
# in /scratch/scratch/uccabz1/launch_tmp_michael
# on node-a14b-028
# by uccabz1
#
# compiler GCC version 4.9.2
# options -cpp -iprefix /scratch/UCL/applications/gcc/4.9.2/bin/../lib/gcc/x86_64-unknown-linux-gnu/4.9.2/ -mtune=corei7 -march=x86-64 -g -Og
#
# seed  1060458900  1759312326 -1292767628   604087220  -893786220  1441355558 -1349408657  1897842938 -1735945686  1980646550  1951598307   770636149
#
#      Author: C. J. Pickard (cjp20@cam.ac.uk)
#                Space group: Cm
#

%BLOCK LATTICE_ABC
      3.17220      4.32054      4.32054
     93.76887     98.13858     98.13858
%ENDBLOCK LATTICE_ABC

%BLOCK POSITIONS_FRAC
  Li        0.4073678       -0.1431023        0.3365812
  Li        0.4073678        0.3365812       -0.1431023
   N       -0.0233036       -0.4640508        0.0171001
   N       -0.0233036        0.0171001       -0.4640508
   N       -0.1404043        0.0917598       -0.1460418
   N       -0.1404043       -0.1460418        0.0917598
%ENDBLOCK POSITIONS_FRAC

KPOINTS_MP_SPACING 0.07

%BLOCK SPECIES_POT
QC5
%ENDBLOCK SPECIES_POT

SNAP_TO_SYMMETRY
SYMMETRY_GENERATE

