#              Generated by Buildcell
#
# at 19:05:10 (GMT+1.0) 26th March 2023
# in /scratch/scratch/uccabz1/launch_tmp_michael
# on node-a14e-007
# by uccabz1
#
# compiler GCC version 4.9.2
# options -cpp -iprefix /scratch/UCL/applications/gcc/4.9.2/bin/../lib/gcc/x86_64-unknown-linux-gnu/4.9.2/ -mtune=corei7 -march=x86-64 -g -Og
#
# seed -1649409155   -65295748 -1654261288  1509961244 -2005088435  -550509846  1356680841  1117991267   524486411  1350350286   392984679  1787718617
#
#      Author: C. J. Pickard (cjp20@cam.ac.uk)
#                Space group: P-4
#

%BLOCK LATTICE_ABC
      5.32636      5.32636      6.34053
     90.00000     90.00000     90.00000
%ENDBLOCK LATTICE_ABC

%BLOCK POSITIONS_FRAC
  Li       -0.4114583       -0.2630386       -0.2967997
  Li        0.4114583        0.2630386       -0.2967997
  Li        0.2630386       -0.4114583        0.2967997
  Li       -0.2630386        0.4114583        0.2967997
  Li        0.0000000        0.0000000       -0.2860574
  Li        0.0000000        0.0000000        0.2860574
   N        0.2510255       -0.3784304       -0.3004194
   N       -0.2510255        0.3784304       -0.3004194
   N        0.3784304        0.2510255        0.3004194
   N       -0.3784304       -0.2510255        0.3004194
   N        0.4109197       -0.1090504        0.1976604
   N       -0.4109197        0.1090504        0.1976604
   N        0.1090504        0.4109197       -0.1976604
   N       -0.1090504       -0.4109197       -0.1976604
   N       -0.1403940       -0.4888897        0.0281457
   N        0.1403940        0.4888897        0.0281457
   N        0.4888897       -0.1403940       -0.0281457
   N       -0.4888897        0.1403940       -0.0281457
%ENDBLOCK POSITIONS_FRAC

KPOINTS_MP_SPACING 0.07

%BLOCK SPECIES_POT
QC5
%ENDBLOCK SPECIES_POT

SNAP_TO_SYMMETRY
SYMMETRY_GENERATE

