#              Generated by Buildcell
#
# at 16:10:05 (GMT+1.0) 26th March 2023
# in /scratch/scratch/uccabz1/launch_tmp_michael
# on node-a14b-028
# by uccabz1
#
# compiler GCC version 4.9.2
# options -cpp -iprefix /scratch/UCL/applications/gcc/4.9.2/bin/../lib/gcc/x86_64-unknown-linux-gnu/4.9.2/ -mtune=corei7 -march=x86-64 -g -Og
#
# seed  -298815643  1509515034 -1022664316  1388273374  1428242546   329141602 -1777866207  1263987784  1915314035  -366294857 -1478859935  1270358634
#
#      Author: C. J. Pickard (cjp20@cam.ac.uk)
#                Space group: Cm
#

%BLOCK LATTICE_ABC
      4.61796      5.46144      5.46144
     71.33015     77.25075     77.25075
%ENDBLOCK LATTICE_ABC

%BLOCK POSITIONS_FRAC
  Li       -0.1733137       -0.3862441        0.0063104
  Li       -0.1733137        0.0063104       -0.3862441
  Li        0.2640995        0.2850144       -0.1075401
  Li        0.2640995       -0.1075401        0.2850144
   N       -0.0499890        0.1334456       -0.1461536
   N       -0.0499890       -0.1461536        0.1334456
   N       -0.3644096       -0.0500867        0.3387275
   N       -0.3644096        0.3387275       -0.0500867
   N        0.0892819       -0.4311343        0.2467970
   N        0.0892819        0.2467970       -0.4311343
   N       -0.4609842        0.3185555       -0.4270177
   N       -0.4609842       -0.4270177        0.3185555
%ENDBLOCK POSITIONS_FRAC

KPOINTS_MP_SPACING 0.07

%BLOCK SPECIES_POT
QC5
%ENDBLOCK SPECIES_POT

SNAP_TO_SYMMETRY
SYMMETRY_GENERATE

