#              Generated by Buildcell
#
# at 20:16:20 (GMT+1.0) 26th March 2023
# in /scratch/scratch/uccabz1/launch_tmp_michael
# on node-a14b-022
# by uccabz1
#
# compiler GCC version 4.9.2
# options -cpp -iprefix /scratch/UCL/applications/gcc/4.9.2/bin/../lib/gcc/x86_64-unknown-linux-gnu/4.9.2/ -mtune=corei7 -march=x86-64 -g -Og
#
# seed -2138558321  -377258113  2056315080   315579354  -620352829  -583741021   676714306  1643260417   209141881  1914363693  2032978547 -1348806884
#
#      Author: C. J. Pickard (cjp20@cam.ac.uk)
#                Space group: Pm
#

%BLOCK LATTICE_ABC
      4.29424      5.00000      5.51779
     90.00000     94.04061     90.00000
%ENDBLOCK LATTICE_ABC

%BLOCK POSITIONS_FRAC
  Li        0.0639825        0.2500000       -0.0997493
  Li        0.0639825       -0.2500000       -0.0997493
  Li       -0.1615334       -0.2500000        0.3081484
  Li       -0.1615334        0.2500000        0.3081484
   N       -0.2764435        0.1510292       -0.3208189
   N       -0.2764435       -0.1510292       -0.3208189
   N        0.4243427       -0.3466643        0.3762418
   N        0.4243427        0.3466643        0.3762418
   N        0.3172892        0.3481055       -0.3565355
   N        0.3172892       -0.3481055       -0.3565355
   N       -0.4242950       -0.3488095       -0.1556699
   N       -0.4242950        0.3488095       -0.1556699
%ENDBLOCK POSITIONS_FRAC

KPOINTS_MP_SPACING 0.07

%BLOCK SPECIES_POT
QC5
%ENDBLOCK SPECIES_POT

SNAP_TO_SYMMETRY
SYMMETRY_GENERATE

