#              Generated by Buildcell
#
# at 19:52:30 (GMT+1.0) 26th March 2023
# in /scratch/scratch/uccabz1/launch_tmp_michael
# on node-a14a-019
# by uccabz1
#
# compiler GCC version 4.9.2
# options -cpp -iprefix /scratch/UCL/applications/gcc/4.9.2/bin/../lib/gcc/x86_64-unknown-linux-gnu/4.9.2/ -mtune=corei7 -march=x86-64 -g -Og
#
# seed  -358642841  -475506923  -622328806 -1201175146  1000924417 -2020306964   221729512  1138054346 -1497121594  -158621207 -1633684534   956921486
#
#      Author: C. J. Pickard (cjp20@cam.ac.uk)
#                Space group: Pm
#

%BLOCK LATTICE_ABC
      4.19171      4.50725      5.00002
     90.00000     90.00000    108.80517
%ENDBLOCK LATTICE_ABC

%BLOCK POSITIONS_FRAC
  Li       -0.4089020       -0.4382485       -0.2500000
  Li       -0.4089020       -0.4382485        0.2500000
  Li        0.0507801        0.2498504        0.5000000
   N        0.3713597       -0.1440196        0.3437930
   N        0.3713597       -0.1440196       -0.3437930
   N        0.0149548       -0.1401548       -0.3365761
   N        0.0149548       -0.1401548        0.3365761
   N       -0.1302156        0.3178973       -0.1581486
   N       -0.1302156        0.3178973        0.1581486
%ENDBLOCK POSITIONS_FRAC

KPOINTS_MP_SPACING 0.07

%BLOCK SPECIES_POT
QC5
%ENDBLOCK SPECIES_POT

SNAP_TO_SYMMETRY
SYMMETRY_GENERATE

