#              Generated by Buildcell
#
# at 19:06:46 (GMT+1.0) 26th March 2023
# in /scratch/scratch/uccabz1/launch_tmp_michael
# on node-a14a-003
# by uccabz1
#
# compiler GCC version 4.9.2
# options -cpp -iprefix /scratch/UCL/applications/gcc/4.9.2/bin/../lib/gcc/x86_64-unknown-linux-gnu/4.9.2/ -mtune=corei7 -march=x86-64 -g -Og
#
# seed   157886336  1750933801  -293179887 -1273941063  -370802256  -157231552 -2099086981   219347786   369282106  -760342857  1967649905  1656857129
#
#      Author: C. J. Pickard (cjp20@cam.ac.uk)
#                Space group: I222
#

%BLOCK LATTICE_ABC
      5.66481      6.40009      6.40009
     63.06852     63.73286     63.73286
%ENDBLOCK LATTICE_ABC

%BLOCK POSITIONS_FRAC
  Li        0.2453001        0.0805105       -0.4056086
  Li        0.0797980       -0.4056086        0.0805105
  Li       -0.0797980       -0.0805105        0.4056086
  Li       -0.2453001        0.4056086       -0.0805105
  Li       -0.2793396        0.5000000       -0.5000000
  Li        0.2793396       -0.5000000        0.5000000
   N        0.3871266        0.3242660        0.2769326
   N        0.0116747        0.2769326        0.3242660
   N       -0.0116747       -0.3242660       -0.2769326
   N       -0.3871266       -0.2769326       -0.3242660
   N        0.4188619        0.0155658        0.2641079
   N        0.3014644        0.2641079        0.0155658
   N       -0.3014644       -0.0155658       -0.2641079
   N       -0.4188619       -0.2641079       -0.0155658
   N       -0.3878418        0.1213594        0.0232934
   N        0.2431889        0.0232934        0.1213594
   N       -0.2431889       -0.1213594       -0.0232934
   N        0.3878418       -0.0232934       -0.1213594
%ENDBLOCK POSITIONS_FRAC

KPOINTS_MP_SPACING 0.07

%BLOCK SPECIES_POT
QC5
%ENDBLOCK SPECIES_POT

SNAP_TO_SYMMETRY
SYMMETRY_GENERATE

