#              Generated by Buildcell
#
# at 19:16:21 (GMT+1.0) 26th March 2023
# in /scratch/scratch/uccabz1/launch_tmp_michael
# on node-a14a-001
# by uccabz1
#
# compiler GCC version 4.9.2
# options -cpp -iprefix /scratch/UCL/applications/gcc/4.9.2/bin/../lib/gcc/x86_64-unknown-linux-gnu/4.9.2/ -mtune=corei7 -march=x86-64 -g -Og
#
# seed -1528403403  1194303561   191711013  -925050119  1865771060  -546188094   199260251  1518651853  2080972910  -253700653 -1079120968   452296653
#
#      Author: C. J. Pickard (cjp20@cam.ac.uk)
#                Space group: P3
#

%BLOCK LATTICE_ABC
      4.33008      4.33008     11.63787
     90.00000     90.00000    120.00000
%ENDBLOCK LATTICE_ABC

%BLOCK POSITIONS_FRAC
  Li        0.0000000       -0.3333333       -0.1222370
  Li       -0.3333333       -0.0000000       -0.1222370
  Li        0.3333333        0.3333333       -0.1222370
  Li        0.0000000        0.3333333       -0.4030014
  Li        0.3333333       -0.0000000       -0.4030014
  Li       -0.3333333       -0.3333333       -0.4030014
   N       -0.4450489       -0.1110437        0.4755766
   N        0.3340052        0.4450489        0.4755766
   N        0.1110437       -0.3340052        0.4755766
   N       -0.0712906        0.3389712       -0.2419078
   N        0.4102617        0.0712906       -0.2419078
   N       -0.3389712       -0.4102617       -0.2419078
   N       -0.2850925       -0.4275684        0.2360993
   N       -0.1424759        0.2850925        0.2360993
   N        0.4275684        0.1424759        0.2360993
   N        0.0875179        0.3574950        0.3749191
   N        0.2699771       -0.0875179        0.3749191
   N       -0.3574950       -0.2699771        0.3749191
%ENDBLOCK POSITIONS_FRAC

KPOINTS_MP_SPACING 0.07

%BLOCK SPECIES_POT
QC5
%ENDBLOCK SPECIES_POT

SNAP_TO_SYMMETRY
SYMMETRY_GENERATE

