#              Generated by Buildcell
#
# at 15:27:44 (GMT+1.0) 26th March 2023
# in /scratch/scratch/uccabz1/launch_tmp_michael
# on node-a14e-021
# by uccabz1
#
# compiler GCC version 4.9.2
# options -cpp -iprefix /scratch/UCL/applications/gcc/4.9.2/bin/../lib/gcc/x86_64-unknown-linux-gnu/4.9.2/ -mtune=corei7 -march=x86-64 -g -Og
#
# seed  1704439175 -1889838048 -1608761075  1118121827  1827338738 -2110841416  -738985999    81238199   393599113   215711294   883917686    13500872
#
#      Author: C. J. Pickard (cjp20@cam.ac.uk)
#                Space group: Cm
#

%BLOCK LATTICE_ABC
      5.22232      5.22232      5.87135
     95.00051    114.18590    116.19242
%ENDBLOCK LATTICE_ABC

%BLOCK POSITIONS_FRAC
  Li       -0.2984489        0.0113098        0.1658734
  Li        0.1545637        0.4643223        0.1658734
  Li       -0.2374676       -0.3692617       -0.0596329
  Li        0.3096288        0.1778347       -0.0596329
   N        0.0695153       -0.0393477        0.3047398
   N        0.3440875        0.2352245        0.3047398
   N       -0.3911772       -0.1896245       -0.3090594
   N       -0.1194348        0.0821178       -0.3090594
   N       -0.4561479       -0.4324214        0.4804978
   N       -0.0870808       -0.0633543        0.4804978
   N        0.3934058       -0.0594223       -0.3928958
   N       -0.3334736        0.2136984       -0.3928958
%ENDBLOCK POSITIONS_FRAC

KPOINTS_MP_SPACING 0.07

%BLOCK SPECIES_POT
QC5
%ENDBLOCK SPECIES_POT

SNAP_TO_SYMMETRY
SYMMETRY_GENERATE

