#              Generated by Buildcell
#
# at 17:44:45 (GMT+1.0) 26th March 2023
# in /scratch/scratch/uccabz1/launch_tmp_michael
# on node-a14b-022
# by uccabz1
#
# compiler GCC version 4.9.2
# options -cpp -iprefix /scratch/UCL/applications/gcc/4.9.2/bin/../lib/gcc/x86_64-unknown-linux-gnu/4.9.2/ -mtune=corei7 -march=x86-64 -g -Og
#
# seed  1197106223  -303482376  -209116808   123214566   651204234  1331359239 -1574397906  1552335093 -2090889454 -1938467274 -1313101280 -2133052224
#
#      Author: C. J. Pickard (cjp20@cam.ac.uk)
#                Space group: P2/m
#

%BLOCK LATTICE_ABC
      2.60368      5.09836      7.01314
     90.00000     91.60636     90.00000
%ENDBLOCK LATTICE_ABC

%BLOCK POSITIONS_FRAC
  Li       -0.2385134        0.5000000       -0.3477800
  Li        0.2385134        0.5000000        0.3477800
  Li        0.0000000        0.5000000        0.0000000
   N       -0.2520204        0.2290167        0.4424801
   N        0.2520204        0.2290167       -0.4424801
   N        0.2520204       -0.2290167       -0.4424801
   N       -0.2520204       -0.2290167        0.4424801
   N        0.4849593        0.0000000        0.3081464
   N       -0.4849593        0.0000000       -0.3081464
%ENDBLOCK POSITIONS_FRAC

KPOINTS_MP_SPACING 0.07

%BLOCK SPECIES_POT
QC5
%ENDBLOCK SPECIES_POT

SNAP_TO_SYMMETRY
SYMMETRY_GENERATE

