#              Generated by Buildcell
#
# at 19:41:58 (GMT+1.0) 26th March 2023
# in /scratch/scratch/uccabz1/launch_tmp_michael
# on node-a14a-019
# by uccabz1
#
# compiler GCC version 4.9.2
# options -cpp -iprefix /scratch/UCL/applications/gcc/4.9.2/bin/../lib/gcc/x86_64-unknown-linux-gnu/4.9.2/ -mtune=corei7 -march=x86-64 -g -Og
#
# seed   971751858   306260565  -942672468   512856209  -431297785  1547239132   975996349   278938343 -1701001045  -889119643 -1178696476   577157132
#
#      Author: C. J. Pickard (cjp20@cam.ac.uk)
#                Space group: P3
#

%BLOCK LATTICE_ABC
      3.38145      5.42307      5.42307
    120.00000     90.00000     90.00000
%ENDBLOCK LATTICE_ABC

%BLOCK POSITIONS_FRAC
  Li        0.1699741       -0.2817346       -0.2472418
  Li        0.1699741        0.2472418       -0.0344929
  Li        0.1699741        0.0344929        0.2817346
   N        0.1247772       -0.3677115        0.0543065
   N        0.1247772       -0.0543065       -0.4220180
   N        0.1247772        0.4220180        0.3677115
   N       -0.3071392        0.3818861       -0.4632886
   N       -0.3071392        0.4632886       -0.1548253
   N       -0.3071392        0.1548253       -0.3818861
%ENDBLOCK POSITIONS_FRAC

KPOINTS_MP_SPACING 0.07

%BLOCK SPECIES_POT
QC5
%ENDBLOCK SPECIES_POT

SNAP_TO_SYMMETRY
SYMMETRY_GENERATE

