#              Generated by Buildcell
#
# at 19:52:05 (GMT+1.0) 26th March 2023
# in /scratch/scratch/uccabz1/launch_tmp_michael
# on node-a14a-001
# by uccabz1
#
# compiler GCC version 4.9.2
# options -cpp -iprefix /scratch/UCL/applications/gcc/4.9.2/bin/../lib/gcc/x86_64-unknown-linux-gnu/4.9.2/ -mtune=corei7 -march=x86-64 -g -Og
#
# seed -1946432315   -67814973 -1184551055  1177249944  -424011385 -1356230303  1950723566    89647365   168274207 -1070721038  -475667273  -249952075
#
#      Author: C. J. Pickard (cjp20@cam.ac.uk)
#                Space group: R3
#

%BLOCK LATTICE_ABC
      4.30280      4.30280      4.30280
     61.09171     61.09171     61.09171
%ENDBLOCK LATTICE_ABC

%BLOCK POSITIONS_FRAC
  Li       -0.1325881       -0.1325881       -0.1325881
  Li       -0.3975170       -0.3975170       -0.3975170
   N       -0.2470436        0.0230911        0.4287751
   N        0.4287751       -0.2470436        0.0230911
   N        0.0230911        0.4287751       -0.2470436
   N        0.0499757        0.0499757        0.0499757
%ENDBLOCK POSITIONS_FRAC

KPOINTS_MP_SPACING 0.07

%BLOCK SPECIES_POT
QC5
%ENDBLOCK SPECIES_POT

SNAP_TO_SYMMETRY
SYMMETRY_GENERATE

