#              Generated by Buildcell
#
# at 15:10:35 (GMT+1.0) 26th March 2023
# in /scratch/scratch/uccabz1/launch_tmp_michael
# on node-a14b-022
# by uccabz1
#
# compiler GCC version 4.9.2
# options -cpp -iprefix /scratch/UCL/applications/gcc/4.9.2/bin/../lib/gcc/x86_64-unknown-linux-gnu/4.9.2/ -mtune=corei7 -march=x86-64 -g -Og
#
# seed -1445235750    18743512  -134170614  -378506848  -594673898  1229493159    67732483   258890945  -800649676   773669806  -914333889  1597891365
#
#      Author: C. J. Pickard (cjp20@cam.ac.uk)
#                Space group: P3
#

%BLOCK LATTICE_ABC
      4.10892      5.12658      5.12658
    120.00000     90.00000     90.00000
%ENDBLOCK LATTICE_ABC

%BLOCK POSITIONS_FRAC
  Li        0.4361459       -0.1790299        0.1626707
  Li        0.4361459       -0.1626707       -0.3417006
  Li        0.4361459        0.3417006        0.1790299
   N       -0.1127321       -0.3490043        0.1522143
   N       -0.1127321       -0.1522143        0.4987815
   N       -0.1127321       -0.4987815        0.3490043
   N       -0.2790237       -0.3320938       -0.1739975
   N       -0.2790237        0.1739975       -0.1580964
   N       -0.2790237        0.1580964        0.3320938
%ENDBLOCK POSITIONS_FRAC

KPOINTS_MP_SPACING 0.07

%BLOCK SPECIES_POT
QC5
%ENDBLOCK SPECIES_POT

SNAP_TO_SYMMETRY
SYMMETRY_GENERATE

