#              Generated by Buildcell
#
# at 19:16:50 (GMT+1.0) 26th March 2023
# in /scratch/scratch/uccabz1/launch_tmp_michael
# on node-a14f-035
# by uccabz1
#
# compiler GCC version 4.9.2
# options -cpp -iprefix /scratch/UCL/applications/gcc/4.9.2/bin/../lib/gcc/x86_64-unknown-linux-gnu/4.9.2/ -mtune=corei7 -march=x86-64 -g -Og
#
# seed   654987297   435387574  1277376004  1280072769 -2137975001  1294540735   785916586  1803326058  1969719756 -1602004216  1209417979  2076628002
#
#      Author: C. J. Pickard (cjp20@cam.ac.uk)
#                Space group: R3
#

%BLOCK LATTICE_ABC
      3.89816      3.89816      3.89816
     83.03876     83.03876     83.03876
%ENDBLOCK LATTICE_ABC

%BLOCK POSITIONS_FRAC
  Li       -0.2731871       -0.2731871       -0.2731871
  Li        0.0590056        0.0590056        0.0590056
   N       -0.4034517        0.2285462       -0.0291401
   N       -0.0291401       -0.4034517        0.2285462
   N        0.2285462       -0.0291401       -0.4034517
   N        0.3114754        0.3114754        0.3114754
%ENDBLOCK POSITIONS_FRAC

KPOINTS_MP_SPACING 0.07

%BLOCK SPECIES_POT
QC5
%ENDBLOCK SPECIES_POT

SNAP_TO_SYMMETRY
SYMMETRY_GENERATE

