#              Generated by Buildcell
#
# at 19:36:11 (GMT+1.0) 26th March 2023
# in /scratch/scratch/uccabz1/launch_tmp_michael
# on node-a14c-005
# by uccabz1
#
# compiler GCC version 4.9.2
# options -cpp -iprefix /scratch/UCL/applications/gcc/4.9.2/bin/../lib/gcc/x86_64-unknown-linux-gnu/4.9.2/ -mtune=corei7 -march=x86-64 -g -Og
#
# seed -1278962777 -1967705620   191881416  -119933979 -1847123808   507592165 -1728381418 -1036321803   366814427  -422639530  1199211010 -1438739819
#
#      Author: C. J. Pickard (cjp20@cam.ac.uk)
#                Space group: P21
#

%BLOCK LATTICE_ABC
      2.87759      3.99726      5.11765
     93.34497     90.00000     90.00000
%ENDBLOCK LATTICE_ABC

%BLOCK POSITIONS_FRAC
  Li       -0.4443696        0.3621402        0.1620733
  Li        0.0556304       -0.3621402       -0.1620733
   N       -0.4342764       -0.1525914        0.1632374
   N        0.0657236        0.1525914       -0.1632374
   N        0.0556303        0.2968632        0.3961904
   N       -0.4443697       -0.2968632       -0.3961904
%ENDBLOCK POSITIONS_FRAC

KPOINTS_MP_SPACING 0.07

%BLOCK SPECIES_POT
QC5
%ENDBLOCK SPECIES_POT

SNAP_TO_SYMMETRY
SYMMETRY_GENERATE

