#              Generated by Buildcell
#
# at 18:12:37 (GMT+1.0) 26th March 2023
# in /scratch/scratch/uccabz1/launch_tmp_michael
# on node-a14f-035
# by uccabz1
#
# compiler GCC version 4.9.2
# options -cpp -iprefix /scratch/UCL/applications/gcc/4.9.2/bin/../lib/gcc/x86_64-unknown-linux-gnu/4.9.2/ -mtune=corei7 -march=x86-64 -g -Og
#
# seed -1875202497 -1373782795   447067062  1846827293  2035981310  -517168580   412165151   -14876867 -1937320468  -660478728   820064984   337267586
#
#      Author: C. J. Pickard (cjp20@cam.ac.uk)
#                Space group: P3
#

%BLOCK LATTICE_ABC
      4.25389      4.25389      7.36297
     90.00000     90.00000    120.00000
%ENDBLOCK LATTICE_ABC

%BLOCK POSITIONS_FRAC
  Li        0.3333386        0.3333410        0.1469576
  Li       -0.3333410       -0.0000024        0.1469576
  Li        0.0000024       -0.3333386        0.1469576
  Li       -0.0000000       -0.0000000       -0.2827981
   N        0.2851273        0.3199491       -0.4718178
   N       -0.3199491       -0.0348218       -0.4718178
   N        0.0348218       -0.2851273       -0.4718178
   N       -0.1186700        0.2143648        0.3732845
   N       -0.2143648       -0.3330348        0.3732845
   N        0.3330348        0.1186700        0.3732845
   N       -0.0000000       -0.0000000       -0.0247777
   N        0.3333333       -0.3333333       -0.3252517
%ENDBLOCK POSITIONS_FRAC

KPOINTS_MP_SPACING 0.07

%BLOCK SPECIES_POT
QC5
%ENDBLOCK SPECIES_POT

SNAP_TO_SYMMETRY
SYMMETRY_GENERATE

