#              Generated by Buildcell
#
# at 19:18:22 (GMT+1.0) 26th March 2023
# in /scratch/scratch/uccabz1/launch_tmp_michael
# on node-a14b-028
# by uccabz1
#
# compiler GCC version 4.9.2
# options -cpp -iprefix /scratch/UCL/applications/gcc/4.9.2/bin/../lib/gcc/x86_64-unknown-linux-gnu/4.9.2/ -mtune=corei7 -march=x86-64 -g -Og
#
# seed -2091993778   835741670   829859563   -57430357  -937440222  1715527756 -1516053424  1670305367 -1243254118  1840945484  1196770068   143438247
#
#      Author: C. J. Pickard (cjp20@cam.ac.uk)
#                Space group: P21/m
#

%BLOCK LATTICE_ABC
      5.07638      5.37245      6.80725
     90.00000     90.00000    100.18896
%ENDBLOCK LATTICE_ABC

%BLOCK POSITIONS_FRAC
  Li        0.2393541       -0.2692417        0.0365039
  Li       -0.2393541        0.2692417       -0.4634961
  Li       -0.2393541        0.2692417       -0.0365039
  Li        0.2393541       -0.2692417        0.4634961
  Li       -0.1047448       -0.1242784        0.2500000
  Li        0.1047448        0.1242784       -0.2500000
   N       -0.1025977       -0.4422227        0.3820231
   N        0.1025977        0.4422227       -0.1179769
   N        0.1025977        0.4422227       -0.3820231
   N       -0.1025977       -0.4422227        0.1179769
   N       -0.3834901       -0.2317880        0.0663270
   N        0.3834901        0.2317880       -0.4336730
   N        0.3834901        0.2317880       -0.0663270
   N       -0.3834901       -0.2317880        0.4336730
   N        0.1331328        0.3893909        0.3602088
   N       -0.1331328       -0.3893909       -0.1397912
   N       -0.1331328       -0.3893909       -0.3602088
   N        0.1331328        0.3893909        0.1397912
%ENDBLOCK POSITIONS_FRAC

KPOINTS_MP_SPACING 0.07

%BLOCK SPECIES_POT
QC5
%ENDBLOCK SPECIES_POT

SNAP_TO_SYMMETRY
SYMMETRY_GENERATE

