#              Generated by Buildcell
#
# at 19:11:33 (GMT+1.0) 26th March 2023
# in /scratch/scratch/uccabz1/launch_tmp_michael
# on node-a14a-019
# by uccabz1
#
# compiler GCC version 4.9.2
# options -cpp -iprefix /scratch/UCL/applications/gcc/4.9.2/bin/../lib/gcc/x86_64-unknown-linux-gnu/4.9.2/ -mtune=corei7 -march=x86-64 -g -Og
#
# seed -1996480744 -1739365175   392491149   486883028  1226160905  1927983989 -1003707012  -128202475  1656244921 -1391059221 -2007919346  2113363245
#
#      Author: C. J. Pickard (cjp20@cam.ac.uk)
#                Space group: Pm
#

%BLOCK LATTICE_ABC
      3.31907      5.17118      7.33583
     90.00000     94.94057     90.00000
%ENDBLOCK LATTICE_ABC

%BLOCK POSITIONS_FRAC
  Li        0.2742364        0.2582755       -0.2117307
  Li        0.2742364       -0.2582755       -0.2117307
  Li        0.3369902        0.2582755        0.4510973
  Li        0.3369902       -0.2582755        0.4510973
   N        0.4378356        0.1450347        0.0297479
   N        0.4378356       -0.1450347        0.0297479
   N        0.2229755        0.1695266        0.2006318
   N        0.2229755       -0.1695266        0.2006318
   N       -0.1197423        0.3548151        0.2170271
   N       -0.1197423       -0.3548151        0.2170271
   N       -0.1539760        0.3546026       -0.4282683
   N       -0.1539760       -0.3546026       -0.4282683
%ENDBLOCK POSITIONS_FRAC

KPOINTS_MP_SPACING 0.07

%BLOCK SPECIES_POT
QC5
%ENDBLOCK SPECIES_POT

SNAP_TO_SYMMETRY
SYMMETRY_GENERATE

