#              Generated by Buildcell
#
# at 19:59:07 (GMT+1.0) 26th March 2023
# in /scratch/scratch/uccabz1/launch_tmp_michael
# on node-a14a-019
# by uccabz1
#
# compiler GCC version 4.9.2
# options -cpp -iprefix /scratch/UCL/applications/gcc/4.9.2/bin/../lib/gcc/x86_64-unknown-linux-gnu/4.9.2/ -mtune=corei7 -march=x86-64 -g -Og
#
# seed  -861305401  -207821300 -1399684281   360151164  -677749325  -540800885  1443174919  -638301490  -318926281 -1263428466   801938245  1360505575
#
#      Author: C. J. Pickard (cjp20@cam.ac.uk)
#                Space group: P21
#

%BLOCK LATTICE_ABC
      2.78522      4.18693      5.50840
     90.00000     90.00000    107.99873
%ENDBLOCK LATTICE_ABC

%BLOCK POSITIONS_FRAC
  Li       -0.3104978       -0.4254355        0.2373733
  Li        0.3104978        0.4254355       -0.2626267
   N       -0.0876111       -0.3525043       -0.0900417
   N        0.0876111        0.3525043        0.4099583
   N        0.0839708       -0.2853132       -0.4765185
   N       -0.0839708        0.2853132        0.0234815
%ENDBLOCK POSITIONS_FRAC

KPOINTS_MP_SPACING 0.07

%BLOCK SPECIES_POT
QC5
%ENDBLOCK SPECIES_POT

SNAP_TO_SYMMETRY
SYMMETRY_GENERATE

