#              Generated by Buildcell
#
# at 20:24:24 (GMT+1.0) 26th March 2023
# in /scratch/scratch/uccabz1/launch_tmp_michael
# on node-a14a-003
# by uccabz1
#
# compiler GCC version 4.9.2
# options -cpp -iprefix /scratch/UCL/applications/gcc/4.9.2/bin/../lib/gcc/x86_64-unknown-linux-gnu/4.9.2/ -mtune=corei7 -march=x86-64 -g -Og
#
# seed    45029596   910121244  1056813271  -422035083  1402479901   121975123  -618778997  1486043142  -938632168   558553563 -1814320895   -22015289
#
#      Author: C. J. Pickard (cjp20@cam.ac.uk)
#                Space group: C2/m
#

%BLOCK LATTICE_ABC
      4.84333      4.84333      9.44401
     96.46516     99.24901    117.84267
%ENDBLOCK LATTICE_ABC

%BLOCK POSITIONS_FRAC
  Li        0.2511790       -0.1133413       -0.3621623
  Li       -0.7511790       -0.3866587        0.3621623
  Li       -0.2511790        0.1133413        0.3621623
  Li        0.7511790        0.3866587       -0.3621623
  Li       -0.0658324       -0.0717054       -0.1375378
  Li        0.0658324        0.0717054        0.1375378
   N        0.6148236        0.4844079        0.4592128
   N        0.0251951        0.1556108       -0.4592128
   N       -0.6148236       -0.4844079       -0.4592128
   N       -0.0251951       -0.1556108        0.4592128
   N       -0.0085280       -0.1069026        0.3060127
   N       -0.4129153       -0.3145407       -0.3060127
   N        0.0085280        0.1069026       -0.3060127
   N        0.4129153        0.3145407        0.3060127
   N       -0.1799936       -0.4041926        0.0389928
   N       -0.4431854       -0.2189864       -0.0389928
   N        0.1799936        0.4041926       -0.0389928
   N        0.4431854        0.2189864        0.0389928
%ENDBLOCK POSITIONS_FRAC

KPOINTS_MP_SPACING 0.07

%BLOCK SPECIES_POT
QC5
%ENDBLOCK SPECIES_POT

SNAP_TO_SYMMETRY
SYMMETRY_GENERATE

