#              Generated by Buildcell
#
# at 18:11:17 (GMT+1.0) 26th March 2023
# in /scratch/scratch/uccabz1/launch_tmp_michael
# on node-a14b-022
# by uccabz1
#
# compiler GCC version 4.9.2
# options -cpp -iprefix /scratch/UCL/applications/gcc/4.9.2/bin/../lib/gcc/x86_64-unknown-linux-gnu/4.9.2/ -mtune=corei7 -march=x86-64 -g -Og
#
# seed  -307706281 -1679007214   261386109  1615529873  -498750251  2083345088 -1746304273  1212654499   787459444  1076698633  -348875799 -2063220954
#
#      Author: C. J. Pickard (cjp20@cam.ac.uk)
#                Space group: R3
#

%BLOCK LATTICE_ABC
      4.97166      4.97166      4.97166
     87.52070     87.52070     87.52070
%ENDBLOCK LATTICE_ABC

%BLOCK POSITIONS_FRAC
  Li        0.1011652        0.0280643       -0.4044414
  Li        0.0280643       -0.4044414        0.1011652
  Li       -0.4044414        0.1011652        0.0280643
  Li       -0.2754725       -0.2754725       -0.2754725
   N       -0.1935531       -0.4785963        0.4142586
   N       -0.4785963        0.4142586       -0.1935531
   N        0.4142586       -0.1935531       -0.4785963
   N        0.2337580        0.3700120        0.4853505
   N        0.3700120        0.4853505        0.2337580
   N        0.4853505        0.2337580        0.3700120
   N       -0.4993991       -0.4993991       -0.4993991
   N       -0.0566398       -0.0566398       -0.0566398
%ENDBLOCK POSITIONS_FRAC

KPOINTS_MP_SPACING 0.07

%BLOCK SPECIES_POT
QC5
%ENDBLOCK SPECIES_POT

SNAP_TO_SYMMETRY
SYMMETRY_GENERATE

