#              Generated by Buildcell
#
# at 20:03:26 (GMT+1.0) 26th March 2023
# in /scratch/scratch/uccabz1/launch_tmp_michael
# on node-a14e-021
# by uccabz1
#
# compiler GCC version 4.9.2
# options -cpp -iprefix /scratch/UCL/applications/gcc/4.9.2/bin/../lib/gcc/x86_64-unknown-linux-gnu/4.9.2/ -mtune=corei7 -march=x86-64 -g -Og
#
# seed   466604450  1761546967 -1486647358  -897300430 -2099086981   807743857   392514718   429830918 -1095398591 -1153900159   357408350  -604081636
#
#      Author: C. J. Pickard (cjp20@cam.ac.uk)
#                Space group: Pm
#

%BLOCK LATTICE_ABC
      3.79544      4.05861      5.94772
     90.00000     90.00000    100.93661
%ENDBLOCK LATTICE_ABC

%BLOCK POSITIONS_FRAC
  Li        0.1339084        0.3820523       -0.2760905
  Li        0.1339084        0.3820523        0.2760905
  Li       -0.4137677        0.1472430       -0.5000000
   N        0.2377399       -0.1479477       -0.3296514
   N        0.2377399       -0.1479477        0.3296514
   N        0.0453112       -0.0390641        0.1262981
   N        0.0453112       -0.0390641       -0.1262981
   N       -0.4146292        0.4848415       -0.1284346
   N       -0.4146292        0.4848415        0.1284346
%ENDBLOCK POSITIONS_FRAC

KPOINTS_MP_SPACING 0.07

%BLOCK SPECIES_POT
QC5
%ENDBLOCK SPECIES_POT

SNAP_TO_SYMMETRY
SYMMETRY_GENERATE

