#              Generated by Buildcell
#
# at 14:58:46 (GMT+1.0) 26th March 2023
# in /scratch/scratch/uccabz1/launch_tmp_michael
# on node-a14b-022
# by uccabz1
#
# compiler GCC version 4.9.2
# options -cpp -iprefix /scratch/UCL/applications/gcc/4.9.2/bin/../lib/gcc/x86_64-unknown-linux-gnu/4.9.2/ -mtune=corei7 -march=x86-64 -g -Og
#
# seed   561171165   900777394   621910592  1374221175   134841652  1991203706  1406625726 -1232322041  -480882667  1081599812  -589942340  -695024480
#
#      Author: C. J. Pickard (cjp20@cam.ac.uk)
#                Space group: Cc
#

%BLOCK LATTICE_ABC
      2.96969      2.96969      6.98524
     80.25987     80.25987     72.67511
%ENDBLOCK LATTICE_ABC

%BLOCK POSITIONS_FRAC
  Li       -0.2193066        0.0973523        0.3129042
  Li        0.0973523       -0.2193066       -0.1870958
   N        0.0630956        0.0267554        0.0505913
   N        0.0267554        0.0630956       -0.4494087
   N       -0.4010980        0.3048247       -0.0692189
   N        0.3048247       -0.4010980        0.4307811
%ENDBLOCK POSITIONS_FRAC

KPOINTS_MP_SPACING 0.07

%BLOCK SPECIES_POT
QC5
%ENDBLOCK SPECIES_POT

SNAP_TO_SYMMETRY
SYMMETRY_GENERATE

