#              Generated by Buildcell
#
# at 19:26:18 (GMT+1.0) 26th March 2023
# in /scratch/scratch/uccabz1/launch_tmp_michael
# on node-a14c-005
# by uccabz1
#
# compiler GCC version 4.9.2
# options -cpp -iprefix /scratch/UCL/applications/gcc/4.9.2/bin/../lib/gcc/x86_64-unknown-linux-gnu/4.9.2/ -mtune=corei7 -march=x86-64 -g -Og
#
# seed   821592828  1154352091 -1853858412  1805439401   676569795  -752656599 -1533072991   713366633   146335828  1263802287  -535169781    87415263
#
#      Author: C. J. Pickard (cjp20@cam.ac.uk)
#                Space group: Pc
#

%BLOCK LATTICE_ABC
      2.79130      5.82670      7.74011
    101.91912     90.00000     90.00000
%ENDBLOCK LATTICE_ABC

%BLOCK POSITIONS_FRAC
  Li       -0.2591180       -0.4220477       -0.2024870
  Li        0.2591180        0.0779523       -0.2024870
  Li       -0.1016803        0.1113418       -0.4942035
  Li        0.1016803       -0.3886582       -0.4942035
   N        0.1429829        0.3011492        0.3487132
   N       -0.1429829       -0.1988508        0.3487132
   N       -0.3399361       -0.4451779        0.3076156
   N        0.3399361        0.0548221        0.3076156
   N        0.3572392        0.3326075       -0.3494452
   N       -0.3572392       -0.1673925       -0.3494452
   N        0.3987505       -0.1143118        0.4574679
   N       -0.3987505        0.3856882        0.4574679
%ENDBLOCK POSITIONS_FRAC

KPOINTS_MP_SPACING 0.07

%BLOCK SPECIES_POT
QC5
%ENDBLOCK SPECIES_POT

SNAP_TO_SYMMETRY
SYMMETRY_GENERATE

