#              Generated by Buildcell
#
# at 20:09:59 (GMT+1.0) 26th March 2023
# in /scratch/scratch/uccabz1/launch_tmp_michael
# on node-a14a-001
# by uccabz1
#
# compiler GCC version 4.9.2
# options -cpp -iprefix /scratch/UCL/applications/gcc/4.9.2/bin/../lib/gcc/x86_64-unknown-linux-gnu/4.9.2/ -mtune=corei7 -march=x86-64 -g -Og
#
# seed   577847748 -2028454042   617770534  -893311516  -296113780  -899468803     9073823   372399022  -973800632  1674652877  1361144970   599422667
#
#      Author: C. J. Pickard (cjp20@cam.ac.uk)
#                Space group: Cm
#

%BLOCK LATTICE_ABC
      3.72484      4.04747      4.72678
    105.83238    103.01719    113.21577
%ENDBLOCK LATTICE_ABC

%BLOCK POSITIONS_FRAC
  Li       -0.0277650       -0.3004583        0.2966973
  Li       -0.3244624        0.4028443       -0.2966973
   N       -0.4426986       -0.0572195        0.3671235
   N        0.1901779       -0.4243430       -0.3671235
   N       -0.0454030        0.1069339        0.1780846
   N       -0.2234876       -0.0711507       -0.1780846
%ENDBLOCK POSITIONS_FRAC

KPOINTS_MP_SPACING 0.07

%BLOCK SPECIES_POT
QC5
%ENDBLOCK SPECIES_POT

SNAP_TO_SYMMETRY
SYMMETRY_GENERATE

