#              Generated by Buildcell
#
# at 15:22:01 (GMT+1.0) 26th March 2023
# in /scratch/scratch/uccabz1/launch_tmp_michael
# on node-a14a-003
# by uccabz1
#
# compiler GCC version 4.9.2
# options -cpp -iprefix /scratch/UCL/applications/gcc/4.9.2/bin/../lib/gcc/x86_64-unknown-linux-gnu/4.9.2/ -mtune=corei7 -march=x86-64 -g -Og
#
# seed  1065083629 -1261600269   379511532 -1756192544   316325242  1458098127 -2010630443  -355299622 -2039464718  1618691783 -1783968032 -1232548443
#
#      Author: C. J. Pickard (cjp20@cam.ac.uk)
#                Space group: C2
#

%BLOCK LATTICE_ABC
      5.36242      5.36242      7.43064
     95.70227    110.60706    112.00060
%ENDBLOCK LATTICE_ABC

%BLOCK POSITIONS_FRAC
  Li        0.4574614       -0.3646328       -0.3346565
  Li       -0.0299763       -0.2078821        0.3346565
  Li       -0.1511465        0.1313556       -0.0762294
  Li        0.2075850       -0.0749171        0.0762294
  Li        0.0919525        0.0636361       -0.2965430
  Li        0.3601791        0.3884955        0.2965430
   N       -0.1699826        0.1909614        0.1831881
   N        0.0077733       -0.3531708       -0.1831881
   N       -0.4512748       -0.3275396        0.1835521
   N        0.4889083        0.3651731       -0.1835521
   N       -0.0408026        0.4447647        0.3874053
   N        0.0573594       -0.4282079       -0.3874053
   N        0.0666195       -0.4700669        0.0043514
   N       -0.4744183        0.0622682       -0.0043514
   N        0.2766115       -0.1726145       -0.2155350
   N        0.0429205        0.4921464        0.2155350
   N       -0.3416090        0.3492981        0.2183937
   N        0.1309044        0.4399973       -0.2183937
%ENDBLOCK POSITIONS_FRAC

KPOINTS_MP_SPACING 0.07

%BLOCK SPECIES_POT
QC5
%ENDBLOCK SPECIES_POT

SNAP_TO_SYMMETRY
SYMMETRY_GENERATE

