#              Generated by Buildcell
#
# at 19:53:49 (GMT+1.0) 26th March 2023
# in /scratch/scratch/uccabz1/launch_tmp_michael
# on node-a14e-007
# by uccabz1
#
# compiler GCC version 4.9.2
# options -cpp -iprefix /scratch/UCL/applications/gcc/4.9.2/bin/../lib/gcc/x86_64-unknown-linux-gnu/4.9.2/ -mtune=corei7 -march=x86-64 -g -Og
#
# seed -1550859434 -2128839784 -1662037861 -1825093967   863960453   198894509 -1423588357  1958484979  1135794426  -357727137   603558089  -903679723
#
#      Author: C. J. Pickard (cjp20@cam.ac.uk)
#                Space group: R3
#

%BLOCK LATTICE_ABC
      5.80290      5.80290      5.80290
     77.57494     77.57494     77.57494
%ENDBLOCK LATTICE_ABC

%BLOCK POSITIONS_FRAC
  Li       -0.3458580       -0.1913416        0.4146391
  Li        0.4146391       -0.3458580       -0.1913416
  Li       -0.1913416        0.4146391       -0.3458580
  Li       -0.1969130        0.1899863        0.0738397
  Li        0.0738397       -0.1969130        0.1899863
  Li        0.1899863        0.0738397       -0.1969130
   N       -0.3563386        0.1190494        0.4927157
   N        0.4927157       -0.3563386        0.1190494
   N        0.1190494        0.4927157       -0.3563386
   N        0.2784130       -0.3299114        0.4187883
   N        0.4187883        0.2784130       -0.3299114
   N       -0.3299114        0.4187883        0.2784130
   N        0.4664325        0.0958385        0.2781937
   N        0.2781937        0.4664325        0.0958385
   N        0.0958385        0.2781937        0.4664325
   N        0.2801350        0.2223088        0.0294426
   N        0.0294426        0.2801350        0.2223088
   N        0.2223088        0.0294426        0.2801350
%ENDBLOCK POSITIONS_FRAC

KPOINTS_MP_SPACING 0.07

%BLOCK SPECIES_POT
QC5
%ENDBLOCK SPECIES_POT

SNAP_TO_SYMMETRY
SYMMETRY_GENERATE

