#              Generated by Buildcell
#
# at 17:02:19 (GMT+1.0) 26th March 2023
# in /scratch/scratch/uccabz1/launch_tmp_michael
# on node-a14e-021
# by uccabz1
#
# compiler GCC version 4.9.2
# options -cpp -iprefix /scratch/UCL/applications/gcc/4.9.2/bin/../lib/gcc/x86_64-unknown-linux-gnu/4.9.2/ -mtune=corei7 -march=x86-64 -g -Og
#
# seed -1116078197  -768167335  1911883883 -1754502167   772936385   982315422 -2041131213 -1648352334  -219817873 -1811812830   547032456 -1527876375
#
#      Author: C. J. Pickard (cjp20@cam.ac.uk)
#                Space group: P21/c
#

%BLOCK LATTICE_ABC
      2.82754      6.92386      8.92149
     90.00000     90.00000     95.48996
%ENDBLOCK LATTICE_ABC

%BLOCK POSITIONS_FRAC
  Li       -0.1291676       -0.0003529       -0.2776019
  Li        0.1291676       -0.4996471        0.2223981
  Li        0.1291676        0.0003529        0.2776019
  Li       -0.1291676        0.4996471       -0.2223981
  Li        0.0000000        0.0000000       -0.0000000
  Li        0.0000000        0.5000000       -0.5000000
   N       -0.4766179        0.1651067       -0.3960825
   N        0.4766179        0.3348933        0.1039175
   N        0.4766179       -0.1651067        0.3960825
   N       -0.4766179       -0.3348933       -0.1039175
   N        0.4977662       -0.4152740        0.0523090
   N       -0.4977662       -0.0847260       -0.4476910
   N       -0.4977662        0.4152740       -0.0523090
   N        0.4977662        0.0847260        0.4476910
   N        0.0377418       -0.2674003        0.3273320
   N       -0.0377418       -0.2325997       -0.1726680
   N       -0.0377418        0.2674003       -0.3273320
   N        0.0377418        0.2325997        0.1726680
%ENDBLOCK POSITIONS_FRAC

KPOINTS_MP_SPACING 0.07

%BLOCK SPECIES_POT
QC5
%ENDBLOCK SPECIES_POT

SNAP_TO_SYMMETRY
SYMMETRY_GENERATE

