#              Generated by Buildcell
#
# at 19:30:01 (GMT+1.0) 26th March 2023
# in /scratch/scratch/uccabz1/launch_tmp_michael
# on node-a14b-031
# by uccabz1
#
# compiler GCC version 4.9.2
# options -cpp -iprefix /scratch/UCL/applications/gcc/4.9.2/bin/../lib/gcc/x86_64-unknown-linux-gnu/4.9.2/ -mtune=corei7 -march=x86-64 -g -Og
#
# seed  1455696814  1444390507  -643224226 -1829559871  -148018240  -839778269  1374146831 -1826208419  -873112355 -1587080214  -988650348  -831081020
#
#      Author: C. J. Pickard (cjp20@cam.ac.uk)
#                Space group: P31
#

%BLOCK LATTICE_ABC
      4.13738      4.95226      4.95226
    120.00000     90.00000     90.00000
%ENDBLOCK LATTICE_ABC

%BLOCK POSITIONS_FRAC
  Li        0.2877146       -0.3877157       -0.4447941
  Li       -0.3789520       -0.0570785        0.3877157
  Li       -0.0456187        0.4447941        0.0570785
   N        0.2381914        0.1635105        0.2390484
   N       -0.4284753        0.0755379       -0.1635105
   N       -0.0951420       -0.2390484       -0.0755379
   N        0.0797134        0.2818170       -0.4114329
   N        0.4130467        0.3067502       -0.2818170
   N       -0.2536200        0.4114329       -0.3067502
%ENDBLOCK POSITIONS_FRAC

KPOINTS_MP_SPACING 0.07

%BLOCK SPECIES_POT
QC5
%ENDBLOCK SPECIES_POT

SNAP_TO_SYMMETRY
SYMMETRY_GENERATE

