#              Generated by Buildcell
#
# at 17:06:08 (GMT+1.0) 26th March 2023
# in /scratch/scratch/uccabz1/launch_tmp_michael
# on node-a14b-031
# by uccabz1
#
# compiler GCC version 4.9.2
# options -cpp -iprefix /scratch/UCL/applications/gcc/4.9.2/bin/../lib/gcc/x86_64-unknown-linux-gnu/4.9.2/ -mtune=corei7 -march=x86-64 -g -Og
#
# seed -2110391647  1922079227   445495804  1095417928  -332241567  1895689207  -388055537    99873652 -1900067983 -1131722824  -115030401 -2040613076
#
#      Author: C. J. Pickard (cjp20@cam.ac.uk)
#                Space group: Cm
#

%BLOCK LATTICE_ABC
      4.28980      5.83312      7.47980
    112.94985     94.14420     90.00000
%ENDBLOCK LATTICE_ABC

%BLOCK POSITIONS_FRAC
  Li       -0.3001679        0.3989528        0.3693193
  Li       -0.3001679       -0.0296335        0.3693193
  Li        0.4339393        0.2250761       -0.1212616
  Li        0.4339393       -0.3463377       -0.1212616
  Li        0.1775386       -0.1895093        0.1923953
  Li        0.1775386        0.3819046        0.1923953
   N        0.3740684       -0.3857810        0.4855899
   N        0.3740684       -0.1286290        0.4855899
   N        0.1882326       -0.0318833       -0.3214535
   N        0.1882326       -0.2895702       -0.3214535
   N       -0.1555317       -0.3295542       -0.1961377
   N       -0.1555317        0.1334165       -0.1961377
   N        0.0798719        0.4814443       -0.2942634
   N        0.0798719        0.2242923       -0.2942634
   N       -0.4058008       -0.0381061       -0.3337148
   N       -0.4058008       -0.2956087       -0.3337148
   N        0.0748342       -0.1514210       -0.0456904
   N        0.0748342        0.1057306       -0.0456904
%ENDBLOCK POSITIONS_FRAC

KPOINTS_MP_SPACING 0.07

%BLOCK SPECIES_POT
QC5
%ENDBLOCK SPECIES_POT

SNAP_TO_SYMMETRY
SYMMETRY_GENERATE

