#              Generated by Buildcell
#
# at 19:14:11 (GMT+1.0) 26th March 2023
# in /scratch/scratch/uccabz1/launch_tmp_michael
# on node-a14f-035
# by uccabz1
#
# compiler GCC version 4.9.2
# options -cpp -iprefix /scratch/UCL/applications/gcc/4.9.2/bin/../lib/gcc/x86_64-unknown-linux-gnu/4.9.2/ -mtune=corei7 -march=x86-64 -g -Og
#
# seed -1978016895 -2047084107 -1587080214  -576296033 -1554872758 -1077418379    71675068   479355010 -1228389452  1921986884  -442444722 -1437581734
#
#      Author: C. J. Pickard (cjp20@cam.ac.uk)
#                Space group: P3
#

%BLOCK LATTICE_ABC
      3.07807      3.07807      7.55263
     90.00000     90.00000    120.00000
%ENDBLOCK LATTICE_ABC

%BLOCK POSITIONS_FRAC
  Li       -0.0000000        0.0000000        0.4712293
  Li        0.0000000       -0.0000000       -0.0170344
   N        0.1024412       -0.2507585       -0.2634921
   N        0.2507585        0.3531997       -0.2634921
   N       -0.3531997       -0.1024412       -0.2634921
   N       -0.3333333        0.3333333        0.3772022
%ENDBLOCK POSITIONS_FRAC

KPOINTS_MP_SPACING 0.07

%BLOCK SPECIES_POT
QC5
%ENDBLOCK SPECIES_POT

SNAP_TO_SYMMETRY
SYMMETRY_GENERATE

