#              Generated by Buildcell
#
# at 14:52:24 (GMT+1.0) 26th March 2023
# in /scratch/scratch/uccabz1/launch_tmp_michael
# on node-a14b-031
# by uccabz1
#
# compiler GCC version 4.9.2
# options -cpp -iprefix /scratch/UCL/applications/gcc/4.9.2/bin/../lib/gcc/x86_64-unknown-linux-gnu/4.9.2/ -mtune=corei7 -march=x86-64 -g -Og
#
# seed -1877723486  1080210920  -299194424  -868509484 -1589681994  2070050657   956458008  -928649262 -1372876050  1847539504  -657446300   687396005
#
#      Author: C. J. Pickard (cjp20@cam.ac.uk)
#                Space group: I41
#

%BLOCK LATTICE_ABC
      5.44698      5.44698      5.44698
     92.71770    118.44354    118.44354
%ENDBLOCK LATTICE_ABC

%BLOCK POSITIONS_FRAC
  Li       -0.2631357       -0.0274548       -0.2044577
  Li        0.2631357        0.0586779        0.2356809
  Li       -0.3229971       -0.0143191        0.2225452
  Li        0.3229971       -0.4544577        0.3086779
   N        0.1698049       -0.3545810       -0.1914518
   N       -0.1698049       -0.3612567        0.4756140
   N        0.3368707        0.2256140       -0.1045810
   N       -0.3368707       -0.4414518       -0.1112567
   N       -0.1471685        0.3409426        0.0044149
   N        0.1471685        0.1515834        0.4881111
   N       -0.1634723        0.2381111       -0.4090574
   N        0.1634723       -0.2455851        0.4015834
%ENDBLOCK POSITIONS_FRAC

KPOINTS_MP_SPACING 0.07

%BLOCK SPECIES_POT
QC5
%ENDBLOCK SPECIES_POT

SNAP_TO_SYMMETRY
SYMMETRY_GENERATE

