#              Generated by Buildcell
#
# at 19:07:41 (GMT+1.0) 26th March 2023
# in /scratch/scratch/uccabz1/launch_tmp_michael
# on node-a14b-031
# by uccabz1
#
# compiler GCC version 4.9.2
# options -cpp -iprefix /scratch/UCL/applications/gcc/4.9.2/bin/../lib/gcc/x86_64-unknown-linux-gnu/4.9.2/ -mtune=corei7 -march=x86-64 -g -Og
#
# seed -1503895048 -1575871709   645542432  -992702181  -574467967  1589642216  2086211488   165280443   987357657 -2107541592 -1128425931  -986531779
#
#      Author: C. J. Pickard (cjp20@cam.ac.uk)
#                Space group: Pmc21
#

%BLOCK LATTICE_ABC
      3.04969      7.40989      7.70213
     90.00000     90.00000     90.00000
%ENDBLOCK LATTICE_ABC

%BLOCK POSITIONS_FRAC
  Li       -0.3264660        0.3311717       -0.2120858
  Li        0.3264660       -0.3311717        0.2879142
  Li        0.3264660        0.3311717        0.2879142
  Li       -0.3264660       -0.3311717       -0.2120858
  Li        0.1388086        0.5000000        0.0001613
  Li       -0.1388086       -0.5000000       -0.4998387
   N        0.4473896       -0.3152705       -0.4501501
   N       -0.4473896        0.3152705        0.0498499
   N       -0.4473896       -0.3152705        0.0498499
   N        0.4473896        0.3152705       -0.4501501
   N       -0.4127630       -0.1012893        0.2521313
   N        0.4127630        0.1012893       -0.2478687
   N        0.4127630       -0.1012893       -0.2478687
   N       -0.4127630        0.1012893        0.2521313
   N        0.1003607        0.1016824        0.3566164
   N       -0.1003607       -0.1016824       -0.1433836
   N       -0.1003607        0.1016824       -0.1433836
   N        0.1003607       -0.1016824        0.3566164
%ENDBLOCK POSITIONS_FRAC

KPOINTS_MP_SPACING 0.07

%BLOCK SPECIES_POT
QC5
%ENDBLOCK SPECIES_POT

SNAP_TO_SYMMETRY
SYMMETRY_GENERATE

