#              Generated by Buildcell
#
# at 14:52:53 (GMT+1.0) 26th March 2023
# in /scratch/scratch/uccabz1/launch_tmp_michael
# on node-a14a-003
# by uccabz1
#
# compiler GCC version 4.9.2
# options -cpp -iprefix /scratch/UCL/applications/gcc/4.9.2/bin/../lib/gcc/x86_64-unknown-linux-gnu/4.9.2/ -mtune=corei7 -march=x86-64 -g -Og
#
# seed -1071068642  -254986245   781321926 -1820221950  1832177185   -43703416   933028046 -1052521775  -246970907   366177465  -456023089  -770868977
#
#      Author: C. J. Pickard (cjp20@cam.ac.uk)
#                Space group: P31
#

%BLOCK LATTICE_ABC
      3.95261      3.95261      6.78909
     90.00000     90.00000    120.00000
%ENDBLOCK LATTICE_ABC

%BLOCK POSITIONS_FRAC
  Li       -0.0594744       -0.4605172       -0.1179005
  Li       -0.4010429        0.0594744        0.2154329
  Li        0.4605172        0.4010429       -0.4512338
   N        0.1483808        0.2775830        0.0308290
   N        0.1292022       -0.1483808        0.3641623
   N       -0.2775830       -0.1292022       -0.3025044
   N       -0.2502916       -0.0771123        0.4548404
   N        0.1731793        0.2502916       -0.2118263
   N        0.0771123       -0.1731793        0.1215070
%ENDBLOCK POSITIONS_FRAC

KPOINTS_MP_SPACING 0.07

%BLOCK SPECIES_POT
QC5
%ENDBLOCK SPECIES_POT

SNAP_TO_SYMMETRY
SYMMETRY_GENERATE

