#              Generated by Buildcell
#
# at 14:58:45 (GMT+1.0) 26th March 2023
# in /scratch/scratch/uccabz1/launch_tmp_michael
# on node-a14c-005
# by uccabz1
#
# compiler GCC version 4.9.2
# options -cpp -iprefix /scratch/UCL/applications/gcc/4.9.2/bin/../lib/gcc/x86_64-unknown-linux-gnu/4.9.2/ -mtune=corei7 -march=x86-64 -g -Og
#
# seed  1887167834  -696326643  1061549200  1461926833 -1771754964  1478497099  -623210689  -106097353 -1954119164   657341756  1562044189 -1388183379
#
#      Author: C. J. Pickard (cjp20@cam.ac.uk)
#                Space group: P3
#

%BLOCK LATTICE_ABC
      4.38732      4.38732      7.04292
     90.00000     90.00000    120.00000
%ENDBLOCK LATTICE_ABC

%BLOCK POSITIONS_FRAC
  Li        0.3333524        0.0087867       -0.1422807
  Li       -0.0087867        0.3245658       -0.1422807
  Li       -0.3245658       -0.3333524       -0.1422807
  Li        0.3333333       -0.3333333        0.1417393
   N       -0.0289696       -0.4325530       -0.3764694
   N        0.4325530        0.4035834       -0.3764694
   N       -0.4035834        0.0289696       -0.3764694
   N       -0.2551887       -0.2433059       -0.4242463
   N        0.2433059       -0.0118827       -0.4242463
   N        0.0118827        0.2551887       -0.4242463
   N        0.3333333       -0.3333333       -0.3081630
   N        0.0000000       -0.0000000        0.0355668
%ENDBLOCK POSITIONS_FRAC

KPOINTS_MP_SPACING 0.07

%BLOCK SPECIES_POT
QC5
%ENDBLOCK SPECIES_POT

SNAP_TO_SYMMETRY
SYMMETRY_GENERATE

