#              Generated by Buildcell
#
# at 19:49:14 (GMT+1.0) 26th March 2023
# in /scratch/scratch/uccabz1/launch_tmp_michael
# on node-a14e-007
# by uccabz1
#
# compiler GCC version 4.9.2
# options -cpp -iprefix /scratch/UCL/applications/gcc/4.9.2/bin/../lib/gcc/x86_64-unknown-linux-gnu/4.9.2/ -mtune=corei7 -march=x86-64 -g -Og
#
# seed -1953899995 -2052305800  2140082623     5498666 -1570398628  1291558355   908372550  -717889232  1296724462  -589201099 -1846466163   306108072
#
#      Author: C. J. Pickard (cjp20@cam.ac.uk)
#                Space group: Pmm2
#

%BLOCK LATTICE_ABC
      4.26765      5.24782      7.86195
     90.00000     90.00000     90.00000
%ENDBLOCK LATTICE_ABC

%BLOCK POSITIONS_FRAC
  Li        0.4256928       -0.2618059        0.3410064
  Li        0.4256928        0.2618059       -0.3410064
  Li        0.4256928       -0.2618059       -0.3410064
  Li        0.4256928        0.2618059        0.3410064
  Li        0.0691963       -0.0000000       -0.1589935
  Li        0.0691963       -0.0000000        0.1589935
   N        0.4945133       -0.1787756        0.0966429
   N        0.4945133        0.1787756       -0.0966429
   N        0.4945133       -0.1787756       -0.0966429
   N        0.4945133        0.1787756        0.0966429
   N       -0.0443233        0.1700064       -0.3632754
   N       -0.0443233       -0.1700064        0.3632754
   N       -0.0443233        0.1700064        0.3632754
   N       -0.0443233       -0.1700064       -0.3632754
   N        0.1178447       -0.3528074       -0.0985647
   N        0.1178447        0.3528074        0.0985647
   N        0.1178447       -0.3528074        0.0985647
   N        0.1178447        0.3528074       -0.0985647
%ENDBLOCK POSITIONS_FRAC

KPOINTS_MP_SPACING 0.07

%BLOCK SPECIES_POT
QC5
%ENDBLOCK SPECIES_POT

SNAP_TO_SYMMETRY
SYMMETRY_GENERATE

