#              Generated by Buildcell
#
# at 17:13:35 (GMT+1.0) 26th March 2023
# in /scratch/scratch/uccabz1/launch_tmp_michael
# on node-a14b-028
# by uccabz1
#
# compiler GCC version 4.9.2
# options -cpp -iprefix /scratch/UCL/applications/gcc/4.9.2/bin/../lib/gcc/x86_64-unknown-linux-gnu/4.9.2/ -mtune=corei7 -march=x86-64 -g -Og
#
# seed  -437390316 -1476429888  1895674453 -1633256967   982973997   148843593   748647932  -955804460  1462718010  1819512324 -1871177541  -909643931
#
#      Author: C. J. Pickard (cjp20@cam.ac.uk)
#                Space group: P2
#

%BLOCK LATTICE_ABC
      3.12230      4.25666      4.56262
     97.06193     90.00000     90.00000
%ENDBLOCK LATTICE_ABC

%BLOCK POSITIONS_FRAC
  Li        0.1378132       -0.3789690        0.2638819
  Li        0.1378132        0.3789690       -0.2638819
   N        0.1799571       -0.1433987       -0.3555315
   N        0.1799571        0.1433987        0.3555315
   N       -0.0410338        0.1904836        0.0722432
   N       -0.0410338       -0.1904836       -0.0722432
%ENDBLOCK POSITIONS_FRAC

KPOINTS_MP_SPACING 0.07

%BLOCK SPECIES_POT
QC5
%ENDBLOCK SPECIES_POT

SNAP_TO_SYMMETRY
SYMMETRY_GENERATE

