#              Generated by Buildcell
#
# at 19:49:30 (GMT+1.0) 26th March 2023
# in /scratch/scratch/uccabz1/launch_tmp_michael
# on node-a14b-031
# by uccabz1
#
# compiler GCC version 4.9.2
# options -cpp -iprefix /scratch/UCL/applications/gcc/4.9.2/bin/../lib/gcc/x86_64-unknown-linux-gnu/4.9.2/ -mtune=corei7 -march=x86-64 -g -Og
#
# seed   765986413  1052283663   592343536   -76515865  -371061435  1755684772  1171332198  1565734978 -1959733914  1750630622  1379582935  -316098666
#
#      Author: C. J. Pickard (cjp20@cam.ac.uk)
#                Space group: Cm
#

%BLOCK LATTICE_ABC
      3.09962      5.55660      5.55660
    104.57268     99.52230     99.52230
%ENDBLOCK LATTICE_ABC

%BLOCK POSITIONS_FRAC
  Li        0.3933852       -0.2451520        0.0399132
  Li        0.3933852        0.0399132       -0.2451520
  Li        0.2440079        0.4213240        0.4213240
   N       -0.4637368        0.4294393       -0.0578686
   N       -0.4637368       -0.0578686        0.4294393
   N        0.2924141        0.2364379        0.0653073
   N        0.2924141        0.0653073        0.2364379
   N       -0.1364305        0.3216038        0.0916689
   N       -0.1364305        0.0916689        0.3216038
%ENDBLOCK POSITIONS_FRAC

KPOINTS_MP_SPACING 0.07

%BLOCK SPECIES_POT
QC5
%ENDBLOCK SPECIES_POT

SNAP_TO_SYMMETRY
SYMMETRY_GENERATE

