#              Generated by Buildcell
#
# at 19:54:55 (GMT+1.0) 26th March 2023
# in /scratch/scratch/uccabz1/launch_tmp_michael
# on node-a14a-019
# by uccabz1
#
# compiler GCC version 4.9.2
# options -cpp -iprefix /scratch/UCL/applications/gcc/4.9.2/bin/../lib/gcc/x86_64-unknown-linux-gnu/4.9.2/ -mtune=corei7 -march=x86-64 -g -Og
#
# seed  -115681608  -425143372 -1819381848   867304671 -1355620919 -1194574832   317606974  1588465401   647327545  -442536581  -756867919    49375685
#
#      Author: C. J. Pickard (cjp20@cam.ac.uk)
#                Space group: C2
#

%BLOCK LATTICE_ABC
      3.49127      3.49127      5.66374
     80.29429     80.29429     60.04718
%ENDBLOCK LATTICE_ABC

%BLOCK POSITIONS_FRAC
  Li       -0.1680654       -0.1523138       -0.3232475
  Li        0.1523138        0.1680654        0.3232475
   N        0.2756440       -0.1109286       -0.1929370
   N        0.1109286       -0.2756440        0.1929370
   N        0.3984443        0.1426344       -0.0588855
   N       -0.1426344       -0.3984443        0.0588855
%ENDBLOCK POSITIONS_FRAC

KPOINTS_MP_SPACING 0.07

%BLOCK SPECIES_POT
QC5
%ENDBLOCK SPECIES_POT

SNAP_TO_SYMMETRY
SYMMETRY_GENERATE

