#              Generated by Buildcell
#
# at 16:56:01 (GMT+1.0) 26th March 2023
# in /scratch/scratch/uccabz1/launch_tmp_michael
# on node-a14c-005
# by uccabz1
#
# compiler GCC version 4.9.2
# options -cpp -iprefix /scratch/UCL/applications/gcc/4.9.2/bin/../lib/gcc/x86_64-unknown-linux-gnu/4.9.2/ -mtune=corei7 -march=x86-64 -g -Og
#
# seed   346273269  1924370853  1836522695  2146637393  1169798606   862051275 -2046499326  1169966938   211871271  1430589091   379054224   687587199
#
#      Author: C. J. Pickard (cjp20@cam.ac.uk)
#                Space group: P3
#

%BLOCK LATTICE_ABC
      3.88017      4.24263      4.24263
    120.00000     90.00000     90.00000
%ENDBLOCK LATTICE_ABC

%BLOCK POSITIONS_FRAC
  Li        0.2711000        0.0000000        0.0000000
  Li        0.3999713       -0.3333333        0.3333333
   N        0.0339732        0.3783842       -0.0256772
   N        0.0339732        0.0256772        0.4040615
   N        0.0339732       -0.4040615       -0.3783842
   N       -0.1071889       -0.3333333        0.3333333
%ENDBLOCK POSITIONS_FRAC

KPOINTS_MP_SPACING 0.07

%BLOCK SPECIES_POT
QC5
%ENDBLOCK SPECIES_POT

SNAP_TO_SYMMETRY
SYMMETRY_GENERATE

