#              Generated by Buildcell
#
# at 17:47:08 (GMT+1.0) 26th March 2023
# in /scratch/scratch/uccabz1/launch_tmp_michael
# on node-a14b-028
# by uccabz1
#
# compiler GCC version 4.9.2
# options -cpp -iprefix /scratch/UCL/applications/gcc/4.9.2/bin/../lib/gcc/x86_64-unknown-linux-gnu/4.9.2/ -mtune=corei7 -march=x86-64 -g -Og
#
# seed   534954145  1289724451   442978887 -1896515405 -1830277615   -64282718 -1898644395 -1763891688  1523096989  1618458194   920546850 -1560724792
#
#      Author: C. J. Pickard (cjp20@cam.ac.uk)
#                Space group: C2/m
#

%BLOCK LATTICE_ABC
      3.89965      3.94569      3.94569
     78.63084     88.59808     88.59808
%ENDBLOCK LATTICE_ABC

%BLOCK POSITIONS_FRAC
  Li        0.0000000        0.0000000       -0.5000000
  Li        0.0000000       -0.5000000        0.0000000
   N        0.4523607       -0.1759653        0.4486478
   N       -0.4523607       -0.4486478        0.1759653
   N       -0.4523607        0.1759653       -0.4486478
   N        0.4523607        0.4486478       -0.1759653
%ENDBLOCK POSITIONS_FRAC

KPOINTS_MP_SPACING 0.07

%BLOCK SPECIES_POT
QC5
%ENDBLOCK SPECIES_POT

SNAP_TO_SYMMETRY
SYMMETRY_GENERATE

