#              Generated by Buildcell
#
# at 15:12:23 (GMT+1.0) 26th March 2023
# in /scratch/scratch/uccabz1/launch_tmp_michael
# on node-a14e-021
# by uccabz1
#
# compiler GCC version 4.9.2
# options -cpp -iprefix /scratch/UCL/applications/gcc/4.9.2/bin/../lib/gcc/x86_64-unknown-linux-gnu/4.9.2/ -mtune=corei7 -march=x86-64 -g -Og
#
# seed  1894716705  1646433183    80460806   668360218  1483669088 -2129643229   395640657 -1118883182 -1973350660   247206730  1153355523   915221994
#
#      Author: C. J. Pickard (cjp20@cam.ac.uk)
#                Space group: I-4
#

%BLOCK LATTICE_ABC
      5.88173      5.88173      6.83577
    115.48135    115.48135     90.00000
%ENDBLOCK LATTICE_ABC

%BLOCK POSITIONS_FRAC
  Li        0.2308667        0.2860412       -0.1876476
  Li       -0.4185143       -0.4736888       -0.1876476
  Li        0.4736888       -0.2308667        0.1876476
  Li       -0.2860412        0.4185143        0.1876476
  Li        0.1347921       -0.3652079        0.2695842
  Li        0.3652079       -0.1347921       -0.2695842
   N        0.0989699       -0.0161105       -0.1916275
   N       -0.2905974       -0.1755170       -0.1916275
   N        0.1755170       -0.0989699        0.1916275
   N        0.0161105        0.2905974        0.1916275
   N       -0.3715782       -0.4423316        0.4953041
   N       -0.1331177       -0.0623643        0.4953041
   N        0.0623643        0.3715782       -0.4953041
   N        0.4423316        0.1331177       -0.4953041
   N       -0.2740541        0.2589558       -0.3378127
   N       -0.0637587        0.4032315       -0.3378127
   N       -0.4032315        0.2740541        0.3378127
   N       -0.2589558        0.0637587        0.3378127
%ENDBLOCK POSITIONS_FRAC

KPOINTS_MP_SPACING 0.07

%BLOCK SPECIES_POT
QC5
%ENDBLOCK SPECIES_POT

SNAP_TO_SYMMETRY
SYMMETRY_GENERATE

