#              Generated by Buildcell
#
# at 18:13:58 (GMT+1.0) 26th March 2023
# in /scratch/scratch/uccabz1/launch_tmp_michael
# on node-a14b-028
# by uccabz1
#
# compiler GCC version 4.9.2
# options -cpp -iprefix /scratch/UCL/applications/gcc/4.9.2/bin/../lib/gcc/x86_64-unknown-linux-gnu/4.9.2/ -mtune=corei7 -march=x86-64 -g -Og
#
# seed  -860818418  -286577365  -566000270   343079398  -362231745  2069593503   278428513  2042607405  -957515469  1870793216  1582488095   461670798
#
#      Author: C. J. Pickard (cjp20@cam.ac.uk)
#                Space group: I212121
#

%BLOCK LATTICE_ABC
      3.52572      4.54865      4.54865
     74.61721     67.19742     67.19742
%ENDBLOCK LATTICE_ABC

%BLOCK POSITIONS_FRAC
  Li       -0.1402697       -0.1097303        0.3902697
  Li       -0.3597303       -0.3902697        0.1097303
   N        0.3122212        0.1859631       -0.4159334
   N        0.1877788        0.4159334       -0.1859631
   N       -0.4177491        0.3140369       -0.0840666
   N       -0.0822509        0.0840666       -0.3140369
%ENDBLOCK POSITIONS_FRAC

KPOINTS_MP_SPACING 0.07

%BLOCK SPECIES_POT
QC5
%ENDBLOCK SPECIES_POT

SNAP_TO_SYMMETRY
SYMMETRY_GENERATE

