#              Generated by Buildcell
#
# at 17:01:58 (GMT+1.0) 26th March 2023
# in /scratch/scratch/uccabz1/launch_tmp_michael
# on node-a14a-003
# by uccabz1
#
# compiler GCC version 4.9.2
# options -cpp -iprefix /scratch/UCL/applications/gcc/4.9.2/bin/../lib/gcc/x86_64-unknown-linux-gnu/4.9.2/ -mtune=corei7 -march=x86-64 -g -Og
#
# seed -1076212982 -1665064980 -1357630895  -932252462   381277873 -1101101506   900486242 -1819288722   103279310  1549830260     2190719  1342382390
#
#      Author: C. J. Pickard (cjp20@cam.ac.uk)
#                Space group: Pm
#

%BLOCK LATTICE_ABC
      3.21897      7.00236      8.24020
     90.00000     99.12072     90.00000
%ENDBLOCK LATTICE_ABC

%BLOCK POSITIONS_FRAC
  Li        0.2330458       -0.1785110        0.2026430
  Li        0.2330458        0.1785110        0.2026430
  Li       -0.4641824       -0.1786018       -0.0690284
  Li       -0.4641824        0.1786018       -0.0690284
  Li        0.1344299       -0.3207867       -0.3252400
  Li        0.1344299        0.3207867       -0.3252400
   N       -0.1006846       -0.3658968        0.0440438
   N       -0.1006846        0.3658968        0.0440438
   N       -0.3097847        0.3471227        0.4917751
   N       -0.3097847       -0.3471227        0.4917751
   N        0.1139300       -0.3928745       -0.1035194
   N        0.1139300        0.3928745       -0.1035194
   N        0.3476160        0.3928540        0.3440370
   N        0.3476160       -0.3928540        0.3440370
   N       -0.4137790       -0.3928934        0.1868178
   N       -0.4137790        0.3928934        0.1868178
   N        0.1367867        0.2544080        0.4437751
   N        0.1367867       -0.2544080        0.4437751
%ENDBLOCK POSITIONS_FRAC

KPOINTS_MP_SPACING 0.07

%BLOCK SPECIES_POT
QC5
%ENDBLOCK SPECIES_POT

SNAP_TO_SYMMETRY
SYMMETRY_GENERATE

