#              Generated by Buildcell
#
# at 16:20:11 (GMT+1.0) 26th March 2023
# in /scratch/scratch/uccabz1/launch_tmp_michael
# on node-a14c-005
# by uccabz1
#
# compiler GCC version 4.9.2
# options -cpp -iprefix /scratch/UCL/applications/gcc/4.9.2/bin/../lib/gcc/x86_64-unknown-linux-gnu/4.9.2/ -mtune=corei7 -march=x86-64 -g -Og
#
# seed -1090371903  -292305626  2024504224  1199302142  1675609521   587677870  2016946337 -2043820306  -301964718   663393907 -1581824938  1930101411
#
#      Author: C. J. Pickard (cjp20@cam.ac.uk)
#                Space group: Pmc21
#

%BLOCK LATTICE_ABC
      4.53971      5.02656      5.34368
     90.00000     90.00000     90.00000
%ENDBLOCK LATTICE_ABC

%BLOCK POSITIONS_FRAC
  Li       -0.2119049       -0.2493317       -0.2248024
  Li        0.2119049        0.2493317        0.2751976
  Li        0.2119049       -0.2493317        0.2751976
  Li       -0.2119049        0.2493317       -0.2248024
   N        0.3633427        0.3364179       -0.1772692
   N       -0.3633427       -0.3364179        0.3227308
   N       -0.3633427        0.3364179        0.3227308
   N        0.3633427       -0.3364179       -0.1772692
   N        0.4995783        0.1506319       -0.4666631
   N       -0.4995783       -0.1506319        0.0333369
   N       -0.4995783        0.1506319        0.0333369
   N        0.4995783       -0.1506319       -0.4666631
%ENDBLOCK POSITIONS_FRAC

KPOINTS_MP_SPACING 0.07

%BLOCK SPECIES_POT
QC5
%ENDBLOCK SPECIES_POT

SNAP_TO_SYMMETRY
SYMMETRY_GENERATE

