#              Generated by Buildcell
#
# at 16:21:13 (GMT+1.0) 26th March 2023
# in /scratch/scratch/uccabz1/launch_tmp_michael
# on node-a14e-021
# by uccabz1
#
# compiler GCC version 4.9.2
# options -cpp -iprefix /scratch/UCL/applications/gcc/4.9.2/bin/../lib/gcc/x86_64-unknown-linux-gnu/4.9.2/ -mtune=corei7 -march=x86-64 -g -Og
#
# seed  2017272460  2064005214  -421343396  1551706631 -1632283423  2075838963  1615156525  1834068972  1078829882  1467764197   337299132 -1977351052
#
#      Author: C. J. Pickard (cjp20@cam.ac.uk)
#                Space group: P32
#

%BLOCK LATTICE_ABC
      3.81727      3.81727      7.00754
     90.00000     90.00000    120.00000
%ENDBLOCK LATTICE_ABC

%BLOCK POSITIONS_FRAC
  Li       -0.2147435       -0.2310618       -0.4355545
  Li        0.2310618        0.0163183        0.2311121
  Li       -0.0163183        0.2147435       -0.1022212
   N        0.1550712       -0.1547119       -0.0279811
   N        0.1547119        0.3097830       -0.3613144
   N       -0.3097830       -0.1550712        0.3053523
   N        0.2464094       -0.2148507       -0.3230334
   N        0.2148507        0.4612601        0.3436333
   N       -0.4612601       -0.2464094        0.0103000
%ENDBLOCK POSITIONS_FRAC

KPOINTS_MP_SPACING 0.07

%BLOCK SPECIES_POT
QC5
%ENDBLOCK SPECIES_POT

SNAP_TO_SYMMETRY
SYMMETRY_GENERATE

