#              Generated by Buildcell
#
# at 18:21:56 (GMT+1.0) 26th March 2023
# in /scratch/scratch/uccabz1/launch_tmp_michael
# on node-a14e-021
# by uccabz1
#
# compiler GCC version 4.9.2
# options -cpp -iprefix /scratch/UCL/applications/gcc/4.9.2/bin/../lib/gcc/x86_64-unknown-linux-gnu/4.9.2/ -mtune=corei7 -march=x86-64 -g -Og
#
# seed  -411622798  1787252215  1826706658  1275819496  1368416162 -1454629215  -497426380  -934003142 -1942402398   -34153951  1976955676  1226379342
#
#      Author: C. J. Pickard (cjp20@cam.ac.uk)
#                Space group: R3
#

%BLOCK LATTICE_ABC
      5.16538      5.16538      6.08980
     64.90624     64.90624     60.00000
%ENDBLOCK LATTICE_ABC

%BLOCK POSITIONS_FRAC
  Li        0.3557830       -0.2011592       -0.1918217
  Li       -0.2011592        0.0371978       -0.1918217
  Li        0.0371978        0.3557830       -0.1918217
  Li       -0.1199637       -0.1199637        0.3598910
   N       -0.4434065        0.4814015        0.1246713
   N        0.4814015       -0.1626662        0.1246713
   N       -0.1626662       -0.4434065        0.1246713
   N        0.1676396       -0.4949578       -0.0263072
   N       -0.4949578        0.3536255       -0.0263072
   N        0.3536255        0.1676396       -0.0263072
   N        0.2590431        0.2590431        0.2228707
   N        0.1478133        0.1478133       -0.4434399
%ENDBLOCK POSITIONS_FRAC

KPOINTS_MP_SPACING 0.07

%BLOCK SPECIES_POT
QC5
%ENDBLOCK SPECIES_POT

SNAP_TO_SYMMETRY
SYMMETRY_GENERATE

