#              Generated by Buildcell
#
# at 16:22:02 (GMT+1.0) 26th March 2023
# in /scratch/scratch/uccabz1/launch_tmp_michael
# on node-a14a-019
# by uccabz1
#
# compiler GCC version 4.9.2
# options -cpp -iprefix /scratch/UCL/applications/gcc/4.9.2/bin/../lib/gcc/x86_64-unknown-linux-gnu/4.9.2/ -mtune=corei7 -march=x86-64 -g -Og
#
# seed  1021849342 -1822536753  1769790583  -219323116   156618520  -601499903  -659237857 -1568402925  -908454619  1309043260   813162511  -105264395
#
#      Author: C. J. Pickard (cjp20@cam.ac.uk)
#                Space group: P2
#

%BLOCK LATTICE_ABC
      3.17507      3.92476      9.65828
     90.60708     90.00000     90.00000
%ENDBLOCK LATTICE_ABC

%BLOCK POSITIONS_FRAC
  Li        0.3205172       -0.2519939        0.4197570
  Li        0.3205172        0.2519939       -0.4197570
  Li        0.1961137       -0.2738223       -0.2225463
  Li        0.1961137        0.2738223        0.2225463
   N       -0.1795806       -0.0845418        0.3364362
   N       -0.1795806        0.0845418       -0.3364362
   N        0.3719725       -0.1740448        0.0762863
   N        0.3719725        0.1740448       -0.0762863
   N        0.4089912        0.2737177       -0.2252965
   N        0.4089912       -0.2737177        0.2252965
   N       -0.0514294       -0.3721476       -0.3975582
   N       -0.0514294        0.3721476        0.3975582
%ENDBLOCK POSITIONS_FRAC

KPOINTS_MP_SPACING 0.07

%BLOCK SPECIES_POT
QC5
%ENDBLOCK SPECIES_POT

SNAP_TO_SYMMETRY
SYMMETRY_GENERATE

