#              Generated by Buildcell
#
# at 19:50:48 (GMT+1.0) 26th March 2023
# in /scratch/scratch/uccabz1/launch_tmp_michael
# on node-a14b-022
# by uccabz1
#
# compiler GCC version 4.9.2
# options -cpp -iprefix /scratch/UCL/applications/gcc/4.9.2/bin/../lib/gcc/x86_64-unknown-linux-gnu/4.9.2/ -mtune=corei7 -march=x86-64 -g -Og
#
# seed -1270975829  -328459172  1044550376  -981006497  -402411941  1406180501  1663219751  -607050056 -1662083863  1573119009 -1517313587   -76407628
#
#      Author: C. J. Pickard (cjp20@cam.ac.uk)
#                Space group: Pm
#

%BLOCK LATTICE_ABC
      3.22852      4.11781      9.92858
     90.00000     90.00000    109.50624
%ENDBLOCK LATTICE_ABC

%BLOCK POSITIONS_FRAC
  Li       -0.1757425        0.1447590        0.1563451
  Li       -0.1757425        0.1447590       -0.1563451
  Li        0.1208324        0.4342698        0.3741009
  Li        0.1208324        0.4342698       -0.3741009
   N       -0.0057517       -0.2143123        0.0794642
   N       -0.0057517       -0.2143123       -0.0794642
   N        0.3901596        0.2995010        0.0755549
   N        0.3901596        0.2995010       -0.0755549
   N       -0.4533375       -0.3399809        0.1695486
   N       -0.4533375       -0.3399809       -0.1695486
   N       -0.4743201        0.2132037       -0.3177310
   N       -0.4743201        0.2132037        0.3177310
%ENDBLOCK POSITIONS_FRAC

KPOINTS_MP_SPACING 0.07

%BLOCK SPECIES_POT
QC5
%ENDBLOCK SPECIES_POT

SNAP_TO_SYMMETRY
SYMMETRY_GENERATE

