#              Generated by Buildcell
#
# at 17:23:13 (GMT+1.0) 26th March 2023
# in /scratch/scratch/uccabz1/launch_tmp_michael
# on node-a14e-021
# by uccabz1
#
# compiler GCC version 4.9.2
# options -cpp -iprefix /scratch/UCL/applications/gcc/4.9.2/bin/../lib/gcc/x86_64-unknown-linux-gnu/4.9.2/ -mtune=corei7 -march=x86-64 -g -Og
#
# seed  -749519994   -45570550 -1916093135   842540152  -498037964 -1969675107  1961782923   202304182   383816442  1839535520  1505002646  -822878353
#
#      Author: C. J. Pickard (cjp20@cam.ac.uk)
#                Space group: C2/m
#

%BLOCK LATTICE_ABC
      3.84134      4.63599      5.26216
     94.96568    111.40735     90.00000
%ENDBLOCK LATTICE_ABC

%BLOCK POSITIONS_FRAC
  Li        0.2664740        0.1761256       -0.4670520
  Li       -0.2664740       -0.1761256        0.4670520
  Li       -0.5000000        0.0000000        0.0000000
   N        0.2523528       -0.3702198       -0.0806750
   N        0.3330278        0.3702198        0.0806750
   N       -0.2523528        0.3702198        0.0806750
   N       -0.3330278       -0.3702198       -0.0806750
   N        0.3293771       -0.3916338       -0.3412458
   N       -0.3293771        0.3916338        0.3412458
%ENDBLOCK POSITIONS_FRAC

KPOINTS_MP_SPACING 0.07

%BLOCK SPECIES_POT
QC5
%ENDBLOCK SPECIES_POT

SNAP_TO_SYMMETRY
SYMMETRY_GENERATE

