#              Generated by Buildcell
#
# at 16:43:51 (GMT+1.0) 26th March 2023
# in /scratch/scratch/uccabz1/launch_tmp_michael
# on node-a14e-007
# by uccabz1
#
# compiler GCC version 4.9.2
# options -cpp -iprefix /scratch/UCL/applications/gcc/4.9.2/bin/../lib/gcc/x86_64-unknown-linux-gnu/4.9.2/ -mtune=corei7 -march=x86-64 -g -Og
#
# seed  1206538778 -1431832887  1250119977 -1801558969 -1001424093  1308132686   561743835  1443758298   178025217 -1933264970  -862157824 -1525139775
#
#      Author: C. J. Pickard (cjp20@cam.ac.uk)
#                Space group: R3
#

%BLOCK LATTICE_ABC
      4.94067      4.94067      4.94067
     96.20928     96.20928     96.20928
%ENDBLOCK LATTICE_ABC

%BLOCK POSITIONS_FRAC
  Li        0.3368760        0.4276637        0.0102656
  Li        0.0102656        0.3368760        0.4276637
  Li        0.4276637        0.0102656        0.3368760
  Li       -0.3586942       -0.3586942       -0.3586942
   N       -0.1223195       -0.0344416        0.4510534
   N        0.4510534       -0.1223195       -0.0344416
   N       -0.0344416        0.4510534       -0.1223195
   N        0.0522162       -0.1563173        0.2511033
   N        0.2511033        0.0522162       -0.1563173
   N       -0.1563173        0.2511033        0.0522162
   N        0.0401121        0.0401121        0.0401121
   N        0.3904959        0.3904959        0.3904959
%ENDBLOCK POSITIONS_FRAC

KPOINTS_MP_SPACING 0.07

%BLOCK SPECIES_POT
QC5
%ENDBLOCK SPECIES_POT

SNAP_TO_SYMMETRY
SYMMETRY_GENERATE

