#              Generated by Buildcell
#
# at 19:09:10 (GMT+1.0) 26th March 2023
# in /scratch/scratch/uccabz1/launch_tmp_michael
# on node-a14f-035
# by uccabz1
#
# compiler GCC version 4.9.2
# options -cpp -iprefix /scratch/UCL/applications/gcc/4.9.2/bin/../lib/gcc/x86_64-unknown-linux-gnu/4.9.2/ -mtune=corei7 -march=x86-64 -g -Og
#
# seed  -934916463  1333600300   627056955 -1429161303  -617278845  -103550274 -1015341820  1631809272  1551706631 -1630613859  -416754168   -89354410
#
#      Author: C. J. Pickard (cjp20@cam.ac.uk)
#                Space group: R3
#

%BLOCK LATTICE_ABC
      5.25308      5.25308      5.25308
     68.80221     68.80221     68.80221
%ENDBLOCK LATTICE_ABC

%BLOCK POSITIONS_FRAC
  Li        0.2499684        0.3253298       -0.2958452
  Li        0.3253298       -0.2958452        0.2499684
  Li       -0.2958452        0.2499684        0.3253298
  Li        0.2556574        0.2556574        0.2556574
   N       -0.0239225       -0.3740137        0.4881851
   N       -0.3740137        0.4881851       -0.0239225
   N        0.4881851       -0.0239225       -0.3740137
   N        0.4841454        0.0117496        0.0172897
   N        0.0117496        0.0172897        0.4841454
   N        0.0172897        0.4841454        0.0117496
   N       -0.3445090       -0.3445090       -0.3445090
   N       -0.4701237       -0.4701237       -0.4701237
%ENDBLOCK POSITIONS_FRAC

KPOINTS_MP_SPACING 0.07

%BLOCK SPECIES_POT
QC5
%ENDBLOCK SPECIES_POT

SNAP_TO_SYMMETRY
SYMMETRY_GENERATE

