#              Generated by Buildcell
#
# at 14:55:00 (GMT+1.0) 26th March 2023
# in /scratch/scratch/uccabz1/launch_tmp_michael
# on node-a14b-031
# by uccabz1
#
# compiler GCC version 4.9.2
# options -cpp -iprefix /scratch/UCL/applications/gcc/4.9.2/bin/../lib/gcc/x86_64-unknown-linux-gnu/4.9.2/ -mtune=corei7 -march=x86-64 -g -Og
#
# seed  1498826804  -696561095 -1656178368  1809493510   488716810  -306683670 -1705768958 -1001276941     3724922    96539249 -1305705844  -343978402
#
#      Author: C. J. Pickard (cjp20@cam.ac.uk)
#                Space group: R3
#

%BLOCK LATTICE_ABC
      6.34172      6.34172      6.34172
     61.80825     61.80825     61.80825
%ENDBLOCK LATTICE_ABC

%BLOCK POSITIONS_FRAC
  Li        0.4857190        0.0178737        0.4389551
  Li        0.4389551        0.4857190        0.0178737
  Li        0.0178737        0.4389551        0.4857190
  Li        0.3108427       -0.1343734        0.2766820
  Li        0.2766820        0.3108427       -0.1343734
  Li       -0.1343734        0.2766820        0.3108427
   N        0.4880527        0.1038099        0.0973085
   N        0.0973085        0.4880527        0.1038099
   N        0.1038099        0.0973085        0.4880527
   N       -0.4154721        0.4271905       -0.2969017
   N       -0.2969017       -0.4154721        0.4271905
   N        0.4271905       -0.2969017       -0.4154721
   N        0.0050063       -0.1239742       -0.2608508
   N       -0.2608508        0.0050063       -0.1239742
   N       -0.1239742       -0.2608508        0.0050063
   N        0.3296152        0.3054727       -0.4529933
   N       -0.4529933        0.3296152        0.3054727
   N        0.3054727       -0.4529933        0.3296152
%ENDBLOCK POSITIONS_FRAC

KPOINTS_MP_SPACING 0.07

%BLOCK SPECIES_POT
QC5
%ENDBLOCK SPECIES_POT

SNAP_TO_SYMMETRY
SYMMETRY_GENERATE

