#              Generated by Buildcell
#
# at 19:22:37 (GMT+1.0) 26th March 2023
# in /scratch/scratch/uccabz1/launch_tmp_michael
# on node-a14c-005
# by uccabz1
#
# compiler GCC version 4.9.2
# options -cpp -iprefix /scratch/UCL/applications/gcc/4.9.2/bin/../lib/gcc/x86_64-unknown-linux-gnu/4.9.2/ -mtune=corei7 -march=x86-64 -g -Og
#
# seed  1916564205    46097776 -2059934870  -256986563  -118285297 -1382786832 -1807520581  -592038066   633130929  -501427363  1903230322  1655529841
#
#      Author: C. J. Pickard (cjp20@cam.ac.uk)
#                Space group: Aea2
#

%BLOCK LATTICE_ABC
      2.99480      4.50364      4.50364
    106.29445     90.00000     90.00000
%ENDBLOCK LATTICE_ABC

%BLOCK POSITIONS_FRAC
  Li       -0.5000000       -0.0020961        0.0020961
  Li        0.0000000        0.4979039       -0.4979039
   N        0.2412607       -0.2213157        0.2957812
   N       -0.2412607       -0.2957812        0.2213157
   N       -0.2587393        0.2042188       -0.2786843
   N        0.2587393        0.2786843       -0.2042188
%ENDBLOCK POSITIONS_FRAC

KPOINTS_MP_SPACING 0.07

%BLOCK SPECIES_POT
QC5
%ENDBLOCK SPECIES_POT

SNAP_TO_SYMMETRY
SYMMETRY_GENERATE

