#              Generated by Buildcell
#
# at 20:20:45 (GMT+1.0) 26th March 2023
# in /scratch/scratch/uccabz1/launch_tmp_michael
# on node-a14e-021
# by uccabz1
#
# compiler GCC version 4.9.2
# options -cpp -iprefix /scratch/UCL/applications/gcc/4.9.2/bin/../lib/gcc/x86_64-unknown-linux-gnu/4.9.2/ -mtune=corei7 -march=x86-64 -g -Og
#
# seed   414828086 -1784713921  1947573313  1503561263  1443524697  1100812401  -699105560   351583479   -27695769   587911267  -182260441   685924447
#
#      Author: C. J. Pickard (cjp20@cam.ac.uk)
#                Space group: C2
#

%BLOCK LATTICE_ABC
      3.36844      3.94415      5.03911
     89.77603     89.47550     64.72156
%ENDBLOCK LATTICE_ABC

%BLOCK POSITIONS_FRAC
  Li        0.3239513        0.4216524       -0.2532450
  Li        0.2543963        0.4216524        0.2532450
   N       -0.3424865       -0.3816981        0.1479492
   N       -0.2758154       -0.3816981       -0.1479492
   N        0.3673564       -0.0897706        0.3405994
   N       -0.2775858       -0.0897706       -0.3405994
%ENDBLOCK POSITIONS_FRAC

KPOINTS_MP_SPACING 0.07

%BLOCK SPECIES_POT
QC5
%ENDBLOCK SPECIES_POT

SNAP_TO_SYMMETRY
SYMMETRY_GENERATE

