#              Generated by Buildcell
#
# at 17:57:06 (GMT+1.0) 26th March 2023
# in /scratch/scratch/uccabz1/launch_tmp_michael
# on node-a14c-005
# by uccabz1
#
# compiler GCC version 4.9.2
# options -cpp -iprefix /scratch/UCL/applications/gcc/4.9.2/bin/../lib/gcc/x86_64-unknown-linux-gnu/4.9.2/ -mtune=corei7 -march=x86-64 -g -Og
#
# seed   739361144 -1643857972 -2078885002  -716028341   442599895  2022342291  1843476088    55154832 -2098772143   135309861   765617064 -1500278245
#
#      Author: C. J. Pickard (cjp20@cam.ac.uk)
#                Space group: R3
#

%BLOCK LATTICE_ABC
      5.02931      5.02931      5.02931
     74.05907     74.05907     74.05907
%ENDBLOCK LATTICE_ABC

%BLOCK POSITIONS_FRAC
  Li        0.4319364        0.2061032       -0.1961596
  Li        0.2061032       -0.1961596        0.4319364
  Li       -0.1961596        0.4319364        0.2061032
  Li       -0.0057508       -0.0057508       -0.0057508
   N       -0.2314506        0.3986499       -0.4007927
   N        0.3986499       -0.4007927       -0.2314506
   N       -0.4007927       -0.2314506        0.3986499
   N        0.0323740        0.4448740       -0.3485895
   N        0.4448740       -0.3485895        0.0323740
   N       -0.3485895        0.0323740        0.4448740
   N       -0.3193271       -0.3193271       -0.3193271
   N       -0.1809845       -0.1809845       -0.1809845
%ENDBLOCK POSITIONS_FRAC

KPOINTS_MP_SPACING 0.07

%BLOCK SPECIES_POT
QC5
%ENDBLOCK SPECIES_POT

SNAP_TO_SYMMETRY
SYMMETRY_GENERATE

