#              Generated by Buildcell
#
# at 20:07:28 (GMT+1.0) 26th March 2023
# in /scratch/scratch/uccabz1/launch_tmp_michael
# on node-a14e-007
# by uccabz1
#
# compiler GCC version 4.9.2
# options -cpp -iprefix /scratch/UCL/applications/gcc/4.9.2/bin/../lib/gcc/x86_64-unknown-linux-gnu/4.9.2/ -mtune=corei7 -march=x86-64 -g -Og
#
# seed -1145278669   432228411  -780031823  1040888460 -1053688024  1012960720 -1948599244 -1330039014  1387512199   341881745  -735357592   932622432
#
#      Author: C. J. Pickard (cjp20@cam.ac.uk)
#                Space group: P-1
#

%BLOCK LATTICE_ABC
      4.08929      4.26924      7.11357
     86.08027     82.67221     76.06882
%ENDBLOCK LATTICE_ABC

%BLOCK POSITIONS_FRAC
  Li        0.1100509       -0.3377348       -0.2313967
  Li       -0.1100509        0.3377348        0.2313967
  Li       -0.1334533        0.2968247       -0.4047573
  Li        0.1334533       -0.2968247        0.4047573
   N        0.4167243        0.3594015        0.2615852
   N       -0.4167243       -0.3594015       -0.2615852
   N        0.3934841        0.4075405       -0.4254166
   N       -0.3934841       -0.4075405        0.4254166
   N        0.3053057        0.0358131        0.2648482
   N       -0.3053057       -0.0358131       -0.2648482
   N       -0.0655613       -0.3362291        0.0407893
   N        0.0655613        0.3362291       -0.0407893
%ENDBLOCK POSITIONS_FRAC

KPOINTS_MP_SPACING 0.07

%BLOCK SPECIES_POT
QC5
%ENDBLOCK SPECIES_POT

SNAP_TO_SYMMETRY
SYMMETRY_GENERATE

