#              Generated by Buildcell
#
# at 20:23:55 (GMT+1.0) 26th March 2023
# in /scratch/scratch/uccabz1/launch_tmp_michael
# on node-a14a-001
# by uccabz1
#
# compiler GCC version 4.9.2
# options -cpp -iprefix /scratch/UCL/applications/gcc/4.9.2/bin/../lib/gcc/x86_64-unknown-linux-gnu/4.9.2/ -mtune=corei7 -march=x86-64 -g -Og
#
# seed  1559454078  -872502088   549590950 -2109564610    18954286  1151741248 -1654985870 -1234696151  1803141022  -478747464  -330470496  1124008802
#
#      Author: C. J. Pickard (cjp20@cam.ac.uk)
#                Space group: P31
#

%BLOCK LATTICE_ABC
      3.38134      3.38134      9.21834
     90.00000     90.00000    120.00000
%ENDBLOCK LATTICE_ABC

%BLOCK POSITIONS_FRAC
  Li        0.3157123       -0.0640288       -0.4276865
  Li       -0.3797411       -0.3157123        0.2389802
  Li        0.0640288        0.3797411       -0.0943532
   N       -0.1900318       -0.0893199        0.0478729
   N        0.1007119        0.1900318       -0.2854604
   N        0.0893199       -0.1007119        0.3812062
   N        0.1115404        0.4153964        0.1111588
   N        0.3038560       -0.1115404       -0.2221745
   N       -0.4153964       -0.3038560        0.4444921
%ENDBLOCK POSITIONS_FRAC

KPOINTS_MP_SPACING 0.07

%BLOCK SPECIES_POT
QC5
%ENDBLOCK SPECIES_POT

SNAP_TO_SYMMETRY
SYMMETRY_GENERATE

