#              Generated by Buildcell
#
# at 17:41:07 (GMT+1.0) 26th March 2023
# in /scratch/scratch/uccabz1/launch_tmp_michael
# on node-a14b-028
# by uccabz1
#
# compiler GCC version 4.9.2
# options -cpp -iprefix /scratch/UCL/applications/gcc/4.9.2/bin/../lib/gcc/x86_64-unknown-linux-gnu/4.9.2/ -mtune=corei7 -march=x86-64 -g -Og
#
# seed   -43511464  1713611763  -638247760   868068052  -174691866   600980318  -744277764   465913467 -1768735033 -1757397204 -1641283465   -42146501
#
#      Author: C. J. Pickard (cjp20@cam.ac.uk)
#                Space group: Pmn21
#

%BLOCK LATTICE_ABC
      4.40778      5.42205      7.72462
     90.00000     90.00000     90.00000
%ENDBLOCK LATTICE_ABC

%BLOCK POSITIONS_FRAC
  Li       -0.4540623       -0.2694601        0.0751608
  Li        0.0459377       -0.2305399       -0.0751608
  Li        0.0459377        0.2305399       -0.0751608
  Li       -0.4540623        0.2694601        0.0751608
  Li       -0.1771867       -0.0000000       -0.3768973
  Li        0.3228133        0.5000000        0.3768973
   N        0.1641590        0.3610691        0.1695373
   N       -0.3358410        0.1389309       -0.1695373
   N       -0.3358410       -0.1389309       -0.1695373
   N        0.1641590       -0.3610691        0.1695373
   N        0.3094450        0.3616760       -0.2466794
   N       -0.1905550        0.1383240        0.2466794
   N       -0.1905550       -0.1383240        0.2466794
   N        0.3094450       -0.3616760       -0.2466794
   N       -0.3030887        0.3405728        0.4262128
   N        0.1969113        0.1594272       -0.4262128
   N        0.1969113       -0.1594272       -0.4262128
   N       -0.3030887       -0.3405728        0.4262128
%ENDBLOCK POSITIONS_FRAC

KPOINTS_MP_SPACING 0.07

%BLOCK SPECIES_POT
QC5
%ENDBLOCK SPECIES_POT

SNAP_TO_SYMMETRY
SYMMETRY_GENERATE

