#              Generated by Buildcell
#
# at 16:01:20 (GMT+1.0) 26th March 2023
# in /scratch/scratch/uccabz1/launch_tmp_michael
# on node-a14a-001
# by uccabz1
#
# compiler GCC version 4.9.2
# options -cpp -iprefix /scratch/UCL/applications/gcc/4.9.2/bin/../lib/gcc/x86_64-unknown-linux-gnu/4.9.2/ -mtune=corei7 -march=x86-64 -g -Og
#
# seed   932362257   786097628   563609025 -1801103249  1481080755  -121645897  -970141385  -256479207  -837168340 -2097106790    17906914  2007491113
#
#      Author: C. J. Pickard (cjp20@cam.ac.uk)
#                Space group: Pnc2
#

%BLOCK LATTICE_ABC
      2.59007      7.99159      8.54796
     90.00000     90.00000     90.00000
%ENDBLOCK LATTICE_ABC

%BLOCK POSITIONS_FRAC
  Li       -0.4296338        0.1548449        0.1946779
  Li        0.4296338       -0.1548449        0.1946779
  Li       -0.0703662        0.1548449       -0.3053221
  Li        0.0703662       -0.1548449       -0.3053221
  Li       -0.0000000       -0.5000000        0.0217098
  Li        0.5000000       -0.5000000       -0.4782902
   N        0.4207482        0.0915247       -0.4594565
   N       -0.4207482       -0.0915247       -0.4594565
   N        0.0792518        0.0915247        0.0405435
   N       -0.0792518       -0.0915247        0.0405435
   N       -0.0949677        0.0887148        0.4443466
   N        0.0949677       -0.0887148        0.4443466
   N       -0.4050323        0.0887148       -0.0556534
   N        0.4050323       -0.0887148       -0.0556534
   N        0.1153192        0.2827253        0.3215686
   N       -0.1153192       -0.2827253        0.3215686
   N        0.3846808        0.2827253       -0.1784314
   N       -0.3846808       -0.2827253       -0.1784314
%ENDBLOCK POSITIONS_FRAC

KPOINTS_MP_SPACING 0.07

%BLOCK SPECIES_POT
QC5
%ENDBLOCK SPECIES_POT

SNAP_TO_SYMMETRY
SYMMETRY_GENERATE

