#              Generated by Buildcell
#
# at 20:24:26 (GMT+1.0) 26th March 2023
# in /scratch/scratch/uccabz1/launch_tmp_michael
# on node-a14b-031
# by uccabz1
#
# compiler GCC version 4.9.2
# options -cpp -iprefix /scratch/UCL/applications/gcc/4.9.2/bin/../lib/gcc/x86_64-unknown-linux-gnu/4.9.2/ -mtune=corei7 -march=x86-64 -g -Og
#
# seed   375149860 -2075435113  -639219419  -119936092   -17287476  -142311352  -449893916  -123916077 -1392671460  -435475477 -1982876089  1031191928
#
#      Author: C. J. Pickard (cjp20@cam.ac.uk)
#                Space group: Pma2
#

%BLOCK LATTICE_ABC
      2.84392      6.47741     10.18054
     90.00000     90.00000     90.00000
%ENDBLOCK LATTICE_ABC

%BLOCK POSITIONS_FRAC
  Li        0.0166656       -0.4476849       -0.3308942
  Li        0.0166656        0.4476849        0.3308942
  Li        0.0166656        0.0523151        0.3308942
  Li        0.0166656       -0.0523151       -0.3308942
  Li       -0.2781987        0.2500000       -0.4594238
  Li       -0.2781987       -0.2500000        0.4594238
   N       -0.3220077       -0.0804878        0.0968463
   N       -0.3220077        0.0804878       -0.0968463
   N       -0.3220077        0.4195122       -0.0968463
   N       -0.3220077       -0.4195122        0.0968463
   N        0.2769892        0.1170289       -0.0040017
   N        0.2769892       -0.1170289        0.0040017
   N        0.2769892       -0.3829711        0.0040017
   N        0.2769892        0.3829711       -0.0040017
   N        0.2972321       -0.4567279       -0.1616160
   N        0.2972321        0.4567279        0.1616160
   N        0.2972321        0.0432721        0.1616160
   N        0.2972321       -0.0432721       -0.1616160
%ENDBLOCK POSITIONS_FRAC

KPOINTS_MP_SPACING 0.07

%BLOCK SPECIES_POT
QC5
%ENDBLOCK SPECIES_POT

SNAP_TO_SYMMETRY
SYMMETRY_GENERATE

