#              Generated by Buildcell
#
# at 19:29:30 (GMT+1.0) 26th March 2023
# in /scratch/scratch/uccabz1/launch_tmp_michael
# on node-a14a-003
# by uccabz1
#
# compiler GCC version 4.9.2
# options -cpp -iprefix /scratch/UCL/applications/gcc/4.9.2/bin/../lib/gcc/x86_64-unknown-linux-gnu/4.9.2/ -mtune=corei7 -march=x86-64 -g -Og
#
# seed  1596523186   570514745  1303488076    78457099 -2130961427 -2036393866 -1450052098  1584475268  -407500578  1483777009 -1575972380   785872026
#
#      Author: C. J. Pickard (cjp20@cam.ac.uk)
#                Space group: C2
#

%BLOCK LATTICE_ABC
      3.66139      3.83469      4.85910
    102.62612    112.13293     90.00000
%ENDBLOCK LATTICE_ABC

%BLOCK POSITIONS_FRAC
  Li       -0.1054806       -0.3473327       -0.3286202
  Li        0.2231396        0.3473327        0.3286202
   N       -0.4149775        0.0314036       -0.4603074
   N        0.0453299       -0.0314036        0.4603074
   N        0.3851540       -0.1138859       -0.2696729
   N       -0.3451732        0.1138859        0.2696729
%ENDBLOCK POSITIONS_FRAC

KPOINTS_MP_SPACING 0.07

%BLOCK SPECIES_POT
QC5
%ENDBLOCK SPECIES_POT

SNAP_TO_SYMMETRY
SYMMETRY_GENERATE

