#              Generated by Buildcell
#
# at 16:38:10 (GMT+1.0) 26th March 2023
# in /scratch/scratch/uccabz1/launch_tmp_michael
# on node-a14a-019
# by uccabz1
#
# compiler GCC version 4.9.2
# options -cpp -iprefix /scratch/UCL/applications/gcc/4.9.2/bin/../lib/gcc/x86_64-unknown-linux-gnu/4.9.2/ -mtune=corei7 -march=x86-64 -g -Og
#
# seed -1883984490  -768512640  -112320753  -620655987  2004370009  -294279067  -570302827  1417645442  -565563319  -387447939  1601356290  -629436490
#
#      Author: C. J. Pickard (cjp20@cam.ac.uk)
#                Space group: P32
#

%BLOCK LATTICE_ABC
      3.30989      3.30989      9.26157
     90.00000     90.00000    120.00000
%ENDBLOCK LATTICE_ABC

%BLOCK POSITIONS_FRAC
  Li        0.4720775        0.3823618       -0.1997054
  Li       -0.0897157       -0.4720775        0.4669613
  Li       -0.3823618        0.0897157        0.1336279
   N        0.0462612        0.2643746       -0.3693324
   N        0.2181133       -0.0462612        0.2973343
   N       -0.2643746       -0.2181133       -0.0359991
   N        0.2352671        0.4113476        0.3185607
   N        0.1760805       -0.2352671       -0.0147726
   N       -0.4113476       -0.1760805       -0.3481059
%ENDBLOCK POSITIONS_FRAC

KPOINTS_MP_SPACING 0.07

%BLOCK SPECIES_POT
QC5
%ENDBLOCK SPECIES_POT

SNAP_TO_SYMMETRY
SYMMETRY_GENERATE

