#              Generated by Buildcell
#
# at 16:48:56 (GMT+1.0) 26th March 2023
# in /scratch/scratch/uccabz1/launch_tmp_michael
# on node-a14e-007
# by uccabz1
#
# compiler GCC version 4.9.2
# options -cpp -iprefix /scratch/UCL/applications/gcc/4.9.2/bin/../lib/gcc/x86_64-unknown-linux-gnu/4.9.2/ -mtune=corei7 -march=x86-64 -g -Og
#
# seed  -443666828  -280452124 -1501412849   522492756  2092831605 -1186077728 -1607102356  1908987998   690211303  1157548416   454110749  2054223729
#
#      Author: C. J. Pickard (cjp20@cam.ac.uk)
#                Space group: C2
#

%BLOCK LATTICE_ABC
      3.77273      7.13803      7.13803
     65.33311     83.32179     83.32179
%ENDBLOCK LATTICE_ABC

%BLOCK POSITIONS_FRAC
  Li        0.1501259        0.1714343       -0.4954183
  Li       -0.1501259        0.4954183       -0.1714343
  Li       -0.4739310       -0.0144269       -0.1956115
  Li        0.4739310        0.1956115        0.0144269
  Li       -0.3028132       -0.1635587       -0.4590703
  Li        0.3028132        0.4590703        0.1635587
   N        0.3299737       -0.2019829        0.3816769
   N       -0.3299737       -0.3816769        0.2019829
   N       -0.3057288        0.4647234       -0.4063972
   N        0.3057288        0.4063972       -0.4647234
   N        0.0704435       -0.0140644        0.1248574
   N       -0.0704435       -0.1248574        0.0140644
   N        0.2024030        0.3036530       -0.2362446
   N       -0.2024030        0.2362446       -0.3036530
   N       -0.1919207        0.4447729        0.3915575
   N        0.1919207       -0.3915575       -0.4447729
   N        0.3368353       -0.4470273       -0.1977818
   N       -0.3368353        0.1977818        0.4470273
%ENDBLOCK POSITIONS_FRAC

KPOINTS_MP_SPACING 0.07

%BLOCK SPECIES_POT
QC5
%ENDBLOCK SPECIES_POT

SNAP_TO_SYMMETRY
SYMMETRY_GENERATE

