#              Generated by Buildcell
#
# at 17:59:19 (GMT+1.0) 26th March 2023
# in /scratch/scratch/uccabz1/launch_tmp_michael
# on node-a14a-003
# by uccabz1
#
# compiler GCC version 4.9.2
# options -cpp -iprefix /scratch/UCL/applications/gcc/4.9.2/bin/../lib/gcc/x86_64-unknown-linux-gnu/4.9.2/ -mtune=corei7 -march=x86-64 -g -Og
#
# seed -1850985135   641129470 -1186479092 -1837052796  1224739789   194333395   822405316  -301511936   344670027  -884388075  1252245399  1825015822
#
#      Author: C. J. Pickard (cjp20@cam.ac.uk)
#                Space group: P21/c
#

%BLOCK LATTICE_ABC
      3.61639      5.60566      9.31090
     90.00000     90.00000     98.42176
%ENDBLOCK LATTICE_ABC

%BLOCK POSITIONS_FRAC
  Li        0.3428197        0.4184788       -0.3427993
  Li        0.1571803       -0.4184788        0.1572007
  Li       -0.3428197       -0.4184788        0.3427993
  Li       -0.1571803        0.4184788       -0.1572007
  Li       -0.5000000       -0.0000000       -0.0000000
  Li       -0.0000000       -0.0000000        0.5000000
   N       -0.2196712        0.2568520        0.3422317
   N       -0.2803288       -0.2568520       -0.1577683
   N        0.2196712       -0.2568520       -0.3422317
   N        0.2803288        0.2568520        0.1577683
   N       -0.1148549        0.0535015        0.1415421
   N       -0.3851451       -0.0535015       -0.3584579
   N        0.1148549       -0.0535015       -0.1415421
   N        0.3851451        0.0535015        0.3584579
   N        0.3520168        0.4589914       -0.0993674
   N        0.1479832       -0.4589914        0.4006326
   N       -0.3520168       -0.4589914        0.0993674
   N       -0.1479832        0.4589914       -0.4006326
%ENDBLOCK POSITIONS_FRAC

KPOINTS_MP_SPACING 0.07

%BLOCK SPECIES_POT
QC5
%ENDBLOCK SPECIES_POT

SNAP_TO_SYMMETRY
SYMMETRY_GENERATE

