#              Generated by Buildcell
#
# at 15:18:19 (GMT+1.0) 26th March 2023
# in /scratch/scratch/uccabz1/launch_tmp_michael
# on node-a14a-001
# by uccabz1
#
# compiler GCC version 4.9.2
# options -cpp -iprefix /scratch/UCL/applications/gcc/4.9.2/bin/../lib/gcc/x86_64-unknown-linux-gnu/4.9.2/ -mtune=corei7 -march=x86-64 -g -Og
#
# seed  1054247258 -1905690440   973122422  -573770000 -2058684360  -362193887  -554992534  1300027925  1080486779  1030580080  1119021131 -1505118314
#
#      Author: C. J. Pickard (cjp20@cam.ac.uk)
#                Space group: Cmm2
#

%BLOCK LATTICE_ABC
      4.24030      4.24030      5.44623
     90.00000     90.00000    107.73649
%ENDBLOCK LATTICE_ABC

%BLOCK POSITIONS_FRAC
  Li        0.2500004        0.2500004        0.3985826
  Li       -0.2500004       -0.2500004        0.3985826
  Li        0.5000000        0.5000000       -0.2030268
   N        0.1694197        0.4785687        0.1166103
   N       -0.1694197       -0.4785687        0.1166103
   N       -0.4785687       -0.1694197        0.1166103
   N        0.4785687        0.1694197        0.1166103
   N       -0.1682312       -0.1682312       -0.0209219
   N        0.1682312        0.1682312       -0.0209219
%ENDBLOCK POSITIONS_FRAC

KPOINTS_MP_SPACING 0.07

%BLOCK SPECIES_POT
QC5
%ENDBLOCK SPECIES_POT

SNAP_TO_SYMMETRY
SYMMETRY_GENERATE

