#              Generated by Buildcell
#
# at 16:09:01 (GMT+1.0) 26th March 2023
# in /scratch/scratch/uccabz1/launch_tmp_michael
# on node-a14b-022
# by uccabz1
#
# compiler GCC version 4.9.2
# options -cpp -iprefix /scratch/UCL/applications/gcc/4.9.2/bin/../lib/gcc/x86_64-unknown-linux-gnu/4.9.2/ -mtune=corei7 -march=x86-64 -g -Og
#
# seed -2028328980  1728265092   364842235  1469666543  2049717611   747741421   904940593  1951480221 -2146207400 -1934074311   886503147  -735250067
#
#      Author: C. J. Pickard (cjp20@cam.ac.uk)
#                Space group: Pc
#

%BLOCK LATTICE_ABC
      2.69945      5.37775      8.22010
     90.00000     90.00000    103.55537
%ENDBLOCK LATTICE_ABC

%BLOCK POSITIONS_FRAC
  Li        0.2723928        0.4876649       -0.1280062
  Li       -0.2276072        0.4876649        0.1280062
  Li        0.3293320       -0.3904133        0.3719937
  Li       -0.1706680       -0.3904133       -0.3719937
   N        0.0474355        0.2352345        0.2331449
   N       -0.4525645        0.2352345       -0.2331449
   N        0.0202911        0.1500632        0.4144490
   N       -0.4797089        0.1500632       -0.4144490
   N       -0.3658882       -0.0270342       -0.2624021
   N        0.1341118       -0.0270342        0.2624021
   N       -0.0573970        0.1343332       -0.1321456
   N        0.4426030        0.1343332        0.1321456
%ENDBLOCK POSITIONS_FRAC

KPOINTS_MP_SPACING 0.07

%BLOCK SPECIES_POT
QC5
%ENDBLOCK SPECIES_POT

SNAP_TO_SYMMETRY
SYMMETRY_GENERATE

