#              Generated by Buildcell
#
# at 17:10:59 (GMT+1.0) 26th March 2023
# in /scratch/scratch/uccabz1/launch_tmp_michael
# on node-a14b-022
# by uccabz1
#
# compiler GCC version 4.9.2
# options -cpp -iprefix /scratch/UCL/applications/gcc/4.9.2/bin/../lib/gcc/x86_64-unknown-linux-gnu/4.9.2/ -mtune=corei7 -march=x86-64 -g -Og
#
# seed    10762623   858279535  -114514909 -1916976937  1599153826 -1537048159  -919403173  -445510778 -1726778743    20490757   758458828  -510576364
#
#      Author: C. J. Pickard (cjp20@cam.ac.uk)
#                Space group: P32
#

%BLOCK LATTICE_ABC
      4.05282      4.05282     12.91334
     90.00000     90.00000    120.00000
%ENDBLOCK LATTICE_ABC

%BLOCK POSITIONS_FRAC
  Li        0.4252305        0.0113285        0.2519814
  Li       -0.4139021       -0.4252305       -0.0813519
  Li       -0.0113285        0.4139021       -0.4146853
  Li       -0.0630082       -0.0265871        0.0719410
  Li        0.0364211        0.0630082       -0.2613923
  Li        0.0265871       -0.0364211        0.4052743
   N       -0.4234488        0.0364679       -0.1080570
   N        0.4599168        0.4234488       -0.4413903
   N       -0.0364679       -0.4599168        0.2252764
   N       -0.3501959        0.4053361       -0.3106252
   N       -0.2444679        0.3501959        0.3560415
   N       -0.4053361        0.2444679        0.0227081
   N        0.1352180        0.4874364        0.4434568
   N        0.3522184       -0.1352180        0.1101235
   N       -0.4874364       -0.3522184       -0.2232099
   N       -0.0797163       -0.1127421        0.2175056
   N       -0.0330258        0.0797163       -0.1158277
   N        0.1127421        0.0330258       -0.4491610
%ENDBLOCK POSITIONS_FRAC

KPOINTS_MP_SPACING 0.07

%BLOCK SPECIES_POT
QC5
%ENDBLOCK SPECIES_POT

SNAP_TO_SYMMETRY
SYMMETRY_GENERATE

