#              Generated by Buildcell
#
# at 19:48:40 (GMT+1.0) 26th March 2023
# in /scratch/scratch/uccabz1/launch_tmp_michael
# on node-a14b-031
# by uccabz1
#
# compiler GCC version 4.9.2
# options -cpp -iprefix /scratch/UCL/applications/gcc/4.9.2/bin/../lib/gcc/x86_64-unknown-linux-gnu/4.9.2/ -mtune=corei7 -march=x86-64 -g -Og
#
# seed  2139378915   446209543   503315399  1190996452  -365765906  1794606748   252452826 -1808655513   561223768  1276407995  -365734424  1637491094
#
#      Author: C. J. Pickard (cjp20@cam.ac.uk)
#                Space group: Ima2
#

%BLOCK LATTICE_ABC
      4.99913      6.62083      6.62083
     63.20636     67.81920     67.81920
%ENDBLOCK LATTICE_ABC

%BLOCK POSITIONS_FRAC
  Li        0.3763532       -0.2163473        0.4636411
  Li       -0.3763532       -0.4636411        0.2163473
  Li        0.1236470       -0.4636411        0.2163473
  Li       -0.1236470       -0.2163473        0.4636411
  Li       -0.3690515        0.2655685       -0.0274654
  Li        0.3690515        0.0274654       -0.2655685
   N       -0.2051845        0.0633523       -0.4845731
   N        0.2051845        0.4845731       -0.0633523
   N       -0.1264054        0.4845731       -0.0633523
   N        0.1264054        0.0633523       -0.4845731
   N        0.0906623       -0.1591285       -0.0258039
   N       -0.0906623        0.0258039        0.1591285
   N        0.4057298        0.0258039        0.1591285
   N       -0.4057298       -0.1591285       -0.0258039
   N        0.3340250        0.2191214        0.2616090
   N       -0.3340250       -0.2616090       -0.2191214
   N        0.3147554       -0.2616090       -0.2191214
   N       -0.3147554        0.2191214        0.2616090
%ENDBLOCK POSITIONS_FRAC

KPOINTS_MP_SPACING 0.07

%BLOCK SPECIES_POT
QC5
%ENDBLOCK SPECIES_POT

SNAP_TO_SYMMETRY
SYMMETRY_GENERATE

