#              Generated by Buildcell
#
# at 17:13:23 (GMT+1.0) 26th March 2023
# in /scratch/scratch/uccabz1/launch_tmp_michael
# on node-a14b-028
# by uccabz1
#
# compiler GCC version 4.9.2
# options -cpp -iprefix /scratch/UCL/applications/gcc/4.9.2/bin/../lib/gcc/x86_64-unknown-linux-gnu/4.9.2/ -mtune=corei7 -march=x86-64 -g -Og
#
# seed -1140488650  1151613153  1727504292   966311684  -924832214  1683702529 -1492234361   677038816  1494349118  -528471789  -495640033 -2080838768
#
#      Author: C. J. Pickard (cjp20@cam.ac.uk)
#                Space group: P32
#

%BLOCK LATTICE_ABC
      4.31657      4.97316      4.97316
    120.00000     90.00000     90.00000
%ENDBLOCK LATTICE_ABC

%BLOCK POSITIONS_FRAC
  Li        0.4677236       -0.2384048       -0.3201068
  Li        0.1343903       -0.0817020        0.2384048
  Li       -0.1989430        0.3201068        0.0817020
   N        0.3719600        0.4381000        0.2720415
   N        0.0386267       -0.1660585       -0.4381000
   N       -0.2947067       -0.2720415        0.1660585
   N       -0.1832651        0.4374500       -0.2276936
   N        0.4834016        0.3348564       -0.4374500
   N        0.1500682        0.2276936       -0.3348564
%ENDBLOCK POSITIONS_FRAC

KPOINTS_MP_SPACING 0.07

%BLOCK SPECIES_POT
QC5
%ENDBLOCK SPECIES_POT

SNAP_TO_SYMMETRY
SYMMETRY_GENERATE

