#              Generated by Buildcell
#
# at 16:40:44 (GMT+1.0) 26th March 2023
# in /scratch/scratch/uccabz1/launch_tmp_michael
# on node-a14e-021
# by uccabz1
#
# compiler GCC version 4.9.2
# options -cpp -iprefix /scratch/UCL/applications/gcc/4.9.2/bin/../lib/gcc/x86_64-unknown-linux-gnu/4.9.2/ -mtune=corei7 -march=x86-64 -g -Og
#
# seed   150509777 -1151591357  1280227221  -313809495  -225681126   282315614   -22184517  1450045081   156416641  -104793835   809212239  -267090893
#
#      Author: C. J. Pickard (cjp20@cam.ac.uk)
#                Space group: P2
#

%BLOCK LATTICE_ABC
      3.91951      4.64595      5.26945
     90.00000     90.00000    103.67989
%ENDBLOCK LATTICE_ABC

%BLOCK POSITIONS_FRAC
  Li       -0.2918265        0.2495494       -0.0850523
  Li        0.2918265       -0.2495494       -0.0850523
  Li        0.5000000        0.5000000        0.4317551
   N        0.0534922        0.2425443       -0.3365435
   N       -0.0534922       -0.2425443       -0.3365435
   N       -0.2177999       -0.4176538        0.1352326
   N        0.2177999        0.4176538        0.1352326
   N       -0.0092502       -0.3399669        0.3965603
   N        0.0092502        0.3399669        0.3965603
%ENDBLOCK POSITIONS_FRAC

KPOINTS_MP_SPACING 0.07

%BLOCK SPECIES_POT
QC5
%ENDBLOCK SPECIES_POT

SNAP_TO_SYMMETRY
SYMMETRY_GENERATE

