#              Generated by Buildcell
#
# at 19:20:12 (GMT+1.0) 26th March 2023
# in /scratch/scratch/uccabz1/launch_tmp_michael
# on node-a14e-021
# by uccabz1
#
# compiler GCC version 4.9.2
# options -cpp -iprefix /scratch/UCL/applications/gcc/4.9.2/bin/../lib/gcc/x86_64-unknown-linux-gnu/4.9.2/ -mtune=corei7 -march=x86-64 -g -Og
#
# seed  -839456916 -1662826764  1380084688  -524141361  1151327179 -1152505047 -2001175080  2023598446 -1710109805  -940639473 -1153483593   990556306
#
#      Author: C. J. Pickard (cjp20@cam.ac.uk)
#                Space group: C2221
#

%BLOCK LATTICE_ABC
      2.50032      6.93774      8.01074
    115.65987     90.00000     90.00000
%ENDBLOCK LATTICE_ABC

%BLOCK POSITIONS_FRAC
  Li        0.0090235       -0.0310608       -0.3779724
  Li       -0.4909765        0.0310608        0.3779724
  Li        0.4909765       -0.3469117       -0.3779724
  Li       -0.0090235        0.3469117        0.3779724
   N        0.1680745        0.0457597       -0.1246964
   N       -0.3319255       -0.0457597        0.1246964
   N        0.3319255       -0.1704561       -0.1246964
   N       -0.1680745        0.1704561        0.1246964
   N        0.3984017       -0.4720999        0.3038912
   N       -0.1015983        0.4720999       -0.3038912
   N        0.1015983       -0.2240089        0.3038912
   N       -0.3984017        0.2240089       -0.3038912
%ENDBLOCK POSITIONS_FRAC

KPOINTS_MP_SPACING 0.07

%BLOCK SPECIES_POT
QC5
%ENDBLOCK SPECIES_POT

SNAP_TO_SYMMETRY
SYMMETRY_GENERATE

