#              Generated by Buildcell
#
# at 14:50:02 (GMT+1.0) 26th March 2023
# in /scratch/scratch/uccabz1/launch_tmp_michael
# on node-a14b-022
# by uccabz1
#
# compiler GCC version 4.9.2
# options -cpp -iprefix /scratch/UCL/applications/gcc/4.9.2/bin/../lib/gcc/x86_64-unknown-linux-gnu/4.9.2/ -mtune=corei7 -march=x86-64 -g -Og
#
# seed   278966306   139663006  -856494059  1471128934   992466203  -304163670 -1739235820   618633039  1070668793  -890591625 -1524427764  1940804566
#
#      Author: C. J. Pickard (cjp20@cam.ac.uk)
#                Space group: C2
#

%BLOCK LATTICE_ABC
      3.96307      4.59681      5.82982
     82.17305     71.58382     64.46465
%ENDBLOCK LATTICE_ABC

%BLOCK POSITIONS_FRAC
  Li        0.3642630       -0.4584929       -0.2486249
  Li        0.0942299       -0.4584929        0.2486249
  Li        0.4962108        0.0075783        0.5000000
   N       -0.1972023        0.4306500       -0.1335661
   N       -0.2334476        0.4306500        0.1335661
   N       -0.3160560        0.1613376        0.0718221
   N        0.1547184        0.1613376       -0.0718221
   N       -0.2941219       -0.0802535       -0.2146689
   N        0.3743754       -0.0802535        0.2146689
%ENDBLOCK POSITIONS_FRAC

KPOINTS_MP_SPACING 0.07

%BLOCK SPECIES_POT
QC5
%ENDBLOCK SPECIES_POT

SNAP_TO_SYMMETRY
SYMMETRY_GENERATE

