#              Generated by Buildcell
#
# at 20:06:40 (GMT+1.0) 26th March 2023
# in /scratch/scratch/uccabz1/launch_tmp_michael
# on node-a14a-019
# by uccabz1
#
# compiler GCC version 4.9.2
# options -cpp -iprefix /scratch/UCL/applications/gcc/4.9.2/bin/../lib/gcc/x86_64-unknown-linux-gnu/4.9.2/ -mtune=corei7 -march=x86-64 -g -Og
#
# seed  1481537008  -909468723  2128993969 -2134940616  1761141866  -752314009   409882341  -170159563  1472450500   216786652  -157944918   162194231
#
#      Author: C. J. Pickard (cjp20@cam.ac.uk)
#                Space group: Cm
#

%BLOCK LATTICE_ABC
      4.53047      4.90630      6.24637
     66.87540     85.13261     77.52285
%ENDBLOCK LATTICE_ABC

%BLOCK POSITIONS_FRAC
  Li        0.1615148        0.0224858       -0.2402703
  Li        0.1615148       -0.2177845        0.2402703
  Li        0.2696879        0.2558064        0.2499273
  Li        0.2696879       -0.4942663       -0.2499273
   N        0.2236867        0.4003248        0.4945062
   N        0.2236867       -0.1051690       -0.4945062
   N       -0.2070555       -0.3147405        0.4583062
   N       -0.2070555        0.1435657       -0.4583062
   N        0.4881042        0.0695440       -0.4576334
   N        0.4881042       -0.3880893        0.4576334
   N       -0.1535598        0.0028677        0.3640653
   N       -0.1535598        0.3669330       -0.3640653
%ENDBLOCK POSITIONS_FRAC

KPOINTS_MP_SPACING 0.07

%BLOCK SPECIES_POT
QC5
%ENDBLOCK SPECIES_POT

SNAP_TO_SYMMETRY
SYMMETRY_GENERATE

