#              Generated by Buildcell
#
# at 18:08:10 (GMT+1.0) 26th March 2023
# in /scratch/scratch/uccabz1/launch_tmp_michael
# on node-a14a-001
# by uccabz1
#
# compiler GCC version 4.9.2
# options -cpp -iprefix /scratch/UCL/applications/gcc/4.9.2/bin/../lib/gcc/x86_64-unknown-linux-gnu/4.9.2/ -mtune=corei7 -march=x86-64 -g -Og
#
# seed  1465526366 -1439263818  1509813478  1630568168  1669340527   916520600   621769461 -1338608726  -872210857  -662164139 -1400384209  -438694195
#
#      Author: C. J. Pickard (cjp20@cam.ac.uk)
#                Space group: P2
#

%BLOCK LATTICE_ABC
      3.82547      3.97044      8.17755
     90.00000     90.00000    102.49615
%ENDBLOCK LATTICE_ABC

%BLOCK POSITIONS_FRAC
  Li       -0.2966133        0.2923907        0.3650673
  Li        0.2966133       -0.2923907        0.3650673
  Li        0.2033842       -0.2076083       -0.0649576
  Li       -0.2033842        0.2076083       -0.0649576
   N       -0.1793031       -0.3577517       -0.3123030
   N        0.1793031        0.3577517       -0.3123030
   N       -0.3185609        0.3889833        0.1381971
   N        0.3185609       -0.3889833        0.1381971
   N       -0.1760091       -0.1912862       -0.4771396
   N        0.1760091        0.1912862       -0.4771396
   N        0.3706214        0.2947539       -0.1589312
   N       -0.3706214       -0.2947539       -0.1589312
%ENDBLOCK POSITIONS_FRAC

KPOINTS_MP_SPACING 0.07

%BLOCK SPECIES_POT
QC5
%ENDBLOCK SPECIES_POT

SNAP_TO_SYMMETRY
SYMMETRY_GENERATE

