#              Generated by Buildcell
#
# at 15:01:46 (GMT+1.0) 26th March 2023
# in /scratch/scratch/uccabz1/launch_tmp_michael
# on node-a14e-007
# by uccabz1
#
# compiler GCC version 4.9.2
# options -cpp -iprefix /scratch/UCL/applications/gcc/4.9.2/bin/../lib/gcc/x86_64-unknown-linux-gnu/4.9.2/ -mtune=corei7 -march=x86-64 -g -Og
#
# seed  -301269128  -818980286 -2099879528  -902382938    62340814   657358447  1547109202  -237242141  1171848295  -334882685  1546308036  1099281789
#
#      Author: C. J. Pickard (cjp20@cam.ac.uk)
#                Space group: F222
#

%BLOCK LATTICE_ABC
      4.91555      4.91555      5.15007
    117.42067    117.42067     92.00671
%ENDBLOCK LATTICE_ABC

%BLOCK POSITIONS_FRAC
  Li        0.0260935       -0.0260935        0.5000000
  Li        0.4739065       -0.4739065       -0.5000000
  Li       -0.5000000        0.5000000        0.0000000
   N       -0.4042260       -0.0539848       -0.1138237
   N        0.2904023       -0.0598389       -0.1138237
   N        0.0598389       -0.2904023        0.1138237
   N        0.0539848        0.4042260        0.1138237
   N        0.4260170       -0.0739830        0.5000000
   N        0.0739830       -0.4260170        0.5000000
%ENDBLOCK POSITIONS_FRAC

KPOINTS_MP_SPACING 0.07

%BLOCK SPECIES_POT
QC5
%ENDBLOCK SPECIES_POT

SNAP_TO_SYMMETRY
SYMMETRY_GENERATE

