#              Generated by Buildcell
#
# at 18:02:28 (GMT+1.0) 26th March 2023
# in /scratch/scratch/uccabz1/launch_tmp_michael
# on node-a14f-035
# by uccabz1
#
# compiler GCC version 4.9.2
# options -cpp -iprefix /scratch/UCL/applications/gcc/4.9.2/bin/../lib/gcc/x86_64-unknown-linux-gnu/4.9.2/ -mtune=corei7 -march=x86-64 -g -Og
#
# seed    29627363   385471459  -886657503 -1747435428  2093459353  -819065439 -1772122261  1226941297  -282366635 -1071535220  1263328879   115027941
#
#      Author: C. J. Pickard (cjp20@cam.ac.uk)
#                Space group: Pm
#

%BLOCK LATTICE_ABC
      2.52844      4.31388      8.76509
     90.00000     90.00000    105.57732
%ENDBLOCK LATTICE_ABC

%BLOCK POSITIONS_FRAC
  Li       -0.3883993        0.0007096        0.2550914
  Li       -0.3883993        0.0007096       -0.2550914
  Li       -0.2708731       -0.2708546       -0.5000000
   N       -0.0164967       -0.2822370        0.1638917
   N       -0.0164967       -0.2822370       -0.1638917
   N        0.4272007       -0.4798382        0.2185320
   N        0.4272007       -0.4798382       -0.2185320
   N       -0.3690309        0.3049289       -0.4131814
   N       -0.3690309        0.3049289        0.4131814
%ENDBLOCK POSITIONS_FRAC

KPOINTS_MP_SPACING 0.07

%BLOCK SPECIES_POT
QC5
%ENDBLOCK SPECIES_POT

SNAP_TO_SYMMETRY
SYMMETRY_GENERATE

