#              Generated by Buildcell
#
# at 16:39:35 (GMT+1.0) 26th March 2023
# in /scratch/scratch/uccabz1/launch_tmp_michael
# on node-a14c-005
# by uccabz1
#
# compiler GCC version 4.9.2
# options -cpp -iprefix /scratch/UCL/applications/gcc/4.9.2/bin/../lib/gcc/x86_64-unknown-linux-gnu/4.9.2/ -mtune=corei7 -march=x86-64 -g -Og
#
# seed   -37188617 -1726688421    36873065   152496028   554389298  1781182203  -385534584  -737025298  -833469497 -1875234400   608910885    57359000
#
#      Author: C. J. Pickard (cjp20@cam.ac.uk)
#                Space group: Pnn2
#

%BLOCK LATTICE_ABC
      4.82366      4.92623      5.30193
     90.00000     90.00000     90.00000
%ENDBLOCK LATTICE_ABC

%BLOCK POSITIONS_FRAC
  Li        0.3797843        0.2366328       -0.0851148
  Li        0.3797843       -0.2366328        0.0851148
  Li       -0.1202157       -0.2633672       -0.4148852
  Li       -0.1202157        0.2633672        0.4148852
   N       -0.4039984       -0.3707606        0.3575031
   N       -0.4039984        0.3707606       -0.3575031
   N        0.0960016        0.1292394        0.1424969
   N        0.0960016       -0.1292394       -0.1424969
   N        0.2917270       -0.3731193        0.4191827
   N        0.2917270        0.3731193       -0.4191827
   N       -0.2082730        0.1268807        0.0808173
   N       -0.2082730       -0.1268807       -0.0808173
%ENDBLOCK POSITIONS_FRAC

KPOINTS_MP_SPACING 0.07

%BLOCK SPECIES_POT
QC5
%ENDBLOCK SPECIES_POT

SNAP_TO_SYMMETRY
SYMMETRY_GENERATE

