#              Generated by Buildcell
#
# at 17:19:04 (GMT+1.0) 26th March 2023
# in /scratch/scratch/uccabz1/launch_tmp_michael
# on node-a14f-035
# by uccabz1
#
# compiler GCC version 4.9.2
# options -cpp -iprefix /scratch/UCL/applications/gcc/4.9.2/bin/../lib/gcc/x86_64-unknown-linux-gnu/4.9.2/ -mtune=corei7 -march=x86-64 -g -Og
#
# seed -1031873138    40992253  1256744357   802820623  -876955384  1250572132  1226909889  1771544974 -1113492938  2092473548 -1376836988  1272065142
#
#      Author: C. J. Pickard (cjp20@cam.ac.uk)
#                Space group: Cm
#

%BLOCK LATTICE_ABC
      4.30124      4.30124     10.12677
     98.83605     98.83605     96.93967
%ENDBLOCK LATTICE_ABC

%BLOCK POSITIONS_FRAC
  Li       -0.0575875        0.3306189        0.0883255
  Li        0.3306189       -0.0575875        0.0883255
  Li       -0.1759035        0.2123028        0.3995450
  Li        0.2123028       -0.1759035        0.3995450
  Li       -0.3504336        0.2613599       -0.2570445
  Li        0.2613599       -0.3504336       -0.2570445
   N       -0.2210431       -0.4539669       -0.0514176
   N       -0.4539669       -0.2210431       -0.0514176
   N       -0.1194712       -0.3523951        0.4820574
   N       -0.3523951       -0.1194712        0.4820574
   N        0.0563504        0.4313483        0.2804484
   N        0.4313483        0.0563504        0.2804484
   N       -0.0749296       -0.3078535       -0.1569774
   N       -0.3078535       -0.0749296       -0.1569774
   N        0.4959866       -0.2710888        0.2284313
   N       -0.2710888        0.4959866        0.2284313
   N       -0.2844113        0.1310408        0.2070766
   N        0.1310408       -0.2844113        0.2070766
%ENDBLOCK POSITIONS_FRAC

KPOINTS_MP_SPACING 0.07

%BLOCK SPECIES_POT
QC5
%ENDBLOCK SPECIES_POT

SNAP_TO_SYMMETRY
SYMMETRY_GENERATE

