#              Generated by Buildcell
#
# at 17:44:02 (GMT+1.0) 26th March 2023
# in /scratch/scratch/uccabz1/launch_tmp_michael
# on node-a14a-003
# by uccabz1
#
# compiler GCC version 4.9.2
# options -cpp -iprefix /scratch/UCL/applications/gcc/4.9.2/bin/../lib/gcc/x86_64-unknown-linux-gnu/4.9.2/ -mtune=corei7 -march=x86-64 -g -Og
#
# seed   199711930  1119601801   694720373  1737841665   -45413685   125713727 -1328482260  1183338544  1396866943  -558280768  1737476873  -588977552
#
#      Author: C. J. Pickard (cjp20@cam.ac.uk)
#                Space group: C2
#

%BLOCK LATTICE_ABC
      3.43916      4.12207      4.93600
    112.01644    107.29084     97.03688
%ENDBLOCK LATTICE_ABC

%BLOCK POSITIONS_FRAC
  Li        0.4978502        0.4368939        0.4293333
  Li       -0.0685169       -0.0075606        0.4293333
   N        0.4796301       -0.3936171       -0.1597525
   N        0.3606174        0.2338646       -0.1597525
   N       -0.0527089       -0.3315653       -0.0082420
   N        0.0444669        0.3233233       -0.0082420
%ENDBLOCK POSITIONS_FRAC

KPOINTS_MP_SPACING 0.07

%BLOCK SPECIES_POT
QC5
%ENDBLOCK SPECIES_POT

SNAP_TO_SYMMETRY
SYMMETRY_GENERATE

