#              Generated by Buildcell
#
# at 18:09:35 (GMT+1.0) 26th March 2023
# in /scratch/scratch/uccabz1/launch_tmp_michael
# on node-a14f-035
# by uccabz1
#
# compiler GCC version 4.9.2
# options -cpp -iprefix /scratch/UCL/applications/gcc/4.9.2/bin/../lib/gcc/x86_64-unknown-linux-gnu/4.9.2/ -mtune=corei7 -march=x86-64 -g -Og
#
# seed  1011989460 -1528146968   753832435   952303456  -583946956   427266855   265600945 -1037358967 -1890699998   406314554 -1782655886 -1194305231
#
#      Author: C. J. Pickard (cjp20@cam.ac.uk)
#                Space group: P2
#

%BLOCK LATTICE_ABC
      3.43874      3.81742      9.07392
     90.00000     90.00000     91.96207
%ENDBLOCK LATTICE_ABC

%BLOCK POSITIONS_FRAC
  Li        0.2651008       -0.2572447        0.3293581
  Li       -0.2651008        0.2572447        0.3293581
  Li        0.2613511       -0.2602533       -0.3951266
  Li       -0.2613511        0.2602533       -0.3951266
   N       -0.1326774       -0.1624211       -0.2557037
   N        0.1326774        0.1624211       -0.2557037
   N       -0.3723687        0.3445680       -0.0096028
   N        0.3723687       -0.3445680       -0.0096028
   N        0.0404544        0.2388790        0.1552460
   N       -0.0404544       -0.2388790        0.1552460
   N       -0.2833068        0.0299692        0.0820426
   N        0.2833068       -0.0299692        0.0820426
%ENDBLOCK POSITIONS_FRAC

KPOINTS_MP_SPACING 0.07

%BLOCK SPECIES_POT
QC5
%ENDBLOCK SPECIES_POT

SNAP_TO_SYMMETRY
SYMMETRY_GENERATE

