#              Generated by Buildcell
#
# at 16:29:52 (GMT+1.0) 26th March 2023
# in /scratch/scratch/uccabz1/launch_tmp_michael
# on node-a14b-028
# by uccabz1
#
# compiler GCC version 4.9.2
# options -cpp -iprefix /scratch/UCL/applications/gcc/4.9.2/bin/../lib/gcc/x86_64-unknown-linux-gnu/4.9.2/ -mtune=corei7 -march=x86-64 -g -Og
#
# seed   417677485  1117015001  -182891560   504832763   232556052 -1878209421 -2116399297  -204006841  1919881327   368671987     2753116  1026268779
#
#      Author: C. J. Pickard (cjp20@cam.ac.uk)
#                Space group: Cm
#

%BLOCK LATTICE_ABC
      2.93650      4.68770      4.68770
     72.21348     89.41915     89.41915
%ENDBLOCK LATTICE_ABC

%BLOCK POSITIONS_FRAC
  Li        0.1695673       -0.2520352        0.2954631
  Li        0.1695673        0.2954631       -0.2520352
   N       -0.0999939        0.3633964        0.0918953
   N       -0.0999939        0.0918953        0.3633964
   N       -0.3354062       -0.3507999       -0.0789414
   N       -0.3354062       -0.0789414       -0.3507999
%ENDBLOCK POSITIONS_FRAC

KPOINTS_MP_SPACING 0.07

%BLOCK SPECIES_POT
QC5
%ENDBLOCK SPECIES_POT

SNAP_TO_SYMMETRY
SYMMETRY_GENERATE

