#              Generated by Buildcell
#
# at 16:12:06 (GMT+1.0) 26th March 2023
# in /scratch/scratch/uccabz1/launch_tmp_michael
# on node-a14a-019
# by uccabz1
#
# compiler GCC version 4.9.2
# options -cpp -iprefix /scratch/UCL/applications/gcc/4.9.2/bin/../lib/gcc/x86_64-unknown-linux-gnu/4.9.2/ -mtune=corei7 -march=x86-64 -g -Og
#
# seed  -583342546  1883856539  -534892605  -545529668 -1696301380 -1599407708 -2143428347  -929377190   821218185  1561466438  -418593108  -374055986
#
#      Author: C. J. Pickard (cjp20@cam.ac.uk)
#                Space group: Pmc21
#

%BLOCK LATTICE_ABC
      2.50000      4.33013      5.34041
     90.00000     90.00000     90.00000
%ENDBLOCK LATTICE_ABC

%BLOCK POSITIONS_FRAC
  Li        0.0524220        0.2500000        0.5000000
  Li       -0.4475780       -0.2500000        0.5000000
   N       -0.4478796        0.1093820        0.2535826
   N        0.0521204       -0.1093820       -0.2535826
   N        0.0521204       -0.1093820        0.2535826
   N       -0.4478796        0.1093820       -0.2535826
%ENDBLOCK POSITIONS_FRAC

KPOINTS_MP_SPACING 0.07

%BLOCK SPECIES_POT
QC5
%ENDBLOCK SPECIES_POT

SNAP_TO_SYMMETRY
SYMMETRY_GENERATE

