#              Generated by Buildcell
#
# at 15:47:12 (GMT+1.0) 26th March 2023
# in /scratch/scratch/uccabz1/launch_tmp_michael
# on node-a14a-003
# by uccabz1
#
# compiler GCC version 4.9.2
# options -cpp -iprefix /scratch/UCL/applications/gcc/4.9.2/bin/../lib/gcc/x86_64-unknown-linux-gnu/4.9.2/ -mtune=corei7 -march=x86-64 -g -Og
#
# seed  -633981820   575914860 -1074549973   899220357  1381199660   282197713 -1003097451   -24492756  1208141305   793707699 -1804447081  -859503531
#
#      Author: C. J. Pickard (cjp20@cam.ac.uk)
#                Space group: R3
#

%BLOCK LATTICE_ABC
      4.91699      4.91699      4.91699
     80.86950     80.86950     80.86950
%ENDBLOCK LATTICE_ABC

%BLOCK POSITIONS_FRAC
  Li       -0.4152622       -0.0914075        0.3419659
  Li       -0.0914075        0.3419659       -0.4152622
  Li        0.3419659       -0.4152622       -0.0914075
  Li        0.4356856        0.4356856        0.4356856
   N        0.1137794        0.4978902        0.2516955
   N        0.4978902        0.2516955        0.1137794
   N        0.2516955        0.1137794        0.4978902
   N       -0.0960076        0.0831747        0.3369518
   N        0.0831747        0.3369518       -0.0960076
   N        0.3369518       -0.0960076        0.0831747
   N        0.1960934        0.1960934        0.1960934
   N       -0.3301235       -0.3301235       -0.3301235
%ENDBLOCK POSITIONS_FRAC

KPOINTS_MP_SPACING 0.07

%BLOCK SPECIES_POT
QC5
%ENDBLOCK SPECIES_POT

SNAP_TO_SYMMETRY
SYMMETRY_GENERATE

