#              Generated by Buildcell
#
# at 18:42:18 (GMT+1.0) 26th March 2023
# in /scratch/scratch/uccabz1/launch_tmp_michael
# on node-a14b-028
# by uccabz1
#
# compiler GCC version 4.9.2
# options -cpp -iprefix /scratch/UCL/applications/gcc/4.9.2/bin/../lib/gcc/x86_64-unknown-linux-gnu/4.9.2/ -mtune=corei7 -march=x86-64 -g -Og
#
# seed  1266390865  -626322521   678383821 -2056588573   -68812199 -2096297770  1636725096  -123921912 -1930355650  2020703120    89888491   236994544
#
#      Author: C. J. Pickard (cjp20@cam.ac.uk)
#                Space group: P3
#

%BLOCK LATTICE_ABC
      5.00163      5.00163      5.67822
     90.00000     90.00000    120.00000
%ENDBLOCK LATTICE_ABC

%BLOCK POSITIONS_FRAC
  Li       -0.0243946        0.3795843        0.3946985
  Li        0.4039789        0.0243946        0.3946985
  Li       -0.3795843       -0.4039789        0.3946985
  Li        0.3333333       -0.3333333       -0.0097289
   N        0.0494075        0.4014382       -0.2406890
   N        0.3520307       -0.0494075       -0.2406890
   N       -0.4014382       -0.3520307       -0.2406890
   N        0.0165266       -0.2552448       -0.4678673
   N       -0.2717714       -0.0165266       -0.4678673
   N        0.2552448        0.2717714       -0.4678673
   N       -0.0000000       -0.0000000       -0.0359648
   N        0.3333333       -0.3333333       -0.4169686
%ENDBLOCK POSITIONS_FRAC

KPOINTS_MP_SPACING 0.07

%BLOCK SPECIES_POT
QC5
%ENDBLOCK SPECIES_POT

SNAP_TO_SYMMETRY
SYMMETRY_GENERATE

