#              Generated by Buildcell
#
# at 16:13:48 (GMT+1.0) 26th March 2023
# in /scratch/scratch/uccabz1/launch_tmp_michael
# on node-a14a-019
# by uccabz1
#
# compiler GCC version 4.9.2
# options -cpp -iprefix /scratch/UCL/applications/gcc/4.9.2/bin/../lib/gcc/x86_64-unknown-linux-gnu/4.9.2/ -mtune=corei7 -march=x86-64 -g -Og
#
# seed  1652313229  1658317612  -804082337  2147366611  -541740532  1617595811  1709961867 -1749290563  -607783619   628034639  -780895872    51126790
#
#      Author: C. J. Pickard (cjp20@cam.ac.uk)
#                Space group: R3
#

%BLOCK LATTICE_ABC
      4.35023      4.35023      4.50025
     61.09678     61.09678     60.00000
%ENDBLOCK LATTICE_ABC

%BLOCK POSITIONS_FRAC
  Li       -0.4074808       -0.4074808        0.2224424
  Li        0.3693557        0.3693557       -0.1080671
   N        0.0954342       -0.0709173        0.3837695
   N       -0.0709173       -0.4082863        0.3837695
   N       -0.4082863        0.0954342        0.3837695
   N        0.1997507        0.1997507        0.4007480
%ENDBLOCK POSITIONS_FRAC

KPOINTS_MP_SPACING 0.07

%BLOCK SPECIES_POT
QC5
%ENDBLOCK SPECIES_POT

SNAP_TO_SYMMETRY
SYMMETRY_GENERATE

