#              Generated by Buildcell
#
# at 15:48:15 (GMT+1.0) 26th March 2023
# in /scratch/scratch/uccabz1/launch_tmp_michael
# on node-a14e-021
# by uccabz1
#
# compiler GCC version 4.9.2
# options -cpp -iprefix /scratch/UCL/applications/gcc/4.9.2/bin/../lib/gcc/x86_64-unknown-linux-gnu/4.9.2/ -mtune=corei7 -march=x86-64 -g -Og
#
# seed -1335347105  -102348418   314514775    44510248  1535323574  -652831943 -2032113794  1515180756   919620752  1517042249  2068104808 -1658645030
#
#      Author: C. J. Pickard (cjp20@cam.ac.uk)
#                Space group: Pba2
#

%BLOCK LATTICE_ABC
      5.39748      5.73618      5.76548
     90.00000     90.00000     90.00000
%ENDBLOCK LATTICE_ABC

%BLOCK POSITIONS_FRAC
  Li       -0.3480588        0.3723456        0.1636238
  Li        0.3480588        0.3723456       -0.1636238
  Li        0.1519412        0.3723456        0.3363762
  Li       -0.1519412        0.3723456       -0.3363762
  Li       -0.0000000        0.1364640       -0.0000000
  Li       -0.5000000        0.1364640        0.5000000
   N       -0.2285156       -0.1218904       -0.0407485
   N        0.2285156       -0.1218904        0.0407485
   N        0.2714844       -0.1218904       -0.4592515
   N       -0.2714844       -0.1218904        0.4592515
   N        0.3611344       -0.0266527       -0.2318674
   N       -0.3611344       -0.0266527        0.2318674
   N       -0.1388656       -0.0266527       -0.2681326
   N        0.1388656       -0.0266527        0.2681326
   N        0.0104392       -0.3393311        0.2427293
   N       -0.0104392       -0.3393311       -0.2427293
   N       -0.4895608       -0.3393311        0.2572707
   N        0.4895608       -0.3393311       -0.2572707
%ENDBLOCK POSITIONS_FRAC

KPOINTS_MP_SPACING 0.07

%BLOCK SPECIES_POT
QC5
%ENDBLOCK SPECIES_POT

SNAP_TO_SYMMETRY
SYMMETRY_GENERATE

