#              Generated by Buildcell
#
# at 15:26:45 (GMT+1.0) 26th March 2023
# in /scratch/scratch/uccabz1/launch_tmp_michael
# on node-a14c-005
# by uccabz1
#
# compiler GCC version 4.9.2
# options -cpp -iprefix /scratch/UCL/applications/gcc/4.9.2/bin/../lib/gcc/x86_64-unknown-linux-gnu/4.9.2/ -mtune=corei7 -march=x86-64 -g -Og
#
# seed  1739014390  2044286880   133208325   678400762   589122510 -1188320863   261431283   777946098   229244355   310045263 -1542339889  -686740127
#
#      Author: C. J. Pickard (cjp20@cam.ac.uk)
#                Space group: P2
#

%BLOCK LATTICE_ABC
      4.29766      6.31141      7.04416
    111.48502     90.00000     90.00000
%ENDBLOCK LATTICE_ABC

%BLOCK POSITIONS_FRAC
  Li        0.1556394        0.2900483       -0.0980516
  Li        0.1556394       -0.2900483        0.0980516
  Li        0.2619351       -0.2029860        0.4867676
  Li        0.2619351        0.2029860       -0.4867676
  Li       -0.1592326        0.4699985       -0.2972927
  Li       -0.1592326       -0.4699985        0.2972927
   N        0.2078943        0.4226629        0.3858295
   N        0.2078943       -0.4226629       -0.3858295
   N       -0.2844032       -0.3413305        0.1040331
   N       -0.2844032        0.3413305       -0.1040331
   N       -0.2461292        0.1149879       -0.3315500
   N       -0.2461292       -0.1149879        0.3315500
   N        0.0892767       -0.0227514       -0.2564080
   N        0.0892767        0.0227514        0.2564080
   N       -0.4516619        0.3865182        0.4133384
   N       -0.4516619       -0.3865182       -0.4133384
   N        0.3835650       -0.1422473       -0.2389734
   N        0.3835650        0.1422473        0.2389734
%ENDBLOCK POSITIONS_FRAC

KPOINTS_MP_SPACING 0.07

%BLOCK SPECIES_POT
QC5
%ENDBLOCK SPECIES_POT

SNAP_TO_SYMMETRY
SYMMETRY_GENERATE

