#              Generated by Buildcell
#
# at 19:33:27 (GMT+1.0) 26th March 2023
# in /scratch/scratch/uccabz1/launch_tmp_michael
# on node-a14a-019
# by uccabz1
#
# compiler GCC version 4.9.2
# options -cpp -iprefix /scratch/UCL/applications/gcc/4.9.2/bin/../lib/gcc/x86_64-unknown-linux-gnu/4.9.2/ -mtune=corei7 -march=x86-64 -g -Og
#
# seed   365200527  1578618124 -2133434253  -524447725   701077970   674326798  -984221942 -1986510209  -385165014 -1339937839  2043203706 -1607761409
#
#      Author: C. J. Pickard (cjp20@cam.ac.uk)
#                Space group: P41
#

%BLOCK LATTICE_ABC
      3.51042      3.51042      9.94501
     90.00000     90.00000     90.00000
%ENDBLOCK LATTICE_ABC

%BLOCK POSITIONS_FRAC
  Li       -0.4752436        0.0921220       -0.2234758
  Li        0.4752436       -0.0921220        0.2765242
  Li       -0.0921220       -0.4752436       -0.4734758
  Li        0.0921220        0.4752436        0.0265242
   N       -0.1033089        0.1734770        0.1693678
   N        0.1033089       -0.1734770       -0.3306322
   N       -0.1734770       -0.1033089       -0.0806322
   N        0.1734770        0.1033089        0.4193678
   N        0.4706213        0.4723924        0.1630866
   N       -0.4706213       -0.4723924       -0.3369134
   N       -0.4723924        0.4706213       -0.0869134
   N        0.4723924       -0.4706213        0.4130866
%ENDBLOCK POSITIONS_FRAC

KPOINTS_MP_SPACING 0.07

%BLOCK SPECIES_POT
QC5
%ENDBLOCK SPECIES_POT

SNAP_TO_SYMMETRY
SYMMETRY_GENERATE

