#              Generated by Buildcell
#
# at 16:46:16 (GMT+1.0) 26th March 2023
# in /scratch/scratch/uccabz1/launch_tmp_michael
# on node-a14b-031
# by uccabz1
#
# compiler GCC version 4.9.2
# options -cpp -iprefix /scratch/UCL/applications/gcc/4.9.2/bin/../lib/gcc/x86_64-unknown-linux-gnu/4.9.2/ -mtune=corei7 -march=x86-64 -g -Og
#
# seed  2075981523   841975324  1892805565 -2106193919  1402615246 -1689774251  1311936992  1858533475  1986880313 -1790135028  1069415775 -1732532538
#
#      Author: C. J. Pickard (cjp20@cam.ac.uk)
#                Space group: Ccc2
#

%BLOCK LATTICE_ABC
      3.22182      6.15137      9.09921
     90.00000     90.00000    105.18155
%ENDBLOCK LATTICE_ABC

%BLOCK POSITIONS_FRAC
  Li       -0.0815533       -0.2189281       -0.0735467
  Li        0.0815533        0.2189281       -0.0735467
  Li        0.1373748        0.2189281        0.4264533
  Li       -0.1373748       -0.2189281        0.4264533
  Li        0.5000000       -0.5000000        0.1058338
  Li        0.0000000       -0.5000000       -0.3941662
   N       -0.2529695       -0.4577110       -0.2113549
   N        0.2529695        0.4577110       -0.2113549
   N        0.2047415        0.4577110        0.2886451
   N       -0.2047415       -0.4577110        0.2886451
   N        0.3928027       -0.1529681       -0.3812414
   N       -0.3928027        0.1529681       -0.3812414
   N       -0.4542293        0.1529681        0.1187586
   N        0.4542293       -0.1529681        0.1187586
   N        0.2690424       -0.1805948        0.2709706
   N       -0.2690424        0.1805948        0.2709706
   N        0.4496372        0.1805948       -0.2290294
   N       -0.4496372       -0.1805948       -0.2290294
%ENDBLOCK POSITIONS_FRAC

KPOINTS_MP_SPACING 0.07

%BLOCK SPECIES_POT
QC5
%ENDBLOCK SPECIES_POT

SNAP_TO_SYMMETRY
SYMMETRY_GENERATE

