#              Generated by Buildcell
#
# at 18:31:58 (GMT+1.0) 26th March 2023
# in /scratch/scratch/uccabz1/launch_tmp_michael
# on node-a14b-031
# by uccabz1
#
# compiler GCC version 4.9.2
# options -cpp -iprefix /scratch/UCL/applications/gcc/4.9.2/bin/../lib/gcc/x86_64-unknown-linux-gnu/4.9.2/ -mtune=corei7 -march=x86-64 -g -Og
#
# seed   845552050  1764128613  1249481145  -280809176  -737025298  -194183346    81085842  -622683291   762960779   702393273   543695296 -1941265196
#
#      Author: C. J. Pickard (cjp20@cam.ac.uk)
#                Space group: P31
#

%BLOCK LATTICE_ABC
      5.10994      5.10994      7.63647
     90.00000     90.00000    120.00000
%ENDBLOCK LATTICE_ABC

%BLOCK POSITIONS_FRAC
  Li        0.0341182       -0.3252463       -0.3984661
  Li        0.3252463        0.3593645       -0.0651327
  Li       -0.3593645       -0.0341182        0.2682006
  Li        0.4763382        0.4682566       -0.3797993
  Li       -0.4682566        0.0080816       -0.0464660
  Li       -0.0080816       -0.4763382        0.2868673
   N       -0.0190661       -0.0715629        0.3556290
   N        0.0715629        0.0524969       -0.3110377
   N       -0.0524969        0.0190661        0.0222957
   N        0.1203905       -0.3823091       -0.0495435
   N        0.3823091       -0.4973003        0.2837898
   N        0.4973003       -0.1203905       -0.3828769
   N        0.2694507        0.1095542        0.4847175
   N       -0.1095542        0.1598965       -0.1819492
   N       -0.1598965       -0.2694507        0.1513842
   N        0.1138749        0.2900669        0.1500598
   N       -0.2900669       -0.1761920        0.4833931
   N        0.1761920       -0.1138749       -0.1832736
%ENDBLOCK POSITIONS_FRAC

KPOINTS_MP_SPACING 0.07

%BLOCK SPECIES_POT
QC5
%ENDBLOCK SPECIES_POT

SNAP_TO_SYMMETRY
SYMMETRY_GENERATE

