#              Generated by Buildcell
#
# at 19:14:11 (GMT+1.0) 26th March 2023
# in /scratch/scratch/uccabz1/launch_tmp_michael
# on node-a14b-022
# by uccabz1
#
# compiler GCC version 4.9.2
# options -cpp -iprefix /scratch/UCL/applications/gcc/4.9.2/bin/../lib/gcc/x86_64-unknown-linux-gnu/4.9.2/ -mtune=corei7 -march=x86-64 -g -Og
#
# seed -2085664495 -1100760922 -1770145999  1038706751   727792705   666172385   972621057 -1611832549   137737487 -2094509696  1428738386   -24395607
#
#      Author: C. J. Pickard (cjp20@cam.ac.uk)
#                Space group: Ima2
#

%BLOCK LATTICE_ABC
      5.16624      6.59190      6.59190
     73.66026     66.92952     66.92952
%ENDBLOCK LATTICE_ABC

%BLOCK POSITIONS_FRAC
  Li       -0.2083713       -0.3340280        0.1058695
  Li        0.2083713       -0.1058695        0.3340280
  Li       -0.0634702        0.1659720       -0.3941305
  Li        0.0634702        0.3941305       -0.1659720
  Li        0.5000000        0.0427006       -0.0427006
  Li       -0.0000000       -0.4572994        0.4572994
   N       -0.1699604       -0.1472393        0.4751266
   N        0.1699604       -0.4751266        0.1472393
   N        0.3420731        0.3527607       -0.0248734
   N       -0.3420731        0.0248734       -0.3527607
   N        0.4759399       -0.1499871        0.4863716
   N       -0.4759399       -0.4863716        0.1499871
   N       -0.3123244        0.3500129       -0.0136284
   N        0.3123244        0.0136284       -0.3500129
   N       -0.2652489        0.4286757       -0.2584565
   N        0.2652489        0.2584565       -0.4286757
   N       -0.4049702       -0.0713243        0.2415435
   N        0.4049702       -0.2415435        0.0713243
%ENDBLOCK POSITIONS_FRAC

KPOINTS_MP_SPACING 0.07

%BLOCK SPECIES_POT
QC5
%ENDBLOCK SPECIES_POT

SNAP_TO_SYMMETRY
SYMMETRY_GENERATE

