#              Generated by Buildcell
#
# at 18:00:00 (GMT+1.0) 26th March 2023
# in /scratch/scratch/uccabz1/launch_tmp_michael
# on node-a14f-035
# by uccabz1
#
# compiler GCC version 4.9.2
# options -cpp -iprefix /scratch/UCL/applications/gcc/4.9.2/bin/../lib/gcc/x86_64-unknown-linux-gnu/4.9.2/ -mtune=corei7 -march=x86-64 -g -Og
#
# seed  1923331592   832943242  1162404207  1000476565  -293650853 -1090989244  1085004692  1190507867 -1316019547  1883967150 -1143134419 -1487334227
#
#      Author: C. J. Pickard (cjp20@cam.ac.uk)
#                Space group: P3
#

%BLOCK LATTICE_ABC
      2.50000      7.56119      7.56119
    120.00000     90.00000     90.00000
%ENDBLOCK LATTICE_ABC

%BLOCK POSITIONS_FRAC
  Li       -0.2151498       -0.4536455        0.0394287
  Li       -0.2151498       -0.0394287       -0.4930741
  Li       -0.2151498        0.4930741        0.4536455
  Li        0.4859655        0.0000000        0.0000000
   N        0.3262870        0.4708116       -0.2178566
   N        0.3262870        0.2178566       -0.3113317
   N        0.3262870        0.3113317       -0.4708116
   N       -0.4193130        0.2947705        0.0472285
   N       -0.4193130       -0.0472285        0.2475420
   N       -0.4193130       -0.2475420       -0.2947705
   N       -0.2506952       -0.3333333        0.3333333
   N       -0.1682513        0.3333333       -0.3333333
%ENDBLOCK POSITIONS_FRAC

KPOINTS_MP_SPACING 0.07

%BLOCK SPECIES_POT
QC5
%ENDBLOCK SPECIES_POT

SNAP_TO_SYMMETRY
SYMMETRY_GENERATE

