#              Generated by Buildcell
#
# at 17:20:52 (GMT+1.0) 26th March 2023
# in /scratch/scratch/uccabz1/launch_tmp_michael
# on node-a14b-031
# by uccabz1
#
# compiler GCC version 4.9.2
# options -cpp -iprefix /scratch/UCL/applications/gcc/4.9.2/bin/../lib/gcc/x86_64-unknown-linux-gnu/4.9.2/ -mtune=corei7 -march=x86-64 -g -Og
#
# seed -1290591314   -34717059  1826607265  -600749184 -1803252708  1427603595  -404762312  1377969571  1364251098   503638943  -883473546   977372353
#
#      Author: C. J. Pickard (cjp20@cam.ac.uk)
#                Space group: R3
#

%BLOCK LATTICE_ABC
      3.92293      3.92293      3.92293
     90.37711     90.37711     90.37711
%ENDBLOCK LATTICE_ABC

%BLOCK POSITIONS_FRAC
  Li       -0.0553811       -0.0553811       -0.0553811
  Li       -0.4257772       -0.4257772       -0.4257772
   N        0.1204818        0.3123087       -0.3611129
   N        0.3123087       -0.3611129        0.1204818
   N       -0.3611129        0.1204818        0.3123087
   N        0.2927298        0.2927298        0.2927298
%ENDBLOCK POSITIONS_FRAC

KPOINTS_MP_SPACING 0.07

%BLOCK SPECIES_POT
QC5
%ENDBLOCK SPECIES_POT

SNAP_TO_SYMMETRY
SYMMETRY_GENERATE

