#              Generated by Buildcell
#
# at 19:56:39 (GMT+1.0) 26th March 2023
# in /scratch/scratch/uccabz1/launch_tmp_michael
# on node-a14a-003
# by uccabz1
#
# compiler GCC version 4.9.2
# options -cpp -iprefix /scratch/UCL/applications/gcc/4.9.2/bin/../lib/gcc/x86_64-unknown-linux-gnu/4.9.2/ -mtune=corei7 -march=x86-64 -g -Og
#
# seed   -99221742 -1370628763 -1092393546   711558581  -796355697 -1541997006  1641616472 -1593183551    90074142   714060608  1865288369  2053013271
#
#      Author: C. J. Pickard (cjp20@cam.ac.uk)
#                Space group: P3
#

%BLOCK LATTICE_ABC
      3.38834      3.38834      6.08381
     90.00000     90.00000    120.00000
%ENDBLOCK LATTICE_ABC

%BLOCK POSITIONS_FRAC
  Li       -0.3333333        0.3333333        0.0912180
  Li        0.3333333       -0.3333333        0.4002786
   N       -0.2553227       -0.2674475       -0.3551709
   N        0.2674475        0.0121247       -0.3551709
   N       -0.0121247        0.2553227       -0.3551709
   N        0.3333333       -0.3333333       -0.1791021
%ENDBLOCK POSITIONS_FRAC

KPOINTS_MP_SPACING 0.07

%BLOCK SPECIES_POT
QC5
%ENDBLOCK SPECIES_POT

SNAP_TO_SYMMETRY
SYMMETRY_GENERATE

