#              Generated by Buildcell
#
# at 16:40:04 (GMT+1.0) 26th March 2023
# in /scratch/scratch/uccabz1/launch_tmp_michael
# on node-a14a-001
# by uccabz1
#
# compiler GCC version 4.9.2
# options -cpp -iprefix /scratch/UCL/applications/gcc/4.9.2/bin/../lib/gcc/x86_64-unknown-linux-gnu/4.9.2/ -mtune=corei7 -march=x86-64 -g -Og
#
# seed   636904080  1327118761  1619093744 -1528000114 -1259075614  -846123285  1106775353  1714538381   631368054  -592131439    50041435   415622058
#
#      Author: C. J. Pickard (cjp20@cam.ac.uk)
#                Space group: Cm
#

%BLOCK LATTICE_ABC
      5.30939      5.86064      6.84916
    107.68278    104.51428    108.67220
%ENDBLOCK LATTICE_ABC

%BLOCK POSITIONS_FRAC
  Li       -0.2900910        0.0649812       -0.2075913
  Li       -0.0824997        0.2725725        0.2075913
  Li       -0.0630483       -0.2867956       -0.4111722
  Li        0.3481240        0.1243766        0.4111722
  Li        0.0340492        0.3551029       -0.3291353
  Li        0.3631845       -0.3157617        0.3291353
   N       -0.3281675        0.3207270       -0.3144946
   N       -0.0136729       -0.3647784        0.3144946
   N        0.3352753       -0.2117470       -0.3133379
   N       -0.3513868        0.1015909        0.3133379
   N        0.3063381        0.2331094       -0.2193658
   N       -0.4742961        0.4524752        0.2193658
   N        0.1250263        0.0749490        0.1245547
   N        0.0004715       -0.0496058       -0.1245547
   N        0.4273648       -0.1626743        0.1246457
   N        0.3027191       -0.2873199       -0.1246457
   N        0.4244820        0.1573706        0.1270689
   N        0.2974132        0.0303018       -0.1270689
%ENDBLOCK POSITIONS_FRAC

KPOINTS_MP_SPACING 0.07

%BLOCK SPECIES_POT
QC5
%ENDBLOCK SPECIES_POT

SNAP_TO_SYMMETRY
SYMMETRY_GENERATE

