#              Generated by Buildcell
#
# at 16:52:36 (GMT+1.0) 26th March 2023
# in /scratch/scratch/uccabz1/launch_tmp_michael
# on node-a14b-028
# by uccabz1
#
# compiler GCC version 4.9.2
# options -cpp -iprefix /scratch/UCL/applications/gcc/4.9.2/bin/../lib/gcc/x86_64-unknown-linux-gnu/4.9.2/ -mtune=corei7 -march=x86-64 -g -Og
#
# seed   788033807   -22833827  1494592518   322234522 -2087956845 -1248690736 -2103856432   127177172  1487580851   562162901  -668792365 -1393984738
#
#      Author: C. J. Pickard (cjp20@cam.ac.uk)
#                Space group: Cc
#

%BLOCK LATTICE_ABC
      2.80500      6.28530      7.68341
    113.30292     98.76913     94.21782
%ENDBLOCK LATTICE_ABC

%BLOCK POSITIONS_FRAC
  Li        0.1987155        0.0533775        0.4866643
  Li        0.2120513       -0.4332868       -0.4866643
  Li        0.2766783        0.3531499       -0.1496058
  Li       -0.0737159       -0.4972443        0.1496058
   N        0.2669872        0.2443072        0.3217644
   N        0.4452227       -0.0774572       -0.3217644
   N       -0.1915698        0.0180364       -0.1343430
   N        0.4427732        0.1523794        0.1343430
   N       -0.2422912        0.3547378       -0.4156031
   N       -0.3266880       -0.2296590        0.4156031
   N        0.0042180       -0.1976074       -0.1340629
   N       -0.3617191       -0.0635445        0.1340629
%ENDBLOCK POSITIONS_FRAC

KPOINTS_MP_SPACING 0.07

%BLOCK SPECIES_POT
QC5
%ENDBLOCK SPECIES_POT

SNAP_TO_SYMMETRY
SYMMETRY_GENERATE

