#              Generated by Buildcell
#
# at 15:56:54 (GMT+1.0) 26th March 2023
# in /scratch/scratch/uccabz1/launch_tmp_michael
# on node-a14e-007
# by uccabz1
#
# compiler GCC version 4.9.2
# options -cpp -iprefix /scratch/UCL/applications/gcc/4.9.2/bin/../lib/gcc/x86_64-unknown-linux-gnu/4.9.2/ -mtune=corei7 -march=x86-64 -g -Og
#
# seed  1741623824 -1730665696  1260928474  -143913121  -810848853  -412639506   236698351   669036801  -186251206  1663813747   129322979  -409256289
#
#      Author: C. J. Pickard (cjp20@cam.ac.uk)
#                Space group: P2/m
#

%BLOCK LATTICE_ABC
      3.23769      3.97018      7.27796
     90.00000    102.02893     90.00000
%ENDBLOCK LATTICE_ABC

%BLOCK POSITIONS_FRAC
  Li       -0.1695086       -0.0000000       -0.2813182
  Li        0.1695086        0.0000000        0.2813182
  Li        0.5000000        0.0000000       -0.0000000
   N       -0.3630933        0.2334733        0.4274927
   N        0.3630933        0.2334733       -0.4274927
   N        0.3630933       -0.2334733       -0.4274927
   N       -0.3630933       -0.2334733        0.4274927
   N       -0.1506865        0.5000000        0.1772328
   N        0.1506865        0.5000000       -0.1772328
%ENDBLOCK POSITIONS_FRAC

KPOINTS_MP_SPACING 0.07

%BLOCK SPECIES_POT
QC5
%ENDBLOCK SPECIES_POT

SNAP_TO_SYMMETRY
SYMMETRY_GENERATE

