#              Generated by Buildcell
#
# at 17:15:13 (GMT+1.0) 26th March 2023
# in /scratch/scratch/uccabz1/launch_tmp_michael
# on node-a14a-001
# by uccabz1
#
# compiler GCC version 4.9.2
# options -cpp -iprefix /scratch/UCL/applications/gcc/4.9.2/bin/../lib/gcc/x86_64-unknown-linux-gnu/4.9.2/ -mtune=corei7 -march=x86-64 -g -Og
#
# seed  1086885816 -1783862470   947526544   502687060 -1646772227    -8591375  1781632597 -1421485347  1718115284  -231749802 -1293270043  1098293928
#
#      Author: C. J. Pickard (cjp20@cam.ac.uk)
#                Space group: P3
#

%BLOCK LATTICE_ABC
      2.52872      7.37408      7.37408
    120.00000     90.00000     90.00000
%ENDBLOCK LATTICE_ABC

%BLOCK POSITIONS_FRAC
  Li        0.4872259       -0.0030951       -0.3229943
  Li        0.4872259        0.3229943        0.3198991
  Li        0.4872259       -0.3198991        0.0030951
  Li        0.0689251        0.3333333       -0.3333333
   N        0.0760518       -0.1337198       -0.0470296
   N        0.0760518        0.0470296       -0.0866902
   N        0.0760518        0.0866902        0.1337198
   N       -0.3518792       -0.1978479        0.3927417
   N       -0.3518792       -0.3927417        0.4094104
   N       -0.3518792       -0.4094104        0.1978479
   N       -0.4224118        0.0000000       -0.0000000
   N        0.1320679       -0.3333333        0.3333333
%ENDBLOCK POSITIONS_FRAC

KPOINTS_MP_SPACING 0.07

%BLOCK SPECIES_POT
QC5
%ENDBLOCK SPECIES_POT

SNAP_TO_SYMMETRY
SYMMETRY_GENERATE

