#              Generated by Buildcell
#
# at 17:08:53 (GMT+1.0) 26th March 2023
# in /scratch/scratch/uccabz1/launch_tmp_michael
# on node-a14a-001
# by uccabz1
#
# compiler GCC version 4.9.2
# options -cpp -iprefix /scratch/UCL/applications/gcc/4.9.2/bin/../lib/gcc/x86_64-unknown-linux-gnu/4.9.2/ -mtune=corei7 -march=x86-64 -g -Og
#
# seed   347569270  1377015599  1003514242  -941389551   918711372  1894282584  1687606744  1770787203  1083355751   583565605   557266984 -1022048410
#
#      Author: C. J. Pickard (cjp20@cam.ac.uk)
#                Space group: P32
#

%BLOCK LATTICE_ABC
      4.09864      4.09864      5.96200
     90.00000     90.00000    120.00000
%ENDBLOCK LATTICE_ABC

%BLOCK POSITIONS_FRAC
  Li       -0.1581414       -0.2430575        0.2996128
  Li        0.2430575        0.0849162       -0.3670539
  Li       -0.0849162        0.1581414       -0.0337206
   N        0.4784166        0.1689355        0.3377750
   N       -0.1689355        0.3094811       -0.3288916
   N       -0.3094811       -0.4784166        0.0044417
   N        0.1339973       -0.3582660        0.1020093
   N        0.3582660        0.4922634        0.4353426
   N       -0.4922634       -0.1339973       -0.2313240
%ENDBLOCK POSITIONS_FRAC

KPOINTS_MP_SPACING 0.07

%BLOCK SPECIES_POT
QC5
%ENDBLOCK SPECIES_POT

SNAP_TO_SYMMETRY
SYMMETRY_GENERATE

