#              Generated by Buildcell
#
# at 17:22:14 (GMT+1.0) 26th March 2023
# in /scratch/scratch/uccabz1/launch_tmp_michael
# on node-a14e-007
# by uccabz1
#
# compiler GCC version 4.9.2
# options -cpp -iprefix /scratch/UCL/applications/gcc/4.9.2/bin/../lib/gcc/x86_64-unknown-linux-gnu/4.9.2/ -mtune=corei7 -march=x86-64 -g -Og
#
# seed  -450521401  -988113565  1555462418 -1897258681  1340293307 -2080870757  -615459013 -1639998501 -1327201406  -633783043 -1277624658  1030511855
#
#      Author: C. J. Pickard (cjp20@cam.ac.uk)
#                Space group: P21/m
#

%BLOCK LATTICE_ABC
      3.41103      4.64987      7.82907
     90.00000     90.00000     93.07018
%ENDBLOCK LATTICE_ABC

%BLOCK POSITIONS_FRAC
  Li       -0.2443513        0.1286263        0.4096618
  Li        0.2443513       -0.1286263       -0.0903382
  Li        0.2443513       -0.1286263       -0.4096618
  Li       -0.2443513        0.1286263        0.0903382
   N       -0.2159297       -0.3513168       -0.3461911
   N        0.2159297        0.3513168        0.1538089
   N        0.2159297        0.3513168        0.3461911
   N       -0.2159297       -0.3513168       -0.1538089
   N        0.1107025        0.2665883       -0.1541485
   N       -0.1107025       -0.2665883        0.3458515
   N       -0.1107025       -0.2665883        0.1541485
   N        0.1107025        0.2665883       -0.3458515
%ENDBLOCK POSITIONS_FRAC

KPOINTS_MP_SPACING 0.07

%BLOCK SPECIES_POT
QC5
%ENDBLOCK SPECIES_POT

SNAP_TO_SYMMETRY
SYMMETRY_GENERATE

