#              Generated by Buildcell
#
# at 17:41:55 (GMT+1.0) 26th March 2023
# in /scratch/scratch/uccabz1/launch_tmp_michael
# on node-a14f-035
# by uccabz1
#
# compiler GCC version 4.9.2
# options -cpp -iprefix /scratch/UCL/applications/gcc/4.9.2/bin/../lib/gcc/x86_64-unknown-linux-gnu/4.9.2/ -mtune=corei7 -march=x86-64 -g -Og
#
# seed   637013598  1596973861 -1474335783  1582843244 -1630579858 -1586277902  1844568837   529966430   980946054 -1461033672   958142268   971527304
#
#      Author: C. J. Pickard (cjp20@cam.ac.uk)
#                Space group: P31
#

%BLOCK LATTICE_ABC
      4.69897      4.69897      9.46796
     90.00000     90.00000    120.00000
%ENDBLOCK LATTICE_ABC

%BLOCK POSITIONS_FRAC
  Li       -0.1887239       -0.1756261       -0.4129048
  Li        0.0130977        0.1887239       -0.0795715
  Li        0.1756261       -0.0130977        0.2537619
  Li        0.1158449       -0.2192851       -0.2052318
  Li       -0.3351300       -0.1158449        0.1281015
  Li        0.2192851        0.3351300        0.4614348
   N       -0.1551302        0.4804416       -0.0637307
   N       -0.3644281        0.1551302        0.2696026
   N       -0.4804416        0.3644281       -0.3970641
   N       -0.4127023       -0.0328886        0.4374857
   N        0.3798137        0.4127023       -0.2291810
   N        0.0328886       -0.3798137        0.1041523
   N        0.4965898       -0.4775118       -0.0810072
   N        0.0258983       -0.4965898        0.2523262
   N        0.4775118       -0.0258983       -0.4143405
   N        0.3709967       -0.3274418       -0.3258829
   N        0.3015614       -0.3709967        0.0074505
   N        0.3274418       -0.3015614        0.3407838
%ENDBLOCK POSITIONS_FRAC

KPOINTS_MP_SPACING 0.07

%BLOCK SPECIES_POT
QC5
%ENDBLOCK SPECIES_POT

SNAP_TO_SYMMETRY
SYMMETRY_GENERATE

