#              Generated by Buildcell
#
# at 20:00:09 (GMT+1.0) 26th March 2023
# in /scratch/scratch/uccabz1/launch_tmp_michael
# on node-a14e-021
# by uccabz1
#
# compiler GCC version 4.9.2
# options -cpp -iprefix /scratch/UCL/applications/gcc/4.9.2/bin/../lib/gcc/x86_64-unknown-linux-gnu/4.9.2/ -mtune=corei7 -march=x86-64 -g -Og
#
# seed  -235745148   566870765 -1894712342   298928932  -662510495 -1933699490 -1982164074  1660949188  -782514393   412644757  1386543015    29873638
#
#      Author: C. J. Pickard (cjp20@cam.ac.uk)
#                Space group: Cm
#

%BLOCK LATTICE_ABC
      3.99037      4.33987      4.33987
     70.34684     66.23764     66.23764
%ENDBLOCK LATTICE_ABC

%BLOCK POSITIONS_FRAC
  Li        0.0213399       -0.4518393        0.0481591
  Li        0.0213399        0.0481591       -0.4518393
   N       -0.4640448       -0.4283101       -0.1158950
   N       -0.4640448       -0.1158950       -0.4283101
   N       -0.4894857       -0.3405659        0.3549020
   N       -0.4894857        0.3549020       -0.3405659
%ENDBLOCK POSITIONS_FRAC

KPOINTS_MP_SPACING 0.07

%BLOCK SPECIES_POT
QC5
%ENDBLOCK SPECIES_POT

SNAP_TO_SYMMETRY
SYMMETRY_GENERATE

