#              Generated by Buildcell
#
# at 18:56:24 (GMT+1.0) 26th March 2023
# in /scratch/scratch/uccabz1/launch_tmp_michael
# on node-a14b-028
# by uccabz1
#
# compiler GCC version 4.9.2
# options -cpp -iprefix /scratch/UCL/applications/gcc/4.9.2/bin/../lib/gcc/x86_64-unknown-linux-gnu/4.9.2/ -mtune=corei7 -march=x86-64 -g -Og
#
# seed    71216418 -1065230202  -888766733 -1105318650  2098578793  1504088294  1222980564   198457077   766421683 -1828181301  -389993565  1625482532
#
#      Author: C. J. Pickard (cjp20@cam.ac.uk)
#                Space group: Aem2
#

%BLOCK LATTICE_ABC
      2.51555      7.26607      7.26607
    119.62849     90.00000     90.00000
%ENDBLOCK LATTICE_ABC

%BLOCK POSITIONS_FRAC
  Li        0.1632973       -0.4618833       -0.2739174
  Li       -0.1632973       -0.2739174       -0.4618833
  Li        0.1632973        0.2260826        0.0381167
  Li       -0.1632973        0.0381167        0.2260826
   N       -0.0517987        0.0035137       -0.2312939
   N        0.0517987       -0.2312939        0.0035137
   N       -0.0517987       -0.7312939       -0.4964863
   N        0.0517987        0.5035137        0.2687061
   N        0.4251539       -0.2045606        0.1760101
   N       -0.4251539        0.1760101       -0.2045606
   N        0.4251539        0.6760101        0.2954394
   N       -0.4251539       -0.7045606       -0.3239899
%ENDBLOCK POSITIONS_FRAC

KPOINTS_MP_SPACING 0.07

%BLOCK SPECIES_POT
QC5
%ENDBLOCK SPECIES_POT

SNAP_TO_SYMMETRY
SYMMETRY_GENERATE

