#              Generated by Buildcell
#
# at 20:23:24 (GMT+1.0) 26th March 2023
# in /scratch/scratch/uccabz1/launch_tmp_michael
# on node-a14b-028
# by uccabz1
#
# compiler GCC version 4.9.2
# options -cpp -iprefix /scratch/UCL/applications/gcc/4.9.2/bin/../lib/gcc/x86_64-unknown-linux-gnu/4.9.2/ -mtune=corei7 -march=x86-64 -g -Og
#
# seed   597262283  -471312503   256245359   578978146 -1157308892  -193146386  -154383650   -36656226  -889304893  -776798179  1315430767   697374673
#
#      Author: C. J. Pickard (cjp20@cam.ac.uk)
#                Space group: Amm2
#

%BLOCK LATTICE_ABC
      3.31361      3.31361      9.16855
     90.00000     90.00000    112.96249
%ENDBLOCK LATTICE_ABC

%BLOCK POSITIONS_FRAC
  Li        0.0842231        0.0842231       -0.2603378
  Li        0.0842231        0.0842231        0.2603378
  Li        0.4101515        0.4101515       -0.5000000
   N       -0.2490656        0.2760828       -0.1286278
   N        0.2760828       -0.2490656        0.1286278
   N        0.2760828       -0.2490656       -0.1286278
   N       -0.2490656        0.2760828        0.1286278
   N        0.3481043        0.3481043       -0.0818712
   N        0.3481043        0.3481043        0.0818712
%ENDBLOCK POSITIONS_FRAC

KPOINTS_MP_SPACING 0.07

%BLOCK SPECIES_POT
QC5
%ENDBLOCK SPECIES_POT

SNAP_TO_SYMMETRY
SYMMETRY_GENERATE

