#              Generated by Buildcell
#
# at 18:14:40 (GMT+1.0) 26th March 2023
# in /scratch/scratch/uccabz1/launch_tmp_michael
# on node-a14c-005
# by uccabz1
#
# compiler GCC version 4.9.2
# options -cpp -iprefix /scratch/UCL/applications/gcc/4.9.2/bin/../lib/gcc/x86_64-unknown-linux-gnu/4.9.2/ -mtune=corei7 -march=x86-64 -g -Og
#
# seed   304951289 -1357693580   465431499   369671745  1479442683   999035342  1067057098  -353926416 -2091739540  1987243358  -576607097   599482727
#
#      Author: C. J. Pickard (cjp20@cam.ac.uk)
#                Space group: P3
#

%BLOCK LATTICE_ABC
      4.96063      4.96063      5.38284
     90.00000     90.00000    120.00000
%ENDBLOCK LATTICE_ABC

%BLOCK POSITIONS_FRAC
  Li       -0.3619024       -0.0584754        0.1916925
  Li        0.3034270        0.3619024        0.1916925
  Li        0.0584754       -0.3034270        0.1916925
  Li       -0.3333333        0.3333333       -0.1165037
   N        0.1773480        0.0036179       -0.0603395
   N       -0.1737301       -0.1773480       -0.0603395
   N       -0.0036179        0.1737301       -0.0603395
   N        0.1594393        0.4254746       -0.2503728
   N        0.2660353       -0.1594393       -0.2503728
   N       -0.4254746       -0.2660353       -0.2503728
   N       -0.3333333        0.3333333        0.2467120
   N       -0.3333333        0.3333333       -0.4734314
%ENDBLOCK POSITIONS_FRAC

KPOINTS_MP_SPACING 0.07

%BLOCK SPECIES_POT
QC5
%ENDBLOCK SPECIES_POT

SNAP_TO_SYMMETRY
SYMMETRY_GENERATE

