#              Generated by Buildcell
#
# at 20:13:04 (GMT+1.0) 26th March 2023
# in /scratch/scratch/uccabz1/launch_tmp_michael
# on node-a14b-031
# by uccabz1
#
# compiler GCC version 4.9.2
# options -cpp -iprefix /scratch/UCL/applications/gcc/4.9.2/bin/../lib/gcc/x86_64-unknown-linux-gnu/4.9.2/ -mtune=corei7 -march=x86-64 -g -Og
#
# seed  -900718442 -1000614527  -705776627  1379800990  1580116112   490048387  1984906573 -1431956404  1022871215   198917637  -902232001  -154823391
#
#      Author: C. J. Pickard (cjp20@cam.ac.uk)
#                Space group: P31
#

%BLOCK LATTICE_ABC
      5.11148      6.33811      6.33811
    120.00000     90.00000     90.00000
%ENDBLOCK LATTICE_ABC

%BLOCK POSITIONS_FRAC
  Li       -0.1010157        0.1361826        0.2824020
  Li        0.2323176       -0.2824020       -0.1462194
  Li       -0.4343491        0.1462194       -0.1361826
  Li        0.2182821        0.1411734       -0.4163455
  Li       -0.4483846        0.4163455       -0.4424811
  Li       -0.1150512        0.4424811       -0.1411734
   N       -0.3673019       -0.1920763       -0.2720423
   N       -0.0339685        0.2720423        0.0799660
   N        0.2993648       -0.0799660        0.1920763
   N        0.2134518        0.1744092        0.1451451
   N       -0.4532148       -0.1451451        0.0292641
   N       -0.1198815       -0.0292641       -0.1744092
   N        0.4135397       -0.3088300       -0.4519331
   N       -0.2531269        0.4519331        0.1431030
   N        0.0802064       -0.1431030        0.3088300
   N       -0.0853506       -0.1962037        0.0334781
   N        0.2479828       -0.0334781       -0.2296818
   N       -0.4186839        0.2296818        0.1962037
%ENDBLOCK POSITIONS_FRAC

KPOINTS_MP_SPACING 0.07

%BLOCK SPECIES_POT
QC5
%ENDBLOCK SPECIES_POT

SNAP_TO_SYMMETRY
SYMMETRY_GENERATE

