#              Generated by Buildcell
#
# at 18:35:23 (GMT+1.0) 26th March 2023
# in /scratch/scratch/uccabz1/launch_tmp_michael
# on node-a14e-007
# by uccabz1
#
# compiler GCC version 4.9.2
# options -cpp -iprefix /scratch/UCL/applications/gcc/4.9.2/bin/../lib/gcc/x86_64-unknown-linux-gnu/4.9.2/ -mtune=corei7 -march=x86-64 -g -Og
#
# seed   -35266086   -90884183  -746028549  -863628612  -406472621   807650008  1824165532  1080486779  -482551285  1405431244   985313338   546258139
#
#      Author: C. J. Pickard (cjp20@cam.ac.uk)
#                Space group: I4
#

%BLOCK LATTICE_ABC
      4.56605      4.56605      5.37706
    115.12449    115.12449     90.00000
%ENDBLOCK LATTICE_ABC

%BLOCK POSITIONS_FRAC
  Li       -0.2147643        0.2852357       -0.4295286
  Li        0.2852357       -0.2147643       -0.4295286
  Li       -0.3332253       -0.3332253        0.3335493
   N       -0.1255667        0.1267854        0.2228691
   N        0.3484358        0.0960837        0.2228691
   N        0.0960837       -0.1255667        0.2228691
   N        0.1267854        0.3484358        0.2228691
   N       -0.4938234        0.0061766        0.0123533
   N        0.0061766       -0.4938234        0.0123533
%ENDBLOCK POSITIONS_FRAC

KPOINTS_MP_SPACING 0.07

%BLOCK SPECIES_POT
QC5
%ENDBLOCK SPECIES_POT

SNAP_TO_SYMMETRY
SYMMETRY_GENERATE

