#              Generated by Buildcell
#
# at 15:56:22 (GMT+1.0) 26th March 2023
# in /scratch/scratch/uccabz1/launch_tmp_michael
# on node-a14b-031
# by uccabz1
#
# compiler GCC version 4.9.2
# options -cpp -iprefix /scratch/UCL/applications/gcc/4.9.2/bin/../lib/gcc/x86_64-unknown-linux-gnu/4.9.2/ -mtune=corei7 -march=x86-64 -g -Og
#
# seed  1559487080  -267929197  1190740772 -1797473469  -201329277   460578264 -1713339867   496391169 -1588011897 -1222577120 -1059600481   171362620
#
#      Author: C. J. Pickard (cjp20@cam.ac.uk)
#                Space group: F222
#

%BLOCK LATTICE_ABC
      4.52566      4.52566      6.70461
    101.06720    101.06720    115.54598
%ENDBLOCK LATTICE_ABC

%BLOCK POSITIONS_FRAC
  Li       -0.4119587        0.2526797       -0.2002876
  Li        0.4529673       -0.2116712        0.2002876
  Li        0.2116712       -0.4529673       -0.2002876
  Li       -0.2526797        0.4119587        0.2002876
   N        0.4743846       -0.4817984        0.3866159
   N        0.1315857        0.0877688       -0.3866159
   N       -0.0877688       -0.1315857        0.3866159
   N        0.4817984       -0.4743846       -0.3866159
   N       -0.0800480       -0.2840673       -0.4037486
   N        0.1196813        0.3237005        0.4037486
   N       -0.3237005       -0.1196813       -0.4037486
   N        0.2840673        0.0800480        0.4037486
%ENDBLOCK POSITIONS_FRAC

KPOINTS_MP_SPACING 0.07

%BLOCK SPECIES_POT
QC5
%ENDBLOCK SPECIES_POT

SNAP_TO_SYMMETRY
SYMMETRY_GENERATE

