#              Generated by Buildcell
#
# at 19:52:07 (GMT+1.0) 26th March 2023
# in /scratch/scratch/uccabz1/launch_tmp_michael
# on node-a14f-035
# by uccabz1
#
# compiler GCC version 4.9.2
# options -cpp -iprefix /scratch/UCL/applications/gcc/4.9.2/bin/../lib/gcc/x86_64-unknown-linux-gnu/4.9.2/ -mtune=corei7 -march=x86-64 -g -Og
#
# seed  -311153632 -1312022483  1936826963 -1063145474  -705712191   648114957   531573182  -883573409  1522249407  -623128516 -1904956854  -704741561
#
#      Author: C. J. Pickard (cjp20@cam.ac.uk)
#                Space group: R3
#

%BLOCK LATTICE_ABC
      3.96774      3.96774      3.96774
     91.37761     91.37761     91.37761
%ENDBLOCK LATTICE_ABC

%BLOCK POSITIONS_FRAC
  Li        0.0523419        0.0523419        0.0523419
  Li       -0.3470030       -0.3470030       -0.3470030
   N        0.0683741       -0.0976158       -0.4606808
   N       -0.4606808        0.0683741       -0.0976158
   N       -0.0976158       -0.4606808        0.0683741
   N        0.3520972        0.3520972        0.3520972
%ENDBLOCK POSITIONS_FRAC

KPOINTS_MP_SPACING 0.07

%BLOCK SPECIES_POT
QC5
%ENDBLOCK SPECIES_POT

SNAP_TO_SYMMETRY
SYMMETRY_GENERATE

