#              Generated by Buildcell
#
# at 14:57:31 (GMT+1.0) 26th March 2023
# in /scratch/scratch/uccabz1/launch_tmp_michael
# on node-a14e-007
# by uccabz1
#
# compiler GCC version 4.9.2
# options -cpp -iprefix /scratch/UCL/applications/gcc/4.9.2/bin/../lib/gcc/x86_64-unknown-linux-gnu/4.9.2/ -mtune=corei7 -march=x86-64 -g -Og
#
# seed  -805694733    96940948  -596405084   846575808   293695415 -1271089637   631484444   631611364  1154805740  1100730552  1330852606   911550330
#
#      Author: C. J. Pickard (cjp20@cam.ac.uk)
#                Space group: Pmm2
#

%BLOCK LATTICE_ABC
      3.00040      5.00023      5.97842
     90.00000     90.00000     90.00000
%ENDBLOCK LATTICE_ABC

%BLOCK POSITIONS_FRAC
  Li        0.5000000        0.2499999       -0.1769395
  Li       -0.5000000       -0.2499999       -0.1769395
  Li        0.5000000       -0.5000000        0.3411056
   N       -0.2500000        0.1635586        0.4605422
   N        0.2500000       -0.1635586        0.4605422
   N       -0.2500000       -0.1635586        0.4605422
   N        0.2500000        0.1635586        0.4605422
   N        0.0000000        0.3168912       -0.3638488
   N        0.0000000       -0.3168912       -0.3638488
%ENDBLOCK POSITIONS_FRAC

KPOINTS_MP_SPACING 0.07

%BLOCK SPECIES_POT
QC5
%ENDBLOCK SPECIES_POT

SNAP_TO_SYMMETRY
SYMMETRY_GENERATE

