#              Generated by Buildcell
#
# at 16:14:52 (GMT+1.0) 26th March 2023
# in /scratch/scratch/uccabz1/launch_tmp_michael
# on node-a14c-005
# by uccabz1
#
# compiler GCC version 4.9.2
# options -cpp -iprefix /scratch/UCL/applications/gcc/4.9.2/bin/../lib/gcc/x86_64-unknown-linux-gnu/4.9.2/ -mtune=corei7 -march=x86-64 -g -Og
#
# seed -1293593215 -1538169706  -303628918  1997219475  -104813842 -1106203049 -1309810672    89472002    77073019  1489165826 -1905340551 -1384800609
#
#      Author: C. J. Pickard (cjp20@cam.ac.uk)
#                Space group: P2
#

%BLOCK LATTICE_ABC
      3.05412      4.70785      6.50226
     90.00000     90.00000     97.55009
%ENDBLOCK LATTICE_ABC

%BLOCK POSITIONS_FRAC
  Li       -0.3000196       -0.2152418        0.3014608
  Li        0.3000196        0.2152418        0.3014608
  Li        0.5000000        0.5000000       -0.3798131
   N       -0.3340448       -0.1044298       -0.3237164
   N        0.3340448        0.1044298       -0.3237164
   N        0.3839597       -0.2451786       -0.1351404
   N       -0.3839597        0.2451786       -0.1351404
   N        0.2034283       -0.3917132        0.0858448
   N       -0.2034283        0.3917132        0.0858448
%ENDBLOCK POSITIONS_FRAC

KPOINTS_MP_SPACING 0.07

%BLOCK SPECIES_POT
QC5
%ENDBLOCK SPECIES_POT

SNAP_TO_SYMMETRY
SYMMETRY_GENERATE

