#              Generated by Buildcell
#
# at 17:03:04 (GMT+1.0) 26th March 2023
# in /scratch/scratch/uccabz1/launch_tmp_michael
# on node-a14b-031
# by uccabz1
#
# compiler GCC version 4.9.2
# options -cpp -iprefix /scratch/UCL/applications/gcc/4.9.2/bin/../lib/gcc/x86_64-unknown-linux-gnu/4.9.2/ -mtune=corei7 -march=x86-64 -g -Og
#
# seed -1255922044   837155231  -688975977  -228698648  1256206238    72180521   840368118  -315232404 -1442717358  1241156383 -1709847202    -3487373
#
#      Author: C. J. Pickard (cjp20@cam.ac.uk)
#                Space group: P2
#

%BLOCK LATTICE_ABC
      2.98052      3.80337      5.23903
     95.43049     90.00000     90.00000
%ENDBLOCK LATTICE_ABC

%BLOCK POSITIONS_FRAC
  Li        0.1439677        0.2702813       -0.3444222
  Li        0.1439677       -0.2702813        0.3444222
   N       -0.3560429       -0.2572527        0.1205396
   N       -0.3560429        0.2572527       -0.1205396
   N        0.0833378        0.3015400        0.0183993
   N        0.0833378       -0.3015400       -0.0183993
%ENDBLOCK POSITIONS_FRAC

KPOINTS_MP_SPACING 0.07

%BLOCK SPECIES_POT
QC5
%ENDBLOCK SPECIES_POT

SNAP_TO_SYMMETRY
SYMMETRY_GENERATE

