#              Generated by Buildcell
#
# at 16:16:57 (GMT+1.0) 26th March 2023
# in /scratch/scratch/uccabz1/launch_tmp_michael
# on node-a14b-022
# by uccabz1
#
# compiler GCC version 4.9.2
# options -cpp -iprefix /scratch/UCL/applications/gcc/4.9.2/bin/../lib/gcc/x86_64-unknown-linux-gnu/4.9.2/ -mtune=corei7 -march=x86-64 -g -Og
#
# seed  2006212990   327762893 -1760557973   538782203   348480624  1672504915     8438755 -1695927870   -14879297   355264150  2050690198 -1302912821
#
#      Author: C. J. Pickard (cjp20@cam.ac.uk)
#                Space group: Cm
#

%BLOCK LATTICE_ABC
      2.50130      4.82942      5.47344
     87.22255     79.21544     74.99135
%ENDBLOCK LATTICE_ABC

%BLOCK POSITIONS_FRAC
  Li       -0.2709003        0.2679705        0.3719665
  Li       -0.0029297       -0.2679705        0.3719665
   N        0.2805370        0.3452274       -0.1488613
   N       -0.3742356       -0.3452274       -0.1488613
   N        0.3012970       -0.1950672       -0.3492224
   N        0.1062298        0.1950672       -0.3492224
%ENDBLOCK POSITIONS_FRAC

KPOINTS_MP_SPACING 0.07

%BLOCK SPECIES_POT
QC5
%ENDBLOCK SPECIES_POT

SNAP_TO_SYMMETRY
SYMMETRY_GENERATE

