#              Generated by Buildcell
#
# at 18:55:06 (GMT+1.0) 26th March 2023
# in /scratch/scratch/uccabz1/launch_tmp_michael
# on node-a14e-007
# by uccabz1
#
# compiler GCC version 4.9.2
# options -cpp -iprefix /scratch/UCL/applications/gcc/4.9.2/bin/../lib/gcc/x86_64-unknown-linux-gnu/4.9.2/ -mtune=corei7 -march=x86-64 -g -Og
#
# seed -1331068942  1452629978 -1225295179  -226749779 -1862948328 -1206147234 -2144279796 -1486393630  -416618254  -384483252    25252325   228226578
#
#      Author: C. J. Pickard (cjp20@cam.ac.uk)
#                Space group: F222
#

%BLOCK LATTICE_ABC
      4.77723      4.77723      5.12305
    110.97766    110.97766    103.42437
%ENDBLOCK LATTICE_ABC

%BLOCK POSITIONS_FRAC
  Li        0.1666427       -0.1666427        0.0000000
  Li       -0.1666427        0.1666427        0.0000000
  Li        0.5000000        0.5000000        1.0000000
   N        0.2905488        0.2905326        0.3265496
   N        0.0360008        0.0360170        0.3265496
   N       -0.0360170       -0.0360008       -0.3265496
   N       -0.2905326       -0.2905488       -0.3265496
   N        0.1184646       -0.3815354       -0.5000000
   N       -0.6184646       -0.1184646       -0.5000000
%ENDBLOCK POSITIONS_FRAC

KPOINTS_MP_SPACING 0.07

%BLOCK SPECIES_POT
QC5
%ENDBLOCK SPECIES_POT

SNAP_TO_SYMMETRY
SYMMETRY_GENERATE

