#              Generated by Buildcell
#
# at 16:45:35 (GMT+1.0) 26th March 2023
# in /scratch/scratch/uccabz1/launch_tmp_michael
# on node-a14b-031
# by uccabz1
#
# compiler GCC version 4.9.2
# options -cpp -iprefix /scratch/UCL/applications/gcc/4.9.2/bin/../lib/gcc/x86_64-unknown-linux-gnu/4.9.2/ -mtune=corei7 -march=x86-64 -g -Og
#
# seed  -578103067   154139978  -638486330  1489383346  -797919576  1976237512  -396755242   397998411 -1325129402 -1196527258  -489299438 -2085738811
#
#      Author: C. J. Pickard (cjp20@cam.ac.uk)
#                Space group: R3
#

%BLOCK LATTICE_ABC
      4.79428      4.79428      5.25928
     62.88405     62.88405     60.00000
%ENDBLOCK LATTICE_ABC

%BLOCK POSITIONS_FRAC
  Li        0.4154593       -0.1714554       -0.4824663
  Li        0.2384624        0.4154593       -0.4824663
  Li       -0.1714554        0.2384624       -0.4824663
   N        0.4357141       -0.2633818        0.0625487
   N       -0.2348810        0.4357141        0.0625487
   N       -0.2633818       -0.2348810        0.0625487
   N       -0.2906215       -0.4150222       -0.2386746
   N       -0.0556817       -0.2906215       -0.2386746
   N       -0.4150222       -0.0556817       -0.2386746
%ENDBLOCK POSITIONS_FRAC

KPOINTS_MP_SPACING 0.07

%BLOCK SPECIES_POT
QC5
%ENDBLOCK SPECIES_POT

SNAP_TO_SYMMETRY
SYMMETRY_GENERATE

