#              Generated by Buildcell
#
# at 17:07:18 (GMT+1.0) 26th March 2023
# in /scratch/scratch/uccabz1/launch_tmp_michael
# on node-a14e-021
# by uccabz1
#
# compiler GCC version 4.9.2
# options -cpp -iprefix /scratch/UCL/applications/gcc/4.9.2/bin/../lib/gcc/x86_64-unknown-linux-gnu/4.9.2/ -mtune=corei7 -march=x86-64 -g -Og
#
# seed  1087392224   833713683   756094420  1343946819  -735329708  -543875390  -432822146   366066848  1748890190 -1282027200  -337936599  1939900715
#
#      Author: C. J. Pickard (cjp20@cam.ac.uk)
#                Space group: Pm
#

%BLOCK LATTICE_ABC
      3.96913      4.81399      4.99997
     90.00000     90.00000    112.33529
%ENDBLOCK LATTICE_ABC

%BLOCK POSITIONS_FRAC
  Li        0.2915578       -0.2861133        0.2500000
  Li        0.2915578       -0.2861133       -0.2500000
  Li        0.0923292        0.0815959        0.5000000
   N        0.0979556        0.2881072       -0.1653043
   N        0.0979556        0.2881072        0.1653043
   N       -0.2104911       -0.0433881       -0.1887949
   N       -0.2104911       -0.0433881        0.1887949
   N       -0.4184140        0.1578412       -0.1578271
   N       -0.4184140        0.1578412        0.1578271
%ENDBLOCK POSITIONS_FRAC

KPOINTS_MP_SPACING 0.07

%BLOCK SPECIES_POT
QC5
%ENDBLOCK SPECIES_POT

SNAP_TO_SYMMETRY
SYMMETRY_GENERATE

