#              Generated by Buildcell
#
# at 14:50:01 (GMT+1.0) 26th March 2023
# in /scratch/scratch/uccabz1/launch_tmp_michael
# on node-a14e-021
# by uccabz1
#
# compiler GCC version 4.9.2
# options -cpp -iprefix /scratch/UCL/applications/gcc/4.9.2/bin/../lib/gcc/x86_64-unknown-linux-gnu/4.9.2/ -mtune=corei7 -march=x86-64 -g -Og
#
# seed   152419274 -1281655286  -317772675 -1419058956  1401413845 -1556212369 -1956346948  1973565148  1997521739   789817227  -890539771   237234757
#
#      Author: C. J. Pickard (cjp20@cam.ac.uk)
#                Space group: P32
#

%BLOCK LATTICE_ABC
      2.98570      2.98570     11.39599
     90.00000     90.00000    120.00000
%ENDBLOCK LATTICE_ABC

%BLOCK POSITIONS_FRAC
  Li        0.0529250       -0.2028030        0.2479023
  Li        0.2028030        0.2557280       -0.4187643
  Li       -0.2557280       -0.0529250       -0.0854310
   N        0.1312661       -0.0033062        0.4259545
   N        0.0033062        0.1345723       -0.2407122
   N       -0.1345723       -0.1312661        0.0926212
   N       -0.4097078        0.0307414       -0.3291422
   N       -0.0307414       -0.4404491        0.0041912
   N        0.4404491        0.4097078        0.3375245
%ENDBLOCK POSITIONS_FRAC

KPOINTS_MP_SPACING 0.07

%BLOCK SPECIES_POT
QC5
%ENDBLOCK SPECIES_POT

SNAP_TO_SYMMETRY
SYMMETRY_GENERATE

