#              Generated by Buildcell
#
# at 18:59:20 (GMT+1.0) 26th March 2023
# in /scratch/scratch/uccabz1/launch_tmp_michael
# on node-a14a-003
# by uccabz1
#
# compiler GCC version 4.9.2
# options -cpp -iprefix /scratch/UCL/applications/gcc/4.9.2/bin/../lib/gcc/x86_64-unknown-linux-gnu/4.9.2/ -mtune=corei7 -march=x86-64 -g -Og
#
# seed  -989627517  1156809341  1479188033  2023607401  1936925795 -1467992759 -1873217657  -535043224  -862704109  1003314202 -1242229555  1576198876
#
#      Author: C. J. Pickard (cjp20@cam.ac.uk)
#                Space group: P3
#

%BLOCK LATTICE_ABC
      4.65796      4.65796      4.88683
     90.00000     90.00000    120.00000
%ENDBLOCK LATTICE_ABC

%BLOCK POSITIONS_FRAC
  Li        0.3333557        0.2793676        0.1098199
  Li       -0.2793676        0.0539881        0.1098199
  Li       -0.0539881       -0.3333557        0.1098199
   N       -0.3159267       -0.1900949        0.4358939
   N        0.1900949       -0.1258318        0.4358939
   N        0.1258318        0.3159267        0.4358939
   N        0.4912840        0.4392538        0.4742929
   N       -0.4392538        0.0520302        0.4742929
   N       -0.0520302       -0.4912840        0.4742929
%ENDBLOCK POSITIONS_FRAC

KPOINTS_MP_SPACING 0.07

%BLOCK SPECIES_POT
QC5
%ENDBLOCK SPECIES_POT

SNAP_TO_SYMMETRY
SYMMETRY_GENERATE

