#              Generated by Buildcell
#
# at 15:14:32 (GMT+1.0) 26th March 2023
# in /scratch/scratch/uccabz1/launch_tmp_michael
# on node-a14a-003
# by uccabz1
#
# compiler GCC version 4.9.2
# options -cpp -iprefix /scratch/UCL/applications/gcc/4.9.2/bin/../lib/gcc/x86_64-unknown-linux-gnu/4.9.2/ -mtune=corei7 -march=x86-64 -g -Og
#
# seed -2082163274  -204615896   413030997 -1364042998   301666629    85240367    87412838 -1266848037  1925613934 -2009518057   266544879 -1738538053
#
#      Author: C. J. Pickard (cjp20@cam.ac.uk)
#                Space group: R3
#

%BLOCK LATTICE_ABC
      5.45307      6.44559      6.44559
    112.37763    106.37993    106.37993
%ENDBLOCK LATTICE_ABC

%BLOCK POSITIONS_FRAC
  Li        0.2814616        0.0669561       -0.4649052
  Li        0.2145054        0.4681386       -0.0669561
  Li       -0.2536332        0.4649052       -0.4681386
  Li       -0.1776721       -0.2455862       -0.0241802
  Li        0.0679141        0.2214060        0.2455862
  Li       -0.1534920        0.0241802       -0.2214060
   N       -0.3138169       -0.1223005        0.3472222
   N       -0.1915164        0.4695227        0.1223005
   N        0.3389609       -0.3472222       -0.4695227
   N        0.4449281       -0.0676981       -0.2737534
   N       -0.4873738       -0.2060553        0.0676981
   N       -0.2813185        0.2737534        0.2060553
   N        0.1334624       -0.4734459       -0.3939203
   N       -0.3930917        0.0795256        0.4734459
   N       -0.4726173        0.3939203       -0.0795256
   N       -0.3361295       -0.3620197        0.1599858
   N        0.0258902       -0.4779945        0.3620197
   N       -0.4961153       -0.1599858        0.4779945
%ENDBLOCK POSITIONS_FRAC

KPOINTS_MP_SPACING 0.07

%BLOCK SPECIES_POT
QC5
%ENDBLOCK SPECIES_POT

SNAP_TO_SYMMETRY
SYMMETRY_GENERATE

