#              Generated by Buildcell
#
# at 16:55:58 (GMT+1.0) 26th March 2023
# in /scratch/scratch/uccabz1/launch_tmp_michael
# on node-a14e-021
# by uccabz1
#
# compiler GCC version 4.9.2
# options -cpp -iprefix /scratch/UCL/applications/gcc/4.9.2/bin/../lib/gcc/x86_64-unknown-linux-gnu/4.9.2/ -mtune=corei7 -march=x86-64 -g -Og
#
# seed   748106958 -2062152884   878409158  -662648479  2055613717 -1464981087   461107710 -1682302584   723166275  -272049627  -142105787 -2000736667
#
#      Author: C. J. Pickard (cjp20@cam.ac.uk)
#                Space group: P3
#

%BLOCK LATTICE_ABC
      2.75796      6.09564      6.09564
    120.00000     90.00000     90.00000
%ENDBLOCK LATTICE_ABC

%BLOCK POSITIONS_FRAC
  Li       -0.1316244       -0.1785362        0.1370273
  Li       -0.1316244        0.3155635        0.1785362
  Li       -0.1316244       -0.1370273       -0.3155635
   N        0.2956648       -0.0260983       -0.4849369
   N        0.2956648       -0.4588385        0.0260983
   N        0.2956648        0.4849369        0.4588385
   N       -0.3731806        0.2000041       -0.1537472
   N       -0.3731806       -0.3537512       -0.2000041
   N       -0.3731806        0.1537472        0.3537512
%ENDBLOCK POSITIONS_FRAC

KPOINTS_MP_SPACING 0.07

%BLOCK SPECIES_POT
QC5
%ENDBLOCK SPECIES_POT

SNAP_TO_SYMMETRY
SYMMETRY_GENERATE

