#              Generated by Buildcell
#
# at 19:03:39 (GMT+1.0) 26th March 2023
# in /scratch/scratch/uccabz1/launch_tmp_michael
# on node-a14a-003
# by uccabz1
#
# compiler GCC version 4.9.2
# options -cpp -iprefix /scratch/UCL/applications/gcc/4.9.2/bin/../lib/gcc/x86_64-unknown-linux-gnu/4.9.2/ -mtune=corei7 -march=x86-64 -g -Og
#
# seed -1362189627  1153649425 -1607669097   548063021  1151061212 -2135581497  -425210921  2024071027  1141669341 -1844285307  -584361357 -1184750810
#
#      Author: C. J. Pickard (cjp20@cam.ac.uk)
#                Space group: Pca21
#

%BLOCK LATTICE_ABC
      2.50000      5.52094      8.30332
     90.00000     90.00000     90.00000
%ENDBLOCK LATTICE_ABC

%BLOCK POSITIONS_FRAC
  Li       -0.2259975        0.3038812        0.2796057
  Li        0.2259975       -0.3038812       -0.2203943
  Li        0.2740025       -0.3038812        0.2796057
  Li       -0.2740025        0.3038812       -0.2203943
   N       -0.4997373        0.0754689       -0.0600366
   N        0.4997373       -0.0754689        0.4399634
   N        0.0002627       -0.0754689       -0.0600366
   N       -0.0002627        0.0754689        0.4399634
   N        0.1528276        0.1521215        0.1070314
   N       -0.1528276       -0.1521215       -0.3929686
   N       -0.3471724       -0.1521215        0.1070314
   N        0.3471724        0.1521215       -0.3929686
%ENDBLOCK POSITIONS_FRAC

KPOINTS_MP_SPACING 0.07

%BLOCK SPECIES_POT
QC5
%ENDBLOCK SPECIES_POT

SNAP_TO_SYMMETRY
SYMMETRY_GENERATE

