#              Generated by Buildcell
#
# at 16:42:47 (GMT+1.0) 26th March 2023
# in /scratch/scratch/uccabz1/launch_tmp_michael
# on node-a14a-019
# by uccabz1
#
# compiler GCC version 4.9.2
# options -cpp -iprefix /scratch/UCL/applications/gcc/4.9.2/bin/../lib/gcc/x86_64-unknown-linux-gnu/4.9.2/ -mtune=corei7 -march=x86-64 -g -Og
#
# seed  -269552414 -1476185476   763716099   363163816  -124451485  1051616614 -2145392263   186479683 -1473760877 -1768047440   819024400   547431521
#
#      Author: C. J. Pickard (cjp20@cam.ac.uk)
#                Space group: P32
#

%BLOCK LATTICE_ABC
      4.39660      4.39660      5.62526
     90.00000     90.00000    120.00000
%ENDBLOCK LATTICE_ABC

%BLOCK POSITIONS_FRAC
  Li       -0.4881777       -0.4123608       -0.3471193
  Li        0.0758169        0.4881777        0.3195474
  Li        0.4123608       -0.0758169       -0.0137859
   N       -0.1726061       -0.2599174        0.3577857
   N       -0.0873113        0.1726061        0.0244524
   N        0.2599174        0.0873113       -0.3088809
   N       -0.2729618        0.1157477       -0.4007576
   N        0.3887095        0.2729618        0.2659091
   N       -0.1157477       -0.3887095       -0.0674242
%ENDBLOCK POSITIONS_FRAC

KPOINTS_MP_SPACING 0.07

%BLOCK SPECIES_POT
QC5
%ENDBLOCK SPECIES_POT

SNAP_TO_SYMMETRY
SYMMETRY_GENERATE

