#              Generated by Buildcell
#
# at 16:46:51 (GMT+1.0) 26th March 2023
# in /scratch/scratch/uccabz1/launch_tmp_michael
# on node-a14c-005
# by uccabz1
#
# compiler GCC version 4.9.2
# options -cpp -iprefix /scratch/UCL/applications/gcc/4.9.2/bin/../lib/gcc/x86_64-unknown-linux-gnu/4.9.2/ -mtune=corei7 -march=x86-64 -g -Og
#
# seed   382392211 -1367093824 -1190570718 -2126643312  -211702654  -993221996 -1611502269  -118047901  1026108055   150295315  1254715002 -1059988403
#
#      Author: C. J. Pickard (cjp20@cam.ac.uk)
#                Space group: C222
#

%BLOCK LATTICE_ABC
      2.76084      5.08800      6.81932
     90.00000     90.00000    105.74215
%ENDBLOCK LATTICE_ABC

%BLOCK POSITIONS_FRAC
  Li        0.3723749       -0.2552501        0.5000000
  Li       -0.3723749        0.2552501        0.5000000
  Li        0.0000000        0.0000000        0.0000000
   N        0.0542969       -0.3473514       -0.2527636
   N       -0.0542969        0.3473514       -0.2527636
   N       -0.4016483       -0.3473514        0.2527636
   N        0.4016483        0.3473514        0.2527636
   N        0.0000000        0.0000000        0.2786391
   N        0.0000000        0.0000000       -0.2786391
%ENDBLOCK POSITIONS_FRAC

KPOINTS_MP_SPACING 0.07

%BLOCK SPECIES_POT
QC5
%ENDBLOCK SPECIES_POT

SNAP_TO_SYMMETRY
SYMMETRY_GENERATE

