#              Generated by Buildcell
#
# at 14:52:50 (GMT+1.0) 26th March 2023
# in /scratch/scratch/uccabz1/launch_tmp_michael
# on node-a14e-007
# by uccabz1
#
# compiler GCC version 4.9.2
# options -cpp -iprefix /scratch/UCL/applications/gcc/4.9.2/bin/../lib/gcc/x86_64-unknown-linux-gnu/4.9.2/ -mtune=corei7 -march=x86-64 -g -Og
#
# seed  1139641099 -1296378454  -110127354 -1489219325  -402988387   950302434  -123479685  1887234373 -2025846409  1439789734  1188207157  -377425184
#
#      Author: C. J. Pickard (cjp20@cam.ac.uk)
#                Space group: P2
#

%BLOCK LATTICE_ABC
      2.50000      5.08183      7.31436
    104.64149     90.00000     90.00000
%ENDBLOCK LATTICE_ABC

%BLOCK POSITIONS_FRAC
  Li        0.2025311        0.2089658       -0.1751952
  Li        0.2025311       -0.2089658        0.1751952
  Li        0.4645951        0.5000000       -0.5000000
   N       -0.2974916       -0.0423026       -0.1076131
   N       -0.2974916        0.0423026        0.1076131
   N       -0.0353284       -0.2269086       -0.3693726
   N       -0.0353284        0.2269086        0.3693726
   N       -0.2759121       -0.3444669       -0.1295221
   N       -0.2759121        0.3444669        0.1295221
%ENDBLOCK POSITIONS_FRAC

KPOINTS_MP_SPACING 0.07

%BLOCK SPECIES_POT
QC5
%ENDBLOCK SPECIES_POT

SNAP_TO_SYMMETRY
SYMMETRY_GENERATE

