#              Generated by Buildcell
#
# at 19:13:44 (GMT+1.0) 26th March 2023
# in /scratch/scratch/uccabz1/launch_tmp_michael
# on node-a14b-028
# by uccabz1
#
# compiler GCC version 4.9.2
# options -cpp -iprefix /scratch/UCL/applications/gcc/4.9.2/bin/../lib/gcc/x86_64-unknown-linux-gnu/4.9.2/ -mtune=corei7 -march=x86-64 -g -Og
#
# seed   129786325   638518619 -1814694373  1513576377   839178295 -1734858524   380458715   155306710  -143493288  1005920062   471046926  1853881426
#
#      Author: C. J. Pickard (cjp20@cam.ac.uk)
#                Space group: P-1
#

%BLOCK LATTICE_ABC
      3.59331      4.07277     13.12038
     98.25609     93.33019    104.86105
%ENDBLOCK LATTICE_ABC

%BLOCK POSITIONS_FRAC
  Li        0.3864732       -0.3663785        0.0892160
  Li       -0.3864732        0.3663785       -0.0892160
  Li       -0.0798006       -0.4281399       -0.4094376
  Li        0.0798006        0.4281399        0.4094376
  Li       -0.4491394       -0.3649168        0.2770916
  Li        0.4491394        0.3649168       -0.2770916
   N        0.1328545       -0.0016430        0.0749250
   N       -0.1328545        0.0016430       -0.0749250
   N        0.4356035       -0.1471993       -0.1041557
   N       -0.4356035        0.1471993        0.1041557
   N       -0.0162976        0.3678615        0.1733055
   N        0.0162976       -0.3678615       -0.1733055
   N        0.4670903        0.0944541        0.2113022
   N       -0.4670903       -0.0944541       -0.2113022
   N        0.1555448       -0.2243764       -0.0247679
   N       -0.1555448        0.2243764        0.0247679
   N       -0.3542241       -0.1978309       -0.3169944
   N        0.3542241        0.1978309        0.3169944
%ENDBLOCK POSITIONS_FRAC

KPOINTS_MP_SPACING 0.07

%BLOCK SPECIES_POT
QC5
%ENDBLOCK SPECIES_POT

SNAP_TO_SYMMETRY
SYMMETRY_GENERATE

