#              Generated by Buildcell
#
# at 19:13:36 (GMT+1.0) 26th March 2023
# in /scratch/scratch/uccabz1/launch_tmp_michael
# on node-a14f-035
# by uccabz1
#
# compiler GCC version 4.9.2
# options -cpp -iprefix /scratch/UCL/applications/gcc/4.9.2/bin/../lib/gcc/x86_64-unknown-linux-gnu/4.9.2/ -mtune=corei7 -march=x86-64 -g -Og
#
# seed   -59663139  1164491367   343266749 -1054598833   373712090 -1437288664 -1438433977  -680217527  -944314789  -368845853 -1066873186  1606703408
#
#      Author: C. J. Pickard (cjp20@cam.ac.uk)
#                Space group: P3
#

%BLOCK LATTICE_ABC
      3.80000      6.18032      6.18032
    120.00000     90.00000     90.00000
%ENDBLOCK LATTICE_ABC

%BLOCK POSITIONS_FRAC
  Li        0.1623793       -0.0723769       -0.4619656
  Li        0.1623793        0.4619656        0.3895888
  Li        0.1623793       -0.3895888        0.0723769
  Li        0.4697640        0.3333333       -0.3333333
   N       -0.1859180        0.1027034        0.4481159
   N       -0.1859180       -0.4481159       -0.3454125
   N       -0.1859180        0.3454125       -0.1027034
   N       -0.3797002       -0.2820600       -0.4183572
   N       -0.3797002        0.4183572        0.1362973
   N       -0.3797002       -0.1362973        0.2820600
   N       -0.0302433        0.3333333       -0.3333333
   N        0.4797607       -0.3333333        0.3333333
%ENDBLOCK POSITIONS_FRAC

KPOINTS_MP_SPACING 0.07

%BLOCK SPECIES_POT
QC5
%ENDBLOCK SPECIES_POT

SNAP_TO_SYMMETRY
SYMMETRY_GENERATE

