#              Generated by Buildcell
#
# at 15:08:17 (GMT+1.0) 26th March 2023
# in /scratch/scratch/uccabz1/launch_tmp_michael
# on node-a14a-001
# by uccabz1
#
# compiler GCC version 4.9.2
# options -cpp -iprefix /scratch/UCL/applications/gcc/4.9.2/bin/../lib/gcc/x86_64-unknown-linux-gnu/4.9.2/ -mtune=corei7 -march=x86-64 -g -Og
#
# seed   143288746 -1126042401 -1197488728 -1267705263  1196504083 -1996415994  1983868080 -1825158926 -1142463218 -1503568384  1912678009 -1530762231
#
#      Author: C. J. Pickard (cjp20@cam.ac.uk)
#                Space group: P2
#

%BLOCK LATTICE_ABC
      4.04216      4.22899      5.64881
     90.00000     90.00000    110.34889
%ENDBLOCK LATTICE_ABC

%BLOCK POSITIONS_FRAC
  Li       -0.3177237       -0.1856924       -0.4430524
  Li        0.3177237        0.1856924       -0.4430524
  Li        0.0000000       -0.5000000        0.0162034
   N       -0.2293882        0.4873548        0.3114690
   N        0.2293882       -0.4873548        0.3114690
   N        0.0961106       -0.2749349        0.4721063
   N       -0.0961106        0.2749349        0.4721063
   N        0.1944012       -0.4685621       -0.2930549
   N       -0.1944012        0.4685621       -0.2930549
%ENDBLOCK POSITIONS_FRAC

KPOINTS_MP_SPACING 0.07

%BLOCK SPECIES_POT
QC5
%ENDBLOCK SPECIES_POT

SNAP_TO_SYMMETRY
SYMMETRY_GENERATE

