#              Generated by Buildcell
#
# at 20:20:51 (GMT+1.0) 26th March 2023
# in /scratch/scratch/uccabz1/launch_tmp_michael
# on node-a14e-007
# by uccabz1
#
# compiler GCC version 4.9.2
# options -cpp -iprefix /scratch/UCL/applications/gcc/4.9.2/bin/../lib/gcc/x86_64-unknown-linux-gnu/4.9.2/ -mtune=corei7 -march=x86-64 -g -Og
#
# seed -1948563793 -1516663735   602213443  1378509008 -1069260614  -577169722   206801666   953415460 -1607410008 -1810346047 -1061529096   377114842
#
#      Author: C. J. Pickard (cjp20@cam.ac.uk)
#                Space group: Pc
#

%BLOCK LATTICE_ABC
      2.99084      6.04312      9.68977
     91.09149     90.00000     90.00000
%ENDBLOCK LATTICE_ABC

%BLOCK POSITIONS_FRAC
  Li       -0.3869545        0.1030864       -0.2976190
  Li        0.3869545        0.1030864        0.2023810
  Li       -0.3015325        0.4053052       -0.0891124
  Li        0.3015325        0.4053052        0.4108876
  Li       -0.0012116       -0.4920508        0.1802932
  Li        0.0012116       -0.4920508       -0.3197068
   N       -0.4548277       -0.0675445       -0.1362769
   N        0.4548277       -0.0675445        0.3637231
   N       -0.0859397        0.0320963        0.3414224
   N        0.0859397        0.0320963       -0.1585776
   N       -0.2309106        0.2585701        0.0811963
   N        0.2309106        0.2585701       -0.4188037
   N       -0.0785569       -0.1766893       -0.0597098
   N        0.0785569       -0.1766893        0.4402902
   N        0.2355590       -0.0963064        0.0510498
   N       -0.2355590       -0.0963064       -0.4489502
   N       -0.2325779        0.0902070       -0.0345697
   N        0.2325779        0.0902070        0.4654303
%ENDBLOCK POSITIONS_FRAC

KPOINTS_MP_SPACING 0.07

%BLOCK SPECIES_POT
QC5
%ENDBLOCK SPECIES_POT

SNAP_TO_SYMMETRY
SYMMETRY_GENERATE

