#              Generated by Buildcell
#
# at 16:39:22 (GMT+1.0) 26th March 2023
# in /scratch/scratch/uccabz1/launch_tmp_michael
# on node-a14b-031
# by uccabz1
#
# compiler GCC version 4.9.2
# options -cpp -iprefix /scratch/UCL/applications/gcc/4.9.2/bin/../lib/gcc/x86_64-unknown-linux-gnu/4.9.2/ -mtune=corei7 -march=x86-64 -g -Og
#
# seed   233268684   775043436  -685809137 -1289772423  2125993061 -1579845999 -1173202308   -34733740    95282439  2008534868  -405217946 -1768985573
#
#      Author: C. J. Pickard (cjp20@cam.ac.uk)
#                Space group: P-1
#

%BLOCK LATTICE_ABC
      3.05617      4.75847      6.73150
     78.46164     77.85240     75.64417
%ENDBLOCK LATTICE_ABC

%BLOCK POSITIONS_FRAC
  Li        0.1428730        0.4833062        0.3051789
  Li       -0.1428730       -0.4833062       -0.3051789
  Li        0.0000000        0.0000000       -0.5000000
   N        0.4609771       -0.1022795       -0.3320444
   N       -0.4609771        0.1022795        0.3320444
   N        0.1117285        0.2898585        0.0578074
   N       -0.1117285       -0.2898585       -0.0578074
   N        0.2531132        0.0181535        0.2067436
   N       -0.2531132       -0.0181535       -0.2067436
%ENDBLOCK POSITIONS_FRAC

KPOINTS_MP_SPACING 0.07

%BLOCK SPECIES_POT
QC5
%ENDBLOCK SPECIES_POT

SNAP_TO_SYMMETRY
SYMMETRY_GENERATE

