#              Generated by Buildcell
#
# at 20:23:27 (GMT+1.0) 26th March 2023
# in /scratch/scratch/uccabz1/launch_tmp_michael
# on node-a14e-021
# by uccabz1
#
# compiler GCC version 4.9.2
# options -cpp -iprefix /scratch/UCL/applications/gcc/4.9.2/bin/../lib/gcc/x86_64-unknown-linux-gnu/4.9.2/ -mtune=corei7 -march=x86-64 -g -Og
#
# seed   -53801918  -182874335 -1102393726  -816798989 -1943872199 -1098387468   366385592  1571077335   488286310 -2121815529   527738941  1043864722
#
#      Author: C. J. Pickard (cjp20@cam.ac.uk)
#                Space group: R3
#

%BLOCK LATTICE_ABC
      4.96797      4.96797      4.96797
     79.09164     79.09164     79.09164
%ENDBLOCK LATTICE_ABC

%BLOCK POSITIONS_FRAC
  Li       -0.2625470        0.4686661        0.1709618
  Li        0.4686661        0.1709618       -0.2625470
  Li        0.1709618       -0.2625470        0.4686661
  Li        0.2327397        0.2327397        0.2327397
   N        0.4601760        0.4658043       -0.0545922
   N        0.4658043       -0.0545922        0.4601760
   N       -0.0545922        0.4601760        0.4658043
   N       -0.1119880        0.0870014        0.3340902
   N        0.0870014        0.3340902       -0.1119880
   N        0.3340902       -0.1119880        0.0870014
   N       -0.4599521       -0.4599521       -0.4599521
   N       -0.0703261       -0.0703261       -0.0703261
%ENDBLOCK POSITIONS_FRAC

KPOINTS_MP_SPACING 0.07

%BLOCK SPECIES_POT
QC5
%ENDBLOCK SPECIES_POT

SNAP_TO_SYMMETRY
SYMMETRY_GENERATE

