#              Generated by Buildcell
#
# at 19:46:38 (GMT+1.0) 26th March 2023
# in /scratch/scratch/uccabz1/launch_tmp_michael
# on node-a14e-007
# by uccabz1
#
# compiler GCC version 4.9.2
# options -cpp -iprefix /scratch/UCL/applications/gcc/4.9.2/bin/../lib/gcc/x86_64-unknown-linux-gnu/4.9.2/ -mtune=corei7 -march=x86-64 -g -Og
#
# seed   597287098  1186180372  1940071225  -751391736  1608587160   625836980  1286307159  -962688095 -1023375560   200975263  -274892712   429596983
#
#      Author: C. J. Pickard (cjp20@cam.ac.uk)
#                Space group: Aem2
#

%BLOCK LATTICE_ABC
      2.49267      9.24056      9.26664
    119.90696     90.00000     90.00000
%ENDBLOCK LATTICE_ABC

%BLOCK POSITIONS_FRAC
  Li       -0.2500000        0.4207337        0.0739193
  Li        0.2500000       -0.3468144        0.0739193
  Li       -0.2500000        0.1531856        0.0739193
  Li        0.2500000       -0.0792663        0.0739193
  Li        0.5000000        0.1749958        0.3499916
  Li        0.5000000       -0.3250042        0.3499916
   N        0.1192789        0.4169670       -0.4823867
   N       -0.1192789        0.1006463       -0.4823867
   N        0.1192789       -0.3993537       -0.4823867
   N       -0.1192789       -0.0830330       -0.4823867
   N        0.0272194       -0.4984990       -0.2980563
   N       -0.0272194        0.2004428       -0.2980563
   N        0.0272194       -0.2995572       -0.2980563
   N       -0.0272194        0.0015010       -0.2980563
   N       -0.2483976       -0.1229796       -0.1287201
   N        0.2483976       -0.0057405       -0.1287201
   N       -0.2483976        0.4942595       -0.1287201
   N        0.2483976        0.3770204       -0.1287201
%ENDBLOCK POSITIONS_FRAC

KPOINTS_MP_SPACING 0.07

%BLOCK SPECIES_POT
QC5
%ENDBLOCK SPECIES_POT

SNAP_TO_SYMMETRY
SYMMETRY_GENERATE

