#              Generated by Buildcell
#
# at 19:37:06 (GMT+1.0) 26th March 2023
# in /scratch/scratch/uccabz1/launch_tmp_michael
# on node-a14a-001
# by uccabz1
#
# compiler GCC version 4.9.2
# options -cpp -iprefix /scratch/UCL/applications/gcc/4.9.2/bin/../lib/gcc/x86_64-unknown-linux-gnu/4.9.2/ -mtune=corei7 -march=x86-64 -g -Og
#
# seed  -498573568  1453842616 -1498723866  -411424810 -1222103973  -216026510  2119786293  2081888568  -456955119 -2015686744  1502152717  -250426937
#
#      Author: C. J. Pickard (cjp20@cam.ac.uk)
#                Space group: Pm
#

%BLOCK LATTICE_ABC
      4.09461      4.48678      6.28849
     90.00000     90.00000     97.65083
%ENDBLOCK LATTICE_ABC

%BLOCK POSITIONS_FRAC
  Li       -0.1697555       -0.0220003        0.1987757
  Li       -0.1697555       -0.0220003       -0.1987757
  Li        0.3215130        0.3416789       -0.3012243
  Li        0.3215130        0.3416789        0.3012243
   N       -0.0383328        0.3893635        0.1192655
   N       -0.0383328        0.3893635       -0.1192655
   N        0.0188211       -0.2909688       -0.3807345
   N        0.0188211       -0.2909688        0.3807345
   N       -0.2283703        0.4304415        0.3807346
   N       -0.2283703        0.4304415       -0.3807346
   N        0.1913939       -0.3235398        0.1540317
   N        0.1913939       -0.3235398       -0.1540317
%ENDBLOCK POSITIONS_FRAC

KPOINTS_MP_SPACING 0.07

%BLOCK SPECIES_POT
QC5
%ENDBLOCK SPECIES_POT

SNAP_TO_SYMMETRY
SYMMETRY_GENERATE

