#              Generated by Buildcell
#
# at 20:15:10 (GMT+1.0) 26th March 2023
# in /scratch/scratch/uccabz1/launch_tmp_michael
# on node-a14f-035
# by uccabz1
#
# compiler GCC version 4.9.2
# options -cpp -iprefix /scratch/UCL/applications/gcc/4.9.2/bin/../lib/gcc/x86_64-unknown-linux-gnu/4.9.2/ -mtune=corei7 -march=x86-64 -g -Og
#
# seed -1202667853  -774119027   267842239   638545565  -331371673  -976954470 -1221076315  -853279227  -294892436  -381641090   441924279  1943773477
#
#      Author: C. J. Pickard (cjp20@cam.ac.uk)
#                Space group: Pba2
#

%BLOCK LATTICE_ABC
      3.77762      3.81987      4.32813
     90.00000     90.00000     90.00000
%ENDBLOCK LATTICE_ABC

%BLOCK POSITIONS_FRAC
  Li        0.0000000       -0.0000000       -0.1232543
  Li       -0.5000000       -0.5000000       -0.1232543
   N        0.2914074        0.2049136        0.1891940
   N       -0.2914074       -0.2049136        0.1891940
   N        0.2085926       -0.2950864        0.1891940
   N       -0.2085926        0.2950864        0.1891940
%ENDBLOCK POSITIONS_FRAC

KPOINTS_MP_SPACING 0.07

%BLOCK SPECIES_POT
QC5
%ENDBLOCK SPECIES_POT

SNAP_TO_SYMMETRY
SYMMETRY_GENERATE

