#              Generated by Buildcell
#
# at 15:11:18 (GMT+1.0) 26th March 2023
# in /scratch/scratch/uccabz1/launch_tmp_michael
# on node-a14b-031
# by uccabz1
#
# compiler GCC version 4.9.2
# options -cpp -iprefix /scratch/UCL/applications/gcc/4.9.2/bin/../lib/gcc/x86_64-unknown-linux-gnu/4.9.2/ -mtune=corei7 -march=x86-64 -g -Og
#
# seed -1271368439   161964240   687459477 -1446837709  -420190390  2131668697   737321617  -762368557  -117449607  1833366785  -428059930  1890733391
#
#      Author: C. J. Pickard (cjp20@cam.ac.uk)
#                Space group: Cm
#

%BLOCK LATTICE_ABC
      2.50000      6.06791      6.06791
     90.97055    101.84432    101.84432
%ENDBLOCK LATTICE_ABC

%BLOCK POSITIONS_FRAC
  Li        0.0513231        0.1220888       -0.1669298
  Li        0.0513231       -0.1669298        0.1220888
  Li       -0.2064715        0.4665696        0.4665696
   N        0.0268650       -0.2149065        0.4295252
   N        0.0268650        0.4295252       -0.2149065
   N       -0.4157612       -0.4188446       -0.2206020
   N       -0.4157612       -0.2206020       -0.4188446
   N       -0.1663634        0.0011649        0.4606547
   N       -0.1663634        0.4606547        0.0011649
%ENDBLOCK POSITIONS_FRAC

KPOINTS_MP_SPACING 0.07

%BLOCK SPECIES_POT
QC5
%ENDBLOCK SPECIES_POT

SNAP_TO_SYMMETRY
SYMMETRY_GENERATE

