#              Generated by Buildcell
#
# at 20:22:11 (GMT+1.0) 26th March 2023
# in /scratch/scratch/uccabz1/launch_tmp_michael
# on node-a14e-021
# by uccabz1
#
# compiler GCC version 4.9.2
# options -cpp -iprefix /scratch/UCL/applications/gcc/4.9.2/bin/../lib/gcc/x86_64-unknown-linux-gnu/4.9.2/ -mtune=corei7 -march=x86-64 -g -Og
#
# seed  -674112985   201149707  -424494516   211880465 -1587857547 -1423411968  -572599616  2006882910 -1269795948  -844708197 -1068205057   262508608
#
#      Author: C. J. Pickard (cjp20@cam.ac.uk)
#                Space group: C2
#

%BLOCK LATTICE_ABC
      4.68786      4.69770      4.86763
     82.04652     73.89974     60.06927
%ENDBLOCK LATTICE_ABC

%BLOCK POSITIONS_FRAC
  Li        0.4716109       -0.0739165       -0.2321256
  Li       -0.3976945       -0.0739165        0.2321256
  Li        0.0209835       -0.0419670       -0.5000000
   N       -0.1954361        0.2104147       -0.1561728
   N       -0.0149786        0.2104147        0.1561728
   N        0.0305345        0.4907610        0.2206552
   N        0.4787045        0.4907610       -0.2206552
   N        0.3356254        0.3776599        0.3404143
   N        0.2867147        0.3776599       -0.3404143
%ENDBLOCK POSITIONS_FRAC

KPOINTS_MP_SPACING 0.07

%BLOCK SPECIES_POT
QC5
%ENDBLOCK SPECIES_POT

SNAP_TO_SYMMETRY
SYMMETRY_GENERATE

