#              Generated by Buildcell
#
# at 19:41:06 (GMT+1.0) 26th March 2023
# in /scratch/scratch/uccabz1/launch_tmp_michael
# on node-a14b-031
# by uccabz1
#
# compiler GCC version 4.9.2
# options -cpp -iprefix /scratch/UCL/applications/gcc/4.9.2/bin/../lib/gcc/x86_64-unknown-linux-gnu/4.9.2/ -mtune=corei7 -march=x86-64 -g -Og
#
# seed -1684743246   435662372 -1562485074   897384038  -931132349 -1059193277   371188524  -995737925  1300737920 -1236499056   789599654 -1760759283
#
#      Author: C. J. Pickard (cjp20@cam.ac.uk)
#                Space group: Ccc2
#

%BLOCK LATTICE_ABC
      2.86917      3.71965      6.01824
     90.00000     90.00000    112.68577
%ENDBLOCK LATTICE_ABC

%BLOCK POSITIONS_FRAC
  Li        0.5000000        0.0000000       -0.1492305
  Li       -0.5000000        0.0000000        0.3507695
   N       -0.2896799       -0.2662521       -0.4208041
   N        0.2896799        0.2662521       -0.4208041
   N        0.0234279       -0.2662521        0.0791959
   N       -0.0234279        0.2662521        0.0791959
%ENDBLOCK POSITIONS_FRAC

KPOINTS_MP_SPACING 0.07

%BLOCK SPECIES_POT
QC5
%ENDBLOCK SPECIES_POT

SNAP_TO_SYMMETRY
SYMMETRY_GENERATE

