#              Generated by Buildcell
#
# at 15:39:04 (GMT+1.0) 26th March 2023
# in /scratch/scratch/uccabz1/launch_tmp_michael
# on node-a14b-022
# by uccabz1
#
# compiler GCC version 4.9.2
# options -cpp -iprefix /scratch/UCL/applications/gcc/4.9.2/bin/../lib/gcc/x86_64-unknown-linux-gnu/4.9.2/ -mtune=corei7 -march=x86-64 -g -Og
#
# seed -1454795583  1531404463    90889730 -1626463188 -2044269555  2037087051  1929425617 -1602748815   -94163365 -1406000684  -789198394 -1804447081
#
#      Author: C. J. Pickard (cjp20@cam.ac.uk)
#                Space group: Cm
#

%BLOCK LATTICE_ABC
      4.74118      5.32475      5.59301
     61.57432     82.29201     73.63455
%ENDBLOCK LATTICE_ABC

%BLOCK POSITIONS_FRAC
  Li       -0.4723350        0.2395597       -0.2591956
  Li       -0.4723350       -0.0196359        0.2591956
  Li        0.0990893       -0.2325038        0.4839522
  Li        0.0990893        0.2514485       -0.4839522
   N        0.1189160        0.2481313        0.1600958
   N        0.1189160        0.4082271       -0.1600958
   N       -0.4266419       -0.4137804       -0.2375801
   N       -0.4266419        0.3486395        0.2375801
   N       -0.2398295        0.0701044        0.4643023
   N       -0.2398295       -0.4655933       -0.4643023
   N        0.1140045       -0.1668800       -0.2089561
   N        0.1140045       -0.3758361        0.2089561
%ENDBLOCK POSITIONS_FRAC

KPOINTS_MP_SPACING 0.07

%BLOCK SPECIES_POT
QC5
%ENDBLOCK SPECIES_POT

SNAP_TO_SYMMETRY
SYMMETRY_GENERATE

