#              Generated by Buildcell
#
# at 19:36:15 (GMT+1.0) 26th March 2023
# in /scratch/scratch/uccabz1/launch_tmp_michael
# on node-a14b-031
# by uccabz1
#
# compiler GCC version 4.9.2
# options -cpp -iprefix /scratch/UCL/applications/gcc/4.9.2/bin/../lib/gcc/x86_64-unknown-linux-gnu/4.9.2/ -mtune=corei7 -march=x86-64 -g -Og
#
# seed -1634638975   810168755   311728931   762236863  -733781661   194173524  1955813280   224353624  -773705652  1410470049 -1020332200 -1946694767
#
#      Author: C. J. Pickard (cjp20@cam.ac.uk)
#                Space group: R3
#

%BLOCK LATTICE_ABC
      5.48114      6.40043      6.40043
    112.19573    106.58614    106.58614
%ENDBLOCK LATTICE_ABC

%BLOCK POSITIONS_FRAC
  Li        0.0318207        0.0504397       -0.2746372
  Li        0.3064580        0.2746372        0.3250770
  Li       -0.0186190       -0.3250770       -0.0504397
  Li        0.3992650       -0.2919478       -0.1439078
  Li       -0.4568272        0.1439078       -0.1480401
  Li       -0.3087871        0.1480401        0.2919478
   N       -0.3396987       -0.3352041       -0.2781322
   N       -0.0615665        0.2781322       -0.0570719
   N       -0.0044946        0.0570719        0.3352041
   N       -0.1089927       -0.3068297        0.3015903
   N       -0.4105830       -0.3015903        0.3915799
   N        0.1978371       -0.3915799        0.3068297
   N        0.3753542       -0.2211587       -0.4103671
   N       -0.2142786        0.4103671        0.1892084
   N       -0.4034871       -0.1892084        0.2211587
   N        0.3359263       -0.1678148        0.2367071
   N        0.0992191       -0.2367071       -0.4045220
   N       -0.4962589        0.4045220        0.1678148
%ENDBLOCK POSITIONS_FRAC

KPOINTS_MP_SPACING 0.07

%BLOCK SPECIES_POT
QC5
%ENDBLOCK SPECIES_POT

SNAP_TO_SYMMETRY
SYMMETRY_GENERATE

