#              Generated by Buildcell
#
# at 17:01:09 (GMT+1.0) 26th March 2023
# in /scratch/scratch/uccabz1/launch_tmp_michael
# on node-a14a-001
# by uccabz1
#
# compiler GCC version 4.9.2
# options -cpp -iprefix /scratch/UCL/applications/gcc/4.9.2/bin/../lib/gcc/x86_64-unknown-linux-gnu/4.9.2/ -mtune=corei7 -march=x86-64 -g -Og
#
# seed -1345351646  1544691646 -1894534541   789744073  -692235162  1080149673  1705718291  -780122043  -350531179  -289341788  2143145622  1022121209
#
#      Author: C. J. Pickard (cjp20@cam.ac.uk)
#                Space group: C2
#

%BLOCK LATTICE_ABC
      3.86393      5.41182      5.53801
    118.35482    109.25057     92.24678
%ENDBLOCK LATTICE_ABC

%BLOCK POSITIONS_FRAC
  Li        0.0890028       -0.3304721       -0.2427333
  Li       -0.3317360        0.0877388       -0.2427333
  Li        0.2025878        0.2025878        0.4051755
   N        0.4019453       -0.3664331        0.0794986
   N       -0.3224467        0.4459317        0.0794986
   N        0.2403862       -0.1634364        0.3997639
   N        0.1593777       -0.4367997        0.3997639
   N       -0.2058028       -0.2167860        0.3147773
   N       -0.4794199       -0.4684367        0.3147773
%ENDBLOCK POSITIONS_FRAC

KPOINTS_MP_SPACING 0.07

%BLOCK SPECIES_POT
QC5
%ENDBLOCK SPECIES_POT

SNAP_TO_SYMMETRY
SYMMETRY_GENERATE

