#              Generated by Buildcell
#
# at 15:48:58 (GMT+1.0) 26th March 2023
# in /scratch/scratch/uccabz1/launch_tmp_michael
# on node-a14a-001
# by uccabz1
#
# compiler GCC version 4.9.2
# options -cpp -iprefix /scratch/UCL/applications/gcc/4.9.2/bin/../lib/gcc/x86_64-unknown-linux-gnu/4.9.2/ -mtune=corei7 -march=x86-64 -g -Og
#
# seed  2053524119  -901509067   360272179  -606945444  -935011817  1651512146  1166912120  1799725266  -362879950 -1784120346   233616582  2130542894
#
#      Author: C. J. Pickard (cjp20@cam.ac.uk)
#                Space group: P3
#

%BLOCK LATTICE_ABC
      4.20994      4.91919      4.91919
    120.00000     90.00000     90.00000
%ENDBLOCK LATTICE_ABC

%BLOCK POSITIONS_FRAC
  Li       -0.2189846       -0.2292375        0.1054365
  Li       -0.2189846        0.3346739        0.2292375
  Li       -0.2189846       -0.1054365       -0.3346739
   N       -0.2905556        0.1530606        0.4858412
   N       -0.2905556        0.3327806       -0.1530606
   N       -0.2905556       -0.4858412       -0.3327806
   N        0.4177156        0.1558050       -0.3357839
   N        0.4177156       -0.4915889       -0.1558050
   N        0.4177156        0.3357839        0.4915889
%ENDBLOCK POSITIONS_FRAC

KPOINTS_MP_SPACING 0.07

%BLOCK SPECIES_POT
QC5
%ENDBLOCK SPECIES_POT

SNAP_TO_SYMMETRY
SYMMETRY_GENERATE

