#              Generated by Buildcell
#
# at 18:40:45 (GMT+1.0) 26th March 2023
# in /scratch/scratch/uccabz1/launch_tmp_michael
# on node-a14b-031
# by uccabz1
#
# compiler GCC version 4.9.2
# options -cpp -iprefix /scratch/UCL/applications/gcc/4.9.2/bin/../lib/gcc/x86_64-unknown-linux-gnu/4.9.2/ -mtune=corei7 -march=x86-64 -g -Og
#
# seed  -583906993    79893555 -2103098273  -653238250  1823383841   904505139  1624751871   763607418   -21547587 -1965296077 -1170546448   943734196
#
#      Author: C. J. Pickard (cjp20@cam.ac.uk)
#                Space group: P222
#

%BLOCK LATTICE_ABC
      2.73635      3.32374      9.65810
     90.00000     90.00000     90.00000
%ENDBLOCK LATTICE_ABC

%BLOCK POSITIONS_FRAC
  Li       -0.5000000        0.5000000       -0.2332625
  Li       -0.5000000        0.5000000        0.2332625
  Li       -0.5000000        0.0000000       -0.5000000
   N        0.2533595        0.3467483        0.0570865
   N        0.2533595       -0.3467483       -0.0570865
   N       -0.2533595        0.3467483       -0.0570865
   N       -0.2533595       -0.3467483        0.0570865
   N        0.0000000        0.5000000        0.3697665
   N        0.0000000        0.5000000       -0.3697665
%ENDBLOCK POSITIONS_FRAC

KPOINTS_MP_SPACING 0.07

%BLOCK SPECIES_POT
QC5
%ENDBLOCK SPECIES_POT

SNAP_TO_SYMMETRY
SYMMETRY_GENERATE

