#              Generated by Buildcell
#
# at 17:12:16 (GMT+1.0) 26th March 2023
# in /scratch/scratch/uccabz1/launch_tmp_michael
# on node-a14a-001
# by uccabz1
#
# compiler GCC version 4.9.2
# options -cpp -iprefix /scratch/UCL/applications/gcc/4.9.2/bin/../lib/gcc/x86_64-unknown-linux-gnu/4.9.2/ -mtune=corei7 -march=x86-64 -g -Og
#
# seed  -186616240 -1055842424  1923431331 -1935580116  1895677599   641895669   593647005 -2039818056  -647884999  1651572772   290543218  1433329056
#
#      Author: C. J. Pickard (cjp20@cam.ac.uk)
#                Space group: I-4
#

%BLOCK LATTICE_ABC
      6.23840      6.23840      6.23840
    108.80939    109.80315    109.80315
%ENDBLOCK LATTICE_ABC

%BLOCK POSITIONS_FRAC
  Li       -0.4694567        0.3100132        0.3857188
  Li        0.4694567       -0.1448246       -0.2205301
  Li       -0.0757056       -0.3857188        0.1448246
  Li        0.0757056        0.2205301       -0.3100132
  Li        0.0000000        0.3269751        0.3269751
  Li       -0.0000000       -0.3269751       -0.3269751
   N       -0.1753053        0.1288752       -0.0442991
   N        0.1753053        0.1310062        0.3041805
   N        0.1731744        0.0442991       -0.1310062
   N       -0.1731744       -0.3041805       -0.1288752
   N        0.1459733        0.2848229        0.0782841
   N       -0.1459733       -0.0676893        0.1388496
   N        0.2065389       -0.0782841        0.0676893
   N       -0.2065389       -0.1388496       -0.2848229
   N        0.4300587       -0.4654827       -0.4400915
   N       -0.4300587        0.1298498        0.1044586
   N       -0.0253912        0.4400915       -0.1298498
   N        0.0253912       -0.1044586        0.4654827
%ENDBLOCK POSITIONS_FRAC

KPOINTS_MP_SPACING 0.07

%BLOCK SPECIES_POT
QC5
%ENDBLOCK SPECIES_POT

SNAP_TO_SYMMETRY
SYMMETRY_GENERATE

