#              Generated by Buildcell
#
# at 19:46:20 (GMT+1.0) 26th March 2023
# in /scratch/scratch/uccabz1/launch_tmp_michael
# on node-a14e-021
# by uccabz1
#
# compiler GCC version 4.9.2
# options -cpp -iprefix /scratch/UCL/applications/gcc/4.9.2/bin/../lib/gcc/x86_64-unknown-linux-gnu/4.9.2/ -mtune=corei7 -march=x86-64 -g -Og
#
# seed  -776027147  -601040710  1589126364 -1626525386   395352895 -1042052985 -2045674050  1233532823  -657216264  2094659880  1094791995  -484285347
#
#      Author: C. J. Pickard (cjp20@cam.ac.uk)
#                Space group: P31
#

%BLOCK LATTICE_ABC
      3.56228      3.56228      7.94311
     90.00000     90.00000    120.00000
%ENDBLOCK LATTICE_ABC

%BLOCK POSITIONS_FRAC
  Li       -0.3396931       -0.0217574        0.1546119
  Li        0.3179357        0.3396931        0.4879453
  Li        0.0217574       -0.3179357       -0.1787214
   N       -0.4179184        0.0031851       -0.0811542
   N        0.4211035        0.4179184        0.2521791
   N       -0.0031851       -0.4211035       -0.4144876
   N        0.0642674        0.2033087       -0.0970191
   N        0.1390413       -0.0642674        0.2363143
   N       -0.2033087       -0.1390413       -0.4303524
%ENDBLOCK POSITIONS_FRAC

KPOINTS_MP_SPACING 0.07

%BLOCK SPECIES_POT
QC5
%ENDBLOCK SPECIES_POT

SNAP_TO_SYMMETRY
SYMMETRY_GENERATE

