#              Generated by Buildcell
#
# at 20:20:36 (GMT+1.0) 26th March 2023
# in /scratch/scratch/uccabz1/launch_tmp_michael
# on node-a14a-003
# by uccabz1
#
# compiler GCC version 4.9.2
# options -cpp -iprefix /scratch/UCL/applications/gcc/4.9.2/bin/../lib/gcc/x86_64-unknown-linux-gnu/4.9.2/ -mtune=corei7 -march=x86-64 -g -Og
#
# seed  1988179806  -294413034 -1931740041  1953748688   471308048  -680751792  1209272067   141987684 -1840200808 -1678456218  1822466608  -219170576
#
#      Author: C. J. Pickard (cjp20@cam.ac.uk)
#                Space group: R3
#

%BLOCK LATTICE_ABC
      4.11963      4.11963      4.11963
     70.90295     70.90295     70.90295
%ENDBLOCK LATTICE_ABC

%BLOCK POSITIONS_FRAC
  Li        0.2804605        0.2804605        0.2804605
  Li        0.0080592        0.0080592        0.0080592
   N       -0.1838104       -0.3567001        0.0163356
   N       -0.3567001        0.0163356       -0.1838104
   N        0.0163356       -0.1838104       -0.3567001
   N        0.4874856        0.4874856        0.4874856
%ENDBLOCK POSITIONS_FRAC

KPOINTS_MP_SPACING 0.07

%BLOCK SPECIES_POT
QC5
%ENDBLOCK SPECIES_POT

SNAP_TO_SYMMETRY
SYMMETRY_GENERATE

