#              Generated by Buildcell
#
# at 16:57:32 (GMT+1.0) 26th March 2023
# in /scratch/scratch/uccabz1/launch_tmp_michael
# on node-a14a-019
# by uccabz1
#
# compiler GCC version 4.9.2
# options -cpp -iprefix /scratch/UCL/applications/gcc/4.9.2/bin/../lib/gcc/x86_64-unknown-linux-gnu/4.9.2/ -mtune=corei7 -march=x86-64 -g -Og
#
# seed  2119872919 -2025687078  -937957803 -1233868342  2000416888   985789945  1501359475  -310359287 -1577203030 -1742838966 -1427702940  1672659023
#
#      Author: C. J. Pickard (cjp20@cam.ac.uk)
#                Space group: Pnn2
#

%BLOCK LATTICE_ABC
      5.62437      5.64443      5.68925
     90.00000     90.00000     90.00000
%ENDBLOCK LATTICE_ABC

%BLOCK POSITIONS_FRAC
  Li       -0.2996367       -0.3236826        0.2127880
  Li        0.2996367        0.3236826        0.2127880
  Li        0.2003633       -0.1763174       -0.2872120
  Li       -0.2003633        0.1763174       -0.2872120
  Li        0.0000000        0.0000000        0.1653775
  Li       -0.5000000       -0.5000000       -0.3346225
   N       -0.1312539        0.4755619        0.0025736
   N        0.1312539       -0.4755619        0.0025736
   N        0.3687461        0.0244381       -0.4974264
   N       -0.3687461       -0.0244381       -0.4974264
   N        0.3357130       -0.3471784        0.1525631
   N       -0.3357130        0.3471784        0.1525631
   N       -0.1642870       -0.1528216       -0.3474369
   N        0.1642870        0.1528216       -0.3474369
   N       -0.4612323        0.2121812        0.4211338
   N        0.4612323       -0.2121812        0.4211338
   N        0.0387677        0.2878188       -0.0788662
   N       -0.0387677       -0.2878188       -0.0788662
%ENDBLOCK POSITIONS_FRAC

KPOINTS_MP_SPACING 0.07

%BLOCK SPECIES_POT
QC5
%ENDBLOCK SPECIES_POT

SNAP_TO_SYMMETRY
SYMMETRY_GENERATE

