#              Generated by Buildcell
#
# at 16:10:23 (GMT+1.0) 26th March 2023
# in /scratch/scratch/uccabz1/launch_tmp_michael
# on node-a14e-007
# by uccabz1
#
# compiler GCC version 4.9.2
# options -cpp -iprefix /scratch/UCL/applications/gcc/4.9.2/bin/../lib/gcc/x86_64-unknown-linux-gnu/4.9.2/ -mtune=corei7 -march=x86-64 -g -Og
#
# seed   103200569  -762833253   130651236  1251660831   -20853630 -2011042333  1955918931  1319818566 -1030579186 -1695886981 -1284849834 -1963059127
#
#      Author: C. J. Pickard (cjp20@cam.ac.uk)
#                Space group: Cc
#

%BLOCK LATTICE_ABC
      3.67021      3.67021      9.14671
     86.30425     86.30425     78.44920
%ENDBLOCK LATTICE_ABC

%BLOCK POSITIONS_FRAC
  Li        0.3858502       -0.1121105       -0.3706866
  Li       -0.1121105        0.3858502        0.1293134
  Li       -0.4117501       -0.3007081        0.3536486
  Li       -0.3007081       -0.4117501       -0.1463514
   N        0.1457309       -0.0407967        0.4488262
   N       -0.0407967        0.1457309       -0.0511738
   N       -0.4739363        0.4303875       -0.4649200
   N        0.4303875       -0.4739363        0.0350800
   N        0.4724776        0.1990514        0.4115941
   N        0.1990514        0.4724776       -0.0884059
   N        0.1411755        0.4722659       -0.3921047
   N        0.4722659        0.1411755        0.1078953
%ENDBLOCK POSITIONS_FRAC

KPOINTS_MP_SPACING 0.07

%BLOCK SPECIES_POT
QC5
%ENDBLOCK SPECIES_POT

SNAP_TO_SYMMETRY
SYMMETRY_GENERATE

