#              Generated by Buildcell
#
# at 16:27:08 (GMT+1.0) 26th March 2023
# in /scratch/scratch/uccabz1/launch_tmp_michael
# on node-a14a-001
# by uccabz1
#
# compiler GCC version 4.9.2
# options -cpp -iprefix /scratch/UCL/applications/gcc/4.9.2/bin/../lib/gcc/x86_64-unknown-linux-gnu/4.9.2/ -mtune=corei7 -march=x86-64 -g -Og
#
# seed -1049797481  -219762876  -723264427  1122069271  1519959273  1214646915   142228189 -1498559932  -160720911 -2027443949 -1797496753 -1776187904
#
#      Author: C. J. Pickard (cjp20@cam.ac.uk)
#                Space group: P-1
#

%BLOCK LATTICE_ABC
      3.82718      5.39567      8.64020
    102.40296     93.70055     93.80608
%ENDBLOCK LATTICE_ABC

%BLOCK POSITIONS_FRAC
  Li        0.4859749        0.3211306        0.1240740
  Li       -0.4859749       -0.3211306       -0.1240740
  Li        0.1510663       -0.2909095        0.1596108
  Li       -0.1510663        0.2909095       -0.1596108
  Li        0.0673504        0.3073024       -0.4252095
  Li       -0.0673504       -0.3073024        0.4252095
   N        0.2278522        0.1067113        0.2571628
   N       -0.2278522       -0.1067113       -0.2571628
   N        0.0612983        0.1075704        0.0690272
   N       -0.0612983       -0.1075704       -0.0690272
   N       -0.3047511        0.0050499        0.0862254
   N        0.3047511       -0.0050499       -0.0862254
   N        0.4754571       -0.3283164        0.4975827
   N       -0.4754571        0.3283164       -0.4975827
   N        0.4845233        0.1932950       -0.3422091
   N       -0.4845233       -0.1932950        0.3422091
   N        0.1164676       -0.2120588       -0.2262870
   N       -0.1164676        0.2120588        0.2262870
%ENDBLOCK POSITIONS_FRAC

KPOINTS_MP_SPACING 0.07

%BLOCK SPECIES_POT
QC5
%ENDBLOCK SPECIES_POT

SNAP_TO_SYMMETRY
SYMMETRY_GENERATE

