#              Generated by Buildcell
#
# at 15:19:31 (GMT+1.0) 26th March 2023
# in /scratch/scratch/uccabz1/launch_tmp_michael
# on node-a14a-019
# by uccabz1
#
# compiler GCC version 4.9.2
# options -cpp -iprefix /scratch/UCL/applications/gcc/4.9.2/bin/../lib/gcc/x86_64-unknown-linux-gnu/4.9.2/ -mtune=corei7 -march=x86-64 -g -Og
#
# seed  -275352420   448843368  -734291557  -299538070 -1793701338 -2074276145   801548196  -294502353  1831505898  1786203286   -43276665  1071068541
#
#      Author: C. J. Pickard (cjp20@cam.ac.uk)
#                Space group: R3
#

%BLOCK LATTICE_ABC
      5.21393      5.21393      5.86081
     63.58864     63.58864     60.00000
%ENDBLOCK LATTICE_ABC

%BLOCK POSITIONS_FRAC
  Li        0.1299967        0.3899337       -0.3526744
  Li        0.3899337       -0.1672561       -0.3526744
  Li       -0.1672561        0.1299967       -0.3526744
  Li        0.3396173        0.3396173       -0.0188518
   N        0.3275928       -0.3323831        0.0525628
   N       -0.3323831       -0.0477725        0.0525628
   N       -0.0477725        0.3275928        0.0525628
   N       -0.2686892       -0.4737198       -0.1131630
   N       -0.4737198       -0.1444281       -0.1131630
   N       -0.1444281       -0.2686892       -0.1131630
   N        0.1986587        0.1986587        0.4040239
   N        0.4862930        0.4862930       -0.4588790
%ENDBLOCK POSITIONS_FRAC

KPOINTS_MP_SPACING 0.07

%BLOCK SPECIES_POT
QC5
%ENDBLOCK SPECIES_POT

SNAP_TO_SYMMETRY
SYMMETRY_GENERATE

