#              Generated by Buildcell
#
# at 14:54:05 (GMT+1.0) 26th March 2023
# in /scratch/scratch/uccabz1/launch_tmp_michael
# on node-a14c-005
# by uccabz1
#
# compiler GCC version 4.9.2
# options -cpp -iprefix /scratch/UCL/applications/gcc/4.9.2/bin/../lib/gcc/x86_64-unknown-linux-gnu/4.9.2/ -mtune=corei7 -march=x86-64 -g -Og
#
# seed  1979930884  1023469297  1225586754    34119193   712415910   191481155 -2146233867   737811036  -893952614   728755012  1610177221 -1481371432
#
#      Author: C. J. Pickard (cjp20@cam.ac.uk)
#                Space group: F222
#

%BLOCK LATTICE_ABC
      4.38109      4.38109      5.38076
    111.97010    111.97010     94.64727
%ENDBLOCK LATTICE_ABC

%BLOCK POSITIONS_FRAC
  Li        0.4599387       -0.4599387        0.5000000
  Li        0.0400613       -0.0400613        0.5000000
  Li        0.5000000        0.5000000        0.0000000
   N        0.3736093       -0.0843178        0.0468820
   N       -0.3267273        0.1311998        0.0468820
   N        0.0843178       -0.3736093       -0.0468820
   N       -0.1311998        0.3267273       -0.0468820
   N       -0.1664252        0.3335748       -0.3328503
   N       -0.3335748        0.1664252        0.3328503
%ENDBLOCK POSITIONS_FRAC

KPOINTS_MP_SPACING 0.07

%BLOCK SPECIES_POT
QC5
%ENDBLOCK SPECIES_POT

SNAP_TO_SYMMETRY
SYMMETRY_GENERATE

