#              Generated by Buildcell
#
# at 17:40:44 (GMT+1.0) 26th March 2023
# in /scratch/scratch/uccabz1/launch_tmp_michael
# on node-a14f-035
# by uccabz1
#
# compiler GCC version 4.9.2
# options -cpp -iprefix /scratch/UCL/applications/gcc/4.9.2/bin/../lib/gcc/x86_64-unknown-linux-gnu/4.9.2/ -mtune=corei7 -march=x86-64 -g -Og
#
# seed  1286605515    62645638  1108746954  1294209502  -236932017  -950298723 -1864320549  -261080785  1607097210   741292230 -1397254747  1328918761
#
#      Author: C. J. Pickard (cjp20@cam.ac.uk)
#                Space group: P4
#

%BLOCK LATTICE_ABC
      4.29111      4.29111      4.84863
     90.00000     90.00000     90.00000
%ENDBLOCK LATTICE_ABC

%BLOCK POSITIONS_FRAC
  Li        0.0000000        0.5000000        0.2440054
  Li       -0.5000000        0.0000000        0.2440054
  Li        0.5000000        0.5000000       -0.0206466
   N        0.2281014        0.2376665       -0.2995336
   N       -0.2281014       -0.2376665       -0.2995336
   N        0.2376665       -0.2281014       -0.2995336
   N       -0.2376665        0.2281014       -0.2995336
   N       -0.5000000       -0.0000000       -0.1512952
   N        0.0000000       -0.5000000       -0.1512952
%ENDBLOCK POSITIONS_FRAC

KPOINTS_MP_SPACING 0.07

%BLOCK SPECIES_POT
QC5
%ENDBLOCK SPECIES_POT

SNAP_TO_SYMMETRY
SYMMETRY_GENERATE

