#              Generated by Buildcell
#
# at 16:10:43 (GMT+1.0) 26th March 2023
# in /scratch/scratch/uccabz1/launch_tmp_michael
# on node-a14b-022
# by uccabz1
#
# compiler GCC version 4.9.2
# options -cpp -iprefix /scratch/UCL/applications/gcc/4.9.2/bin/../lib/gcc/x86_64-unknown-linux-gnu/4.9.2/ -mtune=corei7 -march=x86-64 -g -Og
#
# seed  1457733664 -1863844257 -1901685106 -1403585904   924782265  -344596186 -1550626092  1662778430 -1275569031  -936849480  1520343047 -1950476201
#
#      Author: C. J. Pickard (cjp20@cam.ac.uk)
#                Space group: Imm2
#

%BLOCK LATTICE_ABC
      4.41050      5.72495      6.09619
    118.00520    111.20724     90.00000
%ENDBLOCK LATTICE_ABC

%BLOCK POSITIONS_FRAC
  Li        0.0331310        0.4089522        0.2545888
  Li       -0.2214577       -0.4089522       -0.2545888
  Li        0.0331310       -0.1543635        0.2545888
  Li       -0.2214577        0.1543635       -0.2545888
   N        0.4680847        0.3810530        0.1527537
   N        0.3153309       -0.3810530       -0.1527537
   N        0.4680847       -0.2282993        0.1527537
   N        0.3153309        0.2282993       -0.1527537
   N       -0.2565527       -0.4209119        0.4201870
   N        0.3232603        0.4209119       -0.4201870
   N       -0.2565527       -0.1589012        0.4201870
   N        0.3232603        0.1589012       -0.4201870
%ENDBLOCK POSITIONS_FRAC

KPOINTS_MP_SPACING 0.07

%BLOCK SPECIES_POT
QC5
%ENDBLOCK SPECIES_POT

SNAP_TO_SYMMETRY
SYMMETRY_GENERATE

