#              Generated by Buildcell
#
# at 14:50:02 (GMT+1.0) 26th March 2023
# in /scratch/scratch/uccabz1/launch_tmp_michael
# on node-a14a-019
# by uccabz1
#
# compiler GCC version 4.9.2
# options -cpp -iprefix /scratch/UCL/applications/gcc/4.9.2/bin/../lib/gcc/x86_64-unknown-linux-gnu/4.9.2/ -mtune=corei7 -march=x86-64 -g -Og
#
# seed  1565517694  1218621381  -912190385  -369745416   488286568   262681398   -73757347  1692782434 -1636671498   841382098  2077185992   381907988
#
#      Author: C. J. Pickard (cjp20@cam.ac.uk)
#                Space group: C2
#

%BLOCK LATTICE_ABC
      4.92692      6.25756      6.37477
     84.52637     75.97773     66.81649
%ENDBLOCK LATTICE_ABC

%BLOCK POSITIONS_FRAC
  Li       -0.0011725        0.0805860       -0.2583920
  Li       -0.0794135        0.0805860        0.2583920
  Li       -0.0153827       -0.4918794        0.3751277
  Li       -0.4927379       -0.4918794       -0.3751277
  Li        0.1933541       -0.3867082        0.0000000
  Li       -0.3760658       -0.2478684        0.0000000
   N        0.3467641        0.0904112       -0.0650907
   N       -0.4371753        0.0904112        0.0650907
   N       -0.1184656       -0.0848739        0.0399448
   N        0.2033395       -0.0848739       -0.0399448
   N       -0.4095121       -0.0078248       -0.4149160
   N        0.4173369       -0.0078248        0.4149160
   N       -0.3561479        0.4327776        0.3112042
   N       -0.0766296        0.4327776       -0.3112042
   N       -0.4633258       -0.2682106        0.4063741
   N       -0.2684636       -0.2682106       -0.4063741
   N       -0.1296515        0.2593030        0.5000000
   N        0.3247579        0.3504842       -0.5000000
%ENDBLOCK POSITIONS_FRAC

KPOINTS_MP_SPACING 0.07

%BLOCK SPECIES_POT
QC5
%ENDBLOCK SPECIES_POT

SNAP_TO_SYMMETRY
SYMMETRY_GENERATE

