#              Generated by Buildcell
#
# at 15:13:31 (GMT+1.0) 26th March 2023
# in /scratch/scratch/uccabz1/launch_tmp_michael
# on node-a14a-019
# by uccabz1
#
# compiler GCC version 4.9.2
# options -cpp -iprefix /scratch/UCL/applications/gcc/4.9.2/bin/../lib/gcc/x86_64-unknown-linux-gnu/4.9.2/ -mtune=corei7 -march=x86-64 -g -Og
#
# seed   396238330  -214732403  -447615126 -1640818126   -64517936    85593823   337358550  -401893110  -479297792   517386946   373660577  1155776591
#
#      Author: C. J. Pickard (cjp20@cam.ac.uk)
#                Space group: Cm
#

%BLOCK LATTICE_ABC
      4.34488      4.34488      5.48495
    101.39020    109.08765    109.74712
%ENDBLOCK LATTICE_ABC

%BLOCK POSITIONS_FRAC
  Li        0.3429077        0.2871896        0.1300974
  Li       -0.1570922       -0.2128103        0.1300974
  Li        0.3671265        0.2070926       -0.4257808
   N        0.4748345        0.0531207       -0.1205514
   N       -0.1736721        0.4046141       -0.1205514
   N       -0.2694092        0.1604414        0.2473730
   N        0.0869316       -0.4832178        0.2473730
   N       -0.2473769        0.1066531       -0.4840007
   N        0.4093462       -0.2366238       -0.4840007
%ENDBLOCK POSITIONS_FRAC

KPOINTS_MP_SPACING 0.07

%BLOCK SPECIES_POT
QC5
%ENDBLOCK SPECIES_POT

SNAP_TO_SYMMETRY
SYMMETRY_GENERATE

