#              Generated by Buildcell
#
# at 17:56:36 (GMT+1.0) 26th March 2023
# in /scratch/scratch/uccabz1/launch_tmp_michael
# on node-a14f-035
# by uccabz1
#
# compiler GCC version 4.9.2
# options -cpp -iprefix /scratch/UCL/applications/gcc/4.9.2/bin/../lib/gcc/x86_64-unknown-linux-gnu/4.9.2/ -mtune=corei7 -march=x86-64 -g -Og
#
# seed   781535344  -214217550  2114629307  1967974343   984359240  -265794716 -1627850391  -392457128  -536629821  -444809502 -1292899307   534084968
#
#      Author: C. J. Pickard (cjp20@cam.ac.uk)
#                Space group: R3
#

%BLOCK LATTICE_ABC
      4.64937      4.64937      5.41492
     64.57616     64.57616     60.00000
%ENDBLOCK LATTICE_ABC

%BLOCK POSITIONS_FRAC
  Li        0.4037299       -0.2104764       -0.2111897
  Li       -0.2104764        0.0179362       -0.2111897
  Li        0.0179362        0.4037299       -0.2111897
   N        0.4825195        0.4749174        0.1913770
   N        0.4749174       -0.1488139        0.1913770
   N       -0.1488139        0.4825195        0.1913770
   N        0.3372256       -0.2900071       -0.4952837
   N       -0.2900071        0.4480652       -0.4952837
   N        0.4480652        0.3372256       -0.4952837
%ENDBLOCK POSITIONS_FRAC

KPOINTS_MP_SPACING 0.07

%BLOCK SPECIES_POT
QC5
%ENDBLOCK SPECIES_POT

SNAP_TO_SYMMETRY
SYMMETRY_GENERATE

