#              Generated by Buildcell
#
# at 16:45:48 (GMT+1.0) 26th March 2023
# in /scratch/scratch/uccabz1/launch_tmp_michael
# on node-a14e-007
# by uccabz1
#
# compiler GCC version 4.9.2
# options -cpp -iprefix /scratch/UCL/applications/gcc/4.9.2/bin/../lib/gcc/x86_64-unknown-linux-gnu/4.9.2/ -mtune=corei7 -march=x86-64 -g -Og
#
# seed   601881759  1165512430   120061175  1029055564  1301101202  -641829714   152353668  -211499284  -584614567  -361575058  1193653592   592640582
#
#      Author: C. J. Pickard (cjp20@cam.ac.uk)
#                Space group: P3
#

%BLOCK LATTICE_ABC
      4.47135      5.52640      5.52640
    120.00000     90.00000     90.00000
%ENDBLOCK LATTICE_ABC

%BLOCK POSITIONS_FRAC
  Li       -0.4134164       -0.0431339       -0.3140576
  Li       -0.4134164        0.3140576        0.2709237
  Li       -0.4134164       -0.2709237        0.0431339
  Li       -0.1207728        0.3333333       -0.3333333
   N       -0.4217151        0.3468792       -0.0552269
   N       -0.4217151        0.0552269        0.4021060
   N       -0.4217151       -0.4021060       -0.3468792
   N        0.2252245        0.4949194       -0.1072426
   N        0.2252245        0.1072426       -0.3978379
   N        0.2252245        0.3978379       -0.4949194
   N        0.3680685        0.0000000        0.0000000
   N        0.4513063       -0.3333333        0.3333333
%ENDBLOCK POSITIONS_FRAC

KPOINTS_MP_SPACING 0.07

%BLOCK SPECIES_POT
QC5
%ENDBLOCK SPECIES_POT

SNAP_TO_SYMMETRY
SYMMETRY_GENERATE

