#              Generated by Buildcell
#
# at 15:53:10 (GMT+1.0) 26th March 2023
# in /scratch/scratch/uccabz1/launch_tmp_michael
# on node-a14a-003
# by uccabz1
#
# compiler GCC version 4.9.2
# options -cpp -iprefix /scratch/UCL/applications/gcc/4.9.2/bin/../lib/gcc/x86_64-unknown-linux-gnu/4.9.2/ -mtune=corei7 -march=x86-64 -g -Og
#
# seed  -709477209 -1583959454  1819758452 -1593838102 -2010243459  -154355674   851794949  -190404455  -171391215   373948487  1523096989 -1683459698
#
#      Author: C. J. Pickard (cjp20@cam.ac.uk)
#                Space group: R3
#

%BLOCK LATTICE_ABC
      4.47437      4.47437      4.47437
     90.00481     90.00481     90.00481
%ENDBLOCK LATTICE_ABC

%BLOCK POSITIONS_FRAC
  Li        0.2832563        0.1096647       -0.4381899
  Li       -0.4381899        0.2832563        0.1096647
  Li        0.1096647       -0.4381899        0.2832563
   N       -0.1200168        0.1717153       -0.1484692
   N       -0.1484692       -0.1200168        0.1717153
   N        0.1717153       -0.1484692       -0.1200168
   N       -0.4177704       -0.3103513        0.2323532
   N        0.2323532       -0.4177704       -0.3103513
   N       -0.3103513        0.2323532       -0.4177704
%ENDBLOCK POSITIONS_FRAC

KPOINTS_MP_SPACING 0.07

%BLOCK SPECIES_POT
QC5
%ENDBLOCK SPECIES_POT

SNAP_TO_SYMMETRY
SYMMETRY_GENERATE

