#              Generated by Buildcell
#
# at 15:33:07 (GMT+1.0) 26th March 2023
# in /scratch/scratch/uccabz1/launch_tmp_michael
# on node-a14a-019
# by uccabz1
#
# compiler GCC version 4.9.2
# options -cpp -iprefix /scratch/UCL/applications/gcc/4.9.2/bin/../lib/gcc/x86_64-unknown-linux-gnu/4.9.2/ -mtune=corei7 -march=x86-64 -g -Og
#
# seed   127583492  -994992364   722624903  1685829568  1941618350   146179883   327680546 -2141209371 -1336442501 -1580530330  1605244331  -246630343
#
#      Author: C. J. Pickard (cjp20@cam.ac.uk)
#                Space group: Pnn2
#

%BLOCK LATTICE_ABC
      3.26868      5.49649      6.94637
     90.00000     90.00000     90.00000
%ENDBLOCK LATTICE_ABC

%BLOCK POSITIONS_FRAC
  Li        0.2164403       -0.3899340        0.1483543
  Li       -0.2164403       -0.3899340       -0.1483543
  Li       -0.2835597        0.1100660        0.3516457
  Li        0.2835597        0.1100660       -0.3516457
   N       -0.4201232       -0.2996584        0.3495154
   N        0.4201232       -0.2996584       -0.3495154
   N        0.0798768        0.2003416        0.1504846
   N       -0.0798768        0.2003416       -0.1504846
   N       -0.3257994        0.3651092       -0.3343603
   N        0.3257994        0.3651092        0.3343603
   N        0.1742006       -0.1348908       -0.1656397
   N       -0.1742006       -0.1348908        0.1656397
%ENDBLOCK POSITIONS_FRAC

KPOINTS_MP_SPACING 0.07

%BLOCK SPECIES_POT
QC5
%ENDBLOCK SPECIES_POT

SNAP_TO_SYMMETRY
SYMMETRY_GENERATE

