#              Generated by Buildcell
#
# at 16:44:46 (GMT+1.0) 26th March 2023
# in /scratch/scratch/uccabz1/launch_tmp_michael
# on node-a14e-021
# by uccabz1
#
# compiler GCC version 4.9.2
# options -cpp -iprefix /scratch/UCL/applications/gcc/4.9.2/bin/../lib/gcc/x86_64-unknown-linux-gnu/4.9.2/ -mtune=corei7 -march=x86-64 -g -Og
#
# seed  1700250703  -137866252  1008902679  1979419567  1559565612 -1830227535 -1525139775  1937360984  -736918655 -1982262746  -354801947  1659268827
#
#      Author: C. J. Pickard (cjp20@cam.ac.uk)
#                Space group: Pm
#

%BLOCK LATTICE_ABC
      5.24343      5.70650      5.77027
     97.03335     90.00000     90.00000
%ENDBLOCK LATTICE_ABC

%BLOCK POSITIONS_FRAC
  Li        0.2616067        0.4701744       -0.2110614
  Li       -0.2616067        0.4701744       -0.2110614
  Li       -0.2616085        0.0319699       -0.3162922
  Li        0.2616085        0.0319699       -0.3162922
  Li       -0.2616095       -0.1193125        0.0723941
  Li        0.2616095       -0.1193125        0.0723941
   N        0.3566570       -0.2507739        0.3622703
   N       -0.3566570       -0.2507739        0.3622703
   N        0.1430354       -0.4300456        0.0963526
   N       -0.1430354       -0.4300456        0.0963526
   N        0.3566443        0.2177490        0.0888525
   N       -0.3566443        0.2177490        0.0888525
   N       -0.1430345        0.0138316        0.3708817
   N        0.1430345        0.0138316        0.3708817
   N       -0.2388639        0.2577401        0.3486412
   N        0.2388639        0.2577401        0.3486412
   N        0.3439736        0.4572851        0.2310535
   N       -0.3439736        0.4572851        0.2310535
%ENDBLOCK POSITIONS_FRAC

KPOINTS_MP_SPACING 0.07

%BLOCK SPECIES_POT
QC5
%ENDBLOCK SPECIES_POT

SNAP_TO_SYMMETRY
SYMMETRY_GENERATE

