#              Generated by Buildcell
#
# at 16:37:32 (GMT+1.0) 26th March 2023
# in /scratch/scratch/uccabz1/launch_tmp_michael
# on node-a14e-007
# by uccabz1
#
# compiler GCC version 4.9.2
# options -cpp -iprefix /scratch/UCL/applications/gcc/4.9.2/bin/../lib/gcc/x86_64-unknown-linux-gnu/4.9.2/ -mtune=corei7 -march=x86-64 -g -Og
#
# seed  -296233786  1116235600   164923285 -1336796178   126051340  -681093168  -541518828   218752743  -794596505 -1979217273  1430438105 -1872027617
#
#      Author: C. J. Pickard (cjp20@cam.ac.uk)
#                Space group: P3
#

%BLOCK LATTICE_ABC
      4.75623      4.75623      6.13433
     90.00000     90.00000    120.00000
%ENDBLOCK LATTICE_ABC

%BLOCK POSITIONS_FRAC
  Li       -0.2838390       -0.3261780        0.0163717
  Li        0.3261780        0.0423390        0.0163717
  Li       -0.0423390        0.2838390        0.0163717
  Li       -0.3333333        0.3333333       -0.4846671
   N        0.0680352       -0.2000405        0.4182188
   N        0.2000405        0.2680757        0.4182188
   N       -0.2680757       -0.0680352        0.4182188
   N       -0.4838942       -0.1475967       -0.1603353
   N        0.1475967       -0.3362975       -0.1603353
   N        0.3362975        0.4838942       -0.1603353
   N       -0.3333333        0.3333333        0.2056000
   N       -0.3333333        0.3333333       -0.1704560
%ENDBLOCK POSITIONS_FRAC

KPOINTS_MP_SPACING 0.07

%BLOCK SPECIES_POT
QC5
%ENDBLOCK SPECIES_POT

SNAP_TO_SYMMETRY
SYMMETRY_GENERATE

