#              Generated by Buildcell
#
# at 15:38:45 (GMT+1.0) 26th March 2023
# in /scratch/scratch/uccabz1/launch_tmp_michael
# on node-a14a-019
# by uccabz1
#
# compiler GCC version 4.9.2
# options -cpp -iprefix /scratch/UCL/applications/gcc/4.9.2/bin/../lib/gcc/x86_64-unknown-linux-gnu/4.9.2/ -mtune=corei7 -march=x86-64 -g -Og
#
# seed  1702673837    49210538   660297989  -533793054  1858185913   443167118    56599537     2060684  -866477272 -1923826481  -922176640 -1078200364
#
#      Author: C. J. Pickard (cjp20@cam.ac.uk)
#                Space group: Pm
#

%BLOCK LATTICE_ABC
      2.74875      5.00000      6.59212
     90.00000     99.03040     90.00000
%ENDBLOCK LATTICE_ABC

%BLOCK POSITIONS_FRAC
  Li       -0.5098030        0.2499996       -0.2933916
  Li       -0.5098030       -0.2499996       -0.2933916
  Li        0.4779381        0.0000000        0.2604809
   N        0.1995942       -0.3166831        0.4268532
   N        0.1995942        0.3166831        0.4268532
   N        0.0162385        0.3143111        0.1323734
   N        0.0162385       -0.3143111        0.1323734
   N        0.3102133        0.1803253       -0.0266499
   N        0.3102133       -0.1803253       -0.0266499
%ENDBLOCK POSITIONS_FRAC

KPOINTS_MP_SPACING 0.07

%BLOCK SPECIES_POT
QC5
%ENDBLOCK SPECIES_POT

SNAP_TO_SYMMETRY
SYMMETRY_GENERATE

