#              Generated by Buildcell
#
# at 15:24:37 (GMT+1.0) 26th March 2023
# in /scratch/scratch/uccabz1/launch_tmp_michael
# on node-a14c-005
# by uccabz1
#
# compiler GCC version 4.9.2
# options -cpp -iprefix /scratch/UCL/applications/gcc/4.9.2/bin/../lib/gcc/x86_64-unknown-linux-gnu/4.9.2/ -mtune=corei7 -march=x86-64 -g -Og
#
# seed   513785568 -2085417530 -1181335104   932023752  1932080156  1946611990  1856233605  1876354788  1417388823 -1872084220   887256059  1138491278
#
#      Author: C. J. Pickard (cjp20@cam.ac.uk)
#                Space group: P21
#

%BLOCK LATTICE_ABC
      2.50000      4.64712      5.22346
     93.67098     90.00000     90.00000
%ENDBLOCK LATTICE_ABC

%BLOCK POSITIONS_FRAC
  Li       -0.1051974       -0.2029691        0.1097991
  Li        0.3948026        0.2029691       -0.1097991
   N       -0.3684068       -0.0874760        0.4614976
   N        0.1315932        0.0874760       -0.4614976
   N        0.4088347       -0.1788805       -0.2876317
   N       -0.0911653        0.1788805        0.2876317
%ENDBLOCK POSITIONS_FRAC

KPOINTS_MP_SPACING 0.07

%BLOCK SPECIES_POT
QC5
%ENDBLOCK SPECIES_POT

SNAP_TO_SYMMETRY
SYMMETRY_GENERATE

