#              Generated by Buildcell
#
# at 15:13:31 (GMT+1.0) 26th March 2023
# in /scratch/scratch/uccabz1/launch_tmp_michael
# on node-a14b-031
# by uccabz1
#
# compiler GCC version 4.9.2
# options -cpp -iprefix /scratch/UCL/applications/gcc/4.9.2/bin/../lib/gcc/x86_64-unknown-linux-gnu/4.9.2/ -mtune=corei7 -march=x86-64 -g -Og
#
# seed -1562274560  1263067106  2133679464  2134362202    65286976 -1343343677  1075519545  1689316265  -428161796  -226668796  -223088058 -1511959124
#
#      Author: C. J. Pickard (cjp20@cam.ac.uk)
#                Space group: P3
#

%BLOCK LATTICE_ABC
      4.62138      5.45651      5.45651
    120.00000     90.00000     90.00000
%ENDBLOCK LATTICE_ABC

%BLOCK POSITIONS_FRAC
  Li        0.2533859        0.3762006        0.3100519
  Li        0.2533859       -0.3100519        0.0661487
  Li        0.2533859       -0.0661487       -0.3762006
  Li       -0.1801236        0.0000000       -0.0000000
   N       -0.2132511        0.1872319        0.4004888
   N       -0.2132511       -0.4004888       -0.2132569
   N       -0.2132511        0.2132569       -0.1872319
   N        0.0834506        0.1746310       -0.4946682
   N        0.0834506        0.4946682       -0.3307008
   N        0.0834506        0.3307008       -0.1746310
   N        0.3506491        0.3333333       -0.3333333
   N        0.2713456       -0.0000000       -0.0000000
%ENDBLOCK POSITIONS_FRAC

KPOINTS_MP_SPACING 0.07

%BLOCK SPECIES_POT
QC5
%ENDBLOCK SPECIES_POT

SNAP_TO_SYMMETRY
SYMMETRY_GENERATE

