#              Generated by Buildcell
#
# at 20:24:29 (GMT+1.0) 26th March 2023
# in /scratch/scratch/uccabz1/launch_tmp_michael
# on node-a14b-031
# by uccabz1
#
# compiler GCC version 4.9.2
# options -cpp -iprefix /scratch/UCL/applications/gcc/4.9.2/bin/../lib/gcc/x86_64-unknown-linux-gnu/4.9.2/ -mtune=corei7 -march=x86-64 -g -Og
#
# seed -1179915657   253539323   741983905  -608957578   800803420   788984627 -1200296560  -422256851    93701119   666855420  2039318603 -2063658388
#
#      Author: C. J. Pickard (cjp20@cam.ac.uk)
#                Space group: Cm
#

%BLOCK LATTICE_ABC
      3.52566      5.75984      5.75984
     96.96796     90.44299     90.44299
%ENDBLOCK LATTICE_ABC

%BLOCK POSITIONS_FRAC
  Li       -0.4232090        0.1632995       -0.4068812
  Li       -0.4232090       -0.4068812        0.1632995
  Li        0.1702444       -0.0426721        0.2471632
  Li        0.1702444        0.2471632       -0.0426721
   N        0.2629377       -0.1085502       -0.4421848
   N        0.2629377       -0.4421848       -0.1085502
   N       -0.2876506       -0.1018570        0.0720870
   N       -0.2876506        0.0720870       -0.1018570
   N        0.0509003       -0.0451013       -0.2190034
   N        0.0509003       -0.2190034       -0.0451013
   N        0.4102985        0.4777496       -0.3483115
   N        0.4102985       -0.3483115        0.4777496
%ENDBLOCK POSITIONS_FRAC

KPOINTS_MP_SPACING 0.07

%BLOCK SPECIES_POT
QC5
%ENDBLOCK SPECIES_POT

SNAP_TO_SYMMETRY
SYMMETRY_GENERATE

