#              Generated by Buildcell
#
# at 18:08:00 (GMT+1.0) 26th March 2023
# in /scratch/scratch/uccabz1/launch_tmp_michael
# on node-a14a-003
# by uccabz1
#
# compiler GCC version 4.9.2
# options -cpp -iprefix /scratch/UCL/applications/gcc/4.9.2/bin/../lib/gcc/x86_64-unknown-linux-gnu/4.9.2/ -mtune=corei7 -march=x86-64 -g -Og
#
# seed  -915487676 -1361307138  -307512289   593537310  1347950185  1448055021  -795084810   350579938 -2044394912 -2049956885 -1655029670  -300479681
#
#      Author: C. J. Pickard (cjp20@cam.ac.uk)
#                Space group: Ama2
#

%BLOCK LATTICE_ABC
      4.64501      4.70453      6.34299
     90.00000     90.00000    119.58238
%ENDBLOCK LATTICE_ABC

%BLOCK POSITIONS_FRAC
  Li        0.3953398       -0.4222195        0.4470680
  Li       -0.1824406        0.4222195       -0.4470680
  Li       -0.1824406        0.4222195       -0.0529320
  Li        0.3953398       -0.4222195        0.0529320
   N        0.0124309       -0.0371613       -0.1309712
   N        0.0495922        0.0371613        0.1309712
   N        0.0495922        0.0371613        0.3690288
   N        0.0124309       -0.0371613       -0.3690288
   N        0.1301494       -0.2348270        0.3687359
   N        0.3649764        0.2348270       -0.3687359
   N        0.3649764        0.2348270       -0.1312641
   N        0.1301494       -0.2348270        0.1312641
%ENDBLOCK POSITIONS_FRAC

KPOINTS_MP_SPACING 0.07

%BLOCK SPECIES_POT
QC5
%ENDBLOCK SPECIES_POT

SNAP_TO_SYMMETRY
SYMMETRY_GENERATE

