#              Generated by Buildcell
#
# at 17:18:36 (GMT+1.0) 26th March 2023
# in /scratch/scratch/uccabz1/launch_tmp_michael
# on node-a14a-003
# by uccabz1
#
# compiler GCC version 4.9.2
# options -cpp -iprefix /scratch/UCL/applications/gcc/4.9.2/bin/../lib/gcc/x86_64-unknown-linux-gnu/4.9.2/ -mtune=corei7 -march=x86-64 -g -Og
#
# seed  1285624600  -193116059  -449563889   202432384 -2014837067   -81049513  1495803992   237559614  -680464253  -906726955  -898685534 -1688277714
#
#      Author: C. J. Pickard (cjp20@cam.ac.uk)
#                Space group: Pc
#

%BLOCK LATTICE_ABC
      4.80802      5.49041      7.06958
    104.33937     90.00000     90.00000
%ENDBLOCK LATTICE_ABC

%BLOCK POSITIONS_FRAC
  Li        0.4553319        0.3085425        0.2482195
  Li       -0.4553319       -0.1914575        0.2482195
  Li       -0.3659573       -0.4140215       -0.1052490
  Li        0.3659573        0.0859785       -0.1052490
  Li        0.1809478       -0.3134077       -0.4083400
  Li       -0.1809478        0.1865923       -0.4083400
   N        0.4844483        0.1114362        0.4445246
   N       -0.4844483       -0.3885638        0.4445246
   N        0.1094765        0.2772935       -0.2162951
   N       -0.1094765       -0.2227065       -0.2162951
   N        0.0184734       -0.0517163       -0.0327517
   N       -0.0184734        0.4482837       -0.0327517
   N       -0.2766073       -0.0676568        0.0430177
   N        0.2766073        0.4323432        0.0430177
   N       -0.0683233       -0.0414304        0.2446096
   N        0.0683233        0.4585696        0.2446096
   N        0.3456841        0.3607216       -0.4761511
   N       -0.3456841       -0.1392784       -0.4761511
%ENDBLOCK POSITIONS_FRAC

KPOINTS_MP_SPACING 0.07

%BLOCK SPECIES_POT
QC5
%ENDBLOCK SPECIES_POT

SNAP_TO_SYMMETRY
SYMMETRY_GENERATE

