#              Generated by Buildcell
#
# at 19:51:09 (GMT+1.0) 26th March 2023
# in /scratch/scratch/uccabz1/launch_tmp_michael
# on node-a14a-019
# by uccabz1
#
# compiler GCC version 4.9.2
# options -cpp -iprefix /scratch/UCL/applications/gcc/4.9.2/bin/../lib/gcc/x86_64-unknown-linux-gnu/4.9.2/ -mtune=corei7 -march=x86-64 -g -Og
#
# seed -1507631219  -796515179  -797664338  1323908378 -1623847360  -425675598  -699474284  -933085993   543008553   685147337  -456697109   853937645
#
#      Author: C. J. Pickard (cjp20@cam.ac.uk)
#                Space group: Pmc21
#

%BLOCK LATTICE_ABC
      2.50000      4.57422      5.21936
     90.00000     90.00000     90.00000
%ENDBLOCK LATTICE_ABC

%BLOCK POSITIONS_FRAC
  Li        0.2224097       -0.5000000        0.2400795
  Li       -0.2224097        0.5000000       -0.2599205
   N       -0.3847760        0.2410162        0.0203273
   N        0.3847760       -0.2410162       -0.4796727
   N        0.3847760        0.2410162       -0.4796727
   N       -0.3847760       -0.2410162        0.0203273
%ENDBLOCK POSITIONS_FRAC

KPOINTS_MP_SPACING 0.07

%BLOCK SPECIES_POT
QC5
%ENDBLOCK SPECIES_POT

SNAP_TO_SYMMETRY
SYMMETRY_GENERATE

