#              Generated by Buildcell
#
# at 16:10:54 (GMT+1.0) 26th March 2023
# in /scratch/scratch/uccabz1/launch_tmp_michael
# on node-a14b-028
# by uccabz1
#
# compiler GCC version 4.9.2
# options -cpp -iprefix /scratch/UCL/applications/gcc/4.9.2/bin/../lib/gcc/x86_64-unknown-linux-gnu/4.9.2/ -mtune=corei7 -march=x86-64 -g -Og
#
# seed -1924969695   -41124539  1436511405   799248780  -385062208  -999044219   -43494513  1804877142  -811509368   748133228 -1657484947 -1246627126
#
#      Author: C. J. Pickard (cjp20@cam.ac.uk)
#                Space group: P3
#

%BLOCK LATTICE_ABC
      3.11144      8.07526      8.07526
    120.00000     90.00000     90.00000
%ENDBLOCK LATTICE_ABC

%BLOCK POSITIONS_FRAC
  Li        0.4840654        0.1277540       -0.4519667
  Li        0.4840654        0.4202793       -0.1277540
  Li        0.4840654        0.4519667       -0.4202793
  Li        0.0348041       -0.2191029        0.1093417
  Li        0.0348041        0.3284446        0.2191029
  Li        0.0348041       -0.1093417       -0.3284446
   N        0.0349354        0.1832177       -0.1892152
   N        0.0349354       -0.3724330       -0.1832177
   N        0.0349354        0.1892152        0.3724330
   N        0.3083971        0.0125634        0.2883817
   N        0.3083971        0.2758183       -0.0125634
   N        0.3083971       -0.2883817       -0.2758183
   N       -0.0005519       -0.1239350       -0.0630323
   N       -0.0005519        0.0609026        0.1239350
   N       -0.0005519        0.0630323       -0.0609026
   N       -0.4091991       -0.0402304        0.1185495
   N       -0.4091991        0.1587798        0.0402304
   N       -0.4091991       -0.1185495       -0.1587798
%ENDBLOCK POSITIONS_FRAC

KPOINTS_MP_SPACING 0.07

%BLOCK SPECIES_POT
QC5
%ENDBLOCK SPECIES_POT

SNAP_TO_SYMMETRY
SYMMETRY_GENERATE

