#              Generated by Buildcell
#
# at 17:20:49 (GMT+1.0) 26th March 2023
# in /scratch/scratch/uccabz1/launch_tmp_michael
# on node-a14b-028
# by uccabz1
#
# compiler GCC version 4.9.2
# options -cpp -iprefix /scratch/UCL/applications/gcc/4.9.2/bin/../lib/gcc/x86_64-unknown-linux-gnu/4.9.2/ -mtune=corei7 -march=x86-64 -g -Og
#
# seed  -276795605  -257057251  1177884393  -779713582   613225114  1995270650   278097261   364303054  -917074872 -1734646053  1814963205 -2085910174
#
#      Author: C. J. Pickard (cjp20@cam.ac.uk)
#                Space group: C2
#

%BLOCK LATTICE_ABC
      5.61831      5.61831      6.39339
     73.29640     73.29640     69.61842
%ENDBLOCK LATTICE_ABC

%BLOCK POSITIONS_FRAC
  Li       -0.1597594        0.1355269        0.3112936
  Li       -0.1355269        0.1597594       -0.3112936
  Li       -0.2086890       -0.1509906        0.0528290
  Li        0.1509906        0.2086890       -0.0528290
  Li       -0.4971544       -0.4373768        0.2422079
  Li        0.4373768        0.4971544       -0.2422079
   N        0.1323448        0.4020276        0.3142232
   N       -0.4020276       -0.1323448       -0.3142232
   N        0.0732918       -0.4360961       -0.2020855
   N        0.4360961       -0.0732918        0.2020855
   N       -0.1164378       -0.2139039       -0.3198030
   N        0.2139039        0.1164378        0.3198030
   N       -0.2212928       -0.2675193        0.3774293
   N        0.2675193        0.2212928       -0.3774293
   N        0.1247338       -0.3828320        0.4131596
   N        0.3828320       -0.1247338       -0.4131596
   N       -0.4334414        0.1182665        0.2028327
   N       -0.1182665        0.4334414       -0.2028327
%ENDBLOCK POSITIONS_FRAC

KPOINTS_MP_SPACING 0.07

%BLOCK SPECIES_POT
QC5
%ENDBLOCK SPECIES_POT

SNAP_TO_SYMMETRY
SYMMETRY_GENERATE

