#              Generated by Buildcell
#
# at 16:50:13 (GMT+1.0) 26th March 2023
# in /scratch/scratch/uccabz1/launch_tmp_michael
# on node-a14b-031
# by uccabz1
#
# compiler GCC version 4.9.2
# options -cpp -iprefix /scratch/UCL/applications/gcc/4.9.2/bin/../lib/gcc/x86_64-unknown-linux-gnu/4.9.2/ -mtune=corei7 -march=x86-64 -g -Og
#
# seed  -566635435 -2065132304  -970516684  1879532050   901267586 -1913085127 -1551621377  -355722448  1558183558  1261983842   279752995 -2010965534
#
#      Author: C. J. Pickard (cjp20@cam.ac.uk)
#                Space group: P2
#

%BLOCK LATTICE_ABC
      2.50010      4.17516      6.29178
    107.14543     90.00000     90.00000
%ENDBLOCK LATTICE_ABC

%BLOCK POSITIONS_FRAC
  Li       -0.0281208        0.2015890        0.3810142
  Li       -0.0281208       -0.2015890       -0.3810142
   N        0.0983653        0.4327093       -0.1244848
   N        0.0983653       -0.4327093        0.1244848
   N        0.3097519       -0.2190983        0.3435856
   N        0.3097519        0.2190983       -0.3435856
%ENDBLOCK POSITIONS_FRAC

KPOINTS_MP_SPACING 0.07

%BLOCK SPECIES_POT
QC5
%ENDBLOCK SPECIES_POT

SNAP_TO_SYMMETRY
SYMMETRY_GENERATE

