#              Generated by Buildcell
#
# at 15:00:35 (GMT+1.0) 26th March 2023
# in /scratch/scratch/uccabz1/launch_tmp_michael
# on node-a14c-005
# by uccabz1
#
# compiler GCC version 4.9.2
# options -cpp -iprefix /scratch/UCL/applications/gcc/4.9.2/bin/../lib/gcc/x86_64-unknown-linux-gnu/4.9.2/ -mtune=corei7 -march=x86-64 -g -Og
#
# seed   398111711   -12191644  1822770341 -1942580866    24047738  -111201652  -314596218  -678923858  2023219641 -2017268580   486377995 -1088762368
#
#      Author: C. J. Pickard (cjp20@cam.ac.uk)
#                Space group: Ama2
#

%BLOCK LATTICE_ABC
      3.55784      3.55784      9.17478
     90.00000     90.00000     96.11240
%ENDBLOCK LATTICE_ABC

%BLOCK POSITIONS_FRAC
  Li       -0.3245342        0.2142521        0.1137549
  Li        0.2142521       -0.3245342       -0.1137549
  Li        0.2142521       -0.3245342       -0.3862451
  Li       -0.3245342        0.2142521        0.3862451
   N        0.4191124        0.2146442       -0.4320941
   N        0.2146442        0.4191124        0.4320941
   N        0.2146442        0.4191124        0.0679059
   N        0.4191124        0.2146442       -0.0679059
   N        0.0685151       -0.2969082        0.1682540
   N       -0.2969082        0.0685151       -0.1682540
   N       -0.2969082        0.0685151       -0.3317460
   N        0.0685151       -0.2969082        0.3317460
%ENDBLOCK POSITIONS_FRAC

KPOINTS_MP_SPACING 0.07

%BLOCK SPECIES_POT
QC5
%ENDBLOCK SPECIES_POT

SNAP_TO_SYMMETRY
SYMMETRY_GENERATE

