#              Generated by Buildcell
#
# at 16:13:40 (GMT+1.0) 26th March 2023
# in /scratch/scratch/uccabz1/launch_tmp_michael
# on node-a14f-035
# by uccabz1
#
# compiler GCC version 4.9.2
# options -cpp -iprefix /scratch/UCL/applications/gcc/4.9.2/bin/../lib/gcc/x86_64-unknown-linux-gnu/4.9.2/ -mtune=corei7 -march=x86-64 -g -Og
#
# seed   114545077 -1270728876    30443864  -683198551  -263276494 -1950594789  1308959375  -310473613   840511636 -1296673730   517959479 -1825671518
#
#      Author: C. J. Pickard (cjp20@cam.ac.uk)
#                Space group: P3
#

%BLOCK LATTICE_ABC
      5.45850      6.16265      6.16265
    120.00000     90.00000     90.00000
%ENDBLOCK LATTICE_ABC

%BLOCK POSITIONS_FRAC
  Li       -0.0915909       -0.3561188       -0.4446786
  Li       -0.0915909       -0.0885598        0.3561188
  Li       -0.0915909        0.4446786        0.0885598
  Li        0.3324458       -0.4448062       -0.3563413
  Li        0.3324458        0.0884649        0.4448062
  Li        0.3324458        0.3563413       -0.0884649
   N        0.4257163       -0.1585979       -0.0495483
   N        0.4257163        0.1090497        0.1585979
   N        0.4257163        0.0495483       -0.1090497
   N        0.0388887        0.0294452       -0.3179377
   N        0.0388887       -0.3473828       -0.0294452
   N        0.0388887        0.3179377        0.3473828
   N       -0.3599709       -0.2112183       -0.2212347
   N       -0.3599709       -0.0100164        0.2112183
   N       -0.3599709        0.2212347        0.0100164
   N        0.2881875       -0.0885504       -0.3515990
   N        0.2881875       -0.2630485        0.0885504
   N        0.2881875        0.3515990        0.2630485
%ENDBLOCK POSITIONS_FRAC

KPOINTS_MP_SPACING 0.07

%BLOCK SPECIES_POT
QC5
%ENDBLOCK SPECIES_POT

SNAP_TO_SYMMETRY
SYMMETRY_GENERATE

