#              Generated by Buildcell
#
# at 15:18:17 (GMT+1.0) 26th March 2023
# in /scratch/scratch/uccabz1/launch_tmp_michael
# on node-a14e-021
# by uccabz1
#
# compiler GCC version 4.9.2
# options -cpp -iprefix /scratch/UCL/applications/gcc/4.9.2/bin/../lib/gcc/x86_64-unknown-linux-gnu/4.9.2/ -mtune=corei7 -march=x86-64 -g -Og
#
# seed -1618013896 -1827410185   353684169 -1568181973  -347065807 -2114761846 -1529631349  1967635595  2138850311 -1670197890  -668792739   584340401
#
#      Author: C. J. Pickard (cjp20@cam.ac.uk)
#                Space group: Pc
#

%BLOCK LATTICE_ABC
      3.45516      3.49116      9.68635
     90.00000     90.00000     97.80697
%ENDBLOCK LATTICE_ABC

%BLOCK POSITIONS_FRAC
  Li        0.3425073        0.2994349        0.1552993
  Li        0.3425073       -0.2005651       -0.1552993
  Li       -0.0079432       -0.4697770        0.3583813
  Li       -0.0079432        0.0302230       -0.3583813
   N       -0.4572575        0.3263536       -0.1237942
   N       -0.4572575       -0.1736464        0.1237942
   N       -0.3911847        0.0826971       -0.0007037
   N       -0.3911847       -0.4173029        0.0007037
   N       -0.1822921        0.0679899        0.4567060
   N       -0.1822921       -0.4320101       -0.4567060
   N        0.1689823       -0.3298450        0.0302600
   N        0.1689823        0.1701550       -0.0302600
%ENDBLOCK POSITIONS_FRAC

KPOINTS_MP_SPACING 0.07

%BLOCK SPECIES_POT
QC5
%ENDBLOCK SPECIES_POT

SNAP_TO_SYMMETRY
SYMMETRY_GENERATE

