#              Generated by Buildcell
#
# at 17:00:46 (GMT+1.0) 26th March 2023
# in /scratch/scratch/uccabz1/launch_tmp_michael
# on node-a14a-003
# by uccabz1
#
# compiler GCC version 4.9.2
# options -cpp -iprefix /scratch/UCL/applications/gcc/4.9.2/bin/../lib/gcc/x86_64-unknown-linux-gnu/4.9.2/ -mtune=corei7 -march=x86-64 -g -Og
#
# seed   780061488   770596221  1865687213     3030043   144266579  1597758675  1575767590   932094550   573212110   399092294  -719500265   888219790
#
#      Author: C. J. Pickard (cjp20@cam.ac.uk)
#                Space group: C222
#

%BLOCK LATTICE_ABC
      4.23347      4.70917      4.70917
    109.30387     90.00000     90.00000
%ENDBLOCK LATTICE_ABC

%BLOCK POSITIONS_FRAC
  Li       -0.0000000       -0.1715144        0.1715144
  Li        0.0000000        0.1715144       -0.1715144
  Li       -0.5000000       -0.5000000       -0.5000000
   N       -0.4144361       -0.2507842        0.0097358
   N       -0.4144361        0.2507842       -0.0097358
   N        0.4144361       -0.0097358        0.2507842
   N        0.4144361        0.0097358       -0.2507842
   N        0.3606913        0.5000000        0.0000000
   N       -0.3606913        0.0000000       -0.5000000
%ENDBLOCK POSITIONS_FRAC

KPOINTS_MP_SPACING 0.07

%BLOCK SPECIES_POT
QC5
%ENDBLOCK SPECIES_POT

SNAP_TO_SYMMETRY
SYMMETRY_GENERATE

