#              Generated by Buildcell
#
# at 20:00:37 (GMT+1.0) 26th March 2023
# in /scratch/scratch/uccabz1/launch_tmp_michael
# on node-a14a-003
# by uccabz1
#
# compiler GCC version 4.9.2
# options -cpp -iprefix /scratch/UCL/applications/gcc/4.9.2/bin/../lib/gcc/x86_64-unknown-linux-gnu/4.9.2/ -mtune=corei7 -march=x86-64 -g -Og
#
# seed  1658825425   483298764   157924171  -942111860    67755740  2028202861  -291405759 -1321909051  -569278636  -581860889 -1379342996  1604231360
#
#      Author: C. J. Pickard (cjp20@cam.ac.uk)
#                Space group: P3
#

%BLOCK LATTICE_ABC
      4.15491      5.63237      5.63237
    120.00000     90.00000     90.00000
%ENDBLOCK LATTICE_ABC

%BLOCK POSITIONS_FRAC
  Li       -0.2519190       -0.3620345       -0.4081111
  Li       -0.2519190       -0.0460766        0.3620345
  Li       -0.2519190        0.4081111        0.0460766
  Li        0.4536248        0.0000000        0.0000000
   N       -0.3565362        0.2680414        0.3347673
   N       -0.3565362        0.0667259       -0.2680414
   N       -0.3565362       -0.3347673       -0.0667259
   N        0.1741555       -0.2966148       -0.2480980
   N        0.1741555        0.0485167        0.2966148
   N        0.1741555        0.2480980       -0.0485167
   N       -0.0037093        0.0000000        0.0000000
   N        0.2817597       -0.3333333        0.3333333
%ENDBLOCK POSITIONS_FRAC

KPOINTS_MP_SPACING 0.07

%BLOCK SPECIES_POT
QC5
%ENDBLOCK SPECIES_POT

SNAP_TO_SYMMETRY
SYMMETRY_GENERATE

