#              Generated by Buildcell
#
# at 16:40:59 (GMT+1.0) 26th March 2023
# in /scratch/scratch/uccabz1/launch_tmp_michael
# on node-a14a-003
# by uccabz1
#
# compiler GCC version 4.9.2
# options -cpp -iprefix /scratch/UCL/applications/gcc/4.9.2/bin/../lib/gcc/x86_64-unknown-linux-gnu/4.9.2/ -mtune=corei7 -march=x86-64 -g -Og
#
# seed -1158319347  -481568128 -2129125033  -646296523   -38429721 -1194446616  -337824187 -1314660731   902954509   -93071655 -1294882825  1364572472
#
#      Author: C. J. Pickard (cjp20@cam.ac.uk)
#                Space group: Pca21
#

%BLOCK LATTICE_ABC
      3.47982      5.66276      6.30209
     90.00000     90.00000     90.00000
%ENDBLOCK LATTICE_ABC

%BLOCK POSITIONS_FRAC
  Li       -0.1536644        0.0913445       -0.3835998
  Li        0.3463356       -0.0913445        0.3835998
  Li       -0.1536644       -0.4086555        0.3835998
  Li        0.3463356        0.4086555       -0.3835998
   N        0.4828441        0.1195492       -0.1059489
   N       -0.0171559       -0.1195492        0.1059489
   N        0.4828441       -0.3804508        0.1059489
   N       -0.0171559        0.3804508       -0.1059489
   N        0.3670590       -0.1428804       -0.2186584
   N       -0.1329410        0.1428804        0.2186584
   N        0.3670590        0.3571196        0.2186584
   N       -0.1329410       -0.3571196       -0.2186584
%ENDBLOCK POSITIONS_FRAC

KPOINTS_MP_SPACING 0.07

%BLOCK SPECIES_POT
QC5
%ENDBLOCK SPECIES_POT

SNAP_TO_SYMMETRY
SYMMETRY_GENERATE

