#              Generated by Buildcell
#
# at 16:40:58 (GMT+1.0) 26th March 2023
# in /scratch/scratch/uccabz1/launch_tmp_michael
# on node-a14b-022
# by uccabz1
#
# compiler GCC version 4.9.2
# options -cpp -iprefix /scratch/UCL/applications/gcc/4.9.2/bin/../lib/gcc/x86_64-unknown-linux-gnu/4.9.2/ -mtune=corei7 -march=x86-64 -g -Og
#
# seed  -294934289   470840390   -10951700  -357144368  -239898615   252239681  1265059981  1891279937 -2115873633  1020980194  -205815117  -783745658
#
#      Author: C. J. Pickard (cjp20@cam.ac.uk)
#                Space group: R3
#

%BLOCK LATTICE_ABC
      4.99393      4.99393      4.99393
     82.05816     82.05816     82.05816
%ENDBLOCK LATTICE_ABC

%BLOCK POSITIONS_FRAC
  Li        0.1595475       -0.2557428       -0.1747591
  Li       -0.1747591        0.1595475       -0.2557428
  Li       -0.2557428       -0.1747591        0.1595475
  Li       -0.3458092       -0.3458092       -0.3458092
   N        0.1632779        0.1107865       -0.1075278
   N       -0.1075278        0.1632779        0.1107865
   N        0.1107865       -0.1075278        0.1632779
   N       -0.4383950        0.1765884        0.0573025
   N        0.0573025       -0.4383950        0.1765884
   N        0.1765884        0.0573025       -0.4383950
   N        0.4323405        0.4323405        0.4323405
   N        0.2747850        0.2747850        0.2747850
%ENDBLOCK POSITIONS_FRAC

KPOINTS_MP_SPACING 0.07

%BLOCK SPECIES_POT
QC5
%ENDBLOCK SPECIES_POT

SNAP_TO_SYMMETRY
SYMMETRY_GENERATE

