#              Generated by Buildcell
#
# at 16:06:49 (GMT+1.0) 26th March 2023
# in /scratch/scratch/uccabz1/launch_tmp_michael
# on node-a14b-022
# by uccabz1
#
# compiler GCC version 4.9.2
# options -cpp -iprefix /scratch/UCL/applications/gcc/4.9.2/bin/../lib/gcc/x86_64-unknown-linux-gnu/4.9.2/ -mtune=corei7 -march=x86-64 -g -Og
#
# seed -1201162433   948305339 -1723191672 -1667193645   582867120 -2105347865 -1112743765   612569835 -1803027287 -1538610764  1151197028 -1049379295
#
#      Author: C. J. Pickard (cjp20@cam.ac.uk)
#                Space group: C2/m
#

%BLOCK LATTICE_ABC
      2.68602      6.66565      6.66565
    100.29024     97.78045     97.78045
%ENDBLOCK LATTICE_ABC

%BLOCK POSITIONS_FRAC
  Li        0.2074522        0.4325323        0.1789183
  Li       -0.2074522       -0.1789183       -0.4325323
  Li       -0.2074522       -0.4325323       -0.1789183
  Li        0.2074522        0.1789183        0.4325323
   N       -0.3826021        0.3133901       -0.0196367
   N        0.3826021        0.0196367       -0.3133901
   N        0.3826021       -0.3133901        0.0196367
   N       -0.3826021       -0.0196367        0.3133901
   N        0.2285686       -0.1951094        0.3564168
   N       -0.2285686       -0.3564168        0.1951094
   N       -0.2285686        0.1951094       -0.3564168
   N        0.2285686        0.3564168       -0.1951094
%ENDBLOCK POSITIONS_FRAC

KPOINTS_MP_SPACING 0.07

%BLOCK SPECIES_POT
QC5
%ENDBLOCK SPECIES_POT

SNAP_TO_SYMMETRY
SYMMETRY_GENERATE

