#              Generated by Buildcell
#
# at 14:50:01 (GMT+1.0) 26th March 2023
# in /scratch/scratch/uccabz1/launch_tmp_michael
# on node-a14c-005
# by uccabz1
#
# compiler GCC version 4.9.2
# options -cpp -iprefix /scratch/UCL/applications/gcc/4.9.2/bin/../lib/gcc/x86_64-unknown-linux-gnu/4.9.2/ -mtune=corei7 -march=x86-64 -g -Og
#
# seed  -657713042   881599557   305692481   911209480  1809047961   -32864730    25288074  -245028212  -257528795   874342008   213441848  1964359978
#
#      Author: C. J. Pickard (cjp20@cam.ac.uk)
#                Space group: C2
#

%BLOCK LATTICE_ABC
      3.10073      3.10073      6.39396
     78.92904     78.92904     76.57736
%ENDBLOCK LATTICE_ABC

%BLOCK POSITIONS_FRAC
  Li       -0.1608146        0.2226436        0.2092462
  Li       -0.2226436        0.1608146       -0.2092462
   N       -0.3193982       -0.3076756        0.3791347
   N        0.3076756        0.3193982       -0.3791347
   N        0.4795735       -0.1636901       -0.4061183
   N        0.1636901       -0.4795735        0.4061183
%ENDBLOCK POSITIONS_FRAC

KPOINTS_MP_SPACING 0.07

%BLOCK SPECIES_POT
QC5
%ENDBLOCK SPECIES_POT

SNAP_TO_SYMMETRY
SYMMETRY_GENERATE

