#              Generated by Buildcell
#
# at 16:04:06 (GMT+1.0) 26th March 2023
# in /scratch/scratch/uccabz1/launch_tmp_michael
# on node-a14a-001
# by uccabz1
#
# compiler GCC version 4.9.2
# options -cpp -iprefix /scratch/UCL/applications/gcc/4.9.2/bin/../lib/gcc/x86_64-unknown-linux-gnu/4.9.2/ -mtune=corei7 -march=x86-64 -g -Og
#
# seed   815419641   839861169  -702649473   956305020   710892553   -68043620  1028045907  -715279994  -937435448  1382382933  -237331800   552586231
#
#      Author: C. J. Pickard (cjp20@cam.ac.uk)
#                Space group: P21
#

%BLOCK LATTICE_ABC
      2.80783      3.52380      6.37339
     90.00000     96.40100     90.00000
%ENDBLOCK LATTICE_ABC

%BLOCK POSITIONS_FRAC
  Li        0.1575072       -0.0692785       -0.1131173
  Li       -0.1575072        0.4307215        0.1131173
   N       -0.2781068        0.1826139        0.4762906
   N        0.2781068       -0.3173861       -0.4762906
   N        0.3816177       -0.3110796        0.2571539
   N       -0.3816177        0.1889204       -0.2571539
%ENDBLOCK POSITIONS_FRAC

KPOINTS_MP_SPACING 0.07

%BLOCK SPECIES_POT
QC5
%ENDBLOCK SPECIES_POT

SNAP_TO_SYMMETRY
SYMMETRY_GENERATE

