#              Generated by Buildcell
#
# at 19:27:41 (GMT+1.0) 26th March 2023
# in /scratch/scratch/uccabz1/launch_tmp_michael
# on node-a14b-031
# by uccabz1
#
# compiler GCC version 4.9.2
# options -cpp -iprefix /scratch/UCL/applications/gcc/4.9.2/bin/../lib/gcc/x86_64-unknown-linux-gnu/4.9.2/ -mtune=corei7 -march=x86-64 -g -Og
#
# seed -1069650845   191922484 -2144537844   547482171 -1272307603  -255983730   -17487409 -1837561468  1482501071 -1004829190 -1660268119  1409488286
#
#      Author: C. J. Pickard (cjp20@cam.ac.uk)
#                Space group: P3
#

%BLOCK LATTICE_ABC
      3.49583      3.49583      5.42778
     90.00000     90.00000    120.00000
%ENDBLOCK LATTICE_ABC

%BLOCK POSITIONS_FRAC
  Li       -0.3333333        0.3333333        0.2754121
  Li        0.0000000        0.0000000        0.0036117
   N       -0.3438009       -0.0464031       -0.4699592
   N        0.0464031       -0.2973978       -0.4699592
   N        0.2973978        0.3438009       -0.4699592
   N       -0.3333333        0.3333333       -0.1446870
%ENDBLOCK POSITIONS_FRAC

KPOINTS_MP_SPACING 0.07

%BLOCK SPECIES_POT
QC5
%ENDBLOCK SPECIES_POT

SNAP_TO_SYMMETRY
SYMMETRY_GENERATE

