#              Generated by Buildcell
#
# at 19:07:42 (GMT+1.0) 26th March 2023
# in /scratch/scratch/uccabz1/launch_tmp_michael
# on node-a14b-028
# by uccabz1
#
# compiler GCC version 4.9.2
# options -cpp -iprefix /scratch/UCL/applications/gcc/4.9.2/bin/../lib/gcc/x86_64-unknown-linux-gnu/4.9.2/ -mtune=corei7 -march=x86-64 -g -Og
#
# seed  1800610242  1920092646 -1879316297  -532144736 -1229611356   354570017  -240002435  1047159888   178371798  1159819546 -1176648543  2008091108
#
#      Author: C. J. Pickard (cjp20@cam.ac.uk)
#                Space group: P3
#

%BLOCK LATTICE_ABC
      4.58132      4.58132      4.73706
     90.00000     90.00000    120.00000
%ENDBLOCK LATTICE_ABC

%BLOCK POSITIONS_FRAC
  Li       -0.0395326        0.2934250       -0.1253882
  Li       -0.2934250       -0.3329576       -0.1253882
  Li        0.3329576        0.0395326       -0.1253882
   N       -0.2150258       -0.0636376        0.2030321
   N        0.0636376       -0.1513881        0.2030321
   N        0.1513881        0.2150258        0.2030321
   N       -0.0351948       -0.3833337        0.4947518
   N        0.3833337        0.3481389        0.4947518
   N       -0.3481389        0.0351948        0.4947518
%ENDBLOCK POSITIONS_FRAC

KPOINTS_MP_SPACING 0.07

%BLOCK SPECIES_POT
QC5
%ENDBLOCK SPECIES_POT

SNAP_TO_SYMMETRY
SYMMETRY_GENERATE

