#              Generated by Buildcell
#
# at 16:06:50 (GMT+1.0) 26th March 2023
# in /scratch/scratch/uccabz1/launch_tmp_michael
# on node-a14b-028
# by uccabz1
#
# compiler GCC version 4.9.2
# options -cpp -iprefix /scratch/UCL/applications/gcc/4.9.2/bin/../lib/gcc/x86_64-unknown-linux-gnu/4.9.2/ -mtune=corei7 -march=x86-64 -g -Og
#
# seed -1245123666  1297979129  -202171740  1187973566  1813525886   -76477199 -1698182601  -630492505  1569003359   231092255   618881462  -384745643
#
#      Author: C. J. Pickard (cjp20@cam.ac.uk)
#                Space group: R3
#

%BLOCK LATTICE_ABC
      4.19907      4.19907      4.19907
     68.64245     68.64245     68.64245
%ENDBLOCK LATTICE_ABC

%BLOCK POSITIONS_FRAC
  Li        0.1668505        0.1668505        0.1668505
  Li       -0.0958458       -0.0958458       -0.0958458
   N        0.0276153        0.3410932       -0.3306247
   N       -0.3306247        0.0276153        0.3410932
   N        0.3410932       -0.3306247        0.0276153
   N       -0.2945739       -0.2945739       -0.2945739
%ENDBLOCK POSITIONS_FRAC

KPOINTS_MP_SPACING 0.07

%BLOCK SPECIES_POT
QC5
%ENDBLOCK SPECIES_POT

SNAP_TO_SYMMETRY
SYMMETRY_GENERATE

