#              Generated by Buildcell
#
# at 17:36:11 (GMT+1.0) 26th March 2023
# in /scratch/scratch/uccabz1/launch_tmp_michael
# on node-a14a-019
# by uccabz1
#
# compiler GCC version 4.9.2
# options -cpp -iprefix /scratch/UCL/applications/gcc/4.9.2/bin/../lib/gcc/x86_64-unknown-linux-gnu/4.9.2/ -mtune=corei7 -march=x86-64 -g -Og
#
# seed  -752904847 -2083452548 -1852750946   670229389   539188453   675726774 -1547696649  2061729026  1119541982  -239250758   453876259  1727338582
#
#      Author: C. J. Pickard (cjp20@cam.ac.uk)
#                Space group: P2
#

%BLOCK LATTICE_ABC
      2.52150      5.73389      8.23647
     90.00000     90.00000    101.64290
%ENDBLOCK LATTICE_ABC

%BLOCK POSITIONS_FRAC
  Li        0.2990798       -0.2975839        0.4640710
  Li       -0.2990798        0.2975839        0.4640710
  Li        0.1632310        0.2215433       -0.2784955
  Li       -0.1632310       -0.2215433       -0.2784955
   N        0.2829565        0.0726135       -0.0795297
   N       -0.2829565       -0.0726135       -0.0795297
   N        0.1865441       -0.2552677       -0.0763756
   N       -0.1865441        0.2552677       -0.0763756
   N        0.1175480        0.1310395        0.3316445
   N       -0.1175480       -0.1310395        0.3316445
   N        0.0420569       -0.3664823        0.0925771
   N       -0.0420569        0.3664823        0.0925771
%ENDBLOCK POSITIONS_FRAC

KPOINTS_MP_SPACING 0.07

%BLOCK SPECIES_POT
QC5
%ENDBLOCK SPECIES_POT

SNAP_TO_SYMMETRY
SYMMETRY_GENERATE

