#              Generated by Buildcell
#
# at 16:24:06 (GMT+1.0) 26th March 2023
# in /scratch/scratch/uccabz1/launch_tmp_michael
# on node-a14b-022
# by uccabz1
#
# compiler GCC version 4.9.2
# options -cpp -iprefix /scratch/UCL/applications/gcc/4.9.2/bin/../lib/gcc/x86_64-unknown-linux-gnu/4.9.2/ -mtune=corei7 -march=x86-64 -g -Og
#
# seed  -294834114  -712348596 -1022439219  1376414493   583442180  -981964849  -815076035   577558174  1776097364  -747287573  1183513256 -1740741929
#
#      Author: C. J. Pickard (cjp20@cam.ac.uk)
#                Space group: P2
#

%BLOCK LATTICE_ABC
      2.50394      3.67196      6.76845
     90.00000     97.79668     90.00000
%ENDBLOCK LATTICE_ABC

%BLOCK POSITIONS_FRAC
  Li       -0.1873527       -0.1910630       -0.1809333
  Li        0.1873527       -0.1910630        0.1809333
   N        0.1083332        0.1142075        0.4019189
   N       -0.1083332        0.1142075       -0.4019189
   N        0.1562591       -0.4785374        0.4126359
   N       -0.1562591       -0.4785374       -0.4126359
%ENDBLOCK POSITIONS_FRAC

KPOINTS_MP_SPACING 0.07

%BLOCK SPECIES_POT
QC5
%ENDBLOCK SPECIES_POT

SNAP_TO_SYMMETRY
SYMMETRY_GENERATE

