#              Generated by Buildcell
#
# at 15:41:09 (GMT+1.0) 26th March 2023
# in /scratch/scratch/uccabz1/launch_tmp_michael
# on node-a14e-021
# by uccabz1
#
# compiler GCC version 4.9.2
# options -cpp -iprefix /scratch/UCL/applications/gcc/4.9.2/bin/../lib/gcc/x86_64-unknown-linux-gnu/4.9.2/ -mtune=corei7 -march=x86-64 -g -Og
#
# seed   369005061   684488176 -1263547244 -1941016402  1570492961  1815258728 -1410734202   365337459  1697854034 -1689379886  1983072388   994476122
#
#      Author: C. J. Pickard (cjp20@cam.ac.uk)
#                Space group: I212121
#

%BLOCK LATTICE_ABC
      2.90474      4.85031      4.85031
     77.50109     72.57612     72.57612
%ENDBLOCK LATTICE_ABC

%BLOCK POSITIONS_FRAC
  Li        0.2891357        0.2500000       -0.2500000
  Li        0.2108643       -0.2500000        0.2500000
   N       -0.1535014       -0.2577517       -0.0135166
   N       -0.0752302       -0.0135166       -0.2577517
   N       -0.4247698       -0.2422483       -0.4864834
   N       -0.3464986       -0.4864834       -0.2422483
%ENDBLOCK POSITIONS_FRAC

KPOINTS_MP_SPACING 0.07

%BLOCK SPECIES_POT
QC5
%ENDBLOCK SPECIES_POT

SNAP_TO_SYMMETRY
SYMMETRY_GENERATE

