#              Generated by Buildcell
#
# at 19:58:21 (GMT+1.0) 26th March 2023
# in /scratch/scratch/uccabz1/launch_tmp_michael
# on node-a14a-019
# by uccabz1
#
# compiler GCC version 4.9.2
# options -cpp -iprefix /scratch/UCL/applications/gcc/4.9.2/bin/../lib/gcc/x86_64-unknown-linux-gnu/4.9.2/ -mtune=corei7 -march=x86-64 -g -Og
#
# seed   671787374  -170114609  1323224968  -970211656 -1468239169   702344224  1329714121 -1052156759   548079590   -94383207  1968345401  1170026646
#
#      Author: C. J. Pickard (cjp20@cam.ac.uk)
#                Space group: C222
#

%BLOCK LATTICE_ABC
      3.60612      3.60612      4.39301
     90.00000     90.00000     92.31111
%ENDBLOCK LATTICE_ABC

%BLOCK POSITIONS_FRAC
  Li       -0.2596649        0.2596649       -0.5000000
  Li        0.2596649       -0.2596649        0.5000000
   N        0.2583641        0.1209147       -0.1993507
   N       -0.2583641       -0.1209147       -0.1993507
   N        0.1209147        0.2583641        0.1993507
   N       -0.1209147       -0.2583641        0.1993507
%ENDBLOCK POSITIONS_FRAC

KPOINTS_MP_SPACING 0.07

%BLOCK SPECIES_POT
QC5
%ENDBLOCK SPECIES_POT

SNAP_TO_SYMMETRY
SYMMETRY_GENERATE

