#              Generated by Buildcell
#
# at 16:15:27 (GMT+1.0) 26th March 2023
# in /scratch/scratch/uccabz1/launch_tmp_michael
# on node-a14b-022
# by uccabz1
#
# compiler GCC version 4.9.2
# options -cpp -iprefix /scratch/UCL/applications/gcc/4.9.2/bin/../lib/gcc/x86_64-unknown-linux-gnu/4.9.2/ -mtune=corei7 -march=x86-64 -g -Og
#
# seed  -234582893  1251274966  -148018240   768956850 -1306934698  1069076128   334089437  2041242909   773853198 -1290777688  -908065579  2002809885
#
#      Author: C. J. Pickard (cjp20@cam.ac.uk)
#                Space group: Pm
#

%BLOCK LATTICE_ABC
      4.36013      4.84944      5.80465
     90.00000     90.00000    100.39609
%ENDBLOCK LATTICE_ABC

%BLOCK POSITIONS_FRAC
  Li        0.1763983        0.2499032        0.2846228
  Li        0.1763983        0.2499032       -0.2846228
  Li       -0.1757721       -0.2098028        0.2154235
  Li       -0.1757721       -0.2098028       -0.2154235
   N       -0.4124253        0.4202858       -0.3703870
   N       -0.4124253        0.4202858        0.3703870
   N       -0.3209279        0.1345029        0.3707932
   N       -0.3209279        0.1345029       -0.3707932
   N       -0.2128992        0.2061381       -0.1292068
   N       -0.2128992        0.2061381        0.1292068
   N        0.3971766       -0.3831881       -0.2209861
   N        0.3971766       -0.3831881        0.2209861
%ENDBLOCK POSITIONS_FRAC

KPOINTS_MP_SPACING 0.07

%BLOCK SPECIES_POT
QC5
%ENDBLOCK SPECIES_POT

SNAP_TO_SYMMETRY
SYMMETRY_GENERATE

