#              Generated by Buildcell
#
# at 20:07:20 (GMT+1.0) 26th March 2023
# in /scratch/scratch/uccabz1/launch_tmp_michael
# on node-a14b-031
# by uccabz1
#
# compiler GCC version 4.9.2
# options -cpp -iprefix /scratch/UCL/applications/gcc/4.9.2/bin/../lib/gcc/x86_64-unknown-linux-gnu/4.9.2/ -mtune=corei7 -march=x86-64 -g -Og
#
# seed  1061670721 -2091358929 -1902367265  1414366173 -2067860669  -835625881 -1177335474 -1984869618   312020814   467615963  2143854237   715445995
#
#      Author: C. J. Pickard (cjp20@cam.ac.uk)
#                Space group: P32
#

%BLOCK LATTICE_ABC
      5.69976      5.69976      6.47642
     90.00000     90.00000    120.00000
%ENDBLOCK LATTICE_ABC

%BLOCK POSITIONS_FRAC
  Li        0.1247763       -0.3519336        0.1783725
  Li       -0.4767099       -0.1247763       -0.1549609
  Li        0.3519336        0.4767099       -0.4882942
  Li       -0.2841102       -0.4614120       -0.2415318
  Li       -0.1773018        0.2841102        0.4251348
  Li        0.4614120        0.1773018        0.0918015
   N       -0.0081693        0.4647399       -0.1573672
   N        0.4729091        0.0081693       -0.4907005
   N       -0.4647399       -0.4729091        0.1759662
   N        0.0546999       -0.1800081       -0.0453515
   N       -0.2347080       -0.0546999       -0.3786848
   N        0.1800081        0.2347080        0.2879818
   N       -0.1117489        0.2869369        0.0666980
   N        0.3986858        0.1117489       -0.2666354
   N       -0.2869369       -0.3986858        0.4000313
   N       -0.0226203       -0.0876607       -0.2661996
   N       -0.0650404        0.0226203        0.4004671
   N        0.0876607        0.0650404        0.0671338
%ENDBLOCK POSITIONS_FRAC

KPOINTS_MP_SPACING 0.07

%BLOCK SPECIES_POT
QC5
%ENDBLOCK SPECIES_POT

SNAP_TO_SYMMETRY
SYMMETRY_GENERATE

