#              Generated by Buildcell
#
# at 14:55:17 (GMT+1.0) 26th March 2023
# in /scratch/scratch/uccabz1/launch_tmp_michael
# on node-a14c-005
# by uccabz1
#
# compiler GCC version 4.9.2
# options -cpp -iprefix /scratch/UCL/applications/gcc/4.9.2/bin/../lib/gcc/x86_64-unknown-linux-gnu/4.9.2/ -mtune=corei7 -march=x86-64 -g -Og
#
# seed  -822700448 -1256427519   343266749  -964037379  1812558033  -667857858  1723786602  -267645249  -572822893  1258986864  -237952445 -1490626008
#
#      Author: C. J. Pickard (cjp20@cam.ac.uk)
#                Space group: P2
#

%BLOCK LATTICE_ABC
      3.61109      4.27889      6.22431
    109.19615     90.00000     90.00000
%ENDBLOCK LATTICE_ABC

%BLOCK POSITIONS_FRAC
  Li        0.3917570        0.3518400        0.2059138
  Li        0.3917570       -0.3518400       -0.2059138
  Li       -0.1083394        0.5000000       -0.5000000
   N        0.4542296       -0.2447896       -0.4890866
   N        0.4542296        0.2447896        0.4890866
   N        0.0331505        0.2342823       -0.0307325
   N        0.0331505       -0.2342823        0.0307325
   N        0.4383661        0.2699878       -0.1120139
   N        0.4383661       -0.2699878        0.1120139
%ENDBLOCK POSITIONS_FRAC

KPOINTS_MP_SPACING 0.07

%BLOCK SPECIES_POT
QC5
%ENDBLOCK SPECIES_POT

SNAP_TO_SYMMETRY
SYMMETRY_GENERATE

