#              Generated by Buildcell
#
# at 14:49:52 (GMT+1.0) 26th March 2023
# in /scratch/scratch/uccabz1/launch_tmp_michael
# on node-a14a-003
# by uccabz1
#
# compiler GCC version 4.9.2
# options -cpp -iprefix /scratch/UCL/applications/gcc/4.9.2/bin/../lib/gcc/x86_64-unknown-linux-gnu/4.9.2/ -mtune=corei7 -march=x86-64 -g -Og
#
# seed -1186565292 -1195200001 -2077171433  -128433220 -1934830088   286576771   710632922   488075487   894509001  -474716463 -1402004805  1814550689
#
#      Author: C. J. Pickard (cjp20@cam.ac.uk)
#                Space group: C2
#

%BLOCK LATTICE_ABC
      4.86758      5.55423      7.93790
     82.48714     72.14532     64.75805
%ENDBLOCK LATTICE_ABC

%BLOCK POSITIONS_FRAC
  Li       -0.0009967        0.2840723        0.4674720
  Li       -0.4664753       -0.2840723        0.4674720
  Li        0.3578373       -0.2049276        0.1924209
  Li        0.4497418        0.2049276        0.1924209
  Li       -0.0484071        0.2695875        0.1266297
  Li       -0.0782226       -0.2695875        0.1266297
   N        0.2315001        0.3512087       -0.3462424
   N        0.1147423       -0.3512087       -0.3462424
   N       -0.1961779        0.4110784       -0.2636779
   N        0.4598558       -0.4110784       -0.2636779
   N       -0.3959721        0.2170295        0.3825406
   N        0.0134315       -0.2170295        0.3825406
   N        0.0847996       -0.1095841       -0.4684460
   N        0.3836464        0.1095841       -0.4684460
   N       -0.2586883       -0.3210817       -0.0393135
   N        0.2980018        0.3210817       -0.0393135
   N       -0.1599382       -0.3887873       -0.4054663
   N       -0.4345954        0.3887873       -0.4054663
%ENDBLOCK POSITIONS_FRAC

KPOINTS_MP_SPACING 0.07

%BLOCK SPECIES_POT
QC5
%ENDBLOCK SPECIES_POT

SNAP_TO_SYMMETRY
SYMMETRY_GENERATE

