#              Generated by Buildcell
#
# at 15:40:37 (GMT+1.0) 26th March 2023
# in /scratch/scratch/uccabz1/launch_tmp_michael
# on node-a14e-007
# by uccabz1
#
# compiler GCC version 4.9.2
# options -cpp -iprefix /scratch/UCL/applications/gcc/4.9.2/bin/../lib/gcc/x86_64-unknown-linux-gnu/4.9.2/ -mtune=corei7 -march=x86-64 -g -Og
#
# seed -1883574238   433675576  1692782434  -390751923   793237796 -1219133693 -1591022400 -2054668110 -1872453474   947686031  2035906412  1638348017
#
#      Author: C. J. Pickard (cjp20@cam.ac.uk)
#                Space group: R3
#

%BLOCK LATTICE_ABC
      5.43622      5.43622      5.43622
     61.75938     61.75938     61.75938
%ENDBLOCK LATTICE_ABC

%BLOCK POSITIONS_FRAC
  Li        0.3195267        0.4695662       -0.0905661
  Li        0.4695662       -0.0905661        0.3195267
  Li       -0.0905661        0.3195267        0.4695662
  Li       -0.0403604       -0.0403604       -0.0403604
   N       -0.0136656        0.2936383        0.1018604
   N        0.2936383        0.1018604       -0.0136656
   N        0.1018604       -0.0136656        0.2936383
   N       -0.4194689        0.2329233        0.2331040
   N        0.2329233        0.2331040       -0.4194689
   N        0.2331040       -0.4194689        0.2329233
   N        0.4925727        0.4925727        0.4925727
   N       -0.1906223       -0.1906223       -0.1906223
%ENDBLOCK POSITIONS_FRAC

KPOINTS_MP_SPACING 0.07

%BLOCK SPECIES_POT
QC5
%ENDBLOCK SPECIES_POT

SNAP_TO_SYMMETRY
SYMMETRY_GENERATE

