#              Generated by Buildcell
#
# at 18:28:16 (GMT+1.0) 26th March 2023
# in /scratch/scratch/uccabz1/launch_tmp_michael
# on node-a14a-003
# by uccabz1
#
# compiler GCC version 4.9.2
# options -cpp -iprefix /scratch/UCL/applications/gcc/4.9.2/bin/../lib/gcc/x86_64-unknown-linux-gnu/4.9.2/ -mtune=corei7 -march=x86-64 -g -Og
#
# seed -2136491458  2071450043   567081529  -757975925  -685866465  -861334249  1272399860   327526667  1825779398   842011384  -964858721   649224674
#
#      Author: C. J. Pickard (cjp20@cam.ac.uk)
#                Space group: R3
#

%BLOCK LATTICE_ABC
      3.96628      3.96628      3.96628
     82.62009     82.62009     82.62009
%ENDBLOCK LATTICE_ABC

%BLOCK POSITIONS_FRAC
  Li       -0.1663394       -0.1663394       -0.1663394
  Li        0.1585582        0.1585582        0.1585582
   N       -0.3611533        0.1704107        0.1309819
   N        0.1309819       -0.3611533        0.1704107
   N        0.1704107        0.1309819       -0.3611533
   N       -0.4130983       -0.4130983       -0.4130983
%ENDBLOCK POSITIONS_FRAC

KPOINTS_MP_SPACING 0.07

%BLOCK SPECIES_POT
QC5
%ENDBLOCK SPECIES_POT

SNAP_TO_SYMMETRY
SYMMETRY_GENERATE

