#              Generated by Buildcell
#
# at 15:20:39 (GMT+1.0) 26th March 2023
# in /scratch/scratch/uccabz1/launch_tmp_michael
# on node-a14b-031
# by uccabz1
#
# compiler GCC version 4.9.2
# options -cpp -iprefix /scratch/UCL/applications/gcc/4.9.2/bin/../lib/gcc/x86_64-unknown-linux-gnu/4.9.2/ -mtune=corei7 -march=x86-64 -g -Og
#
# seed -1349911134  -312302017  1360127814    98407515  1340720473  1480596420  -302967156  1641011058 -1260740958 -2050655530  -318354998  1224832898
#
#      Author: C. J. Pickard (cjp20@cam.ac.uk)
#                Space group: P31
#

%BLOCK LATTICE_ABC
      3.97292      3.97292     12.62559
     90.00000     90.00000    120.00000
%ENDBLOCK LATTICE_ABC

%BLOCK POSITIONS_FRAC
  Li        0.0411139        0.3842786       -0.4692036
  Li       -0.3842786       -0.3431648       -0.1358703
  Li        0.3431648       -0.0411139        0.1974631
  Li       -0.0509378        0.3235158       -0.2146276
  Li       -0.3235158       -0.3744535        0.1187057
  Li        0.3744535        0.0509378        0.4520391
   N       -0.4320628        0.0275647        0.0543449
   N       -0.0275647       -0.4596276        0.3876783
   N        0.4596276        0.4320628       -0.2789884
   N       -0.1674064       -0.0723341       -0.0072529
   N        0.0723341       -0.0950723        0.3260804
   N        0.0950723        0.1674064       -0.3405863
   N        0.4948651       -0.2282811        0.3222769
   N        0.2282811       -0.2768538       -0.3443897
   N        0.2768538       -0.4948651       -0.0110564
   N       -0.0988989        0.3626403        0.1891559
   N       -0.3626403       -0.4615393       -0.4775108
   N        0.4615393        0.0988989       -0.1441774
%ENDBLOCK POSITIONS_FRAC

KPOINTS_MP_SPACING 0.07

%BLOCK SPECIES_POT
QC5
%ENDBLOCK SPECIES_POT

SNAP_TO_SYMMETRY
SYMMETRY_GENERATE

