#              Generated by Buildcell
#
# at 18:23:21 (GMT+1.0) 26th March 2023
# in /scratch/scratch/uccabz1/launch_tmp_michael
# on node-a14b-022
# by uccabz1
#
# compiler GCC version 4.9.2
# options -cpp -iprefix /scratch/UCL/applications/gcc/4.9.2/bin/../lib/gcc/x86_64-unknown-linux-gnu/4.9.2/ -mtune=corei7 -march=x86-64 -g -Og
#
# seed    -9305512 -2099203079  -571006652  -880170719  -906791430   821306580 -1217992663  -171991276   710030938   110741833  -401848309  1957250208
#
#      Author: C. J. Pickard (cjp20@cam.ac.uk)
#                Space group: P-1
#

%BLOCK LATTICE_ABC
      3.00045      4.82751      8.33528
     73.19518     84.07309     83.37630
%ENDBLOCK LATTICE_ABC

%BLOCK POSITIONS_FRAC
  Li       -0.1009838       -0.0025781        0.2308405
  Li        0.1009838        0.0025781       -0.2308405
  Li       -0.2113879       -0.7110933        0.4379800
  Li        0.2113879        0.7110933       -0.4379800
   N       -0.3030461        0.6398036       -0.2409063
   N        0.3030461       -0.6398036        0.2409063
   N        0.3920354        0.2011987        0.1089649
   N       -0.3920354       -0.2011987       -0.1089649
   N        0.0000000       -0.5000000        0.0000000
   N        0.0000000        0.0000000        0.0000000
   N       -0.5000000        0.0000000       -0.0000000
   N        0.5000000       -0.5000000        0.0000000
%ENDBLOCK POSITIONS_FRAC

KPOINTS_MP_SPACING 0.07

%BLOCK SPECIES_POT
QC5
%ENDBLOCK SPECIES_POT

SNAP_TO_SYMMETRY
SYMMETRY_GENERATE

