#              Generated by Buildcell
#
# at 19:22:30 (GMT+1.0) 26th March 2023
# in /scratch/scratch/uccabz1/launch_tmp_michael
# on node-a14a-003
# by uccabz1
#
# compiler GCC version 4.9.2
# options -cpp -iprefix /scratch/UCL/applications/gcc/4.9.2/bin/../lib/gcc/x86_64-unknown-linux-gnu/4.9.2/ -mtune=corei7 -march=x86-64 -g -Og
#
# seed    25511725   667304001 -1886886007   735961649   635113376 -1735945686 -1472867238  -620708410  1481351017   546726610  1189477649  1618733522
#
#      Author: C. J. Pickard (cjp20@cam.ac.uk)
#                Space group: I-4
#

%BLOCK LATTICE_ABC
      4.84445      4.84445      5.01761
    118.86482    118.86482     90.00000
%ENDBLOCK LATTICE_ABC

%BLOCK POSITIONS_FRAC
  Li        0.4202026       -0.0797974       -0.1595947
  Li        0.0797974       -0.4202026        0.1595947
  Li       -0.0000000       -0.0000000        0.0000000
   N        0.2011181       -0.3805637       -0.1312123
   N       -0.3323304        0.2493513       -0.1312123
   N       -0.2493513       -0.2011181        0.1312123
   N        0.3805637        0.3323304        0.1312123
   N        0.3739286        0.3739286       -0.2521428
   N       -0.3739286       -0.3739286        0.2521428
%ENDBLOCK POSITIONS_FRAC

KPOINTS_MP_SPACING 0.07

%BLOCK SPECIES_POT
QC5
%ENDBLOCK SPECIES_POT

SNAP_TO_SYMMETRY
SYMMETRY_GENERATE

