#              Generated by Buildcell
#
# at 16:05:32 (GMT+1.0) 26th March 2023
# in /scratch/scratch/uccabz1/launch_tmp_michael
# on node-a14b-031
# by uccabz1
#
# compiler GCC version 4.9.2
# options -cpp -iprefix /scratch/UCL/applications/gcc/4.9.2/bin/../lib/gcc/x86_64-unknown-linux-gnu/4.9.2/ -mtune=corei7 -march=x86-64 -g -Og
#
# seed  1393755557 -1729798052   611089037    67478436   869956393   343540073  1426536704 -1969276430 -1979339481  1048226675  -450853741   315888672
#
#      Author: C. J. Pickard (cjp20@cam.ac.uk)
#                Space group: I-4
#

%BLOCK LATTICE_ABC
      6.20750      6.20750      6.56908
    118.19531    118.19531     90.00000
%ENDBLOCK LATTICE_ABC

%BLOCK POSITIONS_FRAC
  Li        0.4818798       -0.0654453       -0.4825769
  Li        0.0355432       -0.4171317       -0.4825769
  Li        0.4171317       -0.4818798        0.4825769
  Li        0.0654453       -0.0355432        0.4825769
  Li       -0.3961928        0.1038072        0.2076143
  Li       -0.1038072        0.3961928       -0.2076143
   N       -0.2328737        0.1885077       -0.1280180
   N        0.1048557       -0.3165256       -0.1280180
   N        0.3165256        0.2328737        0.1280180
   N       -0.1885077       -0.1048557        0.1280180
   N       -0.2429638       -0.2843123        0.3069348
   N       -0.4501014       -0.4087529        0.3069348
   N        0.4087529        0.2429638       -0.3069348
   N        0.2843123        0.4501014       -0.3069348
   N       -0.4560210       -0.3686979       -0.1469424
   N        0.3090786        0.2217555       -0.1469424
   N       -0.2217555        0.4560210        0.1469424
   N        0.3686979       -0.3090786        0.1469424
%ENDBLOCK POSITIONS_FRAC

KPOINTS_MP_SPACING 0.07

%BLOCK SPECIES_POT
QC5
%ENDBLOCK SPECIES_POT

SNAP_TO_SYMMETRY
SYMMETRY_GENERATE

