#              Generated by Buildcell
#
# at 18:16:54 (GMT+1.0) 26th March 2023
# in /scratch/scratch/uccabz1/launch_tmp_michael
# on node-a14b-028
# by uccabz1
#
# compiler GCC version 4.9.2
# options -cpp -iprefix /scratch/UCL/applications/gcc/4.9.2/bin/../lib/gcc/x86_64-unknown-linux-gnu/4.9.2/ -mtune=corei7 -march=x86-64 -g -Og
#
# seed  2128052314 -1313595083   917226697  -425005331  1111398158  -298766278  1319826041  -935650808   871742615 -2020904518  -700571897  1944183825
#
#      Author: C. J. Pickard (cjp20@cam.ac.uk)
#                Space group: P31
#

%BLOCK LATTICE_ABC
      4.62970      4.79528      4.79528
    120.00000     90.00000     90.00000
%ENDBLOCK LATTICE_ABC

%BLOCK POSITIONS_FRAC
  Li        0.1767273       -0.1005118       -0.3065455
  Li       -0.4899393       -0.2060337        0.1005118
  Li       -0.1566060        0.3065455        0.2060337
   N        0.1628179       -0.0290262        0.3380708
   N        0.4961512        0.3670970        0.0290262
   N       -0.1705155       -0.3380708       -0.3670970
   N        0.0915895       -0.4488063       -0.2030997
   N        0.4249228        0.2457066        0.4488063
   N       -0.2417439        0.2030997       -0.2457066
%ENDBLOCK POSITIONS_FRAC

KPOINTS_MP_SPACING 0.07

%BLOCK SPECIES_POT
QC5
%ENDBLOCK SPECIES_POT

SNAP_TO_SYMMETRY
SYMMETRY_GENERATE

