#              Generated by Buildcell
#
# at 15:29:01 (GMT+1.0) 26th March 2023
# in /scratch/scratch/uccabz1/launch_tmp_michael
# on node-a14a-001
# by uccabz1
#
# compiler GCC version 4.9.2
# options -cpp -iprefix /scratch/UCL/applications/gcc/4.9.2/bin/../lib/gcc/x86_64-unknown-linux-gnu/4.9.2/ -mtune=corei7 -march=x86-64 -g -Og
#
# seed -1734875925  -518939976    21507045 -1945667825 -1378933373  1845446419   874369261   274516126 -2087038037   279555295  1972808023 -1042369109
#
#      Author: C. J. Pickard (cjp20@cam.ac.uk)
#                Space group: C222
#

%BLOCK LATTICE_ABC
      3.10715      5.08096     11.49433
     90.00000     90.00000    107.80414
%ENDBLOCK LATTICE_ABC

%BLOCK POSITIONS_FRAC
  Li        0.3852389       -0.2846897        0.1366662
  Li       -0.3852389        0.2846897        0.1366662
  Li        0.3300714       -0.2846897       -0.1366662
  Li       -0.3300714        0.2846897       -0.1366662
  Li        0.5000000        0.5000000        0.3296351
  Li       -0.0000000        0.5000000       -0.3296351
   N       -0.2341492        0.1797622        0.4125695
   N        0.2341492       -0.1797622        0.4125695
   N        0.4139113        0.1797622       -0.4125695
   N       -0.4139113       -0.1797622       -0.4125695
   N       -0.3892312       -0.2723884        0.4643581
   N        0.3892312        0.2723884        0.4643581
   N        0.1168428       -0.2723884       -0.4643581
   N       -0.1168428        0.2723884       -0.4643581
   N        0.0421736       -0.2198197        0.2894333
   N       -0.0421736        0.2198197        0.2894333
   N       -0.2619933       -0.2198197       -0.2894333
   N        0.2619933        0.2198197       -0.2894333
%ENDBLOCK POSITIONS_FRAC

KPOINTS_MP_SPACING 0.07

%BLOCK SPECIES_POT
QC5
%ENDBLOCK SPECIES_POT

SNAP_TO_SYMMETRY
SYMMETRY_GENERATE

