#              Generated by Buildcell
#
# at 19:24:10 (GMT+1.0) 26th March 2023
# in /scratch/scratch/uccabz1/launch_tmp_michael
# on node-a14b-028
# by uccabz1
#
# compiler GCC version 4.9.2
# options -cpp -iprefix /scratch/UCL/applications/gcc/4.9.2/bin/../lib/gcc/x86_64-unknown-linux-gnu/4.9.2/ -mtune=corei7 -march=x86-64 -g -Og
#
# seed  1652178592  1128531016  -737511633  1514792742  1214427637  2002639674    -1103456   937315889  1247910493   813143255 -1491907975  1764478360
#
#      Author: C. J. Pickard (cjp20@cam.ac.uk)
#                Space group: Pmm2
#

%BLOCK LATTICE_ABC
      3.10202      3.73659      8.11778
     90.00000     90.00000     90.00000
%ENDBLOCK LATTICE_ABC

%BLOCK POSITIONS_FRAC
  Li        0.0000000       -0.2654921        0.2515857
  Li        0.0000000       -0.2654921       -0.2515857
  Li        0.0000000        0.1631640       -0.0000000
   N       -0.2417780        0.0609448        0.4067188
   N        0.2417780        0.0609448       -0.4067188
   N        0.2417780        0.0609448        0.4067188
   N       -0.2417780        0.0609448       -0.4067188
   N       -0.2417780       -0.3437044        0.5000000
   N        0.2417780       -0.3437044        0.5000000
%ENDBLOCK POSITIONS_FRAC

KPOINTS_MP_SPACING 0.07

%BLOCK SPECIES_POT
QC5
%ENDBLOCK SPECIES_POT

SNAP_TO_SYMMETRY
SYMMETRY_GENERATE

