#              Generated by Buildcell
#
# at 16:36:19 (GMT+1.0) 26th March 2023
# in /scratch/scratch/uccabz1/launch_tmp_michael
# on node-a14b-022
# by uccabz1
#
# compiler GCC version 4.9.2
# options -cpp -iprefix /scratch/UCL/applications/gcc/4.9.2/bin/../lib/gcc/x86_64-unknown-linux-gnu/4.9.2/ -mtune=corei7 -march=x86-64 -g -Og
#
# seed -1802831545  -236525411  -713806166  -670440410  -220234535 -1917146560  -214178660  -228727427  2084946369   858874142    22414610  2084818823
#
#      Author: C. J. Pickard (cjp20@cam.ac.uk)
#                Space group: R3
#

%BLOCK LATTICE_ABC
      5.34601      5.34601      5.34601
     63.52079     63.52079     63.52079
%ENDBLOCK LATTICE_ABC

%BLOCK POSITIONS_FRAC
  Li        0.4750488       -0.2401218        0.1264314
  Li       -0.2401218        0.1264314        0.4750488
  Li        0.1264314        0.4750488       -0.2401218
  Li        0.2368929        0.2368929        0.2368929
   N       -0.4418045       -0.0320872        0.3819077
   N       -0.0320872        0.3819077       -0.4418045
   N        0.3819077       -0.4418045       -0.0320872
   N       -0.2786921        0.4500352       -0.0414631
   N        0.4500352       -0.0414631       -0.2786921
   N       -0.0414631       -0.2786921        0.4500352
   N       -0.1566301       -0.1566301       -0.1566301
   N        0.3909348        0.3909348        0.3909348
%ENDBLOCK POSITIONS_FRAC

KPOINTS_MP_SPACING 0.07

%BLOCK SPECIES_POT
QC5
%ENDBLOCK SPECIES_POT

SNAP_TO_SYMMETRY
SYMMETRY_GENERATE

