#              Generated by Buildcell
#
# at 16:45:11 (GMT+1.0) 26th March 2023
# in /scratch/scratch/uccabz1/launch_tmp_michael
# on node-a14f-035
# by uccabz1
#
# compiler GCC version 4.9.2
# options -cpp -iprefix /scratch/UCL/applications/gcc/4.9.2/bin/../lib/gcc/x86_64-unknown-linux-gnu/4.9.2/ -mtune=corei7 -march=x86-64 -g -Og
#
# seed -1741424367  1419003039 -1332993636  1695122879  -799191516 -1852889802  -176574011  -930263264  -725943382  -162812649  2014670527 -1076383291
#
#      Author: C. J. Pickard (cjp20@cam.ac.uk)
#                Space group: Fmm2
#

%BLOCK LATTICE_ABC
      4.48036      4.48036      5.46821
    107.23973    107.23973    106.05554
%ENDBLOCK LATTICE_ABC

%BLOCK POSITIONS_FRAC
  Li       -0.3002405        0.3002405       -0.5000000
  Li        0.1997595       -0.1997595       -0.5000000
  Li        0.4881233       -0.4881233       -0.0000000
   N       -0.2011019       -0.1240311        0.3580755
   N        0.1240311        0.2011019       -0.3580755
   N        0.4408226       -0.4821066       -0.3580755
   N        0.4821066       -0.4408226        0.3580755
   N        0.1560397       -0.4004433       -0.2444036
   N        0.4004433       -0.1560397        0.2444036
%ENDBLOCK POSITIONS_FRAC

KPOINTS_MP_SPACING 0.07

%BLOCK SPECIES_POT
QC5
%ENDBLOCK SPECIES_POT

SNAP_TO_SYMMETRY
SYMMETRY_GENERATE

