#              Generated by Buildcell
#
# at 18:58:59 (GMT+1.0) 26th March 2023
# in /scratch/scratch/uccabz1/launch_tmp_michael
# on node-a14e-007
# by uccabz1
#
# compiler GCC version 4.9.2
# options -cpp -iprefix /scratch/UCL/applications/gcc/4.9.2/bin/../lib/gcc/x86_64-unknown-linux-gnu/4.9.2/ -mtune=corei7 -march=x86-64 -g -Og
#
# seed -1950780386 -1747266785  -450224562  -176022586 -1407099151  -485701774  1778972134 -2005421089 -1320547375  -660024125 -1438170357 -1128727823
#
#      Author: C. J. Pickard (cjp20@cam.ac.uk)
#                Space group: P2221
#

%BLOCK LATTICE_ABC
      2.92954      6.07647      6.65430
     90.00000     90.00000     90.00000
%ENDBLOCK LATTICE_ABC

%BLOCK POSITIONS_FRAC
  Li        0.2500040       -0.0832946       -0.3282396
  Li       -0.2500040        0.4167054        0.3282396
  Li       -0.2500040       -0.4167054       -0.3282396
  Li        0.2500040        0.0832946        0.3282396
   N        0.2365865        0.1777861       -0.1712263
   N       -0.2365865       -0.3222139        0.1712263
   N       -0.2365865        0.3222139       -0.1712263
   N        0.2365865       -0.1777861        0.1712263
   N       -0.1805610       -0.3818702       -0.0461394
   N        0.1805610        0.1181298        0.0461394
   N        0.1805610       -0.1181298       -0.0461394
   N       -0.1805610        0.3818702        0.0461394
%ENDBLOCK POSITIONS_FRAC

KPOINTS_MP_SPACING 0.07

%BLOCK SPECIES_POT
QC5
%ENDBLOCK SPECIES_POT

SNAP_TO_SYMMETRY
SYMMETRY_GENERATE

