#              Generated by Buildcell
#
# at 18:38:39 (GMT+1.0) 26th March 2023
# in /scratch/scratch/uccabz1/launch_tmp_michael
# on node-a14b-031
# by uccabz1
#
# compiler GCC version 4.9.2
# options -cpp -iprefix /scratch/UCL/applications/gcc/4.9.2/bin/../lib/gcc/x86_64-unknown-linux-gnu/4.9.2/ -mtune=corei7 -march=x86-64 -g -Og
#
# seed   557813896  -769988488  1132302304   633740704 -1749136823  1013327445 -1000407614  1997886734  -946222744  1875263889  -515923216  -632480293
#
#      Author: C. J. Pickard (cjp20@cam.ac.uk)
#                Space group: Pna21
#

%BLOCK LATTICE_ABC
      3.09033      5.43953      7.26076
     90.00000     90.00000     90.00000
%ENDBLOCK LATTICE_ABC

%BLOCK POSITIONS_FRAC
  Li       -0.3375679        0.4373790       -0.1146618
  Li        0.3375679       -0.0626210        0.1146618
  Li        0.1624321        0.4373790       -0.3853382
  Li       -0.1624321       -0.0626210        0.3853382
   N        0.2969419        0.4260646        0.3594587
   N       -0.2969419       -0.0739354       -0.3594587
   N       -0.2030581        0.4260646        0.1405413
   N        0.2030581       -0.0739354       -0.1405413
   N        0.3953229       -0.3039599        0.3662873
   N       -0.3953229        0.1960401       -0.3662873
   N       -0.1046771       -0.3039599        0.1337127
   N        0.1046771        0.1960401       -0.1337127
%ENDBLOCK POSITIONS_FRAC

KPOINTS_MP_SPACING 0.07

%BLOCK SPECIES_POT
QC5
%ENDBLOCK SPECIES_POT

SNAP_TO_SYMMETRY
SYMMETRY_GENERATE

