#              Generated by Buildcell
#
# at 18:46:15 (GMT+1.0) 26th March 2023
# in /scratch/scratch/uccabz1/launch_tmp_michael
# on node-a14a-019
# by uccabz1
#
# compiler GCC version 4.9.2
# options -cpp -iprefix /scratch/UCL/applications/gcc/4.9.2/bin/../lib/gcc/x86_64-unknown-linux-gnu/4.9.2/ -mtune=corei7 -march=x86-64 -g -Og
#
# seed  1788596989  -479146981  1107300606  1656442123  -672607641 -1156652817 -1668555605   615154747 -1218380967  -752546147  1679138474 -1578527116
#
#      Author: C. J. Pickard (cjp20@cam.ac.uk)
#                Space group: Cc
#

%BLOCK LATTICE_ABC
      2.76260      4.47605      5.17669
    115.61537     96.25778     90.00000
%ENDBLOCK LATTICE_ABC

%BLOCK POSITIONS_FRAC
  Li       -0.0682232        0.4180439        0.3587542
  Li        0.4317768       -0.0592897        0.3587542
   N        0.1519161        0.2515167       -0.2540042
   N       -0.3480839        0.4944790       -0.2540042
   N        0.3038203       -0.0892296       -0.0468688
   N       -0.1961797        0.0423608       -0.0468688
%ENDBLOCK POSITIONS_FRAC

KPOINTS_MP_SPACING 0.07

%BLOCK SPECIES_POT
QC5
%ENDBLOCK SPECIES_POT

SNAP_TO_SYMMETRY
SYMMETRY_GENERATE

