#              Generated by Buildcell
#
# at 17:52:37 (GMT+1.0) 26th March 2023
# in /scratch/scratch/uccabz1/launch_tmp_michael
# on node-a14a-003
# by uccabz1
#
# compiler GCC version 4.9.2
# options -cpp -iprefix /scratch/UCL/applications/gcc/4.9.2/bin/../lib/gcc/x86_64-unknown-linux-gnu/4.9.2/ -mtune=corei7 -march=x86-64 -g -Og
#
# seed  -819117695   505700546  -747826629  1832740697  1513411306  1266282636   746827592  1739782729  -185497628   819276925  2013483207  -560066900
#
#      Author: C. J. Pickard (cjp20@cam.ac.uk)
#                Space group: R3
#

%BLOCK LATTICE_ABC
      5.12397      5.12397      6.27842
     65.91685     65.91685     60.00000
%ENDBLOCK LATTICE_ABC

%BLOCK POSITIONS_FRAC
  Li        0.1662369        0.1343202        0.0577252
  Li       -0.3582823        0.1662369        0.0577252
  Li        0.1343202       -0.3582823        0.0577252
  Li       -0.3714081       -0.3714081        0.1142243
   N        0.4367456       -0.2850761        0.4407123
   N        0.4076182        0.4367456        0.4407123
   N       -0.2850761        0.4076182        0.4407123
   N        0.4454934       -0.1278377       -0.1674712
   N       -0.1501844        0.4454934       -0.1674712
   N       -0.1278377       -0.1501844       -0.1674712
   N        0.2401199        0.2401199        0.2796402
   N        0.1480643        0.1480643       -0.4441928
%ENDBLOCK POSITIONS_FRAC

KPOINTS_MP_SPACING 0.07

%BLOCK SPECIES_POT
QC5
%ENDBLOCK SPECIES_POT

SNAP_TO_SYMMETRY
SYMMETRY_GENERATE

