#              Generated by Buildcell
#
# at 16:33:43 (GMT+1.0) 26th March 2023
# in /scratch/scratch/uccabz1/launch_tmp_michael
# on node-a14e-007
# by uccabz1
#
# compiler GCC version 4.9.2
# options -cpp -iprefix /scratch/UCL/applications/gcc/4.9.2/bin/../lib/gcc/x86_64-unknown-linux-gnu/4.9.2/ -mtune=corei7 -march=x86-64 -g -Og
#
# seed -1692087042  1080767306 -1931734922  -626944968    -7784663  1794426427   994961038 -1720621899  1763751269  -131208836  1156824977  1559394819
#
#      Author: C. J. Pickard (cjp20@cam.ac.uk)
#                Space group: P2221
#

%BLOCK LATTICE_ABC
      2.50000      5.90141      8.19736
     90.00000     90.00000     90.00000
%ENDBLOCK LATTICE_ABC

%BLOCK POSITIONS_FRAC
  Li       -0.2519908        0.3036480        0.3259067
  Li        0.2519908       -0.1963520       -0.3259067
  Li       -0.2519908        0.1963520       -0.3259067
  Li        0.2519908       -0.3036480        0.3259067
   N       -0.2890713       -0.1175294        0.4849250
   N        0.2890713        0.3824706       -0.4849250
   N       -0.2890713       -0.3824706       -0.4849250
   N        0.2890713        0.1175294        0.4849250
   N        0.0638961        0.1306243        0.1466837
   N       -0.0638961       -0.3693757       -0.1466837
   N        0.0638961        0.3693757       -0.1466837
   N       -0.0638961       -0.1306243        0.1466837
%ENDBLOCK POSITIONS_FRAC

KPOINTS_MP_SPACING 0.07

%BLOCK SPECIES_POT
QC5
%ENDBLOCK SPECIES_POT

SNAP_TO_SYMMETRY
SYMMETRY_GENERATE

