#              Generated by Buildcell
#
# at 16:31:20 (GMT+1.0) 26th March 2023
# in /scratch/scratch/uccabz1/launch_tmp_michael
# on node-a14b-022
# by uccabz1
#
# compiler GCC version 4.9.2
# options -cpp -iprefix /scratch/UCL/applications/gcc/4.9.2/bin/../lib/gcc/x86_64-unknown-linux-gnu/4.9.2/ -mtune=corei7 -march=x86-64 -g -Og
#
# seed  1633807165 -1810099391 -1381327280   261386109  1707667809  1726779973   -62124795 -1613877437 -1795742519   893827540   277405419  1135106173
#
#      Author: C. J. Pickard (cjp20@cam.ac.uk)
#                Space group: P31
#

%BLOCK LATTICE_ABC
      4.04741      4.98757      4.98757
    120.00000     90.00000     90.00000
%ENDBLOCK LATTICE_ABC

%BLOCK POSITIONS_FRAC
  Li        0.3190534       -0.2898509       -0.4040643
  Li       -0.3476133        0.4040643        0.1142133
  Li       -0.0142800       -0.1142133        0.2898509
   N       -0.0923059        0.0496697       -0.2804024
   N        0.2410274        0.2804024        0.3300721
   N       -0.4256392       -0.3300721       -0.0496697
   N        0.0406923        0.1625779        0.0391864
   N        0.3740256       -0.0391864        0.1233915
   N       -0.2926410       -0.1233915       -0.1625779
%ENDBLOCK POSITIONS_FRAC

KPOINTS_MP_SPACING 0.07

%BLOCK SPECIES_POT
QC5
%ENDBLOCK SPECIES_POT

SNAP_TO_SYMMETRY
SYMMETRY_GENERATE

