#              Generated by Buildcell
#
# at 18:52:12 (GMT+1.0) 26th March 2023
# in /scratch/scratch/uccabz1/launch_tmp_michael
# on node-a14a-003
# by uccabz1
#
# compiler GCC version 4.9.2
# options -cpp -iprefix /scratch/UCL/applications/gcc/4.9.2/bin/../lib/gcc/x86_64-unknown-linux-gnu/4.9.2/ -mtune=corei7 -march=x86-64 -g -Og
#
# seed -1770207276 -1554408270  1793899903 -1627134872  1220831260 -1844071297   539459119   984482031  1653896803   739833995   761749648  -159508523
#
#      Author: C. J. Pickard (cjp20@cam.ac.uk)
#                Space group: R3
#

%BLOCK LATTICE_ABC
      4.82989      4.82989      4.82989
     63.36550     63.36550     63.36550
%ENDBLOCK LATTICE_ABC

%BLOCK POSITIONS_FRAC
  Li       -0.2443401       -0.0759247        0.3691886
  Li       -0.0759247        0.3691886       -0.2443401
  Li        0.3691886       -0.2443401       -0.0759247
   N        0.0206188       -0.0339137       -0.2985296
   N       -0.0339137       -0.2985296        0.0206188
   N       -0.2985296        0.0206188       -0.0339137
   N       -0.0054064        0.1667348        0.3360616
   N        0.1667348        0.3360616       -0.0054064
   N        0.3360616       -0.0054064        0.1667348
%ENDBLOCK POSITIONS_FRAC

KPOINTS_MP_SPACING 0.07

%BLOCK SPECIES_POT
QC5
%ENDBLOCK SPECIES_POT

SNAP_TO_SYMMETRY
SYMMETRY_GENERATE

