#              Generated by Buildcell
#
# at 16:53:53 (GMT+1.0) 26th March 2023
# in /scratch/scratch/uccabz1/launch_tmp_michael
# on node-a14b-031
# by uccabz1
#
# compiler GCC version 4.9.2
# options -cpp -iprefix /scratch/UCL/applications/gcc/4.9.2/bin/../lib/gcc/x86_64-unknown-linux-gnu/4.9.2/ -mtune=corei7 -march=x86-64 -g -Og
#
# seed   109012054  -391002176  1869169751  -503587632   669629334  1237665684 -1684183122  -941598485   614840598  -504117943 -2133099959   459347051
#
#      Author: C. J. Pickard (cjp20@cam.ac.uk)
#                Space group: P4
#

%BLOCK LATTICE_ABC
      4.82972      4.82972      4.98271
     90.00000     90.00000     90.00000
%ENDBLOCK LATTICE_ABC

%BLOCK POSITIONS_FRAC
  Li        0.3169833        0.1830160       -0.3562122
  Li       -0.3169833       -0.1830160       -0.3562122
  Li       -0.1830160        0.3169833       -0.3562122
  Li        0.1830160       -0.3169833       -0.3562122
   N       -0.4352856        0.2338421       -0.0640875
   N        0.4352856       -0.2338421       -0.0640875
   N       -0.2338421       -0.4352856       -0.0640875
   N        0.2338421        0.4352856       -0.0640875
   N        0.4163564       -0.1868289        0.3593493
   N       -0.4163564        0.1868289        0.3593493
   N        0.1868289        0.4163564        0.3593493
   N       -0.1868289       -0.4163564        0.3593493
%ENDBLOCK POSITIONS_FRAC

KPOINTS_MP_SPACING 0.07

%BLOCK SPECIES_POT
QC5
%ENDBLOCK SPECIES_POT

SNAP_TO_SYMMETRY
SYMMETRY_GENERATE

