#              Generated by Buildcell
#
# at 15:09:41 (GMT+1.0) 26th March 2023
# in /scratch/scratch/uccabz1/launch_tmp_michael
# on node-a14e-007
# by uccabz1
#
# compiler GCC version 4.9.2
# options -cpp -iprefix /scratch/UCL/applications/gcc/4.9.2/bin/../lib/gcc/x86_64-unknown-linux-gnu/4.9.2/ -mtune=corei7 -march=x86-64 -g -Og
#
# seed   992575446 -1497135745 -1844878071   433348596  -764987844  1432588021  1238086025  1221001660  -345108630  1265894940  1089234546   354814228
#
#      Author: C. J. Pickard (cjp20@cam.ac.uk)
#                Space group: P2
#

%BLOCK LATTICE_ABC
      3.73080      5.69554      5.87582
    102.77651     90.00000     90.00000
%ENDBLOCK LATTICE_ABC

%BLOCK POSITIONS_FRAC
  Li        0.4712309        0.4541711        0.1986731
  Li        0.4712309       -0.4541711       -0.1986731
  Li        0.0717458        0.0039617        0.2399579
  Li        0.0717458       -0.0039617       -0.2399579
   N        0.2627034       -0.2660952        0.4294012
   N        0.2627034        0.2660952       -0.4294012
   N        0.4695392       -0.2070907        0.2263184
   N        0.4695392        0.2070907       -0.2263184
   N       -0.0678490        0.3214089        0.2264478
   N       -0.0678490       -0.3214089       -0.2264478
   N       -0.0889128       -0.3426385       -0.4863997
   N       -0.0889128        0.3426385        0.4863997
%ENDBLOCK POSITIONS_FRAC

KPOINTS_MP_SPACING 0.07

%BLOCK SPECIES_POT
QC5
%ENDBLOCK SPECIES_POT

SNAP_TO_SYMMETRY
SYMMETRY_GENERATE

