#              Generated by Buildcell
#
# at 14:50:02 (GMT+1.0) 26th March 2023
# in /scratch/scratch/uccabz1/launch_tmp_michael
# on node-a14b-022
# by uccabz1
#
# compiler GCC version 4.9.2
# options -cpp -iprefix /scratch/UCL/applications/gcc/4.9.2/bin/../lib/gcc/x86_64-unknown-linux-gnu/4.9.2/ -mtune=corei7 -march=x86-64 -g -Og
#
# seed   696071153  -909056235   497316002 -1813315681  -944355214  -782400906  1890399638  -170659380  1977691964 -1480459656   678710757  -581513822
#
#      Author: C. J. Pickard (cjp20@cam.ac.uk)
#                Space group: P3
#

%BLOCK LATTICE_ABC
      3.45650      3.45650      5.91190
     90.00000     90.00000    120.00000
%ENDBLOCK LATTICE_ABC

%BLOCK POSITIONS_FRAC
  Li        0.3333333       -0.3333333        0.2526419
  Li        0.0000000        0.0000000       -0.2677035
   N        0.2914290        0.1454155        0.4071328
   N       -0.1454155        0.1460136        0.4071328
   N       -0.1460136       -0.2914290        0.4071328
   N       -0.3333333        0.3333333       -0.4062806
%ENDBLOCK POSITIONS_FRAC

KPOINTS_MP_SPACING 0.07

%BLOCK SPECIES_POT
QC5
%ENDBLOCK SPECIES_POT

SNAP_TO_SYMMETRY
SYMMETRY_GENERATE

