#              Generated by Buildcell
#
# at 18:16:27 (GMT+1.0) 26th March 2023
# in /scratch/scratch/uccabz1/launch_tmp_michael
# on node-a14a-003
# by uccabz1
#
# compiler GCC version 4.9.2
# options -cpp -iprefix /scratch/UCL/applications/gcc/4.9.2/bin/../lib/gcc/x86_64-unknown-linux-gnu/4.9.2/ -mtune=corei7 -march=x86-64 -g -Og
#
# seed  1054764549   230300596  1048129812  -366195003  -425156612  1698025295  -385010507   431834516 -1962701378  1163750641   582288868 -1802382507
#
#      Author: C. J. Pickard (cjp20@cam.ac.uk)
#                Space group: C2
#

%BLOCK LATTICE_ABC
      6.00441      6.00441      6.12837
     97.95629     97.95629    119.91712
%ENDBLOCK LATTICE_ABC

%BLOCK POSITIONS_FRAC
  Li        0.3000034       -0.0392751        0.3449299
  Li        0.0392751       -0.3000034       -0.3449299
  Li        0.1354324        0.4659818        0.2524392
  Li       -0.4659818       -0.1354324       -0.2524392
  Li        0.3411525        0.3640532       -0.1892901
  Li       -0.3640532       -0.3411525        0.1892901
   N        0.0420467        0.4554149       -0.1727402
   N       -0.4554149       -0.0420467        0.1727402
   N       -0.1398700       -0.4742218        0.1520067
   N        0.4742218        0.1398700       -0.1520067
   N        0.4585087        0.3089422       -0.4711614
   N       -0.3089422       -0.4585087        0.4711614
   N        0.3084128       -0.1204871       -0.0696201
   N        0.1204871       -0.3084128        0.0696201
   N        0.3157978        0.4567159       -0.4718723
   N       -0.4567159       -0.3157978        0.4718723
   N        0.3702181        0.3426272        0.3011061
   N       -0.3426272       -0.3702181       -0.3011061
%ENDBLOCK POSITIONS_FRAC

KPOINTS_MP_SPACING 0.07

%BLOCK SPECIES_POT
QC5
%ENDBLOCK SPECIES_POT

SNAP_TO_SYMMETRY
SYMMETRY_GENERATE

