#              Generated by Buildcell
#
# at 15:20:20 (GMT+1.0) 26th March 2023
# in /scratch/scratch/uccabz1/launch_tmp_michael
# on node-a14a-019
# by uccabz1
#
# compiler GCC version 4.9.2
# options -cpp -iprefix /scratch/UCL/applications/gcc/4.9.2/bin/../lib/gcc/x86_64-unknown-linux-gnu/4.9.2/ -mtune=corei7 -march=x86-64 -g -Og
#
# seed -1182842164  1903212002  -560040477  2134982442 -2066068918  1187158194 -2019970835 -1678640758 -1467547433   289971756  -110916799  1161066798
#
#      Author: C. J. Pickard (cjp20@cam.ac.uk)
#                Space group: P21/c
#

%BLOCK LATTICE_ABC
      2.50000      4.27030      5.67000
     90.00000     90.00000    102.46002
%ENDBLOCK LATTICE_ABC

%BLOCK POSITIONS_FRAC
  Li       -0.0000000        0.5000000        0.0000000
  Li       -0.5000000       -0.5000000        0.5000000
   N       -0.0713884       -0.1499332        0.3261371
   N       -0.4286116        0.1499332       -0.1738629
   N        0.0713884        0.1499332       -0.3261371
   N        0.4286116       -0.1499332        0.1738629
%ENDBLOCK POSITIONS_FRAC

KPOINTS_MP_SPACING 0.07

%BLOCK SPECIES_POT
QC5
%ENDBLOCK SPECIES_POT

SNAP_TO_SYMMETRY
SYMMETRY_GENERATE

