#              Generated by Buildcell
#
# at 15:01:34 (GMT+1.0) 26th March 2023
# in /scratch/scratch/uccabz1/launch_tmp_michael
# on node-a14b-022
# by uccabz1
#
# compiler GCC version 4.9.2
# options -cpp -iprefix /scratch/UCL/applications/gcc/4.9.2/bin/../lib/gcc/x86_64-unknown-linux-gnu/4.9.2/ -mtune=corei7 -march=x86-64 -g -Og
#
# seed   100439428  1502277451 -2013000241   247973171   229045761  -533588390   236182862   316175598   -84841574 -1993696226  -878372731 -2013217665
#
#      Author: C. J. Pickard (cjp20@cam.ac.uk)
#                Space group: P-1
#

%BLOCK LATTICE_ABC
      3.77209      6.32492      7.95097
     87.98502     82.95640     81.53462
%ENDBLOCK LATTICE_ABC

%BLOCK POSITIONS_FRAC
  Li       -0.2861322        0.1345864        0.4789562
  Li        0.2861322       -0.1345864       -0.4789562
  Li       -0.1664927        0.1437638        0.1626770
  Li        0.1664927       -0.1437638       -0.1626770
  Li        0.2299856        0.2571951       -0.2869051
  Li       -0.2299856       -0.2571951        0.2869051
   N       -0.3539677       -0.2820692        0.0569337
   N        0.3539677        0.2820692       -0.0569337
   N       -0.3498352        0.4253306        0.4003592
   N        0.3498352       -0.4253306       -0.4003592
   N       -0.0038375        0.3752264        0.4782507
   N        0.0038375       -0.3752264       -0.4782507
   N       -0.0531109        0.0419736       -0.3271347
   N        0.0531109       -0.0419736        0.3271347
   N        0.0598738       -0.2049570        0.0722034
   N       -0.0598738        0.2049570       -0.0722034
   N        0.3635087       -0.3851409        0.3886762
   N       -0.3635087        0.3851409       -0.3886762
%ENDBLOCK POSITIONS_FRAC

KPOINTS_MP_SPACING 0.07

%BLOCK SPECIES_POT
QC5
%ENDBLOCK SPECIES_POT

SNAP_TO_SYMMETRY
SYMMETRY_GENERATE

