#              Generated by Buildcell
#
# at 16:58:35 (GMT+1.0) 26th March 2023
# in /scratch/scratch/uccabz1/launch_tmp_michael
# on node-a14e-021
# by uccabz1
#
# compiler GCC version 4.9.2
# options -cpp -iprefix /scratch/UCL/applications/gcc/4.9.2/bin/../lib/gcc/x86_64-unknown-linux-gnu/4.9.2/ -mtune=corei7 -march=x86-64 -g -Og
#
# seed  2124040935  1496070390  -676641200   -35241630     7107678   983740450  -143663605  -332369272    11873881 -1635406690  2128564529 -1499008953
#
#      Author: C. J. Pickard (cjp20@cam.ac.uk)
#                Space group: R3
#

%BLOCK LATTICE_ABC
      4.97274      4.97274      4.97274
     93.64092     93.64092     93.64092
%ENDBLOCK LATTICE_ABC

%BLOCK POSITIONS_FRAC
  Li        0.0839599        0.1795960       -0.2769507
  Li        0.1795960       -0.2769507        0.0839599
  Li       -0.2769507        0.0839599        0.1795960
  Li        0.3263210        0.3263210        0.3263210
   N        0.0729066       -0.0290772        0.3849365
   N       -0.0290772        0.3849365        0.0729066
   N        0.3849365        0.0729066       -0.0290772
   N       -0.4497306       -0.3416806        0.0224461
   N       -0.3416806        0.0224461       -0.4497306
   N        0.0224461       -0.4497306       -0.3416806
   N        0.0886034        0.0886034        0.0886034
   N       -0.3554463       -0.3554463       -0.3554463
%ENDBLOCK POSITIONS_FRAC

KPOINTS_MP_SPACING 0.07

%BLOCK SPECIES_POT
QC5
%ENDBLOCK SPECIES_POT

SNAP_TO_SYMMETRY
SYMMETRY_GENERATE

