#              Generated by Buildcell
#
# at 15:27:38 (GMT+1.0) 26th March 2023
# in /scratch/scratch/uccabz1/launch_tmp_michael
# on node-a14e-007
# by uccabz1
#
# compiler GCC version 4.9.2
# options -cpp -iprefix /scratch/UCL/applications/gcc/4.9.2/bin/../lib/gcc/x86_64-unknown-linux-gnu/4.9.2/ -mtune=corei7 -march=x86-64 -g -Og
#
# seed -1251055265  1936466767 -1250500823   794042247  -486201088  1934392964  1077548340   571713393  -704023503  1003768374 -1729392386  1468830675
#
#      Author: C. J. Pickard (cjp20@cam.ac.uk)
#                Space group: P3
#

%BLOCK LATTICE_ABC
      4.44269      4.92887      4.92887
    120.00000     90.00000     90.00000
%ENDBLOCK LATTICE_ABC

%BLOCK POSITIONS_FRAC
  Li        0.1568499        0.3335215        0.2223234
  Li        0.1568499       -0.1111980       -0.3335215
  Li        0.1568499       -0.2223234        0.1111980
   N       -0.3190188       -0.2711333       -0.1556684
   N       -0.3190188        0.1154649        0.2711333
   N       -0.3190188        0.1556684       -0.1154649
   N       -0.3728346       -0.3174448        0.1194601
   N       -0.3728346        0.4369049        0.3174448
   N       -0.3728346       -0.1194601       -0.4369049
%ENDBLOCK POSITIONS_FRAC

KPOINTS_MP_SPACING 0.07

%BLOCK SPECIES_POT
QC5
%ENDBLOCK SPECIES_POT

SNAP_TO_SYMMETRY
SYMMETRY_GENERATE

