#              Generated by Buildcell
#
# at 17:38:22 (GMT+1.0) 26th March 2023
# in /scratch/scratch/uccabz1/launch_tmp_michael
# on node-a14b-028
# by uccabz1
#
# compiler GCC version 4.9.2
# options -cpp -iprefix /scratch/UCL/applications/gcc/4.9.2/bin/../lib/gcc/x86_64-unknown-linux-gnu/4.9.2/ -mtune=corei7 -march=x86-64 -g -Og
#
# seed -1680452529  -197589538   169694717   939779607  -112523249  1498307277   -68260700   225255450 -1382979901  1272052847  1937782824  1026456723
#
#      Author: C. J. Pickard (cjp20@cam.ac.uk)
#                Space group: P21
#

%BLOCK LATTICE_ABC
      4.07671      4.09599      4.11166
     90.00000    116.95728     90.00000
%ENDBLOCK LATTICE_ABC

%BLOCK POSITIONS_FRAC
  Li       -0.0859610       -0.0104355       -0.3817033
  Li        0.0859610        0.4895645        0.3817033
   N       -0.3200910        0.2130170       -0.1129526
   N        0.3200910       -0.2869830        0.1129526
   N        0.4288000        0.1479705        0.0566963
   N       -0.4288000       -0.3520295       -0.0566963
%ENDBLOCK POSITIONS_FRAC

KPOINTS_MP_SPACING 0.07

%BLOCK SPECIES_POT
QC5
%ENDBLOCK SPECIES_POT

SNAP_TO_SYMMETRY
SYMMETRY_GENERATE

