#              Generated by Buildcell
#
# at 16:56:59 (GMT+1.0) 26th March 2023
# in /scratch/scratch/uccabz1/launch_tmp_michael
# on node-a14b-028
# by uccabz1
#
# compiler GCC version 4.9.2
# options -cpp -iprefix /scratch/UCL/applications/gcc/4.9.2/bin/../lib/gcc/x86_64-unknown-linux-gnu/4.9.2/ -mtune=corei7 -march=x86-64 -g -Og
#
# seed   210319832    62460623 -1823573346 -1435365761  1168512495   920190056  1807293720  1122660770   603120875   303144688  -707470377   172271952
#
#      Author: C. J. Pickard (cjp20@cam.ac.uk)
#                Space group: Pc
#

%BLOCK LATTICE_ABC
      2.50000      4.26181      5.91880
     90.00000     90.00000     95.57686
%ENDBLOCK LATTICE_ABC

%BLOCK POSITIONS_FRAC
  Li       -0.8388017        0.3430232        0.2148329
  Li       -0.3388017        0.3430232       -0.2148329
   N       -0.0880424       -0.3190744        0.3816690
   N        0.4119576       -0.3190744       -0.3816690
   N       -0.1168633        0.0251060        0.4275981
   N        0.3831367        0.0251060       -0.4275981
%ENDBLOCK POSITIONS_FRAC

KPOINTS_MP_SPACING 0.07

%BLOCK SPECIES_POT
QC5
%ENDBLOCK SPECIES_POT

SNAP_TO_SYMMETRY
SYMMETRY_GENERATE

