#              Generated by Buildcell
#
# at 19:56:06 (GMT+1.0) 26th March 2023
# in /scratch/scratch/uccabz1/launch_tmp_michael
# on node-a14b-031
# by uccabz1
#
# compiler GCC version 4.9.2
# options -cpp -iprefix /scratch/UCL/applications/gcc/4.9.2/bin/../lib/gcc/x86_64-unknown-linux-gnu/4.9.2/ -mtune=corei7 -march=x86-64 -g -Og
#
# seed  1846276774  2081483330   -61816484  1386861093 -1848642623 -1937009940 -1955495897 -1514434301 -2101592423 -2022037109 -1418823003  -293185256
#
#      Author: C. J. Pickard (cjp20@cam.ac.uk)
#                Space group: P3
#

%BLOCK LATTICE_ABC
      4.72229      4.72229      6.17673
     90.00000     90.00000    120.00000
%ENDBLOCK LATTICE_ABC

%BLOCK POSITIONS_FRAC
  Li        0.0000000       -0.3995524        0.4358018
  Li       -0.3995524       -0.0000000        0.4358018
  Li        0.3995524        0.3995524        0.4358018
  Li        0.0000000        0.0000000        0.1702639
   N        0.0763237       -0.2369411       -0.0590672
   N       -0.3132648       -0.0763237       -0.0590672
   N        0.2369411        0.3132648       -0.0590672
   N       -0.4511522        0.4268683       -0.1828239
   N       -0.1219794        0.4511522       -0.1828239
   N       -0.4268683        0.1219794       -0.1828239
   N       -0.0000000        0.0000000       -0.3563862
   N        0.3333333       -0.3333333       -0.3639451
%ENDBLOCK POSITIONS_FRAC

KPOINTS_MP_SPACING 0.07

%BLOCK SPECIES_POT
QC5
%ENDBLOCK SPECIES_POT

SNAP_TO_SYMMETRY
SYMMETRY_GENERATE

