#              Generated by Buildcell
#
# at 18:37:13 (GMT+1.0) 26th March 2023
# in /scratch/scratch/uccabz1/launch_tmp_michael
# on node-a14e-007
# by uccabz1
#
# compiler GCC version 4.9.2
# options -cpp -iprefix /scratch/UCL/applications/gcc/4.9.2/bin/../lib/gcc/x86_64-unknown-linux-gnu/4.9.2/ -mtune=corei7 -march=x86-64 -g -Og
#
# seed  1191866000 -1135285579  -912348015 -1516692693   591371460    36885466   608023769  2076867833 -1291105846  1754933271  1204907612  -439189032
#
#      Author: C. J. Pickard (cjp20@cam.ac.uk)
#                Space group: P2
#

%BLOCK LATTICE_ABC
      5.08878      5.11890      5.12977
     90.00000     90.00000    114.83958
%ENDBLOCK LATTICE_ABC

%BLOCK POSITIONS_FRAC
  Li       -0.0135615       -0.2517414        0.2625491
  Li        0.0135615        0.2517414        0.2625491
  Li        0.3224943       -0.2795900       -0.3942025
  Li       -0.3224943        0.2795900       -0.3942025
   N        0.1693036       -0.4670692       -0.0068694
   N       -0.1693036        0.4670692       -0.0068694
   N        0.1955428        0.2518367       -0.1042387
   N       -0.1955428       -0.2518367       -0.1042387
   N       -0.4848640       -0.1457493        0.2743286
   N        0.4848640        0.1457493        0.2743286
   N       -0.3548350       -0.3681771       -0.4502399
   N        0.3548350        0.3681771       -0.4502399
%ENDBLOCK POSITIONS_FRAC

KPOINTS_MP_SPACING 0.07

%BLOCK SPECIES_POT
QC5
%ENDBLOCK SPECIES_POT

SNAP_TO_SYMMETRY
SYMMETRY_GENERATE

