#              Generated by Buildcell
#
# at 15:46:58 (GMT+1.0) 26th March 2023
# in /scratch/scratch/uccabz1/launch_tmp_michael
# on node-a14b-031
# by uccabz1
#
# compiler GCC version 4.9.2
# options -cpp -iprefix /scratch/UCL/applications/gcc/4.9.2/bin/../lib/gcc/x86_64-unknown-linux-gnu/4.9.2/ -mtune=corei7 -march=x86-64 -g -Og
#
# seed -1338814659  1362208452 -1538511794  2071809277  -839886855  -809327894   217538318 -1622201558  1832964853  1796355764   741630067  1986252663
#
#      Author: C. J. Pickard (cjp20@cam.ac.uk)
#                Space group: Pmn21
#

%BLOCK LATTICE_ABC
      5.45090      5.72152      5.75251
     90.00000     90.00000     90.00000
%ENDBLOCK LATTICE_ABC

%BLOCK POSITIONS_FRAC
  Li       -0.2706801        0.3336502        0.0558031
  Li       -0.2293199       -0.1663498       -0.0558031
  Li        0.2293199       -0.1663498       -0.0558031
  Li        0.2706801        0.3336502        0.0558031
  Li       -0.0000000        0.1587215       -0.2488499
  Li       -0.5000000       -0.3412785        0.2488499
   N        0.3623964       -0.2268090       -0.3550934
   N        0.1376036        0.2731910        0.3550934
   N       -0.1376036        0.2731910        0.3550934
   N       -0.3623964       -0.2268090       -0.3550934
   N        0.1377416        0.0520563        0.1773787
   N        0.3622584       -0.4479437       -0.1773787
   N       -0.3622584       -0.4479437       -0.1773787
   N       -0.1377416        0.0520563        0.1773787
   N        0.1376278        0.0337465        0.4613645
   N        0.3623722       -0.4662535       -0.4613645
   N       -0.3623722       -0.4662535       -0.4613645
   N       -0.1376278        0.0337465        0.4613645
%ENDBLOCK POSITIONS_FRAC

KPOINTS_MP_SPACING 0.07

%BLOCK SPECIES_POT
QC5
%ENDBLOCK SPECIES_POT

SNAP_TO_SYMMETRY
SYMMETRY_GENERATE

