#              Generated by Buildcell
#
# at 20:24:09 (GMT+1.0) 26th March 2023
# in /scratch/scratch/uccabz1/launch_tmp_michael
# on node-a14a-003
# by uccabz1
#
# compiler GCC version 4.9.2
# options -cpp -iprefix /scratch/UCL/applications/gcc/4.9.2/bin/../lib/gcc/x86_64-unknown-linux-gnu/4.9.2/ -mtune=corei7 -march=x86-64 -g -Og
#
# seed  -653177505  -948177284  1673339108   964011706   626178385 -1600842543   851591968  1403515797  -715496218 -1942405602 -1633017772  -994727404
#
#      Author: C. J. Pickard (cjp20@cam.ac.uk)
#                Space group: C2/m
#

%BLOCK LATTICE_ABC
      3.66123      4.24737      4.24737
    106.14936     94.59007     94.59007
%ENDBLOCK LATTICE_ABC

%BLOCK POSITIONS_FRAC
  Li        0.4332724       -0.2642255       -0.2642255
  Li       -0.4332724        0.2642255        0.2642255
   N        0.1423211       -0.4818497        0.2668691
   N       -0.1423211       -0.2668691        0.4818497
   N       -0.1423211        0.4818497       -0.2668691
   N        0.1423211        0.2668691       -0.4818497
%ENDBLOCK POSITIONS_FRAC

KPOINTS_MP_SPACING 0.07

%BLOCK SPECIES_POT
QC5
%ENDBLOCK SPECIES_POT

SNAP_TO_SYMMETRY
SYMMETRY_GENERATE

