#              Generated by Buildcell
#
# at 18:27:36 (GMT+1.0) 26th March 2023
# in /scratch/scratch/uccabz1/launch_tmp_michael
# on node-a14b-028
# by uccabz1
#
# compiler GCC version 4.9.2
# options -cpp -iprefix /scratch/UCL/applications/gcc/4.9.2/bin/../lib/gcc/x86_64-unknown-linux-gnu/4.9.2/ -mtune=corei7 -march=x86-64 -g -Og
#
# seed  -858435698  -824791848 -1093685662  1105733480   844526786  -337965285 -1418058653   796540751  1787408311 -1189010565  -715782812   526332837
#
#      Author: C. J. Pickard (cjp20@cam.ac.uk)
#                Space group: P21
#

%BLOCK LATTICE_ABC
      3.83828      5.22521      6.22308
    111.17769     90.00000     90.00000
%ENDBLOCK LATTICE_ABC

%BLOCK POSITIONS_FRAC
  Li        0.4975736       -0.4791190        0.3163540
  Li       -0.0024264        0.4791190       -0.3163540
  Li       -0.3916026        0.1083834        0.4314904
  Li        0.1083974       -0.1083834       -0.4314904
   N       -0.2435196        0.0721857       -0.2151101
   N        0.2564804       -0.0721857        0.2151101
   N        0.2096963       -0.1982937       -0.1075544
   N       -0.2903037        0.1982937        0.1075544
   N       -0.3726218       -0.2560493       -0.3663760
   N        0.1273782        0.2560493        0.3663760
   N       -0.1721904       -0.2017268        0.2111223
   N        0.3278096        0.2017268       -0.2111223
%ENDBLOCK POSITIONS_FRAC

KPOINTS_MP_SPACING 0.07

%BLOCK SPECIES_POT
QC5
%ENDBLOCK SPECIES_POT

SNAP_TO_SYMMETRY
SYMMETRY_GENERATE

