#              Generated by Buildcell
#
# at 16:13:05 (GMT+1.0) 26th March 2023
# in /scratch/scratch/uccabz1/launch_tmp_michael
# on node-a14f-035
# by uccabz1
#
# compiler GCC version 4.9.2
# options -cpp -iprefix /scratch/UCL/applications/gcc/4.9.2/bin/../lib/gcc/x86_64-unknown-linux-gnu/4.9.2/ -mtune=corei7 -march=x86-64 -g -Og
#
# seed  1400127991  -566635435 -2098265608  1271614520 -1024283500   -33453317 -1304327133  1818277285 -1128791138 -2010769223   919878056 -1228041211
#
#      Author: C. J. Pickard (cjp20@cam.ac.uk)
#                Space group: P3
#

%BLOCK LATTICE_ABC
      3.74280      6.07717      6.07717
    120.00000     90.00000     90.00000
%ENDBLOCK LATTICE_ABC

%BLOCK POSITIONS_FRAC
  Li        0.1027135       -0.0242315        0.3678177
  Li        0.1027135        0.3920492        0.0242315
  Li        0.1027135       -0.3678177       -0.3920492
  Li       -0.4290640       -0.3333333        0.3333333
   N       -0.3571955        0.1177494        0.3898298
   N       -0.3571955        0.2720805       -0.1177494
   N       -0.3571955       -0.3898298       -0.2720805
   N        0.3630833       -0.4604261       -0.1414206
   N        0.3630833        0.3190055        0.4604261
   N        0.3630833        0.1414206       -0.3190055
   N       -0.1048553        0.3333333       -0.3333333
   N        0.2614919        0.0000000        0.0000000
%ENDBLOCK POSITIONS_FRAC

KPOINTS_MP_SPACING 0.07

%BLOCK SPECIES_POT
QC5
%ENDBLOCK SPECIES_POT

SNAP_TO_SYMMETRY
SYMMETRY_GENERATE

