#              Generated by Buildcell
#
# at 18:41:02 (GMT+1.0) 26th March 2023
# in /scratch/scratch/uccabz1/launch_tmp_michael
# on node-a14e-021
# by uccabz1
#
# compiler GCC version 4.9.2
# options -cpp -iprefix /scratch/UCL/applications/gcc/4.9.2/bin/../lib/gcc/x86_64-unknown-linux-gnu/4.9.2/ -mtune=corei7 -march=x86-64 -g -Og
#
# seed  1742594342 -1768401992   675738414  1067057098 -1805103880   417688085   380074925  -889638201  1509624370 -1759129525   816772608 -1618950488
#
#      Author: C. J. Pickard (cjp20@cam.ac.uk)
#                Space group: R3
#

%BLOCK LATTICE_ABC
      4.10763      4.10763      4.10763
     73.27070     73.27070     73.27070
%ENDBLOCK LATTICE_ABC

%BLOCK POSITIONS_FRAC
  Li        0.1261385        0.1261385        0.1261385
  Li       -0.2993826       -0.2993826       -0.2993826
   N        0.2305011       -0.0350508       -0.4250292
   N       -0.4250292        0.2305011       -0.0350508
   N       -0.0350508       -0.4250292        0.2305011
   N       -0.0866090       -0.0866090       -0.0866090
%ENDBLOCK POSITIONS_FRAC

KPOINTS_MP_SPACING 0.07

%BLOCK SPECIES_POT
QC5
%ENDBLOCK SPECIES_POT

SNAP_TO_SYMMETRY
SYMMETRY_GENERATE

