#              Generated by Buildcell
#
# at 20:28:32 (GMT+1.0) 26th March 2023
# in /scratch/scratch/uccabz1/launch_tmp_michael
# on node-a14c-005
# by uccabz1
#
# compiler GCC version 4.9.2
# options -cpp -iprefix /scratch/UCL/applications/gcc/4.9.2/bin/../lib/gcc/x86_64-unknown-linux-gnu/4.9.2/ -mtune=corei7 -march=x86-64 -g -Og
#
# seed  -920125107   166462648  1251167406 -1884373542 -1768443860 -1174526230 -1939658160   360788699   249373939  1342793560 -2126406456  1233741419
#
#      Author: C. J. Pickard (cjp20@cam.ac.uk)
#                Space group: P3
#

%BLOCK LATTICE_ABC
      3.10762      3.10762      7.46651
     90.00000     90.00000    120.00000
%ENDBLOCK LATTICE_ABC

%BLOCK POSITIONS_FRAC
  Li       -0.3333333        0.3333333       -0.2405019
  Li        0.0000000        0.0000000        0.4588697
   N       -0.0665007       -0.3059128        0.0729485
   N        0.3059128        0.2394121        0.0729485
   N       -0.2394121        0.0665007        0.0729485
   N        0.3333333       -0.3333333       -0.0488169
%ENDBLOCK POSITIONS_FRAC

KPOINTS_MP_SPACING 0.07

%BLOCK SPECIES_POT
QC5
%ENDBLOCK SPECIES_POT

SNAP_TO_SYMMETRY
SYMMETRY_GENERATE

