#              Generated by Buildcell
#
# at 15:47:57 (GMT+1.0) 26th March 2023
# in /scratch/scratch/uccabz1/launch_tmp_michael
# on node-a14c-005
# by uccabz1
#
# compiler GCC version 4.9.2
# options -cpp -iprefix /scratch/UCL/applications/gcc/4.9.2/bin/../lib/gcc/x86_64-unknown-linux-gnu/4.9.2/ -mtune=corei7 -march=x86-64 -g -Og
#
# seed -1565631664  -194275204  -693449527   458306789  1218979108  2076757804  -579544376  -234648066  1297590387  -314213824   500320687   140649396
#
#      Author: C. J. Pickard (cjp20@cam.ac.uk)
#                Space group: P3
#

%BLOCK LATTICE_ABC
      4.33019      4.33019      7.68189
     90.00000     90.00000    120.00000
%ENDBLOCK LATTICE_ABC

%BLOCK POSITIONS_FRAC
  Li        0.3333333        0.3333333       -0.4721827
  Li       -0.0000000       -0.3333333       -0.4721827
  Li       -0.3333333        0.0000000       -0.4721827
  Li       -0.3333333        0.3333333        0.0997433
   N        0.0000130        0.2443885        0.3456903
   N        0.2443754       -0.0000130        0.3456903
   N       -0.2443885       -0.2443754        0.3456903
   N       -0.2714716       -0.2882957       -0.0638770
   N       -0.0168241        0.2714716       -0.0638770
   N        0.2882957        0.0168241       -0.0638770
   N        0.0000000        0.0000000       -0.3090799
   N       -0.0000000       -0.0000000        0.2068599
%ENDBLOCK POSITIONS_FRAC

KPOINTS_MP_SPACING 0.07

%BLOCK SPECIES_POT
QC5
%ENDBLOCK SPECIES_POT

SNAP_TO_SYMMETRY
SYMMETRY_GENERATE

