#              Generated by Buildcell
#
# at 19:53:24 (GMT+1.0) 26th March 2023
# in /scratch/scratch/uccabz1/launch_tmp_michael
# on node-a14c-005
# by uccabz1
#
# compiler GCC version 4.9.2
# options -cpp -iprefix /scratch/UCL/applications/gcc/4.9.2/bin/../lib/gcc/x86_64-unknown-linux-gnu/4.9.2/ -mtune=corei7 -march=x86-64 -g -Og
#
# seed -1952737197 -1301020382   718742210 -1033693076 -1446143842  1987736077  1461534660 -1757155551   516428910 -1784854644 -1941710527   190689626
#
#      Author: C. J. Pickard (cjp20@cam.ac.uk)
#                Space group: P21212
#

%BLOCK LATTICE_ABC
      2.64744      4.58459      9.61766
     90.00000     90.00000     90.00000
%ENDBLOCK LATTICE_ABC

%BLOCK POSITIONS_FRAC
  Li       -0.2499391        0.2686821        0.1500921
  Li        0.2499391       -0.2686821        0.1500921
  Li        0.2500609        0.2313179       -0.1500921
  Li       -0.2500609       -0.2313179       -0.1500921
   N       -0.2823623       -0.1993557       -0.3741490
   N        0.2823623        0.1993557       -0.3741490
   N        0.2176377       -0.3006443        0.3741490
   N       -0.2176377        0.3006443        0.3741490
   N       -0.2723611        0.1293375       -0.4647700
   N        0.2723611       -0.1293375       -0.4647700
   N        0.2276389        0.3706625        0.4647700
   N       -0.2276389       -0.3706625        0.4647700
%ENDBLOCK POSITIONS_FRAC

KPOINTS_MP_SPACING 0.07

%BLOCK SPECIES_POT
QC5
%ENDBLOCK SPECIES_POT

SNAP_TO_SYMMETRY
SYMMETRY_GENERATE

