#              Generated by Buildcell
#
# at 14:50:02 (GMT+1.0) 26th March 2023
# in /scratch/scratch/uccabz1/launch_tmp_michael
# on node-a14b-028
# by uccabz1
#
# compiler GCC version 4.9.2
# options -cpp -iprefix /scratch/UCL/applications/gcc/4.9.2/bin/../lib/gcc/x86_64-unknown-linux-gnu/4.9.2/ -mtune=corei7 -march=x86-64 -g -Og
#
# seed -1115108204  1547620935   765009668  1981175666 -1766868553  -262558036 -1309680395   321120751  -574250181 -1045452018 -1603759803  1790537311
#
#      Author: C. J. Pickard (cjp20@cam.ac.uk)
#                Space group: P3
#

%BLOCK LATTICE_ABC
      3.75839      5.17988      5.17988
    120.00000     90.00000     90.00000
%ENDBLOCK LATTICE_ABC

%BLOCK POSITIONS_FRAC
  Li        0.4418020        0.4023223        0.3930970
  Li        0.4418020       -0.0092253       -0.4023223
  Li        0.4418020       -0.3930970        0.0092253
   N        0.0379405       -0.3882383       -0.2219868
   N        0.0379405        0.1662515        0.3882383
   N        0.0379405        0.2219868       -0.1662515
   N       -0.0356430       -0.0944437       -0.2475829
   N       -0.0356430       -0.1531393        0.0944437
   N       -0.0356430        0.2475829        0.1531393
%ENDBLOCK POSITIONS_FRAC

KPOINTS_MP_SPACING 0.07

%BLOCK SPECIES_POT
QC5
%ENDBLOCK SPECIES_POT

SNAP_TO_SYMMETRY
SYMMETRY_GENERATE

