#              Generated by Buildcell
#
# at 17:39:34 (GMT+1.0) 26th March 2023
# in /scratch/scratch/uccabz1/launch_tmp_michael
# on node-a14e-021
# by uccabz1
#
# compiler GCC version 4.9.2
# options -cpp -iprefix /scratch/UCL/applications/gcc/4.9.2/bin/../lib/gcc/x86_64-unknown-linux-gnu/4.9.2/ -mtune=corei7 -march=x86-64 -g -Og
#
# seed   -35178279  1733795188  1840047748   433125877  1285097465   110426554 -1430791905 -1012825314  1041516344 -1299122751   618725064   558574253
#
#      Author: C. J. Pickard (cjp20@cam.ac.uk)
#                Space group: Pm
#

%BLOCK LATTICE_ABC
      3.24103      3.91898      5.00138
     90.00000     90.00000     98.93751
%ENDBLOCK LATTICE_ABC

%BLOCK POSITIONS_FRAC
  Li        0.3306699       -0.3265576       -0.2500000
  Li        0.3306699       -0.3265576        0.2500000
   N       -0.3680010        0.1450515        0.3320805
   N       -0.3680010        0.1450515       -0.3320805
   N       -0.2171171        0.4439810       -0.1503287
   N       -0.2171171        0.4439810        0.1503287
%ENDBLOCK POSITIONS_FRAC

KPOINTS_MP_SPACING 0.07

%BLOCK SPECIES_POT
QC5
%ENDBLOCK SPECIES_POT

SNAP_TO_SYMMETRY
SYMMETRY_GENERATE

