#              Generated by Buildcell
#
# at 20:05:35 (GMT+1.0) 26th March 2023
# in /scratch/scratch/uccabz1/launch_tmp_michael
# on node-a14e-007
# by uccabz1
#
# compiler GCC version 4.9.2
# options -cpp -iprefix /scratch/UCL/applications/gcc/4.9.2/bin/../lib/gcc/x86_64-unknown-linux-gnu/4.9.2/ -mtune=corei7 -march=x86-64 -g -Og
#
# seed  1982165832  -685180045 -1486598297   642501187 -1750488064  1910009343 -1414582183  -174883569   349998989  1760931262 -1866501045  1308398743
#
#      Author: C. J. Pickard (cjp20@cam.ac.uk)
#                Space group: P3
#

%BLOCK LATTICE_ABC
      4.42116      5.71701      5.71701
    120.00000     90.00000     90.00000
%ENDBLOCK LATTICE_ABC

%BLOCK POSITIONS_FRAC
  Li       -0.2392242       -0.4195658       -0.0758158
  Li       -0.2392242        0.0758158       -0.3437499
  Li       -0.2392242        0.3437499        0.4195658
  Li        0.4916363        0.0000000       -0.0000000
   N        0.0900322        0.1880036       -0.4903810
   N        0.0900322        0.4903810       -0.3216154
   N        0.0900322        0.3216154       -0.1880036
   N        0.2983976       -0.1191210        0.4828581
   N        0.2983976       -0.4828581        0.3980210
   N        0.2983976       -0.3980210        0.1191210
   N        0.0539478        0.0000000        0.0000000
   N       -0.1882344       -0.3333333        0.3333333
%ENDBLOCK POSITIONS_FRAC

KPOINTS_MP_SPACING 0.07

%BLOCK SPECIES_POT
QC5
%ENDBLOCK SPECIES_POT

SNAP_TO_SYMMETRY
SYMMETRY_GENERATE

