#              Generated by Buildcell
#
# at 15:04:10 (GMT+1.0) 26th March 2023
# in /scratch/scratch/uccabz1/launch_tmp_michael
# on node-a14b-031
# by uccabz1
#
# compiler GCC version 4.9.2
# options -cpp -iprefix /scratch/UCL/applications/gcc/4.9.2/bin/../lib/gcc/x86_64-unknown-linux-gnu/4.9.2/ -mtune=corei7 -march=x86-64 -g -Og
#
# seed  1839832903  1782018584  -954898626 -1575094262  1749238997   454949881  1931775241   407001329   915901355  1267443063  1447880195 -1467781294
#
#      Author: C. J. Pickard (cjp20@cam.ac.uk)
#                Space group: P2
#

%BLOCK LATTICE_ABC
      2.77916      3.43351      6.58475
     90.00000     95.11633     90.00000
%ENDBLOCK LATTICE_ABC

%BLOCK POSITIONS_FRAC
  Li       -0.2165235       -0.2040907       -0.3415637
  Li        0.2165235       -0.2040907        0.3415637
   N        0.1596559       -0.2373293       -0.0864188
   N       -0.1596559       -0.2373293        0.0864188
   N       -0.3479476        0.0200685       -0.0885504
   N        0.3479476        0.0200685        0.0885504
%ENDBLOCK POSITIONS_FRAC

KPOINTS_MP_SPACING 0.07

%BLOCK SPECIES_POT
QC5
%ENDBLOCK SPECIES_POT

SNAP_TO_SYMMETRY
SYMMETRY_GENERATE

