#              Generated by Buildcell
#
# at 16:59:09 (GMT+1.0) 26th March 2023
# in /scratch/scratch/uccabz1/launch_tmp_michael
# on node-a14a-001
# by uccabz1
#
# compiler GCC version 4.9.2
# options -cpp -iprefix /scratch/UCL/applications/gcc/4.9.2/bin/../lib/gcc/x86_64-unknown-linux-gnu/4.9.2/ -mtune=corei7 -march=x86-64 -g -Og
#
# seed  1380699684    60297727  1580738674    47756304  -476056958 -1976205695  -541755832 -1494506240 -1119606072  -699153766  2009035779 -1099068661
#
#      Author: C. J. Pickard (cjp20@cam.ac.uk)
#                Space group: I-4
#

%BLOCK LATTICE_ABC
      5.68439      6.37144      6.37144
     78.52208     63.50733     63.50733
%ENDBLOCK LATTICE_ABC

%BLOCK POSITIONS_FRAC
  Li        0.3828216       -0.4420328        0.1440048
  Li        0.0847937        0.4420328       -0.1440048
  Li        0.0592112       -0.1440048       -0.4420328
  Li        0.4731736        0.1440048        0.4420328
  Li       -0.4836982       -0.5000000       -0.5000000
  Li       -0.0163018        0.5000000        0.5000000
   N        0.3422678        0.2261044       -0.0103113
   N       -0.4419391       -0.2261044        0.0103113
   N        0.4316278        0.0103113        0.2261044
   N       -0.3319565       -0.0103113       -0.2261044
   N       -0.0632884       -0.1028380       -0.1165325
   N       -0.2826589        0.1028380        0.1165325
   N        0.1661264        0.1165325       -0.1028380
   N        0.1798209       -0.1165325        0.1028380
   N       -0.2545412        0.4217943       -0.1101608
   N        0.0570923       -0.4217943        0.1101608
   N       -0.1672532        0.1101608        0.4217943
   N        0.3647020       -0.1101608       -0.4217943
%ENDBLOCK POSITIONS_FRAC

KPOINTS_MP_SPACING 0.07

%BLOCK SPECIES_POT
QC5
%ENDBLOCK SPECIES_POT

SNAP_TO_SYMMETRY
SYMMETRY_GENERATE

