#              Generated by Buildcell
#
# at 17:22:02 (GMT+1.0) 26th March 2023
# in /scratch/scratch/uccabz1/launch_tmp_michael
# on node-a14a-001
# by uccabz1
#
# compiler GCC version 4.9.2
# options -cpp -iprefix /scratch/UCL/applications/gcc/4.9.2/bin/../lib/gcc/x86_64-unknown-linux-gnu/4.9.2/ -mtune=corei7 -march=x86-64 -g -Og
#
# seed  1397570916  -253333983  -509140041  -439444247  1274814788  -270022161  2020786733  2028113445  1652109936   599825199 -1264194104  1882828075
#
#      Author: C. J. Pickard (cjp20@cam.ac.uk)
#                Space group: P31
#

%BLOCK LATTICE_ABC
      4.28382      4.93327      4.93327
    120.00000     90.00000     90.00000
%ENDBLOCK LATTICE_ABC

%BLOCK POSITIONS_FRAC
  Li       -0.4516262        0.0326563        0.4634896
  Li        0.2150404        0.4308333       -0.0326563
  Li       -0.1182929       -0.4634896       -0.4308333
   N       -0.2347756       -0.2276098        0.0018993
   N        0.4318910        0.2295091        0.2276098
   N        0.0985577       -0.0018993       -0.2295091
   N       -0.2021636        0.1591339       -0.0112379
   N        0.4645031       -0.1703718       -0.1591339
   N        0.1311697        0.0112379        0.1703718
%ENDBLOCK POSITIONS_FRAC

KPOINTS_MP_SPACING 0.07

%BLOCK SPECIES_POT
QC5
%ENDBLOCK SPECIES_POT

SNAP_TO_SYMMETRY
SYMMETRY_GENERATE

