#              Generated by Buildcell
#
# at 17:16:09 (GMT+1.0) 26th March 2023
# in /scratch/scratch/uccabz1/launch_tmp_michael
# on node-a14b-028
# by uccabz1
#
# compiler GCC version 4.9.2
# options -cpp -iprefix /scratch/UCL/applications/gcc/4.9.2/bin/../lib/gcc/x86_64-unknown-linux-gnu/4.9.2/ -mtune=corei7 -march=x86-64 -g -Og
#
# seed  1113289267 -1046082751  -739213859   241926997  1612165330  1647484071   475649347  1600581794  1254995615   719334700   649511433  1780837967
#
#      Author: C. J. Pickard (cjp20@cam.ac.uk)
#                Space group: R3
#

%BLOCK LATTICE_ABC
      5.50896      5.50896      5.71901
     61.20771     61.20771     60.00000
%ENDBLOCK LATTICE_ABC

%BLOCK POSITIONS_FRAC
  Li        0.4895999        0.2582224        0.4611762
  Li       -0.2089985        0.4895999        0.4611762
  Li        0.2582224       -0.2089985        0.4611762
  Li        0.0624441        0.0624441       -0.1873324
   N       -0.3328682        0.3491469       -0.0706760
   N        0.0543973       -0.3328682       -0.0706760
   N        0.3491469        0.0543973       -0.0706760
   N       -0.4035270       -0.0969911        0.3997645
   N        0.1007536       -0.4035270        0.3997645
   N       -0.0969911        0.1007536        0.3997645
   N       -0.1780838       -0.1780838       -0.4657486
   N       -0.0708056       -0.0708056        0.2124168
%ENDBLOCK POSITIONS_FRAC

KPOINTS_MP_SPACING 0.07

%BLOCK SPECIES_POT
QC5
%ENDBLOCK SPECIES_POT

SNAP_TO_SYMMETRY
SYMMETRY_GENERATE

