#              Generated by Buildcell
#
# at 15:09:20 (GMT+1.0) 26th March 2023
# in /scratch/scratch/uccabz1/launch_tmp_michael
# on node-a14b-031
# by uccabz1
#
# compiler GCC version 4.9.2
# options -cpp -iprefix /scratch/UCL/applications/gcc/4.9.2/bin/../lib/gcc/x86_64-unknown-linux-gnu/4.9.2/ -mtune=corei7 -march=x86-64 -g -Og
#
# seed -1272350591 -2125007832   622823522  1029564979   661480360  -407957523 -1232826459  1753729059  -372446488  2112449427  -700153767  -783383439
#
#      Author: C. J. Pickard (cjp20@cam.ac.uk)
#                Space group: Fmm2
#

%BLOCK LATTICE_ABC
      4.73754      4.73754      4.99106
    105.30094    105.30094    116.35807
%ENDBLOCK LATTICE_ABC

%BLOCK POSITIONS_FRAC
  Li        0.0830930        0.0830930       -0.3338152
  Li       -0.4169083       -0.4169083       -0.3338152
  Li        0.0830892        0.0830892        0.1661784
   N       -0.1373222        0.2154582        0.3941256
   N        0.5314478        0.1786674        0.3941256
   N        0.2154582       -0.1373222        0.3941256
   N       -0.8213326       -0.4685522        0.3941256
   N       -0.2374614        0.0700932       -0.1673683
   N        0.0700932       -0.2374614       -0.1673683
%ENDBLOCK POSITIONS_FRAC

KPOINTS_MP_SPACING 0.07

%BLOCK SPECIES_POT
QC5
%ENDBLOCK SPECIES_POT

SNAP_TO_SYMMETRY
SYMMETRY_GENERATE

