#              Generated by Buildcell
#
# at 19:58:26 (GMT+1.0) 26th March 2023
# in /scratch/scratch/uccabz1/launch_tmp_michael
# on node-a14a-019
# by uccabz1
#
# compiler GCC version 4.9.2
# options -cpp -iprefix /scratch/UCL/applications/gcc/4.9.2/bin/../lib/gcc/x86_64-unknown-linux-gnu/4.9.2/ -mtune=corei7 -march=x86-64 -g -Og
#
# seed  -480976933  -954876595   434142486  -502537573   -62124795 -1514271839 -1121772145 -1644907369 -1786865383   507644073  -143104361  -813157055
#
#      Author: C. J. Pickard (cjp20@cam.ac.uk)
#                Space group: P3
#

%BLOCK LATTICE_ABC
      5.76292      5.76292      6.52427
     90.00000     90.00000    120.00000
%ENDBLOCK LATTICE_ABC

%BLOCK POSITIONS_FRAC
  Li       -0.1717070        0.1171088        0.1171047
  Li       -0.1171088       -0.2888159        0.1171047
  Li        0.2888159        0.1717070        0.1171047
  Li       -0.2662395       -0.2309316       -0.2355062
  Li        0.2309316       -0.0353079       -0.2355062
  Li        0.0353079        0.2662395       -0.2355062
   N        0.4682684       -0.0586561        0.2116963
   N        0.0586561       -0.4730756        0.2116963
   N        0.4730756       -0.4682684        0.2116963
   N        0.3782893       -0.4641710       -0.3275039
   N        0.4641710       -0.1575397       -0.3275039
   N        0.1575397       -0.3782893       -0.3275039
   N       -0.0396853        0.3293541        0.4914422
   N       -0.3293541       -0.3690393        0.4914422
   N        0.3690393        0.0396853        0.4914422
   N        0.1341683       -0.0522328        0.3495785
   N        0.0522328        0.1864011        0.3495785
   N       -0.1864011       -0.1341683        0.3495785
%ENDBLOCK POSITIONS_FRAC

KPOINTS_MP_SPACING 0.07

%BLOCK SPECIES_POT
QC5
%ENDBLOCK SPECIES_POT

SNAP_TO_SYMMETRY
SYMMETRY_GENERATE

