#              Generated by Buildcell
#
# at 16:18:43 (GMT+1.0) 26th March 2023
# in /scratch/scratch/uccabz1/launch_tmp_michael
# on node-a14e-021
# by uccabz1
#
# compiler GCC version 4.9.2
# options -cpp -iprefix /scratch/UCL/applications/gcc/4.9.2/bin/../lib/gcc/x86_64-unknown-linux-gnu/4.9.2/ -mtune=corei7 -march=x86-64 -g -Og
#
# seed  -146092724 -1621568822   718385059  -564025052  -911687035 -1642498263 -1100902858  -165784202 -1419151780  -689002621  1197428281   571937870
#
#      Author: C. J. Pickard (cjp20@cam.ac.uk)
#                Space group: R3
#

%BLOCK LATTICE_ABC
      4.00085      4.00085      4.00085
     80.16155     80.16155     80.16155
%ENDBLOCK LATTICE_ABC

%BLOCK POSITIONS_FRAC
  Li        0.2870915        0.2870915        0.2870915
  Li       -0.3699123       -0.3699123       -0.3699123
   N        0.0901112       -0.2992369        0.4617847
   N       -0.2992369        0.4617847        0.0901112
   N        0.4617847        0.0901112       -0.2992369
   N       -0.0921011       -0.0921011       -0.0921011
%ENDBLOCK POSITIONS_FRAC

KPOINTS_MP_SPACING 0.07

%BLOCK SPECIES_POT
QC5
%ENDBLOCK SPECIES_POT

SNAP_TO_SYMMETRY
SYMMETRY_GENERATE

