#              Generated by Buildcell
#
# at 17:47:01 (GMT+1.0) 26th March 2023
# in /scratch/scratch/uccabz1/launch_tmp_michael
# on node-a14b-031
# by uccabz1
#
# compiler GCC version 4.9.2
# options -cpp -iprefix /scratch/UCL/applications/gcc/4.9.2/bin/../lib/gcc/x86_64-unknown-linux-gnu/4.9.2/ -mtune=corei7 -march=x86-64 -g -Og
#
# seed  2002698515  1082603138  1303319669  1994239275 -1871266712 -1429117257   837984295 -1864101458  1457772152  -466592819   235749473  -816658897
#
#      Author: C. J. Pickard (cjp20@cam.ac.uk)
#                Space group: Ama2
#

%BLOCK LATTICE_ABC
      2.50061      4.65391     15.30285
     90.00000     90.00000    105.58438
%ENDBLOCK LATTICE_ABC

%BLOCK POSITIONS_FRAC
  Li        0.4812814        0.4214862       -0.0725659
  Li       -0.0597952        0.4214862        0.0725659
  Li       -0.0597952        0.4214862        0.4274341
  Li        0.4812814        0.4214862       -0.4274341
  Li       -0.2274289       -0.2578835       -0.2500000
  Li       -0.0304546       -0.2578835        0.2500000
   N        0.2622638        0.0269188       -0.0273676
   N       -0.2353449        0.0269188        0.0273676
   N       -0.2353449        0.0269188        0.4726324
   N        0.2622638        0.0269188       -0.4726324
   N        0.2153211       -0.3723672       -0.3372615
   N        0.4123118       -0.3723672        0.3372615
   N        0.4123118       -0.3723672        0.1627385
   N        0.2153211       -0.3723672       -0.1627385
   N        0.3607157       -0.1675958        0.4105867
   N        0.4716885       -0.1675958       -0.4105867
   N        0.4716885       -0.1675958       -0.0894133
   N        0.3607157       -0.1675958        0.0894133
%ENDBLOCK POSITIONS_FRAC

KPOINTS_MP_SPACING 0.07

%BLOCK SPECIES_POT
QC5
%ENDBLOCK SPECIES_POT

SNAP_TO_SYMMETRY
SYMMETRY_GENERATE

