#              Generated by Buildcell
#
# at 18:58:59 (GMT+1.0) 26th March 2023
# in /scratch/scratch/uccabz1/launch_tmp_michael
# on node-a14e-021
# by uccabz1
#
# compiler GCC version 4.9.2
# options -cpp -iprefix /scratch/UCL/applications/gcc/4.9.2/bin/../lib/gcc/x86_64-unknown-linux-gnu/4.9.2/ -mtune=corei7 -march=x86-64 -g -Og
#
# seed  -367540913  -526946289  -613324985    49845375  -104822334 -1080367249 -1447267519   515100238 -1113003963  1337478405  1947298548 -1219606419
#
#      Author: C. J. Pickard (cjp20@cam.ac.uk)
#                Space group: R3
#

%BLOCK LATTICE_ABC
      4.94982      4.94982      4.94982
     88.15388     88.15388     88.15388
%ENDBLOCK LATTICE_ABC

%BLOCK POSITIONS_FRAC
  Li        0.2860982       -0.0060893        0.4126273
  Li        0.4126273        0.2860982       -0.0060893
  Li       -0.0060893        0.4126273        0.2860982
  Li       -0.0163169       -0.0163169       -0.0163169
   N       -0.1666138       -0.3287110       -0.4775761
   N       -0.4775761       -0.1666138       -0.3287110
   N       -0.3287110       -0.4775761       -0.1666138
   N        0.3694345       -0.3406260       -0.1111197
   N       -0.1111197        0.3694345       -0.3406260
   N       -0.3406260       -0.1111197        0.3694345
   N        0.3728887        0.3728887        0.3728887
   N       -0.4548705       -0.4548705       -0.4548705
%ENDBLOCK POSITIONS_FRAC

KPOINTS_MP_SPACING 0.07

%BLOCK SPECIES_POT
QC5
%ENDBLOCK SPECIES_POT

SNAP_TO_SYMMETRY
SYMMETRY_GENERATE

