#              Generated by Buildcell
#
# at 19:42:03 (GMT+1.0) 26th March 2023
# in /scratch/scratch/uccabz1/launch_tmp_michael
# on node-a14c-005
# by uccabz1
#
# compiler GCC version 4.9.2
# options -cpp -iprefix /scratch/UCL/applications/gcc/4.9.2/bin/../lib/gcc/x86_64-unknown-linux-gnu/4.9.2/ -mtune=corei7 -march=x86-64 -g -Og
#
# seed  1655692271  -389474333   943799297  1833770444       -8790 -1383801781  1270638853 -1834034314 -1666214417  -408215322  -410445744  -764274493
#
#      Author: C. J. Pickard (cjp20@cam.ac.uk)
#                Space group: P2
#

%BLOCK LATTICE_ABC
      2.50139      6.07758      7.57430
     90.00000     91.50365     90.00000
%ENDBLOCK LATTICE_ABC

%BLOCK POSITIONS_FRAC
  Li       -0.3713102       -0.4990836       -0.1586914
  Li        0.3713102       -0.4990836        0.1586914
  Li        0.1886939       -0.1296997       -0.1546462
  Li       -0.1886939       -0.1296997        0.1546462
   N        0.2528800        0.2512007       -0.0649763
   N       -0.2528800        0.2512007        0.0649763
   N       -0.1318720       -0.4559377        0.3520882
   N        0.1318720       -0.4559377       -0.3520882
   N       -0.2251950        0.1873817       -0.1976767
   N        0.2251950        0.1873817        0.1976767
   N       -0.4459706        0.1126879       -0.3752068
   N        0.4459706        0.1126879        0.3752068
%ENDBLOCK POSITIONS_FRAC

KPOINTS_MP_SPACING 0.07

%BLOCK SPECIES_POT
QC5
%ENDBLOCK SPECIES_POT

SNAP_TO_SYMMETRY
SYMMETRY_GENERATE

