#              Generated by Buildcell
#
# at 17:02:58 (GMT+1.0) 26th March 2023
# in /scratch/scratch/uccabz1/launch_tmp_michael
# on node-a14e-021
# by uccabz1
#
# compiler GCC version 4.9.2
# options -cpp -iprefix /scratch/UCL/applications/gcc/4.9.2/bin/../lib/gcc/x86_64-unknown-linux-gnu/4.9.2/ -mtune=corei7 -march=x86-64 -g -Og
#
# seed  -456506791  1699970507  1852044427  1852742092   -69652344   138886686  1513209184   696200730  -854833642   803894019  -998371340  1103176934
#
#      Author: C. J. Pickard (cjp20@cam.ac.uk)
#                Space group: C2/m
#

%BLOCK LATTICE_ABC
      2.51292      6.14594      6.56385
    117.91530     98.49210     90.00000
%ENDBLOCK LATTICE_ABC

%BLOCK POSITIONS_FRAC
  Li       -0.3991945        0.3980580       -0.2038839
  Li        0.3991945       -0.3980580        0.2038839
  Li        0.0000000        0.0000000        0.0000000
   N       -0.0282385       -0.0746473        0.3695788
   N        0.0282385       -0.4442261       -0.3695788
   N        0.0282385        0.0746473       -0.3695788
   N       -0.0282385        0.4442261        0.3695788
   N        0.0046432        0.2734375       -0.4531251
   N       -0.0046432       -0.2734375        0.4531251
%ENDBLOCK POSITIONS_FRAC

KPOINTS_MP_SPACING 0.07

%BLOCK SPECIES_POT
QC5
%ENDBLOCK SPECIES_POT

SNAP_TO_SYMMETRY
SYMMETRY_GENERATE

