#              Generated by Buildcell
#
# at 14:50:02 (GMT+1.0) 26th March 2023
# in /scratch/scratch/uccabz1/launch_tmp_michael
# on node-a14b-028
# by uccabz1
#
# compiler GCC version 4.9.2
# options -cpp -iprefix /scratch/UCL/applications/gcc/4.9.2/bin/../lib/gcc/x86_64-unknown-linux-gnu/4.9.2/ -mtune=corei7 -march=x86-64 -g -Og
#
# seed -1130990065  -158587920  1641666860    24376353   918314557  -367639013   141704180    -2078625  -381882694   151994451   824424974   357768514
#
#      Author: C. J. Pickard (cjp20@cam.ac.uk)
#                Space group: Cc
#

%BLOCK LATTICE_ABC
      4.61655      6.28880      6.86899
     62.75686     88.10524     85.85801
%ENDBLOCK LATTICE_ABC

%BLOCK POSITIONS_FRAC
  Li       -0.4462603       -0.1397521       -0.3706877
  Li        0.0537397        0.4895603        0.3706877
  Li       -0.1256709        0.4883872       -0.2753157
  Li        0.3743291        0.2130714        0.2753157
  Li        0.4055346       -0.2029167        0.3137506
  Li       -0.0944654        0.1108339       -0.3137506
   N        0.2222432       -0.2724855        0.1077116
   N       -0.2777568       -0.1647739       -0.1077116
   N        0.3018350       -0.3841557       -0.1476300
   N       -0.1981650        0.4682143        0.1476300
   N       -0.4232021        0.4010769        0.4589272
   N        0.0767979       -0.1399959       -0.4589272
   N        0.1143298        0.2013197       -0.1325100
   N       -0.3856702        0.0688097        0.1325100
   N        0.2421202       -0.3799473       -0.3629455
   N       -0.2578798        0.2571073        0.3629455
   N        0.3755386        0.3686736       -0.2944370
   N       -0.1244614        0.0742367        0.2944370
%ENDBLOCK POSITIONS_FRAC

KPOINTS_MP_SPACING 0.07

%BLOCK SPECIES_POT
QC5
%ENDBLOCK SPECIES_POT

SNAP_TO_SYMMETRY
SYMMETRY_GENERATE

