#              Generated by Buildcell
#
# at 14:50:01 (GMT+1.0) 26th March 2023
# in /scratch/scratch/uccabz1/launch_tmp_michael
# on node-a14c-005
# by uccabz1
#
# compiler GCC version 4.9.2
# options -cpp -iprefix /scratch/UCL/applications/gcc/4.9.2/bin/../lib/gcc/x86_64-unknown-linux-gnu/4.9.2/ -mtune=corei7 -march=x86-64 -g -Og
#
# seed  -219472331  1383184116 -2049409407  -380829401   396686991   597846153 -1407131777  -758995516 -1946197155  1684419752  1766853466  1416872689
#
#      Author: C. J. Pickard (cjp20@cam.ac.uk)
#                Space group: R3
#

%BLOCK LATTICE_ABC
      4.89684      4.89684      4.89684
     86.95285     86.95285     86.95285
%ENDBLOCK LATTICE_ABC

%BLOCK POSITIONS_FRAC
  Li       -0.2916469       -0.4864106        0.0048765
  Li        0.0048765       -0.2916469       -0.4864106
  Li       -0.4864106        0.0048765       -0.2916469
  Li       -0.4944268       -0.4944268       -0.4944268
   N        0.4971287        0.1725506        0.3047731
   N        0.3047731        0.4971287        0.1725506
   N        0.1725506        0.3047731        0.4971287
   N        0.0237000       -0.2673568       -0.0182053
   N       -0.0182053        0.0237000       -0.2673568
   N       -0.2673568       -0.0182053        0.0237000
   N        0.0321948        0.0321948        0.0321948
   N        0.2086059        0.2086059        0.2086059
%ENDBLOCK POSITIONS_FRAC

KPOINTS_MP_SPACING 0.07

%BLOCK SPECIES_POT
QC5
%ENDBLOCK SPECIES_POT

SNAP_TO_SYMMETRY
SYMMETRY_GENERATE

