#              Generated by Buildcell
#
# at 19:35:55 (GMT+1.0) 26th March 2023
# in /scratch/scratch/uccabz1/launch_tmp_michael
# on node-a14a-001
# by uccabz1
#
# compiler GCC version 4.9.2
# options -cpp -iprefix /scratch/UCL/applications/gcc/4.9.2/bin/../lib/gcc/x86_64-unknown-linux-gnu/4.9.2/ -mtune=corei7 -march=x86-64 -g -Og
#
# seed   302259784  -333901088  -513745709 -1300299125  1095283763  -920474338  1779639589   562594072  -433151952  -276766488  1819876345   473671124
#
#      Author: C. J. Pickard (cjp20@cam.ac.uk)
#                Space group: P3
#

%BLOCK LATTICE_ABC
      3.36928      3.36928      6.13349
     90.00000     90.00000    120.00000
%ENDBLOCK LATTICE_ABC

%BLOCK POSITIONS_FRAC
  Li        0.0000000       -0.0000000       -0.4503068
  Li       -0.3333333        0.3333333       -0.1573707
   N       -0.4626148       -0.4811430        0.1469720
   N        0.4811430        0.0185283        0.1469720
   N       -0.0185283        0.4626148        0.1469720
   N        0.0000000        0.0000000       -0.0000929
%ENDBLOCK POSITIONS_FRAC

KPOINTS_MP_SPACING 0.07

%BLOCK SPECIES_POT
QC5
%ENDBLOCK SPECIES_POT

SNAP_TO_SYMMETRY
SYMMETRY_GENERATE

