#              Generated by Buildcell
#
# at 20:18:45 (GMT+1.0) 26th March 2023
# in /scratch/scratch/uccabz1/launch_tmp_michael
# on node-a14b-031
# by uccabz1
#
# compiler GCC version 4.9.2
# options -cpp -iprefix /scratch/UCL/applications/gcc/4.9.2/bin/../lib/gcc/x86_64-unknown-linux-gnu/4.9.2/ -mtune=corei7 -march=x86-64 -g -Og
#
# seed  1500072084  1855976087  1345425494   217743062 -1849426483  -394985894  1767888371 -1526403927  2034791032 -1186770634  -484891143 -2039257217
#
#      Author: C. J. Pickard (cjp20@cam.ac.uk)
#                Space group: R3
#

%BLOCK LATTICE_ABC
      5.03377      5.03377      5.03377
     74.66029     74.66029     74.66029
%ENDBLOCK LATTICE_ABC

%BLOCK POSITIONS_FRAC
  Li       -0.0557431       -0.3882982        0.2175323
  Li        0.2175323       -0.0557431       -0.3882982
  Li       -0.3882982        0.2175323       -0.0557431
  Li        0.4634265        0.4634265        0.4634265
   N        0.3625127       -0.0564535       -0.0758064
   N       -0.0758064        0.3625127       -0.0564535
   N       -0.0564535       -0.0758064        0.3625127
   N       -0.1294750        0.2062665       -0.4107037
   N       -0.4107037       -0.1294750        0.2062665
   N        0.2062665       -0.4107037       -0.1294750
   N       -0.1170779       -0.1170779       -0.1170779
   N       -0.3195022       -0.3195022       -0.3195022
%ENDBLOCK POSITIONS_FRAC

KPOINTS_MP_SPACING 0.07

%BLOCK SPECIES_POT
QC5
%ENDBLOCK SPECIES_POT

SNAP_TO_SYMMETRY
SYMMETRY_GENERATE

