#              Generated by Buildcell
#
# at 18:56:44 (GMT+1.0) 26th March 2023
# in /scratch/scratch/uccabz1/launch_tmp_michael
# on node-a14e-007
# by uccabz1
#
# compiler GCC version 4.9.2
# options -cpp -iprefix /scratch/UCL/applications/gcc/4.9.2/bin/../lib/gcc/x86_64-unknown-linux-gnu/4.9.2/ -mtune=corei7 -march=x86-64 -g -Og
#
# seed  -176237097    25511725 -1028331218   159015604   801691263 -2075435113  -842614947 -1755242212 -1944460314  1246801840   723685300 -1152511659
#
#      Author: C. J. Pickard (cjp20@cam.ac.uk)
#                Space group: Cc
#

%BLOCK LATTICE_ABC
      3.77767      4.50100      4.57623
    114.84634     90.00000    114.81240
%ENDBLOCK LATTICE_ABC

%BLOCK POSITIONS_FRAC
  Li        0.1309801       -0.4714118       -0.3079597
  Li        0.3976082       -0.4714118        0.1920403
   N        0.1269873       -0.0016622       -0.3866530
   N       -0.1286495       -0.0016622        0.1133470
   N       -0.3445762        0.2256861        0.0388538
   N       -0.4297377        0.2256861       -0.4611462
%ENDBLOCK POSITIONS_FRAC

KPOINTS_MP_SPACING 0.07

%BLOCK SPECIES_POT
QC5
%ENDBLOCK SPECIES_POT

SNAP_TO_SYMMETRY
SYMMETRY_GENERATE

