#              Generated by Buildcell
#
# at 15:21:41 (GMT+1.0) 26th March 2023
# in /scratch/scratch/uccabz1/launch_tmp_michael
# on node-a14a-019
# by uccabz1
#
# compiler GCC version 4.9.2
# options -cpp -iprefix /scratch/UCL/applications/gcc/4.9.2/bin/../lib/gcc/x86_64-unknown-linux-gnu/4.9.2/ -mtune=corei7 -march=x86-64 -g -Og
#
# seed -1879106558  2015746702  -589698090  -701557365  1716075694  -156818084  -353825085 -2058049067 -1963799293  1329723621  1155878641  -793804342
#
#      Author: C. J. Pickard (cjp20@cam.ac.uk)
#                Space group: Pm
#

%BLOCK LATTICE_ABC
      3.12334      3.48053      6.14780
     90.00000     90.00000    112.08179
%ENDBLOCK LATTICE_ABC

%BLOCK POSITIONS_FRAC
  Li        0.4919634       -0.2975189       -0.2079552
  Li        0.4919634       -0.2975189        0.2079552
   N        0.1467951        0.0626992       -0.1219984
   N        0.1467951        0.0626992        0.1219984
   N       -0.2060831        0.2647982       -0.1221090
   N       -0.2060831        0.2647982        0.1221090
%ENDBLOCK POSITIONS_FRAC

KPOINTS_MP_SPACING 0.07

%BLOCK SPECIES_POT
QC5
%ENDBLOCK SPECIES_POT

SNAP_TO_SYMMETRY
SYMMETRY_GENERATE

