#              Generated by Buildcell
#
# at 16:52:36 (GMT+1.0) 26th March 2023
# in /scratch/scratch/uccabz1/launch_tmp_michael
# on node-a14b-031
# by uccabz1
#
# compiler GCC version 4.9.2
# options -cpp -iprefix /scratch/UCL/applications/gcc/4.9.2/bin/../lib/gcc/x86_64-unknown-linux-gnu/4.9.2/ -mtune=corei7 -march=x86-64 -g -Og
#
# seed  -117935024  1449505527  -568267508   527003995  2083354270 -1563226644  -144356090  1850587041  -651326804  -690468441 -1062782631  -290187550
#
#      Author: C. J. Pickard (cjp20@cam.ac.uk)
#                Space group: P3
#

%BLOCK LATTICE_ABC
      3.42701      3.42701      5.84506
     90.00000     90.00000    120.00000
%ENDBLOCK LATTICE_ABC

%BLOCK POSITIONS_FRAC
  Li       -0.3333333        0.3333333       -0.0331515
  Li       -0.3333333        0.3333333       -0.4609161
   N        0.3871191       -0.0580042        0.2864541
   N        0.0580042        0.4451233        0.2864541
   N       -0.4451233       -0.3871191        0.2864541
   N        0.3333333       -0.3333333       -0.2048072
%ENDBLOCK POSITIONS_FRAC

KPOINTS_MP_SPACING 0.07

%BLOCK SPECIES_POT
QC5
%ENDBLOCK SPECIES_POT

SNAP_TO_SYMMETRY
SYMMETRY_GENERATE

