#              Generated by Buildcell
#
# at 16:37:28 (GMT+1.0) 26th March 2023
# in /scratch/scratch/uccabz1/launch_tmp_michael
# on node-a14b-022
# by uccabz1
#
# compiler GCC version 4.9.2
# options -cpp -iprefix /scratch/UCL/applications/gcc/4.9.2/bin/../lib/gcc/x86_64-unknown-linux-gnu/4.9.2/ -mtune=corei7 -march=x86-64 -g -Og
#
# seed  -117638250  1942499187  1447898627 -1997561898   478874113 -1073587824   865503300 -1308511583 -1971607323  -660131693 -1463513165  1831323002
#
#      Author: C. J. Pickard (cjp20@cam.ac.uk)
#                Space group: Cm
#

%BLOCK LATTICE_ABC
      4.27747      4.27747      5.81370
     92.82698     92.82698    117.75148
%ENDBLOCK LATTICE_ABC

%BLOCK POSITIONS_FRAC
  Li       -0.1566881       -0.4978447        0.1570453
  Li       -0.4978447       -0.1566881        0.1570453
  Li        0.0509716        0.0509716       -0.4709616
   N       -0.0996440        0.2431747       -0.2246327
   N        0.2431747       -0.0996440       -0.2246327
   N       -0.0455071        0.1593136        0.0169577
   N        0.1593136       -0.0455071        0.0169577
   N        0.4005660        0.1827295        0.3124640
   N        0.1827295        0.4005660        0.3124640
%ENDBLOCK POSITIONS_FRAC

KPOINTS_MP_SPACING 0.07

%BLOCK SPECIES_POT
QC5
%ENDBLOCK SPECIES_POT

SNAP_TO_SYMMETRY
SYMMETRY_GENERATE

