#              Generated by Buildcell
#
# at 20:21:07 (GMT+1.0) 26th March 2023
# in /scratch/scratch/uccabz1/launch_tmp_michael
# on node-a14b-031
# by uccabz1
#
# compiler GCC version 4.9.2
# options -cpp -iprefix /scratch/UCL/applications/gcc/4.9.2/bin/../lib/gcc/x86_64-unknown-linux-gnu/4.9.2/ -mtune=corei7 -march=x86-64 -g -Og
#
# seed  1323026796  -442829254   493152030  1676880907  -149134094 -2104605886   713234950 -1859421681 -1026004128 -1808840435   949963788   990897351
#
#      Author: C. J. Pickard (cjp20@cam.ac.uk)
#                Space group: R3
#

%BLOCK LATTICE_ABC
      4.32215      4.32215      4.44810
     60.93238     60.93238     60.00000
%ENDBLOCK LATTICE_ABC

%BLOCK POSITIONS_FRAC
  Li       -0.2666917       -0.2666917       -0.1999248
  Li        0.3862458        0.3862458       -0.1587374
   N        0.1431289       -0.1994496        0.3643482
   N       -0.3080274        0.1431289        0.3643482
   N       -0.1994496       -0.3080274        0.3643482
   N       -0.4394535       -0.4394535        0.3183606
%ENDBLOCK POSITIONS_FRAC

KPOINTS_MP_SPACING 0.07

%BLOCK SPECIES_POT
QC5
%ENDBLOCK SPECIES_POT

SNAP_TO_SYMMETRY
SYMMETRY_GENERATE

