#              Generated by Buildcell
#
# at 15:24:25 (GMT+1.0) 26th March 2023
# in /scratch/scratch/uccabz1/launch_tmp_michael
# on node-a14a-001
# by uccabz1
#
# compiler GCC version 4.9.2
# options -cpp -iprefix /scratch/UCL/applications/gcc/4.9.2/bin/../lib/gcc/x86_64-unknown-linux-gnu/4.9.2/ -mtune=corei7 -march=x86-64 -g -Og
#
# seed    84780220 -1730677683  1012858006   673972542 -1933658965  1307037307  1865631155   206010268  2115642855   -70125781  -279625457  2021714116
#
#      Author: C. J. Pickard (cjp20@cam.ac.uk)
#                Space group: R3
#

%BLOCK LATTICE_ABC
      3.74600      5.44417      5.44417
    114.90354    103.25932    103.25932
%ENDBLOCK LATTICE_ABC

%BLOCK POSITIONS_FRAC
  Li        0.2429528        0.0923983       -0.3435859
  Li        0.1505545       -0.4359842       -0.0923983
  Li       -0.4134613        0.3435859        0.4359842
   N        0.3075738       -0.0588199        0.2916214
   N        0.3663937        0.3504413        0.0588199
   N        0.0159524       -0.2916214       -0.3504413
   N       -0.2711509       -0.1680701       -0.4476716
   N       -0.1030808       -0.2796015        0.1680701
   N        0.1765207        0.4476716        0.2796015
%ENDBLOCK POSITIONS_FRAC

KPOINTS_MP_SPACING 0.07

%BLOCK SPECIES_POT
QC5
%ENDBLOCK SPECIES_POT

SNAP_TO_SYMMETRY
SYMMETRY_GENERATE

