#              Generated by Buildcell
#
# at 15:40:39 (GMT+1.0) 26th March 2023
# in /scratch/scratch/uccabz1/launch_tmp_michael
# on node-a14c-005
# by uccabz1
#
# compiler GCC version 4.9.2
# options -cpp -iprefix /scratch/UCL/applications/gcc/4.9.2/bin/../lib/gcc/x86_64-unknown-linux-gnu/4.9.2/ -mtune=corei7 -march=x86-64 -g -Og
#
# seed -1241080879 -1835711647   907396850   975673287  -527692895   915896826   773295669  -217893527 -2048067268  1652114038  1931148701   560314406
#
#      Author: C. J. Pickard (cjp20@cam.ac.uk)
#                Space group: C2
#

%BLOCK LATTICE_ABC
      2.56318      4.29236      5.62999
     67.59165     89.99560     89.98845
%ENDBLOCK LATTICE_ABC

%BLOCK POSITIONS_FRAC
  Li       -0.2499999        0.3626462       -0.2252924
  Li        0.2499999       -0.1373539       -0.2252924
   N       -0.3876432       -0.3646679        0.0878135
   N        0.3876432        0.2768544        0.0878135
   N        0.2501891        0.3429124       -0.4683728
   N       -0.2501891        0.1254604       -0.4683728
%ENDBLOCK POSITIONS_FRAC

KPOINTS_MP_SPACING 0.07

%BLOCK SPECIES_POT
QC5
%ENDBLOCK SPECIES_POT

SNAP_TO_SYMMETRY
SYMMETRY_GENERATE

