#              Generated by Buildcell
#
# at 19:42:38 (GMT+1.0) 26th March 2023
# in /scratch/scratch/uccabz1/launch_tmp_michael
# on node-a14b-031
# by uccabz1
#
# compiler GCC version 4.9.2
# options -cpp -iprefix /scratch/UCL/applications/gcc/4.9.2/bin/../lib/gcc/x86_64-unknown-linux-gnu/4.9.2/ -mtune=corei7 -march=x86-64 -g -Og
#
# seed   460684425   301815565  1908110441   255930554 -1295416994  1772001410   732988888 -1569636957   983518543    23680434 -1257789148   769262190
#
#      Author: C. J. Pickard (cjp20@cam.ac.uk)
#                Space group: P2
#

%BLOCK LATTICE_ABC
      2.50000      4.38389      5.47797
     94.74746     90.00000     90.00000
%ENDBLOCK LATTICE_ABC

%BLOCK POSITIONS_FRAC
  Li        0.3001374       -0.1708096       -0.2077386
  Li        0.3001374        0.1708096        0.2077386
   N        0.4539633        0.2256582       -0.3060105
   N        0.4539633       -0.2256582        0.3060105
   N       -0.1997624        0.4956044        0.2632889
   N       -0.1997624       -0.4956044       -0.2632889
%ENDBLOCK POSITIONS_FRAC

KPOINTS_MP_SPACING 0.07

%BLOCK SPECIES_POT
QC5
%ENDBLOCK SPECIES_POT

SNAP_TO_SYMMETRY
SYMMETRY_GENERATE

