#              Generated by Buildcell
#
# at 18:10:51 (GMT+1.0) 26th March 2023
# in /scratch/scratch/uccabz1/launch_tmp_michael
# on node-a14e-021
# by uccabz1
#
# compiler GCC version 4.9.2
# options -cpp -iprefix /scratch/UCL/applications/gcc/4.9.2/bin/../lib/gcc/x86_64-unknown-linux-gnu/4.9.2/ -mtune=corei7 -march=x86-64 -g -Og
#
# seed   422850049  1320670749   493455094  -219226180 -1791099789  1772425983 -1308499402  1376227348 -1114892529  1096236185  1051274619 -1405063492
#
#      Author: C. J. Pickard (cjp20@cam.ac.uk)
#                Space group: C2
#

%BLOCK LATTICE_ABC
      4.82554      4.82554      5.06692
    107.95088    107.95088    109.71663
%ENDBLOCK LATTICE_ABC

%BLOCK POSITIONS_FRAC
  Li        0.1715293        0.3471710        0.2087671
  Li       -0.3471710       -0.1715293       -0.2087671
  Li        0.2407441       -0.2407441        0.0000000
   N       -0.1844768       -0.1373665        0.3891134
   N        0.1373665        0.1844768       -0.3891134
   N        0.0752969       -0.0674740       -0.2648164
   N        0.0674740       -0.0752969        0.2648164
   N        0.3797819       -0.1823684        0.4212237
   N        0.1823684       -0.3797819       -0.4212237
%ENDBLOCK POSITIONS_FRAC

KPOINTS_MP_SPACING 0.07

%BLOCK SPECIES_POT
QC5
%ENDBLOCK SPECIES_POT

SNAP_TO_SYMMETRY
SYMMETRY_GENERATE

