#              Generated by Buildcell
#
# at 20:15:47 (GMT+1.0) 26th March 2023
# in /scratch/scratch/uccabz1/launch_tmp_michael
# on node-a14f-035
# by uccabz1
#
# compiler GCC version 4.9.2
# options -cpp -iprefix /scratch/UCL/applications/gcc/4.9.2/bin/../lib/gcc/x86_64-unknown-linux-gnu/4.9.2/ -mtune=corei7 -march=x86-64 -g -Og
#
# seed   513567158 -1250696126  1983469159  2137771225  1227448316  -992790487 -1943477944 -1092014676  -828921865   282732422  -346474534  -941341414
#
#      Author: C. J. Pickard (cjp20@cam.ac.uk)
#                Space group: R3
#

%BLOCK LATTICE_ABC
      5.70408      5.70408      5.70408
     96.74189     96.74189     96.74189
%ENDBLOCK LATTICE_ABC

%BLOCK POSITIONS_FRAC
  Li        0.2496335        0.3393258       -0.2642998
  Li        0.3393258       -0.2642998        0.2496335
  Li       -0.2642998        0.2496335        0.3393258
  Li       -0.4448388       -0.0336295       -0.2316964
  Li       -0.0336295       -0.2316964       -0.4448388
  Li       -0.2316964       -0.4448388       -0.0336295
   N        0.3164756       -0.4905435        0.4680050
   N       -0.4905435        0.4680050        0.3164756
   N        0.4680050        0.3164756       -0.4905435
   N        0.1570280        0.0108280        0.2141912
   N        0.0108280        0.2141912        0.1570280
   N        0.2141912        0.1570280        0.0108280
   N        0.3049582        0.4092926        0.1192591
   N        0.4092926        0.1192591        0.3049582
   N        0.1192591        0.3049582        0.4092926
   N        0.3767110       -0.0286698        0.0426097
   N       -0.0286698        0.0426097        0.3767110
   N        0.0426097        0.3767110       -0.0286698
%ENDBLOCK POSITIONS_FRAC

KPOINTS_MP_SPACING 0.07

%BLOCK SPECIES_POT
QC5
%ENDBLOCK SPECIES_POT

SNAP_TO_SYMMETRY
SYMMETRY_GENERATE

