#              Generated by Buildcell
#
# at 17:50:00 (GMT+1.0) 26th March 2023
# in /scratch/scratch/uccabz1/launch_tmp_michael
# on node-a14e-021
# by uccabz1
#
# compiler GCC version 4.9.2
# options -cpp -iprefix /scratch/UCL/applications/gcc/4.9.2/bin/../lib/gcc/x86_64-unknown-linux-gnu/4.9.2/ -mtune=corei7 -march=x86-64 -g -Og
#
# seed   431209577   471598698   597117172   964605511 -1641659143  2001406531  1078731741   692351352    13101443 -1381882837   490621535  1583206599
#
#      Author: C. J. Pickard (cjp20@cam.ac.uk)
#                Space group: P21212
#

%BLOCK LATTICE_ABC
      3.01807      6.22178      9.62897
     90.00000     90.00000     90.00000
%ENDBLOCK LATTICE_ABC

%BLOCK POSITIONS_FRAC
  Li       -0.3533819        0.1878973       -0.1401010
  Li        0.3533819       -0.1878973       -0.1401010
  Li       -0.1466181       -0.3121027        0.1401010
  Li        0.1466181        0.3121027        0.1401010
  Li        0.0000000        0.0000000        0.2970355
  Li       -0.5000000        0.5000000       -0.2970355
   N        0.1791534       -0.2537931        0.3913231
   N       -0.1791534        0.2537931        0.3913231
   N        0.3208466        0.2462069       -0.3913231
   N       -0.3208466       -0.2462069       -0.3913231
   N        0.2271637        0.3785654        0.3519751
   N       -0.2271637       -0.3785654        0.3519751
   N        0.2728363       -0.1214346       -0.3519751
   N       -0.2728363        0.1214346       -0.3519751
   N        0.1524915       -0.0952901        0.0375326
   N       -0.1524915        0.0952901        0.0375326
   N        0.3475085        0.4047099       -0.0375326
   N       -0.3475085       -0.4047099       -0.0375326
%ENDBLOCK POSITIONS_FRAC

KPOINTS_MP_SPACING 0.07

%BLOCK SPECIES_POT
QC5
%ENDBLOCK SPECIES_POT

SNAP_TO_SYMMETRY
SYMMETRY_GENERATE

