#              Generated by Buildcell
#
# at 19:23:37 (GMT+1.0) 26th March 2023
# in /scratch/scratch/uccabz1/launch_tmp_michael
# on node-a14f-035
# by uccabz1
#
# compiler GCC version 4.9.2
# options -cpp -iprefix /scratch/UCL/applications/gcc/4.9.2/bin/../lib/gcc/x86_64-unknown-linux-gnu/4.9.2/ -mtune=corei7 -march=x86-64 -g -Og
#
# seed  -470566445  -334324210  -319546056 -1343813855  1432007905   539038122   456915407  1766407686  1681308242   483940276 -1086889805  -638363765
#
#      Author: C. J. Pickard (cjp20@cam.ac.uk)
#                Space group: R3
#

%BLOCK LATTICE_ABC
      5.22862      5.22862      5.22862
     67.99238     67.99238     67.99238
%ENDBLOCK LATTICE_ABC

%BLOCK POSITIONS_FRAC
  Li       -0.1807804        0.2722151        0.2157470
  Li        0.2722151        0.2157470       -0.1807804
  Li        0.2157470       -0.1807804        0.2722151
  Li       -0.0802424       -0.0802424       -0.0802424
   N        0.2380752        0.0692788       -0.4451696
   N        0.0692788       -0.4451696        0.2380752
   N       -0.4451696        0.2380752        0.0692788
   N       -0.4141626       -0.3942056        0.3397307
   N       -0.3942056        0.3397307       -0.4141626
   N        0.3397307       -0.4141626       -0.3942056
   N       -0.2397079       -0.2397079       -0.2397079
   N       -0.3667975       -0.3667975       -0.3667975
%ENDBLOCK POSITIONS_FRAC

KPOINTS_MP_SPACING 0.07

%BLOCK SPECIES_POT
QC5
%ENDBLOCK SPECIES_POT

SNAP_TO_SYMMETRY
SYMMETRY_GENERATE

