#              Generated by Buildcell
#
# at 17:35:05 (GMT+1.0) 26th March 2023
# in /scratch/scratch/uccabz1/launch_tmp_michael
# on node-a14a-019
# by uccabz1
#
# compiler GCC version 4.9.2
# options -cpp -iprefix /scratch/UCL/applications/gcc/4.9.2/bin/../lib/gcc/x86_64-unknown-linux-gnu/4.9.2/ -mtune=corei7 -march=x86-64 -g -Og
#
# seed   831602968  -789030626   847092665 -1142356268  -475993985  1040374983  1313350154  1246563301  -920532606 -1605980817   531034267 -2027806719
#
#      Author: C. J. Pickard (cjp20@cam.ac.uk)
#                Space group: P2
#

%BLOCK LATTICE_ABC
      2.74834      4.19759      5.45736
     90.00000     90.00000     90.30581
%ENDBLOCK LATTICE_ABC

%BLOCK POSITIONS_FRAC
  Li       -0.2500013       -0.2499993        0.3155587
  Li        0.2500013        0.2499993        0.3155587
   N        0.3648610       -0.3025113       -0.2547739
   N       -0.3648610        0.3025113       -0.2547739
   N        0.1241104       -0.2040722       -0.0193311
   N       -0.1241104        0.2040722       -0.0193311
%ENDBLOCK POSITIONS_FRAC

KPOINTS_MP_SPACING 0.07

%BLOCK SPECIES_POT
QC5
%ENDBLOCK SPECIES_POT

SNAP_TO_SYMMETRY
SYMMETRY_GENERATE

