#              Generated by Buildcell
#
# at 15:02:54 (GMT+1.0) 26th March 2023
# in /scratch/scratch/uccabz1/launch_tmp_michael
# on node-a14c-005
# by uccabz1
#
# compiler GCC version 4.9.2
# options -cpp -iprefix /scratch/UCL/applications/gcc/4.9.2/bin/../lib/gcc/x86_64-unknown-linux-gnu/4.9.2/ -mtune=corei7 -march=x86-64 -g -Og
#
# seed -1539654191  -723849226  1202279914  -693146630   -44322838 -1145857072  -222865320 -1080071262 -2067173672  1377456582  1783862179  -359887223
#
#      Author: C. J. Pickard (cjp20@cam.ac.uk)
#                Space group: P3
#

%BLOCK LATTICE_ABC
      5.84625      5.84625      6.36552
     90.00000     90.00000    120.00000
%ENDBLOCK LATTICE_ABC

%BLOCK POSITIONS_FRAC
  Li       -0.0563485        0.2138447        0.1845765
  Li       -0.2138447       -0.2701932        0.1845765
  Li        0.2701932        0.0563485        0.1845765
  Li       -0.0427347        0.3792064       -0.2185966
  Li       -0.3792064       -0.4219411       -0.2185966
  Li        0.4219411        0.0427347       -0.2185966
   N       -0.4900868        0.3155689       -0.0061027
   N       -0.3155689        0.1943444       -0.0061027
   N       -0.1943444        0.4900868       -0.0061027
   N        0.2078691       -0.2946598       -0.3424526
   N        0.2946598       -0.4974711       -0.3424526
   N        0.4974711       -0.2078691       -0.3424526
   N       -0.1401873       -0.3600001       -0.4425488
   N        0.3600001        0.2198128       -0.4425488
   N       -0.2198128        0.1401873       -0.4425488
   N       -0.3765500        0.1683763        0.2997817
   N       -0.1683763        0.4550737        0.2997817
   N       -0.4550737        0.3765500        0.2997817
%ENDBLOCK POSITIONS_FRAC

KPOINTS_MP_SPACING 0.07

%BLOCK SPECIES_POT
QC5
%ENDBLOCK SPECIES_POT

SNAP_TO_SYMMETRY
SYMMETRY_GENERATE

