#              Generated by Buildcell
#
# at 20:18:22 (GMT+1.0) 26th March 2023
# in /scratch/scratch/uccabz1/launch_tmp_michael
# on node-a14c-005
# by uccabz1
#
# compiler GCC version 4.9.2
# options -cpp -iprefix /scratch/UCL/applications/gcc/4.9.2/bin/../lib/gcc/x86_64-unknown-linux-gnu/4.9.2/ -mtune=corei7 -march=x86-64 -g -Og
#
# seed   910895049 -1723165732  -467568341 -1856942138 -2144364068  1500115364  1897442889 -1022751584  -871434131  -779567773 -1412544318  -716133465
#
#      Author: C. J. Pickard (cjp20@cam.ac.uk)
#                Space group: Pma2
#

%BLOCK LATTICE_ABC
      4.79217      5.01147      5.10779
     90.00000     90.00000     90.00000
%ENDBLOCK LATTICE_ABC

%BLOCK POSITIONS_FRAC
  Li        0.2938646        0.4995762        0.2547809
  Li        0.2938646       -0.4995762       -0.2547809
  Li        0.2938646       -0.0004238       -0.2547809
  Li        0.2938646        0.0004238        0.2547809
   N       -0.0857642        0.4068395        0.3654246
   N       -0.0857642       -0.4068395       -0.3654246
   N       -0.0857642       -0.0931605       -0.3654246
   N       -0.0857642        0.0931605        0.3654246
   N       -0.1967912        0.4227346       -0.1454554
   N       -0.1967912       -0.4227346        0.1454554
   N       -0.1967912       -0.0772654        0.1454554
   N       -0.1967912        0.0772654       -0.1454554
%ENDBLOCK POSITIONS_FRAC

KPOINTS_MP_SPACING 0.07

%BLOCK SPECIES_POT
QC5
%ENDBLOCK SPECIES_POT

SNAP_TO_SYMMETRY
SYMMETRY_GENERATE

