#              Generated by Buildcell
#
# at 17:06:58 (GMT+1.0) 26th March 2023
# in /scratch/scratch/uccabz1/launch_tmp_michael
# on node-a14c-005
# by uccabz1
#
# compiler GCC version 4.9.2
# options -cpp -iprefix /scratch/UCL/applications/gcc/4.9.2/bin/../lib/gcc/x86_64-unknown-linux-gnu/4.9.2/ -mtune=corei7 -march=x86-64 -g -Og
#
# seed  -610046299  1266917268  -556686610  -802550328 -1268997377 -1815559359 -1648940493  1120848362   284434068   999815981  2021693464 -1720374469
#
#      Author: C. J. Pickard (cjp20@cam.ac.uk)
#                Space group: P2
#

%BLOCK LATTICE_ABC
      4.25722      5.10064      8.79316
     90.00000     90.00000    104.21929
%ENDBLOCK LATTICE_ABC

%BLOCK POSITIONS_FRAC
  Li        0.2890200       -0.3674133        0.0406434
  Li       -0.2890200        0.3674133        0.0406434
  Li        0.1836569       -0.2674667       -0.2305833
  Li       -0.1836569        0.2674667       -0.2305833
  Li        0.2871673        0.2566614       -0.4594795
  Li       -0.2871673       -0.2566614       -0.4594795
   N        0.3142395        0.0832040        0.2068987
   N       -0.3142395       -0.0832040        0.2068987
   N        0.2926604        0.3917969       -0.2578847
   N       -0.2926604       -0.3917969       -0.2578847
   N       -0.3180839       -0.0128036        0.0347202
   N        0.3180839        0.0128036        0.0347202
   N       -0.2574786        0.3800786       -0.4309915
   N        0.2574786       -0.3800786       -0.4309915
   N       -0.1677360       -0.1004771       -0.2142009
   N        0.1677360        0.1004771       -0.2142009
   N       -0.3636110        0.3864036        0.4014690
   N        0.3636110       -0.3864036        0.4014690
%ENDBLOCK POSITIONS_FRAC

KPOINTS_MP_SPACING 0.07

%BLOCK SPECIES_POT
QC5
%ENDBLOCK SPECIES_POT

SNAP_TO_SYMMETRY
SYMMETRY_GENERATE

