#              Generated by Buildcell
#
# at 16:12:08 (GMT+1.0) 26th March 2023
# in /scratch/scratch/uccabz1/launch_tmp_michael
# on node-a14a-001
# by uccabz1
#
# compiler GCC version 4.9.2
# options -cpp -iprefix /scratch/UCL/applications/gcc/4.9.2/bin/../lib/gcc/x86_64-unknown-linux-gnu/4.9.2/ -mtune=corei7 -march=x86-64 -g -Og
#
# seed  -324252371   860871457 -1694762527   496986718   604956016 -1273520392 -2002879865 -1738848192  1213678766   929376810 -1501900845   383352387
#
#      Author: C. J. Pickard (cjp20@cam.ac.uk)
#                Space group: P2
#

%BLOCK LATTICE_ABC
      3.18075      6.93640      8.07722
    100.66060     90.00000     90.00000
%ENDBLOCK LATTICE_ABC

%BLOCK POSITIONS_FRAC
  Li       -0.4676888       -0.3271607       -0.3198360
  Li       -0.4676888        0.3271607        0.3198360
  Li       -0.3476356       -0.3423916        0.1560486
  Li       -0.3476356        0.3423916       -0.1560486
  Li        0.0424686        0.2286673        0.0768575
  Li        0.0424686       -0.2286673       -0.0768575
   N       -0.0111825       -0.4871178       -0.2718573
   N       -0.0111825        0.4871178        0.2718573
   N        0.3349646       -0.1000801        0.1197175
   N        0.3349646        0.1000801       -0.1197175
   N        0.0890323       -0.1295656        0.2720321
   N        0.0890323        0.1295656       -0.2720321
   N       -0.4575319       -0.0788884       -0.0772865
   N       -0.4575319        0.0788884        0.0772865
   N       -0.2669284       -0.0212213        0.2087586
   N       -0.2669284        0.0212213       -0.2087586
   N        0.0194225       -0.3803186        0.4909559
   N        0.0194225        0.3803186       -0.4909559
%ENDBLOCK POSITIONS_FRAC

KPOINTS_MP_SPACING 0.07

%BLOCK SPECIES_POT
QC5
%ENDBLOCK SPECIES_POT

SNAP_TO_SYMMETRY
SYMMETRY_GENERATE

