#              Generated by Buildcell
#
# at 14:50:02 (GMT+1.0) 26th March 2023
# in /scratch/scratch/uccabz1/launch_tmp_michael
# on node-a14b-031
# by uccabz1
#
# compiler GCC version 4.9.2
# options -cpp -iprefix /scratch/UCL/applications/gcc/4.9.2/bin/../lib/gcc/x86_64-unknown-linux-gnu/4.9.2/ -mtune=corei7 -march=x86-64 -g -Og
#
# seed  1940870190 -1710249027   160404412  -132635136    18432662  1305717350 -1994795862 -1806345099 -1523825437  2084495825  2006473153  -529974991
#
#      Author: C. J. Pickard (cjp20@cam.ac.uk)
#                Space group: Pc
#

%BLOCK LATTICE_ABC
      3.33747      3.68523      5.60333
     90.00000     90.00000    115.97060
%ENDBLOCK LATTICE_ABC

%BLOCK POSITIONS_FRAC
  Li        0.3663647       -0.3004002        0.1645265
  Li       -0.1336353        0.1995998       -0.1645265
   N       -0.0071865        0.4391973       -0.4743066
   N        0.4928135       -0.0608027        0.4743066
   N        0.2121454        0.1384386        0.1691151
   N       -0.2878546       -0.3615614       -0.1691151
%ENDBLOCK POSITIONS_FRAC

KPOINTS_MP_SPACING 0.07

%BLOCK SPECIES_POT
QC5
%ENDBLOCK SPECIES_POT

SNAP_TO_SYMMETRY
SYMMETRY_GENERATE

