#              Generated by Buildcell
#
# at 18:36:34 (GMT+1.0) 26th March 2023
# in /scratch/scratch/uccabz1/launch_tmp_michael
# on node-a14a-019
# by uccabz1
#
# compiler GCC version 4.9.2
# options -cpp -iprefix /scratch/UCL/applications/gcc/4.9.2/bin/../lib/gcc/x86_64-unknown-linux-gnu/4.9.2/ -mtune=corei7 -march=x86-64 -g -Og
#
# seed  1513122707  2129946099   720898597  -442259199 -1422061042  1019528640   658365356   662490304  -561444639   461185270 -1369790112   149036969
#
#      Author: C. J. Pickard (cjp20@cam.ac.uk)
#                Space group: Pma2
#

%BLOCK LATTICE_ABC
      3.69088      4.05768      4.20578
     90.00000     90.00000     90.00000
%ENDBLOCK LATTICE_ABC

%BLOCK POSITIONS_FRAC
  Li       -0.2500000        0.2222408       -0.2005010
  Li        0.2500000        0.2222408        0.2005010
   N       -0.4536400       -0.1377767        0.3262441
   N        0.4536400       -0.1377767       -0.3262441
   N        0.0463600       -0.1377767       -0.3262441
   N       -0.0463600       -0.1377767        0.3262441
%ENDBLOCK POSITIONS_FRAC

KPOINTS_MP_SPACING 0.07

%BLOCK SPECIES_POT
QC5
%ENDBLOCK SPECIES_POT

SNAP_TO_SYMMETRY
SYMMETRY_GENERATE

