#              Generated by Buildcell
#
# at 17:07:28 (GMT+1.0) 26th March 2023
# in /scratch/scratch/uccabz1/launch_tmp_michael
# on node-a14b-022
# by uccabz1
#
# compiler GCC version 4.9.2
# options -cpp -iprefix /scratch/UCL/applications/gcc/4.9.2/bin/../lib/gcc/x86_64-unknown-linux-gnu/4.9.2/ -mtune=corei7 -march=x86-64 -g -Og
#
# seed  1888055753  2030258748  -885301759  -231345186  1640424701 -1317160533 -1133904556  1563078491  -623665036  1152515175 -1028274893  -615238640
#
#      Author: C. J. Pickard (cjp20@cam.ac.uk)
#                Space group: Pm
#

%BLOCK LATTICE_ABC
      2.50003      4.57318      4.99992
     90.00000     90.00000     92.16484
%ENDBLOCK LATTICE_ABC

%BLOCK POSITIONS_FRAC
  Li       -0.3560279        0.2136942        0.2500000
  Li       -0.3560279        0.2136942       -0.2500000
   N        0.3000503       -0.1663228        0.1513105
   N        0.3000503       -0.1663228       -0.1513105
   N        0.1652155       -0.4691903        0.2546606
   N        0.1652155       -0.4691903       -0.2546606
%ENDBLOCK POSITIONS_FRAC

KPOINTS_MP_SPACING 0.07

%BLOCK SPECIES_POT
QC5
%ENDBLOCK SPECIES_POT

SNAP_TO_SYMMETRY
SYMMETRY_GENERATE

