#              Generated by Buildcell
#
# at 14:50:02 (GMT+1.0) 26th March 2023
# in /scratch/scratch/uccabz1/launch_tmp_michael
# on node-a14b-031
# by uccabz1
#
# compiler GCC version 4.9.2
# options -cpp -iprefix /scratch/UCL/applications/gcc/4.9.2/bin/../lib/gcc/x86_64-unknown-linux-gnu/4.9.2/ -mtune=corei7 -march=x86-64 -g -Og
#
# seed  1496935353  2017310319   452150349  2035738018 -1672683511 -1307326080   714445315  1720187403  1594075924  1811260582  1585926296 -1435698291
#
#      Author: C. J. Pickard (cjp20@cam.ac.uk)
#                Space group: C2
#

%BLOCK LATTICE_ABC
      2.50000      3.42833      7.06497
    104.04175     94.25694     90.00000
%ENDBLOCK LATTICE_ABC

%BLOCK POSITIONS_FRAC
  Li       -0.3462606        0.4846646       -0.3166222
  Li        0.3462606       -0.1987133        0.3166222
   N        0.0403341       -0.1304960       -0.4363882
   N       -0.0403341        0.3058923        0.4363882
   N       -0.1957973       -0.2746159        0.0955801
   N        0.1957973       -0.3701959       -0.0955801
%ENDBLOCK POSITIONS_FRAC

KPOINTS_MP_SPACING 0.07

%BLOCK SPECIES_POT
QC5
%ENDBLOCK SPECIES_POT

SNAP_TO_SYMMETRY
SYMMETRY_GENERATE

