#              Generated by Buildcell
#
# at 19:15:05 (GMT+1.0) 26th March 2023
# in /scratch/scratch/uccabz1/launch_tmp_michael
# on node-a14b-031
# by uccabz1
#
# compiler GCC version 4.9.2
# options -cpp -iprefix /scratch/UCL/applications/gcc/4.9.2/bin/../lib/gcc/x86_64-unknown-linux-gnu/4.9.2/ -mtune=corei7 -march=x86-64 -g -Og
#
# seed  1042304155  -867291842  2054022450 -1345713483  1924126867  -818414603 -1128159024 -1564088135 -2142595116   763094301   411081520   788071767
#
#      Author: C. J. Pickard (cjp20@cam.ac.uk)
#                Space group: Pnc2
#

%BLOCK LATTICE_ABC
      2.50000      3.06264      7.93025
     90.00000     90.00000     90.00000
%ENDBLOCK LATTICE_ABC

%BLOCK POSITIONS_FRAC
  Li        0.0000000       -0.5000000        0.0084158
  Li        0.5000000       -0.5000000       -0.4915842
   N        0.4175661        0.2361681       -0.2747833
   N       -0.4175661       -0.2361681       -0.2747833
   N        0.0824339        0.2361681        0.2252167
   N       -0.0824339       -0.2361681        0.2252167
%ENDBLOCK POSITIONS_FRAC

KPOINTS_MP_SPACING 0.07

%BLOCK SPECIES_POT
QC5
%ENDBLOCK SPECIES_POT

SNAP_TO_SYMMETRY
SYMMETRY_GENERATE

