#              Generated by Buildcell
#
# at 20:25:13 (GMT+1.0) 26th March 2023
# in /scratch/scratch/uccabz1/launch_tmp_michael
# on node-a14a-019
# by uccabz1
#
# compiler GCC version 4.9.2
# options -cpp -iprefix /scratch/UCL/applications/gcc/4.9.2/bin/../lib/gcc/x86_64-unknown-linux-gnu/4.9.2/ -mtune=corei7 -march=x86-64 -g -Og
#
# seed -1263875650  1340706031  1462785548 -1738571276 -1447567106   916678771  -521467658  -981118346 -1376339894  1154575059  2130202819  1232583768
#
#      Author: C. J. Pickard (cjp20@cam.ac.uk)
#                Space group: P21
#

%BLOCK LATTICE_ABC
      2.97914      3.57042      5.86498
     90.00000     90.00000     96.90110
%ENDBLOCK LATTICE_ABC

%BLOCK POSITIONS_FRAC
  Li       -0.1619417       -0.1543404        0.0520130
  Li        0.1619417        0.1543404       -0.4479870
   N        0.1429767       -0.4579603        0.2970869
   N       -0.1429767        0.4579603       -0.2029131
   N       -0.2521645       -0.1956704        0.3905455
   N        0.2521645        0.1956704       -0.1094545
%ENDBLOCK POSITIONS_FRAC

KPOINTS_MP_SPACING 0.07

%BLOCK SPECIES_POT
QC5
%ENDBLOCK SPECIES_POT

SNAP_TO_SYMMETRY
SYMMETRY_GENERATE

