#              Generated by Buildcell
#
# at 16:43:43 (GMT+1.0) 26th March 2023
# in /scratch/scratch/uccabz1/launch_tmp_michael
# on node-a14c-005
# by uccabz1
#
# compiler GCC version 4.9.2
# options -cpp -iprefix /scratch/UCL/applications/gcc/4.9.2/bin/../lib/gcc/x86_64-unknown-linux-gnu/4.9.2/ -mtune=corei7 -march=x86-64 -g -Og
#
# seed -1768528949  -858465641  1648133632  2132273692   419713999  1858939490   -61820280 -1832774192   292960624  -215051975 -1736831733  1969828290
#
#      Author: C. J. Pickard (cjp20@cam.ac.uk)
#                Space group: Cm
#

%BLOCK LATTICE_ABC
      2.75474      6.21922      7.85102
    113.33317     96.23158     90.00000
%ENDBLOCK LATTICE_ABC

%BLOCK POSITIONS_FRAC
  Li        0.3067687       -0.2953367        0.0073468
  Li        0.3067687        0.3026835        0.0073468
  Li       -0.2956622        0.0633477       -0.2752861
  Li       -0.2956622       -0.3386338       -0.2752861
   N        0.4219228        0.4353875        0.2752047
   N        0.4219228       -0.1601828        0.2752047
   N        0.4491176        0.0881783        0.4175583
   N        0.4491176        0.3293799        0.4175583
   N        0.0913671        0.2183114        0.1953763
   N        0.0913671       -0.0229351        0.1953763
   N       -0.0322938        0.0523305        0.4776452
   N       -0.0322938        0.4253147        0.4776452
%ENDBLOCK POSITIONS_FRAC

KPOINTS_MP_SPACING 0.07

%BLOCK SPECIES_POT
QC5
%ENDBLOCK SPECIES_POT

SNAP_TO_SYMMETRY
SYMMETRY_GENERATE

