#              Generated by Buildcell
#
# at 20:08:58 (GMT+1.0) 26th March 2023
# in /scratch/scratch/uccabz1/launch_tmp_michael
# on node-a14f-035
# by uccabz1
#
# compiler GCC version 4.9.2
# options -cpp -iprefix /scratch/UCL/applications/gcc/4.9.2/bin/../lib/gcc/x86_64-unknown-linux-gnu/4.9.2/ -mtune=corei7 -march=x86-64 -g -Og
#
# seed    51408057 -1543746937  1549891514  -982024677   937915531     9631971   361874396 -1722589539  1562940919 -1836458650 -1506551117  -875410109
#
#      Author: C. J. Pickard (cjp20@cam.ac.uk)
#                Space group: C2/m
#

%BLOCK LATTICE_ABC
      4.01078      4.01078      6.25843
     74.12675     74.12675     84.80999
%ENDBLOCK LATTICE_ABC

%BLOCK POSITIONS_FRAC
  Li       -0.2444413       -0.2444413       -0.2510457
  Li        0.2444413        0.2444413        0.2510457
  Li       -0.0000000       -0.0000000        0.0000000
   N       -0.1896086       -0.4669548       -0.4917081
   N        0.4669548        0.1896086        0.4917081
   N        0.1896086        0.4669548        0.4917081
   N       -0.4669548       -0.1896086       -0.4917081
   N       -0.1609843        0.1609843       -0.5000000
   N        0.1609843       -0.1609843        0.5000000
%ENDBLOCK POSITIONS_FRAC

KPOINTS_MP_SPACING 0.07

%BLOCK SPECIES_POT
QC5
%ENDBLOCK SPECIES_POT

SNAP_TO_SYMMETRY
SYMMETRY_GENERATE

