#              Generated by Buildcell
#
# at 18:38:23 (GMT+1.0) 26th March 2023
# in /scratch/scratch/uccabz1/launch_tmp_michael
# on node-a14e-021
# by uccabz1
#
# compiler GCC version 4.9.2
# options -cpp -iprefix /scratch/UCL/applications/gcc/4.9.2/bin/../lib/gcc/x86_64-unknown-linux-gnu/4.9.2/ -mtune=corei7 -march=x86-64 -g -Og
#
# seed   966398995  -874795844  1399205746   274693020   871260793  1278708329  2064534332  1297110191   912553081 -1496040389   383352387   412821938
#
#      Author: C. J. Pickard (cjp20@cam.ac.uk)
#                Space group: P3
#

%BLOCK LATTICE_ABC
      2.66281      2.66281      9.29637
     90.00000     90.00000    120.00000
%ENDBLOCK LATTICE_ABC

%BLOCK POSITIONS_FRAC
  Li        0.3333333       -0.3333333       -0.0797143
  Li        0.3333333       -0.3333333        0.3336466
   N        0.3174639       -0.0163282       -0.4836348
   N       -0.3337921       -0.3174639       -0.4836348
   N        0.0163282        0.3337921       -0.4836348
   N        0.3333333       -0.3333333        0.1263382
%ENDBLOCK POSITIONS_FRAC

KPOINTS_MP_SPACING 0.07

%BLOCK SPECIES_POT
QC5
%ENDBLOCK SPECIES_POT

SNAP_TO_SYMMETRY
SYMMETRY_GENERATE

