#              Generated by Buildcell
#
# at 20:22:37 (GMT+1.0) 26th March 2023
# in /scratch/scratch/uccabz1/launch_tmp_michael
# on node-a14b-022
# by uccabz1
#
# compiler GCC version 4.9.2
# options -cpp -iprefix /scratch/UCL/applications/gcc/4.9.2/bin/../lib/gcc/x86_64-unknown-linux-gnu/4.9.2/ -mtune=corei7 -march=x86-64 -g -Og
#
# seed   973276619 -2124977147  -985726716  -334306135  1216969785   163801005  -469270562   616878696   252819222 -1126864407   336195480   308791220
#
#      Author: C. J. Pickard (cjp20@cam.ac.uk)
#                Space group: Cmm2
#

%BLOCK LATTICE_ABC
      3.00000      4.23164      4.74341
     90.00000    108.43499     90.00000
%ENDBLOCK LATTICE_ABC

%BLOCK POSITIONS_FRAC
  Li        0.1388889        0.3545607        0.2777778
  Li       -0.1388889        0.3545607       -0.2777778
   N        0.1566980       -0.2435176       -0.1866035
   N       -0.1566980       -0.2435176        0.1866035
   N       -0.3433015       -0.2435176       -0.1866035
   N        0.3433015       -0.2435176        0.1866035
%ENDBLOCK POSITIONS_FRAC

KPOINTS_MP_SPACING 0.07

%BLOCK SPECIES_POT
QC5
%ENDBLOCK SPECIES_POT

SNAP_TO_SYMMETRY
SYMMETRY_GENERATE

