#              Generated by Buildcell
#
# at 20:08:43 (GMT+1.0) 26th March 2023
# in /scratch/scratch/uccabz1/launch_tmp_michael
# on node-a14c-005
# by uccabz1
#
# compiler GCC version 4.9.2
# options -cpp -iprefix /scratch/UCL/applications/gcc/4.9.2/bin/../lib/gcc/x86_64-unknown-linux-gnu/4.9.2/ -mtune=corei7 -march=x86-64 -g -Og
#
# seed -1611489792   -69738872   451806567 -1549787340  -558660819  1588531565 -1204200537   566377992  -766265524   794543217  1936524056  1954367739
#
#      Author: C. J. Pickard (cjp20@cam.ac.uk)
#                Space group: Aea2
#

%BLOCK LATTICE_ABC
      3.99848      5.14499      5.96410
     90.00000    109.58547     90.00000
%ENDBLOCK LATTICE_ABC

%BLOCK POSITIONS_FRAC
  Li       -0.0887603        0.3958713       -0.4064630
  Li        0.3177027       -0.3958713        0.4064630
  Li       -0.1822973       -0.1041287        0.4064630
  Li        0.4112397        0.1041287       -0.4064630
   N       -0.2829649        0.2563016        0.1542553
   N       -0.4372202       -0.2563016       -0.1542553
   N        0.0627798       -0.2436984       -0.1542553
   N        0.2170351        0.2436984        0.1542553
   N       -0.4047298        0.4099013       -0.2294578
   N       -0.1752720       -0.4099013        0.2294578
   N        0.3247280       -0.0900987        0.2294578
   N        0.0952702        0.0900987       -0.2294578
%ENDBLOCK POSITIONS_FRAC

KPOINTS_MP_SPACING 0.07

%BLOCK SPECIES_POT
QC5
%ENDBLOCK SPECIES_POT

SNAP_TO_SYMMETRY
SYMMETRY_GENERATE

