#              Generated by Buildcell
#
# at 17:40:42 (GMT+1.0) 26th March 2023
# in /scratch/scratch/uccabz1/launch_tmp_michael
# on node-a14e-021
# by uccabz1
#
# compiler GCC version 4.9.2
# options -cpp -iprefix /scratch/UCL/applications/gcc/4.9.2/bin/../lib/gcc/x86_64-unknown-linux-gnu/4.9.2/ -mtune=corei7 -march=x86-64 -g -Og
#
# seed -1443363077   587930001 -1855681336   131303194  -756791448  1446486421 -1300644951 -1470933035    16943780 -1605410372  1254971536  -554599585
#
#      Author: C. J. Pickard (cjp20@cam.ac.uk)
#                Space group: R3
#

%BLOCK LATTICE_ABC
      4.03210      4.03210      4.71407
     64.68045     64.68045     60.00000
%ENDBLOCK LATTICE_ABC

%BLOCK POSITIONS_FRAC
  Li       -0.2207232       -0.2207232       -0.3378303
  Li       -0.0174300       -0.0174300        0.0522899
   N       -0.0683930       -0.4721365        0.0743013
   N        0.4662282       -0.0683930        0.0743013
   N       -0.4721365        0.4662282        0.0743013
   N        0.1370734        0.1370734       -0.4112201
%ENDBLOCK POSITIONS_FRAC

KPOINTS_MP_SPACING 0.07

%BLOCK SPECIES_POT
QC5
%ENDBLOCK SPECIES_POT

SNAP_TO_SYMMETRY
SYMMETRY_GENERATE

