#              Generated by Buildcell
#
# at 17:49:58 (GMT+1.0) 26th March 2023
# in /scratch/scratch/uccabz1/launch_tmp_michael
# on node-a14e-021
# by uccabz1
#
# compiler GCC version 4.9.2
# options -cpp -iprefix /scratch/UCL/applications/gcc/4.9.2/bin/../lib/gcc/x86_64-unknown-linux-gnu/4.9.2/ -mtune=corei7 -march=x86-64 -g -Og
#
# seed -1267670604 -1395230823 -1734624832  1541951207  1816549846   835257293   985331945  2052756860   679316463  1058814147  -465795763   191481155
#
#      Author: C. J. Pickard (cjp20@cam.ac.uk)
#                Space group: P3
#

%BLOCK LATTICE_ABC
      3.19166      6.52352      6.52352
    120.00000     90.00000     90.00000
%ENDBLOCK LATTICE_ABC

%BLOCK POSITIONS_FRAC
  Li        0.1700887        0.2948750        0.0744394
  Li        0.1700887       -0.0744394        0.2204356
  Li        0.1700887       -0.2204356       -0.2948750
  Li       -0.4321909       -0.3333333        0.3333333
   N       -0.3089697        0.4169288        0.4454107
   N       -0.3089697       -0.4454107       -0.0284819
   N       -0.3089697        0.0284819       -0.4169288
   N       -0.3249242        0.2031151        0.1905318
   N       -0.3249242       -0.1905318        0.0125833
   N       -0.3249242       -0.0125833       -0.2031151
   N       -0.0742159        0.0000000        0.0000000
   N        0.2080396        0.3333333       -0.3333333
%ENDBLOCK POSITIONS_FRAC

KPOINTS_MP_SPACING 0.07

%BLOCK SPECIES_POT
QC5
%ENDBLOCK SPECIES_POT

SNAP_TO_SYMMETRY
SYMMETRY_GENERATE

