#              Generated by Buildcell
#
# at 16:11:13 (GMT+1.0) 26th March 2023
# in /scratch/scratch/uccabz1/launch_tmp_michael
# on node-a14e-007
# by uccabz1
#
# compiler GCC version 4.9.2
# options -cpp -iprefix /scratch/UCL/applications/gcc/4.9.2/bin/../lib/gcc/x86_64-unknown-linux-gnu/4.9.2/ -mtune=corei7 -march=x86-64 -g -Og
#
# seed  1272108240  1680940084  1778093439 -1278665934   896041612  -139231685  -761183224   456693406 -1573752172   640624982   622906567  -529028261
#
#      Author: C. J. Pickard (cjp20@cam.ac.uk)
#                Space group: C2
#

%BLOCK LATTICE_ABC
      2.62565      6.32090      6.38002
     60.30608     89.94077     89.88044
%ENDBLOCK LATTICE_ABC

%BLOCK POSITIONS_FRAC
  Li        0.3315049        0.1960602        0.2382584
  Li       -0.3315049       -0.4343186        0.2382584
  Li        0.5000000       -0.3508682       -0.2982636
   N        0.0478376       -0.3879170        0.4664226
   N       -0.0478376       -0.0785056        0.4664226
   N        0.2456826       -0.2931092       -0.0521231
   N       -0.2456826        0.3452323       -0.0521231
   N       -0.2418805       -0.0913796        0.0566024
   N        0.2418805        0.0347772        0.0566024
%ENDBLOCK POSITIONS_FRAC

KPOINTS_MP_SPACING 0.07

%BLOCK SPECIES_POT
QC5
%ENDBLOCK SPECIES_POT

SNAP_TO_SYMMETRY
SYMMETRY_GENERATE

