#              Generated by Buildcell
#
# at 19:47:10 (GMT+1.0) 26th March 2023
# in /scratch/scratch/uccabz1/launch_tmp_michael
# on node-a14c-005
# by uccabz1
#
# compiler GCC version 4.9.2
# options -cpp -iprefix /scratch/UCL/applications/gcc/4.9.2/bin/../lib/gcc/x86_64-unknown-linux-gnu/4.9.2/ -mtune=corei7 -march=x86-64 -g -Og
#
# seed  -973051785  -234577989  1480722806   539502001  1354515971   524839028   488561311  1537159051   501495488   373539681   625750796 -1119886010
#
#      Author: C. J. Pickard (cjp20@cam.ac.uk)
#                Space group: Pc
#

%BLOCK LATTICE_ABC
      3.33621      5.83524      6.28164
     90.00000     90.00000     91.81606
%ENDBLOCK LATTICE_ABC

%BLOCK POSITIONS_FRAC
  Li       -0.1399964        0.4625372       -0.0429641
  Li        0.3600036       -0.0374628        0.0429641
  Li       -0.3335896       -0.3512288       -0.3934558
  Li        0.1664104        0.1487712        0.3934558
   N       -0.4212361        0.2959924        0.1834329
   N        0.0787639       -0.2040076       -0.1834329
   N        0.1363956        0.1584092       -0.3046368
   N       -0.3636044       -0.3415908        0.3046368
   N        0.0508583       -0.2968122        0.1378045
   N       -0.4491417        0.2031878       -0.1378045
   N       -0.1745825        0.0028128       -0.2026497
   N        0.3254175       -0.4971872        0.2026497
%ENDBLOCK POSITIONS_FRAC

KPOINTS_MP_SPACING 0.07

%BLOCK SPECIES_POT
QC5
%ENDBLOCK SPECIES_POT

SNAP_TO_SYMMETRY
SYMMETRY_GENERATE

