#              Generated by Buildcell
#
# at 18:37:21 (GMT+1.0) 26th March 2023
# in /scratch/scratch/uccabz1/launch_tmp_michael
# on node-a14a-019
# by uccabz1
#
# compiler GCC version 4.9.2
# options -cpp -iprefix /scratch/UCL/applications/gcc/4.9.2/bin/../lib/gcc/x86_64-unknown-linux-gnu/4.9.2/ -mtune=corei7 -march=x86-64 -g -Og
#
# seed  -494865924  1466864535  1262465126  1985345985 -1457668992  -845345508 -1666496214  1649650446 -1379007583  1583601335 -1730900142 -1453483473
#
#      Author: C. J. Pickard (cjp20@cam.ac.uk)
#                Space group: P32
#

%BLOCK LATTICE_ABC
      3.65354      3.65354      7.92239
     90.00000     90.00000    120.00000
%ENDBLOCK LATTICE_ABC

%BLOCK POSITIONS_FRAC
  Li       -0.2701996       -0.2902946        0.4972309
  Li        0.2902946        0.0200950        0.1638976
  Li       -0.0200950        0.2701996       -0.1694358
   N       -0.3630259        0.2714588       -0.3495054
   N       -0.2714588        0.3655153        0.3171612
   N       -0.3655153        0.3630259       -0.0161721
   N        0.4353836       -0.2926574       -0.2923917
   N        0.2926574       -0.2719591        0.3742750
   N        0.2719591       -0.4353836        0.0409416
%ENDBLOCK POSITIONS_FRAC

KPOINTS_MP_SPACING 0.07

%BLOCK SPECIES_POT
QC5
%ENDBLOCK SPECIES_POT

SNAP_TO_SYMMETRY
SYMMETRY_GENERATE

