#              Generated by Buildcell
#
# at 19:00:21 (GMT+1.0) 26th March 2023
# in /scratch/scratch/uccabz1/launch_tmp_michael
# on node-a14a-001
# by uccabz1
#
# compiler GCC version 4.9.2
# options -cpp -iprefix /scratch/UCL/applications/gcc/4.9.2/bin/../lib/gcc/x86_64-unknown-linux-gnu/4.9.2/ -mtune=corei7 -march=x86-64 -g -Og
#
# seed  1266868817 -1136330998  1282283557  1004972574  2074632801 -2134252832   986986971   892439896 -1030494148 -1937857262   366135915  1770095146
#
#      Author: C. J. Pickard (cjp20@cam.ac.uk)
#                Space group: P21
#

%BLOCK LATTICE_ABC
      4.37655      6.15652      7.33394
    112.61559     90.00000     90.00000
%ENDBLOCK LATTICE_ABC

%BLOCK POSITIONS_FRAC
  Li        0.3207615       -0.2290711       -0.4406298
  Li       -0.1792385        0.2290711        0.4406298
  Li        0.3633449        0.3655432        0.2908290
  Li       -0.1366551       -0.3655432       -0.2908290
  Li        0.2152156       -0.4558470       -0.0607285
  Li       -0.2847844        0.4558470        0.0607285
   N       -0.0634267       -0.1182390       -0.0292273
   N        0.4365733        0.1182390        0.0292273
   N        0.4721718       -0.1529452        0.2350367
   N       -0.0278282        0.1529452       -0.2350367
   N        0.4969159       -0.2691682       -0.1345293
   N       -0.0030841        0.2691682        0.1345293
   N        0.0532306       -0.0650240       -0.2006927
   N       -0.4467694        0.0650240        0.2006927
   N       -0.2609053        0.2986005       -0.2870474
   N        0.2390947       -0.2986005        0.2870474
   N       -0.3740077       -0.0541994        0.4896074
   N        0.1259923        0.0541994       -0.4896074
%ENDBLOCK POSITIONS_FRAC

KPOINTS_MP_SPACING 0.07

%BLOCK SPECIES_POT
QC5
%ENDBLOCK SPECIES_POT

SNAP_TO_SYMMETRY
SYMMETRY_GENERATE

