#              Generated by Buildcell
#
# at 20:07:15 (GMT+1.0) 26th March 2023
# in /scratch/scratch/uccabz1/launch_tmp_michael
# on node-a14b-028
# by uccabz1
#
# compiler GCC version 4.9.2
# options -cpp -iprefix /scratch/UCL/applications/gcc/4.9.2/bin/../lib/gcc/x86_64-unknown-linux-gnu/4.9.2/ -mtune=corei7 -march=x86-64 -g -Og
#
# seed  -643590974  1311145059 -1062196560   162531654   318360085 -1875912677  -603616685 -1400114770 -1411694736  1508093444 -1405918828  -843889731
#
#      Author: C. J. Pickard (cjp20@cam.ac.uk)
#                Space group: R3
#

%BLOCK LATTICE_ABC
      4.78457      4.78457      4.78457
     68.07395     68.07395     68.07395
%ENDBLOCK LATTICE_ABC

%BLOCK POSITIONS_FRAC
  Li        0.2090291        0.3427778       -0.2719410
  Li        0.3427778       -0.2719410        0.2090291
  Li       -0.2719410        0.2090291        0.3427778
   N       -0.4127951       -0.0915068       -0.2848322
   N       -0.0915068       -0.2848322       -0.4127951
   N       -0.2848322       -0.4127951       -0.0915068
   N        0.2607917        0.3997280        0.0763349
   N        0.3997280        0.0763349        0.2607917
   N        0.0763349        0.2607917        0.3997280
%ENDBLOCK POSITIONS_FRAC

KPOINTS_MP_SPACING 0.07

%BLOCK SPECIES_POT
QC5
%ENDBLOCK SPECIES_POT

SNAP_TO_SYMMETRY
SYMMETRY_GENERATE

