#              Generated by Buildcell
#
# at 16:29:15 (GMT+1.0) 26th March 2023
# in /scratch/scratch/uccabz1/launch_tmp_michael
# on node-a14b-022
# by uccabz1
#
# compiler GCC version 4.9.2
# options -cpp -iprefix /scratch/UCL/applications/gcc/4.9.2/bin/../lib/gcc/x86_64-unknown-linux-gnu/4.9.2/ -mtune=corei7 -march=x86-64 -g -Og
#
# seed   651078798  -149717506  1522549376 -1159496566  1510693473 -1540959420  1357154249 -1459813710 -1436976928   576844504  1345532656  1379985686
#
#      Author: C. J. Pickard (cjp20@cam.ac.uk)
#                Space group: P3
#

%BLOCK LATTICE_ABC
      3.86238      3.86238      4.67559
     90.00000     90.00000    120.00000
%ENDBLOCK LATTICE_ABC

%BLOCK POSITIONS_FRAC
  Li        0.3333333       -0.3333333       -0.2492326
  Li       -0.3333333        0.3333333       -0.0075108
   N        0.2341279        0.4053121        0.3909086
   N       -0.4053121       -0.1711842        0.3909086
   N        0.1711842       -0.2341279        0.3909086
   N       -0.3333333        0.3333333        0.4029459
%ENDBLOCK POSITIONS_FRAC

KPOINTS_MP_SPACING 0.07

%BLOCK SPECIES_POT
QC5
%ENDBLOCK SPECIES_POT

SNAP_TO_SYMMETRY
SYMMETRY_GENERATE

