#              Generated by Buildcell
#
# at 16:27:11 (GMT+1.0) 26th March 2023
# in /scratch/scratch/uccabz1/launch_tmp_michael
# on node-a14b-031
# by uccabz1
#
# compiler GCC version 4.9.2
# options -cpp -iprefix /scratch/UCL/applications/gcc/4.9.2/bin/../lib/gcc/x86_64-unknown-linux-gnu/4.9.2/ -mtune=corei7 -march=x86-64 -g -Og
#
# seed   680099141   220209866  1197875189 -1188888079   957515426   637533313  -570077632  1994556374 -1900955629   673831554   193371158   -71575628
#
#      Author: C. J. Pickard (cjp20@cam.ac.uk)
#                Space group: Cc
#

%BLOCK LATTICE_ABC
      5.56450      5.56450      7.04938
     98.10568    108.62801    114.62735
%ENDBLOCK LATTICE_ABC

%BLOCK POSITIONS_FRAC
  Li       -0.0322506       -0.4278659        0.3878092
  Li        0.3156751        0.4200598       -0.1121908
  Li       -0.4997505        0.1721842        0.3722465
  Li       -0.2999377       -0.1280030       -0.1277535
  Li        0.4795054       -0.3779039        0.4795327
  Li        0.3574366        0.0000273       -0.0204673
   N        0.0161048        0.2450574        0.3578947
   N       -0.3871627        0.3417898       -0.1421053
   N        0.3078652       -0.2801794       -0.3432843
   N        0.4368950        0.3488505        0.1567157
   N        0.1651450        0.3973031       -0.4072774
   N       -0.3045805        0.4275776        0.0927226
   N       -0.0269188        0.0883810       -0.3110240
   N        0.1005950       -0.2841051        0.1889760
   N       -0.0786715        0.3189397       -0.1662260
   N        0.0148342       -0.0875546        0.3337740
   N       -0.4375561       -0.3328706        0.2216633
   N        0.0545339       -0.3407806       -0.2783367
%ENDBLOCK POSITIONS_FRAC

KPOINTS_MP_SPACING 0.07

%BLOCK SPECIES_POT
QC5
%ENDBLOCK SPECIES_POT

SNAP_TO_SYMMETRY
SYMMETRY_GENERATE

