#              Generated by Buildcell
#
# at 17:28:21 (GMT+1.0) 26th March 2023
# in /scratch/scratch/uccabz1/launch_tmp_michael
# on node-a14b-022
# by uccabz1
#
# compiler GCC version 4.9.2
# options -cpp -iprefix /scratch/UCL/applications/gcc/4.9.2/bin/../lib/gcc/x86_64-unknown-linux-gnu/4.9.2/ -mtune=corei7 -march=x86-64 -g -Og
#
# seed -1286539713   157924171   938491565    49833513 -1829816489   -54682966 -1797402822  1690315934  2122765213 -1442435275  1295007262 -1079972415
#
#      Author: C. J. Pickard (cjp20@cam.ac.uk)
#                Space group: Pm
#

%BLOCK LATTICE_ABC
      3.10649      6.11430      6.40702
     90.00000     90.00000     91.54177
%ENDBLOCK LATTICE_ABC

%BLOCK POSITIONS_FRAC
  Li       -0.2867650        0.0609581        0.3049049
  Li       -0.2867650        0.0609581       -0.3049049
  Li       -0.3357816        0.4684032       -0.3049027
  Li       -0.3357816        0.4684032        0.3049027
   N        0.0237091       -0.1163201       -0.1170584
   N        0.0237091       -0.1163201        0.1170584
   N        0.2497678        0.1037495       -0.1170686
   N        0.2497678        0.1037495        0.1170686
   N        0.0083675       -0.3617313       -0.1170873
   N        0.0083675       -0.3617313        0.1170873
   N        0.2063800        0.3474923       -0.1181406
   N        0.2063800        0.3474923        0.1181406
%ENDBLOCK POSITIONS_FRAC

KPOINTS_MP_SPACING 0.07

%BLOCK SPECIES_POT
QC5
%ENDBLOCK SPECIES_POT

SNAP_TO_SYMMETRY
SYMMETRY_GENERATE

