#              Generated by Buildcell
#
# at 19:53:00 (GMT+1.0) 26th March 2023
# in /scratch/scratch/uccabz1/launch_tmp_michael
# on node-a14e-007
# by uccabz1
#
# compiler GCC version 4.9.2
# options -cpp -iprefix /scratch/UCL/applications/gcc/4.9.2/bin/../lib/gcc/x86_64-unknown-linux-gnu/4.9.2/ -mtune=corei7 -march=x86-64 -g -Og
#
# seed  -222040340  1637158151  -967091582 -1616952748   578740656    94155800  -938180636  1872790694 -1332217934  1220580916  -186440287   645346457
#
#      Author: C. J. Pickard (cjp20@cam.ac.uk)
#                Space group: C2
#

%BLOCK LATTICE_ABC
      4.15052      4.51271      5.43718
     65.48155     81.28585     68.58722
%ENDBLOCK LATTICE_ABC

%BLOCK POSITIONS_FRAC
  Li       -0.3607190        0.1828568        0.0407394
  Li        0.3607190       -0.2235962        0.0407394
  Li       -0.0000000       -0.2645550       -0.4708901
   N       -0.2280489       -0.2954787        0.2673809
   N        0.2280489        0.0280977        0.2673809
   N        0.0461635       -0.0541989       -0.2454579
   N       -0.0461635        0.2996568       -0.2454579
   N        0.1882288        0.4048569        0.1449814
   N       -0.1882288        0.4501617        0.1449814
%ENDBLOCK POSITIONS_FRAC

KPOINTS_MP_SPACING 0.07

%BLOCK SPECIES_POT
QC5
%ENDBLOCK SPECIES_POT

SNAP_TO_SYMMETRY
SYMMETRY_GENERATE

