#              Generated by Buildcell
#
# at 17:43:04 (GMT+1.0) 26th March 2023
# in /scratch/scratch/uccabz1/launch_tmp_michael
# on node-a14e-007
# by uccabz1
#
# compiler GCC version 4.9.2
# options -cpp -iprefix /scratch/UCL/applications/gcc/4.9.2/bin/../lib/gcc/x86_64-unknown-linux-gnu/4.9.2/ -mtune=corei7 -march=x86-64 -g -Og
#
# seed -1931408347   158523304 -1764067533  -412518123   222241132 -1007183095 -2076154872  1122266592   190158238   598547468  -611868712   225869944
#
#      Author: C. J. Pickard (cjp20@cam.ac.uk)
#                Space group: P-1
#

%BLOCK LATTICE_ABC
      4.27886      5.29129      6.23307
    101.74452    101.81782    110.30420
%ENDBLOCK LATTICE_ABC

%BLOCK POSITIONS_FRAC
  Li       -0.2242041       -0.1811965        0.0522715
  Li        0.2242041        0.1811965       -0.0522715
  Li       -0.3700590        0.4548537       -0.3206274
  Li        0.3700590       -0.4548537        0.3206274
   N       -0.0015418        0.4217914       -0.1153761
   N        0.0015418       -0.4217914        0.1153761
   N        0.0997559       -0.0733444        0.3780196
   N       -0.0997559        0.0733444       -0.3780196
   N        0.2663125        0.0695838       -0.3509591
   N       -0.2663125       -0.0695838        0.3509591
   N       -0.1577626        0.3104001        0.1824970
   N        0.1577626       -0.3104001       -0.1824970
%ENDBLOCK POSITIONS_FRAC

KPOINTS_MP_SPACING 0.07

%BLOCK SPECIES_POT
QC5
%ENDBLOCK SPECIES_POT

SNAP_TO_SYMMETRY
SYMMETRY_GENERATE

