#              Generated by Buildcell
#
# at 19:16:07 (GMT+1.0) 26th March 2023
# in /scratch/scratch/uccabz1/launch_tmp_michael
# on node-a14b-031
# by uccabz1
#
# compiler GCC version 4.9.2
# options -cpp -iprefix /scratch/UCL/applications/gcc/4.9.2/bin/../lib/gcc/x86_64-unknown-linux-gnu/4.9.2/ -mtune=corei7 -march=x86-64 -g -Og
#
# seed   575634514   594460826  -718362950  2085052587  -999907820   243451310   438577326   833713371   192367292   116514034   454726877  1819865748
#
#      Author: C. J. Pickard (cjp20@cam.ac.uk)
#                Space group: Cm
#

%BLOCK LATTICE_ABC
      3.66416      3.66416      4.84873
     71.66637     71.66637     86.04732
%ENDBLOCK LATTICE_ABC

%BLOCK POSITIONS_FRAC
  Li        0.4728595       -0.0271405        0.0605219
  Li       -0.0271405        0.4728595        0.0605219
   N        0.2603822       -0.1025015       -0.2590899
   N       -0.1025015        0.2603822       -0.2590899
   N        0.0950623       -0.2631530        0.4401025
   N       -0.2631530        0.0950623        0.4401025
%ENDBLOCK POSITIONS_FRAC

KPOINTS_MP_SPACING 0.07

%BLOCK SPECIES_POT
QC5
%ENDBLOCK SPECIES_POT

SNAP_TO_SYMMETRY
SYMMETRY_GENERATE

