#              Generated by Buildcell
#
# at 16:17:34 (GMT+1.0) 26th March 2023
# in /scratch/scratch/uccabz1/launch_tmp_michael
# on node-a14f-035
# by uccabz1
#
# compiler GCC version 4.9.2
# options -cpp -iprefix /scratch/UCL/applications/gcc/4.9.2/bin/../lib/gcc/x86_64-unknown-linux-gnu/4.9.2/ -mtune=corei7 -march=x86-64 -g -Og
#
# seed -1202667853  1578937455  2054587064  2006902510 -1877659339   598489939  -925923259 -2109811158 -2073497396   678902072  -611769557   851608031
#
#      Author: C. J. Pickard (cjp20@cam.ac.uk)
#                Space group: Cm
#

%BLOCK LATTICE_ABC
      4.54753      4.75355      5.14479
    110.76710    109.24947    104.06526
%ENDBLOCK LATTICE_ABC

%BLOCK POSITIONS_FRAC
  Li       -0.2623937        0.0887850       -0.4570645
  Li        0.1946708       -0.4541505        0.4570645
  Li        0.3290458        0.1968573        0.0000000
   N       -0.4213234       -0.3970165        0.3775406
   N        0.2011360        0.2254429       -0.3775406
   N        0.3093563       -0.1214846        0.1801033
   N        0.1292530       -0.3015880       -0.1801033
   N       -0.1514382       -0.1096389       -0.1796450
   N        0.0282068        0.0700061        0.1796450
%ENDBLOCK POSITIONS_FRAC

KPOINTS_MP_SPACING 0.07

%BLOCK SPECIES_POT
QC5
%ENDBLOCK SPECIES_POT

SNAP_TO_SYMMETRY
SYMMETRY_GENERATE

