#              Generated by Buildcell
#
# at 16:23:31 (GMT+1.0) 26th March 2023
# in /scratch/scratch/uccabz1/launch_tmp_michael
# on node-a14e-007
# by uccabz1
#
# compiler GCC version 4.9.2
# options -cpp -iprefix /scratch/UCL/applications/gcc/4.9.2/bin/../lib/gcc/x86_64-unknown-linux-gnu/4.9.2/ -mtune=corei7 -march=x86-64 -g -Og
#
# seed -1429563849   834518744  -852982342  2127397028   916180369   119597080  -770901394 -1712271015   766063381  1428769298  -789415930 -1828264558
#
#      Author: C. J. Pickard (cjp20@cam.ac.uk)
#                Space group: Pc
#

%BLOCK LATTICE_ABC
      3.54991      3.86801      8.96506
     90.00000     90.00000     97.89323
%ENDBLOCK LATTICE_ABC

%BLOCK POSITIONS_FRAC
  Li        0.1694189       -0.4078566       -0.3442360
  Li        0.1694189        0.0921434        0.3442360
  Li        0.1146279       -0.1668010        0.0883528
  Li        0.1146279        0.3331990       -0.0883528
   N        0.0183723       -0.4485903        0.4325694
   N        0.0183723        0.0514097       -0.4325694
   N       -0.1504593        0.0138936       -0.2312422
   N       -0.1504593       -0.4861064        0.2312422
   N        0.3988557       -0.0702587       -0.4823769
   N        0.3988557        0.4297413        0.4823769
   N       -0.2716655        0.2934070       -0.4073321
   N       -0.2716655       -0.2065930        0.4073321
%ENDBLOCK POSITIONS_FRAC

KPOINTS_MP_SPACING 0.07

%BLOCK SPECIES_POT
QC5
%ENDBLOCK SPECIES_POT

SNAP_TO_SYMMETRY
SYMMETRY_GENERATE

