#              Generated by Buildcell
#
# at 17:59:13 (GMT+1.0) 26th March 2023
# in /scratch/scratch/uccabz1/launch_tmp_michael
# on node-a14e-021
# by uccabz1
#
# compiler GCC version 4.9.2
# options -cpp -iprefix /scratch/UCL/applications/gcc/4.9.2/bin/../lib/gcc/x86_64-unknown-linux-gnu/4.9.2/ -mtune=corei7 -march=x86-64 -g -Og
#
# seed   240963209  1386022279   996344508  -877242248  1379415238 -1513463873  -860599004 -2124969986  -557443964  1611277337   909793971  1697332029
#
#      Author: C. J. Pickard (cjp20@cam.ac.uk)
#                Space group: C2
#

%BLOCK LATTICE_ABC
      3.13782      5.52788      5.52788
     97.23548    101.87021    101.87021
%ENDBLOCK LATTICE_ABC

%BLOCK POSITIONS_FRAC
  Li       -0.1648885       -0.4517919       -0.2531957
  Li        0.1648885        0.2531957        0.4517919
  Li       -0.0000000        0.0845979       -0.0845979
   N        0.3563927       -0.4886901        0.0877457
   N       -0.3563927       -0.0877457        0.4886901
   N        0.3399660       -0.3408706        0.4704708
   N       -0.3399660       -0.4704708        0.3408706
   N        0.0569253       -0.1891978       -0.4188187
   N       -0.0569253        0.4188187        0.1891978
%ENDBLOCK POSITIONS_FRAC

KPOINTS_MP_SPACING 0.07

%BLOCK SPECIES_POT
QC5
%ENDBLOCK SPECIES_POT

SNAP_TO_SYMMETRY
SYMMETRY_GENERATE

