#              Generated by Buildcell
#
# at 19:30:27 (GMT+1.0) 26th March 2023
# in /scratch/scratch/uccabz1/launch_tmp_michael
# on node-a14a-001
# by uccabz1
#
# compiler GCC version 4.9.2
# options -cpp -iprefix /scratch/UCL/applications/gcc/4.9.2/bin/../lib/gcc/x86_64-unknown-linux-gnu/4.9.2/ -mtune=corei7 -march=x86-64 -g -Og
#
# seed -1150749466   485206535  -549029606  1698976856 -1321504714 -1649297562  1600086968  -781626520 -1835789593 -1782013539   870426247 -2011743797
#
#      Author: C. J. Pickard (cjp20@cam.ac.uk)
#                Space group: P32
#

%BLOCK LATTICE_ABC
      5.11487      5.11487      8.24909
     90.00000     90.00000    120.00000
%ENDBLOCK LATTICE_ABC

%BLOCK POSITIONS_FRAC
  Li       -0.0157019       -0.4494645        0.4721143
  Li       -0.4337626        0.0157019        0.1387810
  Li        0.4494645        0.4337626       -0.1945523
  Li       -0.2048013       -0.2938717        0.0516247
  Li       -0.0890704        0.2048013       -0.2817087
  Li        0.2938717        0.0890704        0.3849580
   N        0.1476158       -0.1906553        0.1889461
   N       -0.3382711       -0.1476158       -0.1443872
   N        0.1906553        0.3382711       -0.4777206
   N       -0.2308229        0.4758822       -0.3296662
   N       -0.2932949        0.2308229        0.3370005
   N       -0.4758822        0.2932949        0.0036671
   N       -0.2823684        0.1467803       -0.0742279
   N        0.4291487        0.2823684       -0.4075612
   N       -0.1467803       -0.4291487        0.2591055
   N        0.1441266        0.4188553        0.1074991
   N        0.2747287       -0.1441266       -0.2258343
   N       -0.4188553       -0.2747287        0.4408324
%ENDBLOCK POSITIONS_FRAC

KPOINTS_MP_SPACING 0.07

%BLOCK SPECIES_POT
QC5
%ENDBLOCK SPECIES_POT

SNAP_TO_SYMMETRY
SYMMETRY_GENERATE

