#              Generated by Buildcell
#
# at 17:57:17 (GMT+1.0) 26th March 2023
# in /scratch/scratch/uccabz1/launch_tmp_michael
# on node-a14b-022
# by uccabz1
#
# compiler GCC version 4.9.2
# options -cpp -iprefix /scratch/UCL/applications/gcc/4.9.2/bin/../lib/gcc/x86_64-unknown-linux-gnu/4.9.2/ -mtune=corei7 -march=x86-64 -g -Og
#
# seed -1589477061  -870448822 -1914147864 -1639522110   948688906  1519616425 -1283498565   437277628   433255858 -1085225341   115771233  1060493598
#
#      Author: C. J. Pickard (cjp20@cam.ac.uk)
#                Space group: P32
#

%BLOCK LATTICE_ABC
      5.57919      5.57919      6.71068
     90.00000     90.00000    120.00000
%ENDBLOCK LATTICE_ABC

%BLOCK POSITIONS_FRAC
  Li       -0.0792941        0.1586909        0.4489281
  Li        0.2379849        0.0792941        0.1155947
  Li       -0.1586909       -0.2379849       -0.2177386
  Li        0.3330661       -0.2179411       -0.1123015
  Li        0.4489928       -0.3330661       -0.4456348
  Li        0.2179411       -0.4489928        0.2210319
   N       -0.4521514        0.0218942        0.1088418
   N        0.4740457        0.4521514       -0.2244915
   N       -0.0218942       -0.4740457        0.4421751
   N       -0.3683988       -0.1887307        0.0606225
   N        0.1796682        0.3683988       -0.2727109
   N        0.1887307       -0.1796682        0.3939558
   N       -0.2137484        0.2915625        0.1992931
   N       -0.4946890        0.2137484       -0.1340402
   N       -0.2915625        0.4946890       -0.4673735
   N       -0.3039288       -0.1452233        0.2797131
   N        0.1587055        0.3039288       -0.0536203
   N        0.1452233       -0.1587055       -0.3869536
%ENDBLOCK POSITIONS_FRAC

KPOINTS_MP_SPACING 0.07

%BLOCK SPECIES_POT
QC5
%ENDBLOCK SPECIES_POT

SNAP_TO_SYMMETRY
SYMMETRY_GENERATE

