#              Generated by Buildcell
#
# at 14:54:25 (GMT+1.0) 26th March 2023
# in /scratch/scratch/uccabz1/launch_tmp_michael
# on node-a14e-021
# by uccabz1
#
# compiler GCC version 4.9.2
# options -cpp -iprefix /scratch/UCL/applications/gcc/4.9.2/bin/../lib/gcc/x86_64-unknown-linux-gnu/4.9.2/ -mtune=corei7 -march=x86-64 -g -Og
#
# seed  1143938560  1321972672  -513495594  -741145529   761100486   613086675 -1132764313 -2047514210  -582100669   441049329   249202615  1444478251
#
#      Author: C. J. Pickard (cjp20@cam.ac.uk)
#                Space group: Cm
#

%BLOCK LATTICE_ABC
      2.50001      5.02655      5.02655
     72.55194     76.40973     76.40973
%ENDBLOCK LATTICE_ABC

%BLOCK POSITIONS_FRAC
  Li        0.3722535        0.3204938       -0.2559470
  Li        0.3722535       -0.2559470        0.3204938
   N        0.0237065        0.4808878        0.2282618
   N        0.0237065        0.2282618        0.4808878
   N       -0.4402455        0.0837530        0.3359679
   N       -0.4402455        0.3359679        0.0837530
%ENDBLOCK POSITIONS_FRAC

KPOINTS_MP_SPACING 0.07

%BLOCK SPECIES_POT
QC5
%ENDBLOCK SPECIES_POT

SNAP_TO_SYMMETRY
SYMMETRY_GENERATE

