#              Generated by Buildcell
#
# at 16:12:23 (GMT+1.0) 26th March 2023
# in /scratch/scratch/uccabz1/launch_tmp_michael
# on node-a14b-031
# by uccabz1
#
# compiler GCC version 4.9.2
# options -cpp -iprefix /scratch/UCL/applications/gcc/4.9.2/bin/../lib/gcc/x86_64-unknown-linux-gnu/4.9.2/ -mtune=corei7 -march=x86-64 -g -Og
#
# seed  -962934952  1161822130   639790971  -356196327   479749435   354064511 -1983006549   397838359   221071580 -1066977588   819526833   667177810
#
#      Author: C. J. Pickard (cjp20@cam.ac.uk)
#                Space group: C222
#

%BLOCK LATTICE_ABC
      5.35382      5.87401      6.28223
    117.87276     90.00000     90.00000
%ENDBLOCK LATTICE_ABC

%BLOCK POSITIONS_FRAC
  Li       -0.4551954       -0.3976949       -0.2209031
  Li       -0.4551954        0.3976949        0.2209031
  Li        0.4551954        0.1767918       -0.2209031
  Li        0.4551954       -0.1767918        0.2209031
  Li       -0.0000000        0.2860265       -0.4279469
  Li        0.0000000       -0.2860265        0.4279469
   N       -0.0986131        0.1395203        0.0974818
   N       -0.0986131       -0.1395203       -0.0974818
   N        0.0986131       -0.0420385        0.0974818
   N        0.0986131        0.0420385       -0.0974818
   N        0.1688361       -0.3956365       -0.3697728
   N        0.1688361        0.3956365        0.3697728
   N       -0.1688361        0.0258637       -0.3697728
   N       -0.1688361       -0.0258637        0.3697728
   N       -0.3860605        0.3091060        0.4696453
   N       -0.3860605       -0.3091060       -0.4696453
   N        0.3860605        0.1605393        0.4696453
   N        0.3860605       -0.1605393       -0.4696453
%ENDBLOCK POSITIONS_FRAC

KPOINTS_MP_SPACING 0.07

%BLOCK SPECIES_POT
QC5
%ENDBLOCK SPECIES_POT

SNAP_TO_SYMMETRY
SYMMETRY_GENERATE

