#              Generated by Buildcell
#
# at 17:09:09 (GMT+1.0) 26th March 2023
# in /scratch/scratch/uccabz1/launch_tmp_michael
# on node-a14a-001
# by uccabz1
#
# compiler GCC version 4.9.2
# options -cpp -iprefix /scratch/UCL/applications/gcc/4.9.2/bin/../lib/gcc/x86_64-unknown-linux-gnu/4.9.2/ -mtune=corei7 -march=x86-64 -g -Og
#
# seed  1190996452  1560221786  1317130635   347688234   177219393    -5308556 -1316497838    -5314690  1668604670  -563549611  1827040901  1368164132
#
#      Author: C. J. Pickard (cjp20@cam.ac.uk)
#                Space group: Aea2
#

%BLOCK LATTICE_ABC
      4.53123      5.04606      6.02366
     90.00000     90.00000    116.67875
%ENDBLOCK LATTICE_ABC

%BLOCK POSITIONS_FRAC
  Li        0.0135507       -0.4560879        0.3377265
  Li       -0.4696386       -0.4560879       -0.3377265
  Li        0.0303614       -0.4560879       -0.1622735
  Li       -0.4864493       -0.4560879        0.1622735
   N       -0.0601983       -0.1258929       -0.2505815
   N       -0.0656947       -0.1258929        0.2505815
   N        0.4343053       -0.1258929        0.2494185
   N        0.4398017       -0.1258929       -0.2494185
   N       -0.1607818        0.0512601        0.0902812
   N        0.2120419        0.0512601       -0.0902812
   N       -0.2879581        0.0512601       -0.4097188
   N        0.3392182        0.0512601        0.4097188
%ENDBLOCK POSITIONS_FRAC

KPOINTS_MP_SPACING 0.07

%BLOCK SPECIES_POT
QC5
%ENDBLOCK SPECIES_POT

SNAP_TO_SYMMETRY
SYMMETRY_GENERATE

