#              Generated by Buildcell
#
# at 19:35:36 (GMT+1.0) 26th March 2023
# in /scratch/scratch/uccabz1/launch_tmp_michael
# on node-a14b-028
# by uccabz1
#
# compiler GCC version 4.9.2
# options -cpp -iprefix /scratch/UCL/applications/gcc/4.9.2/bin/../lib/gcc/x86_64-unknown-linux-gnu/4.9.2/ -mtune=corei7 -march=x86-64 -g -Og
#
# seed   860892975 -1807894531  1856500840  1983820933  -508774099   550125895  1234257720  -523973674 -1875639078  1954138484  -571266967   296952298
#
#      Author: C. J. Pickard (cjp20@cam.ac.uk)
#                Space group: Imm2
#

%BLOCK LATTICE_ABC
      3.55132      5.46380      5.46380
     66.00859     71.03527     71.03527
%ENDBLOCK LATTICE_ABC

%BLOCK POSITIONS_FRAC
  Li       -0.2846129       -0.4809128        0.0501387
  Li       -0.2846129        0.0501387       -0.4809128
  Li        0.4698572       -0.4698572       -0.4698572
   N        0.1740714       -0.0886921        0.1638995
   N       -0.2492788        0.1638995       -0.0886921
   N       -0.2492788       -0.0886921        0.1638995
   N        0.1740714        0.1638995       -0.0886921
   N        0.0436531       -0.2650896       -0.2650896
   N        0.4865262       -0.2650896       -0.2650896
%ENDBLOCK POSITIONS_FRAC

KPOINTS_MP_SPACING 0.07

%BLOCK SPECIES_POT
QC5
%ENDBLOCK SPECIES_POT

SNAP_TO_SYMMETRY
SYMMETRY_GENERATE

