#              Generated by Buildcell
#
# at 15:55:06 (GMT+1.0) 26th March 2023
# in /scratch/scratch/uccabz1/launch_tmp_michael
# on node-a14e-007
# by uccabz1
#
# compiler GCC version 4.9.2
# options -cpp -iprefix /scratch/UCL/applications/gcc/4.9.2/bin/../lib/gcc/x86_64-unknown-linux-gnu/4.9.2/ -mtune=corei7 -march=x86-64 -g -Og
#
# seed   703691167  -804118287   943775504  -209433422  1631771578  2123659490  1407577968  1215273728 -1110282746  -197564428  1277118830   139810338
#
#      Author: C. J. Pickard (cjp20@cam.ac.uk)
#                Space group: I41
#

%BLOCK LATTICE_ABC
      5.86148      5.86148      6.55563
    116.55500    116.55500     90.00000
%ENDBLOCK LATTICE_ABC

%BLOCK POSITIONS_FRAC
  Li        0.1885593        0.3020546        0.1813248
  Li       -0.0072345       -0.1207298        0.1813248
  Li       -0.3707298        0.4385593       -0.3186752
  Li        0.0520546        0.2427655       -0.3186752
  Li       -0.1154882       -0.1154882       -0.2309764
  Li       -0.3654882        0.1345118        0.2690236
   N       -0.4664728        0.4440605        0.2728576
   N       -0.2606696       -0.1712029        0.2728576
   N       -0.4212029       -0.2164728       -0.2271424
   N        0.1940605       -0.0106696       -0.2271424
   N        0.1345175       -0.4095264       -0.2560350
   N       -0.3905525        0.1534914       -0.2560350
   N       -0.0965086        0.3845175        0.2439650
   N        0.3404736       -0.1405525        0.2439650
   N       -0.2581599       -0.4302621        0.0425869
   N        0.3007468        0.4728490        0.0425869
   N        0.2228490       -0.0081599       -0.4574131
   N        0.3197379       -0.4492532       -0.4574131
%ENDBLOCK POSITIONS_FRAC

KPOINTS_MP_SPACING 0.07

%BLOCK SPECIES_POT
QC5
%ENDBLOCK SPECIES_POT

SNAP_TO_SYMMETRY
SYMMETRY_GENERATE

