#              Generated by Buildcell
#
# at 19:32:43 (GMT+1.0) 26th March 2023
# in /scratch/scratch/uccabz1/launch_tmp_michael
# on node-a14a-003
# by uccabz1
#
# compiler GCC version 4.9.2
# options -cpp -iprefix /scratch/UCL/applications/gcc/4.9.2/bin/../lib/gcc/x86_64-unknown-linux-gnu/4.9.2/ -mtune=corei7 -march=x86-64 -g -Og
#
# seed -2106880656  -309750817  1226790526  -272705997  1097384127  1112582131  1574628547  1619506909  1061104527 -1962796011  -188959287  1970505676
#
#      Author: C. J. Pickard (cjp20@cam.ac.uk)
#                Space group: Iba2
#

%BLOCK LATTICE_ABC
      4.22077      4.22077      4.22077
    106.43427    107.01161    115.12024
%ENDBLOCK LATTICE_ABC

%BLOCK POSITIONS_FRAC
  Li        0.3015184       -0.5000000       -0.1984816
  Li       -0.1984816        0.5000000        0.3015184
   N        0.1767574        0.0492374       -0.0622580
   N       -0.1114954       -0.0492374        0.1275200
   N       -0.3232426        0.2390154       -0.3724800
   N        0.3885046       -0.2390154        0.4377420
%ENDBLOCK POSITIONS_FRAC

KPOINTS_MP_SPACING 0.07

%BLOCK SPECIES_POT
QC5
%ENDBLOCK SPECIES_POT

SNAP_TO_SYMMETRY
SYMMETRY_GENERATE

