#              Generated by Buildcell
#
# at 15:59:33 (GMT+1.0) 26th March 2023
# in /scratch/scratch/uccabz1/launch_tmp_michael
# on node-a14a-019
# by uccabz1
#
# compiler GCC version 4.9.2
# options -cpp -iprefix /scratch/UCL/applications/gcc/4.9.2/bin/../lib/gcc/x86_64-unknown-linux-gnu/4.9.2/ -mtune=corei7 -march=x86-64 -g -Og
#
# seed   911770952    31684143  1482944092   835496578  -947473771   245119328  1433113710 -1934084858  1500645224  -535147327    89655278      118591
#
#      Author: C. J. Pickard (cjp20@cam.ac.uk)
#                Space group: Pmn21
#

%BLOCK LATTICE_ABC
      4.99990      6.03273      6.16881
     90.00000     90.00000     90.00000
%ENDBLOCK LATTICE_ABC

%BLOCK POSITIONS_FRAC
  Li       -0.2500000        0.1008491        0.3778926
  Li       -0.2500000       -0.1008491       -0.1221074
  Li        0.2500000       -0.1008491       -0.1221074
  Li        0.2500000        0.1008491        0.3778926
  Li        0.0000000        0.4098604       -0.2335619
  Li       -0.5000000       -0.4098604        0.2664381
   N       -0.3427573       -0.1239700        0.1757194
   N       -0.1572427        0.1239700       -0.3242806
   N        0.1572427        0.1239700       -0.3242806
   N        0.3427573       -0.1239700        0.1757194
   N        0.1780747       -0.2240693        0.4061381
   N        0.3219253        0.2240693       -0.0938619
   N       -0.3219253        0.2240693       -0.0938619
   N       -0.1780747       -0.2240693        0.4061381
   N       -0.2619153        0.2938736        0.1347086
   N       -0.2380847       -0.2938736       -0.3652914
   N        0.2380847       -0.2938736       -0.3652914
   N        0.2619153        0.2938736        0.1347086
%ENDBLOCK POSITIONS_FRAC

KPOINTS_MP_SPACING 0.07

%BLOCK SPECIES_POT
QC5
%ENDBLOCK SPECIES_POT

SNAP_TO_SYMMETRY
SYMMETRY_GENERATE

