#              Generated by Buildcell
#
# at 18:40:57 (GMT+1.0) 26th March 2023
# in /scratch/scratch/uccabz1/launch_tmp_michael
# on node-a14a-003
# by uccabz1
#
# compiler GCC version 4.9.2
# options -cpp -iprefix /scratch/UCL/applications/gcc/4.9.2/bin/../lib/gcc/x86_64-unknown-linux-gnu/4.9.2/ -mtune=corei7 -march=x86-64 -g -Og
#
# seed -1103289345    72803118  -919745408 -1619647280  1584723664   436221268  -860986225   432840904  1834132469 -1038159180   969558109   739586634
#
#      Author: C. J. Pickard (cjp20@cam.ac.uk)
#                Space group: Cm
#

%BLOCK LATTICE_ABC
      2.91088      5.63004      6.07714
     62.40526     84.44974     77.94801
%ENDBLOCK LATTICE_ABC

%BLOCK POSITIONS_FRAC
  Li        0.0028387        0.1767613        0.3658964
  Li        0.0028387       -0.4573423       -0.3658964
  Li       -0.1495773        0.0531587        0.0000000
   N        0.4691590        0.4663234        0.1575805
   N        0.4691590       -0.3760962       -0.1575805
   N       -0.0812770       -0.2854013       -0.1394611
   N       -0.0812770       -0.4248624        0.1394611
   N        0.3861419       -0.0682882       -0.1956066
   N        0.3861419       -0.2638948        0.1956066
%ENDBLOCK POSITIONS_FRAC

KPOINTS_MP_SPACING 0.07

%BLOCK SPECIES_POT
QC5
%ENDBLOCK SPECIES_POT

SNAP_TO_SYMMETRY
SYMMETRY_GENERATE

