#              Generated by Buildcell
#
# at 15:07:59 (GMT+1.0) 26th March 2023
# in /scratch/scratch/uccabz1/launch_tmp_michael
# on node-a14a-001
# by uccabz1
#
# compiler GCC version 4.9.2
# options -cpp -iprefix /scratch/UCL/applications/gcc/4.9.2/bin/../lib/gcc/x86_64-unknown-linux-gnu/4.9.2/ -mtune=corei7 -march=x86-64 -g -Og
#
# seed  1488935482  1924156453 -1292129781  -334204549 -1011423642  -185066998  1856839930  1020621044  1537050100  -475272016  1388696136  2048537634
#
#      Author: C. J. Pickard (cjp20@cam.ac.uk)
#                Space group: P32
#

%BLOCK LATTICE_ABC
      3.31863      7.92405      7.92405
    120.00000     90.00000     90.00000
%ENDBLOCK LATTICE_ABC

%BLOCK POSITIONS_FRAC
  Li        0.0255535        0.1277999        0.2213534
  Li       -0.3077798       -0.2213534       -0.0935535
  Li        0.3588868        0.0935535       -0.1277999
  Li        0.1944541       -0.2666628       -0.3563724
  Li       -0.1388793        0.3563724        0.0897097
  Li       -0.4722126       -0.0897097        0.2666628
   N        0.3551474        0.0331059       -0.4051943
   N        0.0218141        0.4051943        0.4383002
   N       -0.3115192       -0.4383002       -0.0331059
   N        0.1377163       -0.4585565       -0.1322852
   N       -0.1956171        0.1322852       -0.3262714
   N        0.4710496        0.3262714        0.4585565
   N       -0.2728032       -0.0901692        0.4930631
   N        0.3938634       -0.4930631        0.4167677
   N        0.0605301       -0.4167677        0.0901692
   N        0.4005270        0.4918073       -0.3316069
   N        0.0671937        0.3316069       -0.1765858
   N       -0.2661397        0.1765858       -0.4918073
%ENDBLOCK POSITIONS_FRAC

KPOINTS_MP_SPACING 0.07

%BLOCK SPECIES_POT
QC5
%ENDBLOCK SPECIES_POT

SNAP_TO_SYMMETRY
SYMMETRY_GENERATE

