#              Generated by Buildcell
#
# at 16:51:59 (GMT+1.0) 26th March 2023
# in /scratch/scratch/uccabz1/launch_tmp_michael
# on node-a14e-007
# by uccabz1
#
# compiler GCC version 4.9.2
# options -cpp -iprefix /scratch/UCL/applications/gcc/4.9.2/bin/../lib/gcc/x86_64-unknown-linux-gnu/4.9.2/ -mtune=corei7 -march=x86-64 -g -Og
#
# seed -1022020184 -1732852400  1356881332   149295369 -1724381721  1969345513   258035480   861440093  -630568485  1673635950  -511998515  1397462620
#
#      Author: C. J. Pickard (cjp20@cam.ac.uk)
#                Space group: C2
#

%BLOCK LATTICE_ABC
      3.51721      4.19825      4.98306
    110.42834    105.46900    101.80775
%ENDBLOCK LATTICE_ABC

%BLOCK POSITIONS_FRAC
  Li        0.2248536        0.1382448       -0.1559008
  Li       -0.3807544       -0.2941456       -0.1559008
   N       -0.0752704        0.1701312        0.2542864
   N        0.3295567        0.0841551        0.2542864
   N        0.2959599       -0.3717209        0.0881242
   N       -0.2078357        0.4598451        0.0881242
%ENDBLOCK POSITIONS_FRAC

KPOINTS_MP_SPACING 0.07

%BLOCK SPECIES_POT
QC5
%ENDBLOCK SPECIES_POT

SNAP_TO_SYMMETRY
SYMMETRY_GENERATE

