#              Generated by Buildcell
#
# at 19:14:34 (GMT+1.0) 26th March 2023
# in /scratch/scratch/uccabz1/launch_tmp_michael
# on node-a14a-019
# by uccabz1
#
# compiler GCC version 4.9.2
# options -cpp -iprefix /scratch/UCL/applications/gcc/4.9.2/bin/../lib/gcc/x86_64-unknown-linux-gnu/4.9.2/ -mtune=corei7 -march=x86-64 -g -Og
#
# seed   795501576   189344966  -440008353 -1603707951  1195946747 -1439448337 -1953280418   872699637 -1579325175 -1874009110   174549429 -2054984645
#
#      Author: C. J. Pickard (cjp20@cam.ac.uk)
#                Space group: Imm2
#

%BLOCK LATTICE_ABC
      4.99500      4.99725      6.10004
    114.18023    114.16867     90.00000
%ENDBLOCK LATTICE_ABC

%BLOCK POSITIONS_FRAC
  Li        0.4213021        0.4213006        0.3426011
  Li       -0.0787010       -0.0786995        0.3426011
  Li       -0.0787010       -0.5786994        0.3426011
  Li        0.4213021        0.9213005        0.3426011
   N       -0.4956970       -0.4911004       -0.2928090
   N        0.2028880        0.1982913       -0.2928090
   N        0.2028880        0.5088996       -0.2928090
   N       -0.4956970       -0.8017087       -0.2928090
   N        0.1949631        0.6466469       -0.0261406
   N       -0.2211036       -0.6727874       -0.0261406
   N       -0.2211036       -0.3533531       -0.0261406
   N        0.1949631        0.3272126       -0.0261406
%ENDBLOCK POSITIONS_FRAC

KPOINTS_MP_SPACING 0.07

%BLOCK SPECIES_POT
QC5
%ENDBLOCK SPECIES_POT

SNAP_TO_SYMMETRY
SYMMETRY_GENERATE

