#              Generated by Buildcell
#
# at 19:21:53 (GMT+1.0) 26th March 2023
# in /scratch/scratch/uccabz1/launch_tmp_michael
# on node-a14c-005
# by uccabz1
#
# compiler GCC version 4.9.2
# options -cpp -iprefix /scratch/UCL/applications/gcc/4.9.2/bin/../lib/gcc/x86_64-unknown-linux-gnu/4.9.2/ -mtune=corei7 -march=x86-64 -g -Og
#
# seed   844579788 -1053188725    63689260   543290933 -1572152387   432263777 -1608290623 -1546731146 -1574595477  1487064349  1123587431  -252793275
#
#      Author: C. J. Pickard (cjp20@cam.ac.uk)
#                Space group: P-1
#

%BLOCK LATTICE_ABC
      2.81336      3.55468      6.25322
     81.41970     81.93412     87.75471
%ENDBLOCK LATTICE_ABC

%BLOCK POSITIONS_FRAC
  Li       -0.2554193       -0.0157067       -0.3185366
  Li        0.2554193        0.0157067        0.3185366
   N       -0.3899376       -0.1954779       -0.0149874
   N        0.3899376        0.1954779        0.0149874
   N       -0.1941917       -0.2484273        0.1988414
   N        0.1941917        0.2484273       -0.1988414
%ENDBLOCK POSITIONS_FRAC

KPOINTS_MP_SPACING 0.07

%BLOCK SPECIES_POT
QC5
%ENDBLOCK SPECIES_POT

SNAP_TO_SYMMETRY
SYMMETRY_GENERATE

