#              Generated by Buildcell
#
# at 19:48:39 (GMT+1.0) 26th March 2023
# in /scratch/scratch/uccabz1/launch_tmp_michael
# on node-a14a-019
# by uccabz1
#
# compiler GCC version 4.9.2
# options -cpp -iprefix /scratch/UCL/applications/gcc/4.9.2/bin/../lib/gcc/x86_64-unknown-linux-gnu/4.9.2/ -mtune=corei7 -march=x86-64 -g -Og
#
# seed   994104257  -482920311 -1544254972  -678455159 -1611472617 -1919219017  2085243363   234090435   545525078   411666785  1112968947 -1840717100
#
#      Author: C. J. Pickard (cjp20@cam.ac.uk)
#                Space group: P21
#

%BLOCK LATTICE_ABC
      3.45828      3.62144      9.91074
     96.01544     90.00000     90.00000
%ENDBLOCK LATTICE_ABC

%BLOCK POSITIONS_FRAC
  Li        0.3688111       -0.2965467       -0.3225061
  Li       -0.1311889        0.2965467        0.3225061
  Li       -0.1534528       -0.0616817        0.0928524
  Li        0.3465472        0.0616817       -0.0928524
   N       -0.0242124       -0.2874647        0.4502755
   N        0.4757876        0.2874647       -0.4502755
   N       -0.1058534        0.1514059       -0.3372216
   N        0.3941466       -0.1514059        0.3372216
   N       -0.2537971        0.2723341       -0.1954293
   N        0.2462029       -0.2723341        0.1954293
   N        0.1886407        0.0962654        0.4527076
   N       -0.3113593       -0.0962654       -0.4527076
%ENDBLOCK POSITIONS_FRAC

KPOINTS_MP_SPACING 0.07

%BLOCK SPECIES_POT
QC5
%ENDBLOCK SPECIES_POT

SNAP_TO_SYMMETRY
SYMMETRY_GENERATE

