#              Generated by Buildcell
#
# at 19:45:44 (GMT+1.0) 26th March 2023
# in /scratch/scratch/uccabz1/launch_tmp_michael
# on node-a14a-019
# by uccabz1
#
# compiler GCC version 4.9.2
# options -cpp -iprefix /scratch/UCL/applications/gcc/4.9.2/bin/../lib/gcc/x86_64-unknown-linux-gnu/4.9.2/ -mtune=corei7 -march=x86-64 -g -Og
#
# seed  -853609850   568569576  1267042455  -406067141 -1316190257   136867790  1080815309  -775017705  1279786194 -1336598235 -1264873101 -1333194865
#
#      Author: C. J. Pickard (cjp20@cam.ac.uk)
#                Space group: Pnc2
#

%BLOCK LATTICE_ABC
      2.50000      3.91670      6.38305
     90.00000     90.00000     90.00000
%ENDBLOCK LATTICE_ABC

%BLOCK POSITIONS_FRAC
  Li        0.5000000        0.5000000        0.0071253
  Li        0.5000000        0.0000000       -0.4928747
   N       -0.2640461       -0.3784572        0.3452014
   N        0.2640461        0.3784572        0.3452014
   N       -0.2640461       -0.1215428       -0.1547986
   N        0.2640461        0.1215428       -0.1547986
%ENDBLOCK POSITIONS_FRAC

KPOINTS_MP_SPACING 0.07

%BLOCK SPECIES_POT
QC5
%ENDBLOCK SPECIES_POT

SNAP_TO_SYMMETRY
SYMMETRY_GENERATE

