#              Generated by Buildcell
#
# at 14:49:52 (GMT+1.0) 26th March 2023
# in /scratch/scratch/uccabz1/launch_tmp_michael
# on node-a14a-003
# by uccabz1
#
# compiler GCC version 4.9.2
# options -cpp -iprefix /scratch/UCL/applications/gcc/4.9.2/bin/../lib/gcc/x86_64-unknown-linux-gnu/4.9.2/ -mtune=corei7 -march=x86-64 -g -Og
#
# seed  -766501304  1799798753  -467970331  -929764595 -1763891688   652487650  -854617187   779016878  -178341826   -81064043   175189935 -1272682543
#
#      Author: C. J. Pickard (cjp20@cam.ac.uk)
#                Space group: P4
#

%BLOCK LATTICE_ABC
      4.20596      6.38998      6.38998
     90.00000     90.00000     90.00000
%ENDBLOCK LATTICE_ABC

%BLOCK POSITIONS_FRAC
  Li        0.0346074       -0.2902876       -0.2935528
  Li        0.0346074        0.2902876        0.2935528
  Li        0.0346074        0.2935528       -0.2902876
  Li        0.0346074       -0.2935528        0.2902876
  Li       -0.2206430        0.5000000        0.0000000
  Li       -0.2206430        0.0000000        0.5000000
   N        0.1621030        0.0341237       -0.1624426
   N        0.1621030       -0.0341237        0.1624426
   N        0.1621030        0.1624426        0.0341237
   N        0.1621030       -0.1624426       -0.0341237
   N        0.2629558        0.0112887        0.3829764
   N        0.2629558       -0.0112887       -0.3829764
   N        0.2629558       -0.3829764        0.0112887
   N        0.2629558        0.3829764       -0.0112887
   N        0.4415611       -0.2146419       -0.4037830
   N        0.4415611        0.2146419        0.4037830
   N        0.4415611        0.4037830       -0.2146419
   N        0.4415611       -0.4037830        0.2146419
%ENDBLOCK POSITIONS_FRAC

KPOINTS_MP_SPACING 0.07

%BLOCK SPECIES_POT
QC5
%ENDBLOCK SPECIES_POT

SNAP_TO_SYMMETRY
SYMMETRY_GENERATE

