#              Generated by Buildcell
#
# at 14:57:48 (GMT+1.0) 26th March 2023
# in /scratch/scratch/uccabz1/launch_tmp_michael
# on node-a14f-035
# by uccabz1
#
# compiler GCC version 4.9.2
# options -cpp -iprefix /scratch/UCL/applications/gcc/4.9.2/bin/../lib/gcc/x86_64-unknown-linux-gnu/4.9.2/ -mtune=corei7 -march=x86-64 -g -Og
#
# seed  -146367412  1675608710   624743618  -442678436   406617348  1059315170  2135027481  -911708376   511109600 -1185644509  2031584792  -372923365
#
#      Author: C. J. Pickard (cjp20@cam.ac.uk)
#                Space group: C2
#

%BLOCK LATTICE_ABC
      4.84271      5.35420      5.78513
    116.68531    114.74296     90.00000
%ENDBLOCK LATTICE_ABC

%BLOCK POSITIONS_FRAC
  Li       -0.3611244       -0.1538749        0.4879967
  Li        0.1508790        0.1538749       -0.4879967
  Li       -0.0538139       -0.2676527       -0.1149274
  Li        0.0611135        0.2676527        0.1149274
   N        0.1976109       -0.2151231        0.2828088
   N       -0.0851979        0.2151231       -0.2828088
   N       -0.3223218        0.3364401        0.1185936
   N       -0.4409154       -0.3364401       -0.1185936
   N        0.3934500        0.4607088        0.1186580
   N        0.2747920       -0.4607088       -0.1186580
   N        0.3191489        0.0258917        0.2456737
   N        0.0734752       -0.0258917       -0.2456737
%ENDBLOCK POSITIONS_FRAC

KPOINTS_MP_SPACING 0.07

%BLOCK SPECIES_POT
QC5
%ENDBLOCK SPECIES_POT

SNAP_TO_SYMMETRY
SYMMETRY_GENERATE

