#              Generated by Buildcell
#
# at 14:59:38 (GMT+1.0) 26th March 2023
# in /scratch/scratch/uccabz1/launch_tmp_michael
# on node-a14a-019
# by uccabz1
#
# compiler GCC version 4.9.2
# options -cpp -iprefix /scratch/UCL/applications/gcc/4.9.2/bin/../lib/gcc/x86_64-unknown-linux-gnu/4.9.2/ -mtune=corei7 -march=x86-64 -g -Og
#
# seed -1607355115 -1995385821  1600737438   334180193  -567970292 -1833316685  1658820357  1395313136 -1149128189   330709359 -1185874885  1903916435
#
#      Author: C. J. Pickard (cjp20@cam.ac.uk)
#                Space group: Imm2
#

%BLOCK LATTICE_ABC
      3.63518      5.25107      5.25107
     77.57013     69.74877     69.74877
%ENDBLOCK LATTICE_ABC

%BLOCK POSITIONS_FRAC
  Li       -0.0937174        0.4037059       -0.2162711
  Li       -0.0937174       -0.2162711        0.4037059
  Li        0.1034388       -0.1034388       -0.1034388
   N       -0.4610992        0.3679029        0.1398891
   N       -0.0466928        0.1398891        0.3679029
   N       -0.4610992        0.1398891        0.3679029
   N       -0.0466928        0.3679029        0.1398891
   N        0.2640667       -0.4906475       -0.0374858
   N        0.2640667       -0.0374858       -0.4906475
%ENDBLOCK POSITIONS_FRAC

KPOINTS_MP_SPACING 0.07

%BLOCK SPECIES_POT
QC5
%ENDBLOCK SPECIES_POT

SNAP_TO_SYMMETRY
SYMMETRY_GENERATE

