#              Generated by Buildcell
#
# at 15:48:12 (GMT+1.0) 26th March 2023
# in /scratch/scratch/uccabz1/launch_tmp_michael
# on node-a14b-022
# by uccabz1
#
# compiler GCC version 4.9.2
# options -cpp -iprefix /scratch/UCL/applications/gcc/4.9.2/bin/../lib/gcc/x86_64-unknown-linux-gnu/4.9.2/ -mtune=corei7 -march=x86-64 -g -Og
#
# seed  -115643650 -1656222068  1241767291  1099597582  1101717330  1070854278  1328122152  -310866697 -1949182438  -611031987   766597275   565445977
#
#      Author: C. J. Pickard (cjp20@cam.ac.uk)
#                Space group: Pnn2
#

%BLOCK LATTICE_ABC
      3.37444      6.94775      7.48401
     90.00000     90.00000     90.00000
%ENDBLOCK LATTICE_ABC

%BLOCK POSITIONS_FRAC
  Li       -0.3635481        0.4258621        0.1590107
  Li        0.3635481        0.4258621       -0.1590107
  Li        0.1364519       -0.0741379        0.3409893
  Li       -0.1364519       -0.0741379       -0.3409893
  Li       -0.0000000       -0.0691240        0.0000000
  Li        0.5000000        0.4308760        0.5000000
   N        0.2844094       -0.2254062       -0.4534070
   N       -0.2844094       -0.2254062        0.4534070
   N       -0.2155906        0.2745938       -0.0465930
   N        0.2155906        0.2745938        0.0465930
   N       -0.2808403        0.1693792       -0.4426667
   N        0.2808403        0.1693792        0.4426667
   N        0.2191597       -0.3306208       -0.0573333
   N       -0.2191597       -0.3306208        0.0573333
   N       -0.1132038        0.4380138       -0.3149830
   N        0.1132038        0.4380138        0.3149830
   N        0.3867962       -0.0619862       -0.1850170
   N       -0.3867962       -0.0619862        0.1850170
%ENDBLOCK POSITIONS_FRAC

KPOINTS_MP_SPACING 0.07

%BLOCK SPECIES_POT
QC5
%ENDBLOCK SPECIES_POT

SNAP_TO_SYMMETRY
SYMMETRY_GENERATE

