#              Generated by Buildcell
#
# at 14:54:40 (GMT+1.0) 26th March 2023
# in /scratch/scratch/uccabz1/launch_tmp_michael
# on node-a14e-021
# by uccabz1
#
# compiler GCC version 4.9.2
# options -cpp -iprefix /scratch/UCL/applications/gcc/4.9.2/bin/../lib/gcc/x86_64-unknown-linux-gnu/4.9.2/ -mtune=corei7 -march=x86-64 -g -Og
#
# seed   196869966  1829167363  1192675748  1622924810  1082610520  -598073264 -1430354075   142886635  -611122427 -1660021405  1816579253   673707046
#
#      Author: C. J. Pickard (cjp20@cam.ac.uk)
#                Space group: Pm
#

%BLOCK LATTICE_ABC
      3.51240      4.60833      5.38373
     90.00000     90.00000     94.71731
%ENDBLOCK LATTICE_ABC

%BLOCK POSITIONS_FRAC
  Li        0.2568952        0.1091864        0.2321814
  Li        0.2568952        0.1091864       -0.2321814
  Li       -0.4469770       -0.3745319        0.5000000
   N        0.0795486        0.4752170        0.3160538
   N        0.0795486        0.4752170       -0.3160538
   N        0.2259067       -0.2898360       -0.1393492
   N        0.2259067       -0.2898360        0.1393492
   N       -0.2681728        0.2704888        0.3606913
   N       -0.2681728        0.2704888       -0.3606913
%ENDBLOCK POSITIONS_FRAC

KPOINTS_MP_SPACING 0.07

%BLOCK SPECIES_POT
QC5
%ENDBLOCK SPECIES_POT

SNAP_TO_SYMMETRY
SYMMETRY_GENERATE

