#              Generated by Buildcell
#
# at 18:43:03 (GMT+1.0) 26th March 2023
# in /scratch/scratch/uccabz1/launch_tmp_michael
# on node-a14f-035
# by uccabz1
#
# compiler GCC version 4.9.2
# options -cpp -iprefix /scratch/UCL/applications/gcc/4.9.2/bin/../lib/gcc/x86_64-unknown-linux-gnu/4.9.2/ -mtune=corei7 -march=x86-64 -g -Og
#
# seed -2028328980 -1794827560  1538004997  1925462011 -1870418248 -1887117780  -758138621 -2070453702   438387039  -267956580  -494738231   728742383
#
#      Author: C. J. Pickard (cjp20@cam.ac.uk)
#                Space group: P31
#

%BLOCK LATTICE_ABC
      4.77783      6.65546      6.65546
    120.00000     90.00000     90.00000
%ENDBLOCK LATTICE_ABC

%BLOCK POSITIONS_FRAC
  Li        0.0373025       -0.1187043        0.4837117
  Li        0.3706358       -0.3975840        0.1187043
  Li       -0.2960308       -0.4837117        0.3975840
  Li        0.3822126        0.0608347        0.2523323
  Li       -0.2844540        0.1914976       -0.0608347
  Li        0.0488793       -0.2523323       -0.1914976
   N       -0.3315490        0.0966388        0.4663737
   N        0.0017843        0.3697349       -0.0966388
   N        0.3351176       -0.4663737       -0.3697349
   N       -0.0929621       -0.3764620        0.0810780
   N        0.2403712        0.4575400        0.3764620
   N       -0.4262955       -0.0810780       -0.4575400
   N       -0.2922222       -0.4207072       -0.2211343
   N        0.0411112        0.1995730        0.4207072
   N        0.3744445        0.2211343       -0.1995730
   N        0.3624509       -0.3090925        0.4417042
   N       -0.3042157       -0.2492033        0.3090925
   N        0.0291176       -0.4417042        0.2492033
%ENDBLOCK POSITIONS_FRAC

KPOINTS_MP_SPACING 0.07

%BLOCK SPECIES_POT
QC5
%ENDBLOCK SPECIES_POT

SNAP_TO_SYMMETRY
SYMMETRY_GENERATE

