#              Generated by Buildcell
#
# at 17:15:10 (GMT+1.0) 26th March 2023
# in /scratch/scratch/uccabz1/launch_tmp_michael
# on node-a14e-021
# by uccabz1
#
# compiler GCC version 4.9.2
# options -cpp -iprefix /scratch/UCL/applications/gcc/4.9.2/bin/../lib/gcc/x86_64-unknown-linux-gnu/4.9.2/ -mtune=corei7 -march=x86-64 -g -Og
#
# seed  -538735229   835454798 -1171308327  -921429109   372545644   745932607  1000416593   621992111 -1512591216  -632264085  1705700529   508219321
#
#      Author: C. J. Pickard (cjp20@cam.ac.uk)
#                Space group: C2
#

%BLOCK LATTICE_ABC
      3.45945      4.97653      5.72771
    115.74877     94.48211     90.00000
%ENDBLOCK LATTICE_ABC

%BLOCK POSITIONS_FRAC
  Li       -0.1553609       -0.4179641       -0.3956275
  Li        0.1553609       -0.0223366        0.3956275
  Li        0.0000000        0.1763681       -0.0000000
   N        0.2708332        0.4859451       -0.1748924
   N       -0.2708332       -0.3391625        0.1748924
   N        0.0608637       -0.4365347        0.3012891
   N       -0.0608637        0.2621763       -0.3012891
   N        0.2957983       -0.3801896        0.1166194
   N       -0.2957983       -0.4968090       -0.1166194
%ENDBLOCK POSITIONS_FRAC

KPOINTS_MP_SPACING 0.07

%BLOCK SPECIES_POT
QC5
%ENDBLOCK SPECIES_POT

SNAP_TO_SYMMETRY
SYMMETRY_GENERATE

