#              Generated by Buildcell
#
# at 15:16:38 (GMT+1.0) 26th March 2023
# in /scratch/scratch/uccabz1/launch_tmp_michael
# on node-a14b-022
# by uccabz1
#
# compiler GCC version 4.9.2
# options -cpp -iprefix /scratch/UCL/applications/gcc/4.9.2/bin/../lib/gcc/x86_64-unknown-linux-gnu/4.9.2/ -mtune=corei7 -march=x86-64 -g -Og
#
# seed -1060524997   226914876  -344104800 -1090941920   924844239    51610465 -1871637540  -898851865  -613657192 -1955609771   528740314   825995427
#
#      Author: C. J. Pickard (cjp20@cam.ac.uk)
#                Space group: P3
#

%BLOCK LATTICE_ABC
      4.13612      4.18645      4.18645
    120.00000     90.00000     90.00000
%ENDBLOCK LATTICE_ABC

%BLOCK POSITIONS_FRAC
  Li        0.2469379        0.3333333       -0.3333333
  Li        0.0881514       -0.3333333        0.3333333
   N       -0.4728684       -0.4560258        0.4495611
   N       -0.4728684       -0.4495611        0.0944131
   N       -0.4728684       -0.0944131        0.4560258
   N       -0.2281296        0.3333333       -0.3333333
%ENDBLOCK POSITIONS_FRAC

KPOINTS_MP_SPACING 0.07

%BLOCK SPECIES_POT
QC5
%ENDBLOCK SPECIES_POT

SNAP_TO_SYMMETRY
SYMMETRY_GENERATE

