#              Generated by Buildcell
#
# at 14:50:46 (GMT+1.0) 26th March 2023
# in /scratch/scratch/uccabz1/launch_tmp_michael
# on node-a14f-035
# by uccabz1
#
# compiler GCC version 4.9.2
# options -cpp -iprefix /scratch/UCL/applications/gcc/4.9.2/bin/../lib/gcc/x86_64-unknown-linux-gnu/4.9.2/ -mtune=corei7 -march=x86-64 -g -Og
#
# seed  1428547435  2085848700   646816816 -1844445195 -1001131210    22913896 -1759431887  -354039728 -1802729527  1980686010  1486347479 -1825647054
#
#      Author: C. J. Pickard (cjp20@cam.ac.uk)
#                Space group: Pm
#

%BLOCK LATTICE_ABC
      4.99994      5.37376      6.89102
     90.83881     90.00000     90.00000
%ENDBLOCK LATTICE_ABC

%BLOCK POSITIONS_FRAC
  Li       -0.2500000        0.1358126       -0.1565741
  Li        0.2500000        0.1358126       -0.1565741
  Li        0.2500000       -0.2232399        0.0701526
  Li       -0.2500000       -0.2232399        0.0701526
  Li       -0.2500000        0.3547205       -0.4742455
  Li        0.2500000        0.3547205       -0.4742455
   N       -0.1793025        0.0985702        0.3398034
   N        0.1793025        0.0985702        0.3398034
   N       -0.3326248        0.4737383       -0.2074844
   N        0.3326248        0.4737383       -0.2074844
   N       -0.3254168       -0.0493423       -0.3872102
   N        0.3254168       -0.0493423       -0.3872102
   N       -0.3239558       -0.3288061       -0.3592613
   N        0.3239558       -0.3288061       -0.3592613
   N        0.2065661        0.4312775        0.0153219
   N       -0.2065661        0.4312775        0.0153219
   N       -0.1792846       -0.4239423        0.3194354
   N        0.1792846       -0.4239423        0.3194354
%ENDBLOCK POSITIONS_FRAC

KPOINTS_MP_SPACING 0.07

%BLOCK SPECIES_POT
QC5
%ENDBLOCK SPECIES_POT

SNAP_TO_SYMMETRY
SYMMETRY_GENERATE

