#              Generated by Buildcell
#
# at 16:15:45 (GMT+1.0) 26th March 2023
# in /scratch/scratch/uccabz1/launch_tmp_michael
# on node-a14a-019
# by uccabz1
#
# compiler GCC version 4.9.2
# options -cpp -iprefix /scratch/UCL/applications/gcc/4.9.2/bin/../lib/gcc/x86_64-unknown-linux-gnu/4.9.2/ -mtune=corei7 -march=x86-64 -g -Og
#
# seed  -717957559  -438326950   215941373   -44400744   850325630  1757361910  -731592636   181754317 -1594860325 -1400345273 -1602040028   412620769
#
#      Author: C. J. Pickard (cjp20@cam.ac.uk)
#                Space group: Pm
#

%BLOCK LATTICE_ABC
      3.26710      4.56513      6.38716
     90.00000     90.00000    103.46027
%ENDBLOCK LATTICE_ABC

%BLOCK POSITIONS_FRAC
  Li        0.3560627       -0.2421055        0.1957051
  Li        0.3560627       -0.2421055       -0.1957051
  Li       -0.4432204        0.3381121        0.0000000
   N        0.1334024        0.0051385       -0.3825746
   N        0.1334024        0.0051385        0.3825746
   N       -0.3777461        0.1188926       -0.3393051
   N       -0.3777461        0.1188926        0.3393051
   N       -0.4870637        0.4456674       -0.3819881
   N       -0.4870637        0.4456674        0.3819881
%ENDBLOCK POSITIONS_FRAC

KPOINTS_MP_SPACING 0.07

%BLOCK SPECIES_POT
QC5
%ENDBLOCK SPECIES_POT

SNAP_TO_SYMMETRY
SYMMETRY_GENERATE

