#              Generated by Buildcell
#
# at 20:27:17 (GMT+1.0) 26th March 2023
# in /scratch/scratch/uccabz1/launch_tmp_michael
# on node-a14b-022
# by uccabz1
#
# compiler GCC version 4.9.2
# options -cpp -iprefix /scratch/UCL/applications/gcc/4.9.2/bin/../lib/gcc/x86_64-unknown-linux-gnu/4.9.2/ -mtune=corei7 -march=x86-64 -g -Og
#
# seed   655717496  1949848787  1961226790   838529107   359787125 -2072904295 -1836134980  1070312481  -283641042  -991251383  -284880918 -1800725133
#
#      Author: C. J. Pickard (cjp20@cam.ac.uk)
#                Space group: P32
#

%BLOCK LATTICE_ABC
      2.94859      2.94859     11.38409
     90.00000     90.00000    120.00000
%ENDBLOCK LATTICE_ABC

%BLOCK POSITIONS_FRAC
  Li       -0.0284427        0.0085346       -0.2572012
  Li       -0.0085346       -0.0369773        0.4094654
  Li        0.0369773        0.0284427        0.0761321
   N       -0.4618601        0.4106832       -0.0424237
   N       -0.4106832        0.1274567       -0.3757570
   N       -0.1274567        0.4618601        0.2909097
   N        0.1522080        0.4460155       -0.1222463
   N       -0.4460155       -0.2938075       -0.4555797
   N        0.2938075       -0.1522080        0.2110870
%ENDBLOCK POSITIONS_FRAC

KPOINTS_MP_SPACING 0.07

%BLOCK SPECIES_POT
QC5
%ENDBLOCK SPECIES_POT

SNAP_TO_SYMMETRY
SYMMETRY_GENERATE

