#              Generated by Buildcell
#
# at 18:30:16 (GMT+1.0) 26th March 2023
# in /scratch/scratch/uccabz1/launch_tmp_michael
# on node-a14e-007
# by uccabz1
#
# compiler GCC version 4.9.2
# options -cpp -iprefix /scratch/UCL/applications/gcc/4.9.2/bin/../lib/gcc/x86_64-unknown-linux-gnu/4.9.2/ -mtune=corei7 -march=x86-64 -g -Og
#
# seed  -165063000  -373534774 -2114692642    70676600   142983561 -1110212246   -44412014 -1737890398  -240869476 -1047807177  2088248167  -272235604
#
#      Author: C. J. Pickard (cjp20@cam.ac.uk)
#                Space group: P3
#

%BLOCK LATTICE_ABC
      2.74847      6.07456      6.07456
    120.00000     90.00000     90.00000
%ENDBLOCK LATTICE_ABC

%BLOCK POSITIONS_FRAC
  Li        0.4685837        0.0505232        0.4875077
  Li        0.4685837        0.4369845       -0.0505232
  Li        0.4685837       -0.4875077       -0.4369845
   N       -0.0576322        0.2496005        0.4382033
   N       -0.0576322        0.1886028       -0.2496005
   N       -0.0576322       -0.4382033       -0.1886028
   N       -0.0470964       -0.1540416       -0.0267358
   N       -0.0470964        0.1273057        0.1540416
   N       -0.0470964        0.0267358       -0.1273057
%ENDBLOCK POSITIONS_FRAC

KPOINTS_MP_SPACING 0.07

%BLOCK SPECIES_POT
QC5
%ENDBLOCK SPECIES_POT

SNAP_TO_SYMMETRY
SYMMETRY_GENERATE

