#              Generated by Buildcell
#
# at 17:17:20 (GMT+1.0) 26th March 2023
# in /scratch/scratch/uccabz1/launch_tmp_michael
# on node-a14e-007
# by uccabz1
#
# compiler GCC version 4.9.2
# options -cpp -iprefix /scratch/UCL/applications/gcc/4.9.2/bin/../lib/gcc/x86_64-unknown-linux-gnu/4.9.2/ -mtune=corei7 -march=x86-64 -g -Og
#
# seed   727145046   905021178  -841113889  -798838498  -300473883   800166730  1416767415   -93796552   752100693  -916865462   258828998  1980518784
#
#      Author: C. J. Pickard (cjp20@cam.ac.uk)
#                Space group: R3
#

%BLOCK LATTICE_ABC
      5.36239      5.36239      5.36239
     65.21216     65.21216     65.21216
%ENDBLOCK LATTICE_ABC

%BLOCK POSITIONS_FRAC
  Li       -0.4275410        0.0706723       -0.2121631
  Li       -0.2121631       -0.4275410        0.0706723
  Li        0.0706723       -0.2121631       -0.4275410
  Li        0.0651997        0.0651997        0.0651997
   N       -0.4981141       -0.3285896       -0.1227105
   N       -0.1227105       -0.4981141       -0.3285896
   N       -0.3285896       -0.1227105       -0.4981141
   N        0.4911205        0.1710906        0.3733005
   N        0.3733005        0.4911205        0.1710906
   N        0.1710906        0.3733005        0.4911205
   N       -0.0912678       -0.0912678       -0.0912678
   N        0.2490929        0.2490929        0.2490929
%ENDBLOCK POSITIONS_FRAC

KPOINTS_MP_SPACING 0.07

%BLOCK SPECIES_POT
QC5
%ENDBLOCK SPECIES_POT

SNAP_TO_SYMMETRY
SYMMETRY_GENERATE

