#              Generated by Buildcell
#
# at 17:44:43 (GMT+1.0) 26th March 2023
# in /scratch/scratch/uccabz1/launch_tmp_michael
# on node-a14a-019
# by uccabz1
#
# compiler GCC version 4.9.2
# options -cpp -iprefix /scratch/UCL/applications/gcc/4.9.2/bin/../lib/gcc/x86_64-unknown-linux-gnu/4.9.2/ -mtune=corei7 -march=x86-64 -g -Og
#
# seed -1641621307  1441299995  2121410016 -1399949068 -1949017226 -1657636172    53132428   597381503   283391934   657529270   220618044  1135142801
#
#      Author: C. J. Pickard (cjp20@cam.ac.uk)
#                Space group: Ima2
#

%BLOCK LATTICE_ABC
      4.60145      5.11122      6.03449
    115.05577    112.41191     90.00000
%ENDBLOCK LATTICE_ABC

%BLOCK POSITIONS_FRAC
  Li        0.3938393       -0.3144993        0.3673726
  Li        0.0264667        0.3144993       -0.3673726
  Li        0.0264667       -0.1818720       -0.3673726
  Li        0.3938393        0.1818720        0.3673726
   N       -0.2157171       -0.4684311        0.2693389
   N       -0.4850561        0.4684311       -0.2693389
   N       -0.4850561       -0.2377700       -0.2693389
   N       -0.2157171        0.2377700        0.2693389
   N       -0.0181509        0.4533925        0.1094292
   N       -0.1275801       -0.4533925       -0.1094292
   N       -0.1275801       -0.1560367       -0.1094292
   N       -0.0181509        0.1560367        0.1094292
%ENDBLOCK POSITIONS_FRAC

KPOINTS_MP_SPACING 0.07

%BLOCK SPECIES_POT
QC5
%ENDBLOCK SPECIES_POT

SNAP_TO_SYMMETRY
SYMMETRY_GENERATE

