#              Generated by Buildcell
#
# at 15:10:05 (GMT+1.0) 26th March 2023
# in /scratch/scratch/uccabz1/launch_tmp_michael
# on node-a14f-035
# by uccabz1
#
# compiler GCC version 4.9.2
# options -cpp -iprefix /scratch/UCL/applications/gcc/4.9.2/bin/../lib/gcc/x86_64-unknown-linux-gnu/4.9.2/ -mtune=corei7 -march=x86-64 -g -Og
#
# seed   399529057  -783517679  2113185242   223225635   863205090  -899996784 -1629584767  -546876457  -467454825  1036602113  1034678366 -1498874543
#
#      Author: C. J. Pickard (cjp20@cam.ac.uk)
#                Space group: Ama2
#

%BLOCK LATTICE_ABC
      5.16248      5.90150      6.89560
     90.00000     90.00000    115.93731
%ENDBLOCK LATTICE_ABC

%BLOCK POSITIONS_FRAC
  Li        0.1007850       -0.3163499       -0.4828075
  Li       -0.4171348       -0.3163499        0.4828075
  Li       -0.4171348       -0.3163499        0.0171925
  Li        0.1007850       -0.3163499       -0.0171925
  Li        0.1035294        0.2241180        0.2500000
  Li        0.1205886        0.2241180       -0.2500000
   N       -0.3068954        0.4516270        0.3589458
   N       -0.2414777        0.4516270       -0.3589458
   N       -0.2414777        0.4516270       -0.1410542
   N       -0.3068954        0.4516270        0.1410542
   N        0.4519730        0.2799170       -0.0905015
   N       -0.1720560        0.2799170        0.0905015
   N       -0.1720560        0.2799170        0.4094985
   N        0.4519730        0.2799170       -0.4094985
   N       -0.2215839       -0.0219759       -0.1353893
   N        0.1996080       -0.0219759        0.1353893
   N        0.1996080       -0.0219759        0.3646107
   N       -0.2215839       -0.0219759       -0.3646107
%ENDBLOCK POSITIONS_FRAC

KPOINTS_MP_SPACING 0.07

%BLOCK SPECIES_POT
QC5
%ENDBLOCK SPECIES_POT

SNAP_TO_SYMMETRY
SYMMETRY_GENERATE

