#              Generated by Buildcell
#
# at 15:38:01 (GMT+1.0) 26th March 2023
# in /scratch/scratch/uccabz1/launch_tmp_michael
# on node-a14e-007
# by uccabz1
#
# compiler GCC version 4.9.2
# options -cpp -iprefix /scratch/UCL/applications/gcc/4.9.2/bin/../lib/gcc/x86_64-unknown-linux-gnu/4.9.2/ -mtune=corei7 -march=x86-64 -g -Og
#
# seed  -110330022   607468055 -1363881691  -850615279 -1076471920   221468442  1856894590 -2099735014   212449803  -682231886 -1637210642  -234022273
#
#      Author: C. J. Pickard (cjp20@cam.ac.uk)
#                Space group: Cmm2
#

%BLOCK LATTICE_ABC
      2.49990      4.99978      5.27561
    118.28501     90.00000     90.00000
%ENDBLOCK LATTICE_ABC

%BLOCK POSITIONS_FRAC
  Li        0.0477653        0.5000000       -0.5000000
  Li        0.0477653        0.0000000        0.5000000
   N       -0.4522348       -0.2611168       -0.2087225
   N       -0.4522348        0.2611168        0.2087225
   N       -0.4522348       -0.0523943        0.2087225
   N       -0.4522348        0.0523943       -0.2087225
%ENDBLOCK POSITIONS_FRAC

KPOINTS_MP_SPACING 0.07

%BLOCK SPECIES_POT
QC5
%ENDBLOCK SPECIES_POT

SNAP_TO_SYMMETRY
SYMMETRY_GENERATE

