#              Generated by Buildcell
#
# at 16:55:01 (GMT+1.0) 26th March 2023
# in /scratch/scratch/uccabz1/launch_tmp_michael
# on node-a14a-003
# by uccabz1
#
# compiler GCC version 4.9.2
# options -cpp -iprefix /scratch/UCL/applications/gcc/4.9.2/bin/../lib/gcc/x86_64-unknown-linux-gnu/4.9.2/ -mtune=corei7 -march=x86-64 -g -Og
#
# seed -2040775605  -514398416  -436146081    29971055    87976191 -1481538837  1705019908  1498427948 -1192410481 -2091278662 -1805313888   463323665
#
#      Author: C. J. Pickard (cjp20@cam.ac.uk)
#                Space group: C2
#

%BLOCK LATTICE_ABC
      4.13332      4.89708      4.89708
     79.46953     70.41422     70.41422
%ENDBLOCK LATTICE_ABC

%BLOCK POSITIONS_FRAC
  Li       -0.4502485       -0.1260247       -0.3181204
  Li        0.4502485        0.3181204        0.1260247
  Li       -0.5000000        0.4037174       -0.4037174
   N        0.1673960        0.2010895       -0.4234933
   N       -0.1673960        0.4234933       -0.2010895
   N        0.2341199        0.1889637       -0.0924655
   N       -0.2341199        0.0924655       -0.1889637
   N       -0.0609646        0.3376035        0.1886137
   N        0.0609646       -0.1886137       -0.3376035
%ENDBLOCK POSITIONS_FRAC

KPOINTS_MP_SPACING 0.07

%BLOCK SPECIES_POT
QC5
%ENDBLOCK SPECIES_POT

SNAP_TO_SYMMETRY
SYMMETRY_GENERATE

