#              Generated by Buildcell
#
# at 15:44:26 (GMT+1.0) 26th March 2023
# in /scratch/scratch/uccabz1/launch_tmp_michael
# on node-a14a-019
# by uccabz1
#
# compiler GCC version 4.9.2
# options -cpp -iprefix /scratch/UCL/applications/gcc/4.9.2/bin/../lib/gcc/x86_64-unknown-linux-gnu/4.9.2/ -mtune=corei7 -march=x86-64 -g -Og
#
# seed  -757811594   335554511  -214270439 -1894527225  -848877025 -1698985454 -1149093442  -115527963 -1499927312  -550478816 -1095282831   858706945
#
#      Author: C. J. Pickard (cjp20@cam.ac.uk)
#                Space group: Cc
#

%BLOCK LATTICE_ABC
      3.00182      3.00182      7.11457
     98.30750     99.64684    105.09318
%ENDBLOCK LATTICE_ABC

%BLOCK POSITIONS_FRAC
  Li       -0.1867871       -0.4882437       -0.3280228
  Li       -0.3397792       -0.1412357        0.1719772
   N        0.0698471       -0.2029658       -0.0115832
   N       -0.3086174       -0.0814303        0.4884168
   N        0.3032904        0.2946859        0.2426603
   N        0.4479744       -0.0606300       -0.2573397
%ENDBLOCK POSITIONS_FRAC

KPOINTS_MP_SPACING 0.07

%BLOCK SPECIES_POT
QC5
%ENDBLOCK SPECIES_POT

SNAP_TO_SYMMETRY
SYMMETRY_GENERATE

