#              Generated by Buildcell
#
# at 19:03:23 (GMT+1.0) 26th March 2023
# in /scratch/scratch/uccabz1/launch_tmp_michael
# on node-a14e-021
# by uccabz1
#
# compiler GCC version 4.9.2
# options -cpp -iprefix /scratch/UCL/applications/gcc/4.9.2/bin/../lib/gcc/x86_64-unknown-linux-gnu/4.9.2/ -mtune=corei7 -march=x86-64 -g -Og
#
# seed   281547273  1921071702  -409155820 -1105886430  1815027989  1018732070  1869991071 -1421645765  -748199587   763760311  1581788315  1812601521
#
#      Author: C. J. Pickard (cjp20@cam.ac.uk)
#                Space group: P-1
#

%BLOCK LATTICE_ABC
      3.35794      4.88528      6.06391
     69.39950     85.84358     88.18130
%ENDBLOCK LATTICE_ABC

%BLOCK POSITIONS_FRAC
  Li       -0.3425084        0.1878622        0.3192034
  Li        0.3425084       -0.1878622       -0.3192034
  Li       -0.5000000        0.0000000        0.0000000
   N        0.1809191       -0.3180101        0.0078314
   N       -0.1809191        0.3180101       -0.0078314
   N       -0.1849942       -0.3732557       -0.1805374
   N        0.1849942        0.3732557        0.1805374
   N        0.3789761        0.4268573       -0.0955652
   N       -0.3789761       -0.4268573        0.0955652
%ENDBLOCK POSITIONS_FRAC

KPOINTS_MP_SPACING 0.07

%BLOCK SPECIES_POT
QC5
%ENDBLOCK SPECIES_POT

SNAP_TO_SYMMETRY
SYMMETRY_GENERATE

