#              Generated by Buildcell
#
# at 18:28:32 (GMT+1.0) 26th March 2023
# in /scratch/scratch/uccabz1/launch_tmp_michael
# on node-a14f-035
# by uccabz1
#
# compiler GCC version 4.9.2
# options -cpp -iprefix /scratch/UCL/applications/gcc/4.9.2/bin/../lib/gcc/x86_64-unknown-linux-gnu/4.9.2/ -mtune=corei7 -march=x86-64 -g -Og
#
# seed   653354875  -583219918  1730438808  -138038516 -1600702718  -536036092  1454542172  1231107544 -1777152725  1243305517   -52815627  1439240720
#
#      Author: C. J. Pickard (cjp20@cam.ac.uk)
#                Space group: Ima2
#

%BLOCK LATTICE_ABC
      5.15053      5.52776      5.58463
    119.66371    117.46028     90.00000
%ENDBLOCK LATTICE_ABC

%BLOCK POSITIONS_FRAC
  Li        0.2673091       -0.1749756       -0.3022135
  Li       -0.4304774        0.1749756        0.3022135
  Li       -0.4304774       -0.3727621        0.3022135
  Li        0.2673091        0.3727621       -0.3022135
   N        0.0180939       -0.4358372       -0.0996945
   N        0.1177884        0.4358372        0.0996945
   N        0.1177884        0.1638573        0.0996945
   N        0.0180939       -0.1638573       -0.0996945
   N       -0.0829086        0.2223584       -0.3266406
   N        0.2437320       -0.2223584        0.3266406
   N        0.2437320        0.0489990        0.3266406
   N       -0.0829086       -0.0489990       -0.3266406
%ENDBLOCK POSITIONS_FRAC

KPOINTS_MP_SPACING 0.07

%BLOCK SPECIES_POT
QC5
%ENDBLOCK SPECIES_POT

SNAP_TO_SYMMETRY
SYMMETRY_GENERATE

