#              Generated by Buildcell
#
# at 17:00:30 (GMT+1.0) 26th March 2023
# in /scratch/scratch/uccabz1/launch_tmp_michael
# on node-a14e-021
# by uccabz1
#
# compiler GCC version 4.9.2
# options -cpp -iprefix /scratch/UCL/applications/gcc/4.9.2/bin/../lib/gcc/x86_64-unknown-linux-gnu/4.9.2/ -mtune=corei7 -march=x86-64 -g -Og
#
# seed -1681601750 -1741848431 -1461749610 -1825342820 -1176996910  -767220484  -534010537 -2097587695  -899777307 -1014557175  -250705867  1842238561
#
#      Author: C. J. Pickard (cjp20@cam.ac.uk)
#                Space group: Cm
#

%BLOCK LATTICE_ABC
      4.13199      4.13199      4.45417
    111.70209    111.70209     99.39814
%ENDBLOCK LATTICE_ABC

%BLOCK POSITIONS_FRAC
  Li        0.2344396       -0.2118365       -0.4530846
  Li       -0.2118365        0.2344396       -0.4530846
   N       -0.2377318        0.0008025        0.0783110
   N        0.0008025       -0.2377318        0.0783110
   N        0.2601915       -0.3884780       -0.1096946
   N       -0.3884780        0.2601915       -0.1096946
%ENDBLOCK POSITIONS_FRAC

KPOINTS_MP_SPACING 0.07

%BLOCK SPECIES_POT
QC5
%ENDBLOCK SPECIES_POT

SNAP_TO_SYMMETRY
SYMMETRY_GENERATE

