#              Generated by Buildcell
#
# at 15:45:15 (GMT+1.0) 26th March 2023
# in /scratch/scratch/uccabz1/launch_tmp_michael
# on node-a14a-003
# by uccabz1
#
# compiler GCC version 4.9.2
# options -cpp -iprefix /scratch/UCL/applications/gcc/4.9.2/bin/../lib/gcc/x86_64-unknown-linux-gnu/4.9.2/ -mtune=corei7 -march=x86-64 -g -Og
#
# seed -1514723418   165229704 -1775862729   504469553   170578866   508582419  1664915882  2119588913   635888188 -1097580264   214761004  1067734638
#
#      Author: C. J. Pickard (cjp20@cam.ac.uk)
#                Space group: P2
#

%BLOCK LATTICE_ABC
      3.34180      3.89954      7.06605
     90.00000     90.00000     93.19293
%ENDBLOCK LATTICE_ABC

%BLOCK POSITIONS_FRAC
  Li        0.2345424       -0.2388536       -0.1614978
  Li       -0.2345424        0.2388536       -0.1614978
  Li       -0.5000000       -0.5000000        0.4285157
   N        0.3144215        0.1498172        0.2122249
   N       -0.3144215       -0.1498172        0.2122249
   N        0.4125985        0.1739466       -0.3717523
   N       -0.4125985       -0.1739466       -0.3717523
   N       -0.3786402        0.3419900        0.0915812
   N        0.3786402       -0.3419900        0.0915812
%ENDBLOCK POSITIONS_FRAC

KPOINTS_MP_SPACING 0.07

%BLOCK SPECIES_POT
QC5
%ENDBLOCK SPECIES_POT

SNAP_TO_SYMMETRY
SYMMETRY_GENERATE

