#              Generated by Buildcell
#
# at 18:54:17 (GMT+1.0) 26th March 2023
# in /scratch/scratch/uccabz1/launch_tmp_michael
# on node-a14e-021
# by uccabz1
#
# compiler GCC version 4.9.2
# options -cpp -iprefix /scratch/UCL/applications/gcc/4.9.2/bin/../lib/gcc/x86_64-unknown-linux-gnu/4.9.2/ -mtune=corei7 -march=x86-64 -g -Og
#
# seed  1302925674 -2110048620  -736441829   832153434 -1672058546 -1679246755 -1173732408  -694642061  1063342280 -2044176820 -1934310906 -2097189728
#
#      Author: C. J. Pickard (cjp20@cam.ac.uk)
#                Space group: P-1
#

%BLOCK LATTICE_ABC
      4.30588      4.70972      4.79846
     97.31815    114.91762     96.26350
%ENDBLOCK LATTICE_ABC

%BLOCK POSITIONS_FRAC
  Li       -0.1813174       -0.2890530       -0.0404654
  Li        0.1813174        0.2890530        0.0404654
  Li       -0.0000000        0.0000000        0.5000000
   N        0.2231491       -0.3467691        0.3016698
   N       -0.2231491        0.3467691       -0.3016698
   N       -0.4908489        0.3453564       -0.1259238
   N        0.4908489       -0.3453564        0.1259238
   N        0.3997358       -0.4604860       -0.4027158
   N       -0.3997358        0.4604860        0.4027158
%ENDBLOCK POSITIONS_FRAC

KPOINTS_MP_SPACING 0.07

%BLOCK SPECIES_POT
QC5
%ENDBLOCK SPECIES_POT

SNAP_TO_SYMMETRY
SYMMETRY_GENERATE

