#              Generated by Buildcell
#
# at 17:02:49 (GMT+1.0) 26th March 2023
# in /scratch/scratch/uccabz1/launch_tmp_michael
# on node-a14c-005
# by uccabz1
#
# compiler GCC version 4.9.2
# options -cpp -iprefix /scratch/UCL/applications/gcc/4.9.2/bin/../lib/gcc/x86_64-unknown-linux-gnu/4.9.2/ -mtune=corei7 -march=x86-64 -g -Og
#
# seed   592055318  -830214277 -1214614597 -1401916410 -1424931202  -448623825  1805718736  -434323088  1852003317  1186888749  1117441161    -1155847
#
#      Author: C. J. Pickard (cjp20@cam.ac.uk)
#                Space group: R3
#

%BLOCK LATTICE_ABC
      5.61397      5.61397      5.61397
     60.09734     60.09734     60.09734
%ENDBLOCK LATTICE_ABC

%BLOCK POSITIONS_FRAC
  Li        0.1889081       -0.1595591        0.3412530
  Li       -0.1595591        0.3412530        0.1889081
  Li        0.3412530        0.1889081       -0.1595591
  Li       -0.2639140       -0.2639140       -0.2639140
   N       -0.3025405        0.1896423        0.0691846
   N        0.1896423        0.0691846       -0.3025405
   N        0.0691846       -0.3025405        0.1896423
   N       -0.3129226        0.2721895       -0.3023562
   N        0.2721895       -0.3023562       -0.3129226
   N       -0.3023562       -0.3129226        0.2721895
   N       -0.4023090       -0.4023090       -0.4023090
   N        0.2364418        0.2364418        0.2364418
%ENDBLOCK POSITIONS_FRAC

KPOINTS_MP_SPACING 0.07

%BLOCK SPECIES_POT
QC5
%ENDBLOCK SPECIES_POT

SNAP_TO_SYMMETRY
SYMMETRY_GENERATE

