#              Generated by Buildcell
#
# at 17:48:21 (GMT+1.0) 26th March 2023
# in /scratch/scratch/uccabz1/launch_tmp_michael
# on node-a14b-028
# by uccabz1
#
# compiler GCC version 4.9.2
# options -cpp -iprefix /scratch/UCL/applications/gcc/4.9.2/bin/../lib/gcc/x86_64-unknown-linux-gnu/4.9.2/ -mtune=corei7 -march=x86-64 -g -Og
#
# seed -1754634312 -1829913185   252137377 -1148183729  1823856706 -1557659445   346954996  -815490498  1101449008 -1221724091   463764832   412907954
#
#      Author: C. J. Pickard (cjp20@cam.ac.uk)
#                Space group: P2
#

%BLOCK LATTICE_ABC
      2.49999      5.41167      6.84529
     90.00000     90.00000     90.51229
%ENDBLOCK LATTICE_ABC

%BLOCK POSITIONS_FRAC
  Li       -0.2940842        0.2126625        0.0895020
  Li        0.2940842       -0.2126625        0.0895020
  Li       -0.5000000        0.0000000       -0.2268049
   N       -0.2637817        0.3357080       -0.2085552
   N        0.2637817       -0.3357080       -0.2085552
   N       -0.1126012       -0.3526990       -0.3821996
   N        0.1126012        0.3526990       -0.3821996
   N       -0.1591959       -0.3830297        0.2752183
   N        0.1591959        0.3830297        0.2752183
%ENDBLOCK POSITIONS_FRAC

KPOINTS_MP_SPACING 0.07

%BLOCK SPECIES_POT
QC5
%ENDBLOCK SPECIES_POT

SNAP_TO_SYMMETRY
SYMMETRY_GENERATE

