#              Generated by Buildcell
#
# at 16:47:01 (GMT+1.0) 26th March 2023
# in /scratch/scratch/uccabz1/launch_tmp_michael
# on node-a14e-007
# by uccabz1
#
# compiler GCC version 4.9.2
# options -cpp -iprefix /scratch/UCL/applications/gcc/4.9.2/bin/../lib/gcc/x86_64-unknown-linux-gnu/4.9.2/ -mtune=corei7 -march=x86-64 -g -Og
#
# seed  1298885497  -993249116  -220983746  1049222913 -1248340355  1893921400  1335441598  -149726217   991817141  1273576949  -994925866  2136609627
#
#      Author: C. J. Pickard (cjp20@cam.ac.uk)
#                Space group: R3
#

%BLOCK LATTICE_ABC
      4.31733      4.31733      4.31733
     61.84017     61.84017     61.84017
%ENDBLOCK LATTICE_ABC

%BLOCK POSITIONS_FRAC
  Li       -0.3775096       -0.3775096       -0.3775096
  Li        0.0875326        0.0875326        0.0875326
   N       -0.4531722        0.1570993        0.3714588
   N        0.3714588       -0.4531722        0.1570993
   N        0.1570993        0.3714588       -0.4531722
   N       -0.1952421       -0.1952421       -0.1952421
%ENDBLOCK POSITIONS_FRAC

KPOINTS_MP_SPACING 0.07

%BLOCK SPECIES_POT
QC5
%ENDBLOCK SPECIES_POT

SNAP_TO_SYMMETRY
SYMMETRY_GENERATE

