#              Generated by Buildcell
#
# at 18:05:16 (GMT+1.0) 26th March 2023
# in /scratch/scratch/uccabz1/launch_tmp_michael
# on node-a14f-035
# by uccabz1
#
# compiler GCC version 4.9.2
# options -cpp -iprefix /scratch/UCL/applications/gcc/4.9.2/bin/../lib/gcc/x86_64-unknown-linux-gnu/4.9.2/ -mtune=corei7 -march=x86-64 -g -Og
#
# seed   366157002   484538162  1162757315   776562473  -624777879  1372127381  1639662191  1819489927  1882144420   295069418 -1529884163  1803193070
#
#      Author: C. J. Pickard (cjp20@cam.ac.uk)
#                Space group: P-1
#

%BLOCK LATTICE_ABC
      4.12808      4.47681      5.55453
     90.81727    111.43122    108.35163
%ENDBLOCK LATTICE_ABC

%BLOCK POSITIONS_FRAC
  Li       -0.1982577       -0.1243374       -0.2466220
  Li        0.1982577        0.1243374        0.2466220
  Li       -0.5000000       -0.5000000       -0.0000000
   N       -0.3280609       -0.0202170        0.1076857
   N        0.3280609        0.0202170       -0.1076857
   N        0.1094210       -0.3361861       -0.0127575
   N       -0.1094210        0.3361861        0.0127575
   N        0.0204728       -0.4618829       -0.3621240
   N       -0.0204728        0.4618829        0.3621240
%ENDBLOCK POSITIONS_FRAC

KPOINTS_MP_SPACING 0.07

%BLOCK SPECIES_POT
QC5
%ENDBLOCK SPECIES_POT

SNAP_TO_SYMMETRY
SYMMETRY_GENERATE

