#              Generated by Buildcell
#
# at 20:04:36 (GMT+1.0) 26th March 2023
# in /scratch/scratch/uccabz1/launch_tmp_michael
# on node-a14b-022
# by uccabz1
#
# compiler GCC version 4.9.2
# options -cpp -iprefix /scratch/UCL/applications/gcc/4.9.2/bin/../lib/gcc/x86_64-unknown-linux-gnu/4.9.2/ -mtune=corei7 -march=x86-64 -g -Og
#
# seed    30355636  -706261952  1959683320 -1446478940 -1154787439   259886550   109060389  -102162416  -118962374  -132336490  1388582686  -182347307
#
#      Author: C. J. Pickard (cjp20@cam.ac.uk)
#                Space group: P-1
#

%BLOCK LATTICE_ABC
      4.90640      5.30500      7.68682
     69.83685     74.60786     83.75779
%ENDBLOCK LATTICE_ABC

%BLOCK POSITIONS_FRAC
  Li        0.1820239        0.3963256       -0.1499863
  Li       -0.1820239       -0.3963256        0.1499863
  Li        0.4171769       -0.7043809        0.3535824
  Li       -0.4171769        0.7043809       -0.3535824
  Li       -0.0559161        0.0098559       -0.1601205
  Li        0.0559161       -0.0098559        0.1601205
   N        0.1612323       -0.4418965        0.2428854
   N       -0.1612323        0.4418965       -0.2428854
   N        0.2750942        0.5862445       -0.4325951
   N       -0.2750942       -0.5862445        0.4325951
   N        0.1218891        0.3542544        0.1237147
   N       -0.1218891       -0.3542544       -0.1237147
   N       -0.4471396       -0.0843019        0.1361575
   N        0.4471396        0.0843019       -0.1361575
   N       -0.3078070        0.2500984       -0.3029760
   N        0.3078070       -0.2500984        0.3029760
   N        0.2034136       -0.1634759       -0.3167718
   N       -0.2034136        0.1634759        0.3167718
%ENDBLOCK POSITIONS_FRAC

KPOINTS_MP_SPACING 0.07

%BLOCK SPECIES_POT
QC5
%ENDBLOCK SPECIES_POT

SNAP_TO_SYMMETRY
SYMMETRY_GENERATE

