#              Generated by Buildcell
#
# at 17:25:11 (GMT+1.0) 26th March 2023
# in /scratch/scratch/uccabz1/launch_tmp_michael
# on node-a14e-021
# by uccabz1
#
# compiler GCC version 4.9.2
# options -cpp -iprefix /scratch/UCL/applications/gcc/4.9.2/bin/../lib/gcc/x86_64-unknown-linux-gnu/4.9.2/ -mtune=corei7 -march=x86-64 -g -Og
#
# seed  1678513323 -1755271621   760691067 -1702726541 -1706807816  1572795439 -2142434855 -1192154195 -1161195862  -901219691  1575518640   540229659
#
#      Author: C. J. Pickard (cjp20@cam.ac.uk)
#                Space group: P31
#

%BLOCK LATTICE_ABC
      5.27943      5.27943      7.78972
     90.00000     90.00000    120.00000
%ENDBLOCK LATTICE_ABC

%BLOCK POSITIONS_FRAC
  Li        0.0208185       -0.1916436       -0.1321410
  Li        0.1916436        0.2124621       -0.4654743
  Li       -0.2124621       -0.0208185        0.2011924
  Li        0.4054597       -0.0770749        0.4118192
  Li        0.0770749        0.4825345        0.0784859
  Li       -0.4825345       -0.4054597       -0.2548475
   N       -0.3212507        0.0858214       -0.0094985
   N       -0.0858214       -0.4070721       -0.3428319
   N        0.4070721        0.3212507        0.3238348
   N       -0.0730589       -0.2590775        0.1050952
   N        0.2590775        0.1860185       -0.2282381
   N       -0.1860185        0.0730589        0.4384285
   N       -0.1175112       -0.0965040       -0.3358959
   N        0.0965040       -0.0210073        0.3307708
   N        0.0210073        0.1175112       -0.0025626
   N       -0.3057969        0.2228903       -0.4204781
   N       -0.2228903        0.4713129        0.2461886
   N       -0.4713129        0.3057969       -0.0871448
%ENDBLOCK POSITIONS_FRAC

KPOINTS_MP_SPACING 0.07

%BLOCK SPECIES_POT
QC5
%ENDBLOCK SPECIES_POT

SNAP_TO_SYMMETRY
SYMMETRY_GENERATE

