#              Generated by Buildcell
#
# at 16:38:20 (GMT+1.0) 26th March 2023
# in /scratch/scratch/uccabz1/launch_tmp_michael
# on node-a14f-035
# by uccabz1
#
# compiler GCC version 4.9.2
# options -cpp -iprefix /scratch/UCL/applications/gcc/4.9.2/bin/../lib/gcc/x86_64-unknown-linux-gnu/4.9.2/ -mtune=corei7 -march=x86-64 -g -Og
#
# seed  -599849291  -697335753  -855565085 -2074931340  -258874228 -1564269230  1212282240 -2138064735   615560476    57172973 -1601476177  -709071676
#
#      Author: C. J. Pickard (cjp20@cam.ac.uk)
#                Space group: Pmm2
#

%BLOCK LATTICE_ABC
      4.53885      5.00014      7.65565
     90.00000     90.00000     90.00000
%ENDBLOCK LATTICE_ABC

%BLOCK POSITIONS_FRAC
  Li        0.0868421       -0.2500073        0.3363265
  Li        0.0868421        0.2500073       -0.3363265
  Li        0.0868421        0.2500073        0.3363265
  Li        0.0868421       -0.2500073       -0.3363265
  Li       -0.3902504       -0.5000000        0.3367218
  Li       -0.3902504        0.5000000       -0.3367218
   N        0.3804174       -0.3179238        0.1650502
   N        0.3804174        0.3179238       -0.1650502
   N        0.3804174        0.3179238        0.1650502
   N        0.3804174       -0.3179238       -0.1650502
   N       -0.2628737       -0.1601313       -0.2131669
   N       -0.2628737        0.1601313        0.2131669
   N       -0.2628737        0.1601313       -0.2131669
   N       -0.2628737       -0.1601313        0.2131669
   N       -0.0726636        0.3363358       -0.1006733
   N       -0.0726636       -0.3363358        0.1006733
   N       -0.0726636       -0.3363358       -0.1006733
   N       -0.0726636        0.3363358        0.1006733
%ENDBLOCK POSITIONS_FRAC

KPOINTS_MP_SPACING 0.07

%BLOCK SPECIES_POT
QC5
%ENDBLOCK SPECIES_POT

SNAP_TO_SYMMETRY
SYMMETRY_GENERATE

