#              Generated by Buildcell
#
# at 17:17:48 (GMT+1.0) 26th March 2023
# in /scratch/scratch/uccabz1/launch_tmp_michael
# on node-a14a-019
# by uccabz1
#
# compiler GCC version 4.9.2
# options -cpp -iprefix /scratch/UCL/applications/gcc/4.9.2/bin/../lib/gcc/x86_64-unknown-linux-gnu/4.9.2/ -mtune=corei7 -march=x86-64 -g -Og
#
# seed  1585737716  -339423175  2080502585 -1867543114 -1200729001   892964147 -1578887616 -1118315806  -117223958 -2095557299   930050933 -2114973433
#
#      Author: C. J. Pickard (cjp20@cam.ac.uk)
#                Space group: P31
#

%BLOCK LATTICE_ABC
      2.53411      6.35299      6.35299
    120.00000     90.00000     90.00000
%ENDBLOCK LATTICE_ABC

%BLOCK POSITIONS_FRAC
  Li        0.4516151        0.0803683       -0.2411064
  Li       -0.2150515       -0.3214748       -0.0803683
  Li        0.1182818        0.2411064        0.3214748
   N       -0.3094656        0.0134824        0.3856602
   N        0.0238678        0.3721778       -0.0134824
   N        0.3572011       -0.3856602       -0.3721778
   N        0.3551163        0.3971154       -0.1954987
   N       -0.3115503        0.4073859       -0.3971154
   N        0.0217830        0.1954987       -0.4073859
%ENDBLOCK POSITIONS_FRAC

KPOINTS_MP_SPACING 0.07

%BLOCK SPECIES_POT
QC5
%ENDBLOCK SPECIES_POT

SNAP_TO_SYMMETRY
SYMMETRY_GENERATE

