#              Generated by Buildcell
#
# at 18:31:26 (GMT+1.0) 26th March 2023
# in /scratch/scratch/uccabz1/launch_tmp_michael
# on node-a14e-021
# by uccabz1
#
# compiler GCC version 4.9.2
# options -cpp -iprefix /scratch/UCL/applications/gcc/4.9.2/bin/../lib/gcc/x86_64-unknown-linux-gnu/4.9.2/ -mtune=corei7 -march=x86-64 -g -Og
#
# seed   355178554 -2142870910  1293898651  1433897519   979321458  1469106227 -1481142997 -1890632640  1805845313 -2140357408  1016532687  -844171946
#
#      Author: C. J. Pickard (cjp20@cam.ac.uk)
#                Space group: P2
#

%BLOCK LATTICE_ABC
      3.82291      3.85331      8.52173
     90.00000     97.77484     90.00000
%ENDBLOCK LATTICE_ABC

%BLOCK POSITIONS_FRAC
  Li       -0.3338533        0.4294781       -0.3020479
  Li        0.3338533        0.4294781        0.3020479
  Li       -0.2773505       -0.3027993        0.1217833
  Li        0.2773505       -0.3027993       -0.1217833
   N        0.1660411       -0.1821674        0.4620371
   N       -0.1660411       -0.1821674       -0.4620371
   N        0.3123835        0.3619049       -0.4786051
   N       -0.3123835        0.3619049        0.4786051
   N       -0.2857140        0.1155981        0.0033573
   N        0.2857140        0.1155981       -0.0033573
   N       -0.2939316       -0.2286662        0.3452401
   N        0.2939316       -0.2286662       -0.3452401
%ENDBLOCK POSITIONS_FRAC

KPOINTS_MP_SPACING 0.07

%BLOCK SPECIES_POT
QC5
%ENDBLOCK SPECIES_POT

SNAP_TO_SYMMETRY
SYMMETRY_GENERATE

