#              Generated by Buildcell
#
# at 14:56:43 (GMT+1.0) 26th March 2023
# in /scratch/scratch/uccabz1/launch_tmp_michael
# on node-a14b-028
# by uccabz1
#
# compiler GCC version 4.9.2
# options -cpp -iprefix /scratch/UCL/applications/gcc/4.9.2/bin/../lib/gcc/x86_64-unknown-linux-gnu/4.9.2/ -mtune=corei7 -march=x86-64 -g -Og
#
# seed -1981667412 -1394074502   -26789182   865380637 -1020563763  1511424151  2065159579   347576987  1015093303  1687540471  1097662116  1155450941
#
#      Author: C. J. Pickard (cjp20@cam.ac.uk)
#                Space group: P-4
#

%BLOCK LATTICE_ABC
      3.26306      3.26306      8.19282
     90.00000     90.00000     90.00000
%ENDBLOCK LATTICE_ABC

%BLOCK POSITIONS_FRAC
  Li        0.0000000        0.5000000       -0.3109292
  Li       -0.5000000        0.0000000        0.3109292
  Li        0.0000000        0.0000000        0.0000000
   N        0.4555880       -0.2744859        0.0970891
   N       -0.4555880        0.2744859        0.0970891
   N        0.2744859        0.4555880       -0.0970891
   N       -0.2744859       -0.4555880       -0.0970891
   N       -0.5000000        0.0000000       -0.4565161
   N        0.0000000        0.5000000        0.4565161
%ENDBLOCK POSITIONS_FRAC

KPOINTS_MP_SPACING 0.07

%BLOCK SPECIES_POT
QC5
%ENDBLOCK SPECIES_POT

SNAP_TO_SYMMETRY
SYMMETRY_GENERATE

