#              Generated by Buildcell
#
# at 17:27:25 (GMT+1.0) 26th March 2023
# in /scratch/scratch/uccabz1/launch_tmp_michael
# on node-a14e-021
# by uccabz1
#
# compiler GCC version 4.9.2
# options -cpp -iprefix /scratch/UCL/applications/gcc/4.9.2/bin/../lib/gcc/x86_64-unknown-linux-gnu/4.9.2/ -mtune=corei7 -march=x86-64 -g -Og
#
# seed   126162084   -44186624   165797329   426233469  -581334814   779966635  -692053500  1169305032  1840788629   211522480  1473802830  1495613253
#
#      Author: C. J. Pickard (cjp20@cam.ac.uk)
#                Space group: P3
#

%BLOCK LATTICE_ABC
      4.59206      5.41651      5.41651
    120.00000     90.00000     90.00000
%ENDBLOCK LATTICE_ABC

%BLOCK POSITIONS_FRAC
  Li        0.0680473        0.4861220        0.4624853
  Li        0.0680473       -0.4624853        0.0236367
  Li        0.0680473       -0.0236367       -0.4861220
  Li       -0.3388289        0.3333333       -0.3333333
   N        0.3014753       -0.3264297       -0.1921767
   N        0.3014753        0.1921767       -0.1342531
   N        0.3014753        0.1342531        0.3264297
   N       -0.2996345       -0.3047469        0.1874633
   N       -0.2996345       -0.1874633       -0.4922102
   N       -0.2996345        0.4922102        0.3047469
   N       -0.1464059       -0.0000000        0.0000000
   N       -0.4745291       -0.0000000       -0.0000000
%ENDBLOCK POSITIONS_FRAC

KPOINTS_MP_SPACING 0.07

%BLOCK SPECIES_POT
QC5
%ENDBLOCK SPECIES_POT

SNAP_TO_SYMMETRY
SYMMETRY_GENERATE

