#              Generated by Buildcell
#
# at 18:57:14 (GMT+1.0) 26th March 2023
# in /scratch/scratch/uccabz1/launch_tmp_michael
# on node-a14a-003
# by uccabz1
#
# compiler GCC version 4.9.2
# options -cpp -iprefix /scratch/UCL/applications/gcc/4.9.2/bin/../lib/gcc/x86_64-unknown-linux-gnu/4.9.2/ -mtune=corei7 -march=x86-64 -g -Og
#
# seed  1362050928 -1569266267 -1755255660 -1249458880  1225017789   789002836  -786323606 -1863173503   324769080  1759820910  -234085387 -1157525739
#
#      Author: C. J. Pickard (cjp20@cam.ac.uk)
#                Space group: I212121
#

%BLOCK LATTICE_ABC
      4.02332      6.04904      6.21150
    119.13851    108.89653     90.00000
%ENDBLOCK LATTICE_ABC

%BLOCK POSITIONS_FRAC
  Li        0.3741959        0.4968888       -0.2516079
  Li        0.1258041        0.2484967        0.2516079
  Li       -0.1258039        0.2515033       -0.2516079
  Li       -0.3741961        0.0031112        0.2516079
   N       -0.2536391       -0.2711998        0.3113996
   N       -0.2463609       -0.0825993       -0.3113996
   N        0.0650387       -0.4174007        0.3113996
   N        0.4349613       -0.2288002       -0.3113996
   N       -0.2792317        0.4454237        0.3008070
   N       -0.2207683       -0.3553832       -0.3008070
   N        0.0800386       -0.1446168        0.3008070
   N        0.4199614        0.0545763       -0.3008070
%ENDBLOCK POSITIONS_FRAC

KPOINTS_MP_SPACING 0.07

%BLOCK SPECIES_POT
QC5
%ENDBLOCK SPECIES_POT

SNAP_TO_SYMMETRY
SYMMETRY_GENERATE

