#              Generated by Buildcell
#
# at 16:32:32 (GMT+1.0) 26th March 2023
# in /scratch/scratch/uccabz1/launch_tmp_michael
# on node-a14b-028
# by uccabz1
#
# compiler GCC version 4.9.2
# options -cpp -iprefix /scratch/UCL/applications/gcc/4.9.2/bin/../lib/gcc/x86_64-unknown-linux-gnu/4.9.2/ -mtune=corei7 -march=x86-64 -g -Og
#
# seed   827133426  -608963288 -1133475997 -1885162220 -1094099215  1879176509   297214703   -87125531  -975544496  1955601684  1543221040 -2059043002
#
#      Author: C. J. Pickard (cjp20@cam.ac.uk)
#                Space group: I4
#

%BLOCK LATTICE_ABC
      6.35922      6.35922      6.39822
    119.79855    119.79855     90.00000
%ENDBLOCK LATTICE_ABC

%BLOCK POSITIONS_FRAC
  Li       -0.4781730       -0.0119506        0.4603943
  Li       -0.0614328        0.4723448        0.4603943
  Li        0.4723448       -0.4781730        0.4603943
  Li       -0.0119506       -0.0614328        0.4603943
  Li        0.3902547       -0.1097453       -0.2194906
  Li       -0.1097453        0.3902547       -0.2194906
   N        0.3252988        0.1573384       -0.3516815
   N        0.3230197        0.4909801       -0.3516815
   N        0.4909801        0.3252988       -0.3516815
   N        0.1573384        0.3230197       -0.3516815
   N        0.2368161        0.2338794        0.0664496
   N       -0.1703665       -0.1674297        0.0664496
   N       -0.1674297        0.2368161        0.0664496
   N        0.2338794       -0.1703665        0.0664496
   N       -0.3884107        0.3640118       -0.0039159
   N        0.3844947       -0.3679277       -0.0039159
   N       -0.3679277       -0.3884107       -0.0039159
   N        0.3640118        0.3844947       -0.0039159
%ENDBLOCK POSITIONS_FRAC

KPOINTS_MP_SPACING 0.07

%BLOCK SPECIES_POT
QC5
%ENDBLOCK SPECIES_POT

SNAP_TO_SYMMETRY
SYMMETRY_GENERATE

