#              Generated by Buildcell
#
# at 20:27:40 (GMT+1.0) 26th March 2023
# in /scratch/scratch/uccabz1/launch_tmp_michael
# on node-a14e-021
# by uccabz1
#
# compiler GCC version 4.9.2
# options -cpp -iprefix /scratch/UCL/applications/gcc/4.9.2/bin/../lib/gcc/x86_64-unknown-linux-gnu/4.9.2/ -mtune=corei7 -march=x86-64 -g -Og
#
# seed  1114065576   207123977   562210991   409914854  1439836873  -168926066  1949060721  -657984288  -662536756  1340317966  -871373169   188745892
#
#      Author: C. J. Pickard (cjp20@cam.ac.uk)
#                Space group: C2
#

%BLOCK LATTICE_ABC
      4.06086      4.06086      6.48378
     93.35130     93.35130    117.45060
%ENDBLOCK LATTICE_ABC

%BLOCK POSITIONS_FRAC
  Li        0.2286742        0.2360683        0.3951784
  Li       -0.2360683       -0.2286742       -0.3951784
  Li        0.1668779       -0.1668779       -0.0000000
   N        0.0214979        0.2515039       -0.2331936
   N       -0.2515039       -0.0214979        0.2331936
   N        0.1276221       -0.2682116        0.3408479
   N        0.2682116       -0.1276221       -0.3408479
   N        0.0939191        0.4459279        0.1715058
   N       -0.4459279       -0.0939191       -0.1715058
%ENDBLOCK POSITIONS_FRAC

KPOINTS_MP_SPACING 0.07

%BLOCK SPECIES_POT
QC5
%ENDBLOCK SPECIES_POT

SNAP_TO_SYMMETRY
SYMMETRY_GENERATE

