#              Generated by Buildcell
#
# at 17:24:36 (GMT+1.0) 26th March 2023
# in /scratch/scratch/uccabz1/launch_tmp_michael
# on node-a14c-005
# by uccabz1
#
# compiler GCC version 4.9.2
# options -cpp -iprefix /scratch/UCL/applications/gcc/4.9.2/bin/../lib/gcc/x86_64-unknown-linux-gnu/4.9.2/ -mtune=corei7 -march=x86-64 -g -Og
#
# seed  -238645534   914607117   480454587  2020810558   936921594  1766481210   719505701  1453784276  -168978754 -1078243366  -838059301 -1150020533
#
#      Author: C. J. Pickard (cjp20@cam.ac.uk)
#                Space group: P-1
#

%BLOCK LATTICE_ABC
      3.11354      5.50867      7.36280
     80.52675     81.21499     76.10842
%ENDBLOCK LATTICE_ABC

%BLOCK POSITIONS_FRAC
  Li       -0.1760520       -0.1657300       -0.0537887
  Li        0.1760520        0.1657300        0.0537887
  Li        0.1366955        0.4738664       -0.2364880
  Li       -0.1366955       -0.4738664        0.2364880
   N       -0.2073970        0.2560998        0.4273154
   N        0.2073970       -0.2560998       -0.4273154
   N        0.3774256       -0.2269506        0.1453999
   N       -0.3774256        0.2269506       -0.1453999
   N       -0.3676642        0.2166896        0.2142132
   N        0.3676642       -0.2166896       -0.2142132
   N        0.0388208       -0.2944650        0.4015730
   N       -0.0388208        0.2944650       -0.4015730
%ENDBLOCK POSITIONS_FRAC

KPOINTS_MP_SPACING 0.07

%BLOCK SPECIES_POT
QC5
%ENDBLOCK SPECIES_POT

SNAP_TO_SYMMETRY
SYMMETRY_GENERATE

