#              Generated by Buildcell
#
# at 18:10:45 (GMT+1.0) 26th March 2023
# in /scratch/scratch/uccabz1/launch_tmp_michael
# on node-a14a-001
# by uccabz1
#
# compiler GCC version 4.9.2
# options -cpp -iprefix /scratch/UCL/applications/gcc/4.9.2/bin/../lib/gcc/x86_64-unknown-linux-gnu/4.9.2/ -mtune=corei7 -march=x86-64 -g -Og
#
# seed -1277759609   568553760  1311687519 -1487065235 -1125751445  1757802132 -1075275160   920795029 -1240086815  -982386441  1875846038  1892856776
#
#      Author: C. J. Pickard (cjp20@cam.ac.uk)
#                Space group: I222
#

%BLOCK LATTICE_ABC
      3.67710      4.50627      4.50627
     70.19924     65.92086     65.92086
%ENDBLOCK LATTICE_ABC

%BLOCK POSITIONS_FRAC
  Li       -0.0000000       -0.2587900        0.2587900
  Li        0.0000000        0.2587900       -0.2587900
   N        0.4458259       -0.2018636       -0.4173476
   N       -0.1733854        0.2018636        0.4173476
   N        0.1733854       -0.4173476       -0.2018636
   N       -0.4458259        0.4173476        0.2018636
%ENDBLOCK POSITIONS_FRAC

KPOINTS_MP_SPACING 0.07

%BLOCK SPECIES_POT
QC5
%ENDBLOCK SPECIES_POT

SNAP_TO_SYMMETRY
SYMMETRY_GENERATE

