#              Generated by Buildcell
#
# at 20:01:02 (GMT+1.0) 26th March 2023
# in /scratch/scratch/uccabz1/launch_tmp_michael
# on node-a14c-005
# by uccabz1
#
# compiler GCC version 4.9.2
# options -cpp -iprefix /scratch/UCL/applications/gcc/4.9.2/bin/../lib/gcc/x86_64-unknown-linux-gnu/4.9.2/ -mtune=corei7 -march=x86-64 -g -Og
#
# seed  2012409098  1482657419   359188573  1173359226  1262294105 -1202184126   106634920   635471846  1346783205    50264945  -722968878  1882953669
#
#      Author: C. J. Pickard (cjp20@cam.ac.uk)
#                Space group: Pc
#

%BLOCK LATTICE_ABC
      2.50000      3.94300      6.09087
     90.00000     90.00000    107.68347
%ENDBLOCK LATTICE_ABC

%BLOCK POSITIONS_FRAC
  Li        0.1038106       -0.2256939        0.3405723
  Li        0.6038106        0.2743061       -0.3405723
   N       -0.1516878       -0.2296494       -0.2785242
   N        0.3483122        0.2703506        0.2785242
   N       -0.2567317       -0.1697544        0.0700405
   N        0.2432683        0.3302456       -0.0700405
%ENDBLOCK POSITIONS_FRAC

KPOINTS_MP_SPACING 0.07

%BLOCK SPECIES_POT
QC5
%ENDBLOCK SPECIES_POT

SNAP_TO_SYMMETRY
SYMMETRY_GENERATE

