#              Generated by Buildcell
#
# at 17:01:55 (GMT+1.0) 26th March 2023
# in /scratch/scratch/uccabz1/launch_tmp_michael
# on node-a14e-007
# by uccabz1
#
# compiler GCC version 4.9.2
# options -cpp -iprefix /scratch/UCL/applications/gcc/4.9.2/bin/../lib/gcc/x86_64-unknown-linux-gnu/4.9.2/ -mtune=corei7 -march=x86-64 -g -Og
#
# seed  1263722168  -230115252 -1971256549  1161327607  -644994551  -588840798  1668805233  1181016237  1673034594 -1991958549  -776765578  -314248899
#
#      Author: C. J. Pickard (cjp20@cam.ac.uk)
#                Space group: P3
#

%BLOCK LATTICE_ABC
      4.14560      7.19782      7.19782
    120.00000     90.00000     90.00000
%ENDBLOCK LATTICE_ABC

%BLOCK POSITIONS_FRAC
  Li        0.0455627       -0.0862741        0.3259654
  Li        0.0455627       -0.3259654       -0.4122395
  Li        0.0455627        0.4122395        0.0862741
  Li       -0.1607689        0.0459421       -0.1735807
  Li       -0.1607689        0.1735807        0.2195228
  Li       -0.1607689       -0.2195228       -0.0459421
   N       -0.3363407        0.2693785       -0.2102713
   N       -0.3363407        0.2102713        0.4796498
   N       -0.3363407       -0.4796498       -0.2693785
   N        0.2946835        0.0398962       -0.4181963
   N        0.2946835        0.4181963        0.4580925
   N        0.2946835       -0.4580925       -0.0398962
   N        0.2637664        0.2705223        0.2136902
   N        0.2637664       -0.2136902        0.0568322
   N        0.2637664       -0.0568322       -0.2705223
   N       -0.4346918       -0.1024293       -0.4162230
   N       -0.4346918        0.4162230        0.3137936
   N       -0.4346918       -0.3137936        0.1024293
%ENDBLOCK POSITIONS_FRAC

KPOINTS_MP_SPACING 0.07

%BLOCK SPECIES_POT
QC5
%ENDBLOCK SPECIES_POT

SNAP_TO_SYMMETRY
SYMMETRY_GENERATE

