#              Generated by Buildcell
#
# at 17:08:48 (GMT+1.0) 26th March 2023
# in /scratch/scratch/uccabz1/launch_tmp_michael
# on node-a14b-031
# by uccabz1
#
# compiler GCC version 4.9.2
# options -cpp -iprefix /scratch/UCL/applications/gcc/4.9.2/bin/../lib/gcc/x86_64-unknown-linux-gnu/4.9.2/ -mtune=corei7 -march=x86-64 -g -Og
#
# seed   983357261 -1752585062  1355387716  -804821287  1007636138 -1368487109  1223306332   696157466  1510489306  1333254720 -1140873162  1304754135
#
#      Author: C. J. Pickard (cjp20@cam.ac.uk)
#                Space group: I212121
#

%BLOCK LATTICE_ABC
      4.33241      4.33241      4.33241
     98.55142    113.69875    116.70361
%ENDBLOCK LATTICE_ABC

%BLOCK POSITIONS_FRAC
  Li        0.2500000        0.1114358        0.3614358
  Li       -0.2500000        0.3885642        0.1385642
   N        0.4233771       -0.3781597        0.4571709
   N        0.3353306       -0.1218403       -0.1984633
   N        0.1646694        0.4662062        0.0428291
   N        0.0766229        0.0337938       -0.3015367
%ENDBLOCK POSITIONS_FRAC

KPOINTS_MP_SPACING 0.07

%BLOCK SPECIES_POT
QC5
%ENDBLOCK SPECIES_POT

SNAP_TO_SYMMETRY
SYMMETRY_GENERATE

