#              Generated by Buildcell
#
# at 20:02:09 (GMT+1.0) 26th March 2023
# in /scratch/scratch/uccabz1/launch_tmp_michael
# on node-a14f-035
# by uccabz1
#
# compiler GCC version 4.9.2
# options -cpp -iprefix /scratch/UCL/applications/gcc/4.9.2/bin/../lib/gcc/x86_64-unknown-linux-gnu/4.9.2/ -mtune=corei7 -march=x86-64 -g -Og
#
# seed  1261182720 -1655270896    26698097   487129420   883338148 -1281480981    85702967 -1177185614 -2074475628 -1515374760  1592762420 -1769650752
#
#      Author: C. J. Pickard (cjp20@cam.ac.uk)
#                Space group: Cc
#

%BLOCK LATTICE_ABC
      3.34683      4.72096      4.72096
    102.26857    109.28606    109.28606
%ENDBLOCK LATTICE_ABC

%BLOCK POSITIONS_FRAC
  Li        0.2230850       -0.3454564        0.0706880
  Li       -0.2769150        0.0706880       -0.3454564
   N       -0.0849335       -0.2710215       -0.4035137
   N        0.4150665       -0.4035137       -0.2710215
   N       -0.2852636       -0.0810369       -0.0045769
   N        0.2147364       -0.0045769       -0.0810369
%ENDBLOCK POSITIONS_FRAC

KPOINTS_MP_SPACING 0.07

%BLOCK SPECIES_POT
QC5
%ENDBLOCK SPECIES_POT

SNAP_TO_SYMMETRY
SYMMETRY_GENERATE

