#              Generated by Buildcell
#
# at 15:17:25 (GMT+1.0) 26th March 2023
# in /scratch/scratch/uccabz1/launch_tmp_michael
# on node-a14f-035
# by uccabz1
#
# compiler GCC version 4.9.2
# options -cpp -iprefix /scratch/UCL/applications/gcc/4.9.2/bin/../lib/gcc/x86_64-unknown-linux-gnu/4.9.2/ -mtune=corei7 -march=x86-64 -g -Og
#
# seed -1395990006   932521387  1739848525   515803685   991098959   990812906   242983185 -1611074882 -1773652070  1268874571 -1427503842 -1130990558
#
#      Author: C. J. Pickard (cjp20@cam.ac.uk)
#                Space group: Cm
#

%BLOCK LATTICE_ABC
      4.08395      5.00000      6.15956
    113.94585     96.53867     90.00000
%ENDBLOCK LATTICE_ABC

%BLOCK POSITIONS_FRAC
  Li       -0.4185144        0.3613680        0.2227361
  Li       -0.4185144       -0.1386320        0.2227361
  Li       -0.1357772       -0.4284689       -0.3569378
  Li       -0.1357772        0.0715311       -0.3569378
   N        0.3005486       -0.3948830       -0.4267008
   N        0.3005486       -0.0318178       -0.4267008
   N        0.0593898        0.4081011        0.3513079
   N        0.0593898       -0.0567932        0.3513079
   N        0.1680970        0.1256191       -0.0802650
   N        0.1680970       -0.2058841       -0.0802650
   N       -0.1433614        0.2849590       -0.0226106
   N       -0.1433614       -0.3075696       -0.0226106
%ENDBLOCK POSITIONS_FRAC

KPOINTS_MP_SPACING 0.07

%BLOCK SPECIES_POT
QC5
%ENDBLOCK SPECIES_POT

SNAP_TO_SYMMETRY
SYMMETRY_GENERATE

