#              Generated by Buildcell
#
# at 16:52:38 (GMT+1.0) 26th March 2023
# in /scratch/scratch/uccabz1/launch_tmp_michael
# on node-a14c-005
# by uccabz1
#
# compiler GCC version 4.9.2
# options -cpp -iprefix /scratch/UCL/applications/gcc/4.9.2/bin/../lib/gcc/x86_64-unknown-linux-gnu/4.9.2/ -mtune=corei7 -march=x86-64 -g -Og
#
# seed   690158589  1043515767   792368709   797735830   827446651  -568327828  -142573704 -1876089795  -216962222  -415579351 -1027166908  -978679613
#
#      Author: C. J. Pickard (cjp20@cam.ac.uk)
#                Space group: R3
#

%BLOCK LATTICE_ABC
      3.97558      3.97558      3.97558
     81.94054     81.94054     81.94054
%ENDBLOCK LATTICE_ABC

%BLOCK POSITIONS_FRAC
  Li        0.0039762        0.0039762        0.0039762
  Li       -0.3293762       -0.3293762       -0.3293762
   N       -0.4385942       -0.1417131        0.0922075
   N       -0.1417131        0.0922075       -0.4385942
   N        0.0922075       -0.4385942       -0.1417131
   N        0.3493153        0.3493153        0.3493153
%ENDBLOCK POSITIONS_FRAC

KPOINTS_MP_SPACING 0.07

%BLOCK SPECIES_POT
QC5
%ENDBLOCK SPECIES_POT

SNAP_TO_SYMMETRY
SYMMETRY_GENERATE

