#              Generated by Buildcell
#
# at 19:12:30 (GMT+1.0) 26th March 2023
# in /scratch/scratch/uccabz1/launch_tmp_michael
# on node-a14b-031
# by uccabz1
#
# compiler GCC version 4.9.2
# options -cpp -iprefix /scratch/UCL/applications/gcc/4.9.2/bin/../lib/gcc/x86_64-unknown-linux-gnu/4.9.2/ -mtune=corei7 -march=x86-64 -g -Og
#
# seed  -458126075    31401199    85702967 -1055641914  -895436700 -1550124056 -1453483473 -1362704344  -761167328 -1806085331 -1273309632  1895069033
#
#      Author: C. J. Pickard (cjp20@cam.ac.uk)
#                Space group: P2
#

%BLOCK LATTICE_ABC
      2.50109      4.50155      5.16680
     90.00000     90.00000     94.18732
%ENDBLOCK LATTICE_ABC

%BLOCK POSITIONS_FRAC
  Li        0.2816959        0.2411499        0.4492613
  Li       -0.2816959       -0.2411499        0.4492613
   N        0.4083333        0.1699086        0.0924615
   N       -0.4083333       -0.1699086        0.0924615
   N       -0.2688264        0.1438047       -0.1672399
   N        0.2688264       -0.1438047       -0.1672399
%ENDBLOCK POSITIONS_FRAC

KPOINTS_MP_SPACING 0.07

%BLOCK SPECIES_POT
QC5
%ENDBLOCK SPECIES_POT

SNAP_TO_SYMMETRY
SYMMETRY_GENERATE

