#              Generated by Buildcell
#
# at 16:05:22 (GMT+1.0) 26th March 2023
# in /scratch/scratch/uccabz1/launch_tmp_michael
# on node-a14a-001
# by uccabz1
#
# compiler GCC version 4.9.2
# options -cpp -iprefix /scratch/UCL/applications/gcc/4.9.2/bin/../lib/gcc/x86_64-unknown-linux-gnu/4.9.2/ -mtune=corei7 -march=x86-64 -g -Og
#
# seed  1254239911  1003903382   814603450  1916534795  -171361877  -432254195  -791657865   646370008   237559614  -801829430  1955325006   331097690
#
#      Author: C. J. Pickard (cjp20@cam.ac.uk)
#                Space group: Iba2
#

%BLOCK LATTICE_ABC
      5.67279      6.39288      6.70985
    118.44924    115.00650     90.00000
%ENDBLOCK LATTICE_ABC

%BLOCK POSITIONS_FRAC
  Li        0.3786975        0.3785782        0.2088328
  Li        0.1698647       -0.3785782       -0.2088328
  Li       -0.3301353        0.1697454       -0.2088328
  Li       -0.1213025       -0.1697454        0.2088328
  Li        0.0242937        0.0000000        0.0000000
  Li       -0.4757063        0.0000000       -0.0000000
   N       -0.3966456       -0.2755315       -0.2266040
   N       -0.1700415        0.2755315        0.2266040
   N        0.3299585       -0.0489275        0.2266040
   N        0.1033544        0.0489275       -0.2266040
   N        0.0291064        0.2275701        0.4269555
   N       -0.3978491       -0.2275701       -0.4269555
   N        0.1021509       -0.1993854       -0.4269555
   N       -0.4708936        0.1993854        0.4269555
   N        0.0245187        0.3758296       -0.0053746
   N        0.0298933       -0.3758296        0.0053746
   N       -0.4701067        0.3812042        0.0053746
   N       -0.4754813       -0.3812042       -0.0053746
%ENDBLOCK POSITIONS_FRAC

KPOINTS_MP_SPACING 0.07

%BLOCK SPECIES_POT
QC5
%ENDBLOCK SPECIES_POT

SNAP_TO_SYMMETRY
SYMMETRY_GENERATE

