#              Generated by Buildcell
#
# at 19:29:52 (GMT+1.0) 26th March 2023
# in /scratch/scratch/uccabz1/launch_tmp_michael
# on node-a14e-021
# by uccabz1
#
# compiler GCC version 4.9.2
# options -cpp -iprefix /scratch/UCL/applications/gcc/4.9.2/bin/../lib/gcc/x86_64-unknown-linux-gnu/4.9.2/ -mtune=corei7 -march=x86-64 -g -Og
#
# seed -1607207746  1012109768    66244522 -1086616139   564979497  -975294990 -1354073208 -2058658659  1899289315  1960125794 -1211000887 -1969620753
#
#      Author: C. J. Pickard (cjp20@cam.ac.uk)
#                Space group: P31
#

%BLOCK LATTICE_ABC
      2.94025      8.21087      8.21087
    120.00000     90.00000     90.00000
%ENDBLOCK LATTICE_ABC

%BLOCK POSITIONS_FRAC
  Li       -0.1559449       -0.3911980       -0.4209806
  Li        0.1773884        0.4209806        0.0297826
  Li       -0.4892782       -0.0297826        0.3911980
  Li       -0.4106690        0.1699027       -0.2599483
  Li       -0.0773356        0.2599483        0.4298510
  Li        0.2559977       -0.4298510       -0.1699027
   N        0.0894250        0.2452241       -0.3536133
   N        0.4227584        0.3536133       -0.4011626
   N       -0.2439083        0.4011626       -0.2452241
   N        0.4056106       -0.0376024       -0.0945836
   N       -0.2610561        0.0945836        0.0569812
   N        0.0722772       -0.0569812        0.0376024
   N        0.2562260       -0.1296606       -0.3163150
   N       -0.4104407        0.3163150        0.1866543
   N       -0.0771073       -0.1866543        0.1296606
   N        0.1305626       -0.2149492       -0.1924194
   N        0.4638959        0.1924194       -0.0225298
   N       -0.2027707        0.0225298        0.2149492
%ENDBLOCK POSITIONS_FRAC

KPOINTS_MP_SPACING 0.07

%BLOCK SPECIES_POT
QC5
%ENDBLOCK SPECIES_POT

SNAP_TO_SYMMETRY
SYMMETRY_GENERATE

