#              Generated by Buildcell
#
# at 16:22:52 (GMT+1.0) 26th March 2023
# in /scratch/scratch/uccabz1/launch_tmp_michael
# on node-a14f-035
# by uccabz1
#
# compiler GCC version 4.9.2
# options -cpp -iprefix /scratch/UCL/applications/gcc/4.9.2/bin/../lib/gcc/x86_64-unknown-linux-gnu/4.9.2/ -mtune=corei7 -march=x86-64 -g -Og
#
# seed -1242485576  1025981122 -1214617890  1119945648  -195346610  -556152055      412027  1881340076   322764533   528355116  -468535979  -294094406
#
#      Author: C. J. Pickard (cjp20@cam.ac.uk)
#                Space group: Cm
#

%BLOCK LATTICE_ABC
      4.00388      4.03572      4.03572
    107.63567     91.76753     91.76753
%ENDBLOCK LATTICE_ABC

%BLOCK POSITIONS_FRAC
  Li       -0.0152085        0.4740273        0.0902866
  Li       -0.0152085        0.0902866        0.4740273
   N       -0.4456730        0.4091725       -0.2320777
   N       -0.4456730       -0.2320777        0.4091725
   N       -0.3318171       -0.1501002        0.0904499
   N       -0.3318171        0.0904499       -0.1501002
%ENDBLOCK POSITIONS_FRAC

KPOINTS_MP_SPACING 0.07

%BLOCK SPECIES_POT
QC5
%ENDBLOCK SPECIES_POT

SNAP_TO_SYMMETRY
SYMMETRY_GENERATE

