#              Generated by Buildcell
#
# at 14:51:21 (GMT+1.0) 26th March 2023
# in /scratch/scratch/uccabz1/launch_tmp_michael
# on node-a14f-035
# by uccabz1
#
# compiler GCC version 4.9.2
# options -cpp -iprefix /scratch/UCL/applications/gcc/4.9.2/bin/../lib/gcc/x86_64-unknown-linux-gnu/4.9.2/ -mtune=corei7 -march=x86-64 -g -Og
#
# seed  -149474501  -600704452  -139726786 -1123530673   110708052  1215547725 -1907767380   989909564 -1760884122  1272814402 -1528787755 -1117052294
#
#      Author: C. J. Pickard (cjp20@cam.ac.uk)
#                Space group: I222
#

%BLOCK LATTICE_ABC
      4.16415      5.17018      5.17018
     67.88538     66.25245     66.25245
%ENDBLOCK LATTICE_ABC

%BLOCK POSITIONS_FRAC
  Li        0.3333332       -0.3333332       -0.3333332
  Li       -0.3333332        0.3333332        0.3333332
  Li        0.0000000       -0.0000000        0.0000000
   N       -0.0141999        0.4871011       -0.2817150
   N        0.0141999        0.2817150       -0.4871011
   N        0.1911862       -0.4871011        0.2817150
   N       -0.1911862       -0.2817150        0.4871011
   N        0.3075583        0.1924417        0.1924417
   N       -0.3075583       -0.1924417       -0.1924417
%ENDBLOCK POSITIONS_FRAC

KPOINTS_MP_SPACING 0.07

%BLOCK SPECIES_POT
QC5
%ENDBLOCK SPECIES_POT

SNAP_TO_SYMMETRY
SYMMETRY_GENERATE

