#              Generated by Buildcell
#
# at 17:05:38 (GMT+1.0) 26th March 2023
# in /scratch/scratch/uccabz1/launch_tmp_michael
# on node-a14b-028
# by uccabz1
#
# compiler GCC version 4.9.2
# options -cpp -iprefix /scratch/UCL/applications/gcc/4.9.2/bin/../lib/gcc/x86_64-unknown-linux-gnu/4.9.2/ -mtune=corei7 -march=x86-64 -g -Og
#
# seed  2078008899  -233623335  -370522568   596346539 -1681133495  1822488485  -714813187   563614957 -1249842091  -617917664   -50217614  1707070847
#
#      Author: C. J. Pickard (cjp20@cam.ac.uk)
#                Space group: P31
#

%BLOCK LATTICE_ABC
      5.50452      5.50452      6.62583
     90.00000     90.00000    120.00000
%ENDBLOCK LATTICE_ABC

%BLOCK POSITIONS_FRAC
  Li       -0.3691497       -0.3639360        0.0334762
  Li        0.3639360       -0.0052137       -0.2998571
  Li        0.0052137        0.3691497        0.3668095
  Li       -0.0323385        0.1523293        0.0222892
  Li       -0.1523293       -0.1846678       -0.3110442
  Li        0.1846678        0.0323385        0.3556225
   N        0.4850247        0.2932766       -0.1112783
   N       -0.2932766        0.1917481       -0.4446117
   N       -0.1917481       -0.4850247        0.2220550
   N        0.3570465       -0.1837832        0.2942104
   N        0.1837832       -0.4591703       -0.0391229
   N        0.4591703       -0.3570465       -0.3724562
   N        0.1578359       -0.2786572        0.4996328
   N        0.2786572        0.4364931        0.1662995
   N       -0.4364931       -0.1578359       -0.1670339
   N       -0.2252318       -0.1619129        0.2781426
   N        0.1619129       -0.0633189       -0.0551908
   N        0.0633189        0.2252318       -0.3885241
%ENDBLOCK POSITIONS_FRAC

KPOINTS_MP_SPACING 0.07

%BLOCK SPECIES_POT
QC5
%ENDBLOCK SPECIES_POT

SNAP_TO_SYMMETRY
SYMMETRY_GENERATE

