#              Generated by Buildcell
#
# at 18:47:18 (GMT+1.0) 26th March 2023
# in /scratch/scratch/uccabz1/launch_tmp_michael
# on node-a14e-021
# by uccabz1
#
# compiler GCC version 4.9.2
# options -cpp -iprefix /scratch/UCL/applications/gcc/4.9.2/bin/../lib/gcc/x86_64-unknown-linux-gnu/4.9.2/ -mtune=corei7 -march=x86-64 -g -Og
#
# seed -1879316297  1183742239   397222344  -693996378 -1152177107 -1416046953 -2133749871   955771211  1346182407  1364730036   326424694  -345293819
#
#      Author: C. J. Pickard (cjp20@cam.ac.uk)
#                Space group: Pm
#

%BLOCK LATTICE_ABC
      3.22485      7.47001      7.51962
     90.00000     90.00000     94.25952
%ENDBLOCK LATTICE_ABC

%BLOCK POSITIONS_FRAC
  Li       -0.0177576       -0.2900147        0.2639506
  Li       -0.0177576       -0.2900147       -0.2639506
  Li        0.3220836        0.0162123        0.3216124
  Li        0.3220836        0.0162123       -0.3216124
  Li        0.0229452        0.2729810        0.1662307
  Li        0.0229452        0.2729810       -0.1662307
   N       -0.2689479        0.2037139       -0.3785082
   N       -0.2689479        0.2037139        0.3785082
   N        0.4868002        0.4112649        0.2638106
   N        0.4868002        0.4112649       -0.2638106
   N       -0.1760133        0.4022460        0.4002610
   N       -0.1760133        0.4022460       -0.4002610
   N        0.0050577       -0.4823340       -0.0997372
   N        0.0050577       -0.4823340        0.0997372
   N       -0.4133939       -0.4325156        0.4002617
   N       -0.4133939       -0.4325156       -0.4002617
   N       -0.1966847       -0.0928671        0.4002611
   N       -0.1966847       -0.0928671       -0.4002611
%ENDBLOCK POSITIONS_FRAC

KPOINTS_MP_SPACING 0.07

%BLOCK SPECIES_POT
QC5
%ENDBLOCK SPECIES_POT

SNAP_TO_SYMMETRY
SYMMETRY_GENERATE

