#              Generated by Buildcell
#
# at 19:00:10 (GMT+1.0) 26th March 2023
# in /scratch/scratch/uccabz1/launch_tmp_michael
# on node-a14b-028
# by uccabz1
#
# compiler GCC version 4.9.2
# options -cpp -iprefix /scratch/UCL/applications/gcc/4.9.2/bin/../lib/gcc/x86_64-unknown-linux-gnu/4.9.2/ -mtune=corei7 -march=x86-64 -g -Og
#
# seed  1121696322 -1113779442   715649091 -2050875298  -361264544  -126954073  -786218561  1044479912  -764128662 -1869503496  1437560351  -695874427
#
#      Author: C. J. Pickard (cjp20@cam.ac.uk)
#                Space group: Pm
#

%BLOCK LATTICE_ABC
      2.94787      3.75791      9.06093
     90.00000     90.00000    111.41889
%ENDBLOCK LATTICE_ABC

%BLOCK POSITIONS_FRAC
  Li       -0.0778144       -0.0532037        0.2786356
  Li       -0.0778144       -0.0532037       -0.2786356
  Li        0.4541681        0.0156338        0.5000000
   N        0.2227889        0.0085901        0.0900067
   N        0.2227889        0.0085901       -0.0900067
   N       -0.3672844       -0.1379374        0.0881544
   N       -0.3672844       -0.1379374       -0.0881544
   N       -0.0240857        0.3593664        0.1217888
   N       -0.0240857        0.3593664       -0.1217888
%ENDBLOCK POSITIONS_FRAC

KPOINTS_MP_SPACING 0.07

%BLOCK SPECIES_POT
QC5
%ENDBLOCK SPECIES_POT

SNAP_TO_SYMMETRY
SYMMETRY_GENERATE

