#              Generated by Buildcell
#
# at 18:46:08 (GMT+1.0) 26th March 2023
# in /scratch/scratch/uccabz1/launch_tmp_michael
# on node-a14e-021
# by uccabz1
#
# compiler GCC version 4.9.2
# options -cpp -iprefix /scratch/UCL/applications/gcc/4.9.2/bin/../lib/gcc/x86_64-unknown-linux-gnu/4.9.2/ -mtune=corei7 -march=x86-64 -g -Og
#
# seed   658955329 -1540613393  1529943179 -2102288975   498131185  -975565880  1769790583  1797779289  1404461463  -603298752  1295510356   287697245
#
#      Author: C. J. Pickard (cjp20@cam.ac.uk)
#                Space group: P3
#

%BLOCK LATTICE_ABC
      3.65578      3.65578      5.24345
     90.00000     90.00000    120.00000
%ENDBLOCK LATTICE_ABC

%BLOCK POSITIONS_FRAC
  Li        0.0000000        0.0000000        0.1937246
  Li        0.3333333       -0.3333333        0.4492898
   N        0.2320067       -0.1557952       -0.2308767
   N       -0.3878018       -0.2320067       -0.2308767
   N        0.1557952        0.3878018       -0.2308767
   N        0.3333333       -0.3333333        0.0839006
%ENDBLOCK POSITIONS_FRAC

KPOINTS_MP_SPACING 0.07

%BLOCK SPECIES_POT
QC5
%ENDBLOCK SPECIES_POT

SNAP_TO_SYMMETRY
SYMMETRY_GENERATE

