#              Generated by Buildcell
#
# at 16:44:25 (GMT+1.0) 26th March 2023
# in /scratch/scratch/uccabz1/launch_tmp_michael
# on node-a14b-031
# by uccabz1
#
# compiler GCC version 4.9.2
# options -cpp -iprefix /scratch/UCL/applications/gcc/4.9.2/bin/../lib/gcc/x86_64-unknown-linux-gnu/4.9.2/ -mtune=corei7 -march=x86-64 -g -Og
#
# seed  1439881849   365158597  -707403464  1362068506  -948194793  -817699807  1095304904 -1029841715  -271962841 -1841845951 -1304643704 -1663989316
#
#      Author: C. J. Pickard (cjp20@cam.ac.uk)
#                Space group: Pmn21
#

%BLOCK LATTICE_ABC
      2.95341      4.53312      4.61942
     90.00000     90.00000     90.00000
%ENDBLOCK LATTICE_ABC

%BLOCK POSITIONS_FRAC
  Li        0.1294014       -0.0864353        0.0000000
  Li       -0.3705986        0.0864353        0.5000000
   N        0.4582390       -0.3015807        0.3349025
   N       -0.0417610        0.3015807        0.1650975
   N       -0.0417610        0.3015807       -0.1650975
   N        0.4582390       -0.3015807       -0.3349025
%ENDBLOCK POSITIONS_FRAC

KPOINTS_MP_SPACING 0.07

%BLOCK SPECIES_POT
QC5
%ENDBLOCK SPECIES_POT

SNAP_TO_SYMMETRY
SYMMETRY_GENERATE

