#              Generated by Buildcell
#
# at 16:46:55 (GMT+1.0) 26th March 2023
# in /scratch/scratch/uccabz1/launch_tmp_michael
# on node-a14b-028
# by uccabz1
#
# compiler GCC version 4.9.2
# options -cpp -iprefix /scratch/UCL/applications/gcc/4.9.2/bin/../lib/gcc/x86_64-unknown-linux-gnu/4.9.2/ -mtune=corei7 -march=x86-64 -g -Og
#
# seed  -956248226  2112550314 -1192816731 -2127125904  1052468841   418036585 -1911352579  2055410906  1743386244  1117253826   -39565444  1755674071
#
#      Author: C. J. Pickard (cjp20@cam.ac.uk)
#                Space group: R3
#

%BLOCK LATTICE_ABC
      4.53176      4.53176      4.53176
     85.24444     85.24444     85.24444
%ENDBLOCK LATTICE_ABC

%BLOCK POSITIONS_FRAC
  Li       -0.4265659        0.1094102        0.2549394
  Li        0.2549394       -0.4265659        0.1094102
  Li        0.1094102        0.2549394       -0.4265659
   N       -0.1397993        0.3951375       -0.0542436
   N       -0.0542436       -0.1397993        0.3951375
   N        0.3951375       -0.0542436       -0.1397993
   N       -0.4925892        0.4596762       -0.2253334
   N       -0.2253334       -0.4925892        0.4596762
   N        0.4596762       -0.2253334       -0.4925892
%ENDBLOCK POSITIONS_FRAC

KPOINTS_MP_SPACING 0.07

%BLOCK SPECIES_POT
QC5
%ENDBLOCK SPECIES_POT

SNAP_TO_SYMMETRY
SYMMETRY_GENERATE

