#              Generated by Buildcell
#
# at 19:53:23 (GMT+1.0) 26th March 2023
# in /scratch/scratch/uccabz1/launch_tmp_michael
# on node-a14e-021
# by uccabz1
#
# compiler GCC version 4.9.2
# options -cpp -iprefix /scratch/UCL/applications/gcc/4.9.2/bin/../lib/gcc/x86_64-unknown-linux-gnu/4.9.2/ -mtune=corei7 -march=x86-64 -g -Og
#
# seed  -830558459 -1285087892  -663239809 -1672269240   609014370 -1905465461  1619085448  1170214481  -457115582 -1873418342  1030632716   -86817252
#
#      Author: C. J. Pickard (cjp20@cam.ac.uk)
#                Space group: P3
#

%BLOCK LATTICE_ABC
      4.23288      4.23288      7.62717
     90.00000     90.00000    120.00000
%ENDBLOCK LATTICE_ABC

%BLOCK POSITIONS_FRAC
  Li        0.0000021        0.3333333        0.2066788
  Li        0.3333312       -0.0000021        0.2066788
  Li       -0.3333333       -0.3333312        0.2066788
  Li       -0.3333333        0.3333333       -0.0638960
   N       -0.3454282       -0.3106668       -0.4201576
   N        0.0347614        0.3454282       -0.4201576
   N        0.3106668       -0.0347614       -0.4201576
   N       -0.2121292       -0.2591164       -0.2108178
   N       -0.0469871        0.2121292       -0.2108178
   N        0.2591164        0.0469871       -0.2108178
   N       -0.3333333        0.3333333       -0.4298309
   N       -0.3333333        0.3333333        0.3735071
%ENDBLOCK POSITIONS_FRAC

KPOINTS_MP_SPACING 0.07

%BLOCK SPECIES_POT
QC5
%ENDBLOCK SPECIES_POT

SNAP_TO_SYMMETRY
SYMMETRY_GENERATE

