#              Generated by Buildcell
#
# at 14:53:41 (GMT+1.0) 26th March 2023
# in /scratch/scratch/uccabz1/launch_tmp_michael
# on node-a14b-022
# by uccabz1
#
# compiler GCC version 4.9.2
# options -cpp -iprefix /scratch/UCL/applications/gcc/4.9.2/bin/../lib/gcc/x86_64-unknown-linux-gnu/4.9.2/ -mtune=corei7 -march=x86-64 -g -Og
#
# seed   382131309 -2061222450  1667661952  1023144662  2030916070 -1167574340    27029667  -422872485 -1521732754  1220598983 -1676292174  -917085570
#
#      Author: C. J. Pickard (cjp20@cam.ac.uk)
#                Space group: P3
#

%BLOCK LATTICE_ABC
      2.77812      6.01543      6.01543
    120.00000     90.00000     90.00000
%ENDBLOCK LATTICE_ABC

%BLOCK POSITIONS_FRAC
  Li        0.3076843        0.2023572       -0.1282386
  Li        0.3076843       -0.3305958       -0.2023572
  Li        0.3076843        0.1282386        0.3305958
   N       -0.1923406       -0.0511612        0.3902579
   N       -0.1923406        0.4414190        0.0511612
   N       -0.1923406       -0.3902579       -0.4414190
   N       -0.0204537        0.3026282        0.1853682
   N       -0.0204537       -0.1172599       -0.3026282
   N       -0.0204537       -0.1853682        0.1172599
%ENDBLOCK POSITIONS_FRAC

KPOINTS_MP_SPACING 0.07

%BLOCK SPECIES_POT
QC5
%ENDBLOCK SPECIES_POT

SNAP_TO_SYMMETRY
SYMMETRY_GENERATE

