#              Generated by Buildcell
#
# at 17:42:50 (GMT+1.0) 26th March 2023
# in /scratch/scratch/uccabz1/launch_tmp_michael
# on node-a14c-005
# by uccabz1
#
# compiler GCC version 4.9.2
# options -cpp -iprefix /scratch/UCL/applications/gcc/4.9.2/bin/../lib/gcc/x86_64-unknown-linux-gnu/4.9.2/ -mtune=corei7 -march=x86-64 -g -Og
#
# seed  1350245819  -651608827 -1344448215  -614885406  1138784708 -1792142131  1682326913  1581607708   724591574  1093153530   296550505  1898154359
#
#      Author: C. J. Pickard (cjp20@cam.ac.uk)
#                Space group: P3
#

%BLOCK LATTICE_ABC
      3.79931      5.89525      5.89525
    120.00000     90.00000     90.00000
%ENDBLOCK LATTICE_ABC

%BLOCK POSITIONS_FRAC
  Li        0.2182410        0.3755140        0.0369471
  Li        0.2182410       -0.3385669       -0.3755140
  Li        0.2182410       -0.0369471        0.3385669
  Li       -0.3355671        0.0000000       -0.0000000
   N        0.3825858        0.3159287       -0.4923171
   N        0.3825858        0.1917542       -0.3159287
   N        0.3825858        0.4923171       -0.1917542
   N       -0.1933650        0.4674688        0.3686824
   N       -0.1933650       -0.0987864       -0.4674688
   N       -0.1933650       -0.3686824        0.0987864
   N        0.1644329       -0.0000000        0.0000000
   N        0.0126710       -0.3333333        0.3333333
%ENDBLOCK POSITIONS_FRAC

KPOINTS_MP_SPACING 0.07

%BLOCK SPECIES_POT
QC5
%ENDBLOCK SPECIES_POT

SNAP_TO_SYMMETRY
SYMMETRY_GENERATE

