#              Generated by Buildcell
#
# at 15:50:16 (GMT+1.0) 26th March 2023
# in /scratch/scratch/uccabz1/launch_tmp_michael
# on node-a14f-035
# by uccabz1
#
# compiler GCC version 4.9.2
# options -cpp -iprefix /scratch/UCL/applications/gcc/4.9.2/bin/../lib/gcc/x86_64-unknown-linux-gnu/4.9.2/ -mtune=corei7 -march=x86-64 -g -Og
#
# seed   486604068 -1809634102 -1193807129  1098633774 -1748159111  1279436650 -1268226655  1590835236  1533367609   517775141  -421422623 -1105250084
#
#      Author: C. J. Pickard (cjp20@cam.ac.uk)
#                Space group: P31
#

%BLOCK LATTICE_ABC
      4.40987      4.87755      4.87755
    120.00000     90.00000     90.00000
%ENDBLOCK LATTICE_ABC

%BLOCK POSITIONS_FRAC
  Li       -0.3809324       -0.0754752       -0.4515584
  Li       -0.0475991        0.4515584        0.3760832
  Li        0.2857342       -0.3760832        0.0754752
   N       -0.4266391       -0.1039980       -0.0790957
   N       -0.0933058        0.0790957       -0.0249022
   N        0.2400275        0.0249022        0.1039980
   N        0.2011679        0.0338966       -0.3923663
   N       -0.4654987        0.3923663        0.4262628
   N       -0.1321654       -0.4262628       -0.0338966
%ENDBLOCK POSITIONS_FRAC

KPOINTS_MP_SPACING 0.07

%BLOCK SPECIES_POT
QC5
%ENDBLOCK SPECIES_POT

SNAP_TO_SYMMETRY
SYMMETRY_GENERATE

