#              Generated by Buildcell
#
# at 20:08:28 (GMT+1.0) 26th March 2023
# in /scratch/scratch/uccabz1/launch_tmp_michael
# on node-a14b-022
# by uccabz1
#
# compiler GCC version 4.9.2
# options -cpp -iprefix /scratch/UCL/applications/gcc/4.9.2/bin/../lib/gcc/x86_64-unknown-linux-gnu/4.9.2/ -mtune=corei7 -march=x86-64 -g -Og
#
# seed  -697614641  1731925507  -496997032  1051448121   927234573  -831099208  1516407489  1606122043 -1861953131 -2064010589 -1469515745   459170207
#
#      Author: C. J. Pickard (cjp20@cam.ac.uk)
#                Space group: Pm
#

%BLOCK LATTICE_ABC
      4.46991      5.00040      5.14706
     90.00000     95.24151     90.00000
%ENDBLOCK LATTICE_ABC

%BLOCK POSITIONS_FRAC
  Li       -0.2786857       -0.2500000        0.4860354
  Li       -0.2786857        0.2500000        0.4860354
  Li        0.1219446       -0.2500000        0.1772296
  Li        0.1219446        0.2500000        0.1772296
   N       -0.4652201        0.3492016        0.1534204
   N       -0.4652201       -0.3492016        0.1534204
   N       -0.0863178        0.3282635       -0.1596151
   N       -0.0863178       -0.3282635       -0.1596151
   N       -0.2671334        0.1580293        0.0234581
   N       -0.2671334       -0.1580293        0.0234581
   N        0.2920082        0.1989113       -0.3061373
   N        0.2920082       -0.1989113       -0.3061373
%ENDBLOCK POSITIONS_FRAC

KPOINTS_MP_SPACING 0.07

%BLOCK SPECIES_POT
QC5
%ENDBLOCK SPECIES_POT

SNAP_TO_SYMMETRY
SYMMETRY_GENERATE

