#              Generated by Buildcell
#
# at 16:16:25 (GMT+1.0) 26th March 2023
# in /scratch/scratch/uccabz1/launch_tmp_michael
# on node-a14a-003
# by uccabz1
#
# compiler GCC version 4.9.2
# options -cpp -iprefix /scratch/UCL/applications/gcc/4.9.2/bin/../lib/gcc/x86_64-unknown-linux-gnu/4.9.2/ -mtune=corei7 -march=x86-64 -g -Og
#
# seed -1469995163  -543291531   627988500   519620020  -389411482  -860727716 -2121207186  -384504323  1178743054    22893025  -994755729  -645898352
#
#      Author: C. J. Pickard (cjp20@cam.ac.uk)
#                Space group: Cm
#

%BLOCK LATTICE_ABC
      3.89969      4.05094      4.05094
     76.21522     76.18249     76.18249
%ENDBLOCK LATTICE_ABC

%BLOCK POSITIONS_FRAC
  Li       -0.2644459       -0.0482377        0.4517623
  Li       -0.2644459        0.4517623       -0.0482377
   N        0.1422651       -0.3673087       -0.0318720
   N        0.1422651       -0.0318720       -0.3673087
   N        0.3833823        0.2204285       -0.1150918
   N        0.3833823       -0.1150918        0.2204285
%ENDBLOCK POSITIONS_FRAC

KPOINTS_MP_SPACING 0.07

%BLOCK SPECIES_POT
QC5
%ENDBLOCK SPECIES_POT

SNAP_TO_SYMMETRY
SYMMETRY_GENERATE

