#              Generated by Buildcell
#
# at 16:47:14 (GMT+1.0) 26th March 2023
# in /scratch/scratch/uccabz1/launch_tmp_michael
# on node-a14b-028
# by uccabz1
#
# compiler GCC version 4.9.2
# options -cpp -iprefix /scratch/UCL/applications/gcc/4.9.2/bin/../lib/gcc/x86_64-unknown-linux-gnu/4.9.2/ -mtune=corei7 -march=x86-64 -g -Og
#
# seed -1753042315   194729158  -794560647   822402752   713460565  1719703019 -1396300740   916476363   359760623   -85774936 -1024890791  -255396201
#
#      Author: C. J. Pickard (cjp20@cam.ac.uk)
#                Space group: P2
#

%BLOCK LATTICE_ABC
      2.64844      5.35866      8.53775
     90.00000     90.00000     93.51446
%ENDBLOCK LATTICE_ABC

%BLOCK POSITIONS_FRAC
  Li        0.2372329       -0.2025941        0.2821323
  Li       -0.2372329        0.2025941        0.2821323
  Li       -0.0966248        0.2687271       -0.0356541
  Li        0.0966248       -0.2687271       -0.0356541
   N       -0.3844140       -0.1266613        0.0972971
   N        0.3844140        0.1266613        0.0972971
   N        0.0502279        0.2427225       -0.2526607
   N       -0.0502279       -0.2427225       -0.2526607
   N        0.4445656        0.1356882       -0.3756766
   N       -0.4445656       -0.1356882       -0.3756766
   N        0.2419640        0.4335928        0.3772632
   N       -0.2419640       -0.4335928        0.3772632
%ENDBLOCK POSITIONS_FRAC

KPOINTS_MP_SPACING 0.07

%BLOCK SPECIES_POT
QC5
%ENDBLOCK SPECIES_POT

SNAP_TO_SYMMETRY
SYMMETRY_GENERATE

