#              Generated by Buildcell
#
# at 18:21:48 (GMT+1.0) 26th March 2023
# in /scratch/scratch/uccabz1/launch_tmp_michael
# on node-a14b-028
# by uccabz1
#
# compiler GCC version 4.9.2
# options -cpp -iprefix /scratch/UCL/applications/gcc/4.9.2/bin/../lib/gcc/x86_64-unknown-linux-gnu/4.9.2/ -mtune=corei7 -march=x86-64 -g -Og
#
# seed   333809756 -1983112001  -571614598 -1866305868  1749324546 -1914903848   238538037   -54060707 -1636804258  1202344765 -1157834423  1650675710
#
#      Author: C. J. Pickard (cjp20@cam.ac.uk)
#                Space group: Cmm2
#

%BLOCK LATTICE_ABC
      5.00005      5.59068      7.39204
     90.00000     90.00000    116.56270
%ENDBLOCK LATTICE_ABC

%BLOCK POSITIONS_FRAC
  Li       -0.3749920       -0.2499792        0.4500505
  Li        0.3749920        0.2499792        0.4500505
  Li       -0.1250129        0.2499792        0.4500505
  Li        0.1250129       -0.2499792        0.4500505
  Li        0.0000000       -0.5000000        0.1571691
  Li        0.5000000        0.5000000        0.1571691
   N       -0.2260234       -0.1509039       -0.1054778
   N        0.2260234        0.1509039       -0.1054778
   N       -0.0751194        0.1509039       -0.1054778
   N        0.0751194       -0.1509039       -0.1054778
   N       -0.4643193        0.3714085       -0.0772844
   N        0.4643193       -0.3714085       -0.0772844
   N        0.1642723       -0.3714085       -0.0772844
   N       -0.1642723        0.3714085       -0.0772844
   N        0.0751561       -0.1509543       -0.3084496
   N       -0.0751561        0.1509543       -0.3084496
   N        0.2261104        0.1509543       -0.3084496
   N       -0.2261104       -0.1509543       -0.3084496
%ENDBLOCK POSITIONS_FRAC

KPOINTS_MP_SPACING 0.07

%BLOCK SPECIES_POT
QC5
%ENDBLOCK SPECIES_POT

SNAP_TO_SYMMETRY
SYMMETRY_GENERATE

