#              Generated by Buildcell
#
# at 17:25:29 (GMT+1.0) 26th March 2023
# in /scratch/scratch/uccabz1/launch_tmp_michael
# on node-a14a-019
# by uccabz1
#
# compiler GCC version 4.9.2
# options -cpp -iprefix /scratch/UCL/applications/gcc/4.9.2/bin/../lib/gcc/x86_64-unknown-linux-gnu/4.9.2/ -mtune=corei7 -march=x86-64 -g -Og
#
# seed  1037760191   -95550216  1280231229  -744326374  1611277337  -158530366  1883171074  1806826841  1600412663  1818311891   563485306  -374377935
#
#      Author: C. J. Pickard (cjp20@cam.ac.uk)
#                Space group: P3
#

%BLOCK LATTICE_ABC
      4.35948      4.35948      7.12026
     90.00000     90.00000    120.00000
%ENDBLOCK LATTICE_ABC

%BLOCK POSITIONS_FRAC
  Li        0.0044612       -0.3288355       -0.3563218
  Li        0.3288355        0.3332967       -0.3563218
  Li       -0.3332967       -0.0044612       -0.3563218
  Li        0.0000000        0.0000000        0.1810572
   N       -0.0660733       -0.3520094        0.3674636
   N        0.3520094        0.2859361        0.3674636
   N       -0.2859361        0.0660733        0.3674636
   N       -0.0978696        0.4205469        0.2015524
   N       -0.4205469        0.4815835        0.2015524
   N       -0.4815835        0.0978696        0.2015524
   N        0.3333333       -0.3333333       -0.1366979
   N        0.0000000        0.0000000        0.4647476
%ENDBLOCK POSITIONS_FRAC

KPOINTS_MP_SPACING 0.07

%BLOCK SPECIES_POT
QC5
%ENDBLOCK SPECIES_POT

SNAP_TO_SYMMETRY
SYMMETRY_GENERATE

