#              Generated by Buildcell
#
# at 19:31:41 (GMT+1.0) 26th March 2023
# in /scratch/scratch/uccabz1/launch_tmp_michael
# on node-a14f-035
# by uccabz1
#
# compiler GCC version 4.9.2
# options -cpp -iprefix /scratch/UCL/applications/gcc/4.9.2/bin/../lib/gcc/x86_64-unknown-linux-gnu/4.9.2/ -mtune=corei7 -march=x86-64 -g -Og
#
# seed   730713664  1796069109  1864041146  -204962344  -693427925  1427532046 -1217714651  1427603595  1981407241 -1314432045 -1256031436  -739923427
#
#      Author: C. J. Pickard (cjp20@cam.ac.uk)
#                Space group: P2/c
#

%BLOCK LATTICE_ABC
      3.36405      4.98935      6.87299
     92.95315     90.00000     90.00000
%ENDBLOCK LATTICE_ABC

%BLOCK POSITIONS_FRAC
  Li       -0.4572102        0.3011124       -0.1797213
  Li       -0.4572102        0.1988876        0.1797213
  Li        0.4572102       -0.3011124        0.1797213
  Li        0.4572102       -0.1988876       -0.1797213
   N        0.0382190       -0.0086198        0.1605124
   N        0.0382190       -0.4913802       -0.1605124
   N       -0.0382190        0.0086198       -0.1605124
   N       -0.0382190        0.4913802        0.1605124
   N       -0.2468606        0.0212911       -0.3571757
   N       -0.2468606        0.4787089        0.3571757
   N        0.2468606       -0.0212911        0.3571757
   N        0.2468606       -0.4787089       -0.3571757
%ENDBLOCK POSITIONS_FRAC

KPOINTS_MP_SPACING 0.07

%BLOCK SPECIES_POT
QC5
%ENDBLOCK SPECIES_POT

SNAP_TO_SYMMETRY
SYMMETRY_GENERATE

