#              Generated by Buildcell
#
# at 15:55:03 (GMT+1.0) 26th March 2023
# in /scratch/scratch/uccabz1/launch_tmp_michael
# on node-a14a-003
# by uccabz1
#
# compiler GCC version 4.9.2
# options -cpp -iprefix /scratch/UCL/applications/gcc/4.9.2/bin/../lib/gcc/x86_64-unknown-linux-gnu/4.9.2/ -mtune=corei7 -march=x86-64 -g -Og
#
# seed  -983334813    33849632  -365010237 -1258496093  -566952268  -494924339   584788792 -1279444794   709301569   188782924  1537114508   427536030
#
#      Author: C. J. Pickard (cjp20@cam.ac.uk)
#                Space group: Pm
#

%BLOCK LATTICE_ABC
      2.55196      7.07577      9.67447
     90.00000     90.00000     96.89652
%ENDBLOCK LATTICE_ABC

%BLOCK POSITIONS_FRAC
  Li        0.1024523        0.3514447       -0.3707333
  Li        0.1024523        0.3514447        0.3707333
  Li       -0.1549745       -0.0239504       -0.2659328
  Li       -0.1549745       -0.0239504        0.2659328
  Li       -0.1110715       -0.3485251        0.1678060
  Li       -0.1110715       -0.3485251       -0.1678060
   N        0.2920080        0.0061294        0.0803347
   N        0.2920080        0.0061294       -0.0803347
   N        0.3374349        0.4496647        0.1956984
   N        0.3374349        0.4496647       -0.1956984
   N       -0.1822783        0.3254425        0.1868542
   N       -0.1822783        0.3254425       -0.1868542
   N        0.3114975       -0.3145170       -0.3622389
   N        0.3114975       -0.3145170        0.3622389
   N        0.1348223       -0.1370824        0.4220846
   N        0.1348223       -0.1370824       -0.4220846
   N       -0.2895835        0.1742386       -0.0776652
   N       -0.2895835        0.1742386        0.0776652
%ENDBLOCK POSITIONS_FRAC

KPOINTS_MP_SPACING 0.07

%BLOCK SPECIES_POT
QC5
%ENDBLOCK SPECIES_POT

SNAP_TO_SYMMETRY
SYMMETRY_GENERATE

