#              Generated by Buildcell
#
# at 19:07:28 (GMT+1.0) 26th March 2023
# in /scratch/scratch/uccabz1/launch_tmp_michael
# on node-a14a-019
# by uccabz1
#
# compiler GCC version 4.9.2
# options -cpp -iprefix /scratch/UCL/applications/gcc/4.9.2/bin/../lib/gcc/x86_64-unknown-linux-gnu/4.9.2/ -mtune=corei7 -march=x86-64 -g -Og
#
# seed  1379774205  1892344768 -1725497868  -568898134  -119552631  -600817421  -596018471 -1235839344   312180780  -904017972 -1141212440   277922606
#
#      Author: C. J. Pickard (cjp20@cam.ac.uk)
#                Space group: Pc
#

%BLOCK LATTICE_ABC
      2.50000      6.44822      7.43654
     90.00000     91.08391     90.00000
%ENDBLOCK LATTICE_ABC

%BLOCK POSITIONS_FRAC
  Li       -0.1523306       -0.0752246        0.4044709
  Li        0.3476694        0.0752246       -0.0955291
  Li        0.3000115       -0.2383792       -0.3262778
  Li       -0.1999885        0.2383792        0.1737222
   N        0.1501105       -0.2013290       -0.0304976
   N       -0.3498895        0.2013290        0.4695024
   N        0.1661582       -0.1753763        0.1856636
   N       -0.3338418        0.1753763       -0.3143364
   N        0.2292911        0.3143938       -0.2440172
   N       -0.2707089       -0.3143938        0.2559828
   N       -0.4611158       -0.4817755       -0.0130715
   N        0.0388842        0.4817755        0.4869285
%ENDBLOCK POSITIONS_FRAC

KPOINTS_MP_SPACING 0.07

%BLOCK SPECIES_POT
QC5
%ENDBLOCK SPECIES_POT

SNAP_TO_SYMMETRY
SYMMETRY_GENERATE

