#              Generated by Buildcell
#
# at 14:52:57 (GMT+1.0) 26th March 2023
# in /scratch/scratch/uccabz1/launch_tmp_michael
# on node-a14c-005
# by uccabz1
#
# compiler GCC version 4.9.2
# options -cpp -iprefix /scratch/UCL/applications/gcc/4.9.2/bin/../lib/gcc/x86_64-unknown-linux-gnu/4.9.2/ -mtune=corei7 -march=x86-64 -g -Og
#
# seed  -120261034   368085278 -1611338634 -1944232391 -2044806933  -114830281  -218326362 -2143510283 -1370289273   179848465 -1885107150  -464508915
#
#      Author: C. J. Pickard (cjp20@cam.ac.uk)
#                Space group: Pma2
#

%BLOCK LATTICE_ABC
      3.49993      3.68121      4.76851
     90.00000     90.00000     90.00000
%ENDBLOCK LATTICE_ABC

%BLOCK POSITIONS_FRAC
  Li       -0.1104758       -0.4359568        0.2500000
  Li        0.1104758       -0.4359568       -0.2500000
   N       -0.2010566        0.0263691        0.0824719
   N        0.2010566        0.0263691       -0.0824719
   N        0.2010566        0.0263691       -0.4175281
   N       -0.2010566        0.0263691        0.4175281
%ENDBLOCK POSITIONS_FRAC

KPOINTS_MP_SPACING 0.07

%BLOCK SPECIES_POT
QC5
%ENDBLOCK SPECIES_POT

SNAP_TO_SYMMETRY
SYMMETRY_GENERATE

