#              Generated by Buildcell
#
# at 17:05:47 (GMT+1.0) 26th March 2023
# in /scratch/scratch/uccabz1/launch_tmp_michael
# on node-a14a-001
# by uccabz1
#
# compiler GCC version 4.9.2
# options -cpp -iprefix /scratch/UCL/applications/gcc/4.9.2/bin/../lib/gcc/x86_64-unknown-linux-gnu/4.9.2/ -mtune=corei7 -march=x86-64 -g -Og
#
# seed  -273050931  1508350171   602718421  -501513466  1209474675  1779804489 -1251555806  -478155949 -1185909268  -684388677  -654194298  1412048009
#
#      Author: C. J. Pickard (cjp20@cam.ac.uk)
#                Space group: P3
#

%BLOCK LATTICE_ABC
      3.42681      6.41696      6.41696
    120.00000     90.00000     90.00000
%ENDBLOCK LATTICE_ABC

%BLOCK POSITIONS_FRAC
  Li        0.4755785       -0.2533131       -0.2572398
  Li        0.4755785       -0.0039267        0.2533131
  Li        0.4755785        0.2572398        0.0039267
  Li        0.3236300        0.3333333       -0.3333333
   N       -0.2027259       -0.4775783        0.2101259
   N       -0.2027259       -0.3122958        0.4775783
   N       -0.2027259       -0.2101259        0.3122958
   N       -0.3216772        0.4253595        0.3803246
   N       -0.3216772       -0.0450349       -0.4253595
   N       -0.3216772       -0.3803246        0.0450349
   N        0.1941464        0.0000000        0.0000000
   N       -0.2435864       -0.0000000       -0.0000000
%ENDBLOCK POSITIONS_FRAC

KPOINTS_MP_SPACING 0.07

%BLOCK SPECIES_POT
QC5
%ENDBLOCK SPECIES_POT

SNAP_TO_SYMMETRY
SYMMETRY_GENERATE

