#              Generated by Buildcell
#
# at 17:49:33 (GMT+1.0) 26th March 2023
# in /scratch/scratch/uccabz1/launch_tmp_michael
# on node-a14a-001
# by uccabz1
#
# compiler GCC version 4.9.2
# options -cpp -iprefix /scratch/UCL/applications/gcc/4.9.2/bin/../lib/gcc/x86_64-unknown-linux-gnu/4.9.2/ -mtune=corei7 -march=x86-64 -g -Og
#
# seed  1992255335  1689789245  -542404115   755635480  1764583616  -422535461    81403429   310803375   871976795   874059471  -594042490 -1480263528
#
#      Author: C. J. Pickard (cjp20@cam.ac.uk)
#                Space group: Amm2
#

%BLOCK LATTICE_ABC
      3.65696      3.81618      6.87723
    106.10809     90.00000     90.00000
%ENDBLOCK LATTICE_ABC

%BLOCK POSITIONS_FRAC
  Li       -0.5000000       -0.1151314        0.3310463
  Li       -0.5000000       -0.4461778       -0.3310463
  Li       -0.5000000        0.0365921        0.0000000
   N        0.2521820       -0.0827497       -0.4215740
   N       -0.2521820        0.3388242        0.4215740
   N        0.2521820        0.3388242        0.4215740
   N       -0.2521820       -0.0827497       -0.4215740
   N        0.0000000       -0.3011420        0.3962651
   N       -0.0000000        0.3025929       -0.3962651
%ENDBLOCK POSITIONS_FRAC

KPOINTS_MP_SPACING 0.07

%BLOCK SPECIES_POT
QC5
%ENDBLOCK SPECIES_POT

SNAP_TO_SYMMETRY
SYMMETRY_GENERATE

