#              Generated by Buildcell
#
# at 15:43:43 (GMT+1.0) 26th March 2023
# in /scratch/scratch/uccabz1/launch_tmp_michael
# on node-a14e-021
# by uccabz1
#
# compiler GCC version 4.9.2
# options -cpp -iprefix /scratch/UCL/applications/gcc/4.9.2/bin/../lib/gcc/x86_64-unknown-linux-gnu/4.9.2/ -mtune=corei7 -march=x86-64 -g -Og
#
# seed   628821116 -1006906836 -1138178551   929521408   116058539  1334657427 -1535962831 -1889435258 -1816694157 -2118686959 -1846077538  1073457263
#
#      Author: C. J. Pickard (cjp20@cam.ac.uk)
#                Space group: P32
#

%BLOCK LATTICE_ABC
      4.40138      4.90796      4.90796
    120.00000     90.00000     90.00000
%ENDBLOCK LATTICE_ABC

%BLOCK POSITIONS_FRAC
  Li        0.2758713       -0.0287745        0.4439378
  Li       -0.3907954        0.4727123        0.0287745
  Li       -0.0574621       -0.4439378       -0.4727123
   N       -0.0801669        0.1107171        0.3311249
   N        0.2531664        0.2204078       -0.1107171
   N       -0.4135002       -0.3311249       -0.2204078
   N        0.1025774        0.0697343        0.0551100
   N        0.4359108       -0.0146243       -0.0697343
   N       -0.2307559       -0.0551100        0.0146243
%ENDBLOCK POSITIONS_FRAC

KPOINTS_MP_SPACING 0.07

%BLOCK SPECIES_POT
QC5
%ENDBLOCK SPECIES_POT

SNAP_TO_SYMMETRY
SYMMETRY_GENERATE

