#              Generated by Buildcell
#
# at 19:33:08 (GMT+1.0) 26th March 2023
# in /scratch/scratch/uccabz1/launch_tmp_michael
# on node-a14b-028
# by uccabz1
#
# compiler GCC version 4.9.2
# options -cpp -iprefix /scratch/UCL/applications/gcc/4.9.2/bin/../lib/gcc/x86_64-unknown-linux-gnu/4.9.2/ -mtune=corei7 -march=x86-64 -g -Og
#
# seed  1587992736  -480900075 -1081450268  -150382833  1974092850   883026623   735990795 -1332156064 -1379449884  1545122451  1325581959   908635151
#
#      Author: C. J. Pickard (cjp20@cam.ac.uk)
#                Space group: P3
#

%BLOCK LATTICE_ABC
      2.85193      4.83103      4.83103
    120.00000     90.00000     90.00000
%ENDBLOCK LATTICE_ABC

%BLOCK POSITIONS_FRAC
  Li       -0.3154318       -0.3333333        0.3333333
  Li        0.0850309        0.3333333       -0.3333333
   N        0.1458664       -0.1159694        0.2296366
   N        0.1458664       -0.2296366       -0.3456060
   N        0.1458664        0.3456060        0.1159694
   N        0.0442885        0.0000000       -0.0000000
%ENDBLOCK POSITIONS_FRAC

KPOINTS_MP_SPACING 0.07

%BLOCK SPECIES_POT
QC5
%ENDBLOCK SPECIES_POT

SNAP_TO_SYMMETRY
SYMMETRY_GENERATE

