#              Generated by Buildcell
#
# at 17:07:06 (GMT+1.0) 26th March 2023
# in /scratch/scratch/uccabz1/launch_tmp_michael
# on node-a14a-001
# by uccabz1
#
# compiler GCC version 4.9.2
# options -cpp -iprefix /scratch/UCL/applications/gcc/4.9.2/bin/../lib/gcc/x86_64-unknown-linux-gnu/4.9.2/ -mtune=corei7 -march=x86-64 -g -Og
#
# seed   878361299   673184320 -1904626304   870372263   157599515  -324473913 -1198874767  1778954221  1667706102  1902257482 -1825067444   141729866
#
#      Author: C. J. Pickard (cjp20@cam.ac.uk)
#                Space group: Aea2
#

%BLOCK LATTICE_ABC
      2.71719      4.45278      5.06639
     90.00000     90.00000    107.76490
%ENDBLOCK LATTICE_ABC

%BLOCK POSITIONS_FRAC
  Li       -0.2787114       -0.0000000        0.0000000
  Li        0.2212886        0.0000000        0.5000000
   N        0.0468971       -0.3966999        0.1804321
   N        0.4435969        0.3966999       -0.1804321
   N       -0.0564031        0.3966999       -0.3195679
   N       -0.4531029       -0.3966999        0.3195679
%ENDBLOCK POSITIONS_FRAC

KPOINTS_MP_SPACING 0.07

%BLOCK SPECIES_POT
QC5
%ENDBLOCK SPECIES_POT

SNAP_TO_SYMMETRY
SYMMETRY_GENERATE

