#              Generated by Buildcell
#
# at 17:30:11 (GMT+1.0) 26th March 2023
# in /scratch/scratch/uccabz1/launch_tmp_michael
# on node-a14b-022
# by uccabz1
#
# compiler GCC version 4.9.2
# options -cpp -iprefix /scratch/UCL/applications/gcc/4.9.2/bin/../lib/gcc/x86_64-unknown-linux-gnu/4.9.2/ -mtune=corei7 -march=x86-64 -g -Og
#
# seed -1588567125  1719906332  -750964217  1481534238 -1574885876   -24397559 -2023551342  -958716504  1796670220 -1892333955 -1875095733  1276077288
#
#      Author: C. J. Pickard (cjp20@cam.ac.uk)
#                Space group: Pm
#

%BLOCK LATTICE_ABC
      2.93243      3.10832     10.19216
     90.00000     90.00000    107.24329
%ENDBLOCK LATTICE_ABC

%BLOCK POSITIONS_FRAC
  Li       -0.0678187        0.2859889        0.3248300
  Li       -0.0678187        0.2859889       -0.3248300
  Li        0.2763230       -0.1380765        0.5000000
   N        0.3945944        0.3099458        0.0735854
   N        0.3945944        0.3099458       -0.0735854
   N        0.3873169        0.1414232        0.2117062
   N        0.3873169        0.1414232       -0.2117062
   N       -0.0351025       -0.4955707        0.1498801
   N       -0.0351025       -0.4955707       -0.1498801
%ENDBLOCK POSITIONS_FRAC

KPOINTS_MP_SPACING 0.07

%BLOCK SPECIES_POT
QC5
%ENDBLOCK SPECIES_POT

SNAP_TO_SYMMETRY
SYMMETRY_GENERATE

