#              Generated by Buildcell
#
# at 15:42:56 (GMT+1.0) 26th March 2023
# in /scratch/scratch/uccabz1/launch_tmp_michael
# on node-a14a-019
# by uccabz1
#
# compiler GCC version 4.9.2
# options -cpp -iprefix /scratch/UCL/applications/gcc/4.9.2/bin/../lib/gcc/x86_64-unknown-linux-gnu/4.9.2/ -mtune=corei7 -march=x86-64 -g -Og
#
# seed   261264192  -266157141   574650621  -284179372   438527203   299530858  -249152332 -1706655397  -696103563   779681836 -2126790625   906109333
#
#      Author: C. J. Pickard (cjp20@cam.ac.uk)
#                Space group: Imm2
#

%BLOCK LATTICE_ABC
      2.74329      4.91702      4.91702
     78.69497     73.80195     73.80195
%ENDBLOCK LATTICE_ABC

%BLOCK POSITIONS_FRAC
  Li        0.0907577        0.3237643        0.3237643
  Li       -0.2617138       -0.3237643       -0.3237643
   N        0.3635431       -0.2688207        0.0573377
   N        0.1520602        0.2688207       -0.0573377
   N        0.1520602       -0.0573377        0.2688207
   N        0.3635431        0.0573377       -0.2688207
%ENDBLOCK POSITIONS_FRAC

KPOINTS_MP_SPACING 0.07

%BLOCK SPECIES_POT
QC5
%ENDBLOCK SPECIES_POT

SNAP_TO_SYMMETRY
SYMMETRY_GENERATE

