#              Generated by Buildcell
#
# at 20:21:30 (GMT+1.0) 26th March 2023
# in /scratch/scratch/uccabz1/launch_tmp_michael
# on node-a14c-005
# by uccabz1
#
# compiler GCC version 4.9.2
# options -cpp -iprefix /scratch/UCL/applications/gcc/4.9.2/bin/../lib/gcc/x86_64-unknown-linux-gnu/4.9.2/ -mtune=corei7 -march=x86-64 -g -Og
#
# seed  -381859715   987195713  -335762760  -868950960   725565767   507718464  -605398956   810705320  -546146906   228297591 -1113084465  1448232069
#
#      Author: C. J. Pickard (cjp20@cam.ac.uk)
#                Space group: F222
#

%BLOCK LATTICE_ABC
      5.80340      5.80340      6.49864
    103.59936    103.59936    118.25522
%ENDBLOCK LATTICE_ABC

%BLOCK POSITIONS_FRAC
  Li        0.4101242        0.1013001        0.3473497
  Li       -0.0627745        0.2460497        0.3473497
  Li       -0.2460497        0.0627745       -0.3473497
  Li       -0.1013001       -0.4101242       -0.3473497
  Li        0.2098806        0.2098806        0.0000000
  Li       -0.2098806       -0.2098806       -0.0000000
   N        0.2227924       -0.4201226       -0.2218987
   N       -0.4446912        0.1982238       -0.2218987
   N       -0.1982238        0.4446912        0.2218987
   N        0.4201226       -0.2227924        0.2218987
   N       -0.4879448        0.4037597       -0.3813818
   N        0.1065631        0.2148585       -0.3813818
   N       -0.2148585       -0.1065631        0.3813818
   N       -0.4037597        0.4879448        0.3813818
   N       -0.2113309        0.4601522       -0.0075117
   N        0.2038192       -0.4676639       -0.0075117
   N        0.4676639       -0.2038192        0.0075117
   N       -0.4601522        0.2113309        0.0075117
%ENDBLOCK POSITIONS_FRAC

KPOINTS_MP_SPACING 0.07

%BLOCK SPECIES_POT
QC5
%ENDBLOCK SPECIES_POT

SNAP_TO_SYMMETRY
SYMMETRY_GENERATE

