#              Generated by Buildcell
#
# at 20:24:03 (GMT+1.0) 26th March 2023
# in /scratch/scratch/uccabz1/launch_tmp_michael
# on node-a14b-028
# by uccabz1
#
# compiler GCC version 4.9.2
# options -cpp -iprefix /scratch/UCL/applications/gcc/4.9.2/bin/../lib/gcc/x86_64-unknown-linux-gnu/4.9.2/ -mtune=corei7 -march=x86-64 -g -Og
#
# seed -1193443063  1978783537  -486548084  1969265305   234228875  -374670062   486224264    74021486  -670867612   429830918   741701467  -795595684
#
#      Author: C. J. Pickard (cjp20@cam.ac.uk)
#                Space group: P3
#

%BLOCK LATTICE_ABC
      3.19322      3.19322      6.55011
     90.00000     90.00000    120.00000
%ENDBLOCK LATTICE_ABC

%BLOCK POSITIONS_FRAC
  Li        0.0000000       -0.0000000       -0.3906208
  Li        0.3333333       -0.3333333       -0.1328329
   N        0.2291534       -0.0702761        0.1093368
   N        0.0702761        0.2994295        0.1093368
   N       -0.2994295       -0.2291534        0.1093368
   N        0.3333333       -0.3333333       -0.4607694
%ENDBLOCK POSITIONS_FRAC

KPOINTS_MP_SPACING 0.07

%BLOCK SPECIES_POT
QC5
%ENDBLOCK SPECIES_POT

SNAP_TO_SYMMETRY
SYMMETRY_GENERATE

