#              Generated by Buildcell
#
# at 16:19:22 (GMT+1.0) 26th March 2023
# in /scratch/scratch/uccabz1/launch_tmp_michael
# on node-a14b-022
# by uccabz1
#
# compiler GCC version 4.9.2
# options -cpp -iprefix /scratch/UCL/applications/gcc/4.9.2/bin/../lib/gcc/x86_64-unknown-linux-gnu/4.9.2/ -mtune=corei7 -march=x86-64 -g -Og
#
# seed -1026729475 -1571369032  1044373035  1300916630  1624863254  -696103563 -2121069577  1932827460 -1932246668  1760247311 -1774198172  -512691163
#
#      Author: C. J. Pickard (cjp20@cam.ac.uk)
#                Space group: Pmc21
#

%BLOCK LATTICE_ABC
      4.90462      5.00046      7.40938
     90.00000     90.00000     90.00000
%ENDBLOCK LATTICE_ABC

%BLOCK POSITIONS_FRAC
  Li       -0.4301931        0.2500000        0.3116492
  Li        0.0698069       -0.2500000       -0.3116492
  Li        0.0698069        0.2500000       -0.3116492
  Li       -0.4301931       -0.2500000        0.3116492
  Li        0.2762407        0.5000000        0.0355578
  Li       -0.2237593        0.5000000       -0.0355578
   N       -0.0957621       -0.3273625        0.1931706
   N        0.4042379        0.3273625       -0.1931706
   N        0.4042379       -0.3273625       -0.1931706
   N       -0.0957621        0.3273625        0.1931706
   N       -0.2798470        0.3196475       -0.4537898
   N        0.2201530       -0.3196475        0.4537898
   N        0.2201530        0.3196475        0.4537898
   N       -0.2798470       -0.3196475       -0.4537898
   N        0.0450864       -0.1748117        0.0419966
   N       -0.4549136        0.1748117       -0.0419966
   N       -0.4549136       -0.1748117       -0.0419966
   N        0.0450864        0.1748117        0.0419966
%ENDBLOCK POSITIONS_FRAC

KPOINTS_MP_SPACING 0.07

%BLOCK SPECIES_POT
QC5
%ENDBLOCK SPECIES_POT

SNAP_TO_SYMMETRY
SYMMETRY_GENERATE

