#              Generated by Buildcell
#
# at 20:25:24 (GMT+1.0) 26th March 2023
# in /scratch/scratch/uccabz1/launch_tmp_michael
# on node-a14a-001
# by uccabz1
#
# compiler GCC version 4.9.2
# options -cpp -iprefix /scratch/UCL/applications/gcc/4.9.2/bin/../lib/gcc/x86_64-unknown-linux-gnu/4.9.2/ -mtune=corei7 -march=x86-64 -g -Og
#
# seed  1194620081  1102100499 -1863655793   653640670  1927910930  2114678863 -1109439414  -220108664   160129286  -536878282   798108274  -434380440
#
#      Author: C. J. Pickard (cjp20@cam.ac.uk)
#                Space group: P21
#

%BLOCK LATTICE_ABC
      3.66649      4.65705     11.17389
     90.00000     97.93055     90.00000
%ENDBLOCK LATTICE_ABC

%BLOCK POSITIONS_FRAC
  Li       -0.3337832       -0.0241151        0.1248244
  Li        0.3337832        0.4758849       -0.1248244
  Li       -0.2803894        0.1103341       -0.2128228
  Li        0.2803894       -0.3896659        0.2128228
  Li        0.1780078       -0.1936189       -0.3007704
  Li       -0.1780078        0.3063811        0.3007704
   N       -0.1581184       -0.2812558        0.2857892
   N        0.1581184        0.2187442       -0.2857892
   N        0.2140037       -0.0840879       -0.4626100
   N       -0.2140037        0.4159121        0.4626100
   N        0.4544751        0.4977773        0.3751491
   N       -0.4544751       -0.0022227       -0.3751491
   N       -0.4780155       -0.0770471       -0.0845751
   N        0.4780155        0.4229529        0.0845751
   N       -0.2318754        0.1643593       -0.4543294
   N        0.2318754       -0.3356407        0.4543294
   N       -0.1124673       -0.3721459        0.0828835
   N        0.1124673        0.1278541       -0.0828835
%ENDBLOCK POSITIONS_FRAC

KPOINTS_MP_SPACING 0.07

%BLOCK SPECIES_POT
QC5
%ENDBLOCK SPECIES_POT

SNAP_TO_SYMMETRY
SYMMETRY_GENERATE

