#              Generated by Buildcell
#
# at 18:18:26 (GMT+1.0) 26th March 2023
# in /scratch/scratch/uccabz1/launch_tmp_michael
# on node-a14b-022
# by uccabz1
#
# compiler GCC version 4.9.2
# options -cpp -iprefix /scratch/UCL/applications/gcc/4.9.2/bin/../lib/gcc/x86_64-unknown-linux-gnu/4.9.2/ -mtune=corei7 -march=x86-64 -g -Og
#
# seed   134611380 -1204752450   -51379964 -2003809652  1314380154 -1397929197  -426525689  -807293798   785581859 -1032900260 -1726971965  -559193851
#
#      Author: C. J. Pickard (cjp20@cam.ac.uk)
#                Space group: Pm
#

%BLOCK LATTICE_ABC
      2.62923      3.21099      6.76416
     90.00000     90.00000     92.58715
%ENDBLOCK LATTICE_ABC

%BLOCK POSITIONS_FRAC
  Li        0.0068486       -0.3497642       -0.1971230
  Li        0.0068486       -0.3497642        0.1971230
   N       -0.3826227        0.1382493       -0.1818336
   N       -0.3826227        0.1382493        0.1818336
   N        0.4884411        0.4819672        0.3874067
   N        0.4884411        0.4819672       -0.3874067
%ENDBLOCK POSITIONS_FRAC

KPOINTS_MP_SPACING 0.07

%BLOCK SPECIES_POT
QC5
%ENDBLOCK SPECIES_POT

SNAP_TO_SYMMETRY
SYMMETRY_GENERATE

