#              Generated by Buildcell
#
# at 20:15:29 (GMT+1.0) 26th March 2023
# in /scratch/scratch/uccabz1/launch_tmp_michael
# on node-a14c-005
# by uccabz1
#
# compiler GCC version 4.9.2
# options -cpp -iprefix /scratch/UCL/applications/gcc/4.9.2/bin/../lib/gcc/x86_64-unknown-linux-gnu/4.9.2/ -mtune=corei7 -march=x86-64 -g -Og
#
# seed   118334804 -1044010053  1500699920  -410134515    98773244  1974141838  -659982832 -1775521171 -1766305126  2067665583   730967682  1856482517
#
#      Author: C. J. Pickard (cjp20@cam.ac.uk)
#                Space group: Pmn21
#

%BLOCK LATTICE_ABC
      4.25160      4.99994      5.57516
     90.00000     90.00000     90.00000
%ENDBLOCK LATTICE_ABC

%BLOCK POSITIONS_FRAC
  Li       -0.1965978       -0.2500000       -0.3720800
  Li        0.1965978       -0.2500000        0.1279200
  Li        0.1965978        0.2500000        0.1279200
  Li       -0.1965978        0.2500000       -0.3720800
   N       -0.4797882        0.2467267        0.3640905
   N        0.4797882        0.2532733       -0.1359095
   N        0.4797882       -0.2532733       -0.1359095
   N       -0.4797882       -0.2467267        0.3640905
   N        0.2371243        0.1594752       -0.3845428
   N       -0.2371243        0.3405248        0.1154572
   N       -0.2371243       -0.3405248        0.1154572
   N        0.2371243       -0.1594752       -0.3845428
%ENDBLOCK POSITIONS_FRAC

KPOINTS_MP_SPACING 0.07

%BLOCK SPECIES_POT
QC5
%ENDBLOCK SPECIES_POT

SNAP_TO_SYMMETRY
SYMMETRY_GENERATE

