#              Generated by Buildcell
#
# at 18:15:10 (GMT+1.0) 26th March 2023
# in /scratch/scratch/uccabz1/launch_tmp_michael
# on node-a14f-035
# by uccabz1
#
# compiler GCC version 4.9.2
# options -cpp -iprefix /scratch/UCL/applications/gcc/4.9.2/bin/../lib/gcc/x86_64-unknown-linux-gnu/4.9.2/ -mtune=corei7 -march=x86-64 -g -Og
#
# seed -1140250656   396017697   650780427   840419909  -696538315   537888138  1985718549  1076409622  1518878644  1184395966   472279998  -611673843
#
#      Author: C. J. Pickard (cjp20@cam.ac.uk)
#                Space group: P42
#

%BLOCK LATTICE_ABC
      4.47880      4.47880      9.38845
     90.00000     90.00000     90.00000
%ENDBLOCK LATTICE_ABC

%BLOCK POSITIONS_FRAC
  Li        0.2147725        0.3217285       -0.1580864
  Li       -0.2147725       -0.3217285       -0.1580864
  Li        0.3217285       -0.2147725        0.3419136
  Li       -0.3217285        0.2147725        0.3419136
  Li        0.0000000        0.5000000        0.1720873
  Li        0.5000000        0.0000000       -0.3279127
   N       -0.1220716       -0.1146580       -0.4019102
   N        0.1220716        0.1146580       -0.4019102
   N       -0.1146580        0.1220716        0.0980898
   N        0.1146580       -0.1220716        0.0980898
   N       -0.1536642       -0.4334528       -0.4485581
   N        0.1536642        0.4334528       -0.4485581
   N       -0.4334528        0.1536642        0.0514419
   N        0.4334528       -0.1536642        0.0514419
   N       -0.2306288        0.3261385       -0.0454840
   N        0.2306288       -0.3261385       -0.0454840
   N        0.3261385        0.2306288        0.4545160
   N       -0.3261385       -0.2306288        0.4545160
%ENDBLOCK POSITIONS_FRAC

KPOINTS_MP_SPACING 0.07

%BLOCK SPECIES_POT
QC5
%ENDBLOCK SPECIES_POT

SNAP_TO_SYMMETRY
SYMMETRY_GENERATE

