#              Generated by Buildcell
#
# at 15:54:58 (GMT+1.0) 26th March 2023
# in /scratch/scratch/uccabz1/launch_tmp_michael
# on node-a14a-019
# by uccabz1
#
# compiler GCC version 4.9.2
# options -cpp -iprefix /scratch/UCL/applications/gcc/4.9.2/bin/../lib/gcc/x86_64-unknown-linux-gnu/4.9.2/ -mtune=corei7 -march=x86-64 -g -Og
#
# seed  -383508066  -681383180   573695342  1152481476  1651664127  1574389270 -2141292658  -967942405  1587666775 -1560293424  1813042657  1202947324
#
#      Author: C. J. Pickard (cjp20@cam.ac.uk)
#                Space group: Pm
#

%BLOCK LATTICE_ABC
      3.52473      5.06007      6.73676
     90.00000     90.35463     90.00000
%ENDBLOCK LATTICE_ABC

%BLOCK POSITIONS_FRAC
  Li        0.2382850       -0.2470924       -0.4546082
  Li        0.2382850        0.2470924       -0.4546082
  Li       -0.2586769        0.2470571       -0.0139657
  Li       -0.2586769       -0.2470571       -0.0139657
   N       -0.2625655        0.3517484        0.4745880
   N       -0.2625655       -0.3517484        0.4745880
   N       -0.1607729        0.3517759       -0.2833379
   N       -0.1607729       -0.3517759       -0.2833379
   N       -0.1942413        0.3516402        0.2550171
   N       -0.1942413       -0.3516402        0.2550171
   N        0.3432730        0.3517733       -0.1889944
   N        0.3432730       -0.3517733       -0.1889944
%ENDBLOCK POSITIONS_FRAC

KPOINTS_MP_SPACING 0.07

%BLOCK SPECIES_POT
QC5
%ENDBLOCK SPECIES_POT

SNAP_TO_SYMMETRY
SYMMETRY_GENERATE

