#              Generated by Buildcell
#
# at 20:12:32 (GMT+1.0) 26th March 2023
# in /scratch/scratch/uccabz1/launch_tmp_michael
# on node-a14e-021
# by uccabz1
#
# compiler GCC version 4.9.2
# options -cpp -iprefix /scratch/UCL/applications/gcc/4.9.2/bin/../lib/gcc/x86_64-unknown-linux-gnu/4.9.2/ -mtune=corei7 -march=x86-64 -g -Og
#
# seed -1214421763   560064039  1953075909 -1816969144  1990874676 -1490589185  -208085287  -334880230 -1399192446   861506776 -2094938404  1052555916
#
#      Author: C. J. Pickard (cjp20@cam.ac.uk)
#                Space group: P-4
#

%BLOCK LATTICE_ABC
      2.91905      2.91905      6.83937
     90.00000     90.00000     90.00000
%ENDBLOCK LATTICE_ABC

%BLOCK POSITIONS_FRAC
  Li       -0.5000000        0.0000000        0.1031380
  Li       -0.0000000        0.5000000       -0.1031380
   N        0.2493727        0.0683522       -0.2817635
   N       -0.2493727       -0.0683522       -0.2817635
   N       -0.0683522        0.2493727        0.2817635
   N        0.0683522       -0.2493727        0.2817635
%ENDBLOCK POSITIONS_FRAC

KPOINTS_MP_SPACING 0.07

%BLOCK SPECIES_POT
QC5
%ENDBLOCK SPECIES_POT

SNAP_TO_SYMMETRY
SYMMETRY_GENERATE

