#              Generated by Buildcell
#
# at 20:13:42 (GMT+1.0) 26th March 2023
# in /scratch/scratch/uccabz1/launch_tmp_michael
# on node-a14e-021
# by uccabz1
#
# compiler GCC version 4.9.2
# options -cpp -iprefix /scratch/UCL/applications/gcc/4.9.2/bin/../lib/gcc/x86_64-unknown-linux-gnu/4.9.2/ -mtune=corei7 -march=x86-64 -g -Og
#
# seed -1420858870 -1764254252 -1616495652    20168605   444588207  -310564432   311245202  2076688327   500238254 -1564722992 -1596123614 -1817536448
#
#      Author: C. J. Pickard (cjp20@cam.ac.uk)
#                Space group: Pm
#

%BLOCK LATTICE_ABC
      3.09780      3.64120      5.48699
     90.00000     90.00000    111.43745
%ENDBLOCK LATTICE_ABC

%BLOCK POSITIONS_FRAC
  Li       -0.0868920        0.3605097        0.2719788
  Li       -0.0868920        0.3605097       -0.2719788
   N        0.2869320        0.0647327        0.1868184
   N        0.2869320        0.0647327       -0.1868184
   N       -0.4052929       -0.1942081       -0.2932838
   N       -0.4052929       -0.1942081        0.2932838
%ENDBLOCK POSITIONS_FRAC

KPOINTS_MP_SPACING 0.07

%BLOCK SPECIES_POT
QC5
%ENDBLOCK SPECIES_POT

SNAP_TO_SYMMETRY
SYMMETRY_GENERATE

