#              Generated by Buildcell
#
# at 19:05:07 (GMT+1.0) 26th March 2023
# in /scratch/scratch/uccabz1/launch_tmp_michael
# on node-a14b-028
# by uccabz1
#
# compiler GCC version 4.9.2
# options -cpp -iprefix /scratch/UCL/applications/gcc/4.9.2/bin/../lib/gcc/x86_64-unknown-linux-gnu/4.9.2/ -mtune=corei7 -march=x86-64 -g -Og
#
# seed -1289056153   392710113  -429003390  -310202937  1923204596   725662272  1706274708 -1740698470   139520381 -2060453981   888611422   942629551
#
#      Author: C. J. Pickard (cjp20@cam.ac.uk)
#                Space group: Pmm2
#

%BLOCK LATTICE_ABC
      3.00000      4.98428      5.93111
     90.00000     90.00000     90.00000
%ENDBLOCK LATTICE_ABC

%BLOCK POSITIONS_FRAC
  Li       -0.0000000        0.1501259        0.2213830
  Li        0.0000000        0.1501259       -0.2213830
  Li        0.5000000       -0.3063547        0.5000000
   N        0.2500000       -0.4997789       -0.2404202
   N       -0.2500000       -0.4997789        0.2404202
   N       -0.2500000       -0.4997789       -0.2404202
   N        0.2500000       -0.4997789        0.2404202
   N       -0.5000000       -0.0917794        0.2178110
   N        0.5000000       -0.0917794       -0.2178110
%ENDBLOCK POSITIONS_FRAC

KPOINTS_MP_SPACING 0.07

%BLOCK SPECIES_POT
QC5
%ENDBLOCK SPECIES_POT

SNAP_TO_SYMMETRY
SYMMETRY_GENERATE

