#              Generated by Buildcell
#
# at 18:55:36 (GMT+1.0) 26th March 2023
# in /scratch/scratch/uccabz1/launch_tmp_michael
# on node-a14a-003
# by uccabz1
#
# compiler GCC version 4.9.2
# options -cpp -iprefix /scratch/UCL/applications/gcc/4.9.2/bin/../lib/gcc/x86_64-unknown-linux-gnu/4.9.2/ -mtune=corei7 -march=x86-64 -g -Og
#
# seed  1952144915  -883538032  1343731768   753682002 -1555802926  1475836436 -1866620316  1186180372  -592260158   849626150 -1268764995  1747755279
#
#      Author: C. J. Pickard (cjp20@cam.ac.uk)
#                Space group: Imm2
#

%BLOCK LATTICE_ABC
      3.97265      5.36488      5.36488
     66.27100     68.26921     68.26921
%ENDBLOCK LATTICE_ABC

%BLOCK POSITIONS_FRAC
  Li        0.3804332       -0.0935577        0.3326913
  Li        0.3804332        0.3326913       -0.0935577
  Li        0.1509913       -0.1509913       -0.1509913
   N       -0.1338165       -0.3224875        0.2121777
   N        0.2441263        0.2121777       -0.3224875
   N        0.2441263       -0.3224875        0.2121777
   N       -0.1338165        0.2121777       -0.3224875
   N       -0.3436387        0.0603788       -0.3731014
   N       -0.3436387       -0.3731014        0.0603788
%ENDBLOCK POSITIONS_FRAC

KPOINTS_MP_SPACING 0.07

%BLOCK SPECIES_POT
QC5
%ENDBLOCK SPECIES_POT

SNAP_TO_SYMMETRY
SYMMETRY_GENERATE

