#              Generated by Buildcell
#
# at 16:34:22 (GMT+1.0) 26th March 2023
# in /scratch/scratch/uccabz1/launch_tmp_michael
# on node-a14b-022
# by uccabz1
#
# compiler GCC version 4.9.2
# options -cpp -iprefix /scratch/UCL/applications/gcc/4.9.2/bin/../lib/gcc/x86_64-unknown-linux-gnu/4.9.2/ -mtune=corei7 -march=x86-64 -g -Og
#
# seed  1866575463 -2136067742 -1206073476  1334743889  -831120051 -2097215802    -7009501  1422011260  1538706178  1801661263  1170587329  -329355927
#
#      Author: C. J. Pickard (cjp20@cam.ac.uk)
#                Space group: C2
#

%BLOCK LATTICE_ABC
      2.49954      6.24061      6.24061
     90.86865    100.37010    100.37010
%ENDBLOCK LATTICE_ABC

%BLOCK POSITIONS_FRAC
  Li        0.2828629        0.0474224        0.2334630
  Li       -0.2828629       -0.2334630       -0.0474224
  Li        0.0000000       -0.4405322        0.4405322
   N        0.1390100       -0.4687849       -0.0194035
   N       -0.1390100        0.0194035        0.4687849
   N       -0.4355932       -0.2068613        0.3889911
   N        0.4355932       -0.3889911        0.2068613
   N        0.0143919       -0.1391250       -0.3517134
   N       -0.0143919        0.3517134        0.1391250
%ENDBLOCK POSITIONS_FRAC

KPOINTS_MP_SPACING 0.07

%BLOCK SPECIES_POT
QC5
%ENDBLOCK SPECIES_POT

SNAP_TO_SYMMETRY
SYMMETRY_GENERATE

