#              Generated by Buildcell
#
# at 19:34:07 (GMT+1.0) 26th March 2023
# in /scratch/scratch/uccabz1/launch_tmp_michael
# on node-a14a-003
# by uccabz1
#
# compiler GCC version 4.9.2
# options -cpp -iprefix /scratch/UCL/applications/gcc/4.9.2/bin/../lib/gcc/x86_64-unknown-linux-gnu/4.9.2/ -mtune=corei7 -march=x86-64 -g -Og
#
# seed -1126269581 -2129702437   829117313   966966550 -1098961378   351446986 -1646988964   476311423  1535713200 -1788176761  1691217766   314528614
#
#      Author: C. J. Pickard (cjp20@cam.ac.uk)
#                Space group: P32
#

%BLOCK LATTICE_ABC
      4.17249      4.17249     12.38166
     90.00000     90.00000    120.00000
%ENDBLOCK LATTICE_ABC

%BLOCK POSITIONS_FRAC
  Li        0.1284543       -0.4676716        0.3464398
  Li        0.4038741       -0.1284543       -0.3202269
  Li        0.4676716       -0.4038741        0.0131064
  Li       -0.1933180        0.2741473        0.0726718
  Li        0.4674653        0.1933180        0.4060051
  Li       -0.2741473       -0.4674653       -0.2606615
   N       -0.2321001       -0.1321330       -0.4115806
   N        0.0999671        0.2321001       -0.0782473
   N        0.1321330       -0.0999671        0.2550860
   N       -0.3652974        0.2676679       -0.4277106
   N       -0.3670348        0.3652974       -0.0943773
   N       -0.2676679        0.3670348        0.2389561
   N        0.0078419        0.2608401       -0.2365496
   N        0.2529982       -0.0078419        0.0967838
   N       -0.2608401       -0.2529982        0.4301171
   N       -0.0811464       -0.0623818       -0.1628655
   N        0.0187646        0.0811464        0.1704679
   N        0.0623818       -0.0187646       -0.4961988
%ENDBLOCK POSITIONS_FRAC

KPOINTS_MP_SPACING 0.07

%BLOCK SPECIES_POT
QC5
%ENDBLOCK SPECIES_POT

SNAP_TO_SYMMETRY
SYMMETRY_GENERATE

