#              Generated by Buildcell
#
# at 17:50:59 (GMT+1.0) 26th March 2023
# in /scratch/scratch/uccabz1/launch_tmp_michael
# on node-a14e-007
# by uccabz1
#
# compiler GCC version 4.9.2
# options -cpp -iprefix /scratch/UCL/applications/gcc/4.9.2/bin/../lib/gcc/x86_64-unknown-linux-gnu/4.9.2/ -mtune=corei7 -march=x86-64 -g -Og
#
# seed   832967781  1262767038  -804822581  -752797487   458887137  1902083188  1123292175 -1342844929 -1756985571   236913714   219541008   820004179
#
#      Author: C. J. Pickard (cjp20@cam.ac.uk)
#                Space group: Cc
#

%BLOCK LATTICE_ABC
      3.77590      5.40684      9.02282
    107.43477     99.37301     90.00000
%ENDBLOCK LATTICE_ABC

%BLOCK POSITIONS_FRAC
  Li       -0.0397062        0.3364712       -0.0144807
  Li        0.4602938       -0.3509519       -0.0144807
  Li        0.1976202       -0.3843405       -0.4655853
  Li       -0.3023798       -0.0812449       -0.4655853
  Li       -0.3807623        0.3765345        0.3611311
  Li        0.1192377       -0.0154034        0.3611311
   N        0.2069288        0.3331930       -0.1893372
   N       -0.2930712        0.4774698       -0.1893372
   N        0.4671993        0.0137916        0.0146462
   N       -0.0328007        0.0008546        0.0146462
   N        0.3326654       -0.3605639       -0.2331571
   N       -0.1673346        0.1274068       -0.2331571
   N        0.3016946       -0.1386765        0.1693550
   N       -0.1983054        0.3080315        0.1693550
   N       -0.2009092        0.4810093       -0.4044382
   N        0.2990908        0.1145525       -0.4044382
   N       -0.3920638        0.0019376       -0.1348752
   N        0.1079362       -0.1368128       -0.1348752
%ENDBLOCK POSITIONS_FRAC

KPOINTS_MP_SPACING 0.07

%BLOCK SPECIES_POT
QC5
%ENDBLOCK SPECIES_POT

SNAP_TO_SYMMETRY
SYMMETRY_GENERATE

