#              Generated by Buildcell
#
# at 17:47:50 (GMT+1.0) 26th March 2023
# in /scratch/scratch/uccabz1/launch_tmp_michael
# on node-a14a-003
# by uccabz1
#
# compiler GCC version 4.9.2
# options -cpp -iprefix /scratch/UCL/applications/gcc/4.9.2/bin/../lib/gcc/x86_64-unknown-linux-gnu/4.9.2/ -mtune=corei7 -march=x86-64 -g -Og
#
# seed   422622781  1038585302  1319759124  -217437513   237704323  -511251986   400535444 -1636318004  2084610048  -221980662  1054715290 -1139246386
#
#      Author: C. J. Pickard (cjp20@cam.ac.uk)
#                Space group: Cm
#

%BLOCK LATTICE_ABC
      4.59469      4.76185      4.76185
     80.96330     67.78061     67.78061
%ENDBLOCK LATTICE_ABC

%BLOCK POSITIONS_FRAC
  Li       -0.1002568       -0.3835531        0.0207929
  Li       -0.1002568        0.0207929       -0.3835531
  Li       -0.2652658        0.1555847        0.1555847
   N        0.1599063        0.3241783       -0.4322807
   N        0.1599063       -0.4322807        0.3241783
   N        0.3244202       -0.0969644       -0.3395887
   N        0.3244202       -0.3395887       -0.0969644
   N        0.1668801        0.2153756       -0.1199702
   N        0.1668801       -0.1199702        0.2153756
%ENDBLOCK POSITIONS_FRAC

KPOINTS_MP_SPACING 0.07

%BLOCK SPECIES_POT
QC5
%ENDBLOCK SPECIES_POT

SNAP_TO_SYMMETRY
SYMMETRY_GENERATE

