#              Generated by Buildcell
#
# at 17:54:29 (GMT+1.0) 26th March 2023
# in /scratch/scratch/uccabz1/launch_tmp_michael
# on node-a14b-022
# by uccabz1
#
# compiler GCC version 4.9.2
# options -cpp -iprefix /scratch/UCL/applications/gcc/4.9.2/bin/../lib/gcc/x86_64-unknown-linux-gnu/4.9.2/ -mtune=corei7 -march=x86-64 -g -Og
#
# seed  -419056853 -1794990313  1837553423  2116114484    62267301   591162922  -908148899 -1937496490   623553157  -289079958  -132296939  1700429252
#
#      Author: C. J. Pickard (cjp20@cam.ac.uk)
#                Space group: P-1
#

%BLOCK LATTICE_ABC
      3.76358      5.59518      6.09184
     93.88632    100.84592     95.26410
%ENDBLOCK LATTICE_ABC

%BLOCK POSITIONS_FRAC
  Li       -0.1909605        0.4679638       -0.2226709
  Li        0.1909605       -0.4679638        0.2226709
  Li        0.3672581       -0.2251261       -0.0771749
  Li       -0.3672581        0.2251261        0.0771749
   N       -0.4132366       -0.0690168        0.2131607
   N        0.4132366        0.0690168       -0.2131607
   N       -0.2085503        0.1137075       -0.2575623
   N        0.2085503       -0.1137075        0.2575623
   N       -0.2068254       -0.1929356       -0.2024503
   N        0.2068254        0.1929356        0.2024503
   N        0.3385856       -0.2256731        0.4743493
   N       -0.3385856        0.2256731       -0.4743493
%ENDBLOCK POSITIONS_FRAC

KPOINTS_MP_SPACING 0.07

%BLOCK SPECIES_POT
QC5
%ENDBLOCK SPECIES_POT

SNAP_TO_SYMMETRY
SYMMETRY_GENERATE

