#              Generated by Buildcell
#
# at 15:56:12 (GMT+1.0) 26th March 2023
# in /scratch/scratch/uccabz1/launch_tmp_michael
# on node-a14c-005
# by uccabz1
#
# compiler GCC version 4.9.2
# options -cpp -iprefix /scratch/UCL/applications/gcc/4.9.2/bin/../lib/gcc/x86_64-unknown-linux-gnu/4.9.2/ -mtune=corei7 -march=x86-64 -g -Og
#
# seed  -887481528  1446658583  1336154872  1005558283   607667796  1605202994 -1042611945   656383002  -726486851  1772231007  2066403494 -1970738012
#
#      Author: C. J. Pickard (cjp20@cam.ac.uk)
#                Space group: Amm2
#

%BLOCK LATTICE_ABC
      4.23053      4.23053      5.05739
     90.00000     90.00000    107.56468
%ENDBLOCK LATTICE_ABC

%BLOCK POSITIONS_FRAC
  Li        0.3107877        0.1892124        0.5000000
  Li       -0.1892124       -0.3107877        0.5000000
  Li        0.0112765       -0.0112765        0.0000000
   N       -0.3977541       -0.2628136       -0.1761561
   N        0.2628136        0.3977541        0.1761561
   N        0.2628136        0.3977541       -0.1761561
   N       -0.3977541       -0.2628136        0.1761561
   N        0.1951200       -0.1951200       -0.2821004
   N        0.1951200       -0.1951200        0.2821004
%ENDBLOCK POSITIONS_FRAC

KPOINTS_MP_SPACING 0.07

%BLOCK SPECIES_POT
QC5
%ENDBLOCK SPECIES_POT

SNAP_TO_SYMMETRY
SYMMETRY_GENERATE

