#              Generated by Buildcell
#
# at 15:42:22 (GMT+1.0) 26th March 2023
# in /scratch/scratch/uccabz1/launch_tmp_michael
# on node-a14a-003
# by uccabz1
#
# compiler GCC version 4.9.2
# options -cpp -iprefix /scratch/UCL/applications/gcc/4.9.2/bin/../lib/gcc/x86_64-unknown-linux-gnu/4.9.2/ -mtune=corei7 -march=x86-64 -g -Og
#
# seed   296548590  1066009945   237726777 -1732614431 -1561337764  1556477885 -1856342972  -526608674  1892084639   608605868  1467853671 -1890976453
#
#      Author: C. J. Pickard (cjp20@cam.ac.uk)
#                Space group: P43
#

%BLOCK LATTICE_ABC
      2.49997      7.05918      7.05918
     90.00000     90.00000     90.00000
%ENDBLOCK LATTICE_ABC

%BLOCK POSITIONS_FRAC
  Li        0.0935468        0.2474279        0.2259002
  Li       -0.4064532       -0.2474279       -0.2259002
  Li       -0.1564532       -0.2259002        0.2474279
  Li        0.3435468        0.2259002       -0.2474279
   N       -0.0145031        0.3899845       -0.4190474
   N        0.4854969       -0.3899845        0.4190474
   N       -0.2645031        0.4190474        0.3899845
   N        0.2354969       -0.4190474       -0.3899845
   N        0.1545647        0.1671521        0.4819180
   N       -0.3454353       -0.1671521       -0.4819180
   N       -0.0954353       -0.4819180        0.1671521
   N        0.4045647        0.4819180       -0.1671521
%ENDBLOCK POSITIONS_FRAC

KPOINTS_MP_SPACING 0.07

%BLOCK SPECIES_POT
QC5
%ENDBLOCK SPECIES_POT

SNAP_TO_SYMMETRY
SYMMETRY_GENERATE

