#              Generated by Buildcell
#
# at 18:15:44 (GMT+1.0) 26th March 2023
# in /scratch/scratch/uccabz1/launch_tmp_michael
# on node-a14b-028
# by uccabz1
#
# compiler GCC version 4.9.2
# options -cpp -iprefix /scratch/UCL/applications/gcc/4.9.2/bin/../lib/gcc/x86_64-unknown-linux-gnu/4.9.2/ -mtune=corei7 -march=x86-64 -g -Og
#
# seed    16673008 -1335689806 -1585857540  1454182360  1937542939  -514394973 -1457920510  -979539079  1112151041  1630164639  2016271404  -938430181
#
#      Author: C. J. Pickard (cjp20@cam.ac.uk)
#                Space group: Aea2
#

%BLOCK LATTICE_ABC
      4.07426      4.72145     10.05940
     90.00000     90.00000    115.56042
%ENDBLOCK LATTICE_ABC

%BLOCK POSITIONS_FRAC
  Li       -0.0654731       -0.0914646       -0.3315889
  Li       -0.0259916       -0.0914646        0.3315889
  Li        0.4740084       -0.0914646        0.1684111
  Li        0.4345269       -0.0914646       -0.1684111
  Li        0.0378266        0.0756533        0.0000000
  Li       -0.4621734        0.0756533       -0.5000000
   N       -0.1895862        0.3618154       -0.2596950
   N       -0.4485984        0.3618154        0.2596950
   N        0.0514016        0.3618154        0.2403050
   N        0.3104138        0.3618154       -0.2403050
   N        0.4440345        0.1591371       -0.3175449
   N       -0.2848975        0.1591371        0.3175449
   N        0.2151025        0.1591371        0.1824551
   N       -0.0559655        0.1591371       -0.1824551
   N       -0.2900942        0.2886806        0.0712570
   N       -0.4212251        0.2886806       -0.0712570
   N        0.0787749        0.2886806       -0.4287430
   N        0.2099058        0.2886806        0.4287430
%ENDBLOCK POSITIONS_FRAC

KPOINTS_MP_SPACING 0.07

%BLOCK SPECIES_POT
QC5
%ENDBLOCK SPECIES_POT

SNAP_TO_SYMMETRY
SYMMETRY_GENERATE

