#              Generated by Buildcell
#
# at 15:15:46 (GMT+1.0) 26th March 2023
# in /scratch/scratch/uccabz1/launch_tmp_michael
# on node-a14c-005
# by uccabz1
#
# compiler GCC version 4.9.2
# options -cpp -iprefix /scratch/UCL/applications/gcc/4.9.2/bin/../lib/gcc/x86_64-unknown-linux-gnu/4.9.2/ -mtune=corei7 -march=x86-64 -g -Og
#
# seed  -583342546  1301431107  2045820562  1624113830 -1329110817  1896326624  -314718600  -387364878 -1355358813   461746650 -1338275961   815257862
#
#      Author: C. J. Pickard (cjp20@cam.ac.uk)
#                Space group: P4
#

%BLOCK LATTICE_ABC
      4.82880      4.82880      5.19307
     90.00000     90.00000     90.00000
%ENDBLOCK LATTICE_ABC

%BLOCK POSITIONS_FRAC
  Li        0.1830202       -0.3169798        0.1997046
  Li       -0.1830202        0.3169798        0.1997046
  Li        0.3169798        0.1830202        0.1997046
  Li       -0.3169798       -0.1830202        0.1997046
   N       -0.3868279        0.1369436       -0.2474030
   N        0.3868279       -0.1369436       -0.2474030
   N       -0.1369436       -0.3868279       -0.2474030
   N        0.1369436        0.3868279       -0.2474030
   N       -0.2201867       -0.1040634       -0.1472410
   N        0.2201867        0.1040634       -0.1472410
   N        0.1040634       -0.2201867       -0.1472410
   N       -0.1040634        0.2201867       -0.1472410
%ENDBLOCK POSITIONS_FRAC

KPOINTS_MP_SPACING 0.07

%BLOCK SPECIES_POT
QC5
%ENDBLOCK SPECIES_POT

SNAP_TO_SYMMETRY
SYMMETRY_GENERATE

