#              Generated by Buildcell
#
# at 16:46:04 (GMT+1.0) 26th March 2023
# in /scratch/scratch/uccabz1/launch_tmp_michael
# on node-a14a-003
# by uccabz1
#
# compiler GCC version 4.9.2
# options -cpp -iprefix /scratch/UCL/applications/gcc/4.9.2/bin/../lib/gcc/x86_64-unknown-linux-gnu/4.9.2/ -mtune=corei7 -march=x86-64 -g -Og
#
# seed   -66092044  -826144848  -829904139  -278323662  -146300223  -843396479   705301376   102974985 -1211098805  -550944348  -895169788 -1040857144
#
#      Author: C. J. Pickard (cjp20@cam.ac.uk)
#                Space group: P2
#

%BLOCK LATTICE_ABC
      3.38555      6.92714      7.49595
     90.00000     92.40834     90.00000
%ENDBLOCK LATTICE_ABC

%BLOCK POSITIONS_FRAC
  Li        0.2115217       -0.2015824       -0.1680877
  Li       -0.2115217       -0.2015824        0.1680877
  Li        0.2326085        0.2749786       -0.1251637
  Li       -0.2326085        0.2749786        0.1251637
  Li       -0.2579298        0.1841833       -0.3694046
  Li        0.2579298        0.1841833        0.3694046
   N       -0.1481186       -0.4919598        0.2548970
   N        0.1481186       -0.4919598       -0.2548970
   N        0.3027766       -0.0145155       -0.4543547
   N       -0.3027766       -0.0145155        0.4543547
   N       -0.4649682       -0.4558468        0.0998578
   N        0.4649682       -0.4558468       -0.0998578
   N       -0.0627553       -0.0730070       -0.3613054
   N        0.0627553       -0.0730070        0.3613054
   N        0.2224199       -0.3573384        0.2486271
   N       -0.2224199       -0.3573384       -0.2486271
   N        0.3280156        0.3911910       -0.4399754
   N       -0.3280156        0.3911910        0.4399754
%ENDBLOCK POSITIONS_FRAC

KPOINTS_MP_SPACING 0.07

%BLOCK SPECIES_POT
QC5
%ENDBLOCK SPECIES_POT

SNAP_TO_SYMMETRY
SYMMETRY_GENERATE

