#              Generated by Buildcell
#
# at 19:45:50 (GMT+1.0) 26th March 2023
# in /scratch/scratch/uccabz1/launch_tmp_michael
# on node-a14a-019
# by uccabz1
#
# compiler GCC version 4.9.2
# options -cpp -iprefix /scratch/UCL/applications/gcc/4.9.2/bin/../lib/gcc/x86_64-unknown-linux-gnu/4.9.2/ -mtune=corei7 -march=x86-64 -g -Og
#
# seed  1270765615 -1028110088   770813134  1826691994     7137622 -2077314069  1516926826  -595942939   115915927 -1567106297   511541540  -622127109
#
#      Author: C. J. Pickard (cjp20@cam.ac.uk)
#                Space group: P2221
#

%BLOCK LATTICE_ABC
      2.50000      3.88629      6.01143
     90.00000     90.00000     90.00000
%ENDBLOCK LATTICE_ABC

%BLOCK POSITIONS_FRAC
  Li        0.5000000        0.2028597       -0.2500000
  Li       -0.5000000       -0.2028597        0.2500000
   N        0.1067219       -0.1464501       -0.4060094
   N       -0.1067219        0.1464501        0.0939906
   N       -0.1067219       -0.1464501       -0.0939906
   N        0.1067219        0.1464501        0.4060094
%ENDBLOCK POSITIONS_FRAC

KPOINTS_MP_SPACING 0.07

%BLOCK SPECIES_POT
QC5
%ENDBLOCK SPECIES_POT

SNAP_TO_SYMMETRY
SYMMETRY_GENERATE

