#              Generated by Buildcell
#
# at 18:24:22 (GMT+1.0) 26th March 2023
# in /scratch/scratch/uccabz1/launch_tmp_michael
# on node-a14b-028
# by uccabz1
#
# compiler GCC version 4.9.2
# options -cpp -iprefix /scratch/UCL/applications/gcc/4.9.2/bin/../lib/gcc/x86_64-unknown-linux-gnu/4.9.2/ -mtune=corei7 -march=x86-64 -g -Og
#
# seed   369696279 -1204873183  1955719532  1940319108  1797264650  1770279209  1033354317  1812213075 -2043073322   555215537  -552690829   164889398
#
#      Author: C. J. Pickard (cjp20@cam.ac.uk)
#                Space group: I-4
#

%BLOCK LATTICE_ABC
      4.12692      4.12692      4.69118
    116.09493    116.09493     90.00000
%ENDBLOCK LATTICE_ABC

%BLOCK POSITIONS_FRAC
  Li       -0.3298426       -0.3298426        0.3403148
  Li        0.3298426        0.3298426       -0.3403148
   N       -0.4621758       -0.2270358       -0.2936450
   N        0.1685309       -0.0666091       -0.2936450
   N        0.0666091        0.4621758        0.2936450
   N        0.2270358       -0.1685309        0.2936450
%ENDBLOCK POSITIONS_FRAC

KPOINTS_MP_SPACING 0.07

%BLOCK SPECIES_POT
QC5
%ENDBLOCK SPECIES_POT

SNAP_TO_SYMMETRY
SYMMETRY_GENERATE

