#              Generated by Buildcell
#
# at 19:41:20 (GMT+1.0) 26th March 2023
# in /scratch/scratch/uccabz1/launch_tmp_michael
# on node-a14b-022
# by uccabz1
#
# compiler GCC version 4.9.2
# options -cpp -iprefix /scratch/UCL/applications/gcc/4.9.2/bin/../lib/gcc/x86_64-unknown-linux-gnu/4.9.2/ -mtune=corei7 -march=x86-64 -g -Og
#
# seed    23716578   318567083 -1146064496 -2116571082  -857951467   279414824  1659052253 -1914691864    52934445 -1343246600  -378180066  -822524241
#
#      Author: C. J. Pickard (cjp20@cam.ac.uk)
#                Space group: Pm
#

%BLOCK LATTICE_ABC
      3.01683      4.99354      5.98810
     90.00000     90.00000    105.19145
%ENDBLOCK LATTICE_ABC

%BLOCK POSITIONS_FRAC
  Li        0.3640560        0.1308973       -0.2095648
  Li        0.3640560        0.1308973        0.2095648
  Li        0.4104573       -0.2251918        0.5000000
   N        0.4495039       -0.4774872       -0.2672734
   N        0.4495039       -0.4774872        0.2672734
   N        0.0394740        0.3937400       -0.1252484
   N        0.0394740        0.3937400        0.1252484
   N        0.0290761        0.3376970       -0.3747194
   N        0.0290761        0.3376970        0.3747194
%ENDBLOCK POSITIONS_FRAC

KPOINTS_MP_SPACING 0.07

%BLOCK SPECIES_POT
QC5
%ENDBLOCK SPECIES_POT

SNAP_TO_SYMMETRY
SYMMETRY_GENERATE

