#              Generated by Buildcell
#
# at 16:18:48 (GMT+1.0) 26th March 2023
# in /scratch/scratch/uccabz1/launch_tmp_michael
# on node-a14a-019
# by uccabz1
#
# compiler GCC version 4.9.2
# options -cpp -iprefix /scratch/UCL/applications/gcc/4.9.2/bin/../lib/gcc/x86_64-unknown-linux-gnu/4.9.2/ -mtune=corei7 -march=x86-64 -g -Og
#
# seed  1979557522  -244235196  1803532567   681154952   358593195  1072757048 -1908385459   248027620 -1166189540  1119824158    -8061519  -592573279
#
#      Author: C. J. Pickard (cjp20@cam.ac.uk)
#                Space group: Cm
#

%BLOCK LATTICE_ABC
      3.87209      7.14402      7.14402
     78.09023     79.38062     79.38062
%ENDBLOCK LATTICE_ABC

%BLOCK POSITIONS_FRAC
  Li        0.4910534        0.4891094       -0.1046009
  Li        0.4910534       -0.1046009        0.4891094
  Li        0.2088557        0.3531145       -0.3691232
  Li        0.2088557       -0.3691232        0.3531145
  Li        0.0347548       -0.0108941        0.2668661
  Li        0.0347548        0.2668661       -0.0108941
   N       -0.4077381        0.3398812        0.1732236
   N       -0.4077381        0.1732236        0.3398812
   N        0.3900087        0.0792071       -0.3364523
   N        0.3900087       -0.3364523        0.0792071
   N       -0.1062881       -0.2456384        0.1743913
   N       -0.1062881        0.1743913       -0.2456384
   N       -0.3599507       -0.4659916        0.2051116
   N       -0.3599507        0.2051116       -0.4659916
   N        0.2114312       -0.0969206       -0.2635773
   N        0.2114312       -0.2635773       -0.0969206
   N        0.4455079       -0.1262526        0.0404582
   N        0.4455079        0.0404582       -0.1262526
%ENDBLOCK POSITIONS_FRAC

KPOINTS_MP_SPACING 0.07

%BLOCK SPECIES_POT
QC5
%ENDBLOCK SPECIES_POT

SNAP_TO_SYMMETRY
SYMMETRY_GENERATE

