#              Generated by Buildcell
#
# at 17:10:12 (GMT+1.0) 26th March 2023
# in /scratch/scratch/uccabz1/launch_tmp_michael
# on node-a14b-031
# by uccabz1
#
# compiler GCC version 4.9.2
# options -cpp -iprefix /scratch/UCL/applications/gcc/4.9.2/bin/../lib/gcc/x86_64-unknown-linux-gnu/4.9.2/ -mtune=corei7 -march=x86-64 -g -Og
#
# seed  -138546585  -286515440 -1505044528 -1876572936  -896347409 -1396359753  -256945358  -920450394    69156690 -1429019263 -1897700930  2143117823
#
#      Author: C. J. Pickard (cjp20@cam.ac.uk)
#                Space group: P2
#

%BLOCK LATTICE_ABC
      2.50000      6.76601      7.08585
     90.00000     95.29907     90.00000
%ENDBLOCK LATTICE_ABC

%BLOCK POSITIONS_FRAC
  Li        0.2972702       -0.0614272       -0.3451757
  Li       -0.2972702       -0.0614272        0.3451757
  Li        0.1772606        0.2692704        0.3148320
  Li       -0.1772606        0.2692704       -0.3148320
   N       -0.0946435        0.0349362        0.1047223
   N        0.0946435        0.0349362       -0.1047223
   N       -0.0711752        0.4982991        0.1737436
   N        0.0711752        0.4982991       -0.1737436
   N        0.2089526        0.3043436       -0.0717745
   N       -0.2089526        0.3043436        0.0717745
   N        0.4934956       -0.4106975        0.2895422
   N       -0.4934956       -0.4106975       -0.2895422
%ENDBLOCK POSITIONS_FRAC

KPOINTS_MP_SPACING 0.07

%BLOCK SPECIES_POT
QC5
%ENDBLOCK SPECIES_POT

SNAP_TO_SYMMETRY
SYMMETRY_GENERATE

