#              Generated by Buildcell
#
# at 18:25:30 (GMT+1.0) 26th March 2023
# in /scratch/scratch/uccabz1/launch_tmp_michael
# on node-a14b-031
# by uccabz1
#
# compiler GCC version 4.9.2
# options -cpp -iprefix /scratch/UCL/applications/gcc/4.9.2/bin/../lib/gcc/x86_64-unknown-linux-gnu/4.9.2/ -mtune=corei7 -march=x86-64 -g -Og
#
# seed  -300945880  -396604007 -1762966974 -1094569317  1613823668   515708337  1767006244  -255868822  1970113152  -914184133  1770288676    35844286
#
#      Author: C. J. Pickard (cjp20@cam.ac.uk)
#                Space group: P3
#

%BLOCK LATTICE_ABC
      4.33013      4.33013      5.48511
     90.00000     90.00000    120.00000
%ENDBLOCK LATTICE_ABC

%BLOCK POSITIONS_FRAC
  Li       -0.0000001        0.3333334       -0.4591744
  Li        0.3333335        0.0000001       -0.4591744
  Li       -0.3333334       -0.3333335       -0.4591744
   N        0.3974581        0.1746121        0.0881167
   N       -0.2228460       -0.3974581        0.0881167
   N       -0.1746121        0.2228460        0.0881167
   N       -0.4970687       -0.0815254        0.2303746
   N        0.4155433        0.4970687        0.2303746
   N        0.0815254       -0.4155433        0.2303746
%ENDBLOCK POSITIONS_FRAC

KPOINTS_MP_SPACING 0.07

%BLOCK SPECIES_POT
QC5
%ENDBLOCK SPECIES_POT

SNAP_TO_SYMMETRY
SYMMETRY_GENERATE

