#              Generated by Buildcell
#
# at 15:51:25 (GMT+1.0) 26th March 2023
# in /scratch/scratch/uccabz1/launch_tmp_michael
# on node-a14b-022
# by uccabz1
#
# compiler GCC version 4.9.2
# options -cpp -iprefix /scratch/UCL/applications/gcc/4.9.2/bin/../lib/gcc/x86_64-unknown-linux-gnu/4.9.2/ -mtune=corei7 -march=x86-64 -g -Og
#
# seed -1070931951  2041122841   769595453  1831581348  -600042842 -1614911455  -848000466  1209187196  -383366585  -768611889 -1258920076 -2105710995
#
#      Author: C. J. Pickard (cjp20@cam.ac.uk)
#                Space group: F222
#

%BLOCK LATTICE_ABC
      4.32876      4.32876      4.43289
    119.03036    119.03036     90.34983
%ENDBLOCK LATTICE_ABC

%BLOCK POSITIONS_FRAC
  Li        0.2964318       -0.2964318       -0.0000000
  Li       -0.2964318        0.2964318        0.0000000
   N        0.0226335        0.1991885        0.4022841
   N        0.3796506        0.2030957        0.4022841
   N       -0.1991885       -0.0226335       -0.4022841
   N       -0.2030957       -0.3796506       -0.4022841
%ENDBLOCK POSITIONS_FRAC

KPOINTS_MP_SPACING 0.07

%BLOCK SPECIES_POT
QC5
%ENDBLOCK SPECIES_POT

SNAP_TO_SYMMETRY
SYMMETRY_GENERATE

