#              Generated by Buildcell
#
# at 17:55:16 (GMT+1.0) 26th March 2023
# in /scratch/scratch/uccabz1/launch_tmp_michael
# on node-a14a-001
# by uccabz1
#
# compiler GCC version 4.9.2
# options -cpp -iprefix /scratch/UCL/applications/gcc/4.9.2/bin/../lib/gcc/x86_64-unknown-linux-gnu/4.9.2/ -mtune=corei7 -march=x86-64 -g -Og
#
# seed -1175314375  1286479064   798131842   -91857632 -2107194162 -1912093615 -1814357559  2073424158  1824575299 -1489403299  1534482244  1215581551
#
#      Author: C. J. Pickard (cjp20@cam.ac.uk)
#                Space group: I222
#

%BLOCK LATTICE_ABC
      5.26104      6.12520      6.67919
    117.29221    113.19352     90.00000
%ENDBLOCK LATTICE_ABC

%BLOCK POSITIONS_FRAC
  Li       -0.0482070        0.3831637        0.1881429
  Li        0.0482070        0.1950208       -0.1881429
  Li       -0.2363499       -0.3831637       -0.1881429
  Li        0.2363499       -0.1950208        0.1881429
  Li       -0.3028424        0.1971576        0.3943151
  Li        0.3028424       -0.1971576       -0.3943151
   N       -0.3093581        0.0023297       -0.1403174
   N        0.3093581        0.1426471        0.1403174
   N       -0.1690407       -0.0023297        0.1403174
   N        0.1690407       -0.1426471       -0.1403174
   N       -0.4355889       -0.0034899        0.4990287
   N        0.4355889        0.4974814       -0.4990287
   N        0.0653824        0.0034899       -0.4990287
   N       -0.0653824       -0.4974814        0.4990287
   N        0.3233762       -0.4335330        0.2985623
   N       -0.3233762        0.2679047       -0.2985623
   N        0.0248139        0.4335330       -0.2985623
   N       -0.0248139       -0.2679047        0.2985623
%ENDBLOCK POSITIONS_FRAC

KPOINTS_MP_SPACING 0.07

%BLOCK SPECIES_POT
QC5
%ENDBLOCK SPECIES_POT

SNAP_TO_SYMMETRY
SYMMETRY_GENERATE

