#              Generated by Buildcell
#
# at 14:50:02 (GMT+1.0) 26th March 2023
# in /scratch/scratch/uccabz1/launch_tmp_michael
# on node-a14e-007
# by uccabz1
#
# compiler GCC version 4.9.2
# options -cpp -iprefix /scratch/UCL/applications/gcc/4.9.2/bin/../lib/gcc/x86_64-unknown-linux-gnu/4.9.2/ -mtune=corei7 -march=x86-64 -g -Og
#
# seed  -459144717  1488919463 -1963618004   916627278  -680469643   -36774687  1472964083 -1075888777   766115465  1595832492 -1746778123  -327728453
#
#      Author: C. J. Pickard (cjp20@cam.ac.uk)
#                Space group: Pm
#

%BLOCK LATTICE_ABC
      2.60440      5.36754      6.80466
     90.00000     99.06343     90.00000
%ENDBLOCK LATTICE_ABC

%BLOCK POSITIONS_FRAC
  Li       -0.0579801       -0.2338173        0.1878472
  Li       -0.0579801        0.2338173        0.1878472
  Li        0.2856097       -0.5000000       -0.1912442
   N       -0.0981816       -0.3602314        0.4457883
   N       -0.0981816        0.3602314        0.4457883
   N       -0.2571811       -0.1751499       -0.1995831
   N       -0.2571811        0.1751499       -0.1995831
   N        0.4370194       -0.1397287       -0.0324020
   N        0.4370194        0.1397287       -0.0324020
%ENDBLOCK POSITIONS_FRAC

KPOINTS_MP_SPACING 0.07

%BLOCK SPECIES_POT
QC5
%ENDBLOCK SPECIES_POT

SNAP_TO_SYMMETRY
SYMMETRY_GENERATE

