#              Generated by Buildcell
#
# at 17:08:15 (GMT+1.0) 26th March 2023
# in /scratch/scratch/uccabz1/launch_tmp_michael
# on node-a14b-022
# by uccabz1
#
# compiler GCC version 4.9.2
# options -cpp -iprefix /scratch/UCL/applications/gcc/4.9.2/bin/../lib/gcc/x86_64-unknown-linux-gnu/4.9.2/ -mtune=corei7 -march=x86-64 -g -Og
#
# seed -1487277963  1708600126  1542939677  1164491367  -236805832 -1001770374   664098245  -689926345  1710294920 -2002839701  2036638158  1127066814
#
#      Author: C. J. Pickard (cjp20@cam.ac.uk)
#                Space group: Pm
#

%BLOCK LATTICE_ABC
      2.50000      4.52811      5.54821
     90.00000     90.00000    105.30098
%ENDBLOCK LATTICE_ABC

%BLOCK POSITIONS_FRAC
  Li        0.2332832        0.3982500        0.2643702
  Li        0.2332832        0.3982500       -0.2643702
   N       -0.3825981        0.0468449        0.2681927
   N       -0.3825981        0.0468449       -0.2681927
   N       -0.0659987       -0.2886487        0.1371986
   N       -0.0659987       -0.2886487       -0.1371986
%ENDBLOCK POSITIONS_FRAC

KPOINTS_MP_SPACING 0.07

%BLOCK SPECIES_POT
QC5
%ENDBLOCK SPECIES_POT

SNAP_TO_SYMMETRY
SYMMETRY_GENERATE

