#              Generated by Buildcell
#
# at 19:18:03 (GMT+1.0) 26th March 2023
# in /scratch/scratch/uccabz1/launch_tmp_michael
# on node-a14a-003
# by uccabz1
#
# compiler GCC version 4.9.2
# options -cpp -iprefix /scratch/UCL/applications/gcc/4.9.2/bin/../lib/gcc/x86_64-unknown-linux-gnu/4.9.2/ -mtune=corei7 -march=x86-64 -g -Og
#
# seed  -349024735   783164969  1877311376  1383644950  2131045088  2035879808 -1462403867 -1133023468  1711694398  2131037351  1184464418  2109739618
#
#      Author: C. J. Pickard (cjp20@cam.ac.uk)
#                Space group: Pm
#

%BLOCK LATTICE_ABC
      3.08560      4.01448      5.00000
     90.00000     90.00000    110.87216
%ENDBLOCK LATTICE_ABC

%BLOCK POSITIONS_FRAC
  Li       -0.3499712       -0.4026787        0.2500000
  Li       -0.3499712       -0.4026787       -0.2500000
   N       -0.2807242        0.0810299        0.3147246
   N       -0.2807242        0.0810299       -0.3147246
   N        0.1945485       -0.0022523        0.1709173
   N        0.1945485       -0.0022523       -0.1709173
%ENDBLOCK POSITIONS_FRAC

KPOINTS_MP_SPACING 0.07

%BLOCK SPECIES_POT
QC5
%ENDBLOCK SPECIES_POT

SNAP_TO_SYMMETRY
SYMMETRY_GENERATE

