#              Generated by Buildcell
#
# at 17:55:44 (GMT+1.0) 26th March 2023
# in /scratch/scratch/uccabz1/launch_tmp_michael
# on node-a14b-028
# by uccabz1
#
# compiler GCC version 4.9.2
# options -cpp -iprefix /scratch/UCL/applications/gcc/4.9.2/bin/../lib/gcc/x86_64-unknown-linux-gnu/4.9.2/ -mtune=corei7 -march=x86-64 -g -Og
#
# seed  1010905566   930106320 -1534418672 -1526334024 -1154279582 -1033381377    31918581  -853960680   115840936 -1756846574 -1320025973  -128921326
#
#      Author: C. J. Pickard (cjp20@cam.ac.uk)
#                Space group: P21/c
#

%BLOCK LATTICE_ABC
      4.21380      4.67680      7.01108
     90.00000     90.00000    116.19214
%ENDBLOCK LATTICE_ABC

%BLOCK POSITIONS_FRAC
  Li        0.0649889       -0.4825281        0.1747209
  Li       -0.0649889       -0.0174719       -0.3252791
  Li       -0.0649889        0.4825281       -0.1747209
  Li        0.0649889        0.0174719        0.3252791
   N       -0.3293678        0.0953643        0.1261538
   N        0.3293678        0.4046357       -0.3738462
   N        0.3293678       -0.0953643       -0.1261538
   N       -0.3293678       -0.4046357        0.3738462
   N        0.4044229       -0.2873896       -0.2752645
   N       -0.4044229       -0.2126104        0.2247355
   N       -0.4044229        0.2873896        0.2752645
   N        0.4044229        0.2126104       -0.2247355
%ENDBLOCK POSITIONS_FRAC

KPOINTS_MP_SPACING 0.07

%BLOCK SPECIES_POT
QC5
%ENDBLOCK SPECIES_POT

SNAP_TO_SYMMETRY
SYMMETRY_GENERATE

