#              Generated by Buildcell
#
# at 17:21:51 (GMT+1.0) 26th March 2023
# in /scratch/scratch/uccabz1/launch_tmp_michael
# on node-a14b-031
# by uccabz1
#
# compiler GCC version 4.9.2
# options -cpp -iprefix /scratch/UCL/applications/gcc/4.9.2/bin/../lib/gcc/x86_64-unknown-linux-gnu/4.9.2/ -mtune=corei7 -march=x86-64 -g -Og
#
# seed   900769067   892936085 -1090311699    86207801   337085525   790321484  1006352763 -1448815668 -1279760638  -868811736 -1961212041 -2028778229
#
#      Author: C. J. Pickard (cjp20@cam.ac.uk)
#                Space group: Pm
#

%BLOCK LATTICE_ABC
      2.50000      2.91550      8.94158
     90.00000     90.00000    111.42030
%ENDBLOCK LATTICE_ABC

%BLOCK POSITIONS_FRAC
  Li        0.0191597       -0.1509622       -0.3602037
  Li        0.0191597       -0.1509622        0.3602037
   N       -0.2040524        0.4887565        0.0853788
   N       -0.2040524        0.4887565       -0.0853788
   N       -0.2833574        0.0693444        0.1916317
   N       -0.2833574        0.0693444       -0.1916317
%ENDBLOCK POSITIONS_FRAC

KPOINTS_MP_SPACING 0.07

%BLOCK SPECIES_POT
QC5
%ENDBLOCK SPECIES_POT

SNAP_TO_SYMMETRY
SYMMETRY_GENERATE

