#              Generated by Buildcell
#
# at 18:09:45 (GMT+1.0) 26th March 2023
# in /scratch/scratch/uccabz1/launch_tmp_michael
# on node-a14b-031
# by uccabz1
#
# compiler GCC version 4.9.2
# options -cpp -iprefix /scratch/UCL/applications/gcc/4.9.2/bin/../lib/gcc/x86_64-unknown-linux-gnu/4.9.2/ -mtune=corei7 -march=x86-64 -g -Og
#
# seed -1553854927   511634565 -1496943421  1246389187  1059205414  1211096145   -12397758  -206761716 -1354990304 -1520017621   868988175 -1750488064
#
#      Author: C. J. Pickard (cjp20@cam.ac.uk)
#                Space group: P2
#

%BLOCK LATTICE_ABC
      2.60353      4.72157      4.78531
     90.00000     90.00000     94.06421
%ENDBLOCK LATTICE_ABC

%BLOCK POSITIONS_FRAC
  Li       -0.2529774        0.2648860        0.4265494
  Li        0.2529774       -0.2648860        0.4265494
   N       -0.3181046       -0.1162793        0.1323707
   N        0.3181046        0.1162793        0.1323707
   N        0.1394269       -0.1761129       -0.0429093
   N       -0.1394269        0.1761129       -0.0429093
%ENDBLOCK POSITIONS_FRAC

KPOINTS_MP_SPACING 0.07

%BLOCK SPECIES_POT
QC5
%ENDBLOCK SPECIES_POT

SNAP_TO_SYMMETRY
SYMMETRY_GENERATE

