#              Generated by Buildcell
#
# at 20:26:06 (GMT+1.0) 26th March 2023
# in /scratch/scratch/uccabz1/launch_tmp_michael
# on node-a14b-028
# by uccabz1
#
# compiler GCC version 4.9.2
# options -cpp -iprefix /scratch/UCL/applications/gcc/4.9.2/bin/../lib/gcc/x86_64-unknown-linux-gnu/4.9.2/ -mtune=corei7 -march=x86-64 -g -Og
#
# seed   430010763  2110426991  -194834209  1761826584   -66086233 -1711638598  -869566707   795684231  1852909254   -28787057  -311757665    11445674
#
#      Author: C. J. Pickard (cjp20@cam.ac.uk)
#                Space group: P2/m
#

%BLOCK LATTICE_ABC
      4.85722      5.43726      7.17911
     90.00000     96.53420     90.00000
%ENDBLOCK LATTICE_ABC

%BLOCK POSITIONS_FRAC
  Li        0.2468966       -0.2701050        0.1218311
  Li       -0.2468966       -0.2701050       -0.1218311
  Li       -0.2468966        0.2701050       -0.1218311
  Li        0.2468966        0.2701050        0.1218311
  Li       -0.4415270        0.0000000        0.3348395
  Li        0.4415270       -0.0000000       -0.3348395
   N        0.3659012        0.3619658        0.4368101
   N       -0.3659012        0.3619658       -0.4368101
   N       -0.3659012       -0.3619658       -0.4368101
   N        0.3659012       -0.3619658        0.4368101
   N       -0.1504121       -0.1379445       -0.3516795
   N        0.1504121       -0.1379445        0.3516795
   N        0.1504121        0.1379445        0.3516795
   N       -0.1504121        0.1379445       -0.3516795
   N       -0.2731146       -0.1386429        0.1207543
   N        0.2731146       -0.1386429       -0.1207543
   N        0.2731146        0.1386429       -0.1207543
   N       -0.2731146        0.1386429        0.1207543
%ENDBLOCK POSITIONS_FRAC

KPOINTS_MP_SPACING 0.07

%BLOCK SPECIES_POT
QC5
%ENDBLOCK SPECIES_POT

SNAP_TO_SYMMETRY
SYMMETRY_GENERATE

