#              Generated by Buildcell
#
# at 15:11:45 (GMT+1.0) 26th March 2023
# in /scratch/scratch/uccabz1/launch_tmp_michael
# on node-a14a-001
# by uccabz1
#
# compiler GCC version 4.9.2
# options -cpp -iprefix /scratch/UCL/applications/gcc/4.9.2/bin/../lib/gcc/x86_64-unknown-linux-gnu/4.9.2/ -mtune=corei7 -march=x86-64 -g -Og
#
# seed  1709364812  1047866214  1586643961  1495834666  1243110099 -2079444520  -125737003 -1966675045 -1652433414 -2112085600  -795224092 -2117888467
#
#      Author: C. J. Pickard (cjp20@cam.ac.uk)
#                Space group: P-1
#

%BLOCK LATTICE_ABC
      3.32342      5.13388      5.47401
     75.76800     86.80885     74.75069
%ENDBLOCK LATTICE_ABC

%BLOCK POSITIONS_FRAC
  Li        0.4838073       -0.3934529        0.2664316
  Li       -0.4838073        0.3934529       -0.2664316
  Li       -0.5000000        0.0000000        0.5000000
   N        0.0295270        0.3217570       -0.0944541
   N       -0.0295270       -0.3217570        0.0944541
   N       -0.0469652        0.0517318       -0.3369651
   N        0.0469652       -0.0517318        0.3369651
   N        0.0733860        0.2759386        0.2955628
   N       -0.0733860       -0.2759386       -0.2955628
%ENDBLOCK POSITIONS_FRAC

KPOINTS_MP_SPACING 0.07

%BLOCK SPECIES_POT
QC5
%ENDBLOCK SPECIES_POT

SNAP_TO_SYMMETRY
SYMMETRY_GENERATE

