#              Generated by Buildcell
#
# at 15:52:09 (GMT+1.0) 26th March 2023
# in /scratch/scratch/uccabz1/launch_tmp_michael
# on node-a14a-001
# by uccabz1
#
# compiler GCC version 4.9.2
# options -cpp -iprefix /scratch/UCL/applications/gcc/4.9.2/bin/../lib/gcc/x86_64-unknown-linux-gnu/4.9.2/ -mtune=corei7 -march=x86-64 -g -Og
#
# seed -1034335069     9361052  1290565986   279212856  -131043727   -50287038 -1213904442  -793847531 -2077086293   282963310  1111685576  1656544274
#
#      Author: C. J. Pickard (cjp20@cam.ac.uk)
#                Space group: Cc
#

%BLOCK LATTICE_ABC
      5.68632      5.68632      5.90950
     99.67527     99.67527    107.11177
%ENDBLOCK LATTICE_ABC

%BLOCK POSITIONS_FRAC
  Li        0.3352986       -0.4345371        0.4654051
  Li        0.0654629       -0.1647014       -0.0345949
  Li        0.3009143       -0.0011360       -0.4685476
  Li        0.4988640       -0.1990857        0.0314524
  Li       -0.2132578        0.1869091       -0.2651037
  Li       -0.3130909        0.2867422        0.2348963
   N        0.1426486        0.2481086       -0.4910820
   N       -0.2518914       -0.3573514        0.0089180
   N       -0.2546151       -0.1357409       -0.1517037
   N        0.3642591        0.2453849        0.3482963
   N       -0.0178017        0.4513101        0.4951528
   N       -0.0486899        0.4821983       -0.0048472
   N       -0.3942773        0.4340046       -0.2159323
   N       -0.0659954        0.1057227        0.2840677
   N        0.3312120        0.4104162       -0.2688243
   N       -0.0895838       -0.1687880        0.2311757
   N       -0.2495138       -0.3361300       -0.3701729
   N        0.1638700        0.2504862        0.1298271
%ENDBLOCK POSITIONS_FRAC

KPOINTS_MP_SPACING 0.07

%BLOCK SPECIES_POT
QC5
%ENDBLOCK SPECIES_POT

SNAP_TO_SYMMETRY
SYMMETRY_GENERATE

