#              Generated by Buildcell
#
# at 19:28:44 (GMT+1.0) 26th March 2023
# in /scratch/scratch/uccabz1/launch_tmp_michael
# on node-a14b-031
# by uccabz1
#
# compiler GCC version 4.9.2
# options -cpp -iprefix /scratch/UCL/applications/gcc/4.9.2/bin/../lib/gcc/x86_64-unknown-linux-gnu/4.9.2/ -mtune=corei7 -march=x86-64 -g -Og
#
# seed  2044076723   -79738903  2024533475  -985875973  1468781229   585403909 -1517083810  1942535220   830986805  1774372713  -211634885 -1490475675
#
#      Author: C. J. Pickard (cjp20@cam.ac.uk)
#                Space group: Cm
#

%BLOCK LATTICE_ABC
      4.14093      5.74125      6.11694
    113.37136    103.75797    102.38583
%ENDBLOCK LATTICE_ABC

%BLOCK POSITIONS_FRAC
  Li        0.1013431        0.3377744       -0.2386292
  Li        0.3399723       -0.4235965        0.2386292
  Li       -0.0342462       -0.2003914       -0.2590916
  Li        0.2248454        0.0587002        0.2590916
   N        0.0727714        0.4062712        0.3811969
   N       -0.3084255        0.0250743       -0.3811969
   N        0.3392266       -0.3446399       -0.2462473
   N       -0.4145260       -0.0983926        0.2462473
   N       -0.0654920       -0.0776410        0.4103636
   N       -0.4758556       -0.4880047       -0.4103636
   N       -0.3712651        0.2706665       -0.4350783
   N        0.0638133       -0.2942552        0.4350783
%ENDBLOCK POSITIONS_FRAC

KPOINTS_MP_SPACING 0.07

%BLOCK SPECIES_POT
QC5
%ENDBLOCK SPECIES_POT

SNAP_TO_SYMMETRY
SYMMETRY_GENERATE

