#              Generated by Buildcell
#
# at 20:26:46 (GMT+1.0) 26th March 2023
# in /scratch/scratch/uccabz1/launch_tmp_michael
# on node-a14f-035
# by uccabz1
#
# compiler GCC version 4.9.2
# options -cpp -iprefix /scratch/UCL/applications/gcc/4.9.2/bin/../lib/gcc/x86_64-unknown-linux-gnu/4.9.2/ -mtune=corei7 -march=x86-64 -g -Og
#
# seed  -154861748  -935165165    41920163   705293453  -500326088 -1721978512  1272189019   761530468   472644851  1038812490 -1923046706   431754911
#
#      Author: C. J. Pickard (cjp20@cam.ac.uk)
#                Space group: Pm
#

%BLOCK LATTICE_ABC
      2.55797      5.56418      6.22780
     90.00000     95.52246     90.00000
%ENDBLOCK LATTICE_ABC

%BLOCK POSITIONS_FRAC
  Li        0.0658775       -0.2246512        0.2532955
  Li        0.0658775        0.2246512        0.2532955
  Li       -0.2002472        0.5000000       -0.2647980
   N       -0.3563280       -0.3652091        0.4545784
   N       -0.3563280        0.3652091        0.4545784
   N        0.1975545       -0.2599951       -0.4369170
   N        0.1975545        0.2599951       -0.4369170
   N        0.4916663        0.3651371        0.0532851
   N        0.4916663       -0.3651371        0.0532851
%ENDBLOCK POSITIONS_FRAC

KPOINTS_MP_SPACING 0.07

%BLOCK SPECIES_POT
QC5
%ENDBLOCK SPECIES_POT

SNAP_TO_SYMMETRY
SYMMETRY_GENERATE

