#              Generated by Buildcell
#
# at 17:47:16 (GMT+1.0) 26th March 2023
# in /scratch/scratch/uccabz1/launch_tmp_michael
# on node-a14c-005
# by uccabz1
#
# compiler GCC version 4.9.2
# options -cpp -iprefix /scratch/UCL/applications/gcc/4.9.2/bin/../lib/gcc/x86_64-unknown-linux-gnu/4.9.2/ -mtune=corei7 -march=x86-64 -g -Og
#
# seed  1457857057  1338047413   294069423  1681604261 -1296428810 -1268153326 -1338354367   434776663   895236186   774909814  1706398621 -1899527830
#
#      Author: C. J. Pickard (cjp20@cam.ac.uk)
#                Space group: P3
#

%BLOCK LATTICE_ABC
      4.67535      4.74166      4.74166
    120.00000     90.00000     90.00000
%ENDBLOCK LATTICE_ABC

%BLOCK POSITIONS_FRAC
  Li        0.3706515        0.2632484       -0.0700849
  Li        0.3706515       -0.3333333       -0.2632484
  Li        0.3706515        0.0700849        0.3333333
   N       -0.4304557        0.4716106        0.3333333
   N       -0.4304557       -0.1382773       -0.4716106
   N       -0.4304557       -0.3333333        0.1382773
   N        0.1057561       -0.3928397        0.0360061
   N        0.1057561        0.4288458        0.3928397
   N        0.1057561       -0.0360061       -0.4288458
%ENDBLOCK POSITIONS_FRAC

KPOINTS_MP_SPACING 0.07

%BLOCK SPECIES_POT
QC5
%ENDBLOCK SPECIES_POT

SNAP_TO_SYMMETRY
SYMMETRY_GENERATE

