#              Generated by Buildcell
#
# at 18:00:53 (GMT+1.0) 26th March 2023
# in /scratch/scratch/uccabz1/launch_tmp_michael
# on node-a14c-005
# by uccabz1
#
# compiler GCC version 4.9.2
# options -cpp -iprefix /scratch/UCL/applications/gcc/4.9.2/bin/../lib/gcc/x86_64-unknown-linux-gnu/4.9.2/ -mtune=corei7 -march=x86-64 -g -Og
#
# seed -1432670370  1051266896 -1507719415 -1450963321  1255307507   962917105  -887065396   446245636  1941423273  -159879886  -147132475  1835852868
#
#      Author: C. J. Pickard (cjp20@cam.ac.uk)
#                Space group: R3
#

%BLOCK LATTICE_ABC
      5.19533      5.19533      5.98474
     64.27526     64.27526     60.00000
%ENDBLOCK LATTICE_ABC

%BLOCK POSITIONS_FRAC
  Li        0.2967724       -0.3979199        0.1687211
  Li       -0.3979199       -0.0675736        0.1687211
  Li       -0.0675736        0.2967724        0.1687211
  Li       -0.2687786       -0.2687786       -0.1936642
   N       -0.0961245        0.0689653       -0.2232118
   N        0.0689653        0.2503711       -0.2232118
   N        0.2503711       -0.0961245       -0.2232118
   N        0.1120615       -0.2220016       -0.3060346
   N       -0.2220016        0.4159747       -0.3060346
   N        0.4159747        0.1120615       -0.3060346
   N       -0.1023314       -0.1023314        0.3069943
   N       -0.0028152       -0.0028152        0.0084457
%ENDBLOCK POSITIONS_FRAC

KPOINTS_MP_SPACING 0.07

%BLOCK SPECIES_POT
QC5
%ENDBLOCK SPECIES_POT

SNAP_TO_SYMMETRY
SYMMETRY_GENERATE

