#              Generated by Buildcell
#
# at 20:24:12 (GMT+1.0) 26th March 2023
# in /scratch/scratch/uccabz1/launch_tmp_michael
# on node-a14b-022
# by uccabz1
#
# compiler GCC version 4.9.2
# options -cpp -iprefix /scratch/UCL/applications/gcc/4.9.2/bin/../lib/gcc/x86_64-unknown-linux-gnu/4.9.2/ -mtune=corei7 -march=x86-64 -g -Og
#
# seed -1448699321  1687008776  -591117142  -760153133  1945801038 -1410441264  1671891721  1894527705   425483804   -66909367  1898541048 -1037105089
#
#      Author: C. J. Pickard (cjp20@cam.ac.uk)
#                Space group: Cmm2
#

%BLOCK LATTICE_ABC
      2.62558      5.71844      5.71844
     95.17749     90.00000     90.00000
%ENDBLOCK LATTICE_ABC

%BLOCK POSITIONS_FRAC
  Li       -0.3152501        0.2873139       -0.2873139
  Li       -0.3152501       -0.2873139        0.2873139
  Li       -0.0843336       -0.0000000        0.0000000
   N       -0.1764319        0.2110466        0.3886853
   N       -0.1764319       -0.2110466       -0.3886853
   N       -0.1764319        0.3886853        0.2110466
   N       -0.1764319       -0.3886853       -0.2110466
   N        0.3372169        0.2673477        0.2673477
   N        0.3372169       -0.2673477       -0.2673477
%ENDBLOCK POSITIONS_FRAC

KPOINTS_MP_SPACING 0.07

%BLOCK SPECIES_POT
QC5
%ENDBLOCK SPECIES_POT

SNAP_TO_SYMMETRY
SYMMETRY_GENERATE

