#              Generated by Buildcell
#
# at 19:10:50 (GMT+1.0) 26th March 2023
# in /scratch/scratch/uccabz1/launch_tmp_michael
# on node-a14b-028
# by uccabz1
#
# compiler GCC version 4.9.2
# options -cpp -iprefix /scratch/UCL/applications/gcc/4.9.2/bin/../lib/gcc/x86_64-unknown-linux-gnu/4.9.2/ -mtune=corei7 -march=x86-64 -g -Og
#
# seed   704184933   611921412  1194303561   175286577   732942875 -1667677189  1515180756  2078548916 -1420022905   686539682 -1285198005   944245586
#
#      Author: C. J. Pickard (cjp20@cam.ac.uk)
#                Space group: P32
#

%BLOCK LATTICE_ABC
      2.50000      6.44687      6.44687
    120.00000     90.00000     90.00000
%ENDBLOCK LATTICE_ABC

%BLOCK POSITIONS_FRAC
  Li       -0.3191181       -0.3836819       -0.1801147
  Li        0.3475485        0.1801147       -0.2035673
  Li        0.0142152        0.2035673        0.3836819
   N       -0.1915704       -0.4705514        0.4555712
   N        0.4750963       -0.4555712        0.0738774
   N        0.1417630       -0.0738774        0.4705514
   N        0.0582531       -0.1139364        0.1018353
   N       -0.2750803       -0.1018353       -0.2157717
   N        0.3915864        0.2157717        0.1139364
%ENDBLOCK POSITIONS_FRAC

KPOINTS_MP_SPACING 0.07

%BLOCK SPECIES_POT
QC5
%ENDBLOCK SPECIES_POT

SNAP_TO_SYMMETRY
SYMMETRY_GENERATE

