#              Generated by Buildcell
#
# at 18:26:41 (GMT+1.0) 26th March 2023
# in /scratch/scratch/uccabz1/launch_tmp_michael
# on node-a14b-028
# by uccabz1
#
# compiler GCC version 4.9.2
# options -cpp -iprefix /scratch/UCL/applications/gcc/4.9.2/bin/../lib/gcc/x86_64-unknown-linux-gnu/4.9.2/ -mtune=corei7 -march=x86-64 -g -Og
#
# seed -1096802031  1736074912  -733808859  -750252470 -1132022397  2128236532   378374799 -1602362170  -743258181  -101424838   710572172   663980217
#
#      Author: C. J. Pickard (cjp20@cam.ac.uk)
#                Space group: P21/c
#

%BLOCK LATTICE_ABC
      3.10624      4.45269      4.51225
    104.19833     90.00000     90.00000
%ENDBLOCK LATTICE_ABC

%BLOCK POSITIONS_FRAC
  Li       -0.0000000        0.5000000        0.0000000
  Li       -0.5000000       -0.0000000        0.0000000
   N        0.0000000        0.1812063        0.2135072
   N       -0.5000000        0.3187937       -0.2135072
   N       -0.0000000       -0.1812063       -0.2135072
   N        0.5000000       -0.3187937        0.2135072
%ENDBLOCK POSITIONS_FRAC

KPOINTS_MP_SPACING 0.07

%BLOCK SPECIES_POT
QC5
%ENDBLOCK SPECIES_POT

SNAP_TO_SYMMETRY
SYMMETRY_GENERATE

