#              Generated by Buildcell
#
# at 16:58:49 (GMT+1.0) 26th March 2023
# in /scratch/scratch/uccabz1/launch_tmp_michael
# on node-a14e-021
# by uccabz1
#
# compiler GCC version 4.9.2
# options -cpp -iprefix /scratch/UCL/applications/gcc/4.9.2/bin/../lib/gcc/x86_64-unknown-linux-gnu/4.9.2/ -mtune=corei7 -march=x86-64 -g -Og
#
# seed  2091388860  1262559722 -1621804410  -361312057  1824287972   219698259  1701384613 -2022029044 -1828417051   719642574  1629639739   979424196
#
#      Author: C. J. Pickard (cjp20@cam.ac.uk)
#                Space group: Pmn21
#

%BLOCK LATTICE_ABC
      2.67764      5.55116      7.69264
     90.00000     90.00000     90.00000
%ENDBLOCK LATTICE_ABC

%BLOCK POSITIONS_FRAC
  Li        0.2159414       -0.3226494       -0.1624911
  Li       -0.2840586        0.3226494       -0.3375089
  Li       -0.2840586        0.3226494        0.3375089
  Li        0.2159414       -0.3226494        0.1624911
   N       -0.2986720        0.4031072        0.0974962
   N        0.2013280       -0.4031072        0.4025038
   N        0.2013280       -0.4031072       -0.4025038
   N       -0.2986720        0.4031072       -0.0974962
   N        0.1058031        0.0512211       -0.4025039
   N       -0.3941969       -0.0512211       -0.0974961
   N       -0.3941969       -0.0512211        0.0974961
   N        0.1058031        0.0512211        0.4025039
%ENDBLOCK POSITIONS_FRAC

KPOINTS_MP_SPACING 0.07

%BLOCK SPECIES_POT
QC5
%ENDBLOCK SPECIES_POT

SNAP_TO_SYMMETRY
SYMMETRY_GENERATE

