#              Generated by Buildcell
#
# at 16:37:11 (GMT+1.0) 26th March 2023
# in /scratch/scratch/uccabz1/launch_tmp_michael
# on node-a14b-031
# by uccabz1
#
# compiler GCC version 4.9.2
# options -cpp -iprefix /scratch/UCL/applications/gcc/4.9.2/bin/../lib/gcc/x86_64-unknown-linux-gnu/4.9.2/ -mtune=corei7 -march=x86-64 -g -Og
#
# seed -1627951594   786803438  -294611755  2056427062  1256037152  -922124379 -1604750420 -1147015926  -995347062 -1401882202 -1749604270  -252584983
#
#      Author: C. J. Pickard (cjp20@cam.ac.uk)
#                Space group: R3
#

%BLOCK LATTICE_ABC
      4.82346      4.82346      4.82346
    109.19618    109.19618    109.19618
%ENDBLOCK LATTICE_ABC

%BLOCK POSITIONS_FRAC
  Li        0.4137570       -0.1860305       -0.3161959
  Li       -0.3161959        0.4137570       -0.1860305
  Li       -0.1860305       -0.3161959        0.4137570
   N        0.1108040       -0.1969635       -0.1293386
   N       -0.1293386        0.1108040       -0.1969635
   N       -0.1969635       -0.1293386        0.1108040
   N        0.1691684        0.1251324       -0.2474994
   N       -0.2474994        0.1691684        0.1251324
   N        0.1251324       -0.2474994        0.1691684
%ENDBLOCK POSITIONS_FRAC

KPOINTS_MP_SPACING 0.07

%BLOCK SPECIES_POT
QC5
%ENDBLOCK SPECIES_POT

SNAP_TO_SYMMETRY
SYMMETRY_GENERATE

