#              Generated by Buildcell
#
# at 18:38:27 (GMT+1.0) 26th March 2023
# in /scratch/scratch/uccabz1/launch_tmp_michael
# on node-a14e-007
# by uccabz1
#
# compiler GCC version 4.9.2
# options -cpp -iprefix /scratch/UCL/applications/gcc/4.9.2/bin/../lib/gcc/x86_64-unknown-linux-gnu/4.9.2/ -mtune=corei7 -march=x86-64 -g -Og
#
# seed   365127954  1456238537 -1076528838   182912854 -1517631480 -1394737205 -1136242134   284434068    15639254   952842009   160879155   289672230
#
#      Author: C. J. Pickard (cjp20@cam.ac.uk)
#                Space group: Pcc2
#

%BLOCK LATTICE_ABC
      5.57695      5.58878      5.68736
     90.00000     90.00000     90.00000
%ENDBLOCK LATTICE_ABC

%BLOCK POSITIONS_FRAC
  Li        0.2632035        0.2404246       -0.1308814
  Li        0.2632035       -0.2404246        0.1308814
  Li       -0.2367965        0.2404246        0.1308814
  Li       -0.2367965       -0.2404246       -0.1308814
  Li       -0.2020966        0.0000000        0.5000000
  Li        0.2979034       -0.0000000       -0.5000000
   N       -0.4864535        0.4237392       -0.2846475
   N       -0.4864535       -0.4237392        0.2846475
   N        0.0135465        0.4237392        0.2846475
   N        0.0135465       -0.4237392       -0.2846475
   N       -0.4047691       -0.0758329        0.1184627
   N       -0.4047691        0.0758329       -0.1184627
   N        0.0952309       -0.0758329       -0.1184627
   N        0.0952309        0.0758329        0.1184627
   N       -0.0841785        0.1256395       -0.1462611
   N       -0.0841785       -0.1256395        0.1462611
   N        0.4158215        0.1256395        0.1462611
   N        0.4158215       -0.1256395       -0.1462611
%ENDBLOCK POSITIONS_FRAC

KPOINTS_MP_SPACING 0.07

%BLOCK SPECIES_POT
QC5
%ENDBLOCK SPECIES_POT

SNAP_TO_SYMMETRY
SYMMETRY_GENERATE

