#              Generated by Buildcell
#
# at 16:34:33 (GMT+1.0) 26th March 2023
# in /scratch/scratch/uccabz1/launch_tmp_michael
# on node-a14f-035
# by uccabz1
#
# compiler GCC version 4.9.2
# options -cpp -iprefix /scratch/UCL/applications/gcc/4.9.2/bin/../lib/gcc/x86_64-unknown-linux-gnu/4.9.2/ -mtune=corei7 -march=x86-64 -g -Og
#
# seed  2022348434  -588358537   681237503  2051577776   614478422  1223399949  -729178615    58256991  -175102281  1546621218  1210165294 -1378631044
#
#      Author: C. J. Pickard (cjp20@cam.ac.uk)
#                Space group: Cm
#

%BLOCK LATTICE_ABC
      3.77322      3.77322      8.52233
     94.92489     94.92489     97.98533
%ENDBLOCK LATTICE_ABC

%BLOCK POSITIONS_FRAC
  Li        0.3726266       -0.0663779        0.0556769
  Li       -0.0663779        0.3726266        0.0556769
  Li        0.1644195       -0.2746715       -0.3121265
  Li       -0.2746715        0.1644195       -0.3121265
   N       -0.0573504       -0.3670176        0.4633433
   N       -0.3670176       -0.0573504        0.4633433
   N       -0.3165496        0.0230660       -0.1050421
   N        0.0230660       -0.3165496       -0.1050421
   N        0.0505887       -0.2244778        0.2112760
   N       -0.2244778        0.0505887        0.2112760
   N        0.0254317        0.2889799       -0.4731299
   N        0.2889799        0.0254317       -0.4731299
%ENDBLOCK POSITIONS_FRAC

KPOINTS_MP_SPACING 0.07

%BLOCK SPECIES_POT
QC5
%ENDBLOCK SPECIES_POT

SNAP_TO_SYMMETRY
SYMMETRY_GENERATE

