#              Generated by Buildcell
#
# at 17:56:18 (GMT+1.0) 26th March 2023
# in /scratch/scratch/uccabz1/launch_tmp_michael
# on node-a14c-005
# by uccabz1
#
# compiler GCC version 4.9.2
# options -cpp -iprefix /scratch/UCL/applications/gcc/4.9.2/bin/../lib/gcc/x86_64-unknown-linux-gnu/4.9.2/ -mtune=corei7 -march=x86-64 -g -Og
#
# seed   814938584  1077909957  1586534029  -231391016   409235503  1253992836 -1181353968 -2133496713  -772762386   751386235   245256989     9215375
#
#      Author: C. J. Pickard (cjp20@cam.ac.uk)
#                Space group: C2221
#

%BLOCK LATTICE_ABC
      3.11226      4.48605      4.59557
     90.00000     90.00000    110.29670
%ENDBLOCK LATTICE_ABC

%BLOCK POSITIONS_FRAC
  Li       -0.3043225        0.3913550        0.2500000
  Li        0.3043225       -0.3913550       -0.2500000
   N       -0.0331161       -0.1622056       -0.0677615
   N        0.0331161        0.1622056        0.4322385
   N       -0.1290895       -0.1622056       -0.4322385
   N        0.1290895        0.1622056        0.0677615
%ENDBLOCK POSITIONS_FRAC

KPOINTS_MP_SPACING 0.07

%BLOCK SPECIES_POT
QC5
%ENDBLOCK SPECIES_POT

SNAP_TO_SYMMETRY
SYMMETRY_GENERATE

