#              Generated by Buildcell
#
# at 19:53:12 (GMT+1.0) 26th March 2023
# in /scratch/scratch/uccabz1/launch_tmp_michael
# on node-a14f-035
# by uccabz1
#
# compiler GCC version 4.9.2
# options -cpp -iprefix /scratch/UCL/applications/gcc/4.9.2/bin/../lib/gcc/x86_64-unknown-linux-gnu/4.9.2/ -mtune=corei7 -march=x86-64 -g -Og
#
# seed  -342349364 -1135764662  1386070588   -23905629   -24822457  2144871700 -2023301242  1241062382  -744478330 -1782365544  1750588068   463487970
#
#      Author: C. J. Pickard (cjp20@cam.ac.uk)
#                Space group: C2221
#

%BLOCK LATTICE_ABC
      4.02097      6.01478      7.82686
     90.00000     90.00000    109.52738
%ENDBLOCK LATTICE_ABC

%BLOCK POSITIONS_FRAC
  Li       -0.2724769       -0.1223811        0.3828512
  Li        0.2724769        0.1223811       -0.1171488
  Li       -0.1500958        0.1223811        0.1171488
  Li        0.1500958       -0.1223811       -0.3828512
  Li        0.3331671       -0.3336658       -0.0000000
  Li       -0.3331671        0.3336658        0.5000000
   N        0.3840825       -0.4246848        0.4179322
   N       -0.3840825        0.4246848       -0.0820678
   N       -0.1912327        0.4246848        0.0820678
   N        0.1912327       -0.4246848       -0.4179322
   N       -0.0595405       -0.1900096       -0.0940990
   N        0.0595405        0.1900096        0.4059010
   N        0.1304691        0.1900096       -0.4059010
   N       -0.1304691       -0.1900096        0.0940990
   N       -0.0168307        0.3417550       -0.2986238
   N        0.0168307       -0.3417550        0.2013762
   N       -0.3585857       -0.3417550       -0.2013762
   N        0.3585857        0.3417550        0.2986238
%ENDBLOCK POSITIONS_FRAC

KPOINTS_MP_SPACING 0.07

%BLOCK SPECIES_POT
QC5
%ENDBLOCK SPECIES_POT

SNAP_TO_SYMMETRY
SYMMETRY_GENERATE

