#              Generated by Buildcell
#
# at 19:23:46 (GMT+1.0) 26th March 2023
# in /scratch/scratch/uccabz1/launch_tmp_michael
# on node-a14c-005
# by uccabz1
#
# compiler GCC version 4.9.2
# options -cpp -iprefix /scratch/UCL/applications/gcc/4.9.2/bin/../lib/gcc/x86_64-unknown-linux-gnu/4.9.2/ -mtune=corei7 -march=x86-64 -g -Og
#
# seed  1490240318 -2018396857 -1117306422   674762991 -1858760283  -167510508  2035980003 -1446822765 -1340907736  1311924043 -1780787507  -596088086
#
#      Author: C. J. Pickard (cjp20@cam.ac.uk)
#                Space group: R3
#

%BLOCK LATTICE_ABC
      5.25356      5.25356      6.07679
     64.38861     64.38861     60.00000
%ENDBLOCK LATTICE_ABC

%BLOCK POSITIONS_FRAC
  Li        0.0192696       -0.4136186        0.1868173
  Li       -0.4136186        0.2075317        0.1868173
  Li        0.2075317        0.0192696        0.1868173
  Li        0.4881800        0.4881800       -0.4645400
   N       -0.4100179       -0.1862912        0.2681878
   N       -0.1862912        0.3281213        0.2681878
   N        0.3281213       -0.4100179        0.2681878
   N        0.0535508       -0.4631719       -0.4650681
   N       -0.4631719       -0.1253109       -0.4650681
   N       -0.1253109        0.0535508       -0.4650681
   N        0.3609635        0.3609635       -0.0828906
   N        0.1725321        0.1725321        0.4824038
%ENDBLOCK POSITIONS_FRAC

KPOINTS_MP_SPACING 0.07

%BLOCK SPECIES_POT
QC5
%ENDBLOCK SPECIES_POT

SNAP_TO_SYMMETRY
SYMMETRY_GENERATE

