#              Generated by Buildcell
#
# at 18:50:23 (GMT+1.0) 26th March 2023
# in /scratch/scratch/uccabz1/launch_tmp_michael
# on node-a14b-028
# by uccabz1
#
# compiler GCC version 4.9.2
# options -cpp -iprefix /scratch/UCL/applications/gcc/4.9.2/bin/../lib/gcc/x86_64-unknown-linux-gnu/4.9.2/ -mtune=corei7 -march=x86-64 -g -Og
#
# seed  -563797391 -1935712765 -1967015032   145214237  1092509607 -1444633452  -508502554   994785040  -887652190   311966125  -239095582  1537238150
#
#      Author: C. J. Pickard (cjp20@cam.ac.uk)
#                Space group: Pnc2
#

%BLOCK LATTICE_ABC
      5.51942      5.55068      5.83320
     90.00000     90.00000     90.00000
%ENDBLOCK LATTICE_ABC

%BLOCK POSITIONS_FRAC
  Li        0.0213498        0.2491459        0.2866638
  Li       -0.0213498        0.2491459       -0.2866638
  Li        0.0213498       -0.2508541        0.2133362
  Li       -0.0213498       -0.2508541       -0.2133362
  Li        0.5000000       -0.1855415        0.0000000
  Li        0.5000000        0.3144585       -0.5000000
   N        0.2377896        0.0257749       -0.2377605
   N       -0.2377896        0.0257749        0.2377605
   N        0.2377896       -0.4742251       -0.2622395
   N       -0.2377896       -0.4742251        0.2622395
   N        0.4568327       -0.3704289       -0.3780728
   N       -0.4568327       -0.3704289        0.3780728
   N        0.4568327        0.1295711       -0.1219272
   N       -0.4568327        0.1295711        0.1219272
   N       -0.1347126        0.1192000        0.0170423
   N        0.1347126        0.1192000       -0.0170423
   N       -0.1347126       -0.3808000        0.4829577
   N        0.1347126       -0.3808000       -0.4829577
%ENDBLOCK POSITIONS_FRAC

KPOINTS_MP_SPACING 0.07

%BLOCK SPECIES_POT
QC5
%ENDBLOCK SPECIES_POT

SNAP_TO_SYMMETRY
SYMMETRY_GENERATE

