#              Generated by Buildcell
#
# at 16:21:28 (GMT+1.0) 26th March 2023
# in /scratch/scratch/uccabz1/launch_tmp_michael
# on node-a14e-007
# by uccabz1
#
# compiler GCC version 4.9.2
# options -cpp -iprefix /scratch/UCL/applications/gcc/4.9.2/bin/../lib/gcc/x86_64-unknown-linux-gnu/4.9.2/ -mtune=corei7 -march=x86-64 -g -Og
#
# seed  1906388174 -1673183727 -1733755186   181380304   874483873 -1360686830 -1738602214 -1365019040  1832333070  1108822311    53002066 -1654312357
#
#      Author: C. J. Pickard (cjp20@cam.ac.uk)
#                Space group: Pma2
#

%BLOCK LATTICE_ABC
      4.79224      5.00148      5.01047
     90.00000     90.00000     90.00000
%ENDBLOCK LATTICE_ABC

%BLOCK POSITIONS_FRAC
  Li       -0.3476356       -0.0000662        0.2505150
  Li       -0.3476356        0.0000662       -0.2505150
  Li       -0.3476356        0.4999338       -0.2505150
  Li       -0.3476356       -0.4999338        0.2505150
   N        0.2025624       -0.0817668       -0.1645346
   N        0.2025624        0.0817668        0.1645346
   N        0.2025624        0.4182332        0.1645346
   N        0.2025624       -0.4182332       -0.1645346
   N        0.0416762       -0.0927261        0.3577550
   N        0.0416762        0.0927261       -0.3577550
   N        0.0416762        0.4072739       -0.3577550
   N        0.0416762       -0.4072739        0.3577550
%ENDBLOCK POSITIONS_FRAC

KPOINTS_MP_SPACING 0.07

%BLOCK SPECIES_POT
QC5
%ENDBLOCK SPECIES_POT

SNAP_TO_SYMMETRY
SYMMETRY_GENERATE

