#              Generated by Buildcell
#
# at 18:31:31 (GMT+1.0) 26th March 2023
# in /scratch/scratch/uccabz1/launch_tmp_michael
# on node-a14a-001
# by uccabz1
#
# compiler GCC version 4.9.2
# options -cpp -iprefix /scratch/UCL/applications/gcc/4.9.2/bin/../lib/gcc/x86_64-unknown-linux-gnu/4.9.2/ -mtune=corei7 -march=x86-64 -g -Og
#
# seed  1707314193  -956360267  -520344040  1636591861  1195585430  -873989024  -923253492  -947841564  1348737661  -693513794    58369681  2010389380
#
#      Author: C. J. Pickard (cjp20@cam.ac.uk)
#                Space group: Pmn21
#

%BLOCK LATTICE_ABC
      2.66119      7.41762      9.11321
     90.00000     90.00000     90.00000
%ENDBLOCK LATTICE_ABC

%BLOCK POSITIONS_FRAC
  Li        0.4862369        0.2925538       -0.3053195
  Li       -0.4862369        0.2074462        0.1946805
  Li       -0.4862369       -0.2074462        0.1946805
  Li        0.4862369       -0.2925538       -0.3053195
  Li       -0.2686494       -0.0000000       -0.0140787
  Li        0.2686494        0.5000000        0.4859213
   N       -0.1366238       -0.1054483       -0.2135700
   N        0.1366238       -0.3945517        0.2864300
   N        0.1366238        0.3945517        0.2864300
   N       -0.1366238        0.1054483       -0.2135700
   N       -0.0012230        0.3505851       -0.1569192
   N        0.0012230        0.1494149        0.3430808
   N        0.0012230       -0.1494149        0.3430808
   N       -0.0012230       -0.3505851       -0.1569192
   N        0.3402343       -0.1544770       -0.1349698
   N       -0.3402343       -0.3455230        0.3650302
   N       -0.3402343        0.3455230        0.3650302
   N        0.3402343        0.1544770       -0.1349698
%ENDBLOCK POSITIONS_FRAC

KPOINTS_MP_SPACING 0.07

%BLOCK SPECIES_POT
QC5
%ENDBLOCK SPECIES_POT

SNAP_TO_SYMMETRY
SYMMETRY_GENERATE

