#              Generated by Buildcell
#
# at 18:20:36 (GMT+1.0) 26th March 2023
# in /scratch/scratch/uccabz1/launch_tmp_michael
# on node-a14a-019
# by uccabz1
#
# compiler GCC version 4.9.2
# options -cpp -iprefix /scratch/UCL/applications/gcc/4.9.2/bin/../lib/gcc/x86_64-unknown-linux-gnu/4.9.2/ -mtune=corei7 -march=x86-64 -g -Og
#
# seed -2018603099 -1242308639  -330273197  2078962545 -1631759448   -78189352 -1399554340   979487224  1883244061 -1424386324 -1939258278   389193422
#
#      Author: C. J. Pickard (cjp20@cam.ac.uk)
#                Space group: R3
#

%BLOCK LATTICE_ABC
      3.93381      3.93381      3.93381
     79.04784     79.04784     79.04784
%ENDBLOCK LATTICE_ABC

%BLOCK POSITIONS_FRAC
  Li        0.0445755        0.0445755        0.0445755
  Li       -0.3711150       -0.3711150       -0.3711150
   N       -0.2267168       -0.3065261        0.0434150
   N       -0.3065261        0.0434150       -0.2267168
   N        0.0434150       -0.2267168       -0.3065261
   N        0.2819551        0.2819551        0.2819551
%ENDBLOCK POSITIONS_FRAC

KPOINTS_MP_SPACING 0.07

%BLOCK SPECIES_POT
QC5
%ENDBLOCK SPECIES_POT

SNAP_TO_SYMMETRY
SYMMETRY_GENERATE

