#              Generated by Buildcell
#
# at 16:48:53 (GMT+1.0) 26th March 2023
# in /scratch/scratch/uccabz1/launch_tmp_michael
# on node-a14b-028
# by uccabz1
#
# compiler GCC version 4.9.2
# options -cpp -iprefix /scratch/UCL/applications/gcc/4.9.2/bin/../lib/gcc/x86_64-unknown-linux-gnu/4.9.2/ -mtune=corei7 -march=x86-64 -g -Og
#
# seed  1726699322  -527252264   350992741 -1065919341 -1643693291   831822161  -202318950   770382384  -959176409  -753300429  -895996427   964970111
#
#      Author: C. J. Pickard (cjp20@cam.ac.uk)
#                Space group: R3
#

%BLOCK LATTICE_ABC
      4.61159      4.61159      4.61159
     75.31596     75.31596     75.31596
%ENDBLOCK LATTICE_ABC

%BLOCK POSITIONS_FRAC
  Li       -0.3213749        0.1680420        0.3869976
  Li        0.1680420        0.3869976       -0.3213749
  Li        0.3869976       -0.3213749        0.1680420
   N        0.0414795       -0.2644555       -0.1372778
   N       -0.2644555       -0.1372778        0.0414795
   N       -0.1372778        0.0414795       -0.2644555
   N       -0.0636233       -0.2319981        0.4772192
   N       -0.2319981        0.4772192       -0.0636233
   N        0.4772192       -0.0636233       -0.2319981
%ENDBLOCK POSITIONS_FRAC

KPOINTS_MP_SPACING 0.07

%BLOCK SPECIES_POT
QC5
%ENDBLOCK SPECIES_POT

SNAP_TO_SYMMETRY
SYMMETRY_GENERATE

