#              Generated by Buildcell
#
# at 15:01:31 (GMT+1.0) 26th March 2023
# in /scratch/scratch/uccabz1/launch_tmp_michael
# on node-a14e-021
# by uccabz1
#
# compiler GCC version 4.9.2
# options -cpp -iprefix /scratch/UCL/applications/gcc/4.9.2/bin/../lib/gcc/x86_64-unknown-linux-gnu/4.9.2/ -mtune=corei7 -march=x86-64 -g -Og
#
# seed  1064525081   165227111  -113575750    44390779  -224647579  1267481566 -2142944721  1847488179  -228321325 -1924190914  1507779420  -859339775
#
#      Author: C. J. Pickard (cjp20@cam.ac.uk)
#                Space group: Pm
#

%BLOCK LATTICE_ABC
      4.73400      4.99969      5.71482
     90.00000    111.89901     90.00000
%ENDBLOCK LATTICE_ABC

%BLOCK POSITIONS_FRAC
  Li        0.2391744       -0.2500000       -0.2712510
  Li        0.2391744        0.2500000       -0.2712510
  Li       -0.2579462        0.2500000        0.3621329
  Li       -0.2579462       -0.2500000        0.3621329
   N        0.4543435       -0.1784714       -0.4863632
   N        0.4543435        0.1784714       -0.4863632
   N        0.1253884        0.1741788        0.3415417
   N        0.1253884       -0.1741788        0.3415417
   N        0.3250575        0.3482783        0.2544270
   N        0.3250575       -0.3482783        0.2544270
   N        0.0643208        0.1666315        0.0645113
   N        0.0643208       -0.1666315        0.0645113
%ENDBLOCK POSITIONS_FRAC

KPOINTS_MP_SPACING 0.07

%BLOCK SPECIES_POT
QC5
%ENDBLOCK SPECIES_POT

SNAP_TO_SYMMETRY
SYMMETRY_GENERATE

