#              Generated by Buildcell
#
# at 16:22:41 (GMT+1.0) 26th March 2023
# in /scratch/scratch/uccabz1/launch_tmp_michael
# on node-a14c-005
# by uccabz1
#
# compiler GCC version 4.9.2
# options -cpp -iprefix /scratch/UCL/applications/gcc/4.9.2/bin/../lib/gcc/x86_64-unknown-linux-gnu/4.9.2/ -mtune=corei7 -march=x86-64 -g -Og
#
# seed   364047356  1666274450  2125989783 -1456824784  1684079778 -1790474523  2060612409  -483029774  1998332276  -734494143  -410771824 -1916903021
#
#      Author: C. J. Pickard (cjp20@cam.ac.uk)
#                Space group: I-4
#

%BLOCK LATTICE_ABC
      5.55165      6.32683      6.32683
     78.90177     63.97656     63.97656
%ENDBLOCK LATTICE_ABC

%BLOCK POSITIONS_FRAC
  Li        0.3644391        0.2859465        0.1167862
  Li       -0.2328282       -0.2859465       -0.1167862
  Li       -0.4812253        0.1167862       -0.2859465
  Li        0.3496144       -0.1167862        0.2859465
  Li       -0.4975500        0.5000000       -0.5000000
  Li       -0.0024500        0.5000000       -0.5000000
   N       -0.2432306        0.1741531        0.3923476
   N        0.3232702       -0.1741531       -0.3923476
   N       -0.1491171        0.3923476       -0.1741531
   N        0.0690775       -0.3923476        0.1741531
   N       -0.1754225       -0.1935034        0.1241993
   N       -0.2447267        0.1935034       -0.1241993
   N        0.0512233        0.1241993        0.1935034
   N        0.3689259       -0.1241993       -0.1935034
   N       -0.0083702        0.2083351        0.4702062
   N       -0.3298288       -0.2083351       -0.4702062
   N       -0.4618360        0.4702062       -0.2083351
   N       -0.1999649       -0.4702062        0.2083351
%ENDBLOCK POSITIONS_FRAC

KPOINTS_MP_SPACING 0.07

%BLOCK SPECIES_POT
QC5
%ENDBLOCK SPECIES_POT

SNAP_TO_SYMMETRY
SYMMETRY_GENERATE

