#              Generated by Buildcell
#
# at 19:04:56 (GMT+1.0) 26th March 2023
# in /scratch/scratch/uccabz1/launch_tmp_michael
# on node-a14a-019
# by uccabz1
#
# compiler GCC version 4.9.2
# options -cpp -iprefix /scratch/UCL/applications/gcc/4.9.2/bin/../lib/gcc/x86_64-unknown-linux-gnu/4.9.2/ -mtune=corei7 -march=x86-64 -g -Og
#
# seed  -736999639  -234195378    46625445   758281937   686507649  1091392560  1847996509 -1931581941  -196320685  -400515464  1269260596  -512606951
#
#      Author: C. J. Pickard (cjp20@cam.ac.uk)
#                Space group: P2
#

%BLOCK LATTICE_ABC
      3.32455      3.73475      4.89621
     90.00000     90.00000     90.00006
%ENDBLOCK LATTICE_ABC

%BLOCK POSITIONS_FRAC
  Li        0.2500000       -0.2500000        0.4527855
  Li       -0.2500000        0.2500000        0.4527855
   N        0.0746104        0.2180989       -0.0788963
   N       -0.0746104       -0.2180989       -0.0788963
   N       -0.2446495       -0.3980390        0.1722279
   N        0.2446495        0.3980390        0.1722279
%ENDBLOCK POSITIONS_FRAC

KPOINTS_MP_SPACING 0.07

%BLOCK SPECIES_POT
QC5
%ENDBLOCK SPECIES_POT

SNAP_TO_SYMMETRY
SYMMETRY_GENERATE

