#              Generated by Buildcell
#
# at 15:29:13 (GMT+1.0) 26th March 2023
# in /scratch/scratch/uccabz1/launch_tmp_michael
# on node-a14a-019
# by uccabz1
#
# compiler GCC version 4.9.2
# options -cpp -iprefix /scratch/UCL/applications/gcc/4.9.2/bin/../lib/gcc/x86_64-unknown-linux-gnu/4.9.2/ -mtune=corei7 -march=x86-64 -g -Og
#
# seed  1504313800  1190133885  1086187777   325300805 -1569854738  1188720481  1134155029 -2007599752   700246928  2015709551   283031630 -2109434827
#
#      Author: C. J. Pickard (cjp20@cam.ac.uk)
#                Space group: P3
#

%BLOCK LATTICE_ABC
      4.00393      4.00393      4.28344
     90.00000     90.00000    120.00000
%ENDBLOCK LATTICE_ABC

%BLOCK POSITIONS_FRAC
  Li        0.0000000        0.0000000       -0.2334583
  Li       -0.3333333        0.3333333       -0.4556948
   N       -0.4279009       -0.0918110        0.2866501
   N        0.3360900        0.4279009        0.2866501
   N        0.0918110       -0.3360900        0.2866501
   N       -0.3333333        0.3333333        0.0952308
%ENDBLOCK POSITIONS_FRAC

KPOINTS_MP_SPACING 0.07

%BLOCK SPECIES_POT
QC5
%ENDBLOCK SPECIES_POT

SNAP_TO_SYMMETRY
SYMMETRY_GENERATE

