#              Generated by Buildcell
#
# at 19:41:17 (GMT+1.0) 26th March 2023
# in /scratch/scratch/uccabz1/launch_tmp_michael
# on node-a14a-001
# by uccabz1
#
# compiler GCC version 4.9.2
# options -cpp -iprefix /scratch/UCL/applications/gcc/4.9.2/bin/../lib/gcc/x86_64-unknown-linux-gnu/4.9.2/ -mtune=corei7 -march=x86-64 -g -Og
#
# seed  1714858068  1383198420 -1258928725   897962729 -1273168729  1946791217  1182378493   309127504  -969544438 -1513470189 -1456983117  1504600061
#
#      Author: C. J. Pickard (cjp20@cam.ac.uk)
#                Space group: Fdd2
#

%BLOCK LATTICE_ABC
      5.30905      5.30905      7.31210
    105.60523    105.60523    105.01050
%ENDBLOCK LATTICE_ABC

%BLOCK POSITIONS_FRAC
  Li        0.4873217       -0.0767840        0.4561548
  Li       -0.0311669       -0.4670612        0.4561548
  Li        0.2829388        0.2188331       -0.0438452
  Li       -0.3267840       -0.2626783       -0.0438452
  Li        0.0745455       -0.4254545        0.1490910
  Li        0.3245455        0.3245455       -0.3509090
   N        0.1802365        0.0458074        0.3837146
   N        0.2034782        0.3379072        0.3837146
   N        0.0879072        0.4534782       -0.1162854
   N       -0.2041926        0.4302365       -0.1162854
   N        0.3297366        0.3964251        0.2322057
   N       -0.0975308       -0.1642194        0.2322057
   N       -0.4142194        0.1524692       -0.2677943
   N        0.1464251       -0.4202634       -0.2677943
   N       -0.3563285        0.2093746        0.0776026
   N        0.4339311       -0.1317720        0.0776026
   N       -0.3817720       -0.3160689       -0.4223974
   N       -0.0406254       -0.1063285       -0.4223974
%ENDBLOCK POSITIONS_FRAC

KPOINTS_MP_SPACING 0.07

%BLOCK SPECIES_POT
QC5
%ENDBLOCK SPECIES_POT

SNAP_TO_SYMMETRY
SYMMETRY_GENERATE

