#              Generated by Buildcell
#
# at 17:14:08 (GMT+1.0) 26th March 2023
# in /scratch/scratch/uccabz1/launch_tmp_michael
# on node-a14a-019
# by uccabz1
#
# compiler GCC version 4.9.2
# options -cpp -iprefix /scratch/UCL/applications/gcc/4.9.2/bin/../lib/gcc/x86_64-unknown-linux-gnu/4.9.2/ -mtune=corei7 -march=x86-64 -g -Og
#
# seed  -189013534  1974545363 -1571295150   566218088   147275383  -193561057 -2023978109 -1316023887 -1889790576  1834030797  -665266117  1278470470
#
#      Author: C. J. Pickard (cjp20@cam.ac.uk)
#                Space group: Pca21
#

%BLOCK LATTICE_ABC
      3.24008      4.54860      8.24322
     90.00000     90.00000     90.00000
%ENDBLOCK LATTICE_ABC

%BLOCK POSITIONS_FRAC
  Li       -0.4796427       -0.0390446        0.3845070
  Li        0.4796427        0.4609554       -0.3845070
  Li        0.0203573       -0.0390446       -0.3845070
  Li       -0.0203573        0.4609554        0.3845070
   N        0.4850516       -0.2689776        0.1576490
   N       -0.4850516        0.2310224       -0.1576490
   N       -0.0149484       -0.2689776       -0.1576490
   N        0.0149484        0.2310224        0.1576490
   N        0.3086128       -0.1941784       -0.0342132
   N       -0.3086128        0.3058216        0.0342132
   N       -0.1913872       -0.1941784        0.0342132
   N        0.1913872        0.3058216       -0.0342132
%ENDBLOCK POSITIONS_FRAC

KPOINTS_MP_SPACING 0.07

%BLOCK SPECIES_POT
QC5
%ENDBLOCK SPECIES_POT

SNAP_TO_SYMMETRY
SYMMETRY_GENERATE

