#              Generated by Buildcell
#
# at 17:51:19 (GMT+1.0) 26th March 2023
# in /scratch/scratch/uccabz1/launch_tmp_michael
# on node-a14f-035
# by uccabz1
#
# compiler GCC version 4.9.2
# options -cpp -iprefix /scratch/UCL/applications/gcc/4.9.2/bin/../lib/gcc/x86_64-unknown-linux-gnu/4.9.2/ -mtune=corei7 -march=x86-64 -g -Og
#
# seed  1426230492  -958610991  -120859710 -2018525832 -1547088481 -1877432780  -418753281 -1840359316  1727500199   244500383  -947666816 -1752028556
#
#      Author: C. J. Pickard (cjp20@cam.ac.uk)
#                Space group: P21
#

%BLOCK LATTICE_ABC
      3.50041      4.91063      6.65670
     90.00000     90.00000     94.78099
%ENDBLOCK LATTICE_ABC

%BLOCK POSITIONS_FRAC
  Li        0.0169630       -0.0733340       -0.4962129
  Li       -0.0169630        0.0733340        0.0037871
  Li        0.3105237       -0.4923015       -0.3790010
  Li       -0.3105237        0.4923015        0.1209990
   N        0.3469872       -0.3225964        0.2831397
   N       -0.3469872        0.3225964       -0.2168603
   N        0.2778236       -0.0276534        0.2541461
   N       -0.2778236        0.0276534       -0.2458539
   N       -0.3257074       -0.3732130        0.4210443
   N        0.3257074        0.3732130       -0.0789557
   N       -0.1949945       -0.1138634        0.2406676
   N        0.1949945        0.1138634       -0.2593324
%ENDBLOCK POSITIONS_FRAC

KPOINTS_MP_SPACING 0.07

%BLOCK SPECIES_POT
QC5
%ENDBLOCK SPECIES_POT

SNAP_TO_SYMMETRY
SYMMETRY_GENERATE

