#              Generated by Buildcell
#
# at 19:53:21 (GMT+1.0) 26th March 2023
# in /scratch/scratch/uccabz1/launch_tmp_michael
# on node-a14f-035
# by uccabz1
#
# compiler GCC version 4.9.2
# options -cpp -iprefix /scratch/UCL/applications/gcc/4.9.2/bin/../lib/gcc/x86_64-unknown-linux-gnu/4.9.2/ -mtune=corei7 -march=x86-64 -g -Og
#
# seed -1551577296  -221153276  1130114177  1994186163  -901865757   140864274  1467658314   659320937   226649395 -1041920065  1358553024  -391315299
#
#      Author: C. J. Pickard (cjp20@cam.ac.uk)
#                Space group: P2
#

%BLOCK LATTICE_ABC
      3.06021      4.31436      4.42739
     90.00000     90.00000     96.84923
%ENDBLOCK LATTICE_ABC

%BLOCK POSITIONS_FRAC
  Li        0.2894220       -0.2679020       -0.1028568
  Li       -0.2894220        0.2679020       -0.1028568
   N       -0.2474954        0.1308957        0.4808278
   N        0.2474954       -0.1308957        0.4808278
   N       -0.3504454       -0.2022654        0.3101632
   N        0.3504454        0.2022654        0.3101632
%ENDBLOCK POSITIONS_FRAC

KPOINTS_MP_SPACING 0.07

%BLOCK SPECIES_POT
QC5
%ENDBLOCK SPECIES_POT

SNAP_TO_SYMMETRY
SYMMETRY_GENERATE

