#              Generated by Buildcell
#
# at 18:22:00 (GMT+1.0) 26th March 2023
# in /scratch/scratch/uccabz1/launch_tmp_michael
# on node-a14e-007
# by uccabz1
#
# compiler GCC version 4.9.2
# options -cpp -iprefix /scratch/UCL/applications/gcc/4.9.2/bin/../lib/gcc/x86_64-unknown-linux-gnu/4.9.2/ -mtune=corei7 -march=x86-64 -g -Og
#
# seed  1143466185 -1779766187   361891585   548619100  -717440997   630153966  1712181537    15854546  1665122996 -1934566172 -1926828028  1269787631
#
#      Author: C. J. Pickard (cjp20@cam.ac.uk)
#                Space group: P3
#

%BLOCK LATTICE_ABC
      4.79287      4.79287      5.76724
     90.00000     90.00000    120.00000
%ENDBLOCK LATTICE_ABC

%BLOCK POSITIONS_FRAC
  Li       -0.4142184       -0.4142186        0.0383898
  Li       -0.0000002        0.4142184        0.0383898
  Li        0.4142186        0.0000002        0.0383898
  Li        0.3333333       -0.3333333       -0.3155471
   N       -0.2709133        0.1921286        0.3148561
   N        0.4630419        0.2709133        0.3148561
   N       -0.1921286       -0.4630419        0.3148561
   N        0.1305431        0.2062251        0.2577866
   N        0.0756820       -0.1305431        0.2577866
   N       -0.2062251       -0.0756820        0.2577866
   N        0.3333333       -0.3333333        0.3268316
   N       -0.3333333        0.3333333       -0.1758533
%ENDBLOCK POSITIONS_FRAC

KPOINTS_MP_SPACING 0.07

%BLOCK SPECIES_POT
QC5
%ENDBLOCK SPECIES_POT

SNAP_TO_SYMMETRY
SYMMETRY_GENERATE

