#              Generated by Buildcell
#
# at 15:17:53 (GMT+1.0) 26th March 2023
# in /scratch/scratch/uccabz1/launch_tmp_michael
# on node-a14b-022
# by uccabz1
#
# compiler GCC version 4.9.2
# options -cpp -iprefix /scratch/UCL/applications/gcc/4.9.2/bin/../lib/gcc/x86_64-unknown-linux-gnu/4.9.2/ -mtune=corei7 -march=x86-64 -g -Og
#
# seed  1024415085  -768236091  2034141186   586924057  1889240099 -2035651287   693223653   780787336  1182018953 -1868479804   183949827  1878960815
#
#      Author: C. J. Pickard (cjp20@cam.ac.uk)
#                Space group: Pm
#

%BLOCK LATTICE_ABC
      4.79235      4.91565      5.64476
     90.00000     90.00000    112.85538
%ENDBLOCK LATTICE_ABC

%BLOCK POSITIONS_FRAC
  Li       -0.3541662        0.4721439       -0.2429400
  Li       -0.3541662        0.4721439        0.2429400
  Li        0.0809703        0.2395999       -0.2688578
  Li        0.0809703        0.2395999        0.2688578
   N        0.1754258       -0.1774544        0.1329439
   N        0.1754258       -0.1774544       -0.1329439
   N        0.2400838       -0.3391193       -0.3670904
   N        0.2400838       -0.3391193        0.3670904
   N       -0.1208336       -0.1403679       -0.1328679
   N       -0.1208336       -0.1403679        0.1328679
   N        0.0072264       -0.2049379       -0.3666691
   N        0.0072264       -0.2049379        0.3666691
%ENDBLOCK POSITIONS_FRAC

KPOINTS_MP_SPACING 0.07

%BLOCK SPECIES_POT
QC5
%ENDBLOCK SPECIES_POT

SNAP_TO_SYMMETRY
SYMMETRY_GENERATE

