#              Generated by Buildcell
#
# at 18:59:26 (GMT+1.0) 26th March 2023
# in /scratch/scratch/uccabz1/launch_tmp_michael
# on node-a14f-035
# by uccabz1
#
# compiler GCC version 4.9.2
# options -cpp -iprefix /scratch/UCL/applications/gcc/4.9.2/bin/../lib/gcc/x86_64-unknown-linux-gnu/4.9.2/ -mtune=corei7 -march=x86-64 -g -Og
#
# seed   446748730 -1351096235  1284796724  1107717620 -1400155201   563047069  -905784778  1299486888  1979708549 -1696820770   285949936  -963152280
#
#      Author: C. J. Pickard (cjp20@cam.ac.uk)
#                Space group: Ama2
#

%BLOCK LATTICE_ABC
      3.18050      4.24260      4.99998
     90.00000     90.00000    112.01374
%ENDBLOCK LATTICE_ABC

%BLOCK POSITIONS_FRAC
  Li        0.1971285        0.3942570       -0.0000000
  Li        0.1971285        0.3942570        0.5000000
   N        0.2120048       -0.1324719        0.0518104
   N       -0.3444766       -0.1324719       -0.0518104
   N       -0.3444766       -0.1324719       -0.4481896
   N        0.2120048       -0.1324719        0.4481896
%ENDBLOCK POSITIONS_FRAC

KPOINTS_MP_SPACING 0.07

%BLOCK SPECIES_POT
QC5
%ENDBLOCK SPECIES_POT

SNAP_TO_SYMMETRY
SYMMETRY_GENERATE

