#              Generated by Buildcell
#
# at 19:07:08 (GMT+1.0) 26th March 2023
# in /scratch/scratch/uccabz1/launch_tmp_michael
# on node-a14e-007
# by uccabz1
#
# compiler GCC version 4.9.2
# options -cpp -iprefix /scratch/UCL/applications/gcc/4.9.2/bin/../lib/gcc/x86_64-unknown-linux-gnu/4.9.2/ -mtune=corei7 -march=x86-64 -g -Og
#
# seed -1011665797   717586125 -1360088372  1094622742  1031191928 -2100173236  1711233936 -1299751610 -1446569583 -1368402983 -1716533740  1023387914
#
#      Author: C. J. Pickard (cjp20@cam.ac.uk)
#                Space group: R3
#

%BLOCK LATTICE_ABC
      4.25342      4.25342      4.25342
     62.34817     62.34817     62.34817
%ENDBLOCK LATTICE_ABC

%BLOCK POSITIONS_FRAC
  Li        0.0580514        0.0580514        0.0580514
  Li        0.3024315        0.3024315        0.3024315
   N        0.2647517       -0.2811398       -0.2131290
   N       -0.2131290        0.2647517       -0.2811398
   N       -0.2811398       -0.2131290        0.2647517
   N       -0.3088026       -0.3088026       -0.3088026
%ENDBLOCK POSITIONS_FRAC

KPOINTS_MP_SPACING 0.07

%BLOCK SPECIES_POT
QC5
%ENDBLOCK SPECIES_POT

SNAP_TO_SYMMETRY
SYMMETRY_GENERATE

