#              Generated by Buildcell
#
# at 16:28:19 (GMT+1.0) 26th March 2023
# in /scratch/scratch/uccabz1/launch_tmp_michael
# on node-a14b-022
# by uccabz1
#
# compiler GCC version 4.9.2
# options -cpp -iprefix /scratch/UCL/applications/gcc/4.9.2/bin/../lib/gcc/x86_64-unknown-linux-gnu/4.9.2/ -mtune=corei7 -march=x86-64 -g -Og
#
# seed -1914186128  -677454312 -2102874696   493592244  1149621128 -1962750086  -509617498  1048284141  1690164379 -1990410764 -1355475523   699065798
#
#      Author: C. J. Pickard (cjp20@cam.ac.uk)
#                Space group: R3
#

%BLOCK LATTICE_ABC
      5.77373      5.77373      5.77373
     78.62106     78.62106     78.62106
%ENDBLOCK LATTICE_ABC

%BLOCK POSITIONS_FRAC
  Li        0.3772606        0.2591872       -0.3556969
  Li       -0.3556969        0.3772606        0.2591872
  Li        0.2591872       -0.3556969        0.3772606
  Li       -0.2306213        0.1276265       -0.1948299
  Li       -0.1948299       -0.2306213        0.1276265
  Li        0.1276265       -0.1948299       -0.2306213
   N       -0.0176645        0.1526850       -0.4916147
   N       -0.4916147       -0.0176645        0.1526850
   N        0.1526850       -0.4916147       -0.0176645
   N       -0.0831424       -0.4317184       -0.1097169
   N       -0.1097169       -0.0831424       -0.4317184
   N       -0.4317184       -0.1097169       -0.0831424
   N        0.2288326        0.2464686       -0.0300243
   N       -0.0300243        0.2288326        0.2464686
   N        0.2464686       -0.0300243        0.2288326
   N       -0.2508603       -0.0326928        0.3666283
   N        0.3666283       -0.2508603       -0.0326928
   N       -0.0326928        0.3666283       -0.2508603
%ENDBLOCK POSITIONS_FRAC

KPOINTS_MP_SPACING 0.07

%BLOCK SPECIES_POT
QC5
%ENDBLOCK SPECIES_POT

SNAP_TO_SYMMETRY
SYMMETRY_GENERATE

