#              Generated by Buildcell
#
# at 16:05:33 (GMT+1.0) 26th March 2023
# in /scratch/scratch/uccabz1/launch_tmp_michael
# on node-a14e-007
# by uccabz1
#
# compiler GCC version 4.9.2
# options -cpp -iprefix /scratch/UCL/applications/gcc/4.9.2/bin/../lib/gcc/x86_64-unknown-linux-gnu/4.9.2/ -mtune=corei7 -march=x86-64 -g -Og
#
# seed   -75961656  -599351332 -1372405686  1246684594  1882871545   -15166631 -1502460148 -1498654235  -887811040   358808085  -351601566   468680282
#
#      Author: C. J. Pickard (cjp20@cam.ac.uk)
#                Space group: I4
#

%BLOCK LATTICE_ABC
      5.59323      6.20158      6.20158
     78.26662     63.19522     63.19522
%ENDBLOCK LATTICE_ABC

%BLOCK POSITIONS_FRAC
  Li       -0.0896873        0.3765012       -0.1277319
  Li        0.1590820       -0.3765012        0.1277319
  Li       -0.2174192        0.1277319        0.3765012
  Li        0.2868139       -0.1277319       -0.3765012
  Li       -0.1869565       -0.5000000       -0.5000000
  Li        0.3130435        0.5000000       -0.5000000
   N       -0.1997414        0.1252996       -0.1465237
   N       -0.2209656       -0.1252996        0.1465237
   N       -0.3462651        0.1465237        0.1252996
   N       -0.0744418       -0.1465237       -0.1252996
   N        0.2037379        0.3559487       -0.0274620
   N       -0.4677754       -0.3559487        0.0274620
   N        0.1762759        0.0274620        0.3559487
   N       -0.4403134       -0.0274620       -0.3559487
   N        0.4240202       -0.1565974       -0.1341436
   N        0.1332791        0.1565974        0.1341436
   N        0.2898766        0.1341436       -0.1565974
   N        0.2674227       -0.1341436        0.1565974
%ENDBLOCK POSITIONS_FRAC

KPOINTS_MP_SPACING 0.07

%BLOCK SPECIES_POT
QC5
%ENDBLOCK SPECIES_POT

SNAP_TO_SYMMETRY
SYMMETRY_GENERATE

