#              Generated by Buildcell
#
# at 19:56:14 (GMT+1.0) 26th March 2023
# in /scratch/scratch/uccabz1/launch_tmp_michael
# on node-a14a-001
# by uccabz1
#
# compiler GCC version 4.9.2
# options -cpp -iprefix /scratch/UCL/applications/gcc/4.9.2/bin/../lib/gcc/x86_64-unknown-linux-gnu/4.9.2/ -mtune=corei7 -march=x86-64 -g -Og
#
# seed  1557263260   669265798  1037401041  -615282579  1691921190  1026377728  -731961036  1030499839  -920997899 -1685142098  1081365544   310263506
#
#      Author: C. J. Pickard (cjp20@cam.ac.uk)
#                Space group: I41
#

%BLOCK LATTICE_ABC
      6.07000      6.21077      6.21077
     76.18451     60.74696     60.74696
%ENDBLOCK LATTICE_ABC

%BLOCK POSITIONS_FRAC
  Li        0.1726985       -0.3970814        0.2395605
  Li        0.0151775        0.3970814       -0.2395605
  Li        0.1622589        0.2604395        0.1029186
  Li       -0.4743829       -0.2604395       -0.1029186
  Li       -0.3139323        0.0000000       -0.0000000
  Li        0.4360677       -0.5000000        0.5000000
   N        0.0396679       -0.2413030       -0.3870576
   N        0.4113072        0.2413030        0.3870576
   N        0.4026102       -0.1129424        0.2586970
   N       -0.4516352        0.1129424       -0.2586970
   N       -0.1426997        0.0319320       -0.3522417
   N       -0.4630095       -0.0319320        0.3522417
   N        0.2550585       -0.1477583       -0.4680680
   N       -0.3607677        0.1477583        0.4680680
   N        0.0824866       -0.3978286       -0.0131842
   N       -0.3285262        0.3978286        0.0131842
   N       -0.1806976       -0.4868158        0.1021714
   N        0.4346580        0.4868158       -0.1021714
%ENDBLOCK POSITIONS_FRAC

KPOINTS_MP_SPACING 0.07

%BLOCK SPECIES_POT
QC5
%ENDBLOCK SPECIES_POT

SNAP_TO_SYMMETRY
SYMMETRY_GENERATE

