#              Generated by Buildcell
#
# at 17:19:40 (GMT+1.0) 26th March 2023
# in /scratch/scratch/uccabz1/launch_tmp_michael
# on node-a14a-001
# by uccabz1
#
# compiler GCC version 4.9.2
# options -cpp -iprefix /scratch/UCL/applications/gcc/4.9.2/bin/../lib/gcc/x86_64-unknown-linux-gnu/4.9.2/ -mtune=corei7 -march=x86-64 -g -Og
#
# seed  -220046892     9745460  1685716935 -1318591936  1701228513  1245315099   531573182  -921695960   -37708683  1346441218 -1603456303  -372338148
#
#      Author: C. J. Pickard (cjp20@cam.ac.uk)
#                Space group: Pc
#

%BLOCK LATTICE_ABC
      5.05151      5.89447      6.46419
     90.00000     90.00000    109.59686
%ENDBLOCK LATTICE_ABC

%BLOCK POSITIONS_FRAC
  Li        0.0510391        0.0594768        0.3715062
  Li        0.0510391       -0.4405232       -0.3715062
  Li       -0.2853674       -0.2768007       -0.1661260
  Li       -0.2853674        0.2231993        0.1661260
  Li        0.1997430       -0.4754213        0.1962038
  Li        0.1997430        0.0245787       -0.1962038
   N        0.1978168        0.2730720       -0.3832680
   N        0.1978168       -0.2269280        0.3832680
   N        0.3830409       -0.2067172       -0.2298007
   N        0.3830409        0.2932828        0.2298007
   N        0.4465982       -0.4385052        0.4818827
   N        0.4465982        0.0614948       -0.4818827
   N       -0.1066790        0.1358728       -0.2468752
   N       -0.1066790       -0.3641272        0.2468752
   N       -0.0643443        0.3325377        0.4073501
   N       -0.0643443       -0.1674623       -0.4073501
   N        0.1217355       -0.3102283       -0.0992933
   N        0.1217355        0.1897717        0.0992933
%ENDBLOCK POSITIONS_FRAC

KPOINTS_MP_SPACING 0.07

%BLOCK SPECIES_POT
QC5
%ENDBLOCK SPECIES_POT

SNAP_TO_SYMMETRY
SYMMETRY_GENERATE

