#              Generated by Buildcell
#
# at 18:53:15 (GMT+1.0) 26th March 2023
# in /scratch/scratch/uccabz1/launch_tmp_michael
# on node-a14a-019
# by uccabz1
#
# compiler GCC version 4.9.2
# options -cpp -iprefix /scratch/UCL/applications/gcc/4.9.2/bin/../lib/gcc/x86_64-unknown-linux-gnu/4.9.2/ -mtune=corei7 -march=x86-64 -g -Og
#
# seed  1028198017 -1117653430  -205630116   838982675   573758784 -1876386224  1349097191    87279570  -638543105   481334655  1323959064 -1861416711
#
#      Author: C. J. Pickard (cjp20@cam.ac.uk)
#                Space group: Aem2
#

%BLOCK LATTICE_ABC
      4.55130      4.55130      9.13136
     90.00000     90.00000     96.10400
%ENDBLOCK LATTICE_ABC

%BLOCK POSITIONS_FRAC
  Li       -0.4505607       -0.4603456       -0.3663661
  Li        0.4603456        0.4505607        0.3663661
  Li       -0.0396544       -0.0494393       -0.3663661
  Li        0.0494393        0.0396544        0.3663661
  Li       -0.4842036       -0.0157964       -0.1118397
  Li        0.0157964        0.4842036        0.1118397
   N        0.0144141        0.2390652       -0.2156513
   N       -0.2390652       -0.0144141        0.2156513
   N        0.2609348        0.4855859       -0.2156513
   N       -0.4855859       -0.2609348        0.2156513
   N        0.3665467       -0.1133063       -0.3020394
   N        0.1133063       -0.3665467        0.3020394
   N       -0.3866937        0.1334533       -0.3020394
   N       -0.1334533        0.3866937        0.3020394
   N       -0.0770684       -0.1397560        0.0462556
   N        0.1397560        0.0770684       -0.0462556
   N       -0.3602440       -0.4229316        0.0462556
   N        0.4229316        0.3602440       -0.0462556
%ENDBLOCK POSITIONS_FRAC

KPOINTS_MP_SPACING 0.07

%BLOCK SPECIES_POT
QC5
%ENDBLOCK SPECIES_POT

SNAP_TO_SYMMETRY
SYMMETRY_GENERATE

