#              Generated by Buildcell
#
# at 17:42:04 (GMT+1.0) 26th March 2023
# in /scratch/scratch/uccabz1/launch_tmp_michael
# on node-a14b-028
# by uccabz1
#
# compiler GCC version 4.9.2
# options -cpp -iprefix /scratch/UCL/applications/gcc/4.9.2/bin/../lib/gcc/x86_64-unknown-linux-gnu/4.9.2/ -mtune=corei7 -march=x86-64 -g -Og
#
# seed  -576322792  -716988993  -681064161    58312781  -715518649   975346134  -935631421  -540209779    99517320  -593174298 -1680334848    -4797715
#
#      Author: C. J. Pickard (cjp20@cam.ac.uk)
#                Space group: P31
#

%BLOCK LATTICE_ABC
      4.83008      4.83008      9.33510
     90.00000     90.00000    120.00000
%ENDBLOCK LATTICE_ABC

%BLOCK POSITIONS_FRAC
  Li        0.0912123       -0.4743992        0.3336384
  Li        0.4343885       -0.0912123       -0.3330282
  Li        0.4743992       -0.4343885        0.0003051
  Li       -0.4420725        0.0795138        0.4110855
  Li       -0.4784137        0.4420725       -0.2555811
  Li       -0.0795138        0.4784137        0.0777522
   N       -0.0238872       -0.1279863        0.0011481
   N       -0.1040991        0.0238872        0.3344814
   N        0.1279863        0.1040991       -0.3321853
   N       -0.4042101        0.4918019        0.2819239
   N       -0.1039879        0.4042101       -0.3847428
   N       -0.4918019        0.1039879       -0.0514094
   N        0.2091518        0.1556464       -0.0918013
   N       -0.0535054       -0.2091518        0.2415321
   N       -0.1556464        0.0535054       -0.4251346
   N       -0.1468796        0.1815377       -0.2564865
   N        0.3284174        0.1468796        0.0768468
   N       -0.1815377       -0.3284174        0.4101802
%ENDBLOCK POSITIONS_FRAC

KPOINTS_MP_SPACING 0.07

%BLOCK SPECIES_POT
QC5
%ENDBLOCK SPECIES_POT

SNAP_TO_SYMMETRY
SYMMETRY_GENERATE

