#              Generated by Buildcell
#
# at 19:12:33 (GMT+1.0) 26th March 2023
# in /scratch/scratch/uccabz1/launch_tmp_michael
# on node-a14a-001
# by uccabz1
#
# compiler GCC version 4.9.2
# options -cpp -iprefix /scratch/UCL/applications/gcc/4.9.2/bin/../lib/gcc/x86_64-unknown-linux-gnu/4.9.2/ -mtune=corei7 -march=x86-64 -g -Og
#
# seed  -105757597 -1134336822   870349519 -1447763895    90629803 -1410584749  1710907066 -1447985909  1473722903  1046627106  -161383193 -1696992440
#
#      Author: C. J. Pickard (cjp20@cam.ac.uk)
#                Space group: P32
#

%BLOCK LATTICE_ABC
      3.70272      3.70272      7.61442
     90.00000     90.00000    120.00000
%ENDBLOCK LATTICE_ABC

%BLOCK POSITIONS_FRAC
  Li        0.4177638        0.3335064       -0.0423101
  Li       -0.3335064        0.0842573       -0.3756434
  Li       -0.0842573       -0.4177638        0.2910233
   N        0.4553880        0.2897663        0.4451690
   N       -0.2897663        0.1656218        0.1118357
   N       -0.1656218       -0.4553880       -0.2214977
   N       -0.2439224       -0.3612447       -0.4388617
   N        0.3612447        0.1173222        0.2278050
   N       -0.1173222        0.2439224       -0.1055283
%ENDBLOCK POSITIONS_FRAC

KPOINTS_MP_SPACING 0.07

%BLOCK SPECIES_POT
QC5
%ENDBLOCK SPECIES_POT

SNAP_TO_SYMMETRY
SYMMETRY_GENERATE

