#              Generated by Buildcell
#
# at 18:26:25 (GMT+1.0) 26th March 2023
# in /scratch/scratch/uccabz1/launch_tmp_michael
# on node-a14c-005
# by uccabz1
#
# compiler GCC version 4.9.2
# options -cpp -iprefix /scratch/UCL/applications/gcc/4.9.2/bin/../lib/gcc/x86_64-unknown-linux-gnu/4.9.2/ -mtune=corei7 -march=x86-64 -g -Og
#
# seed   371071802  1065113182  2057023697   227759684  1982870483  1964698536  1815827492  -607975662  2046865114 -1061100177  1305767323 -1930802052
#
#      Author: C. J. Pickard (cjp20@cam.ac.uk)
#                Space group: Fdd2
#

%BLOCK LATTICE_ABC
      5.98542      5.98542      6.46054
    115.94525    115.94525     93.18255
%ENDBLOCK LATTICE_ABC

%BLOCK POSITIONS_FRAC
  Li        0.4399324        0.4650782       -0.3977534
  Li        0.1623142        0.1371684       -0.3977534
  Li       -0.1128316        0.4123142        0.1022466
  Li        0.2150782       -0.3100676        0.1022466
  Li        0.4168022       -0.0831978       -0.1663956
  Li       -0.3331978       -0.3331978        0.3336044
   N        0.1132424       -0.0093637        0.2521969
   N        0.1389545        0.2615605        0.2521969
   N        0.0115605        0.3889545       -0.2478031
   N       -0.2593637        0.3632424       -0.2478031
   N       -0.3332945       -0.2308136       -0.3423339
   N       -0.0090394       -0.1115204       -0.3423339
   N       -0.3615204        0.2409606        0.1576661
   N       -0.4808136       -0.0832945        0.1576661
   N        0.2936303       -0.4766238       -0.1735893
   N       -0.4672197        0.3030345       -0.1735893
   N        0.0530345       -0.2172197        0.3264107
   N        0.2733762       -0.4563697        0.3264107
%ENDBLOCK POSITIONS_FRAC

KPOINTS_MP_SPACING 0.07

%BLOCK SPECIES_POT
QC5
%ENDBLOCK SPECIES_POT

SNAP_TO_SYMMETRY
SYMMETRY_GENERATE

