#              Generated by Buildcell
#
# at 17:39:59 (GMT+1.0) 26th March 2023
# in /scratch/scratch/uccabz1/launch_tmp_michael
# on node-a14b-022
# by uccabz1
#
# compiler GCC version 4.9.2
# options -cpp -iprefix /scratch/UCL/applications/gcc/4.9.2/bin/../lib/gcc/x86_64-unknown-linux-gnu/4.9.2/ -mtune=corei7 -march=x86-64 -g -Og
#
# seed   645545840  -721187208   240480245   -60465145   168331388 -1980350737  -641665209 -1000583339   598303939   935095892  -194018667 -2080475582
#
#      Author: C. J. Pickard (cjp20@cam.ac.uk)
#                Space group: Pm
#

%BLOCK LATTICE_ABC
      3.17878      5.17934      7.24140
     90.00000     90.00000     95.94845
%ENDBLOCK LATTICE_ABC

%BLOCK POSITIONS_FRAC
  Li       -0.0465317       -0.1503571       -0.2775264
  Li       -0.0465317       -0.1503571        0.2775264
  Li       -0.0707553        0.3623164        0.1726188
  Li       -0.0707553        0.3623164       -0.1726188
   N        0.4510055       -0.0400214       -0.1415595
   N        0.4510055       -0.0400214        0.1415595
   N        0.3821967        0.4553699        0.3388166
   N        0.3821967        0.4553699       -0.3388166
   N        0.4860743        0.1893971        0.3921690
   N        0.4860743        0.1893971       -0.3921690
   N        0.4342993       -0.2648334       -0.3961349
   N        0.4342993       -0.2648334        0.3961349
%ENDBLOCK POSITIONS_FRAC

KPOINTS_MP_SPACING 0.07

%BLOCK SPECIES_POT
QC5
%ENDBLOCK SPECIES_POT

SNAP_TO_SYMMETRY
SYMMETRY_GENERATE

