#              Generated by Buildcell
#
# at 19:35:57 (GMT+1.0) 26th March 2023
# in /scratch/scratch/uccabz1/launch_tmp_michael
# on node-a14f-035
# by uccabz1
#
# compiler GCC version 4.9.2
# options -cpp -iprefix /scratch/UCL/applications/gcc/4.9.2/bin/../lib/gcc/x86_64-unknown-linux-gnu/4.9.2/ -mtune=corei7 -march=x86-64 -g -Og
#
# seed   422622781 -1097810420  -627729145   -37764608  -828545296 -2111452816   127706054 -1634333669  -210950473 -1688358303  -302778709  -351309927
#
#      Author: C. J. Pickard (cjp20@cam.ac.uk)
#                Space group: P2/m
#

%BLOCK LATTICE_ABC
      4.05782      4.55029      5.19522
    113.41507     90.00000     90.00000
%ENDBLOCK LATTICE_ABC

%BLOCK POSITIONS_FRAC
  Li        0.5000000        0.0949430       -0.2387711
  Li        0.5000000       -0.0949430        0.2387711
  Li        0.5000000       -0.5000000       -0.5000000
   N        0.1848272        0.4164926       -0.2670589
   N        0.1848272       -0.4164926        0.2670589
   N       -0.1848272       -0.4164926        0.2670589
   N       -0.1848272        0.4164926       -0.2670589
   N        0.5000000        0.4437280        0.1175077
   N        0.5000000       -0.4437280       -0.1175077
%ENDBLOCK POSITIONS_FRAC

KPOINTS_MP_SPACING 0.07

%BLOCK SPECIES_POT
QC5
%ENDBLOCK SPECIES_POT

SNAP_TO_SYMMETRY
SYMMETRY_GENERATE

