#              Generated by Buildcell
#
# at 18:52:30 (GMT+1.0) 26th March 2023
# in /scratch/scratch/uccabz1/launch_tmp_michael
# on node-a14c-005
# by uccabz1
#
# compiler GCC version 4.9.2
# options -cpp -iprefix /scratch/UCL/applications/gcc/4.9.2/bin/../lib/gcc/x86_64-unknown-linux-gnu/4.9.2/ -mtune=corei7 -march=x86-64 -g -Og
#
# seed  1077262471    82137895    86658050   188565097 -1545152800 -1186479092 -1214830014  -129409235  1084614750  -779858998  -722677658   390418753
#
#      Author: C. J. Pickard (cjp20@cam.ac.uk)
#                Space group: Cc
#

%BLOCK LATTICE_ABC
      5.83668      6.00242      6.25037
     61.30383     78.75183     66.03156
%ENDBLOCK LATTICE_ABC

%BLOCK POSITIONS_FRAC
  Li       -0.0244330       -0.1746768       -0.0454780
  Li        0.4755670        0.2798452        0.0454780
  Li        0.0787444        0.4630230       -0.1784558
  Li       -0.4212556       -0.2154328        0.1784558
  Li        0.4977268       -0.1430201       -0.3724639
  Li       -0.0022732       -0.0154839        0.3724639
   N       -0.2462000        0.3869477       -0.1058542
   N        0.2538000       -0.2189065        0.1058542
   N        0.3854803       -0.0573242       -0.1051466
   N       -0.1145197        0.3375292        0.1051466
   N        0.4935718       -0.4545058        0.1188780
   N       -0.0064282        0.1643722       -0.1188780
   N        0.1521993       -0.0928529       -0.3464253
   N       -0.3478007        0.0607218        0.3464253
   N       -0.2460307        0.2803473       -0.4475950
   N        0.2539693        0.3327522        0.4475950
   N        0.3290725       -0.3335464       -0.0964973
   N       -0.1709275        0.0699564        0.0964973
%ENDBLOCK POSITIONS_FRAC

KPOINTS_MP_SPACING 0.07

%BLOCK SPECIES_POT
QC5
%ENDBLOCK SPECIES_POT

SNAP_TO_SYMMETRY
SYMMETRY_GENERATE

