#              Generated by Buildcell
#
# at 16:57:09 (GMT+1.0) 26th March 2023
# in /scratch/scratch/uccabz1/launch_tmp_michael
# on node-a14f-035
# by uccabz1
#
# compiler GCC version 4.9.2
# options -cpp -iprefix /scratch/UCL/applications/gcc/4.9.2/bin/../lib/gcc/x86_64-unknown-linux-gnu/4.9.2/ -mtune=corei7 -march=x86-64 -g -Og
#
# seed -1584645581  -672207596 -1754802087   659115470  -934767092 -1215610356   757652126  -805070345 -1217211854    45052644  1625181500  -765672464
#
#      Author: C. J. Pickard (cjp20@cam.ac.uk)
#                Space group: P-4
#

%BLOCK LATTICE_ABC
      5.17926      5.95844      5.95844
     90.00000     90.00000     90.00000
%ENDBLOCK LATTICE_ABC

%BLOCK POSITIONS_FRAC
  Li       -0.1792552        0.3278045       -0.3801883
  Li       -0.1792552       -0.3278045        0.3801883
  Li        0.1792552       -0.3801883       -0.3278045
  Li        0.1792552        0.3801883        0.3278045
  Li        0.2295846        0.0000000       -0.5000000
  Li       -0.2295846        0.5000000        0.0000000
   N        0.1936338       -0.3203468        0.2189190
   N        0.1936338        0.3203468       -0.2189190
   N       -0.1936338        0.2189190        0.3203468
   N       -0.1936338       -0.2189190       -0.3203468
   N        0.3509877        0.1090039       -0.2195294
   N        0.3509877       -0.1090039        0.2195294
   N       -0.3509877       -0.2195294       -0.1090039
   N       -0.3509877        0.2195294        0.1090039
   N       -0.1075310        0.0151327       -0.3750416
   N       -0.1075310       -0.0151327        0.3750416
   N        0.1075310       -0.3750416       -0.0151327
   N        0.1075310        0.3750416        0.0151327
%ENDBLOCK POSITIONS_FRAC

KPOINTS_MP_SPACING 0.07

%BLOCK SPECIES_POT
QC5
%ENDBLOCK SPECIES_POT

SNAP_TO_SYMMETRY
SYMMETRY_GENERATE

