#              Generated by Buildcell
#
# at 17:48:40 (GMT+1.0) 26th March 2023
# in /scratch/scratch/uccabz1/launch_tmp_michael
# on node-a14f-035
# by uccabz1
#
# compiler GCC version 4.9.2
# options -cpp -iprefix /scratch/UCL/applications/gcc/4.9.2/bin/../lib/gcc/x86_64-unknown-linux-gnu/4.9.2/ -mtune=corei7 -march=x86-64 -g -Og
#
# seed -1339206485   381191689  1809011027  -411380780   386073080  -686706037    57313222  1439803883   156984016   554828162  1108361143 -1125949401
#
#      Author: C. J. Pickard (cjp20@cam.ac.uk)
#                Space group: P41
#

%BLOCK LATTICE_ABC
      3.41562      3.41562     10.77772
     90.00000     90.00000     90.00000
%ENDBLOCK LATTICE_ABC

%BLOCK POSITIONS_FRAC
  Li       -0.0487888       -0.0298125       -0.1318998
  Li        0.0487888        0.0298125        0.3681002
  Li        0.0298125       -0.0487888       -0.3818998
  Li       -0.0298125        0.0487888        0.1181002
   N        0.2719311        0.4512501       -0.3726546
   N       -0.2719311       -0.4512501        0.1273454
   N       -0.4512501        0.2719311        0.3773454
   N        0.4512501       -0.2719311       -0.1226546
   N       -0.3715470        0.1207404       -0.2721648
   N        0.3715470       -0.1207404        0.2278352
   N       -0.1207404       -0.3715470        0.4778352
   N        0.1207404        0.3715470       -0.0221648
%ENDBLOCK POSITIONS_FRAC

KPOINTS_MP_SPACING 0.07

%BLOCK SPECIES_POT
QC5
%ENDBLOCK SPECIES_POT

SNAP_TO_SYMMETRY
SYMMETRY_GENERATE

