#              Generated by Buildcell
#
# at 18:42:04 (GMT+1.0) 26th March 2023
# in /scratch/scratch/uccabz1/launch_tmp_michael
# on node-a14b-031
# by uccabz1
#
# compiler GCC version 4.9.2
# options -cpp -iprefix /scratch/UCL/applications/gcc/4.9.2/bin/../lib/gcc/x86_64-unknown-linux-gnu/4.9.2/ -mtune=corei7 -march=x86-64 -g -Og
#
# seed -1441722659  1124308259   507392934   346536214   187525611  1753601163  1898205477 -1870607524 -1993313114   517566157 -1523713860    68805273
#
#      Author: C. J. Pickard (cjp20@cam.ac.uk)
#                Space group: C2
#

%BLOCK LATTICE_ABC
      5.16873      6.20480      6.54886
    118.27675     96.34556     90.00000
%ENDBLOCK LATTICE_ABC

%BLOCK POSITIONS_FRAC
  Li       -0.2679483       -0.3898864       -0.0723444
  Li        0.2679483       -0.3175421        0.0723444
  Li       -0.1641127       -0.1008267       -0.2221140
  Li        0.1641127        0.1212873        0.2221140
  Li       -0.3256293        0.0881945        0.1710670
  Li        0.3256293       -0.0828725       -0.1710670
   N        0.0373174        0.0111469       -0.3844741
   N       -0.0373174        0.3956210        0.3844741
   N       -0.3627245        0.3255333        0.0603178
   N        0.3627245        0.2652155       -0.0603178
   N        0.0474719       -0.3964771       -0.2091628
   N       -0.0474719       -0.1873143        0.2091628
   N        0.0862204        0.1688646       -0.0954008
   N       -0.0862204        0.2642654        0.0954008
   N        0.3709238       -0.4133311       -0.3921050
   N       -0.3709238       -0.0212261        0.3921050
   N        0.3786533       -0.0149529        0.4904336
   N       -0.3786533        0.4946134       -0.4904336
%ENDBLOCK POSITIONS_FRAC

KPOINTS_MP_SPACING 0.07

%BLOCK SPECIES_POT
QC5
%ENDBLOCK SPECIES_POT

SNAP_TO_SYMMETRY
SYMMETRY_GENERATE

