#              Generated by Buildcell
#
# at 19:39:19 (GMT+1.0) 26th March 2023
# in /scratch/scratch/uccabz1/launch_tmp_michael
# on node-a14c-005
# by uccabz1
#
# compiler GCC version 4.9.2
# options -cpp -iprefix /scratch/UCL/applications/gcc/4.9.2/bin/../lib/gcc/x86_64-unknown-linux-gnu/4.9.2/ -mtune=corei7 -march=x86-64 -g -Og
#
# seed -1849803601 -1177774953   519225048  1098338895   691845507  1828500570    44254599   246511431 -1221435877  -888323337  1052093460 -1911486561
#
#      Author: C. J. Pickard (cjp20@cam.ac.uk)
#                Space group: P2/m
#

%BLOCK LATTICE_ABC
      2.64421      4.50172      7.32747
     90.00000     90.00000     94.32603
%ENDBLOCK LATTICE_ABC

%BLOCK POSITIONS_FRAC
  Li       -0.5000000        0.0000000        0.3212629
  Li        0.5000000        0.0000000       -0.3212629
  Li        0.5000000        0.5000000       -0.5000000
   N       -0.2370497        0.3956545       -0.2693394
   N        0.2370497       -0.3956545       -0.2693394
   N        0.2370497       -0.3956545        0.2693394
   N       -0.2370497        0.3956545        0.2693394
   N       -0.5000000       -0.5000000       -0.1023626
   N        0.5000000        0.5000000        0.1023626
%ENDBLOCK POSITIONS_FRAC

KPOINTS_MP_SPACING 0.07

%BLOCK SPECIES_POT
QC5
%ENDBLOCK SPECIES_POT

SNAP_TO_SYMMETRY
SYMMETRY_GENERATE

