#              Generated by Buildcell
#
# at 14:51:46 (GMT+1.0) 26th March 2023
# in /scratch/scratch/uccabz1/launch_tmp_michael
# on node-a14b-022
# by uccabz1
#
# compiler GCC version 4.9.2
# options -cpp -iprefix /scratch/UCL/applications/gcc/4.9.2/bin/../lib/gcc/x86_64-unknown-linux-gnu/4.9.2/ -mtune=corei7 -march=x86-64 -g -Og
#
# seed   309017533  -959101742   153629619 -1076971824  -216480923 -1676150730  1968198031 -1023540350   614505150   252195508   357726462   317874268
#
#      Author: C. J. Pickard (cjp20@cam.ac.uk)
#                Space group: P3
#

%BLOCK LATTICE_ABC
      4.66446      4.66446      4.67368
     90.00000     90.00000    120.00000
%ENDBLOCK LATTICE_ABC

%BLOCK POSITIONS_FRAC
  Li       -0.3885523        0.0000001        0.2987619
  Li       -0.0000001       -0.3885524        0.2987619
  Li        0.3885524        0.3885523        0.2987619
   N       -0.0455099       -0.3219895       -0.0959547
   N        0.3219895        0.2764796       -0.0959547
   N       -0.2764796        0.0455099       -0.0959547
   N        0.1173702        0.2141361       -0.3607897
   N       -0.2141361       -0.0967659       -0.3607897
   N        0.0967659       -0.1173702       -0.3607897
%ENDBLOCK POSITIONS_FRAC

KPOINTS_MP_SPACING 0.07

%BLOCK SPECIES_POT
QC5
%ENDBLOCK SPECIES_POT

SNAP_TO_SYMMETRY
SYMMETRY_GENERATE

