#              Generated by Buildcell
#
# at 17:46:50 (GMT+1.0) 26th March 2023
# in /scratch/scratch/uccabz1/launch_tmp_michael
# on node-a14a-003
# by uccabz1
#
# compiler GCC version 4.9.2
# options -cpp -iprefix /scratch/UCL/applications/gcc/4.9.2/bin/../lib/gcc/x86_64-unknown-linux-gnu/4.9.2/ -mtune=corei7 -march=x86-64 -g -Og
#
# seed  -632801997  -804559018  -928578111 -1483149029   375697347  -718632793 -1710573455  -278631243   130070913 -1776257289  1887301535   229098323
#
#      Author: C. J. Pickard (cjp20@cam.ac.uk)
#                Space group: R3
#

%BLOCK LATTICE_ABC
      4.01983      4.01983      4.01983
     76.97566     76.97566     76.97566
%ENDBLOCK LATTICE_ABC

%BLOCK POSITIONS_FRAC
  Li        0.2883901        0.2883901        0.2883901
  Li       -0.4134986       -0.4134986       -0.4134986
   N       -0.0907782       -0.2195271        0.1600934
   N       -0.2195271        0.1600934       -0.0907782
   N        0.1600934       -0.0907782       -0.2195271
   N       -0.1869340       -0.1869340       -0.1869340
%ENDBLOCK POSITIONS_FRAC

KPOINTS_MP_SPACING 0.07

%BLOCK SPECIES_POT
QC5
%ENDBLOCK SPECIES_POT

SNAP_TO_SYMMETRY
SYMMETRY_GENERATE

