#              Generated by Buildcell
#
# at 20:10:27 (GMT+1.0) 26th March 2023
# in /scratch/scratch/uccabz1/launch_tmp_michael
# on node-a14b-028
# by uccabz1
#
# compiler GCC version 4.9.2
# options -cpp -iprefix /scratch/UCL/applications/gcc/4.9.2/bin/../lib/gcc/x86_64-unknown-linux-gnu/4.9.2/ -mtune=corei7 -march=x86-64 -g -Og
#
# seed    65350088 -1950558685  1457788478 -1387543292  -557860489  1888152012  1812760889  -391714044  1302226563  1946083104   612613964 -1903568860
#
#      Author: C. J. Pickard (cjp20@cam.ac.uk)
#                Space group: Pc
#

%BLOCK LATTICE_ABC
      3.96666      5.66776      7.89328
     90.00000     90.00000     96.97765
%ENDBLOCK LATTICE_ABC

%BLOCK POSITIONS_FRAC
  Li       -0.0350252       -0.0794450        0.4369305
  Li        0.4649748        0.4205550       -0.4369305
  Li       -0.4776241       -0.0219974        0.1506003
  Li        0.0223759        0.4780026       -0.1506003
  Li       -0.4123602        0.4056200        0.2412249
  Li        0.0876398       -0.0943800       -0.2412249
   N        0.0905036        0.0915724        0.2043081
   N       -0.4094964       -0.4084276       -0.2043081
   N       -0.3338694       -0.3282433        0.0914121
   N        0.1661306        0.1717567       -0.0914121
   N        0.1867784        0.2441621        0.3636643
   N       -0.3132216       -0.2558379       -0.3636643
   N        0.3191864       -0.3422389        0.2091550
   N       -0.1808136        0.1577611       -0.2091550
   N        0.1676166       -0.2948330        0.0346669
   N       -0.3323834        0.2051670       -0.0346669
   N       -0.1105593       -0.0052941       -0.0053655
   N        0.3894407        0.4947059        0.0053655
%ENDBLOCK POSITIONS_FRAC

KPOINTS_MP_SPACING 0.07

%BLOCK SPECIES_POT
QC5
%ENDBLOCK SPECIES_POT

SNAP_TO_SYMMETRY
SYMMETRY_GENERATE

