#              Generated by Buildcell
#
# at 16:03:16 (GMT+1.0) 26th March 2023
# in /scratch/scratch/uccabz1/launch_tmp_michael
# on node-a14b-031
# by uccabz1
#
# compiler GCC version 4.9.2
# options -cpp -iprefix /scratch/UCL/applications/gcc/4.9.2/bin/../lib/gcc/x86_64-unknown-linux-gnu/4.9.2/ -mtune=corei7 -march=x86-64 -g -Og
#
# seed    17231438  -498221497  -365127297  -357891972 -1046147566   -42864788   645739288 -1250168722  1885844503   322539998  1824981641 -1691327695
#
#      Author: C. J. Pickard (cjp20@cam.ac.uk)
#                Space group: P-1
#

%BLOCK LATTICE_ABC
      3.56135      4.37983      4.54239
     67.57273     89.70413     67.90761
%ENDBLOCK LATTICE_ABC

%BLOCK POSITIONS_FRAC
  Li       -0.2123106       -0.2601377       -0.2831063
  Li        0.2123106        0.2601377        0.2831063
   N       -0.1768668        0.1588440       -0.2737759
   N        0.1768668       -0.1588440        0.2737759
   N        0.1434359        0.3112381       -0.3204660
   N       -0.1434359       -0.3112381        0.3204660
%ENDBLOCK POSITIONS_FRAC

KPOINTS_MP_SPACING 0.07

%BLOCK SPECIES_POT
QC5
%ENDBLOCK SPECIES_POT

SNAP_TO_SYMMETRY
SYMMETRY_GENERATE

