#              Generated by Buildcell
#
# at 15:23:34 (GMT+1.0) 26th March 2023
# in /scratch/scratch/uccabz1/launch_tmp_michael
# on node-a14a-019
# by uccabz1
#
# compiler GCC version 4.9.2
# options -cpp -iprefix /scratch/UCL/applications/gcc/4.9.2/bin/../lib/gcc/x86_64-unknown-linux-gnu/4.9.2/ -mtune=corei7 -march=x86-64 -g -Og
#
# seed   773173316 -1281450288   563579930 -1802437016  2104989141  -200946349  2024727657  1466366372 -1838495686 -1080891173  1827524462    51171301
#
#      Author: C. J. Pickard (cjp20@cam.ac.uk)
#                Space group: P222
#

%BLOCK LATTICE_ABC
      3.49047      7.11043      7.28621
     90.00000     90.00000     90.00000
%ENDBLOCK LATTICE_ABC

%BLOCK POSITIONS_FRAC
  Li        0.2500000        0.3490108       -0.3768897
  Li       -0.2500000        0.3490108        0.3768897
  Li        0.2500000       -0.3490108        0.3768897
  Li       -0.2500000       -0.3490108       -0.3768897
  Li        0.5000000        0.0000000       -0.1715568
  Li       -0.5000000       -0.0000000        0.1715568
   N       -0.2472861       -0.0283526       -0.4008542
   N        0.2472861       -0.0283526        0.4008542
   N       -0.2472861        0.0283526        0.4008542
   N        0.2472861        0.0283526       -0.4008542
   N       -0.3918805       -0.2829755        0.0890628
   N        0.3918805       -0.2829755       -0.0890628
   N       -0.3918805        0.2829755       -0.0890628
   N        0.3918805        0.2829755        0.0890628
   N        0.1080222        0.1812410        0.2097168
   N       -0.1080222        0.1812410       -0.2097168
   N        0.1080222       -0.1812410       -0.2097168
   N       -0.1080222       -0.1812410        0.2097168
%ENDBLOCK POSITIONS_FRAC

KPOINTS_MP_SPACING 0.07

%BLOCK SPECIES_POT
QC5
%ENDBLOCK SPECIES_POT

SNAP_TO_SYMMETRY
SYMMETRY_GENERATE

