#              Generated by Buildcell
#
# at 19:49:08 (GMT+1.0) 26th March 2023
# in /scratch/scratch/uccabz1/launch_tmp_michael
# on node-a14a-019
# by uccabz1
#
# compiler GCC version 4.9.2
# options -cpp -iprefix /scratch/UCL/applications/gcc/4.9.2/bin/../lib/gcc/x86_64-unknown-linux-gnu/4.9.2/ -mtune=corei7 -march=x86-64 -g -Og
#
# seed  1814247542   160979816   891976858  1786128024    89689313   450680200 -1052847855  1110806597  -972426229  1556235523    32957144  1341775516
#
#      Author: C. J. Pickard (cjp20@cam.ac.uk)
#                Space group: P222
#

%BLOCK LATTICE_ABC
      3.20777      5.10070      5.74448
     90.00000     90.00000     90.00000
%ENDBLOCK LATTICE_ABC

%BLOCK POSITIONS_FRAC
  Li        0.0000000       -0.2549283       -0.5000000
  Li        0.0000000        0.2549283       -0.5000000
  Li        0.5000000        0.5000000        0.0000000
   N        0.2962879       -0.1398011        0.2324676
   N       -0.2962879       -0.1398011       -0.2324676
   N        0.2962879        0.1398011       -0.2324676
   N       -0.2962879        0.1398011        0.2324676
   N        0.0000000        0.2011751        0.0000000
   N        0.0000000       -0.2011751        0.0000000
%ENDBLOCK POSITIONS_FRAC

KPOINTS_MP_SPACING 0.07

%BLOCK SPECIES_POT
QC5
%ENDBLOCK SPECIES_POT

SNAP_TO_SYMMETRY
SYMMETRY_GENERATE

