#              Generated by Buildcell
#
# at 17:03:22 (GMT+1.0) 26th March 2023
# in /scratch/scratch/uccabz1/launch_tmp_michael
# on node-a14f-035
# by uccabz1
#
# compiler GCC version 4.9.2
# options -cpp -iprefix /scratch/UCL/applications/gcc/4.9.2/bin/../lib/gcc/x86_64-unknown-linux-gnu/4.9.2/ -mtune=corei7 -march=x86-64 -g -Og
#
# seed  2020305517  -833148149 -1160176156  -694713453 -1922753547  -970977105 -1779742224  1882002354   287224442  1076013333  1250932663  -960794693
#
#      Author: C. J. Pickard (cjp20@cam.ac.uk)
#                Space group: I41
#

%BLOCK LATTICE_ABC
      4.83018      5.46686      5.46686
     78.74596     63.78323     63.78323
%ENDBLOCK LATTICE_ABC

%BLOCK POSITIONS_FRAC
  Li       -0.0874463        0.1876374        0.2462318
  Li        0.3464228       -0.1876374       -0.2462318
  Li        0.3501911       -0.2537682        0.3123626
  Li        0.4087855        0.2537682       -0.3123626
   N       -0.2133203        0.3067663       -0.0544235
   N        0.0390225       -0.3067663        0.0544235
   N        0.3434460        0.4455765        0.1932337
   N       -0.0177438       -0.4455765       -0.1932337
   N       -0.2415765       -0.1353903       -0.4168160
   N        0.2062172        0.1353903        0.4168160
   N       -0.1269668        0.0831840       -0.3646097
   N       -0.4083925       -0.0831840        0.3646097
%ENDBLOCK POSITIONS_FRAC

KPOINTS_MP_SPACING 0.07

%BLOCK SPECIES_POT
QC5
%ENDBLOCK SPECIES_POT

SNAP_TO_SYMMETRY
SYMMETRY_GENERATE

