#              Generated by Buildcell
#
# at 17:04:28 (GMT+1.0) 26th March 2023
# in /scratch/scratch/uccabz1/launch_tmp_michael
# on node-a14b-028
# by uccabz1
#
# compiler GCC version 4.9.2
# options -cpp -iprefix /scratch/UCL/applications/gcc/4.9.2/bin/../lib/gcc/x86_64-unknown-linux-gnu/4.9.2/ -mtune=corei7 -march=x86-64 -g -Og
#
# seed  1353471975 -1393135164  1904642811   789616956   789321751  -581613119  1607792510 -1909979794    45320431 -1606024113   662937537  1517230894
#
#      Author: C. J. Pickard (cjp20@cam.ac.uk)
#                Space group: Cm
#

%BLOCK LATTICE_ABC
      3.51672      3.51672      5.15619
     77.99969     77.99969     89.82552
%ENDBLOCK LATTICE_ABC

%BLOCK POSITIONS_FRAC
  Li        0.3415529       -0.1584472       -0.0896784
  Li       -0.1584472        0.3415529       -0.0896784
   N       -0.3650974       -0.0433140        0.2262085
   N       -0.0433140       -0.3650974        0.2262085
   N        0.0417593        0.3736978       -0.4977599
   N        0.3736978        0.0417593       -0.4977599
%ENDBLOCK POSITIONS_FRAC

KPOINTS_MP_SPACING 0.07

%BLOCK SPECIES_POT
QC5
%ENDBLOCK SPECIES_POT

SNAP_TO_SYMMETRY
SYMMETRY_GENERATE

