#              Generated by Buildcell
#
# at 20:00:35 (GMT+1.0) 26th March 2023
# in /scratch/scratch/uccabz1/launch_tmp_michael
# on node-a14a-001
# by uccabz1
#
# compiler GCC version 4.9.2
# options -cpp -iprefix /scratch/UCL/applications/gcc/4.9.2/bin/../lib/gcc/x86_64-unknown-linux-gnu/4.9.2/ -mtune=corei7 -march=x86-64 -g -Og
#
# seed  -346359385 -1621107668  -929087388  1378370957   357594911  1830536412 -1627559188 -1785175040  -688182211  -143996210  1852200318   522168200
#
#      Author: C. J. Pickard (cjp20@cam.ac.uk)
#                Space group: R3
#

%BLOCK LATTICE_ABC
      4.23030      4.23030      4.43696
     61.52915     61.52915     60.00000
%ENDBLOCK LATTICE_ABC

%BLOCK POSITIONS_FRAC
  Li       -0.2378943       -0.2378943       -0.2863171
  Li        0.2733728        0.2733728        0.1798815
   N       -0.2576068        0.4432955        0.4942164
   N        0.3200949       -0.2576068        0.4942164
   N        0.4432955        0.3200949        0.4942164
   N       -0.0454048       -0.0454048        0.1362143
%ENDBLOCK POSITIONS_FRAC

KPOINTS_MP_SPACING 0.07

%BLOCK SPECIES_POT
QC5
%ENDBLOCK SPECIES_POT

SNAP_TO_SYMMETRY
SYMMETRY_GENERATE

