#              Generated by Buildcell
#
# at 18:27:54 (GMT+1.0) 26th March 2023
# in /scratch/scratch/uccabz1/launch_tmp_michael
# on node-a14b-031
# by uccabz1
#
# compiler GCC version 4.9.2
# options -cpp -iprefix /scratch/UCL/applications/gcc/4.9.2/bin/../lib/gcc/x86_64-unknown-linux-gnu/4.9.2/ -mtune=corei7 -march=x86-64 -g -Og
#
# seed  1311681225  1194659848  -788956685 -1367233211  -991207367  -957250965 -1295417918   173062486 -1856070529  1688344507  -933827386 -1693781282
#
#      Author: C. J. Pickard (cjp20@cam.ac.uk)
#                Space group: P3
#

%BLOCK LATTICE_ABC
      4.71771      4.71771      6.48714
     90.00000     90.00000    120.00000
%ENDBLOCK LATTICE_ABC

%BLOCK POSITIONS_FRAC
  Li       -0.3980415        0.0000022       -0.3195163
  Li        0.3980437        0.3980415       -0.3195163
  Li       -0.0000022       -0.3980437       -0.3195163
  Li        0.3333333       -0.3333333        0.2354841
   N       -0.1481661        0.3197061       -0.0655228
   N        0.4678722        0.1481661       -0.0655228
   N       -0.3197061       -0.4678722       -0.0655228
   N        0.0364833        0.2080064        0.4272585
   N        0.1715231       -0.0364833        0.4272585
   N       -0.2080064       -0.1715231        0.4272585
   N        0.0000000        0.0000000       -0.3748898
   N       -0.3333333        0.3333333        0.1488799
%ENDBLOCK POSITIONS_FRAC

KPOINTS_MP_SPACING 0.07

%BLOCK SPECIES_POT
QC5
%ENDBLOCK SPECIES_POT

SNAP_TO_SYMMETRY
SYMMETRY_GENERATE

