#              Generated by Buildcell
#
# at 18:27:14 (GMT+1.0) 26th March 2023
# in /scratch/scratch/uccabz1/launch_tmp_michael
# on node-a14f-035
# by uccabz1
#
# compiler GCC version 4.9.2
# options -cpp -iprefix /scratch/UCL/applications/gcc/4.9.2/bin/../lib/gcc/x86_64-unknown-linux-gnu/4.9.2/ -mtune=corei7 -march=x86-64 -g -Og
#
# seed -1810727626  -101475889 -1719897475 -2132820204   290555359  2022084649 -1473749690  1205254215  1095461503 -1166545442 -2137792096   588800010
#
#      Author: C. J. Pickard (cjp20@cam.ac.uk)
#                Space group: P21/m
#

%BLOCK LATTICE_ABC
      2.50000      4.69213      5.00000
     90.00000     90.00000    100.23212
%ENDBLOCK LATTICE_ABC

%BLOCK POSITIONS_FRAC
  Li       -0.0000000       -0.5000000        0.0000000
  Li        0.0000000       -0.5000000        0.5000000
   N       -0.1995171       -0.1300443        0.4554864
   N        0.1995171        0.1300443       -0.0445136
   N        0.1995171        0.1300443       -0.4554864
   N       -0.1995171       -0.1300443        0.0445136
%ENDBLOCK POSITIONS_FRAC

KPOINTS_MP_SPACING 0.07

%BLOCK SPECIES_POT
QC5
%ENDBLOCK SPECIES_POT

SNAP_TO_SYMMETRY
SYMMETRY_GENERATE

