#              Generated by Buildcell
#
# at 19:57:51 (GMT+1.0) 26th March 2023
# in /scratch/scratch/uccabz1/launch_tmp_michael
# on node-a14a-003
# by uccabz1
#
# compiler GCC version 4.9.2
# options -cpp -iprefix /scratch/UCL/applications/gcc/4.9.2/bin/../lib/gcc/x86_64-unknown-linux-gnu/4.9.2/ -mtune=corei7 -march=x86-64 -g -Og
#
# seed  -944715262   666290503 -1659966439 -1750128366  -959531991 -1941710527   475068972  -200246631  -313135918  1116543113   177773408 -1851303683
#
#      Author: C. J. Pickard (cjp20@cam.ac.uk)
#                Space group: P21
#

%BLOCK LATTICE_ABC
      3.01611      5.65818     10.77345
     90.00000     90.00000    105.09254
%ENDBLOCK LATTICE_ABC

%BLOCK POSITIONS_FRAC
  Li        0.4211491        0.1219604        0.0422960
  Li       -0.4211491       -0.1219604       -0.4577040
  Li        0.1953622        0.1442938        0.3088889
  Li       -0.1953622       -0.1442938       -0.1911111
  Li        0.1047253        0.3268190       -0.3316629
  Li       -0.1047253       -0.3268190        0.1683371
   N        0.1590619        0.0649148        0.4836047
   N       -0.1590619       -0.0649148       -0.0163953
   N       -0.4444305        0.2191223       -0.4258118
   N        0.4444305       -0.2191223        0.0741882
   N        0.0715044       -0.0123128       -0.3441258
   N       -0.0715044        0.0123128        0.1558742
   N        0.1423326        0.3544197       -0.0732208
   N       -0.1423326       -0.3544197        0.4267792
   N       -0.1626443        0.4028750        0.4857960
   N        0.1626443       -0.4028750       -0.0142040
   N       -0.3598694        0.1508166        0.4346217
   N        0.3598694       -0.1508166       -0.0653783
%ENDBLOCK POSITIONS_FRAC

KPOINTS_MP_SPACING 0.07

%BLOCK SPECIES_POT
QC5
%ENDBLOCK SPECIES_POT

SNAP_TO_SYMMETRY
SYMMETRY_GENERATE

