#              Generated by Buildcell
#
# at 17:44:29 (GMT+1.0) 26th March 2023
# in /scratch/scratch/uccabz1/launch_tmp_michael
# on node-a14e-021
# by uccabz1
#
# compiler GCC version 4.9.2
# options -cpp -iprefix /scratch/UCL/applications/gcc/4.9.2/bin/../lib/gcc/x86_64-unknown-linux-gnu/4.9.2/ -mtune=corei7 -march=x86-64 -g -Og
#
# seed  -934282581 -2132081400  2132490956    33347429   886835488  1204486330   635584465   310316086  1712667247  -487968308   228493276   -55411116
#
#      Author: C. J. Pickard (cjp20@cam.ac.uk)
#                Space group: P21/m
#

%BLOCK LATTICE_ABC
      3.05803      4.21629      4.75811
     99.02805     90.00000     90.00000
%ENDBLOCK LATTICE_ABC

%BLOCK POSITIONS_FRAC
  Li       -0.2500000       -0.2426736       -0.1104917
  Li        0.2500000        0.2426736        0.1104917
   N        0.0039818        0.3217967       -0.4862076
   N       -0.4960182       -0.3217967        0.4862076
   N       -0.0039818       -0.3217967        0.4862076
   N        0.4960182        0.3217967       -0.4862076
%ENDBLOCK POSITIONS_FRAC

KPOINTS_MP_SPACING 0.07

%BLOCK SPECIES_POT
QC5
%ENDBLOCK SPECIES_POT

SNAP_TO_SYMMETRY
SYMMETRY_GENERATE

