#              Generated by Buildcell
#
# at 15:25:50 (GMT+1.0) 26th March 2023
# in /scratch/scratch/uccabz1/launch_tmp_michael
# on node-a14c-005
# by uccabz1
#
# compiler GCC version 4.9.2
# options -cpp -iprefix /scratch/UCL/applications/gcc/4.9.2/bin/../lib/gcc/x86_64-unknown-linux-gnu/4.9.2/ -mtune=corei7 -march=x86-64 -g -Og
#
# seed  1977996946  1039127703  -654729675  -658439950  -579140590   442269160  -595522451  -860225025  1638745130  1769939940  1268898799   150170856
#
#      Author: C. J. Pickard (cjp20@cam.ac.uk)
#                Space group: C2
#

%BLOCK LATTICE_ABC
      2.50056      7.22031      7.22031
     64.32227     89.63493     89.63493
%ENDBLOCK LATTICE_ABC

%BLOCK POSITIONS_FRAC
  Li       -0.1338379        0.1655847       -0.3622639
  Li        0.1338379        0.3622639       -0.1655847
  Li        0.4405726        0.4313459       -0.6972935
  Li       -0.4405726       -0.3027065        0.5686541
   N        0.3946803       -0.0705349       -0.3816132
   N       -0.3946803        0.3816132        0.0705349
   N        0.4105945        0.1392048       -0.5590842
   N       -0.4105945       -0.4409158        0.8607952
   N        0.1658669       -0.3813090        0.0433204
   N       -0.1658669       -0.0433204        0.3813090
   N        0.2110482       -0.1841090        0.3096917
   N       -0.2110482       -0.3096917        0.1841090
%ENDBLOCK POSITIONS_FRAC

KPOINTS_MP_SPACING 0.07

%BLOCK SPECIES_POT
QC5
%ENDBLOCK SPECIES_POT

SNAP_TO_SYMMETRY
SYMMETRY_GENERATE

