#              Generated by Buildcell
#
# at 16:13:12 (GMT+1.0) 26th March 2023
# in /scratch/scratch/uccabz1/launch_tmp_michael
# on node-a14a-019
# by uccabz1
#
# compiler GCC version 4.9.2
# options -cpp -iprefix /scratch/UCL/applications/gcc/4.9.2/bin/../lib/gcc/x86_64-unknown-linux-gnu/4.9.2/ -mtune=corei7 -march=x86-64 -g -Og
#
# seed -1311455319 -1187505390  -708617720  1767237635  -809990826 -1360059920   281075553   799381154  1443201023 -1401761450   798850603  1686764936
#
#      Author: C. J. Pickard (cjp20@cam.ac.uk)
#                Space group: R3
#

%BLOCK LATTICE_ABC
      6.16915      6.16915      6.46970
     61.52516     61.52516     60.00000
%ENDBLOCK LATTICE_ABC

%BLOCK POSITIONS_FRAC
  Li        0.2777997       -0.1751303       -0.0520637
  Li       -0.0506057        0.2777997       -0.0520637
  Li       -0.1751303       -0.0506057       -0.0520637
  Li        0.4815440        0.2810160        0.4758753
  Li       -0.2384353        0.4815440        0.4758753
  Li        0.2810160       -0.2384353        0.4758753
   N       -0.2205601       -0.1746858        0.2918035
   N        0.1034424       -0.2205601        0.2918035
   N       -0.1746858        0.1034424        0.2918035
   N        0.0920792       -0.4746552       -0.3361272
   N       -0.2812967        0.0920792       -0.3361272
   N       -0.4746552       -0.2812967       -0.3361272
   N        0.3366436        0.0582869        0.4440959
   N        0.1609735        0.3366436        0.4440959
   N        0.0582869        0.1609735        0.4440959
   N        0.4586628        0.0395388       -0.1178993
   N       -0.3803024        0.4586628       -0.1178993
   N        0.0395388       -0.3803024       -0.1178993
%ENDBLOCK POSITIONS_FRAC

KPOINTS_MP_SPACING 0.07

%BLOCK SPECIES_POT
QC5
%ENDBLOCK SPECIES_POT

SNAP_TO_SYMMETRY
SYMMETRY_GENERATE

