#              Generated by Buildcell
#
# at 18:52:42 (GMT+1.0) 26th March 2023
# in /scratch/scratch/uccabz1/launch_tmp_michael
# on node-a14b-031
# by uccabz1
#
# compiler GCC version 4.9.2
# options -cpp -iprefix /scratch/UCL/applications/gcc/4.9.2/bin/../lib/gcc/x86_64-unknown-linux-gnu/4.9.2/ -mtune=corei7 -march=x86-64 -g -Og
#
# seed   314526745 -1109118594  1294601768   788477363 -1603508712 -1857557509  1776959582   483378979   372385988   963943931    18492349  1198963979
#
#      Author: C. J. Pickard (cjp20@cam.ac.uk)
#                Space group: P2
#

%BLOCK LATTICE_ABC
      2.50000      5.44029      6.94778
     90.00000     91.81148     90.00000
%ENDBLOCK LATTICE_ABC

%BLOCK POSITIONS_FRAC
  Li        0.0123848       -0.2098933       -0.1835108
  Li       -0.0123848       -0.2098933        0.1835108
  Li        0.0000000        0.3483603        0.0000000
   N       -0.2164629        0.4644661        0.2477211
   N        0.2164629        0.4644661       -0.2477211
   N        0.3822035        0.0463784        0.3079593
   N       -0.3822035        0.0463784       -0.3079593
   N        0.2843343        0.3124334        0.2566927
   N       -0.2843343        0.3124334       -0.2566927
%ENDBLOCK POSITIONS_FRAC

KPOINTS_MP_SPACING 0.07

%BLOCK SPECIES_POT
QC5
%ENDBLOCK SPECIES_POT

SNAP_TO_SYMMETRY
SYMMETRY_GENERATE

