#              Generated by Buildcell
#
# at 17:53:30 (GMT+1.0) 26th March 2023
# in /scratch/scratch/uccabz1/launch_tmp_michael
# on node-a14a-019
# by uccabz1
#
# compiler GCC version 4.9.2
# options -cpp -iprefix /scratch/UCL/applications/gcc/4.9.2/bin/../lib/gcc/x86_64-unknown-linux-gnu/4.9.2/ -mtune=corei7 -march=x86-64 -g -Og
#
# seed -1691841562 -1355694936 -1167251332  1187818287  1229762506  1074910197  1655635433  2101339114  1078829882 -1173658480  -130364934   632051194
#
#      Author: C. J. Pickard (cjp20@cam.ac.uk)
#                Space group: Pm
#

%BLOCK LATTICE_ABC
      3.26850      3.78604      5.36117
     90.00000     90.00000    112.71521
%ENDBLOCK LATTICE_ABC

%BLOCK POSITIONS_FRAC
  Li       -0.1178233       -0.4405285       -0.2331783
  Li       -0.1178233       -0.4405285        0.2331783
   N        0.0212441        0.0795540        0.3599670
   N        0.0212441        0.0795540       -0.3599670
   N        0.4705830       -0.2428751        0.3600682
   N        0.4705830       -0.2428751       -0.3600682
%ENDBLOCK POSITIONS_FRAC

KPOINTS_MP_SPACING 0.07

%BLOCK SPECIES_POT
QC5
%ENDBLOCK SPECIES_POT

SNAP_TO_SYMMETRY
SYMMETRY_GENERATE

