#              Generated by Buildcell
#
# at 18:11:39 (GMT+1.0) 26th March 2023
# in /scratch/scratch/uccabz1/launch_tmp_michael
# on node-a14a-003
# by uccabz1
#
# compiler GCC version 4.9.2
# options -cpp -iprefix /scratch/UCL/applications/gcc/4.9.2/bin/../lib/gcc/x86_64-unknown-linux-gnu/4.9.2/ -mtune=corei7 -march=x86-64 -g -Og
#
# seed   846386468  -590592352  -367105581  -916270976  -534466588 -1479361952  -691567929 -1884619194  -141175533   -47167459   183657339    90916605
#
#      Author: C. J. Pickard (cjp20@cam.ac.uk)
#                Space group: P31
#

%BLOCK LATTICE_ABC
      3.66563      5.22646      5.22646
    120.00000     90.00000     90.00000
%ENDBLOCK LATTICE_ABC

%BLOCK POSITIONS_FRAC
  Li       -0.0941845        0.0653776       -0.3912750
  Li        0.2391488       -0.4566526       -0.0653776
  Li       -0.4275179        0.3912750        0.4566526
   N       -0.0011587       -0.1241166       -0.0433870
   N        0.3321747        0.0807296        0.1241166
   N       -0.3344920        0.0433870       -0.0807296
   N       -0.3776201       -0.2732469       -0.1599139
   N       -0.0442867        0.1133330        0.2732469
   N        0.2890466        0.1599139       -0.1133330
%ENDBLOCK POSITIONS_FRAC

KPOINTS_MP_SPACING 0.07

%BLOCK SPECIES_POT
QC5
%ENDBLOCK SPECIES_POT

SNAP_TO_SYMMETRY
SYMMETRY_GENERATE

