#              Generated by Buildcell
#
# at 15:07:41 (GMT+1.0) 26th March 2023
# in /scratch/scratch/uccabz1/launch_tmp_michael
# on node-a14f-035
# by uccabz1
#
# compiler GCC version 4.9.2
# options -cpp -iprefix /scratch/UCL/applications/gcc/4.9.2/bin/../lib/gcc/x86_64-unknown-linux-gnu/4.9.2/ -mtune=corei7 -march=x86-64 -g -Og
#
# seed   521146940  -652855340 -1655181553 -1397248617  2052860697   261852827 -1804417109  1237667937   854352882  1710757605    -5338530   572224759
#
#      Author: C. J. Pickard (cjp20@cam.ac.uk)
#                Space group: Pm
#

%BLOCK LATTICE_ABC
      4.39306      5.33375      5.47922
     90.00000    101.91932     90.00000
%ENDBLOCK LATTICE_ABC

%BLOCK POSITIONS_FRAC
  Li        0.1877263       -0.2649044        0.1082702
  Li        0.1877263        0.2649044        0.1082702
  Li       -0.3461918        0.2457159       -0.2218495
  Li       -0.3461918       -0.2457159       -0.2218495
   N        0.3715360       -0.3593411        0.4726603
   N        0.3715360        0.3593411        0.4726603
   N       -0.3984702        0.3593787        0.0965061
   N       -0.3984702       -0.3593787        0.0965061
   N       -0.1883106       -0.1429428        0.2058909
   N       -0.1883106        0.1429428        0.2058909
   N       -0.4748226        0.1406141        0.3752878
   N       -0.4748226       -0.1406141        0.3752878
%ENDBLOCK POSITIONS_FRAC

KPOINTS_MP_SPACING 0.07

%BLOCK SPECIES_POT
QC5
%ENDBLOCK SPECIES_POT

SNAP_TO_SYMMETRY
SYMMETRY_GENERATE

