#              Generated by Buildcell
#
# at 15:47:36 (GMT+1.0) 26th March 2023
# in /scratch/scratch/uccabz1/launch_tmp_michael
# on node-a14a-019
# by uccabz1
#
# compiler GCC version 4.9.2
# options -cpp -iprefix /scratch/UCL/applications/gcc/4.9.2/bin/../lib/gcc/x86_64-unknown-linux-gnu/4.9.2/ -mtune=corei7 -march=x86-64 -g -Og
#
# seed   731940287  -127570868  1604416034 -1301804917 -1159502758  -592955207   -26827255 -1108751642  1842257539   546535854  1740318642   353322227
#
#      Author: C. J. Pickard (cjp20@cam.ac.uk)
#                Space group: Pc
#

%BLOCK LATTICE_ABC
      3.41123      4.92678      7.45379
     90.00000     98.18914     90.00000
%ENDBLOCK LATTICE_ABC

%BLOCK POSITIONS_FRAC
  Li        0.3798849        0.2084648        0.4609437
  Li       -0.1201151       -0.2084648        0.4609437
  Li        0.2943217       -0.1999519       -0.2268090
  Li       -0.2056783        0.1999519       -0.2268090
   N        0.2696530       -0.1797042        0.0722982
   N       -0.2303470        0.1797042        0.0722982
   N       -0.1049396        0.4421004       -0.0271716
   N        0.3950604       -0.4421004       -0.0271716
   N        0.2299916        0.0713670       -0.0508120
   N       -0.2700084       -0.0713670       -0.0508120
   N        0.2670883        0.4987068        0.1767606
   N       -0.2329117       -0.4987068        0.1767606
%ENDBLOCK POSITIONS_FRAC

KPOINTS_MP_SPACING 0.07

%BLOCK SPECIES_POT
QC5
%ENDBLOCK SPECIES_POT

SNAP_TO_SYMMETRY
SYMMETRY_GENERATE

