#              Generated by Buildcell
#
# at 20:11:51 (GMT+1.0) 26th March 2023
# in /scratch/scratch/uccabz1/launch_tmp_michael
# on node-a14c-005
# by uccabz1
#
# compiler GCC version 4.9.2
# options -cpp -iprefix /scratch/UCL/applications/gcc/4.9.2/bin/../lib/gcc/x86_64-unknown-linux-gnu/4.9.2/ -mtune=corei7 -march=x86-64 -g -Og
#
# seed  1999962738   481455002   225482687 -1060547644  -486373665   919861062 -1462428401 -1536715788 -1215353364  -166144111 -1874052447   579671664
#
#      Author: C. J. Pickard (cjp20@cam.ac.uk)
#                Space group: P32
#

%BLOCK LATTICE_ABC
      3.38928      5.51077      5.51077
    120.00000     90.00000     90.00000
%ENDBLOCK LATTICE_ABC

%BLOCK POSITIONS_FRAC
  Li       -0.1149095        0.0800984       -0.3435875
  Li       -0.4482428       -0.4236859       -0.0800984
  Li        0.2184238        0.3435875        0.4236859
   N        0.0387286       -0.3674328        0.1121172
   N       -0.2946048        0.4795500        0.3674328
   N        0.3720619       -0.1121172       -0.4795500
   N        0.0263209       -0.3038824        0.4917581
   N       -0.3070125       -0.2043596        0.3038824
   N        0.3596542       -0.4917581        0.2043596
%ENDBLOCK POSITIONS_FRAC

KPOINTS_MP_SPACING 0.07

%BLOCK SPECIES_POT
QC5
%ENDBLOCK SPECIES_POT

SNAP_TO_SYMMETRY
SYMMETRY_GENERATE

