#              Generated by Buildcell
#
# at 19:27:35 (GMT+1.0) 26th March 2023
# in /scratch/scratch/uccabz1/launch_tmp_michael
# on node-a14b-031
# by uccabz1
#
# compiler GCC version 4.9.2
# options -cpp -iprefix /scratch/UCL/applications/gcc/4.9.2/bin/../lib/gcc/x86_64-unknown-linux-gnu/4.9.2/ -mtune=corei7 -march=x86-64 -g -Og
#
# seed -1988510587  -302434429 -2004975277  1022046038 -1892259809   487280911 -1837168051 -1791463776 -1507796343 -1737374060 -1542105720  -970209442
#
#      Author: C. J. Pickard (cjp20@cam.ac.uk)
#                Space group: Amm2
#

%BLOCK LATTICE_ABC
      3.00005      5.39566      5.39566
     91.48866     90.00000     90.00000
%ENDBLOCK LATTICE_ABC

%BLOCK POSITIONS_FRAC
  Li        0.5000000       -0.1486234        0.1750824
  Li       -0.5000000        0.1750824       -0.1486234
  Li       -0.5000000        0.4070583        0.4070583
   N       -0.2500000       -0.4660139        0.1031283
   N        0.2500000        0.1031283       -0.4660139
   N       -0.2500000        0.1031283       -0.4660139
   N        0.2500000       -0.4660139        0.1031283
   N       -0.2500000        0.1750971        0.1750971
   N        0.2500000        0.1750971        0.1750971
%ENDBLOCK POSITIONS_FRAC

KPOINTS_MP_SPACING 0.07

%BLOCK SPECIES_POT
QC5
%ENDBLOCK SPECIES_POT

SNAP_TO_SYMMETRY
SYMMETRY_GENERATE

