#              Generated by Buildcell
#
# at 15:36:08 (GMT+1.0) 26th March 2023
# in /scratch/scratch/uccabz1/launch_tmp_michael
# on node-a14b-031
# by uccabz1
#
# compiler GCC version 4.9.2
# options -cpp -iprefix /scratch/UCL/applications/gcc/4.9.2/bin/../lib/gcc/x86_64-unknown-linux-gnu/4.9.2/ -mtune=corei7 -march=x86-64 -g -Og
#
# seed   205931099  1790857120  -689711510   -62756869   753901998  1464539137  -295965506 -2064958852 -1358055337   911394294   745599300   922952116
#
#      Author: C. J. Pickard (cjp20@cam.ac.uk)
#                Space group: C2
#

%BLOCK LATTICE_ABC
      3.85651      3.89396      9.34668
     78.18191     78.09418     60.31765
%ENDBLOCK LATTICE_ABC

%BLOCK POSITIONS_FRAC
  Li        0.1769273        0.4557506       -0.3090839
  Li        0.3235940       -0.4557506        0.3090839
  Li        0.2781553       -0.1734804       -0.1456253
  Li       -0.0409503        0.1734804        0.1456253
   N       -0.1140019        0.3714222       -0.4272040
   N       -0.1697837       -0.3714222        0.4272040
   N        0.4159174       -0.0219060        0.4361786
   N       -0.1698099        0.0219060       -0.4361786
   N       -0.3998153        0.4584561        0.0010194
   N        0.0596601       -0.4584561       -0.0010194
   N       -0.1731204       -0.4571091        0.2782824
   N       -0.3519471        0.4571091       -0.2782824
%ENDBLOCK POSITIONS_FRAC

KPOINTS_MP_SPACING 0.07

%BLOCK SPECIES_POT
QC5
%ENDBLOCK SPECIES_POT

SNAP_TO_SYMMETRY
SYMMETRY_GENERATE

