#              Generated by Buildcell
#
# at 15:24:13 (GMT+1.0) 26th March 2023
# in /scratch/scratch/uccabz1/launch_tmp_michael
# on node-a14a-001
# by uccabz1
#
# compiler GCC version 4.9.2
# options -cpp -iprefix /scratch/UCL/applications/gcc/4.9.2/bin/../lib/gcc/x86_64-unknown-linux-gnu/4.9.2/ -mtune=corei7 -march=x86-64 -g -Og
#
# seed  -428505214  -331862320 -1799446586  -399015568  1445102372 -1731385286  2011700891   300964367 -1106954990  1280177310 -1760027626   421461553
#
#      Author: C. J. Pickard (cjp20@cam.ac.uk)
#                Space group: Pnn2
#

%BLOCK LATTICE_ABC
      2.90751      5.95404      6.61337
     90.00000     90.00000     90.00000
%ENDBLOCK LATTICE_ABC

%BLOCK POSITIONS_FRAC
  Li        0.3171814       -0.1900143        0.0360570
  Li       -0.3171814        0.1900143        0.0360570
  Li       -0.1828186       -0.3099857       -0.4639430
  Li        0.1828186        0.3099857       -0.4639430
   N       -0.2590967       -0.3966358        0.2304427
   N        0.2590967        0.3966358        0.2304427
   N        0.2409033       -0.1033642       -0.2695573
   N       -0.2409033        0.1033642       -0.2695573
   N       -0.2765828       -0.4370245        0.0013070
   N        0.2765828        0.4370245        0.0013070
   N        0.2234172       -0.0629755       -0.4986930
   N       -0.2234172        0.0629755       -0.4986930
%ENDBLOCK POSITIONS_FRAC

KPOINTS_MP_SPACING 0.07

%BLOCK SPECIES_POT
QC5
%ENDBLOCK SPECIES_POT

SNAP_TO_SYMMETRY
SYMMETRY_GENERATE

