#              Generated by Buildcell
#
# at 19:00:47 (GMT+1.0) 26th March 2023
# in /scratch/scratch/uccabz1/launch_tmp_michael
# on node-a14f-035
# by uccabz1
#
# compiler GCC version 4.9.2
# options -cpp -iprefix /scratch/UCL/applications/gcc/4.9.2/bin/../lib/gcc/x86_64-unknown-linux-gnu/4.9.2/ -mtune=corei7 -march=x86-64 -g -Og
#
# seed -1036220125   918834090  -990841759   890623928    51325400  -747188381 -2116690609 -1281267954   876191586   111469268  1792506349   808732180
#
#      Author: C. J. Pickard (cjp20@cam.ac.uk)
#                Space group: Cc
#

%BLOCK LATTICE_ABC
      4.20965      5.73978      6.10177
     61.94379     81.27217     71.17848
%ENDBLOCK LATTICE_ABC

%BLOCK POSITIONS_FRAC
  Li        0.4498580       -0.3813061       -0.2514189
  Li       -0.0501420       -0.1327250        0.2514189
  Li       -0.0278593        0.0509743       -0.3747414
  Li        0.4721407        0.1762329        0.3747414
   N       -0.3666175        0.0251850       -0.0353032
   N        0.1333825        0.4898817        0.0353032
   N        0.4066607        0.2387038       -0.3240073
   N       -0.0933393        0.4146965        0.3240073
   N       -0.1856627       -0.2244201       -0.3991191
   N        0.3143373       -0.1235392        0.3991191
   N       -0.1590456        0.2142867       -0.0408208
   N        0.3409544       -0.3265341        0.0408208
%ENDBLOCK POSITIONS_FRAC

KPOINTS_MP_SPACING 0.07

%BLOCK SPECIES_POT
QC5
%ENDBLOCK SPECIES_POT

SNAP_TO_SYMMETRY
SYMMETRY_GENERATE

