#              Generated by Buildcell
#
# at 19:17:46 (GMT+1.0) 26th March 2023
# in /scratch/scratch/uccabz1/launch_tmp_michael
# on node-a14f-035
# by uccabz1
#
# compiler GCC version 4.9.2
# options -cpp -iprefix /scratch/UCL/applications/gcc/4.9.2/bin/../lib/gcc/x86_64-unknown-linux-gnu/4.9.2/ -mtune=corei7 -march=x86-64 -g -Og
#
# seed    71877088 -1567876891  -156078643 -1757812617  -394287671  1988179806 -1507644897  -651270701  1251180676 -1085938226 -1244297993  -857443174
#
#      Author: C. J. Pickard (cjp20@cam.ac.uk)
#                Space group: P32
#

%BLOCK LATTICE_ABC
      4.38114      4.38114      5.63843
     90.00000     90.00000    120.00000
%ENDBLOCK LATTICE_ABC

%BLOCK POSITIONS_FRAC
  Li        0.4311681       -0.0843782       -0.4504777
  Li        0.4844536       -0.4311681        0.2161890
  Li        0.0843782       -0.4844536       -0.1171444
   N        0.3810764        0.1726225       -0.1967327
   N       -0.2084539       -0.3810764        0.4699340
   N       -0.1726225        0.2084539        0.1366006
   N        0.2447328        0.1321902        0.0520458
   N       -0.1125427       -0.2447328       -0.2812875
   N       -0.1321902        0.1125427        0.3853792
%ENDBLOCK POSITIONS_FRAC

KPOINTS_MP_SPACING 0.07

%BLOCK SPECIES_POT
QC5
%ENDBLOCK SPECIES_POT

SNAP_TO_SYMMETRY
SYMMETRY_GENERATE

