#              Generated by Buildcell
#
# at 15:09:05 (GMT+1.0) 26th March 2023
# in /scratch/scratch/uccabz1/launch_tmp_michael
# on node-a14a-019
# by uccabz1
#
# compiler GCC version 4.9.2
# options -cpp -iprefix /scratch/UCL/applications/gcc/4.9.2/bin/../lib/gcc/x86_64-unknown-linux-gnu/4.9.2/ -mtune=corei7 -march=x86-64 -g -Og
#
# seed   662275912  1796291941   564911413  -488988609   -11583784 -1897356458  1167211522 -1266773135  1620420854  -588222016  -717874740 -2093099690
#
#      Author: C. J. Pickard (cjp20@cam.ac.uk)
#                Space group: C2
#

%BLOCK LATTICE_ABC
      4.14816      4.14816      5.66495
     78.63547     78.63547     69.77428
%ENDBLOCK LATTICE_ABC

%BLOCK POSITIONS_FRAC
  Li        0.1055131        0.3366034       -0.0524537
  Li       -0.3366034       -0.1055131        0.0524537
  Li       -0.1264228        0.1264228       -0.5000000
   N       -0.3867475        0.2503243        0.2359667
   N       -0.2503243        0.3867475       -0.2359667
   N        0.0389284       -0.1450677        0.2134838
   N        0.1450677       -0.0389284       -0.2134838
   N        0.3882422        0.1804696       -0.4848056
   N       -0.1804696       -0.3882422        0.4848056
%ENDBLOCK POSITIONS_FRAC

KPOINTS_MP_SPACING 0.07

%BLOCK SPECIES_POT
QC5
%ENDBLOCK SPECIES_POT

SNAP_TO_SYMMETRY
SYMMETRY_GENERATE

