#              Generated by Buildcell
#
# at 15:17:32 (GMT+1.0) 26th March 2023
# in /scratch/scratch/uccabz1/launch_tmp_michael
# on node-a14c-005
# by uccabz1
#
# compiler GCC version 4.9.2
# options -cpp -iprefix /scratch/UCL/applications/gcc/4.9.2/bin/../lib/gcc/x86_64-unknown-linux-gnu/4.9.2/ -mtune=corei7 -march=x86-64 -g -Og
#
# seed -2139322562 -2000680664  1559328992   986126321 -1047305663  -234709373  1376557539 -1540447010 -2126860645 -1700494111  -334029593  1629147208
#
#      Author: C. J. Pickard (cjp20@cam.ac.uk)
#                Space group: P-1
#

%BLOCK LATTICE_ABC
      2.71674      5.67994      6.07610
     81.89386     81.59126     85.57821
%ENDBLOCK LATTICE_ABC

%BLOCK POSITIONS_FRAC
  Li        0.4849858       -0.2135147        0.4723548
  Li       -0.4849858        0.2135147       -0.4723548
  Li        0.0000000        0.5000000        0.0000000
   N       -0.3076704        0.0584104        0.0472589
   N        0.3076704       -0.0584104       -0.0472589
   N        0.1709272        0.1687796        0.0603616
   N       -0.1709272       -0.1687796       -0.0603616
   N       -0.4871486        0.2155190       -0.1586815
   N        0.4871486       -0.2155190        0.1586815
%ENDBLOCK POSITIONS_FRAC

KPOINTS_MP_SPACING 0.07

%BLOCK SPECIES_POT
QC5
%ENDBLOCK SPECIES_POT

SNAP_TO_SYMMETRY
SYMMETRY_GENERATE

