#              Generated by Buildcell
#
# at 14:56:34 (GMT+1.0) 26th March 2023
# in /scratch/scratch/uccabz1/launch_tmp_michael
# on node-a14a-019
# by uccabz1
#
# compiler GCC version 4.9.2
# options -cpp -iprefix /scratch/UCL/applications/gcc/4.9.2/bin/../lib/gcc/x86_64-unknown-linux-gnu/4.9.2/ -mtune=corei7 -march=x86-64 -g -Og
#
# seed -1671285003 -1517677385  1832648725 -1538616774   351645935  2000896738  1295507469 -1126922508  -367796603    -2221490  1204899758 -1193229348
#
#      Author: C. J. Pickard (cjp20@cam.ac.uk)
#                Space group: Cm
#

%BLOCK LATTICE_ABC
      3.00941      4.77766      4.77766
     63.09215     75.16766     75.16766
%ENDBLOCK LATTICE_ABC

%BLOCK POSITIONS_FRAC
  Li        0.1101497        0.1023017       -0.3976990
  Li        0.1101497       -0.3976990        0.1023017
   N        0.4789714       -0.3532820        0.3441106
   N        0.4789714        0.3441106       -0.3532820
   N       -0.2195135       -0.0693419        0.3002160
   N       -0.2195135        0.3002160       -0.0693419
%ENDBLOCK POSITIONS_FRAC

KPOINTS_MP_SPACING 0.07

%BLOCK SPECIES_POT
QC5
%ENDBLOCK SPECIES_POT

SNAP_TO_SYMMETRY
SYMMETRY_GENERATE

