#              Generated by Buildcell
#
# at 15:05:39 (GMT+1.0) 26th March 2023
# in /scratch/scratch/uccabz1/launch_tmp_michael
# on node-a14b-022
# by uccabz1
#
# compiler GCC version 4.9.2
# options -cpp -iprefix /scratch/UCL/applications/gcc/4.9.2/bin/../lib/gcc/x86_64-unknown-linux-gnu/4.9.2/ -mtune=corei7 -march=x86-64 -g -Og
#
# seed  2047717784   768877292 -1669197265   978246474  1689924942  1306035306  -225007837  1705839672  -882869574  1442433802  -913268874 -1764877422
#
#      Author: C. J. Pickard (cjp20@cam.ac.uk)
#                Space group: C2
#

%BLOCK LATTICE_ABC
      2.50000      5.06208      5.06208
     87.73832     78.24807     78.24807
%ENDBLOCK LATTICE_ABC

%BLOCK POSITIONS_FRAC
  Li        0.9784984       -0.2799273       -0.3736232
  Li       -0.9784984        0.3736232        0.2799273
   N        0.1384956        0.0594371       -0.2760342
   N       -0.1384956        0.2760342       -0.0594371
   N        0.3377921       -0.1242170       -0.0227051
   N       -0.3377921        0.0227051        0.1242170
%ENDBLOCK POSITIONS_FRAC

KPOINTS_MP_SPACING 0.07

%BLOCK SPECIES_POT
QC5
%ENDBLOCK SPECIES_POT

SNAP_TO_SYMMETRY
SYMMETRY_GENERATE

