#              Generated by Buildcell
#
# at 16:37:11 (GMT+1.0) 26th March 2023
# in /scratch/scratch/uccabz1/launch_tmp_michael
# on node-a14e-021
# by uccabz1
#
# compiler GCC version 4.9.2
# options -cpp -iprefix /scratch/UCL/applications/gcc/4.9.2/bin/../lib/gcc/x86_64-unknown-linux-gnu/4.9.2/ -mtune=corei7 -march=x86-64 -g -Og
#
# seed -1140488650  -255346212   -61596886 -1242256863   539219846  -439436037  1087585062 -1336704016 -1151482197 -1960856058  -543766562 -1337189606
#
#      Author: C. J. Pickard (cjp20@cam.ac.uk)
#                Space group: R3
#

%BLOCK LATTICE_ABC
      5.23120      5.23120      5.23120
     66.72907     66.72907     66.72907
%ENDBLOCK LATTICE_ABC

%BLOCK POSITIONS_FRAC
  Li       -0.3288045        0.0809352        0.2274488
  Li        0.2274488       -0.3288045        0.0809352
  Li        0.0809352        0.2274488       -0.3288045
  Li       -0.4122249       -0.4122249       -0.4122249
   N       -0.3529820       -0.4081767        0.2038430
   N        0.2038430       -0.3529820       -0.4081767
   N       -0.4081767        0.2038430       -0.3529820
   N       -0.0006755       -0.1338744        0.3719474
   N        0.3719474       -0.0006755       -0.1338744
   N       -0.1338744        0.3719474       -0.0006755
   N        0.4310063        0.4310063        0.4310063
   N       -0.2554842       -0.2554842       -0.2554842
%ENDBLOCK POSITIONS_FRAC

KPOINTS_MP_SPACING 0.07

%BLOCK SPECIES_POT
QC5
%ENDBLOCK SPECIES_POT

SNAP_TO_SYMMETRY
SYMMETRY_GENERATE

