#              Generated by Buildcell
#
# at 19:57:08 (GMT+1.0) 26th March 2023
# in /scratch/scratch/uccabz1/launch_tmp_michael
# on node-a14e-021
# by uccabz1
#
# compiler GCC version 4.9.2
# options -cpp -iprefix /scratch/UCL/applications/gcc/4.9.2/bin/../lib/gcc/x86_64-unknown-linux-gnu/4.9.2/ -mtune=corei7 -march=x86-64 -g -Og
#
# seed  1373810635  1169169206  2138783156  -643508487  1817537373  1569246619 -1045041945   407607740 -1698291643 -1447436602    19705306   169475975
#
#      Author: C. J. Pickard (cjp20@cam.ac.uk)
#                Space group: Cmc21
#

%BLOCK LATTICE_ABC
      5.35688      6.13560      6.34097
    118.93432     90.00000     90.00000
%ENDBLOCK LATTICE_ABC

%BLOCK POSITIONS_FRAC
  Li        0.3031626        0.0178423       -0.3130512
  Li       -0.1968374       -0.0178423        0.3130512
  Li       -0.1968374       -0.3308936       -0.3130512
  Li        0.3031626        0.3308936        0.3130512
  Li       -0.0228256        0.1047583        0.0000000
  Li        0.4771744       -0.1047583        0.0000000
   N        0.4920075       -0.4422917       -0.2476284
   N       -0.0079925        0.4422917        0.2476284
   N       -0.0079925        0.1946633       -0.2476284
   N        0.4920075       -0.1946633        0.2476284
   N        0.3253232       -0.3443344       -0.3786949
   N       -0.1746768        0.3443344        0.3786949
   N       -0.1746768       -0.0343605       -0.3786949
   N        0.3253232        0.0343605        0.3786949
   N        0.0865454        0.1457798       -0.4893180
   N       -0.4134546       -0.1457798        0.4893180
   N       -0.4134546        0.3649022       -0.4893180
   N        0.0865454       -0.3649022        0.4893180
%ENDBLOCK POSITIONS_FRAC

KPOINTS_MP_SPACING 0.07

%BLOCK SPECIES_POT
QC5
%ENDBLOCK SPECIES_POT

SNAP_TO_SYMMETRY
SYMMETRY_GENERATE

