#              Generated by Buildcell
#
# at 16:01:50 (GMT+1.0) 26th March 2023
# in /scratch/scratch/uccabz1/launch_tmp_michael
# on node-a14b-031
# by uccabz1
#
# compiler GCC version 4.9.2
# options -cpp -iprefix /scratch/UCL/applications/gcc/4.9.2/bin/../lib/gcc/x86_64-unknown-linux-gnu/4.9.2/ -mtune=corei7 -march=x86-64 -g -Og
#
# seed  -512464404  -567273930  -672207315  2072459882  1449795288   232897326  1273065503  1748532395 -1548196708  -470189420  1571739119 -1412121784
#
#      Author: C. J. Pickard (cjp20@cam.ac.uk)
#                Space group: P31
#

%BLOCK LATTICE_ABC
      3.78243      3.78243     14.60771
     90.00000     90.00000    120.00000
%ENDBLOCK LATTICE_ABC

%BLOCK POSITIONS_FRAC
  Li        0.0874305        0.0594038        0.4216374
  Li       -0.0594038        0.0280266       -0.2450292
  Li       -0.0280266       -0.0874305        0.0883041
  Li       -0.0394544        0.1176815       -0.0751938
  Li       -0.1176815       -0.1571359        0.2581395
  Li        0.1571359        0.0394544       -0.4085272
   N        0.2564790       -0.4739572       -0.3094201
   N        0.4739572       -0.2695637        0.0239132
   N        0.2695637       -0.2564790        0.3572466
   N       -0.3618151       -0.3580563       -0.3627225
   N        0.3580563       -0.0037589       -0.0293892
   N        0.0037589        0.3618151        0.3039442
   N       -0.2825689        0.0807644       -0.3573097
   N       -0.0807644       -0.3633332       -0.0239764
   N        0.3633332        0.2825689        0.3093570
   N        0.4033005        0.2428459        0.1977517
   N       -0.2428459        0.1604546       -0.4689149
   N       -0.1604546       -0.4033005       -0.1355816
%ENDBLOCK POSITIONS_FRAC

KPOINTS_MP_SPACING 0.07

%BLOCK SPECIES_POT
QC5
%ENDBLOCK SPECIES_POT

SNAP_TO_SYMMETRY
SYMMETRY_GENERATE

