#              Generated by Buildcell
#
# at 15:14:47 (GMT+1.0) 26th March 2023
# in /scratch/scratch/uccabz1/launch_tmp_michael
# on node-a14f-035
# by uccabz1
#
# compiler GCC version 4.9.2
# options -cpp -iprefix /scratch/UCL/applications/gcc/4.9.2/bin/../lib/gcc/x86_64-unknown-linux-gnu/4.9.2/ -mtune=corei7 -march=x86-64 -g -Og
#
# seed   754206766 -1041134619  1257605408 -1501437512  2110487141 -1082337257 -1394036128   599730012 -1454680877   427647954   738858861   917940039
#
#      Author: C. J. Pickard (cjp20@cam.ac.uk)
#                Space group: P21
#

%BLOCK LATTICE_ABC
      4.45766      5.03277      5.35551
     90.00000    104.76813     90.00000
%ENDBLOCK LATTICE_ABC

%BLOCK POSITIONS_FRAC
  Li        0.2985328        0.2918747       -0.2362922
  Li       -0.2985328       -0.2081253        0.2362922
  Li        0.0957690       -0.2345164       -0.2957424
  Li       -0.0957690        0.2654836        0.2957424
   N       -0.4957263       -0.3084776       -0.3287432
   N        0.4957263        0.1915224        0.3287432
   N        0.3565418       -0.2854214        0.3774013
   N       -0.3565418        0.2145786       -0.3774013
   N        0.4315763       -0.0161546       -0.4830012
   N       -0.4315763        0.4838454        0.4830012
   N       -0.4677193        0.1168806        0.0651519
   N        0.4677193       -0.3831194       -0.0651519
%ENDBLOCK POSITIONS_FRAC

KPOINTS_MP_SPACING 0.07

%BLOCK SPECIES_POT
QC5
%ENDBLOCK SPECIES_POT

SNAP_TO_SYMMETRY
SYMMETRY_GENERATE

