#              Generated by Buildcell
#
# at 15:54:20 (GMT+1.0) 26th March 2023
# in /scratch/scratch/uccabz1/launch_tmp_michael
# on node-a14b-022
# by uccabz1
#
# compiler GCC version 4.9.2
# options -cpp -iprefix /scratch/UCL/applications/gcc/4.9.2/bin/../lib/gcc/x86_64-unknown-linux-gnu/4.9.2/ -mtune=corei7 -march=x86-64 -g -Og
#
# seed   -26713581 -1133955649  1749235274  1554854228   399886569   575914860 -1065387185  -617017698 -1821731020 -1557759654 -1738751414 -1396469489
#
#      Author: C. J. Pickard (cjp20@cam.ac.uk)
#                Space group: Cc
#

%BLOCK LATTICE_ABC
      3.64924      5.11770      9.83155
    105.08606     90.84833     90.00000
%ENDBLOCK LATTICE_ABC

%BLOCK POSITIONS_FRAC
  Li        0.3317235       -0.4452276        0.4798762
  Li       -0.1682765       -0.0748962        0.4798762
  Li        0.0871118       -0.1778552        0.0173819
  Li       -0.4128882        0.1952371        0.0173819
  Li        0.3383668        0.1537343       -0.3585883
  Li       -0.1616332        0.4876774       -0.3585883
   N        0.4426926       -0.3760941       -0.2035960
   N       -0.0573074        0.1724981       -0.2035960
   N        0.3145626       -0.0743262       -0.1574262
   N       -0.1854374       -0.0831000       -0.1574262
   N       -0.3129220        0.2195198        0.2144213
   N        0.1870780       -0.0050986        0.2144213
   N       -0.4389332       -0.1425692       -0.2916817
   N        0.0610668       -0.1491124       -0.2916817
   N        0.1305376       -0.3897400        0.3102820
   N       -0.3694624       -0.2999780        0.3102820
   N        0.3655313       -0.2801719        0.1953135
   N       -0.1344687        0.4754854        0.1953135
%ENDBLOCK POSITIONS_FRAC

KPOINTS_MP_SPACING 0.07

%BLOCK SPECIES_POT
QC5
%ENDBLOCK SPECIES_POT

SNAP_TO_SYMMETRY
SYMMETRY_GENERATE

