#              Generated by Buildcell
#
# at 19:01:17 (GMT+1.0) 26th March 2023
# in /scratch/scratch/uccabz1/launch_tmp_michael
# on node-a14b-031
# by uccabz1
#
# compiler GCC version 4.9.2
# options -cpp -iprefix /scratch/UCL/applications/gcc/4.9.2/bin/../lib/gcc/x86_64-unknown-linux-gnu/4.9.2/ -mtune=corei7 -march=x86-64 -g -Og
#
# seed -1808233414   -88690445  1859363508  1438261254  1710342956   -66176597  -614305649 -1930178676   793297334  1206865475 -1282264577  -927630180
#
#      Author: C. J. Pickard (cjp20@cam.ac.uk)
#                Space group: Amm2
#

%BLOCK LATTICE_ABC
      5.05159      5.90193      6.34643
     90.00000     90.00000    115.33823
%ENDBLOCK LATTICE_ABC

%BLOCK POSITIONS_FRAC
  Li       -0.3610578       -0.2175903       -0.3030392
  Li        0.1434676       -0.2175903        0.3030392
  Li        0.1434676       -0.2175903       -0.3030392
  Li       -0.3610578       -0.2175903        0.3030392
  Li       -0.4159383        0.1681234        0.1969620
  Li       -0.4159383        0.1681234       -0.1969620
   N        0.2882190        0.2792999       -0.2486100
   N       -0.0089191        0.2792999        0.2486100
   N       -0.0089191        0.2792999       -0.2486100
   N        0.2882190        0.2792999        0.2486100
   N       -0.1261066        0.0447905       -0.1181766
   N        0.1708970        0.0447905        0.1181766
   N        0.1708970        0.0447905       -0.1181766
   N       -0.1261066        0.0447905        0.1181766
   N        0.4212708       -0.4864491       -0.1181766
   N        0.0922801       -0.4864491        0.1181766
   N        0.0922801       -0.4864491       -0.1181766
   N        0.4212708       -0.4864491        0.1181766
%ENDBLOCK POSITIONS_FRAC

KPOINTS_MP_SPACING 0.07

%BLOCK SPECIES_POT
QC5
%ENDBLOCK SPECIES_POT

SNAP_TO_SYMMETRY
SYMMETRY_GENERATE

