#              Generated by Buildcell
#
# at 15:30:09 (GMT+1.0) 26th March 2023
# in /scratch/scratch/uccabz1/launch_tmp_michael
# on node-a14e-007
# by uccabz1
#
# compiler GCC version 4.9.2
# options -cpp -iprefix /scratch/UCL/applications/gcc/4.9.2/bin/../lib/gcc/x86_64-unknown-linux-gnu/4.9.2/ -mtune=corei7 -march=x86-64 -g -Og
#
# seed   214015588  1880939701 -1257005068  2140997748   126442183  -781709976  1362400210  1799392362   706273711  -495612912  1570098313   114343912
#
#      Author: C. J. Pickard (cjp20@cam.ac.uk)
#                Space group: P3
#

%BLOCK LATTICE_ABC
      4.64550      4.64550      6.13745
     90.00000     90.00000    120.00000
%ENDBLOCK LATTICE_ABC

%BLOCK POSITIONS_FRAC
  Li        0.3339820        0.2856944       -0.4188086
  Li       -0.0482876       -0.3339820       -0.4188086
  Li       -0.2856944        0.0482876       -0.4188086
  Li        0.3333333       -0.3333333        0.2906203
   N        0.1263718       -0.1986719       -0.1334823
   N       -0.3250437       -0.1263718       -0.1334823
   N        0.1986719        0.3250437       -0.1334823
   N        0.4834063        0.1016472       -0.1690739
   N       -0.3817591       -0.4834063       -0.1690739
   N       -0.1016472        0.3817591       -0.1690739
   N        0.3333333       -0.3333333       -0.0189573
   N       -0.3333333        0.3333333        0.2519751
%ENDBLOCK POSITIONS_FRAC

KPOINTS_MP_SPACING 0.07

%BLOCK SPECIES_POT
QC5
%ENDBLOCK SPECIES_POT

SNAP_TO_SYMMETRY
SYMMETRY_GENERATE

