#              Generated by Buildcell
#
# at 20:29:09 (GMT+1.0) 26th March 2023
# in /scratch/scratch/uccabz1/launch_tmp_michael
# on node-a14a-019
# by uccabz1
#
# compiler GCC version 4.9.2
# options -cpp -iprefix /scratch/UCL/applications/gcc/4.9.2/bin/../lib/gcc/x86_64-unknown-linux-gnu/4.9.2/ -mtune=corei7 -march=x86-64 -g -Og
#
# seed   116029490 -2036533658 -1663724490  2012812639  -658719175 -1104352071   490284744  -552075332 -1301653449 -1235143610   186422723  1798225261
#
#      Author: C. J. Pickard (cjp20@cam.ac.uk)
#                Space group: C222
#

%BLOCK LATTICE_ABC
      4.62372      5.47671      8.07430
     90.00000     90.00000    114.96885
%ENDBLOCK LATTICE_ABC

%BLOCK POSITIONS_FRAC
  Li       -0.3610899       -0.2249057       -0.2746114
  Li        0.3610899        0.2249057       -0.2746114
  Li       -0.1361842        0.2249057        0.2746114
  Li        0.1361842       -0.2249057        0.2746114
  Li        0.1258850        0.2517699        0.0000000
  Li       -0.1258850       -0.2517699        0.0000000
   N        0.2180661        0.0782740        0.4155789
   N       -0.2180661       -0.0782740        0.4155789
   N        0.1397920       -0.0782740       -0.4155789
   N       -0.1397920        0.0782740       -0.4155789
   N        0.4402942       -0.3914543       -0.0674694
   N       -0.4402942        0.3914543       -0.0674694
   N       -0.1682515        0.3914543        0.0674694
   N        0.1682515       -0.3914543        0.0674694
   N        0.1726569       -0.3222386       -0.1316002
   N       -0.1726569        0.3222386       -0.1316002
   N        0.4948955        0.3222386        0.1316002
   N       -0.4948955       -0.3222386        0.1316002
%ENDBLOCK POSITIONS_FRAC

KPOINTS_MP_SPACING 0.07

%BLOCK SPECIES_POT
QC5
%ENDBLOCK SPECIES_POT

SNAP_TO_SYMMETRY
SYMMETRY_GENERATE

