#              Generated by Buildcell
#
# at 15:21:07 (GMT+1.0) 26th March 2023
# in /scratch/scratch/uccabz1/launch_tmp_michael
# on node-a14e-007
# by uccabz1
#
# compiler GCC version 4.9.2
# options -cpp -iprefix /scratch/UCL/applications/gcc/4.9.2/bin/../lib/gcc/x86_64-unknown-linux-gnu/4.9.2/ -mtune=corei7 -march=x86-64 -g -Og
#
# seed   187881924 -1399928334  -763556749  2131673637   391380505  1793872492    69009449  1072198496 -1111344531  2136716390   772115780  -164988470
#
#      Author: C. J. Pickard (cjp20@cam.ac.uk)
#                Space group: I41
#

%BLOCK LATTICE_ABC
      5.95721      5.95721      6.76204
    116.13510    116.13510     90.00000
%ENDBLOCK LATTICE_ABC

%BLOCK POSITIONS_FRAC
  Li        0.0024913       -0.0293286       -0.3218758
  Li       -0.3243671       -0.2925471       -0.3218758
  Li       -0.2793286       -0.0743671        0.1781242
  Li        0.4574529        0.2524913        0.1781242
  Li        0.2862688        0.2862688       -0.4274625
  Li        0.0362688       -0.4637312        0.0725375
   N       -0.3889004       -0.0417917       -0.4290107
   N       -0.0401103       -0.3872190       -0.4290107
   N       -0.2917917        0.2098897        0.0709893
   N        0.3627810       -0.1389004        0.0709893
   N       -0.0745126        0.1771566       -0.0564041
   N        0.0181085       -0.2335607       -0.0564041
   N       -0.0728434        0.2681085        0.4435959
   N       -0.4835607        0.1754874        0.4435959
   N        0.0453462        0.3005853       -0.2955371
   N       -0.3408833        0.4038776       -0.2955371
   N        0.0505853       -0.0908833        0.2044629
   N        0.1538776        0.2953462        0.2044629
%ENDBLOCK POSITIONS_FRAC

KPOINTS_MP_SPACING 0.07

%BLOCK SPECIES_POT
QC5
%ENDBLOCK SPECIES_POT

SNAP_TO_SYMMETRY
SYMMETRY_GENERATE

