#              Generated by Buildcell
#
# at 16:06:30 (GMT+1.0) 26th March 2023
# in /scratch/scratch/uccabz1/launch_tmp_michael
# on node-a14b-028
# by uccabz1
#
# compiler GCC version 4.9.2
# options -cpp -iprefix /scratch/UCL/applications/gcc/4.9.2/bin/../lib/gcc/x86_64-unknown-linux-gnu/4.9.2/ -mtune=corei7 -march=x86-64 -g -Og
#
# seed  1656851353   116029490 -1700363082  -548777539  -544487264 -1174846712  -163609814  -496173827 -1937699334  1028409887  -556660921  1356741921
#
#      Author: C. J. Pickard (cjp20@cam.ac.uk)
#                Space group: P4
#

%BLOCK LATTICE_ABC
      2.50053      8.45587      8.45587
     90.00000     90.00000     90.00000
%ENDBLOCK LATTICE_ABC

%BLOCK POSITIONS_FRAC
  Li        0.0894776       -0.1496672        0.1459620
  Li        0.0894776        0.1496672       -0.1459620
  Li        0.0894776        0.1459620        0.1496672
  Li        0.0894776       -0.1459620       -0.1496672
  Li       -0.2898693        0.5000000        0.0000000
  Li       -0.2898693        0.0000000       -0.5000000
   N        0.4253655       -0.3512168        0.1458150
   N        0.4253655        0.3512168       -0.1458150
   N        0.4253655        0.1458150        0.3512168
   N        0.4253655       -0.1458150       -0.3512168
   N       -0.3954042        0.2387463       -0.4700237
   N       -0.3954042       -0.2387463        0.4700237
   N       -0.3954042       -0.4700237       -0.2387463
   N       -0.3954042        0.4700237        0.2387463
   N       -0.2329639       -0.3730718       -0.3793319
   N       -0.2329639        0.3730718        0.3793319
   N       -0.2329639       -0.3793319        0.3730718
   N       -0.2329639        0.3793319       -0.3730718
%ENDBLOCK POSITIONS_FRAC

KPOINTS_MP_SPACING 0.07

%BLOCK SPECIES_POT
QC5
%ENDBLOCK SPECIES_POT

SNAP_TO_SYMMETRY
SYMMETRY_GENERATE

