#              Generated by Buildcell
#
# at 15:33:29 (GMT+1.0) 26th March 2023
# in /scratch/scratch/uccabz1/launch_tmp_michael
# on node-a14b-028
# by uccabz1
#
# compiler GCC version 4.9.2
# options -cpp -iprefix /scratch/UCL/applications/gcc/4.9.2/bin/../lib/gcc/x86_64-unknown-linux-gnu/4.9.2/ -mtune=corei7 -march=x86-64 -g -Og
#
# seed -1453734703 -1018138933  -186094023  1290275622  -451566685  -403336649  -918986628 -1616849314  1183645560  -914991778 -1312074477  1773863121
#
#      Author: C. J. Pickard (cjp20@cam.ac.uk)
#                Space group: P21
#

%BLOCK LATTICE_ABC
      3.28156      4.91890     11.79050
     90.00000     90.00000    100.67501
%ENDBLOCK LATTICE_ABC

%BLOCK POSITIONS_FRAC
  Li        0.2958010       -0.0006269        0.0140908
  Li       -0.2958010        0.0006269       -0.4859092
  Li        0.3507575       -0.1711306        0.3330993
  Li       -0.3507575        0.1711306       -0.1669007
  Li        0.4811953       -0.2277413       -0.3009265
  Li       -0.4811953        0.2277413        0.1990735
   N       -0.4402642        0.4832417       -0.0574339
   N        0.4402642       -0.4832417        0.4425661
   N        0.3789612        0.1447675       -0.3100620
   N       -0.3789612       -0.1447675        0.1899380
   N       -0.1590891        0.3523403        0.4429710
   N        0.1590891       -0.3523403       -0.0570290
   N        0.0937190       -0.0231243       -0.1372778
   N       -0.0937190        0.0231243        0.3627222
   N        0.1900099        0.4108680       -0.2663525
   N       -0.1900099       -0.4108680        0.2336475
   N       -0.3664880        0.4268238        0.3370328
   N        0.3664880       -0.4268238       -0.1629672
%ENDBLOCK POSITIONS_FRAC

KPOINTS_MP_SPACING 0.07

%BLOCK SPECIES_POT
QC5
%ENDBLOCK SPECIES_POT

SNAP_TO_SYMMETRY
SYMMETRY_GENERATE

