#              Generated by Buildcell
#
# at 19:09:02 (GMT+1.0) 26th March 2023
# in /scratch/scratch/uccabz1/launch_tmp_michael
# on node-a14b-028
# by uccabz1
#
# compiler GCC version 4.9.2
# options -cpp -iprefix /scratch/UCL/applications/gcc/4.9.2/bin/../lib/gcc/x86_64-unknown-linux-gnu/4.9.2/ -mtune=corei7 -march=x86-64 -g -Og
#
# seed  1376459900  1171167319  1916148122  1701136129   660263500 -2098108664  1531106554  -713672446 -2123990484 -1804869712  -330787976  1411783952
#
#      Author: C. J. Pickard (cjp20@cam.ac.uk)
#                Space group: I222
#

%BLOCK LATTICE_ABC
      4.30688      4.35048      4.35048
     60.75454     60.33103     60.33103
%ENDBLOCK LATTICE_ABC

%BLOCK POSITIONS_FRAC
  Li       -0.2966801        0.2966801        0.2966801
  Li        0.2966801       -0.2966801       -0.2966801
   N        0.2219249        0.0018302        0.2336332
   N       -0.2219249       -0.2336332       -0.0018302
   N       -0.4573883        0.2336332        0.0018302
   N        0.4573883       -0.0018302       -0.2336332
%ENDBLOCK POSITIONS_FRAC

KPOINTS_MP_SPACING 0.07

%BLOCK SPECIES_POT
QC5
%ENDBLOCK SPECIES_POT

SNAP_TO_SYMMETRY
SYMMETRY_GENERATE

