#              Generated by Buildcell
#
# at 16:26:29 (GMT+1.0) 26th March 2023
# in /scratch/scratch/uccabz1/launch_tmp_michael
# on node-a14e-021
# by uccabz1
#
# compiler GCC version 4.9.2
# options -cpp -iprefix /scratch/UCL/applications/gcc/4.9.2/bin/../lib/gcc/x86_64-unknown-linux-gnu/4.9.2/ -mtune=corei7 -march=x86-64 -g -Og
#
# seed -1525411354  1980163310 -1764866259   638075177   478545354  -672071037  1126118989   480847443  2109687888 -1908636943 -1144148730   693302728
#
#      Author: C. J. Pickard (cjp20@cam.ac.uk)
#                Space group: Cm
#

%BLOCK LATTICE_ABC
      5.37421      5.69560      7.05068
     80.58542     67.59735     64.58264
%ENDBLOCK LATTICE_ABC

%BLOCK POSITIONS_FRAC
  Li       -0.0075856        0.1333201       -0.1918472
  Li       -0.1994328        0.1333201        0.1918472
  Li       -0.3642374       -0.0303227       -0.2051140
  Li        0.4306486       -0.0303227        0.2051140
  Li        0.3614054       -0.4444277        0.2414681
  Li       -0.3971265       -0.4444277       -0.2414681
   N        0.0807353        0.3775425        0.4112456
   N        0.4919808        0.3775425       -0.4112456
   N        0.0396089       -0.2367120       -0.2479367
   N       -0.2083279       -0.2367120        0.2479367
   N        0.2050395       -0.2100571       -0.1173007
   N        0.0877389       -0.2100571        0.1173007
   N        0.0364619        0.4126350       -0.3702333
   N       -0.3337715        0.4126350        0.3702333
   N        0.3056443        0.3207819        0.1150575
   N        0.4207018        0.3207819       -0.1150575
   N        0.1529797       -0.1251166        0.4276549
   N       -0.4193654       -0.1251166       -0.4276549
%ENDBLOCK POSITIONS_FRAC

KPOINTS_MP_SPACING 0.07

%BLOCK SPECIES_POT
QC5
%ENDBLOCK SPECIES_POT

SNAP_TO_SYMMETRY
SYMMETRY_GENERATE

