#              Generated by Buildcell
#
# at 17:04:54 (GMT+1.0) 26th March 2023
# in /scratch/scratch/uccabz1/launch_tmp_michael
# on node-a14a-019
# by uccabz1
#
# compiler GCC version 4.9.2
# options -cpp -iprefix /scratch/UCL/applications/gcc/4.9.2/bin/../lib/gcc/x86_64-unknown-linux-gnu/4.9.2/ -mtune=corei7 -march=x86-64 -g -Og
#
# seed  -141062587   546492979 -1059269394 -1217992663   -83800929   470745143  2032658195 -1403496262  -539603768 -1607624047  -638097085 -2041457936
#
#      Author: C. J. Pickard (cjp20@cam.ac.uk)
#                Space group: Ccc2
#

%BLOCK LATTICE_ABC
      2.50000      7.01030      7.56160
    117.61618     90.00000     90.00000
%ENDBLOCK LATTICE_ABC

%BLOCK POSITIONS_FRAC
  Li        0.3362460        0.2186321       -0.2533947
  Li        0.3362460       -0.2186321        0.2533947
  Li       -0.1637540        0.4720267        0.2533947
  Li       -0.1637540       -0.4720267       -0.2533947
   N       -0.4153460        0.1912571        0.2617069
   N       -0.4153460       -0.1912571       -0.2617069
   N        0.0846540       -0.0704497       -0.2617069
   N        0.0846540        0.0704497        0.2617069
   N        0.2923737       -0.0869534       -0.4631495
   N        0.2923737        0.0869534        0.4631495
   N       -0.2076263        0.3761961        0.4631495
   N       -0.2076263       -0.3761961       -0.4631495
%ENDBLOCK POSITIONS_FRAC

KPOINTS_MP_SPACING 0.07

%BLOCK SPECIES_POT
QC5
%ENDBLOCK SPECIES_POT

SNAP_TO_SYMMETRY
SYMMETRY_GENERATE

