#              Generated by Buildcell
#
# at 15:21:05 (GMT+1.0) 26th March 2023
# in /scratch/scratch/uccabz1/launch_tmp_michael
# on node-a14a-001
# by uccabz1
#
# compiler GCC version 4.9.2
# options -cpp -iprefix /scratch/UCL/applications/gcc/4.9.2/bin/../lib/gcc/x86_64-unknown-linux-gnu/4.9.2/ -mtune=corei7 -march=x86-64 -g -Og
#
# seed   845485779   662926690  -453512537   -78075516    58605053   848904599  1638247647  1177337582  -113525499  -896011999  1180942236 -1320177910
#
#      Author: C. J. Pickard (cjp20@cam.ac.uk)
#                Space group: R3
#

%BLOCK LATTICE_ABC
      4.35629      4.35629      4.52373
     61.21701     61.21701     60.00000
%ENDBLOCK LATTICE_ABC

%BLOCK POSITIONS_FRAC
  Li        0.2439114        0.2439114        0.2682657
  Li        0.4655398        0.4655398       -0.3966194
   N        0.3614405        0.0160152       -0.1845317
   N        0.0160152       -0.1929240       -0.1845317
   N       -0.1929240        0.3614405       -0.1845317
   N       -0.3660249       -0.3660249        0.0980747
%ENDBLOCK POSITIONS_FRAC

KPOINTS_MP_SPACING 0.07

%BLOCK SPECIES_POT
QC5
%ENDBLOCK SPECIES_POT

SNAP_TO_SYMMETRY
SYMMETRY_GENERATE

