#              Generated by Buildcell
#
# at 18:08:42 (GMT+1.0) 26th March 2023
# in /scratch/scratch/uccabz1/launch_tmp_michael
# on node-a14e-007
# by uccabz1
#
# compiler GCC version 4.9.2
# options -cpp -iprefix /scratch/UCL/applications/gcc/4.9.2/bin/../lib/gcc/x86_64-unknown-linux-gnu/4.9.2/ -mtune=corei7 -march=x86-64 -g -Og
#
# seed  2093963131   240184644 -1279444794  1125443080 -1425128402  2128590625 -1919708149  1349549741  2123320702  -576844633  -921942706 -2055126525
#
#      Author: C. J. Pickard (cjp20@cam.ac.uk)
#                Space group: I41
#

%BLOCK LATTICE_ABC
      4.11378      7.03480      7.03480
     85.09577     72.99904     72.99904
%ENDBLOCK LATTICE_ABC

%BLOCK POSITIONS_FRAC
  Li        0.2343288       -0.1837152        0.3463333
  Li        0.3969469        0.1837152       -0.3463333
  Li       -0.1993864       -0.1536667       -0.3162848
  Li        0.3306621        0.1536667        0.3162848
  Li        0.3461827        0.0000000       -0.0000000
  Li        0.0961827       -0.5000000        0.5000000
   N       -0.0829166       -0.4652993       -0.1331238
   N        0.3186603        0.4652993        0.1331238
   N        0.2017841        0.3668762       -0.0347007
   N       -0.4660404       -0.3668762        0.0347007
   N       -0.2318488        0.0987930       -0.2221022
   N       -0.3551580       -0.0987930        0.2221022
   N       -0.3830558        0.2778978        0.4012070
   N        0.2960490       -0.2778978       -0.4012070
   N       -0.0639362        0.2631513       -0.3825212
   N       -0.1833061       -0.2631513        0.3825212
   N       -0.0507849        0.1174788        0.2368487
   N        0.3035426       -0.1174788       -0.2368487
%ENDBLOCK POSITIONS_FRAC

KPOINTS_MP_SPACING 0.07

%BLOCK SPECIES_POT
QC5
%ENDBLOCK SPECIES_POT

SNAP_TO_SYMMETRY
SYMMETRY_GENERATE

