#              Generated by Buildcell
#
# at 17:52:08 (GMT+1.0) 26th March 2023
# in /scratch/scratch/uccabz1/launch_tmp_michael
# on node-a14c-005
# by uccabz1
#
# compiler GCC version 4.9.2
# options -cpp -iprefix /scratch/UCL/applications/gcc/4.9.2/bin/../lib/gcc/x86_64-unknown-linux-gnu/4.9.2/ -mtune=corei7 -march=x86-64 -g -Og
#
# seed  -664673828 -1674791570 -1153938665 -1847153039   318422608  -126849966 -1606513269   968329598  1065613843 -1959207752   147219297   463224833
#
#      Author: C. J. Pickard (cjp20@cam.ac.uk)
#                Space group: P2
#

%BLOCK LATTICE_ABC
      2.50000      5.05834      7.18188
     90.00000     94.02607     90.00000
%ENDBLOCK LATTICE_ABC

%BLOCK POSITIONS_FRAC
  Li        0.3584626       -0.2823251        0.3257035
  Li       -0.3584626       -0.2823251       -0.3257035
  Li       -0.5000000       -0.4469957        0.0000000
   N       -0.2626991        0.2133469       -0.1139343
   N        0.2626991        0.2133469        0.1139343
   N        0.0252142        0.4368755       -0.2017248
   N       -0.0252142        0.4368755        0.2017248
   N        0.1245505        0.0752434        0.2943806
   N       -0.1245505        0.0752434       -0.2943806
%ENDBLOCK POSITIONS_FRAC

KPOINTS_MP_SPACING 0.07

%BLOCK SPECIES_POT
QC5
%ENDBLOCK SPECIES_POT

SNAP_TO_SYMMETRY
SYMMETRY_GENERATE

