#              Generated by Buildcell
#
# at 20:27:37 (GMT+1.0) 26th March 2023
# in /scratch/scratch/uccabz1/launch_tmp_michael
# on node-a14a-003
# by uccabz1
#
# compiler GCC version 4.9.2
# options -cpp -iprefix /scratch/UCL/applications/gcc/4.9.2/bin/../lib/gcc/x86_64-unknown-linux-gnu/4.9.2/ -mtune=corei7 -march=x86-64 -g -Og
#
# seed  2121817193   424728238   914052429   771501207   724705362  2105652502  1735198650  -829104349 -1279215019 -1544797908  -685741225  1861220585
#
#      Author: C. J. Pickard (cjp20@cam.ac.uk)
#                Space group: R3
#

%BLOCK LATTICE_ABC
      5.95765      5.95765      6.55835
     62.98632     62.98632     60.00000
%ENDBLOCK LATTICE_ABC

%BLOCK POSITIONS_FRAC
  Li        0.1385974       -0.3324633       -0.2968643
  Li       -0.3324633        0.4907301       -0.2968643
  Li        0.4907301        0.1385974       -0.2968643
  Li       -0.3346367       -0.0617395        0.2477998
  Li       -0.0617395        0.1485764        0.2477998
  Li        0.1485764       -0.3346367        0.2477998
   N       -0.0622698        0.3691661       -0.0717088
   N        0.3691661       -0.2351875       -0.0717088
   N       -0.2351875       -0.0622698       -0.0717088
   N       -0.2867935        0.3436177        0.4772499
   N        0.3436177        0.4659259        0.4772499
   N        0.4659259       -0.2867935        0.4772499
   N        0.2976645       -0.0307722        0.3115645
   N       -0.0307722        0.4215431        0.3115645
   N        0.4215431        0.2976645        0.3115645
   N       -0.2561989       -0.3949592        0.1981628
   N       -0.3949592        0.4529953        0.1981628
   N        0.4529953       -0.2561989        0.1981628
%ENDBLOCK POSITIONS_FRAC

KPOINTS_MP_SPACING 0.07

%BLOCK SPECIES_POT
QC5
%ENDBLOCK SPECIES_POT

SNAP_TO_SYMMETRY
SYMMETRY_GENERATE

