#              Generated by Buildcell
#
# at 15:55:39 (GMT+1.0) 26th March 2023
# in /scratch/scratch/uccabz1/launch_tmp_michael
# on node-a14e-021
# by uccabz1
#
# compiler GCC version 4.9.2
# options -cpp -iprefix /scratch/UCL/applications/gcc/4.9.2/bin/../lib/gcc/x86_64-unknown-linux-gnu/4.9.2/ -mtune=corei7 -march=x86-64 -g -Og
#
# seed  1436269279 -1146226610  -651131479  1902095156 -1518913031  2035182139  1674922916 -1860144029  -726567448  -890484001    -9380830   430983137
#
#      Author: C. J. Pickard (cjp20@cam.ac.uk)
#                Space group: P32
#

%BLOCK LATTICE_ABC
      4.02974      4.02974     12.96849
     90.00000     90.00000    120.00000
%ENDBLOCK LATTICE_ABC

%BLOCK POSITIONS_FRAC
  Li        0.1056290        0.0077476       -0.2069465
  Li       -0.0077476        0.0978813        0.1263868
  Li       -0.0978813       -0.1056290        0.4597201
  Li        0.3431007        0.1476544       -0.3887020
  Li       -0.1476544        0.1954463       -0.0553687
  Li       -0.1954463       -0.3431007        0.2779646
   N       -0.4068077        0.1532125        0.2067338
   N       -0.1532125        0.4399798       -0.4599328
   N       -0.4399798        0.4068077       -0.1265995
   N        0.3864007        0.3649834        0.3681897
   N       -0.3649834        0.0214173       -0.2984770
   N       -0.0214173       -0.3864007        0.0348564
   N       -0.2494453       -0.0016277       -0.4111232
   N        0.0016277       -0.2478176       -0.0777899
   N        0.2478176        0.2494453        0.2555435
   N        0.4946683        0.2139527        0.4706105
   N       -0.2139527        0.2807156       -0.1960562
   N       -0.2807156       -0.4946683        0.1372772
%ENDBLOCK POSITIONS_FRAC

KPOINTS_MP_SPACING 0.07

%BLOCK SPECIES_POT
QC5
%ENDBLOCK SPECIES_POT

SNAP_TO_SYMMETRY
SYMMETRY_GENERATE

