#              Generated by Buildcell
#
# at 15:43:34 (GMT+1.0) 26th March 2023
# in /scratch/scratch/uccabz1/launch_tmp_michael
# on node-a14c-005
# by uccabz1
#
# compiler GCC version 4.9.2
# options -cpp -iprefix /scratch/UCL/applications/gcc/4.9.2/bin/../lib/gcc/x86_64-unknown-linux-gnu/4.9.2/ -mtune=corei7 -march=x86-64 -g -Og
#
# seed  1042471431  -499002089 -1882366619   783475967 -1958933750  -620328267   751763151   104985089  2096846576   613742210  1544399193   212160588
#
#      Author: C. J. Pickard (cjp20@cam.ac.uk)
#                Space group: P3
#

%BLOCK LATTICE_ABC
      3.38361      5.54192      5.54192
    120.00000     90.00000     90.00000
%ENDBLOCK LATTICE_ABC

%BLOCK POSITIONS_FRAC
  Li        0.4155230       -0.1617542       -0.3669774
  Li        0.4155230        0.3669774        0.2052232
  Li        0.4155230       -0.2052232        0.1617542
   N       -0.1238681       -0.4746569       -0.4558520
   N       -0.1238681        0.4558520       -0.0188049
   N       -0.1238681        0.0188049        0.4746569
   N        0.0996649        0.1445813       -0.1139545
   N        0.0996649        0.1139545        0.2585358
   N        0.0996649       -0.2585358       -0.1445813
%ENDBLOCK POSITIONS_FRAC

KPOINTS_MP_SPACING 0.07

%BLOCK SPECIES_POT
QC5
%ENDBLOCK SPECIES_POT

SNAP_TO_SYMMETRY
SYMMETRY_GENERATE

