#              Generated by Buildcell
#
# at 16:08:18 (GMT+1.0) 26th March 2023
# in /scratch/scratch/uccabz1/launch_tmp_michael
# on node-a14f-035
# by uccabz1
#
# compiler GCC version 4.9.2
# options -cpp -iprefix /scratch/UCL/applications/gcc/4.9.2/bin/../lib/gcc/x86_64-unknown-linux-gnu/4.9.2/ -mtune=corei7 -march=x86-64 -g -Og
#
# seed  1926988960  1250907026 -1191181707 -1680699473  1568336457 -1551540355 -1113027919  1056406074   384851094   -76334556  -498442176 -1630197525
#
#      Author: C. J. Pickard (cjp20@cam.ac.uk)
#                Space group: Pnn2
#

%BLOCK LATTICE_ABC
      3.47964      5.19470     10.24368
     90.00000     90.00000     90.00000
%ENDBLOCK LATTICE_ABC

%BLOCK POSITIONS_FRAC
  Li       -0.1458999        0.2072880        0.0932486
  Li       -0.1458999       -0.2072880       -0.0932486
  Li        0.3541001        0.2927120       -0.4067514
  Li        0.3541001       -0.2927120        0.4067514
  Li        0.3540795        0.5000000        0.0000000
  Li       -0.1459205        0.0000000       -0.5000000
   N       -0.2434762        0.1525597       -0.0921740
   N       -0.2434762       -0.1525597        0.0921740
   N        0.2565238        0.3474403        0.4078260
   N        0.2565238       -0.3474403       -0.4078260
   N        0.2516221       -0.3963375       -0.1767731
   N        0.2516221        0.3963375        0.1767731
   N       -0.2483779       -0.1036625        0.3232269
   N       -0.2483779        0.1036625       -0.3232269
   N       -0.3166519        0.1596281        0.2677607
   N       -0.3166519       -0.1596281       -0.2677607
   N        0.1833481        0.3403719       -0.2322393
   N        0.1833481       -0.3403719        0.2322393
%ENDBLOCK POSITIONS_FRAC

KPOINTS_MP_SPACING 0.07

%BLOCK SPECIES_POT
QC5
%ENDBLOCK SPECIES_POT

SNAP_TO_SYMMETRY
SYMMETRY_GENERATE

