#              Generated by Buildcell
#
# at 15:57:16 (GMT+1.0) 26th March 2023
# in /scratch/scratch/uccabz1/launch_tmp_michael
# on node-a14c-005
# by uccabz1
#
# compiler GCC version 4.9.2
# options -cpp -iprefix /scratch/UCL/applications/gcc/4.9.2/bin/../lib/gcc/x86_64-unknown-linux-gnu/4.9.2/ -mtune=corei7 -march=x86-64 -g -Og
#
# seed -1704946973    41076501 -1966427458  -774528405 -1885629035  1315508212 -1237883158  -986218143  1682394543  1758100564  1003959798 -1037443200
#
#      Author: C. J. Pickard (cjp20@cam.ac.uk)
#                Space group: R3
#

%BLOCK LATTICE_ABC
      5.23789      5.23789      5.76645
     62.98852     62.98852     60.00000
%ENDBLOCK LATTICE_ABC

%BLOCK POSITIONS_FRAC
  Li       -0.1830613        0.2714554        0.2992682
  Li       -0.3876623       -0.1830613        0.2992682
  Li        0.2714554       -0.3876623        0.2992682
  Li        0.4283201        0.4283201       -0.2849603
   N        0.3345603       -0.2158810       -0.0909214
   N       -0.0277579        0.3345603       -0.0909214
   N       -0.2158810       -0.0277579       -0.0909214
   N        0.4435702        0.2551508        0.1873248
   N        0.1139542        0.4435702        0.1873248
   N        0.2551508        0.1139542        0.1873248
   N       -0.0520663       -0.0520663        0.1561988
   N        0.0977713        0.0977713       -0.2933139
%ENDBLOCK POSITIONS_FRAC

KPOINTS_MP_SPACING 0.07

%BLOCK SPECIES_POT
QC5
%ENDBLOCK SPECIES_POT

SNAP_TO_SYMMETRY
SYMMETRY_GENERATE

