#              Generated by Buildcell
#
# at 17:13:59 (GMT+1.0) 26th March 2023
# in /scratch/scratch/uccabz1/launch_tmp_michael
# on node-a14c-005
# by uccabz1
#
# compiler GCC version 4.9.2
# options -cpp -iprefix /scratch/UCL/applications/gcc/4.9.2/bin/../lib/gcc/x86_64-unknown-linux-gnu/4.9.2/ -mtune=corei7 -march=x86-64 -g -Og
#
# seed   577003175   569522071 -1509679047 -1030498127   838069764  1204535289 -1725939428  -761561692  -231335014  1913377073  1679747736  -129190794
#
#      Author: C. J. Pickard (cjp20@cam.ac.uk)
#                Space group: C222
#

%BLOCK LATTICE_ABC
      4.31059      4.31059      4.99974
     90.00000     90.00000    110.23562
%ENDBLOCK LATTICE_ABC

%BLOCK POSITIONS_FRAC
  Li        0.0000000        0.0000000       -0.2500002
  Li        0.0000000        0.0000000        0.2500002
  Li       -0.5000000        0.5000000        0.0000000
   N       -0.4153096        0.3009547       -0.3352859
   N        0.4153096       -0.3009547       -0.3352859
   N       -0.3009547        0.4153096        0.3352859
   N        0.3009547       -0.4153096        0.3352859
   N        0.2902358        0.2902358        0.5000000
   N       -0.2902358       -0.2902358       -0.5000000
%ENDBLOCK POSITIONS_FRAC

KPOINTS_MP_SPACING 0.07

%BLOCK SPECIES_POT
QC5
%ENDBLOCK SPECIES_POT

SNAP_TO_SYMMETRY
SYMMETRY_GENERATE

