#              Generated by Buildcell
#
# at 20:09:19 (GMT+1.0) 26th March 2023
# in /scratch/scratch/uccabz1/launch_tmp_michael
# on node-a14e-007
# by uccabz1
#
# compiler GCC version 4.9.2
# options -cpp -iprefix /scratch/UCL/applications/gcc/4.9.2/bin/../lib/gcc/x86_64-unknown-linux-gnu/4.9.2/ -mtune=corei7 -march=x86-64 -g -Og
#
# seed -1868296952  -561474444  2106741652  -662812466  -923198831 -1792566241   -49422109  -716222743 -1701754841  1524081873  1182537112  1427342390
#
#      Author: C. J. Pickard (cjp20@cam.ac.uk)
#                Space group: R3
#

%BLOCK LATTICE_ABC
      5.60768      5.60768      5.60768
     91.70175     91.70175     91.70175
%ENDBLOCK LATTICE_ABC

%BLOCK POSITIONS_FRAC
  Li        0.3802590        0.4583719        0.1160820
  Li        0.1160820        0.3802590        0.4583719
  Li        0.4583719        0.1160820        0.3802590
  Li        0.1995770       -0.1777461       -0.4120347
  Li       -0.4120347        0.1995770       -0.1777461
  Li       -0.1777461       -0.4120347        0.1995770
   N       -0.3315330       -0.1354451        0.3133795
   N        0.3133795       -0.3315330       -0.1354451
   N       -0.1354451        0.3133795       -0.3315330
   N       -0.1931831        0.4793655       -0.1255022
   N       -0.1255022       -0.1931831        0.4793655
   N        0.4793655       -0.1255022       -0.1931831
   N        0.0947314       -0.3795783        0.0078117
   N        0.0078117        0.0947314       -0.3795783
   N       -0.3795783        0.0078117        0.0947314
   N       -0.2773502        0.4620651        0.4963304
   N        0.4963304       -0.2773502        0.4620651
   N        0.4620651        0.4963304       -0.2773502
%ENDBLOCK POSITIONS_FRAC

KPOINTS_MP_SPACING 0.07

%BLOCK SPECIES_POT
QC5
%ENDBLOCK SPECIES_POT

SNAP_TO_SYMMETRY
SYMMETRY_GENERATE

