#              Generated by Buildcell
#
# at 17:53:38 (GMT+1.0) 26th March 2023
# in /scratch/scratch/uccabz1/launch_tmp_michael
# on node-a14e-021
# by uccabz1
#
# compiler GCC version 4.9.2
# options -cpp -iprefix /scratch/UCL/applications/gcc/4.9.2/bin/../lib/gcc/x86_64-unknown-linux-gnu/4.9.2/ -mtune=corei7 -march=x86-64 -g -Og
#
# seed -1714987269  -985851595 -1917825300  -790937616 -2031367248  -625109377  -289828808  1286403984   917388795   699079196  1495664435    82143384
#
#      Author: C. J. Pickard (cjp20@cam.ac.uk)
#                Space group: P-1
#

%BLOCK LATTICE_ABC
      4.44374      4.69132      4.76828
     77.09012     75.82802     88.45251
%ENDBLOCK LATTICE_ABC

%BLOCK POSITIONS_FRAC
  Li       -0.0020402        0.4177127       -0.2314468
  Li        0.0020402       -0.4177127        0.2314468
  Li        0.0000000        0.0000000       -0.5000000
   N       -0.1974208       -0.0526622        0.2031478
   N        0.1974208        0.0526622       -0.2031478
   N        0.2558784        0.3148724        0.0379859
   N       -0.2558784       -0.3148724       -0.0379859
   N       -0.3473638        0.3505850        0.2367962
   N        0.3473638       -0.3505850       -0.2367962
%ENDBLOCK POSITIONS_FRAC

KPOINTS_MP_SPACING 0.07

%BLOCK SPECIES_POT
QC5
%ENDBLOCK SPECIES_POT

SNAP_TO_SYMMETRY
SYMMETRY_GENERATE

