#              Generated by Buildcell
#
# at 18:48:34 (GMT+1.0) 26th March 2023
# in /scratch/scratch/uccabz1/launch_tmp_michael
# on node-a14e-007
# by uccabz1
#
# compiler GCC version 4.9.2
# options -cpp -iprefix /scratch/UCL/applications/gcc/4.9.2/bin/../lib/gcc/x86_64-unknown-linux-gnu/4.9.2/ -mtune=corei7 -march=x86-64 -g -Og
#
# seed -1127218159  1067521376  1771134582 -1372111398  -293868889 -2067860669  1572207432   660635953 -1497732084 -1565920110  -187734117 -1561353603
#
#      Author: C. J. Pickard (cjp20@cam.ac.uk)
#                Space group: Cmc21
#

%BLOCK LATTICE_ABC
      3.58303      4.99990      7.11222
    110.57914     90.00000     90.00000
%ENDBLOCK LATTICE_ABC

%BLOCK POSITIONS_FRAC
  Li        0.4696223        0.1845301       -0.1309398
  Li       -0.0303777       -0.1845301        0.1309398
  Li       -0.0303777        0.3154699        0.1309398
  Li        0.4696223       -0.3154699       -0.1309398
   N       -0.0303779        0.0697296       -0.2062993
   N        0.4696221       -0.0697296        0.2062993
   N        0.4696221        0.2760289        0.2062993
   N       -0.0303779       -0.2760289       -0.2062993
   N       -0.2726155        0.3852545        0.3831258
   N        0.2273845       -0.3852545       -0.3831258
   N        0.2273845        0.0021288       -0.3831258
   N       -0.2726155       -0.0021288        0.3831258
%ENDBLOCK POSITIONS_FRAC

KPOINTS_MP_SPACING 0.07

%BLOCK SPECIES_POT
QC5
%ENDBLOCK SPECIES_POT

SNAP_TO_SYMMETRY
SYMMETRY_GENERATE

