#              Generated by Buildcell
#
# at 20:00:49 (GMT+1.0) 26th March 2023
# in /scratch/scratch/uccabz1/launch_tmp_michael
# on node-a14c-005
# by uccabz1
#
# compiler GCC version 4.9.2
# options -cpp -iprefix /scratch/UCL/applications/gcc/4.9.2/bin/../lib/gcc/x86_64-unknown-linux-gnu/4.9.2/ -mtune=corei7 -march=x86-64 -g -Og
#
# seed   314693175   478534465  -755148118 -2016152738 -1318975947   739300142 -1819868056   976310192  -477510303   831053864 -1136819630  1310642698
#
#      Author: C. J. Pickard (cjp20@cam.ac.uk)
#                Space group: C2
#

%BLOCK LATTICE_ABC
      3.76008      6.30623      6.30623
    105.79152    107.00908    107.00908
%ENDBLOCK LATTICE_ABC

%BLOCK POSITIONS_FRAC
  Li       -0.3234514       -0.3074173       -0.0442860
  Li        0.3234514        0.0442860        0.3074173
  Li       -0.3681286        0.2924894        0.0788762
  Li        0.3681286       -0.0788762       -0.2924894
   N       -0.0405429        0.4865167       -0.0477797
   N        0.0405429        0.0477797       -0.4865167
   N        0.4173586       -0.2863628        0.4446202
   N       -0.4173586       -0.4446202        0.2863628
   N        0.2231064       -0.2917204        0.1807673
   N       -0.2231064       -0.1807673        0.2917204
   N       -0.3731408       -0.4008249       -0.3745141
   N        0.3731408        0.3745141        0.4008249
%ENDBLOCK POSITIONS_FRAC

KPOINTS_MP_SPACING 0.07

%BLOCK SPECIES_POT
QC5
%ENDBLOCK SPECIES_POT

SNAP_TO_SYMMETRY
SYMMETRY_GENERATE

