#              Generated by Buildcell
#
# at 15:30:33 (GMT+1.0) 26th March 2023
# in /scratch/scratch/uccabz1/launch_tmp_michael
# on node-a14a-019
# by uccabz1
#
# compiler GCC version 4.9.2
# options -cpp -iprefix /scratch/UCL/applications/gcc/4.9.2/bin/../lib/gcc/x86_64-unknown-linux-gnu/4.9.2/ -mtune=corei7 -march=x86-64 -g -Og
#
# seed -1953051333   780160169  1227563828  -389245832 -2091786061  -538680922   302216372  1762614131   467570825  -870069195 -1157772860   847492885
#
#      Author: C. J. Pickard (cjp20@cam.ac.uk)
#                Space group: P31
#

%BLOCK LATTICE_ABC
      4.53003      4.53003      5.27003
     90.00000     90.00000    120.00000
%ENDBLOCK LATTICE_ABC

%BLOCK POSITIONS_FRAC
  Li        0.2462120        0.4093235        0.3100811
  Li        0.1631116       -0.2462120       -0.3565855
  Li       -0.4093235       -0.1631116       -0.0232522
   N       -0.4131433        0.1347678        0.2289086
   N       -0.4520889        0.4131433       -0.4377581
   N       -0.1347678        0.4520889       -0.1044248
   N        0.0622539        0.2720057       -0.0574955
   N        0.2097519       -0.0622539        0.2758378
   N       -0.2720057       -0.2097519       -0.3908288
%ENDBLOCK POSITIONS_FRAC

KPOINTS_MP_SPACING 0.07

%BLOCK SPECIES_POT
QC5
%ENDBLOCK SPECIES_POT

SNAP_TO_SYMMETRY
SYMMETRY_GENERATE

