#              Generated by Buildcell
#
# at 15:26:35 (GMT+1.0) 26th March 2023
# in /scratch/scratch/uccabz1/launch_tmp_michael
# on node-a14f-035
# by uccabz1
#
# compiler GCC version 4.9.2
# options -cpp -iprefix /scratch/UCL/applications/gcc/4.9.2/bin/../lib/gcc/x86_64-unknown-linux-gnu/4.9.2/ -mtune=corei7 -march=x86-64 -g -Og
#
# seed   793219570  -314006523   443154093 -1236604219  2080841093   331530733 -1201399615  1156851892   729801681   306390764  2002264949  1925187317
#
#      Author: C. J. Pickard (cjp20@cam.ac.uk)
#                Space group: Cc
#

%BLOCK LATTICE_ABC
      3.13495      4.06140     15.46058
     90.02288     90.00000    112.70234
%ENDBLOCK LATTICE_ABC

%BLOCK POSITIONS_FRAC
  Li       -0.2928235        0.4315168        0.1128713
  Li       -0.2756597        0.4315168       -0.3871287
  Li        0.2674634        0.4973530       -0.0420872
  Li        0.2298895        0.4973530        0.4579128
  Li        0.0344017       -0.0524932        0.2707171
  Li       -0.0868950       -0.0524932       -0.2292829
   N       -0.2025788       -0.0840635       -0.0732791
   N        0.1185153       -0.0840635        0.4267209
   N       -0.4298758       -0.0375428        0.1551431
   N        0.3923330       -0.0375428       -0.3448569
   N       -0.2855581       -0.3721310        0.3706494
   N       -0.0865729       -0.3721310       -0.1293506
   N       -0.2948651        0.2556697       -0.1648951
   N       -0.4494651        0.2556697        0.3351049
   N        0.3918213        0.0178842       -0.4909721
   N       -0.3739371        0.0178842        0.0090279
   N       -0.1167885       -0.2585913       -0.4843699
   N       -0.1418028       -0.2585913        0.0156301
%ENDBLOCK POSITIONS_FRAC

KPOINTS_MP_SPACING 0.07

%BLOCK SPECIES_POT
QC5
%ENDBLOCK SPECIES_POT

SNAP_TO_SYMMETRY
SYMMETRY_GENERATE

