#              Generated by Buildcell
#
# at 17:09:28 (GMT+1.0) 26th March 2023
# in /scratch/scratch/uccabz1/launch_tmp_michael
# on node-a14a-019
# by uccabz1
#
# compiler GCC version 4.9.2
# options -cpp -iprefix /scratch/UCL/applications/gcc/4.9.2/bin/../lib/gcc/x86_64-unknown-linux-gnu/4.9.2/ -mtune=corei7 -march=x86-64 -g -Og
#
# seed  -467272565  -521165667   178340901  2069844172 -1688219978  -142350651 -2026544748  -366387912   460953812  -816731155   935578858  1817021341
#
#      Author: C. J. Pickard (cjp20@cam.ac.uk)
#                Space group: P3
#

%BLOCK LATTICE_ABC
      4.15293      5.69450      5.69450
    120.00000     90.00000     90.00000
%ENDBLOCK LATTICE_ABC

%BLOCK POSITIONS_FRAC
  Li       -0.4047170        0.1203727       -0.2476613
  Li       -0.4047170        0.2476613        0.3680340
  Li       -0.4047170       -0.3680340       -0.1203727
  Li        0.1905527        0.0000000       -0.0000000
   N       -0.3288850       -0.4887783        0.1412671
   N       -0.3288850       -0.1412671        0.3699546
   N       -0.3288850       -0.3699546        0.4887783
   N        0.3821294        0.4977495        0.2921834
   N        0.3821294       -0.2921834        0.2055662
   N        0.3821294       -0.2055662       -0.4977495
   N        0.3134881        0.3333333       -0.3333333
   N       -0.1291463        0.3333333       -0.3333333
%ENDBLOCK POSITIONS_FRAC

KPOINTS_MP_SPACING 0.07

%BLOCK SPECIES_POT
QC5
%ENDBLOCK SPECIES_POT

SNAP_TO_SYMMETRY
SYMMETRY_GENERATE

