#              Generated by Buildcell
#
# at 19:41:13 (GMT+1.0) 26th March 2023
# in /scratch/scratch/uccabz1/launch_tmp_michael
# on node-a14a-019
# by uccabz1
#
# compiler GCC version 4.9.2
# options -cpp -iprefix /scratch/UCL/applications/gcc/4.9.2/bin/../lib/gcc/x86_64-unknown-linux-gnu/4.9.2/ -mtune=corei7 -march=x86-64 -g -Og
#
# seed  1042040471  -325305548  -173237934   150919079 -1793749723  -985242076   618234913  -790583073 -2085331287  -763121489 -2075026614  -795015435
#
#      Author: C. J. Pickard (cjp20@cam.ac.uk)
#                Space group: P42
#

%BLOCK LATTICE_ABC
      3.23634      3.23634      5.86815
     90.00000     90.00000     90.00000
%ENDBLOCK LATTICE_ABC

%BLOCK POSITIONS_FRAC
  Li       -0.0000000       -0.0000000       -0.0618575
  Li        0.0000000        0.0000000        0.4381425
   N        0.2291393        0.4618410        0.2832625
   N       -0.2291393       -0.4618410        0.2832625
   N       -0.4618410        0.2291393       -0.2167375
   N        0.4618410       -0.2291393       -0.2167375
%ENDBLOCK POSITIONS_FRAC

KPOINTS_MP_SPACING 0.07

%BLOCK SPECIES_POT
QC5
%ENDBLOCK SPECIES_POT

SNAP_TO_SYMMETRY
SYMMETRY_GENERATE

