#              Generated by Buildcell
#
# at 17:36:59 (GMT+1.0) 26th March 2023
# in /scratch/scratch/uccabz1/launch_tmp_michael
# on node-a14e-007
# by uccabz1
#
# compiler GCC version 4.9.2
# options -cpp -iprefix /scratch/UCL/applications/gcc/4.9.2/bin/../lib/gcc/x86_64-unknown-linux-gnu/4.9.2/ -mtune=corei7 -march=x86-64 -g -Og
#
# seed    52678914 -2114001226   204105898  -612763274   583076529  1208321157  1615471497 -1941800794   394486209  1610061948   888458610  1288691551
#
#      Author: C. J. Pickard (cjp20@cam.ac.uk)
#                Space group: F222
#

%BLOCK LATTICE_ABC
      4.89423      4.89423      4.97121
    112.16221    112.16221    103.51346
%ENDBLOCK LATTICE_ABC

%BLOCK POSITIONS_FRAC
  Li       -0.3251923        0.3251923        0.0000000
  Li        0.3251923       -0.3251923       -0.0000000
  Li        0.0000000       -0.0000000        0.0000000
   N        0.4265785       -0.2594642        0.4346201
   N        0.0080416       -0.3059157        0.4346201
   N        0.2594642       -0.4265785       -0.4346201
   N        0.3059157       -0.0080416       -0.4346201
   N       -0.3296140       -0.3296140        0.3407719
   N        0.3296140        0.3296140       -0.3407719
%ENDBLOCK POSITIONS_FRAC

KPOINTS_MP_SPACING 0.07

%BLOCK SPECIES_POT
QC5
%ENDBLOCK SPECIES_POT

SNAP_TO_SYMMETRY
SYMMETRY_GENERATE

