#              Generated by Buildcell
#
# at 18:04:26 (GMT+1.0) 26th March 2023
# in /scratch/scratch/uccabz1/launch_tmp_michael
# on node-a14f-035
# by uccabz1
#
# compiler GCC version 4.9.2
# options -cpp -iprefix /scratch/UCL/applications/gcc/4.9.2/bin/../lib/gcc/x86_64-unknown-linux-gnu/4.9.2/ -mtune=corei7 -march=x86-64 -g -Og
#
# seed -1588567125  -597981340   434959747  1365413797   243710405 -1477400873   800063881  1786859691 -1702877229   756417492  1959748855  1873215612
#
#      Author: C. J. Pickard (cjp20@cam.ac.uk)
#                Space group: P3
#

%BLOCK LATTICE_ABC
      3.93040      3.93040      4.35997
     90.00000     90.00000    120.00000
%ENDBLOCK LATTICE_ABC

%BLOCK POSITIONS_FRAC
  Li       -0.3333333        0.3333333       -0.1249785
  Li        0.0000000        0.0000000        0.1156481
   N        0.4380738        0.4528287        0.4008922
   N       -0.4528287       -0.0147550        0.4008922
   N        0.0147550       -0.4380738        0.4008922
   N        0.3333333       -0.3333333       -0.1063495
%ENDBLOCK POSITIONS_FRAC

KPOINTS_MP_SPACING 0.07

%BLOCK SPECIES_POT
QC5
%ENDBLOCK SPECIES_POT

SNAP_TO_SYMMETRY
SYMMETRY_GENERATE

