#              Generated by Buildcell
#
# at 17:01:43 (GMT+1.0) 26th March 2023
# in /scratch/scratch/uccabz1/launch_tmp_michael
# on node-a14b-031
# by uccabz1
#
# compiler GCC version 4.9.2
# options -cpp -iprefix /scratch/UCL/applications/gcc/4.9.2/bin/../lib/gcc/x86_64-unknown-linux-gnu/4.9.2/ -mtune=corei7 -march=x86-64 -g -Og
#
# seed -1498677793    18399406   831685267  -251887137   537587479 -1715866985  1263404080  1029900174  1480312571  1305877622  1972561053   208343948
#
#      Author: C. J. Pickard (cjp20@cam.ac.uk)
#                Space group: P3
#

%BLOCK LATTICE_ABC
      3.75221      3.75221      4.71805
     90.00000     90.00000    120.00000
%ENDBLOCK LATTICE_ABC

%BLOCK POSITIONS_FRAC
  Li       -0.0000000        0.0000000       -0.0048671
  Li        0.3333333       -0.3333333        0.2596069
   N        0.0823970       -0.3801394       -0.2209064
   N        0.3801394        0.4625364       -0.2209064
   N       -0.4625364       -0.0823970       -0.2209064
   N       -0.0000000       -0.0000000        0.4025637
%ENDBLOCK POSITIONS_FRAC

KPOINTS_MP_SPACING 0.07

%BLOCK SPECIES_POT
QC5
%ENDBLOCK SPECIES_POT

SNAP_TO_SYMMETRY
SYMMETRY_GENERATE

