#              Generated by Buildcell
#
# at 16:24:12 (GMT+1.0) 26th March 2023
# in /scratch/scratch/uccabz1/launch_tmp_michael
# on node-a14e-021
# by uccabz1
#
# compiler GCC version 4.9.2
# options -cpp -iprefix /scratch/UCL/applications/gcc/4.9.2/bin/../lib/gcc/x86_64-unknown-linux-gnu/4.9.2/ -mtune=corei7 -march=x86-64 -g -Og
#
# seed  1530822831   221923845 -1101135674   720918417   453912266 -1658204729  2086124820  -593194234   557001742   108453535  -484354056 -1993313114
#
#      Author: C. J. Pickard (cjp20@cam.ac.uk)
#                Space group: P21
#

%BLOCK LATTICE_ABC
      3.89425      6.98593      7.16157
     90.00000    105.31476     90.00000
%ENDBLOCK LATTICE_ABC

%BLOCK POSITIONS_FRAC
  Li       -0.2401227        0.0076718        0.1677502
  Li        0.2401227       -0.4923282       -0.1677502
  Li       -0.1675175       -0.2011791        0.4591998
  Li        0.1675175        0.2988209       -0.4591998
  Li        0.2384399       -0.0106024       -0.2776276
  Li       -0.2384399        0.4893976        0.2776276
   N       -0.3736572        0.1927033       -0.3512807
   N        0.3736572       -0.3072967        0.3512807
   N       -0.3146569        0.3665201       -0.2234627
   N        0.3146569       -0.1334799        0.2234627
   N       -0.2086446        0.0564141       -0.4643535
   N        0.2086446       -0.4435859        0.4643535
   N        0.1768587        0.2355606       -0.1289629
   N       -0.1768587       -0.2644394        0.1289629
   N       -0.3806487       -0.4612971       -0.3532008
   N        0.3806487        0.0387029        0.3532008
   N       -0.2605241       -0.0488245       -0.0948548
   N        0.2605241        0.4511755        0.0948548
%ENDBLOCK POSITIONS_FRAC

KPOINTS_MP_SPACING 0.07

%BLOCK SPECIES_POT
QC5
%ENDBLOCK SPECIES_POT

SNAP_TO_SYMMETRY
SYMMETRY_GENERATE

