#              Generated by Buildcell
#
# at 14:56:21 (GMT+1.0) 26th March 2023
# in /scratch/scratch/uccabz1/launch_tmp_michael
# on node-a14f-035
# by uccabz1
#
# compiler GCC version 4.9.2
# options -cpp -iprefix /scratch/UCL/applications/gcc/4.9.2/bin/../lib/gcc/x86_64-unknown-linux-gnu/4.9.2/ -mtune=corei7 -march=x86-64 -g -Og
#
# seed  -953893101 -1566436193  1133360002 -1583190152  1406409621  1608953902  1969828290  -935377067  -494292842    43327023   324144013  -981508407
#
#      Author: C. J. Pickard (cjp20@cam.ac.uk)
#                Space group: P21
#

%BLOCK LATTICE_ABC
      2.50000      4.88336      5.47971
    112.18884     90.00000     90.00000
%ENDBLOCK LATTICE_ABC

%BLOCK POSITIONS_FRAC
  Li        0.1515181       -0.2871406        0.4455939
  Li       -0.3484819        0.2871406       -0.4455939
   N       -0.1048145        0.2416841       -0.1323408
   N        0.3951855       -0.2416841        0.1323408
   N       -0.3486122       -0.0487587       -0.3023059
   N        0.1513878        0.0487587        0.3023059
%ENDBLOCK POSITIONS_FRAC

KPOINTS_MP_SPACING 0.07

%BLOCK SPECIES_POT
QC5
%ENDBLOCK SPECIES_POT

SNAP_TO_SYMMETRY
SYMMETRY_GENERATE

