#              Generated by Buildcell
#
# at 15:22:37 (GMT+1.0) 26th March 2023
# in /scratch/scratch/uccabz1/launch_tmp_michael
# on node-a14f-035
# by uccabz1
#
# compiler GCC version 4.9.2
# options -cpp -iprefix /scratch/UCL/applications/gcc/4.9.2/bin/../lib/gcc/x86_64-unknown-linux-gnu/4.9.2/ -mtune=corei7 -march=x86-64 -g -Og
#
# seed   906602232   677556683   626821845  1775025215   449816967   288247365  1266748537 -1982164074   723638030   -50991497  1810252889 -2139395518
#
#      Author: C. J. Pickard (cjp20@cam.ac.uk)
#                Space group: R3
#

%BLOCK LATTICE_ABC
      6.17545      6.17545      6.44531
     61.37561     61.37561     60.00000
%ENDBLOCK LATTICE_ABC

%BLOCK POSITIONS_FRAC
  Li       -0.1787070       -0.2172970        0.1578823
  Li        0.2381218       -0.1787070        0.1578823
  Li       -0.2172970        0.2381218        0.1578823
  Li        0.3574257       -0.1046605       -0.4403534
  Li        0.1875882        0.3574257       -0.4403534
  Li       -0.1046605        0.1875882       -0.4403534
   N       -0.3116918       -0.0164599       -0.1732263
   N       -0.4986221       -0.3116918       -0.1732263
   N       -0.0164599       -0.4986221       -0.1732263
   N       -0.0347981       -0.3117416        0.4047927
   N       -0.0582531       -0.0347981        0.4047927
   N       -0.3117416       -0.0582531        0.4047927
   N       -0.4764759        0.3918413        0.4124210
   N       -0.3277864       -0.4764759        0.4124210
   N        0.3918413       -0.3277864        0.4124210
   N        0.2772804        0.0277573       -0.1877550
   N       -0.1172827        0.2772804       -0.1877550
   N        0.0277573       -0.1172827       -0.1877550
%ENDBLOCK POSITIONS_FRAC

KPOINTS_MP_SPACING 0.07

%BLOCK SPECIES_POT
QC5
%ENDBLOCK SPECIES_POT

SNAP_TO_SYMMETRY
SYMMETRY_GENERATE

