#              Generated by Buildcell
#
# at 19:09:09 (GMT+1.0) 26th March 2023
# in /scratch/scratch/uccabz1/launch_tmp_michael
# on node-a14e-007
# by uccabz1
#
# compiler GCC version 4.9.2
# options -cpp -iprefix /scratch/UCL/applications/gcc/4.9.2/bin/../lib/gcc/x86_64-unknown-linux-gnu/4.9.2/ -mtune=corei7 -march=x86-64 -g -Og
#
# seed  1013381200  1226909889     8059376   365127954  -231344523 -1118751441 -1477968184  -164514706  -478486287 -1764484897  -705299710   336575834
#
#      Author: C. J. Pickard (cjp20@cam.ac.uk)
#                Space group: R3
#

%BLOCK LATTICE_ABC
      5.31075      5.31075      5.31075
     68.94311     68.94311     68.94311
%ENDBLOCK LATTICE_ABC

%BLOCK POSITIONS_FRAC
  Li       -0.1489001        0.4131273        0.3677014
  Li        0.4131273        0.3677014       -0.1489001
  Li        0.3677014       -0.1489001        0.4131273
  Li       -0.2970404       -0.2970404       -0.2970404
   N       -0.0835582        0.0239020        0.4203206
   N        0.0239020        0.4203206       -0.0835582
   N        0.4203206       -0.0835582        0.0239020
   N       -0.3522149        0.0073125        0.1094541
   N        0.0073125        0.1094541       -0.3522149
   N        0.1094541       -0.3522149        0.0073125
   N        0.3265143        0.3265143        0.3265143
   N       -0.1393526       -0.1393526       -0.1393526
%ENDBLOCK POSITIONS_FRAC

KPOINTS_MP_SPACING 0.07

%BLOCK SPECIES_POT
QC5
%ENDBLOCK SPECIES_POT

SNAP_TO_SYMMETRY
SYMMETRY_GENERATE

