#              Generated by Buildcell
#
# at 16:09:01 (GMT+1.0) 26th March 2023
# in /scratch/scratch/uccabz1/launch_tmp_michael
# on node-a14c-005
# by uccabz1
#
# compiler GCC version 4.9.2
# options -cpp -iprefix /scratch/UCL/applications/gcc/4.9.2/bin/../lib/gcc/x86_64-unknown-linux-gnu/4.9.2/ -mtune=corei7 -march=x86-64 -g -Og
#
# seed   892069506  -546824907   781376690  1510739654  1555936125   -45164034 -1024895301 -1580861489 -1086845396  -298827156 -2099833761  1432137968
#
#      Author: C. J. Pickard (cjp20@cam.ac.uk)
#                Space group: Cm
#

%BLOCK LATTICE_ABC
      5.72120      5.72120      6.34032
     91.79464     91.79464    114.60270
%ENDBLOCK LATTICE_ABC

%BLOCK POSITIONS_FRAC
  Li        0.1308357       -0.1371513        0.4693155
  Li       -0.1371513        0.1308357        0.4693155
  Li       -0.2522091        0.4815257       -0.3926516
  Li        0.4815257       -0.2522091       -0.3926516
  Li       -0.3731500        0.3542136       -0.0168095
  Li        0.3542136       -0.3731500       -0.0168095
   N        0.0431296       -0.1828455        0.0154451
   N       -0.1828455        0.0431296        0.0154451
   N        0.4060991        0.2288342        0.2463647
   N        0.2288342        0.4060991        0.2463647
   N        0.0980783        0.4837833        0.4243603
   N        0.4837833        0.0980783        0.4243603
   N       -0.3074086        0.2598342        0.2738287
   N        0.2598342       -0.3074086        0.2738287
   N       -0.0370525       -0.1938890       -0.2375812
   N       -0.1938890       -0.0370525       -0.2375812
   N        0.4109289        0.0381506       -0.2980306
   N        0.0381506        0.4109289       -0.2980306
%ENDBLOCK POSITIONS_FRAC

KPOINTS_MP_SPACING 0.07

%BLOCK SPECIES_POT
QC5
%ENDBLOCK SPECIES_POT

SNAP_TO_SYMMETRY
SYMMETRY_GENERATE

