#              Generated by Buildcell
#
# at 20:24:34 (GMT+1.0) 26th March 2023
# in /scratch/scratch/uccabz1/launch_tmp_michael
# on node-a14e-007
# by uccabz1
#
# compiler GCC version 4.9.2
# options -cpp -iprefix /scratch/UCL/applications/gcc/4.9.2/bin/../lib/gcc/x86_64-unknown-linux-gnu/4.9.2/ -mtune=corei7 -march=x86-64 -g -Og
#
# seed  1266910109 -1437544765   408987119  -325723125 -1450384554 -2110626323  1406674514  2027624485  -323796234  1377948928 -1928570231  2019166277
#
#      Author: C. J. Pickard (cjp20@cam.ac.uk)
#                Space group: Cc
#

%BLOCK LATTICE_ABC
      5.66371      6.09766      6.09766
    103.23706    104.57447    104.57447
%ENDBLOCK LATTICE_ABC

%BLOCK POSITIONS_FRAC
  Li        0.2214771        0.0105471       -0.3165874
  Li       -0.2785229       -0.3165874        0.0105471
  Li        0.4742527       -0.2499682       -0.4368200
  Li       -0.0257473       -0.4368200       -0.2499682
  Li       -0.1449677        0.0367630        0.3726370
  Li        0.3550323        0.3726370        0.0367630
   N       -0.2942110        0.1608682        0.1340937
   N        0.2057890        0.1340937        0.1608682
   N        0.2325282        0.2595547       -0.4811098
   N       -0.2674718       -0.4811098        0.2595547
   N        0.2434306       -0.4321003        0.2512946
   N       -0.2565694        0.2512946       -0.4321003
   N       -0.2194087        0.0594330       -0.3236785
   N        0.2805913       -0.3236785        0.0594330
   N        0.4789164        0.4660751       -0.3596508
   N       -0.0210836       -0.3596508        0.4660751
   N        0.4764974        0.3374895        0.3426666
   N       -0.0235026        0.3426666        0.3374895
%ENDBLOCK POSITIONS_FRAC

KPOINTS_MP_SPACING 0.07

%BLOCK SPECIES_POT
QC5
%ENDBLOCK SPECIES_POT

SNAP_TO_SYMMETRY
SYMMETRY_GENERATE

