#              Generated by Buildcell
#
# at 17:38:39 (GMT+1.0) 26th March 2023
# in /scratch/scratch/uccabz1/launch_tmp_michael
# on node-a14e-021
# by uccabz1
#
# compiler GCC version 4.9.2
# options -cpp -iprefix /scratch/UCL/applications/gcc/4.9.2/bin/../lib/gcc/x86_64-unknown-linux-gnu/4.9.2/ -mtune=corei7 -march=x86-64 -g -Og
#
# seed -1204013278 -1126176746 -1789769886  1793852367  -164283303   402095312 -1646982373  1015515241   158310359 -1092270576 -2057265217    22506484
#
#      Author: C. J. Pickard (cjp20@cam.ac.uk)
#                Space group: Pma2
#

%BLOCK LATTICE_ABC
      2.67619      4.18870      5.51942
     90.00000     90.00000     90.00000
%ENDBLOCK LATTICE_ABC

%BLOCK POSITIONS_FRAC
  Li        0.5000000       -0.1168030        0.0000000
  Li        0.5000000       -0.1168030        0.5000000
   N       -0.1689036        0.2837517       -0.1084317
   N        0.1689036        0.2837517        0.1084317
   N        0.1689036        0.2837517        0.3915683
   N       -0.1689036        0.2837517       -0.3915683
%ENDBLOCK POSITIONS_FRAC

KPOINTS_MP_SPACING 0.07

%BLOCK SPECIES_POT
QC5
%ENDBLOCK SPECIES_POT

SNAP_TO_SYMMETRY
SYMMETRY_GENERATE

