#              Generated by Buildcell
#
# at 20:17:03 (GMT+1.0) 26th March 2023
# in /scratch/scratch/uccabz1/launch_tmp_michael
# on node-a14e-021
# by uccabz1
#
# compiler GCC version 4.9.2
# options -cpp -iprefix /scratch/UCL/applications/gcc/4.9.2/bin/../lib/gcc/x86_64-unknown-linux-gnu/4.9.2/ -mtune=corei7 -march=x86-64 -g -Og
#
# seed  1676791908  1822903775 -1417668205  -362809420   693002823  1533151878   640647685   722626980 -1389910358 -1733073790 -1151242718   117391325
#
#      Author: C. J. Pickard (cjp20@cam.ac.uk)
#                Space group: R3
#

%BLOCK LATTICE_ABC
      4.41830      4.41830      4.50537
     60.63725     60.63725     60.00000
%ENDBLOCK LATTICE_ABC

%BLOCK POSITIONS_FRAC
  Li        0.1644196        0.1644196       -0.4932587
  Li       -0.4037810       -0.4037810        0.2113431
   N        0.4065468        0.0456064       -0.1541628
   N        0.0456064       -0.2979905       -0.1541628
   N       -0.2979905        0.4065468       -0.1541628
   N        0.3430536        0.3430536       -0.0291608
%ENDBLOCK POSITIONS_FRAC

KPOINTS_MP_SPACING 0.07

%BLOCK SPECIES_POT
QC5
%ENDBLOCK SPECIES_POT

SNAP_TO_SYMMETRY
SYMMETRY_GENERATE

