#              Generated by Buildcell
#
# at 17:13:11 (GMT+1.0) 26th March 2023
# in /scratch/scratch/uccabz1/launch_tmp_michael
# on node-a14c-005
# by uccabz1
#
# compiler GCC version 4.9.2
# options -cpp -iprefix /scratch/UCL/applications/gcc/4.9.2/bin/../lib/gcc/x86_64-unknown-linux-gnu/4.9.2/ -mtune=corei7 -march=x86-64 -g -Og
#
# seed  -489330368  -454868356  1549108506  -992102827    91877725  1672230079  -980822778  1344768020   142640907   160356249 -1442549761   -59654482
#
#      Author: C. J. Pickard (cjp20@cam.ac.uk)
#                Space group: I4
#

%BLOCK LATTICE_ABC
      4.29589      4.29589      4.29589
    108.81676    109.79944    109.79944
%ENDBLOCK LATTICE_ABC

%BLOCK POSITIONS_FRAC
  Li        0.5000000        0.2109653       -0.2890347
  Li        0.5000000        0.7109653        0.2109653
   N        0.2698091        0.1712514        0.0320051
   N       -0.2698091       -0.2378040       -0.0985577
   N       -0.1392463        0.0320051       -0.2378040
   N        0.1392463       -0.0985577        0.1712514
%ENDBLOCK POSITIONS_FRAC

KPOINTS_MP_SPACING 0.07

%BLOCK SPECIES_POT
QC5
%ENDBLOCK SPECIES_POT

SNAP_TO_SYMMETRY
SYMMETRY_GENERATE

