#              Generated by Buildcell
#
# at 18:20:33 (GMT+1.0) 26th March 2023
# in /scratch/scratch/uccabz1/launch_tmp_michael
# on node-a14b-031
# by uccabz1
#
# compiler GCC version 4.9.2
# options -cpp -iprefix /scratch/UCL/applications/gcc/4.9.2/bin/../lib/gcc/x86_64-unknown-linux-gnu/4.9.2/ -mtune=corei7 -march=x86-64 -g -Og
#
# seed -1567546435   -63453166  1606324964  1051465439  -840618384  1488886156  1045022289   338119959 -1790121405   406936538  1369914964   317385885
#
#      Author: C. J. Pickard (cjp20@cam.ac.uk)
#                Space group: C2
#

%BLOCK LATTICE_ABC
      3.50911      3.50911      8.10103
     92.34288    101.40315    116.69210
%ENDBLOCK LATTICE_ABC

%BLOCK POSITIONS_FRAC
  Li        0.1710565       -0.3732247       -0.2153907
  Li       -0.1578340        0.3864472        0.2153907
  Li       -0.1138360       -0.1138360        0.0000000
   N       -0.3467242        0.1928015       -0.1385932
   N        0.3313948       -0.2081310        0.1385932
   N       -0.1451877        0.0340408       -0.3107298
   N        0.3447707        0.1655422        0.3107298
   N        0.1661371        0.3892992       -0.4315940
   N       -0.1791068       -0.4022689        0.4315940
%ENDBLOCK POSITIONS_FRAC

KPOINTS_MP_SPACING 0.07

%BLOCK SPECIES_POT
QC5
%ENDBLOCK SPECIES_POT

SNAP_TO_SYMMETRY
SYMMETRY_GENERATE

