#              Generated by Buildcell
#
# at 16:42:29 (GMT+1.0) 26th March 2023
# in /scratch/scratch/uccabz1/launch_tmp_michael
# on node-a14e-007
# by uccabz1
#
# compiler GCC version 4.9.2
# options -cpp -iprefix /scratch/UCL/applications/gcc/4.9.2/bin/../lib/gcc/x86_64-unknown-linux-gnu/4.9.2/ -mtune=corei7 -march=x86-64 -g -Og
#
# seed  1227539603   714633724 -1365426867 -1525028385   735206916 -1047289437   -28347301 -1583018970    24206003 -1832396791 -1713263794   934417410
#
#      Author: C. J. Pickard (cjp20@cam.ac.uk)
#                Space group: P3
#

%BLOCK LATTICE_ABC
      2.67675      2.67675      9.40465
     90.00000     90.00000    120.00000
%ENDBLOCK LATTICE_ABC

%BLOCK POSITIONS_FRAC
  Li        0.0000000        0.0000000        0.3295643
  Li        0.3333333       -0.3333333       -0.2252108
   N        0.0186663        0.3349337        0.1455699
   N        0.3162674       -0.0186663        0.1455699
   N       -0.3349337       -0.3162674        0.1455699
   N        0.3333333       -0.3333333        0.4471199
%ENDBLOCK POSITIONS_FRAC

KPOINTS_MP_SPACING 0.07

%BLOCK SPECIES_POT
QC5
%ENDBLOCK SPECIES_POT

SNAP_TO_SYMMETRY
SYMMETRY_GENERATE

