#              Generated by Buildcell
#
# at 19:58:19 (GMT+1.0) 26th March 2023
# in /scratch/scratch/uccabz1/launch_tmp_michael
# on node-a14f-035
# by uccabz1
#
# compiler GCC version 4.9.2
# options -cpp -iprefix /scratch/UCL/applications/gcc/4.9.2/bin/../lib/gcc/x86_64-unknown-linux-gnu/4.9.2/ -mtune=corei7 -march=x86-64 -g -Og
#
# seed -1485895059 -1898980153  1904722551 -1059602835  1181773599 -1063093673 -1578800223   875963592  -511579278  1861341286 -2059268326   952393827
#
#      Author: C. J. Pickard (cjp20@cam.ac.uk)
#                Space group: R3
#

%BLOCK LATTICE_ABC
      5.44454      5.44454      5.44454
     60.13045     60.13045     60.13045
%ENDBLOCK LATTICE_ABC

%BLOCK POSITIONS_FRAC
  Li        0.2542835       -0.3955168        0.0629191
  Li       -0.3955168        0.0629191        0.2542835
  Li        0.0629191        0.2542835       -0.3955168
  Li       -0.1546317       -0.1546317       -0.1546317
   N        0.2694796       -0.2984684        0.4170178
   N       -0.2984684        0.4170178        0.2694796
   N        0.4170178        0.2694796       -0.2984684
   N        0.3692449       -0.4080429       -0.3234286
   N       -0.4080429       -0.3234286        0.3692449
   N       -0.3234286        0.3692449       -0.4080429
   N       -0.2972435       -0.2972435       -0.2972435
   N        0.3949312        0.3949312        0.3949312
%ENDBLOCK POSITIONS_FRAC

KPOINTS_MP_SPACING 0.07

%BLOCK SPECIES_POT
QC5
%ENDBLOCK SPECIES_POT

SNAP_TO_SYMMETRY
SYMMETRY_GENERATE

