#              Generated by Buildcell
#
# at 17:08:59 (GMT+1.0) 26th March 2023
# in /scratch/scratch/uccabz1/launch_tmp_michael
# on node-a14b-022
# by uccabz1
#
# compiler GCC version 4.9.2
# options -cpp -iprefix /scratch/UCL/applications/gcc/4.9.2/bin/../lib/gcc/x86_64-unknown-linux-gnu/4.9.2/ -mtune=corei7 -march=x86-64 -g -Og
#
# seed  1895560658   776031831     9745460 -1514014183 -1922293711 -1147028689  -502176927  1498710033  1079553028 -1231959696  -639772010 -1234022178
#
#      Author: C. J. Pickard (cjp20@cam.ac.uk)
#                Space group: Pca21
#

%BLOCK LATTICE_ABC
      2.50000      5.88887      8.13210
     90.00000     90.00000     90.00000
%ENDBLOCK LATTICE_ABC

%BLOCK POSITIONS_FRAC
  Li       -0.1314416        0.0632290       -0.3306917
  Li        0.3685584       -0.0632290        0.3306917
  Li       -0.1314416       -0.4367710        0.3306917
  Li        0.3685584        0.4367710       -0.3306917
   N       -0.4128395        0.3204245        0.4580791
   N        0.0871605       -0.3204245       -0.4580791
   N       -0.4128395       -0.1795755       -0.4580791
   N        0.0871605        0.1795755        0.4580791
   N        0.0724032       -0.3215877        0.0192087
   N       -0.4275968        0.3215877       -0.0192087
   N        0.0724032        0.1784123       -0.0192087
   N       -0.4275968       -0.1784123        0.0192087
%ENDBLOCK POSITIONS_FRAC

KPOINTS_MP_SPACING 0.07

%BLOCK SPECIES_POT
QC5
%ENDBLOCK SPECIES_POT

SNAP_TO_SYMMETRY
SYMMETRY_GENERATE

