#              Generated by Buildcell
#
# at 15:24:20 (GMT+1.0) 26th March 2023
# in /scratch/scratch/uccabz1/launch_tmp_michael
# on node-a14e-007
# by uccabz1
#
# compiler GCC version 4.9.2
# options -cpp -iprefix /scratch/UCL/applications/gcc/4.9.2/bin/../lib/gcc/x86_64-unknown-linux-gnu/4.9.2/ -mtune=corei7 -march=x86-64 -g -Og
#
# seed  1830368558   650883037   366531528  1174264677 -1305399592 -1894515968 -1038495905  -392743247   706475804 -1643388003  1495196649   463139583
#
#      Author: C. J. Pickard (cjp20@cam.ac.uk)
#                Space group: F222
#

%BLOCK LATTICE_ABC
      4.86475      4.86475      5.14980
    116.49181    116.49181     93.18636
%ENDBLOCK LATTICE_ABC

%BLOCK POSITIONS_FRAC
  Li       -0.4098931        0.0901069        0.1802138
  Li       -0.0901069        0.4098931       -0.1802138
  Li        0.2500000       -0.2500000        0.5000000
   N       -0.4890536        0.4923556        0.3553211
   N       -0.1556253       -0.1370345        0.3553211
   N       -0.4923556        0.4890536       -0.3553211
   N        0.1370345        0.1556253       -0.3553211
   N       -0.1122211       -0.1122211        0.0000000
   N        0.1122211        0.1122211        0.0000000
%ENDBLOCK POSITIONS_FRAC

KPOINTS_MP_SPACING 0.07

%BLOCK SPECIES_POT
QC5
%ENDBLOCK SPECIES_POT

SNAP_TO_SYMMETRY
SYMMETRY_GENERATE

