#              Generated by Buildcell
#
# at 15:26:39 (GMT+1.0) 26th March 2023
# in /scratch/scratch/uccabz1/launch_tmp_michael
# on node-a14a-001
# by uccabz1
#
# compiler GCC version 4.9.2
# options -cpp -iprefix /scratch/UCL/applications/gcc/4.9.2/bin/../lib/gcc/x86_64-unknown-linux-gnu/4.9.2/ -mtune=corei7 -march=x86-64 -g -Og
#
# seed   298826441  1056496958 -1371653657   498730259  1069465602  1715336838 -1128209889  1819071268 -1194262125 -1227902354   232313651  1940445288
#
#      Author: C. J. Pickard (cjp20@cam.ac.uk)
#                Space group: P3
#

%BLOCK LATTICE_ABC
      3.74822      7.47983      7.47983
    120.00000     90.00000     90.00000
%ENDBLOCK LATTICE_ABC

%BLOCK POSITIONS_FRAC
  Li        0.4164621       -0.0901988        0.4349588
  Li        0.4164621       -0.4349588        0.4748423
  Li        0.4164621       -0.4748423        0.0901988
  Li       -0.0835272        0.3379637        0.2599982
  Li       -0.0835272       -0.2599982        0.0779655
  Li       -0.0835272       -0.0779655       -0.3379637
   N        0.0439856        0.2470384       -0.4650257
   N        0.0439856        0.4650257       -0.2879359
   N        0.0439856        0.2879359       -0.2470384
   N        0.2685197       -0.2086332       -0.0736192
   N        0.2685197        0.0736192       -0.1350141
   N        0.2685197        0.1350141        0.2086332
   N       -0.0787174       -0.1217865       -0.1086572
   N       -0.0787174        0.1086572       -0.0131294
   N       -0.0787174        0.0131294        0.1217865
   N       -0.3081838       -0.2734606       -0.2833986
   N       -0.3081838        0.2833986        0.0099379
   N       -0.3081838       -0.0099379        0.2734606
%ENDBLOCK POSITIONS_FRAC

KPOINTS_MP_SPACING 0.07

%BLOCK SPECIES_POT
QC5
%ENDBLOCK SPECIES_POT

SNAP_TO_SYMMETRY
SYMMETRY_GENERATE

