#              Generated by Buildcell
#
# at 15:34:58 (GMT+1.0) 26th March 2023
# in /scratch/scratch/uccabz1/launch_tmp_michael
# on node-a14e-007
# by uccabz1
#
# compiler GCC version 4.9.2
# options -cpp -iprefix /scratch/UCL/applications/gcc/4.9.2/bin/../lib/gcc/x86_64-unknown-linux-gnu/4.9.2/ -mtune=corei7 -march=x86-64 -g -Og
#
# seed    94387504  -503884537  1401254117 -2054040899    16864302  1426351459 -1781222453  -157084330  -371479892  1711042270  1687966214 -1239100984
#
#      Author: C. J. Pickard (cjp20@cam.ac.uk)
#                Space group: P31
#

%BLOCK LATTICE_ABC
      5.64377      5.64377      6.40415
     90.00000     90.00000    120.00000
%ENDBLOCK LATTICE_ABC

%BLOCK POSITIONS_FRAC
  Li       -0.4148858        0.4053814       -0.4281350
  Li       -0.4053814        0.1797328       -0.0948017
  Li       -0.1797328        0.4148858        0.2385317
  Li       -0.3585796       -0.1744489        0.3952493
  Li        0.1744489       -0.1841307       -0.2714174
  Li        0.1841307        0.3585796        0.0619159
   N        0.4961181        0.0283703       -0.4687215
   N       -0.0283703        0.4677479       -0.1353881
   N       -0.4677479       -0.4961181        0.1979452
   N       -0.4256493       -0.0593499        0.1226451
   N        0.0593499       -0.3662993        0.4559784
   N        0.3662993        0.4256493       -0.2106882
   N       -0.4151725       -0.3702448       -0.0462592
   N        0.3702448       -0.0449277        0.2870742
   N        0.0449277        0.4151725       -0.3795925
   N        0.3752003        0.1882821        0.1708828
   N       -0.1882821        0.1869183       -0.4957839
   N       -0.1869183       -0.3752003       -0.1624505
%ENDBLOCK POSITIONS_FRAC

KPOINTS_MP_SPACING 0.07

%BLOCK SPECIES_POT
QC5
%ENDBLOCK SPECIES_POT

SNAP_TO_SYMMETRY
SYMMETRY_GENERATE

