#              Generated by Buildcell
#
# at 20:13:54 (GMT+1.0) 26th March 2023
# in /scratch/scratch/uccabz1/launch_tmp_michael
# on node-a14a-001
# by uccabz1
#
# compiler GCC version 4.9.2
# options -cpp -iprefix /scratch/UCL/applications/gcc/4.9.2/bin/../lib/gcc/x86_64-unknown-linux-gnu/4.9.2/ -mtune=corei7 -march=x86-64 -g -Og
#
# seed   542179657 -1080755787  1138768254  -821608282  -173777830  -951178413  1515424378 -1109325475  -663047618  1740475286   584295661   164429210
#
#      Author: C. J. Pickard (cjp20@cam.ac.uk)
#                Space group: P2
#

%BLOCK LATTICE_ABC
      2.50000      3.74731      9.40669
    101.40311     90.00000     90.00000
%ENDBLOCK LATTICE_ABC

%BLOCK POSITIONS_FRAC
  Li        0.3036530        0.0315130       -0.2671109
  Li        0.3036530       -0.0315130        0.2671109
  Li       -0.0195995       -0.0000000       -0.0000000
   N       -0.2038495       -0.2754715       -0.3885532
   N       -0.2038495        0.2754715        0.3885532
   N       -0.2944361       -0.1417725        0.4250019
   N       -0.2944361        0.1417725       -0.4250019
   N        0.2925327        0.2900308        0.4862963
   N        0.2925327       -0.2900308       -0.4862963
%ENDBLOCK POSITIONS_FRAC

KPOINTS_MP_SPACING 0.07

%BLOCK SPECIES_POT
QC5
%ENDBLOCK SPECIES_POT

SNAP_TO_SYMMETRY
SYMMETRY_GENERATE

