#              Generated by Buildcell
#
# at 17:41:30 (GMT+1.0) 26th March 2023
# in /scratch/scratch/uccabz1/launch_tmp_michael
# on node-a14a-019
# by uccabz1
#
# compiler GCC version 4.9.2
# options -cpp -iprefix /scratch/UCL/applications/gcc/4.9.2/bin/../lib/gcc/x86_64-unknown-linux-gnu/4.9.2/ -mtune=corei7 -march=x86-64 -g -Og
#
# seed  1453680319 -1053432302  -583295188  -562280946  -124410236 -2050484810  -894329033  -228491894  1246878033 -1605550109   835152770  -176788727
#
#      Author: C. J. Pickard (cjp20@cam.ac.uk)
#                Space group: Fmm2
#

%BLOCK LATTICE_ABC
      6.13957      6.13957      6.15755
    104.53628    104.53628    119.77160
%ENDBLOCK LATTICE_ABC

%BLOCK POSITIONS_FRAC
  Li        0.4327596        0.1616963        0.1886611
  Li       -0.2440985        0.0269648        0.1886611
  Li        0.0269648       -0.2440985        0.1886611
  Li        0.1616963        0.4327596        0.1886611
  Li        0.3889952       -0.1110048       -0.2220096
  Li        0.8889952        0.3889952        0.7779904
   N       -0.4630942       -0.3216470       -0.1028059
   N        0.3602883        0.2188411       -0.1028059
   N        0.2188411        0.3602883       -0.1028059
   N       -0.3216470       -0.4630942       -0.1028059
   N        0.7561237        0.4855621        0.4861344
   N       -0.2699893        0.0005723        0.4861344
   N        0.0005723       -0.2699893       -0.5138656
   N       -0.5144379       -0.2438763       -0.5138656
   N       -0.0686495        0.0771922       -0.2362925
   N       -0.1676430       -0.3134847       -0.2362925
   N       -0.3134847       -0.1676430       -0.2362925
   N        0.0771922       -0.0686495       -0.2362925
%ENDBLOCK POSITIONS_FRAC

KPOINTS_MP_SPACING 0.07

%BLOCK SPECIES_POT
QC5
%ENDBLOCK SPECIES_POT

SNAP_TO_SYMMETRY
SYMMETRY_GENERATE

