#              Generated by Buildcell
#
# at 17:34:16 (GMT+1.0) 26th March 2023
# in /scratch/scratch/uccabz1/launch_tmp_michael
# on node-a14e-021
# by uccabz1
#
# compiler GCC version 4.9.2
# options -cpp -iprefix /scratch/UCL/applications/gcc/4.9.2/bin/../lib/gcc/x86_64-unknown-linux-gnu/4.9.2/ -mtune=corei7 -march=x86-64 -g -Og
#
# seed   835741670   989656855   383286696  2067824008  -231728810   856315002 -1154877449 -1770223615 -1391943061  -654194298   616764068    14378526
#
#      Author: C. J. Pickard (cjp20@cam.ac.uk)
#                Space group: P31
#

%BLOCK LATTICE_ABC
      4.23046      4.23046     11.08011
     90.00000     90.00000    120.00000
%ENDBLOCK LATTICE_ABC

%BLOCK POSITIONS_FRAC
  Li        0.2355506        0.3070014        0.1784575
  Li       -0.3070014       -0.0714507       -0.1548758
  Li        0.0714507       -0.2355506       -0.4882092
  Li       -0.1523881        0.1178282       -0.3704391
  Li       -0.1178282       -0.2702163        0.2962276
  Li        0.2702163        0.1523881       -0.0371058
   N        0.1512523       -0.4713289       -0.0197097
   N        0.4713289       -0.3774189       -0.3530430
   N        0.3774189       -0.1512523        0.3136237
   N       -0.0542949        0.4319613       -0.2180609
   N       -0.4319613       -0.4862562        0.4486057
   N        0.4862562        0.0542949        0.1152724
   N       -0.1647866       -0.4328539        0.0894940
   N        0.4328539        0.2680673       -0.2438393
   N       -0.2680673        0.1647866        0.4228274
   N        0.4864851        0.2450378        0.3131860
   N       -0.2450378        0.2414473       -0.0201473
   N       -0.2414473       -0.4864851       -0.3534807
%ENDBLOCK POSITIONS_FRAC

KPOINTS_MP_SPACING 0.07

%BLOCK SPECIES_POT
QC5
%ENDBLOCK SPECIES_POT

SNAP_TO_SYMMETRY
SYMMETRY_GENERATE

