#              Generated by Buildcell
#
# at 17:00:41 (GMT+1.0) 26th March 2023
# in /scratch/scratch/uccabz1/launch_tmp_michael
# on node-a14e-007
# by uccabz1
#
# compiler GCC version 4.9.2
# options -cpp -iprefix /scratch/UCL/applications/gcc/4.9.2/bin/../lib/gcc/x86_64-unknown-linux-gnu/4.9.2/ -mtune=corei7 -march=x86-64 -g -Og
#
# seed  1274954860  1722146420  1342143257  -790937616 -1050009517  1551297679  1906310409   358676743  -858499027   -59599032 -1201133160  1616722777
#
#      Author: C. J. Pickard (cjp20@cam.ac.uk)
#                Space group: I41
#

%BLOCK LATTICE_ABC
      4.25627      4.25627      4.25627
    101.79907    113.43821    113.43821
%ENDBLOCK LATTICE_ABC

%BLOCK POSITIONS_FRAC
  Li       -0.5000000        0.1693485       -0.3306515
  Li       -0.0000000        0.4193485        0.4193485
   N        0.2221449       -0.3441775        0.0537410
   N       -0.2221449       -0.1684039        0.4336776
   N       -0.1020815       -0.1962590        0.0815961
   N        0.1020815        0.1836776       -0.0941775
%ENDBLOCK POSITIONS_FRAC

KPOINTS_MP_SPACING 0.07

%BLOCK SPECIES_POT
QC5
%ENDBLOCK SPECIES_POT

SNAP_TO_SYMMETRY
SYMMETRY_GENERATE

