#              Generated by Buildcell
#
# at 15:52:17 (GMT+1.0) 26th March 2023
# in /scratch/scratch/uccabz1/launch_tmp_michael
# on node-a14e-007
# by uccabz1
#
# compiler GCC version 4.9.2
# options -cpp -iprefix /scratch/UCL/applications/gcc/4.9.2/bin/../lib/gcc/x86_64-unknown-linux-gnu/4.9.2/ -mtune=corei7 -march=x86-64 -g -Og
#
# seed -1450209137 -1996903226   496104679 -1439906609 -1572998312  -860946770   420235778 -1776343915 -1641550105 -1971650641  1386403915  1486644661
#
#      Author: C. J. Pickard (cjp20@cam.ac.uk)
#                Space group: I-4
#

%BLOCK LATTICE_ABC
      5.55838      5.55838      5.55838
     94.72463    117.31077    117.31077
%ENDBLOCK LATTICE_ABC

%BLOCK POSITIONS_FRAC
  Li       -0.3372822       -0.4616339       -0.3617648
  Li        0.3372822       -0.0244826       -0.1243517
  Li       -0.0998691        0.3617648        0.0244826
  Li        0.0998691        0.1243517        0.4616339
   N       -0.3898268        0.4091614        0.1060231
   N        0.3898268        0.4958498       -0.2010118
   N        0.3031383       -0.1060231       -0.4958498
   N       -0.3031383        0.2010118       -0.4091614
   N        0.2337131       -0.2246163        0.1102826
   N       -0.2337131       -0.1234305       -0.4583294
   N       -0.3348989       -0.1102826        0.1234305
   N        0.3348989        0.4583294        0.2246163
%ENDBLOCK POSITIONS_FRAC

KPOINTS_MP_SPACING 0.07

%BLOCK SPECIES_POT
QC5
%ENDBLOCK SPECIES_POT

SNAP_TO_SYMMETRY
SYMMETRY_GENERATE

