#              Generated by Buildcell
#
# at 15:25:58 (GMT+1.0) 26th March 2023
# in /scratch/scratch/uccabz1/launch_tmp_michael
# on node-a14b-022
# by uccabz1
#
# compiler GCC version 4.9.2
# options -cpp -iprefix /scratch/UCL/applications/gcc/4.9.2/bin/../lib/gcc/x86_64-unknown-linux-gnu/4.9.2/ -mtune=corei7 -march=x86-64 -g -Og
#
# seed   539052211   626928110 -1455591296  1055391703  1890283541   455251987  1695258573  1172678630 -1897311064 -1007008104  1536080529   178045367
#
#      Author: C. J. Pickard (cjp20@cam.ac.uk)
#                Space group: C2
#

%BLOCK LATTICE_ABC
      2.68314      5.96143      6.32399
     61.87908     84.47465     78.21238
%ENDBLOCK LATTICE_ABC

%BLOCK POSITIONS_FRAC
  Li        0.2441050        0.0316994       -0.4683357
  Li       -0.2441050        0.4366362       -0.4683357
  Li       -0.0000000        0.0400850       -0.0801700
   N       -0.1611629       -0.1850617       -0.2129343
   N        0.1611629        0.3979960       -0.2129343
   N       -0.2829854       -0.2657802        0.0493681
   N        0.2829854        0.2164120        0.0493681
   N       -0.4578161       -0.0122524        0.2656110
   N        0.4578161       -0.2533586        0.2656110
%ENDBLOCK POSITIONS_FRAC

KPOINTS_MP_SPACING 0.07

%BLOCK SPECIES_POT
QC5
%ENDBLOCK SPECIES_POT

SNAP_TO_SYMMETRY
SYMMETRY_GENERATE

