#              Generated by Buildcell
#
# at 16:31:21 (GMT+1.0) 26th March 2023
# in /scratch/scratch/uccabz1/launch_tmp_michael
# on node-a14a-001
# by uccabz1
#
# compiler GCC version 4.9.2
# options -cpp -iprefix /scratch/UCL/applications/gcc/4.9.2/bin/../lib/gcc/x86_64-unknown-linux-gnu/4.9.2/ -mtune=corei7 -march=x86-64 -g -Og
#
# seed  1341619766  1771544974  -510256331   456854367 -1258729024  2020483851  1479967188  -583946956   -73348963 -1854818633  1379354654   946910534
#
#      Author: C. J. Pickard (cjp20@cam.ac.uk)
#                Space group: R3
#

%BLOCK LATTICE_ABC
      4.84111      4.84111      4.84111
    107.67274    107.67274    107.67274
%ENDBLOCK LATTICE_ABC

%BLOCK POSITIONS_FRAC
  Li        0.4663259       -0.4055507        0.1734902
  Li       -0.4055507        0.1734902        0.4663259
  Li        0.1734902        0.4663259       -0.4055507
   N        0.4563816       -0.1304357       -0.3743614
   N       -0.1304357       -0.3743614        0.4563816
   N       -0.3743614        0.4563816       -0.1304357
   N       -0.0858493       -0.4843276        0.1538030
   N       -0.4843276        0.1538030       -0.0858493
   N        0.1538030       -0.0858493       -0.4843276
%ENDBLOCK POSITIONS_FRAC

KPOINTS_MP_SPACING 0.07

%BLOCK SPECIES_POT
QC5
%ENDBLOCK SPECIES_POT

SNAP_TO_SYMMETRY
SYMMETRY_GENERATE

