#              Generated by Buildcell
#
# at 19:37:13 (GMT+1.0) 26th March 2023
# in /scratch/scratch/uccabz1/launch_tmp_michael
# on node-a14a-019
# by uccabz1
#
# compiler GCC version 4.9.2
# options -cpp -iprefix /scratch/UCL/applications/gcc/4.9.2/bin/../lib/gcc/x86_64-unknown-linux-gnu/4.9.2/ -mtune=corei7 -march=x86-64 -g -Og
#
# seed -2064788010  -484236415 -1666783323  2102491322   220591903  1647857491 -1081001785   530965777 -2054708887   217100261    33468786 -1844285497
#
#      Author: C. J. Pickard (cjp20@cam.ac.uk)
#                Space group: P32
#

%BLOCK LATTICE_ABC
      3.81676      5.10084      5.10084
    120.00000     90.00000     90.00000
%ENDBLOCK LATTICE_ABC

%BLOCK POSITIONS_FRAC
  Li       -0.3994843        0.2270612       -0.1609391
  Li        0.2671823       -0.3880004       -0.2270612
  Li       -0.0661510        0.1609391        0.3880004
   N       -0.1309485        0.4009199        0.2011305
   N       -0.4642819       -0.1997895       -0.4009199
   N        0.2023848       -0.2011305        0.1997895
   N        0.4360258       -0.4177665        0.2353978
   N        0.1026924       -0.3468357        0.4177665
   N       -0.2306409       -0.2353978        0.3468357
%ENDBLOCK POSITIONS_FRAC

KPOINTS_MP_SPACING 0.07

%BLOCK SPECIES_POT
QC5
%ENDBLOCK SPECIES_POT

SNAP_TO_SYMMETRY
SYMMETRY_GENERATE

