#              Generated by Buildcell
#
# at 16:48:24 (GMT+1.0) 26th March 2023
# in /scratch/scratch/uccabz1/launch_tmp_michael
# on node-a14a-019
# by uccabz1
#
# compiler GCC version 4.9.2
# options -cpp -iprefix /scratch/UCL/applications/gcc/4.9.2/bin/../lib/gcc/x86_64-unknown-linux-gnu/4.9.2/ -mtune=corei7 -march=x86-64 -g -Og
#
# seed -1479503525 -1110282746 -1840873215  -304140625   376004375 -1087461208  -238731209   827446651 -1629059056 -1619769872  1545555612 -1537086932
#
#      Author: C. J. Pickard (cjp20@cam.ac.uk)
#                Space group: P3
#

%BLOCK LATTICE_ABC
      5.13512      5.13512      7.75857
     90.00000     90.00000    120.00000
%ENDBLOCK LATTICE_ABC

%BLOCK POSITIONS_FRAC
  Li       -0.1400744       -0.3239853       -0.4060137
  Li        0.3239853        0.1839109       -0.4060137
  Li       -0.1839109        0.1400744       -0.4060137
  Li        0.2249314       -0.0901911        0.2158195
  Li        0.0901911        0.3151225        0.2158195
  Li       -0.3151225       -0.2249314        0.2158195
   N       -0.4745277       -0.0717743        0.4069024
   N        0.0717743       -0.4027534        0.4069024
   N        0.4027534        0.4745277        0.4069024
   N        0.3964678       -0.1422178       -0.2737894
   N        0.1422178       -0.4613143       -0.2737894
   N        0.4613143       -0.3964678       -0.2737894
   N        0.1995337        0.4771886       -0.4550525
   N       -0.4771886       -0.2776549       -0.4550525
   N        0.2776549       -0.1995337       -0.4550525
   N       -0.3310091       -0.0271679       -0.1607087
   N        0.0271679       -0.3038412       -0.1607087
   N        0.3038412        0.3310091       -0.1607087
%ENDBLOCK POSITIONS_FRAC

KPOINTS_MP_SPACING 0.07

%BLOCK SPECIES_POT
QC5
%ENDBLOCK SPECIES_POT

SNAP_TO_SYMMETRY
SYMMETRY_GENERATE

