#              Generated by Buildcell
#
# at 14:59:18 (GMT+1.0) 26th March 2023
# in /scratch/scratch/uccabz1/launch_tmp_michael
# on node-a14e-021
# by uccabz1
#
# compiler GCC version 4.9.2
# options -cpp -iprefix /scratch/UCL/applications/gcc/4.9.2/bin/../lib/gcc/x86_64-unknown-linux-gnu/4.9.2/ -mtune=corei7 -march=x86-64 -g -Og
#
# seed  2125284155  1892826163   172575420  1765049792  1684143962  -372045969 -1244119792  1313468823 -1691231330  -348775619   551285543  -557839541
#
#      Author: C. J. Pickard (cjp20@cam.ac.uk)
#                Space group: Cm
#

%BLOCK LATTICE_ABC
      3.39207      4.27456      4.65655
     82.72847     68.64011     69.66493
%ENDBLOCK LATTICE_ABC

%BLOCK POSITIONS_FRAC
  Li       -0.2943671        0.3086775        0.2882375
  Li       -0.0061296        0.3086775       -0.2882375
   N        0.2360468       -0.2759288        0.4274655
   N        0.6635123       -0.2759288       -0.4274655
   N       -0.4450559        0.0227544       -0.2382688
   N        0.3166753        0.0227544        0.2382688
%ENDBLOCK POSITIONS_FRAC

KPOINTS_MP_SPACING 0.07

%BLOCK SPECIES_POT
QC5
%ENDBLOCK SPECIES_POT

SNAP_TO_SYMMETRY
SYMMETRY_GENERATE

