#              Generated by Buildcell
#
# at 15:28:03 (GMT+1.0) 26th March 2023
# in /scratch/scratch/uccabz1/launch_tmp_michael
# on node-a14e-007
# by uccabz1
#
# compiler GCC version 4.9.2
# options -cpp -iprefix /scratch/UCL/applications/gcc/4.9.2/bin/../lib/gcc/x86_64-unknown-linux-gnu/4.9.2/ -mtune=corei7 -march=x86-64 -g -Og
#
# seed -1537387515 -1110282746 -1688112633 -1265407715  -908788473  1611347659   501771234 -1561141301  -361081745   260869161  1763020149  1139769672
#
#      Author: C. J. Pickard (cjp20@cam.ac.uk)
#                Space group: Pc
#

%BLOCK LATTICE_ABC
      3.99525      4.75435      6.50133
     90.00000     90.00000    100.16084
%ENDBLOCK LATTICE_ABC

%BLOCK POSITIONS_FRAC
  Li       -0.2808232        0.4079870        0.3843961
  Li        0.2191768        0.4079870       -0.3843961
  Li       -0.1595943       -0.2199662       -0.1156728
  Li        0.3404057       -0.2199662        0.1156728
   N        0.2285214        0.0275785       -0.2982374
   N       -0.2714786        0.0275785        0.2982374
   N        0.4746245       -0.2157482       -0.3672478
   N       -0.0253755       -0.2157482        0.3672478
   N        0.0611522        0.3217228       -0.1119356
   N       -0.4388478        0.3217228        0.1119356
   N        0.2707443        0.4188714        0.2914883
   N       -0.2292557        0.4188714       -0.2914883
%ENDBLOCK POSITIONS_FRAC

KPOINTS_MP_SPACING 0.07

%BLOCK SPECIES_POT
QC5
%ENDBLOCK SPECIES_POT

SNAP_TO_SYMMETRY
SYMMETRY_GENERATE

