#              Generated by Buildcell
#
# at 19:37:23 (GMT+1.0) 26th March 2023
# in /scratch/scratch/uccabz1/launch_tmp_michael
# on node-a14c-005
# by uccabz1
#
# compiler GCC version 4.9.2
# options -cpp -iprefix /scratch/UCL/applications/gcc/4.9.2/bin/../lib/gcc/x86_64-unknown-linux-gnu/4.9.2/ -mtune=corei7 -march=x86-64 -g -Og
#
# seed -1355822285  -711465833  1606854246   931894439 -1961099219  -432027059  1571739119  1604461692  -850423255    59189070 -1024314770 -1349578196
#
#      Author: C. J. Pickard (cjp20@cam.ac.uk)
#                Space group: P3
#

%BLOCK LATTICE_ABC
      4.75705      4.75705      6.05418
     90.00000     90.00000    120.00000
%ENDBLOCK LATTICE_ABC

%BLOCK POSITIONS_FRAC
  Li        0.3333333        0.0732357       -0.0933391
  Li       -0.0732357        0.2600977       -0.0933391
  Li       -0.2600977       -0.3333333       -0.0933391
  Li        0.3333333       -0.3333333        0.4005899
   N        0.1054672       -0.3333293       -0.2402354
   N        0.3333293        0.4387965       -0.2402354
   N       -0.4387965       -0.1054672       -0.2402354
   N        0.4814379        0.1502036       -0.4304809
   N       -0.1502036        0.3312343       -0.4304809
   N       -0.3312343       -0.4814379       -0.4304809
   N       -0.3333333        0.3333333        0.3590953
   N       -0.3333333        0.3333333        0.1107494
%ENDBLOCK POSITIONS_FRAC

KPOINTS_MP_SPACING 0.07

%BLOCK SPECIES_POT
QC5
%ENDBLOCK SPECIES_POT

SNAP_TO_SYMMETRY
SYMMETRY_GENERATE

