#              Generated by Buildcell
#
# at 19:29:33 (GMT+1.0) 26th March 2023
# in /scratch/scratch/uccabz1/launch_tmp_michael
# on node-a14a-019
# by uccabz1
#
# compiler GCC version 4.9.2
# options -cpp -iprefix /scratch/UCL/applications/gcc/4.9.2/bin/../lib/gcc/x86_64-unknown-linux-gnu/4.9.2/ -mtune=corei7 -march=x86-64 -g -Og
#
# seed -1741098563   681696786 -1350530682 -1850029039 -1757060385   315404773  1950804646   757885317   460047085  -271484165   157383742  -870134409
#
#      Author: C. J. Pickard (cjp20@cam.ac.uk)
#                Space group: R3
#

%BLOCK LATTICE_ABC
      4.50763      4.50763      4.50763
     84.53158     84.53158     84.53158
%ENDBLOCK LATTICE_ABC

%BLOCK POSITIONS_FRAC
  Li       -0.3642486        0.1773552       -0.4820739
  Li        0.1773552       -0.4820739       -0.3642486
  Li       -0.4820739       -0.3642486        0.1773552
   N        0.1303300       -0.0666730       -0.3107268
   N       -0.0666730       -0.3107268        0.1303300
   N       -0.3107268        0.1303300       -0.0666730
   N        0.0474150       -0.1007520        0.3747035
   N       -0.1007520        0.3747035        0.0474150
   N        0.3747035        0.0474150       -0.1007520
%ENDBLOCK POSITIONS_FRAC

KPOINTS_MP_SPACING 0.07

%BLOCK SPECIES_POT
QC5
%ENDBLOCK SPECIES_POT

SNAP_TO_SYMMETRY
SYMMETRY_GENERATE

