#              Generated by Buildcell
#
# at 18:27:33 (GMT+1.0) 26th March 2023
# in /scratch/scratch/uccabz1/launch_tmp_michael
# on node-a14a-001
# by uccabz1
#
# compiler GCC version 4.9.2
# options -cpp -iprefix /scratch/UCL/applications/gcc/4.9.2/bin/../lib/gcc/x86_64-unknown-linux-gnu/4.9.2/ -mtune=corei7 -march=x86-64 -g -Og
#
# seed  1546032989   406223601   955476055 -1727532208 -1315488851   574144390  -472677032  1106588791    45849335  -145618344   918724432  -510382377
#
#      Author: C. J. Pickard (cjp20@cam.ac.uk)
#                Space group: P3
#

%BLOCK LATTICE_ABC
      4.05061      4.05061      4.12871
     90.00000     90.00000    120.00000
%ENDBLOCK LATTICE_ABC

%BLOCK POSITIONS_FRAC
  Li       -0.3333333        0.3333333        0.1191364
  Li        0.3333333       -0.3333333       -0.2117800
   N       -0.2553794        0.1305400       -0.3714028
   N       -0.1305400       -0.3859194       -0.3714028
   N        0.3859194        0.2553794       -0.3714028
   N       -0.0000000       -0.0000000        0.4537443
%ENDBLOCK POSITIONS_FRAC

KPOINTS_MP_SPACING 0.07

%BLOCK SPECIES_POT
QC5
%ENDBLOCK SPECIES_POT

SNAP_TO_SYMMETRY
SYMMETRY_GENERATE

