#              Generated by Buildcell
#
# at 15:08:38 (GMT+1.0) 26th March 2023
# in /scratch/scratch/uccabz1/launch_tmp_michael
# on node-a14b-031
# by uccabz1
#
# compiler GCC version 4.9.2
# options -cpp -iprefix /scratch/UCL/applications/gcc/4.9.2/bin/../lib/gcc/x86_64-unknown-linux-gnu/4.9.2/ -mtune=corei7 -march=x86-64 -g -Og
#
# seed  1307611809  1105932645  1930354305 -1281480981 -1224908135  -283530737   919891694 -1569560220   232124873 -1934308947   169559702   434372773
#
#      Author: C. J. Pickard (cjp20@cam.ac.uk)
#                Space group: R3
#

%BLOCK LATTICE_ABC
      4.74787      4.74787      4.74787
    106.20588    106.20588    106.20588
%ENDBLOCK LATTICE_ABC

%BLOCK POSITIONS_FRAC
  Li       -0.1332519       -0.4861675       -0.0344833
  Li       -0.0344833       -0.1332519       -0.4861675
  Li       -0.4861675       -0.0344833       -0.1332519
   N       -0.1217767       -0.0673641        0.1270601
   N        0.1270601       -0.1217767       -0.0673641
   N       -0.0673641        0.1270601       -0.1217767
   N        0.3110939       -0.3599998        0.0570286
   N        0.0570286        0.3110939       -0.3599998
   N       -0.3599998        0.0570286        0.3110939
%ENDBLOCK POSITIONS_FRAC

KPOINTS_MP_SPACING 0.07

%BLOCK SPECIES_POT
QC5
%ENDBLOCK SPECIES_POT

SNAP_TO_SYMMETRY
SYMMETRY_GENERATE

