#              Generated by Buildcell
#
# at 19:01:39 (GMT+1.0) 26th March 2023
# in /scratch/scratch/uccabz1/launch_tmp_michael
# on node-a14f-035
# by uccabz1
#
# compiler GCC version 4.9.2
# options -cpp -iprefix /scratch/UCL/applications/gcc/4.9.2/bin/../lib/gcc/x86_64-unknown-linux-gnu/4.9.2/ -mtune=corei7 -march=x86-64 -g -Og
#
# seed  1295978615 -2103254395 -1038098386  1743099957   445752381  1644099518   133208325  1815509251  1129602069 -1078640051 -1139711216 -1176654671
#
#      Author: C. J. Pickard (cjp20@cam.ac.uk)
#                Space group: I222
#

%BLOCK LATTICE_ABC
      5.41228      5.56917      5.56917
     66.45322     60.92761     60.92761
%ENDBLOCK LATTICE_ABC

%BLOCK POSITIONS_FRAC
  Li        0.3360294        0.4682823        0.2518541
  Li        0.0561658       -0.4682823       -0.2518541
  Li       -0.0561658        0.2518541        0.4682823
  Li       -0.3360294       -0.2518541       -0.4682823
   N        0.1913193       -0.0781665        0.3189538
   N        0.4321067        0.0781665       -0.3189538
   N       -0.4321067        0.3189538       -0.0781665
   N       -0.1913193       -0.3189538        0.0781665
   N       -0.2673372        0.0000547       -0.3034703
   N        0.4292472       -0.0000547        0.3034703
   N       -0.4292472       -0.3034703        0.0000547
   N        0.2673372        0.3034703       -0.0000547
%ENDBLOCK POSITIONS_FRAC

KPOINTS_MP_SPACING 0.07

%BLOCK SPECIES_POT
QC5
%ENDBLOCK SPECIES_POT

SNAP_TO_SYMMETRY
SYMMETRY_GENERATE

