#              Generated by Buildcell
#
# at 19:17:35 (GMT+1.0) 26th March 2023
# in /scratch/scratch/uccabz1/launch_tmp_michael
# on node-a14b-031
# by uccabz1
#
# compiler GCC version 4.9.2
# options -cpp -iprefix /scratch/UCL/applications/gcc/4.9.2/bin/../lib/gcc/x86_64-unknown-linux-gnu/4.9.2/ -mtune=corei7 -march=x86-64 -g -Og
#
# seed   754416565  -728353753  -954035174   778726274   554521501  1558367960  1455193683   -95091918  1476371278  -320723924   667032780 -1002961003
#
#      Author: C. J. Pickard (cjp20@cam.ac.uk)
#                Space group: I4
#

%BLOCK LATTICE_ABC
      5.55015      5.55015      5.55015
     94.62430    117.36705    117.36705
%ENDBLOCK LATTICE_ABC

%BLOCK POSITIONS_FRAC
  Li        0.4236455        0.2744941        0.1834876
  Li       -0.4236455       -0.2401579       -0.1491514
  Li        0.0910065       -0.1491514        0.2744941
  Li       -0.0910065        0.1834876       -0.2401579
   N       -0.2302469        0.3493633       -0.0426903
   N        0.2302469        0.1875566       -0.4203898
   N        0.3920536       -0.4203898        0.3493633
   N       -0.3920536       -0.0426903        0.1875566
   N       -0.3163879       -0.2696920        0.2212000
   N        0.3163879       -0.4624120        0.0466959
   N       -0.4908921        0.0466959       -0.2696920
   N        0.4908921        0.2212000       -0.4624120
%ENDBLOCK POSITIONS_FRAC

KPOINTS_MP_SPACING 0.07

%BLOCK SPECIES_POT
QC5
%ENDBLOCK SPECIES_POT

SNAP_TO_SYMMETRY
SYMMETRY_GENERATE

