#              Generated by Buildcell
#
# at 17:26:01 (GMT+1.0) 26th March 2023
# in /scratch/scratch/uccabz1/launch_tmp_michael
# on node-a14e-007
# by uccabz1
#
# compiler GCC version 4.9.2
# options -cpp -iprefix /scratch/UCL/applications/gcc/4.9.2/bin/../lib/gcc/x86_64-unknown-linux-gnu/4.9.2/ -mtune=corei7 -march=x86-64 -g -Og
#
# seed    36755722   592689419   884045545  -404998169  1891421894  -346937641  -102141129  -811056302 -1038845785   299239976  1018763890  1261139059
#
#      Author: C. J. Pickard (cjp20@cam.ac.uk)
#                Space group: Pc
#

%BLOCK LATTICE_ABC
      3.53626      4.21309     12.20449
     90.00000     90.00000     90.64708
%ENDBLOCK LATTICE_ABC

%BLOCK POSITIONS_FRAC
  Li        0.0079118        0.2498292       -0.4092309
  Li       -0.4920882       -0.2501708        0.4092309
  Li        0.3498075       -0.1936069        0.0921319
  Li       -0.1501925        0.3063931       -0.0921319
  Li       -0.4961879       -0.1909313       -0.1609521
  Li        0.0038121        0.3090687        0.1609521
   N        0.3203488       -0.1396871       -0.3152082
   N       -0.1796512        0.3603129        0.3152082
   N       -0.1986089       -0.0230079       -0.2877679
   N        0.3013911        0.4769921        0.2877679
   N       -0.2818375        0.4880440        0.0449637
   N        0.2181625       -0.0119560       -0.0449637
   N       -0.3726034        0.3801027        0.4910364
   N        0.1273966       -0.1198973       -0.4910364
   N        0.0899855        0.4436286        0.4111415
   N       -0.4100145       -0.0563714       -0.4111415
   N        0.0377689       -0.3199153       -0.2400827
   N       -0.4622311        0.1800847        0.2400827
%ENDBLOCK POSITIONS_FRAC

KPOINTS_MP_SPACING 0.07

%BLOCK SPECIES_POT
QC5
%ENDBLOCK SPECIES_POT

SNAP_TO_SYMMETRY
SYMMETRY_GENERATE

