#              Generated by Buildcell
#
# at 17:14:25 (GMT+1.0) 26th March 2023
# in /scratch/scratch/uccabz1/launch_tmp_michael
# on node-a14b-022
# by uccabz1
#
# compiler GCC version 4.9.2
# options -cpp -iprefix /scratch/UCL/applications/gcc/4.9.2/bin/../lib/gcc/x86_64-unknown-linux-gnu/4.9.2/ -mtune=corei7 -march=x86-64 -g -Og
#
# seed  1684811623  -880170719 -2031109629 -1782971782   332532485  2014058434  -140634816  1909319065 -1845170730  1718185917  1333067030  -915597660
#
#      Author: C. J. Pickard (cjp20@cam.ac.uk)
#                Space group: P-1
#

%BLOCK LATTICE_ABC
      2.72436      6.46421      7.10682
    107.82606     95.82578     92.71003
%ENDBLOCK LATTICE_ABC

%BLOCK POSITIONS_FRAC
  Li       -0.4076384        0.3812405        0.1066186
  Li        0.4076384       -0.3812405       -0.1066186
  Li       -0.4407833       -0.0349053       -0.3156428
  Li        0.4407833        0.0349053        0.3156428
   N        0.0972351        0.1901179       -0.2330887
   N       -0.0972351       -0.1901179        0.2330887
   N        0.3091324       -0.3479619        0.2177096
   N       -0.3091324        0.3479619       -0.2177096
   N        0.2652070        0.3155493       -0.4764802
   N       -0.2652070       -0.3155493        0.4764802
   N        0.1777451        0.2952822        0.2952214
   N       -0.1777451       -0.2952822       -0.2952214
%ENDBLOCK POSITIONS_FRAC

KPOINTS_MP_SPACING 0.07

%BLOCK SPECIES_POT
QC5
%ENDBLOCK SPECIES_POT

SNAP_TO_SYMMETRY
SYMMETRY_GENERATE

