#              Generated by Buildcell
#
# at 18:28:52 (GMT+1.0) 26th March 2023
# in /scratch/scratch/uccabz1/launch_tmp_michael
# on node-a14e-007
# by uccabz1
#
# compiler GCC version 4.9.2
# options -cpp -iprefix /scratch/UCL/applications/gcc/4.9.2/bin/../lib/gcc/x86_64-unknown-linux-gnu/4.9.2/ -mtune=corei7 -march=x86-64 -g -Og
#
# seed   198894509  1208064656   745390665  1233127870   962684940  -887067261  -814185264  1514662376  1098798110  -807226336   578077196   -50565045
#
#      Author: C. J. Pickard (cjp20@cam.ac.uk)
#                Space group: P3
#

%BLOCK LATTICE_ABC
      3.09372      3.09372      7.13766
     90.00000     90.00000    120.00000
%ENDBLOCK LATTICE_ABC

%BLOCK POSITIONS_FRAC
  Li        0.3333333       -0.3333333       -0.2218998
  Li       -0.3333333        0.3333333        0.3496422
   N        0.2380313        0.3515280        0.1630501
   N        0.1134967       -0.2380313        0.1630501
   N       -0.3515280       -0.1134967        0.1630501
   N       -0.3333333        0.3333333       -0.0276814
%ENDBLOCK POSITIONS_FRAC

KPOINTS_MP_SPACING 0.07

%BLOCK SPECIES_POT
QC5
%ENDBLOCK SPECIES_POT

SNAP_TO_SYMMETRY
SYMMETRY_GENERATE

