#              Generated by Buildcell
#
# at 14:56:23 (GMT+1.0) 26th March 2023
# in /scratch/scratch/uccabz1/launch_tmp_michael
# on node-a14e-021
# by uccabz1
#
# compiler GCC version 4.9.2
# options -cpp -iprefix /scratch/UCL/applications/gcc/4.9.2/bin/../lib/gcc/x86_64-unknown-linux-gnu/4.9.2/ -mtune=corei7 -march=x86-64 -g -Og
#
# seed  -984943218   -35046207 -1096428437   313373084   657240770  1888987808 -1737714612  1398634717 -1707120814 -2019606563 -1824926003  -922795145
#
#      Author: C. J. Pickard (cjp20@cam.ac.uk)
#                Space group: Cm
#

%BLOCK LATTICE_ABC
      3.53526      3.53526      7.44813
     89.71350     89.71350     89.99913
%ENDBLOCK LATTICE_ABC

%BLOCK POSITIONS_FRAC
  Li        0.2470125       -0.2529855       -0.0168352
  Li       -0.2529855        0.2470125       -0.0168352
  Li       -0.1563021       -0.1563021       -0.4811199
   N       -0.3993440        0.2649767       -0.2892672
   N        0.2649767       -0.3993440       -0.2892672
   N        0.2527215       -0.4050585        0.2320251
   N       -0.4050585        0.2527215        0.2320251
   N        0.3485107       -0.3333411        0.4248884
   N       -0.3333411        0.3485107        0.4248884
%ENDBLOCK POSITIONS_FRAC

KPOINTS_MP_SPACING 0.07

%BLOCK SPECIES_POT
QC5
%ENDBLOCK SPECIES_POT

SNAP_TO_SYMMETRY
SYMMETRY_GENERATE

