#              Generated by Buildcell
#
# at 19:31:01 (GMT+1.0) 26th March 2023
# in /scratch/scratch/uccabz1/launch_tmp_michael
# on node-a14a-019
# by uccabz1
#
# compiler GCC version 4.9.2
# options -cpp -iprefix /scratch/UCL/applications/gcc/4.9.2/bin/../lib/gcc/x86_64-unknown-linux-gnu/4.9.2/ -mtune=corei7 -march=x86-64 -g -Og
#
# seed  1553522108   547514567 -1952721882    73468724 -1915767834 -1338633025  1047844295  2078765435  -431338825 -1973241450  -335433636  -670391959
#
#      Author: C. J. Pickard (cjp20@cam.ac.uk)
#                Space group: C2221
#

%BLOCK LATTICE_ABC
      3.74851      4.14712      4.14712
    102.49215     90.00000     90.00000
%ENDBLOCK LATTICE_ABC

%BLOCK POSITIONS_FRAC
  Li        0.2500000        0.3406742        0.3406742
  Li       -0.2500000       -0.3406742       -0.3406742
   N       -0.4779121       -0.0282842        0.4010643
   N        0.0220879        0.0282842       -0.4010643
   N       -0.0220879        0.4010643       -0.0282842
   N        0.4779121       -0.4010643        0.0282842
%ENDBLOCK POSITIONS_FRAC

KPOINTS_MP_SPACING 0.07

%BLOCK SPECIES_POT
QC5
%ENDBLOCK SPECIES_POT

SNAP_TO_SYMMETRY
SYMMETRY_GENERATE

