#              Generated by Buildcell
#
# at 19:15:08 (GMT+1.0) 26th March 2023
# in /scratch/scratch/uccabz1/launch_tmp_michael
# on node-a14b-031
# by uccabz1
#
# compiler GCC version 4.9.2
# options -cpp -iprefix /scratch/UCL/applications/gcc/4.9.2/bin/../lib/gcc/x86_64-unknown-linux-gnu/4.9.2/ -mtune=corei7 -march=x86-64 -g -Og
#
# seed  1902037328 -1046578108    -8042033  1668365553  -428808190  -438592989 -1146881830 -1127032514  -647323525  1157255513  1921757821  1160870968
#
#      Author: C. J. Pickard (cjp20@cam.ac.uk)
#                Space group: Cm
#

%BLOCK LATTICE_ABC
      3.77237      6.67192      7.59459
    116.05633     94.34367     90.00000
%ENDBLOCK LATTICE_ABC

%BLOCK POSITIONS_FRAC
  Li       -0.3766844        0.0570307       -0.2675470
  Li       -0.3766844       -0.3245778       -0.2675470
  Li       -0.2109861        0.3770539        0.3794033
  Li       -0.2109861        0.0023494        0.3794033
  Li       -0.0381864        0.3375088        0.0497663
  Li       -0.0381864       -0.2877425        0.0497663
   N        0.1267975       -0.4142314       -0.3136587
   N        0.1267975        0.1005727       -0.3136587
   N       -0.3806695       -0.0528210        0.1195624
   N       -0.3806695        0.1723835        0.1195624
   N        0.0653624       -0.1281427       -0.4811083
   N        0.0653624       -0.3529655       -0.4811083
   N        0.2194226        0.0894457       -0.1226396
   N        0.2194226       -0.2120853       -0.1226396
   N        0.3716936        0.1723374       -0.4273302
   N        0.3716936        0.4003324       -0.4273302
   N        0.4728880       -0.1527039        0.4676346
   N        0.4728880       -0.3796615        0.4676346
%ENDBLOCK POSITIONS_FRAC

KPOINTS_MP_SPACING 0.07

%BLOCK SPECIES_POT
QC5
%ENDBLOCK SPECIES_POT

SNAP_TO_SYMMETRY
SYMMETRY_GENERATE

