#              Generated by Buildcell
#
# at 18:50:46 (GMT+1.0) 26th March 2023
# in /scratch/scratch/uccabz1/launch_tmp_michael
# on node-a14a-003
# by uccabz1
#
# compiler GCC version 4.9.2
# options -cpp -iprefix /scratch/UCL/applications/gcc/4.9.2/bin/../lib/gcc/x86_64-unknown-linux-gnu/4.9.2/ -mtune=corei7 -march=x86-64 -g -Og
#
# seed  -907512883  -581364496   105138689 -1113312987  1188562256  -364030104 -1630347265  1039314629   690766794  -295819679  1720970550  1734454321
#
#      Author: C. J. Pickard (cjp20@cam.ac.uk)
#                Space group: Pc
#

%BLOCK LATTICE_ABC
      2.73139      5.28514      8.72033
     90.00000     97.21836     90.00000
%ENDBLOCK LATTICE_ABC

%BLOCK POSITIONS_FRAC
  Li       -0.3758567        0.3251812        0.0779156
  Li        0.1241433       -0.3251812       -0.4220844
  Li       -0.2732017       -0.3845423        0.3060555
  Li        0.2267983        0.3845423       -0.1939445
   N        0.2015996       -0.3133778        0.1476209
   N       -0.2984004        0.3133778       -0.3523791
   N        0.2558340       -0.1647183        0.3788173
   N       -0.2441660        0.1647183       -0.1211827
   N       -0.1442949        0.2492111        0.2874661
   N        0.3557051       -0.2492111       -0.2125339
   N        0.2772553        0.0931392       -0.0625281
   N       -0.2227447       -0.0931392        0.4374719
%ENDBLOCK POSITIONS_FRAC

KPOINTS_MP_SPACING 0.07

%BLOCK SPECIES_POT
QC5
%ENDBLOCK SPECIES_POT

SNAP_TO_SYMMETRY
SYMMETRY_GENERATE

