#              Generated by Buildcell
#
# at 20:29:36 (GMT+1.0) 26th March 2023
# in /scratch/scratch/uccabz1/launch_tmp_michael
# on node-a14a-001
# by uccabz1
#
# compiler GCC version 4.9.2
# options -cpp -iprefix /scratch/UCL/applications/gcc/4.9.2/bin/../lib/gcc/x86_64-unknown-linux-gnu/4.9.2/ -mtune=corei7 -march=x86-64 -g -Og
#
# seed  1955541929  2118237684 -1423727924  1563542179  -652652409  -694187839 -1276708879  -103720427   -46483573   380749982 -1158919389  -494777872
#
#      Author: C. J. Pickard (cjp20@cam.ac.uk)
#                Space group: C2/c
#

%BLOCK LATTICE_ABC
      5.80961      5.92691      6.12158
     61.04648     89.67653     89.33180
%ENDBLOCK LATTICE_ABC

%BLOCK POSITIONS_FRAC
  Li       -0.3887879        0.0957625       -0.1998854
  Li       -0.1112121       -0.3958771       -0.1998854
  Li        0.3887879       -0.0957625        0.1998854
  Li        0.1112121        0.3958771        0.1998854
  Li       -0.0000000        0.0000000       -0.0000000
  Li        0.5000000       -0.5000000       -0.0000000
   N        0.4841950       -0.3349191       -0.4215846
   N        0.0158050        0.2565037       -0.4215846
   N       -0.4841950        0.3349191        0.4215846
   N       -0.0158050       -0.2565037        0.4215846
   N        0.0962818       -0.1327546       -0.2385841
   N        0.4037182       -0.1286613       -0.2385841
   N       -0.0962818        0.1327546        0.2385841
   N       -0.4037182        0.1286613        0.2385841
   N        0.2758840       -0.4314887       -0.2501101
   N        0.2241160        0.1815988       -0.2501101
   N       -0.2758840        0.4314887        0.2501101
   N       -0.2241160       -0.1815988        0.2501101
%ENDBLOCK POSITIONS_FRAC

KPOINTS_MP_SPACING 0.07

%BLOCK SPECIES_POT
QC5
%ENDBLOCK SPECIES_POT

SNAP_TO_SYMMETRY
SYMMETRY_GENERATE

