#              Generated by Buildcell
#
# at 17:26:49 (GMT+1.0) 26th March 2023
# in /scratch/scratch/uccabz1/launch_tmp_michael
# on node-a14b-031
# by uccabz1
#
# compiler GCC version 4.9.2
# options -cpp -iprefix /scratch/UCL/applications/gcc/4.9.2/bin/../lib/gcc/x86_64-unknown-linux-gnu/4.9.2/ -mtune=corei7 -march=x86-64 -g -Og
#
# seed  1123652120   810631520  2072181380   952602994  1063934488   195961861 -1873579155  1505007745   285459335 -2132520618  -243358015    11650388
#
#      Author: C. J. Pickard (cjp20@cam.ac.uk)
#                Space group: P32
#

%BLOCK LATTICE_ABC
      3.30090      7.91612      7.91612
    120.00000     90.00000     90.00000
%ENDBLOCK LATTICE_ABC

%BLOCK POSITIONS_FRAC
  Li       -0.3472501        0.3631103        0.1685852
  Li        0.3194166       -0.1945251       -0.3631103
  Li       -0.0139167       -0.1685852        0.1945251
  Li        0.4793557       -0.4239658       -0.0409333
  Li        0.1460224        0.3830325        0.4239658
  Li       -0.1873110        0.0409333       -0.3830325
   N        0.3317610       -0.3308193        0.2602679
   N       -0.0015724       -0.4089128        0.3308193
   N       -0.3349057       -0.2602679        0.4089128
   N       -0.4089665        0.4039967       -0.4032123
   N        0.2577001        0.1927910       -0.4039967
   N       -0.0756332        0.4032123       -0.1927910
   N        0.2032749        0.4727316        0.0980759
   N       -0.1300585       -0.3746557       -0.4727316
   N       -0.4633918       -0.0980759        0.3746557
   N        0.2310047       -0.1111782       -0.0955190
   N       -0.1023286        0.0156592        0.1111782
   N       -0.4356619        0.0955190       -0.0156592
%ENDBLOCK POSITIONS_FRAC

KPOINTS_MP_SPACING 0.07

%BLOCK SPECIES_POT
QC5
%ENDBLOCK SPECIES_POT

SNAP_TO_SYMMETRY
SYMMETRY_GENERATE

