#              Generated by Buildcell
#
# at 17:54:25 (GMT+1.0) 26th March 2023
# in /scratch/scratch/uccabz1/launch_tmp_michael
# on node-a14e-007
# by uccabz1
#
# compiler GCC version 4.9.2
# options -cpp -iprefix /scratch/UCL/applications/gcc/4.9.2/bin/../lib/gcc/x86_64-unknown-linux-gnu/4.9.2/ -mtune=corei7 -march=x86-64 -g -Og
#
# seed  1225737362  -897093043  1695569541  1554669055  1067322345  -405667509  -549030996   181789950  1399400884   513401179 -1615091746 -2080708077
#
#      Author: C. J. Pickard (cjp20@cam.ac.uk)
#                Space group: Pc
#

%BLOCK LATTICE_ABC
      4.18332      4.62686      6.28210
     90.00000     90.00000    101.33148
%ENDBLOCK LATTICE_ABC

%BLOCK POSITIONS_FRAC
  Li        0.1364850        0.3253721        0.2873780
  Li       -0.3635150       -0.1746279       -0.2873780
  Li       -0.2881884       -0.3717655        0.3494288
  Li        0.2118116        0.1282345       -0.3494288
   N        0.1614719       -0.3979376       -0.2537442
   N       -0.3385281        0.1020624        0.2537442
   N       -0.0743755       -0.2151905        0.0957452
   N        0.4256245        0.2848095       -0.0957452
   N        0.1814619        0.4470415       -0.0017611
   N       -0.3185381       -0.0529585        0.0017611
   N        0.1802991        0.0139148       -0.0378410
   N       -0.3197009       -0.4860852        0.0378410
%ENDBLOCK POSITIONS_FRAC

KPOINTS_MP_SPACING 0.07

%BLOCK SPECIES_POT
QC5
%ENDBLOCK SPECIES_POT

SNAP_TO_SYMMETRY
SYMMETRY_GENERATE

