#              Generated by Buildcell
#
# at 15:02:25 (GMT+1.0) 26th March 2023
# in /scratch/scratch/uccabz1/launch_tmp_michael
# on node-a14e-007
# by uccabz1
#
# compiler GCC version 4.9.2
# options -cpp -iprefix /scratch/UCL/applications/gcc/4.9.2/bin/../lib/gcc/x86_64-unknown-linux-gnu/4.9.2/ -mtune=corei7 -march=x86-64 -g -Og
#
# seed  1241657843  1999962738  1554680302   439677159 -2124977147   718899761 -1622885527  1786277105 -1011895296  1555321489 -1075795735  -223916547
#
#      Author: C. J. Pickard (cjp20@cam.ac.uk)
#                Space group: Cc
#

%BLOCK LATTICE_ABC
      4.41227      4.41227     10.62522
     96.04734     96.04734    117.92576
%ENDBLOCK LATTICE_ABC

%BLOCK POSITIONS_FRAC
  Li       -0.1360091        0.2179331       -0.4205088
  Li        0.2179331       -0.1360091        0.0794912
  Li       -0.4085006       -0.3981515        0.3234693
  Li       -0.3981515       -0.4085006       -0.1765307
  Li        0.3835527        0.0217747        0.3917137
  Li        0.0217747        0.3835527       -0.1082863
   N        0.2480429       -0.0982873       -0.1730384
   N       -0.0982873        0.2480429        0.3269616
   N       -0.4292279       -0.2102354        0.1712461
   N       -0.2102354       -0.4292279       -0.3287539
   N       -0.0060794       -0.2331687        0.2448663
   N       -0.2331687       -0.0060794       -0.2551337
   N       -0.0109972       -0.0676537        0.4700752
   N       -0.0676537       -0.0109972       -0.0299248
   N       -0.4480891        0.4421500        0.1365412
   N        0.4421500       -0.4480891       -0.3634588
   N        0.1887374        0.3646795        0.1540048
   N        0.3646795        0.1887374       -0.3459952
%ENDBLOCK POSITIONS_FRAC

KPOINTS_MP_SPACING 0.07

%BLOCK SPECIES_POT
QC5
%ENDBLOCK SPECIES_POT

SNAP_TO_SYMMETRY
SYMMETRY_GENERATE

