#              Generated by Buildcell
#
# at 18:39:14 (GMT+1.0) 26th March 2023
# in /scratch/scratch/uccabz1/launch_tmp_michael
# on node-a14a-003
# by uccabz1
#
# compiler GCC version 4.9.2
# options -cpp -iprefix /scratch/UCL/applications/gcc/4.9.2/bin/../lib/gcc/x86_64-unknown-linux-gnu/4.9.2/ -mtune=corei7 -march=x86-64 -g -Og
#
# seed   114250018  1088547818  2130201494  -943607371  1466055658 -1352212788  1706619154    59214866  2049885745  1347727472  -346426798 -1965194096
#
#      Author: C. J. Pickard (cjp20@cam.ac.uk)
#                Space group: P3
#

%BLOCK LATTICE_ABC
      4.92564      4.92564      5.49320
     90.00000     90.00000    120.00000
%ENDBLOCK LATTICE_ABC

%BLOCK POSITIONS_FRAC
  Li        0.3296190        0.0962420       -0.1368741
  Li       -0.2333770       -0.3296190       -0.1368741
  Li       -0.0962420        0.2333770       -0.1368741
  Li       -0.3333333        0.3333333        0.4629133
   N        0.0044909       -0.2592186        0.3878715
   N       -0.2637095       -0.0044909        0.3878715
   N        0.2592186        0.2637095        0.3878715
   N        0.1330419       -0.3226545       -0.0198368
   N       -0.4556965       -0.1330419       -0.0198368
   N        0.3226545        0.4556965       -0.0198368
   N       -0.3333333        0.3333333        0.1167013
   N        0.0000000        0.0000000       -0.3673400
%ENDBLOCK POSITIONS_FRAC

KPOINTS_MP_SPACING 0.07

%BLOCK SPECIES_POT
QC5
%ENDBLOCK SPECIES_POT

SNAP_TO_SYMMETRY
SYMMETRY_GENERATE

