#              Generated by Buildcell
#
# at 15:24:59 (GMT+1.0) 26th March 2023
# in /scratch/scratch/uccabz1/launch_tmp_michael
# on node-a14b-031
# by uccabz1
#
# compiler GCC version 4.9.2
# options -cpp -iprefix /scratch/UCL/applications/gcc/4.9.2/bin/../lib/gcc/x86_64-unknown-linux-gnu/4.9.2/ -mtune=corei7 -march=x86-64 -g -Og
#
# seed  -841113889 -1184627966   762376245   811703858  -155452843  -201259015    89161329  1595077238   122222845 -1015341820  1287224935  1457937785
#
#      Author: C. J. Pickard (cjp20@cam.ac.uk)
#                Space group: P3
#

%BLOCK LATTICE_ABC
      2.81862      6.07251      6.07251
    120.00000     90.00000     90.00000
%ENDBLOCK LATTICE_ABC

%BLOCK POSITIONS_FRAC
  Li       -0.3238064        0.2838315       -0.1242921
  Li       -0.3238064        0.1242921        0.4081236
  Li       -0.3238064       -0.4081236       -0.2838315
   N        0.0408304       -0.0197003       -0.2884325
   N        0.0408304        0.2884325        0.2687322
   N        0.0408304       -0.2687322        0.0197003
   N        0.3904251       -0.4729373        0.1878318
   N        0.3904251       -0.1878318        0.3392310
   N        0.3904251       -0.3392310        0.4729373
%ENDBLOCK POSITIONS_FRAC

KPOINTS_MP_SPACING 0.07

%BLOCK SPECIES_POT
QC5
%ENDBLOCK SPECIES_POT

SNAP_TO_SYMMETRY
SYMMETRY_GENERATE

