#              Generated by Buildcell
#
# at 18:44:13 (GMT+1.0) 26th March 2023
# in /scratch/scratch/uccabz1/launch_tmp_michael
# on node-a14b-028
# by uccabz1
#
# compiler GCC version 4.9.2
# options -cpp -iprefix /scratch/UCL/applications/gcc/4.9.2/bin/../lib/gcc/x86_64-unknown-linux-gnu/4.9.2/ -mtune=corei7 -march=x86-64 -g -Og
#
# seed  1279412858  1433313473   649787162  1913525646   652334015   962903259  1538706178 -1792840079  -424749353  -208090222   972255787  1884311446
#
#      Author: C. J. Pickard (cjp20@cam.ac.uk)
#                Space group: P-1
#

%BLOCK LATTICE_ABC
      2.49991      4.23161      8.71717
     92.40936     90.34257     91.99332
%ENDBLOCK LATTICE_ABC

%BLOCK POSITIONS_FRAC
  Li        0.1546806       -0.4643868       -0.1344701
  Li       -0.1546806        0.4643868        0.1344701
  Li        0.5000000        0.5000000       -0.5000000
   N       -0.3435025       -0.3796007       -0.2916861
   N        0.3435025        0.3796007        0.2916861
   N        0.1958804        0.0322947        0.2879506
   N       -0.1958804       -0.0322947       -0.2879506
   N        0.4002366        0.1242490       -0.1843985
   N       -0.4002366       -0.1242490        0.1843985
%ENDBLOCK POSITIONS_FRAC

KPOINTS_MP_SPACING 0.07

%BLOCK SPECIES_POT
QC5
%ENDBLOCK SPECIES_POT

SNAP_TO_SYMMETRY
SYMMETRY_GENERATE

