#              Generated by Buildcell
#
# at 19:49:18 (GMT+1.0) 26th March 2023
# in /scratch/scratch/uccabz1/launch_tmp_michael
# on node-a14a-001
# by uccabz1
#
# compiler GCC version 4.9.2
# options -cpp -iprefix /scratch/UCL/applications/gcc/4.9.2/bin/../lib/gcc/x86_64-unknown-linux-gnu/4.9.2/ -mtune=corei7 -march=x86-64 -g -Og
#
# seed  -873379782  1276281932  -444604718 -2107370907 -1136927058  1973199398  -315925593  2076066627   244089166 -1637911671  1623450461 -2133328893
#
#      Author: C. J. Pickard (cjp20@cam.ac.uk)
#                Space group: Pmm2
#

%BLOCK LATTICE_ABC
      3.00000      4.99999      6.29777
     90.00000     90.00000     90.00000
%ENDBLOCK LATTICE_ABC

%BLOCK POSITIONS_FRAC
  Li       -0.5000000       -0.2500000        0.2035665
  Li       -0.5000000        0.2500000        0.2035665
  Li        0.0000000        0.0000000       -0.1788413
   N        0.2500000       -0.3319692       -0.0659747
   N       -0.2500000        0.3319692       -0.0659747
   N        0.2500000        0.3319692       -0.0659747
   N       -0.2500000       -0.3319692       -0.0659747
   N       -0.2500000       -0.5000000        0.3970877
   N        0.2500000       -0.5000000        0.3970877
%ENDBLOCK POSITIONS_FRAC

KPOINTS_MP_SPACING 0.07

%BLOCK SPECIES_POT
QC5
%ENDBLOCK SPECIES_POT

SNAP_TO_SYMMETRY
SYMMETRY_GENERATE

