#              Generated by Buildcell
#
# at 16:53:10 (GMT+1.0) 26th March 2023
# in /scratch/scratch/uccabz1/launch_tmp_michael
# on node-a14f-035
# by uccabz1
#
# compiler GCC version 4.9.2
# options -cpp -iprefix /scratch/UCL/applications/gcc/4.9.2/bin/../lib/gcc/x86_64-unknown-linux-gnu/4.9.2/ -mtune=corei7 -march=x86-64 -g -Og
#
# seed  1459187801   -42754524   -33106241   720289415   228626810  1544559068  -152538316  1055056666   852505455  1066724999  -988999596  1544376164
#
#      Author: C. J. Pickard (cjp20@cam.ac.uk)
#                Space group: P2
#

%BLOCK LATTICE_ABC
      2.59073      4.72654      7.42129
    100.67517     90.00000     90.00000
%ENDBLOCK LATTICE_ABC

%BLOCK POSITIONS_FRAC
  Li       -0.4756643        0.2590578        0.0812629
  Li       -0.4756643       -0.2590578       -0.0812629
  Li        0.1093249       -0.0000000       -0.5000000
   N        0.3196178       -0.0433888       -0.2613569
   N        0.3196178        0.0433888        0.2613569
   N        0.0022017        0.3998499       -0.4138225
   N        0.0022017       -0.3998499        0.4138225
   N       -0.1186512        0.1399212       -0.1436783
   N       -0.1186512       -0.1399212        0.1436783
%ENDBLOCK POSITIONS_FRAC

KPOINTS_MP_SPACING 0.07

%BLOCK SPECIES_POT
QC5
%ENDBLOCK SPECIES_POT

SNAP_TO_SYMMETRY
SYMMETRY_GENERATE

