#              Generated by Buildcell
#
# at 15:36:54 (GMT+1.0) 26th March 2023
# in /scratch/scratch/uccabz1/launch_tmp_michael
# on node-a14e-021
# by uccabz1
#
# compiler GCC version 4.9.2
# options -cpp -iprefix /scratch/UCL/applications/gcc/4.9.2/bin/../lib/gcc/x86_64-unknown-linux-gnu/4.9.2/ -mtune=corei7 -march=x86-64 -g -Og
#
# seed -1347123452   285772380  1762720534   272277898   -59305681  1029374741  -494924339   637410282  -236285867 -1852190385   703009550   301695799
#
#      Author: C. J. Pickard (cjp20@cam.ac.uk)
#                Space group: P3
#

%BLOCK LATTICE_ABC
      4.38375      4.38375     10.33847
     90.00000     90.00000    120.00000
%ENDBLOCK LATTICE_ABC

%BLOCK POSITIONS_FRAC
  Li       -0.3333592       -0.0082838        0.4234115
  Li        0.0082838       -0.3250754        0.4234115
  Li        0.3250754        0.3333592        0.4234115
  Li        0.3258775        0.3336073        0.1810511
  Li       -0.3336073       -0.0077298        0.1810511
  Li        0.0077298       -0.3258775        0.1810511
   N        0.2763380       -0.1296273       -0.2873821
   N        0.1296273        0.4059653       -0.2873821
   N       -0.4059653       -0.2763380       -0.2873821
   N        0.3989443        0.4825919       -0.3991276
   N       -0.4825919       -0.0836475       -0.3991276
   N        0.0836475       -0.3989443       -0.3991276
   N        0.2301682       -0.0200164        0.0380843
   N        0.0200164        0.2501846        0.0380843
   N       -0.2501846       -0.2301682        0.0380843
   N       -0.3008814        0.1050060       -0.2754428
   N       -0.1050060       -0.4058874       -0.2754428
   N        0.4058874        0.3008814       -0.2754428
%ENDBLOCK POSITIONS_FRAC

KPOINTS_MP_SPACING 0.07

%BLOCK SPECIES_POT
QC5
%ENDBLOCK SPECIES_POT

SNAP_TO_SYMMETRY
SYMMETRY_GENERATE

