#              Generated by Buildcell
#
# at 19:11:59 (GMT+1.0) 26th March 2023
# in /scratch/scratch/uccabz1/launch_tmp_michael
# on node-a14a-019
# by uccabz1
#
# compiler GCC version 4.9.2
# options -cpp -iprefix /scratch/UCL/applications/gcc/4.9.2/bin/../lib/gcc/x86_64-unknown-linux-gnu/4.9.2/ -mtune=corei7 -march=x86-64 -g -Og
#
# seed  1678130981 -1452481831 -1185478608 -1748128693 -1407926487 -1479246995    86260142 -1190632740  1419023965   665214845  1216761074   951314572
#
#      Author: C. J. Pickard (cjp20@cam.ac.uk)
#                Space group: P21/m
#

%BLOCK LATTICE_ABC
      2.57142      3.49621      6.62980
     90.00000    100.73540     90.00000
%ENDBLOCK LATTICE_ABC

%BLOCK POSITIONS_FRAC
  Li        0.1712085        0.2500000       -0.3496847
  Li       -0.1712085       -0.2500000        0.3496847
   N        0.0559714        0.0354818        0.1136264
   N       -0.0559714       -0.4645182       -0.1136264
   N       -0.0559714       -0.0354818       -0.1136264
   N        0.0559714        0.4645182        0.1136264
%ENDBLOCK POSITIONS_FRAC

KPOINTS_MP_SPACING 0.07

%BLOCK SPECIES_POT
QC5
%ENDBLOCK SPECIES_POT

SNAP_TO_SYMMETRY
SYMMETRY_GENERATE

