#              Generated by Buildcell
#
# at 16:49:40 (GMT+1.0) 26th March 2023
# in /scratch/scratch/uccabz1/launch_tmp_michael
# on node-a14b-022
# by uccabz1
#
# compiler GCC version 4.9.2
# options -cpp -iprefix /scratch/UCL/applications/gcc/4.9.2/bin/../lib/gcc/x86_64-unknown-linux-gnu/4.9.2/ -mtune=corei7 -march=x86-64 -g -Og
#
# seed  1261008664  1686090180   800803420   241072752   -32247877 -1530979474   206924968   621351804   314528010  -729186324 -1085284335 -1040847016
#
#      Author: C. J. Pickard (cjp20@cam.ac.uk)
#                Space group: Pm
#

%BLOCK LATTICE_ABC
      2.50000      2.91371      8.53230
     90.00000     90.00000    108.34393
%ENDBLOCK LATTICE_ABC

%BLOCK POSITIONS_FRAC
  Li       -0.0793259       -0.3046285       -0.1465181
  Li       -0.0793259       -0.3046285        0.1465181
   N        0.3606496        0.1812707        0.4120630
   N        0.3606496        0.1812707       -0.4120630
   N       -0.1660264        0.1720647        0.2874657
   N       -0.1660264        0.1720647       -0.2874657
%ENDBLOCK POSITIONS_FRAC

KPOINTS_MP_SPACING 0.07

%BLOCK SPECIES_POT
QC5
%ENDBLOCK SPECIES_POT

SNAP_TO_SYMMETRY
SYMMETRY_GENERATE

