#              Generated by Buildcell
#
# at 15:40:02 (GMT+1.0) 26th March 2023
# in /scratch/scratch/uccabz1/launch_tmp_michael
# on node-a14b-031
# by uccabz1
#
# compiler GCC version 4.9.2
# options -cpp -iprefix /scratch/UCL/applications/gcc/4.9.2/bin/../lib/gcc/x86_64-unknown-linux-gnu/4.9.2/ -mtune=corei7 -march=x86-64 -g -Og
#
# seed  -127181449   325861796   249525587 -1108088615    94065385 -1053155070  -168750425  -884259468   149746352  -398675938  -816629792  1104739950
#
#      Author: C. J. Pickard (cjp20@cam.ac.uk)
#                Space group: Pc
#

%BLOCK LATTICE_ABC
      3.31392      5.01326      7.70476
    107.85689     90.00000     90.00000
%ENDBLOCK LATTICE_ABC

%BLOCK POSITIONS_FRAC
  Li       -0.1460379       -0.1386023       -0.4037067
  Li        0.1460379        0.3613977       -0.4037067
  Li        0.4550061       -0.0740830       -0.1183596
  Li       -0.4550061        0.4259170       -0.1183596
   N        0.4077562        0.4055386        0.3057707
   N       -0.4077562       -0.0944614        0.3057707
   N       -0.0240158       -0.1989986        0.1742657
   N        0.0240158        0.3010014        0.1742657
   N        0.2044787        0.0387625        0.3896051
   N       -0.2044787       -0.4612375        0.3896051
   N        0.0627210        0.1675113       -0.2129854
   N       -0.0627210       -0.3324887       -0.2129854
%ENDBLOCK POSITIONS_FRAC

KPOINTS_MP_SPACING 0.07

%BLOCK SPECIES_POT
QC5
%ENDBLOCK SPECIES_POT

SNAP_TO_SYMMETRY
SYMMETRY_GENERATE

