#              Generated by Buildcell
#
# at 16:07:01 (GMT+1.0) 26th March 2023
# in /scratch/scratch/uccabz1/launch_tmp_michael
# on node-a14f-035
# by uccabz1
#
# compiler GCC version 4.9.2
# options -cpp -iprefix /scratch/UCL/applications/gcc/4.9.2/bin/../lib/gcc/x86_64-unknown-linux-gnu/4.9.2/ -mtune=corei7 -march=x86-64 -g -Og
#
# seed  1096332371  -968601598   853433083   294069423 -1911243050 -1162007965     8215769 -1797807113 -1942795234  -893589185  1964435991    38386487
#
#      Author: C. J. Pickard (cjp20@cam.ac.uk)
#                Space group: P-4
#

%BLOCK LATTICE_ABC
      3.77201      6.90917      6.90917
     90.00000     90.00000     90.00000
%ENDBLOCK LATTICE_ABC

%BLOCK POSITIONS_FRAC
  Li        0.3049130       -0.1299496       -0.1622949
  Li        0.3049130        0.1299496        0.1622949
  Li       -0.3049130        0.1622949       -0.1299496
  Li       -0.3049130       -0.1622949        0.1299496
  Li       -0.2502208        0.5000000        0.0000000
  Li        0.2502208        0.0000000        0.5000000
   N       -0.3935473        0.2526487        0.3452718
   N       -0.3935473       -0.2526487       -0.3452718
   N        0.3935473       -0.3452718        0.2526487
   N        0.3935473        0.3452718       -0.2526487
   N       -0.3553098       -0.4640054       -0.3909311
   N       -0.3553098        0.4640054        0.3909311
   N        0.3553098        0.3909311       -0.4640054
   N        0.3553098       -0.3909311        0.4640054
   N       -0.1950870        0.1032399        0.1822058
   N       -0.1950870       -0.1032399       -0.1822058
   N        0.1950870       -0.1822058        0.1032399
   N        0.1950870        0.1822058       -0.1032399
%ENDBLOCK POSITIONS_FRAC

KPOINTS_MP_SPACING 0.07

%BLOCK SPECIES_POT
QC5
%ENDBLOCK SPECIES_POT

SNAP_TO_SYMMETRY
SYMMETRY_GENERATE

