#              Generated by Buildcell
#
# at 15:26:40 (GMT+1.0) 26th March 2023
# in /scratch/scratch/uccabz1/launch_tmp_michael
# on node-a14e-007
# by uccabz1
#
# compiler GCC version 4.9.2
# options -cpp -iprefix /scratch/UCL/applications/gcc/4.9.2/bin/../lib/gcc/x86_64-unknown-linux-gnu/4.9.2/ -mtune=corei7 -march=x86-64 -g -Og
#
# seed   441470101 -1258732946 -1776815901 -1360597130   799332496 -1424962350  -609569279  1279768951 -1194060066  -885159057  1904045350  -525405310
#
#      Author: C. J. Pickard (cjp20@cam.ac.uk)
#                Space group: Amm2
#

%BLOCK LATTICE_ABC
      3.51916      3.84004      4.67645
     90.00000    112.10244     90.00000
%ENDBLOCK LATTICE_ABC

%BLOCK POSITIONS_FRAC
  Li       -0.0975975        0.0000000       -0.2884975
  Li        0.1909000        0.0000000        0.2884975
   N       -0.3800656        0.2793407        0.2577772
   N        0.3621572       -0.2793407       -0.2577772
   N        0.3621572        0.2793407       -0.2577772
   N       -0.3800656       -0.2793407        0.2577772
%ENDBLOCK POSITIONS_FRAC

KPOINTS_MP_SPACING 0.07

%BLOCK SPECIES_POT
QC5
%ENDBLOCK SPECIES_POT

SNAP_TO_SYMMETRY
SYMMETRY_GENERATE

