#              Generated by Buildcell
#
# at 15:23:51 (GMT+1.0) 26th March 2023
# in /scratch/scratch/uccabz1/launch_tmp_michael
# on node-a14b-022
# by uccabz1
#
# compiler GCC version 4.9.2
# options -cpp -iprefix /scratch/UCL/applications/gcc/4.9.2/bin/../lib/gcc/x86_64-unknown-linux-gnu/4.9.2/ -mtune=corei7 -march=x86-64 -g -Og
#
# seed  -242179538  2081772654  -759333138  -789677177 -1767444199   142644520  1087360256   -19568688 -1510593823   606976964  1804939092  1855665700
#
#      Author: C. J. Pickard (cjp20@cam.ac.uk)
#                Space group: R3
#

%BLOCK LATTICE_ABC
      4.10095      4.10095      4.10095
     73.35146     73.35146     73.35146
%ENDBLOCK LATTICE_ABC

%BLOCK POSITIONS_FRAC
  Li        0.1034621        0.1034621        0.1034621
  Li       -0.3231575       -0.3231575       -0.3231575
   N        0.2643585       -0.3839666        0.4720689
   N       -0.3839666        0.4720689        0.2643585
   N        0.4720689        0.2643585       -0.3839666
   N       -0.1098751       -0.1098751       -0.1098751
%ENDBLOCK POSITIONS_FRAC

KPOINTS_MP_SPACING 0.07

%BLOCK SPECIES_POT
QC5
%ENDBLOCK SPECIES_POT

SNAP_TO_SYMMETRY
SYMMETRY_GENERATE

