#              Generated by Buildcell
#
# at 14:56:59 (GMT+1.0) 26th March 2023
# in /scratch/scratch/uccabz1/launch_tmp_michael
# on node-a14a-003
# by uccabz1
#
# compiler GCC version 4.9.2
# options -cpp -iprefix /scratch/UCL/applications/gcc/4.9.2/bin/../lib/gcc/x86_64-unknown-linux-gnu/4.9.2/ -mtune=corei7 -march=x86-64 -g -Og
#
# seed  -110172454  -714617608  -859925999  1537954433 -1167339370  -743791523  1593803248  1564932045   688096953  -412576069  1394580658  1609494999
#
#      Author: C. J. Pickard (cjp20@cam.ac.uk)
#                Space group: C2
#

%BLOCK LATTICE_ABC
      3.97750      4.08793      4.60577
     68.06980     64.41846     60.88968
%ENDBLOCK LATTICE_ABC

%BLOCK POSITIONS_FRAC
  Li        0.4871292        0.3392600        0.1509977
  Li       -0.0226131       -0.3392600       -0.1509977
   N       -0.1843780       -0.1313903        0.3623720
   N        0.0466037        0.1313903       -0.3623720
   N        0.4366632        0.2742854       -0.3657506
   N        0.3451979       -0.2742854        0.3657506
%ENDBLOCK POSITIONS_FRAC

KPOINTS_MP_SPACING 0.07

%BLOCK SPECIES_POT
QC5
%ENDBLOCK SPECIES_POT

SNAP_TO_SYMMETRY
SYMMETRY_GENERATE

