#              Generated by Buildcell
#
# at 18:35:13 (GMT+1.0) 26th March 2023
# in /scratch/scratch/uccabz1/launch_tmp_michael
# on node-a14a-019
# by uccabz1
#
# compiler GCC version 4.9.2
# options -cpp -iprefix /scratch/UCL/applications/gcc/4.9.2/bin/../lib/gcc/x86_64-unknown-linux-gnu/4.9.2/ -mtune=corei7 -march=x86-64 -g -Og
#
# seed -2031547822   235741637    86641986  1130046747 -1892643331 -2066072115 -1376825913  1772746156  -826399709 -1192014432  1594162199   220655236
#
#      Author: C. J. Pickard (cjp20@cam.ac.uk)
#                Space group: Pc
#

%BLOCK LATTICE_ABC
      2.80877      4.40365      4.63966
     90.00000     90.00000     96.23598
%ENDBLOCK LATTICE_ABC

%BLOCK POSITIONS_FRAC
  Li        0.3610675        0.4238973       -0.0343082
  Li       -0.1389325       -0.0761027        0.0343082
   N        0.3810389        0.0382479       -0.4877454
   N       -0.1189611       -0.4617521        0.4877454
   N        0.2954616        0.3645852       -0.4385837
   N       -0.2045384       -0.1354148        0.4385837
%ENDBLOCK POSITIONS_FRAC

KPOINTS_MP_SPACING 0.07

%BLOCK SPECIES_POT
QC5
%ENDBLOCK SPECIES_POT

SNAP_TO_SYMMETRY
SYMMETRY_GENERATE

