#              Generated by Buildcell
#
# at 19:39:56 (GMT+1.0) 26th March 2023
# in /scratch/scratch/uccabz1/launch_tmp_michael
# on node-a14b-028
# by uccabz1
#
# compiler GCC version 4.9.2
# options -cpp -iprefix /scratch/UCL/applications/gcc/4.9.2/bin/../lib/gcc/x86_64-unknown-linux-gnu/4.9.2/ -mtune=corei7 -march=x86-64 -g -Og
#
# seed -1784884445 -2029340792   299107212   513856395  -933909325  -116443347 -1282834012  1996063881  -416196982  -862536332 -1404043201 -1995935397
#
#      Author: C. J. Pickard (cjp20@cam.ac.uk)
#                Space group: C2221
#

%BLOCK LATTICE_ABC
      4.59696      4.59696      9.05006
     90.00000     90.00000    108.40563
%ENDBLOCK LATTICE_ABC

%BLOCK POSITIONS_FRAC
  Li       -0.0278598        0.4734919       -0.4785075
  Li        0.0278598       -0.4734919        0.0214925
  Li       -0.4734919        0.0278598       -0.0214925
  Li        0.4734919       -0.0278598        0.4785075
  Li       -0.3489984        0.3489984       -0.2500000
  Li        0.3489984       -0.3489984        0.2500000
   N        0.2683928        0.2213537        0.2703560
   N       -0.2683928       -0.2213537       -0.2296440
   N       -0.2213537       -0.2683928        0.2296440
   N        0.2213537        0.2683928       -0.2703560
   N        0.3774746        0.2647527        0.1131070
   N       -0.3774746       -0.2647527       -0.3868930
   N       -0.2647527       -0.3774746        0.3868930
   N        0.2647527        0.3774746       -0.1131070
   N       -0.2814781       -0.3537299       -0.0773552
   N        0.2814781        0.3537299        0.4226448
   N        0.3537299        0.2814781       -0.4226448
   N       -0.3537299       -0.2814781        0.0773552
%ENDBLOCK POSITIONS_FRAC

KPOINTS_MP_SPACING 0.07

%BLOCK SPECIES_POT
QC5
%ENDBLOCK SPECIES_POT

SNAP_TO_SYMMETRY
SYMMETRY_GENERATE

