#              Generated by Buildcell
#
# at 18:05:05 (GMT+1.0) 26th March 2023
# in /scratch/scratch/uccabz1/launch_tmp_michael
# on node-a14e-021
# by uccabz1
#
# compiler GCC version 4.9.2
# options -cpp -iprefix /scratch/UCL/applications/gcc/4.9.2/bin/../lib/gcc/x86_64-unknown-linux-gnu/4.9.2/ -mtune=corei7 -march=x86-64 -g -Og
#
# seed   -90632959  -443052400  -394443600   808388842  -740944006   125856791   102208682 -1867183298  1076697421  -214075582   159765344   446545802
#
#      Author: C. J. Pickard (cjp20@cam.ac.uk)
#                Space group: Cm
#

%BLOCK LATTICE_ABC
      3.57813      5.17395      5.17395
     78.10764     76.09056     76.09056
%ENDBLOCK LATTICE_ABC

%BLOCK POSITIONS_FRAC
  Li        0.1653974        0.4951423       -0.1213690
  Li        0.1653974       -0.1213690        0.4951423
  Li       -0.4445600        0.2165897        0.2165897
   N       -0.1424501        0.2386045       -0.4415270
   N       -0.1424501       -0.4415270        0.2386045
   N       -0.1976051        0.1429048       -0.1431888
   N       -0.1976051       -0.1431888        0.1429048
   N        0.4074280        0.3029969       -0.4142133
   N        0.4074280       -0.4142133        0.3029969
%ENDBLOCK POSITIONS_FRAC

KPOINTS_MP_SPACING 0.07

%BLOCK SPECIES_POT
QC5
%ENDBLOCK SPECIES_POT

SNAP_TO_SYMMETRY
SYMMETRY_GENERATE

