#              Generated by Buildcell
#
# at 18:29:54 (GMT+1.0) 26th March 2023
# in /scratch/scratch/uccabz1/launch_tmp_michael
# on node-a14a-019
# by uccabz1
#
# compiler GCC version 4.9.2
# options -cpp -iprefix /scratch/UCL/applications/gcc/4.9.2/bin/../lib/gcc/x86_64-unknown-linux-gnu/4.9.2/ -mtune=corei7 -march=x86-64 -g -Og
#
# seed   236873169  1700804023   773028958  1724237826   659616743   218153579 -1551063376  -257071276  1486094671  -525796475   962264666   115090304
#
#      Author: C. J. Pickard (cjp20@cam.ac.uk)
#                Space group: C2
#

%BLOCK LATTICE_ABC
      3.05721      3.84261      5.54051
     92.38277    106.01541     90.00000
%ENDBLOCK LATTICE_ABC

%BLOCK POSITIONS_FRAC
  Li       -0.0069153       -0.2863687        0.2853584
  Li       -0.2922737        0.2863687       -0.2853584
   N       -0.3788469       -0.3049938       -0.4811692
   N        0.1023223        0.3049938        0.4811692
   N        0.4975749        0.0343610        0.3637873
   N        0.1337876       -0.0343610       -0.3637873
%ENDBLOCK POSITIONS_FRAC

KPOINTS_MP_SPACING 0.07

%BLOCK SPECIES_POT
QC5
%ENDBLOCK SPECIES_POT

SNAP_TO_SYMMETRY
SYMMETRY_GENERATE

