#              Generated by Buildcell
#
# at 19:20:27 (GMT+1.0) 26th March 2023
# in /scratch/scratch/uccabz1/launch_tmp_michael
# on node-a14b-031
# by uccabz1
#
# compiler GCC version 4.9.2
# options -cpp -iprefix /scratch/UCL/applications/gcc/4.9.2/bin/../lib/gcc/x86_64-unknown-linux-gnu/4.9.2/ -mtune=corei7 -march=x86-64 -g -Og
#
# seed   634271703 -1488085646  -691161529 -1055624571  1760561424  1787473169   123019025  1836573032   219850830   -93219676  2027488862  1959297104
#
#      Author: C. J. Pickard (cjp20@cam.ac.uk)
#                Space group: P3
#

%BLOCK LATTICE_ABC
      5.16748      5.16748      5.30233
     90.00000     90.00000    120.00000
%ENDBLOCK LATTICE_ABC

%BLOCK POSITIONS_FRAC
  Li       -0.0585896       -0.3829670       -0.1503574
  Li        0.3829670        0.3243774       -0.1503574
  Li       -0.3243774        0.0585896       -0.1503574
  Li       -0.0000000       -0.0000000       -0.4683353
   N        0.1402696       -0.4174607        0.1562400
   N        0.4174607       -0.4422696        0.1562400
   N        0.4422696       -0.1402696        0.1562400
   N       -0.4676622        0.0050109        0.4108753
   N       -0.0050109       -0.4726731        0.4108753
   N        0.4726731        0.4676622        0.4108753
   N        0.3333333       -0.3333333        0.4189112
   N        0.0000000        0.0000000       -0.0657728
%ENDBLOCK POSITIONS_FRAC

KPOINTS_MP_SPACING 0.07

%BLOCK SPECIES_POT
QC5
%ENDBLOCK SPECIES_POT

SNAP_TO_SYMMETRY
SYMMETRY_GENERATE

