#              Generated by Buildcell
#
# at 15:13:23 (GMT+1.0) 26th March 2023
# in /scratch/scratch/uccabz1/launch_tmp_michael
# on node-a14f-035
# by uccabz1
#
# compiler GCC version 4.9.2
# options -cpp -iprefix /scratch/UCL/applications/gcc/4.9.2/bin/../lib/gcc/x86_64-unknown-linux-gnu/4.9.2/ -mtune=corei7 -march=x86-64 -g -Og
#
# seed  -460576377   257239948 -1795979039  1479524094  2053100594  1651973079  -412866832  1510599965  1692472861   469345678   575701812 -1370655064
#
#      Author: C. J. Pickard (cjp20@cam.ac.uk)
#                Space group: Cmm2
#

%BLOCK LATTICE_ABC
      3.39566      5.27200      5.27200
    113.56680     90.00000     90.00000
%ENDBLOCK LATTICE_ABC

%BLOCK POSITIONS_FRAC
  Li        0.0463207       -0.5000000       -0.0000000
  Li        0.0463207        0.0000000       -0.5000000
  Li       -0.0015705        0.0000000        0.0000000
   N       -0.3732636        0.4986575       -0.2389625
   N       -0.3732636       -0.4986575        0.2389625
   N       -0.3732636       -0.2389625        0.4986575
   N       -0.3732636        0.2389625       -0.4986575
   N       -0.0921958        0.3700049        0.3700049
   N       -0.0921958       -0.3700049       -0.3700049
%ENDBLOCK POSITIONS_FRAC

KPOINTS_MP_SPACING 0.07

%BLOCK SPECIES_POT
QC5
%ENDBLOCK SPECIES_POT

SNAP_TO_SYMMETRY
SYMMETRY_GENERATE

