#              Generated by Buildcell
#
# at 16:56:57 (GMT+1.0) 26th March 2023
# in /scratch/scratch/uccabz1/launch_tmp_michael
# on node-a14b-031
# by uccabz1
#
# compiler GCC version 4.9.2
# options -cpp -iprefix /scratch/UCL/applications/gcc/4.9.2/bin/../lib/gcc/x86_64-unknown-linux-gnu/4.9.2/ -mtune=corei7 -march=x86-64 -g -Og
#
# seed -1394074502  -523220560   397848128  -352155926  1560812781  1563795074 -1928305917  1930661981  1733175700  1094073825  1226400572 -1211816672
#
#      Author: C. J. Pickard (cjp20@cam.ac.uk)
#                Space group: I41
#

%BLOCK LATTICE_ABC
      5.56101      5.56101      7.14136
    112.91419    112.91419     90.00000
%ENDBLOCK LATTICE_ABC

%BLOCK POSITIONS_FRAC
  Li       -0.1585994        0.2226379       -0.0177920
  Li        0.1408074       -0.2404299       -0.0177920
  Li        0.4726379       -0.1091926        0.4822080
  Li        0.0095701       -0.4085994        0.4822080
  Li        0.4511937        0.4511937       -0.0976125
  Li       -0.2988063        0.2011937        0.4023875
   N       -0.1513657       -0.0498011       -0.3636515
   N       -0.2122858       -0.3138505       -0.3636515
   N        0.2001989       -0.4622858        0.1363485
   N       -0.0638505       -0.4013657        0.1363485
   N        0.1716128        0.2959571       -0.0676894
   N       -0.2393022       -0.3636465       -0.0676894
   N       -0.4540429       -0.4893022        0.4323106
   N       -0.1136465       -0.0783872        0.4323106
   N        0.1818626        0.0415449        0.3526271
   N        0.1707645        0.3110822        0.3526271
   N        0.2915449       -0.0792355       -0.1473729
   N       -0.4389178       -0.0681374       -0.1473729
%ENDBLOCK POSITIONS_FRAC

KPOINTS_MP_SPACING 0.07

%BLOCK SPECIES_POT
QC5
%ENDBLOCK SPECIES_POT

SNAP_TO_SYMMETRY
SYMMETRY_GENERATE

