#              Generated by Buildcell
#
# at 17:45:00 (GMT+1.0) 26th March 2023
# in /scratch/scratch/uccabz1/launch_tmp_michael
# on node-a14f-035
# by uccabz1
#
# compiler GCC version 4.9.2
# options -cpp -iprefix /scratch/UCL/applications/gcc/4.9.2/bin/../lib/gcc/x86_64-unknown-linux-gnu/4.9.2/ -mtune=corei7 -march=x86-64 -g -Og
#
# seed  -336967560  2065576662 -1113549323  -182181530 -2074427711  -768513729  -182580203  1515886467   238853028 -1915632987  1356976503   434670393
#
#      Author: C. J. Pickard (cjp20@cam.ac.uk)
#                Space group: R3
#

%BLOCK LATTICE_ABC
      5.22442      5.22442      5.22442
     70.50235     70.50235     70.50235
%ENDBLOCK LATTICE_ABC

%BLOCK POSITIONS_FRAC
  Li       -0.0739450       -0.3734868        0.4529336
  Li       -0.3734868        0.4529336       -0.0739450
  Li        0.4529336       -0.0739450       -0.3734868
  Li        0.1574444        0.1574444        0.1574444
   N        0.1184975        0.2411148        0.4984407
   N        0.2411148        0.4984407        0.1184975
   N        0.4984407        0.1184975        0.2411148
   N        0.3619689       -0.3154986        0.4521001
   N       -0.3154986        0.4521001        0.3619689
   N        0.4521001        0.3619689       -0.3154986
   N        0.3720426        0.3720426        0.3720426
   N       -0.2220164       -0.2220164       -0.2220164
%ENDBLOCK POSITIONS_FRAC

KPOINTS_MP_SPACING 0.07

%BLOCK SPECIES_POT
QC5
%ENDBLOCK SPECIES_POT

SNAP_TO_SYMMETRY
SYMMETRY_GENERATE

