#              Generated by Buildcell
#
# at 17:24:33 (GMT+1.0) 26th March 2023
# in /scratch/scratch/uccabz1/launch_tmp_michael
# on node-a14b-031
# by uccabz1
#
# compiler GCC version 4.9.2
# options -cpp -iprefix /scratch/UCL/applications/gcc/4.9.2/bin/../lib/gcc/x86_64-unknown-linux-gnu/4.9.2/ -mtune=corei7 -march=x86-64 -g -Og
#
# seed  -703261278 -1440266699 -1315718503  -456620233  -389474333 -1217553961   736973628   264380302  -753617152 -1824570992   676669522   119417958
#
#      Author: C. J. Pickard (cjp20@cam.ac.uk)
#                Space group: P2
#

%BLOCK LATTICE_ABC
      2.50000      4.31863      5.66898
     90.00000     91.36008     90.00000
%ENDBLOCK LATTICE_ABC

%BLOCK POSITIONS_FRAC
  Li       -0.4858320       -0.0392131        0.2207567
  Li        0.4858320       -0.0392131       -0.2207567
   N        0.2737049        0.3435130       -0.4068275
   N       -0.2737049        0.3435130        0.4068275
   N       -0.2150936       -0.4287634       -0.3098746
   N        0.2150936       -0.4287634        0.3098746
%ENDBLOCK POSITIONS_FRAC

KPOINTS_MP_SPACING 0.07

%BLOCK SPECIES_POT
QC5
%ENDBLOCK SPECIES_POT

SNAP_TO_SYMMETRY
SYMMETRY_GENERATE

