#              Generated by Buildcell
#
# at 17:50:24 (GMT+1.0) 26th March 2023
# in /scratch/scratch/uccabz1/launch_tmp_michael
# on node-a14c-005
# by uccabz1
#
# compiler GCC version 4.9.2
# options -cpp -iprefix /scratch/UCL/applications/gcc/4.9.2/bin/../lib/gcc/x86_64-unknown-linux-gnu/4.9.2/ -mtune=corei7 -march=x86-64 -g -Og
#
# seed  -405168114  -673042930   328364277   534988040   233892920  1067535404   340965413  1955688259 -1175411438 -2064112848  -936652014 -1984638438
#
#      Author: C. J. Pickard (cjp20@cam.ac.uk)
#                Space group: P3
#

%BLOCK LATTICE_ABC
      3.81058      4.33728      4.33728
    120.00000     90.00000     90.00000
%ENDBLOCK LATTICE_ABC

%BLOCK POSITIONS_FRAC
  Li        0.4064705        0.0000000        0.0000000
  Li       -0.1873620        0.3333333       -0.3333333
   N       -0.2868622        0.3986333        0.2105600
   N       -0.2868622       -0.1880733       -0.3986333
   N       -0.2868622       -0.2105600        0.1880733
   N        0.1226610       -0.3333333        0.3333333
%ENDBLOCK POSITIONS_FRAC

KPOINTS_MP_SPACING 0.07

%BLOCK SPECIES_POT
QC5
%ENDBLOCK SPECIES_POT

SNAP_TO_SYMMETRY
SYMMETRY_GENERATE

