#              Generated by Buildcell
#
# at 19:38:40 (GMT+1.0) 26th March 2023
# in /scratch/scratch/uccabz1/launch_tmp_michael
# on node-a14f-035
# by uccabz1
#
# compiler GCC version 4.9.2
# options -cpp -iprefix /scratch/UCL/applications/gcc/4.9.2/bin/../lib/gcc/x86_64-unknown-linux-gnu/4.9.2/ -mtune=corei7 -march=x86-64 -g -Og
#
# seed  -400141736  1293699001   757832837  -233298983  1213736487  1519140272   611574503 -1681266854   729633316  -731527708  -820160005   681154952
#
#      Author: C. J. Pickard (cjp20@cam.ac.uk)
#                Space group: Cm
#

%BLOCK LATTICE_ABC
      3.53071      5.14737      7.08311
     86.51186     79.78156     69.94256
%ENDBLOCK LATTICE_ABC

%BLOCK POSITIONS_FRAC
  Li       -0.4331126       -0.2665913       -0.2261032
  Li        0.3002961        0.2665913       -0.2261032
  Li       -0.4518938       -0.2585242        0.1280361
  Li        0.2895820        0.2585242        0.1280361
   N        0.4830383        0.3898099        0.3237970
   N       -0.1271517       -0.3898099        0.3237970
   N        0.0341507       -0.1551131       -0.2907361
   N       -0.1209624        0.1551131       -0.2907361
   N       -0.2687888        0.4082003       -0.4592718
   N        0.1394115       -0.4082003       -0.4592718
   N        0.1889462        0.2932489       -0.4812533
   N        0.4821951       -0.2932489       -0.4812533
%ENDBLOCK POSITIONS_FRAC

KPOINTS_MP_SPACING 0.07

%BLOCK SPECIES_POT
QC5
%ENDBLOCK SPECIES_POT

SNAP_TO_SYMMETRY
SYMMETRY_GENERATE

