#              Generated by Buildcell
#
# at 14:50:01 (GMT+1.0) 26th March 2023
# in /scratch/scratch/uccabz1/launch_tmp_michael
# on node-a14f-035
# by uccabz1
#
# compiler GCC version 4.9.2
# options -cpp -iprefix /scratch/UCL/applications/gcc/4.9.2/bin/../lib/gcc/x86_64-unknown-linux-gnu/4.9.2/ -mtune=corei7 -march=x86-64 -g -Og
#
# seed  -877875182  2019570398  1195267032  -130608125  1293048033    50185140   346875294    44162433  -412744264  2146576837   100117872  1506093470
#
#      Author: C. J. Pickard (cjp20@cam.ac.uk)
#                Space group: Pma2
#

%BLOCK LATTICE_ABC
      2.50000      3.12363      7.85765
     90.00000     90.00000     90.00000
%ENDBLOCK LATTICE_ABC

%BLOCK POSITIONS_FRAC
  Li       -0.3690547        0.4253748        0.2500000
  Li        0.3690547        0.4253748       -0.2500000
   N       -0.1912771       -0.3128941       -0.0802871
   N        0.1912771       -0.3128941        0.0802871
   N        0.1912771       -0.3128941        0.4197129
   N       -0.1912771       -0.3128941       -0.4197129
%ENDBLOCK POSITIONS_FRAC

KPOINTS_MP_SPACING 0.07

%BLOCK SPECIES_POT
QC5
%ENDBLOCK SPECIES_POT

SNAP_TO_SYMMETRY
SYMMETRY_GENERATE

