#              Generated by Buildcell
#
# at 16:19:38 (GMT+1.0) 26th March 2023
# in /scratch/scratch/uccabz1/launch_tmp_michael
# on node-a14e-021
# by uccabz1
#
# compiler GCC version 4.9.2
# options -cpp -iprefix /scratch/UCL/applications/gcc/4.9.2/bin/../lib/gcc/x86_64-unknown-linux-gnu/4.9.2/ -mtune=corei7 -march=x86-64 -g -Og
#
# seed   418235954   936527326  1857773584 -1321374024   885218165   730192762 -1623422615  1251850998  2115484169  -633516420  1978747496 -1393096967
#
#      Author: C. J. Pickard (cjp20@cam.ac.uk)
#                Space group: P3
#

%BLOCK LATTICE_ABC
      3.80000      4.32970      4.32970
    120.00000     90.00000     90.00000
%ENDBLOCK LATTICE_ABC

%BLOCK POSITIONS_FRAC
  Li        0.1156137       -0.3333333        0.3333333
  Li       -0.1293238        0.3333333       -0.3333333
   N       -0.3843592        0.4082107        0.2257728
   N       -0.3843592       -0.2257728        0.1824379
   N       -0.3843592       -0.1824379       -0.4082107
   N        0.3706766        0.3333333       -0.3333333
%ENDBLOCK POSITIONS_FRAC

KPOINTS_MP_SPACING 0.07

%BLOCK SPECIES_POT
QC5
%ENDBLOCK SPECIES_POT

SNAP_TO_SYMMETRY
SYMMETRY_GENERATE

