#              Generated by Buildcell
#
# at 18:18:19 (GMT+1.0) 26th March 2023
# in /scratch/scratch/uccabz1/launch_tmp_michael
# on node-a14c-005
# by uccabz1
#
# compiler GCC version 4.9.2
# options -cpp -iprefix /scratch/UCL/applications/gcc/4.9.2/bin/../lib/gcc/x86_64-unknown-linux-gnu/4.9.2/ -mtune=corei7 -march=x86-64 -g -Og
#
# seed  -126218453 -1599260684  -640941137   289476535 -1633784595    25412879   504765542  2035391601  1563445727  1474529092 -1770262993  2034894499
#
#      Author: C. J. Pickard (cjp20@cam.ac.uk)
#                Space group: P2
#

%BLOCK LATTICE_ABC
      3.98098      5.18185      5.80303
     90.00000     91.20278     90.00000
%ENDBLOCK LATTICE_ABC

%BLOCK POSITIONS_FRAC
  Li       -0.2628927       -0.1354171       -0.1378397
  Li        0.2628927       -0.1354171        0.1378397
  Li        0.2629283       -0.3445837       -0.3620662
  Li       -0.2629283       -0.3445837        0.3620662
   N        0.4226897        0.0806094        0.3809348
   N       -0.4226897        0.0806094       -0.3809348
   N        0.3876914        0.4547133        0.2239988
   N       -0.3876914        0.4547133       -0.2239988
   N       -0.1975794        0.0550842        0.4020141
   N        0.1975794        0.0550842       -0.4020141
   N       -0.4686730        0.2106628        0.1279220
   N        0.4686730        0.2106628       -0.1279220
%ENDBLOCK POSITIONS_FRAC

KPOINTS_MP_SPACING 0.07

%BLOCK SPECIES_POT
QC5
%ENDBLOCK SPECIES_POT

SNAP_TO_SYMMETRY
SYMMETRY_GENERATE

