#              Generated by Buildcell
#
# at 15:10:23 (GMT+1.0) 26th March 2023
# in /scratch/scratch/uccabz1/launch_tmp_michael
# on node-a14c-005
# by uccabz1
#
# compiler GCC version 4.9.2
# options -cpp -iprefix /scratch/UCL/applications/gcc/4.9.2/bin/../lib/gcc/x86_64-unknown-linux-gnu/4.9.2/ -mtune=corei7 -march=x86-64 -g -Og
#
# seed  1550935535 -1664304021  1275451156   624250481  1957991716 -1784685338  -590182031  1095945845  -821455597   526581643  1507474712 -1326996917
#
#      Author: C. J. Pickard (cjp20@cam.ac.uk)
#                Space group: Pc
#

%BLOCK LATTICE_ABC
      4.66826      5.90800      6.65769
     90.00000     90.00000    100.26036
%ENDBLOCK LATTICE_ABC

%BLOCK POSITIONS_FRAC
  Li       -0.3795358        0.3418225       -0.2430608
  Li        0.1204642       -0.1581775        0.2430608
  Li       -0.4357301        0.0802345        0.0744311
  Li        0.0642699       -0.4197655       -0.0744311
  Li       -0.4232168       -0.3642554        0.0510297
  Li        0.0767832        0.1357446       -0.0510297
   N       -0.1301192        0.2090385       -0.4318603
   N        0.3698808       -0.2909615        0.4318603
   N       -0.4990511       -0.1381158       -0.1577786
   N        0.0009489        0.3618842        0.1577786
   N       -0.1469413        0.0508972        0.2701259
   N        0.3530587       -0.4491028       -0.2701259
   N        0.0461476        0.3405550       -0.2668066
   N       -0.4538524       -0.1594450        0.2668066
   N       -0.2016320       -0.1220104        0.4370545
   N        0.2983680        0.3779896       -0.4370545
   N       -0.3061481       -0.3206990       -0.2761757
   N        0.1938519        0.1793010        0.2761757
%ENDBLOCK POSITIONS_FRAC

KPOINTS_MP_SPACING 0.07

%BLOCK SPECIES_POT
QC5
%ENDBLOCK SPECIES_POT

SNAP_TO_SYMMETRY
SYMMETRY_GENERATE

