#              Generated by Buildcell
#
# at 18:35:52 (GMT+1.0) 26th March 2023
# in /scratch/scratch/uccabz1/launch_tmp_michael
# on node-a14c-005
# by uccabz1
#
# compiler GCC version 4.9.2
# options -cpp -iprefix /scratch/UCL/applications/gcc/4.9.2/bin/../lib/gcc/x86_64-unknown-linux-gnu/4.9.2/ -mtune=corei7 -march=x86-64 -g -Og
#
# seed  -100911569  2016838434  1370839264   741931164  1996912430   404260410  1643859754 -1349969202  -254562408  1614374142  -164854333 -2080567801
#
#      Author: C. J. Pickard (cjp20@cam.ac.uk)
#                Space group: P31
#

%BLOCK LATTICE_ABC
      4.23222      4.23222     11.74839
     90.00000     90.00000    120.00000
%ENDBLOCK LATTICE_ABC

%BLOCK POSITIONS_FRAC
  Li        0.0370283        0.1504590        0.0123567
  Li       -0.1504590       -0.1134307        0.3456900
  Li        0.1134307       -0.0370283       -0.3209766
  Li       -0.3738696        0.4502851       -0.2079418
  Li       -0.4502851        0.1758453        0.1253915
  Li       -0.1758453        0.3738696        0.4587249
   N       -0.1486483        0.2584450        0.2546033
   N       -0.2584450       -0.4070934       -0.4120633
   N        0.4070934        0.1486483       -0.0787300
   N        0.2299153       -0.4688981       -0.2358987
   N        0.4688981       -0.3011866        0.0974347
   N        0.3011866       -0.2299153        0.4307680
   N        0.0952739       -0.4100108        0.3239680
   N        0.4100108       -0.4947153       -0.3426986
   N        0.4947153       -0.0952739       -0.0093653
   N       -0.1792753       -0.4140762        0.2214264
   N        0.4140762        0.2348009       -0.4452403
   N       -0.2348009        0.1792753       -0.1119070
%ENDBLOCK POSITIONS_FRAC

KPOINTS_MP_SPACING 0.07

%BLOCK SPECIES_POT
QC5
%ENDBLOCK SPECIES_POT

SNAP_TO_SYMMETRY
SYMMETRY_GENERATE

