#              Generated by Buildcell
#
# at 17:54:16 (GMT+1.0) 26th March 2023
# in /scratch/scratch/uccabz1/launch_tmp_michael
# on node-a14c-005
# by uccabz1
#
# compiler GCC version 4.9.2
# options -cpp -iprefix /scratch/UCL/applications/gcc/4.9.2/bin/../lib/gcc/x86_64-unknown-linux-gnu/4.9.2/ -mtune=corei7 -march=x86-64 -g -Og
#
# seed   115348749  1947327438   394200050  1545813746  -726893436  1942644222 -2137354334   549122511 -1327142140 -1186600430   770058630  1418942484
#
#      Author: C. J. Pickard (cjp20@cam.ac.uk)
#                Space group: P2221
#

%BLOCK LATTICE_ABC
      2.50000      3.82116      6.57377
     90.00000     90.00000     90.00000
%ENDBLOCK LATTICE_ABC

%BLOCK POSITIONS_FRAC
  Li       -0.0000000       -0.0988240        0.2500000
  Li        0.0000000        0.0988240       -0.2500000
   N        0.0188431       -0.2263361       -0.4685450
   N       -0.0188431        0.2263361        0.0314550
   N       -0.0188431       -0.2263361       -0.0314550
   N        0.0188431        0.2263361        0.4685450
%ENDBLOCK POSITIONS_FRAC

KPOINTS_MP_SPACING 0.07

%BLOCK SPECIES_POT
QC5
%ENDBLOCK SPECIES_POT

SNAP_TO_SYMMETRY
SYMMETRY_GENERATE

