#              Generated by Buildcell
#
# at 18:20:21 (GMT+1.0) 26th March 2023
# in /scratch/scratch/uccabz1/launch_tmp_michael
# on node-a14f-035
# by uccabz1
#
# compiler GCC version 4.9.2
# options -cpp -iprefix /scratch/UCL/applications/gcc/4.9.2/bin/../lib/gcc/x86_64-unknown-linux-gnu/4.9.2/ -mtune=corei7 -march=x86-64 -g -Og
#
# seed   -12129725  1169027907 -1915407511 -2102723447  1882622968 -1882521441  1081350475 -2088429733  1637931955   723023453 -1088901936   582965221
#
#      Author: C. J. Pickard (cjp20@cam.ac.uk)
#                Space group: Cmc21
#

%BLOCK LATTICE_ABC
      3.47198      5.07962      6.95125
    111.43063     90.00000     90.00000
%ENDBLOCK LATTICE_ABC

%BLOCK POSITIONS_FRAC
  Li       -0.2019792       -0.3755728       -0.2529478
  Li        0.2980208        0.3755728        0.2529478
  Li        0.2980208       -0.1226250        0.2529478
  Li       -0.2019792        0.1226250       -0.2529478
   N        0.3545892        0.3385308       -0.0276399
   N       -0.1454108       -0.3385308        0.0276399
   N       -0.1454108        0.3661707        0.0276399
   N        0.3545892       -0.3661707       -0.0276399
   N       -0.4967417       -0.3912898       -0.4871885
   N        0.0032583        0.3912898        0.4871885
   N        0.0032583        0.0958987        0.4871885
   N       -0.4967417       -0.0958987       -0.4871885
%ENDBLOCK POSITIONS_FRAC

KPOINTS_MP_SPACING 0.07

%BLOCK SPECIES_POT
QC5
%ENDBLOCK SPECIES_POT

SNAP_TO_SYMMETRY
SYMMETRY_GENERATE

