#              Generated by Buildcell
#
# at 19:47:17 (GMT+1.0) 26th March 2023
# in /scratch/scratch/uccabz1/launch_tmp_michael
# on node-a14a-019
# by uccabz1
#
# compiler GCC version 4.9.2
# options -cpp -iprefix /scratch/UCL/applications/gcc/4.9.2/bin/../lib/gcc/x86_64-unknown-linux-gnu/4.9.2/ -mtune=corei7 -march=x86-64 -g -Og
#
# seed  -557564551   754681654 -1151518993   863117828  1439412143 -1202219858 -1357810271  -686392221   656006147 -1594349347 -1096434098   446444967
#
#      Author: C. J. Pickard (cjp20@cam.ac.uk)
#                Space group: P21
#

%BLOCK LATTICE_ABC
      3.39581      4.25798      4.36845
    108.83086     90.00000     90.00000
%ENDBLOCK LATTICE_ABC

%BLOCK POSITIONS_FRAC
  Li       -0.4434263       -0.0754473       -0.3255800
  Li        0.0565737        0.0754473        0.3255800
   N        0.0565737        0.0263682       -0.1224348
   N       -0.4434263       -0.0263682        0.1224348
   N       -0.1725441        0.4616916       -0.3783161
   N        0.3274559       -0.4616916        0.3783161
%ENDBLOCK POSITIONS_FRAC

KPOINTS_MP_SPACING 0.07

%BLOCK SPECIES_POT
QC5
%ENDBLOCK SPECIES_POT

SNAP_TO_SYMMETRY
SYMMETRY_GENERATE

