#              Generated by Buildcell
#
# at 18:32:27 (GMT+1.0) 26th March 2023
# in /scratch/scratch/uccabz1/launch_tmp_michael
# on node-a14c-005
# by uccabz1
#
# compiler GCC version 4.9.2
# options -cpp -iprefix /scratch/UCL/applications/gcc/4.9.2/bin/../lib/gcc/x86_64-unknown-linux-gnu/4.9.2/ -mtune=corei7 -march=x86-64 -g -Og
#
# seed   740157058   501824521  1151952392    86645529 -1604685987 -1506832305   919085518 -1708641523  1722879138  -857169878   731518319  1692472861
#
#      Author: C. J. Pickard (cjp20@cam.ac.uk)
#                Space group: P21/m
#

%BLOCK LATTICE_ABC
      4.77226      5.00585      7.89742
     90.00000     96.06414     90.00000
%ENDBLOCK LATTICE_ABC

%BLOCK POSITIONS_FRAC
  Li       -0.0957594       -0.0002923        0.3443715
  Li        0.0957594        0.4997077       -0.3443715
  Li        0.0957594        0.0002923       -0.3443715
  Li       -0.0957594       -0.4997077        0.3443715
  Li       -0.2963364       -0.2500000        0.0348045
  Li        0.2963364        0.2500000       -0.0348045
   N        0.0414063       -0.0980790       -0.1043237
   N       -0.0414063        0.4019210        0.1043237
   N       -0.0414063        0.0980790        0.1043237
   N        0.0414063       -0.4019210       -0.1043237
   N       -0.2068705        0.0960665       -0.0728490
   N        0.2068705       -0.4039335        0.0728490
   N        0.2068705       -0.0960665        0.0728490
   N       -0.2068705        0.4039335       -0.0728490
   N       -0.3776458        0.0983419        0.4920862
   N        0.3776458       -0.4016581       -0.4920862
   N        0.3776458       -0.0983419       -0.4920862
   N       -0.3776458        0.4016581        0.4920862
%ENDBLOCK POSITIONS_FRAC

KPOINTS_MP_SPACING 0.07

%BLOCK SPECIES_POT
QC5
%ENDBLOCK SPECIES_POT

SNAP_TO_SYMMETRY
SYMMETRY_GENERATE

