#              Generated by Buildcell
#
# at 16:58:17 (GMT+1.0) 26th March 2023
# in /scratch/scratch/uccabz1/launch_tmp_michael
# on node-a14b-022
# by uccabz1
#
# compiler GCC version 4.9.2
# options -cpp -iprefix /scratch/UCL/applications/gcc/4.9.2/bin/../lib/gcc/x86_64-unknown-linux-gnu/4.9.2/ -mtune=corei7 -march=x86-64 -g -Og
#
# seed  1940499047  1725591897   284678790   -82836366   -14315554   378701174   425561061   499015810 -1070039992 -1882848447  1555936125 -1216570772
#
#      Author: C. J. Pickard (cjp20@cam.ac.uk)
#                Space group: I4
#

%BLOCK LATTICE_ABC
      5.42976      5.42976      6.96927
    112.92647    112.92647     90.00000
%ENDBLOCK LATTICE_ABC

%BLOCK POSITIONS_FRAC
  Li        0.1680387       -0.2541145        0.0977788
  Li       -0.0702599        0.3518933        0.0977788
  Li       -0.2541145       -0.0702599        0.0977788
  Li        0.3518933        0.1680387        0.0977788
  Li       -0.2392120        0.2607880       -0.4784241
  Li        0.2607880       -0.2392120       -0.4784241
   N       -0.4461634       -0.2007699        0.2261384
   N       -0.3276982        0.4269083        0.2261384
   N       -0.2007699       -0.3276982        0.2261384
   N        0.4269083       -0.4461634        0.2261384
   N        0.0810029        0.3824064       -0.1297125
   N       -0.2107155        0.4878810       -0.1297125
   N        0.3824064       -0.2107155       -0.1297125
   N        0.4878810        0.0810029       -0.1297125
   N        0.0349460       -0.1766351       -0.3193589
   N       -0.3543049       -0.1427237       -0.3193589
   N       -0.1766351       -0.3543049       -0.3193589
   N       -0.1427237        0.0349460       -0.3193589
%ENDBLOCK POSITIONS_FRAC

KPOINTS_MP_SPACING 0.07

%BLOCK SPECIES_POT
QC5
%ENDBLOCK SPECIES_POT

SNAP_TO_SYMMETRY
SYMMETRY_GENERATE

