#              Generated by Buildcell
#
# at 16:31:08 (GMT+1.0) 26th March 2023
# in /scratch/scratch/uccabz1/launch_tmp_michael
# on node-a14e-007
# by uccabz1
#
# compiler GCC version 4.9.2
# options -cpp -iprefix /scratch/UCL/applications/gcc/4.9.2/bin/../lib/gcc/x86_64-unknown-linux-gnu/4.9.2/ -mtune=corei7 -march=x86-64 -g -Og
#
# seed   215758412  1169169206   523316537   191476235   189038005 -1311455319  -981372206  1658463929  1941826100  -249879824  1436133100  -184094808
#
#      Author: C. J. Pickard (cjp20@cam.ac.uk)
#                Space group: R3
#

%BLOCK LATTICE_ABC
      4.60091      4.60091      4.60091
    100.15915    100.15915    100.15915
%ENDBLOCK LATTICE_ABC

%BLOCK POSITIONS_FRAC
  Li        0.2067531        0.0780461       -0.3087241
  Li       -0.3087241        0.2067531        0.0780461
  Li        0.0780461       -0.3087241        0.2067531
   N       -0.4877306        0.4890661       -0.2857746
   N       -0.2857746       -0.4877306        0.4890661
   N        0.4890661       -0.2857746       -0.4877306
   N        0.3305404        0.0845992        0.2127335
   N        0.2127335        0.3305404        0.0845992
   N        0.0845992        0.2127335        0.3305404
%ENDBLOCK POSITIONS_FRAC

KPOINTS_MP_SPACING 0.07

%BLOCK SPECIES_POT
QC5
%ENDBLOCK SPECIES_POT

SNAP_TO_SYMMETRY
SYMMETRY_GENERATE

