#              Generated by Buildcell
#
# at 16:23:10 (GMT+1.0) 26th March 2023
# in /scratch/scratch/uccabz1/launch_tmp_michael
# on node-a14e-021
# by uccabz1
#
# compiler GCC version 4.9.2
# options -cpp -iprefix /scratch/UCL/applications/gcc/4.9.2/bin/../lib/gcc/x86_64-unknown-linux-gnu/4.9.2/ -mtune=corei7 -march=x86-64 -g -Og
#
# seed  1263722168 -1766807295  1687240438  1600329553 -2092789063   851273991  -801086326  1240867490  -784803651  1632018759   333296872  1564895811
#
#      Author: C. J. Pickard (cjp20@cam.ac.uk)
#                Space group: Pm
#

%BLOCK LATTICE_ABC
      2.50020      6.06265      7.73904
     90.00000     90.00000    100.29094
%ENDBLOCK LATTICE_ABC

%BLOCK POSITIONS_FRAC
  Li       -0.0186535        0.2176888        0.3384799
  Li       -0.0186535        0.2176888       -0.3384799
  Li       -0.3967250        0.4988451       -0.1615189
  Li       -0.3967250        0.4988451        0.1615189
   N       -0.4259481       -0.0657286        0.4025430
   N       -0.4259481       -0.0657286       -0.4025430
   N        0.0518349       -0.0444888       -0.2076681
   N        0.0518349       -0.0444888        0.2076681
   N        0.3815903       -0.2642870        0.2886914
   N        0.3815903       -0.2642870       -0.2886914
   N       -0.4676671       -0.4533364        0.4028701
   N       -0.4676671       -0.4533364       -0.4028701
%ENDBLOCK POSITIONS_FRAC

KPOINTS_MP_SPACING 0.07

%BLOCK SPECIES_POT
QC5
%ENDBLOCK SPECIES_POT

SNAP_TO_SYMMETRY
SYMMETRY_GENERATE

