#              Generated by Buildcell
#
# at 18:07:21 (GMT+1.0) 26th March 2023
# in /scratch/scratch/uccabz1/launch_tmp_michael
# on node-a14a-019
# by uccabz1
#
# compiler GCC version 4.9.2
# options -cpp -iprefix /scratch/UCL/applications/gcc/4.9.2/bin/../lib/gcc/x86_64-unknown-linux-gnu/4.9.2/ -mtune=corei7 -march=x86-64 -g -Og
#
# seed   606014284 -1357721643  -482224271   298826077  -637252154 -1834283237 -1412913387  -102026623 -2020770303  1243845635  1732637541  1404594576
#
#      Author: C. J. Pickard (cjp20@cam.ac.uk)
#                Space group: Pmm2
#

%BLOCK LATTICE_ABC
      3.31846      4.99973      5.29866
     90.00000     90.00000     90.00000
%ENDBLOCK LATTICE_ABC

%BLOCK POSITIONS_FRAC
  Li        0.0000000       -0.2500000        0.4818733
  Li        0.0000000        0.2500000        0.4818733
  Li        0.0000000        0.5000000        0.0732604
   N       -0.2738540        0.1638148       -0.2139043
   N        0.2738540       -0.1638148       -0.2139043
   N       -0.2738540       -0.1638148       -0.2139043
   N        0.2738540        0.1638148       -0.2139043
   N        0.2739557        0.5000000       -0.2416091
   N       -0.2739557        0.5000000       -0.2416091
%ENDBLOCK POSITIONS_FRAC

KPOINTS_MP_SPACING 0.07

%BLOCK SPECIES_POT
QC5
%ENDBLOCK SPECIES_POT

SNAP_TO_SYMMETRY
SYMMETRY_GENERATE

