#              Generated by Buildcell
#
# at 19:14:07 (GMT+1.0) 26th March 2023
# in /scratch/scratch/uccabz1/launch_tmp_michael
# on node-a14b-031
# by uccabz1
#
# compiler GCC version 4.9.2
# options -cpp -iprefix /scratch/UCL/applications/gcc/4.9.2/bin/../lib/gcc/x86_64-unknown-linux-gnu/4.9.2/ -mtune=corei7 -march=x86-64 -g -Og
#
# seed  2057961835  -613448874 -2102410652 -1817124088  1241809954  -961437627 -1101069559  2074985530    64203049  1840503207 -1234127843   192423897
#
#      Author: C. J. Pickard (cjp20@cam.ac.uk)
#                Space group: Pnn2
#

%BLOCK LATTICE_ABC
      2.50000      3.52388      6.82145
     90.00000     90.00000     90.00000
%ENDBLOCK LATTICE_ABC

%BLOCK POSITIONS_FRAC
  Li        0.2407665       -0.5000000        0.0000000
  Li       -0.2592335        0.0000000        0.5000000
   N       -0.0623923        0.4308974       -0.3460650
   N       -0.0623923       -0.4308974        0.3460650
   N        0.4376077       -0.0691026       -0.1539350
   N        0.4376077        0.0691026        0.1539350
%ENDBLOCK POSITIONS_FRAC

KPOINTS_MP_SPACING 0.07

%BLOCK SPECIES_POT
QC5
%ENDBLOCK SPECIES_POT

SNAP_TO_SYMMETRY
SYMMETRY_GENERATE

