#              Generated by Buildcell
#
# at 17:49:50 (GMT+1.0) 26th March 2023
# in /scratch/scratch/uccabz1/launch_tmp_michael
# on node-a14c-005
# by uccabz1
#
# compiler GCC version 4.9.2
# options -cpp -iprefix /scratch/UCL/applications/gcc/4.9.2/bin/../lib/gcc/x86_64-unknown-linux-gnu/4.9.2/ -mtune=corei7 -march=x86-64 -g -Og
#
# seed -1852143150 -1037678938 -1674791570   268777316 -1369243473  1424917914  -988391983 -1655671350 -1614288210 -1677983500  -747239080  -169204449
#
#      Author: C. J. Pickard (cjp20@cam.ac.uk)
#                Space group: C2221
#

%BLOCK LATTICE_ABC
      4.50483      5.58394      5.58394
    118.49058     90.00000     90.00000
%ENDBLOCK LATTICE_ABC

%BLOCK POSITIONS_FRAC
  Li        0.0965272        0.1662995        0.4460449
  Li       -0.4034728       -0.1662995       -0.4460449
  Li        0.4034728       -0.4460449       -0.1662995
  Li       -0.0965272        0.4460449        0.1662995
   N        0.1025286       -0.2126948        0.3346402
   N       -0.3974714        0.2126948       -0.3346402
   N        0.3974714       -0.3346402        0.2126948
   N       -0.1025286        0.3346402       -0.2126948
   N       -0.0556333        0.0411557       -0.2855169
   N        0.4443667       -0.0411557        0.2855169
   N       -0.4443667        0.2855169       -0.0411557
   N        0.0556333       -0.2855169        0.0411557
%ENDBLOCK POSITIONS_FRAC

KPOINTS_MP_SPACING 0.07

%BLOCK SPECIES_POT
QC5
%ENDBLOCK SPECIES_POT

SNAP_TO_SYMMETRY
SYMMETRY_GENERATE

