#              Generated by Buildcell
#
# at 19:37:18 (GMT+1.0) 26th March 2023
# in /scratch/scratch/uccabz1/launch_tmp_michael
# on node-a14e-021
# by uccabz1
#
# compiler GCC version 4.9.2
# options -cpp -iprefix /scratch/UCL/applications/gcc/4.9.2/bin/../lib/gcc/x86_64-unknown-linux-gnu/4.9.2/ -mtune=corei7 -march=x86-64 -g -Og
#
# seed  2074467605  -469668308  -607425956  -420426271 -1984473559   383139806 -2033224681  -666278391  -711959039 -2005788411  -500301952  2089118421
#
#      Author: C. J. Pickard (cjp20@cam.ac.uk)
#                Space group: Pc
#

%BLOCK LATTICE_ABC
      4.14802      5.13075      6.29075
    111.75880     90.00000     90.00000
%ENDBLOCK LATTICE_ABC

%BLOCK POSITIONS_FRAC
  Li       -0.3191794       -0.2178763       -0.2785952
  Li        0.3191794        0.2821237        0.2214048
  Li        0.0678336        0.3169516       -0.3857420
  Li       -0.0678336       -0.1830484        0.1142580
   N       -0.4395115       -0.3636688        0.4073968
   N        0.4395115        0.1363312       -0.0926032
   N        0.0928732       -0.0287776       -0.2137452
   N       -0.0928732        0.4712224        0.2862548
   N        0.1176856       -0.3042583       -0.1828274
   N       -0.1176856        0.1957417        0.3171726
   N       -0.4536091        0.4417859        0.0367901
   N        0.4536091       -0.0582141       -0.4632099
%ENDBLOCK POSITIONS_FRAC

KPOINTS_MP_SPACING 0.07

%BLOCK SPECIES_POT
QC5
%ENDBLOCK SPECIES_POT

SNAP_TO_SYMMETRY
SYMMETRY_GENERATE

