#              Generated by Buildcell
#
# at 20:27:08 (GMT+1.0) 26th March 2023
# in /scratch/scratch/uccabz1/launch_tmp_michael
# on node-a14a-001
# by uccabz1
#
# compiler GCC version 4.9.2
# options -cpp -iprefix /scratch/UCL/applications/gcc/4.9.2/bin/../lib/gcc/x86_64-unknown-linux-gnu/4.9.2/ -mtune=corei7 -march=x86-64 -g -Og
#
# seed    77580399   -48239334 -1086081256 -1083688074  1953404730  1377252759  1530526298  1364304304  1285872328  1854822680   259392561  1766914448
#
#      Author: C. J. Pickard (cjp20@cam.ac.uk)
#                Space group: Pmm2
#

%BLOCK LATTICE_ABC
      3.12456      5.95132      9.39054
     90.00000     90.00000     90.00000
%ENDBLOCK LATTICE_ABC

%BLOCK POSITIONS_FRAC
  Li       -0.3799570       -0.2899256        0.1839964
  Li       -0.3799570        0.2899256       -0.1839964
  Li       -0.3799570       -0.2899256       -0.1839964
  Li       -0.3799570        0.2899256        0.1839964
  Li       -0.1979894        0.0000000       -0.3668873
  Li       -0.1979894        0.0000000        0.3668873
   N        0.1162307       -0.3739779       -0.0798679
   N        0.1162307        0.3739779        0.0798679
   N        0.1162307       -0.3739779        0.0798679
   N        0.1162307        0.3739779       -0.0798679
   N        0.3030116        0.3624833       -0.4196381
   N        0.3030116       -0.3624833        0.4196381
   N        0.3030116        0.3624833        0.4196381
   N        0.3030116       -0.3624833       -0.4196381
   N        0.2023470       -0.1260221       -0.0799198
   N        0.2023470        0.1260221        0.0799198
   N        0.2023470       -0.1260221        0.0799198
   N        0.2023470        0.1260221       -0.0799198
%ENDBLOCK POSITIONS_FRAC

KPOINTS_MP_SPACING 0.07

%BLOCK SPECIES_POT
QC5
%ENDBLOCK SPECIES_POT

SNAP_TO_SYMMETRY
SYMMETRY_GENERATE

