#              Generated by Buildcell
#
# at 20:04:41 (GMT+1.0) 26th March 2023
# in /scratch/scratch/uccabz1/launch_tmp_michael
# on node-a14b-031
# by uccabz1
#
# compiler GCC version 4.9.2
# options -cpp -iprefix /scratch/UCL/applications/gcc/4.9.2/bin/../lib/gcc/x86_64-unknown-linux-gnu/4.9.2/ -mtune=corei7 -march=x86-64 -g -Og
#
# seed  -406289379  1074389336   -57473325  1182969227 -1389310402 -1147264589 -1471370115 -1010753462  1568698673  1546421757  -236138665 -2118020240
#
#      Author: C. J. Pickard (cjp20@cam.ac.uk)
#                Space group: Cc
#

%BLOCK LATTICE_ABC
      2.52159      3.79645      6.80749
     78.76017     79.32677     70.60376
%ENDBLOCK LATTICE_ABC

%BLOCK POSITIONS_FRAC
  Li       -0.0861773        0.2622001       -0.0839964
  Li        0.4079736       -0.2377999        0.4160036
   N        0.3169795       -0.2061390        0.0941935
   N        0.2949660        0.2938610       -0.4058065
   N       -0.2757747        0.0335159       -0.2745753
   N        0.0168341       -0.4664841        0.2254247
%ENDBLOCK POSITIONS_FRAC

KPOINTS_MP_SPACING 0.07

%BLOCK SPECIES_POT
QC5
%ENDBLOCK SPECIES_POT

SNAP_TO_SYMMETRY
SYMMETRY_GENERATE

