#              Generated by Buildcell
#
# at 16:22:12 (GMT+1.0) 26th March 2023
# in /scratch/scratch/uccabz1/launch_tmp_michael
# on node-a14a-001
# by uccabz1
#
# compiler GCC version 4.9.2
# options -cpp -iprefix /scratch/UCL/applications/gcc/4.9.2/bin/../lib/gcc/x86_64-unknown-linux-gnu/4.9.2/ -mtune=corei7 -march=x86-64 -g -Og
#
# seed  -508800470   952548085  1895689207  -773374928  1276961773  1814600740  1206173248 -1226122995  1931149971  1830164621  1654629217   498135977
#
#      Author: C. J. Pickard (cjp20@cam.ac.uk)
#                Space group: P21/c
#

%BLOCK LATTICE_ABC
      4.23625      4.54428      6.62740
     90.00000     90.00000    107.27146
%ENDBLOCK LATTICE_ABC

%BLOCK POSITIONS_FRAC
  Li       -0.3635845       -0.1041684        0.3511394
  Li       -0.1364155       -0.3958316       -0.1488606
  Li        0.3635845        0.1041684       -0.3511394
  Li        0.1364155        0.3958316        0.1488606
   N        0.3419482        0.2421262       -0.0646832
   N        0.1580518        0.2578738        0.4353168
   N       -0.3419482       -0.2421262        0.0646832
   N       -0.1580518       -0.2578738       -0.4353168
   N        0.2908897       -0.3253317       -0.3889112
   N        0.2091103       -0.1746683        0.1110888
   N       -0.2908897        0.3253317        0.3889112
   N       -0.2091103        0.1746683       -0.1110888
%ENDBLOCK POSITIONS_FRAC

KPOINTS_MP_SPACING 0.07

%BLOCK SPECIES_POT
QC5
%ENDBLOCK SPECIES_POT

SNAP_TO_SYMMETRY
SYMMETRY_GENERATE

