#              Generated by Buildcell
#
# at 18:01:07 (GMT+1.0) 26th March 2023
# in /scratch/scratch/uccabz1/launch_tmp_michael
# on node-a14b-028
# by uccabz1
#
# compiler GCC version 4.9.2
# options -cpp -iprefix /scratch/UCL/applications/gcc/4.9.2/bin/../lib/gcc/x86_64-unknown-linux-gnu/4.9.2/ -mtune=corei7 -march=x86-64 -g -Og
#
# seed   481841971  1606641651   503972902   670624660   509910441   895081294  1151747000  1736202215  -282886621   115071859  -720029661  -644736173
#
#      Author: C. J. Pickard (cjp20@cam.ac.uk)
#                Space group: P3
#

%BLOCK LATTICE_ABC
      5.70644      5.70644      6.22351
     90.00000     90.00000    120.00000
%ENDBLOCK LATTICE_ABC

%BLOCK POSITIONS_FRAC
  Li        0.2908071        0.1694757        0.2873186
  Li       -0.1213314       -0.2908071        0.2873186
  Li       -0.1694757        0.1213314        0.2873186
  Li        0.2196070       -0.1572213       -0.0075144
  Li       -0.3768283       -0.2196070       -0.0075144
  Li        0.1572213        0.3768283       -0.0075144
   N       -0.4528755       -0.2188160        0.4641053
   N        0.2340594        0.4528755        0.4641053
   N        0.2188160       -0.2340594        0.4641053
   N       -0.1381522       -0.3311234       -0.1192204
   N       -0.1929711        0.1381522       -0.1192204
   N        0.3311234        0.1929711       -0.1192204
   N       -0.3051362        0.1967233       -0.3169741
   N       -0.4981405        0.3051362       -0.3169741
   N       -0.1967233        0.4981405       -0.3169741
   N       -0.3717630       -0.4846747       -0.4897549
   N       -0.1129117        0.3717630       -0.4897549
   N        0.4846747        0.1129117       -0.4897549
%ENDBLOCK POSITIONS_FRAC

KPOINTS_MP_SPACING 0.07

%BLOCK SPECIES_POT
QC5
%ENDBLOCK SPECIES_POT

SNAP_TO_SYMMETRY
SYMMETRY_GENERATE

