#              Generated by Buildcell
#
# at 15:58:19 (GMT+1.0) 26th March 2023
# in /scratch/scratch/uccabz1/launch_tmp_michael
# on node-a14b-031
# by uccabz1
#
# compiler GCC version 4.9.2
# options -cpp -iprefix /scratch/UCL/applications/gcc/4.9.2/bin/../lib/gcc/x86_64-unknown-linux-gnu/4.9.2/ -mtune=corei7 -march=x86-64 -g -Og
#
# seed   353777086 -1983342257 -1273102442  1377910662   984910321   896914002  1788872574 -1847341924  -653931456  2012074593 -1886940720 -2115573252
#
#      Author: C. J. Pickard (cjp20@cam.ac.uk)
#                Space group: Cc
#

%BLOCK LATTICE_ABC
      3.65064      4.38806      4.38806
     64.35549     81.46817     81.46817
%ENDBLOCK LATTICE_ABC

%BLOCK POSITIONS_FRAC
  Li        0.0333579       -0.2117303        0.1540296
  Li       -0.4666421        0.1540296       -0.2117303
   N        0.4678651       -0.4350402        0.3881447
   N       -0.0321349        0.3881447       -0.4350402
   N        0.4585329       -0.3963596       -0.2192466
   N       -0.0414671       -0.2192466       -0.3963596
%ENDBLOCK POSITIONS_FRAC

KPOINTS_MP_SPACING 0.07

%BLOCK SPECIES_POT
QC5
%ENDBLOCK SPECIES_POT

SNAP_TO_SYMMETRY
SYMMETRY_GENERATE

