#              Generated by Buildcell
#
# at 17:19:44 (GMT+1.0) 26th March 2023
# in /scratch/scratch/uccabz1/launch_tmp_michael
# on node-a14a-019
# by uccabz1
#
# compiler GCC version 4.9.2
# options -cpp -iprefix /scratch/UCL/applications/gcc/4.9.2/bin/../lib/gcc/x86_64-unknown-linux-gnu/4.9.2/ -mtune=corei7 -march=x86-64 -g -Og
#
# seed  1024746079    39491293  -865427937  1295736127  2072676108   705289779  -858030300   737486158  1923202407  1150293387  -282835960 -1747607269
#
#      Author: C. J. Pickard (cjp20@cam.ac.uk)
#                Space group: I222
#

%BLOCK LATTICE_ABC
      4.97740      5.21512      5.78528
    116.79007    115.47884     90.00000
%ENDBLOCK LATTICE_ABC

%BLOCK POSITIONS_FRAC
  Li       -0.3274045        0.4178704        0.3330790
  Li       -0.3395164       -0.0847913        0.3330790
  Li        0.3395164       -0.4178704       -0.3330790
  Li        0.3274045        0.0847913       -0.3330790
   N       -0.4587821        0.2661391       -0.4549945
   N        0.0037877        0.2788665       -0.4549945
   N       -0.0037877       -0.2661391        0.4549945
   N        0.4587821       -0.2788665        0.4549945
   N       -0.1944159        0.3864608        0.0608373
   N        0.2552532       -0.3256234        0.0608373
   N       -0.2552532       -0.3864608       -0.0608373
   N        0.1944159        0.3256234       -0.0608373
%ENDBLOCK POSITIONS_FRAC

KPOINTS_MP_SPACING 0.07

%BLOCK SPECIES_POT
QC5
%ENDBLOCK SPECIES_POT

SNAP_TO_SYMMETRY
SYMMETRY_GENERATE

