#              Generated by Buildcell
#
# at 15:40:33 (GMT+1.0) 26th March 2023
# in /scratch/scratch/uccabz1/launch_tmp_michael
# on node-a14c-005
# by uccabz1
#
# compiler GCC version 4.9.2
# options -cpp -iprefix /scratch/UCL/applications/gcc/4.9.2/bin/../lib/gcc/x86_64-unknown-linux-gnu/4.9.2/ -mtune=corei7 -march=x86-64 -g -Og
#
# seed  -542677982 -1860069473  1120083269 -1439115483   663442379 -1547370691   425032873   740314150  -500496736  1166119818 -2018843926   376417678
#
#      Author: C. J. Pickard (cjp20@cam.ac.uk)
#                Space group: Cm
#

%BLOCK LATTICE_ABC
      4.10180      5.55612      8.13950
    109.95649     96.03719     90.00000
%ENDBLOCK LATTICE_ABC

%BLOCK POSITIONS_FRAC
  Li       -0.0074806        0.0993413       -0.2512712
  Li       -0.0074806       -0.3506125       -0.2512712
  Li       -0.4173275       -0.2785885       -0.0071321
  Li       -0.4173275        0.2714564       -0.0071321
  Li        0.3381829        0.4378685        0.4257822
  Li        0.3381829       -0.0120863        0.4257822
   N       -0.2668451       -0.1842422        0.3615247
   N       -0.2668451       -0.4542331        0.3615247
   N        0.0043843        0.1294627       -0.0110534
   N        0.0043843       -0.1405161       -0.0110534
   N       -0.0413201        0.3863505        0.2054656
   N       -0.0413201       -0.1808849        0.2054656
   N        0.4542368        0.4724002        0.2147728
   N        0.4542368       -0.2576274        0.2147728
   N       -0.1778301        0.0803107        0.4892980
   N       -0.1778301        0.4089873        0.4892980
   N       -0.3980320        0.4528106       -0.3643510
   N       -0.3980320        0.1828383       -0.3643510
%ENDBLOCK POSITIONS_FRAC

KPOINTS_MP_SPACING 0.07

%BLOCK SPECIES_POT
QC5
%ENDBLOCK SPECIES_POT

SNAP_TO_SYMMETRY
SYMMETRY_GENERATE

