#              Generated by Buildcell
#
# at 19:11:23 (GMT+1.0) 26th March 2023
# in /scratch/scratch/uccabz1/launch_tmp_michael
# on node-a14e-007
# by uccabz1
#
# compiler GCC version 4.9.2
# options -cpp -iprefix /scratch/UCL/applications/gcc/4.9.2/bin/../lib/gcc/x86_64-unknown-linux-gnu/4.9.2/ -mtune=corei7 -march=x86-64 -g -Og
#
# seed  1806261144   624162140   361256775  1204303075  -260586773  -724400763  -157898742  1691888187  -282246218 -1347641535  1447012444  -863017544
#
#      Author: C. J. Pickard (cjp20@cam.ac.uk)
#                Space group: Amm2
#

%BLOCK LATTICE_ABC
      5.00909      5.00909      7.88602
     90.00000     90.00000    108.71229
%ENDBLOCK LATTICE_ABC

%BLOCK POSITIONS_FRAC
  Li       -0.2604695       -0.3114424       -0.3199330
  Li        0.3114424        0.2604695        0.3199330
  Li        0.3114424        0.2604695       -0.3199330
  Li       -0.2604695       -0.3114424        0.3199330
  Li        0.4869117       -0.0587703       -0.5000000
  Li        0.0587703       -0.4869117       -0.5000000
   N       -0.4112115       -0.0040235        0.2674042
   N        0.0040235        0.4112115       -0.2674042
   N        0.0040235        0.4112115        0.2674042
   N       -0.4112115       -0.0040235       -0.2674042
   N        0.0453144       -0.3022339        0.1750100
   N        0.3022339       -0.0453144       -0.1750100
   N        0.3022339       -0.0453144        0.1750100
   N        0.0453144       -0.3022339       -0.1750100
   N        0.2017500        0.4185106       -0.1136857
   N       -0.4185106       -0.2017500        0.1136857
   N       -0.4185106       -0.2017500       -0.1136857
   N        0.2017500        0.4185106        0.1136857
%ENDBLOCK POSITIONS_FRAC

KPOINTS_MP_SPACING 0.07

%BLOCK SPECIES_POT
QC5
%ENDBLOCK SPECIES_POT

SNAP_TO_SYMMETRY
SYMMETRY_GENERATE

