#              Generated by Buildcell
#
# at 16:20:24 (GMT+1.0) 26th March 2023
# in /scratch/scratch/uccabz1/launch_tmp_michael
# on node-a14e-021
# by uccabz1
#
# compiler GCC version 4.9.2
# options -cpp -iprefix /scratch/UCL/applications/gcc/4.9.2/bin/../lib/gcc/x86_64-unknown-linux-gnu/4.9.2/ -mtune=corei7 -march=x86-64 -g -Og
#
# seed  1640281749  -239140872  1832377042  1730093129    77929239   -42841580  -852370866 -1931854466  1954596025 -1817724040  -437575795   496168435
#
#      Author: C. J. Pickard (cjp20@cam.ac.uk)
#                Space group: P21
#

%BLOCK LATTICE_ABC
      2.87147      3.51324      6.19552
     90.00000    101.38225     90.00000
%ENDBLOCK LATTICE_ABC

%BLOCK POSITIONS_FRAC
  Li        0.3708385        0.4326764       -0.3687478
  Li       -0.3708385       -0.0673236        0.3687478
   N       -0.3828416       -0.4732935        0.1514834
   N        0.3828416        0.0267065       -0.1514834
   N        0.1722703       -0.3739696       -0.0526159
   N       -0.1722703        0.1260304        0.0526159
%ENDBLOCK POSITIONS_FRAC

KPOINTS_MP_SPACING 0.07

%BLOCK SPECIES_POT
QC5
%ENDBLOCK SPECIES_POT

SNAP_TO_SYMMETRY
SYMMETRY_GENERATE

