#              Generated by Buildcell
#
# at 19:44:05 (GMT+1.0) 26th March 2023
# in /scratch/scratch/uccabz1/launch_tmp_michael
# on node-a14b-031
# by uccabz1
#
# compiler GCC version 4.9.2
# options -cpp -iprefix /scratch/UCL/applications/gcc/4.9.2/bin/../lib/gcc/x86_64-unknown-linux-gnu/4.9.2/ -mtune=corei7 -march=x86-64 -g -Og
#
# seed -1776366784  -732982222  -386632021   616284620   317695976   283443247  -435669166 -1723226958    29035157 -2145295837  1222196705  -496739876
#
#      Author: C. J. Pickard (cjp20@cam.ac.uk)
#                Space group: Pc
#

%BLOCK LATTICE_ABC
      4.82414      5.00047      5.46891
     90.00000     90.00000    112.46806
%ENDBLOCK LATTICE_ABC

%BLOCK POSITIONS_FRAC
  Li       -0.1410115       -0.0465343       -0.0628686
  Li        0.3589885       -0.0465343        0.0628686
  Li        0.3865840        0.4224729        0.2430190
  Li       -0.1134160        0.4224729       -0.2430190
   N       -0.1955046       -0.4858297        0.1998163
   N        0.3044954       -0.4858297       -0.1998163
   N        0.4161866        0.2806230       -0.1376614
   N       -0.0838134        0.2806230        0.1376614
   N        0.1495731       -0.4526287        0.0292430
   N       -0.3504269       -0.4526287       -0.0292430
   N        0.3409081        0.2699265       -0.4346193
   N       -0.1590919        0.2699265        0.4346193
%ENDBLOCK POSITIONS_FRAC

KPOINTS_MP_SPACING 0.07

%BLOCK SPECIES_POT
QC5
%ENDBLOCK SPECIES_POT

SNAP_TO_SYMMETRY
SYMMETRY_GENERATE

