#              Generated by Buildcell
#
# at 15:36:26 (GMT+1.0) 26th March 2023
# in /scratch/scratch/uccabz1/launch_tmp_michael
# on node-a14a-019
# by uccabz1
#
# compiler GCC version 4.9.2
# options -cpp -iprefix /scratch/UCL/applications/gcc/4.9.2/bin/../lib/gcc/x86_64-unknown-linux-gnu/4.9.2/ -mtune=corei7 -march=x86-64 -g -Og
#
# seed   644601367  -372309956  -567273732   979659015 -1136709476    46367206  -192803005   111297170  -439471324 -1739755220  2124730813  1522239404
#
#      Author: C. J. Pickard (cjp20@cam.ac.uk)
#                Space group: P42
#

%BLOCK LATTICE_ABC
      3.76471      3.76471     13.27671
     90.00000     90.00000     90.00000
%ENDBLOCK LATTICE_ABC

%BLOCK POSITIONS_FRAC
  Li       -0.2500012        0.2814930        0.1746270
  Li        0.2500012       -0.2814930        0.1746270
  Li       -0.2814930       -0.2500012       -0.3253730
  Li        0.2814930        0.2500012       -0.3253730
  Li        0.5000000        0.5000000       -0.1517719
  Li       -0.5000000        0.5000000        0.3482281
   N       -0.1950429       -0.1364061        0.2550182
   N        0.1950429        0.1364061        0.2550182
   N        0.1364061       -0.1950429       -0.2449818
   N       -0.1364061        0.1950429       -0.2449818
   N        0.0235638        0.1978271       -0.4869754
   N       -0.0235638       -0.1978271       -0.4869754
   N       -0.1978271        0.0235638        0.0130246
   N        0.1978271       -0.0235638        0.0130246
   N       -0.3084258       -0.0587122       -0.1068006
   N        0.3084258        0.0587122       -0.1068006
   N        0.0587122       -0.3084258        0.3931994
   N       -0.0587122        0.3084258        0.3931994
%ENDBLOCK POSITIONS_FRAC

KPOINTS_MP_SPACING 0.07

%BLOCK SPECIES_POT
QC5
%ENDBLOCK SPECIES_POT

SNAP_TO_SYMMETRY
SYMMETRY_GENERATE

