#              Generated by Buildcell
#
# at 16:03:50 (GMT+1.0) 26th March 2023
# in /scratch/scratch/uccabz1/launch_tmp_michael
# on node-a14b-028
# by uccabz1
#
# compiler GCC version 4.9.2
# options -cpp -iprefix /scratch/UCL/applications/gcc/4.9.2/bin/../lib/gcc/x86_64-unknown-linux-gnu/4.9.2/ -mtune=corei7 -march=x86-64 -g -Og
#
# seed   -30244900  -876776265  2005188121  -680441737   681381438  -486896565 -1157219935  1390851296  -772426220  -592910895   -12183868 -1291449210
#
#      Author: C. J. Pickard (cjp20@cam.ac.uk)
#                Space group: P3
#

%BLOCK LATTICE_ABC
      3.18362      4.58876      4.58876
    120.00000     90.00000     90.00000
%ENDBLOCK LATTICE_ABC

%BLOCK POSITIONS_FRAC
  Li        0.3373215       -0.3333333        0.3333333
  Li       -0.0827294        0.0000000        0.0000000
   N       -0.2856443        0.0780788       -0.4324016
   N       -0.2856443        0.4895197       -0.0780788
   N       -0.2856443        0.4324016       -0.4895197
   N        0.3415790        0.3333333       -0.3333333
%ENDBLOCK POSITIONS_FRAC

KPOINTS_MP_SPACING 0.07

%BLOCK SPECIES_POT
QC5
%ENDBLOCK SPECIES_POT

SNAP_TO_SYMMETRY
SYMMETRY_GENERATE

