#              Generated by Buildcell
#
# at 16:39:13 (GMT+1.0) 26th March 2023
# in /scratch/scratch/uccabz1/launch_tmp_michael
# on node-a14a-001
# by uccabz1
#
# compiler GCC version 4.9.2
# options -cpp -iprefix /scratch/UCL/applications/gcc/4.9.2/bin/../lib/gcc/x86_64-unknown-linux-gnu/4.9.2/ -mtune=corei7 -march=x86-64 -g -Og
#
# seed  1361088064  1972682620 -1360666069  -342639531  -944983178  -711739506 -1354452699   438179238  1286637739  -109293432  -598805107 -1679698731
#
#      Author: C. J. Pickard (cjp20@cam.ac.uk)
#                Space group: P3
#

%BLOCK LATTICE_ABC
      3.71328      3.71328      5.06219
     90.00000     90.00000    120.00000
%ENDBLOCK LATTICE_ABC

%BLOCK POSITIONS_FRAC
  Li        0.3333333       -0.3333333       -0.0312468
  Li        0.3333333       -0.3333333        0.4748205
   N       -0.2633700       -0.4062674       -0.3092139
   N        0.4062674        0.1428974       -0.3092139
   N       -0.1428974        0.2633700       -0.3092139
   N        0.0000000       -0.0000000        0.0143379
%ENDBLOCK POSITIONS_FRAC

KPOINTS_MP_SPACING 0.07

%BLOCK SPECIES_POT
QC5
%ENDBLOCK SPECIES_POT

SNAP_TO_SYMMETRY
SYMMETRY_GENERATE

