#              Generated by Buildcell
#
# at 16:17:00 (GMT+1.0) 26th March 2023
# in /scratch/scratch/uccabz1/launch_tmp_michael
# on node-a14e-007
# by uccabz1
#
# compiler GCC version 4.9.2
# options -cpp -iprefix /scratch/UCL/applications/gcc/4.9.2/bin/../lib/gcc/x86_64-unknown-linux-gnu/4.9.2/ -mtune=corei7 -march=x86-64 -g -Og
#
# seed  -768531623  2058107045   156775916 -1130597066   131450384 -2085892362   919448981  -731589827 -1637347021 -1077416335   525068478  -400114469
#
#      Author: C. J. Pickard (cjp20@cam.ac.uk)
#                Space group: R3
#

%BLOCK LATTICE_ABC
      6.13065      6.13065      6.13065
     62.83369     62.83369     62.83369
%ENDBLOCK LATTICE_ABC

%BLOCK POSITIONS_FRAC
  Li       -0.2275858       -0.3928653        0.0556666
  Li        0.0556666       -0.2275858       -0.3928653
  Li       -0.3928653        0.0556666       -0.2275858
  Li       -0.2730009        0.3927426       -0.1770576
  Li       -0.1770576       -0.2730009        0.3927426
  Li        0.3927426       -0.1770576       -0.2730009
   N        0.0682575        0.0394161       -0.3260175
   N       -0.3260175        0.0682575        0.0394161
   N        0.0394161       -0.3260175        0.0682575
   N        0.4464509        0.0446669        0.3770181
   N        0.3770181        0.4464509        0.0446669
   N        0.0446669        0.3770181        0.4464509
   N        0.0681921        0.2643248       -0.1619564
   N       -0.1619564        0.0681921        0.2643248
   N        0.2643248       -0.1619564        0.0681921
   N       -0.2317583        0.4340317        0.4144722
   N        0.4144722       -0.2317583        0.4340317
   N        0.4340317        0.4144722       -0.2317583
%ENDBLOCK POSITIONS_FRAC

KPOINTS_MP_SPACING 0.07

%BLOCK SPECIES_POT
QC5
%ENDBLOCK SPECIES_POT

SNAP_TO_SYMMETRY
SYMMETRY_GENERATE

