#              Generated by Buildcell
#
# at 18:10:27 (GMT+1.0) 26th March 2023
# in /scratch/scratch/uccabz1/launch_tmp_michael
# on node-a14a-019
# by uccabz1
#
# compiler GCC version 4.9.2
# options -cpp -iprefix /scratch/UCL/applications/gcc/4.9.2/bin/../lib/gcc/x86_64-unknown-linux-gnu/4.9.2/ -mtune=corei7 -march=x86-64 -g -Og
#
# seed -1536728485   279034347 -1629482552 -1475760551  1519682756 -2042753359 -1756778161 -1111334990 -2033002502 -1894894736  1731424641  1562417487
#
#      Author: C. J. Pickard (cjp20@cam.ac.uk)
#                Space group: Amm2
#

%BLOCK LATTICE_ABC
      2.99996      3.72465      5.54136
    109.63803     90.00000     90.00000
%ENDBLOCK LATTICE_ABC

%BLOCK POSITIONS_FRAC
  Li       -0.5000000        0.2586139        0.2395067
  Li        0.5000000        0.0191072       -0.2395067
   N       -0.2499999       -0.2646807        0.4376007
   N        0.2499999        0.2977185       -0.4376007
   N       -0.2499999        0.2977185       -0.4376007
   N        0.2499999       -0.2646807        0.4376007
%ENDBLOCK POSITIONS_FRAC

KPOINTS_MP_SPACING 0.07

%BLOCK SPECIES_POT
QC5
%ENDBLOCK SPECIES_POT

SNAP_TO_SYMMETRY
SYMMETRY_GENERATE

