#              Generated by Buildcell
#
# at 15:12:07 (GMT+1.0) 26th March 2023
# in /scratch/scratch/uccabz1/launch_tmp_michael
# on node-a14b-031
# by uccabz1
#
# compiler GCC version 4.9.2
# options -cpp -iprefix /scratch/UCL/applications/gcc/4.9.2/bin/../lib/gcc/x86_64-unknown-linux-gnu/4.9.2/ -mtune=corei7 -march=x86-64 -g -Og
#
# seed -1830060602 -1416123414  -510424257  -645434295  1705631510  -113137516 -1251303149  -459776563  -434615238    21584518  -299156688  -235827745
#
#      Author: C. J. Pickard (cjp20@cam.ac.uk)
#                Space group: P3
#

%BLOCK LATTICE_ABC
      4.07371      4.07371      4.08943
     90.00000     90.00000    120.00000
%ENDBLOCK LATTICE_ABC

%BLOCK POSITIONS_FRAC
  Li       -0.3333333        0.3333333        0.1800738
  Li        0.3333333       -0.3333333       -0.0271812
   N        0.0840963       -0.2709309       -0.4180410
   N       -0.3550272       -0.0840963       -0.4180410
   N        0.2709309        0.3550272       -0.4180410
   N        0.0000000        0.0000000        0.3865885
%ENDBLOCK POSITIONS_FRAC

KPOINTS_MP_SPACING 0.07

%BLOCK SPECIES_POT
QC5
%ENDBLOCK SPECIES_POT

SNAP_TO_SYMMETRY
SYMMETRY_GENERATE

