#              Generated by Buildcell
#
# at 17:17:30 (GMT+1.0) 26th March 2023
# in /scratch/scratch/uccabz1/launch_tmp_michael
# on node-a14c-005
# by uccabz1
#
# compiler GCC version 4.9.2
# options -cpp -iprefix /scratch/UCL/applications/gcc/4.9.2/bin/../lib/gcc/x86_64-unknown-linux-gnu/4.9.2/ -mtune=corei7 -march=x86-64 -g -Og
#
# seed   104381289  1115460283 -1399945130   437084843 -2141202277 -1625639283   694759143   401081577  1130032925  1110780215   483091735  -817695426
#
#      Author: C. J. Pickard (cjp20@cam.ac.uk)
#                Space group: P2
#

%BLOCK LATTICE_ABC
      3.78170      6.52352      7.63891
    109.93849     90.00000     90.00000
%ENDBLOCK LATTICE_ABC

%BLOCK POSITIONS_FRAC
  Li       -0.4608535        0.1968815        0.1008104
  Li       -0.4608535       -0.1968815       -0.1008104
  Li        0.3923315       -0.0487112       -0.3544516
  Li        0.3923315        0.0487112        0.3544516
  Li       -0.2984465       -0.3658394        0.4158751
  Li       -0.2984465        0.3658394       -0.4158751
   N       -0.0961185       -0.2915727       -0.2824602
   N       -0.0961185        0.2915727        0.2824602
   N        0.1451567       -0.3797245       -0.4470777
   N        0.1451567        0.3797245        0.4470777
   N       -0.0726177       -0.0964341       -0.4544832
   N       -0.0726177        0.0964341        0.4544832
   N        0.2409250       -0.4114365        0.1405470
   N        0.2409250        0.4114365       -0.1405470
   N        0.0477863        0.1360857        0.1031463
   N        0.0477863       -0.1360857       -0.1031463
   N       -0.0581415        0.4697501        0.1939508
   N       -0.0581415       -0.4697501       -0.1939508
%ENDBLOCK POSITIONS_FRAC

KPOINTS_MP_SPACING 0.07

%BLOCK SPECIES_POT
QC5
%ENDBLOCK SPECIES_POT

SNAP_TO_SYMMETRY
SYMMETRY_GENERATE

