#              Generated by Buildcell
#
# at 18:58:51 (GMT+1.0) 26th March 2023
# in /scratch/scratch/uccabz1/launch_tmp_michael
# on node-a14a-019
# by uccabz1
#
# compiler GCC version 4.9.2
# options -cpp -iprefix /scratch/UCL/applications/gcc/4.9.2/bin/../lib/gcc/x86_64-unknown-linux-gnu/4.9.2/ -mtune=corei7 -march=x86-64 -g -Og
#
# seed  1135104498   157387961  -741678919 -1563062556 -1788065316  1780039165  -890140136 -1881697920 -1220387746  1939820246  1471910559  1221670708
#
#      Author: C. J. Pickard (cjp20@cam.ac.uk)
#                Space group: Cm
#

%BLOCK LATTICE_ABC
      2.91472      4.75984      6.78325
     86.39996     78.16582     72.17091
%ENDBLOCK LATTICE_ABC

%BLOCK POSITIONS_FRAC
  Li       -0.3387436        0.2758603        0.2838124
  Li       -0.0628833       -0.2758603        0.2838124
  Li        0.4033012       -0.0000000       -0.2697110
   N       -0.1205282        0.4384295        0.0275605
   N        0.3179014       -0.4384295        0.0275605
   N       -0.4648544       -0.1993787        0.0811822
   N        0.3357668        0.1993787        0.0811822
   N       -0.3587569       -0.4607314       -0.4719035
   N        0.1805117        0.4607314       -0.4719035
%ENDBLOCK POSITIONS_FRAC

KPOINTS_MP_SPACING 0.07

%BLOCK SPECIES_POT
QC5
%ENDBLOCK SPECIES_POT

SNAP_TO_SYMMETRY
SYMMETRY_GENERATE

