#              Generated by Buildcell
#
# at 15:59:03 (GMT+1.0) 26th March 2023
# in /scratch/scratch/uccabz1/launch_tmp_michael
# on node-a14e-007
# by uccabz1
#
# compiler GCC version 4.9.2
# options -cpp -iprefix /scratch/UCL/applications/gcc/4.9.2/bin/../lib/gcc/x86_64-unknown-linux-gnu/4.9.2/ -mtune=corei7 -march=x86-64 -g -Og
#
# seed   271616289  1470431641  1432579633   -35807115  -255609717 -1462312519 -1693943813  1521234286 -1364061359 -1855083837 -1313393114   154706445
#
#      Author: C. J. Pickard (cjp20@cam.ac.uk)
#                Space group: Aea2
#

%BLOCK LATTICE_ABC
      3.78280      3.78280     12.28206
     90.00000     90.00000     97.44055
%ENDBLOCK LATTICE_ABC

%BLOCK POSITIONS_FRAC
  Li       -0.2169477       -0.3664233       -0.1670061
  Li        0.3664233        0.2169477        0.1670061
  Li       -0.1335767       -0.2830523        0.3329939
  Li        0.2830523        0.1335767       -0.3329939
  Li       -0.2412170        0.2412170        0.0000000
  Li        0.2587830       -0.2587830       -0.5000000
   N        0.3623622        0.2293733        0.4600747
   N       -0.2293733       -0.3623622       -0.4600747
   N        0.2706267        0.1376378       -0.0399253
   N       -0.1376378       -0.2706267        0.0399253
   N       -0.1587070        0.1645138       -0.2622848
   N       -0.1645138        0.1587070        0.2622848
   N        0.3354862       -0.3412930        0.2377152
   N        0.3412930       -0.3354862       -0.2377152
   N       -0.4387595        0.0558985        0.3736957
   N       -0.0558985        0.4387595       -0.3736957
   N        0.4441015       -0.0612405       -0.1263043
   N        0.0612405       -0.4441015        0.1263043
%ENDBLOCK POSITIONS_FRAC

KPOINTS_MP_SPACING 0.07

%BLOCK SPECIES_POT
QC5
%ENDBLOCK SPECIES_POT

SNAP_TO_SYMMETRY
SYMMETRY_GENERATE

