#              Generated by Buildcell
#
# at 19:04:16 (GMT+1.0) 26th March 2023
# in /scratch/scratch/uccabz1/launch_tmp_michael
# on node-a14a-003
# by uccabz1
#
# compiler GCC version 4.9.2
# options -cpp -iprefix /scratch/UCL/applications/gcc/4.9.2/bin/../lib/gcc/x86_64-unknown-linux-gnu/4.9.2/ -mtune=corei7 -march=x86-64 -g -Og
#
# seed  -812617603  1130114177   497340097 -1544720957   946511409  1572264349  1934598409  -888045342   895378645 -1903785609 -1151335710    57368725
#
#      Author: C. J. Pickard (cjp20@cam.ac.uk)
#                Space group: P2
#

%BLOCK LATTICE_ABC
      2.50002      4.52534      5.23676
     90.00000     98.26802     90.00000
%ENDBLOCK LATTICE_ABC

%BLOCK POSITIONS_FRAC
  Li        0.1113922       -0.0755590       -0.2500426
  Li       -0.1113922       -0.0755590        0.2500426
   N        0.1641960        0.3196902       -0.3678802
   N       -0.1641960        0.3196902        0.3678802
   N        0.1054684       -0.4720677        0.2035458
   N       -0.1054684       -0.4720677       -0.2035458
%ENDBLOCK POSITIONS_FRAC

KPOINTS_MP_SPACING 0.07

%BLOCK SPECIES_POT
QC5
%ENDBLOCK SPECIES_POT

SNAP_TO_SYMMETRY
SYMMETRY_GENERATE

