#              Generated by Buildcell
#
# at 15:56:49 (GMT+1.0) 26th March 2023
# in /scratch/scratch/uccabz1/launch_tmp_michael
# on node-a14a-019
# by uccabz1
#
# compiler GCC version 4.9.2
# options -cpp -iprefix /scratch/UCL/applications/gcc/4.9.2/bin/../lib/gcc/x86_64-unknown-linux-gnu/4.9.2/ -mtune=corei7 -march=x86-64 -g -Og
#
# seed  -865004942 -1184585108  1829036829   -75650790 -1879036577   -19242626   644561799   -80784626 -1225372891  1230433450 -1733952081  -128198374
#
#      Author: C. J. Pickard (cjp20@cam.ac.uk)
#                Space group: I-4
#

%BLOCK LATTICE_ABC
      4.57676      4.57676      5.32530
    115.44967    115.44967     90.00000
%ENDBLOCK LATTICE_ABC

%BLOCK POSITIONS_FRAC
  Li       -0.3543140       -0.3543140        0.2913719
  Li        0.3543140        0.3543140       -0.2913719
  Li       -0.2500000        0.2500000        0.5000000
   N        0.1139463        0.1802240       -0.1517498
   N       -0.2656961       -0.3319738       -0.1517498
   N       -0.1802240        0.2656961        0.1517498
   N        0.3319738       -0.1139463        0.1517498
   N        0.1171436        0.1171436        0.2342873
   N       -0.1171436       -0.1171436       -0.2342873
%ENDBLOCK POSITIONS_FRAC

KPOINTS_MP_SPACING 0.07

%BLOCK SPECIES_POT
QC5
%ENDBLOCK SPECIES_POT

SNAP_TO_SYMMETRY
SYMMETRY_GENERATE

