#              Generated by Buildcell
#
# at 20:26:52 (GMT+1.0) 26th March 2023
# in /scratch/scratch/uccabz1/launch_tmp_michael
# on node-a14e-021
# by uccabz1
#
# compiler GCC version 4.9.2
# options -cpp -iprefix /scratch/UCL/applications/gcc/4.9.2/bin/../lib/gcc/x86_64-unknown-linux-gnu/4.9.2/ -mtune=corei7 -march=x86-64 -g -Og
#
# seed   892383166  1968868855  1061960647   207123977  -127564033  1429113096  1058395534  1981556155  -322234097  -938760796  1598341985 -1093524323
#
#      Author: C. J. Pickard (cjp20@cam.ac.uk)
#                Space group: C2
#

%BLOCK LATTICE_ABC
      3.37976      6.31940      6.31940
     73.07723     75.86360     75.86360
%ENDBLOCK LATTICE_ABC

%BLOCK POSITIONS_FRAC
  Li       -0.4291667       -0.2144470       -0.0438083
  Li        0.4291667        0.0438083        0.2144470
  Li        0.1630742       -0.2912200        0.4816983
  Li       -0.1630742       -0.4816983        0.2912200
   N       -0.2335443        0.2541252        0.2297159
   N        0.2335443       -0.2297159       -0.2541252
   N        0.4848453       -0.4726996       -0.2109312
   N       -0.4848453        0.2109312        0.4726996
   N       -0.3209984        0.2781625       -0.2196622
   N        0.3209984        0.2196622       -0.2781625
   N       -0.2247534       -0.0962105       -0.3536979
   N        0.2247534        0.3536979        0.0962105
%ENDBLOCK POSITIONS_FRAC

KPOINTS_MP_SPACING 0.07

%BLOCK SPECIES_POT
QC5
%ENDBLOCK SPECIES_POT

SNAP_TO_SYMMETRY
SYMMETRY_GENERATE

