#              Generated by Buildcell
#
# at 18:20:49 (GMT+1.0) 26th March 2023
# in /scratch/scratch/uccabz1/launch_tmp_michael
# on node-a14e-007
# by uccabz1
#
# compiler GCC version 4.9.2
# options -cpp -iprefix /scratch/UCL/applications/gcc/4.9.2/bin/../lib/gcc/x86_64-unknown-linux-gnu/4.9.2/ -mtune=corei7 -march=x86-64 -g -Og
#
# seed  -814388464 -1624684134   525264239  1080013513   498449452 -1643446758 -2087988987 -1669472768   176602864  1584283478   401939523  -555406259
#
#      Author: C. J. Pickard (cjp20@cam.ac.uk)
#                Space group: Cc
#

%BLOCK LATTICE_ABC
      4.58358      5.33611      5.55811
    118.68732     99.97690     90.00000
%ENDBLOCK LATTICE_ABC

%BLOCK POSITIONS_FRAC
  Li        0.2670358        0.1395756       -0.1059556
  Li       -0.2329642       -0.2455312       -0.1059556
  Li        0.2869432        0.3459232        0.4071853
  Li       -0.2130568        0.0612621        0.4071853
   N       -0.4102503       -0.2491907       -0.4431400
   N        0.0897497       -0.1939494       -0.4431400
   N       -0.4906262       -0.4763561        0.2504481
   N        0.0093738       -0.2731958        0.2504481
   N       -0.3018768        0.3434635       -0.2477156
   N        0.1981232        0.4088209       -0.2477156
   N       -0.1106510        0.4688028        0.3403347
   N        0.3893490       -0.1284680        0.3403347
%ENDBLOCK POSITIONS_FRAC

KPOINTS_MP_SPACING 0.07

%BLOCK SPECIES_POT
QC5
%ENDBLOCK SPECIES_POT

SNAP_TO_SYMMETRY
SYMMETRY_GENERATE

