#              Generated by Buildcell
#
# at 18:03:31 (GMT+1.0) 26th March 2023
# in /scratch/scratch/uccabz1/launch_tmp_michael
# on node-a14e-021
# by uccabz1
#
# compiler GCC version 4.9.2
# options -cpp -iprefix /scratch/UCL/applications/gcc/4.9.2/bin/../lib/gcc/x86_64-unknown-linux-gnu/4.9.2/ -mtune=corei7 -march=x86-64 -g -Og
#
# seed  -759346216  1341465328  1752036426 -1937526415  1574054601  -741780080   979292182   598684914   382615298  -475470748  1698307233  1110787347
#
#      Author: C. J. Pickard (cjp20@cam.ac.uk)
#                Space group: P21
#

%BLOCK LATTICE_ABC
      2.50296      6.51457      7.48939
     93.96753     90.00000     90.00000
%ENDBLOCK LATTICE_ABC

%BLOCK POSITIONS_FRAC
  Li       -0.4476318        0.1501448       -0.0534191
  Li        0.0523682       -0.1501448        0.0534191
  Li        0.2731446       -0.1555028       -0.3947912
  Li       -0.2268554        0.1555028        0.3947912
   N       -0.3696339       -0.3757829        0.1181602
   N        0.1303661        0.3757829       -0.1181602
   N        0.1777874        0.1170109        0.1644455
   N       -0.3222126       -0.1170109       -0.1644455
   N        0.4972996        0.2983275       -0.2662119
   N       -0.0027004       -0.2983275        0.2662119
   N       -0.1118691        0.4360729        0.3478597
   N        0.3881309       -0.4360729       -0.3478597
%ENDBLOCK POSITIONS_FRAC

KPOINTS_MP_SPACING 0.07

%BLOCK SPECIES_POT
QC5
%ENDBLOCK SPECIES_POT

SNAP_TO_SYMMETRY
SYMMETRY_GENERATE

