#              Generated by Buildcell
#
# at 15:52:39 (GMT+1.0) 26th March 2023
# in /scratch/scratch/uccabz1/launch_tmp_michael
# on node-a14b-028
# by uccabz1
#
# compiler GCC version 4.9.2
# options -cpp -iprefix /scratch/UCL/applications/gcc/4.9.2/bin/../lib/gcc/x86_64-unknown-linux-gnu/4.9.2/ -mtune=corei7 -march=x86-64 -g -Og
#
# seed   160433762  -162255180  -983729218  -571461341   385665926 -1623839057  1926551888  1948010455 -2062086061  1982510258 -1943594103 -1608476386
#
#      Author: C. J. Pickard (cjp20@cam.ac.uk)
#                Space group: Ama2
#

%BLOCK LATTICE_ABC
      5.06312      5.96064      6.41760
    117.67122     90.00000     90.00000
%ENDBLOCK LATTICE_ABC

%BLOCK POSITIONS_FRAC
  Li       -0.0017676       -0.1575393        0.2655138
  Li        0.0017676        0.4230532        0.2655138
  Li        0.4982324        0.4230532        0.2655138
  Li       -0.4982324       -0.1575393        0.2655138
  Li       -0.2500000        0.3716611       -0.0916743
  Li        0.2500000       -0.4633353       -0.0916743
   N       -0.0899214        0.3637777       -0.4771368
   N        0.0899214        0.1590855       -0.4771368
   N        0.4100786        0.1590855       -0.4771368
   N       -0.4100786        0.3637777       -0.4771368
   N        0.0985395        0.0538672       -0.3055047
   N       -0.0985395       -0.3593719       -0.3055047
   N       -0.4014605       -0.3593719       -0.3055047
   N        0.4014605        0.0538672       -0.3055047
   N        0.0997793        0.2632267       -0.0571739
   N       -0.0997793       -0.3204006       -0.0571739
   N       -0.4002207       -0.3204006       -0.0571739
   N        0.4002207        0.2632267       -0.0571739
%ENDBLOCK POSITIONS_FRAC

KPOINTS_MP_SPACING 0.07

%BLOCK SPECIES_POT
QC5
%ENDBLOCK SPECIES_POT

SNAP_TO_SYMMETRY
SYMMETRY_GENERATE

