#              Generated by Buildcell
#
# at 16:02:41 (GMT+1.0) 26th March 2023
# in /scratch/scratch/uccabz1/launch_tmp_michael
# on node-a14f-035
# by uccabz1
#
# compiler GCC version 4.9.2
# options -cpp -iprefix /scratch/UCL/applications/gcc/4.9.2/bin/../lib/gcc/x86_64-unknown-linux-gnu/4.9.2/ -mtune=corei7 -march=x86-64 -g -Og
#
# seed   627270157  1713509663  -522200133   400600130  -402813264  1454230045   656638346  -278917067  1043138855  -647968593  1768415394  -841988936
#
#      Author: C. J. Pickard (cjp20@cam.ac.uk)
#                Space group: P2
#

%BLOCK LATTICE_ABC
      2.50000      5.60814      6.79894
     90.00000     90.00000    100.00890
%ENDBLOCK LATTICE_ABC

%BLOCK POSITIONS_FRAC
  Li        0.1358694        0.2957599       -0.4321748
  Li       -0.1358694       -0.2957599       -0.4321748
  Li        0.0000000        0.0000000       -0.1539104
   N        0.2736234        0.0800352        0.3659960
   N       -0.2736234       -0.0800352        0.3659960
   N        0.2079628        0.1252244        0.0997125
   N       -0.2079628       -0.1252244        0.0997125
   N        0.7011275        0.4147501       -0.2277517
   N       -0.7011275       -0.4147501       -0.2277517
%ENDBLOCK POSITIONS_FRAC

KPOINTS_MP_SPACING 0.07

%BLOCK SPECIES_POT
QC5
%ENDBLOCK SPECIES_POT

SNAP_TO_SYMMETRY
SYMMETRY_GENERATE

