#              Generated by Buildcell
#
# at 18:58:02 (GMT+1.0) 26th March 2023
# in /scratch/scratch/uccabz1/launch_tmp_michael
# on node-a14e-021
# by uccabz1
#
# compiler GCC version 4.9.2
# options -cpp -iprefix /scratch/UCL/applications/gcc/4.9.2/bin/../lib/gcc/x86_64-unknown-linux-gnu/4.9.2/ -mtune=corei7 -march=x86-64 -g -Og
#
# seed  1209053944  -330905620   913036247  -788261363   300007116 -1342673030   678248423 -1353943984 -1289279752  -174042219 -1216007314 -1421388925
#
#      Author: C. J. Pickard (cjp20@cam.ac.uk)
#                Space group: C2
#

%BLOCK LATTICE_ABC
      4.55453      4.55453      9.49508
     82.03168     82.03168     68.15219
%ENDBLOCK LATTICE_ABC

%BLOCK POSITIONS_FRAC
  Li       -0.3433423       -0.1578571        0.4746270
  Li        0.1578571        0.3433423       -0.4746270
  Li        0.0183461        0.1717277       -0.1333024
  Li       -0.1717277       -0.0183461        0.1333024
  Li       -0.3550894        0.4343814       -0.3214242
  Li       -0.4343814        0.3550894        0.3214242
   N       -0.1628250        0.0653567       -0.4241484
   N       -0.0653567        0.1628250        0.4241484
   N        0.2012570       -0.0912825       -0.4410356
   N        0.0912825       -0.2012570        0.4410356
   N        0.3358321        0.3175023        0.1766361
   N       -0.3175023       -0.3358321       -0.1766361
   N        0.4350470        0.1518080       -0.2391542
   N       -0.1518080       -0.4350470        0.2391542
   N       -0.2421063       -0.0869608       -0.2803444
   N        0.0869608        0.2421063        0.2803444
   N       -0.3373743        0.4356630        0.1220435
   N       -0.4356630        0.3373743       -0.1220435
%ENDBLOCK POSITIONS_FRAC

KPOINTS_MP_SPACING 0.07

%BLOCK SPECIES_POT
QC5
%ENDBLOCK SPECIES_POT

SNAP_TO_SYMMETRY
SYMMETRY_GENERATE

