#              Generated by Buildcell
#
# at 19:46:12 (GMT+1.0) 26th March 2023
# in /scratch/scratch/uccabz1/launch_tmp_michael
# on node-a14b-028
# by uccabz1
#
# compiler GCC version 4.9.2
# options -cpp -iprefix /scratch/UCL/applications/gcc/4.9.2/bin/../lib/gcc/x86_64-unknown-linux-gnu/4.9.2/ -mtune=corei7 -march=x86-64 -g -Og
#
# seed -1778999340  -274568952   261501106   686403844  -997768986  1836843072  -487475461 -2110414958  1681793794  1290917831    39460915   504308413
#
#      Author: C. J. Pickard (cjp20@cam.ac.uk)
#                Space group: P-1
#

%BLOCK LATTICE_ABC
      4.16671      4.70463      5.51736
     83.02607     68.26416     64.67967
%ENDBLOCK LATTICE_ABC

%BLOCK POSITIONS_FRAC
  Li        0.1298873       -0.0065998       -0.2854552
  Li       -0.1298873        0.0065998        0.2854552
  Li        0.5000000        0.0000000       -0.0000000
   N       -0.0173110        0.4231426       -0.3711720
   N        0.0173110       -0.4231426        0.3711720
   N       -0.3835258       -0.2776461       -0.2733490
   N        0.3835258        0.2776461        0.2733490
   N       -0.1273567        0.4115391        0.2124820
   N        0.1273567       -0.4115391       -0.2124820
%ENDBLOCK POSITIONS_FRAC

KPOINTS_MP_SPACING 0.07

%BLOCK SPECIES_POT
QC5
%ENDBLOCK SPECIES_POT

SNAP_TO_SYMMETRY
SYMMETRY_GENERATE

