#              Generated by Buildcell
#
# at 20:22:07 (GMT+1.0) 26th March 2023
# in /scratch/scratch/uccabz1/launch_tmp_michael
# on node-a14a-003
# by uccabz1
#
# compiler GCC version 4.9.2
# options -cpp -iprefix /scratch/UCL/applications/gcc/4.9.2/bin/../lib/gcc/x86_64-unknown-linux-gnu/4.9.2/ -mtune=corei7 -march=x86-64 -g -Og
#
# seed   -79432984  -179136415   370961450   236320048  1487582555 -1251094757 -1484222755  1363981769 -2032140580    22523061 -1575638360  -689923598
#
#      Author: C. J. Pickard (cjp20@cam.ac.uk)
#                Space group: P21212
#

%BLOCK LATTICE_ABC
      3.73809      4.47497      6.95732
     90.00000     90.00000     90.00000
%ENDBLOCK LATTICE_ABC

%BLOCK POSITIONS_FRAC
  Li       -0.2638993       -0.1354333       -0.3727674
  Li        0.2638993       -0.1354333        0.3727674
  Li        0.2361007        0.1354333       -0.1272326
  Li       -0.2361007        0.1354333        0.1272326
   N        0.4614777       -0.2041972        0.1058582
   N       -0.4614777       -0.2041972       -0.1058582
   N       -0.0385223        0.2041972        0.3941418
   N        0.0385223        0.2041972       -0.3941418
   N       -0.1196689       -0.3621417       -0.1552552
   N        0.1196689       -0.3621417        0.1552552
   N        0.3803311        0.3621417       -0.3447448
   N       -0.3803311        0.3621417        0.3447448
%ENDBLOCK POSITIONS_FRAC

KPOINTS_MP_SPACING 0.07

%BLOCK SPECIES_POT
QC5
%ENDBLOCK SPECIES_POT

SNAP_TO_SYMMETRY
SYMMETRY_GENERATE

