#              Generated by Buildcell
#
# at 16:10:02 (GMT+1.0) 26th March 2023
# in /scratch/scratch/uccabz1/launch_tmp_michael
# on node-a14e-021
# by uccabz1
#
# compiler GCC version 4.9.2
# options -cpp -iprefix /scratch/UCL/applications/gcc/4.9.2/bin/../lib/gcc/x86_64-unknown-linux-gnu/4.9.2/ -mtune=corei7 -march=x86-64 -g -Og
#
# seed  1382007757 -1520795789   444804278  1214405064  1986259550  -878265491 -1945086179  -266083025  -913398938   725773661  -343088251  2009598380
#
#      Author: C. J. Pickard (cjp20@cam.ac.uk)
#                Space group: C2
#

%BLOCK LATTICE_ABC
      2.86469      4.23636      5.53402
     75.92832     74.99964     70.23842
%ENDBLOCK LATTICE_ABC

%BLOCK POSITIONS_FRAC
  Li       -0.1597167        0.1589290       -0.3683191
  Li       -0.3691068       -0.1589290        0.3683191
   N        0.2214554       -0.1030203        0.1312857
   N        0.2497208        0.1030203       -0.1312857
   N       -0.1436805       -0.3959324        0.0887509
   N       -0.4508620        0.3959324       -0.0887509
%ENDBLOCK POSITIONS_FRAC

KPOINTS_MP_SPACING 0.07

%BLOCK SPECIES_POT
QC5
%ENDBLOCK SPECIES_POT

SNAP_TO_SYMMETRY
SYMMETRY_GENERATE

