#              Generated by Buildcell
#
# at 15:04:30 (GMT+1.0) 26th March 2023
# in /scratch/scratch/uccabz1/launch_tmp_michael
# on node-a14e-021
# by uccabz1
#
# compiler GCC version 4.9.2
# options -cpp -iprefix /scratch/UCL/applications/gcc/4.9.2/bin/../lib/gcc/x86_64-unknown-linux-gnu/4.9.2/ -mtune=corei7 -march=x86-64 -g -Og
#
# seed    79150090  -708183862  -433753014   810636809   917781673 -1020546640 -1568546771  -670207528  1444761309  1528863573  -318901945 -1001974241
#
#      Author: C. J. Pickard (cjp20@cam.ac.uk)
#                Space group: Cm
#

%BLOCK LATTICE_ABC
      3.60663      4.59889      7.86754
     87.22328     82.90335     66.91350
%ENDBLOCK LATTICE_ABC

%BLOCK POSITIONS_FRAC
  Li        0.4213838        0.2954155        0.3837316
  Li       -0.2832007       -0.2954155        0.3837316
  Li       -0.2762631       -0.2954155        0.0655866
  Li        0.4283215        0.2954155        0.0655866
   N       -0.2994425        0.4002567       -0.4447456
   N        0.1008142       -0.4002567       -0.4447456
   N       -0.2017606       -0.4381562       -0.3057503
   N        0.3600831        0.4381562       -0.3057503
   N        0.0223586        0.2870830       -0.0644591
   N        0.3094415       -0.2870830       -0.0644591
   N       -0.2695400        0.1806540       -0.2477627
   N       -0.0888860       -0.1806540       -0.2477627
%ENDBLOCK POSITIONS_FRAC

KPOINTS_MP_SPACING 0.07

%BLOCK SPECIES_POT
QC5
%ENDBLOCK SPECIES_POT

SNAP_TO_SYMMETRY
SYMMETRY_GENERATE

