#              Generated by Buildcell
#
# at 18:54:08 (GMT+1.0) 26th March 2023
# in /scratch/scratch/uccabz1/launch_tmp_michael
# on node-a14a-003
# by uccabz1
#
# compiler GCC version 4.9.2
# options -cpp -iprefix /scratch/UCL/applications/gcc/4.9.2/bin/../lib/gcc/x86_64-unknown-linux-gnu/4.9.2/ -mtune=corei7 -march=x86-64 -g -Og
#
# seed   -82317972   152059556  1066724999   389749537   171976646  1560410624 -1486018934  1469146849 -1758955117  1688162357 -1486638268  -972297819
#
#      Author: C. J. Pickard (cjp20@cam.ac.uk)
#                Space group: R3
#

%BLOCK LATTICE_ABC
      4.21246      4.21246      4.48891
     62.01712     62.01712     60.00000
%ENDBLOCK LATTICE_ABC

%BLOCK POSITIONS_FRAC
  Li       -0.0127686       -0.0127686        0.0383057
  Li        0.4704123        0.4704123       -0.4112368
   N       -0.4649562       -0.0534324        0.4242319
   N        0.0941567       -0.4649562        0.4242319
   N       -0.0534324        0.0941567        0.4242319
   N       -0.2445024       -0.2445024       -0.2664929
%ENDBLOCK POSITIONS_FRAC

KPOINTS_MP_SPACING 0.07

%BLOCK SPECIES_POT
QC5
%ENDBLOCK SPECIES_POT

SNAP_TO_SYMMETRY
SYMMETRY_GENERATE

