#              Generated by Buildcell
#
# at 20:13:34 (GMT+1.0) 26th March 2023
# in /scratch/scratch/uccabz1/launch_tmp_michael
# on node-a14b-028
# by uccabz1
#
# compiler GCC version 4.9.2
# options -cpp -iprefix /scratch/UCL/applications/gcc/4.9.2/bin/../lib/gcc/x86_64-unknown-linux-gnu/4.9.2/ -mtune=corei7 -march=x86-64 -g -Og
#
# seed  -868100244  1081834285 -1053385959     1021769  -291047177  -322680403   400111710  1542172070   439316786   302983578 -1711363227  -249163391
#
#      Author: C. J. Pickard (cjp20@cam.ac.uk)
#                Space group: I4
#

%BLOCK LATTICE_ABC
      4.46913      4.46913      5.35697
    114.65365    114.65365     90.00000
%ENDBLOCK LATTICE_ABC

%BLOCK POSITIONS_FRAC
  Li       -0.2123598        0.2876402       -0.4247197
  Li        0.2876402       -0.2123598       -0.4247197
  Li        0.4867608        0.4867608       -0.0264783
   N        0.4907694       -0.1402544        0.3483113
   N       -0.1424581        0.4885657        0.3483113
   N       -0.1402544       -0.1424581        0.3483113
   N        0.4885657        0.4907694        0.3483113
   N        0.0225439       -0.4774561        0.0450879
   N       -0.4774561        0.0225439        0.0450879
%ENDBLOCK POSITIONS_FRAC

KPOINTS_MP_SPACING 0.07

%BLOCK SPECIES_POT
QC5
%ENDBLOCK SPECIES_POT

SNAP_TO_SYMMETRY
SYMMETRY_GENERATE

