#              Generated by Buildcell
#
# at 17:37:19 (GMT+1.0) 26th March 2023
# in /scratch/scratch/uccabz1/launch_tmp_michael
# on node-a14f-035
# by uccabz1
#
# compiler GCC version 4.9.2
# options -cpp -iprefix /scratch/UCL/applications/gcc/4.9.2/bin/../lib/gcc/x86_64-unknown-linux-gnu/4.9.2/ -mtune=corei7 -march=x86-64 -g -Og
#
# seed  1491574161  1064793588  1428602408 -1758194444  1699556606    50699761 -1053988855  -372714595    31764669 -1032107308   580092747 -1710537022
#
#      Author: C. J. Pickard (cjp20@cam.ac.uk)
#                Space group: C2
#

%BLOCK LATTICE_ABC
      3.16635      4.47059      4.64251
     61.21758     88.33055     86.53108
%ENDBLOCK LATTICE_ABC

%BLOCK POSITIONS_FRAC
  Li       -0.2679844        0.3773038       -0.3203634
  Li        0.2679844       -0.0569404       -0.3203634
   N        0.4321372       -0.4551793        0.2688119
   N       -0.4321372        0.1863674        0.2688119
   N       -0.2190944       -0.3071059       -0.1225156
   N        0.2190944        0.4296215       -0.1225156
%ENDBLOCK POSITIONS_FRAC

KPOINTS_MP_SPACING 0.07

%BLOCK SPECIES_POT
QC5
%ENDBLOCK SPECIES_POT

SNAP_TO_SYMMETRY
SYMMETRY_GENERATE

