#              Generated by Buildcell
#
# at 19:54:48 (GMT+1.0) 26th March 2023
# in /scratch/scratch/uccabz1/launch_tmp_michael
# on node-a14f-035
# by uccabz1
#
# compiler GCC version 4.9.2
# options -cpp -iprefix /scratch/UCL/applications/gcc/4.9.2/bin/../lib/gcc/x86_64-unknown-linux-gnu/4.9.2/ -mtune=corei7 -march=x86-64 -g -Og
#
# seed  1489987061  2132741905  -812712685 -1552170016  1818718787   965159525   912904892 -1032364340   926613080   132609179  -141000729   636242673
#
#      Author: C. J. Pickard (cjp20@cam.ac.uk)
#                Space group: P32
#

%BLOCK LATTICE_ABC
      3.53670      3.53670      8.45642
     90.00000     90.00000    120.00000
%ENDBLOCK LATTICE_ABC

%BLOCK POSITIONS_FRAC
  Li        0.3319085       -0.0898869        0.4159103
  Li       -0.4217954       -0.3319085       -0.2507563
  Li        0.0898869        0.4217954        0.0825770
   N       -0.4672645        0.4083195       -0.4517107
   N       -0.1244160        0.4672645       -0.1183773
   N       -0.4083195        0.1244160        0.2149560
   N       -0.3562766       -0.1040322       -0.0424809
   N        0.2522444        0.3562766        0.2908524
   N        0.1040322       -0.2522444       -0.3758143
%ENDBLOCK POSITIONS_FRAC

KPOINTS_MP_SPACING 0.07

%BLOCK SPECIES_POT
QC5
%ENDBLOCK SPECIES_POT

SNAP_TO_SYMMETRY
SYMMETRY_GENERATE

