#              Generated by Buildcell
#
# at 18:43:10 (GMT+1.0) 26th March 2023
# in /scratch/scratch/uccabz1/launch_tmp_michael
# on node-a14a-001
# by uccabz1
#
# compiler GCC version 4.9.2
# options -cpp -iprefix /scratch/UCL/applications/gcc/4.9.2/bin/../lib/gcc/x86_64-unknown-linux-gnu/4.9.2/ -mtune=corei7 -march=x86-64 -g -Og
#
# seed  -847157571  -295941658 -2023115136  1746379088   -59496493 -1328643746 -1224590891  -539265526 -2004423773 -1193048879 -1439482452  1995125276
#
#      Author: C. J. Pickard (cjp20@cam.ac.uk)
#                Space group: R3
#

%BLOCK LATTICE_ABC
      4.98788      4.98788      4.98788
     81.38785     81.38785     81.38785
%ENDBLOCK LATTICE_ABC

%BLOCK POSITIONS_FRAC
  Li        0.1730530       -0.1601860       -0.3491892
  Li       -0.3491892        0.1730530       -0.1601860
  Li       -0.1601860       -0.3491892        0.1730530
  Li       -0.3317309       -0.3317309       -0.3317309
   N       -0.0355849        0.4203167       -0.1031554
   N       -0.1031554       -0.0355849        0.4203167
   N        0.4203167       -0.1031554       -0.0355849
   N        0.3517732        0.1567472       -0.4824380
   N       -0.4824380        0.3517732        0.1567472
   N        0.1567472       -0.4824380        0.3517732
   N        0.4375214        0.4375214        0.4375214
   N        0.1957680        0.1957680        0.1957680
%ENDBLOCK POSITIONS_FRAC

KPOINTS_MP_SPACING 0.07

%BLOCK SPECIES_POT
QC5
%ENDBLOCK SPECIES_POT

SNAP_TO_SYMMETRY
SYMMETRY_GENERATE

