#              Generated by Buildcell
#
# at 15:39:14 (GMT+1.0) 26th March 2023
# in /scratch/scratch/uccabz1/launch_tmp_michael
# on node-a14a-003
# by uccabz1
#
# compiler GCC version 4.9.2
# options -cpp -iprefix /scratch/UCL/applications/gcc/4.9.2/bin/../lib/gcc/x86_64-unknown-linux-gnu/4.9.2/ -mtune=corei7 -march=x86-64 -g -Og
#
# seed  1732788615   -77763578  -582510060  1060991986  -145264376  1191155465 -1932289684 -1742001576  -212673311  -931480474 -1534570308  -166602575
#
#      Author: C. J. Pickard (cjp20@cam.ac.uk)
#                Space group: Fmm2
#

%BLOCK LATTICE_ABC
      4.28607      4.28607      4.35496
    119.39436    119.39436     90.14825
%ENDBLOCK LATTICE_ABC

%BLOCK POSITIONS_FRAC
  Li        0.2122781        0.2007011        0.0000000
  Li       -0.2007011       -0.2122781       -0.0000000
   N        0.2875860       -0.2673967        0.2680527
   N        0.2673967       -0.2875860       -0.2680527
   N       -0.4645507       -0.0195334        0.2680527
   N        0.0195334        0.4645507       -0.2680527
%ENDBLOCK POSITIONS_FRAC

KPOINTS_MP_SPACING 0.07

%BLOCK SPECIES_POT
QC5
%ENDBLOCK SPECIES_POT

SNAP_TO_SYMMETRY
SYMMETRY_GENERATE

