#              Generated by Buildcell
#
# at 14:50:02 (GMT+1.0) 26th March 2023
# in /scratch/scratch/uccabz1/launch_tmp_michael
# on node-a14a-001
# by uccabz1
#
# compiler GCC version 4.9.2
# options -cpp -iprefix /scratch/UCL/applications/gcc/4.9.2/bin/../lib/gcc/x86_64-unknown-linux-gnu/4.9.2/ -mtune=corei7 -march=x86-64 -g -Og
#
# seed -2093496608  1878802136  2058107045 -1931880913   203055134  1108746954    -1717415  1313743735 -1245378997   136748334 -1710205417   147225161
#
#      Author: C. J. Pickard (cjp20@cam.ac.uk)
#                Space group: P-1
#

%BLOCK LATTICE_ABC
      3.36286      5.69366      6.72590
     78.45691     75.58634     73.53773
%ENDBLOCK LATTICE_ABC

%BLOCK POSITIONS_FRAC
  Li       -0.3385102       -0.3617645        0.1240240
  Li        0.3385102        0.3617645       -0.1240240
  Li       -0.1182378       -0.1040637       -0.2113797
  Li        0.1182378        0.1040637        0.2113797
   N        0.7873607       -0.3016148       -0.4347791
   N       -0.7873607        0.3016148        0.4347791
   N        0.1551559        0.0488612       -0.4664258
   N       -0.1551559       -0.0488612        0.4664258
   N        0.6963013        0.3825129       -0.4976845
   N       -0.6963013       -0.3825129        0.4976845
   N        0.2658112        0.4397916        0.1851536
   N       -0.2658112       -0.4397916       -0.1851536
%ENDBLOCK POSITIONS_FRAC

KPOINTS_MP_SPACING 0.07

%BLOCK SPECIES_POT
QC5
%ENDBLOCK SPECIES_POT

SNAP_TO_SYMMETRY
SYMMETRY_GENERATE

