#              Generated by Buildcell
#
# at 19:54:53 (GMT+1.0) 26th March 2023
# in /scratch/scratch/uccabz1/launch_tmp_michael
# on node-a14a-003
# by uccabz1
#
# compiler GCC version 4.9.2
# options -cpp -iprefix /scratch/UCL/applications/gcc/4.9.2/bin/../lib/gcc/x86_64-unknown-linux-gnu/4.9.2/ -mtune=corei7 -march=x86-64 -g -Og
#
# seed -1795502412  1836770533  -912190385  1767505701  -932743550   614801550  1412761096  -647283122  -650782092  1687321559  -971786598  -590493554
#
#      Author: C. J. Pickard (cjp20@cam.ac.uk)
#                Space group: R3
#

%BLOCK LATTICE_ABC
      4.74901      4.74901      4.74901
    108.09227    108.09227    108.09227
%ENDBLOCK LATTICE_ABC

%BLOCK POSITIONS_FRAC
  Li       -0.0357202       -0.2156490       -0.4110840
  Li       -0.4110840       -0.0357202       -0.2156490
  Li       -0.2156490       -0.4110840       -0.0357202
   N        0.2508666       -0.3460395        0.3480807
   N        0.3480807        0.2508666       -0.3460395
   N       -0.3460395        0.3480807        0.2508666
   N       -0.4506399       -0.3001824        0.2703387
   N        0.2703387       -0.4506399       -0.3001824
   N       -0.3001824        0.2703387       -0.4506399
%ENDBLOCK POSITIONS_FRAC

KPOINTS_MP_SPACING 0.07

%BLOCK SPECIES_POT
QC5
%ENDBLOCK SPECIES_POT

SNAP_TO_SYMMETRY
SYMMETRY_GENERATE

