#              Generated by Buildcell
#
# at 18:49:24 (GMT+1.0) 26th March 2023
# in /scratch/scratch/uccabz1/launch_tmp_michael
# on node-a14a-003
# by uccabz1
#
# compiler GCC version 4.9.2
# options -cpp -iprefix /scratch/UCL/applications/gcc/4.9.2/bin/../lib/gcc/x86_64-unknown-linux-gnu/4.9.2/ -mtune=corei7 -march=x86-64 -g -Og
#
# seed   568956001 -1797601335  -331482561   323866480 -1263975678  -523937624 -1841840951  1689906152   784603718 -1283573143 -1199325430 -1881891474
#
#      Author: C. J. Pickard (cjp20@cam.ac.uk)
#                Space group: R3
#

%BLOCK LATTICE_ABC
      4.11750      4.11750      4.11750
     72.45194     72.45194     72.45194
%ENDBLOCK LATTICE_ABC

%BLOCK POSITIONS_FRAC
  Li        0.2285713        0.2285713        0.2285713
  Li       -0.1931097       -0.1931097       -0.1931097
   N        0.4440581        0.1367395       -0.3947090
   N       -0.3947090        0.4440581        0.1367395
   N        0.1367395       -0.3947090        0.4440581
   N        0.0181490        0.0181490        0.0181490
%ENDBLOCK POSITIONS_FRAC

KPOINTS_MP_SPACING 0.07

%BLOCK SPECIES_POT
QC5
%ENDBLOCK SPECIES_POT

SNAP_TO_SYMMETRY
SYMMETRY_GENERATE

