#              Generated by Buildcell
#
# at 16:01:08 (GMT+1.0) 26th March 2023
# in /scratch/scratch/uccabz1/launch_tmp_michael
# on node-a14f-035
# by uccabz1
#
# compiler GCC version 4.9.2
# options -cpp -iprefix /scratch/UCL/applications/gcc/4.9.2/bin/../lib/gcc/x86_64-unknown-linux-gnu/4.9.2/ -mtune=corei7 -march=x86-64 -g -Og
#
# seed  1550421567   247369772  1682638662  1650844851  -325249352  1767501386  1203757711  -631283597 -1231901837  1204978180   918858828 -2033972132
#
#      Author: C. J. Pickard (cjp20@cam.ac.uk)
#                Space group: R3
#

%BLOCK LATTICE_ABC
      4.47674      4.47674      4.47674
     84.39415     84.39415     84.39415
%ENDBLOCK LATTICE_ABC

%BLOCK POSITIONS_FRAC
  Li        0.1203136        0.3240603       -0.4014157
  Li        0.3240603       -0.4014157        0.1203136
  Li       -0.4014157        0.1203136        0.3240603
   N       -0.0215462       -0.1458979       -0.4647973
   N       -0.1458979       -0.4647973       -0.0215462
   N       -0.4647973       -0.0215462       -0.1458979
   N        0.3894675       -0.3875660       -0.3411488
   N       -0.3875660       -0.3411488        0.3894675
   N       -0.3411488        0.3894675       -0.3875660
%ENDBLOCK POSITIONS_FRAC

KPOINTS_MP_SPACING 0.07

%BLOCK SPECIES_POT
QC5
%ENDBLOCK SPECIES_POT

SNAP_TO_SYMMETRY
SYMMETRY_GENERATE

