#              Generated by Buildcell
#
# at 19:32:42 (GMT+1.0) 26th March 2023
# in /scratch/scratch/uccabz1/launch_tmp_michael
# on node-a14a-019
# by uccabz1
#
# compiler GCC version 4.9.2
# options -cpp -iprefix /scratch/UCL/applications/gcc/4.9.2/bin/../lib/gcc/x86_64-unknown-linux-gnu/4.9.2/ -mtune=corei7 -march=x86-64 -g -Og
#
# seed -1316338321 -1411615815 -1887515924   314587387 -1443462360 -1156499987  -821654564  1838684736  1029374741  -680441737   632200527  -430364069
#
#      Author: C. J. Pickard (cjp20@cam.ac.uk)
#                Space group: P-1
#

%BLOCK LATTICE_ABC
      3.44995      4.96413      6.92985
     88.17763     80.39031     86.33870
%ENDBLOCK LATTICE_ABC

%BLOCK POSITIONS_FRAC
  Li       -0.0039018        0.3824873       -0.1565015
  Li        0.0039018       -0.3824873        0.1565015
  Li       -0.3219361       -0.2277119        0.4872880
  Li        0.3219361        0.2277119       -0.4872880
   N        0.4584927        0.3681486       -0.0400134
   N       -0.4584927       -0.3681486        0.0400134
   N        0.1746549        0.0848107       -0.0087190
   N       -0.1746549       -0.0848107        0.0087190
   N       -0.1540668        0.3170459        0.3413190
   N        0.1540668       -0.3170459       -0.3413190
   N       -0.3162317       -0.3256558       -0.2458689
   N        0.3162317        0.3256558        0.2458689
%ENDBLOCK POSITIONS_FRAC

KPOINTS_MP_SPACING 0.07

%BLOCK SPECIES_POT
QC5
%ENDBLOCK SPECIES_POT

SNAP_TO_SYMMETRY
SYMMETRY_GENERATE

