#              Generated by Buildcell
#
# at 16:43:58 (GMT+1.0) 26th March 2023
# in /scratch/scratch/uccabz1/launch_tmp_michael
# on node-a14b-022
# by uccabz1
#
# compiler GCC version 4.9.2
# options -cpp -iprefix /scratch/UCL/applications/gcc/4.9.2/bin/../lib/gcc/x86_64-unknown-linux-gnu/4.9.2/ -mtune=corei7 -march=x86-64 -g -Og
#
# seed  1943927243  -227415201  -563402770  -153974493  -678161068  -606417058  1334512682   739270295  -597559999   685293839   721344513 -2041108873
#
#      Author: C. J. Pickard (cjp20@cam.ac.uk)
#                Space group: Imm2
#

%BLOCK LATTICE_ABC
      4.98556      4.98731      6.03031
    114.42616    114.41700     90.00000
%ENDBLOCK LATTICE_ABC

%BLOCK POSITIONS_FRAC
  Li       -0.0012254        0.4987757        0.4975500
  Li        0.4987755       -0.0012257        0.4975500
  Li       -0.0012254       -0.0012257        0.4975500
  Li        0.4987755        0.4987757        0.4975500
   N       -0.0871717       -0.1340797        0.1265245
   N        0.2136962        0.2606043        0.1265245
   N       -0.0871717        0.2606043        0.1265245
   N        0.2136962       -0.1340797        0.1265245
   N       -0.3063953       -0.4039028       -0.1254179
   N        0.1809775        0.2784850       -0.1254179
   N       -0.3063953        0.2784850       -0.1254179
   N        0.1809775       -0.4039028       -0.1254179
%ENDBLOCK POSITIONS_FRAC

KPOINTS_MP_SPACING 0.07

%BLOCK SPECIES_POT
QC5
%ENDBLOCK SPECIES_POT

SNAP_TO_SYMMETRY
SYMMETRY_GENERATE

