#              Generated by Buildcell
#
# at 14:50:01 (GMT+1.0) 26th March 2023
# in /scratch/scratch/uccabz1/launch_tmp_michael
# on node-a14f-035
# by uccabz1
#
# compiler GCC version 4.9.2
# options -cpp -iprefix /scratch/UCL/applications/gcc/4.9.2/bin/../lib/gcc/x86_64-unknown-linux-gnu/4.9.2/ -mtune=corei7 -march=x86-64 -g -Og
#
# seed -1040643397  1508662048  1072162334 -1916101511 -1781787975 -1878813776  1610478325 -1937269276  -479005693  2056670917    44761782  1611304975
#
#      Author: C. J. Pickard (cjp20@cam.ac.uk)
#                Space group: P3
#

%BLOCK LATTICE_ABC
      2.77401      2.77401      8.58664
     90.00000     90.00000    120.00000
%ENDBLOCK LATTICE_ABC

%BLOCK POSITIONS_FRAC
  Li       -0.3333333        0.3333333        0.0799202
  Li        0.3333333       -0.3333333       -0.1952666
   N       -0.3789017       -0.0003709       -0.4060892
   N        0.0003709       -0.3785308       -0.4060892
   N        0.3785308        0.3789017       -0.4060892
   N        0.3333333       -0.3333333        0.3397992
%ENDBLOCK POSITIONS_FRAC

KPOINTS_MP_SPACING 0.07

%BLOCK SPECIES_POT
QC5
%ENDBLOCK SPECIES_POT

SNAP_TO_SYMMETRY
SYMMETRY_GENERATE

