#              Generated by Buildcell
#
# at 15:58:13 (GMT+1.0) 26th March 2023
# in /scratch/scratch/uccabz1/launch_tmp_michael
# on node-a14f-035
# by uccabz1
#
# compiler GCC version 4.9.2
# options -cpp -iprefix /scratch/UCL/applications/gcc/4.9.2/bin/../lib/gcc/x86_64-unknown-linux-gnu/4.9.2/ -mtune=corei7 -march=x86-64 -g -Og
#
# seed  1671073779   255883727  1613670950   336493957 -2100444694     4355399  -150586518 -1840147386   309541876   518170700  1131809247   723719611
#
#      Author: C. J. Pickard (cjp20@cam.ac.uk)
#                Space group: Pnn2
#

%BLOCK LATTICE_ABC
      3.39684      5.74903      9.33557
     90.00000     90.00000     90.00000
%ENDBLOCK LATTICE_ABC

%BLOCK POSITIONS_FRAC
  Li        0.1077897        0.2078913       -0.1500264
  Li       -0.1077897       -0.2078913       -0.1500264
  Li       -0.3922103        0.2921087        0.3499736
  Li        0.3922103       -0.2921087        0.3499736
  Li        0.0000000        0.0000000        0.0819063
  Li        0.5000000       -0.5000000       -0.4180937
   N        0.3374809        0.4111499        0.1321690
   N       -0.3374809       -0.4111499        0.1321690
   N       -0.1625191        0.0888501       -0.3678310
   N        0.1625191       -0.0888501       -0.3678310
   N       -0.2794721       -0.4936061       -0.2310308
   N        0.2794721        0.4936061       -0.2310308
   N        0.2205279       -0.0063939        0.2689692
   N       -0.2205279        0.0063939        0.2689692
   N       -0.0739066       -0.1231315        0.4574428
   N        0.0739066        0.1231315        0.4574428
   N        0.4260934       -0.3768685       -0.0425572
   N       -0.4260934        0.3768685       -0.0425572
%ENDBLOCK POSITIONS_FRAC

KPOINTS_MP_SPACING 0.07

%BLOCK SPECIES_POT
QC5
%ENDBLOCK SPECIES_POT

SNAP_TO_SYMMETRY
SYMMETRY_GENERATE

