#              Generated by Buildcell
#
# at 18:37:43 (GMT+1.0) 26th March 2023
# in /scratch/scratch/uccabz1/launch_tmp_michael
# on node-a14a-001
# by uccabz1
#
# compiler GCC version 4.9.2
# options -cpp -iprefix /scratch/UCL/applications/gcc/4.9.2/bin/../lib/gcc/x86_64-unknown-linux-gnu/4.9.2/ -mtune=corei7 -march=x86-64 -g -Og
#
# seed -1705954638  1935678604 -1368529669  -674950636  -360546281  -338282737  1600392900 -1106499201   109034813 -1846854681   -28005050 -1286949586
#
#      Author: C. J. Pickard (cjp20@cam.ac.uk)
#                Space group: R3
#

%BLOCK LATTICE_ABC
      5.04149      5.04149      5.04149
     78.22076     78.22076     78.22076
%ENDBLOCK LATTICE_ABC

%BLOCK POSITIONS_FRAC
  Li       -0.2783105        0.3615740       -0.0195645
  Li        0.3615740       -0.0195645       -0.2783105
  Li       -0.0195645       -0.2783105        0.3615740
  Li       -0.1483033       -0.1483033       -0.1483033
   N       -0.3035231        0.2337391        0.3724480
   N        0.2337391        0.3724480       -0.3035231
   N        0.3724480       -0.3035231        0.2337391
   N       -0.0569580        0.2335636       -0.3888265
   N        0.2335636       -0.3888265       -0.0569580
   N       -0.3888265       -0.0569580        0.2335636
   N        0.3523935        0.3523935        0.3523935
   N        0.0598651        0.0598651        0.0598651
%ENDBLOCK POSITIONS_FRAC

KPOINTS_MP_SPACING 0.07

%BLOCK SPECIES_POT
QC5
%ENDBLOCK SPECIES_POT

SNAP_TO_SYMMETRY
SYMMETRY_GENERATE

