#              Generated by Buildcell
#
# at 17:15:26 (GMT+1.0) 26th March 2023
# in /scratch/scratch/uccabz1/launch_tmp_michael
# on node-a14c-005
# by uccabz1
#
# compiler GCC version 4.9.2
# options -cpp -iprefix /scratch/UCL/applications/gcc/4.9.2/bin/../lib/gcc/x86_64-unknown-linux-gnu/4.9.2/ -mtune=corei7 -march=x86-64 -g -Og
#
# seed   107131968   -92579798  1258427161  -837029967   505958900  2098439582 -1282923120  -526231428  1054293547 -1179811803  2005597673 -1883835605
#
#      Author: C. J. Pickard (cjp20@cam.ac.uk)
#                Space group: Cmm2
#

%BLOCK LATTICE_ABC
      4.59434      4.59434      4.64523
     90.00000     90.00000    113.28581
%ENDBLOCK LATTICE_ABC

%BLOCK POSITIONS_FRAC
  Li       -0.3371318        0.3371318       -0.1280469
  Li        0.3371318       -0.3371318       -0.1280469
  Li       -0.0000000       -0.0000000       -0.4146535
   N       -0.2548458       -0.0566654        0.2509745
   N        0.2548458        0.0566654        0.2509745
   N       -0.0566654       -0.2548458        0.2509745
   N        0.0566654        0.2548458        0.2509745
   N       -0.0977239        0.0977239       -0.0239332
   N        0.0977239       -0.0977239       -0.0239332
%ENDBLOCK POSITIONS_FRAC

KPOINTS_MP_SPACING 0.07

%BLOCK SPECIES_POT
QC5
%ENDBLOCK SPECIES_POT

SNAP_TO_SYMMETRY
SYMMETRY_GENERATE

