#              Generated by Buildcell
#
# at 14:56:55 (GMT+1.0) 26th March 2023
# in /scratch/scratch/uccabz1/launch_tmp_michael
# on node-a14e-021
# by uccabz1
#
# compiler GCC version 4.9.2
# options -cpp -iprefix /scratch/UCL/applications/gcc/4.9.2/bin/../lib/gcc/x86_64-unknown-linux-gnu/4.9.2/ -mtune=corei7 -march=x86-64 -g -Og
#
# seed  1557956834  -337444525   857877205  -189553262  -539412346   761760587 -1580727435  1917555940  -414309578 -1830936839  2037728003  -516621527
#
#      Author: C. J. Pickard (cjp20@cam.ac.uk)
#                Space group: R3
#

%BLOCK LATTICE_ABC
      5.08822      5.08822      6.23240
     65.90777     65.90777     60.00000
%ENDBLOCK LATTICE_ABC

%BLOCK POSITIONS_FRAC
  Li       -0.1922036       -0.4771368        0.4540048
  Li        0.2153356       -0.1922036        0.4540048
  Li       -0.4771368        0.2153356        0.4540048
  Li        0.3199679        0.3199679        0.0400964
   N        0.4274327       -0.4570020        0.1495949
   N       -0.1200256        0.4274327        0.1495949
   N       -0.4570020       -0.1200256        0.1495949
   N       -0.0934568       -0.0946155       -0.2501320
   N        0.4382042       -0.0934568       -0.2501320
   N       -0.0946155        0.4382042       -0.2501320
   N       -0.0093569       -0.0093569        0.0280706
   N        0.4351901        0.4351901       -0.3055703
%ENDBLOCK POSITIONS_FRAC

KPOINTS_MP_SPACING 0.07

%BLOCK SPECIES_POT
QC5
%ENDBLOCK SPECIES_POT

SNAP_TO_SYMMETRY
SYMMETRY_GENERATE

