#              Generated by Buildcell
#
# at 18:12:57 (GMT+1.0) 26th March 2023
# in /scratch/scratch/uccabz1/launch_tmp_michael
# on node-a14b-031
# by uccabz1
#
# compiler GCC version 4.9.2
# options -cpp -iprefix /scratch/UCL/applications/gcc/4.9.2/bin/../lib/gcc/x86_64-unknown-linux-gnu/4.9.2/ -mtune=corei7 -march=x86-64 -g -Og
#
# seed  1799798753   373530131  1916504870 -1814986148 -1069476494  1540678278   455330554   663549137  -496915455  -729345709  -937714186 -2011754380
#
#      Author: C. J. Pickard (cjp20@cam.ac.uk)
#                Space group: P-1
#

%BLOCK LATTICE_ABC
      2.99325      5.06415      6.30044
    101.04628     97.34822     98.77792
%ENDBLOCK LATTICE_ABC

%BLOCK POSITIONS_FRAC
  Li       -0.3503460        0.2378343       -0.0175357
  Li        0.3503460       -0.2378343        0.0175357
  Li       -0.5000000       -0.0000000        0.5000000
   N        0.2713112       -0.1685187       -0.2805925
   N       -0.2713112        0.1685187        0.2805925
   N       -0.4057465        0.4212542        0.4069896
   N        0.4057465       -0.4212542       -0.4069896
   N        0.0299607       -0.1343472        0.2527591
   N       -0.0299607        0.1343472       -0.2527591
%ENDBLOCK POSITIONS_FRAC

KPOINTS_MP_SPACING 0.07

%BLOCK SPECIES_POT
QC5
%ENDBLOCK SPECIES_POT

SNAP_TO_SYMMETRY
SYMMETRY_GENERATE

