#              Generated by Buildcell
#
# at 18:37:10 (GMT+1.0) 26th March 2023
# in /scratch/scratch/uccabz1/launch_tmp_michael
# on node-a14b-028
# by uccabz1
#
# compiler GCC version 4.9.2
# options -cpp -iprefix /scratch/UCL/applications/gcc/4.9.2/bin/../lib/gcc/x86_64-unknown-linux-gnu/4.9.2/ -mtune=corei7 -march=x86-64 -g -Og
#
# seed  1086894790  1770615767  1768867087 -1518307296 -1636749432  -748327399   765922261 -1889058957  1815572165  -976845173 -1651089346 -1582259275
#
#      Author: C. J. Pickard (cjp20@cam.ac.uk)
#                Space group: P3
#

%BLOCK LATTICE_ABC
      4.33013      4.33013      7.25530
     90.00000     90.00000    120.00000
%ENDBLOCK LATTICE_ABC

%BLOCK POSITIONS_FRAC
  Li       -0.3333334       -0.3333334        0.4136858
  Li       -0.0000000        0.3333334        0.4136858
  Li        0.3333334        0.0000000        0.4136858
  Li       -0.3333333        0.3333333        0.0329778
   N       -0.1533187       -0.2354736        0.1689081
   N       -0.0821549        0.1533187        0.1689081
   N        0.2354736        0.0821549        0.1689081
   N       -0.3543728       -0.3301131       -0.3246393
   N        0.0242597        0.3543728       -0.3246393
   N        0.3301131       -0.0242597       -0.3246393
   N       -0.0000000       -0.0000000       -0.4114832
   N       -0.0000000        0.0000000       -0.1729445
%ENDBLOCK POSITIONS_FRAC

KPOINTS_MP_SPACING 0.07

%BLOCK SPECIES_POT
QC5
%ENDBLOCK SPECIES_POT

SNAP_TO_SYMMETRY
SYMMETRY_GENERATE

