#              Generated by Buildcell
#
# at 17:51:16 (GMT+1.0) 26th March 2023
# in /scratch/scratch/uccabz1/launch_tmp_michael
# on node-a14e-007
# by uccabz1
#
# compiler GCC version 4.9.2
# options -cpp -iprefix /scratch/UCL/applications/gcc/4.9.2/bin/../lib/gcc/x86_64-unknown-linux-gnu/4.9.2/ -mtune=corei7 -march=x86-64 -g -Og
#
# seed  1042672974  2096294875  -711588260  1855160813  -924887783    80979022  -621406924  -470329815  -545262004   107009110  -602358933  1291967275
#
#      Author: C. J. Pickard (cjp20@cam.ac.uk)
#                Space group: P3
#

%BLOCK LATTICE_ABC
      4.98902      4.98902      5.30050
     90.00000     90.00000    120.00000
%ENDBLOCK LATTICE_ABC

%BLOCK POSITIONS_FRAC
  Li        0.0544780        0.3635177       -0.0615006
  Li       -0.3635177       -0.3090397       -0.0615006
  Li        0.3090397       -0.0544780       -0.0615006
  Li       -0.3333333        0.3333333        0.3787135
   N        0.2676158        0.2793176        0.3140120
   N       -0.2793176       -0.0117018        0.3140120
   N        0.0117018       -0.2676158        0.3140120
   N        0.1885574       -0.1303272       -0.4349805
   N        0.1303272        0.3188846       -0.4349805
   N       -0.3188846       -0.1885574       -0.4349805
   N       -0.3333333        0.3333333        0.0202231
   N       -0.3333333        0.3333333       -0.2627962
%ENDBLOCK POSITIONS_FRAC

KPOINTS_MP_SPACING 0.07

%BLOCK SPECIES_POT
QC5
%ENDBLOCK SPECIES_POT

SNAP_TO_SYMMETRY
SYMMETRY_GENERATE

