#              Generated by Buildcell
#
# at 16:08:14 (GMT+1.0) 26th March 2023
# in /scratch/scratch/uccabz1/launch_tmp_michael
# on node-a14b-028
# by uccabz1
#
# compiler GCC version 4.9.2
# options -cpp -iprefix /scratch/UCL/applications/gcc/4.9.2/bin/../lib/gcc/x86_64-unknown-linux-gnu/4.9.2/ -mtune=corei7 -march=x86-64 -g -Og
#
# seed  -966979724 -1443597982 -1379085446   176602864   979982502 -1596889705  -436620529 -1752530326 -1225913659 -1134001452  1151221626   507646224
#
#      Author: C. J. Pickard (cjp20@cam.ac.uk)
#                Space group: P4
#

%BLOCK LATTICE_ABC
      3.98429      4.63983      4.63983
     90.00000     90.00000     90.00000
%ENDBLOCK LATTICE_ABC

%BLOCK POSITIONS_FRAC
  Li       -0.4232056        0.0000000       -0.5000000
  Li       -0.4232056       -0.5000000        0.0000000
  Li        0.0355670        0.5000000       -0.5000000
   N        0.2599436        0.2670071       -0.2238139
   N        0.2599436       -0.2670071        0.2238139
   N        0.2599436        0.2238139        0.2670071
   N        0.2599436       -0.2238139       -0.2670071
   N        0.0536677        0.0000000       -0.5000000
   N        0.0536677       -0.5000000        0.0000000
%ENDBLOCK POSITIONS_FRAC

KPOINTS_MP_SPACING 0.07

%BLOCK SPECIES_POT
QC5
%ENDBLOCK SPECIES_POT

SNAP_TO_SYMMETRY
SYMMETRY_GENERATE

