#              Generated by Buildcell
#
# at 20:22:28 (GMT+1.0) 26th March 2023
# in /scratch/scratch/uccabz1/launch_tmp_michael
# on node-a14a-019
# by uccabz1
#
# compiler GCC version 4.9.2
# options -cpp -iprefix /scratch/UCL/applications/gcc/4.9.2/bin/../lib/gcc/x86_64-unknown-linux-gnu/4.9.2/ -mtune=corei7 -march=x86-64 -g -Og
#
# seed -1755575778 -1007491768   548714896   356457379 -1913743283  -645778729  -549212206 -1007849776    74968800   709462208 -1157404602  1982284951
#
#      Author: C. J. Pickard (cjp20@cam.ac.uk)
#                Space group: Ccc2
#

%BLOCK LATTICE_ABC
      4.77379      5.14422      8.38375
     90.00000     90.00000    117.64521
%ENDBLOCK LATTICE_ABC

%BLOCK POSITIONS_FRAC
  Li        0.1777262        0.2707047        0.0923864
  Li       -0.1777262       -0.2707047        0.0923864
  Li        0.0929785        0.2707047       -0.4076136
  Li       -0.0929785       -0.2707047       -0.4076136
  Li        0.5000000        0.0000000       -0.2063897
  Li       -0.5000000        0.0000000        0.2936103
   N        0.3694087       -0.3723147       -0.3037291
   N       -0.3694087        0.3723147       -0.3037291
   N        0.2582765       -0.3723147        0.1962709
   N       -0.2582765        0.3723147        0.1962709
   N        0.0329831        0.3374852        0.3068003
   N       -0.0329831       -0.3374852        0.3068003
   N        0.3045021        0.3374852       -0.1931997
   N       -0.3045021       -0.3374852       -0.1931997
   N        0.4343371        0.3362888        0.2785285
   N       -0.4343371       -0.3362888        0.2785285
   N       -0.0980483        0.3362888       -0.2214715
   N        0.0980483       -0.3362888       -0.2214715
%ENDBLOCK POSITIONS_FRAC

KPOINTS_MP_SPACING 0.07

%BLOCK SPECIES_POT
QC5
%ENDBLOCK SPECIES_POT

SNAP_TO_SYMMETRY
SYMMETRY_GENERATE

