#              Generated by Buildcell
#
# at 15:09:49 (GMT+1.0) 26th March 2023
# in /scratch/scratch/uccabz1/launch_tmp_michael
# on node-a14a-003
# by uccabz1
#
# compiler GCC version 4.9.2
# options -cpp -iprefix /scratch/UCL/applications/gcc/4.9.2/bin/../lib/gcc/x86_64-unknown-linux-gnu/4.9.2/ -mtune=corei7 -march=x86-64 -g -Og
#
# seed   688407349   484067553 -1033778648  1786571085 -1231725869  1184399895  1698025295   773172455   186457613   739270295 -1508102045 -2012925588
#
#      Author: C. J. Pickard (cjp20@cam.ac.uk)
#                Space group: P3
#

%BLOCK LATTICE_ABC
      5.33684      5.33684      7.03173
     90.00000     90.00000    120.00000
%ENDBLOCK LATTICE_ABC

%BLOCK POSITIONS_FRAC
  Li       -0.1095905       -0.3608696        0.3079626
  Li       -0.2512792        0.1095905        0.3079626
  Li        0.3608696        0.2512792        0.3079626
  Li       -0.3557101       -0.4007286       -0.3818029
  Li       -0.0450186        0.3557101       -0.3818029
  Li        0.4007286        0.0450186       -0.3818029
   N        0.1572522       -0.4926075       -0.1397134
   N        0.3501402       -0.1572522       -0.1397134
   N        0.4926075       -0.3501402       -0.1397134
   N        0.2685317        0.3028774       -0.3094952
   N        0.0343457       -0.2685317       -0.3094952
   N       -0.3028774       -0.0343457       -0.3094952
   N       -0.1414574       -0.3316060       -0.0312063
   N       -0.1901486        0.1414574       -0.0312063
   N        0.3316060        0.1901486       -0.0312063
   N        0.1030189       -0.0845159       -0.1346725
   N       -0.1875348       -0.1030189       -0.1346725
   N        0.0845159        0.1875348       -0.1346725
%ENDBLOCK POSITIONS_FRAC

KPOINTS_MP_SPACING 0.07

%BLOCK SPECIES_POT
QC5
%ENDBLOCK SPECIES_POT

SNAP_TO_SYMMETRY
SYMMETRY_GENERATE

