#              Generated by Buildcell
#
# at 19:54:20 (GMT+1.0) 26th March 2023
# in /scratch/scratch/uccabz1/launch_tmp_michael
# on node-a14a-001
# by uccabz1
#
# compiler GCC version 4.9.2
# options -cpp -iprefix /scratch/UCL/applications/gcc/4.9.2/bin/../lib/gcc/x86_64-unknown-linux-gnu/4.9.2/ -mtune=corei7 -march=x86-64 -g -Og
#
# seed  1845860037   738874806   208523888  1015586424  2007102582  1405740368 -1205652294   783411145   754733267 -2054327267  -388989013   737102674
#
#      Author: C. J. Pickard (cjp20@cam.ac.uk)
#                Space group: P3
#

%BLOCK LATTICE_ABC
      3.05262      3.05262      7.61924
     90.00000     90.00000    120.00000
%ENDBLOCK LATTICE_ABC

%BLOCK POSITIONS_FRAC
  Li       -0.0000000       -0.0000000       -0.0614866
  Li        0.3333333       -0.3333333       -0.2941988
   N       -0.2526646       -0.3276565        0.1575872
   N       -0.0749919        0.2526646        0.1575872
   N        0.3276565        0.0749919        0.1575872
   N       -0.3333333        0.3333333        0.3236801
%ENDBLOCK POSITIONS_FRAC

KPOINTS_MP_SPACING 0.07

%BLOCK SPECIES_POT
QC5
%ENDBLOCK SPECIES_POT

SNAP_TO_SYMMETRY
SYMMETRY_GENERATE

