#              Generated by Buildcell
#
# at 18:14:58 (GMT+1.0) 26th March 2023
# in /scratch/scratch/uccabz1/launch_tmp_michael
# on node-a14a-003
# by uccabz1
#
# compiler GCC version 4.9.2
# options -cpp -iprefix /scratch/UCL/applications/gcc/4.9.2/bin/../lib/gcc/x86_64-unknown-linux-gnu/4.9.2/ -mtune=corei7 -march=x86-64 -g -Og
#
# seed   790427447  1822175932 -2061617109  1234263068 -1375599387  -570577947 -1582690646 -1391538700  -720709227  -288790996 -2111691118  -310139949
#
#      Author: C. J. Pickard (cjp20@cam.ac.uk)
#                Space group: P3
#

%BLOCK LATTICE_ABC
      3.74599      4.25536      4.25536
    120.00000     90.00000     90.00000
%ENDBLOCK LATTICE_ABC

%BLOCK POSITIONS_FRAC
  Li       -0.1323261        0.0000000        0.0000000
  Li       -0.2558115        0.3333333       -0.3333333
   N        0.3876111       -0.2972561       -0.1588766
   N        0.3876111        0.1588766       -0.1383795
   N        0.3876111        0.1383795        0.2972561
   N        0.0409445       -0.3333333        0.3333333
%ENDBLOCK POSITIONS_FRAC

KPOINTS_MP_SPACING 0.07

%BLOCK SPECIES_POT
QC5
%ENDBLOCK SPECIES_POT

SNAP_TO_SYMMETRY
SYMMETRY_GENERATE

