#              Generated by Buildcell
#
# at 17:12:45 (GMT+1.0) 26th March 2023
# in /scratch/scratch/uccabz1/launch_tmp_michael
# on node-a14f-035
# by uccabz1
#
# compiler GCC version 4.9.2
# options -cpp -iprefix /scratch/UCL/applications/gcc/4.9.2/bin/../lib/gcc/x86_64-unknown-linux-gnu/4.9.2/ -mtune=corei7 -march=x86-64 -g -Og
#
# seed   198922920   960256813  -328743752   619654745 -1833155115   100451449  2024734783   437398925   325802866   983753427  1453613782  1513539496
#
#      Author: C. J. Pickard (cjp20@cam.ac.uk)
#                Space group: P2/c
#

%BLOCK LATTICE_ABC
      3.49052      5.17480      9.52911
     90.00000     94.29931     90.00000
%ENDBLOCK LATTICE_ABC

%BLOCK POSITIONS_FRAC
  Li       -0.2772710        0.2171735        0.3684529
  Li       -0.2227290        0.2171735       -0.3684529
  Li        0.2772710       -0.2171735       -0.3684529
  Li        0.2227290       -0.2171735        0.3684529
  Li       -0.2500000       -0.2924060        0.0000000
  Li        0.2500000        0.2924060        0.0000000
   N        0.0270813        0.0233608        0.1150144
   N        0.4729187        0.0233608       -0.1150144
   N       -0.0270813       -0.0233608       -0.1150144
   N       -0.4729187       -0.0233608        0.1150144
   N       -0.0667990       -0.2244739        0.1915143
   N       -0.4332010       -0.2244739       -0.1915143
   N        0.0667990        0.2244739       -0.1915143
   N        0.4332010        0.2244739        0.1915143
   N       -0.3326752        0.4884063        0.1921330
   N       -0.1673248        0.4884063       -0.1921330
   N        0.3326752       -0.4884063       -0.1921330
   N        0.1673248       -0.4884063        0.1921330
%ENDBLOCK POSITIONS_FRAC

KPOINTS_MP_SPACING 0.07

%BLOCK SPECIES_POT
QC5
%ENDBLOCK SPECIES_POT

SNAP_TO_SYMMETRY
SYMMETRY_GENERATE

