#              Generated by Buildcell
#
# at 19:55:46 (GMT+1.0) 26th March 2023
# in /scratch/scratch/uccabz1/launch_tmp_michael
# on node-a14a-003
# by uccabz1
#
# compiler GCC version 4.9.2
# options -cpp -iprefix /scratch/UCL/applications/gcc/4.9.2/bin/../lib/gcc/x86_64-unknown-linux-gnu/4.9.2/ -mtune=corei7 -march=x86-64 -g -Og
#
# seed   860610497 -1611576002  1677744617  -511678792   848578395  1853438035  -669097223  -907082106 -1951559267  1210277821  1186805850   629198060
#
#      Author: C. J. Pickard (cjp20@cam.ac.uk)
#                Space group: P222
#

%BLOCK LATTICE_ABC
      2.49998      4.95344      4.99981
     90.00000     90.00000     90.00000
%ENDBLOCK LATTICE_ABC

%BLOCK POSITIONS_FRAC
  Li        0.0000000       -0.5000000        0.2500003
  Li        0.0000000        0.5000000       -0.2500003
   N        0.3408778       -0.1656462       -0.1746822
   N       -0.3408778       -0.1656462        0.1746822
   N        0.3408778        0.1656462        0.1746822
   N       -0.3408778        0.1656462       -0.1746822
%ENDBLOCK POSITIONS_FRAC

KPOINTS_MP_SPACING 0.07

%BLOCK SPECIES_POT
QC5
%ENDBLOCK SPECIES_POT

SNAP_TO_SYMMETRY
SYMMETRY_GENERATE

