#              Generated by Buildcell
#
# at 16:49:45 (GMT+1.0) 26th March 2023
# in /scratch/scratch/uccabz1/launch_tmp_michael
# on node-a14b-031
# by uccabz1
#
# compiler GCC version 4.9.2
# options -cpp -iprefix /scratch/UCL/applications/gcc/4.9.2/bin/../lib/gcc/x86_64-unknown-linux-gnu/4.9.2/ -mtune=corei7 -march=x86-64 -g -Og
#
# seed -1096778960   898823600   149436175 -1882160365  -776642692 -1323247832 -1909622337  -548971557  1511045189  1694652694  1143835728  -760067991
#
#      Author: C. J. Pickard (cjp20@cam.ac.uk)
#                Space group: R3
#

%BLOCK LATTICE_ABC
      5.29500      5.29500      5.29500
     66.63898     66.63898     66.63898
%ENDBLOCK LATTICE_ABC

%BLOCK POSITIONS_FRAC
  Li        0.0349214        0.3132719       -0.1817773
  Li        0.3132719       -0.1817773        0.0349214
  Li       -0.1817773        0.0349214        0.3132719
  Li        0.3109329        0.3109329        0.3109329
   N        0.3153071       -0.4085482       -0.3493126
   N       -0.4085482       -0.3493126        0.3153071
   N       -0.3493126        0.3153071       -0.4085482
   N        0.0183355       -0.4207185        0.1124582
   N       -0.4207185        0.1124582        0.0183355
   N        0.1124582        0.0183355       -0.4207185
   N       -0.1889267       -0.1889267       -0.1889267
   N        0.1561749        0.1561749        0.1561749
%ENDBLOCK POSITIONS_FRAC

KPOINTS_MP_SPACING 0.07

%BLOCK SPECIES_POT
QC5
%ENDBLOCK SPECIES_POT

SNAP_TO_SYMMETRY
SYMMETRY_GENERATE

