#              Generated by Buildcell
#
# at 17:32:06 (GMT+1.0) 26th March 2023
# in /scratch/scratch/uccabz1/launch_tmp_michael
# on node-a14c-005
# by uccabz1
#
# compiler GCC version 4.9.2
# options -cpp -iprefix /scratch/UCL/applications/gcc/4.9.2/bin/../lib/gcc/x86_64-unknown-linux-gnu/4.9.2/ -mtune=corei7 -march=x86-64 -g -Og
#
# seed -1991323149   242196317  1304215741  1351909232 -1404089689  1584172957  2128780442  -120356167  -536836485   540234683  -836328753  1238864675
#
#      Author: C. J. Pickard (cjp20@cam.ac.uk)
#                Space group: P3
#

%BLOCK LATTICE_ABC
      2.94452      6.08583      6.08583
    120.00000     90.00000     90.00000
%ENDBLOCK LATTICE_ABC

%BLOCK POSITIONS_FRAC
  Li       -0.0713361        0.0468058       -0.3853135
  Li       -0.0713361       -0.4321193       -0.0468058
  Li       -0.0713361        0.3853135        0.4321193
   N        0.2875721        0.3010358       -0.0622890
   N        0.2875721       -0.3633247       -0.3010358
   N        0.2875721        0.0622890        0.3633247
   N       -0.4542396        0.0750199       -0.0893896
   N       -0.4542396       -0.1644095       -0.0750199
   N       -0.4542396        0.0893896        0.1644095
%ENDBLOCK POSITIONS_FRAC

KPOINTS_MP_SPACING 0.07

%BLOCK SPECIES_POT
QC5
%ENDBLOCK SPECIES_POT

SNAP_TO_SYMMETRY
SYMMETRY_GENERATE

