#              Generated by Buildcell
#
# at 20:07:34 (GMT+1.0) 26th March 2023
# in /scratch/scratch/uccabz1/launch_tmp_michael
# on node-a14b-031
# by uccabz1
#
# compiler GCC version 4.9.2
# options -cpp -iprefix /scratch/UCL/applications/gcc/4.9.2/bin/../lib/gcc/x86_64-unknown-linux-gnu/4.9.2/ -mtune=corei7 -march=x86-64 -g -Og
#
# seed   970580749  1172582483   -69559703   587504345 -1037704906  -598244771 -1140347981  -636465390  1055500717     5164724 -1109585751 -1399137777
#
#      Author: C. J. Pickard (cjp20@cam.ac.uk)
#                Space group: P-1
#

%BLOCK LATTICE_ABC
      2.50026      4.81120      7.68247
     82.90585     89.06988     77.00140
%ENDBLOCK LATTICE_ABC

%BLOCK POSITIONS_FRAC
  Li       -0.2415226        0.1023632       -0.3134650
  Li        0.2415226       -0.1023632        0.3134650
  Li       -0.5000000       -0.0000000        0.0000000
   N       -0.0896449       -0.4594539       -0.4110794
   N        0.0896449        0.4594539        0.4110794
   N       -0.4096510       -0.1572812       -0.4613682
   N        0.4096510        0.1572812        0.4613682
   N       -0.0102860        0.4879730       -0.2153572
   N        0.0102860       -0.4879730        0.2153572
%ENDBLOCK POSITIONS_FRAC

KPOINTS_MP_SPACING 0.07

%BLOCK SPECIES_POT
QC5
%ENDBLOCK SPECIES_POT

SNAP_TO_SYMMETRY
SYMMETRY_GENERATE

