#              Generated by Buildcell
#
# at 14:50:02 (GMT+1.0) 26th March 2023
# in /scratch/scratch/uccabz1/launch_tmp_michael
# on node-a14e-007
# by uccabz1
#
# compiler GCC version 4.9.2
# options -cpp -iprefix /scratch/UCL/applications/gcc/4.9.2/bin/../lib/gcc/x86_64-unknown-linux-gnu/4.9.2/ -mtune=corei7 -march=x86-64 -g -Og
#
# seed   972991373 -1815215292  -258103946   982989099  -806715666  -891105703  -218566438  1076086829  1069781487  -410595145 -2079625669   647926548
#
#      Author: C. J. Pickard (cjp20@cam.ac.uk)
#                Space group: P2/c
#

%BLOCK LATTICE_ABC
      4.64421      5.69233      6.78461
     90.00000     90.00000    101.79138
%ENDBLOCK LATTICE_ABC

%BLOCK POSITIONS_FRAC
  Li        0.1046884        0.2820211        0.2202404
  Li        0.3953116       -0.2820211        0.2202404
  Li       -0.1046884       -0.2820211       -0.2202404
  Li       -0.3953116        0.2820211       -0.2202404
  Li        0.2500000        0.0000000       -0.4317415
  Li       -0.2500000        0.0000000        0.4317415
   N       -0.3051422        0.2904950        0.2367014
   N       -0.1948578       -0.2904950        0.2367014
   N        0.3051422       -0.2904950       -0.2367014
   N        0.1948578        0.2904950       -0.2367014
   N       -0.0971961        0.0754723       -0.0454382
   N       -0.4028039       -0.0754723       -0.0454382
   N        0.0971961       -0.0754723        0.0454382
   N        0.4028039        0.0754723        0.0454382
   N        0.0644107       -0.2338897        0.3743956
   N        0.4355893        0.2338897        0.3743956
   N       -0.0644107        0.2338897       -0.3743956
   N       -0.4355893       -0.2338897       -0.3743956
%ENDBLOCK POSITIONS_FRAC

KPOINTS_MP_SPACING 0.07

%BLOCK SPECIES_POT
QC5
%ENDBLOCK SPECIES_POT

SNAP_TO_SYMMETRY
SYMMETRY_GENERATE

