# Cell file generated by matador (Matthew Evans 2016)

%BLOCK LATTICE_CART
5.822769 0.0 0.0
-4.892507074734975 3.1572160760754446 0.0
0.0 0.0 4.501278
%ENDBLOCK LATTICE_CART

%BLOCK POSITIONS_FRAC
P           0.093979000000000    0.906021000000000    0.413022000000000 
P           0.406021000000000    0.593979000000000    0.913022000000000 
P           0.593979000000000    0.406021000000000    0.086978000000000 
P           0.906021000000000    0.093979000000000    0.586978000000000 
%ENDBLOCK POSITIONS_FRAC
