# Cell file generated by matador (Matthew Evans 2016)

%BLOCK LATTICE_CART
4.546377 0.0 0.0
-1.5154590273441855 4.286365332373106 0.0
-1.5154590273441855 -2.1431827241923314 3.712101234246387
%ENDBLOCK LATTICE_CART

%BLOCK POSITIONS_FRAC
K           0.000000000000000    0.000000000000000    0.000000000000000 
%ENDBLOCK POSITIONS_FRAC
