# Cell file generated by matador (Matthew Evans 2016)

%BLOCK LATTICE_CART
8.35778 0.0 0.0
0.0 8.35778 0.0
0.0 0.0 8.93938
%ENDBLOCK LATTICE_CART

%BLOCK POSITIONS_FRAC
P           0.000000000000000    0.000000000000000    0.250000000000000 
P           0.000000000000000    0.000000000000000    0.750000000000000 
P           0.500000000000000    0.500000000000000    0.250000000000000 
P           0.500000000000000    0.500000000000000    0.750000000000000 
K           0.000000000000000    0.500000000000000    0.250000000000000 
K           0.000000000000000    0.500000000000000    0.750000000000000 
K           0.233539000000000    0.481301000000000    0.000000000000000 
K           0.233539000000000    0.518699000000000    0.500000000000000 
K           0.481301000000000    0.233539000000000    0.000000000000000 
K           0.481301000000000    0.766461000000000    0.500000000000000 
K           0.500000000000000    0.000000000000000    0.250000000000000 
K           0.500000000000000    0.000000000000000    0.750000000000000 
K           0.518699000000000    0.233539000000000    0.500000000000000 
K           0.518699000000000    0.766461000000000    0.000000000000000 
K           0.766461000000000    0.481301000000000    0.500000000000000 
K           0.766461000000000    0.518699000000000    0.000000000000000 
%ENDBLOCK POSITIONS_FRAC
