# Cell file generated by matador (Matthew Evans 2016)

%BLOCK LATTICE_CART
6.73891 0.0 0.0
-3.36945 5.83606 0.0
0.0 0.0 14.2244
%ENDBLOCK LATTICE_CART

%BLOCK POSITIONS_FRAC
P           0.000000000000000    0.500000000000000    0.965832000000000 
P           0.500000000000000   -0.000000000000000    0.299165000000000 
P           0.500000000000000    0.500000000000000    0.632499000000000 
K           0.000000000000000   -0.000000000000000    0.305979000000000 
K           0.000000000000000   -0.000000000000000    0.639313000000000 
K           0.000000000000000   -0.000000000000000    0.972646000000000 
K           0.000000000000000    0.500000000000000    0.223384000000000 
K           0.000000000000000    0.500000000000000    0.540004000000000 
K           0.081662000000000    0.773735000000000    0.732544000000000 
K           0.226265000000000    0.307927000000000    0.399210000000000 
K           0.307927000000000    0.081662000000000    0.065877000000000 
K           0.500000000000000   -0.000000000000000    0.556717000000000 
K           0.500000000000000   -0.000000000000000    0.873337000000000 
K           0.500000000000000    0.500000000000000    0.206670000000000 
K           0.500000000000000    0.500000000000000    0.890051000000000 
K           0.692073000000000    0.918338000000000    0.065877000000000 
K           0.773735000000000    0.692073000000000    0.399210000000000 
K           0.918338000000000    0.226265000000000    0.732544000000000 
%ENDBLOCK POSITIONS_FRAC
