# Cell file generated by matador (Matthew Evans 2016)

%BLOCK LATTICE_CART
6.86682 0.0 0.0
0.0 5.54168 0.0
-0.702159 0.0 7.55861
%ENDBLOCK LATTICE_CART

%BLOCK POSITIONS_FRAC
P           0.622419000000000    0.244320000000000    0.529336000000000 
P           0.622419000000000    0.755680000000000    0.529336000000000 
K           0.176905000000000    0.500000000000000    0.868538000000000 
K           0.191374000000000    0.500000000000000    0.425917000000000 
K           0.438993000000000    0.000000000000000    0.059469000000000 
K           0.663481000000000    0.500000000000000    0.826926000000000 
K           0.757389000000000    0.500000000000000    0.319363000000000 
K           0.948408000000000    0.000000000000000    0.679596000000000 
%ENDBLOCK POSITIONS_FRAC
