# Cell file generated by matador (Matthew Evans 2016)

%BLOCK LATTICE_CART
6.38538 0.0 0.0
-3.19269 5.5299 0.0
0.0 0.0 9.18391
%ENDBLOCK LATTICE_CART

%BLOCK POSITIONS_FRAC
P           0.000000000000000    0.000000000000000    0.259771000000000 
P           0.000000000000000    0.000000000000000    0.740229000000000 
P           0.333333000000000    0.666667000000000    0.244736000000000 
P           0.333333000000000    0.666667000000000    0.755264000000000 
P           0.666667000000000    0.333333000000000    0.244736000000000 
P           0.666667000000000    0.333333000000000    0.755264000000000 
K           0.000000000000000    0.000000000000000    0.000000000000000 
K           0.333333000000000    0.666667000000000    0.000000000000000 
K           0.333333000000000    0.666667000000000    0.500000000000000 
K           0.666667000000000    0.333333000000000    0.000000000000000 
K           0.666667000000000    0.333333000000000    0.500000000000000 
%ENDBLOCK POSITIONS_FRAC
