# Cell file generated by matador (Matthew Evans 2016)

%BLOCK LATTICE_CART
6.86376 0.0 0.0
-3.43188 5.94419 0.0
0.0 0.0 7.89033
%ENDBLOCK LATTICE_CART

%BLOCK POSITIONS_FRAC
P           0.000000000000000    0.708614000000000    0.000000000000000 
P           0.291386000000000    0.291386000000000    0.000000000000000 
P           0.708614000000000    0.000000000000000    0.000000000000000 
K           0.000000000000000    0.000000000000000    0.000000000000000 
K           0.000000000000000    0.000000000000000    0.500000000000000 
K           0.333333000000000    0.666667000000000    0.000000000000000 
K           0.333333000000000    0.666667000000000    0.500000000000000 
K           0.666667000000000    0.333333000000000    0.000000000000000 
K           0.666667000000000    0.333333000000000    0.500000000000000 
%ENDBLOCK POSITIONS_FRAC
