# Cell file generated by matador (Matthew Evans 2016)

%BLOCK LATTICE_CART
6.88873 0.0 0.0
-3.44437 5.96582 0.0
0.0 0.0 11.2075
%ENDBLOCK LATTICE_CART

%BLOCK POSITIONS_FRAC
P           0.000000000000000    0.000000000000000    0.201359000000000 
P           0.000000000000000    0.000000000000000    0.416794000000000 
P           0.174361000000000    0.492987000000000    0.432444000000000 
P           0.318626000000000    0.825639000000000    0.432444000000000 
P           0.333333000000000    0.666667000000000    0.081324000000000 
P           0.333333000000000    0.666667000000000    0.670945000000000 
P           0.333333000000000    0.666667000000000    0.971802000000000 
P           0.507013000000000    0.681374000000000    0.432444000000000 
K           0.000000000000000    0.000000000000000    0.693542000000000 
K           0.324253000000000    0.108796000000000    0.139927000000000 
K           0.333333000000000    0.666667000000000    0.273717000000000 
K           0.666667000000000    0.333333000000000    0.318241000000000 
K           0.784543000000000    0.675747000000000    0.139927000000000 
K           0.891204000000000    0.215457000000000    0.139927000000000 
%ENDBLOCK POSITIONS_FRAC
