# Cell file generated by matador (Matthew Evans 2016)

%BLOCK LATTICE_CART
8.55008 0.0 0.0
-4.27504 7.40458 0.0
0.0 0.0 10.6396
%ENDBLOCK LATTICE_CART

%BLOCK POSITIONS_FRAC
P           0.333333000000000    0.666667000000000    0.402625000000000 
P           0.502087000000000    0.004175000000000    0.080414000000000 
P           0.502087000000000    0.497913000000000    0.080414000000000 
P           0.995825000000000    0.497913000000000    0.080414000000000 
K           0.122212000000000    0.244424000000000    0.738554000000000 
K           0.122212000000000    0.877788000000000    0.738554000000000 
K           0.202419000000000    0.404838000000000    0.467981000000000 
K           0.202419000000000    0.797581000000000    0.467981000000000 
K           0.249166000000000    0.124583000000000    0.164884000000000 
K           0.402574000000000    0.201287000000000    0.437546000000000 
K           0.595162000000000    0.797581000000000    0.467981000000000 
K           0.755576000000000    0.877788000000000    0.738554000000000 
K           0.798713000000000    0.201287000000000    0.437546000000000 
K           0.798713000000000    0.597426000000000    0.437546000000000 
K           0.875417000000000    0.124583000000000    0.164884000000000 
K           0.875417000000000    0.750834000000000    0.164884000000000 
%ENDBLOCK POSITIONS_FRAC
