# Cell file generated by matador (Matthew Evans 2016)

%BLOCK LATTICE_CART
5.70351 0.0 0.0
-2.85175 4.93938 0.0
0.0 0.0 11.3773
%ENDBLOCK LATTICE_CART

%BLOCK POSITIONS_FRAC
P           0.000000000000000    0.000000000000000    0.058413000000000 
P           0.000000000000000    0.000000000000000    0.558413000000000 
P           0.262854000000000    0.525708000000000    0.813557000000000 
P           0.262854000000000    0.737146000000000    0.813557000000000 
P           0.474292000000000    0.737146000000000    0.813557000000000 
P           0.525708000000000    0.262854000000000    0.313557000000000 
P           0.737146000000000    0.262854000000000    0.313557000000000 
P           0.737146000000000    0.474292000000000    0.313557000000000 
K           0.016272000000000    0.508136000000000    0.971808000000000 
K           0.491864000000000    0.508136000000000    0.971808000000000 
K           0.491864000000000    0.983728000000000    0.971808000000000 
K           0.508136000000000    0.016272000000000    0.471808000000000 
K           0.508136000000000    0.491864000000000    0.471808000000000 
K           0.983728000000000    0.491864000000000    0.471808000000000 
%ENDBLOCK POSITIONS_FRAC
