# Cell file generated by matador (Matthew Evans 2016)

%BLOCK LATTICE_CART
7.24511 0.0 0.0
0.0 6.38337 0.0
0.0 0.0 7.41936
%ENDBLOCK LATTICE_CART

%BLOCK POSITIONS_FRAC
P           0.000000000000000    0.500000000000000    0.000000000000000 
P           0.000000000000000    0.500000000000000    0.500000000000000 
P           0.500000000000000   -0.000000000000000    0.000000000000000 
P           0.500000000000000   -0.000000000000000    0.500000000000000 
K           0.000000000000000   -0.000000000000000    0.000000000000000 
K           0.000000000000000   -0.000000000000000    0.500000000000000 
K           0.000000000000000    0.328014000000000    0.750000000000000 
K           0.000000000000000    0.671986000000000    0.250000000000000 
K           0.500000000000000    0.171986000000000    0.250000000000000 
K           0.500000000000000    0.500000000000000    0.000000000000000 
K           0.500000000000000    0.500000000000000    0.500000000000000 
K           0.500000000000000    0.828014000000000    0.750000000000000 
%ENDBLOCK POSITIONS_FRAC
