# Cell file generated by matador (Matthew Evans 2016)

%BLOCK LATTICE_CART
11.2428 0.0 0.0
0.0 6.91882 0.0
-1.65551 0.0 7.68114
%ENDBLOCK LATTICE_CART

%BLOCK POSITIONS_FRAC
P           0.167017000000000    0.000000000000000    0.187009000000000 
P           0.334491000000000    0.000000000000000    0.346039000000000 
P           0.665509000000000    0.000000000000000    0.653961000000000 
P           0.832983000000000    0.000000000000000    0.812991000000000 
K           0.000000000000000    0.000000000000000    0.000000000000000 
K           0.000000000000000    0.000000000000000    0.500000000000000 
K           0.000000000000000    0.500000000000000    0.000000000000000 
K           0.000000000000000    0.500000000000000    0.500000000000000 
K           0.260742000000000    0.000000000000000    0.649912000000000 
K           0.289825000000000    0.500000000000000    0.718680000000000 
K           0.500000000000000    0.000000000000000    0.000000000000000 
K           0.500000000000000    0.000000000000000    0.500000000000000 
K           0.500000000000000    0.500000000000000    0.000000000000000 
K           0.500000000000000    0.500000000000000    0.500000000000000 
K           0.710175000000000    0.500000000000000    0.281320000000000 
K           0.739258000000000    0.000000000000000    0.350088000000000 
%ENDBLOCK POSITIONS_FRAC
