# Cell file generated by matador (Matthew Evans 2016)

%BLOCK LATTICE_CART
8.32796 0.0 0.0
0.0 8.32796 0.0
0.0 0.0 8.32796
%ENDBLOCK LATTICE_CART

%BLOCK POSITIONS_FRAC
P           0.000000000000000    0.000000000000000    0.000000000000000 
P           0.000000000000000    0.000000000000000    0.120078000000000 
P           0.000000000000000    0.000000000000000    0.879922000000000 
P           0.000000000000000    0.120078000000000    0.000000000000000 
P           0.000000000000000    0.879922000000000    0.000000000000000 
P           0.120078000000000    0.000000000000000    0.000000000000000 
P           0.343146000000000    0.500000000000000    0.500000000000000 
P           0.500000000000000    0.343146000000000    0.500000000000000 
P           0.500000000000000    0.500000000000000    0.343146000000000 
P           0.500000000000000    0.500000000000000    0.500000000000000 
P           0.500000000000000    0.500000000000000    0.656854000000000 
P           0.500000000000000    0.656854000000000    0.500000000000000 
P           0.656854000000000    0.500000000000000    0.500000000000000 
P           0.879922000000000    0.000000000000000    0.000000000000000 
K           0.000000000000000    0.000000000000000    0.500000000000000 
K           0.000000000000000    0.500000000000000    0.000000000000000 
K           0.000000000000000    0.500000000000000    0.500000000000000 
K           0.500000000000000    0.000000000000000    0.000000000000000 
K           0.500000000000000    0.000000000000000    0.500000000000000 
K           0.500000000000000    0.500000000000000    0.000000000000000 
%ENDBLOCK POSITIONS_FRAC
