# Cell file generated by matador (Matthew Evans 2016)

%BLOCK LATTICE_CART
6.39301 0.0 0.0
0.0 8.93231 0.0
0.0 0.0 10.0163
%ENDBLOCK LATTICE_CART

%BLOCK POSITIONS_FRAC
P           0.000000000000000    0.500000000000000    0.000000000000000 
P           0.000000000000000    0.500000000000000    0.500000000000000 
K           0.000000000000000    0.000000000000000    0.000000000000000 
K           0.000000000000000    0.000000000000000    0.500000000000000 
K           0.057410000000000    0.279033000000000    0.865515000000000 
K           0.057410000000000    0.720967000000000    0.134485000000000 
K           0.402596000000000    0.119472000000000    0.831960000000000 
K           0.402596000000000    0.880528000000000    0.168040000000000 
K           0.500000000000000    0.000000000000000    0.000000000000000 
K           0.500000000000000    0.000000000000000    0.500000000000000 
K           0.500000000000000    0.500000000000000    0.000000000000000 
K           0.500000000000000    0.500000000000000    0.500000000000000 
K           0.597404000000000    0.119472000000000    0.168040000000000 
K           0.597404000000000    0.880528000000000    0.831960000000000 
K           0.942590000000000    0.279033000000000    0.134485000000000 
K           0.942590000000000    0.720967000000000    0.865515000000000 
%ENDBLOCK POSITIONS_FRAC
