# Cell file generated by matador (Matthew Evans 2016)

%BLOCK LATTICE_CART
9.77009 0.0 0.0
0.0 9.77009 0.0
0.0 0.0 7.14009
%ENDBLOCK LATTICE_CART

%BLOCK POSITIONS_FRAC
P           0.000000000000000    0.500000000000000    0.151347000000000 
P           0.000000000000000    0.500000000000000    0.723599000000000 
P           0.500000000000000    0.000000000000000    0.276401000000000 
P           0.500000000000000    0.000000000000000    0.848653000000000 
K           0.000000000000000    0.000000000000000    0.000000000000000 
K           0.000000000000000    0.000000000000000    0.500000000000000 
K           0.136575000000000    0.363425000000000    0.291536000000000 
K           0.168850000000000    0.668850000000000    0.197675000000000 
K           0.331150000000000    0.168850000000000    0.802325000000000 
K           0.363425000000000    0.863425000000000    0.708464000000000 
K           0.500000000000000    0.500000000000000    0.000000000000000 
K           0.500000000000000    0.500000000000000    0.500000000000000 
K           0.636575000000000    0.136575000000000    0.708464000000000 
K           0.668850000000000    0.831150000000000    0.802325000000000 
K           0.831150000000000    0.331150000000000    0.197675000000000 
K           0.863425000000000    0.636575000000000    0.291536000000000 
%ENDBLOCK POSITIONS_FRAC
