# Cell file generated by matador (Matthew Evans 2016)

%BLOCK LATTICE_CART
8.34362 0.0 0.0
0.0 5.29072 0.0
3.95976 0.0 7.91406
%ENDBLOCK LATTICE_CART

%BLOCK POSITIONS_FRAC
P           0.264611000000000    0.207853000000000    0.318749000000000 
P           0.264611000000000    0.792147000000000    0.318749000000000 
P           0.940399000000000    0.196724000000000    0.732481000000000 
P           0.940399000000000    0.803276000000000    0.732481000000000 
K           0.197623000000000    0.000000000000000    0.665999000000000 
K           0.367423000000000    0.201719000000000    0.811179000000000 
K           0.367423000000000    0.798281000000000    0.811179000000000 
K           0.664681000000000    0.500000000000000    0.060392000000000 
K           0.793218000000000    0.000000000000000    0.949054000000000 
K           0.794222000000000    0.500000000000000    0.306877000000000 
K           0.836538000000000    0.000000000000000    0.551882000000000 
%ENDBLOCK POSITIONS_FRAC
