# Cell file generated by matador (Matthew Evans 2016)

%BLOCK LATTICE_CART
9.5117 0.0 0.0
0.0 9.5117 0.0
0.0 0.0 7.1261
%ENDBLOCK LATTICE_CART

%BLOCK POSITIONS_FRAC
P           0.000000000000000    0.000000000000000    0.778143000000000 
P           0.000000000000000    0.500000000000000    0.174320000000000 
P           0.500000000000000    0.000000000000000    0.174320000000000 
P           0.500000000000000    0.500000000000000    0.778143000000000 
K           0.119063000000000    0.380937000000000    0.664170000000000 
K           0.168627000000000    0.668627000000000    0.493841000000000 
K           0.199294000000000    0.300706000000000    0.120944000000000 
K           0.300706000000000    0.800706000000000    0.120944000000000 
K           0.331373000000000    0.168627000000000    0.493841000000000 
K           0.380937000000000    0.880937000000000    0.664170000000000 
K           0.619063000000000    0.119063000000000    0.664170000000000 
K           0.668627000000000    0.831373000000000    0.493841000000000 
K           0.699294000000000    0.199294000000000    0.120944000000000 
K           0.800706000000000    0.699294000000000    0.120944000000000 
K           0.831373000000000    0.331373000000000    0.493841000000000 
K           0.880937000000000    0.619063000000000    0.664170000000000 
%ENDBLOCK POSITIONS_FRAC
