# Cell file generated by matador (Matthew Evans 2016)

%BLOCK LATTICE_CART
9.03791 0.0 0.0
0.0 9.03791 0.0
0.0 0.0 16.2165
%ENDBLOCK LATTICE_CART

%BLOCK POSITIONS_FRAC
P           0.000000000000000    0.000000000000000    0.000000000000000 
P           0.000000000000000    0.000000000000000    0.197619000000000 
P           0.000000000000000    0.000000000000000    0.802381000000000 
P           0.000000000000000    0.500000000000000    0.250000000000000 
P           0.500000000000000    0.000000000000000    0.750000000000000 
P           0.500000000000000    0.500000000000000    0.302381000000000 
P           0.500000000000000    0.500000000000000    0.500000000000000 
P           0.500000000000000    0.500000000000000    0.697619000000000 
K           0.000000000000000    0.000000000000000    0.500000000000000 
K           0.000000000000000    0.243771000000000    0.169691000000000 
K           0.000000000000000    0.290447000000000    0.606388000000000 
K           0.000000000000000    0.500000000000000    0.036395000000000 
K           0.000000000000000    0.500000000000000    0.463605000000000 
K           0.000000000000000    0.500000000000000    0.750000000000000 
K           0.000000000000000    0.709553000000000    0.606388000000000 
K           0.000000000000000    0.756229000000000    0.169691000000000 
K           0.209553000000000    0.500000000000000    0.893612000000000 
K           0.243771000000000    0.000000000000000    0.830309000000000 
K           0.256229000000000    0.500000000000000    0.330309000000000 
K           0.290447000000000    0.000000000000000    0.393612000000000 
K           0.500000000000000    0.000000000000000    0.250000000000000 
K           0.500000000000000    0.000000000000000    0.536395000000000 
K           0.500000000000000    0.000000000000000    0.963605000000000 
K           0.500000000000000    0.209553000000000    0.106388000000000 
K           0.500000000000000    0.256229000000000    0.669691000000000 
K           0.500000000000000    0.500000000000000    0.000000000000000 
K           0.500000000000000    0.743771000000000    0.669691000000000 
K           0.500000000000000    0.790447000000000    0.106388000000000 
K           0.709553000000000    0.000000000000000    0.393612000000000 
K           0.743771000000000    0.500000000000000    0.330309000000000 
K           0.756229000000000    0.000000000000000    0.830309000000000 
K           0.790447000000000    0.500000000000000    0.893612000000000 
%ENDBLOCK POSITIONS_FRAC
