# Cell file generated by matador (Matthew Evans 2016)

%BLOCK LATTICE_CART
7.2954 0.0 0.0
-3.6477 6.318 0.0
0.0 0.0 7.269
%ENDBLOCK LATTICE_CART

%BLOCK POSITIONS_FRAC
P           0.000000000000000    0.000000000000000    0.250000000000000 
P           0.000000000000000    0.000000000000000    0.750000000000000 
K           0.364817000000000    0.133831000000000    0.750000000000000 
K           0.364817000000000    0.230986000000000    0.250000000000000 
K           0.769014000000000    0.133831000000000    0.250000000000000 
K           0.769014000000000    0.635183000000000    0.750000000000000 
K           0.866169000000000    0.230986000000000    0.750000000000000 
K           0.866169000000000    0.635183000000000    0.250000000000000 
%ENDBLOCK POSITIONS_FRAC
