# Cell file generated by matador (Matthew Evans 2016)

%BLOCK LATTICE_CART
10.8167 0.0 0.0
-5.40837 9.36757 0.0
0.0 0.0 8.57708
%ENDBLOCK LATTICE_CART

%BLOCK POSITIONS_FRAC
P           0.000000000000000    0.000000000000000    0.000000000000000 
P           0.081999000000000    0.292735000000000    0.000000000000000 
P           0.210736000000000    0.918001000000000    0.000000000000000 
P           0.333333000000000    0.666667000000000    0.000000000000000 
P           0.333333000000000    0.666667000000000    0.500000000000000 
P           0.707265000000000    0.789264000000000    0.000000000000000 
K           0.000000000000000    0.000000000000000    0.500000000000000 
K           0.121071000000000    0.547025000000000    0.500000000000000 
K           0.127915000000000    0.819168000000000    0.500000000000000 
K           0.180832000000000    0.308747000000000    0.500000000000000 
K           0.221014000000000    0.186264000000000    0.000000000000000 
K           0.364026000000000    0.119579000000000    0.500000000000000 
K           0.424113000000000    0.030972000000000    0.000000000000000 
K           0.425954000000000    0.878929000000000    0.500000000000000 
K           0.452975000000000    0.574046000000000    0.500000000000000 
K           0.606859000000000    0.575887000000000    0.000000000000000 
K           0.666667000000000    0.333333000000000    0.000000000000000 
K           0.666667000000000    0.333333000000000    0.500000000000000 
K           0.691253000000000    0.872085000000000    0.500000000000000 
K           0.755553000000000    0.635974000000000    0.500000000000000 
K           0.813736000000000    0.034750000000000    0.000000000000000 
K           0.880421000000000    0.244447000000000    0.500000000000000 
K           0.965250000000000    0.778986000000000    0.000000000000000 
K           0.969028000000000    0.393141000000000    0.000000000000000 
%ENDBLOCK POSITIONS_FRAC
