# Cell file generated by matador (Matthew Evans 2016)

%BLOCK LATTICE_CART
7.91676 0.0 0.0
-3.95838 6.85612 0.0
0.0 0.0 10.2182
%ENDBLOCK LATTICE_CART

%BLOCK POSITIONS_FRAC
P           0.666667000000000    0.333333000000000    0.150533000000000 
P           0.666667000000000    0.333333000000000    0.349467000000000 
P           0.666667000000000    0.333333000000000    0.650533000000000 
P           0.666667000000000    0.333333000000000    0.849467000000000 
K           0.079076000000000    0.340049000000000    0.750000000000000 
K           0.079076000000000    0.739027000000000    0.250000000000000 
K           0.153986000000000    0.576992000000000    0.000000000000000 
K           0.153986000000000    0.576992000000000    0.500000000000000 
K           0.260973000000000    0.340049000000000    0.250000000000000 
K           0.260973000000000    0.920924000000000    0.750000000000000 
K           0.423008000000000    0.576992000000000    0.000000000000000 
K           0.423008000000000    0.576992000000000    0.500000000000000 
K           0.423008000000000    0.846014000000000    0.000000000000000 
K           0.423008000000000    0.846014000000000    0.500000000000000 
K           0.659951000000000    0.739027000000000    0.750000000000000 
K           0.659951000000000    0.920924000000000    0.250000000000000 
%ENDBLOCK POSITIONS_FRAC
