# Cell file generated by matador (Matthew Evans 2016)

%BLOCK LATTICE_CART
10.2729 0.0 0.0
0.0 10.2729 0.0
0.0 0.0 8.2604
%ENDBLOCK LATTICE_CART

%BLOCK POSITIONS_FRAC
P           0.000000000000000    0.000000000000000    0.000000000000000 
P           0.100417000000000    0.399583000000000    0.000000000000000 
P           0.399583000000000    0.899583000000000    0.000000000000000 
P           0.500000000000000    0.500000000000000    0.000000000000000 
P           0.600417000000000    0.100417000000000    0.000000000000000 
P           0.899583000000000    0.600417000000000    0.000000000000000 
K           0.000000000000000    0.000000000000000    0.500000000000000 
K           0.105637000000000    0.605637000000000    0.181590000000000 
K           0.105637000000000    0.605637000000000    0.818410000000000 
K           0.173682000000000    0.326318000000000    0.316011000000000 
K           0.173682000000000    0.326318000000000    0.683989000000000 
K           0.326318000000000    0.826318000000000    0.316011000000000 
K           0.326318000000000    0.826318000000000    0.683989000000000 
K           0.394363000000000    0.105637000000000    0.181590000000000 
K           0.394363000000000    0.105637000000000    0.818410000000000 
K           0.500000000000000    0.500000000000000    0.500000000000000 
K           0.605637000000000    0.894363000000000    0.181590000000000 
K           0.605637000000000    0.894363000000000    0.818410000000000 
K           0.673682000000000    0.173682000000000    0.316011000000000 
K           0.673682000000000    0.173682000000000    0.683989000000000 
K           0.826318000000000    0.673682000000000    0.316011000000000 
K           0.826318000000000    0.673682000000000    0.683989000000000 
K           0.894363000000000    0.394363000000000    0.181590000000000 
K           0.894363000000000    0.394363000000000    0.818410000000000 
%ENDBLOCK POSITIONS_FRAC
