# Cell file generated by matador (Matthew Evans 2016)

%BLOCK LATTICE_CART
7.96689 0.0 0.0
-3.98345 6.89953 0.0
0.0 0.0 8.56599
%ENDBLOCK LATTICE_CART

%BLOCK POSITIONS_FRAC
P           0.089335000000000    0.300213000000000    0.407906000000000 
P           0.149922000000000    0.001635000000000    0.984095000000000 
P           0.210878000000000    0.910665000000000    0.741239000000000 
P           0.233502000000000    0.744527000000000    0.468904000000000 
P           0.255473000000000    0.488974000000000    0.135570000000000 
P           0.511026000000000    0.766498000000000    0.802237000000000 
P           0.699787000000000    0.789122000000000    0.074572000000000 
P           0.851714000000000    0.850078000000000    0.317429000000000 
P           0.998365000000000    0.148286000000000    0.650762000000000 
K           0.496999000000000    0.069918000000000    0.299991000000000 
K           0.506120000000000    0.302671000000000    0.119420000000000 
K           0.572919000000000    0.503001000000000    0.633324000000000 
K           0.697329000000000    0.203450000000000    0.786087000000000 
K           0.796550000000000    0.493880000000000    0.452754000000000 
K           0.930082000000000    0.427081000000000    0.966658000000000 
%ENDBLOCK POSITIONS_FRAC
