# Cell file generated by matador (Matthew Evans 2016)

%BLOCK LATTICE_CART
6.46584 0.0 0.0
0.0 10.5852 0.0
0.0 0.0 7.45564
%ENDBLOCK LATTICE_CART

%BLOCK POSITIONS_FRAC
P           0.124293000000000    0.424892000000000    0.000000000000000 
P           0.124293000000000    0.575108000000000    0.000000000000000 
P           0.375707000000000    0.075108000000000    0.000000000000000 
P           0.375707000000000    0.924892000000000    0.000000000000000 
P           0.624293000000000    0.075108000000000    0.000000000000000 
P           0.624293000000000    0.924892000000000    0.000000000000000 
P           0.875707000000000    0.424892000000000    0.000000000000000 
P           0.875707000000000    0.575108000000000    0.000000000000000 
K           0.000000000000000    0.000000000000000    0.000000000000000 
K           0.250000000000000    0.250000000000000    0.500000000000000 
K           0.250000000000000    0.750000000000000    0.500000000000000 
K           0.500000000000000    0.500000000000000    0.000000000000000 
K           0.750000000000000    0.250000000000000    0.500000000000000 
K           0.750000000000000    0.750000000000000    0.500000000000000 
%ENDBLOCK POSITIONS_FRAC
