# Cell file generated by matador (Matthew Evans 2016)

%BLOCK LATTICE_CART
5.64273 0.0 0.0
-2.61652 4.54388 0.0
0.538943 1.76334 4.96798
%ENDBLOCK LATTICE_CART

%BLOCK POSITIONS_FRAC
P           0.000000000000000    0.000000000000000    0.500000000000000 
P           0.000000000000000    0.500000000000000    0.000000000000000 
P           0.148676000000000    0.053412000000000    0.733762000000000 
P           0.500000000000000    0.000000000000000    0.000000000000000 
P           0.500000000000000    0.500000000000000    0.500000000000000 
P           0.851324000000000    0.946588000000000    0.266238000000000 
K           0.500000000000000    0.000000000000000    0.500000000000000 
%ENDBLOCK POSITIONS_FRAC
