# Cell file generated by matador (Matthew Evans 2016)

%BLOCK LATTICE_CART
10.4033 0.0 0.0
-5.20165 9.00952 0.0
0.0 0.0 5.09136
%ENDBLOCK LATTICE_CART

%BLOCK POSITIONS_FRAC
P           0.000000000000000    0.500000000000000    0.037595000000000 
P           0.000000000000000    0.500000000000000    0.516342000000000 
P           0.500000000000000    0.000000000000000    0.037595000000000 
P           0.500000000000000    0.000000000000000    0.516342000000000 
P           0.500000000000000    0.500000000000000    0.037595000000000 
P           0.500000000000000    0.500000000000000    0.516342000000000 
K           0.000000000000000    0.000000000000000    0.009169000000000 
K           0.157232000000000    0.314465000000000    0.134063000000000 
K           0.157232000000000    0.842768000000000    0.134063000000000 
K           0.314465000000000    0.157232000000000    0.134063000000000 
K           0.685535000000000    0.842768000000000    0.134063000000000 
K           0.842768000000000    0.157232000000000    0.134063000000000 
K           0.842768000000000    0.685535000000000    0.134063000000000 
%ENDBLOCK POSITIONS_FRAC
