# Cell file generated by matador (Matthew Evans 2016)

%BLOCK LATTICE_CART
6.01534 0.0 0.0
0.0 6.01534 0.0
0.0 0.0 10.2778
%ENDBLOCK LATTICE_CART

%BLOCK POSITIONS_FRAC
P           0.000000000000000    0.000000000000000    0.500000000000000 
P           0.000000000000000    0.363439000000000    0.285611000000000 
P           0.000000000000000    0.636561000000000    0.285611000000000 
P           0.136561000000000    0.500000000000000    0.785611000000000 
P           0.363439000000000    0.000000000000000    0.714389000000000 
P           0.500000000000000    0.136561000000000    0.214389000000000 
P           0.500000000000000    0.500000000000000   -0.000000000000000 
P           0.500000000000000    0.863439000000000    0.214389000000000 
P           0.636561000000000    0.000000000000000    0.714389000000000 
P           0.863439000000000    0.500000000000000    0.785611000000000 
K           0.000000000000000    0.500000000000000    0.467078000000000 
K           0.000000000000000    0.500000000000000    0.967078000000000 
K           0.500000000000000    0.000000000000000    0.032922000000000 
K           0.500000000000000    0.000000000000000    0.532922000000000 
%ENDBLOCK POSITIONS_FRAC
