# Cell file generated by matador (Matthew Evans 2016)

%BLOCK LATTICE_CART
6.04386 0.0 0.0
-3.02193 5.23414 0.0
0.0 0.0 10.8074
%ENDBLOCK LATTICE_CART

%BLOCK POSITIONS_FRAC
P           0.000000000000000    0.000000000000000    0.325667000000000 
P           0.000000000000000    0.000000000000000    0.659000000000000 
P           0.000000000000000    0.000000000000000    0.992333000000000 
P           0.000000000000000    0.500000000000000    0.110602000000000 
P           0.000000000000000    0.500000000000000    0.615401000000000 
P           0.500000000000000    0.000000000000000    0.282068000000000 
P           0.500000000000000    0.000000000000000    0.777269000000000 
P           0.500000000000000    0.500000000000000    0.443936000000000 
P           0.500000000000000    0.500000000000000    0.948735000000000 
K           0.000000000000000    0.500000000000000    0.406697000000000 
K           0.500000000000000    0.000000000000000    0.073364000000000 
K           0.500000000000000    0.500000000000000    0.740031000000000 
%ENDBLOCK POSITIONS_FRAC
