# Cell file generated by matador (Matthew Evans 2016)

%BLOCK LATTICE_CART
8.50322 -0.0 0.0
-4.25161 7.364 0.0
0.0 0.0 8.22872
%ENDBLOCK LATTICE_CART

%BLOCK POSITIONS_FRAC
P           0.000000000000000    0.000000000000000    0.205512000000000 
P           0.000000000000000    0.000000000000000    0.794488000000000 
P           0.333333000000000    0.666667000000000    0.243052000000000 
P           0.333333000000000    0.666667000000000    0.756948000000000 
K           0.000000000000000    0.000000000000000    0.500000000000000 
K           0.333333000000000    0.666667000000000    0.000000000000000 
K           0.333333000000000    0.666667000000000    0.500000000000000 
K           0.460001000000000    0.264730000000000    0.333538000000000 
K           0.460001000000000    0.264730000000000    0.666462000000000 
K           0.666667000000000    0.333333000000000    0.000000000000000 
K           0.735270000000000    0.195271000000000    0.333538000000000 
K           0.735270000000000    0.195271000000000    0.666462000000000 
K           0.804729000000000    0.539999000000000    0.333538000000000 
K           0.804729000000000    0.539999000000000    0.666462000000000 
%ENDBLOCK POSITIONS_FRAC
