# Cell file generated by matador (Matthew Evans 2016)

%BLOCK LATTICE_CART
6.61306 0.0 0.0
0.0 11.6329 0.0
0.0 0.0 8.26067
%ENDBLOCK LATTICE_CART

%BLOCK POSITIONS_FRAC
P           0.000000000000000    0.125419000000000    0.203083000000000 
P           0.000000000000000    0.555485000000000    0.352708000000000 
P           0.500000000000000    0.444515000000000    0.852708000000000 
P           0.500000000000000    0.874581000000000    0.703083000000000 
K           0.000000000000000    0.055041000000000    0.485831000000000 
K           0.000000000000000    0.117488000000000    0.841472000000000 
K           0.000000000000000    0.332915000000000    0.242257000000000 
K           0.000000000000000    0.543621000000000    0.791907000000000 
K           0.000000000000000    0.762053000000000    0.336240000000000 
K           0.000000000000000    0.827744000000000    0.717377000000000 
K           0.500000000000000    0.172256000000000    0.217377000000000 
K           0.500000000000000    0.237947000000000    0.836240000000000 
K           0.500000000000000    0.456379000000000    0.291907000000000 
K           0.500000000000000    0.667085000000000    0.742257000000000 
K           0.500000000000000    0.882512000000000    0.341472000000000 
K           0.500000000000000    0.944959000000000    0.985831000000000 
%ENDBLOCK POSITIONS_FRAC
