# Cell file generated by matador (Matthew Evans 2016)

%BLOCK LATTICE_CART
6.62663 0.0 0.0
-3.31331 5.73883 0.0
0.0 0.0 4.18709
%ENDBLOCK LATTICE_CART

%BLOCK POSITIONS_FRAC
P           0.000000000000000    0.500000000000000    0.742358000000000 
P           0.333333000000000    0.666667000000000    0.312764000000000 
P           0.500000000000000    0.000000000000000    0.742358000000000 
P           0.500000000000000    0.500000000000000    0.742358000000000 
P           0.666667000000000    0.333333000000000    0.312764000000000 
K           0.000000000000000    0.000000000000000    0.327442000000000 
%ENDBLOCK POSITIONS_FRAC
