# Cell file generated by matador (Matthew Evans 2016)

%BLOCK LATTICE_CART
4.25596 0.0 0.0
-3.11595 14.2862 0.0
-2.36578 -0.334008 7.72402
%ENDBLOCK LATTICE_CART

%BLOCK POSITIONS_FRAC
P           0.000000000000000    0.500000000000000    0.500000000000000 
P           0.085134000000000    0.635589000000000    0.946035000000000 
P           0.173231000000000    0.265584000000000    0.490884000000000 
P           0.500000000000000    0.000000000000000    0.500000000000000 
P           0.826769000000000    0.734416000000000    0.509116000000000 
P           0.914866000000000    0.364411000000000    0.053965000000000 
K           0.000000000000000    0.000000000000000    0.000000000000000 
K           0.000000000000000    0.000000000000000    0.500000000000000 
K           0.000000000000000    0.500000000000000    0.000000000000000 
K           0.006332000000000    0.543311000000000    0.262231000000000 
K           0.037700000000000    0.828630000000000    0.179321000000000 
K           0.500000000000000    0.500000000000000    0.000000000000000 
K           0.500000000000000    0.500000000000000    0.500000000000000 
K           0.962300000000000    0.171370000000000    0.820679000000000 
K           0.993668000000000    0.456689000000000    0.737769000000000 
%ENDBLOCK POSITIONS_FRAC
