# Cell file generated by matador (Matthew Evans 2016)

%BLOCK LATTICE_CART
6.77432 0.0 0.0
0.0 6.56705 0.0
1.99924 0.0 9.92578
%ENDBLOCK LATTICE_CART

%BLOCK POSITIONS_FRAC
P           0.016368000000000    0.500000000000000    0.320952000000000 
P           0.361270000000000    0.500000000000000    0.964475000000000 
P           0.564114000000000   -0.000000000000000    0.273949000000000 
K           0.120876000000000   -0.000000000000000    0.244300000000000 
K           0.140725000000000   -0.000000000000000    0.914437000000000 
K           0.359575000000000    0.268631000000000    0.683212000000000 
K           0.359575000000000    0.731369000000000    0.683212000000000 
K           0.493734000000000    0.500000000000000    0.306301000000000 
K           0.641737000000000   -0.000000000000000    0.789385000000000 
K           0.643306000000000   -0.000000000000000    0.082697000000000 
K           0.746989000000000    0.500000000000000    0.676801000000000 
K           0.758694000000000   -0.000000000000000    0.503001000000000 
%ENDBLOCK POSITIONS_FRAC
