# Cell file generated by matador (Matthew Evans 2016)

%BLOCK LATTICE_CART
7.87496 0.0 0.0
-3.93748 6.81991 0.0
0.0 0.0 11.6734
%ENDBLOCK LATTICE_CART

%BLOCK POSITIONS_FRAC
P           0.000000000000000    0.500000000000000    0.000000000000000 
P           0.000000000000000    0.500000000000000    0.500000000000000 
P           0.146629000000000    0.293258000000000    0.500000000000000 
P           0.146629000000000    0.853371000000000    0.500000000000000 
P           0.293258000000000    0.146629000000000    0.500000000000000 
P           0.333333000000000    0.666667000000000    0.000000000000000 
P           0.500000000000000    0.000000000000000    0.000000000000000 
P           0.500000000000000    0.000000000000000    0.500000000000000 
P           0.500000000000000    0.500000000000000    0.000000000000000 
P           0.500000000000000    0.500000000000000    0.500000000000000 
P           0.666667000000000    0.333333000000000    0.000000000000000 
P           0.706742000000000    0.853371000000000    0.500000000000000 
P           0.853371000000000    0.146629000000000    0.500000000000000 
P           0.853371000000000    0.706742000000000    0.500000000000000 
K           0.000000000000000    0.000000000000000    0.000000000000000 
K           0.000000000000000    0.000000000000000    0.500000000000000 
K           0.333333000000000    0.666667000000000    0.500000000000000 
K           0.666667000000000    0.333333000000000    0.500000000000000 
%ENDBLOCK POSITIONS_FRAC
