# Cell file generated by matador (Matthew Evans 2016)

%BLOCK LATTICE_CART
8.60438 0.0 0.0
0.0 5.81451 0.0
0.0 0.0 8.11847
%ENDBLOCK LATTICE_CART

%BLOCK POSITIONS_FRAC
P          -0.000000000000000    0.000000000000000    0.385001000000000 
P          -0.000000000000000    0.000000000000000    0.749787000000000 
P           0.500000000000000    0.500000000000000    0.249787000000000 
P           0.500000000000000    0.500000000000000    0.885001000000000 
K          -0.000000000000000    0.293337000000000    0.039211000000000 
K          -0.000000000000000    0.296478000000000    0.526495000000000 
K          -0.000000000000000    0.500000000000000    0.731823000000000 
K          -0.000000000000000    0.703522000000000    0.526495000000000 
K          -0.000000000000000    0.706663000000000    0.039211000000000 
K           0.500000000000000    0.000000000000000    0.231823000000000 
K           0.500000000000000    0.203522000000000    0.026495000000000 
K           0.500000000000000    0.206663000000000    0.539211000000000 
K           0.500000000000000    0.793337000000000    0.539211000000000 
K           0.500000000000000    0.796478000000000    0.026495000000000 
%ENDBLOCK POSITIONS_FRAC
