# Cell file generated by matador (Matthew Evans 2016)

%BLOCK LATTICE_CART
8.13546 0.0 0.0
-4.06773 7.04551 0.0
0.0 0.0 5.54589
%ENDBLOCK LATTICE_CART

%BLOCK POSITIONS_FRAC
P           0.000000000000000    0.000000000000000    0.000000000000000 
P           0.000000000000000    0.234517000000000    0.500000000000000 
P           0.234517000000000    0.000000000000000    0.500000000000000 
P           0.765483000000000    0.765483000000000    0.500000000000000 
K           0.188859000000000    0.714087000000000    0.000000000000000 
K           0.285913000000000    0.474772000000000    0.000000000000000 
K           0.474772000000000    0.285913000000000    0.000000000000000 
K           0.525228000000000    0.811141000000000    0.000000000000000 
K           0.714087000000000    0.188859000000000    0.000000000000000 
K           0.811141000000000    0.525228000000000    0.000000000000000 
%ENDBLOCK POSITIONS_FRAC
