# Cell file generated by matador (Matthew Evans 2016)

%BLOCK LATTICE_CART
7.78791 0.0 0.0
0.0 8.11283 0.0
0.0 0.0 9.61436
%ENDBLOCK LATTICE_CART

%BLOCK POSITIONS_FRAC
P           0.000000000000000    0.000000000000000    0.261624000000000 
P           0.000000000000000    0.500000000000000    0.761624000000000 
P           0.500000000000000    0.000000000000000    0.261624000000000 
P           0.500000000000000    0.500000000000000    0.761624000000000 
K           0.000000000000000    0.000000000000000    0.532045000000000 
K           0.000000000000000    0.500000000000000    0.032045000000000 
K           0.250000000000000    0.135164000000000    0.154727000000000 
K           0.250000000000000    0.400841000000000    0.383163000000000 
K           0.250000000000000    0.635164000000000    0.654727000000000 
K           0.250000000000000    0.900841000000000    0.883163000000000 
K           0.500000000000000    0.000000000000000    0.532045000000000 
K           0.500000000000000    0.500000000000000    0.032045000000000 
K           0.750000000000000    0.099159000000000    0.883163000000000 
K           0.750000000000000    0.364836000000000    0.654727000000000 
K           0.750000000000000    0.599159000000000    0.383163000000000 
K           0.750000000000000    0.864836000000000    0.154727000000000 
%ENDBLOCK POSITIONS_FRAC
