# Cell file generated by matador (Matthew Evans 2016)

%BLOCK LATTICE_CART
9.05117 0.0 0.0
-4.52558 7.83854 0.0
0.0 0.0 6.67798
%ENDBLOCK LATTICE_CART

%BLOCK POSITIONS_FRAC
P           0.000000000000000    0.000000000000000    0.000000000000000 
P           0.039756000000000    0.558689000000000    0.500000000000000 
P           0.155759000000000    0.406946000000000    0.089075000000000 
P           0.155759000000000    0.406946000000000    0.910925000000000 
P           0.251187000000000    0.844241000000000    0.089075000000000 
P           0.251187000000000    0.844241000000000    0.910925000000000 
P           0.259756000000000    0.069707000000000    0.500000000000000 
P           0.333333000000000    0.666667000000000    0.500000000000000 
P           0.441311000000000    0.481067000000000    0.500000000000000 
P           0.518933000000000    0.960244000000000    0.500000000000000 
P           0.593054000000000    0.748813000000000    0.089075000000000 
P           0.593054000000000    0.748813000000000    0.910925000000000 
P           0.809951000000000    0.740244000000000    0.500000000000000 
P           0.930293000000000    0.190049000000000    0.500000000000000 
K           0.000000000000000    0.000000000000000    0.500000000000000 
K           0.333333000000000    0.666667000000000    0.000000000000000 
K           0.666667000000000    0.333333000000000    0.000000000000000 
K           0.666667000000000    0.333333000000000    0.500000000000000 
%ENDBLOCK POSITIONS_FRAC
