# Cell file generated by matador (Matthew Evans 2016)

%BLOCK LATTICE_CART
7.09441 0.0 0.0
-3.54721 6.14394 0.0
0.0 0.0 11.0105
%ENDBLOCK LATTICE_CART

%BLOCK POSITIONS_FRAC
P           0.218133000000000    0.436266000000000    0.807170000000000 
P           0.218133000000000    0.781867000000000    0.807170000000000 
P           0.563734000000000    0.781867000000000    0.807170000000000 
K           0.037487000000000    0.376399000000000    0.240421000000000 
K           0.037487000000000    0.661088000000000    0.240421000000000 
K           0.251339000000000    0.125669000000000    0.852538000000000 
K           0.338912000000000    0.376399000000000    0.240421000000000 
K           0.338912000000000    0.962513000000000    0.240421000000000 
K           0.623601000000000    0.661088000000000    0.240421000000000 
K           0.623601000000000    0.962513000000000    0.240421000000000 
K           0.874331000000000    0.125669000000000    0.852538000000000 
K           0.874331000000000    0.748661000000000    0.852538000000000 
%ENDBLOCK POSITIONS_FRAC
