# Cell file generated by matador (Matthew Evans 2016)

%BLOCK LATTICE_CART
5.70261 0.0 0.0
0.0 5.11346 0.0
0.533509 0.0 5.28138
%ENDBLOCK LATTICE_CART

%BLOCK POSITIONS_FRAC
P           0.044894000000000    0.000000000000000    0.228041000000000 
K           0.068238000000000    0.000000000000000    0.718986000000000 
K           0.730378000000000    0.000000000000000    0.524320000000000 
K           0.735843000000000    0.000000000000000    0.935685000000000 
%ENDBLOCK POSITIONS_FRAC
