# Cell file generated by matador (Matthew Evans 2016)

%BLOCK LATTICE_CART
5.70438 0.0 0.0
0.0 5.70438 0.0
0.0 0.0 9.85275
%ENDBLOCK LATTICE_CART

%BLOCK POSITIONS_FRAC
P           0.500000000000000    0.500000000000000    0.033792000000000 
P           0.500000000000000    0.500000000000000    0.148626000000000 
P           0.500000000000000    0.500000000000000    0.311673000000000 
P           0.500000000000000    0.500000000000000    0.580663000000000 
K           0.000000000000000    0.000000000000000    0.464848000000000 
K           0.000000000000000    0.500000000000000    0.253923000000000 
K           0.000000000000000    0.500000000000000    0.558325000000000 
K           0.500000000000000    0.000000000000000    0.253923000000000 
K           0.500000000000000    0.000000000000000    0.558325000000000 
%ENDBLOCK POSITIONS_FRAC
