# Cell file generated by matador (Matthew Evans 2016)

%BLOCK LATTICE_CART
12.3625 0.0 0.0
-6.18124 10.7062 0.0
0.0 0.0 10.3862
%ENDBLOCK LATTICE_CART

%BLOCK POSITIONS_FRAC
P           0.000000000000000    0.000000000000000    0.127098000000000 
P           0.000000000000000    0.000000000000000    0.372902000000000 
P           0.000000000000000    0.000000000000000    0.627098000000000 
P           0.000000000000000    0.000000000000000    0.872902000000000 
P           0.333333000000000    0.666667000000000    0.000000000000000 
P           0.333333000000000    0.666667000000000    0.500000000000000 
P           0.666667000000000    0.333333000000000    0.000000000000000 
P           0.666667000000000    0.333333000000000    0.500000000000000 
K           0.092330000000000    0.486269000000000    0.750000000000000 
K           0.092330000000000    0.606062000000000    0.250000000000000 
K           0.142305000000000    0.284610000000000    0.000000000000000 
K           0.142305000000000    0.284610000000000    0.500000000000000 
K           0.142305000000000    0.857695000000000    0.000000000000000 
K           0.142305000000000    0.857695000000000    0.500000000000000 
K           0.277433000000000    0.135743000000000    0.250000000000000 
K           0.277433000000000    0.141690000000000    0.750000000000000 
K           0.393938000000000    0.486269000000000    0.250000000000000 
K           0.393938000000000    0.907670000000000    0.750000000000000 
K           0.513731000000000    0.606062000000000    0.750000000000000 
K           0.513731000000000    0.907670000000000    0.250000000000000 
K           0.536758000000000    0.169162000000000    0.250000000000000 
K           0.536758000000000    0.367596000000000    0.750000000000000 
K           0.632404000000000    0.169162000000000    0.750000000000000 
K           0.632404000000000    0.463242000000000    0.250000000000000 
K           0.715390000000000    0.857695000000000    0.000000000000000 
K           0.715390000000000    0.857695000000000    0.500000000000000 
K           0.830838000000000    0.367596000000000    0.250000000000000 
K           0.830838000000000    0.463242000000000    0.750000000000000 
K           0.858310000000000    0.135743000000000    0.750000000000000 
K           0.858310000000000    0.722567000000000    0.250000000000000 
K           0.864257000000000    0.141690000000000    0.250000000000000 
K           0.864257000000000    0.722567000000000    0.750000000000000 
%ENDBLOCK POSITIONS_FRAC
