# Cell file generated by matador (Matthew Evans 2016)

%BLOCK LATTICE_CART
6.87426 0.0 0.0
-3.43713 5.95328 0.0
0.0 0.0 9.69063
%ENDBLOCK LATTICE_CART

%BLOCK POSITIONS_FRAC
P           0.333333000000000    0.666667000000000    0.293349000000000 
P           0.333333000000000    0.666667000000000    0.706651000000000 
K          -0.000000000000000    0.000000000000000    0.500000000000000 
K           0.023323000000000    0.816378000000000    0.195922000000000 
K           0.023323000000000    0.816378000000000    0.804078000000000 
K           0.183622000000000    0.206946000000000    0.195922000000000 
K           0.183622000000000    0.206946000000000    0.804078000000000 
K           0.333333000000000    0.666667000000000    0.000000000000000 
K           0.333333000000000    0.666667000000000    0.500000000000000 
K           0.666666000000000    0.333334000000000    0.500000000000000 
K           0.793054000000000    0.976677000000000    0.195922000000000 
K           0.793054000000000    0.976677000000000    0.804078000000000 
%ENDBLOCK POSITIONS_FRAC
