# Cell file generated by matador (Matthew Evans 2016)

%BLOCK LATTICE_CART
7.18887 0.0 0.0
0.0 7.18887 0.0
0.0 0.0 5.25242
%ENDBLOCK LATTICE_CART

%BLOCK POSITIONS_FRAC
P           0.000000000000000    0.500000000000000    0.750000000000000 
P           0.500000000000000    0.000000000000000    0.250000000000000 
K           0.000000000000000    0.304503000000000    0.073633000000000 
K           0.000000000000000    0.695497000000000    0.073633000000000 
K           0.195497000000000    0.500000000000000    0.426367000000000 
K           0.304503000000000    0.000000000000000    0.926367000000000 
K           0.500000000000000    0.195497000000000    0.573633000000000 
K           0.500000000000000    0.804503000000000    0.573633000000000 
K           0.695497000000000    0.000000000000000    0.926367000000000 
K           0.804503000000000    0.500000000000000    0.426367000000000 
%ENDBLOCK POSITIONS_FRAC
