# Cell file generated by matador (Matthew Evans 2016)

%BLOCK LATTICE_CART
9.01082 0.0 0.0
0.0 6.21158 0.0
-0.0200014 0.0 5.99276
%ENDBLOCK LATTICE_CART

%BLOCK POSITIONS_FRAC
P           0.078733000000000    0.000000000000000    0.698802000000000 
P           0.135982000000000    0.124794000000000    0.245358000000000 
P           0.135982000000000    0.875206000000000    0.245358000000000 
P           0.153857000000000    0.500000000000000    0.097732000000000 
P           0.379649000000000    0.336311000000000    0.218855000000000 
P           0.379649000000000    0.663689000000000    0.218855000000000 
P           0.578733000000000    0.500000000000000    0.698802000000000 
P           0.635982000000000    0.375206000000000    0.245358000000000 
P           0.635982000000000    0.624794000000000    0.245358000000000 
P           0.653857000000000    0.000000000000000    0.097732000000000 
P           0.879649000000000    0.163689000000000    0.218855000000000 
P           0.879649000000000    0.836311000000000    0.218855000000000 
K           0.449446000000000    0.000000000000000    0.659459000000000 
K           0.949446000000000    0.500000000000000    0.659459000000000 
%ENDBLOCK POSITIONS_FRAC
