# Cell file generated by matador (Matthew Evans 2016)

%BLOCK LATTICE_CART
9.65046 0.0 0.0
0.0 8.77127 0.0
-2.89233 0.0 5.51011
%ENDBLOCK LATTICE_CART

%BLOCK POSITIONS_FRAC
P           0.000000000000000    0.288512000000000    0.000000000000000 
P           0.117691000000000    0.395659000000000    0.272807000000000 
P           0.190896000000000    0.116382000000000    0.650752000000000 
P           0.269308000000000    0.307686000000000    0.140734000000000 
P           0.305104000000000    0.483978000000000    0.355162000000000 
P           0.348745000000000    0.885984000000000    0.632730000000000 
P           0.500000000000000    0.744092000000000    0.000000000000000 
P           0.651255000000000    0.885984000000000    0.367270000000000 
P           0.694896000000000    0.483978000000000    0.644838000000000 
P           0.730692000000000    0.307686000000000    0.859266000000000 
P           0.809104000000000    0.116382000000000    0.349248000000000 
P           0.882309000000000    0.395659000000000    0.727193000000000 
K           0.257198000000000    0.794932000000000    0.956353000000000 
K           0.500000000000000    0.144626000000000    0.000000000000000 
K           0.742802000000000    0.794932000000000    0.043647000000000 
%ENDBLOCK POSITIONS_FRAC
