# Cell file generated by matador (Matthew Evans 2016)

%BLOCK LATTICE_CART
7.05475 0.0 0.0
-3.52738 6.10959 0.0
0.0 0.0 14.0266
%ENDBLOCK LATTICE_CART

%BLOCK POSITIONS_FRAC
P           0.000000000000000    0.283497000000000    0.500000000000000 
P           0.000000000000000    0.674945000000000    0.000000000000000 
P           0.283497000000000    0.000000000000000    0.500000000000000 
P           0.325055000000000    0.325055000000000    0.000000000000000 
P           0.333333000000000    0.666667000000000    0.124074000000000 
P           0.333333000000000    0.666667000000000    0.331731000000000 
P           0.333333000000000    0.666667000000000    0.668269000000000 
P           0.333333000000000    0.666667000000000    0.875926000000000 
P           0.666667000000000    0.333333000000000    0.124074000000000 
P           0.666667000000000    0.333333000000000    0.331731000000000 
P           0.666667000000000    0.333333000000000    0.668269000000000 
P           0.666667000000000    0.333333000000000    0.875926000000000 
P           0.674945000000000    0.000000000000000    0.000000000000000 
P           0.716503000000000    0.716503000000000    0.500000000000000 
K           0.000000000000000    0.000000000000000    0.000000000000000 
K           0.000000000000000    0.000000000000000    0.500000000000000 
%ENDBLOCK POSITIONS_FRAC
