# Cell file generated by matador (Matthew Evans 2016)

%BLOCK LATTICE_CART
7.056 0.0 0.0
-2.55354 4.44239 0.0
-0.71353 3.89623 7.77209
%ENDBLOCK LATTICE_CART

%BLOCK POSITIONS_FRAC
P           0.000000000000000    0.000000000000000    0.000000000000000 
P           0.000000000000000    0.500000000000000    0.500000000000000 
P           0.032508000000000    0.619677000000000    0.568347000000000 
P           0.967492000000000    0.380323000000000    0.431653000000000 
K           0.000000000000000    0.000000000000000    0.500000000000000 
K           0.500000000000000    0.000000000000000    0.000000000000000 
K           0.500000000000000    0.500000000000000    0.000000000000000 
%ENDBLOCK POSITIONS_FRAC
