# Cell file generated by matador (Matthew Evans 2016)

%BLOCK LATTICE_CART
7.06212 0.0 0.0
-3.53106 6.11598 0.0
0.0 0.0 6.4765
%ENDBLOCK LATTICE_CART

%BLOCK POSITIONS_FRAC
P           0.000000000000000    0.000000000000000    0.000000000000000 
P           0.000000000000000    0.000000000000000    0.168931000000000 
P           0.000000000000000    0.000000000000000    0.831069000000000 
P           0.081753000000000    0.163505000000000    0.000000000000000 
P           0.081753000000000    0.918247000000000    0.000000000000000 
P           0.333333000000000    0.666667000000000    0.000000000000000 
P           0.836495000000000    0.918247000000000    0.000000000000000 
K           0.000000000000000    0.000000000000000    0.500000000000000 
K           0.333333000000000    0.666667000000000    0.500000000000000 
K           0.666667000000000    0.333333000000000    0.000000000000000 
K           0.666667000000000    0.333333000000000    0.500000000000000 
%ENDBLOCK POSITIONS_FRAC
