# Cell file generated by matador (Matthew Evans 2016)

%BLOCK LATTICE_CART
5.95734 0.0 0.0
-2.97867 5.15921 0.0
0.0 0.0 10.9722
%ENDBLOCK LATTICE_CART

%BLOCK POSITIONS_FRAC
P          -0.000000000000000    0.000000000000000    0.000000000000000 
P          -0.000000000000000    0.167698000000000    0.500000000000000 
P          -0.000000000000000    0.832302000000000    0.500000000000000 
P           0.167698000000000    0.000000000000000    0.500000000000000 
P           0.167698000000000    0.167698000000000    0.500000000000000 
P           0.832302000000000    0.000000000000000    0.500000000000000 
P           0.832302000000000    0.832302000000000    0.500000000000000 
K          -0.000000000000000    0.500000000000000    0.000000000000000 
K          -0.000000000000000    0.500000000000000    0.500000000000000 
K           0.500000000000000    0.000000000000000    0.000000000000000 
K           0.500000000000000    0.000000000000000    0.500000000000000 
K           0.500000000000000    0.500000000000000    0.000000000000000 
K           0.500000000000000    0.500000000000000    0.500000000000000 
%ENDBLOCK POSITIONS_FRAC
