# Cell file generated by matador (Matthew Evans 2016)

%BLOCK LATTICE_CART
8.47222 0.0 0.0
0.0 8.47222 0.0
0.0 0.0 6.76314
%ENDBLOCK LATTICE_CART

%BLOCK POSITIONS_FRAC
P           0.000000000000000    0.000000000000000    0.500000000000000 
P           0.500000000000000    0.500000000000000    0.500000000000000 
K           0.000000000000000    0.000000000000000    0.000000000000000 
K           0.000000000000000    0.500000000000000    0.000000000000000 
K           0.000000000000000    0.500000000000000    0.500000000000000 
K           0.121242000000000    0.378758000000000    0.294614000000000 
K           0.121242000000000    0.621242000000000    0.705386000000000 
K           0.378758000000000    0.121242000000000    0.705386000000000 
K           0.378758000000000    0.878758000000000    0.294614000000000 
K           0.500000000000000    0.000000000000000    0.000000000000000 
K           0.500000000000000    0.000000000000000    0.500000000000000 
K           0.500000000000000    0.500000000000000    0.000000000000000 
K           0.621242000000000    0.121242000000000    0.294614000000000 
K           0.621242000000000    0.878758000000000    0.705386000000000 
K           0.878758000000000    0.378758000000000    0.705386000000000 
K           0.878758000000000    0.621242000000000    0.294614000000000 
%ENDBLOCK POSITIONS_FRAC
