# Cell file generated by matador (Matthew Evans 2016)

%BLOCK LATTICE_CART
7.13595 0.0 0.0
-3.56798 6.17992 0.0
0.0 0.0 7.39239
%ENDBLOCK LATTICE_CART

%BLOCK POSITIONS_FRAC
P           0.134894000000000    0.778285000000000    0.111222000000000 
P           0.134894000000000    0.778285000000000    0.388778000000000 
P           0.221715000000000    0.356609000000000    0.111222000000000 
P           0.221715000000000    0.356609000000000    0.388778000000000 
P           0.356609000000000    0.221715000000000    0.611222000000000 
P           0.356609000000000    0.221715000000000    0.888778000000000 
P           0.643391000000000    0.865106000000000    0.111222000000000 
P           0.643391000000000    0.865106000000000    0.388778000000000 
P           0.778285000000000    0.134894000000000    0.611222000000000 
P           0.778285000000000    0.134894000000000    0.888778000000000 
P           0.865106000000000    0.643391000000000    0.611222000000000 
P           0.865106000000000    0.643391000000000    0.888778000000000 
K           0.000000000000000    0.000000000000000    0.250000000000000 
K           0.000000000000000    0.000000000000000    0.750000000000000 
K           0.333333000000000    0.666667000000000    0.250000000000000 
K           0.666667000000000    0.333333000000000    0.750000000000000 
%ENDBLOCK POSITIONS_FRAC
