# Cell file generated by matador (Matthew Evans 2016)

%BLOCK LATTICE_CART
6.99802 0.0 0.0
0.0 6.36726 0.0
-0.0415521 0.0 6.38676
%ENDBLOCK LATTICE_CART

%BLOCK POSITIONS_FRAC
P           0.120753000000000    0.050974000000000    0.739939000000000 
P           0.120753000000000    0.949026000000000    0.239939000000000 
P           0.715582000000000    0.311063000000000    0.336689000000000 
P           0.715582000000000    0.688937000000000    0.836689000000000 
P           0.750253000000000    0.234430000000000    0.652854000000000 
P           0.750253000000000    0.765570000000000    0.152854000000000 
P           0.834534000000000    0.407705000000000    0.770082000000000 
P           0.834534000000000    0.592295000000000    0.270082000000000 
P           0.922478000000000    0.379354000000000    0.430834000000000 
P           0.922478000000000    0.620646000000000    0.930834000000000 
P           0.943618000000000    0.365769000000000    0.974557000000000 
P           0.943618000000000    0.634231000000000    0.474557000000000 
K           0.251432000000000    0.470118000000000    0.875978000000000 
K           0.251432000000000    0.529882000000000    0.375978000000000 
%ENDBLOCK POSITIONS_FRAC
