# Cell file generated by matador (Matthew Evans 2016)

%BLOCK LATTICE_CART
6.46572 0.0 0.0
-3.23286 5.59948 0.0
0.0 0.0 6.9311
%ENDBLOCK LATTICE_CART

%BLOCK POSITIONS_FRAC
P           0.000000000000000    0.000000000000000    0.450395000000000 
P           0.666667000000000    0.333333000000000    0.807003000000000 
K           0.000000000000000    0.000000000000000    0.931405000000000 
K           0.052433000000000    0.789830000000000    0.262710000000000 
K           0.210170000000000    0.262603000000000    0.262710000000000 
K           0.333333000000000    0.666667000000000    0.107706000000000 
K           0.737397000000000    0.947567000000000    0.262710000000000 
%ENDBLOCK POSITIONS_FRAC
