# Cell file generated by matador (Matthew Evans 2016)

%BLOCK LATTICE_CART
11.8213 0.0 0.0
0.0 11.8213 0.0
0.0 0.0 9.82564
%ENDBLOCK LATTICE_CART

%BLOCK POSITIONS_FRAC
P           0.000000000000000    0.256132000000000    0.000000000000000 
P           0.000000000000000    0.743868000000000    0.000000000000000 
P           0.243868000000000    0.500000000000000    0.000000000000000 
P           0.256132000000000    0.000000000000000    0.000000000000000 
P           0.500000000000000    0.243868000000000    0.000000000000000 
P           0.500000000000000    0.756132000000000    0.000000000000000 
P           0.743868000000000    0.000000000000000    0.000000000000000 
P           0.756132000000000    0.500000000000000    0.000000000000000 
K           0.000000000000000    0.000000000000000    0.000000000000000 
K           0.000000000000000    0.000000000000000    0.500000000000000 
K           0.000000000000000    0.500000000000000    0.000000000000000 
K           0.000000000000000    0.500000000000000    0.500000000000000 
K           0.127226000000000    0.372774000000000    0.274632000000000 
K           0.127226000000000    0.627226000000000    0.725368000000000 
K           0.250000000000000    0.250000000000000    0.000000000000000 
K           0.250000000000000    0.250000000000000    0.500000000000000 
K           0.250000000000000    0.750000000000000    0.000000000000000 
K           0.250000000000000    0.750000000000000    0.500000000000000 
K           0.372774000000000    0.127226000000000    0.725368000000000 
K           0.372774000000000    0.872774000000000    0.274632000000000 
K           0.500000000000000    0.000000000000000    0.000000000000000 
K           0.500000000000000    0.000000000000000    0.500000000000000 
K           0.500000000000000    0.500000000000000    0.000000000000000 
K           0.500000000000000    0.500000000000000    0.500000000000000 
K           0.627226000000000    0.127226000000000    0.274632000000000 
K           0.627226000000000    0.872774000000000    0.725368000000000 
K           0.750000000000000    0.250000000000000    0.000000000000000 
K           0.750000000000000    0.250000000000000    0.500000000000000 
K           0.750000000000000    0.750000000000000    0.000000000000000 
K           0.750000000000000    0.750000000000000    0.500000000000000 
K           0.872774000000000    0.372774000000000    0.725368000000000 
K           0.872774000000000    0.627226000000000    0.274632000000000 
%ENDBLOCK POSITIONS_FRAC
