# Cell file generated by matador (Matthew Evans 2016)

%BLOCK LATTICE_CART
7.76115 0.0 0.0
0.0 7.76115 0.0
0.0 0.0 7.76115
%ENDBLOCK LATTICE_CART

%BLOCK POSITIONS_FRAC
P           0.000000000000000    0.000000000000000    0.000000000000000 
P           0.273439000000000    0.273439000000000    0.273439000000000 
P           0.273439000000000    0.273439000000000    0.726561000000000 
P           0.273439000000000    0.726561000000000    0.273439000000000 
P           0.273439000000000    0.726561000000000    0.726561000000000 
P           0.500000000000000    0.500000000000000    0.500000000000000 
P           0.726561000000000    0.273439000000000    0.273439000000000 
P           0.726561000000000    0.273439000000000    0.726561000000000 
P           0.726561000000000    0.726561000000000    0.273439000000000 
P           0.726561000000000    0.726561000000000    0.726561000000000 
K           0.000000000000000    0.000000000000000    0.500000000000000 
K           0.000000000000000    0.500000000000000    0.000000000000000 
K           0.000000000000000    0.500000000000000    0.500000000000000 
K           0.500000000000000    0.000000000000000    0.000000000000000 
K           0.500000000000000    0.000000000000000    0.500000000000000 
K           0.500000000000000    0.500000000000000    0.000000000000000 
%ENDBLOCK POSITIONS_FRAC
