# Cell file generated by matador (Matthew Evans 2016)

%BLOCK LATTICE_CART
6.16084 0.0 0.0
1.83088 7.73453 0.0
0.640968 0.601085 7.13622
%ENDBLOCK LATTICE_CART

%BLOCK POSITIONS_FRAC
P           0.129086000000000    0.719740000000000    0.252205000000000 
P           0.189694000000000    0.315282000000000    0.154322000000000 
P           0.273283000000000    0.902896000000000    0.158054000000000 
P           0.726717000000000    0.097104000000000    0.841946000000000 
P           0.810306000000000    0.684718000000000    0.845678000000000 
P           0.870914000000000    0.280260000000000    0.747795000000000 
K           0.000000000000000    0.000000000000000    0.000000000000000 
K           0.000000000000000    0.000000000000000    0.500000000000000 
K           0.401992000000000    0.247709000000000    0.574796000000000 
K           0.500000000000000    0.000000000000000    0.000000000000000 
K           0.500000000000000    0.000000000000000    0.500000000000000 
K           0.500000000000000    0.500000000000000    0.500000000000000 
K           0.598008000000000    0.752291000000000    0.425204000000000 
%ENDBLOCK POSITIONS_FRAC
