# Cell file generated by matador (Matthew Evans 2016)

%BLOCK LATTICE_CART
9.11938 0.0 0.0
0.0 8.52286 0.0
2.62939 0.0 6.05137
%ENDBLOCK LATTICE_CART

%BLOCK POSITIONS_FRAC
P           0.000000000000000    0.265337000000000    0.500000000000000 
P           0.000000000000000    0.734663000000000    0.500000000000000 
P           0.339812000000000    0.372493000000000    0.856554000000000 
P           0.339812000000000    0.627507000000000    0.856554000000000 
P           0.660188000000000    0.372493000000000    0.143446000000000 
P           0.660188000000000    0.627507000000000    0.143446000000000 
K           0.000000000000000    0.000000000000000    0.500000000000000 
K           0.000000000000000    0.500000000000000    0.000000000000000 
K           0.000000000000000    0.500000000000000    0.500000000000000 
K           0.315427000000000    0.168766000000000    0.348198000000000 
K           0.315427000000000    0.831234000000000    0.348198000000000 
K           0.500000000000000    0.000000000000000    0.500000000000000 
K           0.500000000000000    0.500000000000000    0.000000000000000 
K           0.684573000000000    0.168766000000000    0.651802000000000 
K           0.684573000000000    0.831234000000000    0.651802000000000 
%ENDBLOCK POSITIONS_FRAC
