# Cell file generated by matador (Matthew Evans 2016)

%BLOCK LATTICE_CART
10.6941 0.0 0.0
0.0 9.01544 0.0
0.0 0.0 5.50607
%ENDBLOCK LATTICE_CART

%BLOCK POSITIONS_FRAC
P           0.068577000000000    0.250000000000000    0.000000000000000 
P           0.250000000000000    0.250000000000000    0.000000000000000 
P           0.250000000000000    0.750000000000000    0.500000000000000 
P           0.431423000000000    0.250000000000000    0.000000000000000 
P           0.568577000000000    0.750000000000000    0.000000000000000 
P           0.750000000000000    0.250000000000000    0.500000000000000 
P           0.750000000000000    0.750000000000000    0.000000000000000 
P           0.931423000000000    0.750000000000000    0.000000000000000 
K           0.171416000000000    0.583795000000000    0.124600000000000 
K           0.171416000000000    0.916205000000000    0.875400000000000 
K           0.250000000000000    0.250000000000000    0.500000000000000 
K           0.328584000000000    0.583795000000000    0.875400000000000 
K           0.328584000000000    0.916205000000000    0.124600000000000 
K           0.671416000000000    0.083795000000000    0.875400000000000 
K           0.671416000000000    0.416205000000000    0.124600000000000 
K           0.750000000000000    0.750000000000000    0.500000000000000 
K           0.828584000000000    0.083795000000000    0.124600000000000 
K           0.828584000000000    0.416205000000000    0.875400000000000 
%ENDBLOCK POSITIONS_FRAC
