# Cell file generated by matador (Matthew Evans 2016)

%BLOCK LATTICE_CART
7.45832 0.0 0.0
-3.72916 6.4591 0.0
0.0 0.0 8.97683
%ENDBLOCK LATTICE_CART

%BLOCK POSITIONS_FRAC
P          -0.000000000000000   -0.000000000000000    0.000000000000000 
P           0.250297000000000    0.500595000000000    0.000000000000000 
P           0.250297000000000    0.749703000000000    0.000000000000000 
P           0.333333000000000    0.666667000000000    0.000000000000000 
P           0.333333000000000    0.666667000000000    0.500000000000000 
P           0.499405000000000    0.749703000000000    0.000000000000000 
P           0.666667000000000    0.333333000000000    0.500000000000000 
K           0.170345000000000    0.524537000000000    0.312940000000000 
K           0.170345000000000    0.645808000000000    0.687060000000000 
K           0.354192000000000    0.524537000000000    0.687060000000000 
K           0.354192000000000    0.829655000000000    0.312940000000000 
K           0.475463000000000    0.645808000000000    0.312940000000000 
K           0.475463000000000    0.829655000000000    0.687060000000000 
%ENDBLOCK POSITIONS_FRAC
