# Cell file generated by matador (Matthew Evans 2016)

%BLOCK LATTICE_CART
8.85561 0.0 0.0
0.0 8.85561 0.0
0.0 0.0 7.91782
%ENDBLOCK LATTICE_CART

%BLOCK POSITIONS_FRAC
P           0.000000000000000    0.000000000000000   -0.000000000000000 
P           0.000000000000000    0.000000000000000    0.500000000000000 
P           0.500000000000000    0.500000000000000   -0.000000000000000 
P           0.500000000000000    0.500000000000000    0.500000000000000 
K           0.000000000000000    0.000000000000000    0.250000000000000 
K           0.000000000000000    0.000000000000000    0.750000000000000 
K           0.245139000000000    0.245139000000000    0.266825000000000 
K           0.245139000000000    0.245139000000000    0.733175000000000 
K           0.245139000000000    0.754861000000000    0.233175000000000 
K           0.245139000000000    0.754861000000000    0.766825000000000 
K           0.500000000000000    0.500000000000000    0.250000000000000 
K           0.500000000000000    0.500000000000000    0.750000000000000 
K           0.754861000000000    0.245139000000000    0.233175000000000 
K           0.754861000000000    0.245139000000000    0.766825000000000 
K           0.754861000000000    0.754861000000000    0.266825000000000 
K           0.754861000000000    0.754861000000000    0.733175000000000 
%ENDBLOCK POSITIONS_FRAC
