# Cell file generated by matador (Matthew Evans 2016)

%BLOCK LATTICE_CART
7.05795 0.0 0.0
-3.52897 6.11236 0.0
0.0 0.0 8.55129
%ENDBLOCK LATTICE_CART

%BLOCK POSITIONS_FRAC
P           0.182717000000000    0.042000000000000    0.823609000000000 
P           0.192615000000000    0.483949000000000    0.490276000000000 
P           0.291334000000000    0.807385000000000    0.490276000000000 
P           0.516051000000000    0.708666000000000    0.490276000000000 
P           0.525949000000000    0.150616000000000    0.156942000000000 
P           0.624667000000000    0.474051000000000    0.156942000000000 
P           0.849384000000000    0.375333000000000    0.156942000000000 
P           0.859282000000000    0.817283000000000    0.823609000000000 
P           0.958000000000000    0.140718000000000    0.823609000000000 
K           0.000000000000000    0.000000000000000    0.394438000000000 
K           0.333333000000000    0.666667000000000    0.061105000000000 
K           0.666667000000000    0.333333000000000    0.727772000000000 
%ENDBLOCK POSITIONS_FRAC
