# Cell file generated by matador (Matthew Evans 2016)

%BLOCK LATTICE_CART
5.57287 0.0 0.0
0.0 7.0921 0.0
0.0 0.0 8.57063
%ENDBLOCK LATTICE_CART

%BLOCK POSITIONS_FRAC
P           0.286683000000000    0.549146000000000    0.531618000000000 
P           0.286683000000000    0.950854000000000    0.031618000000000 
P           0.713317000000000    0.049146000000000    0.031618000000000 
P           0.713317000000000    0.450854000000000    0.531618000000000 
K          -0.000000000000000    0.000000000000000    0.419843000000000 
K          -0.000000000000000    0.500000000000000    0.919843000000000 
K           0.403968000000000    0.188661000000000    0.249132000000000 
K           0.403968000000000    0.311339000000000    0.749132000000000 
K           0.596032000000000    0.688661000000000    0.749132000000000 
K           0.596032000000000    0.811339000000000    0.249132000000000 
%ENDBLOCK POSITIONS_FRAC
