# Cell file generated by matador (Matthew Evans 2016)

%BLOCK LATTICE_CART
8.70622 0.0 0.0
-4.35311 7.5398 0.0
0.0 0.0 12.9991
%ENDBLOCK LATTICE_CART

%BLOCK POSITIONS_FRAC
P           0.364838000000000    0.010457000000000    0.325571000000000 
P           0.364838000000000    0.354381000000000    0.325571000000000 
P           0.645619000000000    0.010457000000000    0.325571000000000 
P           0.645619000000000    0.635162000000000    0.325571000000000 
P           0.989543000000000    0.354381000000000    0.325571000000000 
P           0.989543000000000    0.635162000000000    0.325571000000000 
K           0.212869000000000    0.425737000000000    0.221429000000000 
K           0.212869000000000    0.787131000000000    0.221429000000000 
K           0.280872000000000    0.140436000000000    0.732381000000000 
K           0.333333000000000    0.666667000000000    0.424349000000000 
K           0.333333000000000    0.666667000000000    0.725642000000000 
K           0.334955000000000    0.167477000000000    0.500086000000000 
K           0.359852000000000    0.179926000000000    0.201304000000000 
K           0.521458000000000    0.042916000000000    0.977799000000000 
K           0.521458000000000    0.478542000000000    0.977799000000000 
K           0.574263000000000    0.787131000000000    0.221429000000000 
K           0.666667000000000    0.333333000000000    0.627556000000000 
K           0.820074000000000    0.179926000000000    0.201304000000000 
K           0.820074000000000    0.640148000000000    0.201304000000000 
K           0.832523000000000    0.167477000000000    0.500086000000000 
K           0.832523000000000    0.665045000000000    0.500086000000000 
K           0.859564000000000    0.140436000000000    0.732381000000000 
K           0.859564000000000    0.719128000000000    0.732381000000000 
K           0.957084000000000    0.478542000000000    0.977799000000000 
%ENDBLOCK POSITIONS_FRAC
