# Cell file generated by matador (Matthew Evans 2016)

%BLOCK LATTICE_CART
6.77863 0.0 0.0
0.0 6.77863 0.0
0.0 0.0 7.10212
%ENDBLOCK LATTICE_CART

%BLOCK POSITIONS_FRAC
P           0.000000000000000    0.000000000000000    0.279861000000000 
P           0.000000000000000    0.000000000000000    0.720139000000000 
P           0.000000000000000    0.500000000000000    0.310026000000000 
P           0.000000000000000    0.500000000000000    0.697858000000000 
P           0.500000000000000    0.000000000000000    0.302142000000000 
P           0.500000000000000    0.000000000000000    0.689974000000000 
K           0.000000000000000    0.000000000000000    0.000000000000000 
K           0.225281000000000    0.574705000000000    0.530220000000000 
K           0.425295000000000    0.225281000000000    0.469780000000000 
K           0.500000000000000    0.500000000000000    0.000000000000000 
K           0.500000000000000    0.500000000000000    0.500000000000000 
K           0.574705000000000    0.774719000000000    0.469780000000000 
K           0.774719000000000    0.425295000000000    0.530220000000000 
%ENDBLOCK POSITIONS_FRAC
