# Cell file generated by matador (Matthew Evans 2016)

%BLOCK LATTICE_CART
6.6982 0.0 0.0
0.0 9.36927 0.0
-4.03355 0.0 7.81672
%ENDBLOCK LATTICE_CART

%BLOCK POSITIONS_FRAC
P           0.000000000000000    0.000000000000000    0.000000000000000 
P           0.000000000000000    0.500000000000000    0.500000000000000 
P           0.465556000000000    0.630750000000000    0.990645000000000 
P           0.465556000000000    0.869250000000000    0.490645000000000 
P           0.534444000000000    0.130750000000000    0.509355000000000 
P           0.534444000000000    0.369250000000000    0.009355000000000 
K           0.000000000000000    0.000000000000000    0.500000000000000 
K           0.000000000000000    0.500000000000000    0.000000000000000 
K           0.234947000000000    0.027933000000000    0.422182000000000 
K           0.234947000000000    0.472067000000000    0.922182000000000 
K           0.500000000000000    0.000000000000000    0.000000000000000 
K           0.500000000000000    0.500000000000000    0.500000000000000 
K           0.765053000000000    0.527933000000000    0.077818000000000 
K           0.765053000000000    0.972067000000000    0.577818000000000 
%ENDBLOCK POSITIONS_FRAC
