# Cell file generated by matador (Matthew Evans 2016)

%BLOCK LATTICE_CART
7.08584 0.0 0.0
-3.54292 6.13652 0.0
0.0 0.0 6.48649
%ENDBLOCK LATTICE_CART

%BLOCK POSITIONS_FRAC
P           0.333334000000000    0.666668000000000    0.042479000000000 
P           0.666668000000000    0.333334000000000    0.542479000000000 
K           0.166888000000000    0.333775000000000    0.892275000000000 
K           0.166888000000000    0.833114000000000    0.892275000000000 
K           0.333775000000000    0.166888000000000    0.392275000000000 
K           0.666227000000000    0.833114000000000    0.892275000000000 
K           0.833114000000000    0.166888000000000    0.392275000000000 
K           0.833114000000000    0.666227000000000    0.392275000000000 
%ENDBLOCK POSITIONS_FRAC
