# Cell file generated by matador (Matthew Evans 2016)

%BLOCK LATTICE_CART
6.10629 0.0 0.0
-3.05314 5.2882 0.0
0.0 0.0 6.36354
%ENDBLOCK LATTICE_CART

%BLOCK POSITIONS_FRAC
P           0.000000000000000    0.000000000000000    0.922445000000000 
P           0.333333000000000    0.666667000000000    0.230237000000000 
P           0.666667000000000    0.333333000000000    0.302998000000000 
P           0.666667000000000    0.333333000000000    0.661981000000000 
P           0.666667000000000    0.333333000000000    0.979441000000000 
K           0.000000000000000    0.000000000000000    0.532780000000000 
K           0.333333000000000    0.666667000000000    0.754777000000000 
%ENDBLOCK POSITIONS_FRAC
