# Cell file generated by matador (Matthew Evans 2016)

%BLOCK LATTICE_CART
7.839 0.0 0.0
-3.9195 6.78877 0.0
0.0 0.0 12.0367
%ENDBLOCK LATTICE_CART

%BLOCK POSITIONS_FRAC
P           0.000000000000000    0.500000000000000    0.152757000000000 
P           0.000000000000000    0.500000000000000    0.652757000000000 
P           0.333333000000000    0.666667000000000    0.123851000000000 
P           0.333333000000000    0.666667000000000    0.623851000000000 
P           0.500000000000000    0.000000000000000    0.152757000000000 
P           0.500000000000000    0.000000000000000    0.652757000000000 
P           0.500000000000000    0.500000000000000    0.152757000000000 
P           0.500000000000000    0.500000000000000    0.652757000000000 
P           0.666667000000000    0.333333000000000    0.123851000000000 
P           0.666667000000000    0.333333000000000    0.623851000000000 
K           0.000000000000000    0.000000000000000    0.370104000000000 
K           0.000000000000000    0.000000000000000    0.870104000000000 
K           0.000000000000000    0.500000000000000    0.422491000000000 
K           0.000000000000000    0.500000000000000    0.922491000000000 
K           0.500000000000000    0.000000000000000    0.422491000000000 
K           0.500000000000000    0.000000000000000    0.922491000000000 
K           0.500000000000000    0.500000000000000    0.422491000000000 
K           0.500000000000000    0.500000000000000    0.922491000000000 
%ENDBLOCK POSITIONS_FRAC
