# Cell file generated by matador (Matthew Evans 2016)

%BLOCK LATTICE_CART
10.6313 0.0 0.0
-5.31566 9.20699 0.0
0.0 0.0 9.35804
%ENDBLOCK LATTICE_CART

%BLOCK POSITIONS_FRAC
P          -0.000000000000000   -0.000000000000000    0.123012000000000 
P          -0.000000000000000   -0.000000000000000    0.581842000000000 
P           0.333333000000000    0.666667000000000    0.248509000000000 
P           0.333333000000000    0.666667000000000    0.789679000000000 
P           0.666667000000000    0.333333000000000    0.456345000000000 
P           0.666667000000000    0.333333000000000    0.915176000000000 
K           0.096343000000000    0.192685000000000    0.957780000000000 
K           0.096343000000000    0.903657000000000    0.957780000000000 
K           0.140648000000000    0.570324000000000    0.624447000000000 
K           0.219403000000000    0.438806000000000    0.315324000000000 
K           0.219403000000000    0.780597000000000    0.315324000000000 
K           0.227861000000000    0.113931000000000    0.648657000000000 
K           0.429676000000000    0.570324000000000    0.624447000000000 
K           0.429676000000000    0.859352000000000    0.624447000000000 
K           0.473981000000000    0.236991000000000    0.291114000000000 
K           0.552736000000000    0.105472000000000    0.981991000000000 
K           0.552736000000000    0.447264000000000    0.981991000000000 
K           0.561194000000000    0.780597000000000    0.315324000000000 
K           0.763009000000000    0.236991000000000    0.291114000000000 
K           0.763009000000000    0.526019000000000    0.291114000000000 
K           0.807315000000000    0.903657000000000    0.957780000000000 
K           0.886069000000000    0.113931000000000    0.648657000000000 
K           0.886069000000000    0.772139000000000    0.648657000000000 
K           0.894528000000000    0.447264000000000    0.981991000000000 
%ENDBLOCK POSITIONS_FRAC
