# Cell file generated by matador (Matthew Evans 2016)

%BLOCK LATTICE_CART
10.8176 0.0 0.0
-5.40881 9.36834 0.0
0.0 0.0 8.48086
%ENDBLOCK LATTICE_CART

%BLOCK POSITIONS_FRAC
P           0.000000000000000   -0.000000000000000    0.215991000000000 
P           0.000000000000000   -0.000000000000000    0.568839000000000 
P           0.333333000000000    0.666667000000000    0.235506000000000 
P           0.333333000000000    0.666667000000000    0.882657000000000 
P           0.666667000000000    0.333333000000000    0.549324000000000 
P           0.666667000000000    0.333333000000000    0.902173000000000 
K           0.049042000000000    0.524521000000000    0.596816000000000 
K           0.105648000000000    0.211295000000000    0.283585000000000 
K           0.105648000000000    0.894352000000000    0.283585000000000 
K           0.122038000000000    0.561019000000000    0.950252000000000 
K           0.142146000000000    0.284292000000000    0.930149000000000 
K           0.142146000000000    0.857854000000000    0.930149000000000 
K           0.382375000000000    0.191187000000000    0.263483000000000 
K           0.438981000000000    0.561019000000000    0.950252000000000 
K           0.438981000000000    0.877962000000000    0.950252000000000 
K           0.455371000000000    0.227686000000000    0.616918000000000 
K           0.475479000000000    0.524521000000000    0.596816000000000 
K           0.475479000000000    0.950958000000000    0.596816000000000 
K           0.715708000000000    0.857854000000000    0.930149000000000 
K           0.772314000000000    0.227686000000000    0.616918000000000 
K           0.772314000000000    0.544629000000000    0.616918000000000 
K           0.788705000000000    0.894352000000000    0.283585000000000 
K           0.808813000000000    0.191187000000000    0.263483000000000 
K           0.808813000000000    0.617625000000000    0.263483000000000 
%ENDBLOCK POSITIONS_FRAC
