# Cell file generated by matador (Matthew Evans 2016)

%BLOCK LATTICE_CART
9.08823 0.0 0.0
-4.54411 7.87064 0.0
0.0 0.0 6.15702
%ENDBLOCK LATTICE_CART

%BLOCK POSITIONS_FRAC
P           0.473191000000000    0.095365000000000    0.266998000000000 
P           0.473191000000000    0.377826000000000    0.733002000000000 
P           0.622174000000000    0.095365000000000    0.733002000000000 
P           0.622174000000000    0.526809000000000    0.266998000000000 
P           0.666667000000000    0.333333000000000    0.165296000000000 
P           0.666667000000000    0.333333000000000    0.834704000000000 
P           0.904635000000000    0.377826000000000    0.266998000000000 
P           0.904635000000000    0.526809000000000    0.733002000000000 
K           0.000000000000000    0.000000000000000    0.000000000000000 
K           0.000000000000000    0.000000000000000    0.500000000000000 
K           0.333333000000000    0.666667000000000    0.000000000000000 
K           0.333333000000000    0.666667000000000    0.500000000000000 
%ENDBLOCK POSITIONS_FRAC
