# Cell file generated by matador (Matthew Evans 2016)

%BLOCK LATTICE_CART
7.55237 0.0 0.0
-3.77618 6.54054 0.0
0.0 0.0 8.41137
%ENDBLOCK LATTICE_CART

%BLOCK POSITIONS_FRAC
P           0.000000000000000    0.000000000000000    0.271162000000000 
P           0.000000000000000    0.000000000000000    0.728838000000000 
K           0.000000000000000    0.000000000000000    0.000000000000000 
K           0.000000000000000    0.000000000000000    0.500000000000000 
K           0.104478000000000    0.453480000000000    0.151830000000000 
K           0.104478000000000    0.650998000000000    0.848170000000000 
K           0.333333000000000    0.666667000000000    0.000000000000000 
K           0.333333000000000    0.666667000000000    0.500000000000000 
K           0.349002000000000    0.453480000000000    0.848170000000000 
K           0.349002000000000    0.895522000000000    0.151830000000000 
K           0.546520000000000    0.650998000000000    0.151830000000000 
K           0.546520000000000    0.895522000000000    0.848170000000000 
K           0.666667000000000    0.333333000000000    0.000000000000000 
K           0.666667000000000    0.333333000000000    0.500000000000000 
%ENDBLOCK POSITIONS_FRAC
