# Cell file generated by matador (Matthew Evans 2016)

%BLOCK LATTICE_CART
5.25166 0.0 0.0
0.0 7.98421 0.0
0.0 0.0 8.88691
%ENDBLOCK LATTICE_CART

%BLOCK POSITIONS_FRAC
P           0.000000000000000    0.000000000000000    0.000000000000000 
P           0.000000000000000    0.500000000000000    0.000000000000000 
P           0.000000000000000    0.500000000000000    0.500000000000000 
P           0.500000000000000    0.000000000000000    0.000000000000000 
P           0.500000000000000    0.000000000000000    0.500000000000000 
P           0.500000000000000    0.500000000000000    0.000000000000000 
P           0.500000000000000    0.500000000000000    0.500000000000000 
K           0.000000000000000    0.000000000000000    0.500000000000000 
K           0.061561000000000    0.289397000000000    0.219466000000000 
K           0.061561000000000    0.710603000000000    0.780534000000000 
K           0.938439000000000    0.289397000000000    0.780534000000000 
K           0.938439000000000    0.710603000000000    0.219466000000000 
%ENDBLOCK POSITIONS_FRAC
