# Cell file generated by matador (Matthew Evans 2016)

%BLOCK LATTICE_CART
8.7516 0.0 0.0
-4.3758 7.57911 0.0
0.0 0.0 7.74191
%ENDBLOCK LATTICE_CART

%BLOCK POSITIONS_FRAC
P           0.000000000000000    0.000000000000000    0.874669000000000 
P           0.000000000000000    0.500000000000000    0.997629000000000 
P           0.500000000000000    0.000000000000000    0.997629000000000 
P           0.500000000000000    0.500000000000000    0.997629000000000 
K           0.000000000000000    0.334137000000000    0.677348000000000 
K           0.000000000000000    0.665863000000000    0.677348000000000 
K           0.333333000000000    0.666667000000000    0.151353000000000 
K           0.333333000000000    0.666667000000000    0.440085000000000 
K           0.334137000000000    0.000000000000000    0.677348000000000 
K           0.334137000000000    0.334137000000000    0.677348000000000 
K           0.665863000000000    0.000000000000000    0.677348000000000 
K           0.665863000000000    0.665863000000000    0.677348000000000 
K           0.666667000000000    0.333333000000000    0.151353000000000 
K           0.666667000000000    0.333333000000000    0.440085000000000 
%ENDBLOCK POSITIONS_FRAC
