# Cell file generated by matador (Matthew Evans 2016)

%BLOCK LATTICE_CART
6.80813 0.0 0.0
-3.40406 5.89601 0.0
0.0 0.0 8.32325
%ENDBLOCK LATTICE_CART

%BLOCK POSITIONS_FRAC
P           0.333332000000000    0.666668000000000    0.500000000000000 
P           0.666666000000000    0.333334000000000    0.500000000000000 
K           0.999999000000000    0.530057000000000    0.245718000000000 
K           0.999999000000000    0.530057000000000    0.754282000000000 
K           0.469943000000000    0.469945000000000    0.245718000000000 
K           0.469943000000000    0.469945000000000    0.754282000000000 
K           0.530055000000000    0.000001000000000    0.245718000000000 
K           0.530055000000000    0.000001000000000    0.754282000000000 
%ENDBLOCK POSITIONS_FRAC
