# Cell file generated by matador (Matthew Evans 2016)

%BLOCK LATTICE_CART
5.84217 0.0 0.0
0.0 6.75365 0.0
-1.30228 0.0 5.25238
%ENDBLOCK LATTICE_CART

%BLOCK POSITIONS_FRAC
P           0.000000000000000    0.883712000000000    0.000000000000000 
P           0.291454000000000    0.127268000000000    0.849603000000000 
P           0.464708000000000    0.241153000000000    0.830800000000000 
P           0.535292000000000    0.241153000000000    0.169200000000000 
P           0.708546000000000    0.127268000000000    0.150397000000000 
K           0.323972000000000    0.365626000000000    0.477203000000000 
K           0.676028000000000    0.365626000000000    0.522797000000000 
%ENDBLOCK POSITIONS_FRAC
