# Cell file generated by matador (Matthew Evans 2016)

%BLOCK LATTICE_CART
9.65545 0.0 0.0
-4.82772 8.36186 0.0
0.0 0.0 5.38089
%ENDBLOCK LATTICE_CART

%BLOCK POSITIONS_FRAC
P           0.000000000000000    0.000000000000000    0.128315000000000 
P           0.000000000000000    0.000000000000000    0.871685000000000 
P           0.333333000000000    0.666667000000000    0.624278000000000 
P           0.333333000000000    0.666667000000000    0.925409000000000 
P           0.666667000000000    0.333333000000000    0.074591000000000 
P           0.666667000000000    0.333333000000000    0.375722000000000 
K           0.000000000000000    0.000000000000000    0.500000000000000 
K           0.000000000000000    0.535253000000000    0.500000000000000 
K           0.000000000000000    0.741544000000000    0.000000000000000 
K           0.258456000000000    0.258456000000000    0.000000000000000 
K           0.464747000000000    0.464747000000000    0.500000000000000 
K           0.535253000000000    0.000000000000000    0.500000000000000 
K           0.741544000000000    0.000000000000000    0.000000000000000 
%ENDBLOCK POSITIONS_FRAC
