# Cell file generated by matador (Matthew Evans 2016)

%BLOCK LATTICE_CART
9.71991 0.0 0.0
0.0 9.71991 0.0
0.0 0.0 6.31445
%ENDBLOCK LATTICE_CART

%BLOCK POSITIONS_FRAC
P           0.000000000000000    0.500000000000000    0.250000000000000 
P           0.000000000000000    0.500000000000000    0.750000000000000 
P           0.500000000000000    0.000000000000000    0.250000000000000 
P           0.500000000000000    0.000000000000000    0.750000000000000 
K           0.000000000000000    0.000000000000000    0.000000000000000 
K           0.000000000000000    0.000000000000000    0.500000000000000 
K           0.200888000000000    0.200888000000000    0.208828000000000 
K           0.200888000000000    0.799112000000000    0.791172000000000 
K           0.299112000000000    0.299112000000000    0.708828000000000 
K           0.299112000000000    0.700888000000000    0.291172000000000 
K           0.500000000000000    0.500000000000000    0.000000000000000 
K           0.500000000000000    0.500000000000000    0.500000000000000 
K           0.700888000000000    0.299112000000000    0.291172000000000 
K           0.700888000000000    0.700888000000000    0.708828000000000 
K           0.799112000000000    0.200888000000000    0.791172000000000 
K           0.799112000000000    0.799112000000000    0.208828000000000 
%ENDBLOCK POSITIONS_FRAC
