# Cell file generated by matador (Matthew Evans 2016)

%BLOCK LATTICE_CART
9.23093 0.0 0.0
0.0 6.10518 0.0
0.0 0.0 6.99567
%ENDBLOCK LATTICE_CART

%BLOCK POSITIONS_FRAC
P           0.000000000000000    0.000000000000000    0.259262000000000 
P           0.283020000000000    0.339585000000000    0.527583000000000 
P           0.283020000000000    0.660415000000000    0.527583000000000 
P           0.716980000000000    0.339585000000000    0.527583000000000 
P           0.716980000000000    0.660415000000000    0.527583000000000 
K           0.221509000000000    0.000000000000000    0.681832000000000 
K           0.363502000000000    0.245943000000000    0.079375000000000 
K           0.363502000000000    0.754057000000000    0.079375000000000 
K           0.500000000000000    0.000000000000000    0.315189000000000 
K           0.636498000000000    0.245943000000000    0.079375000000000 
K           0.636498000000000    0.754057000000000    0.079375000000000 
K           0.778491000000000    0.000000000000000    0.681832000000000 
%ENDBLOCK POSITIONS_FRAC
