# Cell file generated by matador (Matthew Evans 2016)

%BLOCK LATTICE_CART
9.41607 0.0 0.0
-4.70804 8.15456 0.0
0.0 0.0 8.72985
%ENDBLOCK LATTICE_CART

%BLOCK POSITIONS_FRAC
P           0.000000000000000    0.000000000000000    0.021681000000000 
P           0.000000000000000    0.000000000000000    0.521681000000000 
P           0.333333000000000    0.666667000000000    0.665418000000000 
P           0.666667000000000    0.333333000000000    0.165418000000000 
K           0.000837000000000    0.500419000000000    0.229341000000000 
K           0.214693000000000    0.429386000000000    0.197033000000000 
K           0.214693000000000    0.785307000000000    0.197033000000000 
K           0.333333000000000    0.666667000000000    0.430840000000000 
K           0.429386000000000    0.214693000000000    0.697033000000000 
K           0.499581000000000    0.500419000000000    0.229341000000000 
K           0.499581000000000    0.999163000000000    0.229341000000000 
K           0.500419000000000    0.000837000000000    0.729341000000000 
K           0.500419000000000    0.499581000000000    0.729341000000000 
K           0.570614000000000    0.785307000000000    0.197033000000000 
K           0.666667000000000    0.333333000000000    0.930840000000000 
K           0.785307000000000    0.214693000000000    0.697033000000000 
K           0.785307000000000    0.570614000000000    0.697033000000000 
K           0.999163000000000    0.499581000000000    0.729341000000000 
%ENDBLOCK POSITIONS_FRAC
