# Cell file generated by matador (Matthew Evans 2016)

%BLOCK LATTICE_CART
6.65832 0.0 0.0
0.0 6.35439 0.0
-0.690054 0.0 6.29317
%ENDBLOCK LATTICE_CART

%BLOCK POSITIONS_FRAC
P           0.000000000000000    0.422246000000000    0.000000000000000 
K           0.000000000000000    0.767485000000000    0.500000000000000 
K           0.307562000000000    0.443466000000000    0.883801000000000 
K           0.397466000000000    0.879520000000000    0.647848000000000 
K           0.500000000000000    0.483080000000000    0.500000000000000 
K           0.602534000000000    0.879520000000000    0.352152000000000 
K           0.692438000000000    0.443466000000000    0.116199000000000 
%ENDBLOCK POSITIONS_FRAC
