# Cell file generated by matador (Matthew Evans 2016)

%BLOCK LATTICE_CART
7.05476 0.0 0.0
-3.52738 6.1096 0.0
0.0 0.0 6.8702
%ENDBLOCK LATTICE_CART

%BLOCK POSITIONS_FRAC
P           0.163676000000000    0.327353000000000    0.000000000000000 
P           0.163676000000000    0.327353000000000    0.500000000000000 
P           0.163676000000000    0.836324000000000    0.000000000000000 
P           0.163676000000000    0.836324000000000    0.500000000000000 
P           0.666667000000000    0.333333000000000    0.500000000000000 
P           0.672647000000000    0.836324000000000    0.000000000000000 
P           0.672647000000000    0.836324000000000    0.500000000000000 
K           0.000000000000000    0.000000000000000    0.000000000000000 
K           0.000000000000000    0.000000000000000    0.500000000000000 
K           0.333333000000000    0.666667000000000    0.500000000000000 
K           0.666667000000000    0.333333000000000    0.000000000000000 
%ENDBLOCK POSITIONS_FRAC
