# Cell file generated by matador (Matthew Evans 2016)

%BLOCK LATTICE_CART
8.75121 0.0 0.0
0.0 8.75121 0.0
0.0 0.0 6.30806
%ENDBLOCK LATTICE_CART

%BLOCK POSITIONS_FRAC
P           0.000000000000000    0.000000000000000    0.000000000000000 
P           0.500000000000000    0.500000000000000    0.500000000000000 
K           0.000000000000000    0.500000000000000    0.000000000000000 
K           0.000000000000000    0.500000000000000    0.500000000000000 
K           0.170670000000000    0.170670000000000    0.228151000000000 
K           0.170670000000000    0.829330000000000    0.771849000000000 
K           0.329330000000000    0.329330000000000    0.728151000000000 
K           0.329330000000000    0.670670000000000    0.271849000000000 
K           0.500000000000000    0.000000000000000    0.000000000000000 
K           0.500000000000000    0.000000000000000    0.500000000000000 
K           0.670670000000000    0.329330000000000    0.271849000000000 
K           0.670670000000000    0.670670000000000    0.728151000000000 
K           0.829330000000000    0.170670000000000    0.771849000000000 
K           0.829330000000000    0.829330000000000    0.228151000000000 
%ENDBLOCK POSITIONS_FRAC
