# Cell file generated by matador (Matthew Evans 2016)

%BLOCK LATTICE_CART
4.46097 0.0 0.0
0.0 6.84132 0.0
0.0 0.0 8.76031
%ENDBLOCK LATTICE_CART

%BLOCK POSITIONS_FRAC
P           0.150666000000000    0.090621000000000    0.680832000000000 
P           0.150666000000000    0.909379000000000    0.680832000000000 
P           0.500000000000000    0.000000000000000    0.471636000000000 
P           0.849334000000000    0.090621000000000    0.680832000000000 
P           0.849334000000000    0.909379000000000    0.680832000000000 
K           0.000000000000000    0.000000000000000    0.179347000000000 
K           0.000000000000000    0.000000000000000    0.946818000000000 
K           0.000000000000000    0.500000000000000    0.288600000000000 
K           0.500000000000000    0.251847000000000    0.270745000000000 
K           0.500000000000000    0.500000000000000    0.881457000000000 
K           0.500000000000000    0.748153000000000    0.270745000000000 
%ENDBLOCK POSITIONS_FRAC
