# Cell file generated by matador (Matthew Evans 2016)

%BLOCK LATTICE_CART
8.41509 0.0 0.0
-4.20754 7.28768 0.0
0.0 0.0 6.1241
%ENDBLOCK LATTICE_CART

%BLOCK POSITIONS_FRAC
P           0.000000000000000    0.762331000000000    0.000000000000000 
P           0.000000000000000    0.762331000000000    0.500000000000000 
P           0.098707000000000    0.635086000000000    0.750000000000000 
P           0.237669000000000    0.237669000000000    0.000000000000000 
P           0.237669000000000    0.237669000000000    0.500000000000000 
P           0.364914000000000    0.463622000000000    0.750000000000000 
P           0.463622000000000    0.364914000000000    0.250000000000000 
P           0.536378000000000    0.901293000000000    0.750000000000000 
P           0.635086000000000    0.098707000000000    0.250000000000000 
P           0.762331000000000    0.000000000000000    0.000000000000000 
P           0.762331000000000    0.000000000000000    0.500000000000000 
P           0.901293000000000    0.536378000000000    0.250000000000000 
K           0.000000000000000    0.000000000000000    0.000000000000000 
K           0.000000000000000    0.000000000000000    0.500000000000000 
K           0.333333000000000    0.666667000000000    0.250000000000000 
K           0.666667000000000    0.333333000000000    0.750000000000000 
%ENDBLOCK POSITIONS_FRAC
