# Cell file generated by matador (Matthew Evans 2016)

%BLOCK LATTICE_CART
9.19873 0.0 0.0
-4.59936 7.96633 0.0
0.0 0.0 8.06908
%ENDBLOCK LATTICE_CART

%BLOCK POSITIONS_FRAC
P          -0.000000000000000    0.251143000000000    0.500000000000000 
P          -0.000000000000000    0.500000000000000    0.000000000000000 
P          -0.000000000000000    0.748857000000000    0.500000000000000 
P           0.251143000000000   -0.000000000000000    0.500000000000000 
P           0.251143000000000    0.251143000000000    0.500000000000000 
P           0.500000000000000   -0.000000000000000    0.000000000000000 
P           0.500000000000000    0.500000000000000    0.000000000000000 
P           0.748857000000000   -0.000000000000000    0.500000000000000 
P           0.748857000000000    0.748857000000000    0.500000000000000 
K          -0.000000000000000   -0.000000000000000    0.000000000000000 
K           0.241581000000000    0.483161000000000    0.590622000000000 
K           0.241581000000000    0.758419000000000    0.590622000000000 
K           0.333333000000000    0.666667000000000    0.824738000000000 
K           0.483161000000000    0.241581000000000    0.409378000000000 
K           0.516839000000000    0.758419000000000    0.590622000000000 
K           0.666667000000000    0.333333000000000    0.175262000000000 
K           0.758419000000000    0.241581000000000    0.409378000000000 
K           0.758419000000000    0.516839000000000    0.409378000000000 
%ENDBLOCK POSITIONS_FRAC
