# Cell file generated by matador (Matthew Evans 2016)

%BLOCK LATTICE_CART
8.97836 0.0 0.0
0.0 8.97836 0.0
0.0 0.0 6.92992
%ENDBLOCK LATTICE_CART

%BLOCK POSITIONS_FRAC
P           0.000000000000000    0.000000000000000    0.000000000000000 
P           0.500000000000000    0.500000000000000    0.000000000000000 
K           0.000000000000000    0.000000000000000    0.500000000000000 
K           0.000000000000000    0.500000000000000    0.500000000000000 
K           0.249529000000000    0.250471000000000    0.284909000000000 
K           0.249529000000000    0.250471000000000    0.715091000000000 
K           0.250471000000000    0.750471000000000    0.284909000000000 
K           0.250471000000000    0.750471000000000    0.715091000000000 
K           0.500000000000000    0.000000000000000    0.500000000000000 
K           0.500000000000000    0.500000000000000    0.500000000000000 
K           0.749529000000000    0.249529000000000    0.284909000000000 
K           0.749529000000000    0.249529000000000    0.715091000000000 
K           0.750471000000000    0.749529000000000    0.284909000000000 
K           0.750471000000000    0.749529000000000    0.715091000000000 
%ENDBLOCK POSITIONS_FRAC
