# Cell file generated by matador (Matthew Evans 2016)

%BLOCK LATTICE_CART
7.27488 0.0 0.0
0.0 7.75492 0.0
-2.77992 0.0 5.14519
%ENDBLOCK LATTICE_CART

%BLOCK POSITIONS_FRAC
P           0.000000000000000    0.000000000000000    0.000000000000000 
P           0.351126000000000    0.142047000000000    0.150080000000000 
P           0.351126000000000    0.857953000000000    0.150080000000000 
P           0.648874000000000    0.142047000000000    0.849920000000000 
P           0.648874000000000    0.857953000000000    0.849920000000000 
K           0.000000000000000    0.500000000000000    0.000000000000000 
K           0.500000000000000    0.000000000000000    0.000000000000000 
K           0.500000000000000    0.500000000000000    0.000000000000000 
K           0.500000000000000    0.500000000000000    0.500000000000000 
%ENDBLOCK POSITIONS_FRAC
