# Cell file generated by matador (Matthew Evans 2016)

%BLOCK LATTICE_CART
6.36178 -0.0 0.0
-3.18089 5.50946 0.0
0.0 0.0 6.65809
%ENDBLOCK LATTICE_CART

%BLOCK POSITIONS_FRAC
P           0.001346000000000    0.663147000000000    0.750817000000000 
P           0.067100000000000    0.192055000000000    0.997069000000000 
P           0.124955000000000    0.932900000000000    0.997069000000000 
P           0.336853000000000    0.338199000000000    0.750817000000000 
P           0.661801000000000    0.998654000000000    0.750817000000000 
P           0.666666000000000    0.333334000000000    0.155823000000000 
P           0.807945000000000    0.875045000000000    0.997069000000000 
K           0.333333000000000    0.666667000000000    0.209288000000000 
K           0.333333000000000    0.666667000000000    0.547704000000000 
%ENDBLOCK POSITIONS_FRAC
