# Cell file generated by matador (Matthew Evans 2016)

%BLOCK LATTICE_CART
7.29321 0.0 0.0
0.0 7.29321 0.0
0.0 0.0 5.76588
%ENDBLOCK LATTICE_CART

%BLOCK POSITIONS_FRAC
P           0.000000000000000    0.000000000000000    0.500000000000000 
K           0.000000000000000    0.000000000000000    0.000000000000000 
K           0.107540000000000    0.204013000000000    0.188114000000000 
K           0.204013000000000    0.892460000000000    0.811886000000000 
K           0.500000000000000    0.500000000000000    0.000000000000000 
K           0.500000000000000    0.500000000000000    0.500000000000000 
K           0.795987000000000    0.107540000000000    0.811886000000000 
K           0.892460000000000    0.795987000000000    0.188114000000000 
%ENDBLOCK POSITIONS_FRAC
