# Cell file generated by matador (Matthew Evans 2016)

%BLOCK LATTICE_CART
6.34324 0.0 0.0
0.0 7.50196 0.0
0.0 0.0 7.56876
%ENDBLOCK LATTICE_CART

%BLOCK POSITIONS_FRAC
P           0.500000000000000    0.084826000000000    0.914600000000000 
P           0.500000000000000    0.318373000000000    0.178134000000000 
P           0.500000000000000    0.681627000000000    0.678134000000000 
P           0.500000000000000    0.915174000000000    0.414600000000000 
K           0.000000000000000    0.016420000000000    0.388552000000000 
K           0.000000000000000    0.277941000000000    0.280211000000000 
K           0.000000000000000    0.722059000000000    0.780211000000000 
K           0.000000000000000    0.983580000000000    0.888552000000000 
K           0.500000000000000    0.284730000000000    0.721900000000000 
K           0.500000000000000    0.715270000000000    0.221900000000000 
%ENDBLOCK POSITIONS_FRAC
