# Cell file generated by matador (Matthew Evans 2016)

%BLOCK LATTICE_CART
8.47239 0.0 0.0
-4.23619 7.3373 0.0
0.0 0.0 8.22945
%ENDBLOCK LATTICE_CART

%BLOCK POSITIONS_FRAC
P           0.000000000000000    0.142201000000000    0.833333000000000 
P           0.000000000000000    0.461102000000000    0.833333000000000 
P           0.000000000000000    0.791110000000000    0.833333000000000 
P           0.000000000000000    0.838088000000000    0.333333000000000 
P           0.142201000000000   -0.000000000000000    0.166667000000000 
P           0.161912000000000    0.161912000000000   -0.000000000000000 
P           0.208890000000000    0.208890000000000    0.500000000000000 
P           0.461102000000000   -0.000000000000000    0.166667000000000 
P           0.538898000000000    0.538898000000000    0.500000000000000 
P           0.791110000000000   -0.000000000000000    0.166667000000000 
P           0.838088000000000   -0.000000000000000    0.666667000000000 
P           0.857799000000000    0.857799000000000    0.500000000000000 
K           0.236608000000000    0.558511000000000    0.983204000000000 
K           0.321903000000000    0.763392000000000    0.316537000000000 
K           0.441489000000000    0.678097000000000    0.649871000000000 
K           0.558511000000000    0.236608000000000    0.016796000000000 
K           0.678097000000000    0.441489000000000    0.350129000000000 
K           0.763392000000000    0.321903000000000    0.683463000000000 
%ENDBLOCK POSITIONS_FRAC
