# Cell file generated by matador (Matthew Evans 2016)

%BLOCK LATTICE_CART
10.264 0.0 0.0
-5.132 8.88888 0.0
0.0 0.0 4.90652
%ENDBLOCK LATTICE_CART

%BLOCK POSITIONS_FRAC
P           0.000000000000000    0.000000000000000    0.138865000000000 
P           0.000000000000000    0.000000000000000    0.861135000000000 
P           0.094033000000000    0.188065000000000   -0.000000000000000 
P           0.094033000000000    0.905967000000000   -0.000000000000000 
P           0.333333000000000    0.666667000000000   -0.000000000000000 
P           0.666667000000000    0.333333000000000   -0.000000000000000 
P           0.811935000000000    0.905967000000000   -0.000000000000000 
K           0.310453000000000    0.018890000000000    0.500000000000000 
K           0.310453000000000    0.291563000000000    0.500000000000000 
K           0.333333000000000    0.666667000000000    0.500000000000000 
K           0.708437000000000    0.018890000000000    0.500000000000000 
K           0.708437000000000    0.689547000000000    0.500000000000000 
K           0.981110000000000    0.291563000000000    0.500000000000000 
K           0.981110000000000    0.689547000000000    0.500000000000000 
%ENDBLOCK POSITIONS_FRAC
