# Cell file generated by matador (Matthew Evans 2016)

%BLOCK LATTICE_CART
10.6605 0.0 0.0
0.0 10.6605 0.0
0.0 0.0 8.71623
%ENDBLOCK LATTICE_CART

%BLOCK POSITIONS_FRAC
P           0.000000000000000    0.000000000000000    0.500000000000000 
P           0.000000000000000    0.500000000000000    0.000000000000000 
P           0.000000000000000    0.500000000000000    0.500000000000000 
P           0.500000000000000    0.000000000000000    0.000000000000000 
P           0.500000000000000    0.000000000000000    0.500000000000000 
P           0.500000000000000    0.500000000000000    0.000000000000000 
K           0.000000000000000    0.000000000000000    0.000000000000000 
K           0.004701000000000    0.761696000000000    0.500000000000000 
K           0.230394000000000    0.230394000000000    0.286472000000000 
K           0.230394000000000    0.230394000000000    0.713528000000000 
K           0.238304000000000    0.995299000000000    0.500000000000000 
K           0.261696000000000    0.495299000000000    0.000000000000000 
K           0.269606000000000    0.730394000000000    0.213528000000000 
K           0.269606000000000    0.730394000000000    0.786472000000000 
K           0.495299000000000    0.261696000000000    0.000000000000000 
K           0.500000000000000    0.500000000000000    0.500000000000000 
K           0.504701000000000    0.738304000000000    0.000000000000000 
K           0.730394000000000    0.269606000000000    0.213528000000000 
K           0.730394000000000    0.269606000000000    0.786472000000000 
K           0.738304000000000    0.504701000000000    0.000000000000000 
K           0.761696000000000    0.004701000000000    0.500000000000000 
K           0.769606000000000    0.769606000000000    0.286472000000000 
K           0.769606000000000    0.769606000000000    0.713528000000000 
K           0.995299000000000    0.238304000000000    0.500000000000000 
%ENDBLOCK POSITIONS_FRAC
