# Cell file generated by matador (Matthew Evans 2016)

%BLOCK LATTICE_CART
7.97026 0.0 0.0
0.0 7.97026 0.0
0.0 0.0 8.58952
%ENDBLOCK LATTICE_CART

%BLOCK POSITIONS_FRAC
P           0.175655000000000    0.175655000000000    0.500000000000000 
P           0.175655000000000    0.824345000000000    0.500000000000000 
P           0.324345000000000    0.324345000000000   -0.000000000000000 
P           0.324345000000000    0.675655000000000   -0.000000000000000 
P           0.675655000000000    0.324345000000000   -0.000000000000000 
P           0.675655000000000    0.675655000000000   -0.000000000000000 
P           0.824345000000000    0.175655000000000    0.500000000000000 
P           0.824345000000000    0.824345000000000    0.500000000000000 
K           0.000000000000000    0.000000000000000   -0.000000000000000 
K           0.000000000000000    0.500000000000000   -0.000000000000000 
K           0.000000000000000    0.500000000000000    0.500000000000000 
K           0.500000000000000    0.000000000000000   -0.000000000000000 
K           0.500000000000000    0.000000000000000    0.500000000000000 
K           0.500000000000000    0.500000000000000    0.500000000000000 
%ENDBLOCK POSITIONS_FRAC
