# Cell file generated by matador (Matthew Evans 2016)

%BLOCK LATTICE_CART
8.06639 0.0 0.0
-4.0332 6.9857 0.0
0.0 0.0 7.56266
%ENDBLOCK LATTICE_CART

%BLOCK POSITIONS_FRAC
P           0.176506000000000    0.353011000000000    0.813725000000000 
P           0.176506000000000    0.823494000000000    0.813725000000000 
P           0.333333000000000    0.666667000000000    0.870330000000000 
P           0.496662000000000    0.161124000000000    0.935430000000000 
P           0.496662000000000    0.335538000000000    0.935430000000000 
P           0.646989000000000    0.823494000000000    0.813725000000000 
P           0.664462000000000    0.161124000000000    0.935430000000000 
P           0.664462000000000    0.503338000000000    0.935430000000000 
P           0.838876000000000    0.335538000000000    0.935430000000000 
P           0.838876000000000    0.503338000000000    0.935430000000000 
K           0.119313000000000    0.238626000000000    0.116974000000000 
K           0.119313000000000    0.880687000000000    0.116974000000000 
K           0.333333000000000    0.666667000000000    0.498455000000000 
K           0.761374000000000    0.880687000000000    0.116974000000000 
%ENDBLOCK POSITIONS_FRAC
