# Cell file generated by matador (Matthew Evans 2016)

%BLOCK LATTICE_CART
5.55717 0.0 0.0
0.0 6.50076 0.0
-0.210387 0.0 7.67422
%ENDBLOCK LATTICE_CART

%BLOCK POSITIONS_FRAC
P           0.500000000000000    0.820093000000000    0.000000000000000 
K           0.000000000000000    0.852223000000000    0.000000000000000 
K           0.210068000000000    0.874495000000000    0.271692000000000 
K           0.395378000000000    0.495955000000000    0.767036000000000 
K           0.500000000000000    0.255348000000000    0.000000000000000 
K           0.500000000000000    0.390955000000000    0.500000000000000 
K           0.604622000000000    0.495955000000000    0.232964000000000 
K           0.789932000000000    0.874495000000000    0.728308000000000 
%ENDBLOCK POSITIONS_FRAC
