# Cell file generated by matador (Matthew Evans 2016)

%BLOCK LATTICE_CART
8.74178 0.0 0.0
-2.37426 6.61856 0.0
1.79392 0.335492 5.70283
%ENDBLOCK LATTICE_CART

%BLOCK POSITIONS_FRAC
P           0.000000000000000    0.000000000000000    0.500000000000000 
P           0.000000000000000    0.500000000000000    0.500000000000000 
P           0.129254000000000    0.260279000000000    0.860909000000000 
P           0.134117000000000    0.893646000000000    0.304803000000000 
P           0.500000000000000    0.000000000000000    0.500000000000000 
P           0.500000000000000    0.500000000000000    0.500000000000000 
P           0.865883000000000    0.106354000000000    0.695197000000000 
P           0.870746000000000    0.739721000000000    0.139091000000000 
K           0.201398000000000    0.381961000000000    0.391822000000000 
K           0.496765000000000    0.739143000000000    0.715488000000000 
K           0.503235000000000    0.260857000000000    0.284512000000000 
K           0.798602000000000    0.618039000000000    0.608178000000000 
%ENDBLOCK POSITIONS_FRAC
