# Cell file generated by matador (Matthew Evans 2016)

%BLOCK LATTICE_CART
7.22365 0.0 0.0
0.0 7.22365 0.0
0.0 0.0 7.22365
%ENDBLOCK LATTICE_CART

%BLOCK POSITIONS_FRAC
P           0.000000000000000    0.000000000000000    0.276869000000000 
P           0.000000000000000    0.000000000000000    0.723132000000000 
P           0.000000000000000    0.276869000000000    0.000000000000000 
P           0.000000000000000    0.723132000000000    0.000000000000000 
P           0.223131000000000    0.500000000000000    0.500000000000000 
P           0.276869000000000    0.000000000000000    0.000000000000000 
P           0.500000000000000    0.223131000000000    0.500000000000000 
P           0.500000000000000    0.500000000000000    0.223131000000000 
P           0.500000000000000    0.500000000000000    0.776868000000000 
P           0.500000000000000    0.776868000000000    0.500000000000000 
P           0.723132000000000    0.000000000000000    0.000000000000000 
P           0.776868000000000    0.500000000000000    0.500000000000000 
K           0.000000000000000    0.000000000000000    0.000000000000000 
K           0.500000000000000    0.500000000000000    0.500000000000000 
%ENDBLOCK POSITIONS_FRAC
