# Cell file generated by matador (Matthew Evans 2016)

%BLOCK LATTICE_CART
9.08644 0.0 0.0
0.0 5.14876 0.0
0.854142 0.0 6.71685
%ENDBLOCK LATTICE_CART

%BLOCK POSITIONS_FRAC
P           0.102105000000000    0.812857000000000    0.928831000000000 
P           0.190793000000000    0.749477000000000    0.194589000000000 
P           0.809207000000000    0.749477000000000    0.805411000000000 
P           0.897895000000000    0.812857000000000    0.071169000000000 
K           0.000000000000000    0.972743000000000    0.500000000000000 
K           0.208882000000000    0.099958000000000    0.374007000000000 
K           0.416408000000000    0.524932000000000    0.751515000000000 
K           0.583592000000000    0.524932000000000    0.248485000000000 
K           0.791118000000000    0.099958000000000    0.625993000000000 
%ENDBLOCK POSITIONS_FRAC
