# Cell file generated by matador (Matthew Evans 2016)

%BLOCK LATTICE_CART
9.85083 0.0 0.0
-4.92541 8.53107 0.0
0.0 0.0 7.73569
%ENDBLOCK LATTICE_CART

%BLOCK POSITIONS_FRAC
P           0.113586000000000    0.227172000000000    0.036420000000000 
P           0.113586000000000    0.886414000000000    0.036420000000000 
P           0.333333000000000    0.666667000000000    0.446327000000000 
P           0.772828000000000    0.886414000000000    0.036420000000000 
K           0.032033000000000    0.516016000000000    0.759728000000000 
K           0.102966000000000    0.205931000000000    0.718549000000000 
K           0.102966000000000    0.897034000000000    0.718549000000000 
K           0.409750000000000    0.204875000000000    0.422123000000000 
K           0.483984000000000    0.516016000000000    0.759728000000000 
K           0.483984000000000    0.967967000000000    0.759728000000000 
K           0.564532000000000    0.129065000000000    0.110632000000000 
K           0.564532000000000    0.435468000000000    0.110632000000000 
K           0.794069000000000    0.897034000000000    0.718549000000000 
K           0.795125000000000    0.204875000000000    0.422123000000000 
K           0.795125000000000    0.590250000000000    0.422123000000000 
K           0.870935000000000    0.435468000000000    0.110632000000000 
%ENDBLOCK POSITIONS_FRAC
