# Cell file generated by matador (Matthew Evans 2016)

%BLOCK LATTICE_CART
5.41513 0.0 0.0
-2.70757 4.68964 0.0
0.0 0.0 8.91891
%ENDBLOCK LATTICE_CART

%BLOCK POSITIONS_FRAC
P           0.538613000000000    0.077227000000000    0.778550000000000 
P           0.538613000000000    0.461387000000000    0.778550000000000 
P           0.922773000000000    0.461387000000000    0.778550000000000 
K          -0.000000000000000    0.000000000000000    0.418851000000000 
K           0.403121000000000    0.201561000000000    0.148821000000000 
K           0.798439000000000    0.201561000000000    0.148821000000000 
K           0.798439000000000    0.596879000000000    0.148821000000000 
%ENDBLOCK POSITIONS_FRAC
