# Cell file generated by matador (Matthew Evans 2016)

%BLOCK LATTICE_CART
6.62009 0.0 0.0
0.0 8.25578 0.0
-0.651865 0.0 6.0303
%ENDBLOCK LATTICE_CART

%BLOCK POSITIONS_FRAC
P           0.123490000000000    0.152116000000000    0.369107000000000 
P           0.123490000000000    0.847884000000000    0.369107000000000 
P           0.602781000000000    0.416737000000000    0.969668000000000 
P           0.602781000000000    0.583263000000000    0.969668000000000 
P           0.723575000000000    0.275546000000000    0.417528000000000 
P           0.723575000000000    0.724454000000000    0.417528000000000 
P           0.867719000000000    0.347306000000000    0.070300000000000 
P           0.867719000000000    0.652694000000000    0.070300000000000 
K           0.066793000000000    0.252891000000000    0.781794000000000 
K           0.066793000000000    0.747109000000000    0.781794000000000 
K           0.386875000000000    0.305293000000000    0.661743000000000 
K           0.386875000000000    0.694707000000000    0.661743000000000 
K           0.398467000000000    0.000000000000000    0.013318000000000 
K           0.809767000000000    0.000000000000000    0.122885000000000 
%ENDBLOCK POSITIONS_FRAC
