# Cell file generated by matador (Matthew Evans 2016)

%BLOCK LATTICE_CART
10.4365 0.0 0.0
-5.21827 9.03831 0.0
0.0 0.0 8.3575
%ENDBLOCK LATTICE_CART

%BLOCK POSITIONS_FRAC
P           0.000000000000000    0.000000000000000    0.183000000000000 
P           0.333333000000000    0.666667000000000    0.085047000000000 
P           0.436739000000000    0.218370000000000    0.848024000000000 
P           0.781630000000000    0.218370000000000    0.848024000000000 
P           0.781630000000000    0.563261000000000    0.848024000000000 
K           0.125725000000000    0.251449000000000    0.780578000000000 
K           0.125725000000000    0.874275000000000    0.780578000000000 
K           0.209738000000000    0.419475000000000    0.261753000000000 
K           0.209738000000000    0.790262000000000    0.261753000000000 
K           0.250850000000000    0.125425000000000    0.441080000000000 
K           0.507911000000000    0.015822000000000    0.418490000000000 
K           0.507911000000000    0.492089000000000    0.418490000000000 
K           0.510083000000000    0.020165000000000    0.784846000000000 
K           0.510083000000000    0.489917000000000    0.784846000000000 
K           0.580525000000000    0.790262000000000    0.261753000000000 
K           0.748551000000000    0.874275000000000    0.780578000000000 
K           0.874575000000000    0.125425000000000    0.441080000000000 
K           0.874575000000000    0.749150000000000    0.441080000000000 
K           0.979835000000000    0.489917000000000    0.784846000000000 
K           0.984178000000000    0.492089000000000    0.418490000000000 
%ENDBLOCK POSITIONS_FRAC
