# Cell file generated by matador (Matthew Evans 2016)

%BLOCK LATTICE_CART
8.80797 0.0 0.0
0.0 8.80797 0.0
0.0 0.0 7.55381
%ENDBLOCK LATTICE_CART

%BLOCK POSITIONS_FRAC
P           0.500000000000000    0.500000000000000    0.000000000000000 
P           0.500000000000000    0.500000000000000    0.250000000000000 
P           0.500000000000000    0.500000000000000    0.500000000000000 
P           0.500000000000000    0.500000000000000    0.750000000000000 
K           0.000000000000000    0.000000000000000    0.000000000000000 
K           0.000000000000000    0.000000000000000    0.500000000000000 
K           0.298899000000000    0.298899000000000    0.000000000000000 
K           0.298899000000000    0.701101000000000    0.500000000000000 
K           0.347245000000000    0.347245000000000    0.344368000000000 
K           0.347245000000000    0.347245000000000    0.655632000000000 
K           0.347245000000000    0.652755000000000    0.155632000000000 
K           0.347245000000000    0.652755000000000    0.844368000000000 
K           0.652755000000000    0.347245000000000    0.155632000000000 
K           0.652755000000000    0.347245000000000    0.844368000000000 
K           0.652755000000000    0.652755000000000    0.344368000000000 
K           0.652755000000000    0.652755000000000    0.655632000000000 
K           0.701101000000000    0.298899000000000    0.500000000000000 
K           0.701101000000000    0.701101000000000    0.000000000000000 
%ENDBLOCK POSITIONS_FRAC
