# Cell file generated by matador (Matthew Evans 2016)

%BLOCK LATTICE_CART
7.19698 0.0 0.0
0.0 7.19698 0.0
0.0 0.0 7.19698
%ENDBLOCK LATTICE_CART

%BLOCK POSITIONS_FRAC
P           0.000000000000000    0.000000000000000    0.000000000000000 
P           0.277895000000000    0.500000000000000    0.500000000000000 
P           0.500000000000000    0.277895000000000    0.500000000000000 
P           0.500000000000000    0.500000000000000    0.277895000000000 
P           0.500000000000000    0.500000000000000    0.500000000000000 
P           0.500000000000000    0.500000000000000    0.722105000000000 
P           0.500000000000000    0.722105000000000    0.500000000000000 
P           0.722105000000000    0.500000000000000    0.500000000000000 
K           0.000000000000000    0.000000000000000    0.500000000000000 
K           0.000000000000000    0.500000000000000    0.000000000000000 
K           0.000000000000000    0.500000000000000    0.500000000000000 
K           0.500000000000000    0.000000000000000    0.000000000000000 
K           0.500000000000000    0.000000000000000    0.500000000000000 
K           0.500000000000000    0.500000000000000    0.000000000000000 
%ENDBLOCK POSITIONS_FRAC
