# Cell file generated by matador (Matthew Evans 2016)

%BLOCK LATTICE_CART
10.8126 0.0 0.0
0.0 4.62523 0.0
-0.139672 0.0 7.15053
%ENDBLOCK LATTICE_CART

%BLOCK POSITIONS_FRAC
P           0.114636000000000    0.434530000000000    0.192841000000000 
P           0.381861000000000    0.848004000000000    0.573308000000000 
P           0.457405000000000    0.483359000000000    0.339482000000000 
P           0.542595000000000    0.483359000000000    0.660518000000000 
P           0.618139000000000    0.848004000000000    0.426692000000000 
P           0.885364000000000    0.434530000000000    0.807159000000000 
K           0.000000000000000    0.210803000000000    0.000000000000000 
K           0.000000000000000    0.975936000000000    0.500000000000000 
K           0.141692000000000    0.439068000000000    0.581776000000000 
K           0.500000000000000    0.751034000000000    0.000000000000000 
K           0.858308000000000    0.439068000000000    0.418224000000000 
%ENDBLOCK POSITIONS_FRAC
