# Cell file generated by matador (Matthew Evans 2016)

%BLOCK LATTICE_CART
7.40644 0.0 0.0
0.0 7.40644 0.0
0.0 0.0 6.71974
%ENDBLOCK LATTICE_CART

%BLOCK POSITIONS_FRAC
P           0.043353000000000    0.771856000000000    0.495016000000000 
P           0.228144000000000    0.043353000000000    0.745016000000000 
P           0.280365000000000    0.624327000000000    0.237473000000000 
P           0.338910000000000    0.548295000000000    0.984577000000000 
P           0.375673000000000    0.280365000000000    0.487473000000000 
P           0.451705000000000    0.338910000000000    0.234577000000000 
P           0.548295000000000    0.661090000000000    0.734577000000000 
P           0.624327000000000    0.719635000000000    0.987473000000000 
P           0.661090000000000    0.451705000000000    0.484577000000000 
P           0.719635000000000    0.375673000000000    0.737473000000000 
P           0.771856000000000    0.956647000000000    0.245016000000000 
P           0.956647000000000    0.228144000000000    0.995016000000000 
K           0.086343000000000    0.767618000000000    0.973219000000000 
K           0.232382000000000    0.086343000000000    0.223219000000000 
K           0.767618000000000    0.913657000000000    0.723219000000000 
K           0.913657000000000    0.232382000000000    0.473219000000000 
%ENDBLOCK POSITIONS_FRAC
