# Cell file generated by matador (Matthew Evans 2016)

%BLOCK LATTICE_CART
7.33768 0.0 0.0
0.0 9.25047 0.0
-0.703826 0.0 9.47102
%ENDBLOCK LATTICE_CART

%BLOCK POSITIONS_FRAC
P           0.114091000000000    0.191878000000000    0.717934000000000 
P           0.114091000000000    0.808122000000000    0.717934000000000 
P           0.614091000000000    0.308122000000000    0.717934000000000 
P           0.614091000000000    0.691878000000000    0.717934000000000 
K           0.118320000000000    0.500000000000000    0.318327000000000 
K           0.124002000000000    0.500000000000000    0.887307000000000 
K           0.287288000000000    0.000000000000000    0.044222000000000 
K           0.328032000000000    0.000000000000000    0.652126000000000 
K           0.420742000000000    0.500000000000000    0.577235000000000 
K           0.499513000000000    0.500000000000000    0.234259000000000 
K           0.618320000000000    0.000000000000000    0.318327000000000 
K           0.624002000000000    0.000000000000000    0.887307000000000 
K           0.787288000000000    0.500000000000000    0.044222000000000 
K           0.828032000000000    0.500000000000000    0.652126000000000 
K           0.920742000000000    0.000000000000000    0.577235000000000 
K           0.999513000000000    0.000000000000000    0.234259000000000 
%ENDBLOCK POSITIONS_FRAC
