# Cell file generated by matador (Matthew Evans 2016)

%BLOCK LATTICE_CART
5.53807 0.0 0.0
0.0 10.4751 0.0
-3.01049 0.0 6.18866
%ENDBLOCK LATTICE_CART

%BLOCK POSITIONS_FRAC
P           0.000000000000000    0.433651000000000    0.000000000000000 
P           0.488678000000000    0.239192000000000    0.360593000000000 
P           0.500000000000000    0.534932000000000    0.500000000000000 
P           0.500000000000000    0.931571000000000    0.000000000000000 
P           0.511322000000000    0.239192000000000    0.639407000000000 
K           0.000000000000000    0.162563000000000    0.000000000000000 
K           0.000000000000000    0.584210000000000    0.500000000000000 
K           0.000000000000000    0.827601000000000    0.000000000000000 
K           0.500000000000000    0.182521000000000    0.000000000000000 
K           0.500000000000000    0.535371000000000    0.000000000000000 
K           0.500000000000000    0.730386000000000    0.500000000000000 
%ENDBLOCK POSITIONS_FRAC
