# Cell file generated by matador (Matthew Evans 2016)

%BLOCK LATTICE_CART
9.35605 0.0 0.0
0.0 9.36932 0.0
-2.3128 0.0 4.95144
%ENDBLOCK LATTICE_CART

%BLOCK POSITIONS_FRAC
P           0.000000000000000    0.000000000000000    0.000000000000000 
P           0.000000000000000    0.500000000000000    0.500000000000000 
P           0.092318000000000    0.129374000000000    0.563791000000000 
P           0.092318000000000    0.870626000000000    0.563791000000000 
P           0.106060000000000    0.074432000000000    0.044692000000000 
P           0.106060000000000    0.925568000000000    0.044692000000000 
P           0.338760000000000    0.290733000000000    0.345532000000000 
P           0.338760000000000    0.709267000000000    0.345532000000000 
P           0.500000000000000    0.000000000000000    0.500000000000000 
P           0.661240000000000    0.290733000000000    0.654468000000000 
P           0.661240000000000    0.709267000000000    0.654468000000000 
P           0.893940000000000    0.074432000000000    0.955308000000000 
P           0.893940000000000    0.925568000000000    0.955308000000000 
P           0.907682000000000    0.129374000000000    0.436209000000000 
P           0.907682000000000    0.870626000000000    0.436209000000000 
K           0.000000000000000    0.500000000000000    0.000000000000000 
K           0.292204000000000    0.500000000000000    0.464115000000000 
K           0.707796000000000    0.500000000000000    0.535885000000000 
%ENDBLOCK POSITIONS_FRAC
