# Cell file generated by matador (Matthew Evans 2016)

%BLOCK LATTICE_CART
8.91552 0.0 0.0
0.0 8.69995 0.0
0.492968 0.0 6.20152
%ENDBLOCK LATTICE_CART

%BLOCK POSITIONS_FRAC
P           0.000000000000000    0.365002000000000    0.500000000000000 
P           0.000000000000000    0.419813000000000    0.000000000000000 
P           0.000000000000000    0.553446000000000    0.000000000000000 
P           0.000000000000000    0.940293000000000    0.500000000000000 
P           0.500000000000000    0.478903000000000    0.000000000000000 
P           0.500000000000000    0.730302000000000    0.500000000000000 
P           0.500000000000000    0.927155000000000    0.500000000000000 
K           0.000000000000000    0.105323000000000    0.000000000000000 
K           0.000000000000000    0.628072000000000    0.500000000000000 
K           0.354904000000000    0.187962000000000    0.775410000000000 
K           0.359024000000000    0.976163000000000    0.067556000000000 
K           0.500000000000000    0.240884000000000    0.000000000000000 
K           0.640976000000000    0.976163000000000    0.932444000000000 
K           0.645096000000000    0.187962000000000    0.224590000000000 
%ENDBLOCK POSITIONS_FRAC
