# Cell file generated by matador (Matthew Evans 2016)

%BLOCK LATTICE_CART
11.6559 0.0 0.0
0.0 11.3991 0.0
0.0 0.0 10.1586
%ENDBLOCK LATTICE_CART

%BLOCK POSITIONS_FRAC
P           0.000000000000000    0.445871000000000    0.250000000000000 
P           0.000000000000000    0.500000000000000   -0.000000000000000 
P           0.000000000000000    0.500000000000000    0.500000000000000 
P           0.000000000000000    0.554129000000000    0.750000000000000 
P           0.500000000000000    0.000000000000000   -0.000000000000000 
P           0.500000000000000    0.000000000000000    0.500000000000000 
P           0.500000000000000    0.054129000000000    0.750000000000000 
P           0.500000000000000    0.945871000000000    0.250000000000000 
K           0.166191000000000    0.069691000000000    0.750000000000000 
K           0.166191000000000    0.930309000000000    0.250000000000000 
K           0.174419000000000    0.367891000000000    0.750000000000000 
K           0.174419000000000    0.632109000000000    0.250000000000000 
K           0.250000000000000    0.250000000000000   -0.000000000000000 
K           0.250000000000000    0.250000000000000    0.500000000000000 
K           0.250000000000000    0.750000000000000   -0.000000000000000 
K           0.250000000000000    0.750000000000000    0.500000000000000 
K           0.325581000000000    0.132109000000000    0.250000000000000 
K           0.325581000000000    0.867891000000000    0.750000000000000 
K           0.333809000000000    0.430309000000000    0.250000000000000 
K           0.333809000000000    0.569691000000000    0.750000000000000 
K           0.666191000000000    0.430309000000000    0.250000000000000 
K           0.666191000000000    0.569691000000000    0.750000000000000 
K           0.674419000000000    0.132109000000000    0.250000000000000 
K           0.674419000000000    0.867891000000000    0.750000000000000 
K           0.750000000000000    0.250000000000000   -0.000000000000000 
K           0.750000000000000    0.250000000000000    0.500000000000000 
K           0.750000000000000    0.750000000000000   -0.000000000000000 
K           0.750000000000000    0.750000000000000    0.500000000000000 
K           0.825581000000000    0.367891000000000    0.750000000000000 
K           0.825581000000000    0.632109000000000    0.250000000000000 
K           0.833809000000000    0.069691000000000    0.750000000000000 
K           0.833809000000000    0.930309000000000    0.250000000000000 
%ENDBLOCK POSITIONS_FRAC
