# Cell file generated by matador (Matthew Evans 2016)

%BLOCK LATTICE_CART
8.95319 0.0 0.0
0.0 6.52107 0.0
0.0 0.0 8.41839
%ENDBLOCK LATTICE_CART

%BLOCK POSITIONS_FRAC
P           0.000000000000000    0.000000000000000    0.739611000000000 
P           0.000000000000000    0.500000000000000    0.239611000000000 
P           0.239537000000000    0.715826000000000    0.344174000000000 
P           0.239537000000000    0.784174000000000    0.844174000000000 
P           0.322766000000000    0.203887000000000    0.447830000000000 
P           0.322766000000000    0.296113000000000    0.947830000000000 
P           0.677234000000000    0.703887000000000    0.947830000000000 
P           0.677234000000000    0.796113000000000    0.447830000000000 
P           0.760463000000000    0.215826000000000    0.844174000000000 
P           0.760463000000000    0.284174000000000    0.344174000000000 
K           0.170445000000000    0.741643000000000    0.104416000000000 
K           0.170445000000000    0.758357000000000    0.604416000000000 
K           0.500000000000000    0.000000000000000    0.291902000000000 
K           0.500000000000000    0.500000000000000    0.791902000000000 
K           0.829555000000000    0.241643000000000    0.604416000000000 
K           0.829555000000000    0.258357000000000    0.104416000000000 
%ENDBLOCK POSITIONS_FRAC
