# Cell file generated by matador (Matthew Evans 2016)

%BLOCK LATTICE_CART
6.68361 0.0 0.0
0.0 4.59833 0.0
0.0 0.0 10.8644
%ENDBLOCK LATTICE_CART

%BLOCK POSITIONS_FRAC
P          -0.000000000000000    0.000000000000000    0.840451000000000 
P           0.500000000000000    0.500000000000000    0.159549000000000 
K          -0.000000000000000    0.000000000000000    0.133577000000000 
K          -0.000000000000000    0.500000000000000    0.435529000000000 
K          -0.000000000000000    0.500000000000000    0.902124000000000 
K           0.500000000000000    0.000000000000000    0.097876000000000 
K           0.500000000000000    0.000000000000000    0.564471000000000 
K           0.500000000000000    0.500000000000000    0.866423000000000 
%ENDBLOCK POSITIONS_FRAC
