# Cell file generated by matador (Matthew Evans 2016)

%BLOCK LATTICE_CART
6.05042 0.0 0.0
-3.02521 5.23981 0.0
0.0 0.0 7.63737
%ENDBLOCK LATTICE_CART

%BLOCK POSITIONS_FRAC
P           0.000000000000000    0.000000000000000    0.031603000000000 
P           0.282666000000000    0.141333000000000    0.534430000000000 
P           0.524215000000000    0.262107000000000    0.595817000000000 
P           0.737893000000000    0.262107000000000    0.595817000000000 
P           0.737893000000000    0.475785000000000    0.595817000000000 
P           0.858667000000000    0.141333000000000    0.534430000000000 
P           0.858667000000000    0.717334000000000    0.534430000000000 
K           0.000000000000000    0.000000000000000    0.295020000000000 
K           0.333333000000000    0.666667000000000    0.890837000000000 
%ENDBLOCK POSITIONS_FRAC
