# Cell file generated by matador (Matthew Evans 2016)

%BLOCK LATTICE_CART
8.21283 0.0 0.0
0.0 8.86485 0.0
0.527823 0.0 9.70259
%ENDBLOCK LATTICE_CART

%BLOCK POSITIONS_FRAC
P           0.393870000000000    0.000000000000000    0.910770000000000 
P           0.500935000000000    0.000000000000000    0.338188000000000 
P           0.597979000000000    0.000000000000000    0.009611000000000 
P           0.807464000000000    0.000000000000000    0.364538000000000 
P           0.849457000000000    0.000000000000000    0.764776000000000 
K           0.020876000000000    0.000000000000000    0.259521000000000 
K           0.113084000000000    0.500000000000000    0.932394000000000 
K           0.246431000000000    0.000000000000000    0.755828000000000 
K           0.288604000000000    0.000000000000000    0.444587000000000 
K           0.340727000000000    0.000000000000000    0.111628000000000 
K           0.376207000000000    0.500000000000000    0.248823000000000 
K           0.456442000000000    0.500000000000000    0.627542000000000 
K           0.609599000000000    0.000000000000000    0.808220000000000 
K           0.626860000000000    0.000000000000000    0.507031000000000 
K           0.681537000000000    0.000000000000000    0.196555000000000 
K           0.724052000000000    0.500000000000000    0.068440000000000 
K           0.845530000000000    0.500000000000000    0.671043000000000 
K           0.936304000000000    0.000000000000000    0.952432000000000 
K           0.964687000000000    0.000000000000000    0.579940000000000 
K           0.999483000000000    0.500000000000000    0.286616000000000 
%ENDBLOCK POSITIONS_FRAC
