# Cell file generated by matador (Matthew Evans 2016)

%BLOCK LATTICE_CART
10.0838 0.0 0.0
0.0 15.06 0.0
0.0 0.0 8.89136
%ENDBLOCK LATTICE_CART

%BLOCK POSITIONS_FRAC
P           0.136529000000000    0.000000000000000    0.500000000000000 
P           0.193203000000000    0.000000000000000    0.000000000000000 
P           0.306797000000000    0.500000000000000    0.500000000000000 
P           0.363471000000000    0.500000000000000    0.000000000000000 
P           0.636529000000000    0.500000000000000    0.000000000000000 
P           0.693203000000000    0.500000000000000    0.500000000000000 
P           0.806797000000000    0.000000000000000    0.000000000000000 
P           0.863471000000000    0.000000000000000    0.500000000000000 
K           0.000000000000000    0.143074000000000    0.322912000000000 
K           0.000000000000000    0.143074000000000    0.677088000000000 
K           0.000000000000000    0.856926000000000    0.322912000000000 
K           0.000000000000000    0.856926000000000    0.677088000000000 
K           0.148696000000000    0.369175000000000    0.500000000000000 
K           0.148696000000000    0.630825000000000    0.500000000000000 
K           0.150770000000000    0.272923000000000    0.000000000000000 
K           0.150770000000000    0.727077000000000    0.000000000000000 
K           0.349230000000000    0.227077000000000    0.500000000000000 
K           0.349230000000000    0.772923000000000    0.500000000000000 
K           0.351304000000000    0.130825000000000    0.000000000000000 
K           0.351304000000000    0.869175000000000    0.000000000000000 
K           0.500000000000000    0.356926000000000    0.177088000000000 
K           0.500000000000000    0.356926000000000    0.822912000000000 
K           0.500000000000000    0.643074000000000    0.177088000000000 
K           0.500000000000000    0.643074000000000    0.822912000000000 
K           0.648696000000000    0.130825000000000    0.000000000000000 
K           0.648696000000000    0.869175000000000    0.000000000000000 
K           0.650770000000000    0.227077000000000    0.500000000000000 
K           0.650770000000000    0.772923000000000    0.500000000000000 
K           0.849230000000000    0.272923000000000    0.000000000000000 
K           0.849230000000000    0.727077000000000    0.000000000000000 
K           0.851304000000000    0.369175000000000    0.500000000000000 
K           0.851304000000000    0.630825000000000    0.500000000000000 
%ENDBLOCK POSITIONS_FRAC
