# Cell file generated by matador (Matthew Evans 2016)

%BLOCK LATTICE_CART
4.87646 0.0 0.0
0.0 8.94142 0.0
0.0 0.0 6.95811
%ENDBLOCK LATTICE_CART

%BLOCK POSITIONS_FRAC
P           0.000000000000000    0.500000000000000    0.406814000000000 
P           0.500000000000000    0.500000000000000    0.406814000000000 
K           0.040817000000000    0.155347000000000    0.901615000000000 
K           0.250000000000000    0.603426000000000    0.118115000000000 
K           0.459183000000000    0.155347000000000    0.901615000000000 
K           0.540817000000000    0.844653000000000    0.901615000000000 
K           0.750000000000000    0.396574000000000    0.118115000000000 
K           0.959183000000000    0.844653000000000    0.901615000000000 
%ENDBLOCK POSITIONS_FRAC
