# Cell file generated by matador (Matthew Evans 2016)

%BLOCK LATTICE_CART
10.1304 0.0 0.0
-5.06522 8.77322 0.0
0.0 0.0 7.17594
%ENDBLOCK LATTICE_CART

%BLOCK POSITIONS_FRAC
P           0.000000000000000    0.000000000000000    0.578801000000000 
P           0.000000000000000    0.500000000000000    0.083022000000000 
P           0.500000000000000    0.000000000000000    0.083022000000000 
P           0.500000000000000    0.500000000000000    0.083022000000000 
K           0.000000000000000    0.314413000000000    0.880857000000000 
K           0.000000000000000    0.685587000000000    0.880857000000000 
K           0.200860000000000    0.401720000000000    0.532420000000000 
K           0.200860000000000    0.799140000000000    0.532420000000000 
K           0.314413000000000    0.000000000000000    0.880857000000000 
K           0.314413000000000    0.314413000000000    0.880857000000000 
K           0.401720000000000    0.200860000000000    0.532420000000000 
K           0.598280000000000    0.799140000000000    0.532420000000000 
K           0.685587000000000    0.000000000000000    0.880857000000000 
K           0.685587000000000    0.685587000000000    0.880857000000000 
K           0.799140000000000    0.200860000000000    0.532420000000000 
K           0.799140000000000    0.598280000000000    0.532420000000000 
%ENDBLOCK POSITIONS_FRAC
