# Cell file generated by matador (Matthew Evans 2016)

%BLOCK LATTICE_CART
8.24742 0.0 0.0
-4.12371 7.14248 0.0
0.0 0.0 8.48952
%ENDBLOCK LATTICE_CART

%BLOCK POSITIONS_FRAC
P          -0.000000000000000    0.500000000000000    0.000000000000000 
P          -0.000000000000000    0.500000000000000    0.500000000000000 
P           0.500000000000000   -0.000000000000000    0.000000000000000 
P           0.500000000000000   -0.000000000000000    0.500000000000000 
P           0.500000000000000    0.500000000000000    0.000000000000000 
P           0.500000000000000    0.500000000000000    0.500000000000000 
K           0.109287000000000    0.554644000000000    0.250000000000000 
K           0.333333000000000    0.666667000000000    0.750000000000000 
K           0.445356000000000    0.554644000000000    0.250000000000000 
K           0.445356000000000    0.890713000000000    0.250000000000000 
K           0.554644000000000    0.109287000000000    0.750000000000000 
K           0.554644000000000    0.445356000000000    0.750000000000000 
K           0.666667000000000    0.333333000000000    0.250000000000000 
K           0.890713000000000    0.445356000000000    0.750000000000000 
%ENDBLOCK POSITIONS_FRAC
