# Cell file generated by matador (Matthew Evans 2016)

%BLOCK LATTICE_CART
9.14375 -0.0 0.0
-4.57187 7.91872 0.0
0.0 0.0 7.28411
%ENDBLOCK LATTICE_CART

%BLOCK POSITIONS_FRAC
P           0.107512000000000    0.350646000000000    0.213894000000000 
P           0.197204000000000    0.450585000000000    0.322892000000000 
P           0.204845000000000    0.645758000000000    0.798602000000000 
P           0.219258000000000    0.751307000000000    0.735729000000000 
P           0.243134000000000    0.892488000000000    0.213894000000000 
P           0.248693000000000    0.467951000000000    0.735729000000000 
P           0.253381000000000    0.802796000000000    0.322892000000000 
P           0.354242000000000    0.559087000000000    0.798602000000000 
P           0.440913000000000    0.795155000000000    0.798602000000000 
P           0.463079000000000    0.211521000000000    0.409860000000000 
P           0.532049000000000    0.780742000000000    0.735729000000000 
P           0.549415000000000    0.746619000000000    0.322892000000000 
P           0.649354000000000    0.756866000000000    0.213894000000000 
P           0.748442000000000    0.536921000000000    0.409860000000000 
P           0.788479000000000    0.251558000000000    0.409860000000000 
K           0.000000000000000    0.000000000000000    0.857389000000000 
K           0.493790000000000    0.374503000000000    0.029257000000000 
K           0.625497000000000    0.119288000000000    0.029257000000000 
K           0.666667000000000    0.333333000000000    0.644023000000000 
K           0.880712000000000    0.506210000000000    0.029257000000000 
%ENDBLOCK POSITIONS_FRAC
