# Cell file generated by matador (Matthew Evans 2016)

%BLOCK LATTICE_CART
5.07776 0.0 0.0
-2.53888 4.39747 0.0
0.0 0.0 14.4066
%ENDBLOCK LATTICE_CART

%BLOCK POSITIONS_FRAC
P           0.000000000000000    0.000000000000000    0.933491000000000 
K           0.000000000000000    0.000000000000000    0.386370000000000 
K           0.000000000000000    0.000000000000000    0.619514000000000 
K           0.000000000000000    0.500000000000000    0.996874000000000 
K           0.333333000000000    0.666667000000000    0.483805000000000 
K           0.500000000000000    0.000000000000000    0.996874000000000 
K           0.500000000000000    0.500000000000000    0.996874000000000 
K           0.666667000000000    0.333333000000000    0.483805000000000 
%ENDBLOCK POSITIONS_FRAC
