# Cell file generated by matador (Matthew Evans 2016)

%BLOCK LATTICE_CART
9.62343 0.0 0.0
-4.81171 8.33413 0.0
0.0 0.0 10.5212
%ENDBLOCK LATTICE_CART

%BLOCK POSITIONS_FRAC
P           0.000000000000000    0.000000000000000    0.000000000000000 
P           0.000000000000000    0.000000000000000    0.190087000000000 
P           0.000000000000000    0.000000000000000    0.500000000000000 
P           0.000000000000000    0.000000000000000    0.809913000000000 
P           0.333333000000000    0.666667000000000    0.000000000000000 
P           0.666667000000000    0.333333000000000    0.000000000000000 
K           0.000000000000000    0.557770000000000    0.359402000000000 
K           0.000000000000000    0.557770000000000    0.640598000000000 
K           0.000000000000000    0.784293000000000    0.171050000000000 
K           0.000000000000000    0.784293000000000    0.828950000000000 
K           0.174642000000000    0.435342000000000    0.000000000000000 
K           0.215707000000000    0.215707000000000    0.171050000000000 
K           0.215707000000000    0.215707000000000    0.828950000000000 
K           0.260700000000000    0.825358000000000    0.000000000000000 
K           0.435342000000000    0.174642000000000    0.000000000000000 
K           0.442230000000000    0.442230000000000    0.359402000000000 
K           0.442230000000000    0.442230000000000    0.640598000000000 
K           0.557770000000000    0.000000000000000    0.359402000000000 
K           0.557770000000000    0.000000000000000    0.640598000000000 
K           0.564658000000000    0.739300000000000    0.000000000000000 
K           0.739300000000000    0.564658000000000    0.000000000000000 
K           0.784293000000000    0.000000000000000    0.171050000000000 
K           0.784293000000000    0.000000000000000    0.828950000000000 
K           0.825358000000000    0.260700000000000    0.000000000000000 
%ENDBLOCK POSITIONS_FRAC
