# Cell file generated by matador (Matthew Evans 2016)

%BLOCK LATTICE_CART
7.0527 0.0 0.0
0.0 6.51058 0.0
3.65416 0.0 6.73522
%ENDBLOCK LATTICE_CART

%BLOCK POSITIONS_FRAC
P           0.000000000000000    0.393825000000000    0.750000000000000 
P           0.000000000000000    0.606175000000000    0.250000000000000 
K           0.000000000000000    0.500000000000000    0.000000000000000 
K           0.000000000000000    0.500000000000000    0.500000000000000 
K           0.500000000000000    0.000000000000000    0.000000000000000 
K           0.500000000000000    0.000000000000000    0.500000000000000 
K           0.500000000000000    0.500000000000000    0.000000000000000 
K           0.500000000000000    0.500000000000000    0.500000000000000 
%ENDBLOCK POSITIONS_FRAC
