# Cell file generated by matador (Matthew Evans 2016)

%BLOCK LATTICE_CART
7.82804 0.0 0.0
0.0 7.82804 0.0
0.0 0.0 10.27
%ENDBLOCK LATTICE_CART

%BLOCK POSITIONS_FRAC
P           0.180660000000000    0.819340000000000    0.000000000000000 
P           0.319340000000000    0.319340000000000    0.500000000000000 
P           0.680660000000000    0.680660000000000    0.500000000000000 
P           0.819340000000000    0.180660000000000    0.000000000000000 
K          -0.000000000000000   -0.000000000000000    0.000000000000000 
K          -0.000000000000000   -0.000000000000000    0.500000000000000 
K           0.019701000000000    0.185142000000000    0.730246000000000 
K           0.185142000000000    0.019701000000000    0.269754000000000 
K           0.314858000000000    0.519701000000000    0.230246000000000 
K           0.480299000000000    0.685142000000000    0.769754000000000 
K           0.500000000000000    0.500000000000000    0.000000000000000 
K           0.500000000000000    0.500000000000000    0.500000000000000 
K           0.519701000000000    0.314858000000000    0.769754000000000 
K           0.685142000000000    0.480299000000000    0.230246000000000 
K           0.814858000000000    0.980299000000000    0.269754000000000 
K           0.980299000000000    0.814858000000000    0.730246000000000 
%ENDBLOCK POSITIONS_FRAC
