# Cell file generated by matador (Matthew Evans 2016)

%BLOCK LATTICE_CART
5.51154 0.0 0.0
-2.75577 4.77313 0.0
0.0 0.0 12.3944
%ENDBLOCK LATTICE_CART

%BLOCK POSITIONS_FRAC
P          -0.000000000000000   -0.000000000000000    0.000000000000000 
P          -0.000000000000000   -0.000000000000000    0.500000000000000 
P          -0.000000000000000    0.500000000000000    0.500000000000000 
P           0.026199000000000    0.127915000000000    0.863038000000000 
P           0.101716000000000    0.973801000000000    0.863038000000000 
P           0.127915000000000    0.101716000000000    0.136962000000000 
P           0.333333000000000    0.666667000000000    0.229141000000000 
P           0.333333000000000    0.666667000000000    0.774814000000000 
P           0.500000000000000   -0.000000000000000    0.500000000000000 
P           0.500000000000000    0.500000000000000    0.500000000000000 
P           0.666667000000000    0.333333000000000    0.225186000000000 
P           0.666667000000000    0.333333000000000    0.770859000000000 
P           0.872085000000000    0.898284000000000    0.863038000000000 
P           0.898284000000000    0.026199000000000    0.136962000000000 
P           0.973801000000000    0.872085000000000    0.136962000000000 
K          -0.000000000000000    0.500000000000000    0.000000000000000 
K           0.500000000000000   -0.000000000000000    0.000000000000000 
K           0.500000000000000    0.500000000000000    0.000000000000000 
%ENDBLOCK POSITIONS_FRAC
