# Cell file generated by matador (Matthew Evans 2016)

%BLOCK LATTICE_CART
8.75557 0.0 0.0
0.0 7.48606 0.0
0.0 0.0 8.50108
%ENDBLOCK LATTICE_CART

%BLOCK POSITIONS_FRAC
P           0.000000000000000    0.315824000000000    0.000000000000000 
P           0.000000000000000    0.684176000000000    0.000000000000000 
P           0.500000000000000    0.159448000000000    0.000000000000000 
P           0.500000000000000    0.840552000000000    0.000000000000000 
K           0.000000000000000   -0.000000000000000    0.000000000000000 
K           0.000000000000000    0.230595000000000    0.330445000000000 
K           0.000000000000000    0.230595000000000    0.669555000000000 
K           0.000000000000000    0.769405000000000    0.330445000000000 
K           0.000000000000000    0.769405000000000    0.669555000000000 
K           0.272859000000000    0.174731000000000    0.168121000000000 
K           0.272859000000000    0.174731000000000    0.831879000000000 
K           0.272859000000000    0.825269000000000    0.168121000000000 
K           0.272859000000000    0.825269000000000    0.831879000000000 
K           0.500000000000000    0.500000000000000    0.000000000000000 
K           0.727141000000000    0.174731000000000    0.168121000000000 
K           0.727141000000000    0.174731000000000    0.831879000000000 
K           0.727141000000000    0.825269000000000    0.168121000000000 
K           0.727141000000000    0.825269000000000    0.831879000000000 
%ENDBLOCK POSITIONS_FRAC
