# Cell file generated by matador (Matthew Evans 2016)

%BLOCK LATTICE_CART
6.69907 0.0 0.0
-3.34953 5.80156 0.0
0.0 0.0 9.54832
%ENDBLOCK LATTICE_CART

%BLOCK POSITIONS_FRAC
P           0.000000000000000    0.611705000000000    0.000000000000000 
P           0.333333000000000    0.666667000000000    0.393855000000000 
P           0.333333000000000    0.666667000000000    0.756121000000000 
P           0.388295000000000    0.388295000000000    0.000000000000000 
P           0.611705000000000    0.000000000000000    0.000000000000000 
P           0.666667000000000    0.333333000000000    0.243879000000000 
P           0.666667000000000    0.333333000000000    0.606145000000000 
K           0.000000000000000    0.000000000000000    0.000000000000000 
K           0.000000000000000    0.000000000000000    0.500000000000000 
K           0.333333000000000    0.666667000000000    0.157600000000000 
K           0.666667000000000    0.333333000000000    0.842400000000000 
%ENDBLOCK POSITIONS_FRAC
