# Cell file generated by matador (Matthew Evans 2016)

%BLOCK LATTICE_CART
9.83544 0.0 0.0
0.0 6.79256 0.0
-0.303379 0.0 8.78594
%ENDBLOCK LATTICE_CART

%BLOCK POSITIONS_FRAC
P           0.000000000000000    0.234788000000000    0.500000000000000 
P           0.000000000000000    0.415276000000000   -0.000000000000000 
P           0.151705000000000    0.754848000000000    0.902267000000000 
P           0.213519000000000    0.569185000000000    0.718136000000000 
P           0.213906000000000    0.268538000000000    0.579635000000000 
P           0.500000000000000    0.518939000000000   -0.000000000000000 
P           0.500000000000000    0.557975000000000    0.500000000000000 
P           0.786094000000000    0.268538000000000    0.420365000000000 
P           0.786481000000000    0.569185000000000    0.281864000000000 
P           0.848295000000000    0.754848000000000    0.097733000000000 
K           0.271220000000000    0.070213000000000    0.394062000000000 
K           0.351788000000000    0.404591000000000    0.387796000000000 
K           0.500000000000000    0.076488000000000   -0.000000000000000 
K           0.500000000000000    0.964096000000000    0.500000000000000 
K           0.648212000000000    0.404591000000000    0.612204000000000 
K           0.728780000000000    0.070213000000000    0.605938000000000 
%ENDBLOCK POSITIONS_FRAC
