# Cell file generated by matador (Matthew Evans 2016)

%BLOCK LATTICE_CART
8.29541 0.0 0.0
-4.14771 7.18404 0.0
0.0 0.0 9.07725
%ENDBLOCK LATTICE_CART

%BLOCK POSITIONS_FRAC
P           0.000000000000000    0.000000000000000    0.000000000000000 
P           0.000000000000000    0.000000000000000    0.500000000000000 
P           0.000000000000000    0.500000000000000    0.000000000000000 
P           0.000000000000000    0.500000000000000    0.500000000000000 
P           0.201651000000000    0.514867000000000    0.701447000000000 
P           0.313216000000000    0.798349000000000    0.701447000000000 
P           0.485133000000000    0.686784000000000    0.701447000000000 
P           0.500000000000000    0.000000000000000    0.000000000000000 
P           0.500000000000000    0.000000000000000    0.500000000000000 
P           0.500000000000000    0.500000000000000    0.000000000000000 
P           0.500000000000000    0.500000000000000    0.500000000000000 
P           0.514867000000000    0.313216000000000    0.298553000000000 
P           0.686784000000000    0.201651000000000    0.298553000000000 
P           0.798349000000000    0.485133000000000    0.298553000000000 
K           0.011591000000000    0.205293000000000    0.770606000000000 
K           0.193702000000000    0.988409000000000    0.770606000000000 
K           0.205293000000000    0.193702000000000    0.229394000000000 
K           0.794707000000000    0.806298000000000    0.770606000000000 
K           0.806298000000000    0.011591000000000    0.229394000000000 
K           0.988409000000000    0.794707000000000    0.229394000000000 
%ENDBLOCK POSITIONS_FRAC
