# Cell file generated by matador (Matthew Evans 2016)

%BLOCK LATTICE_CART
8.29832 0.0 0.0
0.0 8.29832 0.0
0.0 0.0 6.24417
%ENDBLOCK LATTICE_CART

%BLOCK POSITIONS_FRAC
P           0.000000000000000    0.000000000000000    0.500000000000000 
P           0.000000000000000    0.500000000000000    0.000000000000000 
P           0.000000000000000    0.500000000000000    0.500000000000000 
P           0.500000000000000    0.000000000000000    0.000000000000000 
P           0.500000000000000    0.000000000000000    0.500000000000000 
P           0.500000000000000    0.500000000000000    0.000000000000000 
K           0.001323000000000    0.770927000000000    0.000000000000000 
K           0.229073000000000    0.998677000000000    0.000000000000000 
K           0.270927000000000    0.498677000000000    0.500000000000000 
K           0.498677000000000    0.270927000000000    0.500000000000000 
K           0.501323000000000    0.729073000000000    0.500000000000000 
K           0.729073000000000    0.501323000000000    0.500000000000000 
K           0.770927000000000    0.001323000000000    0.000000000000000 
K           0.998677000000000    0.229073000000000    0.000000000000000 
%ENDBLOCK POSITIONS_FRAC
