# Cell file generated by matador (Matthew Evans 2016)

%BLOCK LATTICE_CART
7.09599 0.0 0.0
-3.548 6.14531 0.0
0.0 0.0 6.77991
%ENDBLOCK LATTICE_CART

%BLOCK POSITIONS_FRAC
P           0.333334000000000    0.666670000000000    0.250000000000000 
P           0.666668000000000    0.333336000000000    0.750000000000000 
K           0.127261000000000    0.803686000000000    0.750000000000000 
K           0.196318000000000    0.323580000000000    0.750000000000000 
K           0.323578000000000    0.196320000000000    0.250000000000000 
K           0.676424000000000    0.872743000000000    0.750000000000000 
K           0.803684000000000    0.127263000000000    0.250000000000000 
K           0.872741000000000    0.676426000000000    0.250000000000000 
%ENDBLOCK POSITIONS_FRAC
