# Cell file generated by matador (Matthew Evans 2016)

%BLOCK LATTICE_CART
3.90645 0.0 0.0
0.0 4.88331 0.0
1.56645 0.0 5.44586
%ENDBLOCK LATTICE_CART

%BLOCK POSITIONS_FRAC
P           0.019870000000000    0.632453000000000    0.218109000000000 
P           0.206968000000000    0.921454000000000    0.636559000000000 
P           0.793032000000000    0.921454000000000    0.363441000000000 
P           0.980131000000000    0.632453000000000    0.781891000000000 
K           0.000000000000000    0.311443000000000    0.000000000000000 
%ENDBLOCK POSITIONS_FRAC
