# Cell file generated by matador (Matthew Evans 2016)

%BLOCK LATTICE_CART
7.82072 0.0 0.0
-3.91036 6.77294 0.0
0.0 0.0 9.82998
%ENDBLOCK LATTICE_CART

%BLOCK POSITIONS_FRAC
P           0.160509000000000    0.818313000000000    0.956900000000000 
P           0.181687000000000    0.342196000000000    0.956900000000000 
P           0.324470000000000    0.172824000000000    0.290233000000000 
P           0.493842000000000    0.484979000000000    0.623567000000000 
P           0.515021000000000    0.008863000000000    0.623567000000000 
P           0.657804000000000    0.839491000000000    0.956900000000000 
P           0.827176000000000    0.151646000000000    0.290233000000000 
P           0.848354000000000    0.675530000000000    0.290233000000000 
P           0.991137000000000    0.506158000000000    0.623567000000000 
K           0.000000000000000    0.000000000000000    0.324326000000000 
K           0.000000000000000    0.000000000000000    0.881888000000000 
K           0.333333000000000    0.666667000000000    0.548555000000000 
K           0.333333000000000    0.666667000000000    0.990993000000000 
K           0.666667000000000    0.333333000000000    0.215222000000000 
K           0.666667000000000    0.333333000000000    0.657659000000000 
%ENDBLOCK POSITIONS_FRAC
