# Cell file generated by matador (Matthew Evans 2016)

%BLOCK LATTICE_CART
9.46835 0.0 0.0
0.0 9.46835 0.0
0.0 0.0 6.3985
%ENDBLOCK LATTICE_CART

%BLOCK POSITIONS_FRAC
P           0.250000000000000    0.250000000000000    0.000000000000000 
P           0.250000000000000    0.750000000000000    0.000000000000000 
P           0.750000000000000    0.250000000000000    0.000000000000000 
P           0.750000000000000    0.750000000000000    0.000000000000000 
K           0.000000000000000    0.000000000000000    0.000000000000000 
K           0.000000000000000    0.000000000000000    0.500000000000000 
K           0.000000000000000    0.277003000000000    0.772238000000000 
K           0.000000000000000    0.722997000000000    0.772238000000000 
K           0.222997000000000    0.500000000000000    0.772238000000000 
K           0.277003000000000    0.000000000000000    0.227762000000000 
K           0.500000000000000    0.222997000000000    0.227762000000000 
K           0.500000000000000    0.500000000000000    0.000000000000000 
K           0.500000000000000    0.500000000000000    0.500000000000000 
K           0.500000000000000    0.777003000000000    0.227762000000000 
K           0.722997000000000    0.000000000000000    0.227762000000000 
K           0.777003000000000    0.500000000000000    0.772238000000000 
%ENDBLOCK POSITIONS_FRAC
