# Cell file generated by matador (Matthew Evans 2016)

%BLOCK LATTICE_CART
6.88904 0.0 0.0
0.0 8.02338 0.0
-0.483805 0.0 5.43122
%ENDBLOCK LATTICE_CART

%BLOCK POSITIONS_FRAC
P           0.000000000000000    0.855663000000000    0.500000000000000 
P           0.008289000000000    0.605475000000000    0.138439000000000 
P           0.491711000000000    0.105475000000000    0.861561000000000 
P           0.500000000000000    0.355663000000000    0.500000000000000 
P           0.508289000000000    0.105475000000000    0.138439000000000 
P           0.991711000000000    0.605475000000000    0.861561000000000 
K           0.000000000000000    0.428427000000000    0.500000000000000 
K           0.220336000000000    0.929874000000000    0.830380000000000 
K           0.279664000000000    0.429874000000000    0.169620000000000 
K           0.500000000000000    0.928427000000000    0.500000000000000 
K           0.720336000000000    0.429874000000000    0.830380000000000 
K           0.779664000000000    0.929874000000000    0.169620000000000 
%ENDBLOCK POSITIONS_FRAC
