# Cell file generated by matador (Matthew Evans 2016)

%BLOCK LATTICE_CART
7.33332 0.0 0.0
-3.66666 6.35084 0.0
0.0 0.0 6.54148
%ENDBLOCK LATTICE_CART

%BLOCK POSITIONS_FRAC
P           0.000000000000000    0.000000000000000    0.000000000000000 
P           0.000000000000000    0.000000000000000    0.500000000000000 
K           0.000000000000000    0.625936000000000    0.251333000000000 
K           0.000000000000000    0.625936000000000    0.748667000000000 
K           0.374064000000000    0.374064000000000    0.251333000000000 
K           0.374064000000000    0.374064000000000    0.748667000000000 
K           0.625936000000000    0.000000000000000    0.251333000000000 
K           0.625936000000000    0.000000000000000    0.748667000000000 
%ENDBLOCK POSITIONS_FRAC
