# Cell file generated by matador (Matthew Evans 2016)

%BLOCK LATTICE_CART
8.27708 0.0 0.0
0.0 4.51073 0.0
1.54617 0.0 6.89481
%ENDBLOCK LATTICE_CART

%BLOCK POSITIONS_FRAC
P           0.016153000000000    0.243087000000000    0.792659000000000 
P           0.016153000000000    0.756913000000000    0.792659000000000 
P           0.322298000000000    0.146506000000000    0.832412000000000 
P           0.322298000000000    0.853494000000000    0.832412000000000 
P           0.677702000000000    0.146506000000000    0.167588000000000 
P           0.677702000000000    0.853494000000000    0.167588000000000 
P           0.983847000000000    0.243087000000000    0.207341000000000 
P           0.983847000000000    0.756913000000000    0.207341000000000 
K           0.000000000000000    0.000000000000000    0.500000000000000 
K           0.500000000000000    0.500000000000000    0.000000000000000 
%ENDBLOCK POSITIONS_FRAC
