# Cell file generated by matador (Matthew Evans 2016)

%BLOCK LATTICE_CART
8.31241 0.0 0.0
-4.15621 7.19876 0.0
0.0 0.0 8.70938
%ENDBLOCK LATTICE_CART

%BLOCK POSITIONS_FRAC
P          -0.000000000000000    0.028813000000000    0.333333000000000 
P          -0.000000000000000    0.544499000000000    0.333333000000000 
P          -0.000000000000000    0.912358000000000    0.833333000000000 
P           0.028813000000000   -0.000000000000000    0.666666000000000 
P           0.087642000000000    0.087642000000000    0.500000000000000 
P           0.455501000000000    0.455501000000000   -0.000000000000000 
P           0.544499000000000   -0.000000000000000    0.666666000000000 
P           0.912358000000000   -0.000000000000000    0.166666000000000 
P           0.971187000000000    0.971187000000000   -0.000000000000000 
K           0.179020000000000    0.604913000000000    0.696663000000000 
K           0.395087000000000    0.574107000000000    0.363330000000000 
K           0.425893000000000    0.820980000000000    0.029996000000000 
K           0.574107000000000    0.395087000000000    0.636670000000000 
K           0.604913000000000    0.179020000000000    0.303336000000000 
K           0.820980000000000    0.425893000000000    0.970003000000000 
%ENDBLOCK POSITIONS_FRAC
