# Cell file generated by matador (Matthew Evans 2016)

%BLOCK LATTICE_CART
9.40572 0.0 0.0
-4.70286 8.14559 0.0
0.0 0.0 8.7096
%ENDBLOCK LATTICE_CART

%BLOCK POSITIONS_FRAC
P           0.000000000000000    0.000000000000000    0.000000000000000 
P           0.000000000000000    0.000000000000000    0.155006000000000 
P           0.000000000000000    0.000000000000000    0.500000000000000 
P           0.000000000000000    0.000000000000000    0.844994000000000 
K           0.189112000000000    0.378224000000000    0.230337000000000 
K           0.189112000000000    0.378224000000000    0.769663000000000 
K           0.189112000000000    0.810888000000000    0.230337000000000 
K           0.189112000000000    0.810888000000000    0.769663000000000 
K           0.333333000000000    0.666667000000000    0.000000000000000 
K           0.378224000000000    0.189112000000000    0.230337000000000 
K           0.378224000000000    0.189112000000000    0.769663000000000 
K           0.621776000000000    0.810888000000000    0.230337000000000 
K           0.621776000000000    0.810888000000000    0.769663000000000 
K           0.666667000000000    0.333333000000000    0.000000000000000 
K           0.810888000000000    0.189112000000000    0.230337000000000 
K           0.810888000000000    0.189112000000000    0.769663000000000 
K           0.810888000000000    0.621776000000000    0.230337000000000 
K           0.810888000000000    0.621776000000000    0.769663000000000 
%ENDBLOCK POSITIONS_FRAC
