# Cell file generated by matador (Matthew Evans 2016)

%BLOCK LATTICE_CART
6.84129 0.0 0.0
0.848649 4.90673 0.0
0.208164 0.37433 3.44609
%ENDBLOCK LATTICE_CART

%BLOCK POSITIONS_FRAC
P           0.000000000000000    0.500000000000000    0.500000000000000 
P           0.180971000000000    0.398242000000000    0.005366000000000 
P           0.315988000000000    0.203171000000000    0.636114000000000 
P           0.684012000000000    0.796829000000000    0.363886000000000 
P           0.819029000000000    0.601758000000000    0.994634000000000 
K           0.500000000000000    0.500000000000000    0.500000000000000 
%ENDBLOCK POSITIONS_FRAC
