# Cell file generated by matador (Matthew Evans 2016)

%BLOCK LATTICE_CART
6.46153 0.0 0.0
0.0 7.29769 0.0
0.0 0.0 5.82116
%ENDBLOCK LATTICE_CART

%BLOCK POSITIONS_FRAC
P           0.000000000000000    0.000000000000000    0.000000000000000 
P           0.000000000000000    0.282979000000000    0.000000000000000 
P           0.000000000000000    0.500000000000000    0.000000000000000 
P           0.000000000000000    0.717021000000000    0.000000000000000 
P           0.250000000000000    0.250000000000000    0.981219000000000 
P           0.250000000000000    0.750000000000000    0.018781000000000 
P           0.500000000000000    0.000000000000000    0.000000000000000 
P           0.500000000000000    0.217021000000000    0.000000000000000 
P           0.500000000000000    0.500000000000000    0.000000000000000 
P           0.500000000000000    0.782979000000000    0.000000000000000 
P           0.750000000000000    0.250000000000000    0.018781000000000 
P           0.750000000000000    0.750000000000000    0.981219000000000 
K           0.000000000000000    0.500000000000000    0.500000000000000 
K           0.500000000000000    0.000000000000000    0.500000000000000 
%ENDBLOCK POSITIONS_FRAC
