# Cell file generated by matador (Matthew Evans 2016)

%BLOCK LATTICE_CART
10.2482 0.0 0.0
-5.12411 8.87522 0.0
0.0 0.0 6.81677
%ENDBLOCK LATTICE_CART

%BLOCK POSITIONS_FRAC
P           0.333333000000000    0.666667000000000    0.201770000000000 
P           0.500376000000000    0.250188000000000    0.992554000000000 
P           0.749812000000000    0.250188000000000    0.992554000000000 
P           0.749812000000000    0.499624000000000    0.992554000000000 
K           0.047698000000000    0.523849000000000    0.648478000000000 
K           0.207858000000000    0.103930000000000    0.313138000000000 
K           0.219856000000000    0.439712000000000    0.094686000000000 
K           0.219856000000000    0.780144000000000    0.094686000000000 
K           0.476151000000000    0.523849000000000    0.648478000000000 
K           0.476151000000000    0.952302000000000    0.648478000000000 
K           0.560288000000000    0.780144000000000    0.094686000000000 
K           0.568413000000000    0.136826000000000    0.229694000000000 
K           0.568413000000000    0.431587000000000    0.229694000000000 
K           0.863174000000000    0.431587000000000    0.229694000000000 
K           0.896070000000000    0.103930000000000    0.313138000000000 
K           0.896070000000000    0.792142000000000    0.313138000000000 
%ENDBLOCK POSITIONS_FRAC
