# Cell file generated by matador (Matthew Evans 2016)

%BLOCK LATTICE_CART
9.11233 -0.0 0.0
-4.55617 7.89151 0.0
0.0 0.0 5.46463
%ENDBLOCK LATTICE_CART

%BLOCK POSITIONS_FRAC
P           0.016211000000000    0.109580000000000    0.312071000000000 
P           0.029495000000000    0.659083000000000    0.900539000000000 
P           0.093369000000000    0.983789000000000    0.312071000000000 
P           0.340917000000000    0.370412000000000    0.900539000000000 
P           0.474025000000000    0.395705000000000    0.575954000000000 
P           0.604295000000000    0.078320000000000    0.575954000000000 
P           0.629588000000000    0.970505000000000    0.900539000000000 
P           0.890420000000000    0.906631000000000    0.312071000000000 
P           0.921680000000000    0.525975000000000    0.575954000000000 
K           0.000000000000000    0.000000000000000    0.839441000000000 
K           0.333333000000000    0.666667000000000    0.690403000000000 
K           0.353817000000000    0.025549000000000    0.245538000000000 
K           0.666667000000000    0.333333000000000    0.572022000000000 
K           0.671732000000000    0.646183000000000    0.245538000000000 
K           0.974451000000000    0.328268000000000    0.245538000000000 
%ENDBLOCK POSITIONS_FRAC
