# Cell file generated by matador (Matthew Evans 2016)

%BLOCK LATTICE_CART
5.85586 0.0 0.0
0.0 9.68778 0.0
0.0 0.0 14.1226
%ENDBLOCK LATTICE_CART

%BLOCK POSITIONS_FRAC
P           0.000000000000000    0.318867000000000    0.079983000000000 
P           0.000000000000000    0.500000000000000    0.418898000000000 
P           0.000000000000000    0.681133000000000    0.079983000000000 
P           0.243575000000000    0.500000000000000    0.192553000000000 
P           0.756425000000000    0.500000000000000    0.192553000000000 
K           0.000000000000000    0.000000000000000    0.505320000000000 
K           0.000000000000000    0.210271000000000    0.290025000000000 
K           0.000000000000000    0.789729000000000    0.290025000000000 
K           0.247289000000000    0.000000000000000    0.086412000000000 
K           0.250044000000000    0.500000000000000    0.978780000000000 
K           0.500000000000000    0.000000000000000    0.265489000000000 
K           0.500000000000000    0.000000000000000    0.873513000000000 
K           0.500000000000000    0.241699000000000    0.011935000000000 
K           0.500000000000000    0.249436000000000    0.747318000000000 
K           0.500000000000000    0.262934000000000    0.378435000000000 
K           0.500000000000000    0.737066000000000    0.378435000000000 
K           0.500000000000000    0.750564000000000    0.747318000000000 
K           0.500000000000000    0.758301000000000    0.011935000000000 
K           0.749956000000000    0.500000000000000    0.978780000000000 
K           0.752711000000000    0.000000000000000    0.086412000000000 
%ENDBLOCK POSITIONS_FRAC
