# Cell file generated by matador (Matthew Evans 2016)

%BLOCK LATTICE_CART
6.03154 0.0 0.0
0.0 14.8209 0.0
0.0 0.0 6.53839
%ENDBLOCK LATTICE_CART

%BLOCK POSITIONS_FRAC
P          -0.000000000000000    0.000000000000000    0.529580000000000 
P          -0.000000000000000    0.500000000000000    0.635312000000000 
P           0.500000000000000    0.000000000000000    0.135312000000000 
P           0.500000000000000    0.500000000000000    0.029580000000000 
K          -0.000000000000000    0.372458000000000    0.095080000000000 
K          -0.000000000000000    0.627542000000000    0.095080000000000 
K           0.248938000000000    0.000000000000000    0.333027000000000 
K           0.249324000000000    0.500000000000000    0.364482000000000 
K           0.250676000000000    0.000000000000000    0.864482000000000 
K           0.251062000000000    0.500000000000000    0.833027000000000 
K           0.500000000000000    0.127542000000000    0.595080000000000 
K           0.500000000000000    0.872458000000000    0.595080000000000 
K           0.748938000000000    0.500000000000000    0.833027000000000 
K           0.749324000000000    0.000000000000000    0.864482000000000 
K           0.750676000000000    0.500000000000000    0.364482000000000 
K           0.751062000000000    0.000000000000000    0.333027000000000 
%ENDBLOCK POSITIONS_FRAC
