# Cell file generated by matador (Matthew Evans 2016)

%BLOCK LATTICE_CART
7.2346 0.0 0.0
0.0 6.91189 0.0
0.0 0.0 6.48938
%ENDBLOCK LATTICE_CART

%BLOCK POSITIONS_FRAC
P           0.000000000000000    0.000000000000000    0.692895000000000 
P           0.012086000000000    0.912590000000000    0.926109000000000 
P           0.487914000000000    0.412590000000000    0.073891000000000 
P           0.500000000000000    0.500000000000000    0.307105000000000 
P           0.512086000000000    0.587410000000000    0.073891000000000 
P           0.987914000000000    0.087410000000000    0.926109000000000 
K           0.000000000000000    0.500000000000000    0.918571000000000 
K           0.221555000000000    0.786400000000000    0.248843000000000 
K           0.278445000000000    0.286400000000000    0.751157000000000 
K           0.500000000000000    0.000000000000000    0.081429000000000 
K           0.721555000000000    0.713600000000000    0.751157000000000 
K           0.778445000000000    0.213600000000000    0.248843000000000 
%ENDBLOCK POSITIONS_FRAC
