# Cell file generated by matador (Matthew Evans 2016)

%BLOCK LATTICE_CART
9.21422 0.0 0.0
-4.60711 7.97975 0.0
0.0 0.0 7.27289
%ENDBLOCK LATTICE_CART

%BLOCK POSITIONS_FRAC
P           0.099124000000000    0.491172000000000    0.269938000000000 
P           0.165075000000000    0.666570000000000    0.087382000000000 
P           0.333430000000000    0.498505000000000    0.087382000000000 
P           0.392047000000000    0.900876000000000    0.269938000000000 
P           0.431362000000000    0.352678000000000    0.137713000000000 
P           0.501495000000000    0.834925000000000    0.087382000000000 
P           0.508828000000000    0.607953000000000    0.269938000000000 
P           0.647322000000000    0.078685000000000    0.137713000000000 
P           0.666667000000000    0.333333000000000    0.142857000000000 
P           0.921315000000000    0.568638000000000    0.137713000000000 
K           0.000000000000000    0.000000000000000    0.621427000000000 
K           0.034387000000000    0.333484000000000    0.047017000000000 
K           0.299097000000000    0.965613000000000    0.047017000000000 
K           0.333333000000000    0.666667000000000    0.367566000000000 
K           0.355287000000000    0.176081000000000    0.555797000000000 
K           0.666516000000000    0.700903000000000    0.047017000000000 
K           0.820794000000000    0.644713000000000    0.555797000000000 
K           0.823919000000000    0.179206000000000    0.555797000000000 
%ENDBLOCK POSITIONS_FRAC
