# Cell file generated by matador (Matthew Evans 2016)

%BLOCK LATTICE_CART
9.55447 0.0 0.0
0.0 9.55447 0.0
0.0 0.0 10.7547
%ENDBLOCK LATTICE_CART

%BLOCK POSITIONS_FRAC
P           0.000000000000000    0.000000000000000    0.000000000000000 
P           0.250000000000000    0.250000000000000    0.500000000000000 
P           0.250000000000000    0.750000000000000    0.500000000000000 
P           0.500000000000000    0.500000000000000    0.000000000000000 
P           0.750000000000000    0.250000000000000    0.500000000000000 
P           0.750000000000000    0.750000000000000    0.500000000000000 
K           0.000000000000000    0.214471000000000    0.367756000000000 
K           0.000000000000000    0.500000000000000    0.005791000000000 
K           0.000000000000000    0.785529000000000    0.367756000000000 
K           0.210869000000000    0.289131000000000    0.746347000000000 
K           0.210869000000000    0.710869000000000    0.746347000000000 
K           0.214471000000000    0.000000000000000    0.632244000000000 
K           0.285529000000000    0.500000000000000    0.367756000000000 
K           0.289131000000000    0.210869000000000    0.253653000000000 
K           0.289131000000000    0.789131000000000    0.253653000000000 
K           0.500000000000000    0.000000000000000    0.994209000000000 
K           0.500000000000000    0.285529000000000    0.632244000000000 
K           0.500000000000000    0.714471000000000    0.632244000000000 
K           0.710869000000000    0.210869000000000    0.253653000000000 
K           0.710869000000000    0.789131000000000    0.253653000000000 
K           0.714471000000000    0.500000000000000    0.367756000000000 
K           0.785529000000000    0.000000000000000    0.632244000000000 
K           0.789131000000000    0.289131000000000    0.746347000000000 
K           0.789131000000000    0.710869000000000    0.746347000000000 
%ENDBLOCK POSITIONS_FRAC
