# Cell file generated by matador (Matthew Evans 2016)

%BLOCK LATTICE_CART
7.89226 0.0 0.0
0.0 8.68991 0.0
0.0 0.0 7.00505
%ENDBLOCK LATTICE_CART

%BLOCK POSITIONS_FRAC
P           0.000000000000000    0.500000000000000    0.310186000000000 
P           0.008698000000000    0.061728000000000    0.050285000000000 
P           0.491302000000000    0.561728000000000    0.550285000000000 
P           0.500000000000000    0.000000000000000    0.810186000000000 
P           0.508698000000000    0.438272000000000    0.550285000000000 
P           0.991302000000000    0.938272000000000    0.050285000000000 
K           0.000000000000000    0.000000000000000    0.387536000000000 
K           0.000000000000000    0.000000000000000    0.753142000000000 
K           0.000000000000000    0.500000000000000    0.646314000000000 
K           0.167772000000000    0.379176000000000    0.810104000000000 
K           0.332228000000000    0.879176000000000    0.310104000000000 
K           0.500000000000000    0.000000000000000    0.146314000000000 
K           0.500000000000000    0.500000000000000    0.253142000000000 
K           0.500000000000000    0.500000000000000    0.887536000000000 
K           0.667772000000000    0.120824000000000    0.310104000000000 
K           0.832228000000000    0.620824000000000    0.810104000000000 
%ENDBLOCK POSITIONS_FRAC
