# Cell file generated by matador (Matthew Evans 2016)

%BLOCK LATTICE_CART
6.76609 0.0 0.0
0.0 6.76609 0.0
0.0 0.0 6.61531
%ENDBLOCK LATTICE_CART

%BLOCK POSITIONS_FRAC
P           0.064889000000000    0.710655000000000    0.458310000000000 
P           0.289345000000000    0.064889000000000    0.458310000000000 
P           0.710655000000000    0.935111000000000    0.458310000000000 
P           0.935111000000000    0.289345000000000    0.458310000000000 
K           0.000000000000000    0.500000000000000    0.793299000000000 
K           0.266070000000000    0.440542000000000    0.244520000000000 
K           0.440542000000000    0.733930000000000    0.244520000000000 
K           0.500000000000000    0.000000000000000    0.793299000000000 
K           0.500000000000000    0.500000000000000    0.868975000000000 
K           0.559458000000000    0.266070000000000    0.244520000000000 
K           0.733930000000000    0.559458000000000    0.244520000000000 
%ENDBLOCK POSITIONS_FRAC
