# Cell file generated by matador (Matthew Evans 2016)

%BLOCK LATTICE_CART
6.77303 0.0 0.0
0.0 6.29475 0.0
-0.912254 0.0 7.86004
%ENDBLOCK LATTICE_CART

%BLOCK POSITIONS_FRAC
P           0.115692000000000    0.760452000000000    0.331605000000000 
P           0.184804000000000    0.947411000000000    0.220029000000000 
P           0.815196000000000    0.947411000000000    0.779971000000000 
P           0.884308000000000    0.760452000000000    0.668395000000000 
K           0.000000000000000    0.167581000000000    0.000000000000000 
K           0.000000000000000    0.427248000000000    0.500000000000000 
K           0.310147000000000    0.259877000000000    0.029591000000000 
K           0.478973000000000    0.120421000000000    0.756385000000000 
K           0.500000000000000    0.012200000000000    0.500000000000000 
K           0.521027000000000    0.120421000000000    0.243615000000000 
K           0.689853000000000    0.259877000000000    0.970409000000000 
%ENDBLOCK POSITIONS_FRAC
