# Cell file generated by matador (Matthew Evans 2016)

%BLOCK LATTICE_CART
5.92871 0.0 0.0
0.0 5.92871 0.0
0.0 0.0 13.6009
%ENDBLOCK LATTICE_CART

%BLOCK POSITIONS_FRAC
P           0.000000000000000    0.000000000000000    0.000000000000000 
P           0.000000000000000    0.000000000000000    0.500000000000000 
P           0.500000000000000    0.500000000000000    0.000000000000000 
P           0.500000000000000    0.500000000000000    0.500000000000000 
K           0.000000000000000    0.000000000000000    0.281797000000000 
K           0.000000000000000    0.000000000000000    0.718203000000000 
K           0.000000000000000    0.500000000000000    0.078345000000000 
K           0.000000000000000    0.500000000000000    0.243535000000000 
K           0.000000000000000    0.500000000000000    0.502856000000000 
K           0.500000000000000    0.000000000000000    0.497144000000000 
K           0.500000000000000    0.000000000000000    0.756465000000000 
K           0.500000000000000    0.000000000000000    0.921655000000000 
K           0.500000000000000    0.500000000000000    0.281797000000000 
K           0.500000000000000    0.500000000000000    0.718203000000000 
%ENDBLOCK POSITIONS_FRAC
