# Cell file generated by matador (Matthew Evans 2016)

%BLOCK LATTICE_CART
8.40414 0.0 0.0
-4.20207 7.2782 0.0
0.0 0.0 6.79263
%ENDBLOCK LATTICE_CART

%BLOCK POSITIONS_FRAC
P           0.000000000000000    0.000000000000000    0.267000000000000 
P           0.000000000000000    0.000000000000000    0.733000000000000 
P           0.333333000000000    0.666667000000000    0.399667000000000 
P           0.333333000000000    0.666667000000000    0.933667000000000 
P           0.666667000000000    0.333333000000000    0.066333000000000 
P           0.666667000000000    0.333333000000000    0.600333000000000 
K           0.000000000000000    0.500000000000000   -0.000000000000000 
K           0.166667000000000    0.333333000000000    0.333333000000000 
K           0.166667000000000    0.833333000000000    0.333333000000000 
K           0.333333000000000    0.166667000000000    0.666667000000000 
K           0.500000000000000    0.000000000000000   -0.000000000000000 
K           0.500000000000000    0.500000000000000   -0.000000000000000 
K           0.666667000000000    0.833333000000000    0.333333000000000 
K           0.833333000000000    0.166667000000000    0.666667000000000 
K           0.833333000000000    0.666667000000000    0.666667000000000 
%ENDBLOCK POSITIONS_FRAC
