# Cell file generated by matador (Matthew Evans 2016)

%BLOCK LATTICE_CART
6.89254 0.0 0.0
-3.44627 5.96912 0.0
0.0 0.0 7.6398
%ENDBLOCK LATTICE_CART

%BLOCK POSITIONS_FRAC
P           0.000000000000000    0.000000000000000    0.241692000000000 
P           0.333333000000000    0.666667000000000    0.908358000000000 
P           0.666667000000000    0.333333000000000    0.575025000000000 
K           0.071934000000000    0.535967000000000    0.646069000000000 
K           0.130700000000000    0.261399000000000    0.979403000000000 
K           0.130700000000000    0.869300000000000    0.979403000000000 
K           0.405267000000000    0.202634000000000    0.312736000000000 
K           0.464033000000000    0.535967000000000    0.646069000000000 
K           0.464033000000000    0.928066000000000    0.646069000000000 
K           0.738601000000000    0.869300000000000    0.979403000000000 
K           0.797366000000000    0.202634000000000    0.312736000000000 
K           0.797366000000000    0.594733000000000    0.312736000000000 
%ENDBLOCK POSITIONS_FRAC
