# Cell file generated by matador (Matthew Evans 2016)

%BLOCK LATTICE_CART
7.86099 -0.0 0.0
-3.93049 6.80782 0.0
0.0 0.0 7.66523
%ENDBLOCK LATTICE_CART

%BLOCK POSITIONS_FRAC
P           0.007631000000000    0.099200000000000    0.877431000000000 
P           0.091569000000000    0.992369000000000    0.877431000000000 
P           0.333333000000000    0.666667000000000    0.194528000000000 
P           0.333333000000000    0.666667000000000    0.376957000000000 
P           0.900800000000000    0.908431000000000    0.877431000000000 
K           0.119420000000000    0.477037000000000    0.834828000000000 
K           0.322646000000000    0.275585000000000    0.379416000000000 
K           0.357617000000000    0.880580000000000    0.834828000000000 
K           0.522963000000000    0.642383000000000    0.834828000000000 
K           0.724415000000000    0.047061000000000    0.379416000000000 
K           0.952939000000000    0.677354000000000    0.379416000000000 
%ENDBLOCK POSITIONS_FRAC
