# Cell file generated by matador (Matthew Evans 2016)

%BLOCK LATTICE_CART
8.06303 0.0 0.0
0.0 7.33627 0.0
1.89396 0.0 6.34978
%ENDBLOCK LATTICE_CART

%BLOCK POSITIONS_FRAC
P           0.236483000000000    0.685857000000000    0.284843000000000 
P           0.236483000000000    0.814143000000000    0.784843000000000 
P           0.499210000000000    0.233554000000000    0.750986000000000 
P           0.499210000000000    0.266446000000000    0.250986000000000 
P           0.500000000000000    0.000000000000000    0.000000000000000 
P           0.500000000000000    0.500000000000000    0.500000000000000 
P           0.500790000000000    0.733554000000000    0.749014000000000 
P           0.500790000000000    0.766446000000000    0.249014000000000 
P           0.763517000000000    0.185857000000000    0.215157000000000 
P           0.763517000000000    0.314143000000000    0.715157000000000 
K           0.000000000000000    0.000000000000000    0.000000000000000 
K           0.000000000000000    0.000000000000000    0.500000000000000 
K           0.000000000000000    0.500000000000000    0.000000000000000 
K           0.000000000000000    0.500000000000000    0.500000000000000 
%ENDBLOCK POSITIONS_FRAC
