# Cell file generated by matador (Matthew Evans 2016)

%BLOCK LATTICE_CART
5.32057 0.0 0.0
-2.66029 4.60775 0.0
0.0 0.0 14.6964
%ENDBLOCK LATTICE_CART

%BLOCK POSITIONS_FRAC
P           0.048113000000000    0.524056000000000    0.266893000000000 
P           0.048113000000000    0.524056000000000    0.733107000000000 
P           0.475944000000000    0.524056000000000    0.266893000000000 
P           0.475944000000000    0.524056000000000    0.733107000000000 
P           0.475944000000000    0.951887000000000    0.266893000000000 
P           0.475944000000000    0.951887000000000    0.733107000000000 
K           0.000000000000000    0.000000000000000    0.000000000000000 
K           0.000000000000000    0.000000000000000    0.500000000000000 
K           0.333333000000000    0.666667000000000    0.000000000000000 
K           0.666667000000000    0.333333000000000    0.000000000000000 
K           0.666667000000000    0.333333000000000    0.500000000000000 
%ENDBLOCK POSITIONS_FRAC
