# Cell file generated by matador (Matthew Evans 2016)

%BLOCK LATTICE_CART
9.27045 -0.0 0.0
-4.63522 8.02844 0.0
0.0 0.0 5.79529
%ENDBLOCK LATTICE_CART

%BLOCK POSITIONS_FRAC
P           0.000000000000000    0.000000000000000    0.345108000000000 
P           0.000000000000000    0.000000000000000    0.654892000000000 
P           0.275918000000000    0.181320000000000    0.500000000000000 
P           0.446829000000000    0.040185000000000    0.000000000000000 
P           0.593357000000000    0.553171000000000    0.000000000000000 
P           0.818680000000000    0.094598000000000    0.500000000000000 
P           0.905402000000000    0.724082000000000    0.500000000000000 
P           0.959815000000000    0.406643000000000    0.000000000000000 
K           0.000000000000000    0.000000000000000    0.000000000000000 
K           0.105839000000000    0.691166000000000    0.500000000000000 
K           0.146699000000000    0.331249000000000    0.000000000000000 
K           0.184549000000000    0.853301000000000    0.000000000000000 
K           0.308834000000000    0.414673000000000    0.500000000000000 
K           0.333333000000000    0.666667000000000    0.000000000000000 
K           0.333333000000000    0.666667000000000    0.500000000000000 
K           0.585327000000000    0.894161000000000    0.500000000000000 
K           0.666667000000000    0.333333000000000    0.500000000000000 
K           0.668751000000000    0.815451000000000    0.000000000000000 
%ENDBLOCK POSITIONS_FRAC
