# Cell file generated by matador (Matthew Evans 2016)

%BLOCK LATTICE_CART
6.27547 0.0 0.0
-3.13774 5.43472 0.0
0.0 0.0 11.2577
%ENDBLOCK LATTICE_CART

%BLOCK POSITIONS_FRAC
P           0.000000000000000    0.000000000000000    0.757190000000000 
P           0.000000000000000    0.000000000000000    0.929325000000000 
P           0.333333000000000    0.666667000000000    0.178568000000000 
P           0.666667000000000    0.333333000000000    0.178568000000000 
K           0.000000000000000    0.000000000000000    0.226159000000000 
K           0.000000000000000    0.000000000000000    0.532664000000000 
K           0.000000000000000    0.500000000000000    0.007615000000000 
K           0.000000000000000    0.500000000000000    0.330992000000000 
K           0.333333000000000    0.666667000000000    0.695532000000000 
K           0.500000000000000    0.000000000000000    0.007615000000000 
K           0.500000000000000    0.000000000000000    0.330992000000000 
K           0.500000000000000    0.500000000000000    0.007615000000000 
K           0.500000000000000    0.500000000000000    0.330992000000000 
K           0.666667000000000    0.333333000000000    0.695532000000000 
%ENDBLOCK POSITIONS_FRAC
