# Cell file generated by matador (Matthew Evans 2016)

%BLOCK LATTICE_CART
9.54794 0.0 0.0
-4.77397 8.26876 0.0
0.0 0.0 8.73015
%ENDBLOCK LATTICE_CART

%BLOCK POSITIONS_FRAC
P           0.000000000000000    0.000000000000000    0.270909000000000 
P           0.000000000000000    0.000000000000000    0.729091000000000 
P           0.333333000000000    0.666667000000000    0.395757000000000 
P           0.333333000000000    0.666667000000000    0.937576000000000 
P           0.666667000000000    0.333333000000000    0.062424000000000 
P           0.666667000000000    0.333333000000000    0.604243000000000 
K           0.000000000000000    0.000000000000000    0.500000000000000 
K           0.000000000000000    0.583466000000000   -0.000000000000000 
K           0.083201000000000    0.749868000000000    0.333333000000000 
K           0.250132000000000    0.333333000000000    0.333333000000000 
K           0.333333000000000    0.250132000000000    0.666667000000000 
K           0.333333000000000    0.666667000000000    0.166667000000000 
K           0.416534000000000    0.416534000000000   -0.000000000000000 
K           0.583466000000000    0.000000000000000   -0.000000000000000 
K           0.666667000000000    0.333333000000000    0.833333000000000 
K           0.666667000000000    0.916799000000000    0.333333000000000 
K           0.749868000000000    0.083201000000000    0.666667000000000 
K           0.916799000000000    0.666667000000000    0.666667000000000 
%ENDBLOCK POSITIONS_FRAC
