# Cell file generated by matador (Matthew Evans 2016)

%BLOCK LATTICE_CART
6.63453 0.0 0.0
-3.31727 5.74567 0.0
0.0 0.0 10.4404
%ENDBLOCK LATTICE_CART

%BLOCK POSITIONS_FRAC
P           0.666667000000000    0.333333000000000    0.312300000000000 
P           0.666667000000000    0.333333000000000    0.687700000000000 
K           0.000000000000000   -0.000000000000000    0.500000000000000 
K           0.037200000000000    0.399306000000000    0.643326000000000 
K           0.037200000000000    0.637893000000000    0.356674000000000 
K           0.333334000000000    0.666666000000000    0.000000000000000 
K           0.362107000000000    0.399306000000000    0.356674000000000 
K           0.362107000000000    0.962800000000000    0.643326000000000 
K           0.600694000000000    0.637893000000000    0.643326000000000 
K           0.600694000000000    0.962800000000000    0.356674000000000 
K           0.666667000000000    0.333333000000000    0.000000000000000 
K           0.666667000000000    0.333333000000000    0.500000000000000 
%ENDBLOCK POSITIONS_FRAC
