# Cell file generated by matador (Matthew Evans 2016)

%BLOCK LATTICE_CART
5.56633 0.0 0.0
-2.78316 4.82058 0.0
0.0 0.0 6.79172
%ENDBLOCK LATTICE_CART

%BLOCK POSITIONS_FRAC
P          -0.000000000000000    0.000000000000000    0.871429000000000 
P           0.145533000000000    0.072945000000000    0.270896000000000 
P           0.160415000000000    0.702013000000000    0.726183000000000 
P           0.297987000000000    0.458402000000000    0.726183000000000 
P           0.541598000000000    0.839585000000000    0.726183000000000 
P           0.927055000000000    0.072590000000000    0.270896000000000 
P           0.927410000000000    0.854467000000000    0.270896000000000 
K           0.333333000000000    0.666667000000000    0.457674000000000 
%ENDBLOCK POSITIONS_FRAC
