# Cell file generated by matador (Matthew Evans 2016)

%BLOCK LATTICE_CART
6.59282 0.0 0.0
0.0 7.9454 0.0
-3.76165 0.0 9.66873
%ENDBLOCK LATTICE_CART

%BLOCK POSITIONS_FRAC
P           0.054893000000000    0.104604000000000    0.254338000000000 
P           0.260366000000000    0.332567000000000    0.338345000000000 
P           0.276393000000000    0.347446000000000    0.528451000000000 
P           0.462222000000000    0.372587000000000    0.715880000000000 
P           0.537778000000000    0.372587000000000    0.284120000000000 
P           0.723607000000000    0.347446000000000    0.471549000000000 
P           0.739634000000000    0.332567000000000    0.661655000000000 
P           0.945107000000000    0.104604000000000    0.745662000000000 
K          -0.000000000000000    0.144423000000000    0.500000000000000 
K          -0.000000000000000    0.241970000000000    0.000000000000000 
K          -0.000000000000000    0.550995000000000    0.500000000000000 
K          -0.000000000000000    0.741000000000000    0.000000000000000 
K           0.229426000000000    0.811972000000000    0.902177000000000 
K           0.259385000000000    0.545030000000000    0.893626000000000 
K           0.321044000000000    0.992725000000000    0.522276000000000 
K           0.500000000000000    0.170883000000000    0.000000000000000 
K           0.500000000000000    0.522928000000000    0.500000000000000 
K           0.678956000000000    0.992725000000000    0.477724000000000 
K           0.740615000000000    0.545030000000000    0.106374000000000 
K           0.770574000000000    0.811972000000000    0.097823000000000 
%ENDBLOCK POSITIONS_FRAC
