# Cell file generated by matador (Matthew Evans 2016)

%BLOCK LATTICE_CART
8.76731 0.0 0.0
0.0 8.76731 0.0
0.0 0.0 11.7068
%ENDBLOCK LATTICE_CART

%BLOCK POSITIONS_FRAC
P          -0.000000000000000   -0.000000000000000    0.191920000000000 
P          -0.000000000000000   -0.000000000000000    0.500000000000000 
P          -0.000000000000000   -0.000000000000000    0.808080000000000 
P           0.500000000000000    0.500000000000000    0.191920000000000 
P           0.500000000000000    0.500000000000000    0.500000000000000 
P           0.500000000000000    0.500000000000000    0.808080000000000 
K          -0.000000000000000   -0.000000000000000    0.000000000000000 
K          -0.000000000000000    0.500000000000000    0.000000000000000 
K          -0.000000000000000    0.500000000000000    0.500000000000000 
K           0.152416000000000    0.347584000000000    0.766420000000000 
K           0.152416000000000    0.652416000000000    0.233580000000000 
K           0.250000000000000    0.250000000000000    0.000000000000000 
K           0.250000000000000    0.750000000000000    0.000000000000000 
K           0.347584000000000    0.152416000000000    0.233580000000000 
K           0.347584000000000    0.847584000000000    0.766420000000000 
K           0.500000000000000   -0.000000000000000    0.000000000000000 
K           0.500000000000000   -0.000000000000000    0.500000000000000 
K           0.500000000000000    0.500000000000000    0.000000000000000 
K           0.652416000000000    0.152416000000000    0.766420000000000 
K           0.652416000000000    0.847584000000000    0.233580000000000 
K           0.750000000000000    0.250000000000000    0.000000000000000 
K           0.750000000000000    0.750000000000000    0.000000000000000 
K           0.847584000000000    0.347584000000000    0.233580000000000 
K           0.847584000000000    0.652416000000000    0.766420000000000 
%ENDBLOCK POSITIONS_FRAC
