# Cell file generated by matador (Matthew Evans 2016)

%BLOCK LATTICE_CART
11.9682 0.0 0.0
0.0 2.87372 0.0
-1.99476 0.0 9.34547
%ENDBLOCK LATTICE_CART

%BLOCK POSITIONS_FRAC
P           0.000000000000000    0.000000000000000    0.000000000000000 
P           0.000000000000000    0.000000000000000    0.500000000000000 
P           0.000000000000000    0.333333000000000    0.000000000000000 
P           0.000000000000000    0.666667000000000    0.000000000000000 
P           0.194489000000000    0.000000000000000    0.479624000000000 
P           0.805511000000000    0.000000000000000    0.520376000000000 
K           0.035326000000000    0.000000000000000    0.286500000000000 
K           0.500000000000000    0.500000000000000    0.000000000000000 
K           0.500000000000000    0.500000000000000    0.500000000000000 
K           0.964674000000000    0.000000000000000    0.713500000000000 
%ENDBLOCK POSITIONS_FRAC
