# Cell file generated by matador (Matthew Evans 2016)

%BLOCK LATTICE_CART
7.64017 0.0 0.0
-2.76894 7.78706 0.0
0.401383 -1.62804 7.56347
%ENDBLOCK LATTICE_CART

%BLOCK POSITIONS_FRAC
P           0.000000000000000    0.000000000000000    0.000000000000000 
P           0.000000000000000    0.500000000000000    0.500000000000000 
P           0.214957000000000    0.536298000000000    0.735874000000000 
P           0.217903000000000    0.440576000000000    0.411272000000000 
P           0.306311000000000    0.238438000000000    0.818059000000000 
P           0.418834000000000    0.379949000000000    0.054714000000000 
P           0.500000000000000    0.500000000000000    0.000000000000000 
P           0.500000000000000    0.500000000000000    0.500000000000000 
P           0.581166000000000    0.620051000000000    0.945286000000000 
P           0.693689000000000    0.761562000000000    0.181941000000000 
P           0.782097000000000    0.559424000000000    0.588728000000000 
P           0.785043000000000    0.463702000000000    0.264126000000000 
K           0.363299000000000    0.749540000000000    0.966052000000000 
K           0.500000000000000    0.000000000000000    0.500000000000000 
K           0.636701000000000    0.250460000000000    0.033948000000000 
%ENDBLOCK POSITIONS_FRAC
