# Cell file generated by matador (Matthew Evans 2016)

%BLOCK LATTICE_CART
4.43244 0.0 0.0
0.0 11.1795 0.0
0.0 0.0 10.0527
%ENDBLOCK LATTICE_CART

%BLOCK POSITIONS_FRAC
P           0.000000000000000    0.101441000000000    0.026430000000000 
P           0.000000000000000    0.898559000000000    0.026430000000000 
P           0.175423000000000    0.263435000000000    0.171856000000000 
P           0.175423000000000    0.736565000000000    0.171856000000000 
P           0.380570000000000    0.000000000000000    0.991911000000000 
P           0.619430000000000    0.000000000000000    0.991911000000000 
P           0.824577000000000    0.263435000000000    0.171856000000000 
P           0.824577000000000    0.736565000000000    0.171856000000000 
K           0.000000000000000    0.000000000000000    0.450281000000000 
K           0.230116000000000    0.500000000000000    0.817440000000000 
K           0.231444000000000    0.242852000000000    0.392485000000000 
K           0.231444000000000    0.757148000000000    0.392485000000000 
K           0.264095000000000    0.000000000000000    0.269934000000000 
K           0.500000000000000    0.500000000000000    0.994067000000000 
K           0.735905000000000    0.000000000000000    0.269934000000000 
K           0.768556000000000    0.242852000000000    0.392485000000000 
K           0.768556000000000    0.757148000000000    0.392485000000000 
K           0.769884000000000    0.500000000000000    0.817440000000000 
%ENDBLOCK POSITIONS_FRAC
