# Cell file generated by matador (Matthew Evans 2016)

%BLOCK LATTICE_CART
7.7554 0.0 0.0
0.0 9.31241 0.0
0.0 0.0 6.60673
%ENDBLOCK LATTICE_CART

%BLOCK POSITIONS_FRAC
P           0.221967000000000    0.675904000000000    0.432478000000000 
P           0.278033000000000    0.324096000000000    0.932478000000000 
P           0.721967000000000    0.324096000000000    0.932478000000000 
P           0.778033000000000    0.675904000000000    0.432478000000000 
K           0.000000000000000    0.295555000000000    0.791989000000000 
K           0.000000000000000    0.568424000000000    0.046481000000000 
K           0.216572000000000    0.283848000000000    0.477790000000000 
K           0.283428000000000    0.716152000000000    0.977790000000000 
K           0.500000000000000    0.431576000000000    0.546481000000000 
K           0.500000000000000    0.704445000000000    0.291989000000000 
K           0.716572000000000    0.716152000000000    0.977790000000000 
K           0.783428000000000    0.283848000000000    0.477790000000000 
%ENDBLOCK POSITIONS_FRAC
