# Cell file generated by matador (Matthew Evans 2016)

%BLOCK LATTICE_CART
6.64734 0.0 0.0
0.0 5.15376 0.0
0.0 0.0 5.2152
%ENDBLOCK LATTICE_CART

%BLOCK POSITIONS_FRAC
P           0.000000000000000    0.500000000000000    0.277719000000000 
P           0.250000000000000    0.671482000000000    0.755673000000000 
P           0.500000000000000    0.500000000000000    0.277719000000000 
P           0.750000000000000    0.328518000000000    0.755673000000000 
K           0.250000000000000    0.168582000000000    0.354672000000000 
K           0.750000000000000    0.831418000000000    0.354672000000000 
%ENDBLOCK POSITIONS_FRAC
