# Cell file generated by matador (Matthew Evans 2016)

%BLOCK LATTICE_CART
6.6318 -0.0 0.0
-3.3159 5.74331 0.0
0.0 0.0 12.994
%ENDBLOCK LATTICE_CART

%BLOCK POSITIONS_FRAC
P          -0.000000000000000    0.000000000000000    0.000000000000000 
P          -0.000000000000000    0.000000000000000    0.357705000000000 
P          -0.000000000000000    0.000000000000000    0.500000000000000 
P          -0.000000000000000    0.000000000000000    0.642295000000000 
P           0.169437000000000    0.436783000000000    0.568475000000000 
P           0.267346000000000    0.830563000000000    0.568475000000000 
P           0.436783000000000    0.267346000000000    0.431525000000000 
P           0.563217000000000    0.732654000000000    0.568475000000000 
P           0.732654000000000    0.169437000000000    0.431525000000000 
P           0.830563000000000    0.563217000000000    0.431525000000000 
K           0.153715000000000    0.738574000000000    0.131293000000000 
K           0.261426000000000    0.415142000000000    0.131293000000000 
K           0.415141000000000    0.153716000000000    0.868707000000000 
K           0.584858000000000    0.846285000000000    0.131293000000000 
K           0.738573000000000    0.584859000000000    0.868707000000000 
K           0.846284000000000    0.261427000000000    0.868707000000000 
%ENDBLOCK POSITIONS_FRAC
