# Cell file generated by matador (Matthew Evans 2016)

%BLOCK LATTICE_CART
5.99591 0.0 0.0
0.0 4.72951 0.0
0.0 0.0 12.6425
%ENDBLOCK LATTICE_CART

%BLOCK POSITIONS_FRAC
P           0.000000000000000    0.000000000000000    0.500000000000000 
P           0.000000000000000    0.500000000000000    0.000000000000000 
P           0.500000000000000    0.000000000000000    0.500000000000000 
P           0.500000000000000    0.500000000000000    0.000000000000000 
K           0.000000000000000    0.000000000000000    0.000000000000000 
K           0.000000000000000    0.500000000000000    0.500000000000000 
K           0.038467000000000    0.250000000000000    0.250000000000000 
K           0.461533000000000    0.750000000000000    0.250000000000000 
K           0.500000000000000    0.000000000000000    0.000000000000000 
K           0.500000000000000    0.500000000000000    0.500000000000000 
K           0.538467000000000    0.250000000000000    0.750000000000000 
K           0.961533000000000    0.750000000000000    0.750000000000000 
%ENDBLOCK POSITIONS_FRAC
