# Cell file generated by matador (Matthew Evans 2016)

%BLOCK LATTICE_CART
9.2141 0.0 0.0
-4.24229 7.42477 0.0
0.506465 1.26856 4.74665
%ENDBLOCK LATTICE_CART

%BLOCK POSITIONS_FRAC
P           0.000000000000000    0.500000000000000    0.500000000000000 
P           0.232219000000000    0.511940000000000    0.474659000000000 
P           0.258062000000000    0.205193000000000    0.865298000000000 
P           0.500000000000000    0.000000000000000    0.500000000000000 
P           0.500000000000000    0.500000000000000    0.500000000000000 
P           0.741938000000000    0.794807000000000    0.134702000000000 
P           0.767781000000000    0.488060000000000    0.525341000000000 
K           0.000000000000000    0.000000000000000    0.000000000000000 
K           0.000000000000000    0.000000000000000    0.500000000000000 
K           0.000000000000000    0.500000000000000    0.000000000000000 
K           0.500000000000000    0.000000000000000    0.000000000000000 
K           0.500000000000000    0.500000000000000    0.000000000000000 
%ENDBLOCK POSITIONS_FRAC
