# Cell file generated by matador (Matthew Evans 2016)

%BLOCK LATTICE_CART
7.60225 0.0 0.0
-3.80112 6.58374 0.0
0.0 0.0 8.72969
%ENDBLOCK LATTICE_CART

%BLOCK POSITIONS_FRAC
P           0.000000000000000    0.000000000000000    0.000000000000000 
P           0.000000000000000    0.000000000000000    0.270896000000000 
P           0.000000000000000    0.000000000000000    0.729104000000000 
P           0.000000000000000    0.500000000000000    0.500000000000000 
P           0.500000000000000    0.000000000000000    0.500000000000000 
P           0.500000000000000    0.500000000000000    0.500000000000000 
K           0.000000000000000    0.000000000000000    0.500000000000000 
K           0.135210000000000    0.270420000000000    0.110928000000000 
K           0.135210000000000    0.864790000000000    0.110928000000000 
K           0.270420000000000    0.135210000000000    0.889072000000000 
K           0.729580000000000    0.864790000000000    0.110928000000000 
K           0.864790000000000    0.135210000000000    0.889072000000000 
K           0.864790000000000    0.729580000000000    0.889072000000000 
%ENDBLOCK POSITIONS_FRAC
