# Cell file generated by matador (Matthew Evans 2016)

%BLOCK LATTICE_CART
13.2919 0.0 0.0
0.0 5.55545 0.0
0.0 0.0 7.38546
%ENDBLOCK LATTICE_CART

%BLOCK POSITIONS_FRAC
P           0.000000000000000    0.000000000000000    0.580900000000000 
P           0.000000000000000    0.500000000000000    0.273940000000000 
P           0.085194000000000    0.792041000000000    0.443247000000000 
P           0.210483000000000    0.793577000000000    0.581922000000000 
P           0.289517000000000    0.293577000000000    0.418078000000000 
P           0.414806000000000    0.292041000000000    0.556753000000000 
P           0.500000000000000    0.000000000000000    0.726060000000000 
P           0.500000000000000    0.500000000000000    0.419100000000000 
P           0.585194000000000    0.707959000000000    0.556753000000000 
P           0.710483000000000    0.706423000000000    0.418078000000000 
P           0.789517000000000    0.206423000000000    0.581922000000000 
P           0.914806000000000    0.207959000000000    0.443247000000000 
K           0.000000000000000    0.000000000000000    0.047116000000000 
K           0.500000000000000    0.500000000000000    0.952884000000000 
%ENDBLOCK POSITIONS_FRAC
