# Cell file generated by matador (Matthew Evans 2016)

%BLOCK LATTICE_CART
10.8373 0.0 0.0
0.0 10.8373 0.0
0.0 0.0 4.8935
%ENDBLOCK LATTICE_CART

%BLOCK POSITIONS_FRAC
P           0.000000000000000    0.000000000000000    0.395136000000000 
P           0.000000000000000    0.000000000000000    0.604864000000000 
K           0.000000000000000    0.000000000000000    0.000000000000000 
K           0.146738000000000    0.307506000000000    0.500000000000000 
K           0.146738000000000    0.692494000000000    0.500000000000000 
K           0.307506000000000    0.146738000000000    0.500000000000000 
K           0.307506000000000    0.853262000000000    0.500000000000000 
K           0.318469000000000    0.318469000000000    0.000000000000000 
K           0.318469000000000    0.681531000000000    0.000000000000000 
K           0.500000000000000    0.500000000000000    0.000000000000000 
K           0.681531000000000    0.318469000000000    0.000000000000000 
K           0.681531000000000    0.681531000000000    0.000000000000000 
K           0.692494000000000    0.146738000000000    0.500000000000000 
K           0.692494000000000    0.853262000000000    0.500000000000000 
K           0.853262000000000    0.307506000000000    0.500000000000000 
K           0.853262000000000    0.692494000000000    0.500000000000000 
%ENDBLOCK POSITIONS_FRAC
