# Cell file generated by matador (Matthew Evans 2016)

%BLOCK LATTICE_CART
9.74489 0.0 0.0
-4.87244 8.43932 0.0
0.0 0.0 5.16945
%ENDBLOCK LATTICE_CART

%BLOCK POSITIONS_FRAC
P           0.000000000000000   -0.000000000000000    0.371786000000000 
P           0.000000000000000    0.500000000000000    0.064713000000000 
P           0.000000000000000    0.500000000000000    0.307301000000000 
P           0.500000000000000   -0.000000000000000    0.064713000000000 
P           0.500000000000000   -0.000000000000000    0.307301000000000 
P           0.500000000000000    0.500000000000000    0.064713000000000 
P           0.500000000000000    0.500000000000000    0.307301000000000 
K           0.000000000000000    0.307411000000000    0.758559000000000 
K           0.000000000000000    0.692589000000000    0.758559000000000 
K           0.307411000000000   -0.000000000000000    0.758559000000000 
K           0.307411000000000    0.307411000000000    0.758559000000000 
K           0.692589000000000   -0.000000000000000    0.758559000000000 
K           0.692589000000000    0.692589000000000    0.758559000000000 
%ENDBLOCK POSITIONS_FRAC
