# Cell file generated by matador (Matthew Evans 2016)

%BLOCK LATTICE_CART
5.57078 0.0 0.0
-2.78539 4.82443 0.0
0.0 0.0 7.448
%ENDBLOCK LATTICE_CART

%BLOCK POSITIONS_FRAC
P           0.540611000000000    0.081222000000000    0.000000000000000 
P           0.540611000000000    0.459389000000000    0.000000000000000 
P           0.918778000000000    0.459389000000000    0.000000000000000 
K          -0.000000000000000   -0.000000000000000    0.000000000000000 
K          -0.000000000000000   -0.000000000000000    0.500000000000000 
K           0.333333000000000    0.666667000000000    0.000000000000000 
K           0.333333000000000    0.666667000000000    0.500000000000000 
%ENDBLOCK POSITIONS_FRAC
