# Cell file generated by matador (Matthew Evans 2016)

%BLOCK LATTICE_CART
7.65812 -0.0 0.0
-3.82906 6.63213 0.0
0.0 0.0 5.58298
%ENDBLOCK LATTICE_CART

%BLOCK POSITIONS_FRAC
P           0.333334000000000    0.666668000000000    0.750000000000000 
P           0.666668000000000    0.333334000000000    0.250000000000000 
K           0.126143000000000    0.727291000000000    0.250000000000000 
K           0.272711000000000    0.398853000000000    0.250000000000000 
K           0.398853000000000    0.126143000000000    0.750000000000000 
K           0.601149000000000    0.873859000000000    0.250000000000000 
K           0.727291000000000    0.601149000000000    0.750000000000000 
K           0.873859000000000    0.272711000000000    0.750000000000000 
%ENDBLOCK POSITIONS_FRAC
