# Cell file generated by matador (Matthew Evans 2016)

%BLOCK LATTICE_CART
11.0564 0.0 0.0
0.0 9.61594 0.0
0.0 0.0 5.18828
%ENDBLOCK LATTICE_CART

%BLOCK POSITIONS_FRAC
P           0.000000000000000    0.000000000000000    0.000000000000000 
P           0.000000000000000    0.500000000000000    0.000000000000000 
P           0.000000000000000    0.500000000000000    0.500000000000000 
P           0.500000000000000    0.000000000000000    0.000000000000000 
P           0.500000000000000    0.500000000000000    0.000000000000000 
P           0.500000000000000    0.500000000000000    0.500000000000000 
K           0.000000000000000    0.000000000000000    0.500000000000000 
K           0.250000000000000    0.173733000000000    0.257342000000000 
K           0.250000000000000    0.500000000000000    0.958048000000000 
K           0.250000000000000    0.826267000000000    0.257342000000000 
K           0.500000000000000    0.000000000000000    0.500000000000000 
K           0.750000000000000    0.173733000000000    0.742658000000000 
K           0.750000000000000    0.500000000000000    0.041952000000000 
K           0.750000000000000    0.826267000000000    0.742658000000000 
%ENDBLOCK POSITIONS_FRAC
