# Cell file generated by matador (Matthew Evans 2016)

%BLOCK LATTICE_CART
10.8266 0.0 0.0
0.0 10.8266 0.0
0.0 0.0 8.82595
%ENDBLOCK LATTICE_CART

%BLOCK POSITIONS_FRAC
P           0.000000000000000    0.000000000000000    0.000000000000000 
P           0.000000000000000    0.500000000000000    0.250000000000000 
P           0.000000000000000    0.500000000000000    0.750000000000000 
P           0.500000000000000    0.000000000000000    0.250000000000000 
P           0.500000000000000    0.000000000000000    0.750000000000000 
P           0.500000000000000    0.500000000000000    0.500000000000000 
K           0.000000000000000    0.000000000000000    0.500000000000000 
K           0.113134000000000    0.113134000000000    0.777524000000000 
K           0.113134000000000    0.886866000000000    0.222476000000000 
K           0.183091000000000    0.183091000000000    0.140163000000000 
K           0.183091000000000    0.816909000000000    0.859837000000000 
K           0.316909000000000    0.316909000000000    0.640163000000000 
K           0.316909000000000    0.683091000000000    0.359837000000000 
K           0.386866000000000    0.386866000000000    0.277524000000000 
K           0.386866000000000    0.613134000000000    0.722476000000000 
K           0.500000000000000    0.500000000000000    0.000000000000000 
K           0.613134000000000    0.386866000000000    0.722476000000000 
K           0.613134000000000    0.613134000000000    0.277524000000000 
K           0.683091000000000    0.316909000000000    0.359837000000000 
K           0.683091000000000    0.683091000000000    0.640163000000000 
K           0.816909000000000    0.183091000000000    0.859837000000000 
K           0.816909000000000    0.816909000000000    0.140163000000000 
K           0.886866000000000    0.113134000000000    0.222476000000000 
K           0.886866000000000    0.886866000000000    0.777524000000000 
%ENDBLOCK POSITIONS_FRAC
