# Cell file generated by matador (Matthew Evans 2016)

%BLOCK LATTICE_CART
5.95766 0.0 0.0
-2.97883 5.15949 0.0
0.0 0.0 5.37519
%ENDBLOCK LATTICE_CART

%BLOCK POSITIONS_FRAC
P           0.000000000000000    0.000000000000000    0.372080000000000 
P           0.000000000000000    0.000000000000000    0.627920000000000 
P           0.333333000000000    0.666667000000000    0.273471000000000 
P           0.333333000000000    0.666667000000000    0.726529000000000 
P           0.666667000000000    0.333333000000000    0.273471000000000 
P           0.666667000000000    0.333333000000000    0.726529000000000 
K           0.000000000000000    0.000000000000000    0.000000000000000 
%ENDBLOCK POSITIONS_FRAC
