# Cell file generated by matador (Matthew Evans 2016)

%BLOCK LATTICE_CART
6.69712 0.0 0.0
-3.34856 5.79988 0.0
0.0 0.0 8.46578
%ENDBLOCK LATTICE_CART

%BLOCK POSITIONS_FRAC
P           0.102883000000000    0.867215000000000    0.612692000000000 
P           0.132785000000000    0.235668000000000    0.612692000000000 
P           0.235668000000000    0.132785000000000    0.612692000000000 
P           0.764332000000000    0.897117000000000    0.612692000000000 
P           0.867215000000000    0.102883000000000    0.612692000000000 
P           0.897117000000000    0.764332000000000    0.612692000000000 
K           0.000000000000000    0.000000000000000    0.088504000000000 
K           0.000000000000000    0.400385000000000    0.119094000000000 
K           0.400385000000000    0.000000000000000    0.119094000000000 
K           0.599615000000000    0.599615000000000    0.119094000000000 
%ENDBLOCK POSITIONS_FRAC
