# Cell file generated by matador (Matthew Evans 2016)

%BLOCK LATTICE_CART
8.59651 0.0 0.0
0.0 7.93423 0.0
1.65579 0.0 4.3719
%ENDBLOCK LATTICE_CART

%BLOCK POSITIONS_FRAC
P           0.243810000000000    0.000000000000000    0.479181000000000 
P           0.743810000000000    0.500000000000000    0.479181000000000 
K           0.008523000000000    0.500000000000000    0.627537000000000 
K           0.258662000000000    0.500000000000000    0.891385000000000 
K           0.483047000000000    0.500000000000000    0.259330000000000 
K           0.508523000000000    0.000000000000000    0.627537000000000 
K           0.758662000000000    0.000000000000000    0.891385000000000 
K           0.983047000000000    0.000000000000000    0.259330000000000 
%ENDBLOCK POSITIONS_FRAC
