# Cell file generated by matador (Matthew Evans 2016)

%BLOCK LATTICE_CART
7.54232 0.0 0.0
-3.77116 6.53184 0.0
0.0 0.0 18.0014
%ENDBLOCK LATTICE_CART

%BLOCK POSITIONS_FRAC
P           0.000000000000000    0.000000000000000    0.390482000000000 
P           0.000000000000000    0.000000000000000    0.929578000000000 
P           0.333333000000000    0.666667000000000    0.057149000000000 
P           0.333333000000000    0.666667000000000    0.596244000000000 
P           0.666667000000000    0.333333000000000    0.262911000000000 
P           0.666667000000000    0.333333000000000    0.723815000000000 
K           0.051533000000000    0.525766000000000    0.882648000000000 
K           0.140900000000000    0.281801000000000    0.215981000000000 
K           0.140900000000000    0.859100000000000    0.215981000000000 
K           0.183299000000000    0.366598000000000    0.729801000000000 
K           0.183299000000000    0.816701000000000    0.729801000000000 
K           0.300068000000000    0.150034000000000    0.063134000000000 
K           0.384866000000000    0.192433000000000    0.549314000000000 
K           0.474234000000000    0.525766000000000    0.882648000000000 
K           0.474234000000000    0.948467000000000    0.882648000000000 
K           0.516633000000000    0.033265000000000    0.396467000000000 
K           0.516633000000000    0.483367000000000    0.396467000000000 
K           0.633402000000000    0.816701000000000    0.729801000000000 
K           0.718199000000000    0.859100000000000    0.215981000000000 
K           0.807567000000000    0.192433000000000    0.549314000000000 
K           0.807567000000000    0.615134000000000    0.549314000000000 
K           0.849966000000000    0.150034000000000    0.063134000000000 
K           0.849966000000000    0.699932000000000    0.063134000000000 
K           0.966735000000000    0.483367000000000    0.396467000000000 
%ENDBLOCK POSITIONS_FRAC
