# Cell file generated by matador (Matthew Evans 2016)

%BLOCK LATTICE_CART
7.86339 -0.0 0.0
-3.9317 6.8099 0.0
0.0 0.0 10.4642
%ENDBLOCK LATTICE_CART

%BLOCK POSITIONS_FRAC
P           0.101989000000000    0.740101000000000    0.750000000000000 
P           0.259899000000000    0.361888000000000    0.750000000000000 
P           0.361888000000000    0.101989000000000    0.250000000000000 
P           0.638112000000000    0.898011000000000    0.750000000000000 
P           0.740101000000000    0.638112000000000    0.250000000000000 
P           0.898011000000000    0.259899000000000    0.250000000000000 
K           0.000000000000000    0.000000000000000    0.000000000000000 
K           0.000000000000000    0.000000000000000    0.250000000000000 
K           0.000000000000000    0.000000000000000    0.500000000000000 
K           0.000000000000000    0.000000000000000    0.750000000000000 
K           0.000000000000000    0.500000000000000    0.000000000000000 
K           0.000000000000000    0.500000000000000    0.500000000000000 
K           0.500000000000000    0.000000000000000    0.000000000000000 
K           0.500000000000000    0.000000000000000    0.500000000000000 
K           0.500000000000000    0.500000000000000    0.000000000000000 
K           0.500000000000000    0.500000000000000    0.500000000000000 
%ENDBLOCK POSITIONS_FRAC
