# Cell file generated by matador (Matthew Evans 2016)

%BLOCK LATTICE_CART
6.17182 0.0 0.0
-3.08591 5.34495 0.0
0.0 0.0 12.2155
%ENDBLOCK LATTICE_CART

%BLOCK POSITIONS_FRAC
P           0.231473000000000    0.205225000000000    0.410816000000000 
P           0.231473000000000    0.205225000000000    0.589184000000000 
P           0.333333000000000    0.666667000000000    0.224496000000000 
P           0.333333000000000    0.666667000000000    0.775504000000000 
P           0.666667000000000    0.333333000000000    0.395254000000000 
P           0.666667000000000    0.333333000000000    0.604746000000000 
P           0.794775000000000    0.026248000000000    0.410816000000000 
P           0.794775000000000    0.026248000000000    0.589184000000000 
P           0.973752000000000    0.768527000000000    0.410816000000000 
P           0.973752000000000    0.768527000000000    0.589184000000000 
K           0.000000000000000    0.000000000000000    0.000000000000000 
K           0.020777000000000    0.486229000000000    0.500000000000000 
K           0.465451000000000    0.979223000000000    0.500000000000000 
K           0.513771000000000    0.534549000000000    0.500000000000000 
%ENDBLOCK POSITIONS_FRAC
