# Cell file generated by matador (Matthew Evans 2016)

%BLOCK LATTICE_CART
7.9591 0.0 0.0
-3.97955 6.89279 0.0
0.0 0.0 9.16173
%ENDBLOCK LATTICE_CART

%BLOCK POSITIONS_FRAC
P           0.000000000000000    0.000000000000000    0.691910000000000 
P           0.333333000000000    0.666667000000000    0.461631000000000 
P           0.666667000000000    0.333333000000000    0.461631000000000 
K           0.000000000000000    0.234162000000000    0.374517000000000 
K           0.000000000000000    0.477789000000000    0.726729000000000 
K           0.000000000000000    0.711804000000000    0.995324000000000 
K           0.234162000000000    0.000000000000000    0.374517000000000 
K           0.288196000000000    0.288196000000000    0.995324000000000 
K           0.477789000000000    0.000000000000000    0.726729000000000 
K           0.522211000000000    0.522211000000000    0.726729000000000 
K           0.711804000000000    0.000000000000000    0.995324000000000 
K           0.765838000000000    0.765838000000000    0.374517000000000 
%ENDBLOCK POSITIONS_FRAC
