# Cell file generated by matador (Matthew Evans 2016)

%BLOCK LATTICE_CART
10.9798 0.0 0.0
0.0 7.60375 0.0
0.0 0.0 11.8409
%ENDBLOCK LATTICE_CART

%BLOCK POSITIONS_FRAC
P           0.000000000000000    0.000000000000000    0.000000000000000 
P           0.500000000000000    0.000000000000000    0.500000000000000 
P           0.500000000000000    0.176663000000000    0.184517000000000 
P           0.500000000000000    0.176663000000000    0.815483000000000 
P           0.500000000000000    0.500000000000000    0.000000000000000 
P           0.500000000000000    0.823337000000000    0.184517000000000 
P           0.500000000000000    0.823337000000000    0.815483000000000 
K           0.000000000000000    0.000000000000000    0.500000000000000 
K           0.000000000000000    0.257234000000000    0.299495000000000 
K           0.000000000000000    0.257234000000000    0.700505000000000 
K           0.000000000000000    0.500000000000000    0.000000000000000 
K           0.000000000000000    0.500000000000000    0.500000000000000 
K           0.000000000000000    0.742766000000000    0.299495000000000 
K           0.000000000000000    0.742766000000000    0.700505000000000 
K           0.230197000000000    0.000000000000000    0.370355000000000 
K           0.230197000000000    0.000000000000000    0.629645000000000 
K           0.259973000000000    0.000000000000000    0.124680000000000 
K           0.259973000000000    0.000000000000000    0.875320000000000 
K           0.500000000000000    0.000000000000000    0.000000000000000 
K           0.500000000000000    0.194149000000000    0.351744000000000 
K           0.500000000000000    0.194149000000000    0.648256000000000 
K           0.500000000000000    0.500000000000000    0.500000000000000 
K           0.500000000000000    0.805851000000000    0.351744000000000 
K           0.500000000000000    0.805851000000000    0.648256000000000 
K           0.740027000000000    0.000000000000000    0.124680000000000 
K           0.740027000000000    0.000000000000000    0.875320000000000 
K           0.769803000000000    0.000000000000000    0.370355000000000 
K           0.769803000000000    0.000000000000000    0.629645000000000 
%ENDBLOCK POSITIONS_FRAC
