# Cell file generated by matador (Matthew Evans 2016)

%BLOCK LATTICE_CART
6.69979 0.0 0.0
-3.3499 5.80219 0.0
0.0 0.0 7.36605
%ENDBLOCK LATTICE_CART

%BLOCK POSITIONS_FRAC
P           0.505682000000000    0.011363000000000    0.000000000000000 
P           0.505682000000000    0.494318000000000    0.000000000000000 
P           0.548845000000000    0.097690000000000    0.500000000000000 
P           0.548845000000000    0.451155000000000    0.500000000000000 
P           0.666667000000000    0.333333000000000    0.000000000000000 
P           0.902310000000000    0.451155000000000    0.500000000000000 
P           0.988637000000000    0.494318000000000    0.000000000000000 
K           0.000000000000000    0.000000000000000    0.000000000000000 
K           0.000000000000000    0.000000000000000    0.500000000000000 
K           0.333333000000000    0.666667000000000    0.000000000000000 
K           0.333333000000000    0.666667000000000    0.500000000000000 
%ENDBLOCK POSITIONS_FRAC
