# Cell file generated by matador (Matthew Evans 2016)

%BLOCK LATTICE_CART
10.6173 0.0 0.0
0.0 10.6173 0.0
0.0 0.0 10.9749
%ENDBLOCK LATTICE_CART

%BLOCK POSITIONS_FRAC
P           0.000000000000000    0.368286000000000    0.500000000000000 
P           0.000000000000000    0.631714000000000    0.500000000000000 
P           0.131714000000000    0.500000000000000    0.000000000000000 
P           0.368286000000000    0.000000000000000    0.500000000000000 
P           0.500000000000000    0.131714000000000    0.000000000000000 
P           0.500000000000000    0.868286000000000    0.000000000000000 
P           0.631714000000000    0.000000000000000    0.500000000000000 
P           0.868286000000000    0.500000000000000    0.000000000000000 
K           0.000000000000000    0.000000000000000    0.000000000000000 
K           0.000000000000000    0.000000000000000    0.500000000000000 
K           0.000000000000000    0.500000000000000    0.250000000000000 
K           0.000000000000000    0.500000000000000    0.750000000000000 
K           0.172511000000000    0.172511000000000    0.367750000000000 
K           0.172511000000000    0.827489000000000    0.632250000000000 
K           0.186718000000000    0.186718000000000    0.094738000000000 
K           0.186718000000000    0.813282000000000    0.905262000000000 
K           0.313282000000000    0.313282000000000    0.594738000000000 
K           0.313282000000000    0.686718000000000    0.405262000000000 
K           0.327489000000000    0.327489000000000    0.867750000000000 
K           0.327489000000000    0.672511000000000    0.132250000000000 
K           0.500000000000000    0.000000000000000    0.250000000000000 
K           0.500000000000000    0.000000000000000    0.750000000000000 
K           0.500000000000000    0.500000000000000    0.000000000000000 
K           0.500000000000000    0.500000000000000    0.500000000000000 
K           0.672511000000000    0.327489000000000    0.132250000000000 
K           0.672511000000000    0.672511000000000    0.867750000000000 
K           0.686718000000000    0.313282000000000    0.405262000000000 
K           0.686718000000000    0.686718000000000    0.594738000000000 
K           0.813282000000000    0.186718000000000    0.905262000000000 
K           0.813282000000000    0.813282000000000    0.094738000000000 
K           0.827489000000000    0.172511000000000    0.632250000000000 
K           0.827489000000000    0.827489000000000    0.367750000000000 
%ENDBLOCK POSITIONS_FRAC
