# Cell file generated by matador (Matthew Evans 2016)

%BLOCK LATTICE_CART
8.42728 0.0 0.0
-4.21364 7.29824 0.0
0.0 0.0 6.13391
%ENDBLOCK LATTICE_CART

%BLOCK POSITIONS_FRAC
P           0.000000000000000    0.000000000000000    0.247333000000000 
P           0.138184000000000    0.569092000000000    0.503101000000000 
P           0.430908000000000    0.569092000000000    0.503101000000000 
P           0.430908000000000    0.861816000000000    0.503101000000000 
P           0.569092000000000    0.138184000000000    0.503101000000000 
P           0.569092000000000    0.430908000000000    0.503101000000000 
P           0.861816000000000    0.430908000000000    0.503101000000000 
K           0.000000000000000    0.500000000000000    0.934395000000000 
K           0.333333000000000    0.666667000000000    0.812432000000000 
K           0.500000000000000    0.000000000000000    0.934395000000000 
K           0.500000000000000    0.500000000000000    0.934395000000000 
K           0.666667000000000    0.333333000000000    0.812432000000000 
%ENDBLOCK POSITIONS_FRAC
