# Cell file generated by matador (Matthew Evans 2016)

%BLOCK LATTICE_CART
7.75312 0.0 0.0
-3.87656 6.7144 0.0
0.0 0.0 6.30478
%ENDBLOCK LATTICE_CART

%BLOCK POSITIONS_FRAC
P           0.000000000000000    0.000000000000000    0.000000000000000 
P           0.333333000000000    0.666667000000000    0.372350000000000 
P           0.333333000000000    0.666667000000000    0.627650000000000 
P           0.666667000000000    0.333333000000000    0.372350000000000 
P           0.666667000000000    0.333333000000000    0.627650000000000 
K           0.000000000000000    0.500000000000000    0.000000000000000 
K           0.000000000000000    0.500000000000000    0.500000000000000 
K           0.500000000000000    0.000000000000000    0.000000000000000 
K           0.500000000000000    0.000000000000000    0.500000000000000 
K           0.500000000000000    0.500000000000000    0.000000000000000 
K           0.500000000000000    0.500000000000000    0.500000000000000 
%ENDBLOCK POSITIONS_FRAC
