# Cell file generated by matador (Matthew Evans 2016)

%BLOCK LATTICE_CART
7.05939 0.0 0.0
0.0 6.61042 0.0
2.45535 0.0 10.5374
%ENDBLOCK LATTICE_CART

%BLOCK POSITIONS_FRAC
P           0.000000000000000    0.000000000000000    0.000000000000000 
P           0.192723000000000    0.000000000000000    0.934367000000000 
P           0.450906000000000    0.000000000000000    0.657357000000000 
P           0.500000000000000    0.000000000000000    0.500000000000000 
P           0.549094000000000    0.000000000000000    0.342643000000000 
P           0.807277000000000    0.000000000000000    0.065633000000000 
K           0.000000000000000    0.000000000000000    0.500000000000000 
K           0.000000000000000    0.500000000000000    0.000000000000000 
K           0.000000000000000    0.500000000000000    0.500000000000000 
K           0.037467000000000    0.233055000000000    0.247739000000000 
K           0.037467000000000    0.766945000000000    0.247739000000000 
K           0.500000000000000    0.000000000000000    0.000000000000000 
K           0.500000000000000    0.500000000000000    0.000000000000000 
K           0.500000000000000    0.500000000000000    0.500000000000000 
K           0.962533000000000    0.233055000000000    0.752261000000000 
K           0.962533000000000    0.766945000000000    0.752261000000000 
%ENDBLOCK POSITIONS_FRAC
