# Cell file generated by matador (Matthew Evans 2016)

%BLOCK LATTICE_CART
5.43361 0.0 0.0
0.0 6.77278 0.0
-3.75134 0.0 7.12201
%ENDBLOCK LATTICE_CART

%BLOCK POSITIONS_FRAC
P          -0.000000000000000    0.124516000000000    0.500000000000000 
P          -0.000000000000000    0.270205000000000    0.000000000000000 
P          -0.000000000000000    0.623641000000000    0.000000000000000 
P          -0.000000000000000    0.867863000000000    0.500000000000000 
P           0.500000000000000    0.226515000000000    0.000000000000000 
K           0.191699000000000    0.586856000000000    0.450649000000000 
K           0.439844000000000    0.189528000000000    0.611837000000000 
K           0.560156000000000    0.189528000000000    0.388163000000000 
K           0.808301000000000    0.586856000000000    0.549351000000000 
%ENDBLOCK POSITIONS_FRAC
