# Cell file generated by matador (Matthew Evans 2016)

%BLOCK LATTICE_CART
7.4751 0.0 0.0
-3.73755 6.47362 0.0
0.0 0.0 10.6896
%ENDBLOCK LATTICE_CART

%BLOCK POSITIONS_FRAC
P           0.333333000000000    0.666667000000000    0.091964000000000 
P           0.333333000000000    0.666667000000000    0.197645000000000 
P           0.333333000000000    0.666667000000000    0.591964000000000 
P           0.333333000000000    0.666667000000000    0.697645000000000 
K          -0.000000000000000    0.000000000000000    0.103989000000000 
K          -0.000000000000000    0.000000000000000    0.603989000000000 
K           0.176082000000000    0.476042000000000    0.912682000000000 
K           0.176082000000000    0.700042000000000    0.412682000000000 
K           0.299958000000000    0.476042000000000    0.412682000000000 
K           0.299958000000000    0.823918000000000    0.912682000000000 
K           0.523958000000000    0.700042000000000    0.912682000000000 
K           0.523958000000000    0.823918000000000    0.412682000000000 
K           0.666666000000000    0.333334000000000    0.370156000000000 
K           0.666666000000000    0.333334000000000    0.870156000000000 
%ENDBLOCK POSITIONS_FRAC
