# Cell file generated by matador (Matthew Evans 2016)

%BLOCK LATTICE_CART
8.04257 0.0 0.0
0.0 8.04257 0.0
0.0 0.0 6.74854
%ENDBLOCK LATTICE_CART

%BLOCK POSITIONS_FRAC
P           0.294190000000000    0.360420000000000    0.500000000000000 
P           0.360420000000000    0.705810000000000    0.000000000000000 
P           0.639580000000000    0.294190000000000    0.000000000000000 
P           0.705810000000000    0.639580000000000    0.500000000000000 
K           0.000000000000000    0.000000000000000    0.000000000000000 
K           0.000000000000000    0.000000000000000    0.500000000000000 
K           0.260055000000000    0.263841000000000    0.000000000000000 
K           0.263841000000000    0.739945000000000    0.500000000000000 
K           0.500000000000000    0.500000000000000    0.000000000000000 
K           0.500000000000000    0.500000000000000    0.500000000000000 
K           0.736159000000000    0.260055000000000    0.500000000000000 
K           0.739945000000000    0.736159000000000    0.000000000000000 
%ENDBLOCK POSITIONS_FRAC
