# Cell file generated by matador (Matthew Evans 2016)

%BLOCK LATTICE_CART
5.24509 0.0 0.0
0.0 6.78952 0.0
1.63319 0.0 7.02322
%ENDBLOCK LATTICE_CART

%BLOCK POSITIONS_FRAC
P           0.214204000000000    0.060214000000000    0.777376000000000 
P           0.214204000000000    0.939786000000000    0.277376000000000 
P           0.353234000000000    0.199242000000000    0.980651000000000 
P           0.353234000000000    0.800758000000000    0.480651000000000 
P           0.770480000000000    0.382121000000000    0.020739000000000 
P           0.770480000000000    0.617879000000000    0.520739000000000 
P           0.858990000000000    0.086077000000000    0.597303000000000 
P           0.858990000000000    0.913923000000000    0.097303000000000 
P           0.934817000000000    0.462881000000000    0.273355000000000 
P           0.934817000000000    0.537119000000000    0.773355000000000 
P           0.984021000000000    0.054919000000000    0.150893000000000 
P           0.984021000000000    0.945081000000000    0.650893000000000 
K           0.576939000000000    0.311531000000000    0.415713000000000 
K           0.576939000000000    0.688469000000000    0.915713000000000 
%ENDBLOCK POSITIONS_FRAC
