# Cell file generated by matador (Matthew Evans 2016)

%BLOCK LATTICE_CART
4.23682 0.0 0.0
0.0 8.37004 0.0
-0.761423 0.0 7.23371
%ENDBLOCK LATTICE_CART

%BLOCK POSITIONS_FRAC
P           0.000000000000000    0.974337000000000    0.500000000000000 
P           0.500000000000000    0.820583000000000    0.500000000000000 
K           0.000000000000000    0.453142000000000    0.500000000000000 
K           0.000000000000000    0.820077000000000    0.000000000000000 
K           0.035785000000000    0.788127000000000    0.720819000000000 
K           0.500000000000000    0.318276000000000    0.500000000000000 
K           0.964215000000000    0.788127000000000    0.279181000000000 
%ENDBLOCK POSITIONS_FRAC
