# Cell file generated by matador (Matthew Evans 2016)

%BLOCK LATTICE_CART
6.85859 0.0 0.0
0.317935 6.59649 0.0
0.951492 0.947819 7.68398
%ENDBLOCK LATTICE_CART

%BLOCK POSITIONS_FRAC
P           0.259848000000000    0.621905000000000    0.926193000000000 
P           0.740152000000000    0.378095000000000    0.073807000000000 
K           0.000000000000000    0.000000000000000    0.500000000000000 
K           0.000000000000000    0.500000000000000    0.000000000000000 
K           0.500000000000000    0.000000000000000    0.000000000000000 
K           0.500000000000000    0.000000000000000    0.500000000000000 
K           0.500000000000000    0.500000000000000    0.000000000000000 
K           0.500000000000000    0.500000000000000    0.500000000000000 
%ENDBLOCK POSITIONS_FRAC
