# Cell file generated by matador (Matthew Evans 2016)

%BLOCK LATTICE_CART
7.83999 0.0 0.0
0.0 7.83999 0.0
0.0 0.0 5.6393
%ENDBLOCK LATTICE_CART

%BLOCK POSITIONS_FRAC
P           0.500000000000000    0.500000000000000    0.000000000000000 
P           0.500000000000000    0.500000000000000    0.500000000000000 
K           0.000000000000000    0.000000000000000    0.000000000000000 
K           0.000000000000000    0.000000000000000    0.500000000000000 
K           0.258716000000000    0.258716000000000    0.659302000000000 
K           0.258716000000000    0.741284000000000    0.340698000000000 
K           0.741284000000000    0.258716000000000    0.340698000000000 
K           0.741284000000000    0.741284000000000    0.659302000000000 
%ENDBLOCK POSITIONS_FRAC
