# Cell file generated by matador (Matthew Evans 2016)

%BLOCK LATTICE_CART
5.89931 -0.0 0.0
-2.94966 5.10895 0.0
0.0 0.0 9.47035
%ENDBLOCK LATTICE_CART

%BLOCK POSITIONS_FRAC
P          -0.000000000000000    0.000000000000000    0.290768000000000 
P          -0.000000000000000    0.000000000000000    0.621780000000000 
P          -0.000000000000000    0.000000000000000    0.857560000000000 
P           0.203420000000000    0.026731000000000    0.534112000000000 
P           0.333333000000000    0.666667000000000    0.409163000000000 
P           0.823311000000000    0.796580000000000    0.534112000000000 
P           0.973269000000000    0.176689000000000    0.534112000000000 
K           0.334185000000000    0.327455000000000    0.394080000000000 
K           0.672545000000000    0.006730000000000    0.394080000000000 
K           0.993270000000000    0.665815000000000    0.394080000000000 
%ENDBLOCK POSITIONS_FRAC
