# Cell file generated by matador (Matthew Evans 2016)

%BLOCK LATTICE_CART
12.9855 0.0 0.0
0.0 12.9855 0.0
0.0 0.0 3.79161
%ENDBLOCK LATTICE_CART

%BLOCK POSITIONS_FRAC
P           0.000000000000000    0.000000000000000    0.000000000000000 
P           0.000000000000000    0.000000000000000    0.500000000000000 
P           0.000000000000000    0.500000000000000    0.500000000000000 
P           0.084509000000000    0.328643000000000    0.870865000000000 
P           0.084509000000000    0.671357000000000    0.129135000000000 
P           0.328643000000000    0.084509000000000    0.870865000000000 
P           0.328643000000000    0.915491000000000    0.129135000000000 
P           0.500000000000000    0.000000000000000    0.500000000000000 
P           0.500000000000000    0.500000000000000    0.000000000000000 
P           0.500000000000000    0.500000000000000    0.500000000000000 
P           0.671357000000000    0.084509000000000    0.129135000000000 
P           0.671357000000000    0.915491000000000    0.870865000000000 
P           0.915491000000000    0.328643000000000    0.129135000000000 
P           0.915491000000000    0.671357000000000    0.870865000000000 
K           0.000000000000000    0.202127000000000    0.000000000000000 
K           0.000000000000000    0.797873000000000    0.000000000000000 
K           0.202127000000000    0.000000000000000    0.000000000000000 
K           0.797873000000000    0.000000000000000    0.000000000000000 
%ENDBLOCK POSITIONS_FRAC
