# Cell file generated by matador (Matthew Evans 2016)

%BLOCK LATTICE_CART
6.54948 0.0 0.0
0.0 6.00194 0.0
3.43003 0.0 7.58639
%ENDBLOCK LATTICE_CART

%BLOCK POSITIONS_FRAC
P           0.747602000000000    0.259681000000000    0.953704000000000 
P           0.747602000000000    0.740319000000000    0.953704000000000 
P           0.883143000000000    0.293745000000000    0.805120000000000 
P           0.883143000000000    0.706255000000000    0.805120000000000 
K           0.128507000000000    0.000000000000000    0.036332000000000 
K           0.399629000000000    0.171861000000000    0.257490000000000 
K           0.399629000000000    0.828139000000000    0.257490000000000 
K           0.516766000000000    0.500000000000000    0.499192000000000 
K           0.539689000000000    0.000000000000000    0.967982000000000 
K           0.984883000000000    0.304493000000000    0.321098000000000 
K           0.984883000000000    0.695507000000000    0.321098000000000 
%ENDBLOCK POSITIONS_FRAC
