# Cell file generated by matador (Matthew Evans 2016)

%BLOCK LATTICE_CART
7.75294 0.0 0.0
0.676068 5.90378 0.0
-1.79334 -2.20826 5.54656
%ENDBLOCK LATTICE_CART

%BLOCK POSITIONS_FRAC
P           0.410725000000000    0.355592000000000    0.973494000000000 
P           0.589275000000000    0.644408000000000    0.026506000000000 
K           0.000000000000000    0.000000000000000    0.000000000000000 
K           0.000000000000000    0.000000000000000    0.500000000000000 
K           0.000000000000000    0.500000000000000    0.500000000000000 
K           0.500000000000000    0.000000000000000    0.000000000000000 
K           0.500000000000000    0.500000000000000    0.500000000000000 
%ENDBLOCK POSITIONS_FRAC
