# Cell file generated by matador (Matthew Evans 2016)

%BLOCK LATTICE_CART
9.90249 0.0 0.0
-2.39326 5.19642 0.0
-1.40634 0.28699 6.31491
%ENDBLOCK LATTICE_CART

%BLOCK POSITIONS_FRAC
P           0.291788000000000    0.505076000000000    0.168270000000000 
P           0.708212000000000    0.494924000000000    0.831730000000000 
K           0.000000000000000    0.000000000000000    0.000000000000000 
K           0.000000000000000    0.000000000000000    0.500000000000000 
K           0.000000000000000    0.500000000000000    0.000000000000000 
K           0.500000000000000    0.000000000000000    0.000000000000000 
K           0.500000000000000    0.000000000000000    0.500000000000000 
K           0.500000000000000    0.500000000000000    0.500000000000000 
%ENDBLOCK POSITIONS_FRAC
