# Cell file generated by matador (Matthew Evans 2016)

%BLOCK LATTICE_CART
11.258 0.0 0.0
-5.62898 9.74968 0.0
0.0 0.0 4.8419
%ENDBLOCK LATTICE_CART

%BLOCK POSITIONS_FRAC
P           0.333332000000000    0.666666000000000    0.397619000000000 
P           0.333332000000000    0.666666000000000    0.602381000000000 
P           0.666666000000000    0.333332000000000    0.397619000000000 
P           0.666666000000000    0.333332000000000    0.602381000000000 
K           0.999999000000000    0.999999000000000    0.000000000000000 
K           0.999999000000000    0.999999000000000    0.500000000000000 
K           0.999999000000000    0.499999000000000    0.000000000000000 
K           0.999999000000000    0.499999000000000    0.500000000000000 
K           0.333332000000000    0.666666000000000    0.000000000000000 
K           0.499999000000000    0.999999000000000    0.000000000000000 
K           0.499999000000000    0.999999000000000    0.500000000000000 
K           0.499999000000000    0.499999000000000    0.000000000000000 
K           0.499999000000000    0.499999000000000    0.500000000000000 
K           0.666666000000000    0.333332000000000    0.000000000000000 
%ENDBLOCK POSITIONS_FRAC
