# Cell file generated by matador (Matthew Evans 2016)

%BLOCK LATTICE_CART
7.2139 0.0 0.0
0.0 7.2139 0.0
0.0 0.0 7.2139
%ENDBLOCK LATTICE_CART

%BLOCK POSITIONS_FRAC
P           0.045136000000000    0.454864000000000    0.545136000000000 
P           0.204864000000000    0.704864000000000    0.795136000000000 
P           0.295136000000000    0.295136000000000    0.295136000000000 
P           0.454864000000000    0.545136000000000    0.045136000000000 
P           0.545136000000000    0.045136000000000    0.454864000000000 
P           0.704864000000000    0.795136000000000    0.204864000000000 
P           0.795136000000000    0.204864000000000    0.704864000000000 
P           0.954864000000000    0.954864000000000    0.954864000000000 
K           0.125000000000000    0.875000000000000    0.375000000000000 
K           0.375000000000000    0.125000000000000    0.875000000000000 
K           0.625000000000000    0.625000000000000    0.625000000000000 
K           0.875000000000000    0.375000000000000    0.125000000000000 
%ENDBLOCK POSITIONS_FRAC
