# Cell file generated by matador (Matthew Evans 2016)

%BLOCK LATTICE_CART
7.71168 0.0 0.0
-3.85584 6.67851 0.0
0.0 0.0 11.1015
%ENDBLOCK LATTICE_CART

%BLOCK POSITIONS_FRAC
P           0.000000000000000    0.000000000000000    0.573974000000000 
P           0.000000000000000    0.443983000000000    0.975549000000000 
P           0.443983000000000    0.000000000000000    0.975549000000000 
P           0.556017000000000    0.556017000000000    0.975549000000000 
K           0.000000000000000    0.000000000000000    0.135795000000000 
K           0.000000000000000    0.374346000000000    0.519206000000000 
K           0.000000000000000    0.492219000000000    0.170103000000000 
K           0.000000000000000    0.636203000000000    0.832081000000000 
K           0.333333000000000    0.666667000000000    0.359913000000000 
K           0.363797000000000    0.363797000000000    0.832081000000000 
K           0.374346000000000    0.000000000000000    0.519206000000000 
K           0.492219000000000    0.000000000000000    0.170103000000000 
K           0.507781000000000    0.507781000000000    0.170103000000000 
K           0.625654000000000    0.625654000000000    0.519206000000000 
K           0.636203000000000    0.000000000000000    0.832081000000000 
K           0.666667000000000    0.333333000000000    0.359913000000000 
%ENDBLOCK POSITIONS_FRAC
