# Cell file generated by matador (Matthew Evans 2016)

%BLOCK LATTICE_CART
7.77926 0.0 0.0
-3.88963 6.73703 0.0
0.0 0.0 9.79205
%ENDBLOCK LATTICE_CART

%BLOCK POSITIONS_FRAC
P           0.333334000000000    0.666668000000000    0.358512000000000 
P           0.333334000000000    0.666668000000000    0.753638000000000 
P           0.666668000000000    0.333334000000000    0.358512000000000 
P           0.666668000000000    0.333334000000000    0.753638000000000 
K           0.000001000000000    0.308441000000000    0.513828000000000 
K           0.000001000000000    0.500001000000000    0.152998000000000 
K           0.000001000000000    0.500001000000000    0.667330000000000 
K           0.000001000000000    0.691561000000000    0.513828000000000 
K           0.308441000000000    0.000001000000000    0.513828000000000 
K           0.308441000000000    0.308441000000000    0.513828000000000 
K           0.500001000000000    0.000001000000000    0.152998000000000 
K           0.500001000000000    0.000001000000000    0.667330000000000 
K           0.500001000000000    0.500001000000000    0.152998000000000 
K           0.500001000000000    0.500001000000000    0.667330000000000 
K           0.691561000000000    0.000001000000000    0.513828000000000 
K           0.691561000000000    0.691561000000000    0.513828000000000 
%ENDBLOCK POSITIONS_FRAC
