# Cell file generated by matador (Matthew Evans 2016)

%BLOCK LATTICE_CART
5.57657 0.0 0.0
-2.78828 4.82945 0.0
0.0 0.0 5.7952
%ENDBLOCK LATTICE_CART

%BLOCK POSITIONS_FRAC
P           0.154537000000000    0.698171000000000    0.673948000000000 
P           0.301829000000000    0.456366000000000    0.673948000000000 
P           0.514597000000000    0.196393000000000    0.391224000000000 
P           0.543634000000000    0.845463000000000    0.673948000000000 
P           0.681797000000000    0.485403000000000    0.391224000000000 
P           0.803607000000000    0.318203000000000    0.391224000000000 
K           0.000000000000000    0.000000000000000    0.207950000000000 
K           0.333333000000000    0.666667000000000    0.984825000000000 
%ENDBLOCK POSITIONS_FRAC
