# Cell file generated by matador (Matthew Evans 2016)

%BLOCK LATTICE_CART
9.82866 0.0 0.0
0.0 9.82866 0.0
0.0 0.0 9.38965
%ENDBLOCK LATTICE_CART

%BLOCK POSITIONS_FRAC
P           0.000000000000000    0.000000000000000    0.500000000000000 
P           0.000000000000000    0.500000000000000    0.429897000000000 
P           0.000000000000000    0.500000000000000    0.929897000000000 
P           0.500000000000000    0.000000000000000    0.070103000000000 
P           0.500000000000000    0.000000000000000    0.570103000000000 
P           0.500000000000000    0.500000000000000    0.000000000000000 
K           0.000000000000000    0.000000000000000    0.000000000000000 
K           0.000000000000000    0.281799000000000    0.122782000000000 
K           0.000000000000000    0.323112000000000    0.782637000000000 
K           0.000000000000000    0.676888000000000    0.782637000000000 
K           0.000000000000000    0.718201000000000    0.122782000000000 
K           0.176888000000000    0.500000000000000    0.282637000000000 
K           0.218201000000000    0.500000000000000    0.622782000000000 
K           0.281799000000000    0.000000000000000    0.877218000000000 
K           0.323112000000000    0.000000000000000    0.217363000000000 
K           0.500000000000000    0.176888000000000    0.717363000000000 
K           0.500000000000000    0.218201000000000    0.377218000000000 
K           0.500000000000000    0.500000000000000    0.500000000000000 
K           0.500000000000000    0.781799000000000    0.377218000000000 
K           0.500000000000000    0.823112000000000    0.717363000000000 
K           0.676888000000000    0.000000000000000    0.217363000000000 
K           0.718201000000000    0.000000000000000    0.877218000000000 
K           0.781799000000000    0.500000000000000    0.622782000000000 
K           0.823112000000000    0.500000000000000    0.282637000000000 
%ENDBLOCK POSITIONS_FRAC
