# Cell file generated by matador (Matthew Evans 2016)

%BLOCK LATTICE_CART
9.04218 0.0 0.0
0.0 8.21165 0.0
0.0 0.0 8.22179
%ENDBLOCK LATTICE_CART

%BLOCK POSITIONS_FRAC
P           0.316753000000000    0.185073000000000    0.625294000000000 
P           0.316753000000000    0.814927000000000    0.625294000000000 
P           0.683247000000000    0.185073000000000    0.625294000000000 
P           0.683247000000000    0.814927000000000    0.625294000000000 
K           0.000000000000000    0.202353000000000    0.522112000000000 
K           0.000000000000000    0.797647000000000    0.522112000000000 
K           0.160630000000000    0.000000000000000    0.065782000000000 
K           0.194950000000000    0.500000000000000    0.755657000000000 
K           0.310146000000000    0.000000000000000    0.420622000000000 
K           0.338693000000000    0.000000000000000    0.771912000000000 
K           0.500000000000000    0.245386000000000    0.081276000000000 
K           0.500000000000000    0.754614000000000    0.081276000000000 
K           0.661307000000000    0.000000000000000    0.771912000000000 
K           0.689854000000000    0.000000000000000    0.420622000000000 
K           0.805050000000000    0.500000000000000    0.755657000000000 
K           0.839370000000000    0.000000000000000    0.065782000000000 
%ENDBLOCK POSITIONS_FRAC
