# Cell file generated by matador (Matthew Evans 2016)

%BLOCK LATTICE_CART
7.69505 -0.0 0.0
-3.84753 6.66411 0.0
0.0 0.0 9.55588
%ENDBLOCK LATTICE_CART

%BLOCK POSITIONS_FRAC
P           0.999999000000000    0.999999000000000    0.158639000000000 
P           0.999999000000000    0.999999000000000    0.271108000000000 
P           0.999999000000000    0.999999000000000    0.658639000000000 
P           0.999999000000000    0.999999000000000    0.771108000000000 
P           0.029623000000000    0.109769000000000    0.002293000000000 
P           0.080145000000000    0.970375000000000    0.002293000000000 
P           0.109769000000000    0.080145000000000    0.502293000000000 
P           0.890229000000000    0.919853000000000    0.002293000000000 
P           0.919853000000000    0.029623000000000    0.502293000000000 
P           0.970375000000000    0.890229000000000    0.502293000000000 
K           0.333332000000000    0.666666000000000    0.789131000000000 
K           0.333332000000000    0.666666000000000    0.999666000000000 
K           0.666666000000000    0.333332000000000    0.289131000000000 
K           0.666666000000000    0.333332000000000    0.499666000000000 
%ENDBLOCK POSITIONS_FRAC
