# Cell file generated by matador (Matthew Evans 2016)

%BLOCK LATTICE_CART
9.53857 0.0 0.0
-4.76929 8.26065 0.0
0.0 0.0 13.1352
%ENDBLOCK LATTICE_CART

%BLOCK POSITIONS_FRAC
P           0.481600000000000    0.240800000000000    0.000000000000000 
P           0.481600000000000    0.240800000000000    0.500000000000000 
P           0.759200000000000    0.240800000000000    0.000000000000000 
P           0.759200000000000    0.240800000000000    0.500000000000000 
P           0.759200000000000    0.518400000000000    0.000000000000000 
P           0.759200000000000    0.518400000000000    0.500000000000000 
K          -0.000000000000000   -0.000000000000000    0.000000000000000 
K          -0.000000000000000   -0.000000000000000    0.500000000000000 
K           0.215361000000000    0.048981000000000    0.250000000000000 
K           0.215361000000000    0.166380000000000    0.750000000000000 
K           0.333333000000000    0.666667000000000    0.000000000000000 
K           0.333333000000000    0.666667000000000    0.250000000000000 
K           0.333333000000000    0.666667000000000    0.500000000000000 
K           0.333333000000000    0.666667000000000    0.750000000000000 
K           0.523126000000000    0.116191000000000    0.750000000000000 
K           0.523126000000000    0.406935000000000    0.250000000000000 
K           0.593065000000000    0.116191000000000    0.250000000000000 
K           0.593065000000000    0.476874000000000    0.750000000000000 
K           0.833620000000000    0.048981000000000    0.750000000000000 
K           0.833620000000000    0.784639000000000    0.250000000000000 
K           0.883809000000000    0.406935000000000    0.750000000000000 
K           0.883809000000000    0.476874000000000    0.250000000000000 
K           0.951019000000000    0.166380000000000    0.250000000000000 
K           0.951019000000000    0.784639000000000    0.750000000000000 
%ENDBLOCK POSITIONS_FRAC
