# Cell file generated by matador (Matthew Evans 2016)

%BLOCK LATTICE_CART
11.9804 0.0 0.0
0.0 4.33835 0.0
-4.50994 0.0 9.44452
%ENDBLOCK LATTICE_CART

%BLOCK POSITIONS_FRAC
P          -0.000000000000000    0.678451000000000    0.000000000000000 
P           0.043061000000000    0.409278000000000    0.610163000000000 
P           0.184986000000000    0.840811000000000    0.416562000000000 
P           0.315014000000000    0.340811000000000    0.583438000000000 
P           0.456939000000000    0.909278000000000    0.389837000000000 
P           0.500000000000000    0.178451000000000    0.000000000000000 
P           0.543061000000000    0.909278000000000    0.610163000000000 
P           0.684986000000000    0.340811000000000    0.416562000000000 
P           0.815014000000000    0.840811000000000    0.583438000000000 
P           0.956939000000000    0.409278000000000    0.389837000000000 
K          -0.000000000000000    0.824012000000000    0.500000000000000 
K           0.035032000000000    0.286550000000000    0.821357000000000 
K           0.464968000000000    0.786550000000000    0.178643000000000 
K           0.500000000000000    0.324012000000000    0.500000000000000 
K           0.535032000000000    0.786550000000000    0.821357000000000 
K           0.964968000000000    0.286550000000000    0.178643000000000 
%ENDBLOCK POSITIONS_FRAC
