# Cell file generated by matador (Matthew Evans 2016)

%BLOCK LATTICE_CART
6.41493 0.0 0.0
0.0 6.41493 0.0
0.0 0.0 8.163
%ENDBLOCK LATTICE_CART

%BLOCK POSITIONS_FRAC
P           0.000000000000000    0.000000000000000    0.000000000000000 
P           0.500000000000000    0.500000000000000    0.000000000000000 
K           0.000000000000000    0.000000000000000    0.500000000000000 
K           0.000000000000000    0.264012000000000    0.841612000000000 
K           0.000000000000000    0.735988000000000    0.841612000000000 
K           0.264012000000000    0.000000000000000    0.158388000000000 
K           0.500000000000000    0.500000000000000    0.500000000000000 
K           0.735988000000000    0.000000000000000    0.158388000000000 
%ENDBLOCK POSITIONS_FRAC
