# Cell file generated by matador (Matthew Evans 2016)

%BLOCK LATTICE_CART
6.56982 0.0 0.0
0.0 6.23626 0.0
-1.91425 0.0 3.55569
%ENDBLOCK LATTICE_CART

%BLOCK POSITIONS_FRAC
P           0.099346000000000    0.252190000000000    0.237337000000000 
P           0.099346000000000    0.747810000000000    0.237337000000000 
P           0.342617000000000    0.500000000000000    0.368741000000000 
P           0.415204000000000    0.500000000000000    0.049274000000000 
P           0.737242000000000    0.500000000000000    0.937722000000000 
K           0.741234000000000    0.170392000000000    0.659466000000000 
K           0.741234000000000    0.829608000000000    0.659466000000000 
%ENDBLOCK POSITIONS_FRAC
