# Cell file generated by matador (Matthew Evans 2016)

%BLOCK LATTICE_CART
8.81689 0.0 0.0
-4.40845 7.63565 0.0
0.0 0.0 7.07225
%ENDBLOCK LATTICE_CART

%BLOCK POSITIONS_FRAC
P           0.000000000000000    0.000000000000000    0.096033000000000 
P           0.333333000000000    0.666667000000000    0.978800000000000 
P           0.666667000000000    0.333333000000000    0.978800000000000 
K           0.000000000000000    0.500000000000000    0.509134000000000 
K           0.204467000000000    0.408935000000000    0.043934000000000 
K           0.204467000000000    0.795533000000000    0.043934000000000 
K           0.408935000000000    0.204467000000000    0.043934000000000 
K           0.500000000000000    0.000000000000000    0.509134000000000 
K           0.500000000000000    0.500000000000000    0.509134000000000 
K           0.591065000000000    0.795533000000000    0.043934000000000 
K           0.795533000000000    0.204467000000000    0.043934000000000 
K           0.795533000000000    0.591065000000000    0.043934000000000 
%ENDBLOCK POSITIONS_FRAC
