# Cell file generated by matador (Matthew Evans 2016)

%BLOCK LATTICE_CART
7.82944 0.0 0.0
-3.91472 6.78049 0.0
0.0 0.0 8.66656
%ENDBLOCK LATTICE_CART

%BLOCK POSITIONS_FRAC
P           0.000000000000000    0.000000000000000    0.000000000000000 
P           0.000000000000000    0.000000000000000    0.251455000000000 
P           0.000000000000000    0.000000000000000    0.748545000000000 
P           0.000000000000000    0.500000000000000    0.500000000000000 
P           0.221652000000000    0.610826000000000    0.500000000000000 
P           0.333333000000000    0.666667000000000    0.000000000000000 
P           0.389174000000000    0.610826000000000    0.500000000000000 
P           0.389174000000000    0.778348000000000    0.500000000000000 
P           0.500000000000000    0.000000000000000    0.500000000000000 
P           0.500000000000000    0.500000000000000    0.500000000000000 
P           0.610826000000000    0.221652000000000    0.500000000000000 
P           0.610826000000000    0.389174000000000    0.500000000000000 
P           0.666667000000000    0.333333000000000    0.000000000000000 
P           0.778348000000000    0.389174000000000    0.500000000000000 
K           0.000000000000000    0.000000000000000    0.500000000000000 
K           0.000000000000000    0.500000000000000    0.000000000000000 
K           0.500000000000000    0.000000000000000    0.000000000000000 
K           0.500000000000000    0.500000000000000    0.000000000000000 
%ENDBLOCK POSITIONS_FRAC
