# Cell file generated by matador (Matthew Evans 2016)

%BLOCK LATTICE_CART
5.70193 0.0 0.0
0.0 8.7363 0.0
4.32813 0.0 7.74062
%ENDBLOCK LATTICE_CART

%BLOCK POSITIONS_FRAC
P           0.101888000000000    0.282032000000000    0.657845000000000 
P           0.101888000000000    0.717968000000000    0.657845000000000 
P           0.135669000000000    0.000000000000000    0.587822000000000 
P           0.853654000000000    0.500000000000000    0.528639000000000 
P           0.891759000000000    0.000000000000000    0.025713000000000 
K           0.464002000000000    0.000000000000000    0.646121000000000 
K           0.547323000000000    0.000000000000000    0.924947000000000 
K           0.636505000000000    0.317442000000000    0.159341000000000 
K           0.636505000000000    0.682558000000000    0.159341000000000 
K           0.682691000000000    0.253679000000000    0.554754000000000 
K           0.682691000000000    0.746321000000000    0.554754000000000 
%ENDBLOCK POSITIONS_FRAC
