# Cell file generated by matador (Matthew Evans 2016)

%BLOCK LATTICE_CART
6.4695 0.0 0.0
3.22549 6.494 0.0
-0.477044 2.37096 8.94405
%ENDBLOCK LATTICE_CART

%BLOCK POSITIONS_FRAC
P           0.000000000000000    0.000000000000000    0.500000000000000 
P           0.309680000000000    0.150818000000000    0.045925000000000 
P           0.388647000000000    0.763117000000000    0.754728000000000 
P           0.500000000000000    0.000000000000000    0.000000000000000 
P           0.611353000000000    0.236883000000000    0.245272000000000 
P           0.690320000000000    0.849182000000000    0.954075000000000 
K           0.000000000000000    0.000000000000000    0.000000000000000 
K           0.000000000000000    0.500000000000000    0.000000000000000 
K           0.000000000000000    0.500000000000000    0.500000000000000 
K           0.500000000000000    0.000000000000000    0.500000000000000 
K           0.500000000000000    0.500000000000000    0.000000000000000 
K           0.500000000000000    0.500000000000000    0.500000000000000 
%ENDBLOCK POSITIONS_FRAC
