# Cell file generated by matador (Matthew Evans 2016)

%BLOCK LATTICE_CART
9.16279 0.0 0.0
0.0 9.18331 0.0
0.0 0.0 7.32392
%ENDBLOCK LATTICE_CART

%BLOCK POSITIONS_FRAC
P           0.000000000000000    0.000000000000000    0.250000000000000 
P           0.000000000000000    0.000000000000000    0.750000000000000 
P           0.500000000000000    0.000000000000000    0.250000000000000 
P           0.500000000000000    0.000000000000000    0.750000000000000 
P           0.500000000000000    0.500000000000000    0.142799000000000 
P           0.500000000000000    0.500000000000000    0.357201000000000 
P           0.500000000000000    0.500000000000000    0.642799000000000 
P           0.500000000000000    0.500000000000000    0.857201000000000 
K           0.000000000000000    0.500000000000000    0.000000000000000 
K           0.000000000000000    0.500000000000000    0.500000000000000 
K           0.197207000000000    0.177302000000000    0.139364000000000 
K           0.197207000000000    0.177302000000000    0.860636000000000 
K           0.197207000000000    0.822698000000000    0.360636000000000 
K           0.197207000000000    0.822698000000000    0.639364000000000 
K           0.802793000000000    0.177302000000000    0.360636000000000 
K           0.802793000000000    0.177302000000000    0.639364000000000 
K           0.802793000000000    0.822698000000000    0.139364000000000 
K           0.802793000000000    0.822698000000000    0.860636000000000 
%ENDBLOCK POSITIONS_FRAC
