# Cell file generated by matador (Matthew Evans 2016)

%BLOCK LATTICE_CART
5.95825 0.0 0.0
0.0 5.95825 0.0
0.0 0.0 8.39475
%ENDBLOCK LATTICE_CART

%BLOCK POSITIONS_FRAC
P           0.000000000000000    0.000000000000000    0.000000000000000 
P           0.000000000000000    0.000000000000000    0.379216000000000 
P           0.000000000000000    0.000000000000000    0.620784000000000 
P           0.000000000000000    0.500000000000000    0.000000000000000 
P           0.500000000000000    0.000000000000000    0.000000000000000 
P           0.500000000000000    0.500000000000000    0.416737000000000 
P           0.500000000000000    0.500000000000000    0.583263000000000 
K           0.266846000000000    0.266846000000000    0.749145000000000 
K           0.266846000000000    0.733154000000000    0.250855000000000 
K           0.733154000000000    0.266846000000000    0.250855000000000 
K           0.733154000000000    0.733154000000000    0.749145000000000 
%ENDBLOCK POSITIONS_FRAC
