# Cell file generated by matador (Matthew Evans 2016)

%BLOCK LATTICE_CART
9.29286 0.0 0.0
0.0 9.29286 0.0
0.0 0.0 4.90687
%ENDBLOCK LATTICE_CART

%BLOCK POSITIONS_FRAC
P           0.000000000000000    0.000000000000000    0.103953000000000 
P           0.000000000000000    0.000000000000000    0.896047000000000 
P           0.159071000000000    0.422406000000000    0.000000000000000 
P           0.422406000000000    0.840929000000000    0.000000000000000 
P           0.577594000000000    0.159071000000000    0.000000000000000 
P           0.840929000000000    0.577594000000000    0.000000000000000 
K           0.000000000000000    0.000000000000000    0.500000000000000 
K           0.000000000000000    0.500000000000000    0.500000000000000 
K           0.165421000000000    0.178238000000000    0.000000000000000 
K           0.178238000000000    0.834579000000000    0.000000000000000 
K           0.500000000000000    0.000000000000000    0.500000000000000 
K           0.500000000000000    0.500000000000000    0.000000000000000 
K           0.500000000000000    0.500000000000000    0.500000000000000 
K           0.821762000000000    0.165421000000000    0.000000000000000 
K           0.834579000000000    0.821762000000000    0.000000000000000 
%ENDBLOCK POSITIONS_FRAC
