# Cell file generated by matador (Matthew Evans 2016)

%BLOCK LATTICE_CART
7.94362 0.0 0.0
-3.97181 6.87937 0.0
0.0 0.0 8.05847
%ENDBLOCK LATTICE_CART

%BLOCK POSITIONS_FRAC
P          -0.000000000000000    0.000000000000000    0.000000000000000 
P          -0.000000000000000    0.000000000000000    0.275958000000000 
P          -0.000000000000000    0.000000000000000    0.500000000000000 
P          -0.000000000000000    0.000000000000000    0.724042000000000 
P           0.133406000000000    0.445843000000000    0.135964000000000 
P           0.133406000000000    0.687564000000000    0.135964000000000 
P           0.312436000000000    0.445843000000000    0.135964000000000 
P           0.312436000000000    0.866594000000000    0.135964000000000 
P           0.445842000000000    0.133407000000000    0.864036000000000 
P           0.445842000000000    0.312437000000000    0.864036000000000 
P           0.554157000000000    0.687564000000000    0.135964000000000 
P           0.554157000000000    0.866594000000000    0.135964000000000 
P           0.687563000000000    0.133407000000000    0.864036000000000 
P           0.687563000000000    0.554158000000000    0.864036000000000 
P           0.866593000000000    0.312437000000000    0.864036000000000 
P           0.866593000000000    0.554158000000000    0.864036000000000 
K           0.333333000000000    0.666667000000000    0.487391000000000 
K           0.333333000000000    0.666667000000000    0.855828000000000 
K           0.666666000000000    0.333334000000000    0.144172000000000 
K           0.666666000000000    0.333334000000000    0.512609000000000 
%ENDBLOCK POSITIONS_FRAC
