# Cell file generated by matador (Matthew Evans 2016)

%BLOCK LATTICE_CART
8.16064 0.0 0.0
0.0 8.16064 0.0
0.0 0.0 6.77408
%ENDBLOCK LATTICE_CART

%BLOCK POSITIONS_FRAC
P           0.007806000000000    0.902861000000000    0.727771000000000 
P           0.097139000000000    0.507806000000000    0.227771000000000 
P           0.402861000000000    0.992194000000000    0.227771000000000 
P           0.492194000000000    0.597139000000000    0.727771000000000 
P           0.507806000000000    0.402861000000000    0.272229000000000 
P           0.597139000000000    0.007806000000000    0.772229000000000 
P           0.902861000000000    0.492194000000000    0.772229000000000 
P           0.992194000000000    0.097139000000000    0.272229000000000 
K           0.000000000000000    0.000000000000000    0.000000000000000 
K           0.000000000000000    0.500000000000000    0.500000000000000 
K           0.250000000000000    0.250000000000000    0.750000000000000 
K           0.500000000000000    0.000000000000000    0.500000000000000 
K           0.500000000000000    0.500000000000000    0.000000000000000 
K           0.750000000000000    0.750000000000000    0.250000000000000 
%ENDBLOCK POSITIONS_FRAC
