# Cell file generated by matador (Matthew Evans 2016)

%BLOCK LATTICE_CART
7.53664 0.0 0.0
-3.76832 6.52692 0.0
0.0 0.0 13.8105
%ENDBLOCK LATTICE_CART

%BLOCK POSITIONS_FRAC
P           0.333334000000000    0.666668000000000    0.151663000000000 
P           0.333334000000000    0.666668000000000    0.348337000000000 
P           0.666668000000000    0.333334000000000    0.651663000000000 
P           0.666668000000000    0.333334000000000    0.848337000000000 
K           0.000001000000000    0.000001000000000   -0.000000000000000 
K           0.000001000000000    0.000001000000000    0.250000000000000 
K           0.000001000000000    0.000001000000000    0.500000000000000 
K           0.000001000000000    0.000001000000000    0.750000000000000 
K           0.098970000000000    0.675383000000000    0.250000000000000 
K           0.324619000000000    0.423589000000000    0.250000000000000 
K           0.333334000000000    0.666668000000000    0.750000000000000 
K           0.423589000000000    0.098970000000000    0.750000000000000 
K           0.576413000000000    0.901032000000000    0.250000000000000 
K           0.666668000000000    0.333334000000000    0.250000000000000 
K           0.675383000000000    0.576413000000000    0.750000000000000 
K           0.901032000000000    0.324619000000000    0.750000000000000 
%ENDBLOCK POSITIONS_FRAC
