# Cell file generated by matador (Matthew Evans 2016)

%BLOCK LATTICE_CART
8.802 0.0 0.0
0.0 12.5446 0.0
0.0 0.0 10.2973
%ENDBLOCK LATTICE_CART

%BLOCK POSITIONS_FRAC
P           0.000000000000000    0.000000000000000    0.582939000000000 
P           0.000000000000000    0.500000000000000    0.082939000000000 
P           0.500000000000000    0.000000000000000    0.233226000000000 
P           0.500000000000000    0.165629000000000    0.935115000000000 
P           0.500000000000000    0.334371000000000    0.435115000000000 
P           0.500000000000000    0.500000000000000    0.733226000000000 
P           0.500000000000000    0.665629000000000    0.435115000000000 
P           0.500000000000000    0.834371000000000    0.935115000000000 
K           0.000000000000000    0.155167000000000    0.963775000000000 
K           0.000000000000000    0.344833000000000    0.463775000000000 
K           0.000000000000000    0.655167000000000    0.463775000000000 
K           0.000000000000000    0.844833000000000    0.963775000000000 
K           0.192570000000000    0.000000000000000    0.371141000000000 
K           0.192570000000000    0.500000000000000    0.871141000000000 
K           0.216032000000000    0.000000000000000    0.776428000000000 
K           0.216032000000000    0.500000000000000    0.276428000000000 
K           0.500000000000000    0.129079000000000    0.730883000000000 
K           0.500000000000000    0.133581000000000    0.424224000000000 
K           0.500000000000000    0.135066000000000    0.129293000000000 
K           0.500000000000000    0.364934000000000    0.629293000000000 
K           0.500000000000000    0.366419000000000    0.924224000000000 
K           0.500000000000000    0.370921000000000    0.230883000000000 
K           0.500000000000000    0.629079000000000    0.230883000000000 
K           0.500000000000000    0.633581000000000    0.924224000000000 
K           0.500000000000000    0.635066000000000    0.629293000000000 
K           0.500000000000000    0.864934000000000    0.129293000000000 
K           0.500000000000000    0.866419000000000    0.424224000000000 
K           0.500000000000000    0.870921000000000    0.730883000000000 
K           0.783968000000000    0.000000000000000    0.776428000000000 
K           0.783968000000000    0.500000000000000    0.276428000000000 
K           0.807430000000000    0.000000000000000    0.371141000000000 
K           0.807430000000000    0.500000000000000    0.871141000000000 
%ENDBLOCK POSITIONS_FRAC
