# Cell file generated by matador (Matthew Evans 2016)

%BLOCK LATTICE_CART
9.73867 0.0 0.0
0.0 10.0615 0.0
0.31485 0.0 6.90396
%ENDBLOCK LATTICE_CART

%BLOCK POSITIONS_FRAC
P           0.000000000000000    0.000000000000000    0.000000000000000 
P           0.000000000000000    0.500000000000000    0.000000000000000 
P           0.500000000000000    0.000000000000000    0.500000000000000 
P           0.500000000000000    0.500000000000000    0.500000000000000 
K           0.000000000000000    0.000000000000000    0.500000000000000 
K           0.000000000000000    0.500000000000000    0.500000000000000 
K           0.076025000000000    0.250000000000000    0.707549000000000 
K           0.201322000000000    0.750000000000000    0.031384000000000 
K           0.409601000000000    0.250000000000000    0.694637000000000 
K           0.482748000000000    0.750000000000000    0.727431000000000 
K           0.500000000000000    0.000000000000000    0.000000000000000 
K           0.500000000000000    0.500000000000000    0.000000000000000 
K           0.517252000000000    0.250000000000000    0.272569000000000 
K           0.590399000000000    0.750000000000000    0.305363000000000 
K           0.798678000000000    0.250000000000000    0.968616000000000 
K           0.923975000000000    0.750000000000000    0.292451000000000 
%ENDBLOCK POSITIONS_FRAC
