# Cell file generated by matador (Matthew Evans 2016)

%BLOCK LATTICE_CART
6.5168 0.0 0.0
-3.2584 5.64372 0.0
0.0 0.0 8.85824
%ENDBLOCK LATTICE_CART

%BLOCK POSITIONS_FRAC
P           0.666667000000000    0.333333000000000    0.000000000000000 
P           0.666667000000000    0.333333000000000    0.500000000000000 
K           0.046181000000000    0.361978000000000    0.750000000000000 
K           0.046181000000000    0.684203000000000    0.250000000000000 
K           0.315797000000000    0.361978000000000    0.250000000000000 
K           0.315797000000000    0.953819000000000    0.750000000000000 
K           0.638022000000000    0.684203000000000    0.750000000000000 
K           0.638022000000000    0.953819000000000    0.250000000000000 
%ENDBLOCK POSITIONS_FRAC
