# Cell file generated by matador (Matthew Evans 2016)

%BLOCK LATTICE_CART
4.6076 0.0 0.0
-2.3038 3.9903 0.0
0.0 0.0 9.09491
%ENDBLOCK LATTICE_CART

%BLOCK POSITIONS_FRAC
P           0.220558000000000    0.441118000000000    0.000000000000000 
P           0.220558000000000    0.779442000000000    0.000000000000000 
P           0.558882000000000    0.779442000000000    0.000000000000000 
P           0.666666000000000    0.333334000000000    0.225766000000000 
P           0.666666000000000    0.333334000000000    0.774234000000000 
K           0.333333000000000    0.666667000000000    0.500000000000000 
K           0.666666000000000    0.333334000000000    0.000000000000000 
K           0.666666000000000    0.333334000000000    0.500000000000000 
%ENDBLOCK POSITIONS_FRAC
