# Cell file generated by matador (Matthew Evans 2016)

%BLOCK LATTICE_CART
9.01801 0.0 0.0
-4.509 7.80983 0.0
0.0 0.0 6.40839
%ENDBLOCK LATTICE_CART

%BLOCK POSITIONS_FRAC
P           0.000000000000000    0.000000000000000    0.000000000000000 
P           0.000000000000000    0.000000000000000    0.500000000000000 
P           0.333333000000000    0.666667000000000    0.093955000000000 
P           0.333333000000000    0.666667000000000    0.250000000000000 
P           0.333333000000000    0.666667000000000    0.406045000000000 
P           0.333333000000000    0.666667000000000    0.593955000000000 
P           0.333333000000000    0.666667000000000    0.750000000000000 
P           0.333333000000000    0.666667000000000    0.906045000000000 
K           0.426502000000000    0.213251000000000    0.000000000000000 
K           0.426502000000000    0.213251000000000    0.500000000000000 
K           0.786749000000000    0.213251000000000    0.000000000000000 
K           0.786749000000000    0.213251000000000    0.500000000000000 
K           0.786749000000000    0.573498000000000    0.000000000000000 
K           0.786749000000000    0.573498000000000    0.500000000000000 
%ENDBLOCK POSITIONS_FRAC
