# Cell file generated by matador (Matthew Evans 2016)

%BLOCK LATTICE_CART
8.57514 0.0 0.0
0.0 10.7658 0.0
2.05879 0.0 4.94542
%ENDBLOCK LATTICE_CART

%BLOCK POSITIONS_FRAC
P           0.000000000000000    0.163407000000000    0.000000000000000 
P           0.000000000000000    0.313140000000000    0.500000000000000 
P           0.000000000000000    0.424834000000000    0.000000000000000 
P           0.000000000000000    0.542850000000000    0.000000000000000 
P           0.500000000000000    0.993389000000000    0.500000000000000 
K           0.099058000000000    0.837653000000000    0.112274000000000 
K           0.340543000000000    0.473665000000000    0.936978000000000 
K           0.411408000000000    0.242367000000000    0.912520000000000 
K           0.500000000000000    0.743594000000000    0.500000000000000 
K           0.588592000000000    0.242367000000000    0.087480000000000 
K           0.659457000000000    0.473665000000000    0.063022000000000 
K           0.900942000000000    0.837653000000000    0.887726000000000 
%ENDBLOCK POSITIONS_FRAC
