# Cell file generated by matador (Matthew Evans 2016)

%BLOCK LATTICE_CART
10.7256 0.0 0.0
-5.3628 9.28864 0.0
0.0 0.0 5.10456
%ENDBLOCK LATTICE_CART

%BLOCK POSITIONS_FRAC
P           0.333334000000000    0.666668000000000    0.250000000000000 
P           0.666668000000000    0.333334000000000    0.750000000000000 
K           0.000001000000000    0.000001000000000    0.250000000000000 
K           0.000001000000000    0.000001000000000    0.750000000000000 
K           0.002402000000000    0.273627000000000    0.250000000000000 
K           0.093852000000000    0.544708000000000    0.250000000000000 
K           0.271226000000000    0.997600000000000    0.250000000000000 
K           0.273627000000000    0.271226000000000    0.750000000000000 
K           0.450857000000000    0.906150000000000    0.250000000000000 
K           0.455294000000000    0.549145000000000    0.250000000000000 
K           0.544708000000000    0.450857000000000    0.750000000000000 
K           0.549145000000000    0.093852000000000    0.750000000000000 
K           0.726375000000000    0.728776000000000    0.250000000000000 
K           0.728776000000000    0.002402000000000    0.750000000000000 
K           0.906150000000000    0.455294000000000    0.750000000000000 
K           0.997600000000000    0.726375000000000    0.750000000000000 
%ENDBLOCK POSITIONS_FRAC
