# Cell file generated by matador (Matthew Evans 2016)

%BLOCK LATTICE_CART
7.49481 0.0 0.0
-3.7474 6.4907 0.0
0.0 0.0 7.94656
%ENDBLOCK LATTICE_CART

%BLOCK POSITIONS_FRAC
P           0.000000000000000    0.000000000000000    0.947014000000000 
P           0.333333000000000    0.666667000000000    0.379035000000000 
P           0.333333000000000    0.666667000000000    0.959098000000000 
P           0.666667000000000    0.333333000000000    0.186104000000000 
P           0.666667000000000    0.333333000000000    0.411093000000000 
K           0.096557000000000    0.839737000000000    0.781045000000000 
K           0.117681000000000    0.873824000000000    0.376220000000000 
K           0.126176000000000    0.243857000000000    0.376220000000000 
K           0.160263000000000    0.256820000000000    0.781045000000000 
K           0.666667000000000    0.333333000000000    0.687743000000000 
K           0.743180000000000    0.903443000000000    0.781045000000000 
K           0.756143000000000    0.882319000000000    0.376220000000000 
%ENDBLOCK POSITIONS_FRAC
