# Cell file generated by matador (Matthew Evans 2016)

%BLOCK LATTICE_CART
8.85904 0.0 0.0
0.0 7.50753 0.0
-1.75203 0.0 7.60683
%ENDBLOCK LATTICE_CART

%BLOCK POSITIONS_FRAC
P           0.181310000000000    0.000000000000000    0.034924000000000 
P           0.590843000000000    0.000000000000000    0.703094000000000 
P           0.904533000000000    0.000000000000000    0.296027000000000 
K           0.031404000000000    0.500000000000000    0.550432000000000 
K           0.304235000000000    0.000000000000000    0.574321000000000 
K           0.438221000000000    0.500000000000000    0.134456000000000 
K           0.549544000000000    0.500000000000000    0.558648000000000 
K           0.608736000000000    0.000000000000000    0.451921000000000 
K           0.642730000000000    0.000000000000000    0.009051000000000 
K           0.860640000000000    0.281222000000000    0.934811000000000 
K           0.860640000000000    0.718778000000000    0.934811000000000 
K           0.943514000000000    0.000000000000000    0.699100000000000 
%ENDBLOCK POSITIONS_FRAC
