# Cell file generated by matador (Matthew Evans 2016)

%BLOCK LATTICE_CART
5.65119 0.0 0.0
-2.8256 4.89408 0.0
0.0 0.0 10.516
%ENDBLOCK LATTICE_CART

%BLOCK POSITIONS_FRAC
P           0.000000000000000    0.000000000000000    0.201300000000000 
P           0.000000000000000    0.500000000000000    0.265181000000000 
P           0.500000000000000    0.000000000000000    0.265181000000000 
P           0.500000000000000    0.500000000000000    0.265181000000000 
K           0.000000000000000    0.000000000000000    0.754412000000000 
K           0.000000000000000    0.000000000000000    0.983169000000000 
K           0.333333000000000    0.666667000000000    0.779222000000000 
K           0.666667000000000    0.333333000000000    0.779222000000000 
%ENDBLOCK POSITIONS_FRAC
