# Cell file generated by matador (Matthew Evans 2016)

%BLOCK LATTICE_CART
7.92276 0.0 0.0
0.0 6.23032 0.0
1.06999 0.0 4.1855
%ENDBLOCK LATTICE_CART

%BLOCK POSITIONS_FRAC
P           0.031310000000000    0.181987000000000    0.128445000000000 
P           0.968690000000000    0.181987000000000    0.871555000000000 
K           0.000000000000000    0.605685000000000    0.500000000000000 
K           0.422370000000000    0.870303000000000    0.280257000000000 
K           0.500000000000000    0.248919000000000    0.500000000000000 
K           0.500000000000000    0.401106000000000   -0.000000000000000 
K           0.577630000000000    0.870303000000000    0.719743000000000 
%ENDBLOCK POSITIONS_FRAC
