# Cell file generated by matador (Matthew Evans 2016)

%BLOCK LATTICE_CART
9.2297 -0.0 0.0
-4.61485 7.99316 0.0
0.0 0.0 5.90221
%ENDBLOCK LATTICE_CART

%BLOCK POSITIONS_FRAC
P           0.000000000000000   -0.000000000000000    0.283725000000000 
P           0.000000000000000   -0.000000000000000    0.841716000000000 
P           0.067547000000000    0.929717000000000    0.547026000000000 
P           0.070283000000000    0.137830000000000    0.547026000000000 
P           0.333334000000000    0.666666000000000    0.280648000000000 
P           0.666667000000000    0.333333000000000    0.092987000000000 
P           0.666667000000000    0.333333000000000    0.365330000000000 
P           0.666667000000000    0.333333000000000    0.733653000000000 
P           0.862170000000000    0.932453000000000    0.547026000000000 
K           0.007448000000000    0.592906000000000    0.327514000000000 
K           0.407094000000000    0.414541000000000    0.327514000000000 
K           0.585459000000000    0.992552000000000    0.327514000000000 
%ENDBLOCK POSITIONS_FRAC
