# Cell file generated by matador (Matthew Evans 2016)

%BLOCK LATTICE_CART
10.289 0.0 0.0
0.0 6.37623 0.0
0.585098 0.0 4.69923
%ENDBLOCK LATTICE_CART

%BLOCK POSITIONS_FRAC
P           0.005178000000000    0.848828000000000    0.763151000000000 
P           0.184190000000000    0.754081000000000    0.478794000000000 
P           0.249102000000000    0.226034000000000    0.466263000000000 
P           0.298375000000000    0.409311000000000    0.913777000000000 
P           0.404547000000000    0.251446000000000    0.598525000000000 
P           0.595453000000000    0.251446000000000    0.401475000000000 
P           0.701625000000000    0.409311000000000    0.086223000000000 
P           0.750898000000000    0.226034000000000    0.533737000000000 
P           0.815810000000000    0.754081000000000    0.521206000000000 
P           0.994822000000000    0.848828000000000    0.236849000000000 
K           0.000000000000000    0.335760000000000    0.000000000000000 
K           0.000000000000000    0.364908000000000    0.500000000000000 
K           0.393932000000000    0.645893000000000    0.551276000000000 
K           0.500000000000000    0.550961000000000    0.000000000000000 
K           0.606068000000000    0.645893000000000    0.448724000000000 
%ENDBLOCK POSITIONS_FRAC
