# Cell file generated by matador (Matthew Evans 2016)

%BLOCK LATTICE_CART
6.57111 -0.0 0.0
-3.28555 5.69075 0.0
0.0 0.0 6.7562
%ENDBLOCK LATTICE_CART

%BLOCK POSITIONS_FRAC
P           0.000000000000000    0.000000000000000    0.781644000000000 
P           0.333333000000000    0.666667000000000    0.218681000000000 
P           0.666667000000000    0.333333000000000    0.708820000000000 
K           0.202625000000000    0.124392000000000    0.337778000000000 
K           0.666667000000000    0.333333000000000    0.248380000000000 
K           0.875608000000000    0.078233000000000    0.337778000000000 
K           0.921767000000000    0.797375000000000    0.337778000000000 
%ENDBLOCK POSITIONS_FRAC
