# Cell file generated by matador (Matthew Evans 2016)

%BLOCK LATTICE_CART
8.42297 0.0 0.0
0.0 11.1572 0.0
0.0 0.0 6.86296
%ENDBLOCK LATTICE_CART

%BLOCK POSITIONS_FRAC
P           0.111878000000000    0.500000000000000    0.043578000000000 
P           0.388122000000000    0.000000000000000    0.543578000000000 
P           0.611878000000000    0.000000000000000    0.543578000000000 
P           0.888122000000000    0.500000000000000    0.043578000000000 
K           0.157911000000000    0.500000000000000    0.579131000000000 
K           0.183452000000000    0.126581000000000    0.425641000000000 
K           0.183452000000000    0.873419000000000    0.425641000000000 
K           0.213382000000000    0.000000000000000    0.783249000000000 
K           0.286618000000000    0.500000000000000    0.283249000000000 
K           0.316548000000000    0.373419000000000    0.925641000000000 
K           0.316548000000000    0.626581000000000    0.925641000000000 
K           0.342089000000000    0.000000000000000    0.079131000000000 
K           0.657911000000000    0.000000000000000    0.079131000000000 
K           0.683452000000000    0.373419000000000    0.925641000000000 
K           0.683452000000000    0.626581000000000    0.925641000000000 
K           0.713382000000000    0.500000000000000    0.283249000000000 
K           0.786618000000000    0.000000000000000    0.783249000000000 
K           0.816548000000000    0.126581000000000    0.425641000000000 
K           0.816548000000000    0.873419000000000    0.425641000000000 
K           0.842089000000000    0.500000000000000    0.579131000000000 
%ENDBLOCK POSITIONS_FRAC
