# Cell file generated by matador (Matthew Evans 2016)

%BLOCK LATTICE_CART
9.49978 0.0 0.0
0.0 9.49978 0.0
0.0 0.0 10.3641
%ENDBLOCK LATTICE_CART

%BLOCK POSITIONS_FRAC
P           0.000000000000000    0.000000000000000    0.500000000000000 
P           0.000000000000000    0.500000000000000    0.250000000000000 
P           0.000000000000000    0.500000000000000    0.750000000000000 
P           0.500000000000000    0.000000000000000    0.250000000000000 
P           0.500000000000000    0.000000000000000    0.750000000000000 
P           0.500000000000000    0.500000000000000    0.000000000000000 
K           0.000000000000000    0.000000000000000    0.000000000000000 
K           0.001023000000000    0.780524000000000    0.500000000000000 
K           0.016329000000000    0.673522000000000    0.000000000000000 
K           0.173522000000000    0.483671000000000    0.500000000000000 
K           0.219476000000000    0.998977000000000    0.500000000000000 
K           0.280524000000000    0.498977000000000    0.000000000000000 
K           0.326478000000000    0.983671000000000    0.000000000000000 
K           0.483671000000000    0.173522000000000    0.500000000000000 
K           0.498977000000000    0.280524000000000    0.000000000000000 
K           0.500000000000000    0.500000000000000    0.500000000000000 
K           0.501023000000000    0.719476000000000    0.000000000000000 
K           0.516329000000000    0.826478000000000    0.500000000000000 
K           0.673522000000000    0.016329000000000    0.000000000000000 
K           0.719476000000000    0.501023000000000    0.000000000000000 
K           0.780524000000000    0.001023000000000    0.500000000000000 
K           0.826478000000000    0.516329000000000    0.500000000000000 
K           0.983671000000000    0.326478000000000    0.000000000000000 
K           0.998977000000000    0.219476000000000    0.500000000000000 
%ENDBLOCK POSITIONS_FRAC
