# Cell file generated by matador (Matthew Evans 2016)

%BLOCK LATTICE_CART
7.44549 0.0 0.0
0.0 7.44549 0.0
0.0 0.0 9.00329
%ENDBLOCK LATTICE_CART

%BLOCK POSITIONS_FRAC
P           0.000000000000000    0.000000000000000    0.356660000000000 
P           0.000000000000000    0.000000000000000    0.500000000000000 
P           0.000000000000000    0.000000000000000    0.643340000000000 
P           0.000000000000000    0.287533000000000    0.000000000000000 
P           0.000000000000000    0.712467000000000    0.000000000000000 
P           0.212467000000000    0.500000000000000    0.500000000000000 
P           0.287533000000000    0.000000000000000    0.000000000000000 
P           0.500000000000000    0.212467000000000    0.500000000000000 
P           0.500000000000000    0.500000000000000    0.000000000000000 
P           0.500000000000000    0.500000000000000    0.143340000000000 
P           0.500000000000000    0.500000000000000    0.856660000000000 
P           0.500000000000000    0.787533000000000    0.500000000000000 
P           0.712467000000000    0.000000000000000    0.000000000000000 
P           0.787533000000000    0.500000000000000    0.500000000000000 
K           0.000000000000000    0.500000000000000    0.250000000000000 
K           0.000000000000000    0.500000000000000    0.750000000000000 
K           0.500000000000000    0.000000000000000    0.250000000000000 
K           0.500000000000000    0.000000000000000    0.750000000000000 
%ENDBLOCK POSITIONS_FRAC
