# Cell file generated by matador (Matthew Evans 2016)

%BLOCK LATTICE_CART
8.53775 0.0 0.0
2.69956 6.41241 0.0
-2.50913 -1.41775 7.37847
%ENDBLOCK LATTICE_CART

%BLOCK POSITIONS_FRAC
P           0.000000000000000    0.000000000000000    0.500000000000000 
P           0.207507000000000    0.670476000000000    0.005113000000000 
P           0.252898000000000    0.806662000000000    0.350341000000000 
P           0.747102000000000    0.193338000000000    0.649659000000000 
P           0.792493000000000    0.329524000000000    0.994887000000000 
K           0.469350000000000    0.869311000000000    0.272562000000000 
K           0.497378000000000    0.258270000000000    0.258551000000000 
K           0.500000000000000    0.000000000000000    0.000000000000000 
K           0.500000000000000    0.500000000000000    0.000000000000000 
K           0.502622000000000    0.741730000000000    0.741449000000000 
K           0.530650000000000    0.130689000000000    0.727438000000000 
%ENDBLOCK POSITIONS_FRAC
