# Cell file generated by matador (Matthew Evans 2016)

%BLOCK LATTICE_CART
10.2223 0.0 0.0
0.0 4.77703 0.0
0.0 0.0 10.0145
%ENDBLOCK LATTICE_CART

%BLOCK POSITIONS_FRAC
P           0.000000000000000    0.500000000000000    0.165023000000000 
P           0.000000000000000    0.500000000000000    0.439564000000000 
P           0.000000000000000    0.500000000000000    0.936420000000000 
P           0.500000000000000    0.000000000000000    0.436420000000000 
P           0.500000000000000    0.000000000000000    0.665023000000000 
P           0.500000000000000    0.000000000000000    0.939564000000000 
K           0.000000000000000    0.000000000000000    0.282689000000000 
K           0.000000000000000    0.265617000000000    0.717247000000000 
K           0.000000000000000    0.734383000000000    0.717247000000000 
K           0.149105000000000    0.000000000000000    0.925710000000000 
K           0.350895000000000    0.500000000000000    0.425710000000000 
K           0.500000000000000    0.234383000000000    0.217247000000000 
K           0.500000000000000    0.500000000000000    0.782689000000000 
K           0.500000000000000    0.765617000000000    0.217247000000000 
K           0.649105000000000    0.500000000000000    0.425710000000000 
K           0.850895000000000    0.000000000000000    0.925710000000000 
%ENDBLOCK POSITIONS_FRAC
