# Cell file generated by matador (Matthew Evans 2016)

%BLOCK LATTICE_CART
8.17689 0.0 0.0
0.0 8.17689 0.0
0.0 0.0 5.83768
%ENDBLOCK LATTICE_CART

%BLOCK POSITIONS_FRAC
P           0.000000000000000    0.500000000000000    0.500000000000000 
P           0.500000000000000    0.000000000000000    0.500000000000000 
K           0.000000000000000    0.000000000000000    0.000000000000000 
K           0.331326000000000    0.331326000000000    0.575942000000000 
K           0.331326000000000    0.668674000000000    0.424058000000000 
K           0.500000000000000    0.500000000000000    0.000000000000000 
K           0.500000000000000    0.500000000000000    0.500000000000000 
K           0.668674000000000    0.331326000000000    0.424058000000000 
K           0.668674000000000    0.668674000000000    0.575942000000000 
%ENDBLOCK POSITIONS_FRAC
