# Cell file generated by matador (Matthew Evans 2016)

%BLOCK LATTICE_CART
5.78885 0.0 0.0
-2.89442 5.01329 0.0
0.0 0.0 7.18173
%ENDBLOCK LATTICE_CART

%BLOCK POSITIONS_FRAC
P          -0.000000000000000    0.000000000000000    0.006856000000000 
P          -0.000000000000000    0.000000000000000    0.401554000000000 
P          -0.000000000000000    0.000000000000000    0.827810000000000 
P           0.333333000000000    0.666667000000000    0.978312000000000 
P           0.666666000000000    0.333334000000000    0.671228000000000 
K           0.333333000000000    0.666667000000000    0.348390000000000 
K           0.666666000000000    0.333334000000000    0.366521000000000 
%ENDBLOCK POSITIONS_FRAC
