# Cell file generated by matador (Matthew Evans 2016)

%BLOCK LATTICE_CART
8.70861 0.0 0.0
-4.35431 7.54188 0.0
0.0 0.0 6.91516
%ENDBLOCK LATTICE_CART

%BLOCK POSITIONS_FRAC
P           0.057290000000000    0.528645000000000    0.280167000000000 
P           0.471355000000000    0.528645000000000    0.280167000000000 
P           0.471355000000000    0.942710000000000    0.280167000000000 
K           0.002485000000000    0.501243000000000    0.594044000000000 
K           0.186093000000000    0.372186000000000    0.862763000000000 
K           0.186093000000000    0.813907000000000    0.862763000000000 
K           0.264115000000000    0.132057000000000    0.185728000000000 
K           0.498757000000000    0.501243000000000    0.594044000000000 
K           0.498757000000000    0.997515000000000    0.594044000000000 
K           0.627814000000000    0.813907000000000    0.862763000000000 
K           0.867943000000000    0.132057000000000    0.185728000000000 
K           0.867943000000000    0.735885000000000    0.185728000000000 
%ENDBLOCK POSITIONS_FRAC
