# Cell file generated by matador (Matthew Evans 2016)

%BLOCK LATTICE_CART
5.65036 0.0 0.0
-2.82518 4.89336 0.0
0.0 0.0 14.0231
%ENDBLOCK LATTICE_CART

%BLOCK POSITIONS_FRAC
P           0.000000000000000    0.000000000000000    0.948242000000000 
P           0.666667000000000    0.333333000000000    0.497377000000000 
K           0.000000000000000    0.000000000000000    0.163892000000000 
K           0.000000000000000    0.000000000000000    0.600057000000000 
K           0.000000000000000    0.000000000000000    0.798875000000000 
K           0.333333000000000    0.666667000000000    0.272389000000000 
K           0.522503000000000    0.045005000000000    0.863794000000000 
K           0.522503000000000    0.477497000000000    0.863794000000000 
K           0.954995000000000    0.477497000000000    0.863794000000000 
%ENDBLOCK POSITIONS_FRAC
