# Cell file generated by matador (Matthew Evans 2016)

%BLOCK LATTICE_CART
7.10328 0.0 0.0
0.0 7.10328 0.0
0.0 0.0 7.10328
%ENDBLOCK LATTICE_CART

%BLOCK POSITIONS_FRAC
P           0.231620000000000    0.231620000000000    0.231620000000000 
P           0.231620000000000    0.768380000000000    0.768380000000000 
P           0.268380000000000    0.268380000000000    0.731620000000000 
P           0.268380000000000    0.731620000000000    0.268380000000000 
P           0.731620000000000    0.268380000000000    0.268380000000000 
P           0.731620000000000    0.731620000000000    0.731620000000000 
P           0.768380000000000    0.231620000000000    0.768380000000000 
P           0.768380000000000    0.768380000000000    0.231620000000000 
K           0.000000000000000    0.000000000000000    0.500000000000000 
K           0.000000000000000    0.500000000000000    0.000000000000000 
K           0.000000000000000    0.500000000000000    0.500000000000000 
K           0.500000000000000    0.000000000000000    0.000000000000000 
K           0.500000000000000    0.000000000000000    0.500000000000000 
K           0.500000000000000    0.500000000000000    0.000000000000000 
%ENDBLOCK POSITIONS_FRAC
