# Cell file generated by matador (Matthew Evans 2016)

%BLOCK LATTICE_CART
13.0028 0.0 0.0
0.0 7.7686 0.0
0.0 0.0 11.1789
%ENDBLOCK LATTICE_CART

%BLOCK POSITIONS_FRAC
P           0.340308000000000    0.061996000000000    0.120805000000000 
P           0.340308000000000    0.061996000000000    0.379195000000000 
P           0.340308000000000    0.438004000000000    0.620805000000000 
P           0.340308000000000    0.438004000000000    0.879195000000000 
P           0.659692000000000    0.561996000000000    0.120805000000000 
P           0.659692000000000    0.561996000000000    0.379195000000000 
P           0.659692000000000    0.938004000000000    0.620805000000000 
P           0.659692000000000    0.938004000000000    0.879195000000000 
K           0.000000000000000    0.000000000000000    0.000000000000000 
K           0.000000000000000    0.000000000000000    0.500000000000000 
K           0.000000000000000    0.500000000000000    0.000000000000000 
K           0.000000000000000    0.500000000000000    0.500000000000000 
K           0.180317000000000    0.676446000000000    0.750000000000000 
K           0.180317000000000    0.823554000000000    0.250000000000000 
K           0.256427000000000    0.250000000000000    0.000000000000000 
K           0.256427000000000    0.250000000000000    0.500000000000000 
K           0.272739000000000    0.750000000000000    0.000000000000000 
K           0.272739000000000    0.750000000000000    0.500000000000000 
K           0.460243000000000    0.592751000000000    0.250000000000000 
K           0.460243000000000    0.907249000000000    0.750000000000000 
K           0.500000000000000    0.000000000000000    0.000000000000000 
K           0.500000000000000    0.000000000000000    0.500000000000000 
K           0.500000000000000    0.500000000000000    0.000000000000000 
K           0.500000000000000    0.500000000000000    0.500000000000000 
K           0.539757000000000    0.092751000000000    0.250000000000000 
K           0.539757000000000    0.407249000000000    0.750000000000000 
K           0.727261000000000    0.250000000000000    0.000000000000000 
K           0.727261000000000    0.250000000000000    0.500000000000000 
K           0.743573000000000    0.750000000000000    0.000000000000000 
K           0.743573000000000    0.750000000000000    0.500000000000000 
K           0.819683000000000    0.176446000000000    0.750000000000000 
K           0.819683000000000    0.323554000000000    0.250000000000000 
%ENDBLOCK POSITIONS_FRAC
