# Cell file generated by matador (Matthew Evans 2016)

%BLOCK LATTICE_CART
7.83562 0.0 0.0
0.0 7.83562 0.0
0.0 0.0 8.51216
%ENDBLOCK LATTICE_CART

%BLOCK POSITIONS_FRAC
P           0.000000000000000    0.000000000000000    0.318870000000000 
P           0.000000000000000    0.000000000000000    0.624860000000000 
P           0.500000000000000    0.500000000000000    0.124860000000000 
P           0.500000000000000    0.500000000000000    0.818870000000000 
K           0.000000000000000    0.000000000000000    0.885892000000000 
K           0.000000000000000    0.248385000000000    0.100481000000000 
K           0.000000000000000    0.500000000000000    0.438669000000000 
K           0.000000000000000    0.500000000000000    0.938669000000000 
K           0.000000000000000    0.751615000000000    0.100481000000000 
K           0.248385000000000    0.000000000000000    0.100481000000000 
K           0.251615000000000    0.500000000000000    0.600481000000000 
K           0.500000000000000    0.000000000000000    0.438669000000000 
K           0.500000000000000    0.000000000000000    0.938669000000000 
K           0.500000000000000    0.251615000000000    0.600481000000000 
K           0.500000000000000    0.500000000000000    0.385892000000000 
K           0.500000000000000    0.748385000000000    0.600481000000000 
K           0.748385000000000    0.500000000000000    0.600481000000000 
K           0.751615000000000    0.000000000000000    0.100481000000000 
%ENDBLOCK POSITIONS_FRAC
