# Cell file generated by matador (Matthew Evans 2016)

%BLOCK LATTICE_CART
5.267 0.0 0.0
-2.6335 4.56136 0.0
0.0 0.0 5.26761
%ENDBLOCK LATTICE_CART

%BLOCK POSITIONS_FRAC
P           0.269771000000000    0.241866000000000    0.002378000000000 
P           0.475228000000000    0.322021000000000    0.245474000000000 
P           0.677979000000000    0.153207000000000    0.245474000000000 
P           0.758134000000000    0.027905000000000    0.002378000000000 
P           0.846793000000000    0.524772000000000    0.245474000000000 
P           0.972095000000000    0.730229000000000    0.002378000000000 
K           0.000000000000000    0.000000000000000    0.487842000000000 
%ENDBLOCK POSITIONS_FRAC
