# Cell file generated by matador (Matthew Evans 2016)

%BLOCK LATTICE_CART
9.08944 0.0 0.0
-4.54472 7.87169 0.0
0.0 0.0 5.46798
%ENDBLOCK LATTICE_CART

%BLOCK POSITIONS_FRAC
P           0.000000000000000    0.000000000000000    0.000000000000000 
P           0.000000000000000    0.000000000000000    0.500000000000000 
P           0.333333000000000    0.666667000000000    0.365766000000000 
P           0.333333000000000    0.666667000000000    0.634234000000000 
P           0.666667000000000    0.333333000000000    0.365766000000000 
P           0.666667000000000    0.333333000000000    0.634234000000000 
K           0.000000000000000    0.500000000000000    0.500000000000000 
K           0.333333000000000    0.666667000000000    0.000000000000000 
K           0.500000000000000    0.000000000000000    0.500000000000000 
K           0.500000000000000    0.500000000000000    0.500000000000000 
K           0.666667000000000    0.333333000000000    0.000000000000000 
%ENDBLOCK POSITIONS_FRAC
