# Cell file generated by matador (Matthew Evans 2016)

%BLOCK LATTICE_CART
9.31148 -0.0 0.0
-4.65574 8.06398 0.0
0.0 0.0 8.55809
%ENDBLOCK LATTICE_CART

%BLOCK POSITIONS_FRAC
P           0.115073000000000    0.516965000000000    0.067138000000000 
P           0.153650000000000    0.637002000000000    0.349319000000000 
P           0.333333000000000    0.666667000000000    0.167719000000000 
P           0.362998000000000    0.516647000000000    0.349319000000000 
P           0.401891000000000    0.884927000000000    0.067138000000000 
P           0.483035000000000    0.598109000000000    0.067138000000000 
P           0.483353000000000    0.846350000000000    0.349319000000000 
P           0.516647000000000    0.153650000000000    0.349319000000000 
P           0.516965000000000    0.401891000000000    0.067138000000000 
P           0.598109000000000    0.115073000000000    0.067138000000000 
P           0.637002000000000    0.483353000000000    0.349319000000000 
P           0.666667000000000    0.333333000000000    0.167719000000000 
P           0.846350000000000    0.362998000000000    0.349319000000000 
P           0.884927000000000    0.483035000000000    0.067138000000000 
K           0.012469000000000    0.277540000000000    0.658745000000000 
K           0.265071000000000    0.987531000000000    0.658745000000000 
K           0.277540000000000    0.265071000000000    0.658745000000000 
K           0.722460000000000    0.734929000000000    0.658745000000000 
K           0.734929000000000    0.012469000000000    0.658745000000000 
K           0.987531000000000    0.722460000000000    0.658745000000000 
%ENDBLOCK POSITIONS_FRAC
