# Cell file generated by matador (Matthew Evans 2016)

%BLOCK LATTICE_CART
6.79418 0.0 0.0
-3.39709 5.88393 0.0
0.0 0.0 10.6532
%ENDBLOCK LATTICE_CART

%BLOCK POSITIONS_FRAC
P           0.000000000000000   -0.000000000000000    0.492089000000000 
P           0.000000000000000   -0.000000000000000    0.987721000000000 
P           0.333334000000000    0.666666000000000    0.055345000000000 
P           0.333334000000000    0.666666000000000    0.627244000000000 
P           0.333334000000000    0.666666000000000    0.869057000000000 
P           0.666667000000000    0.333333000000000    0.000021000000000 
P           0.666667000000000    0.333333000000000    0.111967000000000 
K           0.024320000000000    0.655888000000000    0.249458000000000 
K           0.344112000000000    0.368431000000000    0.249458000000000 
K           0.387023000000000    0.271189000000000    0.671409000000000 
K           0.631569000000000    0.975680000000000    0.249458000000000 
K           0.728811000000000    0.115834000000000    0.671409000000000 
K           0.884166000000000    0.612977000000000    0.671409000000000 
%ENDBLOCK POSITIONS_FRAC
