# Cell file generated by matador (Matthew Evans 2016)

%BLOCK LATTICE_CART
7.89191 0.0 0.0
-3.94596 6.8346 0.0
0.0 0.0 8.68215
%ENDBLOCK LATTICE_CART

%BLOCK POSITIONS_FRAC
P           0.000000000000000    0.000000000000000    0.232478000000000 
P           0.000000000000000    0.000000000000000    0.767522000000000 
P           0.333333000000000    0.666667000000000    0.230358000000000 
P           0.333333000000000    0.666667000000000    0.769642000000000 
P           0.666667000000000    0.333333000000000    0.230358000000000 
P           0.666667000000000    0.333333000000000    0.769642000000000 
K           0.000000000000000    0.500000000000000    0.000000000000000 
K           0.000000000000000    0.500000000000000    0.500000000000000 
K           0.333333000000000    0.666667000000000    0.000000000000000 
K           0.333333000000000    0.666667000000000    0.500000000000000 
K           0.500000000000000    0.000000000000000    0.000000000000000 
K           0.500000000000000    0.000000000000000    0.500000000000000 
K           0.500000000000000    0.500000000000000    0.000000000000000 
K           0.500000000000000    0.500000000000000    0.500000000000000 
K           0.666667000000000    0.333333000000000    0.000000000000000 
K           0.666667000000000    0.333333000000000    0.500000000000000 
%ENDBLOCK POSITIONS_FRAC
