# Cell file generated by matador (Matthew Evans 2016)

%BLOCK LATTICE_CART
3.34459 0.0 0.0
-2.5086 4.61369 0.0
-1.29813 -4.90995 7.06753
%ENDBLOCK LATTICE_CART

%BLOCK POSITIONS_FRAC
P           0.000000000000000    0.500000000000000    0.500000000000000 
K           0.500000000000000    0.000000000000000    0.000000000000000 
K           0.500000000000000    0.000000000000000    0.500000000000000 
%ENDBLOCK POSITIONS_FRAC
