# Cell file generated by matador (Matthew Evans 2016)

%BLOCK LATTICE_CART
7.56261 0.0 0.0
-3.78131 6.54941 0.0
0.0 0.0 8.62113
%ENDBLOCK LATTICE_CART

%BLOCK POSITIONS_FRAC
P           0.004161000000000    0.253443000000000    0.125104000000000 
P           0.079891000000000    0.417385000000000    0.791771000000000 
P           0.249282000000000    0.995839000000000    0.125104000000000 
P           0.337494000000000    0.920109000000000    0.791771000000000 
P           0.413224000000000    0.084052000000000    0.458437000000000 
P           0.582615000000000    0.662506000000000    0.791771000000000 
P           0.670828000000000    0.586776000000000    0.458437000000000 
P           0.746557000000000    0.750718000000000    0.125104000000000 
P           0.915948000000000    0.329172000000000    0.458437000000000 
K           0.000000000000000   -0.000000000000000    0.028872000000000 
K           0.333333000000000    0.666667000000000    0.695539000000000 
K           0.666667000000000    0.333333000000000    0.362205000000000 
%ENDBLOCK POSITIONS_FRAC
