# Cell file generated by matador (Matthew Evans 2016)

%BLOCK LATTICE_CART
9.36888 0.0 0.0
0.0 7.89924 0.0
0.0 0.0 8.30368
%ENDBLOCK LATTICE_CART

%BLOCK POSITIONS_FRAC
P           0.000000000000000    0.062336000000000    0.834645000000000 
P           0.000000000000000    0.152084000000000    0.462611000000000 
P           0.000000000000000    0.847916000000000    0.962611000000000 
P           0.000000000000000    0.937664000000000    0.334645000000000 
K           0.000000000000000    0.070335000000000    0.071718000000000 
K           0.000000000000000    0.296155000000000    0.684218000000000 
K           0.000000000000000    0.362176000000000    0.324315000000000 
K           0.000000000000000    0.637824000000000    0.824315000000000 
K           0.000000000000000    0.703845000000000    0.184218000000000 
K           0.000000000000000    0.929665000000000    0.571718000000000 
K           0.500000000000000    0.109509000000000    0.261821000000000 
K           0.500000000000000    0.220925000000000    0.914512000000000 
K           0.500000000000000    0.406032000000000    0.489331000000000 
K           0.500000000000000    0.593968000000000    0.989331000000000 
K           0.500000000000000    0.779075000000000    0.414512000000000 
K           0.500000000000000    0.890491000000000    0.761821000000000 
%ENDBLOCK POSITIONS_FRAC
