# Cell file generated by matador (Matthew Evans 2016)

%BLOCK LATTICE_CART
8.14047 0.0 0.0
0.0 7.31351 0.0
-0.943247 0.0 7.58912
%ENDBLOCK LATTICE_CART

%BLOCK POSITIONS_FRAC
P           0.042557000000000    0.500000000000000    0.166185000000000 
P           0.176570000000000    0.000000000000000    0.112747000000000 
P           0.261128000000000    0.500000000000000    0.747238000000000 
P           0.327657000000000    0.500000000000000    0.272156000000000 
P           0.562777000000000    0.500000000000000    0.440143000000000 
P           0.710790000000000    0.500000000000000    0.973252000000000 
P           0.733377000000000    0.000000000000000    0.338274000000000 
P           0.796100000000000    0.000000000000000    0.574852000000000 
K           0.133123000000000    0.219514000000000    0.868595000000000 
K           0.133123000000000    0.780486000000000    0.868595000000000 
K           0.264272000000000    0.188135000000000    0.460142000000000 
K           0.264272000000000    0.811865000000000    0.460142000000000 
K           0.514666000000000    0.213231000000000    0.028397000000000 
K           0.514666000000000    0.786769000000000    0.028397000000000 
%ENDBLOCK POSITIONS_FRAC
