# Cell file generated by matador (Matthew Evans 2016)

%BLOCK LATTICE_CART
11.268 0.0 0.0
0.0 8.12782 0.0
-0.138908 0.0 6.24517
%ENDBLOCK LATTICE_CART

%BLOCK POSITIONS_FRAC
P           0.000000000000000    0.000000000000000    0.000000000000000 
P           0.000000000000000    0.000000000000000    0.500000000000000 
P           0.226484000000000    0.122555000000000    0.844502000000000 
P           0.226484000000000    0.877445000000000    0.344502000000000 
P           0.465157000000000    0.240704000000000    0.138906000000000 
P           0.465157000000000    0.759296000000000    0.638906000000000 
P           0.534843000000000    0.240704000000000    0.361094000000000 
P           0.534843000000000    0.759296000000000    0.861094000000000 
P           0.773516000000000    0.122555000000000    0.655498000000000 
P           0.773516000000000    0.877445000000000    0.155498000000000 
K           0.268672000000000    0.115013000000000    0.209811000000000 
K           0.268672000000000    0.884987000000000    0.709811000000000 
K           0.500000000000000    0.500000000000000    0.000000000000000 
K           0.500000000000000    0.500000000000000    0.500000000000000 
K           0.731328000000000    0.115013000000000    0.290189000000000 
K           0.731328000000000    0.884987000000000    0.790189000000000 
%ENDBLOCK POSITIONS_FRAC
