# Cell file generated by matador (Matthew Evans 2016)

%BLOCK LATTICE_CART
9.11074 0.0 0.0
1.04759 6.86892 0.0
-3.38091 3.26933 7.32887
%ENDBLOCK LATTICE_CART

%BLOCK POSITIONS_FRAC
P           0.000000000000000    0.000000000000000    0.000000000000000 
P           0.000000000000000    0.500000000000000    0.500000000000000 
P           0.023037000000000    0.660235000000000    0.200636000000000 
P           0.177471000000000    0.777058000000000    0.807072000000000 
P           0.468939000000000    0.868868000000000    0.069703000000000 
P           0.500000000000000    0.000000000000000    0.000000000000000 
P           0.500000000000000    0.000000000000000    0.500000000000000 
P           0.500000000000000    0.500000000000000    0.000000000000000 
P           0.500000000000000    0.500000000000000    0.500000000000000 
P           0.531061000000000    0.131132000000000    0.930297000000000 
P           0.822529000000000    0.222942000000000    0.192928000000000 
P           0.976963000000000    0.339765000000000    0.799364000000000 
K           0.087765000000000    0.859628000000000    0.322600000000000 
K           0.430108000000000    0.126014000000000    0.211063000000000 
K           0.569892000000000    0.873986000000000    0.788937000000000 
K           0.912235000000000    0.140372000000000    0.677400000000000 
%ENDBLOCK POSITIONS_FRAC
