# Cell file generated by matador (Matthew Evans 2016)

%BLOCK LATTICE_CART
7.9588 0.0 0.0
-3.9794 6.89253 0.0
0.0 0.0 7.69926
%ENDBLOCK LATTICE_CART

%BLOCK POSITIONS_FRAC
P           0.000000000000000    0.000000000000000    0.369138000000000 
P           0.000000000000000    0.000000000000000    0.630862000000000 
P           0.333333000000000    0.666667000000000    0.646678000000000 
P           0.333333000000000    0.666667000000000    0.791759000000000 
P           0.666667000000000    0.333333000000000    0.208241000000000 
P           0.666667000000000    0.333333000000000    0.353322000000000 
K           0.000000000000000    0.000000000000000    0.000000000000000 
K           0.075380000000000    0.327838000000000    0.304769000000000 
K           0.252459000000000    0.924620000000000    0.304769000000000 
K           0.327838000000000    0.252459000000000    0.695231000000000 
K           0.672162000000000    0.747541000000000    0.304769000000000 
K           0.747541000000000    0.075380000000000    0.695231000000000 
K           0.924620000000000    0.672162000000000    0.695231000000000 
%ENDBLOCK POSITIONS_FRAC
