# Cell file generated by matador (Matthew Evans 2016)

%BLOCK LATTICE_CART
12.8865 0.0 0.0
0.0 8.29135 0.0
0.0 0.0 12.6038
%ENDBLOCK LATTICE_CART

%BLOCK POSITIONS_FRAC
P          -0.000000000000000    0.000000000000000    0.000000000000000 
P          -0.000000000000000    0.000000000000000    0.500000000000000 
P          -0.000000000000000    0.500000000000000    0.000000000000000 
P          -0.000000000000000    0.500000000000000    0.500000000000000 
P           0.500000000000000    0.000000000000000    0.000000000000000 
P           0.500000000000000    0.000000000000000    0.500000000000000 
P           0.500000000000000    0.500000000000000    0.000000000000000 
P           0.500000000000000    0.500000000000000    0.500000000000000 
K          -0.000000000000000    0.250000000000000    0.250000000000000 
K          -0.000000000000000    0.250000000000000    0.750000000000000 
K          -0.000000000000000    0.750000000000000    0.250000000000000 
K          -0.000000000000000    0.750000000000000    0.750000000000000 
K           0.250000000000000    0.000000000000000    0.179128000000000 
K           0.250000000000000    0.000000000000000    0.679128000000000 
K           0.250000000000000    0.250000000000000    0.000000000000000 
K           0.250000000000000    0.250000000000000    0.500000000000000 
K           0.250000000000000    0.500000000000000    0.320872000000000 
K           0.250000000000000    0.500000000000000    0.820872000000000 
K           0.250000000000000    0.750000000000000    0.000000000000000 
K           0.250000000000000    0.750000000000000    0.500000000000000 
K           0.500000000000000    0.250000000000000    0.250000000000000 
K           0.500000000000000    0.250000000000000    0.750000000000000 
K           0.500000000000000    0.750000000000000    0.250000000000000 
K           0.500000000000000    0.750000000000000    0.750000000000000 
K           0.750000000000000    0.000000000000000    0.320872000000000 
K           0.750000000000000    0.000000000000000    0.820872000000000 
K           0.750000000000000    0.250000000000000    0.000000000000000 
K           0.750000000000000    0.250000000000000    0.500000000000000 
K           0.750000000000000    0.500000000000000    0.179128000000000 
K           0.750000000000000    0.500000000000000    0.679128000000000 
K           0.750000000000000    0.750000000000000    0.000000000000000 
K           0.750000000000000    0.750000000000000    0.500000000000000 
%ENDBLOCK POSITIONS_FRAC
