# Cell file generated by matador (Matthew Evans 2016)

%BLOCK LATTICE_CART
14.6537 0.0 0.0
0.0 7.67593 0.0
0.0 0.0 11.8983
%ENDBLOCK LATTICE_CART

%BLOCK POSITIONS_FRAC
P          -0.000000000000000   -0.000000000000000    0.000000000000000 
P          -0.000000000000000   -0.000000000000000    0.500000000000000 
P          -0.000000000000000    0.500000000000000    0.000000000000000 
P          -0.000000000000000    0.500000000000000    0.500000000000000 
P           0.500000000000000   -0.000000000000000    0.000000000000000 
P           0.500000000000000   -0.000000000000000    0.500000000000000 
P           0.500000000000000    0.500000000000000    0.000000000000000 
P           0.500000000000000    0.500000000000000    0.500000000000000 
K          -0.000000000000000    0.290628000000000    0.339068000000000 
K          -0.000000000000000    0.290628000000000    0.660932000000000 
K          -0.000000000000000    0.709372000000000    0.339068000000000 
K          -0.000000000000000    0.709372000000000    0.660932000000000 
K           0.117018000000000    0.295404000000000    0.000000000000000 
K           0.117018000000000    0.704596000000000    0.000000000000000 
K           0.138341000000000   -0.000000000000000    0.289274000000000 
K           0.138341000000000   -0.000000000000000    0.710726000000000 
K           0.361659000000000    0.500000000000000    0.289274000000000 
K           0.361659000000000    0.500000000000000    0.710726000000000 
K           0.382982000000000    0.204596000000000    0.000000000000000 
K           0.382982000000000    0.795404000000000    0.000000000000000 
K           0.500000000000000    0.209372000000000    0.339068000000000 
K           0.500000000000000    0.209372000000000    0.660932000000000 
K           0.500000000000000    0.790628000000000    0.339068000000000 
K           0.500000000000000    0.790628000000000    0.660932000000000 
K           0.617018000000000    0.204596000000000    0.000000000000000 
K           0.617018000000000    0.795404000000000    0.000000000000000 
K           0.638341000000000    0.500000000000000    0.289274000000000 
K           0.638341000000000    0.500000000000000    0.710726000000000 
K           0.861659000000000   -0.000000000000000    0.289274000000000 
K           0.861659000000000   -0.000000000000000    0.710726000000000 
K           0.882982000000000    0.295404000000000    0.000000000000000 
K           0.882982000000000    0.704596000000000    0.000000000000000 
%ENDBLOCK POSITIONS_FRAC
