# Cell file generated by matador (Matthew Evans 2016)

%BLOCK LATTICE_CART
5.18972 0.0 0.0
0.0 10.0618 0.0
0.0 0.0 5.46627
%ENDBLOCK LATTICE_CART

%BLOCK POSITIONS_FRAC
P           0.000000000000000    0.299587000000000    0.000000000000000 
P           0.000000000000000    0.700413000000000    0.000000000000000 
P           0.194977000000000    0.000000000000000    0.500000000000000 
P           0.305023000000000    0.500000000000000    0.000000000000000 
P           0.500000000000000    0.200413000000000    0.500000000000000 
P           0.500000000000000    0.799587000000000    0.500000000000000 
P           0.694977000000000    0.500000000000000    0.000000000000000 
P           0.805023000000000    0.000000000000000    0.500000000000000 
K           0.000000000000000    0.000000000000000    0.000000000000000 
K           0.500000000000000    0.500000000000000    0.500000000000000 
%ENDBLOCK POSITIONS_FRAC
