# Cell file generated by matador (Matthew Evans 2016)

%BLOCK LATTICE_CART
8.71246 0.0 0.0
0.0 8.71246 0.0
0.0 0.0 7.41146
%ENDBLOCK LATTICE_CART

%BLOCK POSITIONS_FRAC
P           0.000000000000000    0.000000000000000    0.223721000000000 
P           0.000000000000000    0.000000000000000    0.776279000000000 
P           0.000000000000000    0.500000000000000    0.684144000000000 
P           0.500000000000000    0.000000000000000    0.315856000000000 
P           0.500000000000000    0.500000000000000    0.420800000000000 
P           0.500000000000000    0.500000000000000    0.579200000000000 
K           0.000000000000000    0.000000000000000    0.500000000000000 
K           0.058600000000000    0.342502000000000    0.035890000000000 
K           0.121333000000000    0.397407000000000    0.352461000000000 
K           0.342502000000000    0.941400000000000    0.964110000000000 
K           0.397407000000000    0.878667000000000    0.647539000000000 
K           0.500000000000000    0.500000000000000    0.000000000000000 
K           0.602593000000000    0.121333000000000    0.647539000000000 
K           0.657498000000000    0.058600000000000    0.964110000000000 
K           0.878667000000000    0.602593000000000    0.352461000000000 
K           0.941400000000000    0.657498000000000    0.035890000000000 
%ENDBLOCK POSITIONS_FRAC
