# Cell file generated by matador (Matthew Evans 2016)

%BLOCK LATTICE_CART
7.98431 -0.0 0.0
-3.99216 6.91462 0.0
0.0 0.0 9.20635
%ENDBLOCK LATTICE_CART

%BLOCK POSITIONS_FRAC
P           0.016532000000000    0.658797000000000    0.029287000000000 
P           0.341203000000000    0.357734000000000    0.029287000000000 
P           0.479209000000000    0.471753000000000    0.284267000000000 
P           0.528247000000000    0.007456000000000    0.284267000000000 
P           0.642266000000000    0.983468000000000    0.029287000000000 
P           0.992544000000000    0.520791000000000    0.284267000000000 
K           0.000000000000000   -0.000000000000000    0.279526000000000 
K           0.030641000000000    0.403438000000000    0.543946000000000 
K           0.065315000000000    0.309937000000000    0.843324000000000 
K           0.244623000000000    0.934685000000000    0.843324000000000 
K           0.372797000000000    0.969359000000000    0.543946000000000 
K           0.596562000000000    0.627203000000000    0.543946000000000 
K           0.666667000000000    0.333333000000000    0.251482000000000 
K           0.666667000000000    0.333333000000000    0.821766000000000 
K           0.690063000000000    0.755377000000000    0.843324000000000 
%ENDBLOCK POSITIONS_FRAC
