# Cell file generated by matador (Matthew Evans 2016)

%BLOCK LATTICE_CART
6.26141 0.0 0.0
-3.1307 5.42254 0.0
0.0 0.0 5.32115
%ENDBLOCK LATTICE_CART

%BLOCK POSITIONS_FRAC
P          -0.000000000000000    0.000000000000000    0.726158000000000 
P           0.333333000000000    0.666667000000000    0.392825000000000 
P           0.666667000000000    0.333333000000000    0.059491000000000 
K          -0.000000000000000    0.000000000000000    0.272922000000000 
K           0.333333000000000    0.666667000000000    0.939588000000000 
K           0.666667000000000    0.333333000000000    0.606255000000000 
%ENDBLOCK POSITIONS_FRAC
