# Cell file generated by matador (Matthew Evans 2016)

%BLOCK LATTICE_CART
5.21284 0.0 0.0
1.28801 11.0092 0.0
1.305 -2.59876 5.94656
%ENDBLOCK LATTICE_CART

%BLOCK POSITIONS_FRAC
P           0.000000000000000    0.000000000000000    0.000000000000000 
P           0.000000000000000    0.000000000000000    0.500000000000000 
P           0.000000000000000    0.500000000000000    0.500000000000000 
P           0.500000000000000    0.000000000000000    0.000000000000000 
P           0.500000000000000    0.000000000000000    0.500000000000000 
P           0.500000000000000    0.500000000000000    0.000000000000000 
P           0.500000000000000    0.500000000000000    0.500000000000000 
K           0.000000000000000    0.500000000000000    0.000000000000000 
K           0.194894000000000    0.708832000000000    0.776439000000000 
K           0.372945000000000    0.795808000000000    0.251027000000000 
K           0.627055000000000    0.204192000000000    0.748973000000000 
K           0.805106000000000    0.291168000000000    0.223561000000000 
%ENDBLOCK POSITIONS_FRAC
