# Cell file generated by matador (Matthew Evans 2016)

%BLOCK LATTICE_CART
7.33774 0.0 0.0
0.0 5.91832 0.0
0.95579 0.0 7.12943
%ENDBLOCK LATTICE_CART

%BLOCK POSITIONS_FRAC
P           0.346669000000000    0.281970000000000    0.064157000000000 
P           0.346669000000000    0.718030000000000    0.064157000000000 
K           0.007817000000000    0.000000000000000    0.479220000000000 
K           0.148724000000000    0.500000000000000    0.731343000000000 
K           0.459535000000000    0.000000000000000    0.509424000000000 
K           0.551195000000000    0.500000000000000    0.280511000000000 
K           0.689161000000000    0.500000000000000    0.713665000000000 
K           0.871823000000000    0.000000000000000    0.905293000000000 
%ENDBLOCK POSITIONS_FRAC
