# Cell file generated by matador (Matthew Evans 2016)

%BLOCK LATTICE_CART
6.60605 0.0 0.0
-3.30303 5.72101 0.0
0.0 0.0 8.24065
%ENDBLOCK LATTICE_CART

%BLOCK POSITIONS_FRAC
P           0.333333000000000    0.666667000000000    0.242700000000000 
P           0.333333000000000    0.666667000000000    0.757300000000000 
P           0.666666000000000    0.333334000000000    0.242700000000000 
P           0.666666000000000    0.333334000000000    0.757300000000000 
K          -0.000000000000000    0.368268000000000    0.804189000000000 
K          -0.000000000000000    0.631732000000000    0.195811000000000 
K           0.333333000000000    0.666667000000000    0.000000000000000 
K           0.368268000000000    0.000000000000000    0.804189000000000 
K           0.368268000000000    0.368268000000000    0.195811000000000 
K           0.631732000000000    0.000000000000000    0.195811000000000 
K           0.631732000000000    0.631732000000000    0.804189000000000 
K           0.666666000000000    0.333334000000000    0.000000000000000 
%ENDBLOCK POSITIONS_FRAC
