# Cell file generated by matador (Matthew Evans 2016)

%BLOCK LATTICE_CART
6.70443 0.0 0.0
-3.35221 5.8062 0.0
0.0 0.0 7.72971
%ENDBLOCK LATTICE_CART

%BLOCK POSITIONS_FRAC
P           0.040613000000000    0.927837000000000    0.292280000000000 
P           0.072163000000000    0.112776000000000    0.292280000000000 
P           0.216407000000000    0.612813000000000    0.495648000000000 
P           0.387187000000000    0.603594000000000    0.495648000000000 
P           0.396406000000000    0.783593000000000    0.495648000000000 
P           0.666667000000000    0.333333000000000    0.905313000000000 
P           0.887224000000000    0.959387000000000    0.292280000000000 
K           0.000000000000000    0.000000000000000    0.640262000000000 
K           0.000000000000000    0.000000000000000    0.939698000000000 
K           0.393283000000000    0.087942000000000    0.032084000000000 
K           0.666667000000000    0.333333000000000    0.565452000000000 
K           0.694658000000000    0.606717000000000    0.032084000000000 
K           0.912058000000000    0.305342000000000    0.032084000000000 
%ENDBLOCK POSITIONS_FRAC
