# Cell file generated by matador (Matthew Evans 2016)

%BLOCK LATTICE_CART
7.42702 0.0 0.0
0.0 9.67971 0.0
0.621258 0.0 6.97397
%ENDBLOCK LATTICE_CART

%BLOCK POSITIONS_FRAC
P           0.000000000000000    0.000000000000000    0.000000000000000 
P           0.000000000000000    0.000000000000000    0.500000000000000 
P           0.000000000000000    0.500000000000000    0.000000000000000 
P           0.000000000000000    0.500000000000000    0.500000000000000 
P           0.000721000000000    0.250000000000000    0.284426000000000 
P           0.133840000000000    0.750000000000000    0.934445000000000 
P           0.211147000000000    0.250000000000000    0.036360000000000 
P           0.297866000000000    0.250000000000000    0.263182000000000 
P           0.500000000000000    0.000000000000000    0.500000000000000 
P           0.500000000000000    0.500000000000000    0.500000000000000 
P           0.702134000000000    0.750000000000000    0.736818000000000 
P           0.788853000000000    0.750000000000000    0.963640000000000 
P           0.866160000000000    0.250000000000000    0.065555000000000 
P           0.999279000000000    0.750000000000000    0.715574000000000 
K           0.193414000000000    0.250000000000000    0.539834000000000 
K           0.407373000000000    0.750000000000000    0.661978000000000 
K           0.473371000000000    0.750000000000000    0.202743000000000 
K           0.526629000000000    0.250000000000000    0.797257000000000 
K           0.592627000000000    0.250000000000000    0.338022000000000 
K           0.806586000000000    0.750000000000000    0.460166000000000 
%ENDBLOCK POSITIONS_FRAC
