# Cell file generated by matador (Matthew Evans 2016)

%BLOCK LATTICE_CART
8.5574 0.0 0.0
-4.2787 7.41092 0.0
0.0 0.0 8.23127
%ENDBLOCK LATTICE_CART

%BLOCK POSITIONS_FRAC
P           0.000000000000000   -0.000000000000000    0.363085000000000 
P           0.000000000000000   -0.000000000000000    0.500000000000000 
P           0.000000000000000   -0.000000000000000    0.636915000000000 
P           0.000000000000000    0.500000000000000    0.000000000000000 
P           0.000000000000000    0.500000000000000    0.500000000000000 
P           0.500000000000000   -0.000000000000000    0.000000000000000 
P           0.500000000000000   -0.000000000000000    0.500000000000000 
P           0.500000000000000    0.500000000000000    0.000000000000000 
P           0.500000000000000    0.500000000000000    0.500000000000000 
K           0.123980000000000    0.738496000000000    0.667294000000000 
K           0.261504000000000    0.385484000000000    0.667294000000000 
K           0.385484000000000    0.123980000000000    0.332706000000000 
K           0.614516000000000    0.876020000000000    0.667294000000000 
K           0.738496000000000    0.614516000000000    0.332706000000000 
K           0.876020000000000    0.261504000000000    0.332706000000000 
%ENDBLOCK POSITIONS_FRAC
