# Cell file generated by matador (Matthew Evans 2016)

%BLOCK LATTICE_CART
6.89153 0.0 0.0
0.0 5.6315 0.0
3.0751 0.0 7.70566
%ENDBLOCK LATTICE_CART

%BLOCK POSITIONS_FRAC
P           0.000000000000000    0.500000000000000    0.500000000000000 
P           0.500000000000000    0.000000000000000    0.500000000000000 
K           0.169316000000000    0.259432000000000    0.135907000000000 
K           0.169316000000000    0.740568000000000    0.135907000000000 
K           0.500000000000000    0.500000000000000    0.500000000000000 
K           0.830684000000000    0.259432000000000    0.864093000000000 
K           0.830684000000000    0.740568000000000    0.864093000000000 
%ENDBLOCK POSITIONS_FRAC
