# Cell file generated by matador (Matthew Evans 2016)

%BLOCK LATTICE_CART
6.77434 0.0 0.0
-3.38717 5.86675 0.0
0.0 0.0 14.4435
%ENDBLOCK LATTICE_CART

%BLOCK POSITIONS_FRAC
P          -0.000000000000000   -0.000000000000000    0.234123000000000 
P          -0.000000000000000   -0.000000000000000    0.765877000000000 
P           0.333333000000000    0.666667000000000    0.432543000000000 
P           0.333333000000000    0.666667000000000    0.900790000000000 
P           0.666667000000000    0.333333000000000    0.099210000000000 
P           0.666667000000000    0.333333000000000    0.567457000000000 
K          -0.000000000000000    0.343177000000000    0.500000000000000 
K           0.009844000000000    0.333333000000000    0.833333000000000 
K           0.323490000000000    0.990156000000000    0.833333000000000 
K           0.333333000000000    0.009844000000000    0.166667000000000 
K           0.343177000000000   -0.000000000000000    0.500000000000000 
K           0.656823000000000    0.656823000000000    0.500000000000000 
K           0.666667000000000    0.676510000000000    0.833333000000000 
K           0.676510000000000    0.666667000000000    0.166667000000000 
K           0.990156000000000    0.323490000000000    0.166667000000000 
%ENDBLOCK POSITIONS_FRAC
