# Cell file generated by matador (Matthew Evans 2016)

%BLOCK LATTICE_CART
7.97796 0.0 0.0
0.0 8.93646 0.0
0.0 0.0 9.07959
%ENDBLOCK LATTICE_CART

%BLOCK POSITIONS_FRAC
P           0.000000000000000    0.000000000000000    0.500000000000000 
P           0.500000000000000    0.500000000000000    0.500000000000000 
K           0.000000000000000    0.000000000000000    0.000000000000000 
K           0.000000000000000    0.500000000000000    0.000000000000000 
K           0.000000000000000    0.500000000000000    0.500000000000000 
K           0.057749000000000    0.187927000000000    0.366963000000000 
K           0.057749000000000    0.812073000000000    0.633037000000000 
K           0.442251000000000    0.312073000000000    0.366963000000000 
K           0.442251000000000    0.687927000000000    0.633037000000000 
K           0.500000000000000    0.000000000000000    0.000000000000000 
K           0.500000000000000    0.000000000000000    0.500000000000000 
K           0.500000000000000    0.500000000000000    0.000000000000000 
K           0.557749000000000    0.312073000000000    0.633037000000000 
K           0.557749000000000    0.687927000000000    0.366963000000000 
K           0.942251000000000    0.187927000000000    0.633037000000000 
K           0.942251000000000    0.812073000000000    0.366963000000000 
%ENDBLOCK POSITIONS_FRAC
