# Cell file generated by matador (Matthew Evans 2016)

%BLOCK LATTICE_CART
5.79696 0.0 0.0
0.0 5.15171 0.0
0.0 0.0 5.23371
%ENDBLOCK LATTICE_CART

%BLOCK POSITIONS_FRAC
P           0.218193000000000    0.000000000000000    0.294341000000000 
P           0.781807000000000    0.000000000000000    0.294341000000000 
K           0.000000000000000    0.500000000000000    0.115350000000000 
K           0.500000000000000    0.000000000000000    0.908146000000000 
K           0.500000000000000    0.500000000000000    0.283483000000000 
%ENDBLOCK POSITIONS_FRAC
