# Cell file generated by matador (Matthew Evans 2016)

%BLOCK LATTICE_CART
7.47786 0.0 0.0
0.0 5.31492 0.0
0.0 0.0 10.1452
%ENDBLOCK LATTICE_CART

%BLOCK POSITIONS_FRAC
P           0.059440000000000    0.549503000000000    0.190463000000000 
P           0.059440000000000    0.950497000000000    0.690463000000000 
P           0.170089000000000    0.600242000000000    0.380650000000000 
P           0.170089000000000    0.899758000000000    0.880650000000000 
P           0.329911000000000    0.100242000000000    0.380650000000000 
P           0.329911000000000    0.399758000000000    0.880650000000000 
P           0.440560000000000    0.049503000000000    0.190463000000000 
P           0.440560000000000    0.450497000000000    0.690463000000000 
P           0.559440000000000    0.549503000000000    0.309537000000000 
P           0.559440000000000    0.950497000000000    0.809537000000000 
P           0.670089000000000    0.600242000000000    0.119350000000000 
P           0.670089000000000    0.899758000000000    0.619350000000000 
P           0.829911000000000    0.100242000000000    0.119350000000000 
P           0.829911000000000    0.399758000000000    0.619350000000000 
P           0.940560000000000    0.049503000000000    0.309537000000000 
P           0.940560000000000    0.450497000000000    0.809537000000000 
K           0.000000000000000    0.000000000000000    0.500000000000000 
K           0.000000000000000    0.500000000000000    0.000000000000000 
K           0.500000000000000    0.000000000000000    0.000000000000000 
K           0.500000000000000    0.500000000000000    0.500000000000000 
%ENDBLOCK POSITIONS_FRAC
