# Cell file generated by matador (Matthew Evans 2016)

%BLOCK LATTICE_CART
5.18532 -0.0 0.0
-2.59266 4.49062 0.0
0.0 0.0 6.94204
%ENDBLOCK LATTICE_CART

%BLOCK POSITIONS_FRAC
P           0.145160000000000    0.395185000000000    0.946771000000000 
P           0.250025000000000    0.854840000000000    0.946771000000000 
P           0.348931000000000    0.008957000000000    0.292451000000000 
P           0.604815000000000    0.749975000000000    0.946771000000000 
P           0.660025000000000    0.651069000000000    0.292451000000000 
P           0.666667000000000    0.333333000000000    0.053248000000000 
P           0.991043000000000    0.339975000000000    0.292451000000000 
K           0.000000000000000    0.000000000000000    0.544534000000000 
%ENDBLOCK POSITIONS_FRAC
