# Cell file generated by matador (Matthew Evans 2016)

%BLOCK LATTICE_CART
7.54605 0.0 0.0
-3.77303 6.53507 0.0
0.0 0.0 10.0085
%ENDBLOCK LATTICE_CART

%BLOCK POSITIONS_FRAC
P           0.333333000000000    0.666667000000000    0.044639000000000 
P           0.333333000000000    0.666667000000000    0.474579000000000 
P           0.333333000000000    0.666667000000000    0.858557000000000 
P           0.666666000000000    0.333334000000000    0.141443000000000 
P           0.666666000000000    0.333334000000000    0.525421000000000 
P           0.666666000000000    0.333334000000000    0.955361000000000 
K          -0.000000000000000    0.000000000000000    0.000000000000000 
K           0.063459000000000    0.863616000000000    0.151605000000000 
K           0.136384000000000    0.199843000000000    0.151605000000000 
K           0.199843000000000    0.136384000000000    0.848395000000000 
K           0.800157000000000    0.936541000000000    0.151605000000000 
K           0.863616000000000    0.063459000000000    0.848395000000000 
K           0.936541000000000    0.800157000000000    0.848395000000000 
%ENDBLOCK POSITIONS_FRAC
