# Cell file generated by matador (Matthew Evans 2016)

%BLOCK LATTICE_CART
7.67989 0.0 0.0
-3.83995 6.65098 0.0
0.0 0.0 8.89568
%ENDBLOCK LATTICE_CART

%BLOCK POSITIONS_FRAC
P           0.000000000000000    0.000000000000000    0.603073000000000 
P           0.333333000000000    0.666667000000000    0.269739000000000 
P           0.666667000000000    0.333333000000000    0.936406000000000 
K           0.170571000000000    0.341143000000000    0.128435000000000 
K           0.170571000000000    0.829429000000000    0.128435000000000 
K           0.325524000000000    0.162762000000000    0.461768000000000 
K           0.503905000000000    0.007810000000000    0.795101000000000 
K           0.503905000000000    0.496095000000000    0.795101000000000 
K           0.658857000000000    0.829429000000000    0.128435000000000 
K           0.837238000000000    0.162762000000000    0.461768000000000 
K           0.837238000000000    0.674476000000000    0.461768000000000 
K           0.992190000000000    0.496095000000000    0.795101000000000 
%ENDBLOCK POSITIONS_FRAC
