# Cell file generated by matador (Matthew Evans 2016)

%BLOCK LATTICE_CART
8.67586 0.0 0.0
-4.33793 7.51352 0.0
0.0 0.0 9.48688
%ENDBLOCK LATTICE_CART

%BLOCK POSITIONS_FRAC
P           0.333333000000000    0.666667000000000    0.000000000000000 
P           0.333333000000000    0.666667000000000    0.500000000000000 
P           0.666666000000000    0.333334000000000    0.000000000000000 
P           0.666666000000000    0.333334000000000    0.500000000000000 
K          -0.000000000000000    0.000000000000000    0.000000000000000 
K          -0.000000000000000    0.452363000000000    0.819854000000000 
K          -0.000000000000000    0.500000000000000    0.500000000000000 
K          -0.000000000000000    0.547637000000000    0.180146000000000 
K           0.333333000000000    0.666667000000000    0.229287000000000 
K           0.333333000000000    0.666667000000000    0.770713000000000 
K           0.452363000000000    0.000000000000000    0.819854000000000 
K           0.452363000000000    0.452363000000000    0.180146000000000 
K           0.500000000000000    0.000000000000000    0.500000000000000 
K           0.500000000000000    0.500000000000000    0.500000000000000 
K           0.547637000000000    0.000000000000000    0.180146000000000 
K           0.547637000000000    0.547637000000000    0.819854000000000 
K           0.666666000000000    0.333334000000000    0.229287000000000 
K           0.666666000000000    0.333334000000000    0.770713000000000 
%ENDBLOCK POSITIONS_FRAC
