# Cell file generated by matador (Matthew Evans 2016)

%BLOCK LATTICE_CART
6.18245 0.0 0.0
-3.09123 5.35416 0.0
0.0 0.0 5.39721
%ENDBLOCK LATTICE_CART

%BLOCK POSITIONS_FRAC
P          -0.000000000000000    0.000000000000000    0.000000000000000 
P          -0.000000000000000    0.500000000000000    0.500000000000000 
P           0.500000000000000    0.000000000000000    0.500000000000000 
P           0.500000000000000    0.500000000000000    0.500000000000000 
K           0.333333000000000    0.666667000000000    0.106621000000000 
K           0.666666000000000    0.333334000000000    0.893379000000000 
%ENDBLOCK POSITIONS_FRAC
