# Cell file generated by matador (Matthew Evans 2016)

%BLOCK LATTICE_CART
7.36204 0.0 0.0
0.0 8.37774 0.0
0.0 0.0 8.04466
%ENDBLOCK LATTICE_CART

%BLOCK POSITIONS_FRAC
P           0.484854000000000    0.350477000000000    0.906757000000000 
P           0.484854000000000    0.649523000000000    0.406757000000000 
P           0.500000000000000    0.000000000000000    0.323135000000000 
P           0.500000000000000    0.000000000000000    0.823135000000000 
P           0.515146000000000    0.350477000000000    0.406757000000000 
P           0.515146000000000    0.649523000000000    0.906757000000000 
K           0.000000000000000    0.000000000000000    0.158876000000000 
K           0.000000000000000    0.000000000000000    0.658876000000000 
K           0.494693000000000    0.166396000000000    0.619712000000000 
K           0.494693000000000    0.833604000000000    0.119712000000000 
K           0.500000000000000    0.500000000000000    0.127197000000000 
K           0.500000000000000    0.500000000000000    0.627197000000000 
K           0.505307000000000    0.166396000000000    0.119712000000000 
K           0.505307000000000    0.833604000000000    0.619712000000000 
%ENDBLOCK POSITIONS_FRAC
