# Cell file generated by matador (Matthew Evans 2016)

%BLOCK LATTICE_CART
9.00102 0.0 0.0
-4.50051 7.79511 0.0
0.0 0.0 7.42492
%ENDBLOCK LATTICE_CART

%BLOCK POSITIONS_FRAC
P           0.000000000000000    0.000000000000000    0.369130000000000 
P           0.000000000000000    0.196250000000000    0.566003000000000 
P           0.196250000000000    0.000000000000000    0.566003000000000 
P           0.333333000000000    0.666667000000000    0.504697000000000 
P           0.333333000000000    0.666667000000000    0.863517000000000 
P           0.666667000000000    0.333333000000000    0.504697000000000 
P           0.666667000000000    0.333333000000000    0.863517000000000 
P           0.803750000000000    0.803750000000000    0.566003000000000 
K           0.000000000000000    0.000000000000000    0.706816000000000 
K           0.000000000000000    0.288226000000000    0.954423000000000 
K           0.000000000000000    0.644347000000000    0.467789000000000 
K           0.000000000000000    0.810627000000000    0.973182000000000 
K           0.189373000000000    0.189373000000000    0.973182000000000 
K           0.288226000000000    0.000000000000000    0.954423000000000 
K           0.355653000000000    0.355653000000000    0.467789000000000 
K           0.644347000000000    0.000000000000000    0.467789000000000 
K           0.711774000000000    0.711774000000000    0.954423000000000 
K           0.810627000000000    0.000000000000000    0.973182000000000 
%ENDBLOCK POSITIONS_FRAC
