# Cell file generated by matador (Matthew Evans 2016)

%BLOCK LATTICE_CART
7.93608 0.0 0.0
-3.96804 6.87285 0.0
0.0 0.0 7.9804
%ENDBLOCK LATTICE_CART

%BLOCK POSITIONS_FRAC
P           0.186090000000000    0.084577000000000    0.699493000000000 
P           0.186090000000000    0.101513000000000    0.300507000000000 
P           0.898487000000000    0.084577000000000    0.300507000000000 
P           0.898487000000000    0.813910000000000    0.699493000000000 
P           0.915423000000000    0.101513000000000    0.699493000000000 
P           0.915423000000000    0.813910000000000    0.300507000000000 
K           0.000000000000000    0.000000000000000    0.000000000000000 
K           0.000000000000000    0.000000000000000    0.500000000000000 
K           0.042334000000000    0.521167000000000    0.500000000000000 
K           0.333333000000000    0.666667000000000    0.000000000000000 
K           0.333333000000000    0.666667000000000    0.500000000000000 
K           0.478833000000000    0.521167000000000    0.500000000000000 
K           0.478833000000000    0.957666000000000    0.500000000000000 
K           0.666667000000000    0.333333000000000    0.000000000000000 
K           0.666667000000000    0.333333000000000    0.500000000000000 
%ENDBLOCK POSITIONS_FRAC
