# Cell file generated by matador (Matthew Evans 2016)

%BLOCK LATTICE_CART
7.60517 0.0 0.0
-3.80258 6.58627 0.0
0.0 0.0 9.93252
%ENDBLOCK LATTICE_CART

%BLOCK POSITIONS_FRAC
P           0.000000000000000    0.000000000000000    0.727217000000000 
P           0.666667000000000    0.333333000000000    0.836447000000000 
K           0.000000000000000    0.000000000000000    0.303476000000000 
K           0.035085000000000    0.867488000000000    0.970229000000000 
K           0.132512000000000    0.167596000000000    0.970229000000000 
K           0.320670000000000    0.201340000000000    0.484835000000000 
K           0.333333000000000    0.666667000000000    0.403524000000000 
K           0.333333000000000    0.666667000000000    0.617649000000000 
K           0.666667000000000    0.333333000000000    0.232646000000000 
K           0.798660000000000    0.119330000000000    0.484835000000000 
K           0.832404000000000    0.964915000000000    0.970229000000000 
K           0.880670000000000    0.679330000000000    0.484835000000000 
%ENDBLOCK POSITIONS_FRAC
