# Cell file generated by matador (Matthew Evans 2016)

%BLOCK LATTICE_CART
10.5277 0.0 0.0
-5.26383 9.11721 0.0
0.0 0.0 5.30598
%ENDBLOCK LATTICE_CART

%BLOCK POSITIONS_FRAC
P           0.000000000000000    0.500000000000000    0.833333000000000 
P           0.500000000000000    0.000000000000000    0.500000000000000 
P           0.500000000000000    0.500000000000000    0.166667000000000 
K           0.000000000000000    0.500000000000000    0.333333000000000 
K           0.154318000000000    0.308636000000000    0.500000000000000 
K           0.154318000000000    0.845682000000000    0.166667000000000 
K           0.308636000000000    0.154318000000000    0.833333000000000 
K           0.500000000000000    0.000000000000000    0.000000000000000 
K           0.500000000000000    0.500000000000000    0.666667000000000 
K           0.691364000000000    0.845682000000000    0.833333000000000 
K           0.845682000000000    0.154318000000000    0.166667000000000 
K           0.845682000000000    0.691364000000000    0.500000000000000 
%ENDBLOCK POSITIONS_FRAC
