# Cell file generated by matador (Matthew Evans 2016)

%BLOCK LATTICE_CART
9.33402 0.0 0.0
0.0 5.91849 0.0
0.0 0.0 11.689
%ENDBLOCK LATTICE_CART

%BLOCK POSITIONS_FRAC
P           0.063885000000000    0.000000000000000    0.824660000000000 
P           0.436115000000000    0.000000000000000    0.824660000000000 
P           0.563885000000000    0.000000000000000    0.175340000000000 
P           0.936115000000000    0.000000000000000    0.175340000000000 
K           0.000000000000000    0.000000000000000    0.000000000000000 
K           0.000000000000000    0.000000000000000    0.500000000000000 
K           0.250000000000000    0.251659000000000    0.900835000000000 
K           0.250000000000000    0.253457000000000    0.403367000000000 
K           0.250000000000000    0.746543000000000    0.403367000000000 
K           0.250000000000000    0.748341000000000    0.900835000000000 
K           0.500000000000000    0.000000000000000    0.000000000000000 
K           0.500000000000000    0.000000000000000    0.500000000000000 
K           0.750000000000000    0.251659000000000    0.099165000000000 
K           0.750000000000000    0.253457000000000    0.596633000000000 
K           0.750000000000000    0.746543000000000    0.596633000000000 
K           0.750000000000000    0.748341000000000    0.099165000000000 
%ENDBLOCK POSITIONS_FRAC
