# Cell file generated by matador (Matthew Evans 2016)

%BLOCK LATTICE_CART
7.75229 0.0 0.0
-3.87614 6.71368 0.0
0.0 0.0 7.14877
%ENDBLOCK LATTICE_CART

%BLOCK POSITIONS_FRAC
P           0.000000000000000    0.000000000000000    0.000000000000000 
P           0.000000000000000    0.000000000000000    0.220231000000000 
P           0.000000000000000    0.000000000000000    0.779769000000000 
P           0.333333000000000    0.666667000000000    0.179150000000000 
P           0.666667000000000    0.333333000000000    0.820850000000000 
K           0.000000000000000    0.000000000000000    0.500000000000000 
K           0.000000000000000    0.500000000000000    0.500000000000000 
K           0.333333000000000    0.666667000000000    0.886187000000000 
K           0.500000000000000    0.000000000000000    0.500000000000000 
K           0.500000000000000    0.500000000000000    0.500000000000000 
K           0.666667000000000    0.333333000000000    0.113813000000000 
%ENDBLOCK POSITIONS_FRAC
