# Cell file generated by matador (Matthew Evans 2016)

%BLOCK LATTICE_CART
4.71212 0.0 0.0
0.0 7.98423 0.0
3.02774 0.0 5.68334
%ENDBLOCK LATTICE_CART

%BLOCK POSITIONS_FRAC
P           0.372833000000000    0.332100000000000    0.629464000000000 
P           0.627167000000000    0.332100000000000    0.370536000000000 
K           0.000000000000000    0.234713000000000    0.500000000000000 
K           0.214128000000000    0.626232000000000    0.497770000000000 
K           0.500000000000000    0.030133000000000    0.500000000000000 
K           0.785872000000000    0.626232000000000    0.502230000000000 
%ENDBLOCK POSITIONS_FRAC
