# Cell file generated by matador (Matthew Evans 2016)

%BLOCK LATTICE_CART
6.24574 0.0 0.0
-3.12287 5.40897 0.0
0.0 0.0 5.45568
%ENDBLOCK LATTICE_CART

%BLOCK POSITIONS_FRAC
P           0.333333000000000    0.666667000000000    0.355889000000000 
P           0.666666000000000    0.333334000000000    0.941310000000000 
K           0.190917000000000    0.381834000000000    0.707833000000000 
K           0.190917000000000    0.809083000000000    0.707833000000000 
K           0.618166000000000    0.809083000000000    0.707833000000000 
%ENDBLOCK POSITIONS_FRAC
