# Cell file generated by matador (Matthew Evans 2016)

%BLOCK LATTICE_CART
5.2313 0.0 0.0
0.0 5.2313 0.0
0.0 0.0 9.14901
%ENDBLOCK LATTICE_CART

%BLOCK POSITIONS_FRAC
P           0.229664000000000    0.229664000000000    0.250000000000000 
P           0.229664000000000    0.229664000000000    0.750000000000000 
P           0.229664000000000    0.770336000000000    0.250000000000000 
P           0.229664000000000    0.770336000000000    0.750000000000000 
P           0.770336000000000    0.229664000000000    0.250000000000000 
P           0.770336000000000    0.229664000000000    0.750000000000000 
P           0.770336000000000    0.770336000000000    0.250000000000000 
P           0.770336000000000    0.770336000000000    0.750000000000000 
K           0.500000000000000    0.500000000000000    0.250000000000000 
K           0.500000000000000    0.500000000000000    0.750000000000000 
%ENDBLOCK POSITIONS_FRAC
