# Cell file generated by matador (Matthew Evans 2016)

%BLOCK LATTICE_CART
7.77949 0.0 0.0
0.0 7.00257 0.0
0.0 0.0 5.71633
%ENDBLOCK LATTICE_CART

%BLOCK POSITIONS_FRAC
P           0.272743000000000   -0.000000000000000   -0.000000000000000 
P           0.500000000000000   -0.000000000000000    0.104210000000000 
P           0.500000000000000   -0.000000000000000    0.895790000000000 
P           0.500000000000000    0.500000000000000    0.500000000000000 
P           0.727257000000000   -0.000000000000000   -0.000000000000000 
K           0.262346000000000    0.306646000000000    0.376549000000000 
K           0.262346000000000    0.693354000000000    0.623451000000000 
K           0.737654000000000    0.306646000000000    0.623451000000000 
K           0.737654000000000    0.693354000000000    0.376549000000000 
%ENDBLOCK POSITIONS_FRAC
