# Cell file generated by matador (Matthew Evans 2016)

%BLOCK LATTICE_CART
7.39938 0.0 0.0
-3.69969 6.40805 0.0
0.0 0.0 8.64545
%ENDBLOCK LATTICE_CART

%BLOCK POSITIONS_FRAC
P           0.333333000000000    0.666667000000000    0.837440000000000 
P           0.666666000000000    0.333334000000000    0.337440000000000 
K          -0.000000000000000    0.000000000000000    0.374659000000000 
K          -0.000000000000000    0.000000000000000    0.874659000000000 
K           0.121604000000000    0.804701000000000    0.112991000000000 
K           0.195299000000000    0.316904000000000    0.112991000000000 
K           0.316903000000000    0.195300000000000    0.612991000000000 
K           0.333333000000000    0.666667000000000    0.318931000000000 
K           0.666666000000000    0.333334000000000    0.818931000000000 
K           0.683096000000000    0.878396000000000    0.112991000000000 
K           0.804700000000000    0.121605000000000    0.612991000000000 
K           0.878395000000000    0.683097000000000    0.612991000000000 
%ENDBLOCK POSITIONS_FRAC
