# Cell file generated by matador (Matthew Evans 2016)

%BLOCK LATTICE_CART
7.34118 0.0 0.0
0.0 7.34118 0.0
0.0 0.0 7.34118
%ENDBLOCK LATTICE_CART

%BLOCK POSITIONS_FRAC
P           0.000000000000000    0.000000000000000    0.000000000000000 
P           0.000000000000000    0.500000000000000    0.371740000000000 
P           0.000000000000000    0.500000000000000    0.628260000000000 
P           0.371740000000000    0.000000000000000    0.500000000000000 
P           0.500000000000000    0.371740000000000    0.000000000000000 
P           0.500000000000000    0.628260000000000    0.000000000000000 
P           0.628260000000000    0.000000000000000    0.500000000000000 
K           0.000000000000000    0.000000000000000    0.500000000000000 
K           0.000000000000000    0.500000000000000    0.000000000000000 
K           0.500000000000000    0.000000000000000    0.000000000000000 
K           0.500000000000000    0.500000000000000    0.500000000000000 
%ENDBLOCK POSITIONS_FRAC
