# Cell file generated by matador (Matthew Evans 2016)

%BLOCK LATTICE_CART
3.8533 0.0 0.0
0.0 8.70382 0.0
-2.56294 0.0 8.58749
%ENDBLOCK LATTICE_CART

%BLOCK POSITIONS_FRAC
P           0.000000000000000    0.500000000000000    0.000000000000000 
P           0.341638000000000    0.500000000000000    0.693906000000000 
P           0.658362000000000    0.500000000000000    0.306094000000000 
K           0.446470000000000    0.271420000000000    0.134108000000000 
K           0.446470000000000    0.728580000000000    0.134108000000000 
K           0.500000000000000    0.000000000000000    0.500000000000000 
K           0.553530000000000    0.271420000000000    0.865892000000000 
K           0.553530000000000    0.728580000000000    0.865892000000000 
%ENDBLOCK POSITIONS_FRAC
