# Cell file generated by matador (Matthew Evans 2016)

%BLOCK LATTICE_CART
8.94069 0.0 0.0
0.0 8.94069 0.0
0.0 0.0 14.1112
%ENDBLOCK LATTICE_CART

%BLOCK POSITIONS_FRAC
P          -0.000000000000000    0.500000000000000    0.105313000000000 
P          -0.000000000000000    0.500000000000000    0.394687000000000 
P          -0.000000000000000    0.500000000000000    0.605313000000000 
P          -0.000000000000000    0.500000000000000    0.894687000000000 
P           0.500000000000000   -0.000000000000000    0.105313000000000 
P           0.500000000000000   -0.000000000000000    0.394687000000000 
P           0.500000000000000   -0.000000000000000    0.605313000000000 
P           0.500000000000000   -0.000000000000000    0.894687000000000 
K          -0.000000000000000   -0.000000000000000    0.000000000000000 
K          -0.000000000000000   -0.000000000000000    0.500000000000000 
K          -0.000000000000000    0.500000000000000    0.250000000000000 
K          -0.000000000000000    0.500000000000000    0.750000000000000 
K           0.187367000000000    0.812633000000000    0.127574000000000 
K           0.187367000000000    0.812633000000000    0.872426000000000 
K           0.199254000000000    0.800746000000000    0.384843000000000 
K           0.199254000000000    0.800746000000000    0.615157000000000 
K           0.300746000000000    0.300746000000000    0.115157000000000 
K           0.300746000000000    0.300746000000000    0.884843000000000 
K           0.312633000000000    0.312633000000000    0.372426000000000 
K           0.312633000000000    0.312633000000000    0.627574000000000 
K           0.500000000000000   -0.000000000000000    0.250000000000000 
K           0.500000000000000   -0.000000000000000    0.750000000000000 
K           0.500000000000000    0.500000000000000    0.000000000000000 
K           0.500000000000000    0.500000000000000    0.500000000000000 
K           0.687367000000000    0.687367000000000    0.372426000000000 
K           0.687367000000000    0.687367000000000    0.627574000000000 
K           0.699254000000000    0.699254000000000    0.115157000000000 
K           0.699254000000000    0.699254000000000    0.884843000000000 
K           0.800746000000000    0.199254000000000    0.384843000000000 
K           0.800746000000000    0.199254000000000    0.615157000000000 
K           0.812633000000000    0.187367000000000    0.127574000000000 
K           0.812633000000000    0.187367000000000    0.872426000000000 
%ENDBLOCK POSITIONS_FRAC
