# Cell file generated by matador (Matthew Evans 2016)

%BLOCK LATTICE_CART
8.05147 0.0 0.0
-4.02574 6.97278 0.0
0.0 0.0 8.38196
%ENDBLOCK LATTICE_CART

%BLOCK POSITIONS_FRAC
P           0.000000000000000    0.000000000000000    0.926030000000000 
P           0.517312000000000    0.258656000000000    0.685938000000000 
P           0.741344000000000    0.258656000000000    0.685938000000000 
P           0.741344000000000    0.482688000000000    0.685938000000000 
K           0.096869000000000    0.193738000000000    0.482175000000000 
K           0.096869000000000    0.903131000000000    0.482175000000000 
K           0.202202000000000    0.101101000000000    0.147794000000000 
K           0.554614000000000    0.109227000000000    0.319727000000000 
K           0.554614000000000    0.445386000000000    0.319727000000000 
K           0.666667000000000    0.333333000000000    0.935484000000000 
K           0.806262000000000    0.903131000000000    0.482175000000000 
K           0.890773000000000    0.445386000000000    0.319727000000000 
K           0.898899000000000    0.101101000000000    0.147794000000000 
K           0.898899000000000    0.797798000000000    0.147794000000000 
%ENDBLOCK POSITIONS_FRAC
