# Cell file generated by matador (Matthew Evans 2016)

%BLOCK LATTICE_CART
6.05908 0.0 0.0
0.0 6.05908 0.0
0.0 0.0 18.2642
%ENDBLOCK LATTICE_CART

%BLOCK POSITIONS_FRAC
P           0.000000000000000    0.000000000000000    0.000000000000000 
P           0.000000000000000    0.500000000000000    0.250000000000000 
P           0.500000000000000    0.000000000000000    0.750000000000000 
P           0.500000000000000    0.500000000000000    0.500000000000000 
K           0.000000000000000    0.000000000000000    0.133956000000000 
K           0.000000000000000    0.000000000000000    0.500000000000000 
K           0.000000000000000    0.000000000000000    0.866044000000000 
K           0.000000000000000    0.500000000000000    0.116044000000000 
K           0.000000000000000    0.500000000000000    0.383956000000000 
K           0.000000000000000    0.500000000000000    0.750000000000000 
K           0.500000000000000    0.000000000000000    0.250000000000000 
K           0.500000000000000    0.000000000000000    0.616044000000000 
K           0.500000000000000    0.000000000000000    0.883956000000000 
K           0.500000000000000    0.500000000000000    0.000000000000000 
K           0.500000000000000    0.500000000000000    0.366044000000000 
K           0.500000000000000    0.500000000000000    0.633956000000000 
%ENDBLOCK POSITIONS_FRAC
