# Cell file generated by matador (Matthew Evans 2016)

%BLOCK LATTICE_CART
8.00466 0.0 0.0
-4.00233 6.93224 0.0
0.0 0.0 8.42023
%ENDBLOCK LATTICE_CART

%BLOCK POSITIONS_FRAC
P          -0.000000000000000   -0.000000000000000    0.421956000000000 
P           0.146925000000000    0.073462000000000    0.654029000000000 
P           0.259871000000000    0.519742000000000    0.320696000000000 
P           0.259871000000000    0.740129000000000    0.320696000000000 
P           0.333333000000000    0.666667000000000    0.088623000000000 
P           0.480258000000000    0.740129000000000    0.320696000000000 
P           0.593204000000000    0.186408000000000    0.987363000000000 
P           0.593204000000000    0.406796000000000    0.987363000000000 
P           0.666667000000000    0.333333000000000    0.755289000000000 
P           0.813592000000000    0.406796000000000    0.987363000000000 
P           0.926538000000000    0.073462000000000    0.654029000000000 
P           0.926538000000000    0.853075000000000    0.654029000000000 
K          -0.000000000000000   -0.000000000000000    0.080562000000000 
K           0.333333000000000    0.666667000000000    0.747229000000000 
K           0.666667000000000    0.333333000000000    0.413895000000000 
%ENDBLOCK POSITIONS_FRAC
