# Cell file generated by matador (Matthew Evans 2016)

%BLOCK LATTICE_CART
6.97594 0.0 0.0
-3.48797 6.04135 0.0
0.0 0.0 8.92142
%ENDBLOCK LATTICE_CART

%BLOCK POSITIONS_FRAC
P           0.028925000000000    0.130793000000000    0.522523000000000 
P           0.028925000000000    0.898132000000000    0.022523000000000 
P           0.101868000000000    0.130793000000000    0.022523000000000 
P           0.101868000000000    0.971075000000000    0.522523000000000 
P           0.136141000000000    0.366727000000000    0.780963000000000 
P           0.136141000000000    0.769413000000000    0.280963000000000 
P           0.230587000000000    0.366727000000000    0.280963000000000 
P           0.230587000000000    0.863859000000000    0.780963000000000 
P           0.633273000000000    0.769413000000000    0.780963000000000 
P           0.633273000000000    0.863859000000000    0.280963000000000 
P           0.869207000000000    0.898132000000000    0.522523000000000 
P           0.869207000000000    0.971075000000000    0.022523000000000 
K           0.666667000000000    0.333333000000000    0.281299000000000 
K           0.666667000000000    0.333333000000000    0.781299000000000 
%ENDBLOCK POSITIONS_FRAC
