# Cell file generated by matador (Matthew Evans 2016)

%BLOCK LATTICE_CART
7.59545 0.0 0.0
-3.79773 6.57785 0.0
0.0 0.0 9.39467
%ENDBLOCK LATTICE_CART

%BLOCK POSITIONS_FRAC
P           0.222447000000000    0.444892000000000    0.503068000000000 
P           0.222447000000000    0.777555000000000    0.503068000000000 
P           0.333334000000000    0.666668000000000    0.065502000000000 
P           0.444892000000000    0.222447000000000    0.003068000000000 
P           0.555110000000000    0.777555000000000    0.503068000000000 
P           0.666668000000000    0.333334000000000    0.565502000000000 
P           0.777555000000000    0.222447000000000    0.003068000000000 
P           0.777555000000000    0.555110000000000    0.003068000000000 
K           0.000001000000000    0.000001000000000    0.403426000000000 
K           0.000001000000000    0.000001000000000    0.903426000000000 
K           0.040981000000000    0.520491000000000    0.622196000000000 
K           0.333334000000000    0.666668000000000    0.303942000000000 
K           0.479511000000000    0.520491000000000    0.622196000000000 
K           0.479511000000000    0.959021000000000    0.622196000000000 
K           0.520491000000000    0.040981000000000    0.122196000000000 
K           0.520491000000000    0.479511000000000    0.122196000000000 
K           0.666668000000000    0.333334000000000    0.803942000000000 
K           0.959021000000000    0.479511000000000    0.122196000000000 
%ENDBLOCK POSITIONS_FRAC
