# Cell file generated by matador (Matthew Evans 2016)

%BLOCK LATTICE_CART
8.79028 0.0 0.0
-4.39514 7.6126 0.0
0.0 0.0 5.70604
%ENDBLOCK LATTICE_CART

%BLOCK POSITIONS_FRAC
P           0.333333000000000    0.666667000000000    0.108242000000000 
P           0.333333000000000    0.666667000000000    0.500000000000000 
P           0.333333000000000    0.666667000000000    0.891758000000000 
P           0.666666000000000    0.333334000000000    0.108242000000000 
P           0.666666000000000    0.333334000000000    0.500000000000000 
P           0.666666000000000    0.333334000000000    0.891758000000000 
K          -0.000000000000000    0.000000000000000    0.000000000000000 
K          -0.000000000000000    0.000000000000000    0.500000000000000 
K          -0.000000000000000    0.354999000000000    0.398421000000000 
K          -0.000000000000000    0.645001000000000    0.601579000000000 
K           0.354999000000000    0.000000000000000    0.398421000000000 
K           0.354999000000000    0.354999000000000    0.601579000000000 
K           0.645001000000000    0.000000000000000    0.601579000000000 
K           0.645001000000000    0.645001000000000    0.398421000000000 
%ENDBLOCK POSITIONS_FRAC
