# Cell file generated by matador (Matthew Evans 2016)

%BLOCK LATTICE_CART
5.01256 0.0 0.0
-2.50628 4.341 0.0
0.0 0.0 10.418
%ENDBLOCK LATTICE_CART

%BLOCK POSITIONS_FRAC
P           0.000001000000000    0.000000000000000    0.000000000000000 
P           0.000001000000000    0.000000000000000    0.500000000000000 
P           0.333334000000000    0.666667000000000    0.000000000000000 
P           0.333334000000000    0.666667000000000    0.500000000000000 
P           0.666667000000000    0.333334000000000    0.000000000000000 
P           0.666667000000000    0.333334000000000    0.500000000000000 
K           0.000001000000000    0.000000000000000    0.250000000000000 
K           0.000001000000000    0.000000000000000    0.750000000000000 
K           0.666667000000000    0.333334000000000    0.250000000000000 
K           0.666667000000000    0.333334000000000    0.750000000000000 
%ENDBLOCK POSITIONS_FRAC
