# Cell file generated by matador (Matthew Evans 2016)

%BLOCK LATTICE_CART
8.07116 0.0 0.0
0.0826208 5.57078 0.0
-1.88511 0.784734 4.9338
%ENDBLOCK LATTICE_CART

%BLOCK POSITIONS_FRAC
P           0.000000000000000    0.000000000000000    0.500000000000000 
P           0.301328000000000    0.788232000000000    0.148720000000000 
P           0.500000000000000    0.000000000000000    0.000000000000000 
P           0.500000000000000    0.500000000000000    0.500000000000000 
P           0.698672000000000    0.211768000000000    0.851280000000000 
K           0.258192000000000    0.528562000000000    0.640517000000000 
K           0.500000000000000    0.000000000000000    0.500000000000000 
K           0.741808000000000    0.471438000000000    0.359483000000000 
%ENDBLOCK POSITIONS_FRAC
