# Cell file generated by matador (Matthew Evans 2016)

%BLOCK LATTICE_CART
9.02536 0.0 0.0
0.0 9.02536 0.0
0.0 0.0 4.46376
%ENDBLOCK LATTICE_CART

%BLOCK POSITIONS_FRAC
P           0.000000000000000    0.000000000000000    0.275973000000000 
P           0.000000000000000    0.000000000000000    0.500000000000000 
P           0.000000000000000    0.000000000000000    0.724027000000000 
P           0.500000000000000    0.500000000000000    0.000000000000000 
P           0.500000000000000    0.500000000000000    0.224027000000000 
P           0.500000000000000    0.500000000000000    0.775973000000000 
K           0.000000000000000    0.222076000000000    0.751045000000000 
K           0.000000000000000    0.777924000000000    0.751045000000000 
K           0.222076000000000    0.000000000000000    0.248955000000000 
K           0.277924000000000    0.500000000000000    0.251045000000000 
K           0.500000000000000    0.277924000000000    0.748955000000000 
K           0.500000000000000    0.722076000000000    0.748955000000000 
K           0.722076000000000    0.500000000000000    0.251045000000000 
K           0.777924000000000    0.000000000000000    0.248955000000000 
%ENDBLOCK POSITIONS_FRAC
