# Cell file generated by matador (Matthew Evans 2016)

%BLOCK LATTICE_CART
5.4678 0.0 0.0
0.0 5.4678 0.0
0.0 0.0 9.60316
%ENDBLOCK LATTICE_CART

%BLOCK POSITIONS_FRAC
P           0.000000000000000    0.000000000000000    0.250000000000000 
P           0.000000000000000    0.000000000000000    0.750000000000000 
P           0.000000000000000    0.343124000000000    0.500000000000000 
P           0.000000000000000    0.656876000000000    0.500000000000000 
P           0.343124000000000    0.000000000000000    0.000000000000000 
P           0.656876000000000    0.000000000000000    0.000000000000000 
K           0.500000000000000    0.500000000000000    0.000000000000000 
K           0.500000000000000    0.500000000000000    0.250000000000000 
K           0.500000000000000    0.500000000000000    0.500000000000000 
K           0.500000000000000    0.500000000000000    0.750000000000000 
%ENDBLOCK POSITIONS_FRAC
