# Cell file generated by matador (Matthew Evans 2016)

%BLOCK LATTICE_CART
3.69338 0.0 0.0
0.0 12.3862 0.0
0.0 0.0 7.55046
%ENDBLOCK LATTICE_CART

%BLOCK POSITIONS_FRAC
P           0.500000000000000    0.000000000000000    0.215078000000000 
P           0.500000000000000    0.500000000000000    0.715078000000000 
K           0.000000000000000    0.000000000000000    0.054447000000000 
K           0.000000000000000    0.136630000000000    0.710749000000000 
K           0.000000000000000    0.363370000000000    0.210749000000000 
K           0.000000000000000    0.500000000000000    0.554447000000000 
K           0.000000000000000    0.636630000000000    0.210749000000000 
K           0.000000000000000    0.863370000000000    0.710749000000000 
%ENDBLOCK POSITIONS_FRAC
