# Cell file generated by matador (Matthew Evans 2016)

%BLOCK LATTICE_CART
8.06405 0.0 0.0
0.0 5.82336 0.0
1.76641 0.0 4.45835
%ENDBLOCK LATTICE_CART

%BLOCK POSITIONS_FRAC
P           0.225394000000000    0.000000000000000    0.037552000000000 
K           0.096299000000000    0.500000000000000    0.057042000000000 
K           0.311091000000000    0.500000000000000    0.185278000000000 
K           0.498463000000000    0.500000000000000    0.411769000000000 
K           0.834037000000000    0.500000000000000    0.435497000000000 
%ENDBLOCK POSITIONS_FRAC
