# Cell file generated by matador (Matthew Evans 2016)

%BLOCK LATTICE_CART
7.74004 0.0 0.0
-3.87002 6.70307 0.0
0.0 0.0 8.34383
%ENDBLOCK LATTICE_CART

%BLOCK POSITIONS_FRAC
P          -0.000000000000000    0.000000000000000    0.560178000000000 
P           0.012481000000000    0.171730000000000    0.100203000000000 
P           0.019352000000000    0.184355000000000    0.785301000000000 
P           0.159249000000000    0.987519000000000    0.100203000000000 
P           0.165003000000000    0.980648000000000    0.785301000000000 
P           0.267680000000000    0.212883000000000    0.940789000000000 
P           0.316151000000000    0.095429000000000    0.838782000000000 
P           0.333333000000000    0.666667000000000    0.922438000000000 
P           0.779276000000000    0.683849000000000    0.838782000000000 
P           0.787117000000000    0.054797000000000    0.940789000000000 
P           0.815645000000000    0.834997000000000    0.785301000000000 
P           0.828270000000000    0.840751000000000    0.100203000000000 
P           0.904571000000000    0.220724000000000    0.838782000000000 
P           0.945203000000000    0.732320000000000    0.940789000000000 
K           0.333333000000000    0.666667000000000    0.544272000000000 
K           0.520404000000000    0.107152000000000    0.499655000000000 
K           0.586748000000000    0.479596000000000    0.499655000000000 
K           0.892848000000000    0.413252000000000    0.499655000000000 
%ENDBLOCK POSITIONS_FRAC
