# Cell file generated by matador (Matthew Evans 2016)

%BLOCK LATTICE_CART
9.45052 0.0 0.0
0.0 9.45052 0.0
0.0 0.0 6.73913
%ENDBLOCK LATTICE_CART

%BLOCK POSITIONS_FRAC
P          -0.000000000000000    0.500000000000000    0.055817000000000 
P          -0.000000000000000    0.500000000000000    0.444183000000000 
P           0.184823000000000    0.500000000000000    0.750000000000000 
P           0.500000000000000   -0.000000000000000    0.555817000000000 
P           0.500000000000000   -0.000000000000000    0.944183000000000 
P           0.500000000000000    0.184823000000000    0.250000000000000 
P           0.500000000000000    0.500000000000000    0.250000000000000 
P           0.500000000000000    0.500000000000000    0.750000000000000 
P           0.500000000000000    0.815177000000000    0.250000000000000 
P           0.815177000000000    0.500000000000000    0.750000000000000 
K           0.321635000000000    0.327096000000000    0.482975000000000 
K           0.321635000000000    0.672904000000000    0.017025000000000 
K           0.327096000000000    0.321635000000000    0.982975000000000 
K           0.327096000000000    0.678365000000000    0.517025000000000 
K           0.672904000000000    0.321635000000000    0.517025000000000 
K           0.672904000000000    0.678365000000000    0.982975000000000 
K           0.678365000000000    0.327096000000000    0.017025000000000 
K           0.678365000000000    0.672904000000000    0.482975000000000 
%ENDBLOCK POSITIONS_FRAC
