# Cell file generated by matador (Matthew Evans 2016)

%BLOCK LATTICE_CART
7.98858 0.0 0.0
-3.99429 6.91831 0.0
0.0 0.0 7.06839
%ENDBLOCK LATTICE_CART

%BLOCK POSITIONS_FRAC
P           0.138444000000000    0.339621000000000    0.466081000000000 
P           0.201177000000000    0.861556000000000    0.466081000000000 
P           0.249168000000000    0.525616000000000    0.333279000000000 
P           0.276448000000000    0.750832000000000    0.333279000000000 
P           0.339621000000000    0.201177000000000    0.533919000000000 
P           0.474384000000000    0.723552000000000    0.333279000000000 
P           0.525616000000000    0.276448000000000    0.666721000000000 
P           0.660379000000000    0.798823000000000    0.466081000000000 
P           0.723552000000000    0.249168000000000    0.666721000000000 
P           0.750832000000000    0.474384000000000    0.666721000000000 
P           0.798823000000000    0.138444000000000    0.533919000000000 
P           0.861556000000000    0.660379000000000    0.533919000000000 
K          -0.000000000000000    0.500000000000000    0.000000000000000 
K           0.500000000000000    0.000000000000000    0.000000000000000 
K           0.500000000000000    0.500000000000000    0.000000000000000 
%ENDBLOCK POSITIONS_FRAC
