# Cell file generated by matador (Matthew Evans 2016)

%BLOCK LATTICE_CART
5.70223 0.0 0.0
0.0 7.39702 0.0
0.0 0.0 8.5456
%ENDBLOCK LATTICE_CART

%BLOCK POSITIONS_FRAC
P           0.000000000000000    0.734165000000000    0.570726000000000 
P           0.500000000000000    0.265835000000000    0.070726000000000 
K           0.000000000000000    0.042878000000000    0.524868000000000 
K           0.000000000000000    0.245543000000000    0.935735000000000 
K           0.000000000000000    0.415285000000000    0.158067000000000 
K           0.000000000000000    0.867303000000000    0.026018000000000 
K           0.211738000000000    0.315546000000000    0.444293000000000 
K           0.288262000000000    0.684454000000000    0.944293000000000 
K           0.500000000000000    0.132697000000000    0.526018000000000 
K           0.500000000000000    0.584715000000000    0.658067000000000 
K           0.500000000000000    0.754457000000000    0.435735000000000 
K           0.500000000000000    0.957122000000000    0.024868000000000 
K           0.711738000000000    0.684454000000000    0.944293000000000 
K           0.788262000000000    0.315546000000000    0.444293000000000 
%ENDBLOCK POSITIONS_FRAC
