# Cell file generated by matador (Matthew Evans 2016)

%BLOCK LATTICE_CART
10.7866 0.0 0.0
-5.39329 9.34146 0.0
0.0 0.0 11.7149
%ENDBLOCK LATTICE_CART

%BLOCK POSITIONS_FRAC
P           0.000000000000000    0.000000000000000    0.000000000000000 
P           0.000000000000000    0.000000000000000    0.164988000000000 
P           0.000000000000000    0.000000000000000    0.335012000000000 
P           0.000000000000000    0.000000000000000    0.500000000000000 
P           0.000000000000000    0.000000000000000    0.664988000000000 
P           0.000000000000000    0.000000000000000    0.835012000000000 
P           0.333333000000000    0.666667000000000    0.000000000000000 
P           0.333333000000000    0.666667000000000    0.500000000000000 
K           0.008933000000000    0.172669000000000    0.250000000000000 
K           0.008933000000000    0.836264000000000    0.750000000000000 
K           0.163736000000000    0.172669000000000    0.750000000000000 
K           0.163736000000000    0.991067000000000    0.250000000000000 
K           0.183335000000000    0.496299000000000    0.250000000000000 
K           0.183335000000000    0.687037000000000    0.750000000000000 
K           0.312963000000000    0.496299000000000    0.750000000000000 
K           0.312963000000000    0.816665000000000    0.250000000000000 
K           0.503701000000000    0.687037000000000    0.250000000000000 
K           0.503701000000000    0.816665000000000    0.750000000000000 
K           0.518102000000000    0.036204000000000    0.000000000000000 
K           0.518102000000000    0.036204000000000    0.500000000000000 
K           0.518102000000000    0.481898000000000    0.000000000000000 
K           0.518102000000000    0.481898000000000    0.500000000000000 
K           0.544197000000000    0.126021000000000    0.250000000000000 
K           0.544197000000000    0.418176000000000    0.750000000000000 
K           0.581824000000000    0.126021000000000    0.750000000000000 
K           0.581824000000000    0.455803000000000    0.250000000000000 
K           0.827331000000000    0.836264000000000    0.250000000000000 
K           0.827331000000000    0.991067000000000    0.750000000000000 
K           0.873979000000000    0.418176000000000    0.250000000000000 
K           0.873979000000000    0.455803000000000    0.750000000000000 
K           0.963796000000000    0.481898000000000    0.000000000000000 
K           0.963796000000000    0.481898000000000    0.500000000000000 
%ENDBLOCK POSITIONS_FRAC
