# Cell file generated by matador (Matthew Evans 2016)

%BLOCK LATTICE_CART
6.92287 0.0 0.0
-3.46144 5.99538 0.0
0.0 0.0 9.00408
%ENDBLOCK LATTICE_CART

%BLOCK POSITIONS_FRAC
P           0.042558000000000    0.166619000000000    0.786663000000000 
P           0.124061000000000    0.957442000000000    0.786663000000000 
P           0.333333000000000    0.666667000000000    0.581862000000000 
P           0.450716000000000    0.396923000000000    0.667288000000000 
P           0.603077000000000    0.053792000000000    0.667288000000000 
P           0.833381000000000    0.875939000000000    0.786663000000000 
P           0.946208000000000    0.549284000000000    0.667288000000000 
K           0.000000000000000    0.000000000000000    0.151206000000000 
K           0.000000000000000    0.000000000000000    0.412527000000000 
K           0.000945000000000    0.453015000000000    0.143163000000000 
K           0.452070000000000    0.999055000000000    0.143163000000000 
K           0.546985000000000    0.547930000000000    0.143163000000000 
K           0.666667000000000    0.333333000000000    0.491560000000000 
%ENDBLOCK POSITIONS_FRAC
