# Cell file generated by matador (Matthew Evans 2016)

%BLOCK LATTICE_CART
10.7443 0.0 0.0
-5.37213 9.3048 0.0
0.0 0.0 9.94543
%ENDBLOCK LATTICE_CART

%BLOCK POSITIONS_FRAC
P           0.333333000000000    0.666667000000000    0.000000000000000 
P           0.484128000000000    0.150561000000000    0.000000000000000 
P           0.484128000000000    0.333567000000000    0.000000000000000 
P           0.666433000000000    0.150561000000000    0.000000000000000 
P           0.666433000000000    0.515872000000000    0.000000000000000 
P           0.849439000000000    0.333567000000000    0.000000000000000 
P           0.849439000000000    0.515872000000000    0.000000000000000 
K          -0.000000000000000    0.000000000000000    0.000000000000000 
K           0.003320000000000    0.281478000000000    0.000000000000000 
K           0.003320000000000    0.721842000000000    0.000000000000000 
K           0.276844000000000    0.138423000000000    0.268412000000000 
K           0.276844000000000    0.138423000000000    0.731588000000000 
K           0.278158000000000    0.281478000000000    0.000000000000000 
K           0.278158000000000    0.996680000000000    0.000000000000000 
K           0.333333000000000    0.666667000000000    0.500000000000000 
K           0.545409000000000    0.090819000000000    0.191220000000000 
K           0.545409000000000    0.090819000000000    0.808780000000000 
K           0.545409000000000    0.454591000000000    0.191220000000000 
K           0.545409000000000    0.454591000000000    0.808780000000000 
K           0.666666000000000    0.333334000000000    0.500000000000000 
K           0.718522000000000    0.721842000000000    0.000000000000000 
K           0.718522000000000    0.996680000000000    0.000000000000000 
K           0.861577000000000    0.138423000000000    0.268412000000000 
K           0.861577000000000    0.138423000000000    0.731588000000000 
K           0.861577000000000    0.723156000000000    0.268412000000000 
K           0.861577000000000    0.723156000000000    0.731588000000000 
K           0.909181000000000    0.454591000000000    0.191220000000000 
K           0.909181000000000    0.454591000000000    0.808780000000000 
%ENDBLOCK POSITIONS_FRAC
