# Cell file generated by matador (Matthew Evans 2016)

%BLOCK LATTICE_CART
7.13689 0.0 0.0
0.0 10.3362 0.0
0.0 0.0 5.25434
%ENDBLOCK LATTICE_CART

%BLOCK POSITIONS_FRAC
P           0.002908000000000    0.880569000000000    0.941309000000000 
P           0.034182000000000    0.572128000000000    0.265063000000000 
P           0.214063000000000    0.526841000000000    0.589514000000000 
P           0.285937000000000    0.026841000000000    0.589514000000000 
P           0.465818000000000    0.072128000000000    0.265063000000000 
P           0.497092000000000    0.380569000000000    0.941309000000000 
P           0.502908000000000    0.619431000000000    0.941309000000000 
P           0.534182000000000    0.927872000000000    0.265063000000000 
P           0.714063000000000    0.973159000000000    0.589514000000000 
P           0.785937000000000    0.473159000000000    0.589514000000000 
P           0.965818000000000    0.427872000000000    0.265063000000000 
P           0.997092000000000    0.119431000000000    0.941309000000000 
K           0.000000000000000    0.500000000000000    0.885674000000000 
K           0.500000000000000    0.000000000000000    0.885674000000000 
%ENDBLOCK POSITIONS_FRAC
