# Cell file generated by matador (Matthew Evans 2016)

%BLOCK LATTICE_CART
6.79929 0.0 0.0
0.0 6.89145 0.0
-2.86856 0.0 6.36215
%ENDBLOCK LATTICE_CART

%BLOCK POSITIONS_FRAC
P           0.000000000000000    0.670291000000000    0.500000000000000 
P           0.500000000000000    0.170291000000000    0.500000000000000 
K           0.000000000000000    0.248639000000000    0.000000000000000 
K           0.212759000000000    0.914229000000000    0.507877000000000 
K           0.287241000000000    0.414229000000000    0.492123000000000 
K           0.500000000000000    0.748639000000000    0.000000000000000 
K           0.712759000000000    0.414229000000000    0.507877000000000 
K           0.787241000000000    0.914229000000000    0.492123000000000 
%ENDBLOCK POSITIONS_FRAC
