# Cell file generated by matador (Matthew Evans 2016)

%BLOCK LATTICE_CART
5.54639 0.0 0.0
0.0 6.36147 0.0
-2.57429 0.0 9.10887
%ENDBLOCK LATTICE_CART

%BLOCK POSITIONS_FRAC
P           0.683051000000000    0.187654000000000    0.911600000000000 
P           0.683051000000000    0.812346000000000    0.911600000000000 
K           0.265534000000000    0.000000000000000    0.774775000000000 
K           0.314205000000000    0.500000000000000    0.926801000000000 
K           0.358770000000000    0.000000000000000    0.385634000000000 
K           0.858826000000000    0.500000000000000    0.477369000000000 
K           0.938945000000000    0.500000000000000    0.176246000000000 
K           0.950922000000000    0.000000000000000    0.048029000000000 
%ENDBLOCK POSITIONS_FRAC
