# Cell file generated by matador (Matthew Evans 2016)

%BLOCK LATTICE_CART
9.76623 0.0 0.0
0.0 7.5251 0.0
2.66011 0.0 7.8919
%ENDBLOCK LATTICE_CART

%BLOCK POSITIONS_FRAC
P           0.000000000000000    0.328848000000000    0.000000000000000 
P           0.082569000000000    0.610031000000000    0.676499000000000 
P           0.417431000000000    0.110031000000000    0.323501000000000 
P           0.500000000000000    0.828848000000000    0.000000000000000 
P           0.582569000000000    0.110031000000000    0.676499000000000 
P           0.917431000000000    0.610031000000000    0.323501000000000 
K           0.000000000000000    0.878757000000000    0.000000000000000 
K           0.123633000000000    0.155223000000000    0.729222000000000 
K           0.215408000000000    0.113205000000000    0.081346000000000 
K           0.284592000000000    0.613205000000000    0.918654000000000 
K           0.376367000000000    0.655223000000000    0.270778000000000 
K           0.500000000000000    0.378757000000000    0.000000000000000 
K           0.623633000000000    0.655223000000000    0.729222000000000 
K           0.715408000000000    0.613205000000000    0.081346000000000 
K           0.784592000000000    0.113205000000000    0.918654000000000 
K           0.876367000000000    0.155223000000000    0.270778000000000 
%ENDBLOCK POSITIONS_FRAC
