# Cell file generated by matador (Matthew Evans 2016)

%BLOCK LATTICE_CART
8.70811 0.0 0.0
-4.35405 7.54144 0.0
0.0 0.0 10.5207
%ENDBLOCK LATTICE_CART

%BLOCK POSITIONS_FRAC
P           0.333332000000000    0.666668000000000    0.000000000000000 
P           0.333332000000000    0.666668000000000    0.500000000000000 
P           0.666666000000000    0.333334000000000    0.000000000000000 
P           0.666666000000000    0.333334000000000    0.500000000000000 
K           0.999999000000000    0.199171000000000    0.352779000000000 
K           0.999999000000000    0.199171000000000    0.647221000000000 
K           0.192821000000000    0.802547000000000    0.000000000000000 
K           0.197453000000000    0.390277000000000    0.000000000000000 
K           0.199169000000000    0.000001000000000    0.352779000000000 
K           0.199169000000000    0.000001000000000    0.647221000000000 
K           0.390275000000000    0.197455000000000    0.000000000000000 
K           0.609723000000000    0.807179000000000    0.000000000000000 
K           0.800829000000000    0.800831000000000    0.352779000000000 
K           0.800829000000000    0.800831000000000    0.647221000000000 
K           0.802545000000000    0.192823000000000    0.000000000000000 
K           0.807177000000000    0.609725000000000    0.000000000000000 
%ENDBLOCK POSITIONS_FRAC
