# Cell file generated by matador (Matthew Evans 2016)

%BLOCK LATTICE_CART
7.60285 0.0 0.0
-3.80142 6.58426 0.0
0.0 0.0 12.8227
%ENDBLOCK LATTICE_CART

%BLOCK POSITIONS_FRAC
P           0.000000000000000    0.000000000000000    0.000000000000000 
P           0.000000000000000    0.000000000000000    0.500000000000000 
P           0.333333000000000    0.666667000000000    0.486671000000000 
P           0.666667000000000    0.333333000000000    0.513329000000000 
K           0.000000000000000    0.500000000000000    0.000000000000000 
K           0.000000000000000    0.500000000000000    0.500000000000000 
K           0.162915000000000    0.325830000000000    0.657438000000000 
K           0.162915000000000    0.837085000000000    0.657438000000000 
K           0.325830000000000    0.162915000000000    0.342562000000000 
K           0.500000000000000    0.000000000000000    0.000000000000000 
K           0.500000000000000    0.000000000000000    0.500000000000000 
K           0.500000000000000    0.500000000000000    0.000000000000000 
K           0.500000000000000    0.500000000000000    0.500000000000000 
K           0.674170000000000    0.837085000000000    0.657438000000000 
K           0.837085000000000    0.162915000000000    0.342562000000000 
K           0.837085000000000    0.674170000000000    0.342562000000000 
%ENDBLOCK POSITIONS_FRAC
