# Cell file generated by matador (Matthew Evans 2016)

%BLOCK LATTICE_CART
8.47151 0.0 0.0
0.0 12.6465 0.0
0.0 0.0 4.90754
%ENDBLOCK LATTICE_CART

%BLOCK POSITIONS_FRAC
P           0.000000000000000    0.000000000000000    0.000000000000000 
P           0.000000000000000    0.500000000000000    0.000000000000000 
P           0.500000000000000    0.000000000000000    0.000000000000000 
P           0.500000000000000    0.500000000000000    0.000000000000000 
K           0.000000000000000    0.000000000000000    0.500000000000000 
K           0.000000000000000    0.500000000000000    0.500000000000000 
K           0.037764000000000    0.750000000000000    0.319673000000000 
K           0.250000000000000    0.750000000000000    0.607449000000000 
K           0.462236000000000    0.750000000000000    0.319673000000000 
K           0.500000000000000    0.000000000000000    0.500000000000000 
K           0.500000000000000    0.500000000000000    0.500000000000000 
K           0.537764000000000    0.250000000000000    0.680327000000000 
K           0.750000000000000    0.250000000000000    0.392551000000000 
K           0.962236000000000    0.250000000000000    0.680327000000000 
%ENDBLOCK POSITIONS_FRAC
