# Cell file generated by matador (Matthew Evans 2016)

%BLOCK LATTICE_CART
9.93867 0.0 0.0
0.0 9.93867 0.0
0.0 0.0 6.76064
%ENDBLOCK LATTICE_CART

%BLOCK POSITIONS_FRAC
P           0.000000000000000    0.000000000000000    0.000000000000000 
P           0.000000000000000    0.000000000000000    0.500000000000000 
P           0.500000000000000    0.500000000000000    0.000000000000000 
P           0.500000000000000    0.500000000000000    0.500000000000000 
K           0.000000000000000    0.500000000000000    0.250000000000000 
K           0.132771000000000    0.159185000000000    0.699446000000000 
K           0.159185000000000    0.867229000000000    0.300554000000000 
K           0.198494000000000    0.698494000000000    0.750000000000000 
K           0.301506000000000    0.198494000000000    0.250000000000000 
K           0.340815000000000    0.367229000000000    0.800554000000000 
K           0.367229000000000    0.659185000000000    0.199446000000000 
K           0.500000000000000    0.000000000000000    0.750000000000000 
K           0.632771000000000    0.340815000000000    0.199446000000000 
K           0.659185000000000    0.632771000000000    0.800554000000000 
K           0.698494000000000    0.801506000000000    0.250000000000000 
K           0.801506000000000    0.301506000000000    0.750000000000000 
K           0.840815000000000    0.132771000000000    0.300554000000000 
K           0.867229000000000    0.840815000000000    0.699446000000000 
%ENDBLOCK POSITIONS_FRAC
