# Cell file generated by matador (Matthew Evans 2016)

%BLOCK LATTICE_CART
8.2198 0.0 0.0
0.0 6.14287 0.0
0.0636908 0.0 5.94832
%ENDBLOCK LATTICE_CART

%BLOCK POSITIONS_FRAC
P           0.000000000000000    0.317624000000000    0.000000000000000 
P           0.000000000000000    0.500000000000000    0.000000000000000 
P           0.000000000000000    0.682376000000000    0.000000000000000 
P           0.500000000000000    0.000000000000000    0.000000000000000 
P           0.500000000000000    0.500000000000000    0.000000000000000 
P           0.500000000000000    0.500000000000000    0.500000000000000 
K           0.000000000000000    0.500000000000000    0.500000000000000 
K           0.266617000000000    0.274909000000000    0.938486000000000 
K           0.266617000000000    0.725091000000000    0.938486000000000 
K           0.733383000000000    0.274909000000000    0.061514000000000 
K           0.733383000000000    0.725091000000000    0.061514000000000 
%ENDBLOCK POSITIONS_FRAC
