# Cell file generated by matador (Matthew Evans 2016)

%BLOCK LATTICE_CART
9.82803 0.0 0.0
0.0 4.29826 0.0
0.0 0.0 5.72023
%ENDBLOCK LATTICE_CART

%BLOCK POSITIONS_FRAC
P           0.004817000000000    0.185413000000000    0.240616000000000 
P           0.004817000000000    0.685413000000000    0.740616000000000 
P           0.495183000000000    0.185413000000000    0.240616000000000 
P           0.495183000000000    0.685413000000000    0.740616000000000 
P           0.504817000000000    0.314587000000000    0.740616000000000 
P           0.504817000000000    0.814587000000000    0.240616000000000 
P           0.995183000000000    0.314587000000000    0.740616000000000 
P           0.995183000000000    0.814587000000000    0.240616000000000 
K           0.250000000000000    0.105080000000000    0.356624000000000 
K           0.250000000000000    0.605080000000000    0.856624000000000 
K           0.750000000000000    0.394920000000000    0.856624000000000 
K           0.750000000000000    0.894920000000000    0.356624000000000 
%ENDBLOCK POSITIONS_FRAC
