# Cell file generated by matador (Matthew Evans 2016)

%BLOCK LATTICE_CART
6.00463 0.0 0.0
0.0 6.00463 0.0
0.0 0.0 7.35351
%ENDBLOCK LATTICE_CART

%BLOCK POSITIONS_FRAC
P           0.061825000000000    0.353356000000000    0.452499000000000 
P           0.146644000000000    0.061825000000000    0.452499000000000 
P           0.250000000000000    0.750000000000000    0.000000000000000 
P           0.353356000000000    0.438175000000000    0.452499000000000 
P           0.438175000000000    0.146644000000000    0.452499000000000 
P           0.561825000000000    0.853356000000000    0.547501000000000 
P           0.646644000000000    0.561825000000000    0.547501000000000 
P           0.750000000000000    0.250000000000000    0.000000000000000 
P           0.853356000000000    0.938175000000000    0.547501000000000 
P           0.938175000000000    0.646644000000000    0.547501000000000 
K           0.250000000000000    0.750000000000000    0.500000000000000 
K           0.750000000000000    0.250000000000000    0.500000000000000 
%ENDBLOCK POSITIONS_FRAC
