# Cell file generated by matador (Matthew Evans 2016)

%BLOCK LATTICE_CART
9.41302 0.0 0.0
-4.70651 8.15191 0.0
0.0 0.0 8.99893
%ENDBLOCK LATTICE_CART

%BLOCK POSITIONS_FRAC
P           0.333334000000000    0.666668000000000    0.250000000000000 
P           0.333334000000000    0.666668000000000    0.750000000000000 
P           0.666668000000000    0.333334000000000    0.250000000000000 
P           0.666668000000000    0.333334000000000    0.750000000000000 
K           0.000001000000000    0.000001000000000    0.250000000000000 
K           0.000001000000000    0.000001000000000    0.750000000000000 
K           0.000001000000000    0.500001000000000    0.000000000000000 
K           0.000001000000000    0.500001000000000    0.500000000000000 
K           0.056637000000000    0.694251000000000    0.750000000000000 
K           0.305751000000000    0.362387000000000    0.750000000000000 
K           0.362387000000000    0.056637000000000    0.250000000000000 
K           0.500001000000000    0.000001000000000    0.000000000000000 
K           0.500001000000000    0.000001000000000    0.500000000000000 
K           0.500001000000000    0.500001000000000    0.000000000000000 
K           0.500001000000000    0.500001000000000    0.500000000000000 
K           0.637615000000000    0.943365000000000    0.750000000000000 
K           0.694251000000000    0.637615000000000    0.250000000000000 
K           0.943365000000000    0.305751000000000    0.250000000000000 
%ENDBLOCK POSITIONS_FRAC
