# Cell file generated by matador (Matthew Evans 2016)

%BLOCK LATTICE_CART
9.88989 0.0 0.0
-4.94495 8.5649 0.0
0.0 0.0 5.93286
%ENDBLOCK LATTICE_CART

%BLOCK POSITIONS_FRAC
P           0.000000000000000    0.000000000000000    0.143329000000000 
P           0.000000000000000    0.000000000000000    0.856671000000000 
P           0.000000000000000    0.261057000000000    0.500000000000000 
P           0.000000000000000    0.500000000000000    0.334196000000000 
P           0.000000000000000    0.500000000000000    0.665804000000000 
P           0.000000000000000    0.738943000000000    0.500000000000000 
P           0.261057000000000    0.000000000000000    0.500000000000000 
P           0.261057000000000    0.261057000000000    0.500000000000000 
P           0.500000000000000    0.000000000000000    0.334196000000000 
P           0.500000000000000    0.000000000000000    0.665804000000000 
P           0.500000000000000    0.500000000000000    0.334196000000000 
P           0.500000000000000    0.500000000000000    0.665804000000000 
P           0.738943000000000    0.000000000000000    0.500000000000000 
P           0.738943000000000    0.738943000000000    0.500000000000000 
K           0.000000000000000    0.000000000000000    0.500000000000000 
K           0.000000000000000    0.500000000000000    0.000000000000000 
K           0.500000000000000    0.000000000000000    0.000000000000000 
K           0.500000000000000    0.500000000000000    0.000000000000000 
%ENDBLOCK POSITIONS_FRAC
