# Cell file generated by matador (Matthew Evans 2016)

%BLOCK LATTICE_CART
6.58645 0.0 0.0
-2.10384 11.1609 0.0
-3.03029 2.57879 6.08578
%ENDBLOCK LATTICE_CART

%BLOCK POSITIONS_FRAC
P           0.000000000000000    0.000000000000000    0.000000000000000 
P           0.000000000000000    0.000000000000000    0.500000000000000 
P           0.349040000000000    0.747130000000000    0.685192000000000 
P           0.650960000000000    0.252870000000000    0.314808000000000 
K           0.082013000000000    0.222873000000000    0.073702000000000 
K           0.182788000000000    0.457561000000000    0.333310000000000 
K           0.500000000000000    0.000000000000000    0.000000000000000 
K           0.500000000000000    0.000000000000000    0.500000000000000 
K           0.500000000000000    0.500000000000000    0.500000000000000 
K           0.817212000000000    0.542439000000000    0.666690000000000 
K           0.917987000000000    0.777127000000000    0.926298000000000 
%ENDBLOCK POSITIONS_FRAC
