# Cell file generated by matador (Matthew Evans 2016)

%BLOCK LATTICE_CART
7.08715 0.0 0.0
0.0 5.87172 0.0
-0.728191 0.0 5.38637
%ENDBLOCK LATTICE_CART

%BLOCK POSITIONS_FRAC
P           0.631296000000000    0.000000000000000    0.186221000000000 
K           0.328587000000000    0.000000000000000    0.911604000000000 
K           0.573543000000000    0.265574000000000    0.734366000000000 
K           0.573543000000000    0.734426000000000    0.734366000000000 
K           0.690314000000000    0.500000000000000    0.415504000000000 
K           0.825048000000000    0.500000000000000    0.877693000000000 
%ENDBLOCK POSITIONS_FRAC
