# Cell file generated by matador (Matthew Evans 2016)

%BLOCK LATTICE_CART
9.21912 0.0 0.0
0.0 11.1837 0.0
0.0 0.0 11.4909
%ENDBLOCK LATTICE_CART

%BLOCK POSITIONS_FRAC
P           0.136307000000000    0.250000000000000    0.431519000000000 
P           0.136307000000000    0.750000000000000    0.568481000000000 
P           0.363693000000000    0.250000000000000    0.568481000000000 
P           0.363693000000000    0.750000000000000    0.431519000000000 
P           0.636307000000000    0.250000000000000    0.568481000000000 
P           0.636307000000000    0.750000000000000    0.431519000000000 
P           0.863693000000000    0.250000000000000    0.431519000000000 
P           0.863693000000000    0.750000000000000    0.568481000000000 
K           0.000000000000000    0.031090000000000    0.627873000000000 
K           0.000000000000000    0.083407000000000    0.894447000000000 
K           0.000000000000000    0.416593000000000    0.894447000000000 
K           0.000000000000000    0.468910000000000    0.627873000000000 
K           0.000000000000000    0.531090000000000    0.372127000000000 
K           0.000000000000000    0.583407000000000    0.105553000000000 
K           0.000000000000000    0.916593000000000    0.105553000000000 
K           0.000000000000000    0.968910000000000    0.372127000000000 
K           0.207973000000000    0.250000000000000    0.723087000000000 
K           0.207973000000000    0.750000000000000    0.276913000000000 
K           0.292027000000000    0.250000000000000    0.276913000000000 
K           0.292027000000000    0.750000000000000    0.723087000000000 
K           0.500000000000000    0.031090000000000    0.372127000000000 
K           0.500000000000000    0.083407000000000    0.105553000000000 
K           0.500000000000000    0.416593000000000    0.105553000000000 
K           0.500000000000000    0.468910000000000    0.372127000000000 
K           0.500000000000000    0.531090000000000    0.627873000000000 
K           0.500000000000000    0.583407000000000    0.894447000000000 
K           0.500000000000000    0.916593000000000    0.894447000000000 
K           0.500000000000000    0.968910000000000    0.627873000000000 
K           0.707973000000000    0.250000000000000    0.276913000000000 
K           0.707973000000000    0.750000000000000    0.723087000000000 
K           0.792027000000000    0.250000000000000    0.723087000000000 
K           0.792027000000000    0.750000000000000    0.276913000000000 
%ENDBLOCK POSITIONS_FRAC
