# Cell file generated by matador (Matthew Evans 2016)

%BLOCK LATTICE_CART
7.25528 0.0 0.0
-3.62764 6.28325 0.0
0.0 0.0 10.6169
%ENDBLOCK LATTICE_CART

%BLOCK POSITIONS_FRAC
P           0.000000000000000    0.000000000000000    0.698513000000000 
P           0.333333000000000    0.666667000000000    0.365180000000000 
P           0.666667000000000    0.333333000000000    0.031847000000000 
K           0.173149000000000    0.346299000000000    0.445703000000000 
K           0.173149000000000    0.826851000000000    0.445703000000000 
K           0.320368000000000    0.160184000000000    0.779036000000000 
K           0.506483000000000    0.012965000000000    0.112370000000000 
K           0.506483000000000    0.493517000000000    0.112370000000000 
K           0.653701000000000    0.826851000000000    0.445703000000000 
K           0.839816000000000    0.160184000000000    0.779036000000000 
K           0.839816000000000    0.679632000000000    0.779036000000000 
K           0.987035000000000    0.493517000000000    0.112370000000000 
%ENDBLOCK POSITIONS_FRAC
