# Cell file generated by matador (Matthew Evans 2016)

%BLOCK LATTICE_CART
5.86293 0.0 0.0
-2.93146 5.07744 0.0
0.0 0.0 6.23436
%ENDBLOCK LATTICE_CART

%BLOCK POSITIONS_FRAC
P           0.000000000000000    0.000000000000000    0.008728000000000 
P           0.016772000000000    0.620821000000000    0.266558000000000 
P           0.333333000000000    0.666667000000000    0.271571000000000 
P           0.379179000000000    0.395951000000000    0.266558000000000 
P           0.604049000000000    0.983228000000000    0.266558000000000 
K           0.000000000000000    0.000000000000000    0.478731000000000 
K           0.333333000000000    0.666667000000000    0.711399000000000 
K           0.666667000000000    0.333333000000000    0.983537000000000 
%ENDBLOCK POSITIONS_FRAC
