# Cell file generated by matador (Matthew Evans 2016)

%BLOCK LATTICE_CART
5.32735 0.0 0.0
0.0 5.49245 0.0
-0.219922 0.0 7.65695
%ENDBLOCK LATTICE_CART

%BLOCK POSITIONS_FRAC
P           0.375388000000000    0.100893000000000    0.145823000000000 
P           0.375388000000000    0.899107000000000    0.145823000000000 
P           0.619780000000000    0.397968000000000    0.620474000000000 
P           0.619780000000000    0.602032000000000    0.620474000000000 
K           0.032658000000000    0.000000000000000    0.867209000000000 
K           0.433392000000000    0.000000000000000    0.472082000000000 
K           0.580787000000000    0.500000000000000    0.242878000000000 
%ENDBLOCK POSITIONS_FRAC
