# Cell file generated by matador (Matthew Evans 2016)

%BLOCK LATTICE_CART
7.15424 0.0 0.0
-3.57712 6.19575 0.0
0.0 0.0 11.1801
%ENDBLOCK LATTICE_CART

%BLOCK POSITIONS_FRAC
P           0.000000000000000   -0.000000000000000    0.500000000000000 
P           0.000000000000000    0.776181000000000    0.000000000000000 
P           0.223819000000000    0.223819000000000    0.000000000000000 
P           0.333334000000000    0.666666000000000    0.269983000000000 
P           0.333334000000000    0.666666000000000    0.498769000000000 
P           0.666667000000000    0.333333000000000    0.501231000000000 
P           0.666667000000000    0.333333000000000    0.730017000000000 
P           0.776181000000000   -0.000000000000000    0.000000000000000 
K           0.032794000000000    0.192333000000000    0.735588000000000 
K           0.159540000000000    0.967206000000000    0.735588000000000 
K           0.192334000000000    0.032793000000000    0.264412000000000 
K           0.807667000000000    0.840460000000000    0.735588000000000 
K           0.840461000000000    0.807666000000000    0.264412000000000 
K           0.967207000000000    0.159539000000000    0.264412000000000 
%ENDBLOCK POSITIONS_FRAC
