# Cell file generated by matador (Matthew Evans 2016)

%BLOCK LATTICE_CART
7.86932 0.0 0.0
0.0 7.86932 0.0
0.0 0.0 7.93313
%ENDBLOCK LATTICE_CART

%BLOCK POSITIONS_FRAC
P           0.000000000000000    0.000000000000000    0.000000000000000 
P           0.000000000000000    0.500000000000000    0.146447000000000 
P           0.000000000000000    0.500000000000000    0.385645000000000 
P           0.500000000000000    0.000000000000000    0.614355000000000 
P           0.500000000000000    0.000000000000000    0.853553000000000 
P           0.500000000000000    0.500000000000000    0.000000000000000 
K           0.250000000000000    0.250000000000000    0.000000000000000 
K           0.250000000000000    0.250000000000000    0.500000000000000 
K           0.250000000000000    0.750000000000000    0.000000000000000 
K           0.250000000000000    0.750000000000000    0.500000000000000 
K           0.750000000000000    0.250000000000000    0.000000000000000 
K           0.750000000000000    0.250000000000000    0.500000000000000 
K           0.750000000000000    0.750000000000000    0.000000000000000 
K           0.750000000000000    0.750000000000000    0.500000000000000 
%ENDBLOCK POSITIONS_FRAC
