# Cell file generated by matador (Matthew Evans 2016)

%BLOCK LATTICE_CART
6.86352 -0.0 0.0
-3.43176 5.94398 0.0
0.0 0.0 8.41236
%ENDBLOCK LATTICE_CART

%BLOCK POSITIONS_FRAC
P           0.000000000000000    0.000000000000000    0.500000000000000 
P           0.333333000000000    0.666667000000000    0.227766000000000 
P           0.333333000000000    0.666667000000000    0.772234000000000 
P           0.414669000000000    0.394781000000000    0.000000000000000 
P           0.605219000000000    0.019888000000000    0.000000000000000 
P           0.666667000000000    0.333333000000000    0.135022000000000 
P           0.666667000000000    0.333333000000000    0.500000000000000 
P           0.666667000000000    0.333333000000000    0.864978000000000 
P           0.980112000000000    0.585331000000000    0.000000000000000 
K           0.000000000000000    0.000000000000000    0.000000000000000 
K           0.333333000000000    0.666667000000000    0.000000000000000 
K           0.333333000000000    0.666667000000000    0.500000000000000 
%ENDBLOCK POSITIONS_FRAC
