# Cell file generated by matador (Matthew Evans 2016)

%BLOCK LATTICE_CART
7.28443 0.0 0.0
0.0 7.50158 0.0
-2.12103 0.0 6.76057
%ENDBLOCK LATTICE_CART

%BLOCK POSITIONS_FRAC
P           0.000000000000000    0.000000000000000    0.500000000000000 
P           0.000000000000000    0.500000000000000    0.000000000000000 
P           0.344057000000000    0.704331000000000    0.933314000000000 
P           0.344057000000000    0.795669000000000    0.433314000000000 
P           0.500000000000000    0.000000000000000    0.000000000000000 
P           0.500000000000000    0.000000000000000    0.500000000000000 
P           0.500000000000000    0.500000000000000    0.000000000000000 
P           0.500000000000000    0.500000000000000    0.500000000000000 
P           0.655943000000000    0.204331000000000    0.566686000000000 
P           0.655943000000000    0.295669000000000    0.066686000000000 
K           0.258145000000000    0.191259000000000    0.561777000000000 
K           0.258145000000000    0.308741000000000    0.061777000000000 
K           0.741855000000000    0.691259000000000    0.938223000000000 
K           0.741855000000000    0.808741000000000    0.438223000000000 
%ENDBLOCK POSITIONS_FRAC
