# Cell file generated by matador (Matthew Evans 2016)

%BLOCK LATTICE_CART
6.87359 0.0 0.0
-3.4368 5.9527 0.0
0.0 0.0 5.49952
%ENDBLOCK LATTICE_CART

%BLOCK POSITIONS_FRAC
P           0.333333000000000    0.666667000000000    0.500000000000000 
P           0.666666000000000    0.333334000000000    0.000000000000000 
K           0.006116000000000    0.349871000000000    0.500000000000000 
K           0.333333000000000    0.666667000000000    0.000000000000000 
K           0.343755000000000    0.993884000000000    0.500000000000000 
K           0.650129000000000    0.656245000000000    0.500000000000000 
%ENDBLOCK POSITIONS_FRAC
