# Cell file generated by matador (Matthew Evans 2016)

%BLOCK LATTICE_CART
8.22411 0.0 0.0
-4.11205 7.12229 0.0
0.0 0.0 5.57938
%ENDBLOCK LATTICE_CART

%BLOCK POSITIONS_FRAC
P           0.570191000000000    0.276397000000000    0.227557000000000 
P           0.570191000000000    0.276397000000000    0.772443000000000 
P           0.706206000000000    0.429809000000000    0.227557000000000 
P           0.706206000000000    0.429809000000000    0.772443000000000 
P           0.723603000000000    0.293794000000000    0.227557000000000 
P           0.723603000000000    0.293794000000000    0.772443000000000 
K           0.245864000000000    0.142379000000000    0.000000000000000 
K           0.333333000000000    0.666667000000000    0.000000000000000 
K           0.857621000000000    0.103485000000000    0.000000000000000 
K           0.896515000000000    0.754136000000000    0.000000000000000 
%ENDBLOCK POSITIONS_FRAC
