# Cell file generated by matador (Matthew Evans 2016)

%BLOCK LATTICE_CART
10.7576 0.0 0.0
0.0 11.4523 0.0
0.0 0.0 8.20296
%ENDBLOCK LATTICE_CART

%BLOCK POSITIONS_FRAC
P           0.000000000000000    0.500000000000000    0.503136000000000 
P           0.250000000000000    0.250000000000000    0.901559000000000 
P           0.250000000000000    0.750000000000000    0.901559000000000 
P           0.500000000000000    0.000000000000000    0.503136000000000 
P           0.750000000000000    0.250000000000000    0.901559000000000 
P           0.750000000000000    0.750000000000000    0.901559000000000 
K           0.000000000000000    0.000000000000000    0.658811000000000 
K           0.000000000000000    0.126256000000000    0.976898000000000 
K           0.000000000000000    0.178871000000000    0.392325000000000 
K           0.000000000000000    0.348622000000000    0.670788000000000 
K           0.000000000000000    0.373982000000000    0.050688000000000 
K           0.000000000000000    0.626018000000000    0.050688000000000 
K           0.000000000000000    0.651378000000000    0.670788000000000 
K           0.000000000000000    0.821129000000000    0.392325000000000 
K           0.000000000000000    0.873744000000000    0.976898000000000 
K           0.500000000000000    0.126018000000000    0.050688000000000 
K           0.500000000000000    0.151378000000000    0.670788000000000 
K           0.500000000000000    0.321129000000000    0.392325000000000 
K           0.500000000000000    0.373744000000000    0.976898000000000 
K           0.500000000000000    0.500000000000000    0.658811000000000 
K           0.500000000000000    0.626256000000000    0.976898000000000 
K           0.500000000000000    0.678871000000000    0.392325000000000 
K           0.500000000000000    0.848622000000000    0.670788000000000 
K           0.500000000000000    0.873982000000000    0.050688000000000 
%ENDBLOCK POSITIONS_FRAC
