# Cell file generated by matador (Matthew Evans 2016)

%BLOCK LATTICE_CART
4.78092 0.0 0.0
-0.778388 5.30836 0.0
-1.48823 2.06429 6.4553
%ENDBLOCK LATTICE_CART

%BLOCK POSITIONS_FRAC
P           0.000000000000000    0.500000000000000    0.000000000000000 
P           0.252528000000000    0.075392000000000    0.836629000000000 
P           0.500000000000000    0.500000000000000    0.000000000000000 
P           0.500000000000000    0.500000000000000    0.500000000000000 
P           0.747472000000000    0.924608000000000    0.163371000000000 
K           0.500000000000000    0.000000000000000    0.500000000000000 
%ENDBLOCK POSITIONS_FRAC
