# Cell file generated by matador (Matthew Evans 2016)

%BLOCK LATTICE_CART
10.138 0.0 0.0
0.0 9.59027 0.0
3.03296 0.0 6.32382
%ENDBLOCK LATTICE_CART

%BLOCK POSITIONS_FRAC
P           0.192152000000000    0.000000000000000    0.894881000000000 
P           0.306701000000000    0.500000000000000    0.196044000000000 
P           0.692152000000000    0.500000000000000    0.894881000000000 
P           0.806701000000000    0.000000000000000    0.196044000000000 
K           0.062603000000000    0.500000000000000    0.404893000000000 
K           0.074196000000000    0.000000000000000    0.246687000000000 
K           0.245525000000000    0.000000000000000    0.527381000000000 
K           0.268151000000000    0.500000000000000    0.707202000000000 
K           0.408191000000000    0.000000000000000    0.067010000000000 
K           0.465544000000000    0.500000000000000    0.903729000000000 
K           0.562603000000000    0.000000000000000    0.404893000000000 
K           0.574196000000000    0.500000000000000    0.246687000000000 
K           0.745525000000000    0.500000000000000    0.527381000000000 
K           0.768151000000000    0.000000000000000    0.707202000000000 
K           0.908191000000000    0.500000000000000    0.067010000000000 
K           0.965544000000000    0.000000000000000    0.903729000000000 
%ENDBLOCK POSITIONS_FRAC
