# Cell file generated by matador (Matthew Evans 2016)

%BLOCK LATTICE_CART
7.63765 0.0 0.0
0.0 8.2731 0.0
0.81503 0.0 6.26011
%ENDBLOCK LATTICE_CART

%BLOCK POSITIONS_FRAC
P           0.125200000000000    0.000000000000000    0.928061000000000 
P           0.153329000000000    0.500000000000000    0.952147000000000 
P           0.161020000000000    0.500000000000000    0.565716000000000 
P           0.180128000000000    0.272704000000000    0.984251000000000 
P           0.180128000000000    0.727296000000000    0.984251000000000 
P           0.455142000000000    0.500000000000000    0.136435000000000 
P           0.474461000000000    0.500000000000000    0.578511000000000 
P           0.756231000000000    0.000000000000000    0.712659000000000 
P           0.892712000000000    0.000000000000000    0.703015000000000 
K           0.339355000000000    0.000000000000000    0.604506000000000 
K           0.783262000000000    0.177191000000000    0.056191000000000 
K           0.783262000000000    0.822809000000000    0.056191000000000 
K           0.847664000000000    0.500000000000000    0.141772000000000 
K           0.973119000000000    0.266745000000000    0.552263000000000 
K           0.973119000000000    0.733255000000000    0.552263000000000 
%ENDBLOCK POSITIONS_FRAC
