# Cell file generated by matador (Matthew Evans 2016)

%BLOCK LATTICE_CART
8.82419 0.0 0.0
0.0 5.16982 0.0
0.0 0.0 7.93964
%ENDBLOCK LATTICE_CART

%BLOCK POSITIONS_FRAC
P           0.000000000000000    0.000000000000000    0.170557000000000 
P           0.000000000000000    0.000000000000000    0.321584000000000 
P           0.000000000000000    0.500000000000000    0.659925000000000 
P           0.500000000000000    0.000000000000000    0.656335000000000 
P           0.500000000000000    0.500000000000000    0.221586000000000 
P           0.500000000000000    0.500000000000000    0.963101000000000 
K           0.325636000000000    0.290142000000000    0.798237000000000 
K           0.325636000000000    0.709858000000000    0.798237000000000 
K           0.500000000000000    0.000000000000000    0.947279000000000 
K           0.674364000000000    0.290142000000000    0.798237000000000 
K           0.674364000000000    0.709858000000000    0.798237000000000 
%ENDBLOCK POSITIONS_FRAC
