# Cell file generated by matador (Matthew Evans 2016)

%BLOCK LATTICE_CART
8.85932 0.0 0.0
-4.42966 7.6724 0.0
0.0 0.0 4.3392
%ENDBLOCK LATTICE_CART

%BLOCK POSITIONS_FRAC
P           0.333333000000000    0.666667000000000    0.000000000000000 
K          -0.000000000000000    0.000000000000000    0.000000000000000 
K           0.355271000000000    0.003332000000000    0.500000000000000 
K           0.355271000000000    0.351939000000000    0.500000000000000 
K           0.648061000000000    0.003332000000000    0.500000000000000 
K           0.648061000000000    0.644729000000000    0.500000000000000 
K           0.996668000000000    0.351939000000000    0.500000000000000 
K           0.996668000000000    0.644729000000000    0.500000000000000 
%ENDBLOCK POSITIONS_FRAC
