# Cell file generated by matador (Matthew Evans 2016)

%BLOCK LATTICE_CART
5.86067 0.0 0.0
-2.93034 5.07549 0.0
0.0 0.0 7.65337
%ENDBLOCK LATTICE_CART

%BLOCK POSITIONS_FRAC
P           0.395073000000000    0.036153000000000    0.000000000000000 
P           0.395073000000000    0.358920000000000    0.000000000000000 
P           0.641080000000000    0.036153000000000    0.000000000000000 
P           0.641080000000000    0.604927000000000    0.000000000000000 
P           0.963847000000000    0.358920000000000    0.000000000000000 
P           0.963847000000000    0.604927000000000    0.000000000000000 
K           0.333333000000000    0.666667000000000    0.000000000000000 
K           0.666666000000000    0.333334000000000    0.500000000000000 
%ENDBLOCK POSITIONS_FRAC
