# Cell file generated by matador (Matthew Evans 2016)

%BLOCK LATTICE_CART
7.26971 0.0 0.0
-3.63485 6.29575 0.0
0.0 0.0 9.51079
%ENDBLOCK LATTICE_CART

%BLOCK POSITIONS_FRAC
P           0.124904000000000    0.304679000000000    0.253582000000000 
P           0.172203000000000    0.721278000000000    0.669172000000000 
P           0.179776000000000    0.875096000000000    0.253582000000000 
P           0.278722000000000    0.450925000000000    0.669172000000000 
P           0.304679000000000    0.179776000000000    0.253582000000000 
P           0.333333000000000    0.666667000000000    0.421236000000000 
P           0.450925000000000    0.172203000000000    0.669172000000000 
P           0.549075000000000    0.827797000000000    0.669172000000000 
P           0.666667000000000    0.333333000000000    0.421236000000000 
P           0.695321000000000    0.820224000000000    0.253582000000000 
P           0.721278000000000    0.549075000000000    0.669172000000000 
P           0.820224000000000    0.124904000000000    0.253582000000000 
P           0.827797000000000    0.278722000000000    0.669172000000000 
P           0.875096000000000    0.695321000000000    0.253582000000000 
K           0.000000000000000    0.000000000000000    0.195291000000000 
K           0.000000000000000    0.000000000000000    0.934308000000000 
%ENDBLOCK POSITIONS_FRAC
