# Cell file generated by matador (Matthew Evans 2016)

%BLOCK LATTICE_CART
6.26627 0.0 0.0
0.0 5.57119 0.0
4.3191 0.0 8.09642
%ENDBLOCK LATTICE_CART

%BLOCK POSITIONS_FRAC
P           0.008129000000000    0.488128000000000    0.928876000000000 
P           0.196263000000000    0.631753000000000    0.623612000000000 
P           0.278895000000000    0.107658000000000    0.477761000000000 
P           0.447633000000000    0.085110000000000    0.975050000000000 
P           0.455816000000000    0.935289000000000    0.543634000000000 
P           0.544184000000000    0.435289000000000    0.456366000000000 
P           0.552367000000000    0.585110000000000    0.024950000000000 
P           0.721105000000000    0.607658000000000    0.522239000000000 
P           0.803737000000000    0.131753000000000    0.376388000000000 
P           0.991871000000000    0.988128000000000    0.071124000000000 
K           0.191702000000000    0.213650000000000    0.276988000000000 
K           0.808298000000000    0.713650000000000    0.723012000000000 
%ENDBLOCK POSITIONS_FRAC
