# Cell file generated by matador (Matthew Evans 2016)

%BLOCK LATTICE_CART
6.14276 0.0 0.0
-3.07138 5.31979 0.0
0.0 0.0 9.43862
%ENDBLOCK LATTICE_CART

%BLOCK POSITIONS_FRAC
P           0.000000000000000    0.000000000000000    0.288104000000000 
P           0.000000000000000    0.000000000000000    0.711896000000000 
P           0.333333000000000    0.666667000000000    0.378563000000000 
P           0.333333000000000    0.666667000000000    0.954771000000000 
P           0.666667000000000    0.333333000000000    0.045229000000000 
P           0.666667000000000    0.333333000000000    0.621437000000000 
K           0.000000000000000    0.000000000000000   -0.000000000000000 
K           0.000000000000000    0.000000000000000    0.500000000000000 
K           0.333333000000000    0.666667000000000    0.166667000000000 
K           0.333333000000000    0.666667000000000    0.666667000000000 
K           0.666667000000000    0.333333000000000    0.333333000000000 
K           0.666667000000000    0.333333000000000    0.833333000000000 
%ENDBLOCK POSITIONS_FRAC
