# Cell file generated by matador (Matthew Evans 2016)

%BLOCK LATTICE_CART
6.57868 0.0 0.0
-3.28934 5.6973 0.0
0.0 0.0 7.98754
%ENDBLOCK LATTICE_CART

%BLOCK POSITIONS_FRAC
P           0.666667000000000    0.333333000000000    0.087154000000000 
K           0.115992000000000    0.231983000000000    0.008399000000000 
K           0.115992000000000    0.884008000000000    0.008399000000000 
K           0.202873000000000    0.405746000000000    0.567320000000000 
K           0.202873000000000    0.797127000000000    0.567320000000000 
K           0.594254000000000    0.797127000000000    0.567320000000000 
K           0.768017000000000    0.884008000000000    0.008399000000000 
%ENDBLOCK POSITIONS_FRAC
