# Cell file generated by matador (Matthew Evans 2016)

%BLOCK LATTICE_CART
8.61134 0.0 0.0
0.0 6.98258 0.0
0.0 0.0 7.59004
%ENDBLOCK LATTICE_CART

%BLOCK POSITIONS_FRAC
P           0.000000000000000    0.000000000000000    0.526016000000000 
P           0.000000000000000    0.000000000000000    0.692474000000000 
P           0.000000000000000    0.500000000000000    0.769110000000000 
P           0.500000000000000    0.000000000000000    0.269110000000000 
P           0.500000000000000    0.500000000000000    0.026017000000000 
P           0.500000000000000    0.500000000000000    0.192474000000000 
K           0.000000000000000    0.252916000000000    0.241405000000000 
K           0.000000000000000    0.304547000000000    0.546732000000000 
K           0.000000000000000    0.500000000000000    0.074453000000000 
K           0.000000000000000    0.695453000000000    0.546732000000000 
K           0.000000000000000    0.747084000000000    0.241405000000000 
K           0.500000000000000    0.000000000000000    0.574453000000000 
K           0.500000000000000    0.195453000000000    0.046732000000000 
K           0.500000000000000    0.247084000000000    0.741405000000000 
K           0.500000000000000    0.752916000000000    0.741405000000000 
K           0.500000000000000    0.804547000000000    0.046732000000000 
%ENDBLOCK POSITIONS_FRAC
