# Cell file generated by matador (Matthew Evans 2016)

%BLOCK LATTICE_CART
9.47581 0.0 0.0
0.0 7.53792 0.0
3.67977 0.0 7.58875
%ENDBLOCK LATTICE_CART

%BLOCK POSITIONS_FRAC
P          -0.000000000000000    0.212255000000000    0.750000000000000 
P          -0.000000000000000    0.787745000000000    0.250000000000000 
P           0.500000000000000    0.000000000000000    0.000000000000000 
P           0.500000000000000    0.000000000000000    0.500000000000000 
P           0.500000000000000    0.188524000000000    0.750000000000000 
P           0.500000000000000    0.222854000000000    0.250000000000000 
P           0.500000000000000    0.500000000000000    0.000000000000000 
P           0.500000000000000    0.500000000000000    0.500000000000000 
P           0.500000000000000    0.777146000000000    0.750000000000000 
P           0.500000000000000    0.811476000000000    0.250000000000000 
K          -0.000000000000000    0.000000000000000    0.000000000000000 
K          -0.000000000000000    0.000000000000000    0.500000000000000 
K          -0.000000000000000    0.098451000000000    0.250000000000000 
K          -0.000000000000000    0.500000000000000    0.000000000000000 
K          -0.000000000000000    0.500000000000000    0.500000000000000 
K          -0.000000000000000    0.901549000000000    0.750000000000000 
%ENDBLOCK POSITIONS_FRAC
