# Cell file generated by matador (Matthew Evans 2016)

%BLOCK LATTICE_CART
8.03391 0.0 0.0
-4.01696 6.95757 0.0
0.0 0.0 8.03905
%ENDBLOCK LATTICE_CART

%BLOCK POSITIONS_FRAC
P           0.000000000000000    0.000000000000000    0.000000000000000 
P           0.000000000000000    0.500000000000000    0.000000000000000 
P           0.333333000000000    0.666667000000000    0.072588000000000 
P           0.500000000000000    0.000000000000000    0.000000000000000 
P           0.500000000000000    0.500000000000000    0.000000000000000 
P           0.666667000000000    0.333333000000000    0.927412000000000 
K           0.000000000000000    0.000000000000000    0.500000000000000 
K           0.157591000000000    0.315181000000000    0.293197000000000 
K           0.157591000000000    0.842409000000000    0.293197000000000 
K           0.315181000000000    0.157591000000000    0.706803000000000 
K           0.684819000000000    0.842409000000000    0.293197000000000 
K           0.842409000000000    0.157591000000000    0.706803000000000 
K           0.842409000000000    0.684819000000000    0.706803000000000 
%ENDBLOCK POSITIONS_FRAC
