# Cell file generated by matador (Matthew Evans 2016)

%BLOCK LATTICE_CART
9.04749 -0.0 0.0
-4.52375 7.83536 0.0
0.0 0.0 8.11227
%ENDBLOCK LATTICE_CART

%BLOCK POSITIONS_FRAC
P           0.000781000000000    0.896622000000000    0.672594000000000 
P           0.079541000000000    0.609258000000000    0.721215000000000 
P           0.103378000000000    0.104159000000000    0.672594000000000 
P           0.104159000000000    0.000781000000000    0.327406000000000 
P           0.333333000000000    0.666667000000000    0.130263000000000 
P           0.390742000000000    0.470283000000000    0.721215000000000 
P           0.470283000000000    0.079541000000000    0.278785000000000 
P           0.529717000000000    0.920459000000000    0.721215000000000 
P           0.609258000000000    0.529717000000000    0.278785000000000 
P           0.666667000000000    0.333333000000000    0.869737000000000 
P           0.895841000000000    0.999219000000000    0.672594000000000 
P           0.896622000000000    0.895841000000000    0.327406000000000 
P           0.920459000000000    0.390742000000000    0.278785000000000 
P           0.999219000000000    0.103378000000000    0.327406000000000 
K           0.000000000000000    0.500000000000000    0.000000000000000 
K           0.000000000000000    0.500000000000000    0.500000000000000 
K           0.500000000000000    0.000000000000000    0.000000000000000 
K           0.500000000000000    0.000000000000000    0.500000000000000 
K           0.500000000000000    0.500000000000000    0.000000000000000 
K           0.500000000000000    0.500000000000000    0.500000000000000 
%ENDBLOCK POSITIONS_FRAC
