# Cell file generated by matador (Matthew Evans 2016)

%BLOCK LATTICE_CART
4.77182 0.0 0.0
0.0 7.30045 0.0
0.632836 0.0 5.82338
%ENDBLOCK LATTICE_CART

%BLOCK POSITIONS_FRAC
P           0.404547000000000    0.893816000000000    0.662558000000000 
P           0.449066000000000    0.394520000000000    0.638110000000000 
P           0.466853000000000    0.149779000000000    0.640806000000000 
P           0.533148000000000    0.649779000000000    0.359194000000000 
P           0.550935000000000    0.894520000000000    0.361890000000000 
P           0.595453000000000    0.393816000000000    0.337442000000000 
K           0.042970000000000    0.977476000000000    0.354911000000000 
K           0.957031000000000    0.477476000000000    0.645089000000000 
%ENDBLOCK POSITIONS_FRAC
