# Cell file generated by matador (Matthew Evans 2016)

%BLOCK LATTICE_CART
6.18891 0.0 0.0
-3.09446 5.35975 0.0
0.0 0.0 5.65295
%ENDBLOCK LATTICE_CART

%BLOCK POSITIONS_FRAC
P           0.136061000000000    0.686754000000000    0.852242000000000 
P           0.218937000000000    0.002073000000000    0.447865000000000 
P           0.313246000000000    0.449306000000000    0.852242000000000 
P           0.550694000000000    0.863939000000000    0.852242000000000 
P           0.666667000000000    0.333333000000000    0.645170000000000 
P           0.783136000000000    0.781063000000000    0.447865000000000 
P           0.997927000000000    0.216864000000000    0.447865000000000 
K           0.000000000000000    0.000000000000000    0.848683000000000 
K           0.333333000000000    0.666667000000000    0.479911000000000 
%ENDBLOCK POSITIONS_FRAC
