# Cell file generated by matador (Matthew Evans 2016)

%BLOCK LATTICE_CART
8.93582 0.0 0.0
0.0 8.93582 0.0
0.0 0.0 6.78309
%ENDBLOCK LATTICE_CART

%BLOCK POSITIONS_FRAC
P           0.250000000000000    0.250000000000000    0.939707000000000 
P           0.250000000000000    0.750000000000000    0.000000000000000 
P           0.250000000000000    0.750000000000000    0.324533000000000 
P           0.250000000000000    0.750000000000000    0.500000000000000 
P           0.250000000000000    0.750000000000000    0.675467000000000 
P           0.750000000000000    0.250000000000000    0.000000000000000 
P           0.750000000000000    0.250000000000000    0.324533000000000 
P           0.750000000000000    0.250000000000000    0.500000000000000 
P           0.750000000000000    0.250000000000000    0.675467000000000 
P           0.750000000000000    0.750000000000000    0.060293000000000 
K           0.022313000000000    0.737389000000000    0.055182000000000 
K           0.237389000000000    0.977687000000000    0.944818000000000 
K           0.262611000000000    0.522313000000000    0.944818000000000 
K           0.477687000000000    0.762611000000000    0.055182000000000 
K           0.522313000000000    0.237389000000000    0.944818000000000 
K           0.737389000000000    0.477687000000000    0.055182000000000 
K           0.762611000000000    0.022313000000000    0.055182000000000 
K           0.977687000000000    0.262611000000000    0.944818000000000 
%ENDBLOCK POSITIONS_FRAC
