# Cell file generated by matador (Matthew Evans 2016)

%BLOCK LATTICE_CART
7.97373 0.0 0.0
0.0 7.97373 0.0
0.0 0.0 10.4626
%ENDBLOCK LATTICE_CART

%BLOCK POSITIONS_FRAC
P           0.000000000000000    0.000000000000000    0.183746000000000 
P           0.000000000000000    0.000000000000000    0.816254000000000 
P           0.000000000000000    0.255099000000000    0.500000000000000 
P           0.000000000000000    0.500000000000000    0.000000000000000 
P           0.000000000000000    0.500000000000000    0.500000000000000 
P           0.000000000000000    0.744901000000000    0.500000000000000 
P           0.240786000000000    0.240786000000000    0.000000000000000 
P           0.240786000000000    0.759214000000000    0.000000000000000 
P           0.255099000000000    0.000000000000000    0.500000000000000 
P           0.500000000000000    0.000000000000000    0.000000000000000 
P           0.500000000000000    0.000000000000000    0.500000000000000 
P           0.744901000000000    0.000000000000000    0.500000000000000 
P           0.759214000000000    0.240786000000000    0.000000000000000 
P           0.759214000000000    0.759214000000000    0.000000000000000 
K           0.000000000000000    0.000000000000000    0.000000000000000 
K           0.000000000000000    0.000000000000000    0.500000000000000 
K           0.500000000000000    0.500000000000000    0.000000000000000 
K           0.500000000000000    0.500000000000000    0.500000000000000 
%ENDBLOCK POSITIONS_FRAC
