# Cell file generated by matador (Matthew Evans 2016)

%BLOCK LATTICE_CART
7.47732 0.0 0.0
-3.73866 6.47555 0.0
0.0 0.0 8.15304
%ENDBLOCK LATTICE_CART

%BLOCK POSITIONS_FRAC
P           0.047547000000000    0.126211000000000    0.569612000000000 
P           0.078664000000000    0.952453000000000    0.569612000000000 
P           0.080168000000000    0.858878000000000    0.806821000000000 
P           0.141122000000000    0.221290000000000    0.806821000000000 
P           0.194989000000000    0.710414000000000    0.019747000000000 
P           0.289586000000000    0.484575000000000    0.019747000000000 
P           0.343759000000000    0.206722000000000    0.792373000000000 
P           0.436247000000000    0.027811000000000    0.503937000000000 
P           0.515425000000000    0.805011000000000    0.019747000000000 
P           0.591563000000000    0.563753000000000    0.503937000000000 
P           0.778710000000000    0.919832000000000    0.806821000000000 
P           0.793278000000000    0.137037000000000    0.792373000000000 
P           0.862963000000000    0.656241000000000    0.792373000000000 
P           0.873789000000000    0.921336000000000    0.569612000000000 
P           0.972189000000000    0.408437000000000    0.503937000000000 
K           0.000000000000000    0.000000000000000    0.135541000000000 
K           0.666667000000000    0.333333000000000    0.041447000000000 
K           0.666667000000000    0.333333000000000    0.363217000000000 
%ENDBLOCK POSITIONS_FRAC
