# Cell file generated by matador (Matthew Evans 2016)

%BLOCK LATTICE_CART
7.88541 0.0 0.0
0.0 7.88541 0.0
0.0 0.0 8.70221
%ENDBLOCK LATTICE_CART

%BLOCK POSITIONS_FRAC
P           0.000000000000000    0.500000000000000    0.020173000000000 
P           0.000000000000000    0.500000000000000    0.479827000000000 
P           0.000000000000000    0.500000000000000    0.750000000000000 
P           0.074778000000000    0.305476000000000    0.498103000000000 
P           0.194524000000000    0.574778000000000    0.001897000000000 
P           0.305476000000000    0.925222000000000    0.501897000000000 
P           0.425222000000000    0.194524000000000    0.998103000000000 
P           0.500000000000000    0.000000000000000    0.250000000000000 
P           0.500000000000000    0.000000000000000    0.520173000000000 
P           0.500000000000000    0.000000000000000    0.979827000000000 
P           0.574778000000000    0.805476000000000    0.998103000000000 
P           0.694524000000000    0.074778000000000    0.501897000000000 
P           0.805476000000000    0.425222000000000    0.001897000000000 
P           0.925222000000000    0.694524000000000    0.498103000000000 
K           0.000000000000000    0.000000000000000    0.000000000000000 
K           0.000000000000000    0.500000000000000    0.250000000000000 
K           0.500000000000000    0.000000000000000    0.750000000000000 
K           0.500000000000000    0.500000000000000    0.500000000000000 
%ENDBLOCK POSITIONS_FRAC
