# Cell file generated by matador (Matthew Evans 2016)

%BLOCK LATTICE_CART
8.58001 0.0 0.0
0.0 8.58001 0.0
0.0 0.0 8.58001
%ENDBLOCK LATTICE_CART

%BLOCK POSITIONS_FRAC
P           0.000000000000000    0.000000000000000    0.500000000000000 
P           0.000000000000000    0.500000000000000    0.000000000000000 
P           0.000000000000000    0.500000000000000    0.500000000000000 
P           0.095256000000000    0.095256000000000    0.095256000000000 
P           0.095256000000000    0.904744000000000    0.904744000000000 
P           0.404744000000000    0.404744000000000    0.404744000000000 
P           0.404744000000000    0.595256000000000    0.595256000000000 
P           0.500000000000000    0.000000000000000    0.000000000000000 
P           0.500000000000000    0.000000000000000    0.500000000000000 
P           0.500000000000000    0.500000000000000    0.000000000000000 
P           0.595256000000000    0.404744000000000    0.595256000000000 
P           0.595256000000000    0.595256000000000    0.404744000000000 
P           0.904744000000000    0.095256000000000    0.904744000000000 
P           0.904744000000000    0.904744000000000    0.095256000000000 
K           0.250000000000000    0.250000000000000    0.250000000000000 
K           0.250000000000000    0.750000000000000    0.750000000000000 
K           0.750000000000000    0.250000000000000    0.750000000000000 
K           0.750000000000000    0.750000000000000    0.250000000000000 
%ENDBLOCK POSITIONS_FRAC
