# Cell file generated by matador (Matthew Evans 2016)

%BLOCK LATTICE_CART
6.97992 0.0 0.0
-3.48996 6.04479 0.0
0.0 0.0 6.89802
%ENDBLOCK LATTICE_CART

%BLOCK POSITIONS_FRAC
P           0.333334000000000    0.666668000000000    0.608921000000000 
P           0.333334000000000    0.666668000000000    0.985631000000000 
P           0.666668000000000    0.333334000000000    0.608921000000000 
P           0.666668000000000    0.333334000000000    0.985631000000000 
K           0.000001000000000    0.000001000000000    0.806517000000000 
K           0.000001000000000    0.500001000000000    0.383841000000000 
K           0.500001000000000    0.000001000000000    0.383841000000000 
K           0.500001000000000    0.500001000000000    0.383841000000000 
%ENDBLOCK POSITIONS_FRAC
