# Cell file generated by matador (Matthew Evans 2016)

%BLOCK LATTICE_CART
8.02111 0.0 0.0
-4.01055 6.94648 0.0
0.0 0.0 9.17793
%ENDBLOCK LATTICE_CART

%BLOCK POSITIONS_FRAC
P           0.000000000000000    0.500000000000000    0.000000000000000 
P           0.500000000000000    0.000000000000000    0.000000000000000 
P           0.500000000000000    0.500000000000000    0.000000000000000 
K           0.000000000000000    0.500000000000000    0.500000000000000 
K           0.144175000000000    0.288349000000000    0.274412000000000 
K           0.144175000000000    0.855825000000000    0.274412000000000 
K           0.288349000000000    0.144175000000000    0.725588000000000 
K           0.500000000000000    0.000000000000000    0.500000000000000 
K           0.500000000000000    0.500000000000000    0.500000000000000 
K           0.711651000000000    0.855825000000000    0.274412000000000 
K           0.855825000000000    0.144175000000000    0.725588000000000 
K           0.855825000000000    0.711651000000000    0.725588000000000 
%ENDBLOCK POSITIONS_FRAC
