# Cell file generated by matador (Matthew Evans 2016)

%BLOCK LATTICE_CART
6.28965 0.0 0.0
-3.14483 5.447 0.0
0.0 0.0 11.6808
%ENDBLOCK LATTICE_CART

%BLOCK POSITIONS_FRAC
P           0.000000000000000    0.000000000000000    0.177967000000000 
P           0.000000000000000    0.000000000000000    0.787252000000000 
P           0.255012000000000    0.133826000000000    0.556797000000000 
P           0.333333000000000    0.666667000000000    0.112293000000000 
P           0.333333000000000    0.666667000000000    0.397795000000000 
P           0.333333000000000    0.666667000000000    0.505977000000000 
P           0.333333000000000    0.666667000000000    0.707005000000000 
P           0.333333000000000    0.666667000000000    0.936682000000000 
P           0.571903000000000    0.397604000000000    0.763862000000000 
P           0.602396000000000    0.174299000000000    0.763862000000000 
P           0.666667000000000    0.333333000000000    0.903309000000000 
P           0.825701000000000    0.428097000000000    0.763862000000000 
P           0.866174000000000    0.121185000000000    0.556797000000000 
P           0.878815000000000    0.744988000000000    0.556797000000000 
K           0.000000000000000    0.000000000000000    0.000808000000000 
K           0.666667000000000    0.333333000000000    0.308782000000000 
%ENDBLOCK POSITIONS_FRAC
