# Cell file generated by matador (Matthew Evans 2016)

%BLOCK LATTICE_CART
5.43458 0.0 0.0
0.0 6.76017 0.0
-4.17737 0.0 10.4077
%ENDBLOCK LATTICE_CART

%BLOCK POSITIONS_FRAC
P           0.029764000000000    0.335415000000000    0.223285000000000 
P           0.048717000000000    0.775133000000000    0.549652000000000 
P           0.091112000000000    0.197538000000000    0.995372000000000 
P           0.122527000000000    0.316184000000000    0.078191000000000 
P           0.377473000000000    0.816184000000000    0.921809000000000 
P           0.408888000000000    0.697538000000000    0.004628000000000 
P           0.451283000000000    0.275133000000000    0.450348000000000 
P           0.470236000000000    0.835415000000000    0.776715000000000 
P           0.529764000000000    0.835415000000000    0.223285000000000 
P           0.548717000000000    0.275133000000000    0.549652000000000 
P           0.591112000000000    0.697538000000000    0.995372000000000 
P           0.622527000000000    0.816184000000000    0.078191000000000 
P           0.877473000000000    0.316184000000000    0.921809000000000 
P           0.908888000000000    0.197538000000000    0.004628000000000 
P           0.951283000000000    0.775133000000000    0.450348000000000 
P           0.970236000000000    0.335415000000000    0.776715000000000 
K           0.000000000000000    0.229775000000000    0.500000000000000 
K           0.000000000000000    0.765525000000000    0.000000000000000 
K           0.500000000000000    0.265525000000000    0.000000000000000 
K           0.500000000000000    0.729775000000000    0.500000000000000 
%ENDBLOCK POSITIONS_FRAC
