# Cell file generated by matador (Matthew Evans 2016)

%BLOCK LATTICE_CART
6.64798 0.0 0.0
0.0 5.74777 0.0
2.27535 0.0 5.71158
%ENDBLOCK LATTICE_CART

%BLOCK POSITIONS_FRAC
P           0.171621000000000    0.130554000000000    0.254660000000000 
P           0.171621000000000    0.869446000000000    0.254660000000000 
P           0.859355000000000    0.272138000000000    0.014827000000000 
P           0.859355000000000    0.727862000000000    0.014827000000000 
K           0.352934000000000    0.500000000000000    0.802329000000000 
K           0.925869000000000    0.500000000000000    0.496669000000000 
K           0.929520000000000    0.000000000000000    0.539133000000000 
%ENDBLOCK POSITIONS_FRAC
