# Cell file generated by matador (Matthew Evans 2016)

%BLOCK LATTICE_CART
9.33224 0.0 0.0
-4.66612 8.08196 0.0
0.0 0.0 5.3066
%ENDBLOCK LATTICE_CART

%BLOCK POSITIONS_FRAC
P          -0.000000000000000    0.517243000000000    0.088993000000000 
P          -0.000000000000000    0.664587000000000    0.353165000000000 
P           0.335413000000000    0.335413000000000    0.353165000000000 
P           0.482757000000000    0.482757000000000    0.088993000000000 
P           0.517243000000000   -0.000000000000000    0.088993000000000 
P           0.664587000000000   -0.000000000000000    0.353165000000000 
K           0.146543000000000    0.442811000000000    0.399333000000000 
K           0.296268000000000    0.853457000000000    0.399333000000000 
K           0.333333000000000    0.666667000000000    0.162913000000000 
K           0.442811000000000    0.146543000000000    0.399333000000000 
K           0.557189000000000    0.703732000000000    0.399333000000000 
K           0.666667000000000    0.333333000000000    0.162913000000000 
K           0.703732000000000    0.557189000000000    0.399333000000000 
K           0.853457000000000    0.296268000000000    0.399333000000000 
%ENDBLOCK POSITIONS_FRAC
