# Cell file generated by matador (Matthew Evans 2016)

%BLOCK LATTICE_CART
4.5275 0.0 0.0
0.0 5.76981 0.0
-2.00566 0.0 3.87323
%ENDBLOCK LATTICE_CART

%BLOCK POSITIONS_FRAC
P           0.000000000000000    0.256913000000000    0.000000000000000 
P           0.110956000000000    0.873913000000000    0.931628000000000 
P           0.889044000000000    0.873913000000000    0.068372000000000 
K           0.500000000000000    0.363000000000000    0.500000000000000 
%ENDBLOCK POSITIONS_FRAC
