# Cell file generated by matador (Matthew Evans 2016)

%BLOCK LATTICE_CART
6.86784 0.0 0.0
-3.43392 5.94772 0.0
0.0 0.0 11.5497
%ENDBLOCK LATTICE_CART

%BLOCK POSITIONS_FRAC
P           0.000000000000000    0.000000000000000    0.133517000000000 
P           0.000000000000000    0.000000000000000    0.866483000000000 
P           0.333333000000000    0.666667000000000    0.000000000000000 
P           0.333333000000000    0.666667000000000    0.500000000000000 
P           0.666667000000000    0.333333000000000    0.000000000000000 
P           0.666667000000000    0.333333000000000    0.500000000000000 
K           0.000000000000000    0.530392000000000    0.409648000000000 
K           0.000000000000000    0.530392000000000    0.590352000000000 
K           0.333333000000000    0.666667000000000    0.257861000000000 
K           0.333333000000000    0.666667000000000    0.742139000000000 
K           0.469608000000000    0.469608000000000    0.409648000000000 
K           0.469608000000000    0.469608000000000    0.590352000000000 
K           0.530392000000000    0.000000000000000    0.409648000000000 
K           0.530392000000000    0.000000000000000    0.590352000000000 
K           0.666667000000000    0.333333000000000    0.257861000000000 
K           0.666667000000000    0.333333000000000    0.742139000000000 
%ENDBLOCK POSITIONS_FRAC
