# Cell file generated by matador (Matthew Evans 2016)

%BLOCK LATTICE_CART
8.8868 0.0 0.0
0.0 8.6322 0.0
1.53018 0.0 8.42698
%ENDBLOCK LATTICE_CART

%BLOCK POSITIONS_FRAC
P           0.105548000000000    0.299671000000000    0.559332000000000 
P           0.105548000000000    0.700329000000000    0.059332000000000 
P           0.894452000000000    0.299671000000000    0.940668000000000 
P           0.894452000000000    0.700329000000000    0.440668000000000 
K           0.000000000000000    0.000000000000000    0.000000000000000 
K           0.000000000000000    0.000000000000000    0.500000000000000 
K           0.000000000000000    0.253640000000000    0.250000000000000 
K           0.000000000000000    0.500000000000000    0.000000000000000 
K           0.000000000000000    0.500000000000000    0.500000000000000 
K           0.000000000000000    0.746360000000000    0.750000000000000 
K           0.500000000000000    0.000000000000000    0.000000000000000 
K           0.500000000000000    0.000000000000000    0.500000000000000 
K           0.500000000000000    0.242110000000000    0.250000000000000 
K           0.500000000000000    0.500000000000000    0.000000000000000 
K           0.500000000000000    0.500000000000000    0.500000000000000 
K           0.500000000000000    0.757890000000000    0.750000000000000 
%ENDBLOCK POSITIONS_FRAC
