# Cell file generated by matador (Matthew Evans 2016)

%BLOCK LATTICE_CART
4.94279 0.0 0.0
0.0 6.97358 0.0
0.0 0.0 9.95198
%ENDBLOCK LATTICE_CART

%BLOCK POSITIONS_FRAC
P           0.185147000000000    0.470770000000000    0.674449000000000 
P           0.185147000000000    0.529230000000000    0.174449000000000 
P           0.814853000000000    0.470770000000000    0.174449000000000 
P           0.814853000000000    0.529230000000000    0.674449000000000 
K           0.000000000000000    0.500000000000000    0.463185000000000 
K           0.000000000000000    0.500000000000000    0.963185000000000 
K           0.287924000000000    0.270761000000000    0.062709000000000 
K           0.287924000000000    0.729239000000000    0.562709000000000 
K           0.712076000000000    0.270761000000000    0.562709000000000 
K           0.712076000000000    0.729239000000000    0.062709000000000 
%ENDBLOCK POSITIONS_FRAC
