# Cell file generated by matador (Matthew Evans 2016)

%BLOCK LATTICE_CART
6.64834 0.0 0.0
0.0 6.64834 0.0
0.0 0.0 13.1543
%ENDBLOCK LATTICE_CART

%BLOCK POSITIONS_FRAC
P           0.000000000000000    0.000000000000000    0.404008000000000 
P           0.000000000000000    0.000000000000000    0.500000000000000 
P           0.000000000000000    0.000000000000000    0.595992000000000 
P           0.000000000000000    0.500000000000000    0.000000000000000 
P           0.000000000000000    0.500000000000000    0.500000000000000 
P           0.212716000000000    0.212716000000000    0.000000000000000 
P           0.287284000000000    0.712716000000000    0.500000000000000 
P           0.500000000000000    0.000000000000000    0.000000000000000 
P           0.500000000000000    0.000000000000000    0.500000000000000 
P           0.500000000000000    0.500000000000000    0.000000000000000 
P           0.500000000000000    0.500000000000000    0.095992000000000 
P           0.500000000000000    0.500000000000000    0.904008000000000 
P           0.712716000000000    0.287284000000000    0.500000000000000 
P           0.787284000000000    0.787284000000000    0.000000000000000 
K           0.000000000000000    0.000000000000000    0.000000000000000 
K           0.500000000000000    0.500000000000000    0.500000000000000 
%ENDBLOCK POSITIONS_FRAC
