# Cell file generated by matador (Matthew Evans 2016)

%BLOCK LATTICE_CART
8.64418 0.0 0.0
-4.32209 7.48608 0.0
0.0 0.0 5.57702
%ENDBLOCK LATTICE_CART

%BLOCK POSITIONS_FRAC
P           0.000000000000000    0.000000000000000    0.500000000000000 
P           0.333333000000000    0.666667000000000    0.007380000000000 
P           0.333333000000000    0.666667000000000    0.446619000000000 
P           0.666667000000000    0.333333000000000    0.553381000000000 
P           0.666667000000000    0.333333000000000    0.992620000000000 
K           0.000000000000000    0.500000000000000    0.000000000000000 
K           0.000000000000000    0.500000000000000    0.500000000000000 
K           0.500000000000000    0.000000000000000    0.000000000000000 
K           0.500000000000000    0.000000000000000    0.500000000000000 
K           0.500000000000000    0.500000000000000    0.000000000000000 
K           0.500000000000000    0.500000000000000    0.500000000000000 
%ENDBLOCK POSITIONS_FRAC
