# Cell file generated by matador (Matthew Evans 2016)

%BLOCK LATTICE_CART
9.74674 0.0 0.0
-4.87337 8.44093 0.0
0.0 0.0 5.96788
%ENDBLOCK LATTICE_CART

%BLOCK POSITIONS_FRAC
P           0.000000000000000    0.000000000000000    0.500000000000000 
P           0.000000000000000    0.500000000000000    0.500000000000000 
P           0.054590000000000    0.109604000000000    0.582111000000000 
P           0.055014000000000    0.945410000000000    0.582111000000000 
P           0.109604000000000    0.055014000000000    0.417889000000000 
P           0.500000000000000    0.000000000000000    0.500000000000000 
P           0.500000000000000    0.500000000000000    0.500000000000000 
P           0.890396000000000    0.944986000000000    0.582111000000000 
P           0.944986000000000    0.054590000000000    0.417889000000000 
P           0.945410000000000    0.890396000000000    0.417889000000000 
K           0.000000000000000    0.000000000000000    0.000000000000000 
K           0.000000000000000    0.500000000000000    0.000000000000000 
K           0.500000000000000    0.000000000000000    0.000000000000000 
K           0.500000000000000    0.500000000000000    0.000000000000000 
%ENDBLOCK POSITIONS_FRAC
