# Cell file generated by matador (Matthew Evans 2016)

%BLOCK LATTICE_CART
7.60407 0.0 0.0
-3.80204 6.58532 0.0
0.0 0.0 7.85487
%ENDBLOCK LATTICE_CART

%BLOCK POSITIONS_FRAC
P           0.000000000000000    0.000000000000000    0.279202000000000 
P           0.000000000000000    0.000000000000000    0.500000000000000 
P           0.000000000000000    0.000000000000000    0.720798000000000 
P           0.333333000000000    0.666667000000000    0.166667000000000 
P           0.333333000000000    0.666667000000000    0.387465000000000 
P           0.333333000000000    0.666667000000000    0.945869000000000 
P           0.666667000000000    0.333333000000000    0.054131000000000 
P           0.666667000000000    0.333333000000000    0.612535000000000 
P           0.666667000000000    0.333333000000000    0.833333000000000 
K           0.000000000000000    0.000000000000000    0.000000000000000 
K           0.333333000000000    0.666667000000000    0.666667000000000 
K           0.666667000000000    0.333333000000000    0.333333000000000 
%ENDBLOCK POSITIONS_FRAC
