# Cell file generated by matador (Matthew Evans 2016)

%BLOCK LATTICE_CART
7.12527 0.0 0.0
0.0 7.12527 0.0
0.0 0.0 13.616
%ENDBLOCK LATTICE_CART

%BLOCK POSITIONS_FRAC
P           0.000000000000000    0.000000000000000    0.000000000000000 
P           0.000000000000000    0.000000000000000    0.328656000000000 
P           0.000000000000000    0.000000000000000    0.671344000000000 
P           0.000000000000000    0.280691000000000    0.500000000000000 
P           0.000000000000000    0.719309000000000    0.500000000000000 
P           0.219309000000000    0.500000000000000    0.000000000000000 
P           0.280691000000000    0.000000000000000    0.500000000000000 
P           0.500000000000000    0.219309000000000    0.000000000000000 
P           0.500000000000000    0.500000000000000    0.171344000000000 
P           0.500000000000000    0.500000000000000    0.500000000000000 
P           0.500000000000000    0.500000000000000    0.828656000000000 
P           0.500000000000000    0.780691000000000    0.000000000000000 
P           0.719309000000000    0.000000000000000    0.500000000000000 
P           0.780691000000000    0.500000000000000    0.000000000000000 
K           0.000000000000000    0.000000000000000    0.500000000000000 
K           0.000000000000000    0.500000000000000    0.250000000000000 
K           0.000000000000000    0.500000000000000    0.750000000000000 
K           0.500000000000000    0.000000000000000    0.250000000000000 
K           0.500000000000000    0.000000000000000    0.750000000000000 
K           0.500000000000000    0.500000000000000    0.000000000000000 
%ENDBLOCK POSITIONS_FRAC
