# Cell file generated by matador (Matthew Evans 2016)

%BLOCK LATTICE_CART
8.55204 0.0 0.0
0.0 7.91613 0.0
0.0 0.0 8.87123
%ENDBLOCK LATTICE_CART

%BLOCK POSITIONS_FRAC
P           0.000000000000000    0.000000000000000    0.081800000000000 
P           0.000000000000000    0.000000000000000    0.870883000000000 
P           0.000000000000000    0.500000000000000    0.879286000000000 
P           0.500000000000000    0.000000000000000    0.379286000000000 
P           0.500000000000000    0.500000000000000    0.370883000000000 
P           0.500000000000000    0.500000000000000    0.581800000000000 
K           0.000000000000000    0.500000000000000    0.487223000000000 
K           0.167190000000000    0.348599000000000    0.241863000000000 
K           0.167190000000000    0.651401000000000    0.241863000000000 
K           0.332810000000000    0.151401000000000    0.741863000000000 
K           0.332810000000000    0.848599000000000    0.741863000000000 
K           0.500000000000000    0.000000000000000    0.987223000000000 
K           0.667190000000000    0.151401000000000    0.741863000000000 
K           0.667190000000000    0.848599000000000    0.741863000000000 
K           0.832810000000000    0.348599000000000    0.241863000000000 
K           0.832810000000000    0.651401000000000    0.241863000000000 
%ENDBLOCK POSITIONS_FRAC
