# Cell file generated by matador (Matthew Evans 2016)

%BLOCK LATTICE_CART
5.9842 0.0 0.0
-2.9921 5.18247 0.0
0.0 0.0 6.40099
%ENDBLOCK LATTICE_CART

%BLOCK POSITIONS_FRAC
P          -0.000000000000000    0.500000000000000    0.294039000000000 
P           0.500000000000000    0.000000000000000    0.294039000000000 
P           0.500000000000000    0.500000000000000    0.294039000000000 
K          -0.000000000000000    0.000000000000000    0.115296000000000 
K          -0.000000000000000    0.500000000000000    0.823291000000000 
K           0.500000000000000    0.000000000000000    0.823291000000000 
K           0.500000000000000    0.500000000000000    0.823291000000000 
%ENDBLOCK POSITIONS_FRAC
