# Cell file generated by matador (Matthew Evans 2016)

%BLOCK LATTICE_CART
6.00465 0.0 0.0
0.0 8.49096 0.0
0.0 0.0 6.80969
%ENDBLOCK LATTICE_CART

%BLOCK POSITIONS_FRAC
P           0.243208000000000    0.116680000000000    0.932603000000000 
P           0.243208000000000    0.883320000000000    0.432603000000000 
P           0.302998000000000    0.206407000000000    0.184821000000000 
P           0.302998000000000    0.793593000000000    0.684821000000000 
P           0.500000000000000    0.464142000000000    0.529582000000000 
P           0.500000000000000    0.535858000000000    0.029582000000000 
P           0.697002000000000    0.206407000000000    0.184821000000000 
P           0.697002000000000    0.793593000000000    0.684821000000000 
P           0.756792000000000    0.116680000000000    0.932603000000000 
P           0.756792000000000    0.883320000000000    0.432603000000000 
K           0.500000000000000    0.317382000000000    0.784489000000000 
K           0.500000000000000    0.682618000000000    0.284489000000000 
%ENDBLOCK POSITIONS_FRAC
