# Cell file generated by matador (Matthew Evans 2016)

%BLOCK LATTICE_CART
11.0811 0.0 0.0
-5.54057 9.59654 0.0
0.0 0.0 9.06483
%ENDBLOCK LATTICE_CART

%BLOCK POSITIONS_FRAC
P           0.000000000000000    0.297814000000000    0.017604000000000 
P           0.000000000000000    0.702186000000000    0.517604000000000 
P           0.297814000000000    0.000000000000000    0.017604000000000 
P           0.297814000000000    0.297814000000000    0.517604000000000 
P           0.702186000000000    0.000000000000000    0.517604000000000 
P           0.702186000000000    0.702186000000000    0.017604000000000 
K           0.000000000000000    0.217602000000000    0.308148000000000 
K           0.000000000000000    0.305884000000000    0.764894000000000 
K           0.000000000000000    0.488868000000000    0.031678000000000 
K           0.000000000000000    0.511132000000000    0.531678000000000 
K           0.000000000000000    0.694116000000000    0.264894000000000 
K           0.000000000000000    0.782398000000000    0.808148000000000 
K           0.217602000000000    0.000000000000000    0.308148000000000 
K           0.217602000000000    0.217602000000000    0.808148000000000 
K           0.305884000000000    0.000000000000000    0.764894000000000 
K           0.305884000000000    0.305884000000000    0.264894000000000 
K           0.488868000000000    0.000000000000000    0.031678000000000 
K           0.488868000000000    0.488868000000000    0.531678000000000 
K           0.511132000000000    0.000000000000000    0.531678000000000 
K           0.511132000000000    0.511132000000000    0.031678000000000 
K           0.694116000000000    0.000000000000000    0.264894000000000 
K           0.694116000000000    0.694116000000000    0.764894000000000 
K           0.782398000000000    0.000000000000000    0.808148000000000 
K           0.782398000000000    0.782398000000000    0.308148000000000 
%ENDBLOCK POSITIONS_FRAC
