# Cell file generated by matador (Matthew Evans 2016)

%BLOCK LATTICE_CART
4.76822 0.0 0.0
0.0 4.76822 0.0
0.0 0.0 13.3586
%ENDBLOCK LATTICE_CART

%BLOCK POSITIONS_FRAC
P           0.000000000000000    0.500000000000000    0.111187000000000 
P           0.500000000000000    0.000000000000000    0.888813000000000 
K           0.000000000000000    0.000000000000000    0.000000000000000 
K           0.000000000000000    0.000000000000000    0.500000000000000 
K           0.000000000000000    0.500000000000000    0.356717000000000 
K           0.500000000000000    0.000000000000000    0.643283000000000 
K           0.500000000000000    0.500000000000000    0.000000000000000 
K           0.500000000000000    0.500000000000000    0.500000000000000 
%ENDBLOCK POSITIONS_FRAC
