# Cell file generated by matador (Matthew Evans 2016)

%BLOCK LATTICE_CART
7.97363 0.0 0.0
-3.98681 6.90536 0.0
0.0 0.0 7.04258
%ENDBLOCK LATTICE_CART

%BLOCK POSITIONS_FRAC
P           0.000000000000000    0.000000000000000    0.283986000000000 
P           0.000000000000000    0.000000000000000    0.500000000000000 
P           0.000000000000000    0.000000000000000    0.716014000000000 
P           0.666667000000000    0.333333000000000    0.283986000000000 
P           0.666667000000000    0.333333000000000    0.500000000000000 
P           0.666667000000000    0.333333000000000    0.716014000000000 
K           0.000000000000000    0.000000000000000    0.000000000000000 
K           0.284382000000000    0.205848000000000    0.000000000000000 
K           0.666667000000000    0.333333000000000    0.000000000000000 
K           0.794152000000000    0.078534000000000    0.000000000000000 
K           0.921466000000000    0.715618000000000    0.000000000000000 
%ENDBLOCK POSITIONS_FRAC
