# Cell file generated by matador (Matthew Evans 2016)

%BLOCK LATTICE_CART
9.37309 0.0 0.0
0.0 12.1386 0.0
-3.32528 0.0 5.82475
%ENDBLOCK LATTICE_CART

%BLOCK POSITIONS_FRAC
P           0.314782000000000    0.385074000000000    0.596697000000000 
P           0.314782000000000    0.614926000000000    0.096697000000000 
P           0.685218000000000    0.385074000000000    0.903303000000000 
P           0.685218000000000    0.614926000000000    0.403303000000000 
K           0.000000000000000    0.000000000000000    0.000000000000000 
K           0.000000000000000    0.000000000000000    0.500000000000000 
K           0.000000000000000    0.206046000000000    0.750000000000000 
K           0.000000000000000    0.500000000000000    0.000000000000000 
K           0.000000000000000    0.500000000000000    0.500000000000000 
K           0.000000000000000    0.793954000000000    0.250000000000000 
K           0.500000000000000    0.000000000000000    0.000000000000000 
K           0.500000000000000    0.000000000000000    0.500000000000000 
K           0.500000000000000    0.224182000000000    0.250000000000000 
K           0.500000000000000    0.500000000000000    0.000000000000000 
K           0.500000000000000    0.500000000000000    0.500000000000000 
K           0.500000000000000    0.775818000000000    0.750000000000000 
%ENDBLOCK POSITIONS_FRAC
