# Cell file generated by matador (Matthew Evans 2016)

%BLOCK LATTICE_CART
7.51676 -0.0 0.0
-3.75838 6.50971 0.0
0.0 0.0 6.1816
%ENDBLOCK LATTICE_CART

%BLOCK POSITIONS_FRAC
P           0.000000000000000    0.000000000000000    0.107591000000000 
P           0.120127000000000    0.541405000000000    0.875783000000000 
P           0.421278000000000    0.879873000000000    0.875783000000000 
P           0.458595000000000    0.578722000000000    0.875783000000000 
K           0.000000000000000    0.000000000000000    0.772923000000000 
K           0.126177000000000    0.447680000000000    0.493606000000000 
K           0.321503000000000    0.873823000000000    0.493606000000000 
K           0.552320000000000    0.678497000000000    0.493606000000000 
K           0.666667000000000    0.333333000000000    0.344423000000000 
%ENDBLOCK POSITIONS_FRAC
