# Cell file generated by matador (Matthew Evans 2016)

%BLOCK LATTICE_CART
9.34597 0.0 0.0
-4.67298 8.09385 0.0
0.0 0.0 6.47604
%ENDBLOCK LATTICE_CART

%BLOCK POSITIONS_FRAC
P           0.333332000000000    0.666666000000000    0.185007000000000 
P           0.666666000000000    0.333332000000000    0.185007000000000 
K           0.999999000000000    0.999999000000000    0.521450000000000 
K           0.999999000000000    0.499999000000000    0.008210000000000 
K           0.111159000000000    0.314339000000000    0.200851000000000 
K           0.203179000000000    0.888839000000000    0.200851000000000 
K           0.314339000000000    0.203179000000000    0.200851000000000 
K           0.499999000000000    0.999999000000000    0.008210000000000 
K           0.499999000000000    0.499999000000000    0.008210000000000 
K           0.685659000000000    0.796819000000000    0.200851000000000 
K           0.796819000000000    0.111159000000000    0.200851000000000 
K           0.888839000000000    0.685659000000000    0.200851000000000 
%ENDBLOCK POSITIONS_FRAC
