# Cell file generated by matador (Matthew Evans 2016)

%BLOCK LATTICE_CART
7.78176 0.0 0.0
0.0 8.44863 0.0
-0.0284121 0.0 6.58987
%ENDBLOCK LATTICE_CART

%BLOCK POSITIONS_FRAC
P           0.191441000000000    0.500000000000000    0.612147000000000 
P           0.483784000000000    0.500000000000000    0.919568000000000 
P           0.539909000000000    0.000000000000000    0.235713000000000 
P           0.630110000000000    0.500000000000000    0.135890000000000 
P           0.646906000000000    0.500000000000000    0.712182000000000 
P           0.791789000000000    0.000000000000000    0.565601000000000 
P           0.913067000000000    0.500000000000000    0.061908000000000 
P           0.928955000000000    0.000000000000000    0.651612000000000 
P           0.957434000000000    0.000000000000000    0.907713000000000 
K           0.218062000000000    0.000000000000000    0.069276000000000 
K           0.237534000000000    0.500000000000000    0.190019000000000 
K           0.839002000000000    0.341875000000000    0.627674000000000 
K           0.839002000000000    0.658125000000000    0.627674000000000 
K           0.985909000000000    0.241265000000000    0.156016000000000 
K           0.985909000000000    0.758735000000000    0.156016000000000 
%ENDBLOCK POSITIONS_FRAC
