# Cell file generated by matador (Matthew Evans 2016)

%BLOCK LATTICE_CART
5.88977 0.0 0.0
0.0 14.9103 0.0
0.0 0.0 10.2503
%ENDBLOCK LATTICE_CART

%BLOCK POSITIONS_FRAC
P           0.000000000000000    0.368146000000000    0.654876000000000 
P           0.226377000000000    0.660105000000000    0.459218000000000 
P           0.273623000000000    0.339895000000000    0.959218000000000 
P           0.500000000000000    0.631854000000000    0.154876000000000 
P           0.726377000000000    0.339895000000000    0.959218000000000 
P           0.773623000000000    0.660105000000000    0.459218000000000 
K           0.000000000000000    0.078787000000000    0.569410000000000 
K           0.000000000000000    0.135728000000000    0.283098000000000 
K           0.000000000000000    0.155392000000000    0.964243000000000 
K           0.000000000000000    0.311372000000000    0.463724000000000 
K           0.000000000000000    0.515367000000000    0.591276000000000 
K           0.000000000000000    0.534548000000000    0.176633000000000 
K           0.000000000000000    0.626771000000000    0.881912000000000 
K           0.000000000000000    0.842499000000000    0.172730000000000 
K           0.000000000000000    0.895614000000000    0.723845000000000 
K           0.500000000000000    0.104386000000000    0.223845000000000 
K           0.500000000000000    0.157501000000000    0.672730000000000 
K           0.500000000000000    0.373229000000000    0.381912000000000 
K           0.500000000000000    0.465452000000000    0.676633000000000 
K           0.500000000000000    0.484633000000000    0.091276000000000 
K           0.500000000000000    0.688628000000000    0.963724000000000 
K           0.500000000000000    0.844608000000000    0.464243000000000 
K           0.500000000000000    0.864272000000000    0.783098000000000 
K           0.500000000000000    0.921213000000000    0.069410000000000 
%ENDBLOCK POSITIONS_FRAC
