# Cell file generated by matador (Matthew Evans 2016)

%BLOCK LATTICE_CART
11.0481 0.0 0.0
-5.52407 9.56798 0.0
0.0 0.0 7.98765
%ENDBLOCK LATTICE_CART

%BLOCK POSITIONS_FRAC
P           0.000000000000000    0.000000000000000    0.500000000000000 
P           0.333333000000000    0.666667000000000    0.490985000000000 
P           0.333333000000000    0.666667000000000    0.968625000000000 
P           0.666667000000000    0.333333000000000    0.031375000000000 
P           0.666667000000000    0.333333000000000    0.509015000000000 
K           0.000000000000000    0.500000000000000    0.500000000000000 
K           0.158812000000000    0.317625000000000    0.763272000000000 
K           0.158812000000000    0.841188000000000    0.763272000000000 
K           0.234919000000000    0.469839000000000    0.327614000000000 
K           0.234919000000000    0.765081000000000    0.327614000000000 
K           0.317625000000000    0.158812000000000    0.236728000000000 
K           0.469839000000000    0.234919000000000    0.672386000000000 
K           0.500000000000000    0.000000000000000    0.500000000000000 
K           0.500000000000000    0.500000000000000    0.500000000000000 
K           0.530161000000000    0.765081000000000    0.327614000000000 
K           0.682375000000000    0.841188000000000    0.763272000000000 
K           0.765081000000000    0.234919000000000    0.672386000000000 
K           0.765081000000000    0.530161000000000    0.672386000000000 
K           0.841188000000000    0.158812000000000    0.236728000000000 
K           0.841188000000000    0.682375000000000    0.236728000000000 
%ENDBLOCK POSITIONS_FRAC
