# Cell file generated by matador (Matthew Evans 2016)

%BLOCK LATTICE_CART
6.3888 0.0 0.0
0.0 7.76562 0.0
0.825576 0.0 9.87295
%ENDBLOCK LATTICE_CART

%BLOCK POSITIONS_FRAC
P           0.000000000000000    0.000000000000000    0.000000000000000 
P           0.000000000000000    0.500000000000000    0.000000000000000 
P           0.060480000000000    0.593730000000000    0.162428000000000 
P           0.060480000000000    0.906270000000000    0.162428000000000 
P           0.266089000000000    0.176611000000000    0.816904000000000 
P           0.266089000000000    0.323389000000000    0.816904000000000 
P           0.266648000000000    0.750000000000000    0.073533000000000 
P           0.350293000000000    0.750000000000000    0.730310000000000 
P           0.448037000000000    0.250000000000000    0.538599000000000 
P           0.551963000000000    0.750000000000000    0.461401000000000 
P           0.649707000000000    0.250000000000000    0.269690000000000 
P           0.733352000000000    0.250000000000000    0.926467000000000 
P           0.733911000000000    0.676611000000000    0.183096000000000 
P           0.733911000000000    0.823389000000000    0.183096000000000 
P           0.939520000000000    0.093730000000000    0.837572000000000 
P           0.939520000000000    0.406270000000000    0.837572000000000 
K           0.381444000000000    0.109641000000000    0.332959000000000 
K           0.381444000000000    0.390359000000000    0.332959000000000 
K           0.618556000000000    0.609641000000000    0.667041000000000 
K           0.618556000000000    0.890359000000000    0.667041000000000 
%ENDBLOCK POSITIONS_FRAC
