# Cell file generated by matador (Matthew Evans 2016)

%BLOCK LATTICE_CART
8.85774 0.0 0.0
0.0 8.85774 0.0
0.0 0.0 12.1004
%ENDBLOCK LATTICE_CART

%BLOCK POSITIONS_FRAC
P           0.000000000000000    0.000000000000000    0.250000000000000 
P           0.000000000000000    0.000000000000000    0.750000000000000 
P           0.000000000000000    0.500000000000000    0.500000000000000 
P           0.500000000000000    0.000000000000000    0.000000000000000 
P           0.500000000000000    0.500000000000000    0.250000000000000 
P           0.500000000000000    0.500000000000000    0.750000000000000 
K           0.000000000000000    0.238787000000000    0.201332000000000 
K           0.000000000000000    0.238787000000000    0.798668000000000 
K           0.000000000000000    0.761213000000000    0.201332000000000 
K           0.000000000000000    0.761213000000000    0.798668000000000 
K           0.229424000000000    0.500000000000000    0.207718000000000 
K           0.229424000000000    0.500000000000000    0.792282000000000 
K           0.238787000000000    0.000000000000000    0.298668000000000 
K           0.238787000000000    0.000000000000000    0.701332000000000 
K           0.500000000000000    0.229424000000000    0.292282000000000 
K           0.500000000000000    0.229424000000000    0.707718000000000 
K           0.500000000000000    0.500000000000000    0.000000000000000 
K           0.500000000000000    0.500000000000000    0.500000000000000 
K           0.500000000000000    0.770576000000000    0.292282000000000 
K           0.500000000000000    0.770576000000000    0.707718000000000 
K           0.761213000000000    0.000000000000000    0.298668000000000 
K           0.761213000000000    0.000000000000000    0.701332000000000 
K           0.770576000000000    0.500000000000000    0.207718000000000 
K           0.770576000000000    0.500000000000000    0.792282000000000 
%ENDBLOCK POSITIONS_FRAC
