# Cell file generated by matador (Matthew Evans 2016)

%BLOCK LATTICE_CART
6.81697 0.0 0.0
-3.40848 5.90367 0.0
0.0 0.0 12.9856
%ENDBLOCK LATTICE_CART

%BLOCK POSITIONS_FRAC
P           0.331849000000000    0.159060000000000    0.851403000000000 
P           0.331849000000000    0.172789000000000    0.351403000000000 
P           0.666667000000000    0.333333000000000    0.489511000000000 
P           0.666667000000000    0.333333000000000    0.989511000000000 
P           0.827211000000000    0.159060000000000    0.351403000000000 
P           0.827211000000000    0.668151000000000    0.851403000000000 
P           0.840940000000000    0.172789000000000    0.851403000000000 
P           0.840940000000000    0.668151000000000    0.351403000000000 
K           0.000000000000000    0.000000000000000    0.279134000000000 
K           0.000000000000000    0.000000000000000    0.450336000000000 
K           0.000000000000000    0.000000000000000    0.779134000000000 
K           0.000000000000000    0.000000000000000    0.950336000000000 
K           0.097753000000000    0.495274000000000    0.713246000000000 
K           0.097753000000000    0.602479000000000    0.213246000000000 
K           0.333333000000000    0.666667000000000    0.425913000000000 
K           0.333333000000000    0.666667000000000    0.925913000000000 
K           0.397521000000000    0.495274000000000    0.213246000000000 
K           0.397521000000000    0.902247000000000    0.713246000000000 
K           0.504726000000000    0.602479000000000    0.713246000000000 
K           0.504726000000000    0.902247000000000    0.213246000000000 
%ENDBLOCK POSITIONS_FRAC
