# Cell file generated by matador (Matthew Evans 2016)

%BLOCK LATTICE_CART
7.55574 0.0 0.0
-3.77787 6.54346 0.0
0.0 0.0 9.68157
%ENDBLOCK LATTICE_CART

%BLOCK POSITIONS_FRAC
P           0.118483000000000    0.391384000000000    0.194891000000000 
P           0.118483000000000    0.727098000000000    0.194891000000000 
P           0.272902000000000    0.391384000000000    0.194891000000000 
P           0.272902000000000    0.881517000000000    0.194891000000000 
P           0.391384000000000    0.118483000000000    0.194891000000000 
P           0.391384000000000    0.272902000000000    0.194891000000000 
P           0.608616000000000    0.727098000000000    0.194891000000000 
P           0.608616000000000    0.881517000000000    0.194891000000000 
P           0.727098000000000    0.118483000000000    0.194891000000000 
P           0.727098000000000    0.608616000000000    0.194891000000000 
P           0.881517000000000    0.272902000000000    0.194891000000000 
P           0.881517000000000    0.608616000000000    0.194891000000000 
K           0.000000000000000    0.500000000000000    0.888081000000000 
K           0.500000000000000    0.000000000000000    0.888081000000000 
K           0.500000000000000    0.500000000000000    0.888081000000000 
%ENDBLOCK POSITIONS_FRAC
