# Cell file generated by matador (Matthew Evans 2016)

%BLOCK LATTICE_CART
8.23324 0.0 0.0
0.0 7.80658 0.0
2.19258 0.0 10.8231
%ENDBLOCK LATTICE_CART

%BLOCK POSITIONS_FRAC
P           0.133813000000000    0.317714000000000    0.628324000000000 
P           0.133813000000000    0.682286000000000    0.628324000000000 
P           0.896744000000000    0.289351000000000    0.988524000000000 
P           0.896744000000000    0.710649000000000    0.988524000000000 
K           0.026716000000000    0.500000000000000    0.117998000000000 
K           0.095519000000000    0.000000000000000    0.994076000000000 
K           0.183955000000000    0.000000000000000    0.597881000000000 
K           0.282312000000000    0.500000000000000    0.366594000000000 
K           0.325246000000000    0.500000000000000    0.729875000000000 
K           0.536634000000000    0.500000000000000    0.034885000000000 
K           0.592530000000000    0.500000000000000    0.488071000000000 
K           0.614901000000000    0.000000000000000    0.456199000000000 
K           0.741000000000000    0.000000000000000    0.148123000000000 
K           0.814158000000000    0.000000000000000    0.797649000000000 
K           0.935064000000000    0.500000000000000    0.781365000000000 
K           0.995393000000000    0.000000000000000    0.336867000000000 
%ENDBLOCK POSITIONS_FRAC
