# Cell file generated by matador (Matthew Evans 2016)

%BLOCK LATTICE_CART
7.93611 0.0 0.0
0.0 7.93611 0.0
0.0 0.0 7.7119
%ENDBLOCK LATTICE_CART

%BLOCK POSITIONS_FRAC
P           0.176146000000000    0.323854000000000    0.500000000000000 
P           0.176146000000000    0.676146000000000   -0.000000000000000 
P           0.323854000000000    0.176146000000000   -0.000000000000000 
P           0.323854000000000    0.823854000000000    0.500000000000000 
P           0.676146000000000    0.176146000000000    0.500000000000000 
P           0.676146000000000    0.823854000000000   -0.000000000000000 
P           0.823854000000000    0.323854000000000   -0.000000000000000 
P           0.823854000000000    0.676146000000000    0.500000000000000 
K           0.000000000000000    0.000000000000000   -0.000000000000000 
K           0.000000000000000    0.000000000000000    0.500000000000000 
K           0.000000000000000    0.500000000000000    0.250000000000000 
K           0.000000000000000    0.500000000000000    0.750000000000000 
K           0.500000000000000    0.000000000000000    0.250000000000000 
K           0.500000000000000    0.000000000000000    0.750000000000000 
K           0.500000000000000    0.500000000000000   -0.000000000000000 
K           0.500000000000000    0.500000000000000    0.500000000000000 
%ENDBLOCK POSITIONS_FRAC
