# Cell file generated by matador (Matthew Evans 2016)

%BLOCK LATTICE_CART
9.74075 0.0 0.0
-4.87038 8.43574 0.0
0.0 0.0 16.0674
%ENDBLOCK LATTICE_CART

%BLOCK POSITIONS_FRAC
P           0.000000000000000    0.000000000000000    0.164113000000000 
P           0.000000000000000    0.000000000000000    0.335887000000000 
P           0.000000000000000    0.000000000000000    0.664113000000000 
P           0.000000000000000    0.000000000000000    0.835887000000000 
P           0.333333000000000    0.666667000000000    0.078581000000000 
P           0.333333000000000    0.666667000000000    0.421419000000000 
P           0.333333000000000    0.666667000000000    0.578581000000000 
P           0.333333000000000    0.666667000000000    0.921419000000000 
K           0.071319000000000    0.510689000000000    0.750000000000000 
K           0.071319000000000    0.560629000000000    0.250000000000000 
K           0.096703000000000    0.266644000000000    0.250000000000000 
K           0.096703000000000    0.830059000000000    0.750000000000000 
K           0.169941000000000    0.266644000000000    0.750000000000000 
K           0.169941000000000    0.903297000000000    0.250000000000000 
K           0.439371000000000    0.510689000000000    0.250000000000000 
K           0.439371000000000    0.928681000000000    0.750000000000000 
K           0.465144000000000    0.220821000000000    0.250000000000000 
K           0.465144000000000    0.244323000000000    0.750000000000000 
K           0.489311000000000    0.560629000000000    0.750000000000000 
K           0.489311000000000    0.928681000000000    0.250000000000000 
K           0.559984000000000    0.119969000000000    0.000000000000000 
K           0.559984000000000    0.119969000000000    0.500000000000000 
K           0.559984000000000    0.440016000000000    0.000000000000000 
K           0.559984000000000    0.440016000000000    0.500000000000000 
K           0.733356000000000    0.830059000000000    0.250000000000000 
K           0.733356000000000    0.903297000000000    0.750000000000000 
K           0.755677000000000    0.220821000000000    0.750000000000000 
K           0.755677000000000    0.534856000000000    0.250000000000000 
K           0.779179000000000    0.244323000000000    0.250000000000000 
K           0.779179000000000    0.534856000000000    0.750000000000000 
K           0.880031000000000    0.440016000000000    0.000000000000000 
K           0.880031000000000    0.440016000000000    0.500000000000000 
%ENDBLOCK POSITIONS_FRAC
