# Cell file generated by matador (Matthew Evans 2016)

%BLOCK LATTICE_CART
8.20442 0.0 0.0
0.0 8.78009 0.0
1.04294 0.0 7.79465
%ENDBLOCK LATTICE_CART

%BLOCK POSITIONS_FRAC
P           0.173832000000000    0.455200000000000    0.152130000000000 
P           0.173832000000000    0.544800000000000    0.652130000000000 
P           0.826168000000000    0.455200000000000    0.347870000000000 
P           0.826168000000000    0.544800000000000    0.847870000000000 
K           0.000000000000000    0.000000000000000   -0.000000000000000 
K           0.000000000000000    0.000000000000000    0.500000000000000 
K           0.000000000000000    0.249368000000000    0.250000000000000 
K           0.000000000000000    0.500000000000000   -0.000000000000000 
K           0.000000000000000    0.500000000000000    0.500000000000000 
K           0.000000000000000    0.750632000000000    0.750000000000000 
K           0.500000000000000    0.000000000000000   -0.000000000000000 
K           0.500000000000000    0.000000000000000    0.500000000000000 
K           0.500000000000000    0.249783000000000    0.750000000000000 
K           0.500000000000000    0.500000000000000   -0.000000000000000 
K           0.500000000000000    0.500000000000000    0.500000000000000 
K           0.500000000000000    0.750217000000000    0.250000000000000 
%ENDBLOCK POSITIONS_FRAC
