# Cell file generated by matador (Matthew Evans 2016)

%BLOCK LATTICE_CART
4.7687 0.0 0.0
-2.38435 4.12981 0.0
0.0 0.0 6.89731
%ENDBLOCK LATTICE_CART

%BLOCK POSITIONS_FRAC
P           0.000000000000000    0.000000000000000    0.500000000000000 
P           0.199220000000000    0.398440000000000    0.500000000000000 
P           0.199220000000000    0.800780000000000    0.500000000000000 
P           0.601560000000000    0.800780000000000    0.500000000000000 
P           0.666667000000000    0.333333000000000    0.000000000000000 
K           0.000000000000000    0.000000000000000    0.000000000000000 
K           0.333333000000000    0.666667000000000    0.000000000000000 
%ENDBLOCK POSITIONS_FRAC
