# Cell file generated by matador (Matthew Evans 2016)

%BLOCK LATTICE_CART
8.19759 0.0 0.0
-4.0988 7.09932 0.0
0.0 0.0 8.01796
%ENDBLOCK LATTICE_CART

%BLOCK POSITIONS_FRAC
P          -0.000000000000000    0.000000000000000    0.000000000000000 
P           0.029758000000000    0.143523000000000    0.748645000000000 
P           0.029758000000000    0.886236000000000    0.251355000000000 
P           0.089135000000000    0.178271000000000    0.500000000000000 
P           0.089135000000000    0.910865000000000    0.500000000000000 
P           0.113764000000000    0.143523000000000    0.251355000000000 
P           0.113764000000000    0.970242000000000    0.748645000000000 
P           0.333333000000000    0.666667000000000    0.500000000000000 
P           0.666666000000000    0.333334000000000    0.000000000000000 
P           0.821729000000000    0.910865000000000    0.500000000000000 
P           0.856477000000000    0.886236000000000    0.748645000000000 
P           0.856477000000000    0.970242000000000    0.251355000000000 
K           0.333333000000000    0.666667000000000    0.000000000000000 
K           0.666666000000000    0.333334000000000    0.500000000000000 
%ENDBLOCK POSITIONS_FRAC
