# Cell file generated by matador (Matthew Evans 2016)

%BLOCK LATTICE_CART
6.61042 0.0 0.0
-3.30521 5.72479 0.0
0.0 0.0 8.14733
%ENDBLOCK LATTICE_CART

%BLOCK POSITIONS_FRAC
P           0.012585000000000    0.646056000000000    0.250000000000000 
P           0.353944000000000    0.366529000000000    0.250000000000000 
P           0.366529000000000    0.353944000000000    0.750000000000000 
P           0.633471000000000    0.987415000000000    0.250000000000000 
P           0.646056000000000    0.012585000000000    0.750000000000000 
P           0.987415000000000    0.633471000000000    0.750000000000000 
K          -0.000000000000000   -0.000000000000000    0.250000000000000 
K          -0.000000000000000   -0.000000000000000    0.750000000000000 
K           0.333333000000000    0.666667000000000    0.250000000000000 
K           0.333333000000000    0.666667000000000    0.750000000000000 
K           0.666667000000000    0.333333000000000    0.250000000000000 
K           0.666667000000000    0.333333000000000    0.750000000000000 
%ENDBLOCK POSITIONS_FRAC
