# Cell file generated by matador (Matthew Evans 2016)

%BLOCK LATTICE_CART
7.37728 0.0 0.0
0.0 7.37728 0.0
0.0 0.0 7.36853
%ENDBLOCK LATTICE_CART

%BLOCK POSITIONS_FRAC
P           0.000000000000000    0.000000000000000    0.351377000000000 
P           0.000000000000000    0.000000000000000    0.648623000000000 
P           0.191318000000000    0.500000000000000    0.500000000000000 
P           0.500000000000000    0.191318000000000    0.500000000000000 
P           0.500000000000000    0.808682000000000    0.500000000000000 
P           0.808682000000000    0.500000000000000    0.500000000000000 
K           0.000000000000000    0.000000000000000    0.000000000000000 
K           0.284937000000000    0.500000000000000    0.190579000000000 
K           0.284937000000000    0.500000000000000    0.809421000000000 
K           0.500000000000000    0.284937000000000    0.190579000000000 
K           0.500000000000000    0.284937000000000    0.809421000000000 
K           0.500000000000000    0.500000000000000    0.500000000000000 
K           0.500000000000000    0.715063000000000    0.190579000000000 
K           0.500000000000000    0.715063000000000    0.809421000000000 
K           0.715063000000000    0.500000000000000    0.190579000000000 
K           0.715063000000000    0.500000000000000    0.809421000000000 
%ENDBLOCK POSITIONS_FRAC
