# Cell file generated by matador (Matthew Evans 2016)

%BLOCK LATTICE_CART
7.58122 0.0 0.0
-3.79061 6.56553 0.0
0.0 0.0 8.84613
%ENDBLOCK LATTICE_CART

%BLOCK POSITIONS_FRAC
P           0.000000000000000    0.000000000000000    0.159495000000000 
P           0.000000000000000    0.000000000000000    0.855391000000000 
P           0.018716000000000    0.516979000000000    0.955326000000000 
P           0.149688000000000    0.835070000000000    0.288660000000000 
P           0.164930000000000    0.314617000000000    0.288660000000000 
P           0.333333000000000    0.666667000000000    0.522057000000000 
P           0.333333000000000    0.666667000000000    0.826161000000000 
P           0.352050000000000    0.183646000000000    0.621993000000000 
P           0.483021000000000    0.501737000000000    0.955326000000000 
P           0.498263000000000    0.981284000000000    0.955326000000000 
P           0.666667000000000    0.333333000000000    0.188724000000000 
P           0.666667000000000    0.333333000000000    0.492828000000000 
P           0.685383000000000    0.850312000000000    0.288660000000000 
P           0.816354000000000    0.168404000000000    0.621993000000000 
P           0.831596000000000    0.647950000000000    0.621993000000000 
K           0.000000000000000    0.000000000000000    0.424206000000000 
K           0.333333000000000    0.666667000000000    0.090873000000000 
K           0.666667000000000    0.333333000000000    0.757539000000000 
%ENDBLOCK POSITIONS_FRAC
