# Cell file generated by matador (Matthew Evans 2016)

%BLOCK LATTICE_CART
5.7742 0.0 0.0
0.0 9.86154 0.0
0.0 0.0 8.5191
%ENDBLOCK LATTICE_CART

%BLOCK POSITIONS_FRAC
P           0.153632000000000    0.500000000000000    0.500000000000000 
P           0.500000000000000    0.205141000000000    0.000000000000000 
P           0.500000000000000    0.794859000000000    0.000000000000000 
P           0.846368000000000    0.500000000000000    0.500000000000000 
K           0.000000000000000    0.000000000000000    0.000000000000000 
K           0.000000000000000    0.500000000000000    0.000000000000000 
K           0.190130000000000    0.316096000000000    0.000000000000000 
K           0.190130000000000    0.683904000000000    0.000000000000000 
K           0.500000000000000    0.000000000000000    0.000000000000000 
K           0.500000000000000    0.000000000000000    0.500000000000000 
K           0.500000000000000    0.500000000000000    0.000000000000000 
K           0.500000000000000    0.500000000000000    0.500000000000000 
K           0.809870000000000    0.316096000000000    0.000000000000000 
K           0.809870000000000    0.683904000000000    0.000000000000000 
%ENDBLOCK POSITIONS_FRAC
