# Cell file generated by matador (Matthew Evans 2016)

%BLOCK LATTICE_CART
4.70716 0.0 0.0
1.07135 7.60568 0.0
3.81929 -0.717417 6.70381
%ENDBLOCK LATTICE_CART

%BLOCK POSITIONS_FRAC
P           0.269305000000000    0.702766000000000    0.430140000000000 
P           0.730695000000000    0.297234000000000    0.569860000000000 
K           0.000000000000000    0.500000000000000    0.000000000000000 
K           0.000000000000000    0.500000000000000    0.500000000000000 
K           0.041201000000000    0.258567000000000    0.197820000000000 
K           0.500000000000000    0.000000000000000    0.000000000000000 
K           0.500000000000000    0.500000000000000    0.000000000000000 
K           0.500000000000000    0.500000000000000    0.500000000000000 
K           0.958799000000000    0.741433000000000    0.802180000000000 
%ENDBLOCK POSITIONS_FRAC
