# Cell file generated by matador (Matthew Evans 2016)

%BLOCK LATTICE_CART
11.1558 0.0 0.0
-5.57788 9.66117 0.0
0.0 0.0 8.66808
%ENDBLOCK LATTICE_CART

%BLOCK POSITIONS_FRAC
P          -0.000000000000000    0.000000000000000    0.057829000000000 
P          -0.000000000000000    0.000000000000000    0.587385000000000 
P           0.333333000000000    0.666667000000000    0.254052000000000 
P           0.333333000000000    0.666667000000000    0.724496000000000 
P           0.666667000000000    0.333333000000000    0.391162000000000 
P           0.666667000000000    0.333333000000000    0.920719000000000 
K           0.084421000000000    0.542211000000000    0.227557000000000 
K           0.124456000000000    0.248912000000000    0.560891000000000 
K           0.124456000000000    0.875544000000000    0.560891000000000 
K           0.184122000000000    0.092061000000000    0.207390000000000 
K           0.241272000000000    0.482544000000000    0.874057000000000 
K           0.241272000000000    0.758728000000000    0.874057000000000 
K           0.417755000000000    0.208877000000000    0.894224000000000 
K           0.457789000000000    0.542211000000000    0.227557000000000 
K           0.457789000000000    0.915579000000000    0.227557000000000 
K           0.517456000000000    0.758728000000000    0.874057000000000 
K           0.574605000000000    0.149211000000000    0.540723000000000 
K           0.574605000000000    0.425395000000000    0.540723000000000 
K           0.751088000000000    0.875544000000000    0.560891000000000 
K           0.791123000000000    0.208877000000000    0.894224000000000 
K           0.791123000000000    0.582245000000000    0.894224000000000 
K           0.850789000000000    0.425395000000000    0.540723000000000 
K           0.907939000000000    0.092061000000000    0.207390000000000 
K           0.907939000000000    0.815878000000000    0.207390000000000 
%ENDBLOCK POSITIONS_FRAC
