# Cell file generated by matador (Matthew Evans 2016)

%BLOCK LATTICE_CART
9.6608 0.0 0.0
-4.8304 8.36649 0.0
0.0 0.0 16.8499
%ENDBLOCK LATTICE_CART

%BLOCK POSITIONS_FRAC
P           0.000000000000000    0.000000000000000    0.378454000000000 
P           0.000000000000000    0.000000000000000    0.878454000000000 
P           0.333333000000000    0.666667000000000    0.193080000000000 
P           0.333333000000000    0.666667000000000    0.326178000000000 
P           0.333333000000000    0.666667000000000    0.842533000000000 
P           0.666667000000000    0.333333000000000    0.342533000000000 
P           0.666667000000000    0.333333000000000    0.693080000000000 
P           0.666667000000000    0.333333000000000    0.826178000000000 
K           0.001280000000000    0.500640000000000    0.292605000000000 
K           0.140716000000000    0.281433000000000    0.837955000000000 
K           0.140716000000000    0.859284000000000    0.837955000000000 
K           0.181899000000000    0.363798000000000    0.102653000000000 
K           0.181899000000000    0.818101000000000    0.102653000000000 
K           0.228127000000000    0.456255000000000    0.435152000000000 
K           0.228127000000000    0.771873000000000    0.435152000000000 
K           0.281433000000000    0.140716000000000    0.337955000000000 
K           0.363798000000000    0.181899000000000    0.602653000000000 
K           0.456255000000000    0.228127000000000    0.935152000000000 
K           0.499360000000000    0.500640000000000    0.292605000000000 
K           0.499360000000000    0.998720000000000    0.292605000000000 
K           0.500640000000000    0.001280000000000    0.792605000000000 
K           0.500640000000000    0.499360000000000    0.792605000000000 
K           0.543745000000000    0.771873000000000    0.435152000000000 
K           0.636202000000000    0.818101000000000    0.102653000000000 
K           0.718567000000000    0.859284000000000    0.837955000000000 
K           0.771873000000000    0.228127000000000    0.935152000000000 
K           0.771873000000000    0.543745000000000    0.935152000000000 
K           0.818101000000000    0.181899000000000    0.602653000000000 
K           0.818101000000000    0.636202000000000    0.602653000000000 
K           0.859284000000000    0.140716000000000    0.337955000000000 
K           0.859284000000000    0.718567000000000    0.337955000000000 
K           0.998720000000000    0.499360000000000    0.792605000000000 
%ENDBLOCK POSITIONS_FRAC
