# Cell file generated by matador (Matthew Evans 2016)

%BLOCK LATTICE_CART
8.35558 0.0 0.0
0.0 8.35558 0.0
0.0 0.0 7.29543
%ENDBLOCK LATTICE_CART

%BLOCK POSITIONS_FRAC
P           0.000000000000000    0.000000000000000    0.364531000000000 
P           0.000000000000000    0.000000000000000    0.500000000000000 
P           0.000000000000000    0.000000000000000    0.635469000000000 
P           0.500000000000000    0.500000000000000    0.000000000000000 
P           0.500000000000000    0.500000000000000    0.135469000000000 
P           0.500000000000000    0.500000000000000    0.864531000000000 
K           0.163278000000000    0.836722000000000    0.500000000000000 
K           0.226203000000000    0.226203000000000    0.500000000000000 
K           0.273797000000000    0.726203000000000    0.000000000000000 
K           0.336722000000000    0.336722000000000    0.000000000000000 
K           0.663278000000000    0.663278000000000    0.000000000000000 
K           0.726203000000000    0.273797000000000    0.000000000000000 
K           0.773797000000000    0.773797000000000    0.500000000000000 
K           0.836722000000000    0.163278000000000    0.500000000000000 
%ENDBLOCK POSITIONS_FRAC
