# Cell file generated by matador (Matthew Evans 2016)

%BLOCK LATTICE_CART
7.27228 0.0 0.0
0.0 7.27228 0.0
0.0 0.0 7.27228
%ENDBLOCK LATTICE_CART

%BLOCK POSITIONS_FRAC
P           0.117310000000000    0.117310000000000    0.117310000000000 
P           0.133449000000000    0.633449000000000    0.866551000000000 
P           0.366551000000000    0.366551000000000    0.366551000000000 
P           0.382690000000000    0.882690000000000    0.617310000000000 
P           0.617310000000000    0.382690000000000    0.882690000000000 
P           0.633449000000000    0.866551000000000    0.133449000000000 
P           0.866551000000000    0.133449000000000    0.633449000000000 
P           0.882690000000000    0.617310000000000    0.382690000000000 
K           0.060268000000000    0.939732000000000    0.439732000000000 
K           0.172388000000000    0.327612000000000    0.672388000000000 
K           0.327612000000000    0.672388000000000    0.172388000000000 
K           0.439732000000000    0.060268000000000    0.939732000000000 
K           0.560268000000000    0.560268000000000    0.560268000000000 
K           0.672388000000000    0.172388000000000    0.327612000000000 
K           0.827612000000000    0.827612000000000    0.827612000000000 
K           0.939732000000000    0.439732000000000    0.060268000000000 
%ENDBLOCK POSITIONS_FRAC
