# Cell file generated by matador (Matthew Evans 2016)

%BLOCK LATTICE_CART
4.76427 0.0 0.0
0.0 12.1101 0.0
0.0 0.0 11.1595
%ENDBLOCK LATTICE_CART

%BLOCK POSITIONS_FRAC
P           0.250000000000000    0.259074000000000    0.871958000000000 
P           0.250000000000000    0.759074000000000    0.371958000000000 
P           0.750000000000000    0.240926000000000    0.371958000000000 
P           0.750000000000000    0.740926000000000    0.871958000000000 
K           0.250000000000000    0.081134000000000    0.280013000000000 
K           0.250000000000000    0.362676000000000    0.025579000000000 
K           0.250000000000000    0.376909000000000    0.557265000000000 
K           0.250000000000000    0.581134000000000    0.780013000000000 
K           0.250000000000000    0.862676000000000    0.525579000000000 
K           0.250000000000000    0.876909000000000    0.057265000000000 
K           0.750000000000000    0.123091000000000    0.057265000000000 
K           0.750000000000000    0.137324000000000    0.525579000000000 
K           0.750000000000000    0.418866000000000    0.780013000000000 
K           0.750000000000000    0.623091000000000    0.557265000000000 
K           0.750000000000000    0.637324000000000    0.025579000000000 
K           0.750000000000000    0.918866000000000    0.280013000000000 
%ENDBLOCK POSITIONS_FRAC
