# Cell file generated by matador (Matthew Evans 2016)

%BLOCK LATTICE_CART
6.9963 0.0 0.0
-3.49815 6.05898 0.0
0.0 0.0 9.12678
%ENDBLOCK LATTICE_CART

%BLOCK POSITIONS_FRAC
P           0.000000000000000    0.000000000000000    0.152590000000000 
P           0.000000000000000    0.000000000000000    0.652590000000000 
P           0.333333000000000    0.666667000000000    0.005548000000000 
P           0.666667000000000    0.333333000000000    0.505548000000000 
K           0.070749000000000    0.345442000000000    0.183562000000000 
K           0.274694000000000    0.929251000000000    0.183562000000000 
K           0.333333000000000    0.666667000000000    0.356085000000000 
K           0.345442000000000    0.070749000000000    0.683562000000000 
K           0.654558000000000    0.725306000000000    0.183562000000000 
K           0.666667000000000    0.333333000000000    0.856085000000000 
K           0.725306000000000    0.654558000000000    0.683562000000000 
K           0.929251000000000    0.274694000000000    0.683562000000000 
%ENDBLOCK POSITIONS_FRAC
