# Cell file generated by matador (Matthew Evans 2016)

%BLOCK LATTICE_CART
12.4023 0.0 0.0
-6.20114 10.7407 0.0
0.0 0.0 3.76686
%ENDBLOCK LATTICE_CART

%BLOCK POSITIONS_FRAC
P           0.026779000000000    0.013390000000000    0.000000000000000 
P           0.087128000000000    0.174258000000000    0.666667000000000 
P           0.087128000000000    0.912872000000000    0.333333000000000 
P           0.825742000000000    0.912872000000000    0.000000000000000 
P           0.986610000000000    0.013390000000000    0.333333000000000 
P           0.986610000000000    0.973221000000000    0.666667000000000 
K           0.086336000000000    0.456200000000000    0.441045000000000 
K           0.086336000000000    0.630136000000000    0.558955000000000 
K           0.303508000000000    0.151754000000000    0.000000000000000 
K           0.369864000000000    0.456200000000000    0.892288000000000 
K           0.369864000000000    0.913664000000000    0.107712000000000 
K           0.543800000000000    0.630136000000000    0.774379000000000 
K           0.543800000000000    0.913664000000000    0.225621000000000 
K           0.848246000000000    0.151754000000000    0.333333000000000 
K           0.848246000000000    0.696492000000000    0.666667000000000 
%ENDBLOCK POSITIONS_FRAC
