# Cell file generated by matador (Matthew Evans 2016)

%BLOCK LATTICE_CART
6.58098 0.0 0.0
0.0 6.84222 0.0
0.0 0.0 10.4407
%ENDBLOCK LATTICE_CART

%BLOCK POSITIONS_FRAC
P           0.000000000000000    0.500000000000000    0.486577000000000 
P           0.500000000000000    0.000000000000000    0.513423000000000 
K           0.000000000000000    0.000000000000000    0.287336000000000 
K           0.000000000000000    0.000000000000000    0.874223000000000 
K           0.000000000000000    0.500000000000000    0.032149000000000 
K           0.000000000000000    0.500000000000000    0.835775000000000 
K           0.061579000000000    0.273045000000000    0.663385000000000 
K           0.438421000000000    0.773045000000000    0.336615000000000 
K           0.500000000000000    0.000000000000000    0.164225000000000 
K           0.500000000000000    0.000000000000000    0.967851000000000 
K           0.500000000000000    0.500000000000000    0.125777000000000 
K           0.500000000000000    0.500000000000000    0.712664000000000 
K           0.561579000000000    0.226955000000000    0.336615000000000 
K           0.938421000000000    0.726955000000000    0.663385000000000 
%ENDBLOCK POSITIONS_FRAC
