# Cell file generated by matador (Matthew Evans 2016)

%BLOCK LATTICE_CART
6.67942 0.0 0.0
0.0 7.05366 0.0
0.701442 0.0 4.6353
%ENDBLOCK LATTICE_CART

%BLOCK POSITIONS_FRAC
P          -0.000000000000000    0.200235000000000    0.500000000000000 
P          -0.000000000000000    0.365292000000000    0.000000000000000 
P           0.500000000000000    0.880148000000000    0.500000000000000 
K          -0.000000000000000    0.782679000000000    0.500000000000000 
K          -0.000000000000000    0.986898000000000    0.000000000000000 
K           0.156264000000000    0.517739000000000    0.622658000000000 
K           0.843736000000000    0.517739000000000    0.377342000000000 
%ENDBLOCK POSITIONS_FRAC
