# Cell file generated by matador (Matthew Evans 2016)

%BLOCK LATTICE_CART
6.14548 0.0 0.0
-3.07274 5.32214 0.0
0.0 0.0 9.23766
%ENDBLOCK LATTICE_CART

%BLOCK POSITIONS_FRAC
P           0.000000000000000    0.000000000000000    0.283495000000000 
P           0.000000000000000    0.000000000000000    0.716505000000000 
P           0.333333000000000    0.666667000000000    0.383172000000000 
P           0.333333000000000    0.666667000000000    0.950161000000000 
P           0.666667000000000    0.333333000000000    0.049839000000000 
P           0.666667000000000    0.333333000000000    0.616828000000000 
K           0.000000000000000    0.000000000000000    0.000000000000000 
K           0.000000000000000    0.000000000000000    0.500000000000000 
K           0.333333000000000    0.666667000000000    0.166667000000000 
K           0.333333000000000    0.666667000000000    0.666667000000000 
K           0.666667000000000    0.333333000000000    0.333333000000000 
K           0.666667000000000    0.333333000000000    0.833333000000000 
%ENDBLOCK POSITIONS_FRAC
