# Cell file generated by matador (Matthew Evans 2016)

%BLOCK LATTICE_CART
12.8966 0.0 0.0
0.0 8.83882 0.0
0.0 0.0 10.5622
%ENDBLOCK LATTICE_CART

%BLOCK POSITIONS_FRAC
P           0.037686000000000    0.571200000000000    0.265819000000000 
P           0.037686000000000    0.928800000000000    0.265819000000000 
P           0.462314000000000    0.071200000000000    0.765819000000000 
P           0.462314000000000    0.428800000000000    0.765819000000000 
P           0.537686000000000    0.571200000000000    0.234181000000000 
P           0.537686000000000    0.928800000000000    0.234181000000000 
P           0.962314000000000    0.071200000000000    0.734181000000000 
P           0.962314000000000    0.428800000000000    0.734181000000000 
K          -0.000000000000000    0.000000000000000    0.500000000000000 
K          -0.000000000000000    0.500000000000000    0.500000000000000 
K           0.040730000000000    0.250000000000000    0.317898000000000 
K           0.092151000000000    0.250000000000000    0.028671000000000 
K           0.124836000000000    0.750000000000000    0.153088000000000 
K           0.137770000000000    0.250000000000000    0.690588000000000 
K           0.237780000000000    0.750000000000000    0.737586000000000 
K           0.262220000000000    0.250000000000000    0.237586000000000 
K           0.362230000000000    0.750000000000000    0.190588000000000 
K           0.375164000000000    0.250000000000000    0.653088000000000 
K           0.407849000000000    0.750000000000000    0.528671000000000 
K           0.459270000000000    0.750000000000000    0.817898000000000 
K           0.500000000000000    0.000000000000000    0.000000000000000 
K           0.500000000000000    0.500000000000000    0.000000000000000 
K           0.540730000000000    0.250000000000000    0.182102000000000 
K           0.592151000000000    0.250000000000000    0.471329000000000 
K           0.624836000000000    0.750000000000000    0.346912000000000 
K           0.637770000000000    0.250000000000000    0.809412000000000 
K           0.737780000000000    0.750000000000000    0.762414000000000 
K           0.762220000000000    0.250000000000000    0.262414000000000 
K           0.862230000000000    0.750000000000000    0.309412000000000 
K           0.875164000000000    0.250000000000000    0.846912000000000 
K           0.907849000000000    0.750000000000000    0.971329000000000 
K           0.959270000000000    0.750000000000000    0.682102000000000 
%ENDBLOCK POSITIONS_FRAC
