# Cell file generated by matador (Matthew Evans 2016)

%BLOCK LATTICE_CART
7.22036 0.0 0.0
0.0 7.22036 0.0
0.0 0.0 5.96637
%ENDBLOCK LATTICE_CART

%BLOCK POSITIONS_FRAC
P           0.000000000000000    0.000000000000000    0.250000000000000 
P           0.000000000000000    0.000000000000000    0.750000000000000 
P           0.500000000000000    0.500000000000000    0.250000000000000 
P           0.500000000000000    0.500000000000000    0.750000000000000 
K           0.056405000000000    0.709311000000000    0.500000000000000 
K           0.209311000000000    0.556405000000000    0.000000000000000 
K           0.290689000000000    0.056405000000000    0.000000000000000 
K           0.443595000000000    0.209311000000000    0.500000000000000 
K           0.556405000000000    0.790689000000000    0.500000000000000 
K           0.709311000000000    0.943595000000000    0.000000000000000 
K           0.790689000000000    0.443595000000000    0.000000000000000 
K           0.943595000000000    0.290689000000000    0.500000000000000 
%ENDBLOCK POSITIONS_FRAC
