# Cell file generated by matador (Matthew Evans 2016)

%BLOCK LATTICE_CART
5.37707 0.0 0.0
0.0 9.81782 0.0
1.80623 0.0 4.74823
%ENDBLOCK LATTICE_CART

%BLOCK POSITIONS_FRAC
P           0.317911000000000    0.000000000000000    0.319953000000000 
K           0.358677000000000    0.000000000000000    0.772164000000000 
K           0.491105000000000    0.500000000000000    0.212149000000000 
K           0.701672000000000    0.000000000000000    0.421925000000000 
K           0.792420000000000    0.500000000000000    0.416010000000000 
K           0.823351000000000    0.000000000000000    0.775961000000000 
%ENDBLOCK POSITIONS_FRAC
