# Cell file generated by matador (Matthew Evans 2016)

%BLOCK LATTICE_CART
10.6105 0.0 0.0
-5.30525 9.18896 0.0
0.0 0.0 11.5298
%ENDBLOCK LATTICE_CART

%BLOCK POSITIONS_FRAC
P           0.224507000000000    0.449013000000000    0.500000000000000 
P           0.224507000000000    0.775493000000000    0.500000000000000 
P           0.265826000000000    0.132913000000000    0.000000000000000 
P           0.333334000000000    0.666666000000000    0.186112000000000 
P           0.333334000000000    0.666666000000000    0.813888000000000 
P           0.550987000000000    0.775493000000000    0.500000000000000 
P           0.867087000000000    0.132913000000000    0.000000000000000 
P           0.867087000000000    0.734174000000000    0.000000000000000 
K           0.000000000000000   -0.000000000000000    0.000000000000000 
K           0.000000000000000   -0.000000000000000    0.500000000000000 
K           0.020799000000000    0.368915000000000    0.000000000000000 
K           0.020799000000000    0.651883000000000    0.000000000000000 
K           0.333334000000000    0.666666000000000    0.000000000000000 
K           0.333334000000000    0.666666000000000    0.500000000000000 
K           0.348117000000000    0.368915000000000    0.000000000000000 
K           0.348117000000000    0.979201000000000    0.000000000000000 
K           0.350190000000000    0.018620000000000    0.500000000000000 
K           0.350190000000000    0.331570000000000    0.500000000000000 
K           0.425820000000000    0.212910000000000    0.287563000000000 
K           0.425820000000000    0.212910000000000    0.712437000000000 
K           0.631085000000000    0.651883000000000    0.000000000000000 
K           0.631085000000000    0.979201000000000    0.000000000000000 
K           0.666667000000000    0.333333000000000    0.000000000000000 
K           0.666667000000000    0.333333000000000    0.500000000000000 
K           0.668430000000000    0.018620000000000    0.500000000000000 
K           0.668430000000000    0.649810000000000    0.500000000000000 
K           0.787090000000000    0.212910000000000    0.287563000000000 
K           0.787090000000000    0.212910000000000    0.712437000000000 
K           0.787090000000000    0.574180000000000    0.287563000000000 
K           0.787090000000000    0.574180000000000    0.712437000000000 
K           0.981380000000000    0.331570000000000    0.500000000000000 
K           0.981380000000000    0.649810000000000    0.500000000000000 
%ENDBLOCK POSITIONS_FRAC
