# Cell file generated by matador (Matthew Evans 2016)

%BLOCK LATTICE_CART
7.01163 0.0 0.0
0.0 7.01163 0.0
0.0 0.0 6.41258
%ENDBLOCK LATTICE_CART

%BLOCK POSITIONS_FRAC
P           0.201695000000000    0.701695000000000    0.750000000000000 
P           0.298305000000000    0.201695000000000    0.250000000000000 
P           0.701695000000000    0.798305000000000    0.250000000000000 
P           0.798305000000000    0.298305000000000    0.750000000000000 
K           0.000000000000000    0.000000000000000    0.000000000000000 
K           0.000000000000000    0.000000000000000    0.500000000000000 
K           0.000000000000000    0.500000000000000    0.250000000000000 
K           0.000000000000000    0.500000000000000    0.750000000000000 
K           0.500000000000000    0.000000000000000    0.250000000000000 
K           0.500000000000000    0.000000000000000    0.750000000000000 
K           0.500000000000000    0.500000000000000    0.000000000000000 
K           0.500000000000000    0.500000000000000    0.500000000000000 
%ENDBLOCK POSITIONS_FRAC
