# Cell file generated by matador (Matthew Evans 2016)

%BLOCK LATTICE_CART
5.8849 0.0 0.0
0.0 10.4201 0.0
3.53634 0.0 6.99524
%ENDBLOCK LATTICE_CART

%BLOCK POSITIONS_FRAC
P           0.373105000000000    0.000000000000000    0.833708000000000 
P           0.478038000000000    0.211955000000000    0.814500000000000 
P           0.478038000000000    0.788045000000000    0.814500000000000 
P           0.637118000000000    0.000000000000000    0.762345000000000 
P           0.776116000000000    0.305191000000000    0.862999000000000 
P           0.776116000000000    0.694809000000000    0.862999000000000 
K           0.053739000000000    0.000000000000000    0.185747000000000 
K           0.084459000000000    0.500000000000000    0.418783000000000 
K           0.364095000000000    0.500000000000000    0.117756000000000 
K           0.652569000000000    0.000000000000000    0.451483000000000 
K           0.728361000000000    0.258057000000000    0.258240000000000 
K           0.728361000000000    0.741943000000000    0.258240000000000 
K           0.831594000000000    0.500000000000000    0.847640000000000 
%ENDBLOCK POSITIONS_FRAC
