# Cell file generated by matador (Matthew Evans 2016)

%BLOCK LATTICE_CART
5.15038 0.0 0.0
0.0 8.09701 0.0
-2.19231 0.0 6.04643
%ENDBLOCK LATTICE_CART

%BLOCK POSITIONS_FRAC
P           0.000000000000000    0.200108000000000    0.500000000000000 
P           0.000000000000000    0.439322000000000    0.500000000000000 
P           0.000000000000000    0.735331000000000    0.000000000000000 
P           0.318400000000000    0.713158000000000    0.134939000000000 
P           0.681600000000000    0.713158000000000    0.865061000000000 
K           0.000000000000000    0.130841000000000    0.000000000000000 
K           0.000000000000000    0.952614000000000    0.500000000000000 
K           0.430329000000000    0.094218000000000    0.138190000000000 
K           0.569671000000000    0.094218000000000    0.861810000000000 
%ENDBLOCK POSITIONS_FRAC
