# Cell file generated by matador (Matthew Evans 2016)

%BLOCK LATTICE_CART
6.6393 0.0 0.0
-3.31965 5.74981 0.0
0.0 0.0 10.6049
%ENDBLOCK LATTICE_CART

%BLOCK POSITIONS_FRAC
P           0.000000000000000    0.000000000000000    0.566254000000000 
P           0.000000000000000    0.000000000000000    0.948695000000000 
P           0.333333000000000    0.666667000000000    0.363131000000000 
P           0.666667000000000    0.333333000000000    0.363131000000000 
K           0.000000000000000    0.506467000000000    0.506348000000000 
K           0.333333000000000    0.666667000000000    0.064753000000000 
K           0.333333000000000    0.666667000000000    0.779782000000000 
K           0.493533000000000    0.493533000000000    0.506348000000000 
K           0.506467000000000    0.000000000000000    0.506348000000000 
K           0.666667000000000    0.333333000000000    0.064753000000000 
K           0.666667000000000    0.333333000000000    0.779782000000000 
%ENDBLOCK POSITIONS_FRAC
