# Cell file generated by matador (Matthew Evans 2016)

%BLOCK LATTICE_CART
8.15761 0.0 0.0
-4.0788 7.06469 0.0
0.0 0.0 8.8943
%ENDBLOCK LATTICE_CART

%BLOCK POSITIONS_FRAC
P          -0.000000000000000    0.409048000000000    0.477559000000000 
P          -0.000000000000000    0.590952000000000    0.977559000000000 
P           0.409048000000000   -0.000000000000000    0.477559000000000 
P           0.409048000000000    0.409048000000000    0.977559000000000 
P           0.590952000000000   -0.000000000000000    0.977559000000000 
P           0.590952000000000    0.590952000000000    0.477559000000000 
K          -0.000000000000000    0.157452000000000    0.550267000000000 
K          -0.000000000000000    0.842548000000000    0.050267000000000 
K           0.157452000000000   -0.000000000000000    0.550267000000000 
K           0.157452000000000    0.157452000000000    0.050267000000000 
K           0.333333000000000    0.666667000000000    0.382425000000000 
K           0.333333000000000    0.666667000000000    0.882425000000000 
K           0.666667000000000    0.333333000000000    0.382425000000000 
K           0.666667000000000    0.333333000000000    0.882425000000000 
K           0.842548000000000   -0.000000000000000    0.050267000000000 
K           0.842548000000000    0.842548000000000    0.550267000000000 
%ENDBLOCK POSITIONS_FRAC
