# Cell file generated by matador (Matthew Evans 2016)

%BLOCK LATTICE_CART
9.21215 0.0 0.0
0.0 9.21215 0.0
0.0 0.0 7.78588
%ENDBLOCK LATTICE_CART

%BLOCK POSITIONS_FRAC
P           0.000000000000000    0.500000000000000    0.000000000000000 
P           0.000000000000000    0.500000000000000    0.500000000000000 
P           0.500000000000000    0.000000000000000    0.000000000000000 
P           0.500000000000000    0.000000000000000    0.500000000000000 
K           0.000000000000000    0.000000000000000    0.000000000000000 
K           0.000000000000000    0.500000000000000    0.250000000000000 
K           0.000000000000000    0.500000000000000    0.750000000000000 
K           0.231439000000000    0.231439000000000    0.735855000000000 
K           0.231439000000000    0.768561000000000    0.264145000000000 
K           0.268561000000000    0.268561000000000    0.235855000000000 
K           0.268561000000000    0.731439000000000    0.764145000000000 
K           0.500000000000000    0.000000000000000    0.250000000000000 
K           0.500000000000000    0.000000000000000    0.750000000000000 
K           0.500000000000000    0.500000000000000    0.500000000000000 
K           0.731439000000000    0.268561000000000    0.764145000000000 
K           0.731439000000000    0.731439000000000    0.235855000000000 
K           0.768561000000000    0.231439000000000    0.264145000000000 
K           0.768561000000000    0.768561000000000    0.735855000000000 
%ENDBLOCK POSITIONS_FRAC
