# Cell file generated by matador (Matthew Evans 2016)

%BLOCK LATTICE_CART
7.2055 0.0 0.0
0.0 6.95633 0.0
2.09888 0.0 6.26708
%ENDBLOCK LATTICE_CART

%BLOCK POSITIONS_FRAC
P           0.454895000000000    0.480100000000000    0.012035000000000 
P           0.454895000000000    0.519900000000000    0.512035000000000 
P           0.562529000000000    0.209898000000000    0.795911000000000 
P           0.562529000000000    0.790102000000000    0.295911000000000 
P           0.614544000000000    0.209362000000000    0.243697000000000 
P           0.614544000000000    0.790638000000000    0.743697000000000 
P           0.873772000000000    0.262319000000000    0.665477000000000 
P           0.873772000000000    0.737681000000000    0.165477000000000 
P           0.972854000000000    0.077373000000000    0.954760000000000 
P           0.972854000000000    0.922627000000000    0.454760000000000 
K           0.914655000000000    0.442935000000000    0.408188000000000 
K           0.914655000000000    0.557065000000000    0.908188000000000 
%ENDBLOCK POSITIONS_FRAC
