# Cell file generated by matador (Matthew Evans 2016)

%BLOCK LATTICE_CART
11.2821 0.0 0.0
-5.64106 9.77061 0.0
0.0 0.0 5.62445
%ENDBLOCK LATTICE_CART

%BLOCK POSITIONS_FRAC
P           0.000001000000000    0.000001000000000    0.208646000000000 
P           0.000001000000000    0.000001000000000    0.885295000000000 
P           0.105525000000000    0.432227000000000    0.370681000000000 
P           0.105525000000000    0.673299000000000    0.370681000000000 
P           0.326703000000000    0.432227000000000    0.370681000000000 
P           0.326703000000000    0.894477000000000    0.370681000000000 
P           0.432227000000000    0.105525000000000    0.370681000000000 
P           0.432227000000000    0.326703000000000    0.370681000000000 
P           0.567775000000000    0.673299000000000    0.370681000000000 
P           0.567775000000000    0.894477000000000    0.370681000000000 
P           0.673299000000000    0.105525000000000    0.370681000000000 
P           0.673299000000000    0.567775000000000    0.370681000000000 
P           0.894477000000000    0.326703000000000    0.370681000000000 
P           0.894477000000000    0.567775000000000    0.370681000000000 
K           0.333334000000000    0.666668000000000    0.111542000000000 
K           0.666668000000000    0.333334000000000    0.111542000000000 
%ENDBLOCK POSITIONS_FRAC
