# Cell file generated by matador (Matthew Evans 2016)

%BLOCK LATTICE_CART
6.5682 0.0 0.0
0.0 7.67739 0.0
0.0 0.0 6.10092
%ENDBLOCK LATTICE_CART

%BLOCK POSITIONS_FRAC
P           0.000000000000000    0.082616000000000    0.490950000000000 
P           0.000000000000000    0.917384000000000    0.990950000000000 
K           0.000000000000000    0.301589000000000    0.851276000000000 
K           0.000000000000000    0.310514000000000    0.344611000000000 
K           0.000000000000000    0.689486000000000    0.844611000000000 
K           0.000000000000000    0.698411000000000    0.351276000000000 
K           0.500000000000000    0.088973000000000    0.707267000000000 
K           0.500000000000000    0.911027000000000    0.207267000000000 
%ENDBLOCK POSITIONS_FRAC
