# Cell file generated by matador (Matthew Evans 2016)

%BLOCK LATTICE_CART
6.9625 0.0 0.0
0.211833 8.98191 0.0
2.58192 -2.59095 7.80951
%ENDBLOCK LATTICE_CART

%BLOCK POSITIONS_FRAC
P           0.000000000000000    0.000000000000000    0.000000000000000 
P           0.000000000000000    0.500000000000000    0.500000000000000 
P           0.232178000000000    0.956338000000000    0.289126000000000 
P           0.388657000000000    0.939557000000000    0.662118000000000 
P           0.417329000000000    0.587383000000000    0.486901000000000 
P           0.500000000000000    0.000000000000000    0.500000000000000 
P           0.500000000000000    0.500000000000000    0.500000000000000 
P           0.582671000000000    0.412617000000000    0.513099000000000 
P           0.611343000000000    0.060443000000000    0.337882000000000 
P           0.767822000000000    0.043662000000000    0.710874000000000 
K           0.000000000000000    0.000000000000000    0.500000000000000 
K           0.000000000000000    0.500000000000000    0.000000000000000 
K           0.154865000000000    0.481348000000000    0.675976000000000 
K           0.500000000000000    0.000000000000000    0.000000000000000 
K           0.500000000000000    0.500000000000000    0.000000000000000 
K           0.845135000000000    0.518652000000000    0.324024000000000 
%ENDBLOCK POSITIONS_FRAC
