# Cell file generated by matador (Matthew Evans 2016)

%BLOCK LATTICE_CART
6.21056 -0.0 0.0
-3.10528 5.3785 0.0
0.0 0.0 9.07846
%ENDBLOCK LATTICE_CART

%BLOCK POSITIONS_FRAC
P           0.333333000000000    0.666667000000000    0.251659000000000 
P           0.333333000000000    0.666667000000000    0.748844000000000 
K           0.204950000000000    0.039359000000000    0.052981000000000 
K           0.333333000000000    0.666667000000000    0.976509000000000 
K           0.666666000000000    0.333334000000000    0.152484000000000 
K           0.666666000000000    0.333334000000000    0.645688000000000 
K           0.834409000000000    0.795050000000000    0.052981000000000 
K           0.960641000000000    0.165591000000000    0.052981000000000 
%ENDBLOCK POSITIONS_FRAC
