# Cell file generated by matador (Matthew Evans 2016)

%BLOCK LATTICE_CART
6.49209 0.0 0.0
0.0 8.0607 0.0
0.0 0.0 5.21333
%ENDBLOCK LATTICE_CART

%BLOCK POSITIONS_FRAC
P           0.156605000000000    0.127682000000000    0.500000000000000 
P           0.156605000000000    0.872318000000000    0.500000000000000 
P           0.343395000000000    0.372318000000000    0.500000000000000 
P           0.343395000000000    0.627682000000000    0.500000000000000 
P           0.656605000000000    0.372318000000000    0.500000000000000 
P           0.656605000000000    0.627682000000000    0.500000000000000 
P           0.843395000000000    0.127682000000000    0.500000000000000 
P           0.843395000000000    0.872318000000000    0.500000000000000 
K           0.000000000000000    0.500000000000000    0.500000000000000 
K           0.500000000000000    0.000000000000000    0.500000000000000 
%ENDBLOCK POSITIONS_FRAC
