# Cell file generated by matador (Matthew Evans 2016)

%BLOCK LATTICE_CART
7.34808 0.0 0.0
-3.67404 6.36362 0.0
0.0 0.0 7.88349
%ENDBLOCK LATTICE_CART

%BLOCK POSITIONS_FRAC
P           0.052233000000000    0.368144000000000    0.374162000000000 
P           0.315911000000000    0.947767000000000    0.374162000000000 
P           0.333333000000000    0.666667000000000    0.653347000000000 
P           0.406562000000000    0.053574000000000    0.542082000000000 
P           0.631856000000000    0.684089000000000    0.374162000000000 
P           0.647011000000000    0.593438000000000    0.542082000000000 
P           0.666666000000000    0.333334000000000    0.403469000000000 
P           0.946426000000000    0.352989000000000    0.542082000000000 
K           0.333333000000000    0.666667000000000    0.303736000000000 
K           0.479871000000000    0.305897000000000    0.975861000000000 
K           0.694103000000000    0.173975000000000    0.975861000000000 
K           0.826025000000000    0.520129000000000    0.975861000000000 
%ENDBLOCK POSITIONS_FRAC
