# Cell file generated by matador (Matthew Evans 2016)

%BLOCK LATTICE_CART
7.66715 0.0 0.0
-3.83358 6.63995 0.0
0.0 0.0 11.8536
%ENDBLOCK LATTICE_CART

%BLOCK POSITIONS_FRAC
P           0.333332000000000    0.666668000000000    0.536112000000000 
P           0.333332000000000    0.666668000000000    0.963888000000000 
P           0.666666000000000    0.333334000000000    0.036112000000000 
P           0.666666000000000    0.333334000000000    0.463888000000000 
K           0.999999000000000    0.000001000000000    0.000000000000000 
K           0.999999000000000    0.000001000000000    0.500000000000000 
K           0.004591000000000    0.763344000000000    0.750000000000000 
K           0.236656000000000    0.241250000000000    0.750000000000000 
K           0.241248000000000    0.236658000000000    0.250000000000000 
K           0.333332000000000    0.666668000000000    0.250000000000000 
K           0.333332000000000    0.666668000000000    0.750000000000000 
K           0.666666000000000    0.333334000000000    0.250000000000000 
K           0.666666000000000    0.333334000000000    0.750000000000000 
K           0.758750000000000    0.995409000000000    0.750000000000000 
K           0.763342000000000    0.004593000000000    0.250000000000000 
K           0.995407000000000    0.758752000000000    0.250000000000000 
%ENDBLOCK POSITIONS_FRAC
