# Cell file generated by matador (Matthew Evans 2016)

%BLOCK LATTICE_CART
7.25736 0.0 0.0
-3.62868 6.28505 0.0
0.0 0.0 5.77086
%ENDBLOCK LATTICE_CART

%BLOCK POSITIONS_FRAC
P           0.000000000000000    0.000000000000000    0.964552000000000 
P           0.333333000000000    0.666667000000000    0.301169000000000 
P           0.333333000000000    0.666667000000000    0.706242000000000 
P           0.666667000000000    0.333333000000000    0.301169000000000 
P           0.666667000000000    0.333333000000000    0.706242000000000 
K           0.000000000000000    0.000000000000000    0.349444000000000 
K           0.000000000000000    0.589285000000000    0.997323000000000 
K           0.410715000000000    0.410715000000000    0.997323000000000 
K           0.589285000000000    0.000000000000000    0.997323000000000 
%ENDBLOCK POSITIONS_FRAC
