# Cell file generated by matador (Matthew Evans 2016)

%BLOCK LATTICE_CART
6.4433 0.0 0.0
-3.22165 5.58006 0.0
0.0 0.0 9.20124
%ENDBLOCK LATTICE_CART

%BLOCK POSITIONS_FRAC
P           0.999999000000000    0.999999000000000    0.375432000000000 
P           0.999999000000000    0.999999000000000    0.875432000000000 
P           0.056194000000000    0.255400000000000    0.743677000000000 
P           0.199205000000000    0.943804000000000    0.743677000000000 
P           0.255400000000000    0.199205000000000    0.243677000000000 
P           0.333332000000000    0.666666000000000    0.535083000000000 
P           0.333332000000000    0.666666000000000    0.756266000000000 
P           0.666666000000000    0.333332000000000    0.035083000000000 
P           0.666666000000000    0.333332000000000    0.256266000000000 
P           0.744598000000000    0.800793000000000    0.743677000000000 
P           0.800793000000000    0.056194000000000    0.243677000000000 
P           0.943804000000000    0.744598000000000    0.243677000000000 
K           0.333332000000000    0.666666000000000    0.130922000000000 
K           0.666666000000000    0.333332000000000    0.630922000000000 
%ENDBLOCK POSITIONS_FRAC
