# Cell file generated by matador (Matthew Evans 2016)

%BLOCK LATTICE_CART
8.56719 0.0 0.0
-4.28359 7.4194 0.0
0.0 0.0 5.66559
%ENDBLOCK LATTICE_CART

%BLOCK POSITIONS_FRAC
P           0.046349000000000    0.092699000000000    0.363533000000000 
P           0.046349000000000    0.953651000000000    0.363533000000000 
P           0.518174000000000    0.036348000000000    0.502442000000000 
P           0.518174000000000    0.481826000000000    0.502442000000000 
P           0.907301000000000    0.953651000000000    0.363533000000000 
P           0.963652000000000    0.481826000000000    0.502442000000000 
K           0.000000000000000    0.000000000000000    0.853557000000000 
K           0.208800000000000    0.417599000000000    0.440295000000000 
K           0.208800000000000    0.791200000000000    0.440295000000000 
K           0.333333000000000    0.666667000000000    0.198342000000000 
K           0.582401000000000    0.791200000000000    0.440295000000000 
%ENDBLOCK POSITIONS_FRAC
