# Cell file generated by matador (Matthew Evans 2016)

%BLOCK LATTICE_CART
6.89092 -0.0 0.0
-3.44546 5.96771 0.0
0.0 0.0 14.5552
%ENDBLOCK LATTICE_CART

%BLOCK POSITIONS_FRAC
P           0.000000000000000    0.000000000000000    0.383579000000000 
P           0.000000000000000    0.000000000000000    0.594972000000000 
P           0.333333000000000    0.666667000000000    0.050246000000000 
P           0.333333000000000    0.666667000000000    0.261638000000000 
P           0.666667000000000    0.333333000000000    0.716913000000000 
P           0.666667000000000    0.333333000000000    0.928305000000000 
K           0.000000000000000    0.000000000000000    0.957028000000000 
K           0.045499000000000    0.368532000000000    0.409368000000000 
K           0.298134000000000    0.010300000000000    0.742701000000000 
K           0.323033000000000    0.954501000000000    0.409368000000000 
K           0.333333000000000    0.666667000000000    0.623695000000000 
K           0.378833000000000    0.035199000000000    0.076034000000000 
K           0.631468000000000    0.676967000000000    0.409368000000000 
K           0.656366000000000    0.621167000000000    0.076034000000000 
K           0.666667000000000    0.333333000000000    0.290361000000000 
K           0.712166000000000    0.701866000000000    0.742701000000000 
K           0.964801000000000    0.343634000000000    0.076034000000000 
K           0.989700000000000    0.287834000000000    0.742701000000000 
%ENDBLOCK POSITIONS_FRAC
