# Cell file generated by matador (Matthew Evans 2016)

%BLOCK LATTICE_CART
6.94691 0.0 0.0
0.0 6.94691 0.0
0.0 0.0 7.89721
%ENDBLOCK LATTICE_CART

%BLOCK POSITIONS_FRAC
P           0.000000000000000    0.000000000000000    0.500000000000000 
P           0.000000000000000    0.500000000000000    0.000000000000000 
P           0.000000000000000    0.500000000000000    0.500000000000000 
P           0.500000000000000    0.000000000000000    0.000000000000000 
P           0.500000000000000    0.000000000000000    0.500000000000000 
P           0.500000000000000    0.500000000000000    0.000000000000000 
K           0.169998000000000    0.830002000000000    0.240685000000000 
K           0.169998000000000    0.830002000000000    0.759315000000000 
K           0.330002000000000    0.330002000000000    0.259315000000000 
K           0.330002000000000    0.330002000000000    0.740685000000000 
K           0.669998000000000    0.669998000000000    0.259315000000000 
K           0.669998000000000    0.669998000000000    0.740685000000000 
K           0.830002000000000    0.169998000000000    0.240685000000000 
K           0.830002000000000    0.169998000000000    0.759315000000000 
%ENDBLOCK POSITIONS_FRAC
