# Cell file generated by matador (Matthew Evans 2016)

%BLOCK LATTICE_CART
7.83865 0.0 0.0
-3.91933 6.78847 0.0
0.0 0.0 8.67599
%ENDBLOCK LATTICE_CART

%BLOCK POSITIONS_FRAC
P           0.000000000000000    0.000000000000000    0.292785000000000 
P           0.333333000000000    0.666667000000000    0.959451000000000 
P           0.666667000000000    0.333333000000000    0.626118000000000 
K           0.199032000000000    0.398063000000000    0.839395000000000 
K           0.199032000000000    0.800968000000000    0.839395000000000 
K           0.268603000000000    0.134302000000000    0.172729000000000 
K           0.532365000000000    0.064730000000000    0.506062000000000 
K           0.532365000000000    0.467635000000000    0.506062000000000 
K           0.601937000000000    0.800968000000000    0.839395000000000 
K           0.865698000000000    0.134302000000000    0.172729000000000 
K           0.865698000000000    0.731397000000000    0.172729000000000 
K           0.935270000000000    0.467635000000000    0.506062000000000 
%ENDBLOCK POSITIONS_FRAC
