# Cell file generated by matador (Matthew Evans 2016)

%BLOCK LATTICE_CART
6.07341 0.0 0.0
-3.0367 5.25973 0.0
0.0 0.0 12.8762
%ENDBLOCK LATTICE_CART

%BLOCK POSITIONS_FRAC
P           0.048625000000000    0.829622000000000    0.272356000000000 
P           0.170378000000000    0.219003000000000    0.272356000000000 
P           0.219614000000000    0.203572000000000    0.965901000000000 
P           0.451377000000000    0.404999000000000    0.847553000000000 
P           0.595001000000000    0.046378000000000    0.847553000000000 
P           0.780997000000000    0.951375000000000    0.272356000000000 
P           0.796428000000000    0.016042000000000    0.965901000000000 
P           0.953622000000000    0.548623000000000    0.847553000000000 
P           0.983958000000000    0.780386000000000    0.965901000000000 
K           0.000000000000000    0.000000000000000    0.655091000000000 
K           0.333333000000000    0.666667000000000    0.580333000000000 
K           0.666667000000000    0.333333000000000    0.608023000000000 
%ENDBLOCK POSITIONS_FRAC
