# Cell file generated by matador (Matthew Evans 2016)

%BLOCK LATTICE_CART
8.10398 0.0 0.0
0.0 6.78478 0.0
-3.20998 0.0 9.27368
%ENDBLOCK LATTICE_CART

%BLOCK POSITIONS_FRAC
P           0.460629000000000    0.000000000000000    0.328744000000000 
P           0.843017000000000    0.254640000000000    0.782664000000000 
P           0.843017000000000    0.745360000000000    0.782664000000000 
P           0.890761000000000    0.283360000000000    0.489881000000000 
P           0.890761000000000    0.716640000000000    0.489881000000000 
P           0.893197000000000    0.000000000000000    0.306347000000000 
K           0.050528000000000    0.500000000000000    0.381225000000000 
K           0.175076000000000    0.000000000000000    0.203612000000000 
K           0.306776000000000    0.000000000000000    0.536135000000000 
K           0.312160000000000    0.000000000000000    0.914689000000000 
K           0.375627000000000    0.351214000000000    0.741671000000000 
K           0.375627000000000    0.648786000000000    0.741671000000000 
K           0.673085000000000    0.000000000000000    0.716612000000000 
K           0.920495000000000    0.000000000000000    0.552565000000000 
K           0.976844000000000    0.310316000000000    0.213486000000000 
K           0.976844000000000    0.689684000000000    0.213486000000000 
%ENDBLOCK POSITIONS_FRAC
