# Cell file generated by matador (Matthew Evans 2016)

%BLOCK LATTICE_CART
5.45566 0.0 0.0
0.0 5.45566 0.0
0.0 0.0 8.48892
%ENDBLOCK LATTICE_CART

%BLOCK POSITIONS_FRAC
P           0.000000000000000    0.000000000000000    0.240236000000000 
P           0.000000000000000    0.000000000000000    0.759764000000000 
P           0.000000000000000    0.500000000000000    0.000000000000000 
P           0.125514000000000    0.372418000000000    0.000000000000000 
P           0.372418000000000    0.874486000000000    0.000000000000000 
P           0.500000000000000    0.000000000000000    0.000000000000000 
P           0.500000000000000    0.500000000000000    0.163923000000000 
P           0.500000000000000    0.500000000000000    0.836077000000000 
P           0.627582000000000    0.125514000000000    0.000000000000000 
P           0.874486000000000    0.627582000000000    0.000000000000000 
K           0.000000000000000    0.000000000000000    0.000000000000000 
K           0.500000000000000    0.500000000000000    0.500000000000000 
%ENDBLOCK POSITIONS_FRAC
