# Cell file generated by matador (Matthew Evans 2016)

%BLOCK LATTICE_CART
6.92516 0.0 0.0
0.0 5.72051 0.0
0.0 0.0 6.63163
%ENDBLOCK LATTICE_CART

%BLOCK POSITIONS_FRAC
P           0.233797000000000    0.001759000000000    0.317287000000000 
P           0.266203000000000    0.998241000000000    0.817287000000000 
P           0.733797000000000    0.998241000000000    0.817287000000000 
P           0.766203000000000    0.001759000000000    0.317287000000000 
K           0.000000000000000    0.112236000000000    0.713275000000000 
K           0.000000000000000    0.604348000000000    0.580638000000000 
K           0.500000000000000    0.395652000000000    0.080638000000000 
K           0.500000000000000    0.887764000000000    0.213275000000000 
%ENDBLOCK POSITIONS_FRAC
