# Cell file generated by matador (Matthew Evans 2016)

%BLOCK LATTICE_CART
7.83486 0.0 0.0
-0.170589 6.4908 0.0
-1.56518 2.46663 6.25822
%ENDBLOCK LATTICE_CART

%BLOCK POSITIONS_FRAC
P           0.000000000000000    0.000000000000000    0.000000000000000 
P           0.000000000000000    0.500000000000000    0.500000000000000 
P           0.416772000000000    0.346488000000000    0.290661000000000 
P           0.500000000000000    0.000000000000000    0.000000000000000 
P           0.500000000000000    0.500000000000000    0.000000000000000 
P           0.583228000000000    0.653512000000000    0.709339000000000 
K           0.000000000000000    0.000000000000000    0.500000000000000 
K           0.000000000000000    0.500000000000000    0.000000000000000 
K           0.195902000000000    0.671549000000000    0.084861000000000 
K           0.500000000000000    0.000000000000000    0.500000000000000 
K           0.500000000000000    0.500000000000000    0.500000000000000 
K           0.804098000000000    0.328451000000000    0.915139000000000 
%ENDBLOCK POSITIONS_FRAC
