# Cell file generated by matador (Matthew Evans 2016)

%BLOCK LATTICE_CART
8.47187 0.0 0.0
-4.23594 7.33686 0.0
0.0 0.0 6.33133
%ENDBLOCK LATTICE_CART

%BLOCK POSITIONS_FRAC
P           0.089238000000000    0.178476000000000    0.500000000000000 
P           0.089238000000000    0.910762000000000    0.500000000000000 
P           0.333333000000000    0.666667000000000    0.000000000000000 
P           0.333333000000000    0.666667000000000    0.266574000000000 
P           0.333333000000000    0.666667000000000    0.500000000000000 
P           0.333333000000000    0.666667000000000    0.733426000000000 
P           0.666667000000000    0.333333000000000    0.000000000000000 
P           0.666667000000000    0.333333000000000    0.500000000000000 
P           0.821524000000000    0.910762000000000    0.500000000000000 
K           0.413825000000000    0.091475000000000    0.452898000000000 
K           0.413825000000000    0.322350000000000    0.547102000000000 
K           0.677650000000000    0.091475000000000    0.547102000000000 
K           0.677650000000000    0.586175000000000    0.452898000000000 
K           0.908525000000000    0.322350000000000    0.452898000000000 
K           0.908525000000000    0.586175000000000    0.547102000000000 
%ENDBLOCK POSITIONS_FRAC
