# Cell file generated by matador (Matthew Evans 2016)

%BLOCK LATTICE_CART
6.90818 0.0 0.0
0.0 6.57663 0.0
2.46296 0.0 6.97937
%ENDBLOCK LATTICE_CART

%BLOCK POSITIONS_FRAC
P           0.143719000000000    0.500000000000000    0.961412000000000 
P           0.332699000000000    0.500000000000000    0.418758000000000 
K           0.033420000000000    0.000000000000000    0.268848000000000 
K           0.160174000000000    0.500000000000000    0.690522000000000 
K           0.350761000000000    0.000000000000000    0.518297000000000 
K           0.366402000000000    0.500000000000000    0.060428000000000 
K           0.653411000000000    0.500000000000000    0.263841000000000 
K           0.799205000000000    0.500000000000000    0.581945000000000 
%ENDBLOCK POSITIONS_FRAC
