# Cell file generated by matador (Matthew Evans 2016)

%BLOCK LATTICE_CART
8.12664 0.0 0.0
0.0 7.59273 0.0
-2.98249 0.0 5.80429
%ENDBLOCK LATTICE_CART

%BLOCK POSITIONS_FRAC
P           0.000000000000000    0.000000000000000    0.000000000000000 
P           0.000000000000000    0.000000000000000    0.500000000000000 
P           0.295299000000000    0.083136000000000    0.574065000000000 
P           0.295299000000000    0.916864000000000    0.574065000000000 
P           0.500000000000000    0.000000000000000    0.500000000000000 
P           0.500000000000000    0.263410000000000    0.000000000000000 
P           0.500000000000000    0.500000000000000    0.000000000000000 
P           0.500000000000000    0.736590000000000    0.000000000000000 
P           0.704701000000000    0.083136000000000    0.425935000000000 
P           0.704701000000000    0.916864000000000    0.425935000000000 
K           0.000000000000000    0.500000000000000    0.000000000000000 
K           0.000000000000000    0.500000000000000    0.500000000000000 
K           0.500000000000000    0.000000000000000    0.000000000000000 
K           0.500000000000000    0.500000000000000    0.500000000000000 
%ENDBLOCK POSITIONS_FRAC
