# Cell file generated by matador (Matthew Evans 2016)

%BLOCK LATTICE_CART
5.89208 -0.0 0.0
-2.94604 5.10269 0.0
0.0 0.0 8.2576
%ENDBLOCK LATTICE_CART

%BLOCK POSITIONS_FRAC
P           0.000000000000000    0.000000000000000    0.280269000000000 
P           0.302399000000000    0.004887000000000    0.793084000000000 
P           0.333333000000000    0.666667000000000    0.419851000000000 
P           0.666667000000000    0.333333000000000    0.373835000000000 
P           0.702488000000000    0.697601000000000    0.793084000000000 
P           0.995113000000000    0.297512000000000    0.793084000000000 
K           0.000000000000000    0.000000000000000    0.586125000000000 
K           0.049853000000000    0.683366000000000    0.209929000000000 
K           0.316634000000000    0.366486000000000    0.209929000000000 
K           0.633514000000000    0.950147000000000    0.209929000000000 
K           0.666667000000000    0.333333000000000    0.829153000000000 
%ENDBLOCK POSITIONS_FRAC
