# Cell file generated by matador (Matthew Evans 2016)

%BLOCK LATTICE_CART
7.8272 0.0 0.0
-3.9136 6.77855 0.0
0.0 0.0 5.89968
%ENDBLOCK LATTICE_CART

%BLOCK POSITIONS_FRAC
P           0.121504000000000    0.342239000000000    0.757161000000000 
P           0.220735000000000    0.878496000000000    0.757161000000000 
P           0.324427000000000    0.112598000000000    0.090494000000000 
P           0.454837000000000    0.008906000000000    0.423827000000000 
P           0.554069000000000    0.545163000000000    0.423827000000000 
P           0.657761000000000    0.779265000000000    0.757161000000000 
P           0.788171000000000    0.675573000000000    0.090494000000000 
P           0.887402000000000    0.211829000000000    0.090494000000000 
P           0.991094000000000    0.445931000000000    0.423827000000000 
K          -0.000000000000000   -0.000000000000000    0.985999000000000 
K           0.333333000000000    0.666667000000000    0.652666000000000 
K           0.666667000000000    0.333333000000000    0.319333000000000 
%ENDBLOCK POSITIONS_FRAC
