# Cell file generated by matador (Matthew Evans 2016)

%BLOCK LATTICE_CART
6.28583 0.0 0.0
-3.14292 5.44369 0.0
0.0 0.0 7.24621
%ENDBLOCK LATTICE_CART

%BLOCK POSITIONS_FRAC
P           0.126207000000000    0.512012000000000    0.268164000000000 
P           0.126207000000000    0.614195000000000    0.731836000000000 
P           0.385805000000000    0.512012000000000    0.731836000000000 
P           0.385805000000000    0.873793000000000    0.268164000000000 
P           0.487988000000000    0.614195000000000    0.268164000000000 
P           0.487988000000000    0.873793000000000    0.731836000000000 
K           0.000000000000000    0.000000000000000    0.000000000000000 
K           0.666667000000000    0.333333000000000    0.000000000000000 
K           0.666667000000000    0.333333000000000    0.500000000000000 
%ENDBLOCK POSITIONS_FRAC
