# Cell file generated by matador (Matthew Evans 2016)

%BLOCK LATTICE_CART
5.8024 0.0 0.0
-2.9012 5.02502 0.0
0.0 0.0 6.96111
%ENDBLOCK LATTICE_CART

%BLOCK POSITIONS_FRAC
P           0.071254000000000    0.691442000000000    0.500000000000000 
P           0.308558000000000    0.379812000000000    0.500000000000000 
P           0.333333000000000    0.666667000000000    0.500000000000000 
P           0.620188000000000    0.928746000000000    0.500000000000000 
K           0.000000000000000    0.000000000000000    0.500000000000000 
K           0.333333000000000    0.666667000000000    0.000000000000000 
K           0.666667000000000    0.333333000000000    0.500000000000000 
%ENDBLOCK POSITIONS_FRAC
