# Cell file generated by matador (Matthew Evans 2016)

%BLOCK LATTICE_CART
7.86117 0.0 0.0
-3.93058 6.80797 0.0
0.0 0.0 9.63669
%ENDBLOCK LATTICE_CART

%BLOCK POSITIONS_FRAC
P           0.372220000000000    0.133301000000000    0.586007000000000 
P           0.761081000000000    0.627780000000000    0.586007000000000 
P           0.866699000000000    0.238919000000000    0.586007000000000 
K           0.000000000000000    0.000000000000000    0.180712000000000 
K           0.000000000000000    0.000000000000000    0.432567000000000 
K           0.333333000000000    0.666667000000000    0.263161000000000 
K           0.333333000000000    0.666667000000000    0.820262000000000 
K           0.388018000000000    0.328006000000000    0.855221000000000 
K           0.458517000000000    0.453123000000000    0.411067000000000 
K           0.546877000000000    0.005394000000000    0.411067000000000 
K           0.666667000000000    0.333333000000000    0.687862000000000 
K           0.666667000000000    0.333333000000000    0.956687000000000 
K           0.671994000000000    0.060012000000000    0.855221000000000 
K           0.939988000000000    0.611982000000000    0.855221000000000 
K           0.994606000000000    0.541483000000000    0.411067000000000 
%ENDBLOCK POSITIONS_FRAC
