# Cell file generated by matador (Matthew Evans 2016)

%BLOCK LATTICE_CART
9.69861 0.0 0.0
0.0 7.66569 0.0
2.12607 0.0 9.80315
%ENDBLOCK LATTICE_CART

%BLOCK POSITIONS_FRAC
P           0.201606000000000    0.500000000000000    0.906001000000000 
P           0.399875000000000    0.000000000000000    0.124471000000000 
P           0.611096000000000    0.500000000000000    0.442931000000000 
P           0.624822000000000    0.279942000000000    0.855827000000000 
P           0.624822000000000    0.720058000000000    0.855827000000000 
K           0.168105000000000    0.000000000000000    0.303132000000000 
K           0.224124000000000    0.500000000000000    0.100076000000000 
K           0.404303000000000    0.500000000000000    0.301272000000000 
K           0.435675000000000    0.000000000000000    0.437043000000000 
K           0.473401000000000    0.000000000000000    0.918229000000000 
K           0.546188000000000    0.290819000000000    0.593563000000000 
K           0.546188000000000    0.709181000000000    0.593563000000000 
K           0.548694000000000    0.500000000000000    0.981423000000000 
K           0.718554000000000    0.500000000000000    0.204906000000000 
K           0.811388000000000    0.000000000000000    0.508357000000000 
K           0.932394000000000    0.000000000000000    0.765024000000000 
K           0.939763000000000    0.000000000000000    0.140086000000000 
K           0.943980000000000    0.500000000000000    0.949411000000000 
K           0.973421000000000    0.500000000000000    0.331748000000000 
K           0.989907000000000    0.500000000000000    0.621102000000000 
%ENDBLOCK POSITIONS_FRAC
