# Cell file generated by matador (Matthew Evans 2016)

%BLOCK LATTICE_CART
7.77351 0.0 0.0
-3.88675 6.73206 0.0
0.0 0.0 5.58826
%ENDBLOCK LATTICE_CART

%BLOCK POSITIONS_FRAC
P           0.333333000000000    0.666667000000000    0.194242000000000 
P           0.666666000000000    0.333334000000000    0.610571000000000 
K           0.042478000000000    0.521239000000000    0.529575000000000 
K           0.262465000000000    0.131233000000000    0.850495000000000 
K           0.478761000000000    0.521239000000000    0.529575000000000 
K           0.478761000000000    0.957522000000000    0.529575000000000 
K           0.868767000000000    0.131233000000000    0.850495000000000 
K           0.868767000000000    0.737535000000000    0.850495000000000 
%ENDBLOCK POSITIONS_FRAC
