# Cell file generated by matador (Matthew Evans 2016)

%BLOCK LATTICE_CART
8.15078 0.0 0.0
0.0 7.09092 0.0
0.0 0.0 4.81841
%ENDBLOCK LATTICE_CART

%BLOCK POSITIONS_FRAC
P           0.012504000000000    0.140750000000000    0.940263000000000 
P           0.012504000000000    0.359250000000000    0.940263000000000 
P           0.250000000000000    0.147962000000000    0.419339000000000 
P           0.250000000000000    0.352038000000000    0.419339000000000 
P           0.487496000000000    0.140750000000000    0.940263000000000 
P           0.487496000000000    0.359250000000000    0.940263000000000 
P           0.512504000000000    0.640750000000000    0.059737000000000 
P           0.512504000000000    0.859250000000000    0.059737000000000 
P           0.750000000000000    0.647962000000000    0.580661000000000 
P           0.750000000000000    0.852038000000000    0.580661000000000 
P           0.987496000000000    0.640750000000000    0.059737000000000 
P           0.987496000000000    0.859250000000000    0.059737000000000 
K           0.250000000000000    0.750000000000000    0.879329000000000 
K           0.750000000000000    0.250000000000000    0.120671000000000 
%ENDBLOCK POSITIONS_FRAC
