# Cell file generated by matador (Matthew Evans 2016)

%BLOCK LATTICE_CART
10.9545 0.0 0.0
-5.47725 9.48688 0.0
0.0 0.0 9.22434
%ENDBLOCK LATTICE_CART

%BLOCK POSITIONS_FRAC
P           0.000000000000000    0.000000000000000   -0.000000000000000 
P           0.000000000000000    0.000000000000000    0.500000000000000 
P           0.333333000000000    0.666667000000000    0.250000000000000 
P           0.333333000000000    0.666667000000000    0.750000000000000 
P           0.666667000000000    0.333333000000000    0.250000000000000 
P           0.666667000000000    0.333333000000000    0.750000000000000 
K           0.000000000000000    0.500000000000000   -0.000000000000000 
K           0.000000000000000    0.500000000000000    0.500000000000000 
K           0.036819000000000    0.690684000000000    0.750000000000000 
K           0.105757000000000    0.708503000000000    0.250000000000000 
K           0.291497000000000    0.397254000000000    0.250000000000000 
K           0.309316000000000    0.346135000000000    0.750000000000000 
K           0.346135000000000    0.036819000000000    0.250000000000000 
K           0.397254000000000    0.105757000000000    0.750000000000000 
K           0.500000000000000    0.000000000000000   -0.000000000000000 
K           0.500000000000000    0.000000000000000    0.500000000000000 
K           0.500000000000000    0.500000000000000   -0.000000000000000 
K           0.500000000000000    0.500000000000000    0.500000000000000 
K           0.602746000000000    0.894243000000000    0.250000000000000 
K           0.653865000000000    0.963181000000000    0.750000000000000 
K           0.690684000000000    0.653865000000000    0.250000000000000 
K           0.708503000000000    0.602746000000000    0.750000000000000 
K           0.894243000000000    0.291497000000000    0.750000000000000 
K           0.963181000000000    0.309316000000000    0.250000000000000 
%ENDBLOCK POSITIONS_FRAC
