# Cell file generated by matador (Matthew Evans 2016)

%BLOCK LATTICE_CART
5.77294 0.0 0.0
0.898085 5.88994 0.0
-1.87547 2.8065 4.34438
%ENDBLOCK LATTICE_CART

%BLOCK POSITIONS_FRAC
P           0.000000000000000    0.000000000000000    0.000000000000000 
P           0.000000000000000    0.000000000000000    0.500000000000000 
P           0.000000000000000    0.500000000000000    0.000000000000000 
P           0.000000000000000    0.500000000000000    0.500000000000000 
P           0.500000000000000    0.500000000000000    0.500000000000000 
K           0.495113000000000    0.744844000000000    0.785164000000000 
K           0.504887000000000    0.255156000000000    0.214836000000000 
%ENDBLOCK POSITIONS_FRAC
