# Cell file generated by matador (Matthew Evans 2016)

%BLOCK LATTICE_CART
4.64422 0.0 0.0
-2.32211 4.02201 0.0
0.0 0.0 7.29139
%ENDBLOCK LATTICE_CART

%BLOCK POSITIONS_FRAC
P           0.000000000000000    0.500000000000000    0.869321000000000 
P           0.500000000000000    0.000000000000000    0.869321000000000 
P           0.500000000000000    0.500000000000000    0.869321000000000 
K           0.000000000000000    0.500000000000000    0.282813000000000 
K           0.500000000000000    0.000000000000000    0.282813000000000 
K           0.500000000000000    0.500000000000000    0.282813000000000 
%ENDBLOCK POSITIONS_FRAC
