# Cell file generated by matador (Matthew Evans 2016)

%BLOCK LATTICE_CART
9.16137 0.0 0.0
-4.83896 11.9564 0.0
3.53317 -1.74379 5.88134
%ENDBLOCK LATTICE_CART

%BLOCK POSITIONS_FRAC
P           0.000000000000000    0.000000000000000    0.500000000000000 
P           0.133923000000000    0.028663000000000    0.511764000000000 
P           0.500000000000000    0.000000000000000    0.500000000000000 
P           0.866077000000000    0.971337000000000    0.488236000000000 
K           0.000000000000000    0.000000000000000    0.000000000000000 
K           0.000000000000000    0.500000000000000    0.000000000000000 
K           0.000000000000000    0.500000000000000    0.500000000000000 
K           0.009774000000000    0.686200000000000    0.203559000000000 
K           0.143880000000000    0.903981000000000    0.700174000000000 
K           0.244575000000000    0.502562000000000    0.952999000000000 
K           0.440415000000000    0.847148000000000    0.561406000000000 
K           0.500000000000000    0.000000000000000    0.000000000000000 
K           0.500000000000000    0.500000000000000    0.000000000000000 
K           0.500000000000000    0.500000000000000    0.500000000000000 
K           0.559585000000000    0.152852000000000    0.438594000000000 
K           0.755425000000000    0.497438000000000    0.047001000000000 
K           0.856120000000000    0.096019000000000    0.299826000000000 
K           0.990226000000000    0.313800000000000    0.796441000000000 
%ENDBLOCK POSITIONS_FRAC
