# Cell file generated by matador (Matthew Evans 2016)

%BLOCK LATTICE_CART
7.38796 0.0 0.0
-3.69398 6.39816 0.0
0.0 0.0 7.1922
%ENDBLOCK LATTICE_CART

%BLOCK POSITIONS_FRAC
P           0.000000000000000    0.000000000000000    0.098044000000000 
P           0.000000000000000    0.000000000000000    0.901956000000000 
P           0.333333000000000    0.666667000000000    0.000000000000000 
P           0.333333000000000    0.666667000000000    0.348000000000000 
P           0.333333000000000    0.666667000000000    0.652000000000000 
K           0.012461000000000    0.336972000000000    0.500000000000000 
K           0.012461000000000    0.675489000000000    0.500000000000000 
K           0.324511000000000    0.336972000000000    0.500000000000000 
K           0.324511000000000    0.987539000000000    0.500000000000000 
K           0.663028000000000    0.675489000000000    0.500000000000000 
K           0.663028000000000    0.987539000000000    0.500000000000000 
%ENDBLOCK POSITIONS_FRAC
