# Cell file generated by matador (Matthew Evans 2016)

%BLOCK LATTICE_CART
6.78191 0.0 0.0
0.0 3.50225 0.0
1.9992 0.0 4.12853
%ENDBLOCK LATTICE_CART

%BLOCK POSITIONS_FRAC
P           0.040286000000000    0.000000000000000    0.990091000000000 
K           0.292682000000000    0.500000000000000    0.847979000000000 
K           0.384458000000000    0.000000000000000    0.274728000000000 
%ENDBLOCK POSITIONS_FRAC
