# Cell file generated by matador (Matthew Evans 2016)

%BLOCK LATTICE_CART
8.19019 0.0 0.0
-4.0951 7.09292 0.0
0.0 0.0 8.06438
%ENDBLOCK LATTICE_CART

%BLOCK POSITIONS_FRAC
P          -0.000000000000000   -0.000000000000000    0.250903000000000 
P          -0.000000000000000   -0.000000000000000    0.749097000000000 
P           0.333333000000000    0.666667000000000    0.415764000000000 
P           0.333333000000000    0.666667000000000    0.917570000000000 
P           0.666667000000000    0.333333000000000    0.082430000000000 
P           0.666667000000000    0.333333000000000    0.584236000000000 
K          -0.000000000000000    0.500000000000000    0.500000000000000 
K           0.166667000000000    0.333333000000000    0.833333000000000 
K           0.166667000000000    0.833333000000000    0.833333000000000 
K           0.333333000000000    0.166667000000000    0.166667000000000 
K           0.500000000000000   -0.000000000000000    0.500000000000000 
K           0.500000000000000    0.500000000000000    0.500000000000000 
K           0.666667000000000    0.833333000000000    0.833333000000000 
K           0.833333000000000    0.166667000000000    0.166667000000000 
K           0.833333000000000    0.666667000000000    0.166667000000000 
%ENDBLOCK POSITIONS_FRAC
