# Cell file generated by matador (Matthew Evans 2016)

%BLOCK LATTICE_CART
4.8494 0.0 0.0
0.0 5.45672 0.0
0.737918 0.0 7.2871
%ENDBLOCK LATTICE_CART

%BLOCK POSITIONS_FRAC
P           0.139000000000000    0.916684000000000    0.667380000000000 
P           0.284694000000000    0.732993000000000    0.801385000000000 
P           0.446929000000000    0.773416000000000    0.593134000000000 
P           0.500000000000000    0.085935000000000    0.000000000000000 
P           0.553071000000000    0.773416000000000    0.406866000000000 
P           0.715306000000000    0.732993000000000    0.198615000000000 
P           0.861000000000000    0.916684000000000    0.332620000000000 
K           0.000000000000000    0.542375000000000    0.500000000000000 
%ENDBLOCK POSITIONS_FRAC
