# Cell file generated by matador (Matthew Evans 2016)

%BLOCK LATTICE_CART
7.9399 0.0 0.0
0.0 10.3217 0.0
0.0 0.0 13.826
%ENDBLOCK LATTICE_CART

%BLOCK POSITIONS_FRAC
P           0.248107000000000    0.500000000000000    0.250000000000000 
P           0.248107000000000    0.500000000000000    0.750000000000000 
P           0.251893000000000    0.000000000000000    0.250000000000000 
P           0.251893000000000    0.000000000000000    0.750000000000000 
P           0.748107000000000    0.000000000000000    0.250000000000000 
P           0.748107000000000    0.000000000000000    0.750000000000000 
P           0.751893000000000    0.500000000000000    0.250000000000000 
P           0.751893000000000    0.500000000000000    0.750000000000000 
K           0.000000000000000    0.000000000000000    0.000000000000000 
K           0.000000000000000    0.000000000000000    0.250000000000000 
K           0.000000000000000    0.000000000000000    0.500000000000000 
K           0.000000000000000    0.000000000000000    0.750000000000000 
K           0.000000000000000    0.500000000000000    0.000000000000000 
K           0.000000000000000    0.500000000000000    0.250000000000000 
K           0.000000000000000    0.500000000000000    0.500000000000000 
K           0.000000000000000    0.500000000000000    0.750000000000000 
K           0.250000000000000    0.250000000000000    0.000000000000000 
K           0.250000000000000    0.250000000000000    0.500000000000000 
K           0.250000000000000    0.750000000000000    0.000000000000000 
K           0.250000000000000    0.750000000000000    0.500000000000000 
K           0.500000000000000    0.000000000000000    0.000000000000000 
K           0.500000000000000    0.000000000000000    0.250000000000000 
K           0.500000000000000    0.000000000000000    0.500000000000000 
K           0.500000000000000    0.000000000000000    0.750000000000000 
K           0.500000000000000    0.500000000000000    0.000000000000000 
K           0.500000000000000    0.500000000000000    0.250000000000000 
K           0.500000000000000    0.500000000000000    0.500000000000000 
K           0.500000000000000    0.500000000000000    0.750000000000000 
K           0.750000000000000    0.250000000000000    0.000000000000000 
K           0.750000000000000    0.250000000000000    0.500000000000000 
K           0.750000000000000    0.750000000000000    0.000000000000000 
K           0.750000000000000    0.750000000000000    0.500000000000000 
%ENDBLOCK POSITIONS_FRAC
