# Cell file generated by matador (Matthew Evans 2016)

%BLOCK LATTICE_CART
7.5115 0.0 0.0
0.0 7.5115 0.0
0.0 0.0 8.10693
%ENDBLOCK LATTICE_CART

%BLOCK POSITIONS_FRAC
P           0.000000000000000    0.500000000000000    0.105335000000000 
P           0.194428000000000    0.526244000000000    0.676656000000000 
P           0.473756000000000    0.194428000000000    0.676656000000000 
P           0.500000000000000    0.000000000000000    0.105335000000000 
P           0.526244000000000    0.805572000000000    0.676656000000000 
P           0.805572000000000    0.473756000000000    0.676656000000000 
K           0.000000000000000    0.000000000000000    0.530546000000000 
K           0.000000000000000    0.500000000000000    0.405773000000000 
K           0.120497000000000    0.312389000000000    0.915126000000000 
K           0.312389000000000    0.879503000000000    0.915126000000000 
K           0.500000000000000    0.000000000000000    0.405773000000000 
K           0.687611000000000    0.120497000000000    0.915126000000000 
K           0.879503000000000    0.687611000000000    0.915126000000000 
%ENDBLOCK POSITIONS_FRAC
