# Cell file generated by matador (Matthew Evans 2016)

%BLOCK LATTICE_CART
6.7478 0.0 0.0
0.0 6.7478 0.0
0.0 0.0 6.90397
%ENDBLOCK LATTICE_CART

%BLOCK POSITIONS_FRAC
P           0.000000000000000    0.000000000000000    0.000000000000000 
P           0.000000000000000    0.000000000000000    0.500000000000000 
K           0.000000000000000    0.500000000000000    0.500000000000000 
K           0.231915000000000    0.555364000000000    0.000000000000000 
K           0.444636000000000    0.231915000000000    0.500000000000000 
K           0.500000000000000    0.000000000000000    0.000000000000000 
K           0.555364000000000    0.768085000000000    0.500000000000000 
K           0.768085000000000    0.444636000000000    0.000000000000000 
%ENDBLOCK POSITIONS_FRAC
