# Cell file generated by matador (Matthew Evans 2016)

%BLOCK LATTICE_CART
8.98449 0.0 0.0
-4.49225 7.7808 0.0
0.0 0.0 6.43682
%ENDBLOCK LATTICE_CART

%BLOCK POSITIONS_FRAC
P           0.000000000000000    0.000000000000000    0.310713000000000 
P           0.000000000000000    0.000000000000000    0.689287000000000 
P           0.333333000000000    0.666667000000000    0.000000000000000 
P           0.666667000000000    0.333333000000000    0.000000000000000 
P           0.666667000000000    0.333333000000000    0.332006000000000 
P           0.666667000000000    0.333333000000000    0.667994000000000 
K           0.000000000000000    0.000000000000000    0.000000000000000 
K           0.055772000000000    0.514428000000000    0.500000000000000 
K           0.313390000000000    0.071234000000000    0.000000000000000 
K           0.458657000000000    0.944228000000000    0.500000000000000 
K           0.485572000000000    0.541343000000000    0.500000000000000 
K           0.757844000000000    0.686610000000000    0.000000000000000 
K           0.928766000000000    0.242156000000000    0.000000000000000 
%ENDBLOCK POSITIONS_FRAC
