# Cell file generated by matador (Matthew Evans 2016)

%BLOCK LATTICE_CART
9.42515 0.0 0.0
0.0 9.42515 0.0
0.0 0.0 6.58447
%ENDBLOCK LATTICE_CART

%BLOCK POSITIONS_FRAC
P           0.083546000000000    0.083546000000000    0.743253000000000 
P           0.416454000000000    0.583546000000000    0.243253000000000 
P           0.583546000000000    0.416454000000000    0.243253000000000 
P           0.916454000000000    0.916454000000000    0.743253000000000 
K           0.109977000000000    0.890023000000000    0.858606000000000 
K           0.191080000000000    0.191080000000000    0.083860000000000 
K           0.217317000000000    0.217317000000000    0.621534000000000 
K           0.282683000000000    0.717317000000000    0.121534000000000 
K           0.308920000000000    0.691080000000000    0.583860000000000 
K           0.390023000000000    0.390023000000000    0.358606000000000 
K           0.609977000000000    0.609977000000000    0.358606000000000 
K           0.691080000000000    0.308920000000000    0.583860000000000 
K           0.717317000000000    0.282683000000000    0.121534000000000 
K           0.782683000000000    0.782683000000000    0.621534000000000 
K           0.808920000000000    0.808920000000000    0.083860000000000 
K           0.890023000000000    0.109977000000000    0.858606000000000 
%ENDBLOCK POSITIONS_FRAC
