# Cell file generated by matador (Matthew Evans 2016)

%BLOCK LATTICE_CART
7.73679 0.0 0.0
0.0 5.83722 0.0
-2.74602 0.0 7.55318
%ENDBLOCK LATTICE_CART

%BLOCK POSITIONS_FRAC
P           0.208628000000000    0.076715000000000    0.664562000000000 
P           0.349383000000000    0.789552000000000    0.355116000000000 
P           0.492657000000000    0.681061000000000    0.111887000000000 
P           0.507343000000000    0.681061000000000    0.888113000000000 
P           0.650617000000000    0.789552000000000    0.644884000000000 
P           0.791372000000000    0.076715000000000    0.335438000000000 
K           0.000000000000000    0.718625000000000    0.500000000000000 
K           0.273008000000000    0.007116000000000    0.134427000000000 
K           0.436005000000000    0.411672000000000    0.681573000000000 
K           0.500000000000000    0.159192000000000    0.500000000000000 
K           0.500000000000000    0.221798000000000    0.000000000000000 
K           0.563995000000000    0.411672000000000    0.318427000000000 
K           0.726992000000000    0.007116000000000    0.865573000000000 
%ENDBLOCK POSITIONS_FRAC
