# Cell file generated by matador (Matthew Evans 2016)

%BLOCK LATTICE_CART
7.54777 0.0 0.0
0.0 5.57014 0.0
1.71776 0.0 5.55706
%ENDBLOCK LATTICE_CART

%BLOCK POSITIONS_FRAC
P           0.300639000000000    0.238421000000000    0.808670000000000 
P           0.300639000000000    0.761579000000000    0.808670000000000 
P           0.699361000000000    0.238421000000000    0.191330000000000 
P           0.699361000000000    0.761579000000000    0.191330000000000 
K           0.000000000000000    0.500000000000000    0.000000000000000 
K           0.500000000000000    0.500000000000000    0.000000000000000 
K           0.500000000000000    0.500000000000000    0.500000000000000 
%ENDBLOCK POSITIONS_FRAC
