# Cell file generated by matador (Matthew Evans 2016)

%BLOCK LATTICE_CART
6.58365 0.0 0.0
-3.29182 5.70161 0.0
0.0 0.0 4.89187
%ENDBLOCK LATTICE_CART

%BLOCK POSITIONS_FRAC
P           0.999999000000000    0.999999000000000    0.232712000000000 
P           0.999999000000000    0.999999000000000    0.500000000000000 
P           0.999999000000000    0.999999000000000    0.767288000000000 
P           0.333332000000000    0.666666000000000    0.500000000000000 
P           0.666666000000000    0.333332000000000    0.500000000000000 
K           0.333332000000000    0.666666000000000    0.000000000000000 
K           0.666666000000000    0.333332000000000    0.000000000000000 
%ENDBLOCK POSITIONS_FRAC
