# Cell file generated by matador (Matthew Evans 2016)

%BLOCK LATTICE_CART
6.56004 0.0 0.0
-3.28002 5.68116 0.0
0.0 0.0 10.685
%ENDBLOCK LATTICE_CART

%BLOCK POSITIONS_FRAC
P           0.333333000000000    0.666667000000000    0.224740000000000 
P           0.333333000000000    0.666667000000000    0.462653000000000 
K          -0.000000000000000    0.000000000000000    0.215075000000000 
K          -0.000000000000000    0.000000000000000    0.706807000000000 
K           0.449761000000000    0.389438000000000    0.819625000000000 
K           0.610562000000000    0.060323000000000    0.819625000000000 
K           0.666666000000000    0.333334000000000    0.085370000000000 
K           0.666666000000000    0.333334000000000    0.459613000000000 
K           0.939677000000000    0.550239000000000    0.819625000000000 
%ENDBLOCK POSITIONS_FRAC
