# Cell file generated by matador (Matthew Evans 2016)

%BLOCK LATTICE_CART
13.2255 0.0 0.0
0.0 6.97959 0.0
-0.0800999 0.0 9.25579
%ENDBLOCK LATTICE_CART

%BLOCK POSITIONS_FRAC
P           0.000000000000000    0.000000000000000    0.500000000000000 
P           0.000000000000000    0.500000000000000    0.500000000000000 
P           0.500000000000000    0.000000000000000   -0.000000000000000 
P           0.500000000000000    0.000000000000000    0.500000000000000 
P           0.500000000000000    0.500000000000000   -0.000000000000000 
P           0.500000000000000    0.500000000000000    0.500000000000000 
K           0.000000000000000    0.000000000000000   -0.000000000000000 
K           0.000000000000000    0.500000000000000   -0.000000000000000 
K           0.021936000000000    0.250000000000000    0.330144000000000 
K           0.151492000000000    0.750000000000000    0.144450000000000 
K           0.156220000000000    0.250000000000000    0.700817000000000 
K           0.163564000000000    0.750000000000000    0.465193000000000 
K           0.248789000000000    0.750000000000000    0.753070000000000 
K           0.368202000000000    0.250000000000000    0.463263000000000 
K           0.395620000000000    0.750000000000000    0.480227000000000 
K           0.442970000000000    0.250000000000000    0.126890000000000 
K           0.557030000000000    0.750000000000000    0.873110000000000 
K           0.604380000000000    0.250000000000000    0.519773000000000 
K           0.631798000000000    0.750000000000000    0.536737000000000 
K           0.751211000000000    0.250000000000000    0.246930000000000 
K           0.836436000000000    0.250000000000000    0.534807000000000 
K           0.843780000000000    0.750000000000000    0.299183000000000 
K           0.848508000000000    0.250000000000000    0.855550000000000 
K           0.978064000000000    0.750000000000000    0.669856000000000 
%ENDBLOCK POSITIONS_FRAC
