# Cell file generated by matador (Matthew Evans 2016)

%BLOCK LATTICE_CART
8.05012 0.0 0.0
0.0 8.05012 0.0
0.0 0.0 8.05012
%ENDBLOCK LATTICE_CART

%BLOCK POSITIONS_FRAC
P           0.000000000000000    0.000000000000000    0.251556000000000 
P           0.000000000000000    0.000000000000000    0.748444000000000 
P           0.000000000000000    0.251556000000000    0.000000000000000 
P           0.000000000000000    0.748444000000000    0.000000000000000 
P           0.251556000000000    0.000000000000000    0.000000000000000 
P           0.748444000000000    0.000000000000000    0.000000000000000 
K           0.000000000000000    0.000000000000000    0.500000000000000 
K           0.000000000000000    0.500000000000000    0.000000000000000 
K           0.000000000000000    0.500000000000000    0.500000000000000 
K           0.258826000000000    0.258826000000000    0.258826000000000 
K           0.258826000000000    0.741174000000000    0.741174000000000 
K           0.500000000000000    0.000000000000000    0.000000000000000 
K           0.500000000000000    0.000000000000000    0.500000000000000 
K           0.500000000000000    0.500000000000000    0.000000000000000 
K           0.741174000000000    0.258826000000000    0.741174000000000 
K           0.741174000000000    0.741174000000000    0.258826000000000 
%ENDBLOCK POSITIONS_FRAC
