# Cell file generated by matador (Matthew Evans 2016)

%BLOCK LATTICE_CART
8.94534 0.0 0.0
0.0 8.94534 0.0
0.0 0.0 7.51657
%ENDBLOCK LATTICE_CART

%BLOCK POSITIONS_FRAC
P           0.187864000000000    0.812136000000000    0.500000000000000 
P           0.312136000000000    0.312136000000000    0.500000000000000 
P           0.687864000000000    0.687864000000000    0.500000000000000 
P           0.812136000000000    0.187864000000000    0.500000000000000 
K           0.000000000000000    0.000000000000000    0.000000000000000 
K           0.000000000000000    0.000000000000000    0.500000000000000 
K           0.046108000000000    0.147659000000000    0.692138000000000 
K           0.147659000000000    0.046108000000000    0.307862000000000 
K           0.190952000000000    0.809048000000000    0.000000000000000 
K           0.309048000000000    0.309048000000000    0.000000000000000 
K           0.352341000000000    0.546108000000000    0.692138000000000 
K           0.453892000000000    0.647659000000000    0.307862000000000 
K           0.500000000000000    0.500000000000000    0.000000000000000 
K           0.500000000000000    0.500000000000000    0.500000000000000 
K           0.546108000000000    0.352341000000000    0.307862000000000 
K           0.647659000000000    0.453892000000000    0.692138000000000 
K           0.690952000000000    0.690952000000000    0.000000000000000 
K           0.809048000000000    0.190952000000000    0.000000000000000 
K           0.852341000000000    0.953892000000000    0.307862000000000 
K           0.953892000000000    0.852341000000000    0.692138000000000 
%ENDBLOCK POSITIONS_FRAC
