# Cell file generated by matador (Matthew Evans 2016)

%BLOCK LATTICE_CART
5.67991 0.0 0.0
0.0 7.1202 0.0
0.0 0.0 7.0501
%ENDBLOCK LATTICE_CART

%BLOCK POSITIONS_FRAC
P           0.000000000000000    0.500000000000000   -0.000000000000000 
P           0.000000000000000    0.500000000000000    0.500000000000000 
P           0.250000000000000    0.000000000000000    0.679250000000000 
P           0.500000000000000    0.500000000000000   -0.000000000000000 
P           0.500000000000000    0.500000000000000    0.500000000000000 
P           0.750000000000000    0.000000000000000    0.320750000000000 
K           0.000000000000000    0.000000000000000    0.500000000000000 
K           0.250000000000000    0.000000000000000    0.962120000000000 
K           0.500000000000000    0.000000000000000    0.500000000000000 
K           0.750000000000000    0.000000000000000    0.037880000000000 
%ENDBLOCK POSITIONS_FRAC
