# Cell file generated by matador (Matthew Evans 2016)

%BLOCK LATTICE_CART
7.02099 0.0 0.0
-3.51049 6.08035 0.0
0.0 0.0 11.4207
%ENDBLOCK LATTICE_CART

%BLOCK POSITIONS_FRAC
P           0.106581000000000    0.715746000000000    0.575910000000000 
P           0.275832000000000    0.226753000000000    0.909244000000000 
P           0.284254000000000    0.390835000000000    0.575910000000000 
P           0.439914000000000    0.382413000000000    0.242577000000000 
P           0.609165000000000    0.893419000000000    0.575910000000000 
P           0.617587000000000    0.057501000000000    0.242577000000000 
P           0.773247000000000    0.049079000000000    0.909244000000000 
P           0.942499000000000    0.560086000000000    0.242577000000000 
P           0.950921000000000    0.724168000000000    0.909244000000000 
K           0.000000000000000    0.000000000000000    0.171931000000000 
K           0.000000000000000    0.000000000000000    0.550676000000000 
K           0.333333000000000    0.666667000000000    0.217342000000000 
K           0.333333000000000    0.666667000000000    0.838598000000000 
K           0.666667000000000    0.333333000000000    0.505265000000000 
K           0.666667000000000    0.333333000000000    0.884009000000000 
%ENDBLOCK POSITIONS_FRAC
