# Cell file generated by matador (Matthew Evans 2016)

%BLOCK LATTICE_CART
5.35971 0.0 0.0
-2.67985 4.64164 0.0
0.0 0.0 8.19296
%ENDBLOCK LATTICE_CART

%BLOCK POSITIONS_FRAC
P          -0.000000000000000    0.000000000000000    0.500000000000000 
P          -0.000000000000000    0.500000000000000    0.000000000000000 
P          -0.000000000000000    0.500000000000000    0.500000000000000 
P           0.500000000000000    0.000000000000000    0.000000000000000 
P           0.500000000000000    0.000000000000000    0.500000000000000 
P           0.500000000000000    0.500000000000000    0.000000000000000 
P           0.500000000000000    0.500000000000000    0.500000000000000 
K           0.333333000000000    0.666667000000000    0.235471000000000 
K           0.666666000000000    0.333334000000000    0.764529000000000 
%ENDBLOCK POSITIONS_FRAC
