# Cell file generated by matador (Matthew Evans 2016)

%BLOCK LATTICE_CART
6.78232 0.0 0.0
2.82657 11.7555 0.0
-1.08956 4.76003 7.64192
%ENDBLOCK LATTICE_CART

%BLOCK POSITIONS_FRAC
P           0.000000000000000    0.000000000000000    0.000000000000000 
P           0.130904000000000    0.193860000000000    0.572542000000000 
P           0.414966000000000    0.650142000000000    0.150998000000000 
P           0.500000000000000    0.000000000000000    0.000000000000000 
P           0.500000000000000    0.000000000000000    0.500000000000000 
P           0.500000000000000    0.500000000000000    0.000000000000000 
P           0.585034000000000    0.349858000000000    0.849002000000000 
P           0.869096000000000    0.806140000000000    0.427458000000000 
K           0.000000000000000    0.000000000000000    0.500000000000000 
K           0.131253000000000    0.232515000000000    0.190323000000000 
K           0.240188000000000    0.602392000000000    0.710154000000000 
K           0.273288000000000    0.821589000000000    0.312620000000000 
K           0.419252000000000    0.234588000000000    0.466880000000000 
K           0.500000000000000    0.500000000000000    0.500000000000000 
K           0.580748000000000    0.765412000000000    0.533120000000000 
K           0.726712000000000    0.178411000000000    0.687380000000000 
K           0.759812000000000    0.397608000000000    0.289846000000000 
K           0.868747000000000    0.767485000000000    0.809677000000000 
%ENDBLOCK POSITIONS_FRAC
