# Cell file generated by matador (Matthew Evans 2016)

%BLOCK LATTICE_CART
7.14895 0.0 0.0
0.0 7.14895 0.0
0.0 0.0 12.7364
%ENDBLOCK LATTICE_CART

%BLOCK POSITIONS_FRAC
P           0.000000000000000    0.000000000000000    0.161053000000000 
P           0.000000000000000    0.000000000000000    0.838947000000000 
P           0.500000000000000    0.500000000000000    0.338947000000000 
P           0.500000000000000    0.500000000000000    0.661053000000000 
K           0.000000000000000    0.000000000000000    0.000000000000000 
K           0.000000000000000    0.000000000000000    0.500000000000000 
K           0.000000000000000    0.290192000000000    0.332892000000000 
K           0.000000000000000    0.709808000000000    0.332892000000000 
K           0.209808000000000    0.500000000000000    0.167108000000000 
K           0.290192000000000    0.000000000000000    0.667108000000000 
K           0.500000000000000    0.209808000000000    0.832892000000000 
K           0.500000000000000    0.500000000000000    0.000000000000000 
K           0.500000000000000    0.500000000000000    0.500000000000000 
K           0.500000000000000    0.790192000000000    0.832892000000000 
K           0.709808000000000    0.000000000000000    0.667108000000000 
K           0.790192000000000    0.500000000000000    0.167108000000000 
%ENDBLOCK POSITIONS_FRAC
