# Cell file generated by matador (Matthew Evans 2016)

%BLOCK LATTICE_CART
7.81856 0.0 0.0
-3.90928 6.77107 0.0
0.0 0.0 9.64158
%ENDBLOCK LATTICE_CART

%BLOCK POSITIONS_FRAC
P           0.199956000000000    0.399913000000000    0.666667000000000 
P           0.199956000000000    0.800044000000000    0.333333000000000 
P           0.600087000000000    0.800044000000000    0.000000000000000 
K           0.132303000000000    0.264606000000000    0.166667000000000 
K           0.132303000000000    0.867697000000000    0.833333000000000 
K           0.513439000000000    0.026878000000000    0.666667000000000 
K           0.513439000000000    0.486561000000000    0.333333000000000 
K           0.557240000000000    0.114482000000000    0.166667000000000 
K           0.557240000000000    0.442760000000000    0.833333000000000 
K           0.735394000000000    0.867697000000000    0.500000000000000 
K           0.885518000000000    0.442760000000000    0.500000000000000 
K           0.973122000000000    0.486561000000000    0.000000000000000 
%ENDBLOCK POSITIONS_FRAC
