# Cell file generated by matador (Matthew Evans 2016)

%BLOCK LATTICE_CART
7.25792 0.0 0.0
0.0 6.8818 0.0
-0.033364 0.0 7.24298
%ENDBLOCK LATTICE_CART

%BLOCK POSITIONS_FRAC
P           0.000000000000000    0.792785000000000    0.000000000000000 
P           0.048558000000000    0.082615000000000    0.692078000000000 
P           0.429064000000000    0.304324000000000    0.003578000000000 
P           0.500000000000000    0.781165000000000    0.000000000000000 
P           0.570936000000000    0.304324000000000    0.996422000000000 
P           0.951442000000000    0.082615000000000    0.307922000000000 
K           0.000000000000000    0.333468000000000    0.000000000000000 
K           0.000000000000000    0.716172000000000    0.500000000000000 
K           0.121639000000000    0.437898000000000    0.634492000000000 
K           0.347954000000000    0.706680000000000    0.319280000000000 
K           0.500000000000000    0.152395000000000    0.500000000000000 
K           0.652046000000000    0.706680000000000    0.680720000000000 
K           0.878361000000000    0.437898000000000    0.365508000000000 
%ENDBLOCK POSITIONS_FRAC
