# Cell file generated by matador (Matthew Evans 2016)

%BLOCK LATTICE_CART
8.732 0.0 0.0
0.0 6.7373 0.0
0.0 0.0 8.01062
%ENDBLOCK LATTICE_CART

%BLOCK POSITIONS_FRAC
P           0.250000000000000    0.046855000000000    0.500000000000000 
P           0.250000000000000    0.453145000000000    0.500000000000000 
P           0.250000000000000    0.750000000000000    0.000000000000000 
P           0.250000000000000    0.750000000000000    0.137429000000000 
P           0.250000000000000    0.750000000000000    0.862571000000000 
P           0.750000000000000    0.250000000000000    0.000000000000000 
P           0.750000000000000    0.250000000000000    0.137429000000000 
P           0.750000000000000    0.250000000000000    0.862571000000000 
P           0.750000000000000    0.546855000000000    0.500000000000000 
P           0.750000000000000    0.953145000000000    0.500000000000000 
K           0.000000000000000    0.000000000000000    0.500000000000000 
K           0.000000000000000    0.500000000000000    0.500000000000000 
K           0.250000000000000    0.250000000000000    0.000000000000000 
K           0.250000000000000    0.750000000000000    0.500000000000000 
K           0.500000000000000    0.000000000000000    0.500000000000000 
K           0.500000000000000    0.500000000000000    0.500000000000000 
K           0.750000000000000    0.250000000000000    0.500000000000000 
K           0.750000000000000    0.750000000000000    0.000000000000000 
%ENDBLOCK POSITIONS_FRAC
