# Cell file generated by matador (Matthew Evans 2016)

%BLOCK LATTICE_CART
10.4978 0.0 0.0
0.0 10.4978 0.0
0.0 0.0 12.1607
%ENDBLOCK LATTICE_CART

%BLOCK POSITIONS_FRAC
P           0.000000000000000    0.500000000000000    0.102532000000000 
P           0.000000000000000    0.500000000000000    0.397468000000000 
P           0.000000000000000    0.500000000000000    0.602532000000000 
P           0.000000000000000    0.500000000000000    0.897468000000000 
P           0.500000000000000    0.000000000000000    0.102532000000000 
P           0.500000000000000    0.000000000000000    0.397468000000000 
P           0.500000000000000    0.000000000000000    0.602532000000000 
P           0.500000000000000    0.000000000000000    0.897468000000000 
K           0.000066000000000    0.754102000000000   -0.000000000000000 
K           0.031896000000000    0.705789000000000    0.500000000000000 
K           0.205789000000000    0.468104000000000   -0.000000000000000 
K           0.242337000000000    0.757663000000000    0.133225000000000 
K           0.242337000000000    0.757663000000000    0.866775000000000 
K           0.245898000000000    0.999934000000000   -0.000000000000000 
K           0.254102000000000    0.499934000000000    0.500000000000000 
K           0.257663000000000    0.257663000000000    0.366775000000000 
K           0.257663000000000    0.257663000000000    0.633225000000000 
K           0.294211000000000    0.968104000000000    0.500000000000000 
K           0.468104000000000    0.205789000000000   -0.000000000000000 
K           0.499934000000000    0.254102000000000    0.500000000000000 
K           0.500066000000000    0.745898000000000    0.500000000000000 
K           0.531896000000000    0.794211000000000   -0.000000000000000 
K           0.705789000000000    0.031896000000000    0.500000000000000 
K           0.742337000000000    0.742337000000000    0.366775000000000 
K           0.742337000000000    0.742337000000000    0.633225000000000 
K           0.745898000000000    0.500066000000000    0.500000000000000 
K           0.754102000000000    0.000066000000000   -0.000000000000000 
K           0.757663000000000    0.242337000000000    0.133225000000000 
K           0.757663000000000    0.242337000000000    0.866775000000000 
K           0.794211000000000    0.531896000000000   -0.000000000000000 
K           0.968104000000000    0.294211000000000    0.500000000000000 
K           0.999934000000000    0.245898000000000   -0.000000000000000 
%ENDBLOCK POSITIONS_FRAC
