# Cell file generated by matador (Matthew Evans 2016)

%BLOCK LATTICE_CART
10.3133 0.0 0.0
-5.15663 8.93154 0.0
0.0 0.0 6.45955
%ENDBLOCK LATTICE_CART

%BLOCK POSITIONS_FRAC
P           0.072588000000000    0.269122000000000    0.755288000000000 
P           0.196534000000000    0.927412000000000    0.421955000000000 
P           0.269122000000000    0.072588000000000    0.244712000000000 
P           0.730878000000000    0.803466000000000    0.088621000000000 
P           0.803466000000000    0.730878000000000    0.911379000000000 
P           0.927412000000000    0.196534000000000    0.578045000000000 
K           0.000000000000000    0.046749000000000    0.666667000000000 
K           0.000000000000000    0.599340000000000    0.666667000000000 
K           0.046749000000000    0.000000000000000    0.333333000000000 
K           0.130302000000000    0.445611000000000    0.111058000000000 
K           0.315309000000000    0.869698000000000    0.777725000000000 
K           0.400660000000000    0.400660000000000    0.000000000000000 
K           0.445611000000000    0.130302000000000    0.888942000000000 
K           0.554389000000000    0.684691000000000    0.444392000000000 
K           0.599340000000000    0.000000000000000    0.333333000000000 
K           0.684691000000000    0.554389000000000    0.555608000000000 
K           0.869698000000000    0.315309000000000    0.222275000000000 
K           0.953251000000000    0.953251000000000    0.000000000000000 
%ENDBLOCK POSITIONS_FRAC
