# Cell file generated by matador (Matthew Evans 2016)

%BLOCK LATTICE_CART
9.21418 0.0 0.0
0.0 9.18048 0.0
0.0 0.0 6.35778
%ENDBLOCK LATTICE_CART

%BLOCK POSITIONS_FRAC
P           0.000000000000000    0.000000000000000    0.000000000000000 
P           0.000000000000000    0.500000000000000    0.000000000000000 
P           0.114475000000000    0.062323000000000    0.714620000000000 
P           0.114475000000000    0.437677000000000    0.285380000000000 
P           0.250000000000000    0.250000000000000    0.000000000000000 
P           0.385525000000000    0.062323000000000    0.285380000000000 
P           0.385525000000000    0.437677000000000    0.714620000000000 
P           0.500000000000000    0.000000000000000    0.000000000000000 
P           0.500000000000000    0.500000000000000    0.000000000000000 
P           0.614475000000000    0.562323000000000    0.285380000000000 
P           0.614475000000000    0.937677000000000    0.714620000000000 
P           0.750000000000000    0.750000000000000    0.000000000000000 
P           0.885525000000000    0.562323000000000    0.714620000000000 
P           0.885525000000000    0.937677000000000    0.285380000000000 
K           0.250000000000000    0.250000000000000    0.500000000000000 
K           0.250000000000000    0.750000000000000    0.000000000000000 
K           0.250000000000000    0.750000000000000    0.500000000000000 
K           0.750000000000000    0.250000000000000    0.000000000000000 
K           0.750000000000000    0.250000000000000    0.500000000000000 
K           0.750000000000000    0.750000000000000    0.500000000000000 
%ENDBLOCK POSITIONS_FRAC
