# Cell file generated by matador (Matthew Evans 2016)

%BLOCK LATTICE_CART
6.55233 0.0 0.0
-3.27616 5.67448 0.0
0.0 0.0 5.93864
%ENDBLOCK LATTICE_CART

%BLOCK POSITIONS_FRAC
P           0.000000000000000    0.000000000000000    0.500000000000000 
P           0.333333000000000    0.666667000000000    0.091703000000000 
P           0.333333000000000    0.666667000000000    0.908297000000000 
P           0.666667000000000    0.333333000000000    0.091703000000000 
P           0.666667000000000    0.333333000000000    0.908297000000000 
K           0.000000000000000    0.000000000000000    0.000000000000000 
K           0.000000000000000    0.582965000000000    0.500000000000000 
K           0.417035000000000    0.417035000000000    0.500000000000000 
K           0.582965000000000    0.000000000000000    0.500000000000000 
%ENDBLOCK POSITIONS_FRAC
