# Cell file generated by matador (Matthew Evans 2016)

%BLOCK LATTICE_CART
9.4702 0.0 0.0
-4.7351 8.20143 0.0
0.0 0.0 8.87005
%ENDBLOCK LATTICE_CART

%BLOCK POSITIONS_FRAC
P          -0.000000000000000    0.000000000000000    0.062398000000000 
P          -0.000000000000000    0.000000000000000    0.437602000000000 
P          -0.000000000000000    0.000000000000000    0.562398000000000 
P          -0.000000000000000    0.000000000000000    0.937602000000000 
P          -0.000000000000000    0.500000000000000    0.000000000000000 
P          -0.000000000000000    0.500000000000000    0.500000000000000 
P           0.500000000000000    0.000000000000000    0.000000000000000 
P           0.500000000000000    0.000000000000000    0.500000000000000 
P           0.500000000000000    0.500000000000000    0.000000000000000 
P           0.500000000000000    0.500000000000000    0.500000000000000 
K           0.098041000000000    0.196082000000000    0.250000000000000 
K           0.098041000000000    0.901959000000000    0.250000000000000 
K           0.196082000000000    0.098041000000000    0.750000000000000 
K           0.333333000000000    0.666667000000000    0.750000000000000 
K           0.666667000000000    0.333333000000000    0.250000000000000 
K           0.803918000000000    0.901959000000000    0.250000000000000 
K           0.901959000000000    0.098041000000000    0.750000000000000 
K           0.901959000000000    0.803918000000000    0.750000000000000 
%ENDBLOCK POSITIONS_FRAC
