# Cell file generated by matador (Matthew Evans 2016)

%BLOCK LATTICE_CART
6.43665 0.0 0.0
-3.21833 5.57431 0.0
0.0 0.0 19.1264
%ENDBLOCK LATTICE_CART

%BLOCK POSITIONS_FRAC
P           0.000000000000000    0.400609000000000    0.802922000000000 
P           0.000000000000000    0.599391000000000    0.302922000000000 
P           0.333333000000000    0.666667000000000    0.231557000000000 
P           0.333333000000000    0.666667000000000    0.731557000000000 
P           0.400609000000000    0.000000000000000    0.802922000000000 
P           0.400609000000000    0.400609000000000    0.302922000000000 
P           0.599391000000000    0.000000000000000    0.302922000000000 
P           0.599391000000000    0.599391000000000    0.802922000000000 
P           0.666667000000000    0.333333000000000    0.231557000000000 
P           0.666667000000000    0.333333000000000    0.731557000000000 
K           0.000000000000000    0.000000000000000    0.128086000000000 
K           0.000000000000000    0.000000000000000    0.403827000000000 
K           0.000000000000000    0.000000000000000    0.628086000000000 
K           0.000000000000000    0.000000000000000    0.903827000000000 
K           0.333333000000000    0.666667000000000    0.051211000000000 
K           0.333333000000000    0.666667000000000    0.551211000000000 
K           0.666667000000000    0.333333000000000    0.051211000000000 
K           0.666667000000000    0.333333000000000    0.551211000000000 
%ENDBLOCK POSITIONS_FRAC
