# Cell file generated by matador (Matthew Evans 2016)

%BLOCK LATTICE_CART
8.30711 -0.0 0.0
-4.15356 7.19417 0.0
0.0 0.0 7.2699
%ENDBLOCK LATTICE_CART

%BLOCK POSITIONS_FRAC
P           0.168835000000000    0.743365000000000    0.996228000000000 
P           0.256635000000000    0.425470000000000    0.662894000000000 
P           0.425470000000000    0.168835000000000    0.829561000000000 
P           0.574530000000000    0.831165000000000    0.329561000000000 
P           0.743365000000000    0.574530000000000    0.162894000000000 
P           0.831165000000000    0.256635000000000    0.496228000000000 
K           0.059844000000000    0.306601000000000    0.195059000000000 
K           0.246757000000000    0.940156000000000    0.528392000000000 
K           0.306601000000000    0.246757000000000    0.361725000000000 
K           0.693399000000000    0.753243000000000    0.861725000000000 
K           0.753243000000000    0.059844000000000    0.028392000000000 
K           0.940156000000000    0.693399000000000    0.695059000000000 
%ENDBLOCK POSITIONS_FRAC
