# Cell file generated by matador (Matthew Evans 2016)

%BLOCK LATTICE_CART
7.43153 0.0 0.0
0.0 7.43153 0.0
0.0 0.0 7.18483
%ENDBLOCK LATTICE_CART

%BLOCK POSITIONS_FRAC
P           0.000000000000000    0.500000000000000    0.000000000000000 
P           0.500000000000000    0.000000000000000    0.000000000000000 
K           0.000000000000000    0.000000000000000    0.000000000000000 
K           0.257704000000000    0.279892000000000    0.500000000000000 
K           0.279892000000000    0.742296000000000    0.500000000000000 
K           0.500000000000000    0.500000000000000    0.000000000000000 
K           0.500000000000000    0.500000000000000    0.500000000000000 
K           0.720108000000000    0.257704000000000    0.500000000000000 
K           0.742296000000000    0.720108000000000    0.500000000000000 
%ENDBLOCK POSITIONS_FRAC
