# Cell file generated by matador (Matthew Evans 2016)

%BLOCK LATTICE_CART
6.58672 0.0 0.0
-3.29336 5.70427 0.0
0.0 0.0 9.67834
%ENDBLOCK LATTICE_CART

%BLOCK POSITIONS_FRAC
P           0.000000000000000    0.000000000000000    0.091490000000000 
P           0.000000000000000    0.000000000000000    0.591490000000000 
P           0.333333000000000    0.666667000000000    0.314244000000000 
P           0.333333000000000    0.666667000000000    0.814244000000000 
P           0.666667000000000    0.333333000000000    0.314244000000000 
P           0.666667000000000    0.333333000000000    0.814244000000000 
K           0.000000000000000    0.500000000000000    0.088327000000000 
K           0.000000000000000    0.500000000000000    0.588327000000000 
K           0.500000000000000    0.000000000000000    0.088327000000000 
K           0.500000000000000    0.000000000000000    0.588327000000000 
K           0.500000000000000    0.500000000000000    0.088327000000000 
K           0.500000000000000    0.500000000000000    0.588327000000000 
%ENDBLOCK POSITIONS_FRAC
