# Cell file generated by matador (Matthew Evans 2016)

%BLOCK LATTICE_CART
7.43233 0.0 0.0
-3.71617 6.43659 0.0
0.0 0.0 13.4317
%ENDBLOCK LATTICE_CART

%BLOCK POSITIONS_FRAC
P           0.333334000000000    0.666668000000000    0.678117000000000 
P           0.333334000000000    0.666668000000000    0.917908000000000 
P           0.666668000000000    0.333334000000000    0.178117000000000 
P           0.666668000000000    0.333334000000000    0.417908000000000 
K           0.032368000000000    0.516184000000000    0.196469000000000 
K           0.141790000000000    0.283578000000000    0.883668000000000 
K           0.141790000000000    0.858212000000000    0.883668000000000 
K           0.283578000000000    0.141790000000000    0.383668000000000 
K           0.483818000000000    0.516184000000000    0.196469000000000 
K           0.483818000000000    0.967634000000000    0.196469000000000 
K           0.516184000000000    0.032368000000000    0.696469000000000 
K           0.516184000000000    0.483818000000000    0.696469000000000 
K           0.716424000000000    0.858212000000000    0.883668000000000 
K           0.858212000000000    0.141790000000000    0.383668000000000 
K           0.858212000000000    0.716424000000000    0.383668000000000 
K           0.967634000000000    0.483818000000000    0.696469000000000 
%ENDBLOCK POSITIONS_FRAC
