# Cell file generated by matador (Matthew Evans 2016)

%BLOCK LATTICE_CART
6.63386 0.0 0.0
-3.31693 5.74509 0.0
0.0 0.0 5.40967
%ENDBLOCK LATTICE_CART

%BLOCK POSITIONS_FRAC
P           0.000000000000000    0.000000000000000    0.430909000000000 
P           0.087737000000000    0.881436000000000    0.124785000000000 
P           0.118564000000000    0.206301000000000    0.124785000000000 
P           0.168851000000000    0.559089000000000    0.710542000000000 
P           0.390238000000000    0.831149000000000    0.710542000000000 
P           0.440911000000000    0.609762000000000    0.710542000000000 
P           0.793699000000000    0.912263000000000    0.124785000000000 
K           0.000000000000000    0.000000000000000    0.804302000000000 
K           0.666667000000000    0.333333000000000    0.984119000000000 
%ENDBLOCK POSITIONS_FRAC
