# Cell file generated by matador (Matthew Evans 2016)

%BLOCK LATTICE_CART
8.66511 0.0 0.0
-4.33255 7.5042 0.0
0.0 0.0 7.5876
%ENDBLOCK LATTICE_CART

%BLOCK POSITIONS_FRAC
P           0.000000000000000    0.000000000000000    0.500000000000000 
P           0.000000000000000    0.225951000000000    0.000000000000000 
P           0.000000000000000    0.590333000000000    0.000000000000000 
P           0.225951000000000    0.000000000000000    0.000000000000000 
P           0.236336000000000    0.709817000000000    0.170830000000000 
P           0.290183000000000    0.526520000000000    0.170830000000000 
P           0.333333000000000    0.666667000000000    0.044827000000000 
P           0.409667000000000    0.409667000000000    0.000000000000000 
P           0.473480000000000    0.763664000000000    0.170830000000000 
P           0.526520000000000    0.290183000000000    0.829170000000000 
P           0.590333000000000    0.000000000000000    0.000000000000000 
P           0.666667000000000    0.333333000000000    0.955173000000000 
P           0.709817000000000    0.236336000000000    0.829170000000000 
P           0.763664000000000    0.473480000000000    0.829170000000000 
P           0.774049000000000    0.774049000000000    0.000000000000000 
K           0.000000000000000    0.000000000000000    0.000000000000000 
K           0.333333000000000    0.666667000000000    0.606166000000000 
K           0.666667000000000    0.333333000000000    0.393834000000000 
%ENDBLOCK POSITIONS_FRAC
