# Cell file generated by matador (Matthew Evans 2016)

%BLOCK LATTICE_CART
8.15079 0.0 0.0
0.0 11.753 0.0
0.0 0.0 7.51019
%ENDBLOCK LATTICE_CART

%BLOCK POSITIONS_FRAC
P           0.181751000000000    0.385971000000000    0.500000000000000 
P           0.318249000000000    0.885971000000000    0.000000000000000 
P           0.681751000000000    0.114029000000000    0.000000000000000 
P           0.818249000000000    0.614029000000000    0.500000000000000 
K           0.000000000000000    0.000000000000000    0.000000000000000 
K           0.000000000000000    0.000000000000000    0.500000000000000 
K           0.000000000000000    0.500000000000000    0.000000000000000 
K           0.000000000000000    0.500000000000000    0.500000000000000 
K           0.076929000000000    0.387658000000000    0.183493000000000 
K           0.076929000000000    0.387658000000000    0.816507000000000 
K           0.423071000000000    0.887658000000000    0.316507000000000 
K           0.423071000000000    0.887658000000000    0.683493000000000 
K           0.500000000000000    0.000000000000000    0.000000000000000 
K           0.500000000000000    0.000000000000000    0.500000000000000 
K           0.500000000000000    0.500000000000000    0.000000000000000 
K           0.500000000000000    0.500000000000000    0.500000000000000 
K           0.576929000000000    0.112342000000000    0.316507000000000 
K           0.576929000000000    0.112342000000000    0.683493000000000 
K           0.923071000000000    0.612342000000000    0.183493000000000 
K           0.923071000000000    0.612342000000000    0.816507000000000 
%ENDBLOCK POSITIONS_FRAC
