# Cell file generated by matador (Matthew Evans 2016)

%BLOCK LATTICE_CART
8.2785 0.0 0.0
0.0 7.55421 0.0
0.0 0.0 7.09913
%ENDBLOCK LATTICE_CART

%BLOCK POSITIONS_FRAC
P           0.000000000000000    0.000000000000000    0.000000000000000 
P           0.373854000000000    0.275600000000000    0.000000000000000 
P           0.373854000000000    0.724400000000000    0.000000000000000 
P           0.500000000000000    0.500000000000000    0.500000000000000 
P           0.626146000000000    0.275600000000000    0.000000000000000 
P           0.626146000000000    0.724400000000000    0.000000000000000 
K           0.000000000000000    0.000000000000000    0.500000000000000 
K           0.000000000000000    0.226479000000000    0.139666000000000 
K           0.000000000000000    0.226479000000000    0.860334000000000 
K           0.000000000000000    0.369131000000000    0.361763000000000 
K           0.000000000000000    0.369131000000000    0.638237000000000 
K           0.000000000000000    0.630869000000000    0.361763000000000 
K           0.000000000000000    0.630869000000000    0.638237000000000 
K           0.000000000000000    0.773521000000000    0.139666000000000 
K           0.000000000000000    0.773521000000000    0.860334000000000 
K           0.500000000000000    0.500000000000000    0.000000000000000 
%ENDBLOCK POSITIONS_FRAC
