# Cell file generated by matador (Matthew Evans 2016)

%BLOCK LATTICE_CART
8.99841 0.0 0.0
0.0553612 9.0913 0.0
2.91991 2.13097 6.48984
%ENDBLOCK LATTICE_CART

%BLOCK POSITIONS_FRAC
P           0.500000000000000    0.000000000000000    0.000000000000000 
P           0.500000000000000    0.000000000000000    0.500000000000000 
P           0.500000000000000    0.500000000000000    0.000000000000000 
P           0.500000000000000    0.500000000000000    0.500000000000000 
K           0.000000000000000    0.000000000000000    0.500000000000000 
K           0.000000000000000    0.500000000000000    0.500000000000000 
K           0.187999000000000    0.735514000000000    0.441186000000000 
K           0.231718000000000    0.624264000000000    0.055497000000000 
K           0.329736000000000    0.178186000000000    0.769421000000000 
K           0.333540000000000    0.131195000000000    0.377602000000000 
K           0.666460000000000    0.868805000000000    0.622398000000000 
K           0.670264000000000    0.821814000000000    0.230579000000000 
K           0.768282000000000    0.375736000000000    0.944503000000000 
K           0.812001000000000    0.264486000000000    0.558814000000000 
%ENDBLOCK POSITIONS_FRAC
