# Cell file generated by matador (Matthew Evans 2016)

%BLOCK LATTICE_CART
12.605 0.0 0.0
-6.30251 10.9163 0.0
0.0 0.0 7.6249
%ENDBLOCK LATTICE_CART

%BLOCK POSITIONS_FRAC
P           0.000000000000000    0.000000000000000   -0.000000000000000 
P           0.000000000000000    0.000000000000000    0.500000000000000 
P           0.333333000000000    0.666667000000000    0.250000000000000 
P           0.333333000000000    0.666667000000000    0.750000000000000 
P           0.666667000000000    0.333333000000000    0.250000000000000 
P           0.666667000000000    0.333333000000000    0.750000000000000 
K           0.000000000000000    0.227233000000000   -0.000000000000000 
K           0.000000000000000    0.227233000000000    0.500000000000000 
K           0.017496000000000    0.424850000000000    0.250000000000000 
K           0.058722000000000    0.694833000000000    0.750000000000000 
K           0.227233000000000    0.000000000000000   -0.000000000000000 
K           0.227233000000000    0.000000000000000    0.500000000000000 
K           0.305167000000000    0.363888000000000    0.750000000000000 
K           0.363888000000000    0.305167000000000    0.250000000000000 
K           0.407355000000000    0.982504000000000    0.250000000000000 
K           0.424850000000000    0.017496000000000    0.750000000000000 
K           0.575150000000000    0.592645000000000    0.250000000000000 
K           0.592645000000000    0.575150000000000    0.750000000000000 
K           0.636112000000000    0.941278000000000    0.750000000000000 
K           0.694833000000000    0.058722000000000    0.250000000000000 
K           0.772767000000000    0.772767000000000   -0.000000000000000 
K           0.772767000000000    0.772767000000000    0.500000000000000 
K           0.941278000000000    0.636112000000000    0.250000000000000 
K           0.982504000000000    0.407355000000000    0.750000000000000 
%ENDBLOCK POSITIONS_FRAC
