# Cell file generated by matador (Matthew Evans 2016)

%BLOCK LATTICE_CART
7.64913 0.0 0.0
-3.82456 6.62434 0.0
0.0 0.0 18.0088
%ENDBLOCK LATTICE_CART

%BLOCK POSITIONS_FRAC
P           0.000000000000000    0.000000000000000    0.082946000000000 
P           0.000000000000000    0.000000000000000    0.389599000000000 
P           0.333333000000000    0.666667000000000    0.056265000000000 
P           0.333333000000000    0.666667000000000    0.749612000000000 
P           0.666667000000000    0.333333000000000    0.416279000000000 
P           0.666667000000000    0.333333000000000    0.722932000000000 
K           0.027769000000000    0.513884000000000    0.559185000000000 
K           0.152782000000000    0.305564000000000    0.892518000000000 
K           0.152782000000000    0.847218000000000    0.892518000000000 
K           0.184913000000000    0.369825000000000    0.411210000000000 
K           0.184913000000000    0.815087000000000    0.411210000000000 
K           0.296842000000000    0.148421000000000    0.744543000000000 
K           0.361102000000000    0.180551000000000    0.225851000000000 
K           0.486116000000000    0.513884000000000    0.559185000000000 
K           0.486116000000000    0.972231000000000    0.559185000000000 
K           0.518246000000000    0.036492000000000    0.077877000000000 
K           0.518246000000000    0.481754000000000    0.077877000000000 
K           0.630175000000000    0.815087000000000    0.411210000000000 
K           0.694436000000000    0.847218000000000    0.892518000000000 
K           0.819449000000000    0.180551000000000    0.225851000000000 
K           0.819449000000000    0.638898000000000    0.225851000000000 
K           0.851579000000000    0.148421000000000    0.744543000000000 
K           0.851579000000000    0.703158000000000    0.744543000000000 
K           0.963508000000000    0.481754000000000    0.077877000000000 
%ENDBLOCK POSITIONS_FRAC
