# Cell file generated by matador (Matthew Evans 2016)

%BLOCK LATTICE_CART
7.64298 0.0 0.0
0.0 7.64298 0.0
0.0 0.0 7.03091
%ENDBLOCK LATTICE_CART

%BLOCK POSITIONS_FRAC
P           0.000000000000000    0.500000000000000    0.250000000000000 
P           0.000000000000000    0.500000000000000    0.750000000000000 
P           0.500000000000000    0.000000000000000    0.250000000000000 
P           0.500000000000000    0.000000000000000    0.750000000000000 
K           0.075314000000000    0.194649000000000    0.000000000000000 
K           0.194649000000000    0.924686000000000    0.000000000000000 
K           0.305351000000000    0.424686000000000    0.500000000000000 
K           0.424686000000000    0.694649000000000    0.500000000000000 
K           0.575314000000000    0.305351000000000    0.500000000000000 
K           0.694649000000000    0.575314000000000    0.500000000000000 
K           0.805351000000000    0.075314000000000    0.000000000000000 
K           0.924686000000000    0.805351000000000    0.000000000000000 
%ENDBLOCK POSITIONS_FRAC
