# Cell file generated by matador (Matthew Evans 2016)

%BLOCK LATTICE_CART
11.2677 0.0 0.0
-5.63387 9.75816 0.0
0.0 0.0 8.88481
%ENDBLOCK LATTICE_CART

%BLOCK POSITIONS_FRAC
P           0.000000000000000    0.000000000000000   -0.000000000000000 
P           0.000000000000000    0.000000000000000    0.500000000000000 
P           0.333333000000000    0.666667000000000    0.166667000000000 
P           0.333333000000000    0.666667000000000    0.666667000000000 
P           0.666667000000000    0.333333000000000    0.333333000000000 
P           0.666667000000000    0.333333000000000    0.833333000000000 
K           0.000000000000000    0.186376000000000    0.500000000000000 
K           0.000000000000000    0.771592000000000   -0.000000000000000 
K           0.104926000000000    0.666667000000000    0.666667000000000 
K           0.146957000000000    0.480291000000000    0.166667000000000 
K           0.186376000000000    0.000000000000000    0.500000000000000 
K           0.228408000000000    0.228408000000000   -0.000000000000000 
K           0.333333000000000    0.438259000000000    0.666667000000000 
K           0.333333000000000    0.853043000000000    0.166667000000000 
K           0.438259000000000    0.333333000000000    0.333333000000000 
K           0.480291000000000    0.146957000000000    0.833333000000000 
K           0.519709000000000    0.666667000000000    0.166667000000000 
K           0.561741000000000    0.895074000000000    0.666667000000000 
K           0.666667000000000    0.104926000000000    0.333333000000000 
K           0.666667000000000    0.519709000000000    0.833333000000000 
K           0.771592000000000    0.000000000000000   -0.000000000000000 
K           0.813624000000000    0.813624000000000    0.500000000000000 
K           0.853043000000000    0.333333000000000    0.833333000000000 
K           0.895074000000000    0.561741000000000    0.333333000000000 
%ENDBLOCK POSITIONS_FRAC
