# Cell file generated by matador (Matthew Evans 2016)

%BLOCK LATTICE_CART
9.66791 0.0 0.0
0.0 9.66791 0.0
0.0 0.0 5.80325
%ENDBLOCK LATTICE_CART

%BLOCK POSITIONS_FRAC
P           0.000000000000000    0.000000000000000    0.500000000000000 
P           0.000000000000000    0.322008000000000    0.500000000000000 
P           0.000000000000000    0.677992000000000    0.500000000000000 
P           0.177992000000000    0.500000000000000    0.000000000000000 
P           0.322008000000000    0.000000000000000    0.500000000000000 
P           0.500000000000000    0.177992000000000    0.000000000000000 
P           0.500000000000000    0.500000000000000    0.000000000000000 
P           0.500000000000000    0.822008000000000    0.000000000000000 
P           0.677992000000000    0.000000000000000    0.500000000000000 
P           0.822008000000000    0.500000000000000    0.000000000000000 
K           0.246152000000000    0.246152000000000    0.490242000000000 
K           0.246152000000000    0.753848000000000    0.509758000000000 
K           0.253848000000000    0.253848000000000    0.990242000000000 
K           0.253848000000000    0.746152000000000    0.009758000000000 
K           0.746152000000000    0.253848000000000    0.009758000000000 
K           0.746152000000000    0.746152000000000    0.990242000000000 
K           0.753848000000000    0.246152000000000    0.509758000000000 
K           0.753848000000000    0.753848000000000    0.490242000000000 
%ENDBLOCK POSITIONS_FRAC
