# Cell file generated by matador (Matthew Evans 2016)

%BLOCK LATTICE_CART
9.19233 0.0 0.0
2.43508 6.48136 0.0
-2.20823 -1.93439 6.49949
%ENDBLOCK LATTICE_CART

%BLOCK POSITIONS_FRAC
P           0.078035000000000    0.692787000000000    0.948499000000000 
P           0.921965000000000    0.307213000000000    0.051501000000000 
K           0.000000000000000    0.000000000000000    0.000000000000000 
K           0.000000000000000    0.000000000000000    0.500000000000000 
K           0.000000000000000    0.500000000000000    0.000000000000000 
K           0.000000000000000    0.500000000000000    0.500000000000000 
K           0.235594000000000    0.024106000000000    0.746358000000000 
K           0.500000000000000    0.000000000000000    0.000000000000000 
K           0.500000000000000    0.000000000000000    0.500000000000000 
K           0.500000000000000    0.500000000000000    0.000000000000000 
K           0.500000000000000    0.500000000000000    0.500000000000000 
K           0.764406000000000    0.975894000000000    0.253642000000000 
%ENDBLOCK POSITIONS_FRAC
