# Cell file generated by matador (Matthew Evans 2016)

%BLOCK LATTICE_CART
5.18482 0.0 0.0
-2.59241 4.49019 0.0
0.0 0.0 7.27217
%ENDBLOCK LATTICE_CART

%BLOCK POSITIONS_FRAC
P           0.333333000000000    0.666667000000000    0.697468000000000 
K          -0.000000000000000    0.000000000000000    0.669764000000000 
K           0.333333000000000    0.666667000000000    0.054466000000000 
K           0.666666000000000    0.333334000000000    0.517225000000000 
K           0.666666000000000    0.333334000000000    0.889302000000000 
%ENDBLOCK POSITIONS_FRAC
