# Cell file generated by matador (Matthew Evans 2016)

%BLOCK LATTICE_CART
9.19067 0.0 0.0
-4.59534 7.95935 0.0
0.0 0.0 5.88286
%ENDBLOCK LATTICE_CART

%BLOCK POSITIONS_FRAC
P           0.000000000000000    0.000000000000000    0.500000000000000 
P           0.333333000000000    0.666667000000000    0.266791000000000 
P           0.333333000000000    0.666667000000000    0.733209000000000 
P           0.666667000000000    0.333333000000000    0.266791000000000 
P           0.666667000000000    0.333333000000000    0.733209000000000 
K           0.000000000000000    0.000000000000000    0.000000000000000 
K           0.000000000000000    0.217611000000000    0.000000000000000 
K           0.000000000000000    0.461916000000000    0.500000000000000 
K           0.217611000000000    0.000000000000000    0.000000000000000 
K           0.461916000000000    0.000000000000000    0.500000000000000 
K           0.538084000000000    0.538084000000000    0.500000000000000 
K           0.782389000000000    0.782389000000000    0.000000000000000 
%ENDBLOCK POSITIONS_FRAC
