# Cell file generated by matador (Matthew Evans 2016)

%BLOCK LATTICE_CART
6.56665 0.0 0.0
0.0 6.56665 0.0
0.0 0.0 8.98744
%ENDBLOCK LATTICE_CART

%BLOCK POSITIONS_FRAC
P           0.000000000000000    0.000000000000000    0.258808000000000 
P           0.000000000000000    0.000000000000000    0.741192000000000 
P           0.000000000000000    0.500000000000000    0.601597000000000 
P           0.500000000000000    0.000000000000000    0.398403000000000 
P           0.500000000000000    0.500000000000000    0.174522000000000 
P           0.500000000000000    0.500000000000000    0.825478000000000 
K           0.000000000000000    0.000000000000000    0.000000000000000 
K           0.000000000000000    0.000000000000000    0.500000000000000 
K           0.144246000000000    0.384996000000000    0.137567000000000 
K           0.384996000000000    0.855754000000000    0.862433000000000 
K           0.500000000000000    0.500000000000000    0.500000000000000 
K           0.615004000000000    0.144246000000000    0.862433000000000 
K           0.855754000000000    0.615004000000000    0.137567000000000 
%ENDBLOCK POSITIONS_FRAC
