# Cell file generated by matador (Matthew Evans 2016)

%BLOCK LATTICE_CART
6.555 0.0 0.0
0.0 10.2487 0.0
3.57548 0.0 6.91626
%ENDBLOCK LATTICE_CART

%BLOCK POSITIONS_FRAC
P           0.000000000000000    0.139653000000000   -0.000000000000000 
P           0.000000000000000    0.606895000000000   -0.000000000000000 
P           0.000000000000000    0.847760000000000   -0.000000000000000 
P           0.181771000000000    0.168461000000000    0.616709000000000 
P           0.355522000000000    0.706526000000000    0.002719000000000 
P           0.500000000000000    0.188690000000000   -0.000000000000000 
P           0.500000000000000    0.482139000000000    0.500000000000000 
P           0.644478000000000    0.706526000000000    0.997281000000000 
P           0.818229000000000    0.168461000000000    0.383291000000000 
K           0.050476000000000    0.721777000000000    0.727912000000000 
K           0.119194000000000    0.427236000000000    0.724794000000000 
K           0.346958000000000    0.490617000000000    0.988649000000000 
K           0.653042000000000    0.490617000000000    0.011351000000000 
K           0.880806000000000    0.427236000000000    0.275206000000000 
K           0.949524000000000    0.721777000000000    0.272088000000000 
%ENDBLOCK POSITIONS_FRAC
