# Cell file generated by matador (Matthew Evans 2016)

%BLOCK LATTICE_CART
7.7789 0.0 0.0
0.0 7.40614 0.0
-2.48623 0.0 7.46441
%ENDBLOCK LATTICE_CART

%BLOCK POSITIONS_FRAC
P           0.500000000000000    0.334162000000000    0.750000000000000 
P           0.500000000000000    0.665838000000000    0.250000000000000 
K           0.000000000000000    0.000000000000000    0.000000000000000 
K           0.000000000000000    0.000000000000000    0.500000000000000 
K           0.000000000000000    0.500000000000000    0.000000000000000 
K           0.000000000000000    0.500000000000000    0.500000000000000 
K           0.156763000000000    0.371853000000000    0.739869000000000 
K           0.156763000000000    0.628147000000000    0.239869000000000 
K           0.500000000000000    0.000000000000000    0.000000000000000 
K           0.500000000000000    0.000000000000000    0.500000000000000 
K           0.500000000000000    0.316415000000000    0.250000000000000 
K           0.500000000000000    0.500000000000000    0.000000000000000 
K           0.500000000000000    0.500000000000000    0.500000000000000 
K           0.500000000000000    0.683585000000000    0.750000000000000 
K           0.843237000000000    0.371853000000000    0.760131000000000 
K           0.843237000000000    0.628147000000000    0.260131000000000 
%ENDBLOCK POSITIONS_FRAC
