# Cell file generated by matador (Matthew Evans 2016)

%BLOCK LATTICE_CART
7.39267 0.0 0.0
-3.69634 6.40224 0.0
0.0 0.0 8.52433
%ENDBLOCK LATTICE_CART

%BLOCK POSITIONS_FRAC
P           0.000000000000000    0.000000000000000    0.360888000000000 
P           0.000000000000000    0.000000000000000    0.639112000000000 
K           0.000000000000000    0.000000000000000    0.000000000000000 
K           0.333333000000000    0.666667000000000    0.000000000000000 
K           0.347891000000000    0.017574000000000    0.726714000000000 
K           0.347891000000000    0.330316000000000    0.273286000000000 
K           0.669684000000000    0.017574000000000    0.273286000000000 
K           0.669684000000000    0.652109000000000    0.726714000000000 
K           0.982426000000000    0.330316000000000    0.726714000000000 
K           0.982426000000000    0.652109000000000    0.273286000000000 
%ENDBLOCK POSITIONS_FRAC
