# Cell file generated by matador (Matthew Evans 2016)

%BLOCK LATTICE_CART
7.93118 0.0 0.0
-3.96559 6.8686 0.0
0.0 0.0 6.04656
%ENDBLOCK LATTICE_CART

%BLOCK POSITIONS_FRAC
P           0.000000000000000    0.500000000000000    0.000000000000000 
P           0.333333000000000    0.666667000000000    0.028956000000000 
P           0.333333000000000    0.666667000000000    0.408106000000000 
P           0.500000000000000    0.000000000000000    0.000000000000000 
P           0.500000000000000    0.500000000000000    0.000000000000000 
P           0.666667000000000    0.333333000000000    0.591894000000000 
P           0.666667000000000    0.333333000000000    0.971044000000000 
K           0.000000000000000    0.000000000000000    0.000000000000000 
K           0.000000000000000    0.500000000000000    0.500000000000000 
K           0.500000000000000    0.000000000000000    0.500000000000000 
K           0.500000000000000    0.500000000000000    0.500000000000000 
%ENDBLOCK POSITIONS_FRAC
