# Cell file generated by matador (Matthew Evans 2016)

%BLOCK LATTICE_CART
9.20478 0.0 0.0
-4.60239 7.97157 0.0
0.0 0.0 8.99942
%ENDBLOCK LATTICE_CART

%BLOCK POSITIONS_FRAC
P           0.000000000000000    0.000000000000000    0.500000000000000 
P           0.000000000000000    0.500000000000000    0.500000000000000 
P           0.500000000000000    0.000000000000000    0.500000000000000 
P           0.500000000000000    0.500000000000000    0.500000000000000 
K           0.082946000000000    0.541473000000000    0.225147000000000 
K           0.151775000000000    0.303551000000000    0.650066000000000 
K           0.151775000000000    0.848225000000000    0.650066000000000 
K           0.303551000000000    0.151775000000000    0.349934000000000 
K           0.458527000000000    0.541473000000000    0.225147000000000 
K           0.458527000000000    0.917054000000000    0.225147000000000 
K           0.541473000000000    0.082946000000000    0.774853000000000 
K           0.541473000000000    0.458527000000000    0.774853000000000 
K           0.696449000000000    0.848225000000000    0.650066000000000 
K           0.848225000000000    0.151775000000000    0.349934000000000 
K           0.848225000000000    0.696449000000000    0.349934000000000 
K           0.917054000000000    0.458527000000000    0.774853000000000 
%ENDBLOCK POSITIONS_FRAC
