# Cell file generated by matador (Matthew Evans 2016)

%BLOCK LATTICE_CART
7.05924 0.0 0.0
-3.52962 6.11348 0.0
0.0 0.0 9.21864
%ENDBLOCK LATTICE_CART

%BLOCK POSITIONS_FRAC
P           0.062088000000000    0.531044000000000    0.508892000000000 
P           0.468956000000000    0.531044000000000    0.508892000000000 
P           0.468956000000000    0.937912000000000    0.508892000000000 
P           0.666667000000000    0.333333000000000    0.658844000000000 
K           0.000000000000000    0.000000000000000    0.282309000000000 
K           0.000000000000000    0.000000000000000    0.873162000000000 
K           0.333333000000000    0.666667000000000    0.172667000000000 
K           0.523637000000000    0.047275000000000    0.149858000000000 
K           0.523637000000000    0.476363000000000    0.149858000000000 
K           0.666667000000000    0.333333000000000    0.404919000000000 
K           0.952725000000000    0.476363000000000    0.149858000000000 
%ENDBLOCK POSITIONS_FRAC
