# Cell file generated by matador (Matthew Evans 2016)

%BLOCK LATTICE_CART
3.49886 0.0 0.0
0.0 6.69271 0.0
2.53317 0.0 6.95838
%ENDBLOCK LATTICE_CART

%BLOCK POSITIONS_FRAC
P           0.000000000000000    0.097801000000000   -0.000000000000000 
P           0.276499000000000    0.280710000000000    0.571100000000000 
P           0.500000000000000    0.747221000000000    0.500000000000000 
P           0.723501000000000    0.280710000000000    0.428900000000000 
K           0.174607000000000    0.645855000000000    0.237979000000000 
K           0.825393000000000    0.645855000000000    0.762021000000000 
%ENDBLOCK POSITIONS_FRAC
