# Cell file generated by matador (Matthew Evans 2016)

%BLOCK LATTICE_CART
6.70764 0.0 0.0
0.0 6.70764 0.0
0.0 0.0 8.67922
%ENDBLOCK LATTICE_CART

%BLOCK POSITIONS_FRAC
P           0.023034000000000    0.361921000000000    0.788465000000000 
P           0.114272000000000    0.278413000000000    0.720759000000000 
P           0.181454000000000    0.637362000000000    0.998081000000000 
P           0.278413000000000    0.885728000000000    0.470759000000000 
P           0.328560000000000    0.493680000000000    0.246245000000000 
P           0.361921000000000    0.976966000000000    0.538465000000000 
P           0.362638000000000    0.181454000000000    0.248081000000000 
P           0.493680000000000    0.671440000000000    0.996245000000000 
P           0.506320000000000    0.328560000000000    0.496245000000000 
P           0.637362000000000    0.818546000000000    0.748081000000000 
P           0.638079000000000    0.023034000000000    0.038465000000000 
P           0.671440000000000    0.506320000000000    0.746245000000000 
P           0.721587000000000    0.114272000000000    0.970759000000000 
P           0.818546000000000    0.362638000000000    0.498081000000000 
P           0.885728000000000    0.721587000000000    0.220759000000000 
P           0.976966000000000    0.638079000000000    0.288465000000000 
K           0.058085000000000    0.186895000000000    0.129792000000000 
K           0.186895000000000    0.941915000000000    0.879792000000000 
K           0.813105000000000    0.058085000000000    0.379792000000000 
K           0.941915000000000    0.813105000000000    0.629792000000000 
%ENDBLOCK POSITIONS_FRAC
