# Cell file generated by matador (Matthew Evans 2016)

%BLOCK LATTICE_CART
8.98307 -0.0 0.0
-4.49153 7.77957 0.0
0.0 0.0 6.97262
%ENDBLOCK LATTICE_CART

%BLOCK POSITIONS_FRAC
P           0.091926000000000    0.608223000000000    0.012799000000000 
P           0.391777000000000    0.483703000000000    0.679465000000000 
P           0.483703000000000    0.091926000000000    0.346132000000000 
P           0.516297000000000    0.908074000000000    0.346132000000000 
P           0.608223000000000    0.516297000000000    0.679465000000000 
P           0.908074000000000    0.391777000000000    0.012799000000000 
K           0.000000000000000    0.500000000000000    0.744317000000000 
K           0.013270000000000    0.759630000000000    0.847607000000000 
K           0.240370000000000    0.253640000000000    0.514273000000000 
K           0.253640000000000    0.013270000000000    0.180940000000000 
K           0.500000000000000    0.000000000000000    0.077650000000000 
K           0.500000000000000    0.500000000000000    0.410983000000000 
K           0.746360000000000    0.986730000000000    0.180940000000000 
K           0.759630000000000    0.746360000000000    0.514273000000000 
K           0.986730000000000    0.240370000000000    0.847607000000000 
%ENDBLOCK POSITIONS_FRAC
