# Cell file generated by matador (Matthew Evans 2016)

%BLOCK LATTICE_CART
7.42885 0.0 0.0
0.0 5.20843 0.0
0.0 0.0 7.5355
%ENDBLOCK LATTICE_CART

%BLOCK POSITIONS_FRAC
P           0.000000000000000    0.000000000000000    0.850539000000000 
P           0.207846000000000    0.712361000000000    0.899524000000000 
P           0.292154000000000    0.212361000000000    0.100476000000000 
P           0.500000000000000    0.500000000000000    0.149461000000000 
P           0.707846000000000    0.787639000000000    0.100476000000000 
P           0.792154000000000    0.287639000000000    0.899524000000000 
K           0.000000000000000    0.000000000000000    0.547321000000000 
K           0.000000000000000    0.500000000000000    0.193812000000000 
K           0.500000000000000    0.000000000000000    0.806188000000000 
K           0.500000000000000    0.500000000000000    0.452679000000000 
%ENDBLOCK POSITIONS_FRAC
