# Cell file generated by matador (Matthew Evans 2016)

%BLOCK LATTICE_CART
7.65958 0.0 0.0
0.0 11.7485 0.0
0.0 0.0 6.4171
%ENDBLOCK LATTICE_CART

%BLOCK POSITIONS_FRAC
P           0.000000000000000    0.000000000000000    0.447352000000000 
P           0.000000000000000    0.000000000000000    0.903903000000000 
P           0.000000000000000    0.500000000000000    0.338522000000000 
P           0.000000000000000    0.500000000000000    0.863651000000000 
P           0.118009000000000    0.000000000000000    0.718321000000000 
P           0.299304000000000    0.427118000000000    0.009770000000000 
P           0.299304000000000    0.572882000000000    0.009770000000000 
P           0.500000000000000    0.500000000000000    0.542992000000000 
P           0.500000000000000    0.500000000000000    0.769244000000000 
P           0.700696000000000    0.427118000000000    0.009770000000000 
P           0.700696000000000    0.572882000000000    0.009770000000000 
P           0.881991000000000    0.000000000000000    0.718321000000000 
K           0.146221000000000    0.322982000000000    0.827390000000000 
K           0.146221000000000    0.677018000000000    0.827390000000000 
K           0.276680000000000    0.208115000000000    0.083298000000000 
K           0.276680000000000    0.791885000000000    0.083298000000000 
K           0.723320000000000    0.208115000000000    0.083298000000000 
K           0.723320000000000    0.791885000000000    0.083298000000000 
K           0.853779000000000    0.322982000000000    0.827390000000000 
K           0.853779000000000    0.677018000000000    0.827390000000000 
%ENDBLOCK POSITIONS_FRAC
