# Cell file generated by matador (Matthew Evans 2016)

%BLOCK LATTICE_CART
9.86987 0.0 0.0
0.0 10.9792 0.0
0.0 0.0 8.96782
%ENDBLOCK LATTICE_CART

%BLOCK POSITIONS_FRAC
P           0.000000000000000    0.000000000000000    0.000000000000000 
P           0.000000000000000    0.500000000000000    0.000000000000000 
P           0.000000000000000    0.500000000000000    0.500000000000000 
P           0.500000000000000    0.000000000000000    0.000000000000000 
P           0.500000000000000    0.000000000000000    0.500000000000000 
P           0.500000000000000    0.500000000000000    0.500000000000000 
K           0.000000000000000    0.000000000000000    0.500000000000000 
K           0.189043000000000    0.500000000000000    0.198889000000000 
K           0.189043000000000    0.500000000000000    0.801111000000000 
K           0.249209000000000    0.308510000000000    0.500000000000000 
K           0.249209000000000    0.691490000000000    0.500000000000000 
K           0.250791000000000    0.191490000000000    0.000000000000000 
K           0.250791000000000    0.808510000000000    0.000000000000000 
K           0.310957000000000    0.000000000000000    0.301111000000000 
K           0.310957000000000    0.000000000000000    0.698889000000000 
K           0.500000000000000    0.500000000000000    0.000000000000000 
K           0.689043000000000    0.000000000000000    0.301111000000000 
K           0.689043000000000    0.000000000000000    0.698889000000000 
K           0.749209000000000    0.191490000000000    0.000000000000000 
K           0.749209000000000    0.808510000000000    0.000000000000000 
K           0.750791000000000    0.308510000000000    0.500000000000000 
K           0.750791000000000    0.691490000000000    0.500000000000000 
K           0.810957000000000    0.500000000000000    0.198889000000000 
K           0.810957000000000    0.500000000000000    0.801111000000000 
%ENDBLOCK POSITIONS_FRAC
