# Cell file generated by matador (Matthew Evans 2016)

%BLOCK LATTICE_CART
9.08969 0.0 0.0
0.0 8.51093 0.0
1.44489 0.0 3.91075
%ENDBLOCK LATTICE_CART

%BLOCK POSITIONS_FRAC
P           0.000000000000000    0.000000000000000    0.500000000000000 
P           0.000000000000000    0.185648000000000    0.500000000000000 
P           0.000000000000000    0.814352000000000    0.500000000000000 
P           0.247602000000000    0.000000000000000    0.795356000000000 
P           0.500000000000000    0.500000000000000    0.000000000000000 
P           0.500000000000000    0.500000000000000    0.500000000000000 
P           0.752398000000000    0.000000000000000    0.204644000000000 
K           0.000000000000000    0.000000000000000    0.000000000000000 
K           0.179968000000000    0.500000000000000    0.804486000000000 
K           0.500000000000000    0.000000000000000    0.000000000000000 
K           0.500000000000000    0.000000000000000    0.500000000000000 
K           0.820032000000000    0.500000000000000    0.195514000000000 
%ENDBLOCK POSITIONS_FRAC
