# Cell file generated by matador (Matthew Evans 2016)

%BLOCK LATTICE_CART
8.68539 0.0 0.0
0.0 5.86075 0.0
-3.44555 0.0 6.78365
%ENDBLOCK LATTICE_CART

%BLOCK POSITIONS_FRAC
P          -0.000000000000000    0.238092000000000    0.500000000000000 
P          -0.000000000000000    0.584929000000000    0.500000000000000 
P           0.026860000000000    0.644996000000000    0.360404000000000 
P           0.061774000000000    0.411002000000000    0.324585000000000 
P           0.119621000000000    0.126296000000000    0.028481000000000 
P           0.193264000000000    0.084223000000000    0.361017000000000 
P           0.218087000000000    0.899737000000000    0.863336000000000 
P           0.781913000000000    0.899737000000000    0.136664000000000 
P           0.806736000000000    0.084223000000000    0.638983000000000 
P           0.880379000000000    0.126296000000000    0.971518000000000 
P           0.938226000000000    0.411002000000000    0.675415000000000 
P           0.973140000000000    0.644996000000000    0.639596000000000 
K           0.284339000000000    0.878325000000000    0.613283000000000 
K           0.289442000000000    0.746242000000000    0.281638000000000 
K           0.710558000000000    0.746242000000000    0.718362000000000 
K           0.715661000000000    0.878325000000000    0.386717000000000 
%ENDBLOCK POSITIONS_FRAC
