# Cell file generated by matador (Matthew Evans 2016)

%BLOCK LATTICE_CART
6.99549 0.0 0.0
-3.49774 6.05827 0.0
0.0 0.0 8.7962
%ENDBLOCK LATTICE_CART

%BLOCK POSITIONS_FRAC
P           0.176859000000000    0.673878000000000    0.220768000000000 
P           0.326124000000000    0.502981000000000    0.554102000000000 
P           0.497021000000000    0.823143000000000    0.887435000000000 
P           0.502981000000000    0.176859000000000    0.887435000000000 
P           0.673878000000000    0.497021000000000    0.554102000000000 
P           0.823143000000000    0.326124000000000    0.220768000000000 
K           0.000001000000000    0.500001000000000    0.548358000000000 
K           0.000001000000000    0.500001000000000    0.946803000000000 
K           0.500001000000000    0.000001000000000    0.215024000000000 
K           0.500001000000000    0.000001000000000    0.613470000000000 
K           0.500001000000000    0.500001000000000    0.280136000000000 
K           0.500001000000000    0.500001000000000    0.881691000000000 
%ENDBLOCK POSITIONS_FRAC
