# Cell file generated by matador (Matthew Evans 2016)

%BLOCK LATTICE_CART
12.334 0.0 0.0
-6.16699 10.6815 0.0
0.0 0.0 7.95884
%ENDBLOCK LATTICE_CART

%BLOCK POSITIONS_FRAC
P           0.269146000000000    0.538292000000000    0.000000000000000 
P           0.269146000000000    0.538292000000000    0.500000000000000 
P           0.269146000000000    0.730854000000000    0.000000000000000 
P           0.269146000000000    0.730854000000000    0.500000000000000 
P           0.461708000000000    0.730854000000000    0.000000000000000 
P           0.461708000000000    0.730854000000000    0.500000000000000 
K           0.047541000000000    0.492163000000000    0.250000000000000 
K           0.047541000000000    0.555378000000000    0.750000000000000 
K           0.120343000000000    0.292496000000000    0.250000000000000 
K           0.120343000000000    0.827847000000000    0.750000000000000 
K           0.172153000000000    0.292496000000000    0.750000000000000 
K           0.172153000000000    0.879657000000000    0.250000000000000 
K           0.444622000000000    0.492163000000000    0.750000000000000 
K           0.444622000000000    0.952459000000000    0.250000000000000 
K           0.460796000000000    0.177189000000000    0.750000000000000 
K           0.460796000000000    0.283607000000000    0.250000000000000 
K           0.507837000000000    0.555378000000000    0.250000000000000 
K           0.507837000000000    0.952459000000000    0.750000000000000 
K           0.707504000000000    0.827847000000000    0.250000000000000 
K           0.707504000000000    0.879657000000000    0.750000000000000 
K           0.716393000000000    0.177189000000000    0.250000000000000 
K           0.716393000000000    0.539204000000000    0.750000000000000 
K           0.822811000000000    0.283607000000000    0.750000000000000 
K           0.822811000000000    0.539204000000000    0.250000000000000 
%ENDBLOCK POSITIONS_FRAC
