# Cell file generated by matador (Matthew Evans 2016)

%BLOCK LATTICE_CART
7.19412 0.0 0.0
-3.59706 6.23029 0.0
0.0 0.0 8.19716
%ENDBLOCK LATTICE_CART

%BLOCK POSITIONS_FRAC
P           0.000000000000000    0.000000000000000    0.644420000000000 
P           0.333333000000000    0.666667000000000    0.113871000000000 
P           0.333333000000000    0.666667000000000    0.325293000000000 
P           0.333333000000000    0.666667000000000    0.811016000000000 
P           0.666667000000000    0.333333000000000    0.677889000000000 
K           0.145527000000000    0.291055000000000    0.824001000000000 
K           0.145527000000000    0.854473000000000    0.824001000000000 
K           0.373603000000000    0.186802000000000    0.375146000000000 
K           0.708945000000000    0.854473000000000    0.824001000000000 
K           0.813198000000000    0.186802000000000    0.375146000000000 
K           0.813198000000000    0.626397000000000    0.375146000000000 
%ENDBLOCK POSITIONS_FRAC
