# Cell file generated by matador (Matthew Evans 2016)

%BLOCK LATTICE_CART
7.36233 0.0 0.0
0.0 6.90428 0.0
-2.385 0.0 5.85545
%ENDBLOCK LATTICE_CART

%BLOCK POSITIONS_FRAC
P           0.208217000000000    0.621427000000000    0.902456000000000 
P           0.500000000000000    0.180907000000000    0.500000000000000 
P           0.791783000000000    0.621427000000000    0.097544000000000 
K           0.000000000000000    0.485975000000000    0.500000000000000 
K           0.157419000000000    0.187712000000000    0.923846000000000 
K           0.221349000000000    0.282863000000000    0.467843000000000 
K           0.778651000000000    0.282863000000000    0.532157000000000 
K           0.842581000000000    0.187712000000000    0.076154000000000 
%ENDBLOCK POSITIONS_FRAC
