# Cell file generated by matador (Matthew Evans 2016)

%BLOCK LATTICE_CART
8.68362 0.0 0.0
-4.34181 7.52023 0.0
0.0 0.0 5.92961
%ENDBLOCK LATTICE_CART

%BLOCK POSITIONS_FRAC
P           0.000000000000000    0.000000000000000    0.000000000000000 
P           0.000000000000000    0.000000000000000    0.500000000000000 
P           0.333333000000000    0.666667000000000    0.166667000000000 
P           0.333333000000000    0.666667000000000    0.666667000000000 
P           0.666667000000000    0.333333000000000    0.333333000000000 
P           0.666667000000000    0.333333000000000    0.833333000000000 
K           0.000000000000000    0.769355000000000    0.000000000000000 
K           0.102688000000000    0.666667000000000    0.666667000000000 
K           0.230645000000000    0.230645000000000    0.000000000000000 
K           0.333333000000000    0.436022000000000    0.666667000000000 
K           0.436022000000000    0.333333000000000    0.333333000000000 
K           0.563978000000000    0.897312000000000    0.666667000000000 
K           0.666667000000000    0.102688000000000    0.333333000000000 
K           0.769355000000000    0.000000000000000    0.000000000000000 
K           0.897312000000000    0.563978000000000    0.333333000000000 
%ENDBLOCK POSITIONS_FRAC
