# Cell file generated by matador (Matthew Evans 2016)

%BLOCK LATTICE_CART
7.60074 0.0 0.0
0.0 9.28314 0.0
0.0 0.0 8.74992
%ENDBLOCK LATTICE_CART

%BLOCK POSITIONS_FRAC
P           0.144727000000000    0.101633000000000    0.992186000000000 
P           0.355273000000000    0.898367000000000    0.492186000000000 
P           0.644727000000000    0.898367000000000    0.492186000000000 
P           0.855273000000000    0.101633000000000    0.992186000000000 
K           0.000000000000000    0.238216000000000    0.389418000000000 
K           0.000000000000000    0.309597000000000    0.911023000000000 
K           0.000000000000000    0.658105000000000    0.085303000000000 
K           0.000000000000000    0.700243000000000    0.496049000000000 
K           0.000000000000000    0.748023000000000    0.860975000000000 
K           0.000000000000000    0.972736000000000    0.600152000000000 
K           0.235751000000000    0.566248000000000    0.793034000000000 
K           0.264249000000000    0.433752000000000    0.293034000000000 
K           0.500000000000000    0.027264000000000    0.100152000000000 
K           0.500000000000000    0.251977000000000    0.360975000000000 
K           0.500000000000000    0.299757000000000    0.996049000000000 
K           0.500000000000000    0.341895000000000    0.585303000000000 
K           0.500000000000000    0.690403000000000    0.411023000000000 
K           0.500000000000000    0.761784000000000    0.889418000000000 
K           0.735751000000000    0.433752000000000    0.293034000000000 
K           0.764249000000000    0.566248000000000    0.793034000000000 
%ENDBLOCK POSITIONS_FRAC
