# Cell file generated by matador (Matthew Evans 2016)

%BLOCK LATTICE_CART
7.29727 0.0 0.0
0.0 7.29727 0.0
0.0 0.0 7.93354
%ENDBLOCK LATTICE_CART

%BLOCK POSITIONS_FRAC
P           0.000000000000000    0.000000000000000    0.000000000000000 
P           0.000000000000000    0.000000000000000    0.500000000000000 
P           0.000000000000000    0.500000000000000    0.000000000000000 
P           0.110262000000000    0.209568000000000    0.119956000000000 
P           0.209568000000000    0.889738000000000    0.880044000000000 
P           0.290432000000000    0.389738000000000    0.880044000000000 
P           0.389738000000000    0.709568000000000    0.119956000000000 
P           0.500000000000000    0.000000000000000    0.000000000000000 
P           0.500000000000000    0.500000000000000    0.000000000000000 
P           0.500000000000000    0.500000000000000    0.500000000000000 
P           0.610262000000000    0.290432000000000    0.119956000000000 
P           0.709568000000000    0.610262000000000    0.880044000000000 
P           0.790432000000000    0.110262000000000    0.880044000000000 
P           0.889738000000000    0.790432000000000    0.119956000000000 
K           0.000000000000000    0.500000000000000    0.500000000000000 
K           0.500000000000000    0.000000000000000    0.500000000000000 
%ENDBLOCK POSITIONS_FRAC
