# Cell file generated by matador (Matthew Evans 2016)

%BLOCK LATTICE_CART
5.53568 0.0 0.0
-2.76784 4.79404 0.0
0.0 0.0 6.12004
%ENDBLOCK LATTICE_CART

%BLOCK POSITIONS_FRAC
P           0.115979000000000    0.231958000000000    0.965155000000000 
P           0.115979000000000    0.884021000000000    0.965155000000000 
P           0.333333000000000    0.666667000000000    0.186283000000000 
P           0.768042000000000    0.884021000000000    0.965155000000000 
K           0.524135000000000    0.048271000000000    0.589448000000000 
K           0.524135000000000    0.475865000000000    0.589448000000000 
K           0.951729000000000    0.475865000000000    0.589448000000000 
%ENDBLOCK POSITIONS_FRAC
