# Cell file generated by matador (Matthew Evans 2016)

%BLOCK LATTICE_CART
7.70456 0.0 0.0
0.0 4.25677 0.0
-0.574105 0.0 5.88321
%ENDBLOCK LATTICE_CART

%BLOCK POSITIONS_FRAC
P           0.500000000000000    0.981731000000000    0.500000000000000 
K           0.000000000000000    0.797898000000000    0.500000000000000 
K           0.000000000000000    0.921827000000000    0.000000000000000 
K           0.313104000000000    0.869657000000000    0.698264000000000 
K           0.500000000000000    0.980039000000000    0.000000000000000 
K           0.686896000000000    0.869657000000000    0.301736000000000 
%ENDBLOCK POSITIONS_FRAC
