# Cell file generated by matador (Matthew Evans 2016)

%BLOCK LATTICE_CART
9.92784 0.0 0.0
-4.96392 8.59777 0.0
0.0 0.0 5.07842
%ENDBLOCK LATTICE_CART

%BLOCK POSITIONS_FRAC
P           0.000000000000000    0.868860000000000    0.000000000000000 
P           0.131140000000000    0.131140000000000    0.000000000000000 
P           0.868860000000000    0.000000000000000    0.000000000000000 
K           0.000000000000000    0.276520000000000    0.500000000000000 
K           0.135245000000000    0.703322000000000    0.327257000000000 
K           0.276520000000000    0.000000000000000    0.500000000000000 
K           0.296678000000000    0.431923000000000    0.327257000000000 
K           0.431923000000000    0.296678000000000    0.672743000000000 
K           0.568077000000000    0.864755000000000    0.327257000000000 
K           0.703322000000000    0.135245000000000    0.672743000000000 
K           0.723480000000000    0.723480000000000    0.500000000000000 
K           0.864755000000000    0.568077000000000    0.672743000000000 
%ENDBLOCK POSITIONS_FRAC
