# Cell file generated by matador (Matthew Evans 2016)

%BLOCK LATTICE_CART
4.57987 0.0 0.0
0.0 4.57987 0.0
0.0 0.0 7.50467
%ENDBLOCK LATTICE_CART

%BLOCK POSITIONS_FRAC
P           0.000000000000000    0.167959000000000    0.500000000000000 
P           0.000000000000000    0.832041000000000    0.500000000000000 
P           0.167959000000000    0.000000000000000    0.500000000000000 
P           0.832041000000000    0.000000000000000    0.500000000000000 
K           0.000000000000000    0.500000000000000    0.000000000000000 
K           0.500000000000000    0.000000000000000    0.000000000000000 
%ENDBLOCK POSITIONS_FRAC
