# Cell file generated by matador (Matthew Evans 2016)

%BLOCK LATTICE_CART
9.00701 0.0 0.0
-4.50351 7.8003 0.0
0.0 0.0 6.37636
%ENDBLOCK LATTICE_CART

%BLOCK POSITIONS_FRAC
P           0.000000000000000    0.000000000000000    0.313658000000000 
P           0.000000000000000    0.000000000000000    0.500000000000000 
P           0.000000000000000    0.000000000000000    0.686342000000000 
P           0.333333000000000    0.666667000000000    0.166667000000000 
P           0.333333000000000    0.666667000000000    0.353009000000000 
P           0.333333000000000    0.666667000000000    0.980325000000000 
P           0.666667000000000    0.333333000000000    0.019675000000000 
P           0.666667000000000    0.333333000000000    0.646991000000000 
P           0.666667000000000    0.333333000000000    0.833333000000000 
K           0.000000000000000    0.000000000000000    0.000000000000000 
K           0.333333000000000    0.666667000000000    0.666667000000000 
K           0.666667000000000    0.333333000000000    0.333333000000000 
%ENDBLOCK POSITIONS_FRAC
