# Cell file generated by matador (Matthew Evans 2016)

%BLOCK LATTICE_CART
5.4254 0.0 0.0
0.0 7.30348 0.0
-1.39373 0.0 6.55134
%ENDBLOCK LATTICE_CART

%BLOCK POSITIONS_FRAC
P           0.006634000000000    0.000000000000000    0.657126000000000 
P           0.013795000000000    0.500000000000000    0.173158000000000 
P           0.150861000000000    0.000000000000000    0.434193000000000 
P           0.498969000000000    0.000000000000000    0.638013000000000 
P           0.506634000000000    0.500000000000000    0.657126000000000 
P           0.513795000000000    0.000000000000000    0.173158000000000 
P           0.650861000000000    0.500000000000000    0.434193000000000 
P           0.998969000000000    0.500000000000000    0.638013000000000 
K           0.458253000000000    0.500000000000000    0.945312000000000 
K           0.958253000000000    0.000000000000000    0.945312000000000 
%ENDBLOCK POSITIONS_FRAC
