# Cell file generated by matador (Matthew Evans 2016)

%BLOCK LATTICE_CART
6.26359 0.0 0.0
-3.13179 5.42443 0.0
0.0 0.0 9.32237
%ENDBLOCK LATTICE_CART

%BLOCK POSITIONS_FRAC
P           0.000000000000000    0.000000000000000    0.295692000000000 
K           0.333333000000000    0.666667000000000    0.293538000000000 
K           0.333333000000000    0.666667000000000    0.687972000000000 
K           0.405846000000000    0.198856000000000    0.533956000000000 
K           0.666667000000000    0.333333000000000    0.342262000000000 
K           0.666667000000000    0.333333000000000    0.802625000000000 
K           0.793010000000000    0.594154000000000    0.533956000000000 
K           0.801144000000000    0.206990000000000    0.533956000000000 
%ENDBLOCK POSITIONS_FRAC
