# Cell file generated by matador (Matthew Evans 2016)

%BLOCK LATTICE_CART
7.24411 0.0 0.0
-3.62206 6.27359 0.0
0.0 0.0 7.48126
%ENDBLOCK LATTICE_CART

%BLOCK POSITIONS_FRAC
P           0.564386000000000    0.128773000000000    0.000000000000000 
P           0.564386000000000    0.128773000000000    0.500000000000000 
P           0.564386000000000    0.435614000000000    0.000000000000000 
P           0.564386000000000    0.435614000000000    0.500000000000000 
P           0.871227000000000    0.435614000000000    0.000000000000000 
P           0.871227000000000    0.435614000000000    0.500000000000000 
K           0.333333000000000    0.666667000000000    0.250000000000000 
K           0.333333000000000    0.666667000000000    0.750000000000000 
K           0.666666000000000    0.333334000000000    0.250000000000000 
K           0.666666000000000    0.333334000000000    0.750000000000000 
%ENDBLOCK POSITIONS_FRAC
