# Cell file generated by matador (Matthew Evans 2016)

%BLOCK LATTICE_CART
8.21739 0.0 0.0
0.0 6.03338 0.0
-3.02105 0.0 5.61013
%ENDBLOCK LATTICE_CART

%BLOCK POSITIONS_FRAC
P           0.500000000000000    0.787149000000000    0.500000000000000 
K           0.000000000000000    0.044848000000000    0.500000000000000 
K           0.000000000000000    0.267741000000000    0.000000000000000 
K           0.013209000000000    0.594239000000000    0.761438000000000 
K           0.267800000000000    0.109182000000000    0.069889000000000 
K           0.500000000000000    0.579561000000000    0.000000000000000 
K           0.732200000000000    0.109182000000000    0.930111000000000 
K           0.986792000000000    0.594239000000000    0.238562000000000 
%ENDBLOCK POSITIONS_FRAC
