# Cell file generated by matador (Matthew Evans 2016)

%BLOCK LATTICE_CART
7.74948 0.0 0.0
0.0 10.1713 0.0
0.0 0.0 7.34087
%ENDBLOCK LATTICE_CART

%BLOCK POSITIONS_FRAC
P           0.000000000000000    0.299354000000000    0.965060000000000 
P           0.000000000000000    0.700646000000000    0.034940000000000 
P           0.500000000000000    0.299354000000000    0.534940000000000 
P           0.500000000000000    0.700646000000000    0.465060000000000 
K           0.000000000000000    0.000000000000000   -0.000000000000000 
K           0.000000000000000    0.000000000000000    0.500000000000000 
K           0.000000000000000    0.239012000000000    0.261911000000000 
K           0.000000000000000    0.500000000000000   -0.000000000000000 
K           0.000000000000000    0.500000000000000    0.500000000000000 
K           0.000000000000000    0.760988000000000    0.738089000000000 
K           0.500000000000000    0.000000000000000   -0.000000000000000 
K           0.500000000000000    0.000000000000000    0.500000000000000 
K           0.500000000000000    0.239012000000000    0.238089000000000 
K           0.500000000000000    0.500000000000000   -0.000000000000000 
K           0.500000000000000    0.500000000000000    0.500000000000000 
K           0.500000000000000    0.760988000000000    0.761911000000000 
%ENDBLOCK POSITIONS_FRAC
