# Cell file generated by matador (Matthew Evans 2016)

%BLOCK LATTICE_CART
6.67857 0.0 0.0
0.0 8.41289 0.0
0.0 0.0 9.19565
%ENDBLOCK LATTICE_CART

%BLOCK POSITIONS_FRAC
P           0.140312000000000    0.384344000000000    0.339370000000000 
P           0.140312000000000    0.615656000000000    0.339370000000000 
P           0.359688000000000    0.115656000000000    0.339370000000000 
P           0.359688000000000    0.884344000000000    0.339370000000000 
P           0.640312000000000    0.115656000000000    0.339370000000000 
P           0.640312000000000    0.884344000000000    0.339370000000000 
P           0.859688000000000    0.384344000000000    0.339370000000000 
P           0.859688000000000    0.615656000000000    0.339370000000000 
K           0.000000000000000    0.000000000000000    0.687443000000000 
K           0.000000000000000    0.500000000000000    0.177979000000000 
K           0.000000000000000    0.500000000000000    0.757467000000000 
K           0.500000000000000    0.000000000000000    0.177979000000000 
K           0.500000000000000    0.000000000000000    0.757467000000000 
K           0.500000000000000    0.500000000000000    0.687443000000000 
%ENDBLOCK POSITIONS_FRAC
