# Cell file generated by matador (Matthew Evans 2016)

%BLOCK LATTICE_CART
8.43731 0.0 0.0
-4.21866 7.30693 0.0
0.0 0.0 8.54457
%ENDBLOCK LATTICE_CART

%BLOCK POSITIONS_FRAC
P           0.000000000000000    0.000000000000000   -0.000000000000000 
P           0.333333000000000    0.666667000000000    0.666667000000000 
P           0.666667000000000    0.333333000000000    0.333333000000000 
K           0.000000000000000    0.000000000000000    0.500000000000000 
K           0.000000000000000    0.237042000000000    0.500000000000000 
K           0.096291000000000    0.429625000000000    0.166667000000000 
K           0.237042000000000    0.000000000000000    0.500000000000000 
K           0.333333000000000    0.666667000000000    0.166667000000000 
K           0.333333000000000    0.903709000000000    0.166667000000000 
K           0.429625000000000    0.096291000000000    0.833333000000000 
K           0.570375000000000    0.666667000000000    0.166667000000000 
K           0.666667000000000    0.333333000000000    0.833333000000000 
K           0.666667000000000    0.570375000000000    0.833333000000000 
K           0.762958000000000    0.762958000000000    0.500000000000000 
K           0.903709000000000    0.333333000000000    0.833333000000000 
%ENDBLOCK POSITIONS_FRAC
