# Cell file generated by matador (Matthew Evans 2016)

%BLOCK LATTICE_CART
7.8842 0.0 0.0
0.0 7.00479 0.0
-1.79375 0.0 5.95151
%ENDBLOCK LATTICE_CART

%BLOCK POSITIONS_FRAC
P           0.492012000000000    0.207505000000000    0.905023000000000 
P           0.492012000000000    0.792495000000000    0.905023000000000 
K           0.111089000000000    0.000000000000000    0.315202000000000 
K           0.279666000000000    0.500000000000000    0.236132000000000 
K           0.313439000000000    0.000000000000000    0.944726000000000 
K           0.484519000000000    0.000000000000000    0.569963000000000 
K           0.744794000000000    0.000000000000000    0.320993000000000 
K           0.834429000000000    0.000000000000000    0.892609000000000 
%ENDBLOCK POSITIONS_FRAC
