# Cell file generated by matador (Matthew Evans 2016)

%BLOCK LATTICE_CART
9.19236 0.0 0.0
0.0 9.19236 0.0
0.0 0.0 6.87429
%ENDBLOCK LATTICE_CART

%BLOCK POSITIONS_FRAC
P          -0.000000000000000   -0.000000000000000   -0.000000000000000 
P          -0.000000000000000    0.500000000000000    0.250000000000000 
P           0.500000000000000   -0.000000000000000    0.750000000000000 
P           0.500000000000000    0.500000000000000    0.500000000000000 
K          -0.000000000000000   -0.000000000000000    0.500000000000000 
K          -0.000000000000000    0.227891000000000    0.980115000000000 
K          -0.000000000000000    0.500000000000000    0.750000000000000 
K          -0.000000000000000    0.772109000000000    0.980115000000000 
K           0.227891000000000   -0.000000000000000    0.019885000000000 
K           0.272109000000000    0.500000000000000    0.519885000000000 
K           0.500000000000000   -0.000000000000000    0.250000000000000 
K           0.500000000000000    0.272109000000000    0.480115000000000 
K           0.500000000000000    0.500000000000000   -0.000000000000000 
K           0.500000000000000    0.727891000000000    0.480115000000000 
K           0.727891000000000    0.500000000000000    0.519885000000000 
K           0.772109000000000   -0.000000000000000    0.019885000000000 
%ENDBLOCK POSITIONS_FRAC
