# Cell file generated by matador (Matthew Evans 2016)

%BLOCK LATTICE_CART
8.52378 0.0 0.0
0.0 8.52378 0.0
0.0 0.0 8.52378
%ENDBLOCK LATTICE_CART

%BLOCK POSITIONS_FRAC
P           0.000000000000000    0.000000000000000    0.500000000000000 
P           0.000000000000000    0.500000000000000    0.000000000000000 
P           0.000000000000000    0.500000000000000    0.500000000000000 
P           0.189054000000000    0.189054000000000    0.189054000000000 
P           0.189054000000000    0.810946000000000    0.810946000000000 
P           0.310946000000000    0.310946000000000    0.310946000000000 
P           0.310946000000000    0.689054000000000    0.689054000000000 
P           0.500000000000000    0.000000000000000    0.000000000000000 
P           0.500000000000000    0.000000000000000    0.500000000000000 
P           0.500000000000000    0.500000000000000    0.000000000000000 
P           0.689054000000000    0.310946000000000    0.689054000000000 
P           0.689054000000000    0.689054000000000    0.310946000000000 
P           0.810946000000000    0.189054000000000    0.810946000000000 
P           0.810946000000000    0.810946000000000    0.189054000000000 
K           0.250000000000000    0.250000000000000    0.750000000000000 
K           0.250000000000000    0.750000000000000    0.250000000000000 
K           0.750000000000000    0.250000000000000    0.250000000000000 
K           0.750000000000000    0.750000000000000    0.750000000000000 
%ENDBLOCK POSITIONS_FRAC
