# Cell file generated by matador (Matthew Evans 2016)

%BLOCK LATTICE_CART
8.02978 0.0 0.0
0.0 5.76962 0.0
-1.04763 0.0 4.83299
%ENDBLOCK LATTICE_CART

%BLOCK POSITIONS_FRAC
P           0.148673000000000    0.293539000000000    0.503150000000000 
P           0.269767000000000    0.424208000000000    0.837125000000000 
P           0.500000000000000    0.044413000000000    0.500000000000000 
P           0.500000000000000    0.230389000000000    0.000000000000000 
P           0.500000000000000    0.633227000000000    0.000000000000000 
P           0.730233000000000    0.424208000000000    0.162875000000000 
P           0.851327000000000    0.293539000000000    0.496850000000000 
K           0.000000000000000    0.670265000000000    0.500000000000000 
K           0.189342000000000    0.804090000000000    0.136123000000000 
K           0.810658000000000    0.804090000000000    0.863877000000000 
%ENDBLOCK POSITIONS_FRAC
