# Cell file generated by matador (Matthew Evans 2016)

%BLOCK LATTICE_CART
4.13612 0.0 0.0
-2.06806 3.58199 0.0
0.0 0.0 38.134
%ENDBLOCK LATTICE_CART

%BLOCK POSITIONS_FRAC
P           0.000000000000000    0.000000000000000    0.003900000000000 
P           0.000000000000000    0.000000000000000    0.503900000000000 
K           0.000000000000000    0.000000000000000    0.304967000000000 
K           0.000000000000000    0.000000000000000    0.804967000000000 
K           0.333333000000000    0.666667000000000    0.020061000000000 
K           0.333333000000000    0.666667000000000    0.080604000000000 
K           0.333333000000000    0.666667000000000    0.374434000000000 
K           0.333333000000000    0.666667000000000    0.520061000000000 
K           0.333333000000000    0.666667000000000    0.580604000000000 
K           0.333333000000000    0.666667000000000    0.874434000000000 
K           0.666667000000000    0.333333000000000    0.020061000000000 
K           0.666667000000000    0.333333000000000    0.080604000000000 
K           0.666667000000000    0.333333000000000    0.374434000000000 
K           0.666667000000000    0.333333000000000    0.520061000000000 
K           0.666667000000000    0.333333000000000    0.580604000000000 
K           0.666667000000000    0.333333000000000    0.874434000000000 
%ENDBLOCK POSITIONS_FRAC
