# Cell file generated by matador (Matthew Evans 2016)

%BLOCK LATTICE_CART
8.81066 0.0 0.0
0.0 6.24772 0.0
0.0 0.0 10.6758
%ENDBLOCK LATTICE_CART

%BLOCK POSITIONS_FRAC
P           0.000000000000000    0.000000000000000    0.892190000000000 
P           0.000000000000000    0.500000000000000    0.392190000000000 
P           0.500000000000000    0.000000000000000    0.892190000000000 
P           0.500000000000000    0.500000000000000    0.392190000000000 
K           0.000000000000000    0.000000000000000    0.154901000000000 
K           0.000000000000000    0.500000000000000    0.654901000000000 
K           0.250000000000000    0.082279000000000    0.462100000000000 
K           0.250000000000000    0.417721000000000    0.962100000000000 
K           0.250000000000000    0.662374000000000    0.316081000000000 
K           0.250000000000000    0.837626000000000    0.816081000000000 
K           0.500000000000000    0.000000000000000    0.154901000000000 
K           0.500000000000000    0.500000000000000    0.654901000000000 
K           0.750000000000000    0.162374000000000    0.816081000000000 
K           0.750000000000000    0.337626000000000    0.316081000000000 
K           0.750000000000000    0.582279000000000    0.962100000000000 
K           0.750000000000000    0.917721000000000    0.462100000000000 
%ENDBLOCK POSITIONS_FRAC
