# Cell file generated by matador (Matthew Evans 2016)

%BLOCK LATTICE_CART
8.54814 0.0 0.0
-4.27407 7.40291 0.0
0.0 0.0 6.20125
%ENDBLOCK LATTICE_CART

%BLOCK POSITIONS_FRAC
P           0.034349000000000    0.517175000000000    0.690004000000000 
P           0.149492000000000    0.298984000000000    0.023338000000000 
P           0.149492000000000    0.850508000000000    0.023338000000000 
P           0.367683000000000    0.183841000000000    0.356671000000000 
P           0.482825000000000    0.517175000000000    0.690004000000000 
P           0.482825000000000    0.965651000000000    0.690004000000000 
P           0.701016000000000    0.850508000000000    0.023338000000000 
P           0.816159000000000    0.183841000000000    0.356671000000000 
P           0.816159000000000    0.632317000000000    0.356671000000000 
K          -0.000000000000000   -0.000000000000000    0.545159000000000 
K           0.333333000000000    0.666667000000000    0.211826000000000 
K           0.666667000000000    0.333333000000000    0.878492000000000 
%ENDBLOCK POSITIONS_FRAC
