# Cell file generated by matador (Matthew Evans 2016)

%BLOCK LATTICE_CART
7.49273 0.0 0.0
0.0 7.49273 0.0
0.0 0.0 7.0304
%ENDBLOCK LATTICE_CART

%BLOCK POSITIONS_FRAC
P           0.000000000000000    0.000000000000000    0.284478000000000 
P           0.000000000000000    0.000000000000000    0.715522000000000 
P           0.342391000000000    0.342391000000000    0.000000000000000 
P           0.342391000000000    0.657609000000000    0.000000000000000 
P           0.657609000000000    0.342391000000000    0.000000000000000 
P           0.657609000000000    0.657609000000000    0.000000000000000 
K           0.000000000000000    0.000000000000000    0.000000000000000 
K           0.000000000000000    0.500000000000000    0.535996000000000 
K           0.273705000000000    0.500000000000000    0.588425000000000 
K           0.500000000000000    0.000000000000000    0.464004000000000 
K           0.500000000000000    0.273705000000000    0.411575000000000 
K           0.500000000000000    0.726295000000000    0.411575000000000 
K           0.726295000000000    0.500000000000000    0.588425000000000 
%ENDBLOCK POSITIONS_FRAC
