# Cell file generated by matador (Matthew Evans 2016)

%BLOCK LATTICE_CART
6.03001 0.0 0.0
-3.015 5.22214 0.0
0.0 0.0 12.12
%ENDBLOCK LATTICE_CART

%BLOCK POSITIONS_FRAC
P           0.000000000000000    0.000000000000000    0.000000000000000 
P           0.000000000000000    0.000000000000000    0.500000000000000 
K           0.000000000000000    0.500000000000000    0.000000000000000 
K           0.000000000000000    0.500000000000000    0.500000000000000 
K           0.333333000000000    0.666667000000000    0.339008000000000 
K           0.333333000000000    0.666667000000000    0.660992000000000 
K           0.500000000000000    0.000000000000000    0.000000000000000 
K           0.500000000000000    0.000000000000000    0.500000000000000 
K           0.500000000000000    0.500000000000000    0.000000000000000 
K           0.500000000000000    0.500000000000000    0.500000000000000 
K           0.666667000000000    0.333333000000000    0.339008000000000 
K           0.666667000000000    0.333333000000000    0.660992000000000 
%ENDBLOCK POSITIONS_FRAC
