# Cell file generated by matador (Matthew Evans 2016)

%BLOCK LATTICE_CART
11.3686 0.0 0.0
0.0 8.11203 0.0
0.0 0.0 5.27222
%ENDBLOCK LATTICE_CART

%BLOCK POSITIONS_FRAC
P          -0.000000000000000    0.500000000000000    0.011600000000000 
P           0.252532000000000    0.000000000000000    0.677915000000000 
P           0.363960000000000    0.000000000000000    0.575607000000000 
P           0.500000000000000    0.000000000000000    0.069179000000000 
P           0.500000000000000    0.000000000000000    0.775870000000000 
P           0.500000000000000    0.500000000000000    0.942976000000000 
P           0.636040000000000    0.000000000000000    0.575607000000000 
P           0.747468000000000    0.000000000000000    0.677915000000000 
K           0.192505000000000    0.000000000000000    0.071223000000000 
K           0.259570000000000    0.500000000000000    0.478274000000000 
K           0.500000000000000    0.367398000000000    0.552080000000000 
K           0.500000000000000    0.632602000000000    0.552080000000000 
K           0.740430000000000    0.500000000000000    0.478274000000000 
K           0.807495000000000    0.000000000000000    0.071223000000000 
%ENDBLOCK POSITIONS_FRAC
