# Cell file generated by matador (Matthew Evans 2016)

%BLOCK LATTICE_CART
12.8067 0.0 0.0
-6.40334 11.0909 0.0
0.0 0.0 6.96943
%ENDBLOCK LATTICE_CART

%BLOCK POSITIONS_FRAC
P           0.000000000000000    0.000000000000000   -0.000000000000000 
P           0.000000000000000    0.000000000000000    0.500000000000000 
P           0.333333000000000    0.666667000000000    0.166667000000000 
P           0.333333000000000    0.666667000000000    0.666667000000000 
P           0.666667000000000    0.333333000000000    0.333333000000000 
P           0.666667000000000    0.333333000000000    0.833333000000000 
K           0.000000000000000    0.159401000000000   -0.000000000000000 
K           0.000000000000000    0.773483000000000    0.500000000000000 
K           0.106816000000000    0.666667000000000    0.166667000000000 
K           0.159401000000000   -0.000000000000000   -0.000000000000000 
K           0.173932000000000    0.507265000000000    0.666667000000000 
K           0.226517000000000    0.226517000000000    0.500000000000000 
K           0.333333000000000    0.440149000000000    0.166667000000000 
K           0.333333000000000    0.826068000000000    0.666667000000000 
K           0.440149000000000    0.333333000000000    0.833333000000000 
K           0.492735000000000    0.666667000000000    0.666667000000000 
K           0.507265000000000    0.173932000000000    0.333333000000000 
K           0.559851000000000    0.893184000000000    0.166667000000000 
K           0.666667000000000    0.106816000000000    0.833333000000000 
K           0.666667000000000    0.492735000000000    0.333333000000000 
K           0.773483000000000   -0.000000000000000    0.500000000000000 
K           0.826068000000000    0.333333000000000    0.333333000000000 
K           0.840599000000000    0.840599000000000   -0.000000000000000 
K           0.893184000000000    0.559851000000000    0.833333000000000 
%ENDBLOCK POSITIONS_FRAC
