# Cell file generated by matador (Matthew Evans 2016)

%BLOCK LATTICE_CART
7.2079 0.0 0.0
0.0 7.2079 0.0
0.0 0.0 7.2079
%ENDBLOCK LATTICE_CART

%BLOCK POSITIONS_FRAC
P           0.182231000000000    0.182231000000000    0.182231000000000 
P           0.182231000000000    0.817769000000000    0.817769000000000 
P           0.317769000000000    0.317769000000000    0.682231000000000 
P           0.317769000000000    0.682231000000000    0.317769000000000 
P           0.682231000000000    0.317769000000000    0.317769000000000 
P           0.682231000000000    0.682231000000000    0.682231000000000 
P           0.817769000000000    0.182231000000000    0.817769000000000 
P           0.817769000000000    0.817769000000000    0.182231000000000 
K           0.000000000000000    0.000000000000000    0.500000000000000 
K           0.000000000000000    0.500000000000000    0.000000000000000 
K           0.000000000000000    0.500000000000000    0.500000000000000 
K           0.500000000000000    0.000000000000000    0.000000000000000 
K           0.500000000000000    0.000000000000000    0.500000000000000 
K           0.500000000000000    0.500000000000000    0.000000000000000 
%ENDBLOCK POSITIONS_FRAC
