# Cell file generated by matador (Matthew Evans 2016)

%BLOCK LATTICE_CART
7.57261 0.0 0.0
0.0 7.57261 0.0
0.0 0.0 7.57261
%ENDBLOCK LATTICE_CART

%BLOCK POSITIONS_FRAC
P           0.058037000000000    0.058037000000000    0.058037000000000 
P           0.058037000000000    0.941963000000000    0.941963000000000 
P           0.289015000000000    0.289015000000000    0.710985000000000 
P           0.289015000000000    0.710985000000000    0.289015000000000 
P           0.710985000000000    0.289015000000000    0.289015000000000 
P           0.710985000000000    0.710985000000000    0.710985000000000 
P           0.941963000000000    0.058037000000000    0.941963000000000 
P           0.941963000000000    0.941963000000000    0.058037000000000 
K           0.000000000000000    0.000000000000000    0.500000000000000 
K           0.000000000000000    0.500000000000000    0.000000000000000 
K           0.000000000000000    0.500000000000000    0.500000000000000 
K           0.500000000000000    0.000000000000000    0.000000000000000 
K           0.500000000000000    0.000000000000000    0.500000000000000 
K           0.500000000000000    0.500000000000000    0.000000000000000 
%ENDBLOCK POSITIONS_FRAC
