# Cell file generated by matador (Matthew Evans 2016)

%BLOCK LATTICE_CART
6.35176 0.0 0.0
0.0 10.6179 0.0
0.0 0.0 4.78254
%ENDBLOCK LATTICE_CART

%BLOCK POSITIONS_FRAC
P           0.396012000000000    0.125310000000000    0.459437000000000 
P           0.396012000000000    0.874690000000000    0.459437000000000 
P           0.603988000000000    0.125310000000000    0.459437000000000 
P           0.603988000000000    0.874690000000000    0.459437000000000 
K           0.000000000000000    0.000000000000000    0.530270000000000 
K           0.307177000000000    0.500000000000000    0.312292000000000 
K           0.342269000000000    0.000000000000000    0.048367000000000 
K           0.657731000000000    0.000000000000000    0.048367000000000 
K           0.692823000000000    0.500000000000000    0.312292000000000 
%ENDBLOCK POSITIONS_FRAC
