# Cell file generated by matador (Matthew Evans 2016)

%BLOCK LATTICE_CART
10.6418 0.0 0.0
0.0 10.6418 0.0
0.0 0.0 10.7306
%ENDBLOCK LATTICE_CART

%BLOCK POSITIONS_FRAC
P          -0.000000000000000   -0.000000000000000    0.250000000000000 
P          -0.000000000000000   -0.000000000000000    0.750000000000000 
P          -0.000000000000000    0.500000000000000   -0.000000000000000 
P          -0.000000000000000    0.500000000000000    0.500000000000000 
P           0.500000000000000   -0.000000000000000   -0.000000000000000 
P           0.500000000000000   -0.000000000000000    0.500000000000000 
P           0.500000000000000    0.500000000000000    0.250000000000000 
P           0.500000000000000    0.500000000000000    0.750000000000000 
K          -0.000000000000000   -0.000000000000000   -0.000000000000000 
K          -0.000000000000000   -0.000000000000000    0.500000000000000 
K          -0.000000000000000    0.500000000000000    0.250000000000000 
K          -0.000000000000000    0.500000000000000    0.750000000000000 
K           0.045206000000000    0.319826000000000   -0.000000000000000 
K           0.158381000000000    0.728512000000000    0.500000000000000 
K           0.180174000000000    0.454794000000000    0.500000000000000 
K           0.228512000000000    0.658381000000000   -0.000000000000000 
K           0.271488000000000    0.158381000000000   -0.000000000000000 
K           0.319826000000000    0.954794000000000    0.500000000000000 
K           0.341619000000000    0.228512000000000    0.500000000000000 
K           0.454794000000000    0.819826000000000   -0.000000000000000 
K           0.500000000000000   -0.000000000000000    0.250000000000000 
K           0.500000000000000   -0.000000000000000    0.750000000000000 
K           0.500000000000000    0.500000000000000   -0.000000000000000 
K           0.500000000000000    0.500000000000000    0.500000000000000 
K           0.545206000000000    0.180174000000000   -0.000000000000000 
K           0.658381000000000    0.771488000000000    0.500000000000000 
K           0.680174000000000    0.045206000000000    0.500000000000000 
K           0.728512000000000    0.841619000000000   -0.000000000000000 
K           0.771488000000000    0.341619000000000   -0.000000000000000 
K           0.819826000000000    0.545206000000000    0.500000000000000 
K           0.841619000000000    0.271488000000000    0.500000000000000 
K           0.954794000000000    0.680174000000000   -0.000000000000000 
%ENDBLOCK POSITIONS_FRAC
