# Cell file generated by matador (Matthew Evans 2016)

%BLOCK LATTICE_CART
7.81649 0.0 0.0
-3.90824 6.76928 0.0
0.0 0.0 9.86337
%ENDBLOCK LATTICE_CART

%BLOCK POSITIONS_FRAC
P           0.145693000000000    0.804180000000000    0.601778000000000 
P           0.195820000000000    0.341513000000000    0.601778000000000 
P           0.325154000000000    0.187640000000000    0.935111000000000 
P           0.479027000000000    0.470847000000000    0.268444000000000 
P           0.529153000000000    0.008180000000000    0.268444000000000 
P           0.658487000000000    0.854307000000000    0.601778000000000 
P           0.812360000000000    0.137514000000000    0.935111000000000 
P           0.862486000000000    0.674846000000000    0.935111000000000 
P           0.991820000000000    0.520973000000000    0.268444000000000 
K           0.000000000000000    0.000000000000000    0.086764000000000 
K           0.000000000000000    0.000000000000000    0.688782000000000 
K           0.333333000000000    0.666667000000000    0.355449000000000 
K           0.333333000000000    0.666667000000000    0.753431000000000 
K           0.666667000000000    0.333333000000000    0.022115000000000 
K           0.666667000000000    0.333333000000000    0.420098000000000 
%ENDBLOCK POSITIONS_FRAC
