# Cell file generated by matador (Matthew Evans 2016)

%BLOCK LATTICE_CART
7.51958 0.0 0.0
-3.75979 6.51215 0.0
0.0 0.0 7.44792
%ENDBLOCK LATTICE_CART

%BLOCK POSITIONS_FRAC
P           0.000000000000000    0.234027000000000    0.000000000000000 
P           0.000000000000000    0.295839000000000    0.500000000000000 
P           0.000000000000000    0.704161000000000    0.500000000000000 
P           0.000000000000000    0.765973000000000    0.000000000000000 
P           0.234027000000000    0.000000000000000    0.000000000000000 
P           0.234027000000000    0.234027000000000    0.000000000000000 
P           0.295839000000000    0.000000000000000    0.500000000000000 
P           0.295839000000000    0.295839000000000    0.500000000000000 
P           0.704161000000000    0.000000000000000    0.500000000000000 
P           0.704161000000000    0.704161000000000    0.500000000000000 
P           0.765973000000000    0.000000000000000    0.000000000000000 
P           0.765973000000000    0.765973000000000    0.000000000000000 
K           0.000000000000000    0.500000000000000    0.000000000000000 
K           0.500000000000000    0.000000000000000    0.000000000000000 
K           0.500000000000000    0.500000000000000    0.000000000000000 
%ENDBLOCK POSITIONS_FRAC
