# Cell file generated by matador (Matthew Evans 2016)

%BLOCK LATTICE_CART
10.9616 0.0 0.0
-5.48082 9.49305 0.0
0.0 0.0 6.88368
%ENDBLOCK LATTICE_CART

%BLOCK POSITIONS_FRAC
P           0.000000000000000    0.000000000000000    0.973293000000000 
P           0.159916000000000    0.463517000000000    0.368915000000000 
P           0.159916000000000    0.696399000000000    0.368915000000000 
P           0.303601000000000    0.463517000000000    0.368915000000000 
P           0.303601000000000    0.840084000000000    0.368915000000000 
P           0.333333000000000    0.666667000000000    0.546629000000000 
P           0.536483000000000    0.696399000000000    0.368915000000000 
P           0.536483000000000    0.840084000000000    0.368915000000000 
K           0.018135000000000    0.359375000000000    0.944385000000000 
K           0.018135000000000    0.658760000000000    0.944385000000000 
K           0.341240000000000    0.359375000000000    0.944385000000000 
K           0.341240000000000    0.981865000000000    0.944385000000000 
K           0.599324000000000    0.198647000000000    0.707618000000000 
K           0.599324000000000    0.400676000000000    0.707618000000000 
K           0.640625000000000    0.658760000000000    0.944385000000000 
K           0.640625000000000    0.981865000000000    0.944385000000000 
K           0.666667000000000    0.333333000000000    0.479696000000000 
K           0.801353000000000    0.400676000000000    0.707618000000000 
%ENDBLOCK POSITIONS_FRAC
