# Cell file generated by matador (Matthew Evans 2016)

%BLOCK LATTICE_CART
8.88463 0.0 0.0
-4.44232 7.69432 0.0
0.0 0.0 12.069
%ENDBLOCK LATTICE_CART

%BLOCK POSITIONS_FRAC
P           0.518083000000000    0.259041000000000    0.000000000000000 
P           0.666667000000000    0.333333000000000    0.382478000000000 
P           0.666667000000000    0.333333000000000    0.617522000000000 
P           0.740959000000000    0.259041000000000    0.000000000000000 
P           0.740959000000000    0.481917000000000    0.000000000000000 
K           0.000000000000000   -0.000000000000000    0.000000000000000 
K           0.000000000000000   -0.000000000000000    0.500000000000000 
K           0.333334000000000    0.666666000000000    0.000000000000000 
K           0.337381000000000    0.002101000000000    0.000000000000000 
K           0.337381000000000    0.335280000000000    0.000000000000000 
K           0.549731000000000    0.099461000000000    0.304996000000000 
K           0.549731000000000    0.099461000000000    0.695004000000000 
K           0.549731000000000    0.450269000000000    0.304996000000000 
K           0.549731000000000    0.450269000000000    0.695004000000000 
K           0.664720000000000    0.002101000000000    0.000000000000000 
K           0.664720000000000    0.662619000000000    0.000000000000000 
K           0.900539000000000    0.450269000000000    0.304996000000000 
K           0.900539000000000    0.450269000000000    0.695004000000000 
K           0.997899000000000    0.335280000000000    0.000000000000000 
K           0.997899000000000    0.662619000000000    0.000000000000000 
%ENDBLOCK POSITIONS_FRAC
