# Cell file generated by matador (Matthew Evans 2016)

%BLOCK LATTICE_CART
2.144 0.0 0.0
0.0 8.88745 0.0
-6.81533 0.0 21.9765
%ENDBLOCK LATTICE_CART

%BLOCK POSITIONS_FRAC
P           0.022267000000000    0.000000000000000    0.884923000000000 
P           0.053952000000000    0.000000000000000    0.586040000000000 
P           0.109379000000000    0.500000000000000    0.441123000000000 
P           0.295938000000000    0.360543000000000    0.509769000000000 
P           0.295938000000000    0.639457000000000    0.509769000000000 
P           0.308774000000000    0.000000000000000    0.342024000000000 
P           0.407646000000000    0.500000000000000    0.917031000000000 
P           0.407853000000000    0.500000000000000    0.134909000000000 
P           0.432303000000000    0.500000000000000    0.363872000000000 
P           0.577484000000000    0.000000000000000    0.810588000000000 
P           0.760173000000000    0.500000000000000    0.728522000000000 
P           0.872784000000000    0.000000000000000    0.116552000000000 
P           0.956966000000000    0.500000000000000    0.549669000000000 
P           0.959527000000000    0.500000000000000    0.496681000000000 
K           0.893763000000000    0.133166000000000    0.953751000000000 
K           0.893763000000000    0.866834000000000    0.953751000000000 
%ENDBLOCK POSITIONS_FRAC
