# Cell file generated by matador (Matthew Evans 2016)

%BLOCK LATTICE_CART
6.28684 0.0 0.0
0.0 6.28684 0.0
0.0 0.0 5.88278
%ENDBLOCK LATTICE_CART

%BLOCK POSITIONS_FRAC
P           0.000000000000000    0.000000000000000    0.879525000000000 
P           0.174618000000000    0.174618000000000    0.520436000000000 
P           0.325382000000000    0.674618000000000    0.020436000000000 
P           0.500000000000000    0.500000000000000    0.379525000000000 
P           0.674618000000000    0.325382000000000    0.020436000000000 
P           0.825382000000000    0.825382000000000    0.520436000000000 
K           0.000000000000000    0.000000000000000    0.266510000000000 
K           0.500000000000000    0.500000000000000    0.766510000000000 
%ENDBLOCK POSITIONS_FRAC
