# Cell file generated by matador (Matthew Evans 2016)

%BLOCK LATTICE_CART
6.72285 0.0 0.0
-3.36142 5.82216 0.0
0.0 0.0 10.8738
%ENDBLOCK LATTICE_CART

%BLOCK POSITIONS_FRAC
P           0.000000000000000    0.000000000000000    0.339860000000000 
P           0.000000000000000    0.000000000000000    0.706343000000000 
P           0.333333000000000    0.666667000000000    0.778792000000000 
P           0.333333000000000    0.666667000000000    0.898750000000000 
P           0.666667000000000    0.333333000000000    0.778792000000000 
P           0.666667000000000    0.333333000000000    0.898750000000000 
K           0.000000000000000    0.000000000000000    0.118885000000000 
K           0.000000000000000    0.000000000000000    0.911264000000000 
K           0.000000000000000    0.350331000000000    0.911163000000000 
K           0.000000000000000    0.649669000000000    0.911163000000000 
K           0.333333000000000    0.666667000000000    0.328912000000000 
K           0.350331000000000    0.000000000000000    0.911163000000000 
K           0.350331000000000    0.350331000000000    0.911163000000000 
K           0.649669000000000    0.000000000000000    0.911163000000000 
K           0.649669000000000    0.649669000000000    0.911163000000000 
K           0.666667000000000    0.333333000000000    0.328912000000000 
%ENDBLOCK POSITIONS_FRAC
