# Cell file generated by matador (Matthew Evans 2016)

%BLOCK LATTICE_CART
7.22821 0.0 0.0
0.0 7.22821 0.0
0.0 0.0 8.43071
%ENDBLOCK LATTICE_CART

%BLOCK POSITIONS_FRAC
P           0.088707000000000    0.690066000000000    0.881843000000000 
P           0.190066000000000    0.588707000000000    0.881843000000000 
P           0.309934000000000    0.088707000000000    0.881843000000000 
P           0.411293000000000    0.190066000000000    0.881843000000000 
P           0.588707000000000    0.809934000000000    0.881843000000000 
P           0.690066000000000    0.911293000000000    0.881843000000000 
P           0.809934000000000    0.411293000000000    0.881843000000000 
P           0.911293000000000    0.309934000000000    0.881843000000000 
K           0.000000000000000    0.000000000000000    0.779541000000000 
K           0.159760000000000    0.659760000000000    0.298036000000000 
K           0.164937000000000    0.335063000000000    0.043814000000000 
K           0.335063000000000    0.835063000000000    0.043814000000000 
K           0.340240000000000    0.159760000000000    0.298036000000000 
K           0.500000000000000    0.500000000000000    0.779541000000000 
K           0.659760000000000    0.840240000000000    0.298036000000000 
K           0.664937000000000    0.164937000000000    0.043814000000000 
K           0.835063000000000    0.664937000000000    0.043814000000000 
K           0.840240000000000    0.340240000000000    0.298036000000000 
%ENDBLOCK POSITIONS_FRAC
