# Cell file generated by matador (Matthew Evans 2016)

%BLOCK LATTICE_CART
7.65632 0.0 0.0
0.0 5.24406 0.0
0.762982 0.0 3.29104
%ENDBLOCK LATTICE_CART

%BLOCK POSITIONS_FRAC
P          -0.000000000000000    0.226408000000000    0.500000000000000 
P           0.217641000000000    0.309451000000000    0.770024000000000 
P           0.239208000000000    0.977346000000000    0.889848000000000 
P           0.760792000000000    0.977346000000000    0.110152000000000 
P           0.782359000000000    0.309451000000000    0.229976000000000 
K           0.500000000000000    0.048371000000000    0.500000000000000 
%ENDBLOCK POSITIONS_FRAC
