# Cell file generated by matador (Matthew Evans 2016)

%BLOCK LATTICE_CART
8.23672 -0.0 0.0
-4.11836 7.13321 0.0
0.0 0.0 8.28929
%ENDBLOCK LATTICE_CART

%BLOCK POSITIONS_FRAC
P           0.090639000000000    0.892864000000000    0.748105000000000 
P           0.107136000000000    0.197775000000000    0.748105000000000 
P           0.205449000000000    0.639186000000000    0.859026000000000 
P           0.360814000000000    0.566263000000000    0.859026000000000 
P           0.433737000000000    0.794551000000000    0.859026000000000 
P           0.802225000000000    0.909361000000000    0.748105000000000 
K           0.000000000000000    0.000000000000000    0.336220000000000 
K           0.002117000000000    0.201528000000000    0.120294000000000 
K           0.199411000000000    0.997883000000000    0.120294000000000 
K           0.272699000000000    0.043712000000000    0.464722000000000 
K           0.333333000000000    0.666667000000000    0.116758000000000 
K           0.333333000000000    0.666667000000000    0.500209000000000 
K           0.666667000000000    0.333333000000000    0.232798000000000 
K           0.771012000000000    0.727301000000000    0.464722000000000 
K           0.798472000000000    0.800589000000000    0.120294000000000 
K           0.956288000000000    0.228988000000000    0.464722000000000 
%ENDBLOCK POSITIONS_FRAC
