# Cell file generated by matador (Matthew Evans 2016)

%BLOCK LATTICE_CART
6.19726 0.0 0.0
0.0 6.19726 0.0
0.0 0.0 7.92976
%ENDBLOCK LATTICE_CART

%BLOCK POSITIONS_FRAC
P           0.195711000000000    0.295448000000000    0.831497000000000 
P           0.295448000000000    0.804289000000000    0.831497000000000 
P           0.500000000000000    0.500000000000000    0.642716000000000 
P           0.704552000000000    0.195711000000000    0.831497000000000 
P           0.804289000000000    0.704552000000000    0.831497000000000 
K           0.000000000000000    0.000000000000000    0.347995000000000 
K           0.000000000000000    0.500000000000000    0.693268000000000 
K           0.500000000000000    0.000000000000000    0.693268000000000 
K           0.500000000000000    0.500000000000000    0.267195000000000 
%ENDBLOCK POSITIONS_FRAC
