# Cell file generated by matador (Matthew Evans 2016)

%BLOCK LATTICE_CART
6.88074 0.0 0.0
0.0 4.07979 0.0
3.28525 0.0 6.82413
%ENDBLOCK LATTICE_CART

%BLOCK POSITIONS_FRAC
P           0.102086000000000    0.056924000000000    0.645143000000000 
P           0.157828000000000    0.846718000000000    0.862478000000000 
P           0.437470000000000    0.120920000000000    0.961186000000000 
P           0.562530000000000    0.120920000000000    0.038814000000000 
P           0.842172000000000    0.846718000000000    0.137522000000000 
P           0.897914000000000    0.056924000000000    0.354857000000000 
K           0.500000000000000    0.593625000000000    0.000000000000000 
%ENDBLOCK POSITIONS_FRAC
