# Cell file generated by matador (Matthew Evans 2016)

%BLOCK LATTICE_CART
7.32229 0.0 0.0
-3.66115 6.34129 0.0
0.0 0.0 9.10019
%ENDBLOCK LATTICE_CART

%BLOCK POSITIONS_FRAC
P           0.032633000000000    0.450233000000000    0.367060000000000 
P           0.032633000000000    0.582400000000000    0.867060000000000 
P           0.052731000000000    0.402537000000000    0.690495000000000 
P           0.052731000000000    0.650194000000000    0.190495000000000 
P           0.349806000000000    0.402537000000000    0.190495000000000 
P           0.349806000000000    0.947269000000000    0.690495000000000 
P           0.417600000000000    0.450233000000000    0.867060000000000 
P           0.417600000000000    0.967367000000000    0.367060000000000 
P           0.549767000000000    0.582400000000000    0.367060000000000 
P           0.549767000000000    0.967367000000000    0.867060000000000 
P           0.597463000000000    0.650194000000000    0.690495000000000 
P           0.597463000000000    0.947269000000000    0.190495000000000 
K           0.666667000000000    0.333333000000000    0.096751000000000 
K           0.666667000000000    0.333333000000000    0.596751000000000 
%ENDBLOCK POSITIONS_FRAC
