# Cell file generated by matador (Matthew Evans 2016)

%BLOCK LATTICE_CART
8.18184 0.0 0.0
-4.09092 7.08568 0.0
0.0 0.0 7.67383
%ENDBLOCK LATTICE_CART

%BLOCK POSITIONS_FRAC
P           0.000000000000000    0.000000000000000    0.351161000000000 
P           0.333333000000000    0.666667000000000    0.017828000000000 
P           0.666667000000000    0.333333000000000    0.684494000000000 
K           0.030382000000000    0.515191000000000    0.519653000000000 
K           0.151476000000000    0.302952000000000    0.852986000000000 
K           0.151476000000000    0.848524000000000    0.852986000000000 
K           0.363715000000000    0.181857000000000    0.186319000000000 
K           0.484809000000000    0.515191000000000    0.519653000000000 
K           0.484809000000000    0.969618000000000    0.519653000000000 
K           0.697048000000000    0.848524000000000    0.852986000000000 
K           0.818143000000000    0.181857000000000    0.186319000000000 
K           0.818143000000000    0.636285000000000    0.186319000000000 
%ENDBLOCK POSITIONS_FRAC
