# Cell file generated by matador (Matthew Evans 2016)

%BLOCK LATTICE_CART
5.29218 0.0 0.0
-0.767825 5.79885 0.0
1.60884 0.438464 10.3195
%ENDBLOCK LATTICE_CART

%BLOCK POSITIONS_FRAC
P           0.000000000000000    0.500000000000000    0.000000000000000 
P           0.329115000000000    0.886314000000000    0.156835000000000 
P           0.383675000000000    0.040643000000000    0.388828000000000 
P           0.500000000000000    0.000000000000000    0.000000000000000 
P           0.500000000000000    0.000000000000000    0.500000000000000 
P           0.616325000000000    0.959357000000000    0.611172000000000 
P           0.670885000000000    0.113686000000000    0.843165000000000 
K           0.000000000000000    0.000000000000000    0.500000000000000 
K           0.000000000000000    0.500000000000000    0.500000000000000 
K           0.403248000000000    0.542398000000000    0.757851000000000 
K           0.500000000000000    0.500000000000000    0.500000000000000 
K           0.596752000000000    0.457602000000000    0.242149000000000 
%ENDBLOCK POSITIONS_FRAC
