# Cell file generated by matador (Matthew Evans 2016)

%BLOCK LATTICE_CART
5.51019 0.0 0.0
0.0 4.89455 0.0
1.1584 0.0 5.49975
%ENDBLOCK LATTICE_CART

%BLOCK POSITIONS_FRAC
P           0.656266000000000    0.000000000000000    0.941664000000000 
K           0.232582000000000    0.000000000000000    0.840710000000000 
K           0.542072000000000    0.282387000000000    0.388938000000000 
K           0.542072000000000    0.717613000000000    0.388938000000000 
%ENDBLOCK POSITIONS_FRAC
