# Cell file generated by matador (Matthew Evans 2016)

%BLOCK LATTICE_CART
9.76609 0.0 0.0
4.21494 8.6405 0.0
-3.70251 -1.97509 7.31756
%ENDBLOCK LATTICE_CART

%BLOCK POSITIONS_FRAC
P           0.027324000000000    0.651850000000000    0.750248000000000 
P           0.254317000000000    0.065500000000000    0.918984000000000 
P           0.745683000000000    0.934500000000000    0.081016000000000 
P           0.972676000000000    0.348150000000000    0.249752000000000 
K           0.000000000000000    0.000000000000000    0.000000000000000 
K           0.000000000000000    0.000000000000000    0.500000000000000 
K           0.000000000000000    0.500000000000000    0.000000000000000 
K           0.000000000000000    0.500000000000000    0.500000000000000 
K           0.096682000000000    0.207916000000000    0.473008000000000 
K           0.249325000000000    0.593909000000000    0.477697000000000 
K           0.391823000000000    0.436206000000000    0.727947000000000 
K           0.500000000000000    0.000000000000000    0.000000000000000 
K           0.500000000000000    0.000000000000000    0.500000000000000 
K           0.500000000000000    0.500000000000000    0.000000000000000 
K           0.500000000000000    0.500000000000000    0.500000000000000 
K           0.608177000000000    0.563794000000000    0.272053000000000 
K           0.750675000000000    0.406091000000000    0.522303000000000 
K           0.903318000000000    0.792084000000000    0.526992000000000 
%ENDBLOCK POSITIONS_FRAC
