# Cell file generated by matador (Matthew Evans 2016)

%BLOCK LATTICE_CART
9.25398 0.0 0.0
-4.62699 8.01418 0.0
0.0 0.0 14.8088
%ENDBLOCK LATTICE_CART

%BLOCK POSITIONS_FRAC
P           0.000000000000000    0.000000000000000    0.264946000000000 
P           0.000000000000000    0.000000000000000    0.655706000000000 
P           0.218638000000000    0.437276000000000    0.328660000000000 
P           0.218638000000000    0.781362000000000    0.328660000000000 
P           0.562724000000000    0.781362000000000    0.328660000000000 
P           0.666667000000000    0.333333000000000    0.258588000000000 
P           0.666667000000000    0.333333000000000    0.888598000000000 
K           0.160967000000000    0.321933000000000    0.509406000000000 
K           0.160967000000000    0.839033000000000    0.509406000000000 
K           0.174809000000000    0.349617000000000    0.890984000000000 
K           0.174809000000000    0.825191000000000    0.890984000000000 
K           0.224138000000000    0.448277000000000    0.110683000000000 
K           0.224138000000000    0.775862000000000    0.110683000000000 
K           0.254594000000000    0.127297000000000    0.221193000000000 
K           0.530808000000000    0.061616000000000    0.002266000000000 
K           0.530808000000000    0.469192000000000    0.002266000000000 
K           0.539407000000000    0.078814000000000    0.529552000000000 
K           0.539407000000000    0.460593000000000    0.529552000000000 
K           0.542081000000000    0.084163000000000    0.759030000000000 
K           0.542081000000000    0.457919000000000    0.759030000000000 
K           0.551723000000000    0.775862000000000    0.110683000000000 
K           0.650383000000000    0.825191000000000    0.890984000000000 
K           0.678067000000000    0.839033000000000    0.509406000000000 
K           0.872703000000000    0.127297000000000    0.221193000000000 
K           0.872703000000000    0.745406000000000    0.221193000000000 
K           0.915837000000000    0.457919000000000    0.759030000000000 
K           0.921186000000000    0.460593000000000    0.529552000000000 
K           0.938384000000000    0.469192000000000    0.002266000000000 
%ENDBLOCK POSITIONS_FRAC
