# Cell file generated by matador (Matthew Evans 2016)

%BLOCK LATTICE_CART
7.962 0.0 0.0
-3.981 6.8953 0.0
0.0 0.0 8.00087
%ENDBLOCK LATTICE_CART

%BLOCK POSITIONS_FRAC
P           0.000000000000000    0.000000000000000    0.000000000000000 
P           0.000000000000000    0.000000000000000    0.250027000000000 
P           0.000000000000000    0.000000000000000    0.749973000000000 
P           0.333333000000000    0.666667000000000    0.000000000000000 
P           0.666667000000000    0.333333000000000    0.000000000000000 
P           0.666667000000000    0.333333000000000    0.500000000000000 
K           0.000000000000000    0.000000000000000    0.500000000000000 
K           0.333333000000000    0.666667000000000    0.500000000000000 
K           0.421358000000000    0.168631000000000    0.860470000000000 
K           0.421358000000000    0.252727000000000    0.139530000000000 
K           0.747273000000000    0.168631000000000    0.139530000000000 
K           0.747273000000000    0.578642000000000    0.860470000000000 
K           0.831369000000000    0.252727000000000    0.860470000000000 
K           0.831369000000000    0.578642000000000    0.139530000000000 
%ENDBLOCK POSITIONS_FRAC
