# Cell file generated by matador (Matthew Evans 2016)

%BLOCK LATTICE_CART
10.4627 0.0 0.0
-5.23136 9.06098 0.0
0.0 0.0 8.91361
%ENDBLOCK LATTICE_CART

%BLOCK POSITIONS_FRAC
P           0.122793000000000    0.604932000000000    0.750000000000000 
P           0.395068000000000    0.517861000000000    0.750000000000000 
P           0.482139000000000    0.877207000000000    0.750000000000000 
P           0.517861000000000    0.395068000000000    0.250000000000000 
P           0.604932000000000    0.122793000000000    0.250000000000000 
P           0.877207000000000    0.482139000000000    0.250000000000000 
K          -0.000000000000000    0.000000000000000    0.250000000000000 
K          -0.000000000000000    0.000000000000000    0.750000000000000 
K           0.071231000000000    0.764616000000000    0.750000000000000 
K           0.094400000000000    0.349310000000000    0.250000000000000 
K           0.235384000000000    0.306615000000000    0.750000000000000 
K           0.254910000000000    0.905600000000000    0.250000000000000 
K           0.306615000000000    0.235384000000000    0.250000000000000 
K           0.333333000000000    0.666667000000000    0.250000000000000 
K           0.333333000000000    0.666667000000000    0.750000000000000 
K           0.349310000000000    0.094400000000000    0.750000000000000 
K           0.650690000000000    0.745090000000000    0.250000000000000 
K           0.666667000000000    0.333333000000000    0.250000000000000 
K           0.666667000000000    0.333333000000000    0.750000000000000 
K           0.693385000000000    0.928769000000000    0.750000000000000 
K           0.745090000000000    0.650690000000000    0.750000000000000 
K           0.764616000000000    0.071231000000000    0.250000000000000 
K           0.905600000000000    0.254910000000000    0.750000000000000 
K           0.928769000000000    0.693385000000000    0.250000000000000 
%ENDBLOCK POSITIONS_FRAC
