# Cell file generated by matador (Matthew Evans 2016)

%BLOCK LATTICE_CART
4.01701 -0.0 0.0
-2.0085 3.47883 0.0
0.0 0.0 13.2282
%ENDBLOCK LATTICE_CART

%BLOCK POSITIONS_FRAC
P           0.235297000000000    0.027194000000000    0.661799000000000 
P           0.242043000000000    0.206588000000000    0.243580000000000 
P           0.333333000000000    0.666667000000000    0.374302000000000 
P           0.791897000000000    0.764703000000000    0.661799000000000 
P           0.793412000000000    0.035455000000000    0.243580000000000 
P           0.964545000000000    0.757957000000000    0.243580000000000 
P           0.972806000000000    0.208103000000000    0.661799000000000 
K           0.000000000000000    0.000000000000000    0.041246000000000 
%ENDBLOCK POSITIONS_FRAC
