# Cell file generated by matador (Matthew Evans 2016)

%BLOCK LATTICE_CART
7.11213 0.0 0.0
-3.55607 6.15929 0.0
0.0 0.0 9.6799
%ENDBLOCK LATTICE_CART

%BLOCK POSITIONS_FRAC
P           0.333334000000000    0.666668000000000    0.210900000000000 
P           0.666668000000000    0.333334000000000    0.710900000000000 
K           0.129103000000000    0.348627000000000    0.319423000000000 
K           0.219525000000000    0.870899000000000    0.319423000000000 
K           0.333334000000000    0.666668000000000    0.610906000000000 
K           0.333334000000000    0.666668000000000    0.901193000000000 
K           0.348627000000000    0.219525000000000    0.819423000000000 
K           0.651375000000000    0.780477000000000    0.319423000000000 
K           0.666668000000000    0.333334000000000    0.110906000000000 
K           0.666668000000000    0.333334000000000    0.401193000000000 
K           0.780477000000000    0.129103000000000    0.819423000000000 
K           0.870899000000000    0.651375000000000    0.819423000000000 
%ENDBLOCK POSITIONS_FRAC
