# Cell file generated by matador (Matthew Evans 2016)

%BLOCK LATTICE_CART
6.59912 0.0 0.0
-3.29956 5.71501 0.0
0.0 0.0 7.94012
%ENDBLOCK LATTICE_CART

%BLOCK POSITIONS_FRAC
P           0.000000000000000    0.851845000000000    0.000000000000000 
P           0.000000000000000    0.851845000000000    0.500000000000000 
P           0.148155000000000    0.148155000000000    0.000000000000000 
P           0.148155000000000    0.148155000000000    0.500000000000000 
P           0.333333000000000    0.666667000000000    0.750000000000000 
P           0.666667000000000    0.333333000000000    0.250000000000000 
P           0.851845000000000    0.000000000000000    0.000000000000000 
P           0.851845000000000    0.000000000000000    0.500000000000000 
K           0.000000000000000    0.000000000000000    0.250000000000000 
K           0.000000000000000    0.000000000000000    0.750000000000000 
%ENDBLOCK POSITIONS_FRAC
