# Cell file generated by matador (Matthew Evans 2016)

%BLOCK LATTICE_CART
7.1006 0.0 0.0
0.0 6.92476 0.0
-0.123059 0.0 5.8715
%ENDBLOCK LATTICE_CART

%BLOCK POSITIONS_FRAC
P           0.000000000000000    0.769592000000000    0.000000000000000 
P           0.254861000000000    0.918932000000000    0.080376000000000 
P           0.378216000000000    0.278607000000000    0.947067000000000 
P           0.500000000000000    0.098696000000000    0.500000000000000 
P           0.621784000000000    0.278607000000000    0.052933000000000 
P           0.745139000000000    0.918932000000000    0.919624000000000 
K           0.000000000000000    0.531528000000000    0.500000000000000 
K           0.115527000000000    0.346769000000000    0.798098000000000 
K           0.313839000000000    0.569365000000000    0.597049000000000 
K           0.686161000000000    0.569365000000000    0.402951000000000 
K           0.884473000000000    0.346769000000000    0.201902000000000 
%ENDBLOCK POSITIONS_FRAC
