# Cell file generated by matador (Matthew Evans 2016)

%BLOCK LATTICE_CART
7.5774 -0.0 0.0
-3.7887 6.56222 0.0
0.0 0.0 8.92809
%ENDBLOCK LATTICE_CART

%BLOCK POSITIONS_FRAC
P           0.000000000000000   -0.000000000000000    0.139299000000000 
P           0.453456000000000    0.057651000000000    0.531261000000000 
P           0.561904000000000    0.405707000000000    0.489947000000000 
P           0.594293000000000    0.156197000000000    0.489947000000000 
P           0.604195000000000    0.546544000000000    0.531261000000000 
P           0.666667000000000    0.333333000000000    0.907312000000000 
P           0.843803000000000    0.438096000000000    0.489947000000000 
P           0.942349000000000    0.395805000000000    0.531261000000000 
K           0.140080000000000    0.403751000000000    0.687252000000000 
K           0.263671000000000    0.859920000000000    0.687252000000000 
K           0.272273000000000    0.257898000000000    0.096045000000000 
K           0.596249000000000    0.736329000000000    0.687252000000000 
K           0.742102000000000    0.014375000000000    0.096045000000000 
K           0.985625000000000    0.727727000000000    0.096045000000000 
%ENDBLOCK POSITIONS_FRAC
