# Cell file generated by matador (Matthew Evans 2016)

%BLOCK LATTICE_CART
7.3591 0.0 0.0
-3.67955 6.37316 0.0
0.0 0.0 9.12017
%ENDBLOCK LATTICE_CART

%BLOCK POSITIONS_FRAC
P           0.000000000000000    0.000000000000000    0.000000000000000 
P           0.000000000000000    0.000000000000000    0.500000000000000 
K           0.157609000000000    0.529885000000000    0.250000000000000 
K           0.183950000000000    0.689641000000000    0.750000000000000 
K           0.310359000000000    0.494309000000000    0.750000000000000 
K           0.372275000000000    0.842391000000000    0.250000000000000 
K           0.470115000000000    0.627725000000000    0.250000000000000 
K           0.494309000000000    0.310359000000000    0.250000000000000 
K           0.505691000000000    0.816050000000000    0.750000000000000 
K           0.529885000000000    0.157609000000000    0.750000000000000 
K           0.627725000000000    0.470115000000000    0.750000000000000 
K           0.689641000000000    0.183950000000000    0.250000000000000 
K           0.816050000000000    0.505691000000000    0.250000000000000 
K           0.842391000000000    0.372275000000000    0.750000000000000 
%ENDBLOCK POSITIONS_FRAC
