# Cell file generated by matador (Matthew Evans 2016)

%BLOCK LATTICE_CART
7.0085 -0.0 0.0
-3.50425 6.06954 0.0
0.0 0.0 9.5465
%ENDBLOCK LATTICE_CART

%BLOCK POSITIONS_FRAC
P           0.000000000000000    0.000000000000000    0.369059000000000 
P           0.333333000000000    0.666667000000000    0.675028000000000 
P           0.666667000000000    0.333333000000000    0.430108000000000 
P           0.666667000000000    0.333333000000000    0.810445000000000 
K           0.051636000000000    0.716434000000000    0.357106000000000 
K           0.104732000000000    0.582670000000000    0.970714000000000 
K           0.283566000000000    0.335202000000000    0.357106000000000 
K           0.333333000000000    0.666667000000000    0.292409000000000 
K           0.417330000000000    0.522062000000000    0.970714000000000 
K           0.477938000000000    0.895268000000000    0.970714000000000 
K           0.664798000000000    0.948364000000000    0.357106000000000 
%ENDBLOCK POSITIONS_FRAC
