# Cell file generated by matador (Matthew Evans 2016)

%BLOCK LATTICE_CART
4.73352 0.0 0.0
0.0 8.34946 0.0
-2.93931 0.0 8.66581
%ENDBLOCK LATTICE_CART

%BLOCK POSITIONS_FRAC
P           0.000000000000000    0.216626000000000    0.000000000000000 
P           0.152040000000000    0.807438000000000    0.396425000000000 
P           0.417461000000000    0.428207000000000    0.858405000000000 
P           0.582539000000000    0.428207000000000    0.141595000000000 
P           0.847960000000000    0.807438000000000    0.603575000000000 
K           0.000000000000000    0.090913000000000    0.500000000000000 
K           0.000000000000000    0.520267000000000    0.500000000000000 
K           0.000000000000000    0.632900000000000    0.000000000000000 
K           0.268579000000000    0.920956000000000    0.110383000000000 
K           0.367192000000000    0.446326000000000    0.352029000000000 
K           0.632808000000000    0.446326000000000    0.647971000000000 
K           0.731421000000000    0.920956000000000    0.889617000000000 
%ENDBLOCK POSITIONS_FRAC
