# Cell file generated by matador (Matthew Evans 2016)

%BLOCK LATTICE_CART
5.95766 0.0 0.0
-2.97883 5.15948 0.0
0.0 0.0 7.44701
%ENDBLOCK LATTICE_CART

%BLOCK POSITIONS_FRAC
P           0.000000000000000    0.000000000000000    0.127872000000000 
P           0.000000000000000    0.000000000000000    0.767552000000000 
P           0.333333000000000    0.666667000000000    0.325412000000000 
P           0.333333000000000    0.666667000000000    0.466871000000000 
P           0.333333000000000    0.666667000000000    0.808748000000000 
P           0.666667000000000    0.333333000000000    0.180446000000000 
P           0.666667000000000    0.333333000000000    0.713165000000000 
K           0.413577000000000    0.341671000000000    0.510242000000000 
K           0.658329000000000    0.071906000000000    0.510242000000000 
K           0.928094000000000    0.586423000000000    0.510242000000000 
%ENDBLOCK POSITIONS_FRAC
