# Cell file generated by matador (Matthew Evans 2016)

%BLOCK LATTICE_CART
5.82477 0.0 0.0
0.442957 7.63475 0.0
-1.4202 0.408859 6.51304
%ENDBLOCK LATTICE_CART

%BLOCK POSITIONS_FRAC
P           0.295269000000000    0.279911000000000    0.748438000000000 
P           0.316691000000000    0.683577000000000    0.300446000000000 
P           0.375000000000000    0.118887000000000    0.776679000000000 
P           0.625000000000000    0.881113000000000    0.223321000000000 
P           0.683309000000000    0.316423000000000    0.699554000000000 
P           0.704731000000000    0.720089000000000    0.251562000000000 
K           0.000000000000000    0.000000000000000    0.000000000000000 
K           0.500000000000000    0.000000000000000    0.500000000000000 
K           0.500000000000000    0.500000000000000    0.000000000000000 
%ENDBLOCK POSITIONS_FRAC
