# Cell file generated by matador (Matthew Evans 2016)

%BLOCK LATTICE_CART
8.60607 0.0 0.0
-4.30303 7.45307 0.0
0.0 0.0 7.38479
%ENDBLOCK LATTICE_CART

%BLOCK POSITIONS_FRAC
P           0.113403000000000    0.056702000000000    0.500000000000000 
P           0.943298000000000    0.056702000000000    0.166667000000000 
P           0.943298000000000    0.886597000000000    0.833333000000000 
K           0.223302000000000    0.111651000000000   -0.000000000000000 
K           0.236584000000000    0.473169000000000    0.833333000000000 
K           0.236584000000000    0.763416000000000    0.166667000000000 
K           0.526831000000000    0.763416000000000    0.500000000000000 
K           0.590122000000000    0.180245000000000    0.333333000000000 
K           0.590122000000000    0.409878000000000    0.666667000000000 
K           0.819755000000000    0.409878000000000   -0.000000000000000 
K           0.888349000000000    0.111651000000000    0.666667000000000 
K           0.888349000000000    0.776698000000000    0.333333000000000 
%ENDBLOCK POSITIONS_FRAC
