# Cell file generated by matador (Matthew Evans 2016)

%BLOCK LATTICE_CART
12.3807 0.0 0.0
-6.19036 10.722 0.0
0.0 0.0 8.07601
%ENDBLOCK LATTICE_CART

%BLOCK POSITIONS_FRAC
P           0.154184000000000    0.308367000000000    0.637816000000000 
P           0.154184000000000    0.845816000000000    0.637816000000000 
P           0.575985000000000    0.151970000000000    0.308364000000000 
P           0.575985000000000    0.424015000000000    0.308364000000000 
P           0.666667000000000    0.333333000000000    0.615987000000000 
P           0.691633000000000    0.845816000000000    0.637816000000000 
P           0.848030000000000    0.424015000000000    0.308364000000000 
K           0.151976000000000    0.575987000000000    0.903860000000000 
K           0.171348000000000    0.585674000000000    0.440620000000000 
K           0.199744000000000    0.099872000000000    0.838178000000000 
K           0.203114000000000    0.406227000000000    0.129383000000000 
K           0.203114000000000    0.796886000000000    0.129383000000000 
K           0.205066000000000    0.102532000000000    0.273051000000000 
K           0.414326000000000    0.585674000000000    0.440620000000000 
K           0.414326000000000    0.828652000000000    0.440620000000000 
K           0.424013000000000    0.575987000000000    0.903860000000000 
K           0.424013000000000    0.848024000000000    0.903860000000000 
K           0.495547000000000    0.247773000000000    0.446562000000000 
K           0.564742000000000    0.129484000000000    0.898645000000000 
K           0.564742000000000    0.435258000000000    0.898645000000000 
K           0.593773000000000    0.796886000000000    0.129383000000000 
K           0.752227000000000    0.247773000000000    0.446562000000000 
K           0.752227000000000    0.504453000000000    0.446562000000000 
K           0.870516000000000    0.435258000000000    0.898645000000000 
K           0.897468000000000    0.102532000000000    0.273051000000000 
K           0.897468000000000    0.794934000000000    0.273051000000000 
K           0.900128000000000    0.099872000000000    0.838178000000000 
K           0.900128000000000    0.800256000000000    0.838178000000000 
%ENDBLOCK POSITIONS_FRAC
