# Cell file generated by matador (Matthew Evans 2016)

%BLOCK LATTICE_CART
9.20103 0.0 0.0
0.0 6.20831 0.0
-0.935094 0.0 10.8111
%ENDBLOCK LATTICE_CART

%BLOCK POSITIONS_FRAC
P           0.049631000000000    0.067127000000000    0.690405000000000 
P           0.049631000000000    0.432873000000000    0.690405000000000 
P           0.950369000000000    0.567127000000000    0.309595000000000 
P           0.950369000000000    0.932873000000000    0.309595000000000 
K           0.000000000000000    0.000000000000000    0.000000000000000 
K           0.000000000000000    0.000000000000000    0.500000000000000 
K           0.000000000000000    0.500000000000000    0.000000000000000 
K           0.000000000000000    0.500000000000000    0.500000000000000 
K           0.370632000000000    0.250000000000000    0.779340000000000 
K           0.464152000000000    0.250000000000000    0.258151000000000 
K           0.500000000000000    0.000000000000000    0.000000000000000 
K           0.500000000000000    0.000000000000000    0.500000000000000 
K           0.500000000000000    0.500000000000000    0.000000000000000 
K           0.500000000000000    0.500000000000000    0.500000000000000 
K           0.535848000000000    0.750000000000000    0.741849000000000 
K           0.629368000000000    0.750000000000000    0.220660000000000 
%ENDBLOCK POSITIONS_FRAC
