# Cell file generated by matador (Matthew Evans 2016)

%BLOCK LATTICE_CART
6.96526 0.0 0.0
0.0 7.23693 0.0
0.853919 0.0 10.8199
%ENDBLOCK LATTICE_CART

%BLOCK POSITIONS_FRAC
P           0.639951000000000    0.000000000000000    0.836078000000000 
P           0.764804000000000    0.500000000000000    0.013386000000000 
K           0.002549000000000    0.000000000000000    0.643528000000000 
K           0.180456000000000    0.500000000000000    0.253415000000000 
K           0.218396000000000    0.246386000000000    0.705270000000000 
K           0.218396000000000    0.753614000000000    0.705270000000000 
K           0.365288000000000    0.000000000000000    0.426575000000000 
K           0.380610000000000    0.500000000000000    0.813073000000000 
K           0.396421000000000    0.500000000000000    0.585739000000000 
K           0.569870000000000    0.000000000000000    0.233722000000000 
K           0.792609000000000    0.000000000000000    0.440889000000000 
K           0.862261000000000    0.500000000000000    0.212848000000000 
K           0.897114000000000    0.000000000000000    0.103595000000000 
K           0.991254000000000    0.500000000000000    0.623452000000000 
%ENDBLOCK POSITIONS_FRAC
