# Cell file generated by matador (Matthew Evans 2016)

%BLOCK LATTICE_CART
7.52975 0.0 0.0
0.0 7.52975 0.0
0.0 0.0 7.52975
%ENDBLOCK LATTICE_CART

%BLOCK POSITIONS_FRAC
P           0.215964000000000    0.215964000000000    0.215964000000000 
P           0.215964000000000    0.215964000000000    0.784036000000000 
P           0.215964000000000    0.784036000000000    0.215964000000000 
P           0.215964000000000    0.784036000000000    0.784036000000000 
P           0.784036000000000    0.215964000000000    0.215964000000000 
P           0.784036000000000    0.215964000000000    0.784036000000000 
P           0.784036000000000    0.784036000000000    0.215964000000000 
P           0.784036000000000    0.784036000000000    0.784036000000000 
K           0.000000000000000    0.000000000000000    0.000000000000000 
K           0.000000000000000    0.000000000000000    0.500000000000000 
K           0.000000000000000    0.500000000000000    0.000000000000000 
K           0.500000000000000    0.000000000000000    0.000000000000000 
%ENDBLOCK POSITIONS_FRAC
