# Cell file generated by matador (Matthew Evans 2016)

%BLOCK LATTICE_CART
7.80742 0.0 0.0
0.0 5.56098 0.0
4.14554 0.0 8.39374
%ENDBLOCK LATTICE_CART

%BLOCK POSITIONS_FRAC
P           0.015215000000000    0.750000000000000    0.941469000000000 
P           0.097462000000000    0.750000000000000    0.459495000000000 
P           0.175679000000000    0.250000000000000    0.231500000000000 
P           0.411500000000000    0.068050000000000    0.041612000000000 
P           0.411500000000000    0.431950000000000    0.041612000000000 
P           0.588500000000000    0.568050000000000    0.958388000000000 
P           0.588500000000000    0.931950000000000    0.958388000000000 
P           0.824321000000000    0.750000000000000    0.768500000000000 
P           0.902538000000000    0.250000000000000    0.540505000000000 
P           0.984785000000000    0.250000000000000    0.058531000000000 
K           0.247353000000000    0.039806000000000    0.852860000000000 
K           0.247353000000000    0.460194000000000    0.852860000000000 
K           0.752647000000000    0.539806000000000    0.147140000000000 
K           0.752647000000000    0.960194000000000    0.147140000000000 
%ENDBLOCK POSITIONS_FRAC
