# Cell file generated by matador (Matthew Evans 2016)

%BLOCK LATTICE_CART
8.55661 0.0 0.0
-4.27831 7.41024 0.0
0.0 0.0 6.08041
%ENDBLOCK LATTICE_CART

%BLOCK POSITIONS_FRAC
P           0.000000000000000    0.000000000000000    0.292604000000000 
P           0.000000000000000    0.000000000000000    0.703203000000000 
P           0.333333000000000    0.666667000000000    0.640987000000000 
P           0.666667000000000    0.333333000000000    0.640987000000000 
K           0.000000000000000    0.376558000000000    0.535030000000000 
K           0.000000000000000    0.623442000000000    0.535030000000000 
K           0.333333000000000    0.666667000000000    0.238858000000000 
K           0.376558000000000    0.000000000000000    0.535030000000000 
K           0.376558000000000    0.376558000000000    0.535030000000000 
K           0.623442000000000    0.000000000000000    0.535030000000000 
K           0.623442000000000    0.623442000000000    0.535030000000000 
K           0.666667000000000    0.333333000000000    0.238858000000000 
%ENDBLOCK POSITIONS_FRAC
