# Cell file generated by matador (Matthew Evans 2016)

%BLOCK LATTICE_CART
4.14296 0.0 0.0
0.0 7.75829 0.0
2.94549 0.0 5.26356
%ENDBLOCK LATTICE_CART

%BLOCK POSITIONS_FRAC
P           0.070500000000000    0.079979000000000    0.650746000000000 
P           0.929500000000000    0.079979000000000    0.349254000000000 
K           0.000000000000000    0.855874000000000    0.500000000000000 
K           0.500000000000000    0.326714000000000    0.500000000000000 
K           0.500000000000000    0.510652000000000    0.000000000000000 
%ENDBLOCK POSITIONS_FRAC
