# Cell file generated by matador (Matthew Evans 2016)

%BLOCK LATTICE_CART
8.18945 0.0 0.0
0.0 8.18945 0.0
0.0 0.0 9.9313
%ENDBLOCK LATTICE_CART

%BLOCK POSITIONS_FRAC
P           0.000000000000000    0.000000000000000    0.000000000000000 
P           0.000000000000000    0.000000000000000    0.500000000000000 
P           0.500000000000000    0.500000000000000    0.000000000000000 
P           0.500000000000000    0.500000000000000    0.500000000000000 
K           0.000000000000000    0.500000000000000    0.000000000000000 
K           0.000000000000000    0.500000000000000    0.500000000000000 
K           0.160961000000000    0.160961000000000    0.154851000000000 
K           0.160961000000000    0.839039000000000    0.845149000000000 
K           0.339039000000000    0.339039000000000    0.654851000000000 
K           0.339039000000000    0.660961000000000    0.345149000000000 
K           0.500000000000000    0.000000000000000    0.000000000000000 
K           0.500000000000000    0.000000000000000    0.500000000000000 
K           0.660961000000000    0.339039000000000    0.345149000000000 
K           0.660961000000000    0.660961000000000    0.654851000000000 
K           0.839039000000000    0.160961000000000    0.845149000000000 
K           0.839039000000000    0.839039000000000    0.154851000000000 
%ENDBLOCK POSITIONS_FRAC
