# Cell file generated by matador (Matthew Evans 2016)

%BLOCK LATTICE_CART
6.50085 0.0 0.0
-3.25043 5.6299 0.0
0.0 0.0 6.69974
%ENDBLOCK LATTICE_CART

%BLOCK POSITIONS_FRAC
P          -0.000000000000000    0.000000000000000    0.500000000000000 
P           0.060054000000000    0.330029000000000    0.500000000000000 
P           0.060054000000000    0.730025000000000    0.500000000000000 
P           0.269975000000000    0.330029000000000    0.500000000000000 
P           0.269975000000000    0.939946000000000    0.500000000000000 
P           0.669971000000000    0.730025000000000    0.500000000000000 
P           0.669971000000000    0.939946000000000    0.500000000000000 
K           0.333333000000000    0.666667000000000    0.000000000000000 
K           0.333333000000000    0.666667000000000    0.500000000000000 
K           0.666666000000000    0.333334000000000    0.000000000000000 
K           0.666666000000000    0.333334000000000    0.500000000000000 
%ENDBLOCK POSITIONS_FRAC
