# Cell file generated by matador (Matthew Evans 2016)

%BLOCK LATTICE_CART
4.94265 0.0 0.0
-2.47133 4.28046 0.0
0.0 0.0 8.5397
%ENDBLOCK LATTICE_CART

%BLOCK POSITIONS_FRAC
P           0.999999000000000    0.999999000000000    0.248783000000000 
P           0.999999000000000    0.999999000000000    0.780529000000000 
P           0.999999000000000    0.499999000000000    0.140003000000000 
P           0.499999000000000    0.999999000000000    0.140003000000000 
P           0.499999000000000    0.499999000000000    0.140003000000000 
K           0.333332000000000    0.666666000000000    0.628883000000000 
K           0.666666000000000    0.333332000000000    0.628883000000000 
%ENDBLOCK POSITIONS_FRAC
