# Cell file generated by matador (Matthew Evans 2016)

%BLOCK LATTICE_CART
9.51925 0.0 0.0
-4.75963 8.24392 0.0
0.0 0.0 6.18618
%ENDBLOCK LATTICE_CART

%BLOCK POSITIONS_FRAC
P           0.000000000000000    0.000000000000000    0.099605000000000 
P           0.333333000000000    0.666667000000000    0.766272000000000 
P           0.666667000000000    0.333333000000000    0.432939000000000 
K           0.028392000000000    0.514196000000000    0.192480000000000 
K           0.152471000000000    0.304942000000000    0.525814000000000 
K           0.152471000000000    0.847529000000000    0.525814000000000 
K           0.361725000000000    0.180863000000000    0.859147000000000 
K           0.485804000000000    0.514196000000000    0.192480000000000 
K           0.485804000000000    0.971608000000000    0.192480000000000 
K           0.695058000000000    0.847529000000000    0.525814000000000 
K           0.819137000000000    0.180863000000000    0.859147000000000 
K           0.819137000000000    0.638275000000000    0.859147000000000 
%ENDBLOCK POSITIONS_FRAC
