# Cell file generated by matador (Matthew Evans 2016)

%BLOCK LATTICE_CART
4.40002 0.0 0.0
-2.20001 3.81053 0.0
0.0 0.0 5.56575
%ENDBLOCK LATTICE_CART

%BLOCK POSITIONS_FRAC
P          -0.000000000000000    0.000000000000000    0.416611000000000 
P          -0.000000000000000    0.000000000000000    0.965393000000000 
K           0.333333000000000    0.666667000000000    0.611424000000000 
%ENDBLOCK POSITIONS_FRAC
