# Cell file generated by matador (Matthew Evans 2016)

%BLOCK LATTICE_CART
8.60557 0.0 0.0
-4.30278 7.45264 0.0
0.0 0.0 6.98726
%ENDBLOCK LATTICE_CART

%BLOCK POSITIONS_FRAC
P           0.000000000000000    0.000000000000000    0.830346000000000 
P           0.333333000000000    0.666667000000000    0.512626000000000 
P           0.333333000000000    0.666667000000000    0.904514000000000 
K           0.215596000000000    0.431192000000000    0.221567000000000 
K           0.215596000000000    0.784404000000000    0.221567000000000 
K           0.382287000000000    0.191144000000000    0.164220000000000 
K           0.516379000000000    0.032757000000000    0.480696000000000 
K           0.516379000000000    0.483621000000000    0.480696000000000 
K           0.568808000000000    0.784404000000000    0.221567000000000 
K           0.808856000000000    0.191144000000000    0.164220000000000 
K           0.808856000000000    0.617713000000000    0.164220000000000 
K           0.967243000000000    0.483621000000000    0.480696000000000 
%ENDBLOCK POSITIONS_FRAC
