# Cell file generated by matador (Matthew Evans 2016)

%BLOCK LATTICE_CART
8.60288 0.0 0.0
0.0 8.60288 0.0
0.0 0.0 6.59467
%ENDBLOCK LATTICE_CART

%BLOCK POSITIONS_FRAC
P           0.000000000000000    0.000000000000000    0.000000000000000 
P           0.101130000000000    0.101130000000000    0.000000000000000 
P           0.101130000000000    0.898870000000000    0.000000000000000 
P           0.398870000000000    0.398870000000000    0.500000000000000 
P           0.398870000000000    0.601130000000000    0.500000000000000 
P           0.500000000000000    0.500000000000000    0.500000000000000 
P           0.601130000000000    0.398870000000000    0.500000000000000 
P           0.601130000000000    0.601130000000000    0.500000000000000 
P           0.898870000000000    0.101130000000000    0.000000000000000 
P           0.898870000000000    0.898870000000000    0.000000000000000 
K           0.000000000000000    0.000000000000000    0.500000000000000 
K           0.000000000000000    0.500000000000000    0.250000000000000 
K           0.000000000000000    0.500000000000000    0.750000000000000 
K           0.500000000000000    0.000000000000000    0.250000000000000 
K           0.500000000000000    0.000000000000000    0.750000000000000 
K           0.500000000000000    0.500000000000000    0.000000000000000 
%ENDBLOCK POSITIONS_FRAC
