# Cell file generated by matador (Matthew Evans 2016)

%BLOCK LATTICE_CART
9.56307 0.0 0.0
1.36565 3.98495 0.0
3.41946 -1.94339 6.98657
%ENDBLOCK LATTICE_CART

%BLOCK POSITIONS_FRAC
P           0.000000000000000    0.000000000000000    0.500000000000000 
P           0.020511000000000    0.602601000000000    0.750191000000000 
P           0.979490000000000    0.397399000000000    0.249809000000000 
K           0.000000000000000    0.000000000000000    0.000000000000000 
K           0.000000000000000    0.500000000000000    0.500000000000000 
K           0.500000000000000    0.000000000000000    0.000000000000000 
K           0.500000000000000    0.500000000000000    0.500000000000000 
%ENDBLOCK POSITIONS_FRAC
