# Cell file generated by matador (Matthew Evans 2016)

%BLOCK LATTICE_CART
6.77301 0.0 0.0
0.0 6.77301 0.0
0.0 0.0 8.6864
%ENDBLOCK LATTICE_CART

%BLOCK POSITIONS_FRAC
P           0.336812000000000    0.484142000000000    0.387610000000000 
P           0.336812000000000    0.515858000000000    0.887610000000000 
P           0.437283000000000    0.437283000000000    0.599366000000000 
P           0.437283000000000    0.562717000000000    0.099366000000000 
P           0.484142000000000    0.336812000000000    0.387610000000000 
P           0.484142000000000    0.663188000000000    0.887610000000000 
P           0.500000000000000    0.500000000000000    0.361325000000000 
P           0.500000000000000    0.500000000000000    0.861325000000000 
P           0.515858000000000    0.336812000000000    0.887610000000000 
P           0.515858000000000    0.663188000000000    0.387610000000000 
P           0.562717000000000    0.437283000000000    0.099366000000000 
P           0.562717000000000    0.562717000000000    0.599366000000000 
P           0.663188000000000    0.484142000000000    0.887610000000000 
P           0.663188000000000    0.515858000000000    0.387610000000000 
K           0.000000000000000    0.000000000000000    0.364067000000000 
K           0.000000000000000    0.000000000000000    0.864067000000000 
%ENDBLOCK POSITIONS_FRAC
