# Cell file generated by matador (Matthew Evans 2016)

%BLOCK LATTICE_CART
5.45132 0.0 0.0
-2.72566 4.72098 0.0
0.0 0.0 14.3543
%ENDBLOCK LATTICE_CART

%BLOCK POSITIONS_FRAC
P           0.000000000000000    0.000000000000000    0.500000000000000 
P           0.000000000000000    0.366884000000000    0.000000000000000 
P           0.000000000000000    0.633116000000000    0.000000000000000 
P           0.366884000000000    0.000000000000000    0.000000000000000 
P           0.366884000000000    0.366884000000000    0.000000000000000 
P           0.633116000000000    0.000000000000000    0.000000000000000 
P           0.633116000000000    0.633116000000000    0.000000000000000 
K           0.000000000000000    0.000000000000000    0.000000000000000 
K           0.000000000000000    0.500000000000000    0.500000000000000 
K           0.333333000000000    0.666667000000000    0.630862000000000 
K           0.500000000000000    0.000000000000000    0.500000000000000 
K           0.500000000000000    0.500000000000000    0.500000000000000 
K           0.666667000000000    0.333333000000000    0.369138000000000 
%ENDBLOCK POSITIONS_FRAC
