# Cell file generated by matador (Matthew Evans 2016)

%BLOCK LATTICE_CART
6.99135 0.0 0.0
-3.49567 6.05468 0.0
0.0 0.0 12.7707
%ENDBLOCK LATTICE_CART

%BLOCK POSITIONS_FRAC
P           0.492162000000000    0.216590000000000    0.250000000000000 
P           0.492162000000000    0.275572000000000    0.750000000000000 
P           0.724428000000000    0.216590000000000    0.750000000000000 
P           0.724428000000000    0.507838000000000    0.250000000000000 
P           0.783410000000000    0.275572000000000    0.250000000000000 
P           0.783410000000000    0.507838000000000    0.750000000000000 
K          -0.000000000000000   -0.000000000000000    0.000000000000000 
K          -0.000000000000000   -0.000000000000000    0.250000000000000 
K          -0.000000000000000   -0.000000000000000    0.500000000000000 
K          -0.000000000000000   -0.000000000000000    0.750000000000000 
K           0.333333000000000    0.666667000000000    0.000000000000000 
K           0.333333000000000    0.666667000000000    0.250000000000000 
K           0.333333000000000    0.666667000000000    0.500000000000000 
K           0.333333000000000    0.666667000000000    0.750000000000000 
%ENDBLOCK POSITIONS_FRAC
