# Cell file generated by matador (Matthew Evans 2016)

%BLOCK LATTICE_CART
8.39528 0.0 0.0
-4.19764 7.27052 0.0
0.0 0.0 11.6223
%ENDBLOCK LATTICE_CART

%BLOCK POSITIONS_FRAC
P           0.000000000000000    0.832408000000000    0.797715000000000 
P           0.167592000000000    0.167592000000000    0.797715000000000 
P           0.333333000000000    0.666667000000000    0.575111000000000 
P           0.666667000000000    0.333333000000000    0.575111000000000 
P           0.832408000000000    0.000000000000000    0.797715000000000 
K           0.000000000000000    0.398381000000000    0.245910000000000 
K           0.000000000000000    0.399330000000000    0.902068000000000 
K           0.000000000000000    0.416684000000000    0.628788000000000 
K           0.000000000000000    0.733745000000000    0.047966000000000 
K           0.000000000000000    0.742474000000000    0.489521000000000 
K           0.257526000000000    0.257526000000000    0.489521000000000 
K           0.266255000000000    0.266255000000000    0.047966000000000 
K           0.398381000000000    0.000000000000000    0.245910000000000 
K           0.399330000000000    0.000000000000000    0.902068000000000 
K           0.416684000000000    0.000000000000000    0.628788000000000 
K           0.583316000000000    0.583316000000000    0.628788000000000 
K           0.600670000000000    0.600670000000000    0.902068000000000 
K           0.601619000000000    0.601619000000000    0.245910000000000 
K           0.733745000000000    0.000000000000000    0.047966000000000 
K           0.742474000000000    0.000000000000000    0.489521000000000 
%ENDBLOCK POSITIONS_FRAC
