# Cell file generated by matador (Matthew Evans 2016)

%BLOCK LATTICE_CART
7.02273 0.0 0.0
0.0 5.53758 0.0
-0.432109 0.0 4.27696
%ENDBLOCK LATTICE_CART

%BLOCK POSITIONS_FRAC
P           0.000000000000000    0.834729000000000    0.000000000000000 
P           0.137071000000000    0.586895000000000    0.383989000000000 
P           0.158344000000000    0.963064000000000    0.686117000000000 
P           0.199440000000000    0.575568000000000    0.851490000000000 
P           0.800560000000000    0.575568000000000    0.148510000000000 
P           0.841656000000000    0.963064000000000    0.313883000000000 
P           0.862929000000000    0.586895000000000    0.616011000000000 
K           0.000000000000000    0.254877000000000    0.500000000000000 
K           0.500000000000000    0.217823000000000    0.000000000000000 
%ENDBLOCK POSITIONS_FRAC
