# Cell file generated by matador (Matthew Evans 2016)

%BLOCK LATTICE_CART
10.7193 0.0 0.0
-5.35963 9.28315 0.0
0.0 0.0 5.8862
%ENDBLOCK LATTICE_CART

%BLOCK POSITIONS_FRAC
P           0.000000000000000    0.000000000000000    0.000000000000000 
P           0.333333000000000    0.666667000000000    0.500000000000000 
K           0.000000000000000    0.000000000000000    0.500000000000000 
K           0.173835000000000    0.347670000000000    0.500000000000000 
K           0.173835000000000    0.826165000000000    0.500000000000000 
K           0.333333000000000    0.666667000000000    0.000000000000000 
K           0.385114000000000    0.058664000000000    0.500000000000000 
K           0.385114000000000    0.326450000000000    0.500000000000000 
K           0.652330000000000    0.826165000000000    0.500000000000000 
K           0.666667000000000    0.333333000000000    0.000000000000000 
K           0.673550000000000    0.058664000000000    0.500000000000000 
K           0.673550000000000    0.614886000000000    0.500000000000000 
K           0.941336000000000    0.326450000000000    0.500000000000000 
K           0.941336000000000    0.614886000000000    0.500000000000000 
%ENDBLOCK POSITIONS_FRAC
