# Cell file generated by matador (Matthew Evans 2016)

%BLOCK LATTICE_CART
8.44888 0.0 0.0
-4.22444 7.31694 0.0
0.0 0.0 5.31092
%ENDBLOCK LATTICE_CART

%BLOCK POSITIONS_FRAC
P           0.091806000000000    0.658364000000000    0.500000000000000 
P           0.341636000000000    0.433442000000000    0.500000000000000 
P           0.566558000000000    0.908194000000000    0.500000000000000 
K          -0.000000000000000   -0.000000000000000    0.500000000000000 
K           0.149527000000000    0.333234000000000   -0.000000000000000 
K           0.183707000000000    0.850473000000000   -0.000000000000000 
K           0.333333000000000    0.666667000000000    0.500000000000000 
K           0.466762000000000    0.423472000000000   -0.000000000000000 
K           0.576528000000000    0.043290000000000   -0.000000000000000 
K           0.666667000000000    0.333333000000000   -0.000000000000000 
K           0.666766000000000    0.816293000000000   -0.000000000000000 
K           0.956710000000000    0.533238000000000   -0.000000000000000 
%ENDBLOCK POSITIONS_FRAC
