# Cell file generated by matador (Matthew Evans 2016)

%BLOCK LATTICE_CART
8.67025 0.0 0.0
-4.33512 7.50865 0.0
0.0 0.0 6.393
%ENDBLOCK LATTICE_CART

%BLOCK POSITIONS_FRAC
P           0.000000000000000    0.278146000000000    0.289485000000000 
P           0.000000000000000    0.278146000000000    0.710515000000000 
P           0.278146000000000    0.000000000000000    0.289485000000000 
P           0.278146000000000    0.000000000000000    0.710515000000000 
P           0.333333000000000    0.666667000000000    0.000000000000000 
P           0.333333000000000    0.666667000000000    0.156421000000000 
P           0.333333000000000    0.666667000000000    0.843579000000000 
P           0.666667000000000    0.333333000000000    0.000000000000000 
P           0.666667000000000    0.333333000000000    0.156421000000000 
P           0.666667000000000    0.333333000000000    0.843579000000000 
P           0.721854000000000    0.721854000000000    0.289485000000000 
P           0.721854000000000    0.721854000000000    0.710515000000000 
K           0.000000000000000    0.536694000000000    0.000000000000000 
K           0.463306000000000    0.463306000000000    0.000000000000000 
K           0.536694000000000    0.000000000000000    0.000000000000000 
%ENDBLOCK POSITIONS_FRAC
