# Cell file generated by matador (Matthew Evans 2016)

%BLOCK LATTICE_CART
7.12314 0.0 0.0
0.0 7.0398 0.0
0.0 0.0 5.65431
%ENDBLOCK LATTICE_CART

%BLOCK POSITIONS_FRAC
P           0.000000000000000    0.094516000000000    0.966250000000000 
P           0.000000000000000    0.484631000000000    0.647606000000000 
P           0.000000000000000    0.669189000000000    0.542208000000000 
P           0.000000000000000    0.901931000000000    0.755376000000000 
P           0.220950000000000    0.313560000000000    0.278133000000000 
P           0.279050000000000    0.686440000000000    0.778133000000000 
P           0.500000000000000    0.098069000000000    0.255376000000000 
P           0.500000000000000    0.330811000000000    0.042208000000000 
P           0.500000000000000    0.515369000000000    0.147606000000000 
P           0.500000000000000    0.905484000000000    0.466250000000000 
P           0.720950000000000    0.686440000000000    0.778133000000000 
P           0.779050000000000    0.313560000000000    0.278133000000000 
K           0.000000000000000    0.991327000000000    0.316835000000000 
K           0.500000000000000    0.008673000000000    0.816835000000000 
%ENDBLOCK POSITIONS_FRAC
