# Cell file generated by matador (Matthew Evans 2016)

%BLOCK LATTICE_CART
3.60052 0.0 0.0
0.0 7.31788 0.0
0.0 0.0 7.27465
%ENDBLOCK LATTICE_CART

%BLOCK POSITIONS_FRAC
P           0.500000000000000    0.174412000000000    0.234171000000000 
P           0.500000000000000    0.311427000000000    0.871228000000000 
P           0.500000000000000    0.688573000000000    0.371228000000000 
P           0.500000000000000    0.825588000000000    0.734171000000000 
K           0.000000000000000    0.361048000000000    0.715559000000000 
K           0.000000000000000    0.638952000000000    0.215559000000000 
%ENDBLOCK POSITIONS_FRAC
