# Cell file generated by matador (Matthew Evans 2016)

%BLOCK LATTICE_CART
5.76063 0.0 0.0
0.0 7.21953 0.0
-0.0474764 0.0 3.55647
%ENDBLOCK LATTICE_CART

%BLOCK POSITIONS_FRAC
P           0.226256000000000    0.412446000000000    0.707900000000000 
P           0.226256000000000    0.587554000000000    0.707900000000000 
K           0.486430000000000    0.164940000000000    0.272266000000000 
K           0.486430000000000    0.835060000000000    0.272266000000000 
%ENDBLOCK POSITIONS_FRAC
