# Cell file generated by matador (Matthew Evans 2016)

%BLOCK LATTICE_CART
6.55835 0.0 0.0
-3.27917 5.6797 0.0
0.0 0.0 7.36641
%ENDBLOCK LATTICE_CART

%BLOCK POSITIONS_FRAC
P           0.000000000000000    0.000000000000000    0.603396000000000 
P           0.333333000000000    0.666667000000000    0.555839000000000 
P           0.666667000000000    0.333333000000000    0.900834000000000 
K           0.122836000000000    0.661906000000000    0.260540000000000 
K           0.338094000000000    0.460930000000000    0.260540000000000 
K           0.539070000000000    0.877164000000000    0.260540000000000 
K           0.666667000000000    0.333333000000000    0.229270000000000 
%ENDBLOCK POSITIONS_FRAC
