# Cell file generated by matador (Matthew Evans 2016)

%BLOCK LATTICE_CART
7.93104 0.0 0.0
-3.96552 6.86848 0.0
0.0 0.0 5.37499
%ENDBLOCK LATTICE_CART

%BLOCK POSITIONS_FRAC
P           0.421788000000000    0.096077000000000    0.630459000000000 
P           0.421788000000000    0.325711000000000    0.630459000000000 
P           0.674289000000000    0.096077000000000    0.630459000000000 
P           0.674289000000000    0.578212000000000    0.630459000000000 
P           0.903923000000000    0.325711000000000    0.630459000000000 
P           0.903923000000000    0.578212000000000    0.630459000000000 
K           0.179020000000000    0.089510000000000    0.039537000000000 
K           0.910490000000000    0.089510000000000    0.039537000000000 
K           0.910490000000000    0.820980000000000    0.039537000000000 
%ENDBLOCK POSITIONS_FRAC
