# Cell file generated by matador (Matthew Evans 2016)

%BLOCK LATTICE_CART
7.54892 0.0 0.0
0.0 9.76359 0.0
0.0 0.0 7.98415
%ENDBLOCK LATTICE_CART

%BLOCK POSITIONS_FRAC
P           0.010589000000000    0.250000000000000    0.000000000000000 
P           0.250000000000000    0.250000000000000    0.000000000000000 
P           0.250000000000000    0.750000000000000    0.250710000000000 
P           0.250000000000000    0.750000000000000    0.749290000000000 
P           0.489411000000000    0.250000000000000    0.000000000000000 
P           0.510589000000000    0.750000000000000    0.000000000000000 
P           0.750000000000000    0.250000000000000    0.250710000000000 
P           0.750000000000000    0.250000000000000    0.749290000000000 
P           0.750000000000000    0.750000000000000    0.000000000000000 
P           0.989411000000000    0.750000000000000    0.000000000000000 
K           0.250000000000000    0.250000000000000    0.500000000000000 
K           0.250000000000000    0.750000000000000    0.000000000000000 
K           0.250000000000000    0.750000000000000    0.500000000000000 
K           0.750000000000000    0.250000000000000    0.000000000000000 
K           0.750000000000000    0.250000000000000    0.500000000000000 
K           0.750000000000000    0.750000000000000    0.500000000000000 
%ENDBLOCK POSITIONS_FRAC
