# Cell file generated by matador (Matthew Evans 2016)

%BLOCK LATTICE_CART
7.50013 0.0 0.0
-3.75007 6.49531 0.0
0.0 0.0 10.2069
%ENDBLOCK LATTICE_CART

%BLOCK POSITIONS_FRAC
P           0.000000000000000    0.000000000000000    0.339374000000000 
P           0.000000000000000    0.000000000000000    0.660626000000000 
P           0.245128000000000    0.753590000000000    0.509706000000000 
P           0.246410000000000    0.491538000000000    0.509706000000000 
P           0.491538000000000    0.246410000000000    0.490294000000000 
P           0.508462000000000    0.754872000000000    0.509706000000000 
P           0.753590000000000    0.245128000000000    0.490294000000000 
P           0.754872000000000    0.508462000000000    0.490294000000000 
K           0.000000000000000    0.160813000000000    0.500000000000000 
K           0.000000000000000    0.463973000000000    0.000000000000000 
K           0.035153000000000    0.572128000000000    0.298768000000000 
K           0.160813000000000    0.000000000000000    0.500000000000000 
K           0.427872000000000    0.463025000000000    0.298768000000000 
K           0.463025000000000    0.427872000000000    0.701232000000000 
K           0.463973000000000    0.000000000000000    0.000000000000000 
K           0.536027000000000    0.536027000000000    0.000000000000000 
K           0.536975000000000    0.964847000000000    0.298768000000000 
K           0.572128000000000    0.035153000000000    0.701232000000000 
K           0.839187000000000    0.839187000000000    0.500000000000000 
K           0.964847000000000    0.536975000000000    0.701232000000000 
%ENDBLOCK POSITIONS_FRAC
