# Cell file generated by matador (Matthew Evans 2016)

%BLOCK LATTICE_CART
6.39347 0.0 0.0
0.0 6.39347 0.0
0.0 0.0 8.37558
%ENDBLOCK LATTICE_CART

%BLOCK POSITIONS_FRAC
P           0.000000000000000    0.000000000000000    0.063493000000000 
P           0.000000000000000    0.000000000000000    0.250000000000000 
P           0.000000000000000    0.000000000000000    0.436507000000000 
P           0.000000000000000    0.000000000000000    0.563493000000000 
P           0.000000000000000    0.000000000000000    0.750000000000000 
P           0.000000000000000    0.000000000000000    0.936507000000000 
P           0.500000000000000    0.500000000000000    0.096746000000000 
P           0.500000000000000    0.500000000000000    0.403254000000000 
P           0.500000000000000    0.500000000000000    0.596746000000000 
P           0.500000000000000    0.500000000000000    0.903254000000000 
K           0.000000000000000    0.500000000000000    0.250000000000000 
K           0.000000000000000    0.500000000000000    0.750000000000000 
K           0.500000000000000    0.000000000000000    0.250000000000000 
K           0.500000000000000    0.000000000000000    0.750000000000000 
%ENDBLOCK POSITIONS_FRAC
