# Cell file generated by matador (Matthew Evans 2016)

%BLOCK LATTICE_CART
6.13538 0.0 0.0
0.0 6.91778 0.0
-2.00538 0.0 10.635
%ENDBLOCK LATTICE_CART

%BLOCK POSITIONS_FRAC
P           0.227302000000000    0.009297000000000    0.225015000000000 
P           0.300188000000000    0.651876000000000    0.581664000000000 
P           0.492992000000000    0.912826000000000    0.077443000000000 
P           0.507008000000000    0.912826000000000    0.922557000000000 
P           0.699812000000000    0.651876000000000    0.418336000000000 
P           0.772698000000000    0.009297000000000    0.774985000000000 
K           0.000000000000000    0.231279000000000    0.500000000000000 
K           0.000000000000000    0.423727000000000    0.000000000000000 
K           0.104296000000000    0.852371000000000    0.652032000000000 
K           0.332525000000000    0.558263000000000    0.245951000000000 
K           0.500000000000000    0.201430000000000    0.500000000000000 
K           0.667475000000000    0.558263000000000    0.754049000000000 
K           0.895704000000000    0.852371000000000    0.347968000000000 
%ENDBLOCK POSITIONS_FRAC
