# Cell file generated by matador (Matthew Evans 2016)

%BLOCK LATTICE_CART
7.44216 0.0 0.0
0.0 6.69858 0.0
0.0 0.0 5.17985
%ENDBLOCK LATTICE_CART

%BLOCK POSITIONS_FRAC
P           0.000000000000000    0.500000000000000    0.185442000000000 
P           0.000000000000000    0.500000000000000    0.686078000000000 
P           0.500000000000000    0.000000000000000    0.186078000000000 
P           0.500000000000000    0.000000000000000    0.685442000000000 
K           0.000000000000000    0.000000000000000    0.470454000000000 
K           0.164368000000000    0.000000000000000    0.776518000000000 
K           0.335632000000000    0.500000000000000    0.276518000000000 
K           0.500000000000000    0.500000000000000    0.970454000000000 
K           0.664368000000000    0.500000000000000    0.276518000000000 
K           0.835632000000000    0.000000000000000    0.776518000000000 
%ENDBLOCK POSITIONS_FRAC
