# Cell file generated by matador (Matthew Evans 2016)

%BLOCK LATTICE_CART
8.04702 0.0 0.0
0.0 5.80902 0.0
0.0 0.0 7.12963
%ENDBLOCK LATTICE_CART

%BLOCK POSITIONS_FRAC
P           0.055483000000000    0.474551000000000    0.083526000000000 
P           0.055483000000000    0.525449000000000    0.583526000000000 
P           0.444517000000000    0.025449000000000    0.583526000000000 
P           0.444517000000000    0.974551000000000    0.083526000000000 
P           0.555483000000000    0.025449000000000    0.916474000000000 
P           0.555483000000000    0.974551000000000    0.416474000000000 
P           0.944517000000000    0.474551000000000    0.416474000000000 
P           0.944517000000000    0.525449000000000    0.916474000000000 
K           0.000000000000000    0.000000000000000    0.000000000000000 
K           0.000000000000000    0.000000000000000    0.500000000000000 
K           0.500000000000000    0.500000000000000    0.000000000000000 
K           0.500000000000000    0.500000000000000    0.500000000000000 
%ENDBLOCK POSITIONS_FRAC
