# Cell file generated by matador (Matthew Evans 2016)

%BLOCK LATTICE_CART
8.15054 0.0 0.0
-4.07527 7.05858 0.0
0.0 0.0 7.37599
%ENDBLOCK LATTICE_CART

%BLOCK POSITIONS_FRAC
P           0.163998000000000    0.071700000000000    0.188922000000000 
P           0.199840000000000    0.645020000000000    0.742625000000000 
P           0.333333000000000    0.666667000000000    0.083769000000000 
P           0.352715000000000    0.185567000000000    0.170183000000000 
P           0.354980000000000    0.554821000000000    0.742625000000000 
P           0.445179000000000    0.800160000000000    0.742625000000000 
P           0.523456000000000    0.183942000000000    0.086851000000000 
P           0.660486000000000    0.476544000000000    0.086851000000000 
P           0.666666000000000    0.333334000000000    0.147535000000000 
P           0.814433000000000    0.167148000000000    0.170183000000000 
P           0.816058000000000    0.339514000000000    0.086851000000000 
P           0.832852000000000    0.647285000000000    0.170183000000000 
P           0.907701000000000    0.836002000000000    0.188922000000000 
P           0.928300000000000    0.092299000000000    0.188922000000000 
K           0.333333000000000    0.666667000000000    0.439350000000000 
K           0.666666000000000    0.333334000000000    0.526914000000000 
%ENDBLOCK POSITIONS_FRAC
