# Cell file generated by matador (Matthew Evans 2016)

%BLOCK LATTICE_CART
7.14301 0.0 0.0
0.0 11.0873 0.0
0.0 0.0 6.2835
%ENDBLOCK LATTICE_CART

%BLOCK POSITIONS_FRAC
P           0.000000000000000    0.423937000000000    0.500000000000000 
P           0.000000000000000    0.576063000000000    0.500000000000000 
P           0.253993000000000    0.301559000000000    0.272304000000000 
P           0.253993000000000    0.698441000000000    0.727696000000000 
P           0.349135000000000    0.202228000000000    0.492310000000000 
P           0.349135000000000    0.797772000000000    0.507690000000000 
P           0.380264000000000    0.500000000000000    0.500000000000000 
P           0.500000000000000    0.000000000000000    0.091363000000000 
P           0.500000000000000    0.000000000000000    0.500000000000000 
P           0.500000000000000    0.000000000000000    0.908637000000000 
P           0.619736000000000    0.500000000000000    0.500000000000000 
P           0.650865000000000    0.202228000000000    0.507690000000000 
P           0.650865000000000    0.797772000000000    0.492310000000000 
P           0.746007000000000    0.301559000000000    0.727696000000000 
P           0.746007000000000    0.698441000000000    0.272304000000000 
K           0.000000000000000    0.000000000000000    0.000000000000000 
K           0.000000000000000    0.500000000000000    0.000000000000000 
K           0.500000000000000    0.500000000000000    0.000000000000000 
%ENDBLOCK POSITIONS_FRAC
