# Cell file generated by matador (Matthew Evans 2016)

%BLOCK LATTICE_CART
5.53548 0.0 0.0
0.0 8.05023 0.0
0.0 0.0 10.8804
%ENDBLOCK LATTICE_CART

%BLOCK POSITIONS_FRAC
P           0.140036000000000    0.180026000000000    0.792888000000000 
P           0.140036000000000    0.319974000000000    0.207112000000000 
P           0.359964000000000    0.180026000000000    0.207112000000000 
P           0.359964000000000    0.319974000000000    0.792888000000000 
P           0.640036000000000    0.680026000000000    0.207112000000000 
P           0.640036000000000    0.819974000000000    0.792888000000000 
P           0.859964000000000    0.680026000000000    0.792888000000000 
P           0.859964000000000    0.819974000000000    0.207112000000000 
K           0.250000000000000    0.250000000000000    0.500000000000000 
K           0.250000000000000    0.750000000000000    0.000000000000000 
K           0.250000000000000    0.750000000000000    0.500000000000000 
K           0.750000000000000    0.250000000000000    0.000000000000000 
K           0.750000000000000    0.250000000000000    0.500000000000000 
K           0.750000000000000    0.750000000000000    0.500000000000000 
%ENDBLOCK POSITIONS_FRAC
