# Cell file generated by matador (Matthew Evans 2016)

%BLOCK LATTICE_CART
8.87395 0.0 0.0
-4.43697 7.68506 0.0
0.0 0.0 8.61831
%ENDBLOCK LATTICE_CART

%BLOCK POSITIONS_FRAC
P           0.000000000000000    0.000000000000000    0.250000000000000 
P           0.000000000000000    0.000000000000000    0.750000000000000 
K           0.000000000000000    0.500000000000000    0.000000000000000 
K           0.000000000000000    0.500000000000000    0.500000000000000 
K           0.079513000000000    0.619994000000000    0.250000000000000 
K           0.333333000000000    0.666667000000000    0.250000000000000 
K           0.380006000000000    0.459519000000000    0.250000000000000 
K           0.459519000000000    0.079513000000000    0.750000000000000 
K           0.500000000000000    0.000000000000000    0.000000000000000 
K           0.500000000000000    0.000000000000000    0.500000000000000 
K           0.500000000000000    0.500000000000000    0.000000000000000 
K           0.500000000000000    0.500000000000000    0.500000000000000 
K           0.540481000000000    0.920487000000000    0.250000000000000 
K           0.619994000000000    0.540481000000000    0.750000000000000 
K           0.666667000000000    0.333333000000000    0.750000000000000 
K           0.920487000000000    0.380006000000000    0.750000000000000 
%ENDBLOCK POSITIONS_FRAC
