# Cell file generated by matador (Matthew Evans 2016)

%BLOCK LATTICE_CART
10.8839 0.0 0.0
-5.44197 9.42576 0.0
0.0 0.0 8.95188
%ENDBLOCK LATTICE_CART

%BLOCK POSITIONS_FRAC
P           0.140117000000000    0.330779000000000    0.960761000000000 
P           0.140117000000000    0.809337000000000    0.039239000000000 
P           0.190663000000000    0.330779000000000    0.372572000000000 
P           0.190663000000000    0.859883000000000    0.627428000000000 
P           0.669221000000000    0.809337000000000    0.294094000000000 
P           0.669221000000000    0.859883000000000    0.705906000000000 
K           0.087259000000000    0.174518000000000    0.166667000000000 
K           0.087259000000000    0.912741000000000    0.833333000000000 
K           0.089675000000000    0.179350000000000    0.666667000000000 
K           0.089675000000000    0.910325000000000    0.333333000000000 
K           0.303994000000000    0.607988000000000    0.666667000000000 
K           0.303994000000000    0.696006000000000    0.333333000000000 
K           0.323672000000000    0.161836000000000    0.500000000000000 
K           0.392012000000000    0.696006000000000    0.000000000000000 
K           0.519991000000000    0.039980000000000    0.666667000000000 
K           0.519991000000000    0.480009000000000    0.333333000000000 
K           0.640026000000000    0.280050000000000    0.166667000000000 
K           0.640026000000000    0.359974000000000    0.833333000000000 
K           0.719950000000000    0.359974000000000    0.500000000000000 
K           0.820650000000000    0.910325000000000    0.000000000000000 
K           0.825482000000000    0.912741000000000    0.500000000000000 
K           0.838164000000000    0.161836000000000    0.833333000000000 
K           0.838164000000000    0.676328000000000    0.166667000000000 
K           0.960020000000000    0.480009000000000    0.000000000000000 
%ENDBLOCK POSITIONS_FRAC
