# Cell file generated by matador (Matthew Evans 2016)

%BLOCK LATTICE_CART
10.1657 0.0 0.0
-5.08283 8.80372 0.0
0.0 0.0 10.7084
%ENDBLOCK LATTICE_CART

%BLOCK POSITIONS_FRAC
P           0.264004000000000    0.105594000000000    0.000000000000000 
P           0.451236000000000    0.313815000000000    0.000000000000000 
P           0.686185000000000    0.137421000000000    0.000000000000000 
P           0.841589000000000    0.735996000000000    0.000000000000000 
P           0.862579000000000    0.548764000000000    0.000000000000000 
P           0.894406000000000    0.158411000000000    0.000000000000000 
K          -0.000000000000000    0.000000000000000    0.000000000000000 
K          -0.000000000000000    0.000000000000000    0.500000000000000 
K           0.124709000000000    0.792958000000000    0.000000000000000 
K           0.163172000000000    0.330641000000000    0.500000000000000 
K           0.167469000000000    0.836828000000000    0.500000000000000 
K           0.207042000000000    0.331751000000000    0.000000000000000 
K           0.333333000000000    0.666667000000000    0.000000000000000 
K           0.333333000000000    0.666667000000000    0.500000000000000 
K           0.459880000000000    0.000786000000000    0.000000000000000 
K           0.498956000000000    0.496473000000000    0.500000000000000 
K           0.503527000000000    0.002483000000000    0.500000000000000 
K           0.540906000000000    0.540120000000000    0.000000000000000 
K           0.666666000000000    0.333334000000000    0.000000000000000 
K           0.666666000000000    0.333334000000000    0.500000000000000 
K           0.668249000000000    0.875291000000000    0.000000000000000 
K           0.669359000000000    0.832531000000000    0.500000000000000 
K           0.997517000000000    0.501044000000000    0.500000000000000 
K           0.999214000000000    0.459094000000000    0.000000000000000 
%ENDBLOCK POSITIONS_FRAC
