# Cell file generated by matador (Matthew Evans 2016)

%BLOCK LATTICE_CART
6.34092 0.0 0.0
-0.0042936 5.19663 0.0
-0.809815 2.37163 10.4911
%ENDBLOCK LATTICE_CART

%BLOCK POSITIONS_FRAC
P           0.000000000000000    0.000000000000000    0.000000000000000 
P           0.000000000000000    0.500000000000000    0.500000000000000 
P           0.413289000000000    0.843058000000000    0.668730000000000 
P           0.500000000000000    0.000000000000000    0.000000000000000 
P           0.500000000000000    0.000000000000000    0.500000000000000 
P           0.500000000000000    0.500000000000000    0.000000000000000 
P           0.586711000000000    0.156942000000000    0.331270000000000 
K           0.038172000000000    0.965308000000000    0.236790000000000 
K           0.229578000000000    0.409461000000000    0.327332000000000 
K           0.770422000000000    0.590539000000000    0.672668000000000 
K           0.961828000000000    0.034692000000000    0.763210000000000 
%ENDBLOCK POSITIONS_FRAC
