# Cell file generated by matador (Matthew Evans 2016)

%BLOCK LATTICE_CART
8.53803 0.0 0.0
0.0 8.53803 0.0
0.0 0.0 9.37984
%ENDBLOCK LATTICE_CART

%BLOCK POSITIONS_FRAC
P           0.000000000000000    0.000000000000000    0.000000000000000 
P           0.000000000000000    0.000000000000000    0.500000000000000 
P           0.000000000000000    0.500000000000000    0.500000000000000 
P           0.500000000000000    0.000000000000000    0.000000000000000 
K           0.000000000000000    0.000000000000000    0.250000000000000 
K           0.000000000000000    0.000000000000000    0.750000000000000 
K           0.162404000000000    0.605466000000000    0.000000000000000 
K           0.184033000000000    0.241773000000000    0.000000000000000 
K           0.241773000000000    0.815967000000000    0.500000000000000 
K           0.394534000000000    0.162404000000000    0.500000000000000 
K           0.500000000000000    0.500000000000000    0.250000000000000 
K           0.500000000000000    0.500000000000000    0.750000000000000 
K           0.605466000000000    0.837596000000000    0.500000000000000 
K           0.758227000000000    0.184033000000000    0.500000000000000 
K           0.815967000000000    0.758227000000000    0.000000000000000 
K           0.837596000000000    0.394534000000000    0.000000000000000 
%ENDBLOCK POSITIONS_FRAC
