# Cell file generated by matador (Matthew Evans 2016)

%BLOCK LATTICE_CART
8.59247 0.0 0.0
0.0 5.43766 0.0
0.0 0.0 7.53379
%ENDBLOCK LATTICE_CART

%BLOCK POSITIONS_FRAC
P           0.003533000000000    0.750000000000000    0.750000000000000 
P           0.250000000000000    0.117184000000000    0.750000000000000 
P           0.250000000000000    0.382816000000000    0.750000000000000 
P           0.496467000000000    0.750000000000000    0.750000000000000 
P           0.503533000000000    0.250000000000000    0.250000000000000 
P           0.750000000000000    0.617184000000000    0.250000000000000 
P           0.750000000000000    0.882816000000000    0.250000000000000 
P           0.996467000000000    0.250000000000000    0.250000000000000 
K           0.250000000000000    0.250000000000000    0.250000000000000 
K           0.250000000000000    0.750000000000000    0.250000000000000 
K           0.250000000000000    0.750000000000000    0.750000000000000 
K           0.750000000000000    0.250000000000000    0.250000000000000 
K           0.750000000000000    0.250000000000000    0.750000000000000 
K           0.750000000000000    0.750000000000000    0.750000000000000 
%ENDBLOCK POSITIONS_FRAC
