# Cell file generated by matador (Matthew Evans 2016)

%BLOCK LATTICE_CART
7.96613 0.0 0.0
0.0 5.71043 0.0
1.46658 0.0 6.51506
%ENDBLOCK LATTICE_CART

%BLOCK POSITIONS_FRAC
P           0.213854000000000    0.000000000000000    0.548001000000000 
P           0.728461000000000    0.000000000000000    0.641545000000000 
K           0.049957000000000    0.000000000000000    0.371038000000000 
K           0.069880000000000    0.000000000000000    0.821515000000000 
K           0.365630000000000    0.000000000000000    0.026644000000000 
K           0.462214000000000    0.000000000000000    0.444413000000000 
K           0.595648000000000    0.500000000000000    0.951461000000000 
K           0.770669000000000    0.000000000000000    0.143929000000000 
%ENDBLOCK POSITIONS_FRAC
