# Cell file generated by matador (Matthew Evans 2016)

%BLOCK LATTICE_CART
8.7373 0.0 0.0
-4.36865 7.56672 0.0
0.0 0.0 6.02505
%ENDBLOCK LATTICE_CART

%BLOCK POSITIONS_FRAC
P           0.000000000000000    0.000000000000000    0.408309000000000 
P           0.122052000000000    0.561026000000000    0.553398000000000 
P           0.333333000000000    0.666667000000000    0.140396000000000 
P           0.333333000000000    0.666667000000000    0.512273000000000 
P           0.333333000000000    0.666667000000000    0.819013000000000 
P           0.438974000000000    0.561026000000000    0.553398000000000 
P           0.438974000000000    0.877948000000000    0.553398000000000 
P           0.666667000000000    0.333333000000000    0.171953000000000 
P           0.666667000000000    0.333333000000000    0.388941000000000 
P           0.666667000000000    0.333333000000000    0.773414000000000 
K           0.000000000000000    0.000000000000000    0.922947000000000 
K           0.147642000000000    0.295285000000000    0.665302000000000 
K           0.147642000000000    0.852358000000000    0.665302000000000 
K           0.704715000000000    0.852358000000000    0.665302000000000 
%ENDBLOCK POSITIONS_FRAC
