# Cell file generated by matador (Matthew Evans 2016)

%BLOCK LATTICE_CART
7.32935 0.0 0.0
-0.867285 5.56152 0.0
1.40477 0.0074488 8.38219
%ENDBLOCK LATTICE_CART

%BLOCK POSITIONS_FRAC
P           0.125236000000000    0.226277000000000    0.649211000000000 
P           0.253759000000000    0.933484000000000    0.400203000000000 
P           0.500000000000000    0.000000000000000    0.000000000000000 
P           0.500000000000000    0.000000000000000    0.500000000000000 
P           0.500000000000000    0.500000000000000    0.000000000000000 
P           0.746241000000000    0.066516000000000    0.599797000000000 
P           0.874764000000000    0.773723000000000    0.350789000000000 
K           0.000000000000000    0.000000000000000    0.000000000000000 
K           0.000000000000000    0.000000000000000    0.500000000000000 
K           0.000000000000000    0.500000000000000    0.000000000000000 
K           0.500000000000000    0.500000000000000    0.500000000000000 
%ENDBLOCK POSITIONS_FRAC
