# Cell file generated by matador (Matthew Evans 2016)

%BLOCK LATTICE_CART
7.30815 0.0 0.0
-3.65407 6.32904 0.0
0.0 0.0 6.13523
%ENDBLOCK LATTICE_CART

%BLOCK POSITIONS_FRAC
P           0.333333000000000    0.666667000000000    0.508258000000000 
P           0.666666000000000    0.333334000000000    0.703295000000000 
K          -0.000000000000000    0.000000000000000    0.228345000000000 
K           0.145701000000000    0.383511000000000    0.648417000000000 
K           0.237810000000000    0.854299000000000    0.648417000000000 
K           0.333333000000000    0.666667000000000    0.972875000000000 
K           0.616489000000000    0.762190000000000    0.648417000000000 
%ENDBLOCK POSITIONS_FRAC
