# Cell file generated by matador (Matthew Evans 2016)

%BLOCK LATTICE_CART
7.09989 0.0 0.0
-3.54995 6.14869 0.0
0.0 0.0 11.2245
%ENDBLOCK LATTICE_CART

%BLOCK POSITIONS_FRAC
P           0.333333000000000    0.666667000000000    0.372653000000000 
P           0.333333000000000    0.666667000000000    0.872653000000000 
P           0.531828000000000    0.129933000000000    0.034760000000000 
P           0.531828000000000    0.401895000000000    0.534760000000000 
P           0.598105000000000    0.129933000000000    0.534760000000000 
P           0.598105000000000    0.468172000000000    0.034760000000000 
P           0.870067000000000    0.401895000000000    0.034760000000000 
P           0.870067000000000    0.468172000000000    0.534760000000000 
K          -0.000000000000000    0.000000000000000    0.394554000000000 
K          -0.000000000000000    0.000000000000000    0.894554000000000 
K           0.333333000000000    0.666667000000000    0.163101000000000 
K           0.333333000000000    0.666667000000000    0.663101000000000 
K           0.395456000000000    0.174997000000000    0.741538000000000 
K           0.395456000000000    0.220459000000000    0.241538000000000 
K           0.779541000000000    0.174997000000000    0.241538000000000 
K           0.779541000000000    0.604544000000000    0.741538000000000 
K           0.825003000000000    0.220459000000000    0.741538000000000 
K           0.825003000000000    0.604544000000000    0.241538000000000 
%ENDBLOCK POSITIONS_FRAC
