# Cell file generated by matador (Matthew Evans 2016)

%BLOCK LATTICE_CART
6.96493 0.0 0.0
0.0 6.96493 0.0
0.0 0.0 12.8904
%ENDBLOCK LATTICE_CART

%BLOCK POSITIONS_FRAC
P           0.000000000000000    0.000000000000000    0.250000000000000 
P           0.000000000000000    0.000000000000000    0.750000000000000 
P           0.500000000000000    0.500000000000000    0.250000000000000 
P           0.500000000000000    0.500000000000000    0.750000000000000 
K           0.000000000000000    0.000000000000000    0.000000000000000 
K           0.000000000000000    0.000000000000000    0.500000000000000 
K           0.192993000000000    0.192993000000000    0.319956000000000 
K           0.192993000000000    0.192993000000000    0.680044000000000 
K           0.192993000000000    0.807007000000000    0.180044000000000 
K           0.192993000000000    0.807007000000000    0.819956000000000 
K           0.500000000000000    0.500000000000000    0.000000000000000 
K           0.500000000000000    0.500000000000000    0.500000000000000 
K           0.807007000000000    0.192993000000000    0.180044000000000 
K           0.807007000000000    0.192993000000000    0.819956000000000 
K           0.807007000000000    0.807007000000000    0.319956000000000 
K           0.807007000000000    0.807007000000000    0.680044000000000 
%ENDBLOCK POSITIONS_FRAC
