# Cell file generated by matador (Matthew Evans 2016)

%BLOCK LATTICE_CART
6.26129 0.0 0.0
0.0 6.26129 0.0
0.0 0.0 4.82334
%ENDBLOCK LATTICE_CART

%BLOCK POSITIONS_FRAC
P           0.000000000000000    0.000000000000000    0.500000000000000 
P           0.000000000000000    0.500000000000000    0.213154000000000 
P           0.000000000000000    0.500000000000000    0.551025000000000 
P           0.500000000000000    0.000000000000000    0.448975000000000 
P           0.500000000000000    0.000000000000000    0.786846000000000 
P           0.500000000000000    0.500000000000000    0.222636000000000 
P           0.500000000000000    0.500000000000000    0.777364000000000 
K           0.000000000000000    0.000000000000000    0.000000000000000 
%ENDBLOCK POSITIONS_FRAC
