# Cell file generated by matador (Matthew Evans 2016)

%BLOCK LATTICE_CART
5.91605 0.0 0.0
0.0 6.43833 0.0
0.0 0.0 8.25583
%ENDBLOCK LATTICE_CART

%BLOCK POSITIONS_FRAC
P           0.120293000000000    0.129729000000000    0.435990000000000 
P           0.120293000000000    0.870271000000000    0.435990000000000 
P           0.304525000000000    0.500000000000000    0.471258000000000 
P           0.695475000000000    0.500000000000000    0.471258000000000 
P           0.879707000000000    0.129729000000000    0.435990000000000 
P           0.879707000000000    0.870271000000000    0.435990000000000 
K           0.214291000000000    0.000000000000000    0.015715000000000 
K           0.263851000000000    0.000000000000000    0.714325000000000 
K           0.500000000000000    0.000000000000000    0.483064000000000 
K           0.736149000000000    0.000000000000000    0.714325000000000 
K           0.785709000000000    0.000000000000000    0.015715000000000 
%ENDBLOCK POSITIONS_FRAC
