# Cell file generated by matador (Matthew Evans 2016)

%BLOCK LATTICE_CART
4.86508 0.0 0.0
0.0 6.05812 0.0
0.671225 0.0 6.53971
%ENDBLOCK LATTICE_CART

%BLOCK POSITIONS_FRAC
P           0.500000000000000    0.191643000000000    0.000000000000000 
K           0.000000000000000    0.117713000000000    0.500000000000000 
K           0.416995000000000    0.388708000000000    0.733252000000000 
K           0.500000000000000    0.845934000000000    0.500000000000000 
K           0.583005000000000    0.388708000000000    0.266748000000000 
%ENDBLOCK POSITIONS_FRAC
