# Cell file generated by matador (Matthew Evans 2016)

%BLOCK LATTICE_CART
6.20932 0.0 0.0
-3.10466 5.37743 0.0
0.0 0.0 14.7204
%ENDBLOCK LATTICE_CART

%BLOCK POSITIONS_FRAC
P           0.000000000000000    0.000000000000000    0.001343000000000 
P           0.000000000000000    0.000000000000000    0.257258000000000 
P           0.000000000000000    0.000000000000000    0.334677000000000 
P           0.000000000000000    0.000000000000000    0.590591000000000 
P           0.000000000000000    0.000000000000000    0.668010000000000 
P           0.000000000000000    0.000000000000000    0.923924000000000 
P           0.117651000000000    0.872459000000000    0.674827000000000 
P           0.127541000000000    0.245192000000000    0.008160000000000 
P           0.245192000000000    0.117651000000000    0.341494000000000 
P           0.754808000000000    0.882349000000000    0.341494000000000 
P           0.872459000000000    0.754808000000000    0.008160000000000 
P           0.882349000000000    0.127541000000000    0.674827000000000 
K           0.000000000000000    0.500000000000000    0.317622000000000 
K           0.500000000000000    0.000000000000000    0.984288000000000 
K           0.500000000000000    0.500000000000000    0.650955000000000 
%ENDBLOCK POSITIONS_FRAC
