# Cell file generated by matador (Matthew Evans 2016)

%BLOCK LATTICE_CART
7.53433 0.0 0.0
-3.76716 6.52492 0.0
0.0 0.0 7.65645
%ENDBLOCK LATTICE_CART

%BLOCK POSITIONS_FRAC
P           0.000000000000000    0.000000000000000    0.500000000000000 
P           0.333333000000000    0.666667000000000    0.261652000000000 
P           0.333333000000000    0.666667000000000    0.738348000000000 
P           0.666667000000000    0.333333000000000    0.261652000000000 
P           0.666667000000000    0.333333000000000    0.738348000000000 
K           0.000000000000000    0.000000000000000    0.000000000000000 
K           0.000000000000000    0.500000000000000    0.500000000000000 
K           0.333333000000000    0.666667000000000    0.000000000000000 
K           0.500000000000000    0.000000000000000    0.500000000000000 
K           0.500000000000000    0.500000000000000    0.500000000000000 
K           0.666667000000000    0.333333000000000    0.000000000000000 
%ENDBLOCK POSITIONS_FRAC
