# Cell file generated by matador (Matthew Evans 2016)

%BLOCK LATTICE_CART
3.78459 0.0 0.0
0.394102 11.5965 0.0
2.38968 -1.44416 6.93112
%ENDBLOCK LATTICE_CART

%BLOCK POSITIONS_FRAC
P           0.000000000000000    0.000000000000000    0.000000000000000 
P           0.000000000000000    0.000000000000000    0.500000000000000 
P           0.500000000000000    0.000000000000000    0.500000000000000 
P           0.500000000000000    0.500000000000000    0.000000000000000 
K           0.000000000000000    0.500000000000000    0.500000000000000 
K           0.222344000000000    0.857243000000000    0.600627000000000 
K           0.303562000000000    0.183436000000000    0.193162000000000 
K           0.696438000000000    0.816564000000000    0.806838000000000 
K           0.777656000000000    0.142757000000000    0.399373000000000 
%ENDBLOCK POSITIONS_FRAC
