# Cell file generated by matador (Matthew Evans 2016)

%BLOCK LATTICE_CART
8.88748 -0.0 0.0
-4.44374 7.69678 0.0
0.0 0.0 6.97251
%ENDBLOCK LATTICE_CART

%BLOCK POSITIONS_FRAC
P           0.000001000000000    0.000001000000000    0.086369000000000 
P           0.000001000000000    0.000001000000000    0.586369000000000 
P           0.089339000000000    0.693913000000000    0.709493000000000 
P           0.266208000000000    0.727229000000000    0.127411000000000 
P           0.272773000000000    0.538979000000000    0.127411000000000 
P           0.306089000000000    0.395428000000000    0.709493000000000 
P           0.395428000000000    0.089339000000000    0.209493000000000 
P           0.461023000000000    0.733794000000000    0.127411000000000 
P           0.538979000000000    0.266208000000000    0.627411000000000 
P           0.604574000000000    0.910663000000000    0.709493000000000 
P           0.693913000000000    0.604574000000000    0.209493000000000 
P           0.727229000000000    0.461023000000000    0.627411000000000 
P           0.733794000000000    0.272773000000000    0.627411000000000 
P           0.910663000000000    0.306089000000000    0.209493000000000 
K           0.333334000000000    0.666668000000000    0.437232000000000 
K           0.333334000000000    0.666668000000000    0.862638000000000 
K           0.666668000000000    0.333334000000000    0.362638000000000 
K           0.666668000000000    0.333334000000000    0.937232000000000 
%ENDBLOCK POSITIONS_FRAC
