# Cell file generated by matador (Matthew Evans 2016)

%BLOCK LATTICE_CART
9.56434 0.0 0.0
0.0 4.16143 0.0
0.0 0.0 7.36791
%ENDBLOCK LATTICE_CART

%BLOCK POSITIONS_FRAC
P           0.250000000000000    0.000000000000000    0.562404000000000 
P           0.750000000000000    0.000000000000000    0.437596000000000 
K           0.000000000000000    0.000000000000000    0.000000000000000 
K           0.000000000000000    0.000000000000000    0.500000000000000 
K           0.250000000000000    0.500000000000000    0.049673000000000 
K           0.500000000000000    0.000000000000000    0.000000000000000 
K           0.500000000000000    0.000000000000000    0.500000000000000 
K           0.750000000000000    0.500000000000000    0.950327000000000 
%ENDBLOCK POSITIONS_FRAC
