# Cell file generated by matador (Matthew Evans 2016)

%BLOCK LATTICE_CART
7.03908 0.0 0.0
0.0 5.94875 0.0
0.0 0.0 7.24303
%ENDBLOCK LATTICE_CART

%BLOCK POSITIONS_FRAC
P           0.107936000000000    0.250000000000000    0.000000000000000 
P           0.250000000000000    0.250000000000000    0.000000000000000 
P           0.250000000000000    0.750000000000000    0.000000000000000 
P           0.250000000000000    0.750000000000000    0.500000000000000 
P           0.392064000000000    0.250000000000000    0.000000000000000 
P           0.607936000000000    0.750000000000000    0.000000000000000 
P           0.750000000000000    0.250000000000000    0.000000000000000 
P           0.750000000000000    0.250000000000000    0.500000000000000 
P           0.750000000000000    0.750000000000000    0.000000000000000 
P           0.892064000000000    0.750000000000000    0.000000000000000 
K           0.250000000000000    0.250000000000000    0.500000000000000 
K           0.750000000000000    0.750000000000000    0.500000000000000 
%ENDBLOCK POSITIONS_FRAC
