# Cell file generated by matador (Matthew Evans 2016)

%BLOCK LATTICE_CART
7.14679 0.0 0.0
-3.57339 6.1893 0.0
0.0 0.0 10.2785
%ENDBLOCK LATTICE_CART

%BLOCK POSITIONS_FRAC
P          -0.000000000000000    0.495354000000000    0.432344000000000 
P           0.495354000000000    0.000000000000000    0.432344000000000 
P           0.504646000000000    0.504646000000000    0.432344000000000 
K          -0.000000000000000    0.000000000000000    0.779528000000000 
K          -0.000000000000000    0.328948000000000    0.191737000000000 
K          -0.000000000000000    0.457530000000000    0.782005000000000 
K           0.328948000000000    0.000000000000000    0.191737000000000 
K           0.333333000000000    0.666667000000000    0.430363000000000 
K           0.457530000000000    0.000000000000000    0.782005000000000 
K           0.542470000000000    0.542470000000000    0.782005000000000 
K           0.666667000000000    0.333333000000000    0.430363000000000 
K           0.671052000000000    0.671052000000000    0.191737000000000 
%ENDBLOCK POSITIONS_FRAC
