# Cell file generated by matador (Matthew Evans 2016)

%BLOCK LATTICE_CART
6.02969 0.0 0.0
-3.01484 5.22186 0.0
0.0 0.0 16.6262
%ENDBLOCK LATTICE_CART

%BLOCK POSITIONS_FRAC
P           0.000000000000000    0.000000000000000    0.727725000000000 
P           0.333333000000000    0.666667000000000    0.394391000000000 
P           0.666667000000000    0.333333000000000    0.061058000000000 
K           0.000193000000000    0.500096000000000    0.695724000000000 
K           0.166570000000000    0.333141000000000    0.029057000000000 
K           0.166570000000000    0.833430000000000    0.029057000000000 
K           0.333526000000000    0.166763000000000    0.362391000000000 
K           0.499904000000000    0.500096000000000    0.695724000000000 
K           0.499904000000000    0.999807000000000    0.695724000000000 
K           0.666859000000000    0.833430000000000    0.029057000000000 
K           0.833237000000000    0.166763000000000    0.362391000000000 
K           0.833237000000000    0.666474000000000    0.362391000000000 
%ENDBLOCK POSITIONS_FRAC
