# Cell file generated by matador (Matthew Evans 2016)

%BLOCK LATTICE_CART
7.65764 0.0 0.0
2.93256 5.22411 0.0
1.95528 -2.60861 7.38705
%ENDBLOCK LATTICE_CART

%BLOCK POSITIONS_FRAC
P           0.000000000000000    0.000000000000000    0.000000000000000 
P           0.181102000000000    0.570935000000000    0.614287000000000 
P           0.497506000000000    0.535698000000000    0.750794000000000 
P           0.502494000000000    0.464302000000000    0.249206000000000 
P           0.818898000000000    0.429065000000000    0.385713000000000 
K           0.000000000000000    0.000000000000000    0.500000000000000 
K           0.000000000000000    0.500000000000000    0.000000000000000 
K           0.000000000000000    0.500000000000000    0.500000000000000 
K           0.500000000000000    0.000000000000000    0.000000000000000 
K           0.500000000000000    0.000000000000000    0.500000000000000 
K           0.500000000000000    0.500000000000000    0.000000000000000 
K           0.500000000000000    0.500000000000000    0.500000000000000 
%ENDBLOCK POSITIONS_FRAC
