# Cell file generated by matador (Matthew Evans 2016)

%BLOCK LATTICE_CART
12.9224 0.0 0.0
-6.46118 11.1911 0.0
0.0 0.0 9.66358
%ENDBLOCK LATTICE_CART

%BLOCK POSITIONS_FRAC
P           0.000000000000000    0.000000000000000   -0.000000000000000 
P           0.000000000000000    0.000000000000000    0.500000000000000 
P           0.154617000000000    0.570073000000000    0.750000000000000 
P           0.415456000000000    0.845383000000000    0.750000000000000 
P           0.429927000000000    0.584544000000000    0.750000000000000 
P           0.570073000000000    0.415456000000000    0.250000000000000 
P           0.584544000000000    0.154617000000000    0.250000000000000 
P           0.845383000000000    0.429927000000000    0.250000000000000 
K           0.000000000000000    0.000000000000000    0.250000000000000 
K           0.000000000000000    0.000000000000000    0.750000000000000 
K           0.000000000000000    0.500000000000000   -0.000000000000000 
K           0.000000000000000    0.500000000000000    0.500000000000000 
K           0.018808000000000    0.239604000000000    0.750000000000000 
K           0.056974000000000    0.372918000000000    0.250000000000000 
K           0.220797000000000    0.981192000000000    0.750000000000000 
K           0.239604000000000    0.220797000000000    0.250000000000000 
K           0.315944000000000    0.943026000000000    0.250000000000000 
K           0.333333000000000    0.666667000000000    0.250000000000000 
K           0.333333000000000    0.666667000000000    0.750000000000000 
K           0.372918000000000    0.315944000000000    0.750000000000000 
K           0.500000000000000    0.000000000000000   -0.000000000000000 
K           0.500000000000000    0.000000000000000    0.500000000000000 
K           0.500000000000000    0.500000000000000   -0.000000000000000 
K           0.500000000000000    0.500000000000000    0.500000000000000 
K           0.627082000000000    0.684056000000000    0.250000000000000 
K           0.666667000000000    0.333333000000000    0.250000000000000 
K           0.666667000000000    0.333333000000000    0.750000000000000 
K           0.684056000000000    0.056974000000000    0.750000000000000 
K           0.760396000000000    0.779203000000000    0.750000000000000 
K           0.779203000000000    0.018808000000000    0.250000000000000 
K           0.943026000000000    0.627082000000000    0.750000000000000 
K           0.981192000000000    0.760396000000000    0.250000000000000 
%ENDBLOCK POSITIONS_FRAC
