# Cell file generated by matador (Matthew Evans 2016)

%BLOCK LATTICE_CART
10.2667 0.0 0.0
0.0 8.94802 0.0
0.0 0.0 4.97932
%ENDBLOCK LATTICE_CART

%BLOCK POSITIONS_FRAC
P           0.250000000000000    0.250000000000000    0.383096000000000 
P           0.750000000000000    0.750000000000000    0.616904000000000 
K           0.000000000000000    0.000000000000000    0.000000000000000 
K           0.000000000000000    0.000000000000000    0.500000000000000 
K           0.000000000000000    0.500000000000000    0.000000000000000 
K           0.000000000000000    0.500000000000000    0.500000000000000 
K           0.250000000000000    0.750000000000000    0.707977000000000 
K           0.500000000000000    0.000000000000000    0.000000000000000 
K           0.500000000000000    0.000000000000000    0.500000000000000 
K           0.500000000000000    0.500000000000000    0.000000000000000 
K           0.500000000000000    0.500000000000000    0.500000000000000 
K           0.750000000000000    0.250000000000000    0.292023000000000 
%ENDBLOCK POSITIONS_FRAC
