# Cell file generated by matador (Matthew Evans 2016)

%BLOCK LATTICE_CART
5.77581 0.0 0.0
-2.8879 5.00199 0.0
0.0 0.0 6.66172
%ENDBLOCK LATTICE_CART

%BLOCK POSITIONS_FRAC
P          -0.000000000000000    0.000000000000000    0.614163000000000 
P          -0.000000000000000    0.000000000000000    0.845957000000000 
P          -0.000000000000000    0.155630000000000    0.473681000000000 
P          -0.000000000000000    0.859379000000000    0.240344000000000 
P           0.140621000000000    0.140621000000000    0.240344000000000 
P           0.155630000000000    0.000000000000000    0.473681000000000 
P           0.844370000000000    0.844370000000000    0.473681000000000 
P           0.859379000000000    0.000000000000000    0.240344000000000 
K           0.333333000000000    0.666667000000000    0.022192000000000 
K           0.666666000000000    0.333334000000000    0.022192000000000 
%ENDBLOCK POSITIONS_FRAC
