# Cell file generated by matador (Matthew Evans 2016)

%BLOCK LATTICE_CART
9.41386 0.0 0.0
0.285191 5.92688 0.0
1.5168 3.60109 8.08964
%ENDBLOCK LATTICE_CART

%BLOCK POSITIONS_FRAC
P           0.000000000000000    0.000000000000000    0.000000000000000 
P           0.000000000000000    0.500000000000000    0.000000000000000 
P           0.000000000000000    0.500000000000000    0.500000000000000 
P           0.500000000000000    0.000000000000000    0.500000000000000 
P           0.500000000000000    0.500000000000000    0.000000000000000 
P           0.500000000000000    0.500000000000000    0.500000000000000 
K           0.000000000000000    0.000000000000000    0.500000000000000 
K           0.169247000000000    0.330733000000000    0.775856000000000 
K           0.272467000000000    0.220331000000000    0.328225000000000 
K           0.282654000000000    0.585840000000000    0.327440000000000 
K           0.717346000000000    0.414160000000000    0.672560000000000 
K           0.727533000000000    0.779669000000000    0.671775000000000 
K           0.830753000000000    0.669267000000000    0.224144000000000 
%ENDBLOCK POSITIONS_FRAC
