# Cell file generated by matador (Matthew Evans 2016)

%BLOCK LATTICE_CART
8.62226 0.0 0.0
0.0 8.62226 0.0
0.0 0.0 9.04789
%ENDBLOCK LATTICE_CART

%BLOCK POSITIONS_FRAC
P           0.000000000000000    0.500000000000000    0.250000000000000 
P           0.000000000000000    0.500000000000000    0.750000000000000 
P           0.500000000000000    0.000000000000000    0.250000000000000 
P           0.500000000000000    0.000000000000000    0.750000000000000 
K           0.000000000000000    0.500000000000000    0.000000000000000 
K           0.000000000000000    0.500000000000000    0.500000000000000 
K           0.165122000000000    0.193741000000000    0.000000000000000 
K           0.193741000000000    0.834878000000000    0.000000000000000 
K           0.306259000000000    0.334878000000000    0.500000000000000 
K           0.334878000000000    0.693741000000000    0.500000000000000 
K           0.500000000000000    0.000000000000000    0.000000000000000 
K           0.500000000000000    0.000000000000000    0.500000000000000 
K           0.665122000000000    0.306259000000000    0.500000000000000 
K           0.693741000000000    0.665122000000000    0.500000000000000 
K           0.806259000000000    0.165122000000000    0.000000000000000 
K           0.834878000000000    0.806259000000000    0.000000000000000 
%ENDBLOCK POSITIONS_FRAC
