# Cell file generated by matador (Matthew Evans 2016)

%BLOCK LATTICE_CART
8.38051 0.0 0.0
0.0 8.38051 0.0
0.0 0.0 8.38051
%ENDBLOCK LATTICE_CART

%BLOCK POSITIONS_FRAC
P           0.000000000000000    0.000000000000000    0.000000000000000 
P           0.000000000000000    0.000000000000000    0.500000000000000 
P           0.000000000000000    0.500000000000000    0.000000000000000 
P           0.202596000000000    0.202596000000000    0.797404000000000 
P           0.202596000000000    0.797404000000000    0.202596000000000 
P           0.261351000000000    0.500000000000000    0.500000000000000 
P           0.500000000000000    0.000000000000000    0.000000000000000 
P           0.500000000000000    0.261351000000000    0.500000000000000 
P           0.500000000000000    0.500000000000000    0.261351000000000 
P           0.500000000000000    0.500000000000000    0.738649000000000 
P           0.500000000000000    0.738649000000000    0.500000000000000 
P           0.738649000000000    0.500000000000000    0.500000000000000 
P           0.797404000000000    0.202596000000000    0.202596000000000 
P           0.797404000000000    0.797404000000000    0.797404000000000 
K           0.000000000000000    0.500000000000000    0.500000000000000 
K           0.500000000000000    0.000000000000000    0.500000000000000 
K           0.500000000000000    0.500000000000000    0.000000000000000 
K           0.500000000000000    0.500000000000000    0.500000000000000 
%ENDBLOCK POSITIONS_FRAC
