# Cell file generated by matador (Matthew Evans 2016)

%BLOCK LATTICE_CART
7.92013 0.0 0.0
0.0 7.43337 0.0
2.30701 0.0 5.75091
%ENDBLOCK LATTICE_CART

%BLOCK POSITIONS_FRAC
P           0.000000000000000    0.075361000000000    0.500000000000000 
P           0.500000000000000    0.889006000000000    0.000000000000000 
K           0.000000000000000    0.237428000000000    0.000000000000000 
K           0.000000000000000    0.706032000000000    0.500000000000000 
K           0.089050000000000    0.435559000000000    0.274118000000000 
K           0.324989000000000    0.650780000000000    0.445337000000000 
K           0.500000000000000    0.397054000000000    0.500000000000000 
K           0.500000000000000    0.557373000000000    0.000000000000000 
K           0.675011000000000    0.650780000000000    0.554663000000000 
K           0.910950000000000    0.435559000000000    0.725882000000000 
%ENDBLOCK POSITIONS_FRAC
