# Cell file generated by matador (Matthew Evans 2016)

%BLOCK LATTICE_CART
7.26192 0.0 0.0
-3.63096 6.289 0.0
0.0 0.0 8.30552
%ENDBLOCK LATTICE_CART

%BLOCK POSITIONS_FRAC
P           0.000000000000000    0.000000000000000    0.234229000000000 
P           0.000000000000000    0.000000000000000    0.387555000000000 
P           0.000000000000000    0.000000000000000    0.644260000000000 
P           0.000000000000000    0.000000000000000    0.768480000000000 
P           0.000000000000000    0.000000000000000    0.931622000000000 
P           0.333333000000000    0.666667000000000    0.853827000000000 
P           0.666667000000000    0.333333000000000    0.853827000000000 
K           0.000000000000000    0.500000000000000    0.009403000000000 
K           0.000000000000000    0.500000000000000    0.657866000000000 
K           0.500000000000000    0.000000000000000    0.009403000000000 
K           0.500000000000000    0.000000000000000    0.657866000000000 
K           0.500000000000000    0.500000000000000    0.009403000000000 
K           0.500000000000000    0.500000000000000    0.657866000000000 
%ENDBLOCK POSITIONS_FRAC
