# Cell file generated by matador (Matthew Evans 2016)

%BLOCK LATTICE_CART
2.69175 0.0 0.0
0.0 16.7447 0.0
0.0 0.0 13.571
%ENDBLOCK LATTICE_CART

%BLOCK POSITIONS_FRAC
P           0.000000000000000    0.000000000000000    0.402042000000000 
P           0.023804000000000    0.814012000000000    0.399776000000000 
P           0.134537000000000    0.049796000000000    0.743951000000000 
P           0.365463000000000    0.549796000000000    0.256049000000000 
P           0.476196000000000    0.314012000000000    0.600224000000000 
P           0.500000000000000    0.500000000000000    0.597958000000000 
P           0.523804000000000    0.685988000000000    0.600224000000000 
P           0.634537000000000    0.450204000000000    0.256049000000000 
P           0.865463000000000    0.950204000000000    0.743951000000000 
P           0.976196000000000    0.185988000000000    0.399776000000000 
K           0.000000000000000    0.500000000000000    0.017968000000000 
K           0.000000000000000    0.500000000000000    0.485400000000000 
K           0.000000000000000    0.500000000000000    0.832035000000000 
K           0.088867000000000    0.395549000000000    0.761808000000000 
K           0.411133000000000    0.895549000000000    0.238192000000000 
K           0.500000000000000    0.000000000000000    0.167965000000000 
K           0.500000000000000    0.000000000000000    0.514600000000000 
K           0.500000000000000    0.000000000000000    0.982032000000000 
K           0.588867000000000    0.104451000000000    0.238192000000000 
K           0.911133000000000    0.604451000000000    0.761808000000000 
%ENDBLOCK POSITIONS_FRAC
