# Cell file generated by matador (Matthew Evans 2016)

%BLOCK LATTICE_CART
7.51137 0.0 0.0
-3.75569 6.50504 0.0
0.0 0.0 8.78404
%ENDBLOCK LATTICE_CART

%BLOCK POSITIONS_FRAC
P           0.000000000000000    0.000000000000000    0.174893000000000 
P           0.000000000000000    0.000000000000000    0.674893000000000 
P           0.333333000000000    0.666667000000000    0.335475000000000 
P           0.333333000000000    0.666667000000000    0.835475000000000 
P           0.666667000000000    0.333333000000000    0.335475000000000 
P           0.666667000000000    0.333333000000000    0.835475000000000 
K           0.000000000000000    0.333704000000000    0.327814000000000 
K           0.000000000000000    0.666296000000000    0.827814000000000 
K           0.333704000000000    0.000000000000000    0.327814000000000 
K           0.333704000000000    0.333704000000000    0.827814000000000 
K           0.666296000000000    0.000000000000000    0.827814000000000 
K           0.666296000000000    0.666296000000000    0.327814000000000 
%ENDBLOCK POSITIONS_FRAC
