# Cell file generated by matador (Matthew Evans 2016)

%BLOCK LATTICE_CART
8.23377 0.0 0.0
0.0 8.23377 0.0
0.0 0.0 8.23377
%ENDBLOCK LATTICE_CART

%BLOCK POSITIONS_FRAC
P           0.037572000000000    0.462428000000000    0.537572000000000 
P           0.124392000000000    0.875608000000000    0.375608000000000 
P           0.230400000000000    0.230400000000000    0.230400000000000 
P           0.269600000000000    0.769600000000000    0.730400000000000 
P           0.375608000000000    0.124392000000000    0.875608000000000 
P           0.462428000000000    0.537572000000000    0.037572000000000 
P           0.537572000000000    0.037572000000000    0.462428000000000 
P           0.624392000000000    0.624392000000000    0.624392000000000 
P           0.730400000000000    0.269600000000000    0.769600000000000 
P           0.769600000000000    0.730400000000000    0.269600000000000 
P           0.875608000000000    0.375608000000000    0.124392000000000 
P           0.962428000000000    0.962428000000000    0.962428000000000 
K           0.045209000000000    0.545209000000000    0.954791000000000 
K           0.230471000000000    0.269529000000000    0.730471000000000 
K           0.269529000000000    0.730471000000000    0.230471000000000 
K           0.454791000000000    0.454791000000000    0.454791000000000 
K           0.545209000000000    0.954791000000000    0.045209000000000 
K           0.730471000000000    0.230471000000000    0.269529000000000 
K           0.769529000000000    0.769529000000000    0.769529000000000 
K           0.954791000000000    0.045209000000000    0.545209000000000 
%ENDBLOCK POSITIONS_FRAC
