# Cell file generated by matador (Matthew Evans 2016)

%BLOCK LATTICE_CART
11.3649 0.0 0.0
-5.68245 9.84229 0.0
0.0 0.0 9.16823
%ENDBLOCK LATTICE_CART

%BLOCK POSITIONS_FRAC
P           0.000000000000000    0.546122000000000    0.370893000000000 
P           0.000000000000000    0.864452000000000    0.258690000000000 
P           0.135548000000000    0.135548000000000    0.258690000000000 
P           0.453878000000000    0.453878000000000    0.370893000000000 
P           0.546122000000000    0.000000000000000    0.370893000000000 
P           0.864452000000000    0.000000000000000    0.258690000000000 
K           0.000000000000000    0.181087000000000    0.946144000000000 
K           0.000000000000000    0.227741000000000    0.520753000000000 
K           0.000000000000000    0.367827000000000    0.225318000000000 
K           0.000000000000000    0.462007000000000    0.889077000000000 
K           0.000000000000000    0.722086000000000    0.081281000000000 
K           0.000000000000000    0.800663000000000    0.711940000000000 
K           0.181087000000000    0.000000000000000    0.946144000000000 
K           0.199337000000000    0.199337000000000    0.711940000000000 
K           0.227741000000000    0.000000000000000    0.520753000000000 
K           0.277914000000000    0.277914000000000    0.081281000000000 
K           0.367827000000000    0.000000000000000    0.225318000000000 
K           0.462007000000000    0.000000000000000    0.889077000000000 
K           0.537993000000000    0.537993000000000    0.889077000000000 
K           0.632173000000000    0.632173000000000    0.225318000000000 
K           0.722086000000000    0.000000000000000    0.081281000000000 
K           0.772259000000000    0.772259000000000    0.520753000000000 
K           0.800663000000000    0.000000000000000    0.711940000000000 
K           0.818913000000000    0.818913000000000    0.946144000000000 
%ENDBLOCK POSITIONS_FRAC
