# Cell file generated by matador (Matthew Evans 2016)

%BLOCK LATTICE_CART
7.14518 0.0 0.0
0.0 7.14518 0.0
0.0 0.0 7.14518
%ENDBLOCK LATTICE_CART

%BLOCK POSITIONS_FRAC
P           0.161606000000000    0.161606000000000    0.161606000000000 
P           0.161606000000000    0.838394000000000    0.838394000000000 
P           0.338394000000000    0.338394000000000    0.338394000000000 
P           0.338394000000000    0.661606000000000    0.661606000000000 
P           0.661606000000000    0.338394000000000    0.661606000000000 
P           0.661606000000000    0.661606000000000    0.338394000000000 
P           0.838394000000000    0.161606000000000    0.838394000000000 
P           0.838394000000000    0.838394000000000    0.161606000000000 
K           0.000000000000000    0.000000000000000    0.000000000000000 
K           0.250000000000000    0.250000000000000    0.750000000000000 
K           0.250000000000000    0.750000000000000    0.250000000000000 
K           0.500000000000000    0.500000000000000    0.500000000000000 
K           0.750000000000000    0.250000000000000    0.250000000000000 
K           0.750000000000000    0.750000000000000    0.750000000000000 
%ENDBLOCK POSITIONS_FRAC
