# Cell file generated by matador (Matthew Evans 2016)

%BLOCK LATTICE_CART
7.32619 0.0 0.0
0.0 7.32619 0.0
0.0 0.0 9.72374
%ENDBLOCK LATTICE_CART

%BLOCK POSITIONS_FRAC
P           0.000000000000000    0.000000000000000    0.800164000000000 
P           0.000000000000000    0.500000000000000    0.692718000000000 
P           0.500000000000000    0.000000000000000    0.692718000000000 
K           0.208075000000000    0.500000000000000    0.887057000000000 
K           0.264746000000000    0.264746000000000    0.253840000000000 
K           0.264746000000000    0.735254000000000    0.253840000000000 
K           0.500000000000000    0.208075000000000    0.887057000000000 
K           0.500000000000000    0.500000000000000    0.660317000000000 
K           0.500000000000000    0.791925000000000    0.887057000000000 
K           0.735254000000000    0.264746000000000    0.253840000000000 
K           0.735254000000000    0.735254000000000    0.253840000000000 
K           0.791925000000000    0.500000000000000    0.887057000000000 
%ENDBLOCK POSITIONS_FRAC
