# Cell file generated by matador (Matthew Evans 2016)

%BLOCK LATTICE_CART
5.77093 0.0 0.0
-2.88546 4.99777 0.0
0.0 0.0 9.765
%ENDBLOCK LATTICE_CART

%BLOCK POSITIONS_FRAC
P           0.000000000000000    0.000000000000000    0.500000000000000 
P           0.021828000000000    0.710548000000000    0.000000000000000 
P           0.289452000000000    0.311280000000000    0.000000000000000 
P           0.311280000000000    0.021828000000000    0.000000000000000 
P           0.688720000000000    0.978172000000000    0.000000000000000 
P           0.710548000000000    0.688720000000000    0.000000000000000 
P           0.978172000000000    0.289452000000000    0.000000000000000 
K           0.000000000000000    0.000000000000000    0.293267000000000 
K           0.000000000000000    0.000000000000000    0.706733000000000 
K           0.333333000000000    0.666667000000000    0.500000000000000 
K           0.666667000000000    0.333333000000000    0.500000000000000 
%ENDBLOCK POSITIONS_FRAC
