# Cell file generated by matador (Matthew Evans 2016)

%BLOCK LATTICE_CART
10.1497 0.0 0.0
0.0 10.1497 0.0
0.0 0.0 13.2541
%ENDBLOCK LATTICE_CART

%BLOCK POSITIONS_FRAC
P           0.000000000000000    0.000000000000000    0.000000000000000 
P           0.000000000000000    0.000000000000000    0.155691000000000 
P           0.000000000000000    0.000000000000000    0.500000000000000 
P           0.000000000000000    0.000000000000000    0.844309000000000 
P           0.500000000000000    0.500000000000000    0.000000000000000 
P           0.500000000000000    0.500000000000000    0.344309000000000 
P           0.500000000000000    0.500000000000000    0.500000000000000 
P           0.500000000000000    0.500000000000000    0.655691000000000 
K           0.084606000000000    0.189796000000000    0.500000000000000 
K           0.093639000000000    0.388005000000000    0.000000000000000 
K           0.107104000000000    0.821776000000000    0.000000000000000 
K           0.111995000000000    0.593639000000000    0.500000000000000 
K           0.178224000000000    0.107104000000000    0.000000000000000 
K           0.189796000000000    0.915394000000000    0.500000000000000 
K           0.310204000000000    0.584606000000000    0.000000000000000 
K           0.321776000000000    0.392896000000000    0.500000000000000 
K           0.388005000000000    0.906361000000000    0.000000000000000 
K           0.392896000000000    0.678224000000000    0.500000000000000 
K           0.406361000000000    0.111995000000000    0.500000000000000 
K           0.415394000000000    0.310204000000000    0.000000000000000 
K           0.584606000000000    0.689796000000000    0.000000000000000 
K           0.593639000000000    0.888005000000000    0.500000000000000 
K           0.607104000000000    0.321776000000000    0.500000000000000 
K           0.611995000000000    0.093639000000000    0.000000000000000 
K           0.678224000000000    0.607104000000000    0.500000000000000 
K           0.689796000000000    0.415394000000000    0.000000000000000 
K           0.810204000000000    0.084606000000000    0.500000000000000 
K           0.821776000000000    0.892896000000000    0.000000000000000 
K           0.888005000000000    0.406361000000000    0.500000000000000 
K           0.892896000000000    0.178224000000000    0.000000000000000 
K           0.906361000000000    0.611995000000000    0.000000000000000 
K           0.915394000000000    0.810204000000000    0.500000000000000 
%ENDBLOCK POSITIONS_FRAC
