# Cell file generated by matador (Matthew Evans 2016)

%BLOCK LATTICE_CART
4.13452 0.0 0.0
-0.284432 5.94151 0.0
2.36081 -3.13588 7.23998
%ENDBLOCK LATTICE_CART

%BLOCK POSITIONS_FRAC
P           0.000000000000000    0.500000000000000    0.000000000000000 
P           0.000000000000000    0.500000000000000    0.500000000000000 
P           0.344319000000000    0.107584000000000    0.323894000000000 
P           0.500000000000000    0.000000000000000    0.500000000000000 
P           0.500000000000000    0.500000000000000    0.500000000000000 
P           0.655681000000000    0.892416000000000    0.676106000000000 
K           0.000000000000000    0.000000000000000    0.500000000000000 
%ENDBLOCK POSITIONS_FRAC
