# Cell file generated by matador (Matthew Evans 2016)

%BLOCK LATTICE_CART
6.04387 0.0 0.0
-3.02194 5.23415 0.0
0.0 0.0 7.78491
%ENDBLOCK LATTICE_CART

%BLOCK POSITIONS_FRAC
P           0.000000000000000    0.000000000000000    0.057586000000000 
K           0.000000000000000    0.000000000000000    0.583346000000000 
K           0.333333000000000    0.666667000000000    0.256135000000000 
K           0.333333000000000    0.666667000000000    0.540806000000000 
K           0.666667000000000    0.333333000000000    0.256135000000000 
K           0.666667000000000    0.333333000000000    0.540806000000000 
%ENDBLOCK POSITIONS_FRAC
