# Cell file generated by matador (Matthew Evans 2016)

%BLOCK LATTICE_CART
9.56848 0.0 0.0
-4.78424 8.28654 0.0
0.0 0.0 11.9044
%ENDBLOCK LATTICE_CART

%BLOCK POSITIONS_FRAC
P           0.000000000000000    0.000000000000000    0.250000000000000 
P           0.000000000000000    0.000000000000000    0.750000000000000 
P           0.333333000000000    0.666667000000000    0.081995000000000 
P           0.333333000000000    0.666667000000000    0.418005000000000 
P           0.666667000000000    0.333333000000000    0.581995000000000 
P           0.666667000000000    0.333333000000000    0.918005000000000 
K           0.000000000000000    0.000000000000000    0.000000000000000 
K           0.000000000000000    0.000000000000000    0.500000000000000 
K           0.000000000000000    0.500000000000000    0.000000000000000 
K           0.000000000000000    0.500000000000000    0.500000000000000 
K           0.109056000000000    0.825534000000000    0.250000000000000 
K           0.174466000000000    0.283522000000000    0.250000000000000 
K           0.283522000000000    0.109056000000000    0.750000000000000 
K           0.333333000000000    0.666667000000000    0.250000000000000 
K           0.333333000000000    0.666667000000000    0.750000000000000 
K           0.500000000000000    0.000000000000000    0.000000000000000 
K           0.500000000000000    0.000000000000000    0.500000000000000 
K           0.500000000000000    0.500000000000000    0.000000000000000 
K           0.500000000000000    0.500000000000000    0.500000000000000 
K           0.666667000000000    0.333333000000000    0.250000000000000 
K           0.666667000000000    0.333333000000000    0.750000000000000 
K           0.716478000000000    0.890944000000000    0.250000000000000 
K           0.825534000000000    0.716478000000000    0.750000000000000 
K           0.890944000000000    0.174466000000000    0.750000000000000 
%ENDBLOCK POSITIONS_FRAC
