# Cell file generated by matador (Matthew Evans 2016)

%BLOCK LATTICE_CART
7.17578 0.0 0.0
0.0 7.17578 0.0
0.0 0.0 8.678
%ENDBLOCK LATTICE_CART

%BLOCK POSITIONS_FRAC
P           0.000000000000000    0.500000000000000    0.772483000000000 
P           0.000000000000000    0.500000000000000    0.910421000000000 
P           0.088692000000000    0.209706000000000    0.776984000000000 
P           0.088692000000000    0.790294000000000    0.776984000000000 
P           0.209706000000000    0.088692000000000    0.776984000000000 
P           0.209706000000000    0.911308000000000    0.776984000000000 
P           0.500000000000000    0.000000000000000    0.772483000000000 
P           0.500000000000000    0.000000000000000    0.910421000000000 
P           0.790294000000000    0.088692000000000    0.776984000000000 
P           0.790294000000000    0.911308000000000    0.776984000000000 
P           0.911308000000000    0.209706000000000    0.776984000000000 
P           0.911308000000000    0.790294000000000    0.776984000000000 
K           0.000000000000000    0.000000000000000    0.257524000000000 
K           0.000000000000000    0.500000000000000    0.385807000000000 
K           0.500000000000000    0.000000000000000    0.385807000000000 
%ENDBLOCK POSITIONS_FRAC
