# Cell file generated by matador (Matthew Evans 2016)

%BLOCK LATTICE_CART
8.2665 0.0 0.0
0.0 7.10144 0.0
0.0 0.0 11.0199
%ENDBLOCK LATTICE_CART

%BLOCK POSITIONS_FRAC
P           0.123919000000000    0.110685000000000    0.734122000000000 
P           0.123919000000000    0.889315000000000    0.234122000000000 
P           0.876081000000000    0.110685000000000    0.734122000000000 
P           0.876081000000000    0.889315000000000    0.234122000000000 
K           0.000000000000000    0.218299000000000    0.893381000000000 
K           0.000000000000000    0.468526000000000    0.159863000000000 
K           0.000000000000000    0.531474000000000    0.659863000000000 
K           0.000000000000000    0.781701000000000    0.393381000000000 
K           0.500000000000000    0.085061000000000    0.861221000000000 
K           0.500000000000000    0.162430000000000    0.143532000000000 
K           0.500000000000000    0.225642000000000    0.549063000000000 
K           0.500000000000000    0.471208000000000    0.769275000000000 
K           0.500000000000000    0.528792000000000    0.269275000000000 
K           0.500000000000000    0.774358000000000    0.049063000000000 
K           0.500000000000000    0.837570000000000    0.643532000000000 
K           0.500000000000000    0.914938000000000    0.361221000000000 
%ENDBLOCK POSITIONS_FRAC
