# Cell file generated by matador (Matthew Evans 2016)

%BLOCK LATTICE_CART
8.65037 0.0 0.0
-4.32518 7.49144 0.0
0.0 0.0 9.73342
%ENDBLOCK LATTICE_CART

%BLOCK POSITIONS_FRAC
P           0.000000000000000    0.000000000000000    0.500000000000000 
P           0.333333000000000    0.666667000000000    0.500000000000000 
K           0.000000000000000    0.000000000000000    0.000000000000000 
K           0.307527000000000    0.005583000000000    0.000000000000000 
K           0.307527000000000    0.301944000000000    0.000000000000000 
K           0.458220000000000    0.229110000000000    0.337882000000000 
K           0.458220000000000    0.229110000000000    0.662118000000000 
K           0.666667000000000    0.333333000000000    0.000000000000000 
K           0.698056000000000    0.005583000000000    0.000000000000000 
K           0.698056000000000    0.692473000000000    0.000000000000000 
K           0.770890000000000    0.229110000000000    0.337882000000000 
K           0.770890000000000    0.229110000000000    0.662118000000000 
K           0.770890000000000    0.541780000000000    0.337882000000000 
K           0.770890000000000    0.541780000000000    0.662118000000000 
K           0.994417000000000    0.301944000000000    0.000000000000000 
K           0.994417000000000    0.692473000000000    0.000000000000000 
%ENDBLOCK POSITIONS_FRAC
