# Cell file generated by matador (Matthew Evans 2016)

%BLOCK LATTICE_CART
7.9817 0.0 0.0
-3.99085 6.91235 0.0
0.0 0.0 8.13605
%ENDBLOCK LATTICE_CART

%BLOCK POSITIONS_FRAC
P           0.333333000000000    0.666667000000000    0.000000000000000 
P           0.438133000000000    0.016781000000000    0.500796000000000 
P           0.438133000000000    0.421352000000000    0.499204000000000 
P           0.576196000000000    0.200472000000000    0.356362000000000 
P           0.576196000000000    0.375725000000000    0.643638000000000 
P           0.578648000000000    0.016781000000000    0.499204000000000 
P           0.578648000000000    0.561867000000000    0.500796000000000 
P           0.624275000000000    0.200472000000000    0.643638000000000 
P           0.624275000000000    0.423804000000000    0.356362000000000 
P           0.666667000000000    0.333333000000000    0.500000000000000 
P           0.799528000000000    0.375725000000000    0.356362000000000 
P           0.799528000000000    0.423804000000000    0.643638000000000 
P           0.983219000000000    0.421352000000000    0.500796000000000 
P           0.983219000000000    0.561867000000000    0.499204000000000 
K           0.000000000000000    0.000000000000000    0.000000000000000 
K           0.000000000000000    0.000000000000000    0.500000000000000 
K           0.333333000000000    0.666667000000000    0.500000000000000 
K           0.666667000000000    0.333333000000000    0.000000000000000 
%ENDBLOCK POSITIONS_FRAC
