# Cell file generated by matador (Matthew Evans 2016)

%BLOCK LATTICE_CART
7.74336 0.0 0.0
-3.87168 6.70595 0.0
0.0 0.0 8.46444
%ENDBLOCK LATTICE_CART

%BLOCK POSITIONS_FRAC
P           0.486675000000000    0.243337000000000    0.969185000000000 
P           0.756663000000000    0.243337000000000    0.969185000000000 
P           0.756663000000000    0.513325000000000    0.969185000000000 
K           0.021008000000000    0.510504000000000    0.363438000000000 
K           0.164346000000000    0.328690000000000    0.008947000000000 
K           0.164346000000000    0.835654000000000    0.008947000000000 
K           0.261253000000000    0.130626000000000    0.745365000000000 
K           0.489496000000000    0.510504000000000    0.363438000000000 
K           0.489496000000000    0.978992000000000    0.363438000000000 
K           0.671310000000000    0.835654000000000    0.008947000000000 
K           0.869374000000000    0.130626000000000    0.745365000000000 
K           0.869374000000000    0.738747000000000    0.745365000000000 
%ENDBLOCK POSITIONS_FRAC
