# Cell file generated by matador (Matthew Evans 2016)

%BLOCK LATTICE_CART
7.58681 0.0 0.0
0.0 6.75041 0.0
4.71131 0.0 8.76534
%ENDBLOCK LATTICE_CART

%BLOCK POSITIONS_FRAC
P           0.267432000000000    0.099496000000000    0.348539000000000 
P           0.500000000000000    0.692367000000000   -0.000000000000000 
P           0.732568000000000    0.099496000000000    0.651461000000000 
K           0.000000000000000    0.293768000000000    0.500000000000000 
K           0.000000000000000    0.807301000000000   -0.000000000000000 
K           0.068498000000000    0.352871000000000    0.112138000000000 
K           0.264289000000000    0.262697000000000    0.650460000000000 
K           0.323465000000000    0.800893000000000    0.912175000000000 
K           0.500000000000000    0.716319000000000    0.500000000000000 
K           0.676535000000000    0.800893000000000    0.087825000000000 
K           0.735711000000000    0.262697000000000    0.349540000000000 
K           0.931502000000000    0.352871000000000    0.887862000000000 
%ENDBLOCK POSITIONS_FRAC
