# Cell file generated by matador (Matthew Evans 2016)

%BLOCK LATTICE_CART
7.1974 -0.0 0.0
-3.5987 6.23313 0.0
0.0 0.0 9.59443
%ENDBLOCK LATTICE_CART

%BLOCK POSITIONS_FRAC
P           0.168110000000000    0.812306000000000    0.572159000000000 
P           0.187694000000000    0.355804000000000    0.572159000000000 
P           0.224043000000000    0.581757000000000    0.712317000000000 
P           0.333333000000000    0.666667000000000    0.491201000000000 
P           0.333333000000000    0.666667000000000    0.803986000000000 
P           0.357714000000000    0.775957000000000    0.712317000000000 
P           0.418243000000000    0.642286000000000    0.712317000000000 
P           0.644196000000000    0.831890000000000    0.572159000000000 
P           0.666667000000000    0.333333000000000    0.847584000000000 
K           0.000000000000000    0.000000000000000    0.183491000000000 
K           0.000000000000000    0.000000000000000    0.942633000000000 
K           0.333333000000000    0.666667000000000    0.114300000000000 
%ENDBLOCK POSITIONS_FRAC
