# Cell file generated by matador (Matthew Evans 2016)

%BLOCK LATTICE_CART
5.98903 0.0 0.0
0.0 4.54132 0.0
0.0 0.0 4.04942
%ENDBLOCK LATTICE_CART

%BLOCK POSITIONS_FRAC
P           0.271474000000000    0.153655000000000    0.544986000000000 
P           0.271474000000000    0.846345000000000    0.544986000000000 
P           0.728526000000000    0.153655000000000    0.544986000000000 
P           0.728526000000000    0.846345000000000    0.544986000000000 
K           0.000000000000000    0.000000000000000    0.938024000000000 
%ENDBLOCK POSITIONS_FRAC
