# Cell file generated by matador (Matthew Evans 2016)

%BLOCK LATTICE_CART
7.62913 0.0 0.0
0.0 7.62913 0.0
0.0 0.0 8.9751
%ENDBLOCK LATTICE_CART

%BLOCK POSITIONS_FRAC
P           0.000000000000000    0.000000000000000    0.042622000000000 
P           0.000000000000000    0.000000000000000    0.438049000000000 
P           0.000000000000000    0.000000000000000    0.691579000000000 
P           0.000000000000000    0.500000000000000    0.591045000000000 
P           0.500000000000000    0.000000000000000    0.591045000000000 
K           0.000000000000000    0.500000000000000    0.935917000000000 
K           0.218447000000000    0.663452000000000    0.367299000000000 
K           0.226949000000000    0.357908000000000    0.647378000000000 
K           0.336548000000000    0.218447000000000    0.367299000000000 
K           0.357908000000000    0.773051000000000    0.647378000000000 
K           0.500000000000000    0.000000000000000    0.935917000000000 
K           0.642092000000000    0.226949000000000    0.647378000000000 
K           0.663452000000000    0.781553000000000    0.367299000000000 
K           0.773051000000000    0.642092000000000    0.647378000000000 
K           0.781553000000000    0.336548000000000    0.367299000000000 
%ENDBLOCK POSITIONS_FRAC
