# Cell file generated by matador (Matthew Evans 2016)

%BLOCK LATTICE_CART
6.87038 0.0 0.0
3.31033 6.65202 0.0
-1.34081 1.97564 6.93545
%ENDBLOCK LATTICE_CART

%BLOCK POSITIONS_FRAC
P           0.167672000000000    0.374508000000000    0.282843000000000 
P           0.220423000000000    0.918977000000000    0.332828000000000 
P           0.335861000000000    0.801040000000000    0.529067000000000 
P           0.500000000000000    0.000000000000000    0.000000000000000 
P           0.664139000000000    0.198960000000000    0.470933000000000 
P           0.779577000000000    0.081023000000000    0.667172000000000 
P           0.832328000000000    0.625492000000000    0.717157000000000 
K           0.000000000000000    0.500000000000000    0.000000000000000 
K           0.000000000000000    0.500000000000000    0.500000000000000 
K           0.380521000000000    0.759755000000000    0.996844000000000 
K           0.500000000000000    0.000000000000000    0.500000000000000 
K           0.500000000000000    0.500000000000000    0.500000000000000 
K           0.619479000000000    0.240245000000000    0.003156000000000 
%ENDBLOCK POSITIONS_FRAC
