# Cell file generated by matador (Matthew Evans 2016)

%BLOCK LATTICE_CART
6.97687 0.0 0.0
0.0 6.97687 0.0
0.0 0.0 9.43939
%ENDBLOCK LATTICE_CART

%BLOCK POSITIONS_FRAC
P           0.000000000000000    0.500000000000000    0.000000000000000 
P           0.000000000000000    0.500000000000000    0.163712000000000 
P           0.000000000000000    0.500000000000000    0.500000000000000 
P           0.000000000000000    0.500000000000000    0.836288000000000 
P           0.500000000000000    0.000000000000000    0.000000000000000 
P           0.500000000000000    0.000000000000000    0.336288000000000 
P           0.500000000000000    0.000000000000000    0.500000000000000 
P           0.500000000000000    0.000000000000000    0.663712000000000 
P           0.500000000000000    0.500000000000000    0.250000000000000 
P           0.500000000000000    0.500000000000000    0.750000000000000 
K           0.000000000000000    0.000000000000000    0.000000000000000 
K           0.000000000000000    0.000000000000000    0.250000000000000 
K           0.000000000000000    0.000000000000000    0.500000000000000 
K           0.000000000000000    0.000000000000000    0.750000000000000 
K           0.500000000000000    0.500000000000000    0.000000000000000 
K           0.500000000000000    0.500000000000000    0.500000000000000 
%ENDBLOCK POSITIONS_FRAC
