# Cell file generated by matador (Matthew Evans 2016)

%BLOCK LATTICE_CART
8.17203 0.0 0.0
0.0 8.17203 0.0
0.0 0.0 7.17364
%ENDBLOCK LATTICE_CART

%BLOCK POSITIONS_FRAC
P           0.000000000000000    0.438432000000000    0.570210000000000 
P           0.000000000000000    0.561568000000000    0.570210000000000 
P           0.160519000000000    0.390172000000000    0.536197000000000 
P           0.160519000000000    0.609828000000000    0.536197000000000 
P           0.390172000000000    0.160519000000000    0.036197000000000 
P           0.390172000000000    0.839481000000000    0.036197000000000 
P           0.438432000000000    0.000000000000000    0.070210000000000 
P           0.561568000000000    0.000000000000000    0.070210000000000 
P           0.609828000000000    0.160519000000000    0.036197000000000 
P           0.609828000000000    0.839481000000000    0.036197000000000 
P           0.839481000000000    0.390172000000000    0.536197000000000 
P           0.839481000000000    0.609828000000000    0.536197000000000 
K           0.000000000000000    0.500000000000000    0.074724000000000 
K           0.500000000000000    0.000000000000000    0.574724000000000 
%ENDBLOCK POSITIONS_FRAC
