# Cell file generated by matador (Matthew Evans 2016)

%BLOCK LATTICE_CART
7.52359 0.0 0.0
-3.7618 6.51562 0.0
0.0 0.0 9.60581
%ENDBLOCK LATTICE_CART

%BLOCK POSITIONS_FRAC
P           0.091437000000000    0.230767000000000    0.500000000000000 
P           0.139331000000000    0.908563000000000    0.500000000000000 
P           0.230767000000000    0.139331000000000    0.500000000000000 
P           0.333333000000000    0.666667000000000    0.152886000000000 
P           0.333333000000000    0.666667000000000    0.847114000000000 
P           0.666667000000000    0.333333000000000    0.152886000000000 
P           0.666667000000000    0.333333000000000    0.847114000000000 
P           0.769233000000000    0.860669000000000    0.500000000000000 
P           0.860669000000000    0.091437000000000    0.500000000000000 
P           0.908563000000000    0.769233000000000    0.500000000000000 
K           0.148055000000000    0.643367000000000    0.500000000000000 
K           0.356633000000000    0.504688000000000    0.500000000000000 
K           0.495312000000000    0.851945000000000    0.500000000000000 
K           0.504688000000000    0.148055000000000    0.500000000000000 
K           0.643367000000000    0.495312000000000    0.500000000000000 
K           0.851945000000000    0.356633000000000    0.500000000000000 
%ENDBLOCK POSITIONS_FRAC
