# Cell file generated by matador (Matthew Evans 2016)

%BLOCK LATTICE_CART
6.41158 0.0 0.0
0.0 9.78832 0.0
0.0 0.0 10.6021
%ENDBLOCK LATTICE_CART

%BLOCK POSITIONS_FRAC
P           0.000000000000000    0.500000000000000    0.201760000000000 
P           0.000000000000000    0.500000000000000    0.798240000000000 
P           0.500000000000000   -0.000000000000000    0.201760000000000 
P           0.500000000000000   -0.000000000000000    0.798240000000000 
K           0.000000000000000   -0.000000000000000   -0.000000000000000 
K           0.000000000000000    0.500000000000000   -0.000000000000000 
K           0.201718000000000    0.196348000000000    0.500000000000000 
K           0.248535000000000    0.749862000000000   -0.000000000000000 
K           0.251465000000000    0.249862000000000   -0.000000000000000 
K           0.298282000000000    0.696348000000000    0.500000000000000 
K           0.500000000000000   -0.000000000000000   -0.000000000000000 
K           0.500000000000000    0.500000000000000   -0.000000000000000 
K           0.701718000000000    0.303652000000000    0.500000000000000 
K           0.748535000000000    0.750138000000000   -0.000000000000000 
K           0.751465000000000    0.250138000000000   -0.000000000000000 
K           0.798282000000000    0.803652000000000    0.500000000000000 
%ENDBLOCK POSITIONS_FRAC
