# Cell file generated by matador (Matthew Evans 2016)

%BLOCK LATTICE_CART
7.29484 0.0 0.0
-3.64742 6.31752 0.0
0.0 0.0 11.7662
%ENDBLOCK LATTICE_CART

%BLOCK POSITIONS_FRAC
P           0.000000000000000    0.000000000000000    0.500000000000000 
P           0.333333000000000    0.666667000000000    0.330022000000000 
P           0.333333000000000    0.666667000000000    0.669978000000000 
P           0.666667000000000    0.333333000000000    0.500000000000000 
K           0.000000000000000    0.000000000000000    0.000000000000000 
K           0.207094000000000    0.029018000000000    0.230953000000000 
K           0.207094000000000    0.178076000000000    0.769047000000000 
K           0.333333000000000    0.666667000000000    0.000000000000000 
K           0.333333000000000    0.666667000000000    0.500000000000000 
K           0.666667000000000    0.333333000000000    0.000000000000000 
K           0.821924000000000    0.029018000000000    0.769047000000000 
K           0.821924000000000    0.792906000000000    0.230953000000000 
K           0.970982000000000    0.178076000000000    0.230953000000000 
K           0.970982000000000    0.792906000000000    0.769047000000000 
%ENDBLOCK POSITIONS_FRAC
