# Cell file generated by matador (Matthew Evans 2016)

%BLOCK LATTICE_CART
8.37108 0.0 0.0
0.0 7.2626 0.0
0.0 0.0 6.62847
%ENDBLOCK LATTICE_CART

%BLOCK POSITIONS_FRAC
P           0.000000000000000    0.500000000000000   -0.000000000000000 
P           0.030242000000000    0.822283000000000    0.500000000000000 
P           0.243333000000000    0.386811000000000    0.135839000000000 
P           0.243333000000000    0.386811000000000    0.864161000000000 
P           0.256667000000000    0.886811000000000    0.364161000000000 
P           0.256667000000000    0.886811000000000    0.635839000000000 
P           0.469758000000000    0.322283000000000   -0.000000000000000 
P           0.500000000000000    0.000000000000000    0.500000000000000 
P           0.530242000000000    0.677717000000000   -0.000000000000000 
P           0.743333000000000    0.113189000000000    0.364161000000000 
P           0.743333000000000    0.113189000000000    0.635839000000000 
P           0.756667000000000    0.613189000000000    0.135839000000000 
P           0.756667000000000    0.613189000000000    0.864161000000000 
P           0.969758000000000    0.177717000000000    0.500000000000000 
K           0.000000000000000    0.500000000000000    0.500000000000000 
K           0.500000000000000    0.000000000000000   -0.000000000000000 
%ENDBLOCK POSITIONS_FRAC
