# Cell file generated by matador (Matthew Evans 2016)

%BLOCK LATTICE_CART
5.96511 0.0 0.0
-2.98256 5.16594 0.0
0.0 0.0 7.76299
%ENDBLOCK LATTICE_CART

%BLOCK POSITIONS_FRAC
P           0.000000000000000    0.000000000000000    0.000000000000000 
K           0.000000000000000    0.000000000000000    0.500000000000000 
K           0.333333000000000    0.666667000000000    0.083630000000000 
K           0.333333000000000    0.666667000000000    0.766456000000000 
K           0.666667000000000    0.333333000000000    0.233544000000000 
K           0.666667000000000    0.333333000000000    0.916370000000000 
%ENDBLOCK POSITIONS_FRAC
