# Cell file generated by matador (Matthew Evans 2016)

%BLOCK LATTICE_CART
12.4179 0.0 0.0
-6.20893 10.7542 0.0
0.0 0.0 4.0209
%ENDBLOCK LATTICE_CART

%BLOCK POSITIONS_FRAC
P           0.000000000000000    0.500000000000000    0.000000000000000 
P           0.000000000000000    0.500000000000000    0.500000000000000 
P           0.333333000000000    0.666667000000000    0.250000000000000 
P           0.500000000000000    0.000000000000000    0.000000000000000 
P           0.500000000000000    0.000000000000000    0.500000000000000 
P           0.500000000000000    0.500000000000000    0.000000000000000 
P           0.500000000000000    0.500000000000000    0.500000000000000 
P           0.666667000000000    0.333333000000000    0.750000000000000 
K           0.000000000000000    0.000000000000000    0.250000000000000 
K           0.000000000000000    0.000000000000000    0.750000000000000 
K           0.222001000000000    0.444003000000000    0.750000000000000 
K           0.222001000000000    0.777999000000000    0.750000000000000 
K           0.333333000000000    0.666667000000000    0.750000000000000 
K           0.444003000000000    0.222001000000000    0.250000000000000 
K           0.555997000000000    0.777999000000000    0.750000000000000 
K           0.666667000000000    0.333333000000000    0.250000000000000 
K           0.777999000000000    0.222001000000000    0.250000000000000 
K           0.777999000000000    0.555997000000000    0.250000000000000 
%ENDBLOCK POSITIONS_FRAC
