# Cell file generated by matador (Matthew Evans 2016)

%BLOCK LATTICE_CART
7.40462 0.0 0.0
0.0 10.0047 0.0
0.0 0.0 7.70882
%ENDBLOCK LATTICE_CART

%BLOCK POSITIONS_FRAC
P           0.269059000000000    0.164516000000000    0.975167000000000 
P           0.269059000000000    0.835484000000000    0.475167000000000 
P           0.730941000000000    0.164516000000000    0.975167000000000 
P           0.730941000000000    0.835484000000000    0.475167000000000 
K           0.000000000000000    0.036450000000000    0.074964000000000 
K           0.000000000000000    0.276492000000000    0.831188000000000 
K           0.000000000000000    0.307947000000000    0.381297000000000 
K           0.000000000000000    0.692053000000000    0.881297000000000 
K           0.000000000000000    0.723508000000000    0.331188000000000 
K           0.000000000000000    0.963550000000000    0.574964000000000 
K           0.500000000000000    0.003257000000000    0.640810000000000 
K           0.500000000000000    0.301690000000000    0.688959000000000 
K           0.500000000000000    0.349178000000000    0.161440000000000 
K           0.500000000000000    0.650822000000000    0.661440000000000 
K           0.500000000000000    0.698310000000000    0.188959000000000 
K           0.500000000000000    0.996743000000000    0.140810000000000 
%ENDBLOCK POSITIONS_FRAC
