# Cell file generated by matador (Matthew Evans 2016)

%BLOCK LATTICE_CART
6.12326 0.0 0.0
-3.06163 5.3029 0.0
0.0 0.0 5.47064
%ENDBLOCK LATTICE_CART

%BLOCK POSITIONS_FRAC
P           0.000000000000000   -0.000000000000000    0.810733000000000 
P           0.061747000000000    0.806906000000000    0.769165000000000 
P           0.193094000000000    0.254841000000000    0.769165000000000 
P           0.333334000000000    0.666666000000000    0.095291000000000 
P           0.333334000000000    0.666666000000000    0.865823000000000 
P           0.745159000000000    0.938253000000000    0.769165000000000 
K           0.666667000000000    0.333333000000000    0.396691000000000 
%ENDBLOCK POSITIONS_FRAC
