# Cell file generated by matador (Matthew Evans 2016)

%BLOCK LATTICE_CART
8.79554 0.0 0.0
-4.39777 7.61716 0.0
0.0 0.0 5.86024
%ENDBLOCK LATTICE_CART

%BLOCK POSITIONS_FRAC
P           0.000000000000000    0.000000000000000    0.000000000000000 
P           0.000000000000000    0.000000000000000    0.171413000000000 
P           0.000000000000000    0.000000000000000    0.828587000000000 
P           0.000000000000000    0.343490000000000    0.285190000000000 
P           0.000000000000000    0.343490000000000    0.714810000000000 
P           0.178470000000000    0.515485000000000    0.500000000000000 
P           0.337015000000000    0.821530000000000    0.500000000000000 
P           0.343490000000000    0.000000000000000    0.285190000000000 
P           0.343490000000000    0.000000000000000    0.714810000000000 
P           0.484515000000000    0.662985000000000    0.500000000000000 
P           0.515485000000000    0.178470000000000    0.500000000000000 
P           0.656510000000000    0.656510000000000    0.285190000000000 
P           0.656510000000000    0.656510000000000    0.714810000000000 
P           0.662985000000000    0.484515000000000    0.500000000000000 
P           0.821530000000000    0.337015000000000    0.500000000000000 
K           0.000000000000000    0.220011000000000    0.000000000000000 
K           0.220011000000000    0.000000000000000    0.000000000000000 
K           0.779989000000000    0.779989000000000    0.000000000000000 
%ENDBLOCK POSITIONS_FRAC
