# Cell file generated by matador (Matthew Evans 2016)

%BLOCK LATTICE_CART
6.03811 0.0 0.0
0.0 6.03811 0.0
0.0 0.0 8.0065
%ENDBLOCK LATTICE_CART

%BLOCK POSITIONS_FRAC
P           0.000000000000000    0.000000000000000    0.500000000000000 
P           0.000000000000000    0.500000000000000    0.083139000000000 
P           0.000000000000000    0.500000000000000    0.613783000000000 
P           0.500000000000000    0.000000000000000    0.386217000000000 
P           0.500000000000000    0.000000000000000    0.916861000000000 
P           0.500000000000000    0.500000000000000    0.000000000000000 
P           0.500000000000000    0.500000000000000    0.500000000000000 
K           0.315211000000000    0.456058000000000    0.282408000000000 
K           0.456058000000000    0.684789000000000    0.717592000000000 
K           0.543942000000000    0.315211000000000    0.717592000000000 
K           0.684789000000000    0.543942000000000    0.282408000000000 
%ENDBLOCK POSITIONS_FRAC
