# Cell file generated by matador (Matthew Evans 2016)

%BLOCK LATTICE_CART
8.68346 0.0 0.0
-4.34173 7.5201 0.0
0.0 0.0 7.12085
%ENDBLOCK LATTICE_CART

%BLOCK POSITIONS_FRAC
P          -0.000000000000000    0.000000000000000    0.000000000000000 
P          -0.000000000000000    0.000000000000000    0.500000000000000 
P           0.183100000000000    0.405757000000000    0.500000000000000 
P           0.222656000000000    0.816900000000000    0.500000000000000 
P           0.594243000000000    0.777344000000000    0.500000000000000 
P           0.666666000000000    0.333334000000000    0.000000000000000 
P           0.666666000000000    0.333334000000000    0.148984000000000 
P           0.666666000000000    0.333334000000000    0.851016000000000 
K           0.333333000000000    0.666667000000000    0.000000000000000 
K           0.333333000000000    0.666667000000000    0.500000000000000 
K           0.365483000000000    0.327842000000000    0.500000000000000 
K           0.666666000000000    0.333334000000000    0.500000000000000 
K           0.672158000000000    0.037641000000000    0.500000000000000 
K           0.962359000000000    0.634517000000000    0.500000000000000 
%ENDBLOCK POSITIONS_FRAC
