# Cell file generated by matador (Matthew Evans 2016)

%BLOCK LATTICE_CART
10.1247 0.0 0.0
-5.06234 8.76824 0.0
0.0 0.0 11.1303
%ENDBLOCK LATTICE_CART

%BLOCK POSITIONS_FRAC
P           0.071429000000000    0.535714000000000    0.000000000000000 
P           0.071429000000000    0.535714000000000    0.500000000000000 
P           0.464286000000000    0.535714000000000    0.000000000000000 
P           0.464286000000000    0.535714000000000    0.500000000000000 
P           0.464286000000000    0.928571000000000    0.000000000000000 
P           0.464286000000000    0.928571000000000    0.500000000000000 
K           0.000000000000000   -0.000000000000000    0.000000000000000 
K           0.000000000000000   -0.000000000000000    0.500000000000000 
K           0.087280000000000    0.502207000000000    0.250000000000000 
K           0.087280000000000    0.585073000000000    0.750000000000000 
K           0.333334000000000    0.666666000000000    0.000000000000000 
K           0.333334000000000    0.666666000000000    0.500000000000000 
K           0.414927000000000    0.502207000000000    0.750000000000000 
K           0.414927000000000    0.912720000000000    0.250000000000000 
K           0.431139000000000    0.203892000000000    0.750000000000000 
K           0.431139000000000    0.227247000000000    0.250000000000000 
K           0.497793000000000    0.585073000000000    0.250000000000000 
K           0.497793000000000    0.912720000000000    0.750000000000000 
K           0.666667000000000    0.333333000000000    0.000000000000000 
K           0.666667000000000    0.333333000000000    0.500000000000000 
K           0.772753000000000    0.203892000000000    0.250000000000000 
K           0.772753000000000    0.568861000000000    0.750000000000000 
K           0.796108000000000    0.227247000000000    0.750000000000000 
K           0.796108000000000    0.568861000000000    0.250000000000000 
%ENDBLOCK POSITIONS_FRAC
