# Cell file generated by matador (Matthew Evans 2016)

%BLOCK LATTICE_CART
4.99199 0.0 0.0
-2.496 4.32319 0.0
0.0 0.0 13.2037
%ENDBLOCK LATTICE_CART

%BLOCK POSITIONS_FRAC
P           0.364021000000000    0.172682000000000    0.386774000000000 
P           0.666667000000000    0.333333000000000    0.292957000000000 
P           0.808661000000000    0.635979000000000    0.386774000000000 
P           0.827318000000000    0.191339000000000    0.386774000000000 
K           0.000000000000000    0.000000000000000    0.202867000000000 
K           0.325913000000000    0.137587000000000    0.805332000000000 
K           0.333333000000000    0.666667000000000    0.070470000000000 
K           0.811674000000000    0.674087000000000    0.805332000000000 
K           0.862413000000000    0.188326000000000    0.805332000000000 
%ENDBLOCK POSITIONS_FRAC
