# Cell file generated by matador (Matthew Evans 2016)

%BLOCK LATTICE_CART
8.16212 0.0 0.0
-4.08106 7.06861 0.0
0.0 0.0 5.81256
%ENDBLOCK LATTICE_CART

%BLOCK POSITIONS_FRAC
P           0.000001000000000    0.000001000000000    0.257477000000000 
P           0.000001000000000    0.000001000000000    0.757477000000000 
P           0.163002000000000    0.326002000000000    0.624986000000000 
P           0.163002000000000    0.837000000000000    0.624986000000000 
P           0.326002000000000    0.163002000000000    0.124986000000000 
P           0.333334000000000    0.666668000000000    0.426563000000000 
P           0.666668000000000    0.333334000000000    0.926563000000000 
P           0.674000000000000    0.837000000000000    0.624986000000000 
P           0.837000000000000    0.163002000000000    0.124986000000000 
P           0.837000000000000    0.674000000000000    0.124986000000000 
K           0.333334000000000    0.666668000000000    0.818584000000000 
K           0.666668000000000    0.333334000000000    0.318584000000000 
%ENDBLOCK POSITIONS_FRAC
