# Cell file generated by matador (Matthew Evans 2016)

%BLOCK LATTICE_CART
9.19523 0.0 0.0
0.0 12.3846 0.0
0.0 0.0 8.60764
%ENDBLOCK LATTICE_CART

%BLOCK POSITIONS_FRAC
P           0.000000000000000    0.651751000000000    0.718512000000000 
P           0.245302000000000    0.189010000000000    0.350804000000000 
P           0.254698000000000    0.810990000000000    0.850804000000000 
P           0.500000000000000    0.348249000000000    0.218512000000000 
P           0.745302000000000    0.810990000000000    0.850804000000000 
P           0.754698000000000    0.189010000000000    0.350804000000000 
K           0.000000000000000    0.113766000000000    0.942225000000000 
K           0.000000000000000    0.261321000000000    0.510046000000000 
K           0.000000000000000    0.292554000000000    0.173341000000000 
K           0.000000000000000    0.400704000000000    0.872758000000000 
K           0.000000000000000    0.522379000000000    0.579671000000000 
K           0.000000000000000    0.565102000000000    0.239193000000000 
K           0.000000000000000    0.774786000000000    0.404613000000000 
K           0.000000000000000    0.864408000000000    0.914390000000000 
K           0.000000000000000    0.985554000000000    0.237378000000000 
K           0.500000000000000    0.014446000000000    0.737378000000000 
K           0.500000000000000    0.135592000000000    0.414390000000000 
K           0.500000000000000    0.225214000000000    0.904613000000000 
K           0.500000000000000    0.434898000000000    0.739193000000000 
K           0.500000000000000    0.477621000000000    0.079671000000000 
K           0.500000000000000    0.599296000000000    0.372758000000000 
K           0.500000000000000    0.707446000000000    0.673341000000000 
K           0.500000000000000    0.738679000000000    0.010046000000000 
K           0.500000000000000    0.886234000000000    0.442225000000000 
%ENDBLOCK POSITIONS_FRAC
