# Cell file generated by matador (Matthew Evans 2016)

%BLOCK LATTICE_CART
5.50066 0.0 0.0
-2.75033 4.76371 0.0
0.0 0.0 7.68817
%ENDBLOCK LATTICE_CART

%BLOCK POSITIONS_FRAC
P           0.000001000000000    0.000001000000000    0.500000000000000 
P           0.333334000000000    0.666668000000000    0.315716000000000 
P           0.333334000000000    0.666668000000000    0.684284000000000 
P           0.666668000000000    0.333334000000000    0.315716000000000 
P           0.666668000000000    0.333334000000000    0.684284000000000 
K           0.333334000000000    0.666668000000000    0.000000000000000 
K           0.666668000000000    0.333334000000000    0.000000000000000 
%ENDBLOCK POSITIONS_FRAC
