# Cell file generated by matador (Matthew Evans 2016)

%BLOCK LATTICE_CART
8.47173 0.0 0.0
0.0 7.24075 0.0
0.0 0.0 18.5445
%ENDBLOCK LATTICE_CART

%BLOCK POSITIONS_FRAC
P           0.000000000000000    0.000000000000000    0.634423000000000 
P           0.000000000000000    0.000000000000000    0.864537000000000 
P           0.000000000000000    0.500000000000000    0.134423000000000 
P           0.000000000000000    0.500000000000000    0.364537000000000 
P           0.500000000000000    0.000000000000000    0.134423000000000 
P           0.500000000000000    0.000000000000000    0.364537000000000 
P           0.500000000000000    0.500000000000000    0.634423000000000 
P           0.500000000000000    0.500000000000000    0.864537000000000 
K           0.000000000000000    0.219666000000000    0.399734000000000 
K           0.000000000000000    0.280334000000000    0.899734000000000 
K           0.000000000000000    0.719666000000000    0.899734000000000 
K           0.000000000000000    0.780334000000000    0.399734000000000 
K           0.221973000000000    0.000000000000000    0.063377000000000 
K           0.221973000000000    0.500000000000000    0.563377000000000 
K           0.245088000000000    0.000000000000000    0.239816000000000 
K           0.245088000000000    0.500000000000000    0.739816000000000 
K           0.254912000000000    0.000000000000000    0.739816000000000 
K           0.254912000000000    0.500000000000000    0.239816000000000 
K           0.278027000000000    0.000000000000000    0.563377000000000 
K           0.278027000000000    0.500000000000000    0.063377000000000 
K           0.500000000000000    0.219666000000000    0.899734000000000 
K           0.500000000000000    0.280334000000000    0.399734000000000 
K           0.500000000000000    0.719666000000000    0.399734000000000 
K           0.500000000000000    0.780334000000000    0.899734000000000 
K           0.721973000000000    0.000000000000000    0.563377000000000 
K           0.721973000000000    0.500000000000000    0.063377000000000 
K           0.745088000000000    0.000000000000000    0.739816000000000 
K           0.745088000000000    0.500000000000000    0.239816000000000 
K           0.754912000000000    0.000000000000000    0.239816000000000 
K           0.754912000000000    0.500000000000000    0.739816000000000 
K           0.778027000000000    0.000000000000000    0.063377000000000 
K           0.778027000000000    0.500000000000000    0.563377000000000 
%ENDBLOCK POSITIONS_FRAC
