# Cell file generated by matador (Matthew Evans 2016)

%BLOCK LATTICE_CART
7.6701 0.0 0.0
-2.29972 9.46799 0.0
0.926807 0.721431 5.39415
%ENDBLOCK LATTICE_CART

%BLOCK POSITIONS_FRAC
P           0.000000000000000    0.000000000000000    0.500000000000000 
P           0.000000000000000    0.500000000000000    0.000000000000000 
P           0.000000000000000    0.500000000000000    0.500000000000000 
P           0.500000000000000    0.000000000000000    0.000000000000000 
P           0.500000000000000    0.000000000000000    0.500000000000000 
P           0.500000000000000    0.500000000000000    0.000000000000000 
P           0.500000000000000    0.500000000000000    0.500000000000000 
K           0.000000000000000    0.000000000000000    0.000000000000000 
K           0.051422000000000    0.776827000000000    0.718322000000000 
K           0.197045000000000    0.272615000000000    0.870162000000000 
K           0.802955000000000    0.727385000000000    0.129838000000000 
K           0.948578000000000    0.223173000000000    0.281678000000000 
%ENDBLOCK POSITIONS_FRAC
