# Cell file generated by matador (Matthew Evans 2016)

%BLOCK LATTICE_CART
7.86767 0.0 0.0
-3.93383 6.8136 0.0
0.0 0.0 8.72767
%ENDBLOCK LATTICE_CART

%BLOCK POSITIONS_FRAC
P           0.046843000000000    0.898236000000000    0.694783000000000 
P           0.084273000000000    0.669007000000000    0.145207000000000 
P           0.101764000000000    0.148607000000000    0.694783000000000 
P           0.148607000000000    0.046843000000000    0.694783000000000 
P           0.330993000000000    0.415266000000000    0.145207000000000 
P           0.415266000000000    0.084273000000000    0.145207000000000 
P           0.584734000000000    0.915727000000000    0.145207000000000 
P           0.669007000000000    0.584734000000000    0.145207000000000 
P           0.851393000000000    0.953157000000000    0.694783000000000 
P           0.898236000000000    0.851393000000000    0.694783000000000 
P           0.915727000000000    0.330993000000000    0.145207000000000 
P           0.953157000000000    0.101764000000000    0.694783000000000 
K           0.000000000000000    0.000000000000000    0.002466000000000 
K           0.000000000000000    0.500000000000000    0.380042000000000 
K           0.333333000000000    0.666667000000000    0.648714000000000 
K           0.500000000000000    0.000000000000000    0.380042000000000 
K           0.500000000000000    0.500000000000000    0.380042000000000 
K           0.666667000000000    0.333333000000000    0.648714000000000 
%ENDBLOCK POSITIONS_FRAC
