# Cell file generated by matador (Matthew Evans 2016)

%BLOCK LATTICE_CART
4.84784 0.0 0.0
0.0 8.04428 0.0
2.78969 0.0 8.55709
%ENDBLOCK LATTICE_CART

%BLOCK POSITIONS_FRAC
P           0.036483000000000    0.609389000000000    0.068832000000000 
P           0.041387000000000    0.096912000000000    0.580561000000000 
P           0.163632000000000    0.533374000000000    0.423178000000000 
P           0.177313000000000    0.645047000000000    0.942272000000000 
P           0.182058000000000    0.989730000000000    0.818831000000000 
P           0.399543000000000    0.538218000000000    0.553577000000000 
P           0.426118000000000    0.821116000000000    0.202451000000000 
P           0.573882000000000    0.821116000000000    0.797549000000000 
P           0.600457000000000    0.538218000000000    0.446423000000000 
P           0.817942000000000    0.989730000000000    0.181169000000000 
P           0.822687000000000    0.645047000000000    0.057728000000000 
P           0.836368000000000    0.533374000000000    0.576822000000000 
P           0.958613000000000    0.096912000000000    0.419439000000000 
P           0.963517000000000    0.609389000000000    0.931168000000000 
K           0.472873000000000    0.211523000000000    0.134215000000000 
K           0.527127000000000    0.211523000000000    0.865785000000000 
%ENDBLOCK POSITIONS_FRAC
