# Cell file generated by matador (Matthew Evans 2016)

%BLOCK LATTICE_CART
10.7354 0.0 0.0
0.0 5.5265 0.0
1.83767 0.0 6.71339
%ENDBLOCK LATTICE_CART

%BLOCK POSITIONS_FRAC
P           0.000000000000000    0.752508000000000    0.000000000000000 
P           0.242826000000000    0.984146000000000    0.386212000000000 
P           0.264412000000000    0.663517000000000    0.880608000000000 
P           0.282211000000000    0.459414000000000    0.563549000000000 
P           0.717789000000000    0.459414000000000    0.436451000000000 
P           0.735588000000000    0.663517000000000    0.119392000000000 
P           0.757174000000000    0.984146000000000    0.613788000000000 
K           0.000000000000000    0.241447000000000    0.500000000000000 
K           0.203328000000000    0.033001000000000    0.844325000000000 
K           0.396850000000000    0.241274000000000    0.097301000000000 
K           0.500000000000000    0.889494000000000    0.000000000000000 
K           0.603150000000000    0.241274000000000    0.902699000000000 
K           0.796672000000000    0.033001000000000    0.155675000000000 
%ENDBLOCK POSITIONS_FRAC
