# Cell file generated by matador (Matthew Evans 2016)

%BLOCK LATTICE_CART
6.6409 0.0 0.0
-3.32045 5.75119 0.0
0.0 0.0 8.70632
%ENDBLOCK LATTICE_CART

%BLOCK POSITIONS_FRAC
P           0.147667000000000    0.601908000000000    0.091516000000000 
P           0.398092000000000    0.545759000000000    0.091516000000000 
P           0.454241000000000    0.852333000000000    0.091516000000000 
P           0.666667000000000    0.333333000000000    0.754901000000000 
K           0.000000000000000    0.000000000000000    0.105402000000000 
K           0.000000000000000    0.000000000000000    0.563891000000000 
K           0.333333000000000    0.666667000000000    0.548727000000000 
K           0.454316000000000    0.054539000000000    0.357646000000000 
K           0.600222000000000    0.545684000000000    0.357646000000000 
K           0.666667000000000    0.333333000000000    0.484744000000000 
K           0.945461000000000    0.399778000000000    0.357646000000000 
%ENDBLOCK POSITIONS_FRAC
