# Cell file generated by matador (Matthew Evans 2016)

%BLOCK LATTICE_CART
10.9716 0.0 0.0
0.0 10.9716 0.0
0.0 0.0 10.3906
%ENDBLOCK LATTICE_CART

%BLOCK POSITIONS_FRAC
P           0.097875000000000    0.597875000000000    0.250000000000000 
P           0.097875000000000    0.597875000000000    0.750000000000000 
P           0.402125000000000    0.097875000000000    0.250000000000000 
P           0.402125000000000    0.097875000000000    0.750000000000000 
P           0.597875000000000    0.902125000000000    0.250000000000000 
P           0.597875000000000    0.902125000000000    0.750000000000000 
P           0.902125000000000    0.402125000000000    0.250000000000000 
P           0.902125000000000    0.402125000000000    0.750000000000000 
K          -0.000000000000000   -0.000000000000000   -0.000000000000000 
K          -0.000000000000000   -0.000000000000000    0.500000000000000 
K          -0.000000000000000    0.500000000000000   -0.000000000000000 
K          -0.000000000000000    0.500000000000000    0.500000000000000 
K           0.095431000000000    0.750067000000000    0.500000000000000 
K           0.135748000000000    0.263261000000000   -0.000000000000000 
K           0.236739000000000    0.364252000000000    0.500000000000000 
K           0.249933000000000    0.095431000000000    0.500000000000000 
K           0.250067000000000    0.595431000000000   -0.000000000000000 
K           0.263261000000000    0.864252000000000   -0.000000000000000 
K           0.364252000000000    0.763261000000000    0.500000000000000 
K           0.404569000000000    0.250067000000000   -0.000000000000000 
K           0.500000000000000   -0.000000000000000   -0.000000000000000 
K           0.500000000000000   -0.000000000000000    0.500000000000000 
K           0.500000000000000    0.500000000000000   -0.000000000000000 
K           0.500000000000000    0.500000000000000    0.500000000000000 
K           0.595431000000000    0.749933000000000   -0.000000000000000 
K           0.635748000000000    0.236739000000000    0.500000000000000 
K           0.736739000000000    0.135748000000000   -0.000000000000000 
K           0.749933000000000    0.404569000000000   -0.000000000000000 
K           0.750067000000000    0.904569000000000    0.500000000000000 
K           0.763261000000000    0.635748000000000    0.500000000000000 
K           0.864252000000000    0.736739000000000   -0.000000000000000 
K           0.904569000000000    0.249933000000000    0.500000000000000 
%ENDBLOCK POSITIONS_FRAC
