# Cell file generated by matador (Matthew Evans 2016)

%BLOCK LATTICE_CART
8.08105 0.0 0.0
-4.04052 6.99839 0.0
0.0 0.0 7.72723
%ENDBLOCK LATTICE_CART

%BLOCK POSITIONS_FRAC
P           0.000000000000000    0.000000000000000    0.500000000000000 
P           0.666667000000000    0.333333000000000    0.000000000000000 
P           0.666667000000000    0.333333000000000    0.129715000000000 
P           0.666667000000000    0.333333000000000    0.870285000000000 
K           0.058605000000000    0.391977000000000    0.223159000000000 
K           0.058605000000000    0.391977000000000    0.776841000000000 
K           0.333372000000000    0.941395000000000    0.223159000000000 
K           0.333372000000000    0.941395000000000    0.776841000000000 
K           0.608023000000000    0.666628000000000    0.223159000000000 
K           0.608023000000000    0.666628000000000    0.776841000000000 
K           0.666667000000000    0.333333000000000    0.500000000000000 
%ENDBLOCK POSITIONS_FRAC
