# Cell file generated by matador (Matthew Evans 2016)

%BLOCK LATTICE_CART
6.66599 0.0 0.0
-3.33299 5.77292 0.0
0.0 0.0 12.3004
%ENDBLOCK LATTICE_CART

%BLOCK POSITIONS_FRAC
P           0.333334000000000    0.666668000000000    0.307487000000000 
P           0.333334000000000    0.666668000000000    0.718008000000000 
P           0.666668000000000    0.333334000000000    0.307487000000000 
P           0.666668000000000    0.333334000000000    0.718008000000000 
K           0.000001000000000    0.000001000000000    0.174243000000000 
K           0.000001000000000    0.000001000000000    0.479247000000000 
K           0.000001000000000    0.500001000000000    0.032622000000000 
K           0.000001000000000    0.500001000000000    0.656227000000000 
K           0.500001000000000    0.000001000000000    0.032622000000000 
K           0.500001000000000    0.000001000000000    0.656227000000000 
K           0.500001000000000    0.500001000000000    0.032622000000000 
K           0.500001000000000    0.500001000000000    0.656227000000000 
%ENDBLOCK POSITIONS_FRAC
