# Cell file generated by matador (Matthew Evans 2016)

%BLOCK LATTICE_CART
12.7545 0.0 0.0
-6.37723 11.0457 0.0
0.0 0.0 9.68297
%ENDBLOCK LATTICE_CART

%BLOCK POSITIONS_FRAC
P           0.000000000000000    0.000000000000000    0.000000000000000 
P           0.000000000000000    0.000000000000000    0.250000000000000 
P           0.000000000000000    0.000000000000000    0.500000000000000 
P           0.000000000000000    0.000000000000000    0.750000000000000 
P           0.333333000000000    0.666667000000000    0.250000000000000 
P           0.333333000000000    0.666667000000000    0.750000000000000 
P           0.666667000000000    0.333333000000000    0.250000000000000 
P           0.666667000000000    0.333333000000000    0.750000000000000 
K           0.100113000000000    0.240022000000000    0.250000000000000 
K           0.116031000000000    0.311956000000000    0.750000000000000 
K           0.122201000000000    0.489439000000000    0.250000000000000 
K           0.139909000000000    0.899887000000000    0.250000000000000 
K           0.161280000000000    0.632365000000000    0.750000000000000 
K           0.195925000000000    0.883969000000000    0.750000000000000 
K           0.240022000000000    0.139909000000000    0.750000000000000 
K           0.311956000000000    0.195925000000000    0.250000000000000 
K           0.367237000000000    0.877799000000000    0.250000000000000 
K           0.367635000000000    0.528915000000000    0.750000000000000 
K           0.471085000000000    0.838720000000000    0.750000000000000 
K           0.489439000000000    0.367237000000000    0.750000000000000 
K           0.510561000000000    0.632763000000000    0.250000000000000 
K           0.528915000000000    0.161280000000000    0.250000000000000 
K           0.632365000000000    0.471085000000000    0.250000000000000 
K           0.632763000000000    0.122201000000000    0.750000000000000 
K           0.688044000000000    0.804075000000000    0.750000000000000 
K           0.759978000000000    0.860091000000000    0.250000000000000 
K           0.804075000000000    0.116031000000000    0.250000000000000 
K           0.838720000000000    0.367635000000000    0.250000000000000 
K           0.860091000000000    0.100113000000000    0.750000000000000 
K           0.877799000000000    0.510561000000000    0.750000000000000 
K           0.883969000000000    0.688044000000000    0.250000000000000 
K           0.899887000000000    0.759978000000000    0.750000000000000 
%ENDBLOCK POSITIONS_FRAC
