# Cell file generated by matador (Matthew Evans 2016)

%BLOCK LATTICE_CART
5.19002 0.0 0.0
0.0 5.86937 0.0
2.22766 0.0 7.31604
%ENDBLOCK LATTICE_CART

%BLOCK POSITIONS_FRAC
P           0.340544000000000    0.698365000000000    0.737548000000000 
P           0.496462000000000    0.711802000000000    0.887830000000000 
P           0.503538000000000    0.711802000000000    0.112170000000000 
P           0.659456000000000    0.698365000000000    0.262452000000000 
K           0.000000000000000    0.857924000000000    0.500000000000000 
K           0.127477000000000    0.577319000000000    0.107287000000000 
K           0.500000000000000    0.281860000000000    0.000000000000000 
K           0.872523000000000    0.577319000000000    0.892713000000000 
%ENDBLOCK POSITIONS_FRAC
