# Cell file generated by matador (Matthew Evans 2016)

%BLOCK LATTICE_CART
5.74254 0.0 0.0
-2.87127 4.97318 0.0
0.0 0.0 9.20129
%ENDBLOCK LATTICE_CART

%BLOCK POSITIONS_FRAC
P           0.333333000000000    0.666667000000000    0.015873000000000 
K          -0.000000000000000    0.000000000000000    0.404803000000000 
K          -0.000000000000000    0.000000000000000    0.689305000000000 
K           0.321089000000000    0.135270000000000    0.889105000000000 
K           0.666666000000000    0.333334000000000    0.496250000000000 
K           0.814181000000000    0.678911000000000    0.889105000000000 
K           0.864730000000000    0.185819000000000    0.889105000000000 
%ENDBLOCK POSITIONS_FRAC
