# Cell file generated by matador (Matthew Evans 2016)

%BLOCK LATTICE_CART
6.73713 0.0 0.0
-3.36856 5.83452 0.0
0.0 0.0 9.37491
%ENDBLOCK LATTICE_CART

%BLOCK POSITIONS_FRAC
P          -0.000000000000000    0.000000000000000    0.450730000000000 
P           0.022556000000000    0.511278000000000    0.489883000000000 
P           0.333333000000000    0.666667000000000    0.669092000000000 
P           0.488722000000000    0.511278000000000    0.489883000000000 
P           0.488722000000000    0.977444000000000    0.489883000000000 
P           0.666666000000000    0.333334000000000    0.050751000000000 
P           0.666666000000000    0.333334000000000    0.435603000000000 
K           0.101590000000000    0.203181000000000    0.188882000000000 
K           0.101590000000000    0.898410000000000    0.188882000000000 
K           0.333333000000000    0.666667000000000    0.102825000000000 
K           0.796819000000000    0.898410000000000    0.188882000000000 
%ENDBLOCK POSITIONS_FRAC
