# Cell file generated by matador (Matthew Evans 2016)

%BLOCK LATTICE_CART
6.85588 0.0 0.0
-3.42794 5.93736 0.0
0.0 0.0 7.01995
%ENDBLOCK LATTICE_CART

%BLOCK POSITIONS_FRAC
P           0.164908000000000    0.329816000000000    0.500000000000000 
P           0.164908000000000    0.835092000000000    0.500000000000000 
P           0.336851000000000    0.168425000000000    0.000000000000000 
P           0.670184000000000    0.835092000000000    0.500000000000000 
P           0.831575000000000    0.168425000000000    0.000000000000000 
P           0.831575000000000    0.663149000000000    0.000000000000000 
K           0.000000000000000    0.000000000000000    0.000000000000000 
K           0.333333000000000    0.666667000000000    0.000000000000000 
K           0.333333000000000    0.666667000000000    0.500000000000000 
%ENDBLOCK POSITIONS_FRAC
