# Cell file generated by matador (Matthew Evans 2016)

%BLOCK LATTICE_CART
9.32957 0.0 0.0
0.0 9.32957 0.0
0.0 0.0 7.62508
%ENDBLOCK LATTICE_CART

%BLOCK POSITIONS_FRAC
P           0.013071000000000    0.065889000000000    0.250611000000000 
P           0.065889000000000    0.486929000000000    0.250611000000000 
P           0.250000000000000    0.250000000000000    0.175876000000000 
P           0.250000000000000    0.250000000000000    0.662846000000000 
P           0.250000000000000    0.750000000000000    0.000000000000000 
P           0.434111000000000    0.013071000000000    0.250611000000000 
P           0.486929000000000    0.434111000000000    0.250611000000000 
P           0.513071000000000    0.565889000000000    0.749389000000000 
P           0.565889000000000    0.986929000000000    0.749389000000000 
P           0.750000000000000    0.250000000000000    0.000000000000000 
P           0.750000000000000    0.750000000000000    0.337154000000000 
P           0.750000000000000    0.750000000000000    0.824124000000000 
P           0.934111000000000    0.513071000000000    0.749389000000000 
P           0.986929000000000    0.934111000000000    0.749389000000000 
K           0.000000000000000    0.000000000000000    0.500000000000000 
K           0.000000000000000    0.500000000000000    0.500000000000000 
K           0.250000000000000    0.750000000000000    0.500000000000000 
K           0.500000000000000    0.000000000000000    0.500000000000000 
K           0.500000000000000    0.500000000000000    0.500000000000000 
K           0.750000000000000    0.250000000000000    0.500000000000000 
%ENDBLOCK POSITIONS_FRAC
