# Cell file generated by matador (Matthew Evans 2016)

%BLOCK LATTICE_CART
7.63503 0.0 0.0
0.0 7.63503 0.0
0.0 0.0 11.2929
%ENDBLOCK LATTICE_CART

%BLOCK POSITIONS_FRAC
P           0.296142000000000    0.296142000000000    0.875000000000000 
P           0.296142000000000    0.703858000000000    0.625000000000000 
P           0.703858000000000    0.296142000000000    0.125000000000000 
P           0.703858000000000    0.703858000000000    0.375000000000000 
K           0.000000000000000    0.268950000000000    0.000000000000000 
K           0.000000000000000    0.731050000000000    0.500000000000000 
K           0.003068000000000    0.500000000000000    0.750000000000000 
K           0.232884000000000    0.232884000000000    0.375000000000000 
K           0.232884000000000    0.767116000000000    0.125000000000000 
K           0.268950000000000    0.000000000000000    0.750000000000000 
K           0.500000000000000    0.003068000000000    0.000000000000000 
K           0.500000000000000    0.996932000000000    0.500000000000000 
K           0.731050000000000    0.000000000000000    0.250000000000000 
K           0.767116000000000    0.232884000000000    0.625000000000000 
K           0.767116000000000    0.767116000000000    0.875000000000000 
K           0.996932000000000    0.500000000000000    0.250000000000000 
%ENDBLOCK POSITIONS_FRAC
