# Cell file generated by matador (Matthew Evans 2016)

%BLOCK LATTICE_CART
7.62554 0.0 0.0
0.0 7.62554 0.0
0.0 0.0 5.14015
%ENDBLOCK LATTICE_CART

%BLOCK POSITIONS_FRAC
P           0.042483000000000    0.894326000000000    0.990359000000000 
P           0.105674000000000    0.042483000000000    0.990359000000000 
P           0.894326000000000    0.957517000000000    0.990359000000000 
P           0.957517000000000    0.105674000000000    0.990359000000000 
K           0.109335000000000    0.421827000000000    0.679339000000000 
K           0.421827000000000    0.890665000000000    0.679339000000000 
K           0.500000000000000    0.500000000000000    0.222495000000000 
K           0.578173000000000    0.109335000000000    0.679339000000000 
K           0.890665000000000    0.578173000000000    0.679339000000000 
%ENDBLOCK POSITIONS_FRAC
