# Cell file generated by matador (Matthew Evans 2016)

%BLOCK LATTICE_CART
9.39535 0.0 0.0
-4.69768 8.13661 0.0
0.0 0.0 11.03
%ENDBLOCK LATTICE_CART

%BLOCK POSITIONS_FRAC
P           0.000000000000000    0.000000000000000    0.288046000000000 
P           0.000000000000000    0.000000000000000    0.729184000000000 
P           0.333333000000000    0.666667000000000    0.395851000000000 
P           0.333333000000000    0.666667000000000    0.954712000000000 
P           0.666667000000000    0.333333000000000    0.062517000000000 
P           0.666667000000000    0.333333000000000    0.621379000000000 
K           0.055510000000000    0.527755000000000    0.687801000000000 
K           0.138912000000000    0.277824000000000    0.021134000000000 
K           0.138912000000000    0.861088000000000    0.021134000000000 
K           0.168954000000000    0.337908000000000    0.441667000000000 
K           0.168954000000000    0.831046000000000    0.441667000000000 
K           0.328759000000000    0.164379000000000    0.775000000000000 
K           0.388843000000000    0.194422000000000    0.354468000000000 
K           0.472245000000000    0.527755000000000    0.687801000000000 
K           0.472245000000000    0.944490000000000    0.687801000000000 
K           0.502287000000000    0.004574000000000    0.108333000000000 
K           0.502287000000000    0.497713000000000    0.108333000000000 
K           0.662092000000000    0.831046000000000    0.441667000000000 
K           0.722176000000000    0.861088000000000    0.021134000000000 
K           0.805578000000000    0.194422000000000    0.354468000000000 
K           0.805578000000000    0.611157000000000    0.354468000000000 
K           0.835621000000000    0.164379000000000    0.775000000000000 
K           0.835621000000000    0.671241000000000    0.775000000000000 
K           0.995426000000000    0.497713000000000    0.108333000000000 
%ENDBLOCK POSITIONS_FRAC
