# Cell file generated by matador (Matthew Evans 2016)

%BLOCK LATTICE_CART
7.79402 0.0 0.0
-3.89701 6.74982 0.0
0.0 0.0 9.19327
%ENDBLOCK LATTICE_CART

%BLOCK POSITIONS_FRAC
P           0.000000000000000    0.000000000000000    0.246087000000000 
P           0.000000000000000    0.000000000000000    0.753913000000000 
P           0.333333000000000    0.666667000000000    0.420580000000000 
P           0.333333000000000    0.666667000000000    0.912753000000000 
P           0.666667000000000    0.333333000000000    0.087247000000000 
P           0.666667000000000    0.333333000000000    0.579420000000000 
K           0.000000000000000    0.500000000000000    0.000000000000000 
K           0.166667000000000    0.333333000000000    0.333333000000000 
K           0.166667000000000    0.833333000000000    0.333333000000000 
K           0.333333000000000    0.166667000000000    0.666667000000000 
K           0.500000000000000   -0.000000000000000    0.000000000000000 
K           0.500000000000000    0.500000000000000    0.000000000000000 
K           0.666667000000000    0.833333000000000    0.333333000000000 
K           0.833333000000000    0.166667000000000    0.666667000000000 
K           0.833333000000000    0.666667000000000    0.666667000000000 
%ENDBLOCK POSITIONS_FRAC
