# Cell file generated by matador (Matthew Evans 2016)

%BLOCK LATTICE_CART
10.8715 0.0 0.0
0.0 10.8715 0.0
0.0 0.0 5.24913
%ENDBLOCK LATTICE_CART

%BLOCK POSITIONS_FRAC
P           0.000000000000000    0.000000000000000    0.500000000000000 
P           0.000000000000000    0.500000000000000    0.000000000000000 
P           0.500000000000000    0.000000000000000    0.000000000000000 
P           0.500000000000000    0.500000000000000    0.500000000000000 
K           0.000000000000000    0.000000000000000    0.000000000000000 
K           0.000000000000000    0.500000000000000    0.500000000000000 
K           0.157776000000000    0.342224000000000    0.112047000000000 
K           0.157776000000000    0.657776000000000    0.887953000000000 
K           0.342224000000000    0.157776000000000    0.887953000000000 
K           0.342224000000000    0.842224000000000    0.112047000000000 
K           0.500000000000000    0.000000000000000    0.500000000000000 
K           0.500000000000000    0.500000000000000    0.000000000000000 
K           0.657776000000000    0.157776000000000    0.112047000000000 
K           0.657776000000000    0.842224000000000    0.887953000000000 
K           0.842224000000000    0.342224000000000    0.887953000000000 
K           0.842224000000000    0.657776000000000    0.112047000000000 
%ENDBLOCK POSITIONS_FRAC
