# Cell file generated by matador (Matthew Evans 2016)

%BLOCK LATTICE_CART
7.24155 0.0 0.0
-3.62078 6.27137 0.0
0.0 0.0 6.31447
%ENDBLOCK LATTICE_CART

%BLOCK POSITIONS_FRAC
P          -0.000000000000000    0.500000000000000    0.342795000000000 
P           0.333333000000000    0.666667000000000    0.832376000000000 
P           0.500000000000000   -0.000000000000000    0.342795000000000 
P           0.500000000000000    0.500000000000000    0.342795000000000 
P           0.666667000000000    0.333333000000000    0.832376000000000 
K          -0.000000000000000    0.294851000000000    0.043354000000000 
K          -0.000000000000000    0.705149000000000    0.043354000000000 
K           0.294851000000000   -0.000000000000000    0.043354000000000 
K           0.294851000000000    0.294851000000000    0.043354000000000 
K           0.705149000000000   -0.000000000000000    0.043354000000000 
K           0.705149000000000    0.705149000000000    0.043354000000000 
%ENDBLOCK POSITIONS_FRAC
