# Cell file generated by matador (Matthew Evans 2016)

%BLOCK LATTICE_CART
6.72813 0.0 0.0
-3.36406 5.82673 0.0
0.0 0.0 10.0413
%ENDBLOCK LATTICE_CART

%BLOCK POSITIONS_FRAC
P           0.333333000000000    0.666667000000000    0.852688000000000 
P           0.666666000000000    0.333334000000000    0.352688000000000 
K           0.008656000000000    0.190229000000000    0.695400000000000 
K           0.181573000000000    0.991344000000000    0.695400000000000 
K           0.190229000000000    0.008656000000000    0.195400000000000 
K           0.333333000000000    0.666667000000000    0.152484000000000 
K           0.666666000000000    0.333334000000000    0.652484000000000 
K           0.809771000000000    0.818427000000000    0.695400000000000 
K           0.818427000000000    0.809771000000000    0.195400000000000 
K           0.991344000000000    0.181573000000000    0.195400000000000 
%ENDBLOCK POSITIONS_FRAC
