# Cell file generated by matador (Matthew Evans 2016)

%BLOCK LATTICE_CART
5.99554 0.0 0.0
0.0 11.3325 0.0
0.0 0.0 8.51061
%ENDBLOCK LATTICE_CART

%BLOCK POSITIONS_FRAC
P           0.000000000000000    0.000000000000000    0.500000000000000 
P           0.000000000000000    0.500000000000000    0.000000000000000 
P           0.500000000000000    0.000000000000000    0.500000000000000 
P           0.500000000000000    0.500000000000000    0.000000000000000 
K           0.000000000000000    0.000000000000000    0.000000000000000 
K           0.000000000000000    0.500000000000000    0.500000000000000 
K           0.249814000000000    0.239559000000000    0.500000000000000 
K           0.249814000000000    0.760441000000000    0.500000000000000 
K           0.250186000000000    0.260441000000000    0.000000000000000 
K           0.250186000000000    0.739559000000000    0.000000000000000 
K           0.500000000000000    0.000000000000000    0.000000000000000 
K           0.500000000000000    0.500000000000000    0.500000000000000 
K           0.749814000000000    0.260441000000000    0.000000000000000 
K           0.749814000000000    0.739559000000000    0.000000000000000 
K           0.750186000000000    0.239559000000000    0.500000000000000 
K           0.750186000000000    0.760441000000000    0.500000000000000 
%ENDBLOCK POSITIONS_FRAC
