# Cell file generated by matador (Matthew Evans 2016)

%BLOCK LATTICE_CART
6.28892 0.0 0.0
-3.14446 5.44636 0.0
0.0 0.0 11.3478
%ENDBLOCK LATTICE_CART

%BLOCK POSITIONS_FRAC
P           0.000000000000000    0.000000000000000    0.000000000000000 
P           0.000000000000000    0.000000000000000    0.250000000000000 
P           0.000000000000000    0.000000000000000    0.500000000000000 
P           0.000000000000000    0.000000000000000    0.750000000000000 
P           0.333333000000000    0.666667000000000    0.750000000000000 
P           0.666667000000000    0.333333000000000    0.250000000000000 
K           0.007391000000000    0.356681000000000    0.250000000000000 
K           0.333333000000000    0.666667000000000    0.250000000000000 
K           0.349290000000000    0.992609000000000    0.250000000000000 
K           0.356681000000000    0.349290000000000    0.750000000000000 
K           0.643319000000000    0.650710000000000    0.250000000000000 
K           0.650710000000000    0.007391000000000    0.750000000000000 
K           0.666667000000000    0.333333000000000    0.750000000000000 
K           0.992609000000000    0.643319000000000    0.750000000000000 
%ENDBLOCK POSITIONS_FRAC
