# Cell file generated by matador (Matthew Evans 2016)

%BLOCK LATTICE_CART
7.3846 0.0 0.0
-3.6923 6.39525 0.0
0.0 0.0 16.4201
%ENDBLOCK LATTICE_CART

%BLOCK POSITIONS_FRAC
P           0.000000000000000    0.000000000000000    0.500000000000000 
P           0.333333000000000    0.666667000000000    0.278685000000000 
P           0.333333000000000    0.666667000000000    0.721315000000000 
P           0.666667000000000    0.333333000000000    0.278685000000000 
P           0.666667000000000    0.333333000000000    0.721315000000000 
K           0.000000000000000    0.500000000000000    0.000000000000000 
K           0.118105000000000    0.320763000000000    0.331927000000000 
K           0.118105000000000    0.797342000000000    0.668073000000000 
K           0.202658000000000    0.320763000000000    0.668073000000000 
K           0.202658000000000    0.881895000000000    0.331927000000000 
K           0.320763000000000    0.118105000000000    0.668073000000000 
K           0.320763000000000    0.202658000000000    0.331927000000000 
K           0.500000000000000    0.000000000000000    0.000000000000000 
K           0.500000000000000    0.500000000000000    0.000000000000000 
K           0.679237000000000    0.797342000000000    0.331927000000000 
K           0.679237000000000    0.881895000000000    0.668073000000000 
K           0.797342000000000    0.118105000000000    0.331927000000000 
K           0.797342000000000    0.679237000000000    0.668073000000000 
K           0.881895000000000    0.202658000000000    0.668073000000000 
K           0.881895000000000    0.679237000000000    0.331927000000000 
%ENDBLOCK POSITIONS_FRAC
