# Cell file generated by matador (Matthew Evans 2016)

%BLOCK LATTICE_CART
7.69007 0.0 0.0
0.0 7.69007 0.0
0.0 0.0 6.30642
%ENDBLOCK LATTICE_CART

%BLOCK POSITIONS_FRAC
P           0.000000000000000    0.177753000000000    0.956936000000000 
P           0.000000000000000    0.822247000000000    0.956936000000000 
P           0.177753000000000    0.000000000000000    0.043064000000000 
P           0.322247000000000    0.500000000000000    0.543064000000000 
P           0.500000000000000    0.322247000000000    0.456936000000000 
P           0.500000000000000    0.677753000000000    0.456936000000000 
P           0.677753000000000    0.500000000000000    0.543064000000000 
P           0.822247000000000    0.000000000000000    0.043064000000000 
K           0.000000000000000    0.000000000000000    0.500000000000000 
K           0.000000000000000    0.500000000000000    0.250000000000000 
K           0.000000000000000    0.500000000000000    0.750000000000000 
K           0.500000000000000    0.000000000000000    0.250000000000000 
K           0.500000000000000    0.000000000000000    0.750000000000000 
K           0.500000000000000    0.500000000000000    0.000000000000000 
%ENDBLOCK POSITIONS_FRAC
