# Cell file generated by matador (Matthew Evans 2016)

%BLOCK LATTICE_CART
7.6002 0.0 0.0
-3.8001 6.58196 0.0
0.0 0.0 9.73719
%ENDBLOCK LATTICE_CART

%BLOCK POSITIONS_FRAC
P          -0.000000000000000    0.000000000000000    0.470508000000000 
P           0.333333000000000    0.666667000000000    0.137174000000000 
P           0.666667000000000    0.333333000000000    0.803841000000000 
K           0.197778000000000    0.395556000000000    0.697286000000000 
K           0.197778000000000    0.802222000000000    0.697286000000000 
K           0.271111000000000    0.135556000000000    0.030620000000000 
K           0.531111000000000    0.062222000000000    0.363953000000000 
K           0.531111000000000    0.468889000000000    0.363953000000000 
K           0.604444000000000    0.802222000000000    0.697286000000000 
K           0.864444000000000    0.135556000000000    0.030620000000000 
K           0.864444000000000    0.728889000000000    0.030620000000000 
K           0.937778000000000    0.468889000000000    0.363953000000000 
%ENDBLOCK POSITIONS_FRAC
