# Cell file generated by matador (Matthew Evans 2016)

%BLOCK LATTICE_CART
6.6642 0.0 0.0
-3.3321 5.77136 0.0
0.0 0.0 8.92602
%ENDBLOCK LATTICE_CART

%BLOCK POSITIONS_FRAC
P           0.000000000000000    0.000000000000000    0.224064000000000 
P           0.000000000000000    0.000000000000000    0.500000000000000 
P           0.000000000000000    0.000000000000000    0.775936000000000 
P           0.156227000000000    0.312453000000000    0.500000000000000 
P           0.156227000000000    0.843773000000000    0.500000000000000 
P           0.687547000000000    0.843773000000000    0.500000000000000 
K           0.000000000000000    0.000000000000000    0.000000000000000 
K           0.333333000000000    0.666667000000000    0.000000000000000 
K           0.333333000000000    0.666667000000000    0.500000000000000 
K           0.666667000000000    0.333333000000000    0.000000000000000 
K           0.666667000000000    0.333333000000000    0.500000000000000 
%ENDBLOCK POSITIONS_FRAC
