# Cell file generated by matador (Matthew Evans 2016)

%BLOCK LATTICE_CART
6.53488 0.0 0.0
0.0 5.06811 0.0
0.234771 0.0 5.79421
%ENDBLOCK LATTICE_CART

%BLOCK POSITIONS_FRAC
P           0.200832000000000    0.500000000000000    0.649643000000000 
P           0.552322000000000    0.367491000000000    0.252517000000000 
P           0.552322000000000    0.632509000000000    0.252517000000000 
P           0.598241000000000    0.000000000000000    0.392002000000000 
P           0.682655000000000    0.396824000000000    0.055729000000000 
P           0.682655000000000    0.603176000000000    0.055729000000000 
P           0.732890000000000    0.000000000000000    0.631787000000000 
K           0.589305000000000    0.500000000000000    0.651604000000000 
%ENDBLOCK POSITIONS_FRAC
