# Cell file generated by matador (Matthew Evans 2016)

%BLOCK LATTICE_CART
6.1357 0.0 0.0
-3.06785 5.31367 0.0
0.0 0.0 10.2698
%ENDBLOCK LATTICE_CART

%BLOCK POSITIONS_FRAC
P           0.333333000000000    0.666667000000000    0.235331000000000 
P           0.388993000000000    0.058242000000000    0.118277000000000 
P           0.388993000000000    0.330751000000000    0.118277000000000 
P           0.666666000000000    0.333334000000000    0.638104000000000 
P           0.669249000000000    0.058242000000000    0.118277000000000 
P           0.669249000000000    0.611007000000000    0.118277000000000 
P           0.941758000000000    0.330751000000000    0.118277000000000 
P           0.941758000000000    0.611007000000000    0.118277000000000 
K           0.245539000000000    0.122770000000000    0.890434000000000 
K           0.365622000000000    0.182812000000000    0.297925000000000 
K           0.817188000000000    0.182812000000000    0.297925000000000 
K           0.817188000000000    0.634378000000000    0.297925000000000 
K           0.877230000000000    0.122770000000000    0.890434000000000 
K           0.877230000000000    0.754461000000000    0.890434000000000 
%ENDBLOCK POSITIONS_FRAC
