# Cell file generated by matador (Matthew Evans 2016)

%BLOCK LATTICE_CART
8.00123 0.0 0.0
-4.00061 6.92927 0.0
0.0 0.0 5.79662
%ENDBLOCK LATTICE_CART

%BLOCK POSITIONS_FRAC
P          -0.000000000000000    0.498220000000000    0.833333000000000 
P           0.498220000000000    0.000000000000000    0.166667000000000 
P           0.501780000000000    0.501780000000000    0.500000000000000 
K          -0.000000000000000    0.638775000000000    0.333333000000000 
K          -0.000000000000000    0.946271000000000    0.833333000000000 
K           0.053729000000000    0.053729000000000    0.500000000000000 
K           0.361225000000000    0.361225000000000   -0.000000000000000 
K           0.638775000000000    0.000000000000000    0.666667000000000 
K           0.946271000000000    0.000000000000000    0.166667000000000 
%ENDBLOCK POSITIONS_FRAC
