# Cell file generated by matador (Matthew Evans 2016)

%BLOCK LATTICE_CART
5.96255 0.0 0.0
0.0 7.76737 0.0
0.0 0.0 9.96321
%ENDBLOCK LATTICE_CART

%BLOCK POSITIONS_FRAC
P           0.000000000000000    0.000000000000000    0.500000000000000 
P           0.000000000000000    0.500000000000000    0.385415000000000 
P           0.000000000000000    0.500000000000000    0.500000000000000 
P           0.000000000000000    0.500000000000000    0.614585000000000 
P           0.164573000000000    0.000000000000000    0.500000000000000 
P           0.354033000000000    0.450139000000000    0.890777000000000 
P           0.354033000000000    0.549861000000000    0.109223000000000 
P           0.500000000000000    0.000000000000000    0.000000000000000 
P           0.500000000000000    0.500000000000000    0.500000000000000 
P           0.645967000000000    0.450139000000000    0.109223000000000 
P           0.645967000000000    0.549861000000000    0.890777000000000 
P           0.835427000000000    0.000000000000000    0.500000000000000 
K           0.000000000000000    0.000000000000000    0.000000000000000 
K           0.000000000000000    0.500000000000000    0.000000000000000 
K           0.500000000000000    0.000000000000000    0.500000000000000 
%ENDBLOCK POSITIONS_FRAC
