# Cell file generated by matador (Matthew Evans 2016)

%BLOCK LATTICE_CART
5.57906 0.0 0.0
-2.78953 4.83161 0.0
0.0 0.0 5.69027
%ENDBLOCK LATTICE_CART

%BLOCK POSITIONS_FRAC
P           0.666667000000000    0.333333000000000    0.117741000000000 
K           0.000000000000000   -0.000000000000000    0.939167000000000 
K           0.333334000000000    0.666666000000000    0.510234000000000 
K           0.666667000000000    0.333333000000000    0.481427000000000 
%ENDBLOCK POSITIONS_FRAC
