# Cell file generated by matador (Matthew Evans 2016)

%BLOCK LATTICE_CART
8.38015 0.0 0.0
0.0 8.38015 0.0
0.0 0.0 7.25805
%ENDBLOCK LATTICE_CART

%BLOCK POSITIONS_FRAC
P           0.500000000000000    0.500000000000000    0.250000000000000 
P           0.500000000000000    0.500000000000000    0.750000000000000 
K           0.000000000000000    0.000000000000000    0.000000000000000 
K           0.000000000000000    0.000000000000000    0.500000000000000 
K           0.061506000000000    0.352326000000000    0.000000000000000 
K           0.061506000000000    0.647674000000000    0.500000000000000 
K           0.352326000000000    0.061506000000000    0.000000000000000 
K           0.352326000000000    0.938494000000000    0.500000000000000 
K           0.358960000000000    0.358960000000000    0.000000000000000 
K           0.358960000000000    0.641040000000000    0.500000000000000 
K           0.641040000000000    0.358960000000000    0.500000000000000 
K           0.641040000000000    0.641040000000000    0.000000000000000 
K           0.647674000000000    0.061506000000000    0.500000000000000 
K           0.647674000000000    0.938494000000000    0.000000000000000 
K           0.938494000000000    0.352326000000000    0.500000000000000 
K           0.938494000000000    0.647674000000000    0.000000000000000 
%ENDBLOCK POSITIONS_FRAC
