# Cell file generated by matador (Matthew Evans 2016)

%BLOCK LATTICE_CART
7.01443 0.0 0.0
-3.50721 6.07467 0.0
0.0 0.0 8.13624
%ENDBLOCK LATTICE_CART

%BLOCK POSITIONS_FRAC
P           0.000000000000000    0.000000000000000    0.000000000000000 
P           0.000000000000000    0.000000000000000    0.500000000000000 
K           0.000000000000000    0.625538000000000    0.275201000000000 
K           0.000000000000000    0.625538000000000    0.724799000000000 
K           0.374462000000000    0.374462000000000    0.275201000000000 
K           0.374462000000000    0.374462000000000    0.724799000000000 
K           0.625538000000000    0.000000000000000    0.275201000000000 
K           0.625538000000000    0.000000000000000    0.724799000000000 
%ENDBLOCK POSITIONS_FRAC
