# Cell file generated by matador (Matthew Evans 2016)

%BLOCK LATTICE_CART
6.74435 0.0 0.0
-3.37217 5.84078 0.0
0.0 0.0 30.1714
%ENDBLOCK LATTICE_CART

%BLOCK POSITIONS_FRAC
P           0.000000000000000    0.000000000000000    0.339016000000000 
P           0.000000000000000    0.000000000000000    0.839016000000000 
P           0.333333000000000    0.666667000000000    0.496717000000000 
P           0.333333000000000    0.666667000000000    0.853965000000000 
P           0.333333000000000    0.666667000000000    0.981573000000000 
P           0.666667000000000    0.333333000000000    0.353965000000000 
P           0.666667000000000    0.333333000000000    0.481573000000000 
P           0.666667000000000    0.333333000000000    0.996717000000000 
K           0.160686000000000    0.321372000000000    0.370390000000000 
K           0.160686000000000    0.839314000000000    0.370390000000000 
K           0.165224000000000    0.330447000000000    0.603598000000000 
K           0.165224000000000    0.834776000000000    0.603598000000000 
K           0.173980000000000    0.347959000000000    0.008994000000000 
K           0.173980000000000    0.826020000000000    0.008994000000000 
K           0.175124000000000    0.350249000000000    0.775374000000000 
K           0.175124000000000    0.824876000000000    0.775374000000000 
K           0.321372000000000    0.160686000000000    0.870390000000000 
K           0.330447000000000    0.165224000000000    0.103598000000000 
K           0.347959000000000    0.173980000000000    0.508994000000000 
K           0.350249000000000    0.175124000000000    0.275374000000000 
K           0.649751000000000    0.824876000000000    0.775374000000000 
K           0.652041000000000    0.826020000000000    0.008994000000000 
K           0.669553000000000    0.834776000000000    0.603598000000000 
K           0.678628000000000    0.839314000000000    0.370390000000000 
K           0.824876000000000    0.175124000000000    0.275374000000000 
K           0.824876000000000    0.649751000000000    0.275374000000000 
K           0.826020000000000    0.173980000000000    0.508994000000000 
K           0.826020000000000    0.652041000000000    0.508994000000000 
K           0.834776000000000    0.165224000000000    0.103598000000000 
K           0.834776000000000    0.669553000000000    0.103598000000000 
K           0.839314000000000    0.160686000000000    0.870390000000000 
K           0.839314000000000    0.678628000000000    0.870390000000000 
%ENDBLOCK POSITIONS_FRAC
