# Cell file generated by matador (Matthew Evans 2016)

%BLOCK LATTICE_CART
6.80316 0.0 0.0
-3.40158 5.89171 0.0
0.0 0.0 6.85648
%ENDBLOCK LATTICE_CART

%BLOCK POSITIONS_FRAC
P           0.093235000000000    0.546617000000000    0.340364000000000 
P           0.300669000000000    0.150335000000000    0.674754000000000 
P           0.333333000000000    0.666667000000000    0.284588000000000 
P           0.453383000000000    0.546617000000000    0.340364000000000 
P           0.453383000000000    0.906765000000000    0.340364000000000 
P           0.666667000000000    0.333333000000000    0.024010000000000 
P           0.849665000000000    0.150335000000000    0.674754000000000 
P           0.849665000000000    0.699331000000000    0.674754000000000 
K           0.000000000000000    0.000000000000000    0.944604000000000 
K           0.666667000000000    0.333333000000000    0.366769000000000 
%ENDBLOCK POSITIONS_FRAC
