# Cell file generated by matador (Matthew Evans 2016)

%BLOCK LATTICE_CART
6.70121 0.0 0.0
0.0 6.70121 0.0
0.0 0.0 5.2189
%ENDBLOCK LATTICE_CART

%BLOCK POSITIONS_FRAC
P           0.000000000000000    0.500000000000000    0.500000000000000 
P           0.283098000000000    0.283098000000000    0.000000000000000 
P           0.283098000000000    0.716902000000000    0.000000000000000 
P           0.500000000000000    0.000000000000000    0.500000000000000 
P           0.500000000000000    0.500000000000000    0.500000000000000 
P           0.716902000000000    0.283098000000000    0.000000000000000 
P           0.716902000000000    0.716902000000000    0.000000000000000 
K           0.000000000000000    0.000000000000000    0.500000000000000 
K           0.000000000000000    0.500000000000000    0.000000000000000 
K           0.500000000000000    0.000000000000000    0.000000000000000 
K           0.500000000000000    0.500000000000000    0.000000000000000 
%ENDBLOCK POSITIONS_FRAC
