# Cell file generated by matador (Matthew Evans 2016)

%BLOCK LATTICE_CART
9.91219 0.0 0.0
-4.9561 8.58421 0.0
0.0 0.0 9.8009
%ENDBLOCK LATTICE_CART

%BLOCK POSITIONS_FRAC
P           0.000000000000000    0.000000000000000    0.382325000000000 
P           0.000000000000000    0.000000000000000    0.617675000000000 
P           0.017501000000000    0.687555000000000    0.000000000000000 
P           0.312445000000000    0.329946000000000    0.000000000000000 
P           0.670054000000000    0.982499000000000    0.000000000000000 
K           0.112813000000000    0.756291000000000    0.500000000000000 
K           0.223623000000000    0.472811000000000    0.000000000000000 
K           0.243709000000000    0.356522000000000    0.500000000000000 
K           0.249188000000000    0.776377000000000    0.000000000000000 
K           0.269843000000000    0.077813000000000    0.000000000000000 
K           0.462558000000000    0.086773000000000    0.500000000000000 
K           0.527189000000000    0.750812000000000    0.000000000000000 
K           0.539221000000000    0.403728000000000    0.000000000000000 
K           0.596272000000000    0.135494000000000    0.000000000000000 
K           0.624215000000000    0.537442000000000    0.500000000000000 
K           0.643478000000000    0.887187000000000    0.500000000000000 
K           0.807971000000000    0.730157000000000    0.000000000000000 
K           0.864506000000000    0.460779000000000    0.000000000000000 
K           0.913227000000000    0.375785000000000    0.500000000000000 
K           0.922187000000000    0.192029000000000    0.000000000000000 
%ENDBLOCK POSITIONS_FRAC
