# Cell file generated by matador (Matthew Evans 2016)

%BLOCK LATTICE_CART
9.07738 0.0 0.0
-4.53869 7.86124 0.0
0.0 0.0 7.07058
%ENDBLOCK LATTICE_CART

%BLOCK POSITIONS_FRAC
P           0.000000000000000    0.000000000000000    0.496923000000000 
P           0.333333000000000    0.666667000000000    0.163589000000000 
P           0.666667000000000    0.333333000000000    0.830256000000000 
K           0.003274000000000    0.501637000000000    0.315740000000000 
K           0.165030000000000    0.330060000000000    0.649073000000000 
K           0.165030000000000    0.834970000000000    0.649073000000000 
K           0.336607000000000    0.168303000000000    0.982406000000000 
K           0.498363000000000    0.501637000000000    0.315740000000000 
K           0.498363000000000    0.996726000000000    0.315740000000000 
K           0.669940000000000    0.834970000000000    0.649073000000000 
K           0.831697000000000    0.168303000000000    0.982406000000000 
K           0.831697000000000    0.663393000000000    0.982406000000000 
%ENDBLOCK POSITIONS_FRAC
