# Cell file generated by matador (Matthew Evans 2016)

%BLOCK LATTICE_CART
9.30023 0.0 0.0
-4.65011 8.05423 0.0
0.0 0.0 7.412
%ENDBLOCK LATTICE_CART

%BLOCK POSITIONS_FRAC
P           0.000000000000000    0.500000000000000    0.225061000000000 
P           0.000000000000000    0.500000000000000    0.384904000000000 
P           0.500000000000000   -0.000000000000000    0.225061000000000 
P           0.500000000000000   -0.000000000000000    0.384904000000000 
P           0.500000000000000    0.500000000000000    0.225061000000000 
P           0.500000000000000    0.500000000000000    0.384904000000000 
K           0.000000000000000   -0.000000000000000    0.408786000000000 
K           0.125183000000000    0.250366000000000    0.838648000000000 
K           0.125183000000000    0.874817000000000    0.838648000000000 
K           0.250366000000000    0.125183000000000    0.838648000000000 
K           0.333333000000000    0.666667000000000    0.438333000000000 
K           0.666667000000000    0.333333000000000    0.438333000000000 
K           0.749634000000000    0.874817000000000    0.838648000000000 
K           0.874817000000000    0.125183000000000    0.838648000000000 
K           0.874817000000000    0.749634000000000    0.838648000000000 
%ENDBLOCK POSITIONS_FRAC
