# Cell file generated by matador (Matthew Evans 2016)

%BLOCK LATTICE_CART
8.55195 0.0 0.0
0.0 7.82488 0.0
1.46771 0.0 9.51623
%ENDBLOCK LATTICE_CART

%BLOCK POSITIONS_FRAC
P           0.048673000000000    0.500000000000000    0.256194000000000 
P           0.445976000000000    0.500000000000000    0.512444000000000 
P           0.548673000000000    0.000000000000000    0.256194000000000 
P           0.945976000000000    0.000000000000000    0.512444000000000 
K           0.017439000000000    0.500000000000000    0.494609000000000 
K           0.123689000000000    0.000000000000000    0.131941000000000 
K           0.176007000000000    0.000000000000000    0.533938000000000 
K           0.341090000000000    0.500000000000000    0.347248000000000 
K           0.377065000000000    0.500000000000000    0.889795000000000 
K           0.394025000000000    0.000000000000000    0.834081000000000 
K           0.517439000000000    0.000000000000000    0.494609000000000 
K           0.623689000000000    0.500000000000000    0.131941000000000 
K           0.676007000000000    0.500000000000000    0.533938000000000 
K           0.841090000000000    0.000000000000000    0.347248000000000 
K           0.877065000000000    0.000000000000000    0.889795000000000 
K           0.894025000000000    0.500000000000000    0.834081000000000 
%ENDBLOCK POSITIONS_FRAC
