# Cell file generated by matador (Matthew Evans 2016)

%BLOCK LATTICE_CART
8.17184 0.0 0.0
0.0 7.8103 0.0
0.0 0.0 6.55769
%ENDBLOCK LATTICE_CART

%BLOCK POSITIONS_FRAC
P           0.000000000000000    0.500000000000000    0.491537000000000 
P           0.500000000000000    0.000000000000000    0.991537000000000 
K           0.000000000000000    0.000000000000000    0.944890000000000 
K           0.000000000000000    0.500000000000000    0.077259000000000 
K           0.212152000000000    0.763833000000000    0.361642000000000 
K           0.287848000000000    0.263833000000000    0.861642000000000 
K           0.500000000000000    0.000000000000000    0.577259000000000 
K           0.500000000000000    0.500000000000000    0.444890000000000 
K           0.712152000000000    0.736167000000000    0.861642000000000 
K           0.787848000000000    0.236167000000000    0.361642000000000 
%ENDBLOCK POSITIONS_FRAC
