# Cell file generated by matador (Matthew Evans 2016)

%BLOCK LATTICE_CART
8.75466 0.0 0.0
0.0 8.75466 0.0
0.0 0.0 7.94125
%ENDBLOCK LATTICE_CART

%BLOCK POSITIONS_FRAC
P           0.000000000000000    0.000000000000000    0.178076000000000 
P           0.000000000000000    0.000000000000000    0.321924000000000 
P           0.000000000000000    0.000000000000000    0.678076000000000 
P           0.000000000000000    0.000000000000000    0.821924000000000 
P           0.000000000000000    0.500000000000000    0.000000000000000 
P           0.000000000000000    0.500000000000000    0.500000000000000 
P           0.500000000000000    0.000000000000000    0.000000000000000 
P           0.500000000000000    0.000000000000000    0.500000000000000 
K           0.287516000000000    0.413534000000000    0.500000000000000 
K           0.287516000000000    0.586466000000000    0.000000000000000 
K           0.413534000000000    0.287516000000000    0.000000000000000 
K           0.413534000000000    0.712484000000000    0.500000000000000 
K           0.500000000000000    0.500000000000000    0.000000000000000 
K           0.500000000000000    0.500000000000000    0.250000000000000 
K           0.500000000000000    0.500000000000000    0.500000000000000 
K           0.500000000000000    0.500000000000000    0.750000000000000 
K           0.586466000000000    0.287516000000000    0.500000000000000 
K           0.586466000000000    0.712484000000000    0.000000000000000 
K           0.712484000000000    0.413534000000000    0.000000000000000 
K           0.712484000000000    0.586466000000000    0.500000000000000 
%ENDBLOCK POSITIONS_FRAC
