# Cell file generated by matador (Matthew Evans 2016)

%BLOCK LATTICE_CART
10.1892 0.0 0.0
0.0 7.11101 0.0
0.0 0.0 5.94739
%ENDBLOCK LATTICE_CART

%BLOCK POSITIONS_FRAC
P           0.065399000000000    0.633668000000000    0.560040000000000 
P           0.065399000000000    0.866332000000000    0.060040000000000 
P           0.434601000000000    0.133668000000000    0.560040000000000 
P           0.434601000000000    0.366332000000000    0.060040000000000 
P           0.565399000000000    0.633668000000000    0.939960000000000 
P           0.565399000000000    0.866332000000000    0.439960000000000 
P           0.934601000000000    0.133668000000000    0.939960000000000 
P           0.934601000000000    0.366332000000000    0.439960000000000 
K           0.000000000000000    0.000000000000000    0.500000000000000 
K           0.000000000000000    0.500000000000000   -0.000000000000000 
K           0.500000000000000    0.000000000000000   -0.000000000000000 
K           0.500000000000000    0.500000000000000    0.500000000000000 
%ENDBLOCK POSITIONS_FRAC
