# Cell file generated by matador (Matthew Evans 2016)

%BLOCK LATTICE_CART
7.29465 0.0 0.0
0.0 7.29465 0.0
0.0 0.0 9.69195
%ENDBLOCK LATTICE_CART

%BLOCK POSITIONS_FRAC
P          -0.000000000000000    0.000000000000000    0.206357000000000 
P          -0.000000000000000    0.000000000000000    0.793643000000000 
P           0.500000000000000    0.500000000000000    0.206357000000000 
P           0.500000000000000    0.500000000000000    0.793643000000000 
K          -0.000000000000000    0.000000000000000    0.000000000000000 
K          -0.000000000000000    0.000000000000000    0.500000000000000 
K          -0.000000000000000    0.500000000000000    0.182491000000000 
K          -0.000000000000000    0.500000000000000    0.500000000000000 
K          -0.000000000000000    0.500000000000000    0.817509000000000 
K           0.250000000000000    0.250000000000000    0.500000000000000 
K           0.250000000000000    0.750000000000000    0.500000000000000 
K           0.500000000000000    0.000000000000000    0.182491000000000 
K           0.500000000000000    0.000000000000000    0.500000000000000 
K           0.500000000000000    0.000000000000000    0.817509000000000 
K           0.500000000000000    0.500000000000000    0.000000000000000 
K           0.500000000000000    0.500000000000000    0.500000000000000 
K           0.750000000000000    0.250000000000000    0.500000000000000 
K           0.750000000000000    0.750000000000000    0.500000000000000 
%ENDBLOCK POSITIONS_FRAC
