# Cell file generated by matador (Matthew Evans 2016)

%BLOCK LATTICE_CART
7.35182 0.0 0.0
0.0 7.35182 0.0
0.0 0.0 6.87029
%ENDBLOCK LATTICE_CART

%BLOCK POSITIONS_FRAC
P           0.000000000000000    0.000000000000000    0.000000000000000 
P           0.000000000000000    0.000000000000000    0.500000000000000 
P           0.000000000000000    0.500000000000000    0.250000000000000 
P           0.132485000000000    0.223303000000000    0.174211000000000 
P           0.223303000000000    0.867515000000000    0.825789000000000 
P           0.276697000000000    0.367515000000000    0.325789000000000 
P           0.367515000000000    0.723303000000000    0.674211000000000 
P           0.500000000000000    0.000000000000000    0.750000000000000 
P           0.500000000000000    0.500000000000000    0.000000000000000 
P           0.500000000000000    0.500000000000000    0.500000000000000 
P           0.632485000000000    0.276697000000000    0.674211000000000 
P           0.723303000000000    0.632485000000000    0.325789000000000 
P           0.776697000000000    0.132485000000000    0.825789000000000 
P           0.867515000000000    0.776697000000000    0.174211000000000 
K           0.000000000000000    0.500000000000000    0.750000000000000 
K           0.500000000000000    0.000000000000000    0.250000000000000 
%ENDBLOCK POSITIONS_FRAC
