# Cell file generated by matador (Matthew Evans 2016)

%BLOCK LATTICE_CART
8.07815 0.0 0.0
0.0 8.49022 0.0
-1.58912 0.0 4.12091
%ENDBLOCK LATTICE_CART

%BLOCK POSITIONS_FRAC
P           0.431166000000000    0.367652000000000    0.506448000000000 
P           0.431166000000000    0.632348000000000    0.506448000000000 
K           0.206924000000000    0.500000000000000    0.655847000000000 
K           0.273235000000000    0.000000000000000    0.701024000000000 
K           0.468102000000000    0.500000000000000    0.169897000000000 
K           0.583129000000000    0.000000000000000    0.510368000000000 
K           0.832979000000000    0.500000000000000    0.627464000000000 
K           0.900075000000000    0.000000000000000    0.276075000000000 
%ENDBLOCK POSITIONS_FRAC
