# Cell file generated by matador (Matthew Evans 2016)

%BLOCK LATTICE_CART
8.30788 0.0 0.0
-4.15394 7.19483 0.0
0.0 0.0 9.85
%ENDBLOCK LATTICE_CART

%BLOCK POSITIONS_FRAC
P           0.000001000000000    0.000001000000000    0.000000000000000 
P           0.000001000000000    0.000001000000000    0.500000000000000 
P           0.101055000000000    0.456019000000000    0.750000000000000 
P           0.101055000000000    0.645038000000000    0.750000000000000 
P           0.354964000000000    0.456019000000000    0.750000000000000 
P           0.354964000000000    0.898947000000000    0.750000000000000 
P           0.456019000000000    0.101055000000000    0.250000000000000 
P           0.456019000000000    0.354964000000000    0.250000000000000 
P           0.543983000000000    0.645038000000000    0.750000000000000 
P           0.543983000000000    0.898947000000000    0.750000000000000 
P           0.645038000000000    0.101055000000000    0.250000000000000 
P           0.645038000000000    0.543983000000000    0.250000000000000 
P           0.898947000000000    0.354964000000000    0.250000000000000 
P           0.898947000000000    0.543983000000000    0.250000000000000 
K           0.333334000000000    0.666668000000000    0.250000000000000 
K           0.666668000000000    0.333334000000000    0.750000000000000 
%ENDBLOCK POSITIONS_FRAC
