# Cell file generated by matador (Matthew Evans 2016)

%BLOCK LATTICE_CART
5.30073 0.0 0.0
-2.65036 4.59056 0.0
0.0 0.0 12.7828
%ENDBLOCK LATTICE_CART

%BLOCK POSITIONS_FRAC
P           0.000000000000000    0.000000000000000    0.156460000000000 
P           0.000000000000000    0.000000000000000    0.843540000000000 
P           0.061113000000000    0.557360000000000    0.358212000000000 
P           0.333333000000000    0.666667000000000    0.120727000000000 
P           0.442640000000000    0.503753000000000    0.358212000000000 
P           0.496247000000000    0.938887000000000    0.358212000000000 
P           0.503753000000000    0.442640000000000    0.641788000000000 
P           0.557360000000000    0.061113000000000    0.641788000000000 
P           0.666667000000000    0.333333000000000    0.879273000000000 
P           0.938887000000000    0.496247000000000    0.641788000000000 
K           0.000000000000000    0.000000000000000    0.000000000000000 
K           0.000000000000000    0.000000000000000    0.500000000000000 
K           0.333333000000000    0.666667000000000    0.512783000000000 
K           0.666667000000000    0.333333000000000    0.487217000000000 
%ENDBLOCK POSITIONS_FRAC
