# Cell file generated by matador (Matthew Evans 2016)

%BLOCK LATTICE_CART
7.64089 0.0 0.0
-3.82044 6.6172 0.0
0.0 0.0 10.9121
%ENDBLOCK LATTICE_CART

%BLOCK POSITIONS_FRAC
P           0.182212000000000    0.364423000000000    0.000000000000000 
P           0.182212000000000    0.364423000000000    0.500000000000000 
P           0.182212000000000    0.817788000000000    0.000000000000000 
P           0.182212000000000    0.817788000000000    0.500000000000000 
P           0.333333000000000    0.666667000000000    0.250000000000000 
P           0.333333000000000    0.666667000000000    0.750000000000000 
P           0.635577000000000    0.817788000000000    0.000000000000000 
P           0.635577000000000    0.817788000000000    0.500000000000000 
P           0.666667000000000    0.333333000000000    0.000000000000000 
P           0.666667000000000    0.333333000000000    0.500000000000000 
K           0.000000000000000    0.000000000000000    0.000000000000000 
K           0.000000000000000    0.000000000000000    0.250000000000000 
K           0.000000000000000    0.000000000000000    0.500000000000000 
K           0.000000000000000    0.000000000000000    0.750000000000000 
K           0.333333000000000    0.666667000000000    0.000000000000000 
K           0.333333000000000    0.666667000000000    0.500000000000000 
K           0.666667000000000    0.333333000000000    0.250000000000000 
K           0.666667000000000    0.333333000000000    0.750000000000000 
%ENDBLOCK POSITIONS_FRAC
