# Cell file generated by matador (Matthew Evans 2016)

%BLOCK LATTICE_CART
8.35591 0.0 0.0
-4.17796 7.23643 0.0
0.0 0.0 8.6399
%ENDBLOCK LATTICE_CART

%BLOCK POSITIONS_FRAC
P          -0.000000000000000   -0.000000000000000    0.517591000000000 
P           0.333333000000000    0.666667000000000    0.184258000000000 
P           0.666667000000000    0.333333000000000    0.850925000000000 
K           0.019213000000000    0.509607000000000    0.765884000000000 
K           0.157060000000000    0.314120000000000    0.099217000000000 
K           0.157060000000000    0.842940000000000    0.099217000000000 
K           0.352547000000000    0.176273000000000    0.432550000000000 
K           0.490393000000000    0.509607000000000    0.765884000000000 
K           0.490393000000000    0.980787000000000    0.765884000000000 
K           0.685880000000000    0.842940000000000    0.099217000000000 
K           0.823727000000000    0.176273000000000    0.432550000000000 
K           0.823727000000000    0.647453000000000    0.432550000000000 
%ENDBLOCK POSITIONS_FRAC
