# Cell file generated by matador (Matthew Evans 2016)

%BLOCK LATTICE_CART
6.40564 -0.0 0.0
-3.20282 5.54744 0.0
0.0 0.0 7.95529
%ENDBLOCK LATTICE_CART

%BLOCK POSITIONS_FRAC
P           0.000000000000000    0.000000000000000    0.000000000000000 
P           0.000000000000000    0.000000000000000    0.500000000000000 
K           0.171350000000000    0.800823000000000    0.500000000000000 
K           0.199177000000000    0.370527000000000    0.500000000000000 
K           0.333333000000000    0.666667000000000    0.000000000000000 
K           0.629473000000000    0.828650000000000    0.500000000000000 
K           0.666667000000000    0.333333000000000    0.000000000000000 
K           0.666667000000000    0.333333000000000    0.500000000000000 
%ENDBLOCK POSITIONS_FRAC
