# Cell file generated by matador (Matthew Evans 2016)

%BLOCK LATTICE_CART
5.43037 0.0 0.0
-2.71518 4.70284 0.0
0.0 0.0 11.7748
%ENDBLOCK LATTICE_CART

%BLOCK POSITIONS_FRAC
P           0.999999000000000    0.999999000000000    0.075623000000000 
P           0.999999000000000    0.999999000000000    0.493578000000000 
P           0.999999000000000    0.499999000000000    0.732307000000000 
P           0.333332000000000    0.666666000000000    0.501707000000000 
P           0.499999000000000    0.999999000000000    0.732307000000000 
P           0.499999000000000    0.499999000000000    0.732307000000000 
P           0.666666000000000    0.333332000000000    0.501707000000000 
K           0.333332000000000    0.666666000000000    0.010617000000000 
K           0.333332000000000    0.666666000000000    0.189829000000000 
K           0.666666000000000    0.333332000000000    0.010617000000000 
K           0.666666000000000    0.333332000000000    0.189829000000000 
%ENDBLOCK POSITIONS_FRAC
