# Cell file generated by matador (Matthew Evans 2016)

%BLOCK LATTICE_CART
7.96594 0.0 0.0
0.0 7.96594 0.0
0.0 0.0 4.98974
%ENDBLOCK LATTICE_CART

%BLOCK POSITIONS_FRAC
P           0.061321000000000    0.438679000000000    0.750000000000000 
P           0.061321000000000    0.561321000000000    0.250000000000000 
P           0.438679000000000    0.061321000000000    0.750000000000000 
P           0.438679000000000    0.938679000000000    0.250000000000000 
P           0.561321000000000    0.061321000000000    0.250000000000000 
P           0.561321000000000    0.938679000000000    0.750000000000000 
P           0.938679000000000    0.438679000000000    0.250000000000000 
P           0.938679000000000    0.561321000000000    0.750000000000000 
K           0.000000000000000    0.000000000000000    0.000000000000000 
K           0.000000000000000    0.000000000000000    0.500000000000000 
K           0.500000000000000    0.500000000000000    0.000000000000000 
K           0.500000000000000    0.500000000000000    0.500000000000000 
%ENDBLOCK POSITIONS_FRAC
