# Cell file generated by matador (Matthew Evans 2016)

%BLOCK LATTICE_CART
9.25208 0.0 0.0
-4.62604 8.01253 0.0
0.0 0.0 13.8518
%ENDBLOCK LATTICE_CART

%BLOCK POSITIONS_FRAC
P           0.126167000000000    0.398152000000000    0.110691000000000 
P           0.271985000000000    0.873833000000000    0.110691000000000 
P           0.398152000000000    0.126167000000000    0.110691000000000 
P           0.601848000000000    0.728015000000000    0.110691000000000 
P           0.728015000000000    0.601848000000000    0.110691000000000 
P           0.873833000000000    0.271985000000000    0.110691000000000 
K           0.000000000000000   -0.000000000000000    0.241802000000000 
K           0.000000000000000    0.202676000000000    0.938308000000000 
K           0.000000000000000    0.450793000000000    0.638399000000000 
K           0.000000000000000    0.607706000000000    0.916619000000000 
K           0.000000000000000    0.716021000000000    0.399260000000000 
K           0.000000000000000    0.796224000000000    0.645672000000000 
K           0.202676000000000   -0.000000000000000    0.938308000000000 
K           0.203776000000000    0.203776000000000    0.645672000000000 
K           0.283979000000000    0.283979000000000    0.399260000000000 
K           0.333333000000000    0.666667000000000    0.791196000000000 
K           0.392294000000000    0.392294000000000    0.916619000000000 
K           0.450793000000000   -0.000000000000000    0.638399000000000 
K           0.549207000000000    0.549207000000000    0.638399000000000 
K           0.607706000000000   -0.000000000000000    0.916619000000000 
K           0.666667000000000    0.333333000000000    0.791196000000000 
K           0.716021000000000   -0.000000000000000    0.399260000000000 
K           0.796224000000000   -0.000000000000000    0.645672000000000 
K           0.797324000000000    0.797324000000000    0.938308000000000 
%ENDBLOCK POSITIONS_FRAC
