# Cell file generated by matador (Matthew Evans 2016)

%BLOCK LATTICE_CART
9.45161 0.0 0.0
-4.7258 8.18533 0.0
0.0 0.0 9.30427
%ENDBLOCK LATTICE_CART

%BLOCK POSITIONS_FRAC
P           0.000000000000000    0.000000000000000    0.135321000000000 
P           0.000000000000000    0.000000000000000    0.436162000000000 
P           0.506021000000000    0.012043000000000    0.561224000000000 
P           0.506021000000000    0.493979000000000    0.561224000000000 
P           0.987957000000000    0.493979000000000    0.561224000000000 
K           0.116701000000000    0.558351000000000    0.880422000000000 
K           0.137719000000000    0.275439000000000    0.072008000000000 
K           0.137719000000000    0.862281000000000    0.072008000000000 
K           0.208463000000000    0.416927000000000    0.401763000000000 
K           0.208463000000000    0.791537000000000    0.401763000000000 
K           0.441649000000000    0.558351000000000    0.880422000000000 
K           0.441649000000000    0.883299000000000    0.880422000000000 
K           0.451163000000000    0.225581000000000    0.817757000000000 
K           0.451756000000000    0.225878000000000    0.335960000000000 
K           0.583073000000000    0.791537000000000    0.401763000000000 
K           0.724561000000000    0.862281000000000    0.072008000000000 
K           0.774122000000000    0.225878000000000    0.335960000000000 
K           0.774122000000000    0.548244000000000    0.335960000000000 
K           0.774419000000000    0.225581000000000    0.817757000000000 
K           0.774419000000000    0.548837000000000    0.817757000000000 
%ENDBLOCK POSITIONS_FRAC
