# Cell file generated by matador (Matthew Evans 2016)

%BLOCK LATTICE_CART
4.98579 0.0 0.0
0.0 6.46781 0.0
0.0 0.0 4.42147
%ENDBLOCK LATTICE_CART

%BLOCK POSITIONS_FRAC
P           0.000000000000000    0.500000000000000    0.521067000000000 
P           0.500000000000000    0.000000000000000    0.021067000000000 
K           0.000000000000000    0.000000000000000    0.218907000000000 
K           0.500000000000000    0.500000000000000    0.718907000000000 
%ENDBLOCK POSITIONS_FRAC
