# Cell file generated by matador (Matthew Evans 2016)

%BLOCK LATTICE_CART
7.2303 0.0 0.0
-3.61515 6.26162 0.0
0.0 0.0 7.59636
%ENDBLOCK LATTICE_CART

%BLOCK POSITIONS_FRAC
P           0.000000000000000    0.000000000000000    0.500000000000000 
P           0.333333000000000    0.666667000000000    0.000000000000000 
P           0.333333000000000    0.666667000000000    0.131643000000000 
P           0.333333000000000    0.666667000000000    0.868357000000000 
P           0.666667000000000    0.333333000000000    0.000000000000000 
P           0.666667000000000    0.333333000000000    0.131643000000000 
P           0.666667000000000    0.333333000000000    0.868357000000000 
K           0.000000000000000    0.000000000000000    0.000000000000000 
K           0.000000000000000    0.500000000000000    0.000000000000000 
K           0.500000000000000    0.000000000000000    0.000000000000000 
K           0.500000000000000    0.500000000000000    0.000000000000000 
%ENDBLOCK POSITIONS_FRAC
