# Cell file generated by matador (Matthew Evans 2016)

%BLOCK LATTICE_CART
7.16181 0.0 0.0
-3.58091 6.20231 0.0
0.0 0.0 7.1861
%ENDBLOCK LATTICE_CART

%BLOCK POSITIONS_FRAC
P           0.000000000000000    0.000000000000000    0.500000000000000 
P           0.333333000000000    0.666667000000000    0.000000000000000 
P           0.333333000000000    0.666667000000000    0.500000000000000 
P           0.666667000000000    0.333333000000000    0.000000000000000 
P           0.666667000000000    0.333333000000000    0.500000000000000 
K           0.000000000000000    0.000000000000000    0.000000000000000 
K           0.163063000000000    0.332598000000000    0.000000000000000 
K           0.169535000000000    0.836937000000000    0.000000000000000 
K           0.332598000000000    0.163063000000000    0.000000000000000 
K           0.667402000000000    0.830465000000000    0.000000000000000 
K           0.830465000000000    0.667402000000000    0.000000000000000 
K           0.836937000000000    0.169535000000000    0.000000000000000 
%ENDBLOCK POSITIONS_FRAC
