# Cell file generated by matador (Matthew Evans 2016)

%BLOCK LATTICE_CART
6.82501 0.0 0.0
0.0 6.82501 0.0
0.0 0.0 9.57077
%ENDBLOCK LATTICE_CART

%BLOCK POSITIONS_FRAC
P           0.000000000000000    0.500000000000000    0.750000000000000 
P           0.500000000000000   -0.000000000000000    0.250000000000000 
K           0.000000000000000   -0.000000000000000    0.500000000000000 
K           0.000000000000000    0.300853000000000    0.003928000000000 
K           0.000000000000000    0.500000000000000    0.250000000000000 
K           0.000000000000000    0.699147000000000    0.003928000000000 
K           0.199147000000000    0.500000000000000    0.496072000000000 
K           0.300853000000000   -0.000000000000000    0.996072000000000 
K           0.500000000000000   -0.000000000000000    0.750000000000000 
K           0.500000000000000    0.199147000000000    0.503928000000000 
K           0.500000000000000    0.500000000000000   -0.000000000000000 
K           0.500000000000000    0.800853000000000    0.503928000000000 
K           0.699147000000000   -0.000000000000000    0.996072000000000 
K           0.800853000000000    0.500000000000000    0.496072000000000 
%ENDBLOCK POSITIONS_FRAC
