# Cell file generated by matador (Matthew Evans 2016)

%BLOCK LATTICE_CART
8.08621 0.0 0.0
-4.0431 7.00286 0.0
0.0 0.0 5.37108
%ENDBLOCK LATTICE_CART

%BLOCK POSITIONS_FRAC
P           0.000000000000000    0.237229000000000    0.125339000000000 
P           0.000000000000000    0.566028000000000    0.363109000000000 
P           0.237229000000000   -0.000000000000000    0.125339000000000 
P           0.433972000000000    0.433972000000000    0.363109000000000 
P           0.566028000000000   -0.000000000000000    0.363109000000000 
P           0.762771000000000    0.762771000000000    0.125339000000000 
K           0.000000000000000    0.170809000000000    0.613068000000000 
K           0.170809000000000   -0.000000000000000    0.613068000000000 
K           0.333333000000000    0.666667000000000    0.191281000000000 
K           0.666667000000000    0.333333000000000    0.191281000000000 
K           0.829191000000000    0.829191000000000    0.613068000000000 
%ENDBLOCK POSITIONS_FRAC
