# Cell file generated by matador (Matthew Evans 2016)

%BLOCK LATTICE_CART
8.24827 0.0 0.0
0.0 5.42876 0.0
2.39083 0.0 5.17912
%ENDBLOCK LATTICE_CART

%BLOCK POSITIONS_FRAC
P           0.017231000000000    0.101088000000000    0.315558000000000 
P           0.017231000000000    0.898912000000000    0.315558000000000 
P           0.195904000000000    0.000000000000000    0.718894000000000 
P           0.386243000000000    0.097962000000000    0.039827000000000 
P           0.386243000000000    0.902038000000000    0.039827000000000 
P           0.973957000000000    0.340102000000000    0.931334000000000 
P           0.973957000000000    0.659898000000000    0.931334000000000 
K           0.503522000000000    0.000000000000000    0.463793000000000 
K           0.729414000000000    0.000000000000000    0.655784000000000 
%ENDBLOCK POSITIONS_FRAC
