# Cell file generated by matador (Matthew Evans 2016)

%BLOCK LATTICE_CART
7.24769 0.0 0.0
-3.62384 6.27668 0.0
0.0 0.0 5.41158
%ENDBLOCK LATTICE_CART

%BLOCK POSITIONS_FRAC
P           0.000000000000000    0.000000000000000    0.500000000000000 
P           0.528102000000000    0.181443000000000    0.656360000000000 
P           0.528102000000000    0.346659000000000    0.343640000000000 
P           0.653341000000000    0.181443000000000    0.343640000000000 
P           0.653341000000000    0.471898000000000    0.656360000000000 
P           0.818557000000000    0.346659000000000    0.656360000000000 
P           0.818557000000000    0.471898000000000    0.343640000000000 
K           0.000000000000000    0.000000000000000    0.000000000000000 
K           0.333333000000000    0.666667000000000    0.000000000000000 
K           0.333333000000000    0.666667000000000    0.500000000000000 
K           0.666667000000000    0.333333000000000    0.000000000000000 
%ENDBLOCK POSITIONS_FRAC
