# Cell file generated by matador (Matthew Evans 2016)

%BLOCK LATTICE_CART
8.35346 0.0 0.0
0.0 5.55085 0.0
0.0 0.0 6.72372
%ENDBLOCK LATTICE_CART

%BLOCK POSITIONS_FRAC
P           0.000000000000000    0.747567000000000    0.551748000000000 
P           0.500000000000000    0.252433000000000    0.051747000000000 
K           0.000000000000000    0.226043000000000    0.945979000000000 
K           0.000000000000000    0.341169000000000    0.520595000000000 
K           0.000000000000000    0.895548000000000    0.282172000000000 
K           0.500000000000000    0.104452000000000    0.782172000000000 
K           0.500000000000000    0.658831000000000    0.020595000000000 
K           0.500000000000000    0.773957000000000    0.445979000000000 
%ENDBLOCK POSITIONS_FRAC
