# Cell file generated by matador (Matthew Evans 2016)

%BLOCK LATTICE_CART
8.89636 0.0 0.0
0.0 6.20571 0.0
0.0 0.0 8.12592
%ENDBLOCK LATTICE_CART

%BLOCK POSITIONS_FRAC
P           0.000000000000000    0.123193000000000    0.554642000000000 
P           0.000000000000000    0.259916000000000    0.859598000000000 
P           0.000000000000000    0.740083000000000    0.359598000000000 
P           0.000000000000000    0.876807000000000    0.054642000000000 
P           0.104108000000000    0.404268000000000    0.583436000000000 
P           0.104108000000000    0.595732000000000    0.083436000000000 
P           0.178578000000000    0.065309000000000    0.980237000000000 
P           0.178578000000000    0.934691000000000    0.480237000000000 
P           0.500000000000000    0.208368000000000    0.933390000000000 
P           0.500000000000000    0.211502000000000    0.056582000000000 
P           0.500000000000000    0.788498000000000    0.556582000000000 
P           0.500000000000000    0.791632000000000    0.433390000000000 
P           0.821422000000000    0.065309000000000    0.980237000000000 
P           0.821422000000000    0.934691000000000    0.480237000000000 
P           0.895892000000000    0.404268000000000    0.583436000000000 
P           0.895892000000000    0.595732000000000    0.083436000000000 
K           0.000000000000000    0.091319000000000    0.273041000000000 
K           0.000000000000000    0.416679000000000    0.319217000000000 
K           0.000000000000000    0.583321000000000    0.819217000000000 
K           0.000000000000000    0.908680000000000    0.773041000000000 
%ENDBLOCK POSITIONS_FRAC
