# Cell file generated by matador (Matthew Evans 2016)

%BLOCK LATTICE_CART
7.50229 0.0 0.0
0.0 7.50229 0.0
0.0 0.0 12.0252
%ENDBLOCK LATTICE_CART

%BLOCK POSITIONS_FRAC
P           0.000000000000000    0.000000000000000    0.000000000000000 
P           0.000000000000000    0.000000000000000    0.500000000000000 
P           0.500000000000000    0.500000000000000    0.000000000000000 
P           0.500000000000000    0.500000000000000    0.500000000000000 
K           0.144051000000000    0.355949000000000    0.277285000000000 
K           0.144051000000000    0.644051000000000    0.722715000000000 
K           0.250000000000000    0.250000000000000    0.500000000000000 
K           0.250000000000000    0.750000000000000    0.500000000000000 
K           0.355949000000000    0.144051000000000    0.722715000000000 
K           0.355949000000000    0.855949000000000    0.277285000000000 
K           0.644051000000000    0.144051000000000    0.277285000000000 
K           0.644051000000000    0.855949000000000    0.722715000000000 
K           0.750000000000000    0.250000000000000    0.500000000000000 
K           0.750000000000000    0.750000000000000    0.500000000000000 
K           0.855949000000000    0.355949000000000    0.722715000000000 
K           0.855949000000000    0.644051000000000    0.277285000000000 
%ENDBLOCK POSITIONS_FRAC
