# Cell file generated by matador (Matthew Evans 2016)

%BLOCK LATTICE_CART
10.3663 -0.0 0.0
-5.18317 8.97751 0.0
0.0 0.0 5.04384
%ENDBLOCK LATTICE_CART

%BLOCK POSITIONS_FRAC
P           0.289394000000000    0.580495000000000    0.705899000000000 
P           0.291101000000000    0.710606000000000    0.705899000000000 
P           0.419505000000000    0.708899000000000    0.705899000000000 
P           0.580495000000000    0.291101000000000    0.705899000000000 
P           0.708899000000000    0.289394000000000    0.705899000000000 
P           0.710606000000000    0.419505000000000    0.705899000000000 
K           0.054388000000000    0.684891000000000    0.997326000000000 
K           0.315109000000000    0.369497000000000    0.997326000000000 
K           0.333333000000000    0.666667000000000    0.312086000000000 
K           0.369497000000000    0.054388000000000    0.997326000000000 
K           0.630503000000000    0.945612000000000    0.997326000000000 
K           0.666667000000000    0.333333000000000    0.312086000000000 
K           0.684891000000000    0.630503000000000    0.997326000000000 
K           0.945612000000000    0.315109000000000    0.997326000000000 
%ENDBLOCK POSITIONS_FRAC
