# Cell file generated by matador (Matthew Evans 2016)

%BLOCK LATTICE_CART
10.2301 0.0 0.0
0.0 4.70355 0.0
0.0 0.0 7.18278
%ENDBLOCK LATTICE_CART

%BLOCK POSITIONS_FRAC
P           0.048486000000000    0.648843000000000    0.796439000000000 
P           0.048486000000000    0.851157000000000    0.703561000000000 
P           0.451514000000000    0.148843000000000    0.703561000000000 
P           0.451514000000000    0.351157000000000    0.796439000000000 
P           0.548486000000000    0.648843000000000    0.203561000000000 
P           0.548486000000000    0.851157000000000    0.296439000000000 
P           0.951514000000000    0.148843000000000    0.296439000000000 
P           0.951514000000000    0.351157000000000    0.203561000000000 
K           0.159238000000000    0.250000000000000    0.250000000000000 
K           0.340762000000000    0.750000000000000    0.250000000000000 
K           0.659238000000000    0.250000000000000    0.750000000000000 
K           0.840762000000000    0.750000000000000    0.750000000000000 
%ENDBLOCK POSITIONS_FRAC
