# Cell file generated by matador (Matthew Evans 2016)

%BLOCK LATTICE_CART
6.98324 0.0 0.0
-3.49162 6.04767 0.0
0.0 0.0 9.33742
%ENDBLOCK LATTICE_CART

%BLOCK POSITIONS_FRAC
P           0.000000000000000    0.000000000000000    0.000000000000000 
P           0.000000000000000    0.000000000000000    0.394043000000000 
P           0.000000000000000    0.000000000000000    0.500000000000000 
P           0.000000000000000    0.000000000000000    0.605957000000000 
P           0.000000000000000    0.607698000000000    0.500000000000000 
P           0.392302000000000    0.392302000000000    0.500000000000000 
P           0.607698000000000    0.000000000000000    0.500000000000000 
K           0.000000000000000    0.369391000000000    0.383521000000000 
K           0.000000000000000    0.369391000000000    0.616479000000000 
K           0.369391000000000    0.000000000000000    0.383521000000000 
K           0.369391000000000    0.000000000000000    0.616479000000000 
K           0.630609000000000    0.630609000000000    0.383521000000000 
K           0.630609000000000    0.630609000000000    0.616479000000000 
%ENDBLOCK POSITIONS_FRAC
