# Cell file generated by matador (Matthew Evans 2016)

%BLOCK LATTICE_CART
4.36011 0.0 0.0
-2.18005 3.77596 0.0
0.0 0.0 8.96821
%ENDBLOCK LATTICE_CART

%BLOCK POSITIONS_FRAC
P          -0.000000000000000    0.000000000000000    0.323509000000000 
P          -0.000000000000000    0.000000000000000    0.590068000000000 
P          -0.000000000000000    0.000000000000000    0.881555000000000 
P           0.333333000000000    0.666667000000000    0.159688000000000 
P           0.666666000000000    0.333334000000000    0.951285000000000 
K           0.333333000000000    0.666667000000000    0.407135000000000 
K           0.666666000000000    0.333334000000000    0.218682000000000 
%ENDBLOCK POSITIONS_FRAC
