# Cell file generated by matador (Matthew Evans 2016)

%BLOCK LATTICE_CART
6.72661 0.0 0.0
0.0 6.72661 0.0
0.0 0.0 8.57292
%ENDBLOCK LATTICE_CART

%BLOCK POSITIONS_FRAC
P           0.000000000000000    0.000000000000000    0.000000000000000 
P           0.088330000000000    0.285600000000000    0.500000000000000 
P           0.285600000000000    0.911670000000000    0.500000000000000 
P           0.337260000000000    0.431662000000000    0.341199000000000 
P           0.337260000000000    0.431662000000000    0.658801000000000 
P           0.431662000000000    0.662740000000000    0.341199000000000 
P           0.431662000000000    0.662740000000000    0.658801000000000 
P           0.500000000000000    0.500000000000000    0.000000000000000 
P           0.568338000000000    0.337260000000000    0.341199000000000 
P           0.568338000000000    0.337260000000000    0.658801000000000 
P           0.662740000000000    0.568338000000000    0.341199000000000 
P           0.662740000000000    0.568338000000000    0.658801000000000 
P           0.714400000000000    0.088330000000000    0.500000000000000 
P           0.911670000000000    0.714400000000000    0.500000000000000 
K           0.210129000000000    0.597947000000000    0.000000000000000 
K           0.402053000000000    0.210129000000000    0.000000000000000 
K           0.597947000000000    0.789871000000000    0.000000000000000 
K           0.789871000000000    0.402053000000000    0.000000000000000 
%ENDBLOCK POSITIONS_FRAC
