# Cell file generated by matador (Matthew Evans 2016)

%BLOCK LATTICE_CART
5.05541 0.0 0.0
-2.52771 4.37812 0.0
0.0 0.0 6.10642
%ENDBLOCK LATTICE_CART

%BLOCK POSITIONS_FRAC
P           0.000000000000000    0.000000000000000    0.000000000000000 
P           0.188182000000000    0.771918000000000    0.649826000000000 
P           0.228082000000000    0.416264000000000    0.649826000000000 
P           0.416264000000000    0.228082000000000    0.350174000000000 
P           0.583736000000000    0.811818000000000    0.649826000000000 
P           0.771918000000000    0.188182000000000    0.350174000000000 
P           0.811818000000000    0.583736000000000    0.350174000000000 
K           0.000000000000000    0.000000000000000    0.500000000000000 
%ENDBLOCK POSITIONS_FRAC
