# Cell file generated by matador (Matthew Evans 2016)

%BLOCK LATTICE_CART
8.83388 0.0 0.0
-4.41694 7.65036 0.0
0.0 0.0 7.49422
%ENDBLOCK LATTICE_CART

%BLOCK POSITIONS_FRAC
P           0.000000000000000    0.000000000000000    0.871469000000000 
P           0.000000000000000    0.500945000000000    0.449657000000000 
P           0.333333000000000    0.666667000000000    0.234314000000000 
P           0.499055000000000    0.499055000000000    0.449657000000000 
P           0.500945000000000    0.000000000000000    0.449657000000000 
P           0.666667000000000    0.333333000000000    0.234314000000000 
K           0.000000000000000    0.000000000000000    0.359778000000000 
K           0.000000000000000    0.203360000000000    0.594514000000000 
K           0.000000000000000    0.716077000000000    0.002739000000000 
K           0.203360000000000    0.000000000000000    0.594514000000000 
K           0.283923000000000    0.283923000000000    0.002739000000000 
K           0.716077000000000    0.000000000000000    0.002739000000000 
K           0.796640000000000    0.796640000000000    0.594514000000000 
%ENDBLOCK POSITIONS_FRAC
