# Cell file generated by matador (Matthew Evans 2016)

%BLOCK LATTICE_CART
5.65533 0.0 0.0
0.0 5.65533 0.0
0.0 0.0 4.54071
%ENDBLOCK LATTICE_CART

%BLOCK POSITIONS_FRAC
P           0.000000000000000    0.000000000000000    0.438174000000000 
P           0.000000000000000    0.000000000000000    0.762923000000000 
P           0.500000000000000    0.500000000000000    0.927399000000000 
K           0.000000000000000    0.500000000000000    0.297439000000000 
K           0.500000000000000    0.000000000000000    0.297439000000000 
%ENDBLOCK POSITIONS_FRAC
