# Cell file generated by matador (Matthew Evans 2016)

%BLOCK LATTICE_CART
6.92251 0.0 0.0
-3.46125 5.99507 0.0
0.0 0.0 13.2883
%ENDBLOCK LATTICE_CART

%BLOCK POSITIONS_FRAC
P           0.000000000000000    0.000000000000000    0.000000000000000 
P           0.000000000000000    0.000000000000000    0.500000000000000 
P           0.000000000000000    0.219384000000000    0.000000000000000 
P           0.000000000000000    0.780616000000000    0.000000000000000 
P           0.219384000000000    0.000000000000000    0.000000000000000 
P           0.219384000000000    0.219384000000000    0.000000000000000 
P           0.780616000000000    0.000000000000000    0.000000000000000 
P           0.780616000000000    0.780616000000000    0.000000000000000 
K           0.000000000000000    0.000000000000000    0.157082000000000 
K           0.000000000000000    0.000000000000000    0.842918000000000 
K           0.000000000000000    0.500000000000000    0.000000000000000 
K           0.000000000000000    0.500000000000000    0.500000000000000 
K           0.333333000000000    0.666667000000000    0.500000000000000 
K           0.500000000000000    0.000000000000000    0.000000000000000 
K           0.500000000000000    0.000000000000000    0.500000000000000 
K           0.500000000000000    0.500000000000000    0.000000000000000 
K           0.500000000000000    0.500000000000000    0.500000000000000 
K           0.666667000000000    0.333333000000000    0.500000000000000 
%ENDBLOCK POSITIONS_FRAC
