# Cell file generated by matador (Matthew Evans 2016)

%BLOCK LATTICE_CART
6.62282 0.0 0.0
0.0 6.62282 0.0
0.0 0.0 7.21688
%ENDBLOCK LATTICE_CART

%BLOCK POSITIONS_FRAC
P           0.000000000000000    0.000000000000000    0.000000000000000 
P           0.000000000000000    0.000000000000000    0.500000000000000 
P           0.000000000000000    0.180954000000000    0.500000000000000 
P           0.000000000000000    0.500000000000000    0.000000000000000 
P           0.000000000000000    0.819046000000000    0.500000000000000 
P           0.180954000000000    0.000000000000000    0.000000000000000 
P           0.198014000000000    0.500000000000000    0.000000000000000 
P           0.500000000000000    0.000000000000000    0.500000000000000 
P           0.500000000000000    0.198014000000000    0.500000000000000 
P           0.500000000000000    0.801986000000000    0.500000000000000 
P           0.801986000000000    0.500000000000000    0.000000000000000 
P           0.819046000000000    0.000000000000000    0.000000000000000 
K           0.500000000000000    0.500000000000000    0.000000000000000 
K           0.500000000000000    0.500000000000000    0.500000000000000 
%ENDBLOCK POSITIONS_FRAC
