# Cell file generated by matador (Matthew Evans 2016)

%BLOCK LATTICE_CART
8.68615 0.0 0.0
-4.34307 7.52242 0.0
0.0 0.0 13.9197
%ENDBLOCK LATTICE_CART

%BLOCK POSITIONS_FRAC
P          -0.000000000000000   -0.000000000000000    0.315930000000000 
P          -0.000000000000000   -0.000000000000000    0.962263000000000 
P           0.333333000000000    0.666667000000000    0.628930000000000 
P           0.333333000000000    0.666667000000000    0.982597000000000 
P           0.666667000000000    0.333333000000000    0.295596000000000 
P           0.666667000000000    0.333333000000000    0.649263000000000 
K           0.036801000000000    0.518400000000000    0.467700000000000 
K           0.148266000000000    0.296533000000000    0.801033000000000 
K           0.148266000000000    0.851734000000000    0.801033000000000 
K           0.210814000000000    0.421628000000000    0.087907000000000 
K           0.210814000000000    0.789186000000000    0.087907000000000 
K           0.245038000000000    0.122519000000000    0.421241000000000 
K           0.370134000000000    0.185067000000000    0.134367000000000 
K           0.481600000000000    0.518400000000000    0.467700000000000 
K           0.481600000000000    0.963199000000000    0.467700000000000 
K           0.544147000000000    0.088295000000000    0.754574000000000 
K           0.544147000000000    0.455853000000000    0.754574000000000 
K           0.578372000000000    0.789186000000000    0.087907000000000 
K           0.703467000000000    0.851734000000000    0.801033000000000 
K           0.814933000000000    0.185067000000000    0.134367000000000 
K           0.814933000000000    0.629866000000000    0.134367000000000 
K           0.877481000000000    0.122519000000000    0.421241000000000 
K           0.877481000000000    0.754962000000000    0.421241000000000 
K           0.911705000000000    0.455853000000000    0.754574000000000 
%ENDBLOCK POSITIONS_FRAC
