# Cell file generated by matador (Matthew Evans 2016)

%BLOCK LATTICE_CART
7.14674 0.0 0.0
-3.57337 6.18926 0.0
0.0 0.0 7.63448
%ENDBLOCK LATTICE_CART

%BLOCK POSITIONS_FRAC
P           0.000000000000000    0.000000000000000    0.166667000000000 
P           0.000000000000000    0.000000000000000    0.500000000000000 
P           0.000000000000000    0.000000000000000    0.833333000000000 
P           0.000000000000000    0.500000000000000    0.428635000000000 
P           0.000000000000000    0.500000000000000    0.904698000000000 
P           0.500000000000000    0.000000000000000    0.238031000000000 
P           0.500000000000000    0.000000000000000    0.761969000000000 
P           0.500000000000000    0.500000000000000    0.095302000000000 
P           0.500000000000000    0.500000000000000    0.571365000000000 
K           0.000000000000000    0.500000000000000    0.166667000000000 
K           0.500000000000000    0.000000000000000    0.500000000000000 
K           0.500000000000000    0.500000000000000    0.833333000000000 
%ENDBLOCK POSITIONS_FRAC
