# Cell file generated by matador (Matthew Evans 2016)

%BLOCK LATTICE_CART
4.39101 0.0 0.0
0.0 7.91043 0.0
0.0 0.0 8.03025
%ENDBLOCK LATTICE_CART

%BLOCK POSITIONS_FRAC
P           0.000000000000000    0.000000000000000    0.230080000000000 
P           0.000000000000000    0.500000000000000    0.195427000000000 
P           0.000000000000000    0.500000000000000    0.618709000000000 
P           0.500000000000000    0.500000000000000    0.396294000000000 
P           0.500000000000000    0.500000000000000    0.609378000000000 
P           0.500000000000000    0.500000000000000    0.785549000000000 
K           0.000000000000000    0.000000000000000    0.531357000000000 
K           0.000000000000000    0.186528000000000    0.963966000000000 
K           0.000000000000000    0.813472000000000    0.963966000000000 
%ENDBLOCK POSITIONS_FRAC
