# Cell file generated by matador (Matthew Evans 2016)

%BLOCK LATTICE_CART
5.65785 0.0 0.0
0.0 5.65785 0.0
0.0 0.0 6.43494
%ENDBLOCK LATTICE_CART

%BLOCK POSITIONS_FRAC
P           0.000000000000000    0.000000000000000    0.224413000000000 
P           0.500000000000000    0.500000000000000    0.499339000000000 
P           0.500000000000000    0.500000000000000    0.960492000000000 
K           0.000000000000000    0.000000000000000    0.869972000000000 
K           0.000000000000000    0.500000000000000    0.743197000000000 
K           0.500000000000000    0.000000000000000    0.743197000000000 
%ENDBLOCK POSITIONS_FRAC
