# Cell file generated by matador (Matthew Evans 2016)

%BLOCK LATTICE_CART
6.38017 0.0 0.0
-3.19008 5.52539 0.0
0.0 0.0 5.61113
%ENDBLOCK LATTICE_CART

%BLOCK POSITIONS_FRAC
P           0.999999000000000    0.999999000000000    0.168604000000000 
P           0.999999000000000    0.999999000000000    0.672011000000000 
P           0.999999000000000    0.499999000000000    0.666929000000000 
P           0.499999000000000    0.999999000000000    0.666929000000000 
P           0.499999000000000    0.499999000000000    0.666929000000000 
K           0.333332000000000    0.666666000000000    0.403717000000000 
K           0.666666000000000    0.333332000000000    0.403717000000000 
%ENDBLOCK POSITIONS_FRAC
