# Cell file generated by matador (Matthew Evans 2016)

%BLOCK LATTICE_CART
4.88917 0.0 0.0
-2.44458 4.23414 0.0
0.0 0.0 8.38467
%ENDBLOCK LATTICE_CART

%BLOCK POSITIONS_FRAC
P           0.000000000000000    0.000000000000000    0.027329000000000 
K           0.000000000000000    0.000000000000000    0.365818000000000 
K           0.333333000000000    0.666667000000000    0.852022000000000 
K           0.666667000000000    0.333333000000000    0.106776000000000 
K           0.666667000000000    0.333333000000000    0.755450000000000 
%ENDBLOCK POSITIONS_FRAC
