# Cell file generated by matador (Matthew Evans 2016)

%BLOCK LATTICE_CART
7.63555 -0.0 0.0
-3.81778 6.61258 0.0
0.0 0.0 8.44614
%ENDBLOCK LATTICE_CART

%BLOCK POSITIONS_FRAC
P          -0.000000000000000    0.000000000000000    0.035921000000000 
P           0.170418000000000    0.448966000000000    0.852953000000000 
P           0.217700000000000    0.054785000000000    0.186286000000000 
P           0.278548000000000    0.829582000000000    0.852953000000000 
P           0.333333000000000    0.666667000000000    0.702588000000000 
P           0.503751000000000    0.115633000000000    0.519619000000000 
P           0.551034000000000    0.721452000000000    0.852953000000000 
P           0.611882000000000    0.496249000000000    0.519619000000000 
P           0.666667000000000    0.333333000000000    0.369254000000000 
P           0.837085000000000    0.782300000000000    0.186286000000000 
P           0.884367000000000    0.388118000000000    0.519619000000000 
P           0.945215000000000    0.162915000000000    0.186286000000000 
K          -0.000000000000000    0.000000000000000    0.608158000000000 
K           0.333333000000000    0.666667000000000    0.274825000000000 
K           0.666667000000000    0.333333000000000    0.941491000000000 
%ENDBLOCK POSITIONS_FRAC
