# Cell file generated by matador (Matthew Evans 2016)

%BLOCK LATTICE_CART
8.04249 0.0 0.0
0.0 8.04249 0.0
0.0 0.0 8.04249
%ENDBLOCK LATTICE_CART

%BLOCK POSITIONS_FRAC
P           0.000000000000000    0.085803000000000    0.500000000000000 
P           0.000000000000000    0.914197000000000    0.500000000000000 
P           0.085803000000000    0.500000000000000    0.000000000000000 
P           0.143575000000000    0.143575000000000    0.143575000000000 
P           0.143575000000000    0.856425000000000    0.856425000000000 
P           0.143575000000000    0.143575000000000    0.856425000000000 
P           0.143575000000000    0.856425000000000    0.143575000000000 
P           0.500000000000000    0.000000000000000    0.085803000000000 
P           0.500000000000000    0.000000000000000    0.914197000000000 
P           0.856425000000000    0.143575000000000    0.143575000000000 
P           0.856425000000000    0.856425000000000    0.856425000000000 
P           0.856425000000000    0.143575000000000    0.856425000000000 
P           0.856425000000000    0.856425000000000    0.143575000000000 
P           0.914197000000000    0.500000000000000    0.000000000000000 
K           0.000000000000000    0.000000000000000    0.000000000000000 
K           0.500000000000000    0.500000000000000    0.500000000000000 
%ENDBLOCK POSITIONS_FRAC
