# Cell file generated by matador (Matthew Evans 2016)

%BLOCK LATTICE_CART
6.53089 0.0 0.0
0.0 5.46351 0.0
0.0 0.0 9.36807
%ENDBLOCK LATTICE_CART

%BLOCK POSITIONS_FRAC
P           0.250000000000000    0.250000000000000    0.276289000000000 
P           0.750000000000000    0.750000000000000    0.723711000000000 
K           0.019158000000000    0.750000000000000    0.271956000000000 
K           0.250000000000000    0.750000000000000    0.576248000000000 
K           0.480842000000000    0.750000000000000    0.271956000000000 
K           0.519158000000000    0.250000000000000    0.728044000000000 
K           0.750000000000000    0.250000000000000    0.423752000000000 
K           0.980842000000000    0.250000000000000    0.728044000000000 
%ENDBLOCK POSITIONS_FRAC
