# Cell file generated by matador (Matthew Evans 2016)

%BLOCK LATTICE_CART
10.2081 0.0 0.0
0.0 3.20515 0.0
2.65366 0.0 6.78455
%ENDBLOCK LATTICE_CART

%BLOCK POSITIONS_FRAC
P           0.193218000000000    0.000000000000000    0.446834000000000 
P           0.518198000000000    0.305432000000000    0.915499000000000 
P           0.518198000000000    0.694568000000000    0.915499000000000 
P           0.623624000000000    0.500000000000000    0.758009000000000 
P           0.963511000000000    0.500000000000000    0.708158000000000 
K           0.043032000000000    0.000000000000000    0.095165000000000 
K           0.248525000000000    0.500000000000000    0.252406000000000 
%ENDBLOCK POSITIONS_FRAC
