# Cell file generated by matador (Matthew Evans 2016)

%BLOCK LATTICE_CART
10.3507 0.0 0.0
-5.17534 8.96396 0.0
0.0 0.0 14.8004
%ENDBLOCK LATTICE_CART

%BLOCK POSITIONS_FRAC
P           0.000000000000000    0.000000000000000    0.139550000000000 
P           0.000000000000000    0.000000000000000    0.360450000000000 
P           0.000000000000000    0.000000000000000    0.639550000000000 
P           0.000000000000000    0.000000000000000    0.860450000000000 
P           0.333333000000000    0.666667000000000    0.578842000000000 
P           0.333333000000000    0.666667000000000    0.921158000000000 
P           0.666667000000000    0.333333000000000    0.078842000000000 
P           0.666667000000000    0.333333000000000    0.421158000000000 
K           0.000000000000000    0.500000000000000   -0.000000000000000 
K           0.000000000000000    0.500000000000000    0.500000000000000 
K           0.085587000000000    0.890567000000000    0.250000000000000 
K           0.109433000000000    0.195021000000000    0.250000000000000 
K           0.145157000000000    0.547800000000000    0.250000000000000 
K           0.163536000000000    0.509447000000000    0.750000000000000 
K           0.195021000000000    0.085587000000000    0.750000000000000 
K           0.345911000000000    0.836464000000000    0.750000000000000 
K           0.402644000000000    0.854843000000000    0.250000000000000 
K           0.452200000000000    0.597356000000000    0.250000000000000 
K           0.490553000000000    0.654089000000000    0.750000000000000 
K           0.500000000000000    0.000000000000000   -0.000000000000000 
K           0.500000000000000    0.000000000000000    0.500000000000000 
K           0.500000000000000    0.500000000000000   -0.000000000000000 
K           0.500000000000000    0.500000000000000    0.500000000000000 
K           0.509447000000000    0.345911000000000    0.250000000000000 
K           0.547800000000000    0.402644000000000    0.750000000000000 
K           0.597356000000000    0.145157000000000    0.750000000000000 
K           0.654089000000000    0.163536000000000    0.250000000000000 
K           0.804979000000000    0.914413000000000    0.250000000000000 
K           0.836464000000000    0.490553000000000    0.250000000000000 
K           0.854843000000000    0.452200000000000    0.750000000000000 
K           0.890567000000000    0.804979000000000    0.750000000000000 
K           0.914413000000000    0.109433000000000    0.750000000000000 
%ENDBLOCK POSITIONS_FRAC
