# Cell file generated by matador (Matthew Evans 2016)

%BLOCK LATTICE_CART
8.86769 0.0 0.0
-4.43384 7.67964 0.0
0.0 0.0 5.88267
%ENDBLOCK LATTICE_CART

%BLOCK POSITIONS_FRAC
P           0.299125000000000    0.149563000000000    0.000000000000000 
P           0.299125000000000    0.149563000000000    0.500000000000000 
P           0.666667000000000    0.333333000000000    0.000000000000000 
P           0.666667000000000    0.333333000000000    0.250000000000000 
P           0.666667000000000    0.333333000000000    0.500000000000000 
P           0.666667000000000    0.333333000000000    0.750000000000000 
P           0.850437000000000    0.149563000000000    0.000000000000000 
P           0.850437000000000    0.149563000000000    0.500000000000000 
P           0.850437000000000    0.700875000000000    0.000000000000000 
P           0.850437000000000    0.700875000000000    0.500000000000000 
K           0.000000000000000    0.000000000000000    0.000000000000000 
K           0.000000000000000    0.000000000000000    0.500000000000000 
K           0.333333000000000    0.666667000000000    0.250000000000000 
K           0.333333000000000    0.666667000000000    0.750000000000000 
%ENDBLOCK POSITIONS_FRAC
