# Cell file generated by matador (Matthew Evans 2016)

%BLOCK LATTICE_CART
10.2361 0.0 0.0
0.0 4.9419 0.0
4.1343 0.0 7.74593
%ENDBLOCK LATTICE_CART

%BLOCK POSITIONS_FRAC
P           0.072485000000000    0.000000000000000    0.202908000000000 
P           0.187042000000000    0.316855000000000    0.835553000000000 
P           0.187042000000000    0.683145000000000    0.835553000000000 
P           0.312958000000000    0.183145000000000    0.164447000000000 
P           0.312958000000000    0.816855000000000    0.164447000000000 
P           0.427515000000000    0.500000000000000    0.797092000000000 
P           0.572485000000000    0.500000000000000    0.202908000000000 
P           0.687042000000000    0.183145000000000    0.835553000000000 
P           0.687042000000000    0.816855000000000    0.835553000000000 
P           0.812958000000000    0.316855000000000    0.164447000000000 
P           0.812958000000000    0.683145000000000    0.164447000000000 
P           0.927515000000000    0.000000000000000    0.797092000000000 
K           0.000000000000000    0.000000000000000    0.000000000000000 
K           0.250000000000000    0.250000000000000    0.500000000000000 
K           0.250000000000000    0.750000000000000    0.500000000000000 
K           0.500000000000000    0.500000000000000    0.000000000000000 
K           0.750000000000000    0.250000000000000    0.500000000000000 
K           0.750000000000000    0.750000000000000    0.500000000000000 
%ENDBLOCK POSITIONS_FRAC
