# Cell file generated by matador (Matthew Evans 2016)

%BLOCK LATTICE_CART
7.12503 0.0 0.0
-3.56251 6.17046 0.0
0.0 0.0 9.60229
%ENDBLOCK LATTICE_CART

%BLOCK POSITIONS_FRAC
P           0.000000000000000    0.000000000000000    0.000000000000000 
P           0.000000000000000    0.000000000000000    0.500000000000000 
P           0.333333000000000    0.666667000000000    0.189261000000000 
P           0.333333000000000    0.666667000000000    0.310739000000000 
P           0.333333000000000    0.666667000000000    0.689261000000000 
P           0.333333000000000    0.666667000000000    0.810739000000000 
P           0.666667000000000    0.333333000000000    0.189261000000000 
P           0.666667000000000    0.333333000000000    0.310739000000000 
P           0.666667000000000    0.333333000000000    0.689261000000000 
P           0.666667000000000    0.333333000000000    0.810739000000000 
K           0.000000000000000    0.000000000000000    0.250000000000000 
K           0.000000000000000    0.000000000000000    0.750000000000000 
%ENDBLOCK POSITIONS_FRAC
