# Cell file generated by matador (Matthew Evans 2016)

%BLOCK LATTICE_CART
9.11211 0.0 0.0
-4.55606 7.89132 0.0
0.0 0.0 7.95018
%ENDBLOCK LATTICE_CART

%BLOCK POSITIONS_FRAC
P          -0.000000000000000   -0.000000000000000    0.355226000000000 
P          -0.000000000000000   -0.000000000000000    0.500000000000000 
P          -0.000000000000000   -0.000000000000000    0.644774000000000 
P          -0.000000000000000    0.487624000000000    0.000000000000000 
P           0.333333000000000    0.666667000000000    0.174376000000000 
P           0.333333000000000    0.666667000000000    0.965802000000000 
P           0.487624000000000   -0.000000000000000    0.000000000000000 
P           0.512376000000000    0.512376000000000    0.000000000000000 
P           0.666667000000000    0.333333000000000    0.034198000000000 
P           0.666667000000000    0.333333000000000    0.825624000000000 
K           0.129096000000000    0.852265000000000    0.275135000000000 
K           0.147735000000000    0.276831000000000    0.275135000000000 
K           0.276831000000000    0.147735000000000    0.724865000000000 
K           0.723169000000000    0.870904000000000    0.275135000000000 
K           0.852265000000000    0.129096000000000    0.724865000000000 
K           0.870904000000000    0.723169000000000    0.724865000000000 
%ENDBLOCK POSITIONS_FRAC
