# Cell file generated by matador (Matthew Evans 2016)

%BLOCK LATTICE_CART
3.65314 0.0 0.0
-1.06917 9.99272 0.0
2.12203 -3.50449 8.4968
%ENDBLOCK LATTICE_CART

%BLOCK POSITIONS_FRAC
P           0.000000000000000    0.000000000000000    0.500000000000000 
P           0.500000000000000    0.500000000000000    0.500000000000000 
K           0.000000000000000    0.500000000000000    0.000000000000000 
K           0.000000000000000    0.500000000000000    0.500000000000000 
K           0.230825000000000    0.458124000000000    0.149247000000000 
K           0.411120000000000    0.060670000000000    0.686806000000000 
K           0.588880000000000    0.939330000000000    0.313194000000000 
K           0.769175000000000    0.541876000000000    0.850753000000000 
%ENDBLOCK POSITIONS_FRAC
