# Cell file generated by matador (Matthew Evans 2016)

%BLOCK LATTICE_CART
7.36896 0.0 0.0
-3.68448 6.38171 0.0
0.0 0.0 7.38291
%ENDBLOCK LATTICE_CART

%BLOCK POSITIONS_FRAC
P           0.000000000000000    0.000000000000000    0.000000000000000 
P           0.000000000000000    0.000000000000000    0.229104000000000 
P           0.000000000000000    0.000000000000000    0.770896000000000 
P           0.333333000000000    0.666667000000000    0.242233000000000 
P           0.333333000000000    0.666667000000000    0.757767000000000 
P           0.666667000000000    0.333333000000000    0.242233000000000 
P           0.666667000000000    0.333333000000000    0.757767000000000 
K           0.000000000000000    0.000000000000000    0.500000000000000 
K           0.000000000000000    0.500000000000000    0.000000000000000 
K           0.500000000000000    0.000000000000000    0.000000000000000 
K           0.500000000000000    0.500000000000000    0.000000000000000 
%ENDBLOCK POSITIONS_FRAC
