# Cell file generated by matador (Matthew Evans 2016)

%BLOCK LATTICE_CART
8.91382 0.0 0.0
-4.45691 7.7196 0.0
0.0 0.0 7.70967
%ENDBLOCK LATTICE_CART

%BLOCK POSITIONS_FRAC
P           0.000000000000000    0.000000000000000    0.500000000000000 
P           0.333333000000000    0.666667000000000    0.166667000000000 
P           0.666667000000000    0.333333000000000    0.833333000000000 
K           0.000000000000000    0.000000000000000   -0.000000000000000 
K           0.000000000000000    0.619531000000000    0.500000000000000 
K           0.047136000000000    0.713802000000000    0.833333000000000 
K           0.286198000000000    0.333333000000000    0.833333000000000 
K           0.333333000000000    0.286198000000000    0.166667000000000 
K           0.333333000000000    0.666667000000000    0.666667000000000 
K           0.380469000000000    0.380469000000000    0.500000000000000 
K           0.619531000000000    0.000000000000000    0.500000000000000 
K           0.666667000000000    0.333333000000000    0.333333000000000 
K           0.666667000000000    0.952864000000000    0.833333000000000 
K           0.713802000000000    0.047136000000000    0.166667000000000 
K           0.952864000000000    0.666667000000000    0.166667000000000 
%ENDBLOCK POSITIONS_FRAC
