# Cell file generated by matador (Matthew Evans 2016)

%BLOCK LATTICE_CART
7.21253 0.0 0.0
0.0 7.27649 0.0
1.36143 0.0 5.53491
%ENDBLOCK LATTICE_CART

%BLOCK POSITIONS_FRAC
P           0.194660000000000    0.264036000000000    0.125557000000000 
P           0.194660000000000    0.735964000000000    0.125557000000000 
P           0.538803000000000    0.500000000000000    0.513200000000000 
P           0.707816000000000    0.425987000000000    0.495300000000000 
P           0.707816000000000    0.574013000000000    0.495300000000000 
P           0.815512000000000    0.364474000000000    0.131548000000000 
P           0.815512000000000    0.635526000000000    0.131548000000000 
K           0.071396000000000    0.500000000000000    0.390373000000000 
K           0.320710000000000   -0.000000000000000    0.443173000000000 
K           0.567573000000000    0.500000000000000    0.086528000000000 
K           0.570422000000000   -0.000000000000000    0.718993000000000 
K           0.768762000000000   -0.000000000000000    0.048761000000000 
K           0.996503000000000   -0.000000000000000    0.234866000000000 
%ENDBLOCK POSITIONS_FRAC
