# Cell file generated by matador (Matthew Evans 2016)

%BLOCK LATTICE_CART
6.5421 0.0 0.0
-3.27105 5.66563 0.0
0.0 0.0 10.115
%ENDBLOCK LATTICE_CART

%BLOCK POSITIONS_FRAC
P           0.099571000000000    0.232133000000000    0.581335000000000 
P           0.122171000000000    0.447362000000000    0.931857000000000 
P           0.132562000000000    0.900429000000000    0.914669000000000 
P           0.232133000000000    0.099571000000000    0.418664000000000 
P           0.325190000000000    0.877829000000000    0.265190000000000 
P           0.447362000000000    0.122171000000000    0.068143000000000 
P           0.552638000000000    0.674810000000000    0.598523000000000 
P           0.674810000000000    0.552638000000000    0.401476000000000 
P           0.767867000000000    0.867438000000000    0.248002000000000 
P           0.867438000000000    0.767867000000000    0.751997000000000 
P           0.877829000000000    0.325190000000000    0.734809000000000 
P           0.900429000000000    0.132562000000000    0.085331000000000 
K           0.000000000000000    0.281236000000000    0.333333000000000 
K           0.281236000000000    0.000000000000000    0.666666000000000 
K           0.718764000000000    0.718764000000000   -0.000000000000000 
%ENDBLOCK POSITIONS_FRAC
