# Cell file generated by matador (Matthew Evans 2016)

%BLOCK LATTICE_CART
9.96593 0.0 0.0
0.0 5.52675 0.0
-1.8557 0.0 6.86466
%ENDBLOCK LATTICE_CART

%BLOCK POSITIONS_FRAC
P           0.000000000000000    0.088793000000000    0.500000000000000 
P           0.000000000000000    0.215208000000000    0.000000000000000 
P           0.000000000000000    0.619023000000000    0.000000000000000 
P           0.000000000000000    0.641091000000000    0.500000000000000 
P           0.060987000000000    0.001404000000000    0.240576000000000 
P           0.151271000000000    0.211137000000000    0.643295000000000 
P           0.348729000000000    0.711137000000000    0.356705000000000 
P           0.439013000000000    0.501404000000000    0.759424000000000 
P           0.500000000000000    0.119023000000000    0.000000000000000 
P           0.500000000000000    0.141091000000000    0.500000000000000 
P           0.500000000000000    0.588793000000000    0.500000000000000 
P           0.500000000000000    0.715208000000000    0.000000000000000 
P           0.560987000000000    0.501404000000000    0.240576000000000 
P           0.651271000000000    0.711137000000000    0.643295000000000 
P           0.848729000000000    0.211137000000000    0.356705000000000 
P           0.939013000000000    0.001404000000000    0.759424000000000 
K           0.153595000000000    0.418137000000000    0.176854000000000 
K           0.346405000000000    0.918137000000000    0.823146000000000 
K           0.653595000000000    0.918137000000000    0.176854000000000 
K           0.846405000000000    0.418137000000000    0.823146000000000 
%ENDBLOCK POSITIONS_FRAC
