# Cell file generated by matador (Matthew Evans 2016)

%BLOCK LATTICE_CART
7.1458 0.0 0.0
-3.5729 6.18844 0.0
0.0 0.0 8.01531
%ENDBLOCK LATTICE_CART

%BLOCK POSITIONS_FRAC
P           0.157492000000000    0.078746000000000    0.052085000000000 
P           0.254587000000000    0.509175000000000    0.718752000000000 
P           0.254587000000000    0.745413000000000    0.718752000000000 
P           0.490825000000000    0.745413000000000    0.718752000000000 
P           0.587921000000000    0.175842000000000    0.385418000000000 
P           0.587921000000000    0.412079000000000    0.385418000000000 
P           0.824158000000000    0.412079000000000    0.385418000000000 
P           0.921254000000000    0.078746000000000    0.052085000000000 
P           0.921254000000000    0.842508000000000    0.052085000000000 
K          -0.000000000000000   -0.000000000000000    0.685178000000000 
K           0.333333000000000    0.666667000000000    0.351845000000000 
K           0.666667000000000    0.333333000000000    0.018511000000000 
%ENDBLOCK POSITIONS_FRAC
