# Cell file generated by matador (Matthew Evans 2016)

%BLOCK LATTICE_CART
6.6815 0.0 0.0
0.0 6.6815 0.0
0.0 0.0 9.45719
%ENDBLOCK LATTICE_CART

%BLOCK POSITIONS_FRAC
P          -0.000000000000000    0.000000000000000   -0.000000000000000 
P          -0.000000000000000    0.000000000000000    0.500000000000000 
P          -0.000000000000000    0.500000000000000    0.250000000000000 
P           0.500000000000000    0.000000000000000    0.750000000000000 
P           0.500000000000000    0.500000000000000   -0.000000000000000 
P           0.500000000000000    0.500000000000000    0.500000000000000 
K          -0.000000000000000    0.155912000000000    0.311666000000000 
K          -0.000000000000000    0.500000000000000    0.750000000000000 
K          -0.000000000000000    0.844088000000000    0.311666000000000 
K           0.155912000000000    0.000000000000000    0.688334000000000 
K           0.344088000000000    0.500000000000000    0.188334000000000 
K           0.500000000000000    0.000000000000000    0.250000000000000 
K           0.500000000000000    0.344088000000000    0.811666000000000 
K           0.500000000000000    0.655912000000000    0.811666000000000 
K           0.655912000000000    0.500000000000000    0.188334000000000 
K           0.844088000000000    0.000000000000000    0.688334000000000 
%ENDBLOCK POSITIONS_FRAC
