# Cell file generated by matador (Matthew Evans 2016)

%BLOCK LATTICE_CART
7.0434 0.0 0.0
-3.5217 6.09976 0.0
0.0 0.0 9.07047
%ENDBLOCK LATTICE_CART

%BLOCK POSITIONS_FRAC
P           0.048672000000000    0.782652000000000    0.944938000000000 
P           0.067313000000000    0.617995000000000    0.611605000000000 
P           0.217348000000000    0.266020000000000    0.944938000000000 
P           0.382005000000000    0.449318000000000    0.611605000000000 
P           0.400646000000000    0.284661000000000    0.278272000000000 
P           0.550682000000000    0.932687000000000    0.611605000000000 
P           0.715339000000000    0.115985000000000    0.278272000000000 
P           0.733980000000000    0.951328000000000    0.944938000000000 
P           0.884015000000000    0.599354000000000    0.278272000000000 
K          -0.000000000000000   -0.000000000000000    0.128737000000000 
K          -0.000000000000000   -0.000000000000000    0.739701000000000 
K           0.333333000000000    0.666667000000000    0.406368000000000 
K           0.333333000000000    0.666667000000000    0.795404000000000 
K           0.666667000000000    0.333333000000000    0.073034000000000 
K           0.666667000000000    0.333333000000000    0.462071000000000 
%ENDBLOCK POSITIONS_FRAC
