# Cell file generated by matador (Matthew Evans 2016)

%BLOCK LATTICE_CART
10.2711 0.0 0.0
0.0 10.2711 0.0
0.0 0.0 5.44084
%ENDBLOCK LATTICE_CART

%BLOCK POSITIONS_FRAC
P          -0.000000000000000   -0.000000000000000    0.500000000000000 
P          -0.000000000000000    0.500000000000000    0.500000000000000 
P           0.500000000000000   -0.000000000000000    0.500000000000000 
P           0.500000000000000    0.500000000000000    0.500000000000000 
K          -0.000000000000000   -0.000000000000000    0.000000000000000 
K          -0.000000000000000    0.500000000000000    0.000000000000000 
K           0.023696000000000    0.785881000000000    0.500000000000000 
K           0.214119000000000    0.023696000000000    0.500000000000000 
K           0.285881000000000    0.523696000000000    0.500000000000000 
K           0.476304000000000    0.285881000000000    0.500000000000000 
K           0.500000000000000   -0.000000000000000    0.000000000000000 
K           0.500000000000000    0.500000000000000    0.000000000000000 
K           0.523696000000000    0.714119000000000    0.500000000000000 
K           0.714119000000000    0.476304000000000    0.500000000000000 
K           0.785881000000000    0.976304000000000    0.500000000000000 
K           0.976304000000000    0.214119000000000    0.500000000000000 
%ENDBLOCK POSITIONS_FRAC
