# Cell file generated by matador (Matthew Evans 2016)

%BLOCK LATTICE_CART
6.41219 0.0 0.0
-3.20609 5.55312 0.0
0.0 0.0 9.2484
%ENDBLOCK LATTICE_CART

%BLOCK POSITIONS_FRAC
P           0.119206000000000    0.561764000000000    0.440638000000000 
P           0.438236000000000    0.557442000000000    0.440638000000000 
P           0.442558000000000    0.880794000000000    0.440638000000000 
P           0.522535000000000    0.334379000000000    0.177601000000000 
P           0.665621000000000    0.188156000000000    0.177601000000000 
P           0.666667000000000    0.333333000000000    0.037028000000000 
P           0.811844000000000    0.477465000000000    0.177601000000000 
K           0.000000000000000    0.000000000000000    0.512340000000000 
K           0.316012000000000    0.123936000000000    0.898313000000000 
K           0.666667000000000    0.333333000000000    0.553999000000000 
K           0.807924000000000    0.683988000000000    0.898313000000000 
K           0.876064000000000    0.192076000000000    0.898313000000000 
%ENDBLOCK POSITIONS_FRAC
