# Cell file generated by matador (Matthew Evans 2016)

%BLOCK LATTICE_CART
6.06753 -0.0 0.0
-3.03377 5.25464 0.0
0.0 0.0 7.35078
%ENDBLOCK LATTICE_CART

%BLOCK POSITIONS_FRAC
P          -0.000000000000000    0.000000000000000    0.215465000000000 
P          -0.000000000000000    0.000000000000000    0.561004000000000 
P           0.081649000000000    0.706119000000000    0.721343000000000 
P           0.293881000000000    0.375531000000000    0.721343000000000 
P           0.624469000000000    0.918351000000000    0.721343000000000 
K           0.035006000000000    0.629202000000000    0.310349000000000 
K           0.370798000000000    0.405804000000000    0.310349000000000 
K           0.594196000000000    0.964994000000000    0.310349000000000 
%ENDBLOCK POSITIONS_FRAC
