# Cell file generated by matador (Matthew Evans 2016)

%BLOCK LATTICE_CART
11.704 0.0 0.0
0.0 11.704 0.0
0.0 0.0 3.90963
%ENDBLOCK LATTICE_CART

%BLOCK POSITIONS_FRAC
P           0.000000000000000    0.000000000000000    0.500000000000000 
P           0.000000000000000    0.500000000000000    0.000000000000000 
P           0.026110000000000    0.159109000000000    0.829398000000000 
P           0.159109000000000    0.473890000000000    0.670602000000000 
P           0.250000000000000    0.250000000000000    0.250000000000000 
P           0.340891000000000    0.026110000000000    0.670602000000000 
P           0.473890000000000    0.340891000000000    0.829398000000000 
P           0.500000000000000    0.000000000000000    0.000000000000000 
P           0.500000000000000    0.500000000000000    0.500000000000000 
P           0.526110000000000    0.659109000000000    0.170602000000000 
P           0.659109000000000    0.973890000000000    0.329398000000000 
P           0.750000000000000    0.750000000000000    0.750000000000000 
P           0.840891000000000    0.526110000000000    0.329398000000000 
P           0.973890000000000    0.840891000000000    0.170602000000000 
K           0.000000000000000    0.000000000000000    0.000000000000000 
K           0.000000000000000    0.500000000000000    0.500000000000000 
K           0.500000000000000    0.000000000000000    0.500000000000000 
K           0.500000000000000    0.500000000000000    0.000000000000000 
%ENDBLOCK POSITIONS_FRAC
