# Cell file generated by matador (Matthew Evans 2016)

%BLOCK LATTICE_CART
11.6223 0.0 0.0
0.0 2.8294 0.0
0.0 0.0 14.2783
%ENDBLOCK LATTICE_CART

%BLOCK POSITIONS_FRAC
P           0.000000000000000    0.000000000000000    0.319458000000000 
P           0.000000000000000    0.500000000000000    0.819458000000000 
P           0.247316000000000    0.632382000000000    0.878020000000000 
P           0.247316000000000    0.867618000000000    0.378020000000000 
P           0.281917000000000    0.069547000000000    0.289161000000000 
P           0.281917000000000    0.430453000000000    0.789161000000000 
P           0.718083000000000    0.569547000000000    0.789161000000000 
P           0.718083000000000    0.930453000000000    0.289161000000000 
P           0.752684000000000    0.132382000000000    0.378020000000000 
P           0.752684000000000    0.367618000000000    0.878020000000000 
K           0.000000000000000    0.000000000000000    0.977561000000000 
K           0.000000000000000    0.500000000000000    0.477561000000000 
K           0.500000000000000    0.000000000000000    0.348286000000000 
K           0.500000000000000    0.000000000000000    0.742976000000000 
K           0.500000000000000    0.500000000000000    0.242976000000000 
K           0.500000000000000    0.500000000000000    0.848286000000000 
%ENDBLOCK POSITIONS_FRAC
