# Cell file generated by matador (Matthew Evans 2016)

%BLOCK LATTICE_CART
5.46955 0.0 0.0
0.0 5.46955 0.0
0.0 0.0 6.07965
%ENDBLOCK LATTICE_CART

%BLOCK POSITIONS_FRAC
P           0.000000000000000    0.168369000000000    0.898652000000000 
P           0.000000000000000    0.500000000000000    0.934744000000000 
P           0.000000000000000    0.831631000000000    0.898652000000000 
P           0.168369000000000    0.000000000000000    0.898652000000000 
P           0.500000000000000    0.000000000000000    0.934744000000000 
P           0.500000000000000    0.500000000000000    0.766090000000000 
P           0.831631000000000    0.000000000000000    0.898652000000000 
K           0.000000000000000    0.000000000000000    0.344859000000000 
%ENDBLOCK POSITIONS_FRAC
