# Cell file generated by matador (Matthew Evans 2016)

%BLOCK LATTICE_CART
6.39027 0.0 0.0
0.0 10.9196 0.0
-4.18985 0.0 7.85272
%ENDBLOCK LATTICE_CART

%BLOCK POSITIONS_FRAC
P           0.081720000000000    0.797693000000000    0.071559000000000 
P           0.215626000000000    0.860337000000000    0.653988000000000 
P           0.784374000000000    0.860337000000000    0.346012000000000 
P           0.918280000000000    0.797693000000000    0.928441000000000 
K           0.000000000000000    0.321588000000000    0.500000000000000 
K           0.095288000000000    0.950834000000000    0.272098000000000 
K           0.287972000000000    0.010373000000000    0.535216000000000 
K           0.320997000000000    0.227990000000000    0.152525000000000 
K           0.349284000000000    0.509613000000000    0.038477000000000 
K           0.500000000000000    0.869481000000000    0.500000000000000 
K           0.650716000000000    0.509613000000000    0.961523000000000 
K           0.679003000000000    0.227990000000000    0.847475000000000 
K           0.712028000000000    0.010373000000000    0.464784000000000 
K           0.904712000000000    0.950834000000000    0.727902000000000 
%ENDBLOCK POSITIONS_FRAC
