# Cell file generated by matador (Matthew Evans 2016)

%BLOCK LATTICE_CART
9.22961 0.0 0.0
-4.61481 7.99308 0.0
0.0 0.0 6.77396
%ENDBLOCK LATTICE_CART

%BLOCK POSITIONS_FRAC
P           0.108417000000000    0.216834000000000    0.666667000000000 
P           0.108417000000000    0.891583000000000    0.333333000000000 
P           0.783166000000000    0.891583000000000    0.000000000000000 
K           0.061918000000000    0.530959000000000    0.500000000000000 
K           0.203643000000000    0.101822000000000    0.000000000000000 
K           0.225726000000000    0.112863000000000    0.500000000000000 
K           0.469041000000000    0.530959000000000    0.833333000000000 
K           0.469041000000000    0.938082000000000    0.166667000000000 
K           0.887137000000000    0.112863000000000    0.833333000000000 
K           0.887137000000000    0.774274000000000    0.166667000000000 
K           0.898178000000000    0.101822000000000    0.333333000000000 
K           0.898178000000000    0.796357000000000    0.666667000000000 
%ENDBLOCK POSITIONS_FRAC
