# Cell file generated by matador (Matthew Evans 2016)

%BLOCK LATTICE_CART
9.89871 0.0 0.0
0.0 6.99468 0.0
0.0 0.0 6.71096
%ENDBLOCK LATTICE_CART

%BLOCK POSITIONS_FRAC
P           0.000000000000000    0.066629000000000    0.933381000000000 
P           0.000000000000000    0.149962000000000    0.054812000000000 
P           0.000000000000000    0.182736000000000    0.476383000000000 
P           0.000000000000000    0.817264000000000    0.976383000000000 
P           0.000000000000000    0.850038000000000    0.554812000000000 
P           0.000000000000000    0.933371000000000    0.433381000000000 
P           0.396331000000000    0.155816000000000    0.865121000000000 
P           0.396331000000000    0.844184000000000    0.365121000000000 
P           0.500000000000000    0.346980000000000    0.295007000000000 
P           0.500000000000000    0.376859000000000    0.813748000000000 
P           0.500000000000000    0.623141000000000    0.313748000000000 
P           0.500000000000000    0.653020000000000    0.795007000000000 
P           0.603669000000000    0.155816000000000    0.865121000000000 
P           0.603669000000000    0.844184000000000    0.365121000000000 
K           0.000000000000000    0.467424000000000    0.782984000000000 
K           0.000000000000000    0.532576000000000    0.282984000000000 
K           0.203975000000000    0.050579000000000    0.845313000000000 
K           0.203975000000000    0.949421000000000    0.345313000000000 
K           0.796025000000000    0.050579000000000    0.845313000000000 
K           0.796025000000000    0.949421000000000    0.345313000000000 
%ENDBLOCK POSITIONS_FRAC
