# Cell file generated by matador (Matthew Evans 2016)

%BLOCK LATTICE_CART
8.61904 0.0 0.0
0.0 8.15099 0.0
1.55423 0.0 5.14668
%ENDBLOCK LATTICE_CART

%BLOCK POSITIONS_FRAC
P           0.511046000000000    0.412429000000000    0.749276000000000 
P           0.511046000000000    0.587571000000000    0.749276000000000 
P           0.740072000000000    0.175078000000000    0.386748000000000 
P           0.740072000000000    0.824922000000000    0.386748000000000 
P           0.740497000000000    0.500000000000000    0.219880000000000 
K           0.131887000000000    0.500000000000000    0.924390000000000 
K           0.176575000000000    0.241477000000000    0.385686000000000 
K           0.176575000000000    0.758523000000000    0.385686000000000 
K           0.453020000000000    0.000000000000000    0.668666000000000 
K           0.475407000000000    0.500000000000000    0.418041000000000 
K           0.852123000000000    0.500000000000000    0.774644000000000 
K           0.870961000000000    0.000000000000000    0.875720000000000 
%ENDBLOCK POSITIONS_FRAC
