# Cell file generated by matador (Matthew Evans 2016)

%BLOCK LATTICE_CART
7.16389 0.0 0.0
-3.58194 6.20411 0.0
0.0 0.0 7.70336
%ENDBLOCK LATTICE_CART

%BLOCK POSITIONS_FRAC
P           0.042329000000000    0.519460000000000    0.455595000000000 
P           0.460282000000000    0.329401000000000    0.070699000000000 
P           0.477131000000000    0.957671000000000    0.455595000000000 
P           0.480540000000000    0.522869000000000    0.455595000000000 
P           0.581704000000000    0.177109000000000    0.478645000000000 
P           0.595405000000000    0.418296000000000    0.478645000000000 
P           0.666667000000000    0.333333000000000    0.857331000000000 
P           0.670599000000000    0.130881000000000    0.070699000000000 
P           0.822891000000000    0.404595000000000    0.478645000000000 
P           0.869119000000000    0.539718000000000    0.070699000000000 
K           0.166086000000000    0.160779000000000    0.529748000000000 
K           0.666667000000000    0.333333000000000    0.251553000000000 
K           0.839221000000000    0.005307000000000    0.529748000000000 
K           0.994693000000000    0.833914000000000    0.529748000000000 
%ENDBLOCK POSITIONS_FRAC
