# Cell file generated by matador (Matthew Evans 2016)

%BLOCK LATTICE_CART
7.83668 0.0 0.0
-3.91834 6.78676 0.0
0.0 0.0 5.78149
%ENDBLOCK LATTICE_CART

%BLOCK POSITIONS_FRAC
P           0.333333000000000    0.666667000000000    0.500000000000000 
K          -0.000000000000000    0.000000000000000    0.000000000000000 
K          -0.000000000000000    0.000000000000000    0.500000000000000 
K           0.294692000000000    0.147346000000000    0.500000000000000 
K           0.333333000000000    0.666667000000000    0.000000000000000 
K           0.666666000000000    0.333334000000000    0.500000000000000 
K           0.852654000000000    0.147346000000000    0.500000000000000 
K           0.852654000000000    0.705308000000000    0.500000000000000 
%ENDBLOCK POSITIONS_FRAC
