# Cell file generated by matador (Matthew Evans 2016)

%BLOCK LATTICE_CART
7.36708 0.0 0.0
-3.68354 6.38008 0.0
0.0 0.0 5.98587
%ENDBLOCK LATTICE_CART

%BLOCK POSITIONS_FRAC
P           0.333334000000000    0.666668000000000    0.000000000000000 
P           0.333334000000000    0.666668000000000    0.500000000000000 
P           0.666668000000000    0.333334000000000    0.000000000000000 
P           0.666668000000000    0.333334000000000    0.500000000000000 
K           0.000001000000000    0.000001000000000    0.500000000000000 
K           0.000001000000000    0.500001000000000    0.000000000000000 
K           0.000001000000000    0.500001000000000    0.500000000000000 
K           0.500001000000000    0.000001000000000    0.000000000000000 
K           0.500001000000000    0.000001000000000    0.500000000000000 
K           0.500001000000000    0.500001000000000    0.000000000000000 
K           0.500001000000000    0.500001000000000    0.500000000000000 
%ENDBLOCK POSITIONS_FRAC
