# Cell file generated by matador (Matthew Evans 2016)

%BLOCK LATTICE_CART
6.18827 0.0 0.0
-3.09414 5.3592 0.0
0.0 0.0 6.87101
%ENDBLOCK LATTICE_CART

%BLOCK POSITIONS_FRAC
P           0.000000000000000    0.000000000000000    0.414919000000000 
P           0.000000000000000    0.000000000000000    0.585081000000000 
K           0.000000000000000    0.500000000000000    0.000000000000000 
K           0.000000000000000    0.500000000000000    0.500000000000000 
K           0.500000000000000    0.000000000000000    0.000000000000000 
K           0.500000000000000    0.000000000000000    0.500000000000000 
K           0.500000000000000    0.500000000000000    0.000000000000000 
K           0.500000000000000    0.500000000000000    0.500000000000000 
%ENDBLOCK POSITIONS_FRAC
