# Cell file generated by matador (Matthew Evans 2016)

%BLOCK LATTICE_CART
7.6114 0.0 0.0
-3.8057 6.59167 0.0
0.0 0.0 8.92452
%ENDBLOCK LATTICE_CART

%BLOCK POSITIONS_FRAC
P           0.017807000000000    0.692847000000000    0.500000000000000 
P           0.307153000000000    0.324960000000000    0.500000000000000 
P           0.333333000000000    0.666667000000000    0.000000000000000 
P           0.333333000000000    0.666667000000000    0.500000000000000 
P           0.425838000000000    0.052878000000000    0.500000000000000 
P           0.627040000000000    0.574162000000000    0.500000000000000 
P           0.675040000000000    0.982193000000000    0.500000000000000 
P           0.947122000000000    0.372960000000000    0.500000000000000 
K           0.000000000000000    0.000000000000000    0.000000000000000 
K           0.000000000000000    0.000000000000000    0.500000000000000 
K           0.666667000000000    0.333333000000000    0.000000000000000 
K           0.666667000000000    0.333333000000000    0.500000000000000 
%ENDBLOCK POSITIONS_FRAC
