# Cell file generated by matador (Matthew Evans 2016)

%BLOCK LATTICE_CART
7.8845 -0.0 0.0
-3.94225 6.82818 0.0
0.0 0.0 8.19329
%ENDBLOCK LATTICE_CART

%BLOCK POSITIONS_FRAC
P           0.258308000000000    0.024094000000000    0.500000000000000 
P           0.765786000000000    0.741692000000000    0.500000000000000 
P           0.975906000000000    0.234214000000000    0.500000000000000 
K           0.026207000000000    0.759232000000000    0.500000000000000 
K           0.240768000000000    0.266975000000000    0.500000000000000 
K           0.306500000000000    0.053491000000000   -0.000000000000000 
K           0.333333000000000    0.666667000000000   -0.000000000000000 
K           0.333333000000000    0.666667000000000    0.500000000000000 
K           0.666667000000000    0.333333000000000    0.500000000000000 
K           0.733025000000000    0.973793000000000    0.500000000000000 
K           0.746991000000000    0.693500000000000   -0.000000000000000 
K           0.946509000000000    0.253009000000000   -0.000000000000000 
%ENDBLOCK POSITIONS_FRAC
