# Cell file generated by matador (Matthew Evans 2016)

%BLOCK LATTICE_CART
6.37733 0.0 0.0
-3.18867 5.52293 0.0
0.0 0.0 6.65737
%ENDBLOCK LATTICE_CART

%BLOCK POSITIONS_FRAC
P           0.333333000000000    0.666667000000000    0.643948000000000 
P           0.666666000000000    0.333334000000000    0.407876000000000 
K          -0.000000000000000    0.000000000000000    0.858161000000000 
K           0.108840000000000    0.823778000000000    0.479480000000000 
K           0.176222000000000    0.285062000000000    0.479480000000000 
K           0.333333000000000    0.666667000000000    0.191571000000000 
K           0.714938000000000    0.891160000000000    0.479480000000000 
%ENDBLOCK POSITIONS_FRAC
