# Cell file generated by matador (Matthew Evans 2016)

%BLOCK LATTICE_CART
8.3148 0.0 0.0
-4.1574 7.20083 0.0
0.0 0.0 8.25946
%ENDBLOCK LATTICE_CART

%BLOCK POSITIONS_FRAC
P           0.000000000000000    0.578746000000000    0.500000000000000 
P           0.421254000000000    0.421254000000000    0.500000000000000 
P           0.578746000000000    0.000000000000000    0.500000000000000 
K           0.000000000000000    0.000000000000000    0.000000000000000 
K           0.000000000000000    0.400636000000000    0.193739000000000 
K           0.000000000000000    0.400636000000000    0.806261000000000 
K           0.333333000000000    0.666667000000000    0.000000000000000 
K           0.400636000000000    0.000000000000000    0.193739000000000 
K           0.400636000000000    0.000000000000000    0.806261000000000 
K           0.599364000000000    0.599364000000000    0.193739000000000 
K           0.599364000000000    0.599364000000000    0.806261000000000 
K           0.666667000000000    0.333333000000000    0.000000000000000 
%ENDBLOCK POSITIONS_FRAC
