# Cell file generated by matador (Matthew Evans 2016)

%BLOCK LATTICE_CART
10.0188 0.0 0.0
-5.00941 8.67655 0.0
0.0 0.0 10.3767
%ENDBLOCK LATTICE_CART

%BLOCK POSITIONS_FRAC
P           0.000000000000000    0.000000000000000    0.191132000000000 
P           0.000000000000000    0.000000000000000    0.808868000000000 
P           0.333333000000000    0.666667000000000    0.475535000000000 
P           0.333333000000000    0.666667000000000    0.857799000000000 
P           0.666667000000000    0.333333000000000    0.142201000000000 
P           0.666667000000000    0.333333000000000    0.524465000000000 
K           0.000000000000000    0.456141000000000    0.500000000000000 
K           0.000000000000000    0.544816000000000   -0.000000000000000 
K           0.121851000000000    0.788518000000000    0.333333000000000 
K           0.122807000000000    0.333333000000000    0.833333000000000 
K           0.210526000000000    0.877193000000000    0.833333000000000 
K           0.211482000000000    0.333333000000000    0.333333000000000 
K           0.333333000000000    0.122807000000000    0.166667000000000 
K           0.333333000000000    0.211482000000000    0.666667000000000 
K           0.455184000000000    0.455184000000000   -0.000000000000000 
K           0.456141000000000    0.000000000000000    0.500000000000000 
K           0.543859000000000    0.543859000000000    0.500000000000000 
K           0.544816000000000    0.000000000000000   -0.000000000000000 
K           0.666667000000000    0.789474000000000    0.833333000000000 
K           0.666667000000000    0.878149000000000    0.333333000000000 
K           0.788518000000000    0.121851000000000    0.666667000000000 
K           0.789474000000000    0.666667000000000    0.166667000000000 
K           0.877193000000000    0.210526000000000    0.166667000000000 
K           0.878149000000000    0.666667000000000    0.666667000000000 
%ENDBLOCK POSITIONS_FRAC
