# Cell file generated by matador (Matthew Evans 2016)

%BLOCK LATTICE_CART
8.7947 0.0 0.0
-2.37928 5.54412 0.0
-0.992625 -1.86796 5.81272
%ENDBLOCK LATTICE_CART

%BLOCK POSITIONS_FRAC
P           0.186385000000000    0.572913000000000    0.778382000000000 
P           0.813615000000000    0.427087000000000    0.221618000000000 
K           0.000000000000000    0.000000000000000    0.500000000000000 
K           0.000000000000000    0.500000000000000    0.000000000000000 
K           0.000000000000000    0.500000000000000    0.500000000000000 
K           0.500000000000000    0.000000000000000    0.000000000000000 
K           0.500000000000000    0.000000000000000    0.500000000000000 
K           0.500000000000000    0.500000000000000    0.500000000000000 
%ENDBLOCK POSITIONS_FRAC
