# Cell file generated by matador (Matthew Evans 2016)

%BLOCK LATTICE_CART
5.33146 0.0 0.0
-0.454849 4.62579 0.0
-0.347324 -2.41773 4.46642
%ENDBLOCK LATTICE_CART

%BLOCK POSITIONS_FRAC
P           0.000000000000000    0.500000000000000    0.000000000000000 
P           0.342474000000000    0.220618000000000    0.717864000000000 
P           0.657526000000000    0.779382000000000    0.282136000000000 
K           0.000000000000000    0.000000000000000    0.500000000000000 
%ENDBLOCK POSITIONS_FRAC
