# Cell file generated by matador (Matthew Evans 2016)

%BLOCK LATTICE_CART
7.26412 0.0 0.0
0.0 8.15624 0.0
0.0 0.0 10.1781
%ENDBLOCK LATTICE_CART

%BLOCK POSITIONS_FRAC
P           0.000000000000000    0.194825000000000    0.441101000000000 
P           0.000000000000000    0.545871000000000    0.571680000000000 
P           0.000000000000000    0.585752000000000    0.201286000000000 
P           0.199813000000000    0.048527000000000    0.188803000000000 
P           0.300187000000000    0.951473000000000    0.688803000000000 
P           0.500000000000000    0.414248000000000    0.701286000000000 
P           0.500000000000000    0.454129000000000    0.071680000000000 
P           0.500000000000000    0.805175000000000    0.941101000000000 
P           0.699813000000000    0.951473000000000    0.688803000000000 
P           0.800187000000000    0.048527000000000    0.188803000000000 
K           0.000000000000000    0.193842000000000    0.923093000000000 
K           0.000000000000000    0.243781000000000    0.697291000000000 
K           0.000000000000000    0.753410000000000    0.849177000000000 
K           0.000000000000000    0.896101000000000    0.407822000000000 
K           0.500000000000000    0.103899000000000    0.907822000000000 
K           0.500000000000000    0.246590000000000    0.349177000000000 
K           0.500000000000000    0.756219000000000    0.197291000000000 
K           0.500000000000000    0.806158000000000    0.423093000000000 
%ENDBLOCK POSITIONS_FRAC
