# Cell file generated by matador (Matthew Evans 2016)

%BLOCK LATTICE_CART
6.65441 0.0 0.0
-3.3272 5.76289 0.0
0.0 0.0 7.00264
%ENDBLOCK LATTICE_CART

%BLOCK POSITIONS_FRAC
P           0.500660000000000    0.001321000000000    0.150280000000000 
P           0.500660000000000    0.001321000000000    0.849720000000000 
P           0.500660000000000    0.499340000000000    0.150280000000000 
P           0.500660000000000    0.499340000000000    0.849720000000000 
P           0.666666000000000    0.333334000000000    0.110833000000000 
P           0.666666000000000    0.333334000000000    0.889167000000000 
P           0.998679000000000    0.499340000000000    0.150280000000000 
P           0.998679000000000    0.499340000000000    0.849720000000000 
K           0.333333000000000    0.666667000000000    0.000000000000000 
K           0.333333000000000    0.666667000000000    0.500000000000000 
%ENDBLOCK POSITIONS_FRAC
