# Cell file generated by matador (Matthew Evans 2016)

%BLOCK LATTICE_CART
6.99086 -0.0 0.0
-3.49543 6.05426 0.0
0.0 0.0 6.60664
%ENDBLOCK LATTICE_CART

%BLOCK POSITIONS_FRAC
P           0.000000000000000    0.000000000000000    0.000000000000000 
P           0.000000000000000    0.000000000000000    0.500000000000000 
P           0.190987000000000    0.156205000000000    0.500000000000000 
P           0.333333000000000    0.666667000000000    0.000000000000000 
P           0.333333000000000    0.666667000000000    0.500000000000000 
P           0.666667000000000    0.333333000000000    0.000000000000000 
P           0.843795000000000    0.034782000000000    0.500000000000000 
P           0.965218000000000    0.809013000000000    0.500000000000000 
K           0.402799000000000    0.028558000000000    0.500000000000000 
K           0.625759000000000    0.597201000000000    0.500000000000000 
K           0.666667000000000    0.333333000000000    0.500000000000000 
K           0.971442000000000    0.374241000000000    0.500000000000000 
%ENDBLOCK POSITIONS_FRAC
