# Cell file generated by matador (Matthew Evans 2016)

%BLOCK LATTICE_CART
9.8651 0.0 0.0
-4.93255 8.54343 0.0
0.0 0.0 5.33988
%ENDBLOCK LATTICE_CART

%BLOCK POSITIONS_FRAC
P           0.000000000000000    0.000000000000000    0.000000000000000 
P           0.000000000000000    0.000000000000000    0.183922000000000 
P           0.000000000000000    0.000000000000000    0.500000000000000 
P           0.000000000000000    0.000000000000000    0.816078000000000 
K           0.000000000000000    0.304584000000000    0.500000000000000 
K           0.000000000000000    0.593630000000000    0.000000000000000 
K           0.304584000000000    0.000000000000000    0.500000000000000 
K           0.333333000000000    0.666667000000000    0.396900000000000 
K           0.406370000000000    0.406370000000000    0.000000000000000 
K           0.593630000000000    0.000000000000000    0.000000000000000 
K           0.666667000000000    0.333333000000000    0.603100000000000 
K           0.695416000000000    0.695416000000000    0.500000000000000 
%ENDBLOCK POSITIONS_FRAC
