# Cell file generated by matador (Matthew Evans 2016)

%BLOCK LATTICE_CART
6.86677 0.0 0.0
-3.43338 5.9468 0.0
0.0 0.0 11.2929
%ENDBLOCK LATTICE_CART

%BLOCK POSITIONS_FRAC
P           0.000000000000000    0.000000000000000    0.000000000000000 
P           0.333333000000000    0.666667000000000    0.380279000000000 
P           0.333333000000000    0.666667000000000    0.500000000000000 
P           0.333333000000000    0.666667000000000    0.619721000000000 
P           0.666667000000000    0.333333000000000    0.000000000000000 
P           0.666667000000000    0.333333000000000    0.500000000000000 
K           0.149444000000000    0.298888000000000    0.157712000000000 
K           0.149444000000000    0.298888000000000    0.842288000000000 
K           0.149444000000000    0.850556000000000    0.157712000000000 
K           0.149444000000000    0.850556000000000    0.842288000000000 
K           0.333333000000000    0.666667000000000    0.000000000000000 
K           0.701112000000000    0.850556000000000    0.157712000000000 
K           0.701112000000000    0.850556000000000    0.842288000000000 
%ENDBLOCK POSITIONS_FRAC
