# Cell file generated by matador (Matthew Evans 2016)

%BLOCK LATTICE_CART
6.09728 0.0 0.0
0.0 5.72804 0.0
0.0 0.0 13.0721
%ENDBLOCK LATTICE_CART

%BLOCK POSITIONS_FRAC
P           0.000000000000000    0.500000000000000    0.177885000000000 
P           0.000000000000000    0.500000000000000    0.319054000000000 
P           0.000000000000000    0.500000000000000    0.472542000000000 
P           0.500000000000000    0.000000000000000    0.177885000000000 
P           0.500000000000000    0.000000000000000    0.319054000000000 
P           0.500000000000000    0.000000000000000    0.472542000000000 
K           0.000000000000000    0.000000000000000    0.079415000000000 
K           0.000000000000000    0.500000000000000    0.757114000000000 
K           0.179176000000000    0.000000000000000    0.707254000000000 
K           0.218334000000000    0.000000000000000    0.963777000000000 
K           0.281666000000000    0.500000000000000    0.963777000000000 
K           0.320824000000000    0.500000000000000    0.707254000000000 
K           0.500000000000000    0.000000000000000    0.757114000000000 
K           0.500000000000000    0.500000000000000    0.079415000000000 
K           0.679176000000000    0.500000000000000    0.707254000000000 
K           0.718334000000000    0.500000000000000    0.963777000000000 
K           0.781666000000000    0.000000000000000    0.963777000000000 
K           0.820824000000000    0.000000000000000    0.707254000000000 
%ENDBLOCK POSITIONS_FRAC
