# Cell file generated by matador (Matthew Evans 2016)

%BLOCK LATTICE_CART
9.8586 0.0 0.0
-4.9293 8.5378 0.0
0.0 0.0 7.58827
%ENDBLOCK LATTICE_CART

%BLOCK POSITIONS_FRAC
P           0.333333000000000    0.666667000000000    0.250000000000000 
P           0.333333000000000    0.666667000000000    0.750000000000000 
P           0.666666000000000    0.333334000000000    0.250000000000000 
P           0.666666000000000    0.333334000000000    0.750000000000000 
K           0.218808000000000    0.002521000000000    0.250000000000000 
K           0.218808000000000    0.216287000000000    0.750000000000000 
K           0.479608000000000    0.086601000000000    0.750000000000000 
K           0.479608000000000    0.393007000000000    0.250000000000000 
K           0.606993000000000    0.086601000000000    0.250000000000000 
K           0.606993000000000    0.520392000000000    0.750000000000000 
K           0.783713000000000    0.002521000000000    0.750000000000000 
K           0.783713000000000    0.781192000000000    0.250000000000000 
K           0.913399000000000    0.393007000000000    0.750000000000000 
K           0.913399000000000    0.520392000000000    0.250000000000000 
K           0.997479000000000    0.216287000000000    0.250000000000000 
K           0.997479000000000    0.781192000000000    0.750000000000000 
%ENDBLOCK POSITIONS_FRAC
