# Cell file generated by matador (Matthew Evans 2016)

%BLOCK LATTICE_CART
9.90211 0.0 0.0
0.0 9.90211 0.0
0.0 0.0 6.87366
%ENDBLOCK LATTICE_CART

%BLOCK POSITIONS_FRAC
P           0.000000000000000    0.000000000000000    0.500000000000000 
P           0.000000000000000    0.500000000000000    0.000000000000000 
P           0.250000000000000    0.750000000000000    0.185202000000000 
P           0.250000000000000    0.750000000000000    0.685202000000000 
P           0.500000000000000    0.000000000000000    0.000000000000000 
P           0.500000000000000    0.500000000000000    0.500000000000000 
P           0.750000000000000    0.250000000000000    0.314798000000000 
P           0.750000000000000    0.250000000000000    0.814798000000000 
K           0.041556000000000    0.145346000000000    0.190157000000000 
K           0.145346000000000    0.458444000000000    0.309843000000000 
K           0.250000000000000    0.250000000000000    0.750000000000000 
K           0.354654000000000    0.041556000000000    0.309843000000000 
K           0.458444000000000    0.354654000000000    0.190157000000000 
K           0.541556000000000    0.645346000000000    0.809843000000000 
K           0.645346000000000    0.958444000000000    0.690157000000000 
K           0.750000000000000    0.750000000000000    0.250000000000000 
K           0.854654000000000    0.541556000000000    0.690157000000000 
K           0.958444000000000    0.854654000000000    0.809843000000000 
%ENDBLOCK POSITIONS_FRAC
