# Cell file generated by matador (Matthew Evans 2016)

%BLOCK LATTICE_CART
9.74698 0.0 0.0
0.0 7.26225 0.0
0.0 0.0 7.58817
%ENDBLOCK LATTICE_CART

%BLOCK POSITIONS_FRAC
P           0.000000000000000    0.500000000000000    0.897708000000000 
P           0.500000000000000    0.000000000000000    0.397708000000000 
K           0.000000000000000    0.000000000000000    0.060986000000000 
K           0.000000000000000    0.500000000000000    0.198770000000000 
K           0.053030000000000    0.639336000000000    0.467490000000000 
K           0.212960000000000    0.343375000000000    0.489105000000000 
K           0.287040000000000    0.843375000000000    0.989105000000000 
K           0.446970000000000    0.139336000000000    0.967490000000000 
K           0.500000000000000    0.000000000000000    0.698770000000000 
K           0.500000000000000    0.500000000000000    0.560986000000000 
K           0.553030000000000    0.860664000000000    0.967490000000000 
K           0.712960000000000    0.156625000000000    0.989105000000000 
K           0.787040000000000    0.656625000000000    0.489105000000000 
K           0.946970000000000    0.360664000000000    0.467490000000000 
%ENDBLOCK POSITIONS_FRAC
