# Cell file generated by matador (Matthew Evans 2016)

%BLOCK LATTICE_CART
7.54241 0.0 0.0
-3.7712 6.53192 0.0
0.0 0.0 8.30437
%ENDBLOCK LATTICE_CART

%BLOCK POSITIONS_FRAC
P           0.033566000000000    0.261097000000000    0.088969000000000 
P           0.110795000000000    0.880419000000000    0.710587000000000 
P           0.119581000000000    0.230376000000000    0.710587000000000 
P           0.192452000000000    0.105783000000000    0.964074000000000 
P           0.227530000000000    0.966434000000000    0.088969000000000 
P           0.333333000000000    0.666667000000000    0.802543000000000 
P           0.738903000000000    0.772470000000000    0.088969000000000 
P           0.769624000000000    0.889205000000000    0.710587000000000 
P           0.894217000000000    0.086668000000000    0.964074000000000 
P           0.913332000000000    0.807548000000000    0.964074000000000 
K           0.000000000000000    0.000000000000000    0.329573000000000 
K           0.666667000000000    0.333333000000000    0.776560000000000 
%ENDBLOCK POSITIONS_FRAC
