# Cell file generated by matador (Matthew Evans 2016)

%BLOCK LATTICE_CART
8.20989 0.0 0.0
0.0 7.90906 0.0
-0.885687 0.0 5.26616
%ENDBLOCK LATTICE_CART

%BLOCK POSITIONS_FRAC
P           0.000000000000000    0.219219000000000    0.500000000000000 
P           0.299266000000000    0.815924000000000    0.739807000000000 
P           0.500000000000000    0.398665000000000    0.500000000000000 
P           0.500000000000000    0.546900000000000    0.500000000000000 
P           0.500000000000000    0.983800000000000    0.500000000000000 
P           0.700734000000000    0.815924000000000    0.260193000000000 
K           0.000000000000000    0.786402000000000   -0.000000000000000 
K           0.107592000000000    0.613947000000000    0.693971000000000 
K           0.145959000000000    0.394023000000000    0.986676000000000 
K           0.500000000000000    0.191149000000000   -0.000000000000000 
K           0.500000000000000    0.860659000000000   -0.000000000000000 
K           0.854041000000000    0.394023000000000    0.013324000000000 
K           0.892408000000000    0.613947000000000    0.306029000000000 
%ENDBLOCK POSITIONS_FRAC
