# Cell file generated by matador (Matthew Evans 2016)

%BLOCK LATTICE_CART
6.30399 0.0 0.0
-3.15199 5.45941 0.0
0.0 0.0 10.0952
%ENDBLOCK LATTICE_CART

%BLOCK POSITIONS_FRAC
P          -0.000000000000000    0.000000000000000    0.218224000000000 
P          -0.000000000000000    0.000000000000000    0.495649000000000 
P          -0.000000000000000    0.000000000000000    0.975651000000000 
P           0.333333000000000    0.666667000000000    0.119763000000000 
P           0.333333000000000    0.666667000000000    0.768976000000000 
P           0.666666000000000    0.333334000000000    0.097039000000000 
P           0.666666000000000    0.333334000000000    0.577158000000000 
K           0.333333000000000    0.666667000000000    0.320565000000000 
K           0.411059000000000    0.379446000000000    0.908420000000000 
K           0.620554000000000    0.031613000000000    0.908420000000000 
K           0.968387000000000    0.588941000000000    0.908420000000000 
%ENDBLOCK POSITIONS_FRAC
