# Cell file generated by matador (Matthew Evans 2016)

%BLOCK LATTICE_CART
4.76195 0.0 0.0
0.0 6.73495 0.0
-0.925425 0.0 8.01381
%ENDBLOCK LATTICE_CART

%BLOCK POSITIONS_FRAC
P           0.000000000000000    0.063609000000000   -0.000000000000000 
P           0.000000000000000    0.357589000000000    0.500000000000000 
P           0.000000000000000    0.415686000000000   -0.000000000000000 
P           0.000000000000000    0.576602000000000   -0.000000000000000 
P           0.000000000000000    0.894692000000000    0.500000000000000 
P           0.500000000000000    0.011181000000000   -0.000000000000000 
P           0.500000000000000    0.318475000000000   -0.000000000000000 
K           0.087438000000000    0.084959000000000    0.723764000000000 
K           0.180147000000000    0.834791000000000    0.884331000000000 
K           0.819853000000000    0.834791000000000    0.115669000000000 
K           0.912562000000000    0.084959000000000    0.276236000000000 
%ENDBLOCK POSITIONS_FRAC
