# Cell file generated by matador (Matthew Evans 2016)

%BLOCK LATTICE_CART
5.01287 0.0 0.0
0.0 4.91815 0.0
1.63537 0.0 4.29589
%ENDBLOCK LATTICE_CART

%BLOCK POSITIONS_FRAC
P           0.457489000000000    0.207891000000000    0.266223000000000 
P           0.457489000000000    0.792109000000000    0.266223000000000 
P           0.635173000000000    0.368283000000000    0.342987000000000 
P           0.635173000000000    0.631717000000000    0.342987000000000 
P           0.837875000000000    0.000000000000000    0.845484000000000 
K           0.535642000000000    0.000000000000000    0.611112000000000 
%ENDBLOCK POSITIONS_FRAC
