# Cell file generated by matador (Matthew Evans 2016)

%BLOCK LATTICE_CART
10.524 0.0 0.0
-5.26201 9.11407 0.0
0.0 0.0 6.11051
%ENDBLOCK LATTICE_CART

%BLOCK POSITIONS_FRAC
P           0.000000000000000    0.309958000000000    0.000000000000000 
P           0.000000000000000    0.500000000000000    0.500000000000000 
P           0.000000000000000    0.690042000000000    0.000000000000000 
P           0.309958000000000    0.000000000000000    0.000000000000000 
P           0.309958000000000    0.309958000000000    0.000000000000000 
P           0.500000000000000    0.000000000000000    0.500000000000000 
P           0.500000000000000    0.500000000000000    0.500000000000000 
P           0.690042000000000    0.000000000000000    0.000000000000000 
P           0.690042000000000    0.690042000000000    0.000000000000000 
K           0.000000000000000    0.000000000000000    0.000000000000000 
K           0.000000000000000    0.500000000000000    0.000000000000000 
K           0.333333000000000    0.666667000000000    0.005405000000000 
K           0.500000000000000    0.000000000000000    0.000000000000000 
K           0.500000000000000    0.500000000000000    0.000000000000000 
K           0.666667000000000    0.333333000000000    0.994595000000000 
%ENDBLOCK POSITIONS_FRAC
