# Cell file generated by matador (Matthew Evans 2016)

%BLOCK LATTICE_CART
8.85888 0.0 0.0
0.0 8.85888 0.0
0.0 0.0 5.3617
%ENDBLOCK LATTICE_CART

%BLOCK POSITIONS_FRAC
P           0.000000000000000    0.000000000000000    0.496614000000000 
P           0.000000000000000    0.500000000000000    0.414615000000000 
P           0.000000000000000    0.500000000000000    0.914615000000000 
P           0.500000000000000    0.000000000000000    0.414615000000000 
P           0.500000000000000    0.000000000000000    0.914615000000000 
P           0.500000000000000    0.500000000000000    0.996614000000000 
K           0.173940000000000    0.173940000000000    0.231052000000000 
K           0.177388000000000    0.822612000000000    0.368740000000000 
K           0.322612000000000    0.322612000000000    0.868740000000000 
K           0.326060000000000    0.673940000000000    0.731052000000000 
K           0.673940000000000    0.326060000000000    0.731052000000000 
K           0.677388000000000    0.677388000000000    0.868740000000000 
K           0.822612000000000    0.177388000000000    0.368740000000000 
K           0.826060000000000    0.826060000000000    0.231052000000000 
%ENDBLOCK POSITIONS_FRAC
