# Cell file generated by matador (Matthew Evans 2016)

%BLOCK LATTICE_CART
9.21416 0.0 0.0
2.67865 5.84927 0.0
-2.16144 -1.06066 6.88381
%ENDBLOCK LATTICE_CART

%BLOCK POSITIONS_FRAC
P           0.126686000000000    0.579535000000000    0.419560000000000 
P           0.387478000000000    0.891108000000000    0.095343000000000 
P           0.429529000000000    0.241823000000000    0.346952000000000 
P           0.500000000000000    0.000000000000000    0.000000000000000 
P           0.570471000000000    0.758177000000000    0.653048000000000 
P           0.612522000000000    0.108892000000000    0.904657000000000 
P           0.873314000000000    0.420465000000000    0.580440000000000 
K           0.000000000000000    0.000000000000000    0.000000000000000 
K           0.000000000000000    0.000000000000000    0.500000000000000 
K           0.000000000000000    0.500000000000000    0.000000000000000 
K           0.500000000000000    0.000000000000000    0.500000000000000 
K           0.500000000000000    0.500000000000000    0.000000000000000 
K           0.500000000000000    0.500000000000000    0.500000000000000 
%ENDBLOCK POSITIONS_FRAC
