# Cell file generated by matador (Matthew Evans 2016)

%BLOCK LATTICE_CART
7.70552 0.0 0.0
0.0 7.70552 0.0
0.0 0.0 10.1324
%ENDBLOCK LATTICE_CART

%BLOCK POSITIONS_FRAC
P           0.000000000000000    0.000000000000000    0.398572000000000 
P           0.000000000000000    0.000000000000000    0.500000000000000 
P           0.000000000000000    0.000000000000000    0.601428000000000 
P           0.000000000000000    0.500000000000000    0.195209000000000 
P           0.000000000000000    0.500000000000000    0.304791000000000 
P           0.000000000000000    0.500000000000000    0.695209000000000 
P           0.000000000000000    0.500000000000000    0.804791000000000 
P           0.500000000000000    0.000000000000000    0.195209000000000 
P           0.500000000000000    0.000000000000000    0.304791000000000 
P           0.500000000000000    0.000000000000000    0.695209000000000 
P           0.500000000000000    0.000000000000000    0.804791000000000 
P           0.500000000000000    0.500000000000000    0.000000000000000 
P           0.500000000000000    0.500000000000000    0.101428000000000 
P           0.500000000000000    0.500000000000000    0.898572000000000 
K           0.000000000000000    0.500000000000000    0.000000000000000 
K           0.000000000000000    0.500000000000000    0.500000000000000 
K           0.500000000000000    0.000000000000000    0.000000000000000 
K           0.500000000000000    0.000000000000000    0.500000000000000 
%ENDBLOCK POSITIONS_FRAC
