# Cell file generated by matador (Matthew Evans 2016)

%BLOCK LATTICE_CART
8.38689 0.0 0.0
-4.19345 7.26326 0.0
0.0 0.0 5.48204
%ENDBLOCK LATTICE_CART

%BLOCK POSITIONS_FRAC
P           0.999999000000000    0.999999000000000    0.000000000000000 
P           0.999999000000000    0.999999000000000    0.303412000000000 
P           0.999999000000000    0.999999000000000    0.500000000000000 
P           0.999999000000000    0.999999000000000    0.696588000000000 
P           0.289629000000000    0.579259000000000    0.000000000000000 
P           0.289629000000000    0.710369000000000    0.000000000000000 
P           0.420739000000000    0.710369000000000    0.000000000000000 
P           0.579259000000000    0.289629000000000    0.000000000000000 
P           0.710369000000000    0.289629000000000    0.000000000000000 
P           0.710369000000000    0.420739000000000    0.000000000000000 
K           0.333332000000000    0.666666000000000    0.500000000000000 
K           0.666666000000000    0.333332000000000    0.500000000000000 
%ENDBLOCK POSITIONS_FRAC
