# Cell file generated by matador (Matthew Evans 2016)

%BLOCK LATTICE_CART
7.60902 0.0 0.0
-3.80451 6.58961 0.0
0.0 0.0 8.88476
%ENDBLOCK LATTICE_CART

%BLOCK POSITIONS_FRAC
P           0.000000000000000    0.000000000000000    0.500000000000000 
P           0.333333000000000    0.666667000000000    0.166667000000000 
P           0.666667000000000    0.333333000000000    0.833333000000000 
K           0.000000000000000    0.392603000000000    0.000000000000000 
K           0.059270000000000    0.333333000000000    0.333333000000000 
K           0.274064000000000    0.940730000000000    0.333333000000000 
K           0.333333000000000    0.059270000000000    0.666667000000000 
K           0.392603000000000    0.000000000000000    0.000000000000000 
K           0.607397000000000    0.607397000000000    0.000000000000000 
K           0.666667000000000    0.725936000000000    0.333333000000000 
K           0.725936000000000    0.666667000000000    0.666667000000000 
K           0.940730000000000    0.274064000000000    0.666667000000000 
%ENDBLOCK POSITIONS_FRAC
