# Cell file generated by matador (Matthew Evans 2016)

%BLOCK LATTICE_CART
10.0028 0.0 0.0
-5.00141 8.6627 0.0
0.0 0.0 6.16913
%ENDBLOCK LATTICE_CART

%BLOCK POSITIONS_FRAC
P           0.333334000000000    0.666668000000000    0.250000000000000 
P           0.666668000000000    0.333334000000000    0.750000000000000 
K           0.000001000000000    0.000001000000000    0.250000000000000 
K           0.000001000000000    0.000001000000000    0.750000000000000 
K           0.000001000000000    0.401150000000000    0.500000000000000 
K           0.000001000000000    0.598852000000000   -0.000000000000000 
K           0.250131000000000    0.500260000000000    0.750000000000000 
K           0.250131000000000    0.749871000000000    0.750000000000000 
K           0.401150000000000    0.000001000000000    0.500000000000000 
K           0.401150000000000    0.401150000000000   -0.000000000000000 
K           0.499742000000000    0.749871000000000    0.750000000000000 
K           0.500260000000000    0.250131000000000    0.250000000000000 
K           0.598852000000000    0.000001000000000   -0.000000000000000 
K           0.598852000000000    0.598852000000000    0.500000000000000 
K           0.749871000000000    0.250131000000000    0.250000000000000 
K           0.749871000000000    0.499742000000000    0.250000000000000 
%ENDBLOCK POSITIONS_FRAC
