# Cell file generated by matador (Matthew Evans 2016)

%BLOCK LATTICE_CART
5.94009 0.0 0.0
0.0 6.61988 0.0
0.0 0.0 5.81193
%ENDBLOCK LATTICE_CART

%BLOCK POSITIONS_FRAC
P           0.218310000000000    0.000000000000000    0.000000000000000 
P           0.422093000000000    0.000000000000000    0.500000000000000 
P           0.577907000000000    0.000000000000000    0.000000000000000 
P           0.781690000000000    0.000000000000000    0.500000000000000 
K           0.000000000000000    0.310521000000000    0.250000000000000 
K           0.000000000000000    0.689479000000000    0.750000000000000 
K           0.500000000000000    0.347518000000000    0.250000000000000 
K           0.500000000000000    0.652482000000000    0.750000000000000 
%ENDBLOCK POSITIONS_FRAC
