# Cell file generated by matador (Matthew Evans 2016)

%BLOCK LATTICE_CART
6.62456 0.0 0.0
-3.31228 5.73703 0.0
0.0 0.0 8.45302
%ENDBLOCK LATTICE_CART

%BLOCK POSITIONS_FRAC
P           0.000000000000000    0.000000000000000    0.359759000000000 
P           0.000000000000000    0.000000000000000    0.500000000000000 
P           0.000000000000000    0.000000000000000    0.640241000000000 
P           0.051719000000000    0.703933000000000    0.000000000000000 
P           0.296067000000000    0.347786000000000    0.000000000000000 
P           0.333333000000000    0.666667000000000    0.500000000000000 
P           0.652214000000000    0.948281000000000    0.000000000000000 
K           0.000000000000000    0.000000000000000    0.000000000000000 
K           0.333333000000000    0.666667000000000    0.000000000000000 
K           0.666667000000000    0.333333000000000    0.000000000000000 
K           0.666667000000000    0.333333000000000    0.500000000000000 
%ENDBLOCK POSITIONS_FRAC
