# Cell file generated by matador (Matthew Evans 2016)

%BLOCK LATTICE_CART
7.58282 0.0 0.0
-3.79141 6.56691 0.0
0.0 0.0 10.0503
%ENDBLOCK LATTICE_CART

%BLOCK POSITIONS_FRAC
P           0.077174000000000    0.478352000000000    0.237246000000000 
P           0.138865000000000    0.640163000000000    0.608264000000000 
P           0.333333000000000    0.666667000000000    0.997755000000000 
P           0.359837000000000    0.498702000000000    0.608264000000000 
P           0.401178000000000    0.922826000000000    0.237246000000000 
P           0.478352000000000    0.401178000000000    0.737246000000000 
P           0.498702000000000    0.138865000000000    0.108264000000000 
P           0.501298000000000    0.861135000000000    0.608264000000000 
P           0.521648000000000    0.598822000000000    0.237246000000000 
P           0.598822000000000    0.077174000000000    0.737246000000000 
P           0.640163000000000    0.501298000000000    0.108264000000000 
P           0.666667000000000    0.333333000000000    0.497755000000000 
P           0.861135000000000    0.359837000000000    0.108264000000000 
P           0.922826000000000    0.521648000000000    0.737246000000000 
K           0.000000000000000    0.000000000000000    0.173574000000000 
K           0.000000000000000    0.000000000000000    0.673574000000000 
K           0.333333000000000    0.666667000000000    0.795283000000000 
K           0.666667000000000    0.333333000000000    0.295283000000000 
%ENDBLOCK POSITIONS_FRAC
