# Cell file generated by matador (Matthew Evans 2016)

%BLOCK LATTICE_CART
9.52877 -0.0 0.0
-4.76439 8.25216 0.0
0.0 0.0 4.09476
%ENDBLOCK LATTICE_CART

%BLOCK POSITIONS_FRAC
P           0.000000000000000    0.000000000000000    0.250000000000000 
P           0.000000000000000    0.000000000000000    0.750000000000000 
P           0.333333000000000    0.666667000000000    0.750000000000000 
P           0.666667000000000    0.333333000000000    0.250000000000000 
K           0.087188000000000    0.357104000000000    0.750000000000000 
K           0.269916000000000    0.912812000000000    0.750000000000000 
K           0.333333000000000    0.666667000000000    0.250000000000000 
K           0.357104000000000    0.269916000000000    0.250000000000000 
K           0.642896000000000    0.730084000000000    0.750000000000000 
K           0.666667000000000    0.333333000000000    0.750000000000000 
K           0.730084000000000    0.087188000000000    0.250000000000000 
K           0.912812000000000    0.642896000000000    0.250000000000000 
%ENDBLOCK POSITIONS_FRAC
