# Cell file generated by matador (Matthew Evans 2016)

%BLOCK LATTICE_CART
5.10522 0.0 0.0
0.0 7.90107 0.0
-0.184292 0.0 7.67925
%ENDBLOCK LATTICE_CART

%BLOCK POSITIONS_FRAC
P           0.195716000000000    0.500000000000000    0.783651000000000 
P           0.451759000000000    0.152043000000000    0.580801000000000 
P           0.451759000000000    0.847957000000000    0.580801000000000 
P           0.702716000000000    0.500000000000000    0.461913000000000 
K           0.016678000000000    0.142581000000000    0.307591000000000 
K           0.016678000000000    0.857419000000000    0.307591000000000 
K           0.127359000000000    0.500000000000000    0.144964000000000 
K           0.622196000000000    0.500000000000000    0.110322000000000 
K           0.726026000000000    0.212532000000000    0.825484000000000 
K           0.726026000000000    0.787468000000000    0.825484000000000 
K           0.770982000000000    0.000000000000000    0.639420000000000 
K           0.908096000000000    0.000000000000000    0.933504000000000 
%ENDBLOCK POSITIONS_FRAC
