# Cell file generated by matador (Matthew Evans 2016)

%BLOCK LATTICE_CART
9.8594 0.0 0.0
0.0 8.35271 0.0
0.0 0.0 14.4824
%ENDBLOCK LATTICE_CART

%BLOCK POSITIONS_FRAC
P           0.195856000000000    0.250000000000000    0.390615000000000 
P           0.195856000000000    0.750000000000000    0.609385000000000 
P           0.304144000000000    0.250000000000000    0.109385000000000 
P           0.304144000000000    0.750000000000000    0.890615000000000 
P           0.695856000000000    0.250000000000000    0.109385000000000 
P           0.695856000000000    0.750000000000000    0.890615000000000 
P           0.804144000000000    0.250000000000000    0.390615000000000 
P           0.804144000000000    0.750000000000000    0.609385000000000 
K           0.000000000000000    0.000000000000000    0.000000000000000 
K           0.000000000000000    0.000000000000000    0.500000000000000 
K           0.000000000000000    0.056902000000000    0.729509000000000 
K           0.000000000000000    0.250000000000000    0.163747000000000 
K           0.000000000000000    0.443098000000000    0.729509000000000 
K           0.000000000000000    0.500000000000000    0.000000000000000 
K           0.000000000000000    0.500000000000000    0.500000000000000 
K           0.000000000000000    0.556902000000000    0.270491000000000 
K           0.000000000000000    0.750000000000000    0.836253000000000 
K           0.000000000000000    0.943098000000000    0.270491000000000 
K           0.250000000000000    0.250000000000000    0.750000000000000 
K           0.250000000000000    0.750000000000000    0.250000000000000 
K           0.500000000000000    0.000000000000000    0.000000000000000 
K           0.500000000000000    0.000000000000000    0.500000000000000 
K           0.500000000000000    0.056902000000000    0.770491000000000 
K           0.500000000000000    0.250000000000000    0.336253000000000 
K           0.500000000000000    0.443098000000000    0.770491000000000 
K           0.500000000000000    0.500000000000000    0.000000000000000 
K           0.500000000000000    0.500000000000000    0.500000000000000 
K           0.500000000000000    0.556902000000000    0.229509000000000 
K           0.500000000000000    0.750000000000000    0.663747000000000 
K           0.500000000000000    0.943098000000000    0.229509000000000 
K           0.750000000000000    0.250000000000000    0.750000000000000 
K           0.750000000000000    0.750000000000000    0.250000000000000 
%ENDBLOCK POSITIONS_FRAC
