# Cell file generated by matador (Matthew Evans 2016)

%BLOCK LATTICE_CART
8.71333 0.0 0.0
-4.35666 7.54596 0.0
0.0 0.0 6.29476
%ENDBLOCK LATTICE_CART

%BLOCK POSITIONS_FRAC
P           0.000000000000000    0.000000000000000    0.500000000000000 
P           0.000000000000000    0.500000000000000    0.000000000000000 
P           0.500000000000000    0.000000000000000    0.000000000000000 
P           0.500000000000000    0.500000000000000    0.000000000000000 
K           0.000000000000000    0.000000000000000    0.000000000000000 
K           0.111116000000000    0.778193000000000    0.784850000000000 
K           0.221807000000000    0.332923000000000    0.784850000000000 
K           0.332923000000000    0.111116000000000    0.215150000000000 
K           0.667077000000000    0.888884000000000    0.784850000000000 
K           0.778193000000000    0.667077000000000    0.215150000000000 
K           0.888884000000000    0.221807000000000    0.215150000000000 
%ENDBLOCK POSITIONS_FRAC
