# Cell file generated by matador (Matthew Evans 2016)

%BLOCK LATTICE_CART
5.75455 0.0 0.0
0.0 6.28453 0.0
-2.02832 0.0 6.51779
%ENDBLOCK LATTICE_CART

%BLOCK POSITIONS_FRAC
P           0.000000000000000    0.187119000000000    0.500000000000000 
P           0.018487000000000    0.158370000000000    0.686080000000000 
P           0.447493000000000    0.691313000000000    0.639187000000000 
P           0.500000000000000    0.122244000000000    0.500000000000000 
P           0.500000000000000    0.246266000000000    0.000000000000000 
P           0.552507000000000    0.691313000000000    0.360813000000000 
P           0.981513000000000    0.158370000000000    0.313920000000000 
K           0.062437000000000    0.803342000000000    0.688557000000000 
K           0.937563000000000    0.803342000000000    0.311443000000000 
%ENDBLOCK POSITIONS_FRAC
