# Cell file generated by matador (Matthew Evans 2016)

%BLOCK LATTICE_CART
7.627 0.0 0.0
0.0 7.92339 0.0
0.262124 0.0 9.79853
%ENDBLOCK LATTICE_CART

%BLOCK POSITIONS_FRAC
P           0.155040000000000    0.216367000000000    0.945078000000000 
P           0.240042000000000    0.215823000000000    0.137929000000000 
P           0.361720000000000    0.839384000000000    0.606387000000000 
P           0.500000000000000    0.540427000000000    0.000000000000000 
P           0.500000000000000    0.703385000000000    0.500000000000000 
P           0.638280000000000    0.839384000000000    0.393613000000000 
P           0.759958000000000    0.215823000000000    0.862071000000000 
P           0.844960000000000    0.216367000000000    0.054922000000000 
K           0.000000000000000    0.640759000000000    0.000000000000000 
K           0.035129000000000    0.374068000000000    0.318757000000000 
K           0.171241000000000    0.253657000000000    0.554410000000000 
K           0.329374000000000    0.876281000000000    0.399906000000000 
K           0.366981000000000    0.147578000000000    0.361868000000000 
K           0.500000000000000    0.323951000000000    0.500000000000000 
K           0.633019000000000    0.147578000000000    0.638132000000000 
K           0.670626000000000    0.876281000000000    0.600094000000000 
K           0.828759000000000    0.253657000000000    0.445590000000000 
K           0.964871000000000    0.374068000000000    0.681243000000000 
%ENDBLOCK POSITIONS_FRAC
