# Cell file generated by matador (Matthew Evans 2016)

%BLOCK LATTICE_CART
5.01147 -0.0 0.0
-2.50574 4.34006 0.0
0.0 0.0 8.1977
%ENDBLOCK LATTICE_CART

%BLOCK POSITIONS_FRAC
P           0.316697000000000    0.120896000000000    0.036126000000000 
P           0.333333000000000    0.666667000000000    0.071200000000000 
P           0.666667000000000    0.333333000000000    0.894836000000000 
P           0.804200000000000    0.683303000000000    0.036126000000000 
P           0.879104000000000    0.195800000000000    0.036126000000000 
K           0.000000000000000    0.000000000000000    0.838622000000000 
K           0.666667000000000    0.333333000000000    0.339944000000000 
%ENDBLOCK POSITIONS_FRAC
