# Cell file generated by matador (Matthew Evans 2016)

%BLOCK LATTICE_CART
6.68968 0.0 0.0
0.0 6.68968 0.0
0.0 0.0 6.01385
%ENDBLOCK LATTICE_CART

%BLOCK POSITIONS_FRAC
P           0.000000000000000    0.500000000000000    0.000000000000000 
P           0.000000000000000    0.500000000000000    0.500000000000000 
P           0.500000000000000    0.000000000000000    0.000000000000000 
P           0.500000000000000    0.000000000000000    0.500000000000000 
P           0.500000000000000    0.500000000000000    0.164194000000000 
P           0.500000000000000    0.500000000000000    0.335806000000000 
P           0.500000000000000    0.500000000000000    0.664194000000000 
P           0.500000000000000    0.500000000000000    0.835806000000000 
K           0.000000000000000    0.000000000000000    0.000000000000000 
K           0.000000000000000    0.000000000000000    0.500000000000000 
%ENDBLOCK POSITIONS_FRAC
