# Cell file generated by matador (Matthew Evans 2016)

%BLOCK LATTICE_CART
9.53604 -0.0 0.0
-4.76802 8.25846 0.0
0.0 0.0 10.2943
%ENDBLOCK LATTICE_CART

%BLOCK POSITIONS_FRAC
P           0.000000000000000    0.000000000000000    0.000000000000000 
P           0.000000000000000    0.500000000000000    0.000000000000000 
P           0.500000000000000    0.000000000000000    0.000000000000000 
P           0.500000000000000    0.500000000000000    0.000000000000000 
K           0.000000000000000    0.000000000000000    0.500000000000000 
K           0.000000000000000    0.500000000000000    0.500000000000000 
K           0.062068000000000    0.356160000000000    0.404690000000000 
K           0.225849000000000    0.769985000000000    0.842692000000000 
K           0.230015000000000    0.455863000000000    0.842692000000000 
K           0.294093000000000    0.937932000000000    0.404690000000000 
K           0.356160000000000    0.294093000000000    0.595310000000000 
K           0.455863000000000    0.225849000000000    0.157308000000000 
K           0.500000000000000    0.000000000000000    0.500000000000000 
K           0.500000000000000    0.500000000000000    0.500000000000000 
K           0.544137000000000    0.774151000000000    0.842692000000000 
K           0.643840000000000    0.705907000000000    0.404690000000000 
K           0.705907000000000    0.062068000000000    0.595310000000000 
K           0.769985000000000    0.544137000000000    0.157308000000000 
K           0.774151000000000    0.230015000000000    0.157308000000000 
K           0.937932000000000    0.643840000000000    0.595310000000000 
%ENDBLOCK POSITIONS_FRAC
