# Cell file generated by matador (Matthew Evans 2016)

%BLOCK LATTICE_CART
8.39718 0.0 0.0
0.0 8.39718 0.0
0.0 0.0 5.19756
%ENDBLOCK LATTICE_CART

%BLOCK POSITIONS_FRAC
P           0.000000000000000    0.000000000000000    0.500000000000000 
P           0.107692000000000    0.107692000000000    0.500000000000000 
P           0.392308000000000    0.607692000000000    0.000000000000000 
P           0.500000000000000    0.500000000000000    0.000000000000000 
P           0.607692000000000    0.392308000000000    0.000000000000000 
P           0.892308000000000    0.892308000000000    0.500000000000000 
K           0.000000000000000    0.500000000000000    0.250000000000000 
K           0.000000000000000    0.500000000000000    0.750000000000000 
K           0.168415000000000    0.831585000000000    0.500000000000000 
K           0.331585000000000    0.331585000000000    0.000000000000000 
K           0.500000000000000    0.000000000000000    0.250000000000000 
K           0.500000000000000    0.000000000000000    0.750000000000000 
K           0.668415000000000    0.668415000000000    0.000000000000000 
K           0.831585000000000    0.168415000000000    0.500000000000000 
%ENDBLOCK POSITIONS_FRAC
