# Cell file generated by matador (Matthew Evans 2016)

%BLOCK LATTICE_CART
7.52212 0.0 0.0
0.0 8.51789 0.0
3.15153 0.0 5.9675
%ENDBLOCK LATTICE_CART

%BLOCK POSITIONS_FRAC
P           0.145763000000000    0.366704000000000    0.536566000000000 
P           0.145763000000000    0.633296000000000    0.536566000000000 
P           0.242683000000000    0.000000000000000    0.615812000000000 
P           0.739088000000000    0.313181000000000    0.903476000000000 
P           0.739088000000000    0.686819000000000    0.903476000000000 
K           0.156112000000000    0.168790000000000    0.337213000000000 
K           0.156112000000000    0.831210000000000    0.337213000000000 
K           0.492490000000000    0.000000000000000    0.117031000000000 
K           0.566450000000000    0.380311000000000    0.462587000000000 
K           0.566450000000000    0.619689000000000    0.462587000000000 
K           0.783911000000000    0.000000000000000    0.373279000000000 
%ENDBLOCK POSITIONS_FRAC
