# Cell file generated by matador (Matthew Evans 2016)

%BLOCK LATTICE_CART
7.82181 0.0 0.0
0.0 7.82181 0.0
0.0 0.0 8.79734
%ENDBLOCK LATTICE_CART

%BLOCK POSITIONS_FRAC
P           0.000000000000000    0.500000000000000    0.199085000000000 
P           0.000000000000000    0.500000000000000    0.567083000000000 
P           0.244181000000000    0.567177000000000    0.244049000000000 
P           0.432823000000000    0.244181000000000    0.244049000000000 
P           0.500000000000000    0.000000000000000    0.199085000000000 
P           0.500000000000000    0.000000000000000    0.567083000000000 
P           0.500000000000000    0.500000000000000    0.082498000000000 
P           0.500000000000000    0.500000000000000    0.268387000000000 
P           0.567177000000000    0.755819000000000    0.244049000000000 
P           0.755819000000000    0.432823000000000    0.244049000000000 
K           0.000000000000000    0.500000000000000    0.885908000000000 
K           0.037748000000000    0.224221000000000    0.607939000000000 
K           0.224221000000000    0.962252000000000    0.607939000000000 
K           0.500000000000000    0.000000000000000    0.885908000000000 
K           0.775779000000000    0.037748000000000    0.607939000000000 
K           0.962252000000000    0.775779000000000    0.607939000000000 
%ENDBLOCK POSITIONS_FRAC
