# Cell file generated by matador (Matthew Evans 2016)

%BLOCK LATTICE_CART
7.16952 0.0 0.0
-3.58476 6.20899 0.0
0.0 0.0 10.8459
%ENDBLOCK LATTICE_CART

%BLOCK POSITIONS_FRAC
P           0.000000000000000    0.567485000000000    0.695332000000000 
P           0.432515000000000    0.432515000000000    0.695332000000000 
P           0.567485000000000    0.000000000000000    0.695332000000000 
K           0.000000000000000    0.264509000000000    0.801954000000000 
K           0.000000000000000    0.307388000000000    0.502568000000000 
K           0.000000000000000    0.444876000000000    0.213714000000000 
K           0.264509000000000    0.000000000000000    0.801954000000000 
K           0.307388000000000    0.000000000000000    0.502568000000000 
K           0.444876000000000    0.000000000000000    0.213714000000000 
K           0.555124000000000    0.555124000000000    0.213714000000000 
K           0.692612000000000    0.692612000000000    0.502568000000000 
K           0.735491000000000    0.735491000000000    0.801954000000000 
%ENDBLOCK POSITIONS_FRAC
