# Cell file generated by matador (Matthew Evans 2016)

%BLOCK LATTICE_CART
7.03956 0.0 0.0
0.0 6.6046 0.0
0.0 0.0 7.64875
%ENDBLOCK LATTICE_CART

%BLOCK POSITIONS_FRAC
P           0.000000000000000    0.000000000000000    0.250127000000000 
P           0.000000000000000    0.000000000000000    0.749873000000000 
P           0.465545000000000    0.135835000000000    0.254717000000000 
P           0.465545000000000    0.864165000000000    0.745283000000000 
P           0.500000000000000    0.000000000000000    0.000000000000000 
P           0.500000000000000    0.500000000000000    0.500000000000000 
P           0.534455000000000    0.135835000000000    0.745283000000000 
P           0.534455000000000    0.864165000000000    0.254717000000000 
K           0.000000000000000    0.000000000000000    0.000000000000000 
K           0.000000000000000    0.000000000000000    0.500000000000000 
K           0.000000000000000    0.500000000000000    0.000000000000000 
K           0.000000000000000    0.500000000000000    0.500000000000000 
K           0.500000000000000    0.000000000000000    0.500000000000000 
K           0.500000000000000    0.500000000000000    0.000000000000000 
%ENDBLOCK POSITIONS_FRAC
