# Cell file generated by matador (Matthew Evans 2016)

%BLOCK LATTICE_CART
6.06422 0.0 0.0
0.0 6.06422 0.0
0.0 0.0 13.2343
%ENDBLOCK LATTICE_CART

%BLOCK POSITIONS_FRAC
P           0.000000000000000    0.000000000000000    0.151336000000000 
P           0.000000000000000    0.000000000000000    0.224963000000000 
P           0.000000000000000    0.000000000000000    0.775037000000000 
P           0.000000000000000    0.000000000000000    0.848664000000000 
P           0.000000000000000    0.500000000000000    0.273393000000000 
P           0.000000000000000    0.500000000000000    0.773393000000000 
P           0.500000000000000    0.000000000000000    0.226607000000000 
P           0.500000000000000    0.000000000000000    0.726607000000000 
P           0.500000000000000    0.500000000000000    0.275037000000000 
P           0.500000000000000    0.500000000000000    0.348664000000000 
P           0.500000000000000    0.500000000000000    0.651336000000000 
P           0.500000000000000    0.500000000000000    0.724963000000000 
K           0.000000000000000    0.000000000000000    0.000000000000000 
K           0.500000000000000    0.500000000000000    0.500000000000000 
%ENDBLOCK POSITIONS_FRAC
