# Cell file generated by matador (Matthew Evans 2016)

%BLOCK LATTICE_CART
5.16237 0.0 0.0
0.0 5.16237 0.0
0.0 0.0 12.2385
%ENDBLOCK LATTICE_CART

%BLOCK POSITIONS_FRAC
P           0.000000000000000    0.000000000000000    0.335354000000000 
P           0.000000000000000    0.000000000000000    0.500000000000000 
P           0.000000000000000    0.000000000000000    0.664646000000000 
P           0.244672000000000    0.244672000000000    0.500000000000000 
P           0.255328000000000    0.744672000000000    0.000000000000000 
P           0.500000000000000    0.500000000000000    0.000000000000000 
P           0.500000000000000    0.500000000000000    0.164646000000000 
P           0.500000000000000    0.500000000000000    0.835354000000000 
P           0.744672000000000    0.255328000000000    0.000000000000000 
P           0.755328000000000    0.755328000000000    0.500000000000000 
K           0.000000000000000    0.500000000000000    0.289382000000000 
K           0.000000000000000    0.500000000000000    0.789382000000000 
K           0.500000000000000    0.000000000000000    0.210618000000000 
K           0.500000000000000    0.000000000000000    0.710618000000000 
%ENDBLOCK POSITIONS_FRAC
