# Cell file generated by matador (Matthew Evans 2016)

%BLOCK LATTICE_CART
7.29574 0.0 0.0
-3.64787 6.3183 0.0
0.0 0.0 8.59494
%ENDBLOCK LATTICE_CART

%BLOCK POSITIONS_FRAC
P           0.642811000000000    0.285623000000000    0.666667000000000 
P           0.642811000000000    0.357189000000000    0.333333000000000 
P           0.714377000000000    0.357189000000000   -0.000000000000000 
K           0.193550000000000    0.387102000000000    0.666667000000000 
K           0.193550000000000    0.806450000000000    0.333333000000000 
K           0.515552000000000    0.032911000000000    0.419322000000000 
K           0.515552000000000    0.482641000000000    0.580678000000000 
K           0.517359000000000    0.032911000000000    0.914012000000000 
K           0.517359000000000    0.484448000000000    0.085988000000000 
K           0.612898000000000    0.806450000000000   -0.000000000000000 
K           0.967089000000000    0.482641000000000    0.752655000000000 
K           0.967089000000000    0.484448000000000    0.247345000000000 
%ENDBLOCK POSITIONS_FRAC
