# Cell file generated by matador (Matthew Evans 2016)

%BLOCK LATTICE_CART
9.13984 0.0 0.0
-4.56992 7.91533 0.0
0.0 0.0 9.52178
%ENDBLOCK LATTICE_CART

%BLOCK POSITIONS_FRAC
P           0.000000000000000    0.000000000000000    0.000000000000000 
P           0.000000000000000    0.500000000000000    0.500000000000000 
P           0.500000000000000    0.000000000000000    0.500000000000000 
P           0.500000000000000    0.500000000000000    0.500000000000000 
K           0.000000000000000    0.000000000000000    0.500000000000000 
K           0.000000000000000    0.322408000000000    0.264923000000000 
K           0.000000000000000    0.500000000000000    0.000000000000000 
K           0.000000000000000    0.677592000000000    0.735077000000000 
K           0.322408000000000    0.000000000000000    0.264923000000000 
K           0.322408000000000    0.322408000000000    0.735077000000000 
K           0.333333000000000    0.666667000000000    0.500000000000000 
K           0.500000000000000    0.000000000000000    0.000000000000000 
K           0.500000000000000    0.500000000000000    0.000000000000000 
K           0.666667000000000    0.333333000000000    0.500000000000000 
K           0.677592000000000    0.000000000000000    0.735077000000000 
K           0.677592000000000    0.677592000000000    0.264923000000000 
%ENDBLOCK POSITIONS_FRAC
