# Cell file generated by matador (Matthew Evans 2016)

%BLOCK LATTICE_CART
9.19896 0.0 0.0
0.0 9.39601 0.0
-1.20658 0.0 4.48656
%ENDBLOCK LATTICE_CART

%BLOCK POSITIONS_FRAC
P           0.000000000000000    0.901583000000000    0.000000000000000 
P           0.500000000000000    0.756928000000000    0.500000000000000 
K           0.108922000000000    0.763231000000000    0.702985000000000 
K           0.227257000000000    0.178118000000000    0.329567000000000 
K           0.329184000000000    0.431013000000000    0.794375000000000 
K           0.500000000000000    0.916228000000000    0.000000000000000 
K           0.670816000000000    0.431013000000000    0.205625000000000 
K           0.772743000000000    0.178118000000000    0.670433000000000 
K           0.891078000000000    0.763231000000000    0.297015000000000 
%ENDBLOCK POSITIONS_FRAC
