# Cell file generated by matador (Matthew Evans 2016)

%BLOCK LATTICE_CART
12.9281 0.0 0.0
0.0 8.55606 0.0
-4.31364 0.0 7.658
%ENDBLOCK LATTICE_CART

%BLOCK POSITIONS_FRAC
P           0.035184000000000    0.201674000000000    0.428544000000000 
P           0.035184000000000    0.798326000000000    0.428544000000000 
P           0.586087000000000    0.156739000000000    0.970002000000000 
P           0.586087000000000    0.843261000000000    0.970002000000000 
P           0.817250000000000    0.308367000000000    0.272416000000000 
P           0.817250000000000    0.691633000000000    0.272416000000000 
K           0.025180000000000    0.500000000000000    0.732006000000000 
K           0.208055000000000    0.000000000000000    0.059605000000000 
K           0.213347000000000    0.500000000000000    0.363998000000000 
K           0.229324000000000    0.000000000000000    0.738197000000000 
K           0.251649000000000    0.000000000000000    0.425452000000000 
K           0.289854000000000    0.500000000000000    0.885114000000000 
K           0.466496000000000    0.000000000000000    0.172913000000000 
K           0.494196000000000    0.500000000000000    0.271257000000000 
K           0.508785000000000    0.000000000000000    0.548840000000000 
K           0.643919000000000    0.500000000000000    0.838997000000000 
K           0.711121000000000    0.000000000000000    0.493107000000000 
K           0.738039000000000    0.000000000000000    0.182414000000000 
K           0.741358000000000    0.000000000000000    0.858785000000000 
K           0.760517000000000    0.500000000000000    0.464581000000000 
K           0.903546000000000    0.500000000000000    0.947770000000000 
K           0.913811000000000    0.500000000000000    0.296207000000000 
K           0.952678000000000    0.000000000000000    0.820106000000000 
K           0.971374000000000    0.000000000000000    0.501317000000000 
%ENDBLOCK POSITIONS_FRAC
