# Cell file generated by matador (Matthew Evans 2016)

%BLOCK LATTICE_CART
7.61017 0.0 0.0
-3.80509 6.5906 0.0
0.0 0.0 8.19738
%ENDBLOCK LATTICE_CART

%BLOCK POSITIONS_FRAC
P           0.024087000000000    0.574288000000000    0.500000000000000 
P           0.106679000000000    0.812247000000000    0.500000000000000 
P           0.187753000000000    0.294431000000000    0.500000000000000 
P           0.285226000000000    0.708325000000000    0.500000000000000 
P           0.291675000000000    0.576901000000000    0.500000000000000 
P           0.423099000000000    0.714774000000000    0.500000000000000 
P           0.425712000000000    0.449799000000000    0.500000000000000 
P           0.550201000000000    0.975913000000000    0.500000000000000 
P           0.705569000000000    0.893321000000000    0.500000000000000 
K           0.068646000000000    0.509589000000000    0.230145000000000 
K           0.068646000000000    0.509589000000000    0.769855000000000 
K           0.440943000000000    0.931354000000000    0.230145000000000 
K           0.440943000000000    0.931354000000000    0.769855000000000 
K           0.490411000000000    0.559057000000000    0.230145000000000 
K           0.490411000000000    0.559057000000000    0.769855000000000 
%ENDBLOCK POSITIONS_FRAC
