# Cell file generated by matador (Matthew Evans 2016)

%BLOCK LATTICE_CART
8.12261 0.0 0.0
-4.0613 7.03438 0.0
0.0 0.0 7.77323
%ENDBLOCK LATTICE_CART

%BLOCK POSITIONS_FRAC
P           0.236795000000000    0.476160000000000    0.367233000000000 
P           0.239364000000000    0.763205000000000    0.367233000000000 
P           0.240862000000000    0.165267000000000    0.861092000000000 
P           0.281416000000000    0.168877000000000    0.080273000000000 
P           0.333333000000000    0.666667000000000    0.907345000000000 
P           0.523840000000000    0.760636000000000    0.367233000000000 
P           0.666667000000000    0.333333000000000    0.538026000000000 
P           0.666667000000000    0.333333000000000    0.667252000000000 
P           0.831123000000000    0.112539000000000    0.080273000000000 
P           0.834733000000000    0.075595000000000    0.861092000000000 
P           0.887461000000000    0.718584000000000    0.080273000000000 
P           0.924405000000000    0.759138000000000    0.861092000000000 
K           0.000000000000000    0.000000000000000    0.452540000000000 
K           0.059299000000000    0.300749000000000    0.650984000000000 
K           0.241450000000000    0.940701000000000    0.650984000000000 
K           0.699251000000000    0.758550000000000    0.650984000000000 
%ENDBLOCK POSITIONS_FRAC
