# Cell file generated by matador (Matthew Evans 2016)

%BLOCK LATTICE_CART
7.96317 0.0 0.0
0.0 7.96317 0.0
0.0 0.0 7.96317
%ENDBLOCK LATTICE_CART

%BLOCK POSITIONS_FRAC
P          -0.000000000000000    0.000000000000000   -0.000000000000000 
P           0.134108000000000    0.134108000000000    0.865892000000000 
P           0.134108000000000    0.865892000000000    0.134108000000000 
P           0.365892000000000    0.365892000000000    0.365892000000000 
P           0.365892000000000    0.634108000000000    0.634108000000000 
P           0.500000000000000    0.500000000000000    0.500000000000000 
P           0.634108000000000    0.365892000000000    0.634108000000000 
P           0.634108000000000    0.634108000000000    0.365892000000000 
P           0.865892000000000    0.134108000000000    0.134108000000000 
P           0.865892000000000    0.865892000000000    0.865892000000000 
K          -0.000000000000000    0.000000000000000    0.500000000000000 
K          -0.000000000000000    0.500000000000000   -0.000000000000000 
K          -0.000000000000000    0.500000000000000    0.500000000000000 
K           0.500000000000000    0.000000000000000   -0.000000000000000 
K           0.500000000000000    0.000000000000000    0.500000000000000 
K           0.500000000000000    0.500000000000000   -0.000000000000000 
%ENDBLOCK POSITIONS_FRAC
