# Cell file generated by matador (Matthew Evans 2016)

%BLOCK LATTICE_CART
7.45492 0.0 0.0
0.0 6.08566 0.0
0.0 0.0 7.69751
%ENDBLOCK LATTICE_CART

%BLOCK POSITIONS_FRAC
P           0.182362000000000    0.136762000000000    0.144174000000000 
P           0.182362000000000    0.863238000000000    0.855826000000000 
P           0.268280000000000    0.500000000000000    0.000000000000000 
P           0.731720000000000    0.500000000000000    0.000000000000000 
P           0.817638000000000    0.136762000000000    0.855826000000000 
P           0.817638000000000    0.863238000000000    0.144174000000000 
K           0.000000000000000    0.000000000000000    0.500000000000000 
K           0.000000000000000    0.500000000000000    0.000000000000000 
K           0.000000000000000    0.500000000000000    0.500000000000000 
K           0.500000000000000    0.000000000000000    0.500000000000000 
K           0.500000000000000    0.500000000000000    0.500000000000000 
%ENDBLOCK POSITIONS_FRAC
