# Cell file generated by matador (Matthew Evans 2016)

%BLOCK LATTICE_CART
6.76971 0.0 0.0
0.0 8.60712 0.0
0.0 0.0 7.47405
%ENDBLOCK LATTICE_CART

%BLOCK POSITIONS_FRAC
P           0.000000000000000    0.000000000000000    0.000000000000000 
P           0.000000000000000    0.000000000000000    0.500000000000000 
P           0.000000000000000    0.500000000000000    0.000000000000000 
P           0.000000000000000    0.500000000000000    0.309002000000000 
P           0.000000000000000    0.500000000000000    0.690998000000000 
P           0.500000000000000    0.500000000000000    0.193513000000000 
P           0.500000000000000    0.500000000000000    0.806487000000000 
K           0.224106000000000    0.307670000000000    0.000000000000000 
K           0.224106000000000    0.692330000000000    0.000000000000000 
K           0.775894000000000    0.307670000000000    0.000000000000000 
K           0.775894000000000    0.692330000000000    0.000000000000000 
%ENDBLOCK POSITIONS_FRAC
