# Cell file generated by matador (Matthew Evans 2016)

%BLOCK LATTICE_CART
7.64428 0.0 0.0
0.0 7.64428 0.0
0.0 0.0 7.64428
%ENDBLOCK LATTICE_CART

%BLOCK POSITIONS_FRAC
P           0.000000000000000    0.000000000000000    0.500000000000000 
P           0.000000000000000    0.500000000000000   -0.000000000000000 
P           0.000000000000000    0.500000000000000    0.500000000000000 
P           0.500000000000000    0.000000000000000   -0.000000000000000 
P           0.500000000000000    0.000000000000000    0.500000000000000 
P           0.500000000000000    0.500000000000000   -0.000000000000000 
K           0.000000000000000    0.000000000000000   -0.000000000000000 
K           0.151055000000000    0.151055000000000    0.848945000000000 
K           0.151055000000000    0.848945000000000    0.151055000000000 
K           0.348945000000000    0.348945000000000    0.348945000000000 
K           0.348945000000000    0.651055000000000    0.651055000000000 
K           0.500000000000000    0.500000000000000    0.500000000000000 
K           0.651055000000000    0.348945000000000    0.651055000000000 
K           0.651055000000000    0.651055000000000    0.348945000000000 
K           0.848945000000000    0.151055000000000    0.151055000000000 
K           0.848945000000000    0.848945000000000    0.848945000000000 
%ENDBLOCK POSITIONS_FRAC
