# Cell file generated by matador (Matthew Evans 2016)

%BLOCK LATTICE_CART
6.78929 0.0 0.0
-3.39465 5.8797 0.0
0.0 0.0 8.99701
%ENDBLOCK LATTICE_CART

%BLOCK POSITIONS_FRAC
P           0.000000000000000    0.000000000000000    0.000000000000000 
P           0.000000000000000    0.000000000000000    0.389972000000000 
P           0.000000000000000    0.000000000000000    0.610028000000000 
P           0.333333000000000    0.666667000000000    0.339489000000000 
P           0.666667000000000    0.333333000000000    0.660511000000000 
K           0.000000000000000    0.500000000000000    0.000000000000000 
K           0.000000000000000    0.500000000000000    0.500000000000000 
K           0.500000000000000    0.000000000000000    0.000000000000000 
K           0.500000000000000    0.000000000000000    0.500000000000000 
K           0.500000000000000    0.500000000000000    0.000000000000000 
K           0.500000000000000    0.500000000000000    0.500000000000000 
%ENDBLOCK POSITIONS_FRAC
