# Cell file generated by matador (Matthew Evans 2016)

%BLOCK LATTICE_CART
7.75171 0.0 0.0
0.0 7.75171 0.0
0.0 0.0 6.40151
%ENDBLOCK LATTICE_CART

%BLOCK POSITIONS_FRAC
P           0.000000000000000    0.155537000000000    0.384367000000000 
P           0.000000000000000    0.844463000000000    0.384367000000000 
P           0.155537000000000    0.000000000000000    0.384367000000000 
P           0.844463000000000    0.000000000000000    0.384367000000000 
K           0.000000000000000    0.000000000000000    0.901796000000000 
K           0.000000000000000    0.500000000000000    0.381214000000000 
K           0.221049000000000    0.221049000000000    0.658450000000000 
K           0.221049000000000    0.778951000000000    0.658450000000000 
K           0.500000000000000    0.000000000000000    0.381214000000000 
K           0.778951000000000    0.221049000000000    0.658450000000000 
K           0.778951000000000    0.778951000000000    0.658450000000000 
%ENDBLOCK POSITIONS_FRAC
