# Cell file generated by matador (Matthew Evans 2016)

%BLOCK LATTICE_CART
7.98236 0.0 0.0
0.0 6.97335 0.0
-2.22218 0.0 5.95461
%ENDBLOCK LATTICE_CART

%BLOCK POSITIONS_FRAC
P           0.000000000000000    0.000000000000000    0.500000000000000 
P           0.500000000000000    0.000000000000000    0.500000000000000 
P           0.500000000000000    0.500000000000000    0.500000000000000 
K           0.000000000000000    0.000000000000000    0.000000000000000 
K           0.000000000000000    0.500000000000000    0.000000000000000 
K           0.000000000000000    0.500000000000000    0.500000000000000 
K           0.453301000000000    0.278378000000000    0.672485000000000 
K           0.453301000000000    0.721622000000000    0.672485000000000 
K           0.500000000000000    0.000000000000000    0.000000000000000 
K           0.500000000000000    0.500000000000000    0.000000000000000 
K           0.546699000000000    0.278378000000000    0.327515000000000 
K           0.546699000000000    0.721622000000000    0.327515000000000 
%ENDBLOCK POSITIONS_FRAC
