# Cell file generated by matador (Matthew Evans 2016)

%BLOCK LATTICE_CART
8.55263 0.0 0.0
0.0 8.55263 0.0
0.0 0.0 8.35315
%ENDBLOCK LATTICE_CART

%BLOCK POSITIONS_FRAC
P           0.000000000000000    0.000000000000000    0.000000000000000 
P           0.000000000000000    0.000000000000000    0.500000000000000 
P           0.500000000000000    0.500000000000000    0.000000000000000 
P           0.500000000000000    0.500000000000000    0.500000000000000 
K           0.000000000000000    0.248460000000000    0.251522000000000 
K           0.000000000000000    0.248460000000000    0.748478000000000 
K           0.000000000000000    0.500000000000000    0.000000000000000 
K           0.000000000000000    0.500000000000000    0.500000000000000 
K           0.000000000000000    0.751540000000000    0.251522000000000 
K           0.000000000000000    0.751540000000000    0.748478000000000 
K           0.248460000000000    0.000000000000000    0.251522000000000 
K           0.248460000000000    0.000000000000000    0.748478000000000 
K           0.500000000000000    0.000000000000000    0.000000000000000 
K           0.500000000000000    0.000000000000000    0.500000000000000 
K           0.751540000000000    0.000000000000000    0.251522000000000 
K           0.751540000000000    0.000000000000000    0.748478000000000 
%ENDBLOCK POSITIONS_FRAC
