# Cell file generated by matador (Matthew Evans 2016)

%BLOCK LATTICE_CART
7.55912 0.0 0.0
0.0 7.55912 0.0
0.0 0.0 7.55912
%ENDBLOCK LATTICE_CART

%BLOCK POSITIONS_FRAC
P           0.000878000000000    0.000878000000000    0.000878000000000 
P           0.249122000000000    0.750878000000000    0.250878000000000 
P           0.250878000000000    0.249122000000000    0.750878000000000 
P           0.499122000000000    0.999122000000000    0.500878000000000 
P           0.500878000000000    0.499122000000000    0.999122000000000 
P           0.749122000000000    0.749122000000000    0.749122000000000 
P           0.750878000000000    0.250878000000000    0.249122000000000 
P           0.999122000000000    0.500878000000000    0.499122000000000 
K           0.125000000000000    0.625000000000000    0.875000000000000 
K           0.375000000000000    0.375000000000000    0.375000000000000 
K           0.625000000000000    0.875000000000000    0.125000000000000 
K           0.875000000000000    0.125000000000000    0.625000000000000 
%ENDBLOCK POSITIONS_FRAC
