# Cell file generated by matador (Matthew Evans 2016)

%BLOCK LATTICE_CART
6.93445 0.0 0.0
0.0 4.86113 0.0
-2.24963 0.0 6.73252
%ENDBLOCK LATTICE_CART

%BLOCK POSITIONS_FRAC
P           0.476315000000000    0.000000000000000    0.502726000000000 
P           0.808027000000000    0.349217000000000    0.479706000000000 
P           0.808027000000000    0.650783000000000    0.479706000000000 
K           0.315824000000000    0.279807000000000    0.971568000000000 
K           0.315824000000000    0.720193000000000    0.971568000000000 
K           0.427112000000000    0.500000000000000    0.620041000000000 
K           0.861804000000000    0.500000000000000    0.786014000000000 
%ENDBLOCK POSITIONS_FRAC
