# Cell file generated by matador (Matthew Evans 2016)

%BLOCK LATTICE_CART
5.33409 0.0 0.0
-2.66705 4.61946 0.0
0.0 0.0 10.8855
%ENDBLOCK LATTICE_CART

%BLOCK POSITIONS_FRAC
P           0.000000000000000    0.000000000000000    0.800312000000000 
P           0.333333000000000    0.666667000000000    0.487309000000000 
P           0.666667000000000    0.333333000000000    0.009432000000000 
P           0.666667000000000    0.333333000000000    0.298046000000000 
P           0.666667000000000    0.333333000000000    0.611061000000000 
K           0.000000000000000    0.000000000000000    0.550258000000000 
K           0.333333000000000    0.666667000000000    0.304051000000000 
K           0.333333000000000    0.666667000000000    0.993086000000000 
K           0.666667000000000    0.333333000000000    0.826454000000000 
%ENDBLOCK POSITIONS_FRAC
