# Cell file generated by matador (Matthew Evans 2016)

%BLOCK LATTICE_CART
8.52114 0.0 0.0
-4.26057 7.37953 0.0
0.0 0.0 6.35294
%ENDBLOCK LATTICE_CART

%BLOCK POSITIONS_FRAC
P           0.000000000000000    0.000000000000000    0.785378000000000 
P           0.104594000000000    0.744489000000000    0.323999000000000 
P           0.255511000000000    0.360106000000000    0.323999000000000 
P           0.306561000000000    0.228739000000000    0.657332000000000 
P           0.333333000000000    0.666667000000000    0.452045000000000 
P           0.437928000000000    0.411155000000000    0.990665000000000 
P           0.588845000000000    0.026773000000000    0.990665000000000 
P           0.639894000000000    0.895406000000000    0.323999000000000 
P           0.666667000000000    0.333333000000000    0.118712000000000 
P           0.771261000000000    0.077822000000000    0.657332000000000 
P           0.922178000000000    0.693439000000000    0.657332000000000 
P           0.973227000000000    0.562072000000000    0.990665000000000 
K           0.000000000000000    0.000000000000000    0.277862000000000 
K           0.333333000000000    0.666667000000000    0.944529000000000 
K           0.666667000000000    0.333333000000000    0.611195000000000 
%ENDBLOCK POSITIONS_FRAC
