# Cell file generated by matador (Matthew Evans 2016)

%BLOCK LATTICE_CART
5.30822 0.0 0.0
-2.65411 4.59705 0.0
0.0 0.0 10.9585
%ENDBLOCK LATTICE_CART

%BLOCK POSITIONS_FRAC
P          -0.000000000000000    0.500000000000000    0.500000000000000 
P           0.333333000000000    0.666667000000000    0.398158000000000 
P           0.333333000000000    0.666667000000000    0.800529000000000 
P           0.500000000000000    0.000000000000000    0.500000000000000 
P           0.500000000000000    0.500000000000000    0.500000000000000 
P           0.666666000000000    0.333334000000000    0.199471000000000 
P           0.666666000000000    0.333334000000000    0.601842000000000 
K           0.333333000000000    0.666667000000000    0.183466000000000 
K           0.666666000000000    0.333334000000000    0.816534000000000 
%ENDBLOCK POSITIONS_FRAC
