# Cell file generated by matador (Matthew Evans 2016)

%BLOCK LATTICE_CART
9.15077 0.0 0.0
-4.57538 7.9248 0.0
0.0 0.0 5.8215
%ENDBLOCK LATTICE_CART

%BLOCK POSITIONS_FRAC
P           0.000000000000000   -0.000000000000000    0.416629000000000 
P           0.000000000000000   -0.000000000000000    0.990695000000000 
P           0.333333000000000    0.666667000000000    0.083296000000000 
P           0.333333000000000    0.666667000000000    0.657361000000000 
P           0.666667000000000    0.333333000000000    0.324028000000000 
P           0.666667000000000    0.333333000000000    0.749963000000000 
K           0.220501000000000    0.441003000000000    0.259418000000000 
K           0.220501000000000    0.779499000000000    0.259418000000000 
K           0.225664000000000    0.112832000000000    0.592752000000000 
K           0.553835000000000    0.107669000000000    0.926085000000000 
K           0.553835000000000    0.446165000000000    0.926085000000000 
K           0.558997000000000    0.779499000000000    0.259418000000000 
K           0.887168000000000    0.112832000000000    0.592752000000000 
K           0.887168000000000    0.774336000000000    0.592752000000000 
K           0.892331000000000    0.446165000000000    0.926085000000000 
%ENDBLOCK POSITIONS_FRAC
