# Cell file generated by matador (Matthew Evans 2016)

%BLOCK LATTICE_CART
5.11615 0.0 0.0
0.0 5.11615 0.0
0.0 0.0 7.18837
%ENDBLOCK LATTICE_CART

%BLOCK POSITIONS_FRAC
P           0.229750000000000    0.500000000000000    0.763061000000000 
P           0.500000000000000    0.229750000000000    0.763061000000000 
P           0.500000000000000    0.500000000000000    0.052482000000000 
P           0.500000000000000    0.500000000000000    0.419606000000000 
P           0.500000000000000    0.500000000000000    0.808568000000000 
P           0.500000000000000    0.770250000000000    0.763061000000000 
P           0.770250000000000    0.500000000000000    0.763061000000000 
K           0.000000000000000    0.000000000000000    0.427154000000000 
%ENDBLOCK POSITIONS_FRAC
