# Cell file generated by matador (Matthew Evans 2016)

%BLOCK LATTICE_CART
6.13191 0.0 0.0
-3.06596 5.31039 0.0
0.0 0.0 8.29526
%ENDBLOCK LATTICE_CART

%BLOCK POSITIONS_FRAC
P           0.000000000000000    0.572128000000000    0.934808000000000 
P           0.427872000000000    0.427872000000000    0.934808000000000 
P           0.572128000000000    0.000000000000000    0.934808000000000 
K           0.000000000000000    0.776108000000000    0.307903000000000 
K           0.223892000000000    0.223892000000000    0.307903000000000 
K           0.333333000000000    0.666667000000000    0.409276000000000 
K           0.666667000000000    0.333333000000000    0.409276000000000 
K           0.776108000000000    0.000000000000000    0.307903000000000 
%ENDBLOCK POSITIONS_FRAC
