# Cell file generated by matador (Matthew Evans 2016)

%BLOCK LATTICE_CART
5.5951 0.0 0.0
0.0 5.5951 0.0
0.0 0.0 6.4976
%ENDBLOCK LATTICE_CART

%BLOCK POSITIONS_FRAC
P           0.000000000000000    0.000000000000000    0.500000000000000 
P           0.000000000000000    0.500000000000000    0.057807000000000 
P           0.000000000000000    0.500000000000000    0.442193000000000 
P           0.500000000000000    0.000000000000000    0.557807000000000 
P           0.500000000000000    0.000000000000000    0.942193000000000 
P           0.500000000000000    0.500000000000000   -0.000000000000000 
K           0.000000000000000    0.500000000000000    0.750000000000000 
K           0.500000000000000    0.000000000000000    0.250000000000000 
%ENDBLOCK POSITIONS_FRAC
