# Cell file generated by matador (Matthew Evans 2016)

%BLOCK LATTICE_CART
9.51624 0.0 0.0
-4.75812 8.24131 0.0
0.0 0.0 7.81893
%ENDBLOCK LATTICE_CART

%BLOCK POSITIONS_FRAC
P           0.235295000000000    0.644443000000000    0.460240000000000 
P           0.333333000000000    0.666667000000000    0.326994000000000 
P           0.355557000000000    0.590852000000000    0.460240000000000 
P           0.409148000000000    0.764705000000000    0.460240000000000 
P           0.590852000000000    0.235295000000000    0.539760000000000 
P           0.644443000000000    0.409148000000000    0.539760000000000 
P           0.666667000000000    0.333333000000000    0.673006000000000 
P           0.764705000000000    0.355557000000000    0.539760000000000 
K          -0.000000000000000   -0.000000000000000    0.000000000000000 
K          -0.000000000000000   -0.000000000000000    0.500000000000000 
K           0.036025000000000    0.482998000000000    0.308130000000000 
K           0.333333000000000    0.666667000000000    0.766695000000000 
K           0.446973000000000    0.963975000000000    0.308130000000000 
K           0.482998000000000    0.446973000000000    0.691870000000000 
K           0.517002000000000    0.553027000000000    0.308130000000000 
K           0.553027000000000    0.036025000000000    0.691870000000000 
K           0.666667000000000    0.333333000000000    0.233305000000000 
K           0.963975000000000    0.517002000000000    0.691870000000000 
%ENDBLOCK POSITIONS_FRAC
