# Cell file generated by matador (Matthew Evans 2016)

%BLOCK LATTICE_CART
6.21054 0.0 0.0
0.0 7.24113 0.0
0.0 0.0 9.10845
%ENDBLOCK LATTICE_CART

%BLOCK POSITIONS_FRAC
P           0.072678000000000    0.021511000000000    0.907376000000000 
P           0.072678000000000    0.978489000000000    0.092624000000000 
P           0.169136000000000    0.156573000000000    0.151211000000000 
P           0.169136000000000    0.843427000000000    0.848789000000000 
P           0.180996000000000    0.500000000000000    0.000000000000000 
P           0.819004000000000    0.500000000000000    0.500000000000000 
P           0.830864000000000    0.156573000000000    0.348789000000000 
P           0.830864000000000    0.843427000000000    0.651211000000000 
P           0.927322000000000    0.021511000000000    0.592624000000000 
P           0.927322000000000    0.978489000000000    0.407376000000000 
K           0.431626000000000    0.500000000000000    0.500000000000000 
K           0.460040000000000    0.000000000000000    0.000000000000000 
K           0.539960000000000    0.000000000000000    0.500000000000000 
K           0.568374000000000    0.500000000000000    0.000000000000000 
%ENDBLOCK POSITIONS_FRAC
