# Cell file generated by matador (Matthew Evans 2016)

%BLOCK LATTICE_CART
8.83006 0.0 0.0
0.0 4.65745 0.0
-1.45698 0.0 7.72368
%ENDBLOCK LATTICE_CART

%BLOCK POSITIONS_FRAC
P           0.193809000000000    0.000000000000000    0.744274000000000 
P           0.693809000000000    0.500000000000000    0.744274000000000 
K           0.129963000000000    0.500000000000000    0.931267000000000 
K           0.194420000000000    0.000000000000000    0.192950000000000 
K           0.338195000000000    0.500000000000000    0.584400000000000 
K           0.629963000000000    0.000000000000000    0.931267000000000 
K           0.694420000000000    0.500000000000000    0.192950000000000 
K           0.838195000000000    0.000000000000000    0.584400000000000 
%ENDBLOCK POSITIONS_FRAC
