# Cell file generated by matador (Matthew Evans 2016)

%BLOCK LATTICE_CART
10.674 0.0 0.0
-5.33698 9.24392 0.0
0.0 0.0 9.91149
%ENDBLOCK LATTICE_CART

%BLOCK POSITIONS_FRAC
P           0.337138000000000    0.168569000000000    0.000000000000000 
P           0.504208000000000    0.008416000000000    0.500000000000000 
P           0.504208000000000    0.495792000000000    0.500000000000000 
P           0.831431000000000    0.168569000000000    0.000000000000000 
P           0.831431000000000    0.662862000000000    0.000000000000000 
P           0.991584000000000    0.495792000000000    0.500000000000000 
K           0.032307000000000    0.352685000000000    0.000000000000000 
K           0.032307000000000    0.679622000000000    0.000000000000000 
K           0.313125000000000    0.014370000000000    0.500000000000000 
K           0.313125000000000    0.298756000000000    0.500000000000000 
K           0.320378000000000    0.352685000000000    0.000000000000000 
K           0.320378000000000    0.967693000000000    0.000000000000000 
K           0.552822000000000    0.105643000000000    0.257572000000000 
K           0.552822000000000    0.105643000000000    0.742428000000000 
K           0.552822000000000    0.447178000000000    0.257572000000000 
K           0.552822000000000    0.447178000000000    0.742428000000000 
K           0.647315000000000    0.679622000000000    0.000000000000000 
K           0.647315000000000    0.967693000000000    0.000000000000000 
K           0.701244000000000    0.014370000000000    0.500000000000000 
K           0.701244000000000    0.686875000000000    0.500000000000000 
K           0.894357000000000    0.447178000000000    0.257572000000000 
K           0.894357000000000    0.447178000000000    0.742428000000000 
K           0.985630000000000    0.298756000000000    0.500000000000000 
K           0.985630000000000    0.686875000000000    0.500000000000000 
%ENDBLOCK POSITIONS_FRAC
