# Cell file generated by matador (Matthew Evans 2016)

%BLOCK LATTICE_CART
6.41458 0.0 0.0
0.0 8.07802 0.0
0.201213 0.0 3.10297
%ENDBLOCK LATTICE_CART

%BLOCK POSITIONS_FRAC
P           0.000000000000000    0.422120000000000    0.000000000000000 
P           0.000000000000000    0.667017000000000    0.500000000000000 
P           0.500000000000000    0.445479000000000    0.000000000000000 
P           0.500000000000000    0.609924000000000    0.000000000000000 
P           0.500000000000000    0.988771000000000    0.500000000000000 
K           0.500000000000000    0.274330000000000    0.500000000000000 
%ENDBLOCK POSITIONS_FRAC
