# Cell file generated by matador (Matthew Evans 2016)

%BLOCK LATTICE_CART
8.39082 0.0 0.0
0.0 7.85791 0.0
0.0 0.0 6.06701
%ENDBLOCK LATTICE_CART

%BLOCK POSITIONS_FRAC
P           0.000000000000000   -0.000000000000000    0.000000000000000 
P           0.000000000000000   -0.000000000000000    0.221005000000000 
P           0.000000000000000   -0.000000000000000    0.778995000000000 
P           0.000000000000000    0.371578000000000    0.000000000000000 
P           0.000000000000000    0.421899000000000    0.500000000000000 
P           0.000000000000000    0.578101000000000    0.500000000000000 
P           0.000000000000000    0.628422000000000    0.000000000000000 
P           0.241805000000000    0.500000000000000    0.500000000000000 
P           0.348966000000000    0.500000000000000    0.000000000000000 
P           0.500000000000000   -0.000000000000000    0.000000000000000 
P           0.500000000000000   -0.000000000000000    0.500000000000000 
P           0.500000000000000    0.500000000000000    0.170348000000000 
P           0.500000000000000    0.500000000000000    0.829652000000000 
P           0.651034000000000    0.500000000000000    0.000000000000000 
P           0.758195000000000    0.500000000000000    0.500000000000000 
K           0.198964000000000    0.197439000000000    0.827187000000000 
K           0.198964000000000    0.802561000000000    0.172813000000000 
K           0.500000000000000    0.500000000000000    0.500000000000000 
K           0.801036000000000    0.197439000000000    0.172813000000000 
K           0.801036000000000    0.802561000000000    0.827187000000000 
%ENDBLOCK POSITIONS_FRAC
