# Cell file generated by matador (Matthew Evans 2016)

%BLOCK LATTICE_CART
7.88422 0.0 0.0
-3.94211 6.82793 0.0
0.0 0.0 8.10952
%ENDBLOCK LATTICE_CART

%BLOCK POSITIONS_FRAC
P           0.000000000000000    0.000000000000000    0.487066000000000 
P           0.333333000000000    0.666667000000000    0.153733000000000 
P           0.666667000000000    0.333333000000000    0.820400000000000 
K           0.054373000000000    0.527187000000000    0.339564000000000 
K           0.139480000000000    0.278960000000000    0.672898000000000 
K           0.139480000000000    0.860520000000000    0.672898000000000 
K           0.387706000000000    0.193853000000000    0.006231000000000 
K           0.472813000000000    0.527187000000000    0.339564000000000 
K           0.472813000000000    0.945627000000000    0.339564000000000 
K           0.721040000000000    0.860520000000000    0.672898000000000 
K           0.806147000000000    0.193853000000000    0.006231000000000 
K           0.806147000000000    0.612294000000000    0.006231000000000 
%ENDBLOCK POSITIONS_FRAC
