# Cell file generated by matador (Matthew Evans 2016)

%BLOCK LATTICE_CART
7.33945 0.0 0.0
-3.66972 6.35615 0.0
0.0 0.0 8.31868
%ENDBLOCK LATTICE_CART

%BLOCK POSITIONS_FRAC
P           0.032917000000000    0.339607000000000    0.070304000000000 
P           0.306689000000000    0.967083000000000    0.070304000000000 
P           0.333333000000000    0.666667000000000    0.493650000000000 
P           0.333333000000000    0.666667000000000    0.838744000000000 
P           0.339607000000000    0.032917000000000    0.929696000000000 
P           0.660393000000000    0.693311000000000    0.070304000000000 
P           0.666667000000000    0.333333000000000    0.161256000000000 
P           0.666667000000000    0.333333000000000    0.506350000000000 
P           0.693311000000000    0.660393000000000    0.929696000000000 
P           0.967083000000000    0.306689000000000    0.929696000000000 
K           0.000000000000000    0.000000000000000    0.000000000000000 
K           0.000000000000000    0.000000000000000    0.500000000000000 
K           0.333333000000000    0.666667000000000    0.220107000000000 
K           0.666667000000000    0.333333000000000    0.779893000000000 
%ENDBLOCK POSITIONS_FRAC
