# Cell file generated by matador (Matthew Evans 2016)

%BLOCK LATTICE_CART
8.62152 0.0 0.0
-4.31076 7.46646 0.0
0.0 0.0 11.7941
%ENDBLOCK LATTICE_CART

%BLOCK POSITIONS_FRAC
P           0.000000000000000    0.000000000000000    0.091914000000000 
P           0.000000000000000    0.000000000000000    0.908086000000000 
P           0.000000000000000    0.500000000000000    0.000000000000000 
P           0.500000000000000    0.000000000000000    0.000000000000000 
P           0.500000000000000    0.500000000000000    0.000000000000000 
K           0.000000000000000    0.500000000000000    0.500000000000000 
K           0.172234000000000    0.344469000000000    0.112786000000000 
K           0.172234000000000    0.827766000000000    0.112786000000000 
K           0.197476000000000    0.394952000000000    0.744355000000000 
K           0.197476000000000    0.802524000000000    0.744355000000000 
K           0.344469000000000    0.172234000000000    0.887214000000000 
K           0.394952000000000    0.197476000000000    0.255645000000000 
K           0.500000000000000    0.000000000000000    0.500000000000000 
K           0.500000000000000    0.500000000000000    0.500000000000000 
K           0.605048000000000    0.802524000000000    0.744355000000000 
K           0.655531000000000    0.827766000000000    0.112786000000000 
K           0.802524000000000    0.197476000000000    0.255645000000000 
K           0.802524000000000    0.605048000000000    0.255645000000000 
K           0.827766000000000    0.172234000000000    0.887214000000000 
K           0.827766000000000    0.655531000000000    0.887214000000000 
%ENDBLOCK POSITIONS_FRAC
