# Cell file generated by matador (Matthew Evans 2016)

%BLOCK LATTICE_CART
6.23893 0.0 0.0
-3.11946 5.40307 0.0
0.0 0.0 13.0559
%ENDBLOCK LATTICE_CART

%BLOCK POSITIONS_FRAC
P           0.000000000000000    0.000000000000000    0.000000000000000 
P           0.333333000000000    0.666667000000000    0.060853000000000 
P           0.666667000000000    0.333333000000000    0.939147000000000 
K           0.000000000000000    0.000000000000000    0.402019000000000 
K           0.000000000000000    0.000000000000000    0.597981000000000 
K           0.000000000000000    0.500000000000000    0.000000000000000 
K           0.000000000000000    0.500000000000000    0.500000000000000 
K           0.333333000000000    0.666667000000000    0.612978000000000 
K           0.333333000000000    0.666667000000000    0.902076000000000 
K           0.500000000000000    0.000000000000000    0.000000000000000 
K           0.500000000000000    0.000000000000000    0.500000000000000 
K           0.500000000000000    0.500000000000000    0.000000000000000 
K           0.500000000000000    0.500000000000000    0.500000000000000 
K           0.666667000000000    0.333333000000000    0.097924000000000 
K           0.666667000000000    0.333333000000000    0.387022000000000 
%ENDBLOCK POSITIONS_FRAC
