# Cell file generated by matador (Matthew Evans 2016)

%BLOCK LATTICE_CART
9.54805 0.0 0.0
-4.77403 8.26886 0.0
0.0 0.0 7.66489
%ENDBLOCK LATTICE_CART

%BLOCK POSITIONS_FRAC
P           0.000000000000000    0.000000000000000    0.000000000000000 
P           0.000000000000000    0.000000000000000    0.500000000000000 
P           0.333333000000000    0.666667000000000    0.750000000000000 
P           0.666667000000000    0.333333000000000    0.250000000000000 
K           0.000000000000000    0.500000000000000    0.000000000000000 
K           0.000000000000000    0.500000000000000    0.500000000000000 
K           0.003079000000000    0.231258000000000    0.750000000000000 
K           0.228179000000000    0.996921000000000    0.750000000000000 
K           0.231258000000000    0.228179000000000    0.250000000000000 
K           0.500000000000000    0.000000000000000    0.000000000000000 
K           0.500000000000000    0.000000000000000    0.500000000000000 
K           0.500000000000000    0.500000000000000    0.000000000000000 
K           0.500000000000000    0.500000000000000    0.500000000000000 
K           0.768742000000000    0.771821000000000    0.750000000000000 
K           0.771821000000000    0.003079000000000    0.250000000000000 
K           0.996921000000000    0.768742000000000    0.250000000000000 
%ENDBLOCK POSITIONS_FRAC
