# Cell file generated by matador (Matthew Evans 2016)

%BLOCK LATTICE_CART
8.28414 0.0 0.0
0.0 7.63759 0.0
0.0 0.0 8.93095
%ENDBLOCK LATTICE_CART

%BLOCK POSITIONS_FRAC
P           0.000000000000000   -0.000000000000000    0.500000000000000 
P           0.000000000000000    0.500000000000000    0.000000000000000 
P           0.500000000000000   -0.000000000000000    0.000000000000000 
P           0.500000000000000    0.500000000000000    0.500000000000000 
K           0.000000000000000   -0.000000000000000    0.000000000000000 
K           0.000000000000000    0.192938000000000    0.293944000000000 
K           0.000000000000000    0.307062000000000    0.793944000000000 
K           0.000000000000000    0.500000000000000    0.500000000000000 
K           0.000000000000000    0.692938000000000    0.206056000000000 
K           0.000000000000000    0.807062000000000    0.706056000000000 
K           0.500000000000000   -0.000000000000000    0.500000000000000 
K           0.500000000000000    0.192938000000000    0.206056000000000 
K           0.500000000000000    0.307062000000000    0.706056000000000 
K           0.500000000000000    0.500000000000000    0.000000000000000 
K           0.500000000000000    0.692938000000000    0.293944000000000 
K           0.500000000000000    0.807062000000000    0.793944000000000 
%ENDBLOCK POSITIONS_FRAC
