# Cell file generated by matador (Matthew Evans 2016)

%BLOCK LATTICE_CART
4.46964 0.0 0.0
0.0 9.73945 0.0
0.0 0.0 8.85995
%ENDBLOCK LATTICE_CART

%BLOCK POSITIONS_FRAC
P           0.000000000000000    0.500000000000000    0.067671000000000 
P           0.000000000000000    0.500000000000000    0.344345000000000 
P           0.000000000000000    0.500000000000000    0.601224000000000 
P           0.176978000000000    0.940446000000000    0.934956000000000 
P           0.323022000000000    0.440446000000000    0.434956000000000 
P           0.500000000000000   -0.000000000000000    0.101224000000000 
P           0.500000000000000   -0.000000000000000    0.567671000000000 
P           0.500000000000000   -0.000000000000000    0.844345000000000 
P           0.676978000000000    0.559554000000000    0.434956000000000 
P           0.823022000000000    0.059554000000000    0.934956000000000 
K           0.209209000000000    0.796693000000000    0.647458000000000 
K           0.290791000000000    0.296693000000000    0.147458000000000 
K           0.709209000000000    0.703307000000000    0.147458000000000 
K           0.790791000000000    0.203307000000000    0.647458000000000 
%ENDBLOCK POSITIONS_FRAC
