# Cell file generated by matador (Matthew Evans 2016)

%BLOCK LATTICE_CART
7.03041 0.0 0.0
-3.5152 6.08851 0.0
0.0 0.0 10.1749
%ENDBLOCK LATTICE_CART

%BLOCK POSITIONS_FRAC
P           0.000000000000000    0.000000000000000    0.000000000000000 
P           0.000000000000000    0.000000000000000    0.500000000000000 
P           0.118309000000000    0.672876000000000    0.500000000000000 
P           0.244483000000000    0.146200000000000    0.500000000000000 
P           0.327124000000000    0.445434000000000    0.500000000000000 
P           0.333333000000000    0.666667000000000    0.000000000000000 
P           0.333333000000000    0.666667000000000    0.500000000000000 
P           0.554566000000000    0.881691000000000    0.500000000000000 
P           0.853800000000000    0.098283000000000    0.500000000000000 
P           0.901717000000000    0.755517000000000    0.500000000000000 
K           0.297423000000000    0.108736000000000    0.229343000000000 
K           0.297423000000000    0.108736000000000    0.770657000000000 
K           0.811313000000000    0.702577000000000    0.229343000000000 
K           0.811313000000000    0.702577000000000    0.770657000000000 
K           0.891264000000000    0.188687000000000    0.229343000000000 
K           0.891264000000000    0.188687000000000    0.770657000000000 
%ENDBLOCK POSITIONS_FRAC
