# Cell file generated by matador (Matthew Evans 2016)

%BLOCK LATTICE_CART
8.67996 0.0 0.0
-4.33998 7.51706 0.0
0.0 0.0 7.9916
%ENDBLOCK LATTICE_CART

%BLOCK POSITIONS_FRAC
P           0.000000000000000    0.367505000000000    0.895553000000000 
P           0.000000000000000    0.832200000000000    0.915596000000000 
P           0.091085000000000    0.440021000000000    0.511940000000000 
P           0.167800000000000    0.167800000000000    0.915596000000000 
P           0.348936000000000    0.908915000000000    0.511940000000000 
P           0.367505000000000    0.000000000000000    0.895553000000000 
P           0.440021000000000    0.091085000000000    0.511940000000000 
P           0.559979000000000    0.651064000000000    0.511940000000000 
P           0.632495000000000    0.632495000000000    0.895553000000000 
P           0.651064000000000    0.559979000000000    0.511940000000000 
P           0.832200000000000    0.000000000000000    0.915596000000000 
P           0.908915000000000    0.348936000000000    0.511940000000000 
K           0.000000000000000    0.175331000000000    0.119459000000000 
K           0.000000000000000    0.557381000000000    0.127148000000000 
K           0.175331000000000    0.000000000000000    0.119459000000000 
K           0.442619000000000    0.442619000000000    0.127148000000000 
K           0.557381000000000    0.000000000000000    0.127148000000000 
K           0.824669000000000    0.824669000000000    0.119459000000000 
%ENDBLOCK POSITIONS_FRAC
