# Cell file generated by matador (Matthew Evans 2016)

%BLOCK LATTICE_CART
4.58121 0.0 0.0
0.0 6.61889 0.0
1.76785 0.0 6.66674
%ENDBLOCK LATTICE_CART

%BLOCK POSITIONS_FRAC
P           0.135265000000000    0.000000000000000    0.927887000000000 
P           0.477416000000000    0.114405000000000    0.436526000000000 
P           0.477416000000000    0.885595000000000    0.436526000000000 
P           0.599142000000000    0.500000000000000    0.540576000000000 
P           0.848269000000000    0.000000000000000    0.649372000000000 
K           0.732715000000000    0.258018000000000    0.077631000000000 
K           0.732715000000000    0.741982000000000    0.077631000000000 
%ENDBLOCK POSITIONS_FRAC
