# Cell file generated by matador (Matthew Evans 2016)

%BLOCK LATTICE_CART
9.85419 0.0 0.0
0.0 9.85419 0.0
0.0 0.0 7.10415
%ENDBLOCK LATTICE_CART

%BLOCK POSITIONS_FRAC
P           0.193663000000000    0.306337000000000    0.500000000000000 
P           0.306337000000000    0.806337000000000    0.500000000000000 
P           0.693663000000000    0.193663000000000    0.500000000000000 
P           0.806337000000000    0.693663000000000    0.500000000000000 
K           0.000000000000000    0.000000000000000    0.000000000000000 
K           0.000000000000000    0.000000000000000    0.500000000000000 
K           0.000000000000000    0.500000000000000    0.000000000000000 
K           0.000000000000000    0.500000000000000    0.500000000000000 
K           0.065957000000000    0.808056000000000    0.000000000000000 
K           0.191944000000000    0.065957000000000    0.000000000000000 
K           0.308056000000000    0.565957000000000    0.000000000000000 
K           0.434043000000000    0.308056000000000    0.000000000000000 
K           0.500000000000000    0.000000000000000    0.000000000000000 
K           0.500000000000000    0.000000000000000    0.500000000000000 
K           0.500000000000000    0.500000000000000    0.000000000000000 
K           0.500000000000000    0.500000000000000    0.500000000000000 
K           0.565957000000000    0.691944000000000    0.000000000000000 
K           0.691944000000000    0.434043000000000    0.000000000000000 
K           0.808056000000000    0.934043000000000    0.000000000000000 
K           0.934043000000000    0.191944000000000    0.000000000000000 
%ENDBLOCK POSITIONS_FRAC
