# Cell file generated by matador (Matthew Evans 2016)

%BLOCK LATTICE_CART
7.61007 0.0 0.0
0.0 7.61007 0.0
0.0 0.0 6.2357
%ENDBLOCK LATTICE_CART

%BLOCK POSITIONS_FRAC
P           0.000000000000000    0.000000000000000    0.046699000000000 
P           0.000000000000000    0.500000000000000    0.565616000000000 
P           0.038270000000000    0.313130000000000    0.917201000000000 
P           0.313130000000000    0.961730000000000    0.917201000000000 
P           0.500000000000000    0.000000000000000    0.565616000000000 
P           0.686870000000000    0.038270000000000    0.917201000000000 
P           0.961730000000000    0.686870000000000    0.917201000000000 
K           0.234963000000000    0.237245000000000    0.237950000000000 
K           0.237245000000000    0.765037000000000    0.237950000000000 
K           0.500000000000000    0.500000000000000    0.618227000000000 
K           0.762755000000000    0.234963000000000    0.237950000000000 
K           0.765037000000000    0.762755000000000    0.237950000000000 
%ENDBLOCK POSITIONS_FRAC
