# Cell file generated by matador (Matthew Evans 2016)

%BLOCK LATTICE_CART
7.96523 0.0 0.0
-3.98262 6.89809 0.0
0.0 0.0 8.10067
%ENDBLOCK LATTICE_CART

%BLOCK POSITIONS_FRAC
P           0.264038000000000    0.528076000000000    0.000000000000000 
P           0.264038000000000    0.735962000000000    0.000000000000000 
P           0.471924000000000    0.735962000000000    0.000000000000000 
P           0.528076000000000    0.264038000000000    0.000000000000000 
P           0.735962000000000    0.264038000000000    0.000000000000000 
P           0.735962000000000    0.471924000000000    0.000000000000000 
K          -0.000000000000000    0.500000000000000    0.000000000000000 
K          -0.000000000000000    0.500000000000000    0.500000000000000 
K           0.500000000000000   -0.000000000000000    0.000000000000000 
K           0.500000000000000   -0.000000000000000    0.500000000000000 
K           0.500000000000000    0.500000000000000    0.000000000000000 
K           0.500000000000000    0.500000000000000    0.500000000000000 
%ENDBLOCK POSITIONS_FRAC
