# Cell file generated by matador (Matthew Evans 2016)

%BLOCK LATTICE_CART
8.89219 0.0 0.0
-4.4461 7.70086 0.0
0.0 0.0 6.40658
%ENDBLOCK LATTICE_CART

%BLOCK POSITIONS_FRAC
P          -0.000000000000000    0.000000000000000    0.500000000000000 
P          -0.000000000000000    0.500000000000000    0.000000000000000 
P          -0.000000000000000    0.500000000000000    0.500000000000000 
P           0.500000000000000    0.000000000000000    0.000000000000000 
P           0.500000000000000    0.000000000000000    0.500000000000000 
P           0.500000000000000    0.500000000000000    0.000000000000000 
P           0.500000000000000    0.500000000000000    0.500000000000000 
K           0.056358000000000    0.839025000000000    0.864480000000000 
K           0.160975000000000    0.217334000000000    0.864480000000000 
K           0.217333000000000    0.056359000000000    0.135520000000000 
K           0.782666000000000    0.943642000000000    0.864480000000000 
K           0.839024000000000    0.782667000000000    0.135520000000000 
K           0.943641000000000    0.160976000000000    0.135520000000000 
%ENDBLOCK POSITIONS_FRAC
