# Cell file generated by matador (Matthew Evans 2016)

%BLOCK LATTICE_CART
9.8232 0.0 0.0
0.0 9.8232 0.0
0.0 0.0 10.4875
%ENDBLOCK LATTICE_CART

%BLOCK POSITIONS_FRAC
P           0.000000000000000    0.000000000000000    0.000000000000000 
P           0.000000000000000    0.500000000000000    0.000000000000000 
P           0.000000000000000    0.500000000000000    0.500000000000000 
P           0.500000000000000    0.000000000000000    0.000000000000000 
P           0.500000000000000    0.000000000000000    0.500000000000000 
P           0.500000000000000    0.500000000000000    0.000000000000000 
K           0.000000000000000    0.000000000000000    0.500000000000000 
K           0.059217000000000    0.208729000000000    0.000000000000000 
K           0.201350000000000    0.701350000000000    0.226883000000000 
K           0.201350000000000    0.701350000000000    0.773117000000000 
K           0.208729000000000    0.940783000000000    0.000000000000000 
K           0.291271000000000    0.440783000000000    0.000000000000000 
K           0.298650000000000    0.201350000000000    0.226883000000000 
K           0.298650000000000    0.201350000000000    0.773117000000000 
K           0.440783000000000    0.708729000000000    0.000000000000000 
K           0.500000000000000    0.500000000000000    0.500000000000000 
K           0.559217000000000    0.291271000000000    0.000000000000000 
K           0.701350000000000    0.798650000000000    0.226883000000000 
K           0.701350000000000    0.798650000000000    0.773117000000000 
K           0.708729000000000    0.559217000000000    0.000000000000000 
K           0.791271000000000    0.059217000000000    0.000000000000000 
K           0.798650000000000    0.298650000000000    0.226883000000000 
K           0.798650000000000    0.298650000000000    0.773117000000000 
K           0.940783000000000    0.791271000000000    0.000000000000000 
%ENDBLOCK POSITIONS_FRAC
