# Cell file generated by matador (Matthew Evans 2016)

%BLOCK LATTICE_CART
6.65799 0.0 0.0
-3.32899 5.76598 0.0
0.0 0.0 7.94119
%ENDBLOCK LATTICE_CART

%BLOCK POSITIONS_FRAC
P           0.000000000000000    0.500000000000000    0.253805000000000 
P           0.000000000000000    0.500000000000000    0.746195000000000 
P           0.500000000000000    0.000000000000000    0.253805000000000 
P           0.500000000000000    0.000000000000000    0.746195000000000 
P           0.500000000000000    0.500000000000000    0.253805000000000 
P           0.500000000000000    0.500000000000000    0.746195000000000 
K           0.000000000000000    0.000000000000000    0.000000000000000 
K           0.000000000000000    0.000000000000000    0.500000000000000 
K           0.333333000000000    0.666667000000000    0.500000000000000 
K           0.666667000000000    0.333333000000000    0.500000000000000 
%ENDBLOCK POSITIONS_FRAC
