# Cell file generated by matador (Matthew Evans 2016)

%BLOCK LATTICE_CART
10.8942 0.0 0.0
-5.44712 9.4347 0.0
0.0 0.0 6.19346
%ENDBLOCK LATTICE_CART

%BLOCK POSITIONS_FRAC
P           0.333332000000000    0.666668000000000    0.250000000000000 
P           0.333332000000000    0.666668000000000    0.750000000000000 
P           0.666666000000000    0.333334000000000    0.250000000000000 
P           0.666666000000000    0.333334000000000    0.750000000000000 
K           0.999999000000000    0.550541000000000    0.000000000000000 
K           0.999999000000000    0.550541000000000    0.500000000000000 
K           0.104420000000000    0.367057000000000    0.250000000000000 
K           0.262634000000000    0.895580000000000    0.250000000000000 
K           0.367055000000000    0.104422000000000    0.750000000000000 
K           0.449459000000000    0.449461000000000    0.000000000000000 
K           0.449459000000000    0.449461000000000    0.500000000000000 
K           0.550539000000000    0.000001000000000    0.000000000000000 
K           0.550539000000000    0.000001000000000    0.500000000000000 
K           0.632943000000000    0.737366000000000    0.250000000000000 
K           0.737364000000000    0.632945000000000    0.750000000000000 
K           0.895578000000000    0.262636000000000    0.750000000000000 
%ENDBLOCK POSITIONS_FRAC
