# Cell file generated by matador (Matthew Evans 2016)

%BLOCK LATTICE_CART
8.01735 0.0 0.0
0.0 8.01735 0.0
0.0 0.0 7.68389
%ENDBLOCK LATTICE_CART

%BLOCK POSITIONS_FRAC
P           0.000000000000000    0.000000000000000    0.000000000000000 
P           0.000000000000000    0.000000000000000    0.500000000000000 
P           0.500000000000000    0.500000000000000    0.000000000000000 
P           0.500000000000000    0.500000000000000    0.500000000000000 
K           0.000000000000000    0.500000000000000    0.250000000000000 
K           0.000000000000000    0.500000000000000    0.750000000000000 
K           0.063581000000000    0.648271000000000    0.500000000000000 
K           0.148271000000000    0.563581000000000    0.000000000000000 
K           0.351729000000000    0.063581000000000    0.000000000000000 
K           0.436419000000000    0.148271000000000    0.500000000000000 
K           0.500000000000000    0.000000000000000    0.250000000000000 
K           0.500000000000000    0.000000000000000    0.750000000000000 
K           0.563581000000000    0.851729000000000    0.500000000000000 
K           0.648271000000000    0.936419000000000    0.000000000000000 
K           0.851729000000000    0.436419000000000    0.000000000000000 
K           0.936419000000000    0.351729000000000    0.500000000000000 
%ENDBLOCK POSITIONS_FRAC
