# Cell file generated by matador (Matthew Evans 2016)

%BLOCK LATTICE_CART
6.69584 0.0 0.0
0.0 7.90686 0.0
-0.81884 0.0 6.41913
%ENDBLOCK LATTICE_CART

%BLOCK POSITIONS_FRAC
P           0.392931000000000    0.500000000000000    0.661558000000000 
P           0.949288000000000    0.000000000000000    0.725452000000000 
K           0.014123000000000    0.000000000000000    0.132033000000000 
K           0.060863000000000    0.500000000000000    0.021986000000000 
K           0.379047000000000    0.500000000000000    0.350741000000000 
K           0.596972000000000    0.000000000000000    0.704940000000000 
K           0.669612000000000    0.500000000000000    0.778779000000000 
K           0.817764000000000    0.500000000000000    0.361722000000000 
%ENDBLOCK POSITIONS_FRAC
