# Cell file generated by matador (Matthew Evans 2016)

%BLOCK LATTICE_CART
10.4271 0.0 0.0
0.0 8.17972 0.0
0.0 0.0 5.13076
%ENDBLOCK LATTICE_CART

%BLOCK POSITIONS_FRAC
P           0.191807000000000    0.000000000000000    0.500000000000000 
P           0.191807000000000    0.500000000000000    0.000000000000000 
P           0.308193000000000    0.000000000000000    0.000000000000000 
P           0.308193000000000    0.500000000000000    0.500000000000000 
P           0.691807000000000    0.000000000000000    0.000000000000000 
P           0.691807000000000    0.500000000000000    0.500000000000000 
P           0.808193000000000    0.000000000000000    0.500000000000000 
P           0.808193000000000    0.500000000000000    0.000000000000000 
K           0.000000000000000    0.000000000000000    0.500000000000000 
K           0.000000000000000    0.500000000000000    0.000000000000000 
K           0.500000000000000    0.000000000000000    0.000000000000000 
K           0.500000000000000    0.500000000000000    0.500000000000000 
%ENDBLOCK POSITIONS_FRAC
