# Cell file generated by matador (Matthew Evans 2016)

%BLOCK LATTICE_CART
8.31509 0.0 0.0
0.0 8.31509 0.0
0.0 0.0 7.20108
%ENDBLOCK LATTICE_CART

%BLOCK POSITIONS_FRAC
P           0.000000000000000    0.000000000000000    0.250000000000000 
P           0.000000000000000    0.000000000000000    0.750000000000000 
K           0.000000000000000    0.500000000000000    0.000000000000000 
K           0.000000000000000    0.500000000000000    0.500000000000000 
K           0.346762000000000    0.361420000000000    0.500000000000000 
K           0.346762000000000    0.638580000000000    0.000000000000000 
K           0.361420000000000    0.346762000000000    0.000000000000000 
K           0.361420000000000    0.653238000000000    0.500000000000000 
K           0.500000000000000    0.000000000000000    0.000000000000000 
K           0.500000000000000    0.000000000000000    0.500000000000000 
K           0.638580000000000    0.346762000000000    0.500000000000000 
K           0.638580000000000    0.653238000000000    0.000000000000000 
K           0.653238000000000    0.361420000000000    0.000000000000000 
K           0.653238000000000    0.638580000000000    0.500000000000000 
%ENDBLOCK POSITIONS_FRAC
