# Cell file generated by matador (Matthew Evans 2016)

%BLOCK LATTICE_CART
3.60793 0.0 0.0
0.0 4.46358 0.0
-2.06151 0.0 6.84419
%ENDBLOCK LATTICE_CART

%BLOCK POSITIONS_FRAC
P           0.000000000000000    0.000000000000000    0.500000000000000 
P           0.000000000000000    0.500000000000000    0.000000000000000 
P           0.244135000000000    0.500000000000000    0.961296000000000 
P           0.500000000000000    0.000000000000000    0.500000000000000 
P           0.755865000000000    0.500000000000000    0.038704000000000 
K           0.000000000000000    0.000000000000000    0.000000000000000 
%ENDBLOCK POSITIONS_FRAC
