# Cell file generated by matador (Matthew Evans 2016)

%BLOCK LATTICE_CART
3.73235 0.0 0.0
0.0 6.70247 0.0
0.271656 0.0 9.2822
%ENDBLOCK LATTICE_CART

%BLOCK POSITIONS_FRAC
P           0.235141000000000    0.556516000000000    0.833049000000000 
P           0.273985000000000    0.112961000000000    0.160301000000000 
P           0.500000000000000    0.433822000000000    0.000000000000000 
P           0.726015000000000    0.112961000000000    0.839699000000000 
P           0.764859000000000    0.556516000000000    0.166951000000000 
K           0.000000000000000    0.862428000000000    0.000000000000000 
K           0.041534000000000    0.457159000000000    0.352287000000000 
K           0.958466000000000    0.457159000000000    0.647713000000000 
%ENDBLOCK POSITIONS_FRAC
