# Cell file generated by matador (Matthew Evans 2016)

%BLOCK LATTICE_CART
7.46102 0.0 0.0
-3.73051 6.46143 0.0
0.0 0.0 8.02431
%ENDBLOCK LATTICE_CART

%BLOCK POSITIONS_FRAC
P           0.333333000000000    0.666667000000000    0.619044000000000 
P           0.333333000000000    0.666667000000000    0.999290000000000 
P           0.666666000000000    0.333334000000000    0.619044000000000 
P           0.666666000000000    0.333334000000000    0.999290000000000 
K          -0.000000000000000    0.000000000000000    0.280260000000000 
K          -0.000000000000000    0.316317000000000    0.181781000000000 
K          -0.000000000000000    0.502887000000000    0.497527000000000 
K           0.316317000000000    0.000000000000000    0.181781000000000 
K           0.497113000000000    0.497113000000000    0.497527000000000 
K           0.502887000000000    0.000000000000000    0.497527000000000 
K           0.683683000000000    0.683683000000000    0.181781000000000 
%ENDBLOCK POSITIONS_FRAC
