# Cell file generated by matador (Matthew Evans 2016)

%BLOCK LATTICE_CART
7.02725 0.0 0.0
0.0 7.27609 0.0
-2.88188 0.0 7.68727
%ENDBLOCK LATTICE_CART

%BLOCK POSITIONS_FRAC
P           0.000000000000000    0.446467000000000    0.500000000000000 
P           0.000000000000000    0.946140000000000    0.500000000000000 
P           0.500000000000000    0.188717000000000    0.000000000000000 
P           0.500000000000000    0.568303000000000    0.500000000000000 
K           0.240453000000000    0.594916000000000    0.038820000000000 
K           0.266154000000000    0.822167000000000    0.880335000000000 
K           0.461772000000000    0.410592000000000    0.700955000000000 
K           0.500000000000000    0.258392000000000    0.500000000000000 
K           0.538228000000000    0.410592000000000    0.299045000000000 
K           0.733846000000000    0.822167000000000    0.119665000000000 
K           0.759547000000000    0.594916000000000    0.961180000000000 
%ENDBLOCK POSITIONS_FRAC
