# Cell file generated by matador (Matthew Evans 2016)

%BLOCK LATTICE_CART
5.32766 0.0 0.0
0.0 9.09563 0.0
0.0 0.0 7.67237
%ENDBLOCK LATTICE_CART

%BLOCK POSITIONS_FRAC
P           0.000000000000000    0.097136000000000    0.094860000000000 
P           0.000000000000000    0.127504000000000    0.354441000000000 
P           0.000000000000000    0.695583000000000    0.567925000000000 
P           0.141757000000000    0.775985000000000    0.686002000000000 
P           0.358243000000000    0.224015000000000    0.186002000000000 
P           0.500000000000000    0.304417000000000    0.067925000000000 
P           0.500000000000000    0.872496000000000    0.854441000000000 
P           0.500000000000000    0.902864000000000    0.594860000000000 
P           0.641757000000000    0.224015000000000    0.186002000000000 
P           0.858243000000000    0.775985000000000    0.686002000000000 
K           0.223555000000000    0.749416000000000    0.061391000000000 
K           0.276445000000000    0.250584000000000    0.561391000000000 
K           0.723555000000000    0.250584000000000    0.561391000000000 
K           0.776445000000000    0.749416000000000    0.061391000000000 
%ENDBLOCK POSITIONS_FRAC
