# Cell file generated by matador (Matthew Evans 2016)

%BLOCK LATTICE_CART
6.50636 0.0 0.0
0.0 6.50636 0.0
0.0 0.0 11.6534
%ENDBLOCK LATTICE_CART

%BLOCK POSITIONS_FRAC
P           0.000000000000000    0.000000000000000    0.000000000000000 
P           0.000000000000000    0.500000000000000    0.682994000000000 
P           0.500000000000000    0.000000000000000    0.317006000000000 
K           0.000000000000000    0.000000000000000    0.500000000000000 
K           0.000000000000000    0.500000000000000    0.985382000000000 
K           0.238503000000000    0.500000000000000    0.287658000000000 
K           0.500000000000000    0.000000000000000    0.014618000000000 
K           0.500000000000000    0.238503000000000    0.712342000000000 
K           0.500000000000000    0.500000000000000    0.000000000000000 
K           0.500000000000000    0.500000000000000    0.500000000000000 
K           0.500000000000000    0.761497000000000    0.712342000000000 
K           0.761497000000000    0.500000000000000    0.287658000000000 
%ENDBLOCK POSITIONS_FRAC
