# Cell file generated by matador (Matthew Evans 2016)

%BLOCK LATTICE_CART
5.13246 0.0 0.0
-2.15388 7.59297 0.0
-4.32279 3.00953 7.25052
%ENDBLOCK LATTICE_CART

%BLOCK POSITIONS_FRAC
P           0.500000000000000    0.000000000000000    0.000000000000000 
P           0.500000000000000    0.500000000000000    0.500000000000000 
K           0.000000000000000    0.000000000000000    0.000000000000000 
K           0.000000000000000    0.000000000000000    0.500000000000000 
K           0.000000000000000    0.500000000000000    0.500000000000000 
K           0.136379000000000    0.665255000000000    0.188447000000000 
K           0.160533000000000    0.678593000000000    0.660778000000000 
K           0.839467000000000    0.321407000000000    0.339222000000000 
K           0.863621000000000    0.334745000000000    0.811553000000000 
%ENDBLOCK POSITIONS_FRAC
