# Cell file generated by matador (Matthew Evans 2016)

%BLOCK LATTICE_CART
11.684 0.0 0.0
-5.84198 10.1186 0.0
0.0 0.0 5.91228
%ENDBLOCK LATTICE_CART

%BLOCK POSITIONS_FRAC
P           0.000000000000000    0.000000000000000    0.000000000000000 
P           0.000000000000000    0.000000000000000    0.500000000000000 
P           0.333333000000000    0.666667000000000    0.186026000000000 
P           0.666667000000000    0.333333000000000    0.813974000000000 
K           0.131828000000000    0.263656000000000    0.778803000000000 
K           0.131828000000000    0.868172000000000    0.778803000000000 
K           0.212273000000000    0.424547000000000    0.248862000000000 
K           0.212273000000000    0.787727000000000    0.248862000000000 
K           0.263656000000000    0.131828000000000    0.221197000000000 
K           0.424547000000000    0.212273000000000    0.751138000000000 
K           0.575453000000000    0.787727000000000    0.248862000000000 
K           0.736344000000000    0.868172000000000    0.778803000000000 
K           0.787727000000000    0.212273000000000    0.751138000000000 
K           0.787727000000000    0.575453000000000    0.751138000000000 
K           0.868172000000000    0.131828000000000    0.221197000000000 
K           0.868172000000000    0.736344000000000    0.221197000000000 
%ENDBLOCK POSITIONS_FRAC
