# Cell file generated by matador (Matthew Evans 2016)

%BLOCK LATTICE_CART
10.7765 0.0 0.0
0.0 8.42803 0.0
5.58459 0.0 9.90889
%ENDBLOCK LATTICE_CART

%BLOCK POSITIONS_FRAC
P           0.000000000000000    0.000000000000000    0.500000000000000 
P           0.000000000000000    0.500000000000000    0.500000000000000 
P           0.432937000000000    0.750000000000000    0.657466000000000 
P           0.500000000000000    0.000000000000000   -0.000000000000000 
P           0.500000000000000    0.500000000000000   -0.000000000000000 
P           0.567063000000000    0.250000000000000    0.342534000000000 
K           0.000000000000000    0.000000000000000   -0.000000000000000 
K           0.000000000000000    0.500000000000000   -0.000000000000000 
K           0.017013000000000    0.250000000000000    0.596044000000000 
K           0.032818000000000    0.250000000000000    0.331593000000000 
K           0.199032000000000    0.750000000000000    0.816498000000000 
K           0.281449000000000    0.250000000000000    0.908786000000000 
K           0.287326000000000    0.250000000000000    0.602175000000000 
K           0.312540000000000    0.750000000000000    0.371697000000000 
K           0.483749000000000    0.250000000000000    0.094811000000000 
K           0.500000000000000    0.000000000000000    0.500000000000000 
K           0.500000000000000    0.500000000000000    0.500000000000000 
K           0.516251000000000    0.750000000000000    0.905189000000000 
K           0.687460000000000    0.250000000000000    0.628303000000000 
K           0.712674000000000    0.750000000000000    0.397825000000000 
K           0.718551000000000    0.750000000000000    0.091214000000000 
K           0.800968000000000    0.250000000000000    0.183502000000000 
K           0.967182000000000    0.750000000000000    0.668407000000000 
K           0.982987000000000    0.750000000000000    0.403956000000000 
%ENDBLOCK POSITIONS_FRAC
