# Cell file generated by matador (Matthew Evans 2016)

%BLOCK LATTICE_CART
13.1217 0.0 0.0
0.0 6.52557 0.0
0.0 0.0 7.13184
%ENDBLOCK LATTICE_CART

%BLOCK POSITIONS_FRAC
P           0.096047000000000    0.000000000000000    0.000000000000000 
P           0.403953000000000    0.500000000000000    0.500000000000000 
P           0.596047000000000    0.500000000000000    0.500000000000000 
P           0.903953000000000    0.000000000000000    0.000000000000000 
K           0.000000000000000    0.000000000000000    0.500000000000000 
K           0.000000000000000    0.500000000000000    0.500000000000000 
K           0.202691000000000    0.251771000000000    0.500000000000000 
K           0.202691000000000    0.748229000000000    0.500000000000000 
K           0.297309000000000    0.248229000000000    0.000000000000000 
K           0.297309000000000    0.751771000000000    0.000000000000000 
K           0.500000000000000    0.000000000000000    0.000000000000000 
K           0.500000000000000    0.500000000000000    0.000000000000000 
K           0.702691000000000    0.248229000000000    0.000000000000000 
K           0.702691000000000    0.751771000000000    0.000000000000000 
K           0.797309000000000    0.251771000000000    0.500000000000000 
K           0.797309000000000    0.748229000000000    0.500000000000000 
%ENDBLOCK POSITIONS_FRAC
