# Cell file generated by matador (Matthew Evans 2016)

%BLOCK LATTICE_CART
4.29131 0.0 0.0
-2.14566 3.71639 0.0
0.0 0.0 8.18936
%ENDBLOCK LATTICE_CART

%BLOCK POSITIONS_FRAC
P           0.234944000000000    0.495148000000000    0.243088000000000 
P           0.260204000000000    0.765056000000000    0.243088000000000 
P           0.504852000000000    0.739796000000000    0.243088000000000 
P           0.666666000000000    0.333334000000000    0.021957000000000 
K           0.333333000000000    0.666667000000000    0.960973000000000 
%ENDBLOCK POSITIONS_FRAC
