# Cell file generated by matador (Matthew Evans 2016)

%BLOCK LATTICE_CART
8.8164 0.0 0.0
0.0 8.8164 0.0
0.0 0.0 12.7626
%ENDBLOCK LATTICE_CART

%BLOCK POSITIONS_FRAC
P          -0.000000000000000    0.500000000000000    0.500000000000000 
P           0.246067000000000    0.253933000000000    0.000000000000000 
P           0.253933000000000    0.753933000000000    0.000000000000000 
P           0.500000000000000   -0.000000000000000    0.500000000000000 
P           0.746067000000000    0.246067000000000    0.000000000000000 
P           0.753933000000000    0.746067000000000    0.000000000000000 
K          -0.000000000000000   -0.000000000000000    0.000000000000000 
K           0.030906000000000    0.236706000000000    0.500000000000000 
K           0.127978000000000    0.627978000000000    0.316233000000000 
K           0.127978000000000    0.627978000000000    0.683767000000000 
K           0.236706000000000    0.969094000000000    0.500000000000000 
K           0.263294000000000    0.469094000000000    0.500000000000000 
K           0.372022000000000    0.127978000000000    0.316233000000000 
K           0.372022000000000    0.127978000000000    0.683767000000000 
K           0.469094000000000    0.736706000000000    0.500000000000000 
K           0.500000000000000    0.500000000000000    0.000000000000000 
K           0.530906000000000    0.263294000000000    0.500000000000000 
K           0.627978000000000    0.872022000000000    0.316233000000000 
K           0.627978000000000    0.872022000000000    0.683767000000000 
K           0.736706000000000    0.530906000000000    0.500000000000000 
K           0.763294000000000    0.030906000000000    0.500000000000000 
K           0.872022000000000    0.372022000000000    0.316233000000000 
K           0.872022000000000    0.372022000000000    0.683767000000000 
K           0.969094000000000    0.763294000000000    0.500000000000000 
%ENDBLOCK POSITIONS_FRAC
