# Cell file generated by matador (Matthew Evans 2016)

%BLOCK LATTICE_CART
8.77294 -0.0 0.0
-4.38647 7.59759 0.0
0.0 0.0 6.60291
%ENDBLOCK LATTICE_CART

%BLOCK POSITIONS_FRAC
P           0.170037000000000    0.345104000000000    0.686746000000000 
P           0.175067000000000    0.829963000000000    0.686746000000000 
P           0.333333000000000    0.666667000000000    0.301137000000000 
P           0.333333000000000    0.666667000000000    0.624669000000000 
P           0.345104000000000    0.175067000000000    0.186746000000000 
P           0.654896000000000    0.824933000000000    0.686746000000000 
P           0.666667000000000    0.333333000000000    0.124669000000000 
P           0.666667000000000    0.333333000000000    0.801137000000000 
P           0.824933000000000    0.170037000000000    0.186746000000000 
P           0.829963000000000    0.654896000000000    0.186746000000000 
K           0.116932000000000    0.281125000000000    0.082409000000000 
K           0.164193000000000    0.883068000000000    0.082409000000000 
K           0.281125000000000    0.164193000000000    0.582409000000000 
K           0.718875000000000    0.835807000000000    0.082409000000000 
K           0.835807000000000    0.116932000000000    0.582409000000000 
K           0.883068000000000    0.718875000000000    0.582409000000000 
%ENDBLOCK POSITIONS_FRAC
