# Cell file generated by matador (Matthew Evans 2016)

%BLOCK LATTICE_CART
9.84784 0.0 0.0
0.0 8.80259 0.0
0.0 0.0 13.1947
%ENDBLOCK LATTICE_CART

%BLOCK POSITIONS_FRAC
P          -0.000000000000000    0.000000000000000    0.325943000000000 
P          -0.000000000000000    0.500000000000000    0.825943000000000 
P           0.250000000000000    0.614860000000000    0.693306000000000 
P           0.250000000000000    0.885140000000000    0.193306000000000 
P           0.500000000000000    0.000000000000000    0.325943000000000 
P           0.500000000000000    0.500000000000000    0.825943000000000 
P           0.750000000000000    0.114860000000000    0.193306000000000 
P           0.750000000000000    0.385140000000000    0.693306000000000 
K          -0.000000000000000    0.000000000000000    0.049851000000000 
K          -0.000000000000000    0.500000000000000    0.549851000000000 
K           0.250000000000000    0.024874000000000    0.313624000000000 
K           0.250000000000000    0.048305000000000    0.926191000000000 
K           0.250000000000000    0.175317000000000    0.717117000000000 
K           0.250000000000000    0.324683000000000    0.217117000000000 
K           0.250000000000000    0.451695000000000    0.426191000000000 
K           0.250000000000000    0.475126000000000    0.813624000000000 
K           0.250000000000000    0.508793000000000    0.033321000000000 
K           0.250000000000000    0.666173000000000    0.233969000000000 
K           0.250000000000000    0.833827000000000    0.733969000000000 
K           0.250000000000000    0.991207000000000    0.533321000000000 
K           0.500000000000000    0.000000000000000    0.049851000000000 
K           0.500000000000000    0.500000000000000    0.549851000000000 
K           0.750000000000000    0.008793000000000    0.533321000000000 
K           0.750000000000000    0.166173000000000    0.733969000000000 
K           0.750000000000000    0.333827000000000    0.233969000000000 
K           0.750000000000000    0.491207000000000    0.033321000000000 
K           0.750000000000000    0.524874000000000    0.813624000000000 
K           0.750000000000000    0.548305000000000    0.426191000000000 
K           0.750000000000000    0.675317000000000    0.217117000000000 
K           0.750000000000000    0.824683000000000    0.717117000000000 
K           0.750000000000000    0.951695000000000    0.926191000000000 
K           0.750000000000000    0.975126000000000    0.313624000000000 
%ENDBLOCK POSITIONS_FRAC
