# Cell file generated by matador (Matthew Evans 2016)

%BLOCK LATTICE_CART
10.4879 0.0 0.0
-5.24396 9.08281 0.0
0.0 0.0 5.78314
%ENDBLOCK LATTICE_CART

%BLOCK POSITIONS_FRAC
P           0.067526000000000    0.719807000000000    0.141200000000000 
P           0.280195000000000    0.347719000000000    0.474534000000000 
P           0.347719000000000    0.280195000000000    0.525466000000000 
P           0.652283000000000    0.932476000000000    0.807867000000000 
P           0.719807000000000    0.067526000000000    0.858800000000000 
P           0.932476000000000    0.652283000000000    0.192133000000000 
K           0.000001000000000    0.912568000000000    0.166667000000000 
K           0.087434000000000    0.087434000000000    0.500000000000000 
K           0.246596000000000    0.608509000000000    0.073707000000000 
K           0.361915000000000    0.753406000000000    0.740373000000000 
K           0.391493000000000    0.638087000000000    0.407040000000000 
K           0.608509000000000    0.246596000000000    0.926293000000000 
K           0.638087000000000    0.391493000000000    0.592960000000000 
K           0.753406000000000    0.361915000000000    0.259627000000000 
K           0.912568000000000    0.000001000000000    0.833333000000000 
%ENDBLOCK POSITIONS_FRAC
