# Cell file generated by matador (Matthew Evans 2016)

%BLOCK LATTICE_CART
5.68899 0.0 0.0
-2.8445 4.92681 0.0
0.0 0.0 8.15182
%ENDBLOCK LATTICE_CART

%BLOCK POSITIONS_FRAC
P           0.000000000000000    0.000000000000000    0.437393000000000 
K           0.000000000000000    0.500000000000000    0.927418000000000 
K           0.333333000000000    0.666667000000000    0.243102000000000 
K           0.500000000000000    0.000000000000000    0.927418000000000 
K           0.500000000000000    0.500000000000000    0.927418000000000 
K           0.666667000000000    0.333333000000000    0.243102000000000 
%ENDBLOCK POSITIONS_FRAC
