# Cell file generated by matador (Matthew Evans 2016)

%BLOCK LATTICE_CART
4.83135 0.0 0.0
-2.41567 4.18407 0.0
0.0 0.0 8.0065
%ENDBLOCK LATTICE_CART

%BLOCK POSITIONS_FRAC
P           0.000000000000000    0.000000000000000    0.065581000000000 
P           0.000000000000000    0.500000000000000    0.797983000000000 
P           0.333333000000000    0.666667000000000    0.988654000000000 
P           0.500000000000000    0.000000000000000    0.797983000000000 
P           0.500000000000000    0.500000000000000    0.797983000000000 
P           0.666667000000000    0.333333000000000    0.988654000000000 
K           0.000000000000000    0.000000000000000    0.463092000000000 
%ENDBLOCK POSITIONS_FRAC
