# Cell file generated by matador (Matthew Evans 2016)

%BLOCK LATTICE_CART
6.88452 0.0 0.0
-3.44226 5.96217 0.0
0.0 0.0 15.5749
%ENDBLOCK LATTICE_CART

%BLOCK POSITIONS_FRAC
P           0.105191000000000    0.210382000000000    0.500000000000000 
P           0.105191000000000    0.894809000000000    0.500000000000000 
P           0.210382000000000    0.105191000000000    0.500000000000000 
P           0.333333000000000    0.666667000000000    0.000000000000000 
P           0.666667000000000    0.333333000000000    0.000000000000000 
P           0.789618000000000    0.894809000000000    0.500000000000000 
P           0.894809000000000    0.105191000000000    0.500000000000000 
P           0.894809000000000    0.789618000000000    0.500000000000000 
K           0.000000000000000    0.500000000000000    0.000000000000000 
K           0.000000000000000    0.500000000000000    0.500000000000000 
K           0.333333000000000    0.666667000000000    0.245732000000000 
K           0.333333000000000    0.666667000000000    0.500000000000000 
K           0.333333000000000    0.666667000000000    0.754268000000000 
K           0.500000000000000    0.000000000000000    0.000000000000000 
K           0.500000000000000    0.000000000000000    0.500000000000000 
K           0.500000000000000    0.500000000000000    0.000000000000000 
K           0.500000000000000    0.500000000000000    0.500000000000000 
K           0.666667000000000    0.333333000000000    0.245732000000000 
K           0.666667000000000    0.333333000000000    0.500000000000000 
K           0.666667000000000    0.333333000000000    0.754268000000000 
%ENDBLOCK POSITIONS_FRAC
