# Cell file generated by matador (Matthew Evans 2016)

%BLOCK LATTICE_CART
9.04308 0.0 0.0
-4.52154 7.83154 0.0
0.0 0.0 8.02355
%ENDBLOCK LATTICE_CART

%BLOCK POSITIONS_FRAC
P           0.125975000000000    0.608436000000000    0.955009000000000 
P           0.127656000000000    0.391386000000000    0.771652000000000 
P           0.263730000000000    0.872344000000000    0.771652000000000 
P           0.333333000000000    0.666667000000000    0.577247000000000 
P           0.391386000000000    0.127656000000000    0.228348000000000 
P           0.391564000000000    0.517539000000000    0.955009000000000 
P           0.482461000000000    0.874025000000000    0.955009000000000 
P           0.517539000000000    0.391564000000000    0.044991000000000 
P           0.608436000000000    0.125975000000000    0.044991000000000 
P           0.608614000000000    0.736270000000000    0.771652000000000 
P           0.666666000000000    0.333334000000000    0.422753000000000 
P           0.736270000000000    0.608614000000000    0.228348000000000 
P           0.872344000000000    0.263730000000000    0.228348000000000 
P           0.874025000000000    0.482461000000000    0.044991000000000 
K           0.333333000000000    0.666667000000000    0.211091000000000 
K           0.666666000000000    0.333334000000000    0.788909000000000 
%ENDBLOCK POSITIONS_FRAC
