# Cell file generated by matador (Matthew Evans 2016)

%BLOCK LATTICE_CART
7.74065 0.0 0.0
0.0 7.74065 0.0
0.0 0.0 11.8425
%ENDBLOCK LATTICE_CART

%BLOCK POSITIONS_FRAC
P           0.195982000000000    0.500000000000000    0.684890000000000 
P           0.500000000000000    0.195982000000000    0.315110000000000 
P           0.500000000000000    0.804018000000000    0.315110000000000 
P           0.804018000000000    0.500000000000000    0.684890000000000 
K           0.000000000000000    0.500000000000000    0.954352000000000 
K           0.241688000000000    0.500000000000000    0.489587000000000 
K           0.287619000000000    0.349236000000000    0.812468000000000 
K           0.287619000000000    0.650764000000000    0.812468000000000 
K           0.349236000000000    0.287619000000000    0.187532000000000 
K           0.349236000000000    0.712381000000000    0.187532000000000 
K           0.500000000000000    0.000000000000000    0.045648000000000 
K           0.500000000000000    0.241688000000000    0.510413000000000 
K           0.500000000000000    0.758312000000000    0.510413000000000 
K           0.650764000000000    0.287619000000000    0.187532000000000 
K           0.650764000000000    0.712381000000000    0.187532000000000 
K           0.712381000000000    0.349236000000000    0.812468000000000 
K           0.712381000000000    0.650764000000000    0.812468000000000 
K           0.758312000000000    0.500000000000000    0.489587000000000 
%ENDBLOCK POSITIONS_FRAC
