# Cell file generated by matador (Matthew Evans 2016)

%BLOCK LATTICE_CART
7.68796 0.0 0.0
-3.84398 6.65797 0.0
0.0 0.0 8.94925
%ENDBLOCK LATTICE_CART

%BLOCK POSITIONS_FRAC
P           0.150430000000000    0.426111000000000    0.275943000000000 
P           0.150430000000000    0.724319000000000    0.724057000000000 
P           0.275681000000000    0.426111000000000    0.390723000000000 
P           0.275681000000000    0.849570000000000    0.609277000000000 
P           0.282949000000000    0.641475000000000   -0.000000000000000 
P           0.358525000000000    0.641475000000000    0.666667000000000 
P           0.358525000000000    0.717051000000000    0.333333000000000 
P           0.573889000000000    0.724319000000000    0.942610000000000 
P           0.573889000000000    0.849570000000000    0.057390000000000 
K           0.002864000000000    0.005728000000000    0.833333000000000 
K           0.002864000000000    0.997136000000000    0.166667000000000 
K           0.319123000000000    0.084329000000000    0.893689000000000 
K           0.319123000000000    0.234793000000000    0.106311000000000 
K           0.765207000000000    0.084329000000000    0.772977000000000 
K           0.765207000000000    0.680877000000000    0.227023000000000 
K           0.915671000000000    0.234793000000000    0.560356000000000 
K           0.915671000000000    0.680877000000000    0.439644000000000 
K           0.994272000000000    0.997136000000000    0.500000000000000 
%ENDBLOCK POSITIONS_FRAC
