# Cell file generated by matador (Matthew Evans 2016)

%BLOCK LATTICE_CART
6.34789 0.0 0.0
-3.17394 5.49743 0.0
0.0 0.0 6.70357
%ENDBLOCK LATTICE_CART

%BLOCK POSITIONS_FRAC
P           0.000000000000000    0.000000000000000    0.282884000000000 
P           0.000000000000000    0.000000000000000    0.455060000000000 
K           0.243103000000000    0.076009000000000    0.966262000000000 
K           0.666667000000000    0.333333000000000    0.258572000000000 
K           0.832906000000000    0.756897000000000    0.966262000000000 
K           0.923991000000000    0.167094000000000    0.966262000000000 
%ENDBLOCK POSITIONS_FRAC
