# Cell file generated by matador (Matthew Evans 2016)

%BLOCK LATTICE_CART
8.57899 0.0 0.0
-4.28949 7.42962 0.0
0.0 0.0 7.47676
%ENDBLOCK LATTICE_CART

%BLOCK POSITIONS_FRAC
P           0.333333000000000    0.666667000000000    0.952013000000000 
P           0.373499000000000    0.012564000000000    0.238436000000000 
P           0.489842000000000    0.136352000000000    0.068613000000000 
P           0.639066000000000    0.626501000000000    0.238436000000000 
P           0.646510000000000    0.510158000000000    0.068613000000000 
P           0.666667000000000    0.333333000000000    0.132081000000000 
P           0.666667000000000    0.333333000000000    0.488603000000000 
P           0.863648000000000    0.353490000000000    0.068613000000000 
P           0.987436000000000    0.360934000000000    0.238436000000000 
K           0.017617000000000    0.524469000000000    0.628263000000000 
K           0.184463000000000    0.679128000000000    0.221623000000000 
K           0.320872000000000    0.505335000000000    0.221623000000000 
K           0.475531000000000    0.493148000000000    0.628263000000000 
K           0.494665000000000    0.815537000000000    0.221623000000000 
K           0.506852000000000    0.982383000000000    0.628263000000000 
%ENDBLOCK POSITIONS_FRAC
