# Cell file generated by matador (Matthew Evans 2016)

%BLOCK LATTICE_CART
5.9953 0.0 0.0
0.0 7.57642 0.0
0.0 0.0 7.36893
%ENDBLOCK LATTICE_CART

%BLOCK POSITIONS_FRAC
P           0.000000000000000    0.545915000000000    0.566245000000000 
P           0.000000000000000    0.822625000000000    0.203949000000000 
P           0.230266000000000    0.389114000000000    0.829938000000000 
P           0.269734000000000    0.610886000000000    0.329938000000000 
P           0.500000000000000    0.177375000000000    0.703949000000000 
P           0.500000000000000    0.454085000000000    0.066245000000000 
P           0.730266000000000    0.610886000000000    0.329938000000000 
P           0.769734000000000    0.389114000000000    0.829938000000000 
K           0.185872000000000    0.122464000000000    0.311419000000000 
K           0.314128000000000    0.877536000000000    0.811419000000000 
K           0.685872000000000    0.877536000000000    0.811419000000000 
K           0.814128000000000    0.122464000000000    0.311419000000000 
%ENDBLOCK POSITIONS_FRAC
