# Cell file generated by matador (Matthew Evans 2016)

%BLOCK LATTICE_CART
7.68379 0.0 0.0
0.0 7.68379 0.0
0.0 0.0 5.29199
%ENDBLOCK LATTICE_CART

%BLOCK POSITIONS_FRAC
P           0.105035000000000    0.833900000000000    0.217845000000000 
P           0.166100000000000    0.105035000000000    0.782155000000000 
P           0.833900000000000    0.894965000000000    0.782155000000000 
P           0.894965000000000    0.166100000000000    0.217845000000000 
K           0.248063000000000    0.538164000000000    0.969575000000000 
K           0.461836000000000    0.248063000000000    0.030426000000000 
K           0.500000000000000    0.500000000000000    0.500000000000000 
K           0.538164000000000    0.751937000000000    0.030426000000000 
K           0.751937000000000    0.461836000000000    0.969575000000000 
%ENDBLOCK POSITIONS_FRAC
