# Cell file generated by matador (Matthew Evans 2016)

%BLOCK LATTICE_CART
8.35068 0.0 0.0
-4.17534 7.23191 0.0
0.0 0.0 5.27274
%ENDBLOCK LATTICE_CART

%BLOCK POSITIONS_FRAC
P           0.000000000000000    0.000000000000000    0.000000000000000 
P           0.000000000000000    0.000000000000000    0.500000000000000 
K           0.157097000000000    0.424587000000000    0.500000000000000 
K           0.267490000000000    0.842903000000000    0.500000000000000 
K           0.424587000000000    0.267490000000000    0.500000000000000 
K           0.575413000000000    0.732510000000000    0.500000000000000 
K           0.732510000000000    0.157097000000000    0.500000000000000 
K           0.842903000000000    0.575413000000000    0.500000000000000 
%ENDBLOCK POSITIONS_FRAC
