# Cell file generated by matador (Matthew Evans 2016)

%BLOCK LATTICE_CART
9.18725 0.0 0.0
0.0 9.18725 0.0
0.0 0.0 7.92917
%ENDBLOCK LATTICE_CART

%BLOCK POSITIONS_FRAC
P           0.000000000000000    0.000000000000000    0.000000000000000 
P           0.000000000000000    0.500000000000000    0.250000000000000 
P           0.500000000000000    0.000000000000000    0.750000000000000 
P           0.500000000000000    0.500000000000000    0.500000000000000 
K           0.000000000000000    0.000000000000000    0.500000000000000 
K           0.000000000000000    0.263072000000000    0.275861000000000 
K           0.000000000000000    0.500000000000000    0.750000000000000 
K           0.000000000000000    0.736928000000000    0.275861000000000 
K           0.236928000000000    0.500000000000000    0.224139000000000 
K           0.263072000000000    0.000000000000000    0.724139000000000 
K           0.500000000000000    0.000000000000000    0.250000000000000 
K           0.500000000000000    0.236928000000000    0.775861000000000 
K           0.500000000000000    0.500000000000000    0.000000000000000 
K           0.500000000000000    0.763072000000000    0.775861000000000 
K           0.736928000000000    0.000000000000000    0.724139000000000 
K           0.763072000000000    0.500000000000000    0.224139000000000 
%ENDBLOCK POSITIONS_FRAC
