# Cell file generated by matador (Matthew Evans 2016)

%BLOCK LATTICE_CART
5.24194 0.0 0.0
-2.62097 4.53965 0.0
0.0 0.0 6.58457
%ENDBLOCK LATTICE_CART

%BLOCK POSITIONS_FRAC
P          -0.000000000000000    0.455257000000000    0.864925000000000 
P           0.455257000000000    0.000000000000000    0.864925000000000 
P           0.544743000000000    0.544743000000000    0.864925000000000 
K           0.333333000000000    0.666667000000000    0.410644000000000 
K           0.666666000000000    0.333334000000000    0.410644000000000 
%ENDBLOCK POSITIONS_FRAC
