# Cell file generated by matador (Matthew Evans 2016)

%BLOCK LATTICE_CART
7.9729 0.0 0.0
0.0 6.23354 0.0
0.970813 0.0 8.14864
%ENDBLOCK LATTICE_CART

%BLOCK POSITIONS_FRAC
P           0.000000000000000    0.000000000000000    0.000000000000000 
P           0.000000000000000    0.000000000000000    0.500000000000000 
P           0.437755000000000    0.379667000000000    0.289085000000000 
P           0.437755000000000    0.620333000000000    0.289085000000000 
P           0.500000000000000    0.000000000000000    0.500000000000000 
P           0.562245000000000    0.379667000000000    0.710915000000000 
P           0.562245000000000    0.620333000000000    0.710915000000000 
K           0.000000000000000    0.500000000000000    0.500000000000000 
K           0.031432000000000    0.500000000000000    0.177548000000000 
K           0.500000000000000    0.500000000000000    0.000000000000000 
K           0.500000000000000    0.500000000000000    0.500000000000000 
K           0.968568000000000    0.500000000000000    0.822452000000000 
%ENDBLOCK POSITIONS_FRAC
