# Cell file generated by matador (Matthew Evans 2016)

%BLOCK LATTICE_CART
7.31193 0.0 0.0
-3.65597 6.33232 0.0
0.0 0.0 6.71092
%ENDBLOCK LATTICE_CART

%BLOCK POSITIONS_FRAC
P           0.000000000000000    0.000000000000000    0.335782000000000 
P           0.000000000000000    0.000000000000000    0.664218000000000 
P           0.000000000000000    0.500000000000000    0.000000000000000 
P           0.333333000000000    0.666667000000000    0.153882000000000 
P           0.500000000000000    0.000000000000000    0.000000000000000 
P           0.500000000000000    0.500000000000000    0.000000000000000 
P           0.666667000000000    0.333333000000000    0.846118000000000 
K           0.000000000000000    0.500000000000000    0.500000000000000 
K           0.333333000000000    0.666667000000000    0.708689000000000 
K           0.500000000000000    0.000000000000000    0.500000000000000 
K           0.500000000000000    0.500000000000000    0.500000000000000 
K           0.666667000000000    0.333333000000000    0.291311000000000 
%ENDBLOCK POSITIONS_FRAC
