# Cell file generated by matador (Matthew Evans 2016)

%BLOCK LATTICE_CART
6.25765 0.0 0.0
-3.12883 5.41928 0.0
0.0 0.0 7.75137
%ENDBLOCK LATTICE_CART

%BLOCK POSITIONS_FRAC
P           0.000000000000000    0.000000000000000    0.571406000000000 
K           0.000000000000000    0.000000000000000    0.180446000000000 
K           0.000000000000000    0.319765000000000    0.376469000000000 
K           0.000000000000000    0.594881000000000    0.611506000000000 
K           0.319765000000000    0.000000000000000    0.376469000000000 
K           0.405119000000000    0.405119000000000    0.611506000000000 
K           0.594881000000000    0.000000000000000    0.611506000000000 
K           0.680235000000000    0.680235000000000    0.376469000000000 
%ENDBLOCK POSITIONS_FRAC
