# Cell file generated by matador (Matthew Evans 2016)

%BLOCK LATTICE_CART
10.0181 0.0 0.0
-5.00903 8.6759 0.0
0.0 0.0 6.65679
%ENDBLOCK LATTICE_CART

%BLOCK POSITIONS_FRAC
P           0.000000000000000    0.152822000000000    0.500000000000000 
P           0.000000000000000    0.500000000000000    0.199555000000000 
P           0.000000000000000    0.500000000000000    0.800445000000000 
P           0.000000000000000    0.847178000000000    0.500000000000000 
P           0.152822000000000    0.000000000000000    0.500000000000000 
P           0.152822000000000    0.152822000000000    0.500000000000000 
P           0.333333000000000    0.666667000000000    0.000000000000000 
P           0.500000000000000    0.000000000000000    0.199555000000000 
P           0.500000000000000    0.000000000000000    0.800445000000000 
P           0.500000000000000    0.500000000000000    0.199555000000000 
P           0.500000000000000    0.500000000000000    0.800445000000000 
P           0.666667000000000    0.333333000000000    0.000000000000000 
P           0.847178000000000    0.000000000000000    0.500000000000000 
P           0.847178000000000    0.847178000000000    0.500000000000000 
K           0.000000000000000    0.000000000000000    0.000000000000000 
K           0.000000000000000    0.500000000000000    0.500000000000000 
K           0.500000000000000    0.000000000000000    0.500000000000000 
K           0.500000000000000    0.500000000000000    0.500000000000000 
%ENDBLOCK POSITIONS_FRAC
