# Cell file generated by matador (Matthew Evans 2016)

%BLOCK LATTICE_CART
9.33984 0.0 0.0
0.0 8.85533 0.0
-1.43134 0.0 6.02842
%ENDBLOCK LATTICE_CART

%BLOCK POSITIONS_FRAC
P           0.000000000000000    0.786996000000000    0.000000000000000 
P           0.402008000000000    0.634092000000000    0.815495000000000 
P           0.500000000000000    0.081543000000000    0.500000000000000 
P           0.597992000000000    0.634092000000000    0.184505000000000 
K           0.000000000000000    0.241066000000000    0.500000000000000 
K           0.084967000000000    0.465067000000000    0.837446000000000 
K           0.247541000000000    0.756761000000000    0.520202000000000 
K           0.249201000000000    0.034790000000000    0.207980000000000 
K           0.500000000000000    0.342686000000000    0.000000000000000 
K           0.500000000000000    0.608913000000000    0.500000000000000 
K           0.500000000000000    0.822398000000000    0.000000000000000 
K           0.750799000000000    0.034790000000000    0.792020000000000 
K           0.752459000000000    0.756761000000000    0.479798000000000 
K           0.915033000000000    0.465067000000000    0.162554000000000 
%ENDBLOCK POSITIONS_FRAC
