# Cell file generated by matador (Matthew Evans 2016)

%BLOCK LATTICE_CART
7.3952 0.0 0.0
0.0 7.3952 0.0
0.0 0.0 8.5275
%ENDBLOCK LATTICE_CART

%BLOCK POSITIONS_FRAC
P           0.000000000000000    0.000000000000000    0.250000000000000 
P           0.000000000000000    0.000000000000000    0.750000000000000 
K           0.000000000000000    0.000000000000000    0.000000000000000 
K           0.000000000000000    0.000000000000000    0.500000000000000 
K           0.201533000000000    0.201533000000000    0.220966000000000 
K           0.201533000000000    0.201533000000000    0.779034000000000 
K           0.201533000000000    0.798467000000000    0.279034000000000 
K           0.201533000000000    0.798467000000000    0.720966000000000 
K           0.500000000000000    0.500000000000000    0.000000000000000 
K           0.500000000000000    0.500000000000000    0.250000000000000 
K           0.500000000000000    0.500000000000000    0.500000000000000 
K           0.500000000000000    0.500000000000000    0.750000000000000 
K           0.798467000000000    0.201533000000000    0.279034000000000 
K           0.798467000000000    0.201533000000000    0.720966000000000 
K           0.798467000000000    0.798467000000000    0.220966000000000 
K           0.798467000000000    0.798467000000000    0.779034000000000 
%ENDBLOCK POSITIONS_FRAC
