# Cell file generated by matador (Matthew Evans 2016)

%BLOCK LATTICE_CART
7.76347 0.0 0.0
0.0 7.76347 0.0
0.0 0.0 7.76347
%ENDBLOCK LATTICE_CART

%BLOCK POSITIONS_FRAC
P           0.000000000000000    0.000000000000000    0.297891000000000 
P           0.000000000000000    0.000000000000000    0.702109000000000 
P           0.000000000000000    0.297891000000000    0.000000000000000 
P           0.000000000000000    0.702109000000000    0.000000000000000 
P           0.297891000000000    0.000000000000000    0.000000000000000 
P           0.702109000000000    0.000000000000000    0.000000000000000 
K           0.000000000000000    0.500000000000000    0.500000000000000 
K           0.179456000000000    0.179456000000000    0.179456000000000 
K           0.179456000000000    0.820544000000000    0.820544000000000 
K           0.500000000000000    0.000000000000000    0.500000000000000 
K           0.500000000000000    0.500000000000000    0.000000000000000 
K           0.500000000000000    0.500000000000000    0.500000000000000 
K           0.820544000000000    0.179456000000000    0.820544000000000 
K           0.820544000000000    0.820544000000000    0.179456000000000 
%ENDBLOCK POSITIONS_FRAC
