# Cell file generated by matador (Matthew Evans 2016)

%BLOCK LATTICE_CART
11.9347 0.0 0.0
0.0 3.71174 0.0
0.0 0.0 8.04204
%ENDBLOCK LATTICE_CART

%BLOCK POSITIONS_FRAC
P          -0.000000000000000    0.500000000000000    0.251306000000000 
P          -0.000000000000000    0.500000000000000    0.748694000000000 
P           0.250000000000000    0.250000000000000    0.194655000000000 
P           0.250000000000000    0.250000000000000    0.805345000000000 
P           0.250000000000000    0.750000000000000    0.194655000000000 
P           0.250000000000000    0.750000000000000    0.805345000000000 
P           0.500000000000000    0.000000000000000    0.251306000000000 
P           0.500000000000000    0.000000000000000    0.748694000000000 
P           0.750000000000000    0.250000000000000    0.194655000000000 
P           0.750000000000000    0.250000000000000    0.805345000000000 
P           0.750000000000000    0.750000000000000    0.194655000000000 
P           0.750000000000000    0.750000000000000    0.805345000000000 
K          -0.000000000000000    0.500000000000000    0.000000000000000 
K          -0.000000000000000    0.500000000000000    0.500000000000000 
K           0.500000000000000    0.000000000000000    0.000000000000000 
K           0.500000000000000    0.000000000000000    0.500000000000000 
%ENDBLOCK POSITIONS_FRAC
