# Cell file generated by matador (Matthew Evans 2016)

%BLOCK LATTICE_CART
7.85319 -0.0 0.0
-3.9266 6.80107 0.0
0.0 0.0 7.00473
%ENDBLOCK LATTICE_CART

%BLOCK POSITIONS_FRAC
P           0.066318000000000    0.377715000000000    0.179125000000000 
P           0.178493000000000    0.653847000000000    0.099083000000000 
P           0.269246000000000    0.068118000000000    0.718232000000000 
P           0.311397000000000    0.933682000000000    0.845792000000000 
P           0.346153000000000    0.524646000000000    0.432417000000000 
P           0.462445000000000    0.155608000000000    0.331268000000000 
P           0.475354000000000    0.821507000000000    0.765750000000000 
P           0.552518000000000    0.404824000000000    0.325927000000000 
P           0.595176000000000    0.147694000000000    0.659261000000000 
P           0.622285000000000    0.688603000000000    0.512459000000000 
P           0.693163000000000    0.537555000000000    0.997935000000000 
P           0.798872000000000    0.730754000000000    0.384899000000000 
P           0.844392000000000    0.306837000000000    0.664601000000000 
P           0.852306000000000    0.447482000000000    0.992594000000000 
P           0.931882000000000    0.201128000000000    0.051565000000000 
K           0.134523000000000    0.682354000000000    0.543555000000000 
K           0.317646000000000    0.452169000000000    0.876888000000000 
K           0.547831000000000    0.865477000000000    0.210221000000000 
%ENDBLOCK POSITIONS_FRAC
