# Cell file generated by matador (Matthew Evans 2016)

%BLOCK LATTICE_CART
7.58891 0.0 0.0
0.0 5.87624 0.0
-2.71598 0.0 5.88601
%ENDBLOCK LATTICE_CART

%BLOCK POSITIONS_FRAC
P           0.018570000000000    0.490897000000000    0.312505000000000 
P           0.219513000000000    0.823280000000000    0.984807000000000 
P           0.322661000000000    0.104108000000000    0.332293000000000 
P           0.413598000000000    0.658452000000000    0.969598000000000 
P           0.586402000000000    0.158452000000000    0.030402000000000 
P           0.677339000000000    0.604108000000000    0.667707000000000 
P           0.780487000000000    0.323280000000000    0.015193000000000 
P           0.981430000000000    0.990897000000000    0.687495000000000 
K           0.349172000000000    0.683271000000000    0.454563000000000 
K           0.650828000000000    0.183271000000000    0.545437000000000 
%ENDBLOCK POSITIONS_FRAC
