# Cell file generated by matador (Matthew Evans 2016)

%BLOCK LATTICE_CART
7.6749 0.0 0.0
0.0 5.51875 0.0
2.40317 0.0 7.10215
%ENDBLOCK LATTICE_CART

%BLOCK POSITIONS_FRAC
P           0.174502000000000    0.310323000000000    0.424726000000000 
P           0.174502000000000    0.689677000000000    0.424726000000000 
P           0.196318000000000    0.241994000000000    0.975741000000000 
P           0.196318000000000    0.758006000000000    0.975741000000000 
P           0.342487000000000    0.500000000000000    0.410139000000000 
P           0.978945000000000    0.250446000000000    0.560317000000000 
P           0.978945000000000    0.749554000000000    0.560317000000000 
K           0.004886000000000    0.500000000000000    0.948694000000000 
K           0.041326000000000    0.000000000000000    0.827015000000000 
K           0.592615000000000    0.000000000000000    0.497444000000000 
K           0.678001000000000    0.500000000000000    0.890362000000000 
%ENDBLOCK POSITIONS_FRAC
