# Cell file generated by matador (Matthew Evans 2016)

%BLOCK LATTICE_CART
8.06825 0.0 0.0
-4.03412 6.98731 0.0
0.0 0.0 6.39943
%ENDBLOCK LATTICE_CART

%BLOCK POSITIONS_FRAC
P           0.135285000000000    0.428608000000000    0.491642000000000 
P           0.196078000000000    0.138817000000000    0.451789000000000 
P           0.251993000000000    0.590056000000000    0.357677000000000 
P           0.293323000000000    0.864715000000000    0.491642000000000 
P           0.338063000000000    0.748007000000000    0.357677000000000 
P           0.409944000000000    0.661937000000000    0.357677000000000 
P           0.416984000000000    0.415231000000000    0.285400000000000 
P           0.460597000000000    0.134396000000000    0.609892000000000 
P           0.571392000000000    0.706677000000000    0.491642000000000 
P           0.584769000000000    0.001753000000000    0.285400000000000 
P           0.673799000000000    0.539403000000000    0.609892000000000 
P           0.861183000000000    0.057261000000000    0.451789000000000 
P           0.865604000000000    0.326201000000000    0.609892000000000 
P           0.942739000000000    0.803922000000000    0.451789000000000 
P           0.998247000000000    0.583016000000000    0.285400000000000 
K           0.000000000000000    0.000000000000000    0.856737000000000 
K           0.333333000000000    0.666667000000000    0.797178000000000 
K           0.666667000000000    0.333333000000000    0.136202000000000 
%ENDBLOCK POSITIONS_FRAC
