# Cell file generated by matador (Matthew Evans 2016)

%BLOCK LATTICE_CART
8.40627 0.0 0.0
-4.20313 7.28004 0.0
0.0 0.0 7.62816
%ENDBLOCK LATTICE_CART

%BLOCK POSITIONS_FRAC
P          -0.000000000000000   -0.000000000000000    0.368904000000000 
P           0.333333000000000    0.666667000000000    0.035571000000000 
P           0.666667000000000    0.333333000000000    0.702237000000000 
K           0.207230000000000    0.414459000000000    0.459803000000000 
K           0.207230000000000    0.792770000000000    0.459803000000000 
K           0.252208000000000    0.126104000000000    0.793136000000000 
K           0.540563000000000    0.081126000000000    0.126469000000000 
K           0.540563000000000    0.459437000000000    0.126469000000000 
K           0.585541000000000    0.792770000000000    0.459803000000000 
K           0.873896000000000    0.126104000000000    0.793136000000000 
K           0.873896000000000    0.747792000000000    0.793136000000000 
K           0.918874000000000    0.459437000000000    0.126469000000000 
%ENDBLOCK POSITIONS_FRAC
