# Cell file generated by matador (Matthew Evans 2016)

%BLOCK LATTICE_CART
5.98198 0.0 0.0
0.0 5.98198 0.0
0.0 0.0 6.85955
%ENDBLOCK LATTICE_CART

%BLOCK POSITIONS_FRAC
P           0.500000000000000    0.500000000000000    0.092221000000000 
P           0.500000000000000    0.500000000000000    0.907779000000000 
K           0.000000000000000    0.000000000000000    0.000000000000000 
K           0.000000000000000    0.000000000000000    0.500000000000000 
K           0.000000000000000    0.500000000000000    0.500000000000000 
K           0.500000000000000    0.000000000000000    0.500000000000000 
K           0.500000000000000    0.500000000000000    0.500000000000000 
%ENDBLOCK POSITIONS_FRAC
