# Cell file generated by matador (Matthew Evans 2016)

%BLOCK LATTICE_CART
5.0848 0.0 0.0
-2.5424 4.40357 0.0
0.0 0.0 5.48646
%ENDBLOCK LATTICE_CART

%BLOCK POSITIONS_FRAC
P          -0.000000000000000    0.000000000000000    0.888641000000000 
P           0.074551000000000    0.318650000000000    0.282470000000000 
P           0.244099000000000    0.925449000000000    0.282470000000000 
P           0.666666000000000    0.333334000000000    0.560375000000000 
P           0.681350000000000    0.755901000000000    0.282470000000000 
K           0.333333000000000    0.666667000000000    0.664608000000000 
%ENDBLOCK POSITIONS_FRAC
