# Cell file generated by matador (Matthew Evans 2016)

%BLOCK LATTICE_CART
11.0623 0.0 0.0
0.0 6.81928 0.0
1.95517 0.0 5.59843
%ENDBLOCK LATTICE_CART

%BLOCK POSITIONS_FRAC
P           0.170032000000000    0.923398000000000    0.279597000000000 
P           0.285743000000000    0.506724000000000    0.811101000000000 
P           0.714257000000000    0.506724000000000    0.188899000000000 
P           0.829968000000000    0.923398000000000    0.720403000000000 
K           0.000000000000000    0.904471000000000   -0.000000000000000 
K           0.141914000000000    0.952607000000000    0.634237000000000 
K           0.174006000000000    0.302662000000000    0.263390000000000 
K           0.457592000000000    0.416399000000000    0.853091000000000 
K           0.500000000000000    0.666878000000000    0.500000000000000 
K           0.542408000000000    0.416399000000000    0.146909000000000 
K           0.825994000000000    0.302662000000000    0.736610000000000 
K           0.858086000000000    0.952607000000000    0.365763000000000 
%ENDBLOCK POSITIONS_FRAC
