# Cell file generated by matador (Matthew Evans 2016)

%BLOCK LATTICE_CART
9.23467 0.0 0.0
-4.61733 7.99746 0.0
0.0 0.0 6.85344
%ENDBLOCK LATTICE_CART

%BLOCK POSITIONS_FRAC
P          -0.000000000000000    0.500000000000000    0.000000000000000 
P           0.500000000000000    0.000000000000000    0.000000000000000 
P           0.500000000000000    0.500000000000000    0.000000000000000 
K          -0.000000000000000    0.303182000000000    0.099934000000000 
K          -0.000000000000000    0.500000000000000    0.500000000000000 
K          -0.000000000000000    0.696818000000000    0.900066000000000 
K           0.303182000000000    0.000000000000000    0.099934000000000 
K           0.303182000000000    0.303182000000000    0.900066000000000 
K           0.500000000000000    0.000000000000000    0.500000000000000 
K           0.500000000000000    0.500000000000000    0.500000000000000 
K           0.696818000000000    0.000000000000000    0.900066000000000 
K           0.696818000000000    0.696818000000000    0.099934000000000 
%ENDBLOCK POSITIONS_FRAC
