# Cell file generated by matador (Matthew Evans 2016)

%BLOCK LATTICE_CART
5.28119 0.0 0.0
0.0 11.3701 0.0
0.0 0.0 7.02787
%ENDBLOCK LATTICE_CART

%BLOCK POSITIONS_FRAC
P           0.000000000000000    0.000000000000000    0.000000000000000 
P           0.000000000000000    0.000000000000000    0.500000000000000 
P           0.000000000000000    0.282768000000000    0.500000000000000 
P           0.000000000000000    0.500000000000000    0.000000000000000 
P           0.000000000000000    0.717232000000000    0.500000000000000 
P           0.074008000000000    0.065131000000000    0.736431000000000 
P           0.074008000000000    0.934869000000000    0.263569000000000 
P           0.311141000000000    0.500000000000000    0.000000000000000 
P           0.500000000000000    0.332403000000000    0.000000000000000 
P           0.500000000000000    0.500000000000000    0.000000000000000 
P           0.500000000000000    0.667597000000000    0.000000000000000 
P           0.688859000000000    0.500000000000000    0.000000000000000 
P           0.925992000000000    0.065131000000000    0.263569000000000 
P           0.925992000000000    0.934869000000000    0.736431000000000 
K           0.500000000000000    0.000000000000000    0.000000000000000 
K           0.500000000000000    0.500000000000000    0.500000000000000 
%ENDBLOCK POSITIONS_FRAC
