# Cell file generated by matador (Matthew Evans 2016)

%BLOCK LATTICE_CART
4.79399 0.0 0.0
-1.60501 4.4686 0.0
-1.85463 -2.01867 5.44252
%ENDBLOCK LATTICE_CART

%BLOCK POSITIONS_FRAC
P           0.000000000000000    0.500000000000000    0.000000000000000 
P           0.000000000000000    0.500000000000000    0.500000000000000 
P           0.500000000000000    0.000000000000000    0.500000000000000 
P           0.500000000000000    0.500000000000000    0.000000000000000 
K           0.000000000000000    0.000000000000000    0.000000000000000 
%ENDBLOCK POSITIONS_FRAC
