# Cell file generated by matador (Matthew Evans 2016)

%BLOCK LATTICE_CART
6.60561 0.0 0.0
-3.3028 5.72062 0.0
0.0 0.0 14.8199
%ENDBLOCK LATTICE_CART

%BLOCK POSITIONS_FRAC
P           0.000000000000000    0.000000000000000    0.290425000000000 
P           0.000000000000000    0.000000000000000    0.790425000000000 
P           0.333333000000000    0.666667000000000    0.893382000000000 
P           0.666667000000000    0.333333000000000    0.393382000000000 
K           0.014368000000000    0.507184000000000    0.764151000000000 
K           0.166008000000000    0.332015000000000    0.602281000000000 
K           0.166008000000000    0.833992000000000    0.602281000000000 
K           0.332015000000000    0.166008000000000    0.102281000000000 
K           0.492816000000000    0.507184000000000    0.764151000000000 
K           0.492816000000000    0.985632000000000    0.764151000000000 
K           0.507184000000000    0.014368000000000    0.264151000000000 
K           0.507184000000000    0.492816000000000    0.264151000000000 
K           0.667985000000000    0.833992000000000    0.602281000000000 
K           0.833992000000000    0.166008000000000    0.102281000000000 
K           0.833992000000000    0.667985000000000    0.102281000000000 
K           0.985632000000000    0.492816000000000    0.264151000000000 
%ENDBLOCK POSITIONS_FRAC
