# Cell file generated by matador (Matthew Evans 2016)

%BLOCK LATTICE_CART
6.6212 0.0 0.0
0.0 6.6212 0.0
0.0 0.0 6.78375
%ENDBLOCK LATTICE_CART

%BLOCK POSITIONS_FRAC
P           0.000000000000000    0.000000000000000    0.803985000000000 
K           0.000000000000000    0.000000000000000    0.404397000000000 
K           0.000000000000000    0.500000000000000    0.870260000000000 
K           0.298920000000000    0.298920000000000    0.867076000000000 
K           0.298920000000000    0.701080000000000    0.867076000000000 
K           0.500000000000000    0.000000000000000    0.870260000000000 
K           0.701080000000000    0.298920000000000    0.867076000000000 
K           0.701080000000000    0.701080000000000    0.867076000000000 
%ENDBLOCK POSITIONS_FRAC
