# Cell file generated by matador (Matthew Evans 2016)

%BLOCK LATTICE_CART
6.03084 0.0 0.0
-3.01542 5.22286 0.0
0.0 0.0 6.92939
%ENDBLOCK LATTICE_CART

%BLOCK POSITIONS_FRAC
P          -0.000000000000000    0.000000000000000    0.000000000000000 
P          -0.000000000000000    0.000000000000000    0.500000000000000 
P           0.333333000000000    0.666667000000000    0.000000000000000 
P           0.333333000000000    0.666667000000000    0.211375000000000 
P           0.333333000000000    0.666667000000000    0.788625000000000 
P           0.666666000000000    0.333334000000000    0.500000000000000 
K           0.333333000000000    0.666667000000000    0.500000000000000 
K           0.666666000000000    0.333334000000000    0.000000000000000 
%ENDBLOCK POSITIONS_FRAC
