# Cell file generated by matador (Matthew Evans 2016)

%BLOCK LATTICE_CART
9.46991 0.0 0.0
-4.73496 8.20118 0.0
0.0 0.0 6.65398
%ENDBLOCK LATTICE_CART

%BLOCK POSITIONS_FRAC
P           0.046183000000000    0.501583000000000    0.500000000000000 
P           0.333333000000000    0.666667000000000    0.000000000000000 
P           0.455399000000000    0.953817000000000    0.500000000000000 
P           0.498417000000000    0.544601000000000    0.500000000000000 
P           0.516250000000000    0.336025000000000    0.318683000000000 
P           0.516250000000000    0.336025000000000    0.681317000000000 
P           0.663975000000000    0.180225000000000    0.318683000000000 
P           0.663975000000000    0.180225000000000    0.681317000000000 
P           0.819775000000000    0.483750000000000    0.318683000000000 
P           0.819775000000000    0.483750000000000    0.681317000000000 
K           0.000000000000000    0.000000000000000    0.500000000000000 
K           0.236337000000000    0.235022000000000    0.500000000000000 
K           0.333333000000000    0.666667000000000    0.500000000000000 
K           0.666667000000000    0.333333000000000    0.000000000000000 
K           0.764978000000000    0.001315000000000    0.500000000000000 
K           0.998685000000000    0.763663000000000    0.500000000000000 
%ENDBLOCK POSITIONS_FRAC
