# Cell file generated by matador (Matthew Evans 2016)

%BLOCK LATTICE_CART
5.88963 0.0 0.0
-2.94481 5.10057 0.0
0.0 0.0 9.95816
%ENDBLOCK LATTICE_CART

%BLOCK POSITIONS_FRAC
P           0.000000000000000    0.000000000000000    0.000000000000000 
P           0.000000000000000    0.248721000000000    0.500000000000000 
P           0.248721000000000    0.000000000000000    0.500000000000000 
P           0.751279000000000    0.751279000000000    0.500000000000000 
K           0.000000000000000    0.431530000000000    0.237631000000000 
K           0.000000000000000    0.431530000000000    0.762369000000000 
K           0.431530000000000    0.000000000000000    0.237631000000000 
K           0.431530000000000    0.000000000000000    0.762369000000000 
K           0.568470000000000    0.568470000000000    0.237631000000000 
K           0.568470000000000    0.568470000000000    0.762369000000000 
%ENDBLOCK POSITIONS_FRAC
