# Cell file generated by matador (Matthew Evans 2016)

%BLOCK LATTICE_CART
8.35971 0.0 0.0
0.0 6.82923 0.0
0.0 0.0 7.51122
%ENDBLOCK LATTICE_CART

%BLOCK POSITIONS_FRAC
P           0.250000000000000    0.542859000000000    0.250000000000000 
P           0.250000000000000    0.957141000000000    0.250000000000000 
P           0.750000000000000    0.042859000000000    0.750000000000000 
P           0.750000000000000    0.457141000000000    0.750000000000000 
K           0.000000000000000   -0.000000000000000    0.500000000000000 
K           0.000000000000000    0.500000000000000    0.000000000000000 
K           0.250000000000000    0.250000000000000    0.250000000000000 
K           0.250000000000000    0.250000000000000    0.750000000000000 
K           0.500000000000000   -0.000000000000000    0.000000000000000 
K           0.500000000000000    0.500000000000000    0.500000000000000 
K           0.750000000000000    0.750000000000000    0.250000000000000 
K           0.750000000000000    0.750000000000000    0.750000000000000 
%ENDBLOCK POSITIONS_FRAC
