# Cell file generated by matador (Matthew Evans 2016)

%BLOCK LATTICE_CART
6.46643 0.0 0.0
-3.23322 5.60009 0.0
0.0 0.0 15.9121
%ENDBLOCK LATTICE_CART

%BLOCK POSITIONS_FRAC
P           0.000000000000000    0.000000000000000    0.000000000000000 
P           0.000000000000000    0.000000000000000    0.500000000000000 
P           0.333333000000000    0.666667000000000    0.000000000000000 
P           0.333333000000000    0.666667000000000    0.074217000000000 
P           0.333333000000000    0.666667000000000    0.500000000000000 
P           0.333333000000000    0.666667000000000    0.925783000000000 
P           0.666667000000000    0.333333000000000    0.000000000000000 
P           0.666667000000000    0.333333000000000    0.074217000000000 
P           0.666667000000000    0.333333000000000    0.500000000000000 
P           0.666667000000000    0.333333000000000    0.925783000000000 
K           0.000000000000000    0.000000000000000    0.125691000000000 
K           0.000000000000000    0.000000000000000    0.874309000000000 
K           0.000000000000000    0.500000000000000    0.407902000000000 
K           0.000000000000000    0.500000000000000    0.592098000000000 
K           0.500000000000000    0.000000000000000    0.407902000000000 
K           0.500000000000000    0.000000000000000    0.592098000000000 
K           0.500000000000000    0.500000000000000    0.407902000000000 
K           0.500000000000000    0.500000000000000    0.592098000000000 
%ENDBLOCK POSITIONS_FRAC
