# Cell file generated by matador (Matthew Evans 2016)

%BLOCK LATTICE_CART
5.84215 0.0 0.0
-2.92107 5.05945 0.0
0.0 0.0 6.36672
%ENDBLOCK LATTICE_CART

%BLOCK POSITIONS_FRAC
P          -0.000000000000000   -0.000000000000000    0.000000000000000 
P          -0.000000000000000   -0.000000000000000    0.500000000000000 
P           0.333333000000000    0.666667000000000    0.086733000000000 
P           0.333333000000000    0.666667000000000    0.913267000000000 
P           0.666667000000000    0.333333000000000    0.086733000000000 
P           0.666667000000000    0.333333000000000    0.913267000000000 
K          -0.000000000000000    0.500000000000000    0.500000000000000 
K           0.500000000000000   -0.000000000000000    0.500000000000000 
K           0.500000000000000    0.500000000000000    0.500000000000000 
%ENDBLOCK POSITIONS_FRAC
