# Cell file generated by matador (Matthew Evans 2016)

%BLOCK LATTICE_CART
6.85412 0.0 0.0
0.0 8.08616 0.0
0.0 0.0 6.40975
%ENDBLOCK LATTICE_CART

%BLOCK POSITIONS_FRAC
P           0.000000000000000   -0.000000000000000    0.000000000000000 
P           0.000000000000000   -0.000000000000000    0.500000000000000 
P           0.000000000000000    0.425711000000000    0.500000000000000 
P           0.000000000000000    0.574289000000000    0.500000000000000 
P           0.151989000000000    0.500000000000000    0.000000000000000 
P           0.500000000000000   -0.000000000000000    0.000000000000000 
P           0.500000000000000    0.500000000000000    0.000000000000000 
P           0.848011000000000    0.500000000000000    0.000000000000000 
K           0.260411000000000    0.268614000000000    0.503197000000000 
K           0.260411000000000    0.731386000000000    0.496803000000000 
K           0.500000000000000   -0.000000000000000    0.500000000000000 
K           0.500000000000000    0.500000000000000    0.500000000000000 
K           0.739589000000000    0.268614000000000    0.496803000000000 
K           0.739589000000000    0.731386000000000    0.503197000000000 
%ENDBLOCK POSITIONS_FRAC
