# Cell file generated by matador (Matthew Evans 2016)

%BLOCK LATTICE_CART
8.19339 0.0 0.0
-4.0967 7.09569 0.0
0.0 0.0 7.20968
%ENDBLOCK LATTICE_CART

%BLOCK POSITIONS_FRAC
P           0.000000000000000    0.000000000000000    0.648497000000000 
P           0.159017000000000    0.552221000000000    0.585529000000000 
P           0.333333000000000    0.666667000000000    0.033279000000000 
P           0.333333000000000    0.666667000000000    0.834938000000000 
P           0.393204000000000    0.840983000000000    0.585529000000000 
P           0.447779000000000    0.606796000000000    0.585529000000000 
K           0.106264000000000    0.873656000000000    0.922778000000000 
K           0.126344000000000    0.232608000000000    0.922778000000000 
K           0.377671000000000    0.086075000000000    0.919057000000000 
K           0.708404000000000    0.622329000000000    0.919057000000000 
K           0.767392000000000    0.893736000000000    0.922778000000000 
K           0.913925000000000    0.291596000000000    0.919057000000000 
%ENDBLOCK POSITIONS_FRAC
