# Cell file generated by matador (Matthew Evans 2016)

%BLOCK LATTICE_CART
6.11084 0.0 0.0
0.0 8.37978 0.0
0.0 0.0 10.0578
%ENDBLOCK LATTICE_CART

%BLOCK POSITIONS_FRAC
P           0.000000000000000    0.500000000000000    0.000000000000000 
P           0.500000000000000    0.000000000000000    0.500000000000000 
K           0.000000000000000    0.000000000000000    0.000000000000000 
K           0.000000000000000    0.000000000000000    0.500000000000000 
K           0.000000000000000    0.500000000000000    0.500000000000000 
K           0.261950000000000    0.091605000000000    0.869289000000000 
K           0.261950000000000    0.908395000000000    0.130711000000000 
K           0.330598000000000    0.206212000000000    0.112696000000000 
K           0.330598000000000    0.793788000000000    0.887304000000000 
K           0.500000000000000    0.500000000000000    0.500000000000000 
K           0.669402000000000    0.206212000000000    0.887304000000000 
K           0.669402000000000    0.793788000000000    0.112696000000000 
K           0.738050000000000    0.091605000000000    0.130711000000000 
K           0.738050000000000    0.908395000000000    0.869289000000000 
%ENDBLOCK POSITIONS_FRAC
