# Cell file generated by matador (Matthew Evans 2016)

%BLOCK LATTICE_CART
5.39731 0.0 0.0
-2.69865 4.67421 0.0
0.0 0.0 8.33414
%ENDBLOCK LATTICE_CART

%BLOCK POSITIONS_FRAC
P           0.225676000000000    0.451352000000000    0.000000000000000 
P           0.225676000000000    0.774324000000000    0.000000000000000 
P           0.333333000000000    0.666667000000000    0.000000000000000 
P           0.333333000000000    0.666667000000000    0.260023000000000 
P           0.333333000000000    0.666667000000000    0.739977000000000 
P           0.548648000000000    0.774324000000000    0.000000000000000 
P           0.666666000000000    0.333334000000000    0.000000000000000 
K           0.333333000000000    0.666667000000000    0.500000000000000 
%ENDBLOCK POSITIONS_FRAC
