# Cell file generated by matador (Matthew Evans 2016)

%BLOCK LATTICE_CART
5.79204 0.0 0.0
-2.89602 5.01605 0.0
0.0 0.0 9.11851
%ENDBLOCK LATTICE_CART

%BLOCK POSITIONS_FRAC
P           0.000000000000000    0.818047000000000    0.360263000000000 
P           0.181953000000000    0.181953000000000    0.360263000000000 
P           0.333333000000000    0.666667000000000    0.475163000000000 
P           0.666667000000000    0.333333000000000    0.475163000000000 
P           0.818047000000000    0.000000000000000    0.360263000000000 
K           0.000000000000000    0.302235000000000    0.519057000000000 
K           0.000000000000000    0.343944000000000    0.894380000000000 
K           0.302235000000000    0.000000000000000    0.519057000000000 
K           0.343944000000000    0.000000000000000    0.894380000000000 
K           0.656056000000000    0.656056000000000    0.894380000000000 
K           0.697765000000000    0.697765000000000    0.519057000000000 
%ENDBLOCK POSITIONS_FRAC
