# Cell file generated by matador (Matthew Evans 2016)

%BLOCK LATTICE_CART
7.28861 0.0 0.0
-3.6443 6.31212 0.0
0.0 0.0 6.00384
%ENDBLOCK LATTICE_CART

%BLOCK POSITIONS_FRAC
P           0.000000000000000    0.000000000000000    0.000000000000000 
P           0.133426000000000    0.779661000000000    0.000000000000000 
P           0.220339000000000    0.353765000000000    0.000000000000000 
P           0.353765000000000    0.220339000000000    0.000000000000000 
P           0.646235000000000    0.866574000000000    0.000000000000000 
P           0.779661000000000    0.133426000000000    0.000000000000000 
P           0.866574000000000    0.646235000000000    0.000000000000000 
K           0.000000000000000    0.000000000000000    0.500000000000000 
K           0.333333000000000    0.666667000000000    0.000000000000000 
K           0.333333000000000    0.666667000000000    0.500000000000000 
K           0.666667000000000    0.333333000000000    0.000000000000000 
K           0.666667000000000    0.333333000000000    0.500000000000000 
%ENDBLOCK POSITIONS_FRAC
