# Cell file generated by matador (Matthew Evans 2016)

%BLOCK LATTICE_CART
6.79191 0.0 0.0
-3.39596 5.88197 0.0
0.0 0.0 12.5017
%ENDBLOCK LATTICE_CART

%BLOCK POSITIONS_FRAC
P           0.033417000000000    0.466763000000000    0.255302000000000 
P           0.433346000000000    0.966583000000000    0.255302000000000 
P           0.474305000000000    0.471678000000000    0.042225000000000 
P           0.528322000000000    0.002626000000000    0.042225000000000 
P           0.533237000000000    0.566654000000000    0.255302000000000 
P           0.554613000000000    0.175919000000000    0.070555000000000 
P           0.621306000000000    0.445387000000000    0.070555000000000 
P           0.666667000000000    0.333333000000000    0.866530000000000 
P           0.824081000000000    0.378694000000000    0.070555000000000 
P           0.997374000000000    0.525695000000000    0.042225000000000 
K           0.000000000000000    0.000000000000000    0.699920000000000 
K           0.279402000000000    0.005331000000000    0.923250000000000 
K           0.666667000000000    0.333333000000000    0.319402000000000 
K           0.666667000000000    0.333333000000000    0.504626000000000 
K           0.725930000000000    0.720598000000000    0.923250000000000 
K           0.994669000000000    0.274070000000000    0.923250000000000 
%ENDBLOCK POSITIONS_FRAC
