# Cell file generated by matador (Matthew Evans 2016)

%BLOCK LATTICE_CART
8.09327 0.0 0.0
-4.04664 7.00898 0.0
0.0 0.0 8.04219
%ENDBLOCK LATTICE_CART

%BLOCK POSITIONS_FRAC
P           0.123248000000000    0.561624000000000    0.500000000000000 
P           0.438376000000000    0.561624000000000    0.166667000000000 
P           0.438376000000000    0.876752000000000    0.833333000000000 
K           0.226212000000000    0.452424000000000    0.333333000000000 
K           0.226212000000000    0.773788000000000    0.666667000000000 
K           0.289268000000000    0.144634000000000    0.500000000000000 
K           0.401431000000000    0.200715000000000    0.000000000000000 
K           0.547576000000000    0.773788000000000    0.000000000000000 
K           0.799285000000000    0.200715000000000    0.666667000000000 
K           0.799285000000000    0.598569000000000    0.333333000000000 
K           0.855366000000000    0.144634000000000    0.166667000000000 
K           0.855366000000000    0.710732000000000    0.833333000000000 
%ENDBLOCK POSITIONS_FRAC
