# Cell file generated by matador (Matthew Evans 2016)

%BLOCK LATTICE_CART
5.51537 0.0 0.0
0.0 8.79007 0.0
0.0 0.0 5.77638
%ENDBLOCK LATTICE_CART

%BLOCK POSITIONS_FRAC
P           0.000000000000000    0.000000000000000    0.000000000000000 
P           0.000000000000000    0.500000000000000    0.500000000000000 
P           0.181311000000000    0.000000000000000    0.000000000000000 
P           0.318689000000000    0.500000000000000    0.500000000000000 
P           0.500000000000000    0.000000000000000    0.000000000000000 
P           0.500000000000000    0.500000000000000    0.500000000000000 
P           0.681311000000000    0.500000000000000    0.500000000000000 
P           0.818689000000000    0.000000000000000    0.000000000000000 
K           0.000000000000000    0.500000000000000    0.000000000000000 
K           0.500000000000000    0.000000000000000    0.500000000000000 
%ENDBLOCK POSITIONS_FRAC
