# Cell file generated by matador (Matthew Evans 2016)

%BLOCK LATTICE_CART
7.86224 0.0 0.0
0.0 7.86224 0.0
0.0 0.0 8.48812
%ENDBLOCK LATTICE_CART

%BLOCK POSITIONS_FRAC
P           0.000000000000000    0.000000000000000    0.000000000000000 
P           0.000000000000000    0.000000000000000    0.250000000000000 
P           0.000000000000000    0.000000000000000    0.500000000000000 
P           0.000000000000000    0.000000000000000    0.750000000000000 
P           0.168490000000000    0.168490000000000    0.250000000000000 
P           0.168490000000000    0.831510000000000    0.750000000000000 
P           0.500000000000000    0.500000000000000    0.250000000000000 
P           0.500000000000000    0.500000000000000    0.750000000000000 
P           0.831510000000000    0.168490000000000    0.750000000000000 
P           0.831510000000000    0.831510000000000    0.250000000000000 
K           0.130089000000000    0.415935000000000    0.872929000000000 
K           0.130089000000000    0.584065000000000    0.372929000000000 
K           0.415935000000000    0.130089000000000    0.627071000000000 
K           0.415935000000000    0.869911000000000    0.127071000000000 
K           0.500000000000000    0.500000000000000    0.000000000000000 
K           0.500000000000000    0.500000000000000    0.500000000000000 
K           0.584065000000000    0.130089000000000    0.127071000000000 
K           0.584065000000000    0.869911000000000    0.627071000000000 
K           0.869911000000000    0.415935000000000    0.372929000000000 
K           0.869911000000000    0.584065000000000    0.872929000000000 
%ENDBLOCK POSITIONS_FRAC
