# Cell file generated by matador (Matthew Evans 2016)

%BLOCK LATTICE_CART
8.21782 0.0 0.0
-4.10891 7.11684 0.0
0.0 0.0 8.91536
%ENDBLOCK LATTICE_CART

%BLOCK POSITIONS_FRAC
P           0.165307000000000    0.040244000000000    0.140019000000000 
P           0.165307000000000    0.125063000000000    0.640019000000000 
P           0.874937000000000    0.040244000000000    0.640019000000000 
P           0.874937000000000    0.834693000000000    0.140019000000000 
P           0.959756000000000    0.125063000000000    0.140019000000000 
P           0.959756000000000    0.834693000000000    0.640019000000000 
K           0.000000000000000    0.000000000000000    0.323594000000000 
K           0.000000000000000    0.000000000000000    0.823594000000000 
K           0.295972000000000    0.003084000000000    0.965309000000000 
K           0.295972000000000    0.292887000000000    0.465309000000000 
K           0.333333000000000    0.666667000000000    0.000177000000000 
K           0.333333000000000    0.666667000000000    0.500177000000000 
K           0.707113000000000    0.003084000000000    0.465309000000000 
K           0.707113000000000    0.704028000000000    0.965309000000000 
K           0.996916000000000    0.292887000000000    0.965309000000000 
K           0.996916000000000    0.704028000000000    0.465309000000000 
%ENDBLOCK POSITIONS_FRAC
