# Cell file generated by matador (Matthew Evans 2016)

%BLOCK LATTICE_CART
6.21671 0.0 0.0
0.0 6.21671 0.0
0.0 0.0 8.92449
%ENDBLOCK LATTICE_CART

%BLOCK POSITIONS_FRAC
P           0.500000000000000    0.500000000000000    0.297173000000000 
P           0.500000000000000    0.500000000000000    0.797173000000000 
K           0.000000000000000    0.500000000000000    0.628457000000000 
K           0.251741000000000    0.500000000000000    0.116518000000000 
K           0.500000000000000    0.000000000000000    0.128457000000000 
K           0.500000000000000    0.251741000000000    0.616518000000000 
K           0.500000000000000    0.748259000000000    0.616518000000000 
K           0.748259000000000    0.500000000000000    0.116518000000000 
%ENDBLOCK POSITIONS_FRAC
