# Cell file generated by matador (Matthew Evans 2016)

%BLOCK LATTICE_CART
5.89757 0.0 0.0
-2.94879 5.10745 0.0
0.0 0.0 13.1841
%ENDBLOCK LATTICE_CART

%BLOCK POSITIONS_FRAC
P           0.000000000000000    0.000000000000000    0.578740000000000 
P           0.666667000000000    0.333333000000000    0.192660000000000 
K           0.000000000000000    0.000000000000000    0.042163000000000 
K           0.000000000000000    0.000000000000000    0.384299000000000 
K           0.246938000000000    0.183353000000000    0.820757000000000 
K           0.333333000000000    0.666667000000000    0.271134000000000 
K           0.666667000000000    0.333333000000000    0.449142000000000 
K           0.816647000000000    0.063585000000000    0.820757000000000 
K           0.936415000000000    0.753062000000000    0.820757000000000 
%ENDBLOCK POSITIONS_FRAC
