# Cell file generated by matador (Matthew Evans 2016)

%BLOCK LATTICE_CART
6.40012 0.0 0.0
-3.20006 5.54266 0.0
0.0 0.0 11.2424
%ENDBLOCK LATTICE_CART

%BLOCK POSITIONS_FRAC
P           0.000000000000000    0.500000000000000    0.500000000000000 
P           0.333333000000000    0.666667000000000    0.149148000000000 
P           0.333333000000000    0.666667000000000    0.472631000000000 
P           0.500000000000000    0.000000000000000    0.500000000000000 
P           0.500000000000000    0.500000000000000    0.500000000000000 
P           0.666667000000000    0.333333000000000    0.527369000000000 
P           0.666667000000000    0.333333000000000    0.850852000000000 
K           0.000000000000000    0.000000000000000    0.000000000000000 
K           0.000000000000000    0.000000000000000    0.500000000000000 
K           0.000000000000000    0.500000000000000    0.000000000000000 
K           0.500000000000000    0.000000000000000    0.000000000000000 
K           0.500000000000000    0.500000000000000    0.000000000000000 
%ENDBLOCK POSITIONS_FRAC
