# Cell file generated by matador (Matthew Evans 2016)

%BLOCK LATTICE_CART
6.88964 0.0 0.0
-3.44482 5.9666 0.0
0.0 0.0 9.36074
%ENDBLOCK LATTICE_CART

%BLOCK POSITIONS_FRAC
P           0.000000000000000    0.000000000000000    0.499795000000000 
P           0.000000000000000    0.000000000000000    0.680000000000000 
P           0.333333000000000    0.666667000000000    0.786185000000000 
P           0.666667000000000    0.333333000000000    0.786185000000000 
K           0.000000000000000    0.500000000000000    0.024189000000000 
K           0.000000000000000    0.500000000000000    0.649966000000000 
K           0.500000000000000    0.000000000000000    0.024189000000000 
K           0.500000000000000    0.000000000000000    0.649966000000000 
K           0.500000000000000    0.500000000000000    0.024189000000000 
K           0.500000000000000    0.500000000000000    0.649966000000000 
%ENDBLOCK POSITIONS_FRAC
