# Cell file generated by matador (Matthew Evans 2016)

%BLOCK LATTICE_CART
10.2146 -0.0 0.0
-5.10732 8.84615 0.0
0.0 0.0 6.31678
%ENDBLOCK LATTICE_CART

%BLOCK POSITIONS_FRAC
P           0.000000000000000    0.000000000000000    0.991452000000000 
P           0.008151000000000    0.905866000000000    0.749761000000000 
P           0.094134000000000    0.102284000000000    0.749761000000000 
P           0.231049000000000    0.658516000000000    0.416428000000000 
P           0.333333000000000    0.666667000000000    0.658119000000000 
P           0.341484000000000    0.572533000000000    0.416428000000000 
P           0.427467000000000    0.768951000000000    0.416428000000000 
P           0.564382000000000    0.325183000000000    0.083095000000000 
P           0.666667000000000    0.333333000000000    0.324785000000000 
P           0.674817000000000    0.239200000000000    0.083095000000000 
P           0.760800000000000    0.435618000000000    0.083095000000000 
P           0.897716000000000    0.991849000000000    0.749761000000000 
K           0.000000000000000    0.000000000000000    0.309104000000000 
K           0.333333000000000    0.666667000000000    0.975771000000000 
K           0.666667000000000    0.333333000000000    0.642437000000000 
%ENDBLOCK POSITIONS_FRAC
