# Cell file generated by matador (Matthew Evans 2016)

%BLOCK LATTICE_CART
6.51976 0.0 0.0
-3.25988 5.64627 0.0
0.0 0.0 6.69294
%ENDBLOCK LATTICE_CART

%BLOCK POSITIONS_FRAC
P           0.069231000000000    0.534615000000000    0.943397000000000 
P           0.465385000000000    0.534615000000000    0.943397000000000 
P           0.465385000000000    0.930769000000000    0.943397000000000 
P           0.666667000000000    0.333333000000000    0.423811000000000 
K           0.333334000000000    0.666666000000000    0.521499000000000 
K           0.363714000000000    0.181856000000000    0.181317000000000 
K           0.666667000000000    0.333333000000000    0.790642000000000 
K           0.818144000000000    0.181856000000000    0.181317000000000 
K           0.818144000000000    0.636286000000000    0.181317000000000 
%ENDBLOCK POSITIONS_FRAC
