# Cell file generated by matador (Matthew Evans 2016)

%BLOCK LATTICE_CART
7.28463 0.0 0.0
-3.64232 6.30868 0.0
0.0 0.0 8.02228
%ENDBLOCK LATTICE_CART

%BLOCK POSITIONS_FRAC
P           0.000000000000000    0.000000000000000    0.106804000000000 
P           0.000000000000000    0.000000000000000    0.893196000000000 
P           0.163556000000000    0.355178000000000    0.000000000000000 
P           0.191622000000000    0.836444000000000    0.000000000000000 
P           0.333333000000000    0.666667000000000    0.500000000000000 
P           0.355178000000000    0.191622000000000    0.000000000000000 
P           0.644822000000000    0.808378000000000    0.000000000000000 
P           0.666667000000000    0.333333000000000    0.500000000000000 
P           0.808378000000000    0.163556000000000    0.000000000000000 
P           0.836444000000000    0.644822000000000    0.000000000000000 
K           0.000000000000000    0.500000000000000    0.500000000000000 
K           0.333333000000000    0.666667000000000    0.000000000000000 
K           0.500000000000000    0.000000000000000    0.500000000000000 
K           0.500000000000000    0.500000000000000    0.500000000000000 
K           0.666667000000000    0.333333000000000    0.000000000000000 
%ENDBLOCK POSITIONS_FRAC
