# Cell file generated by matador (Matthew Evans 2016)

%BLOCK LATTICE_CART
9.90534 0.0 0.0
3.20453 5.85391 0.0
-3.42603 -0.512533 7.52402
%ENDBLOCK LATTICE_CART

%BLOCK POSITIONS_FRAC
P           0.000000000000000    0.500000000000000    0.000000000000000 
P           0.000000000000000    0.500000000000000    0.500000000000000 
P           0.285531000000000    0.375923000000000    0.855734000000000 
P           0.404233000000000    0.103554000000000    0.288531000000000 
P           0.500000000000000    0.000000000000000    0.500000000000000 
P           0.595767000000000    0.896446000000000    0.711469000000000 
P           0.714469000000000    0.624077000000000    0.144266000000000 
K           0.000000000000000    0.000000000000000    0.000000000000000 
K           0.000000000000000    0.000000000000000    0.500000000000000 
K           0.500000000000000    0.000000000000000    0.000000000000000 
K           0.500000000000000    0.500000000000000    0.000000000000000 
K           0.500000000000000    0.500000000000000    0.500000000000000 
%ENDBLOCK POSITIONS_FRAC
