# Cell file generated by matador (Matthew Evans 2016)

%BLOCK LATTICE_CART
8.84718 0.0 0.0
0.0 6.80694 0.0
-0.581246 0.0 6.62973
%ENDBLOCK LATTICE_CART

%BLOCK POSITIONS_FRAC
P           0.062115000000000    0.405660000000000    0.492853000000000 
P           0.062115000000000    0.594340000000000    0.492853000000000 
P           0.185551000000000    0.176795000000000    0.654868000000000 
P           0.185551000000000    0.823205000000000    0.654868000000000 
P           0.542016000000000    0.159163000000000    0.643799000000000 
P           0.542016000000000    0.840837000000000    0.643799000000000 
P           0.579351000000000    0.500000000000000    0.699484000000000 
K           0.081733000000000    0.500000000000000    0.956696000000000 
K           0.687631000000000    0.228877000000000    0.321549000000000 
K           0.687631000000000    0.771123000000000    0.321549000000000 
K           0.871306000000000    0.215805000000000    0.148807000000000 
K           0.871306000000000    0.784195000000000    0.148807000000000 
%ENDBLOCK POSITIONS_FRAC
