# Cell file generated by matador (Matthew Evans 2016)

%BLOCK LATTICE_CART
9.94465 -0.0 0.0
-4.97232 8.61232 0.0
0.0 0.0 5.08703
%ENDBLOCK LATTICE_CART

%BLOCK POSITIONS_FRAC
P           0.000000000000000    0.000000000000000    0.671176000000000 
P           0.214607000000000    0.728450000000000    0.125346000000000 
P           0.271550000000000    0.486157000000000    0.125346000000000 
P           0.333333000000000    0.666667000000000    0.899326000000000 
P           0.435254000000000    0.045048000000000    0.282617000000000 
P           0.513843000000000    0.785393000000000    0.125346000000000 
P           0.609794000000000    0.564746000000000    0.282617000000000 
P           0.666667000000000    0.333333000000000    0.208050000000000 
P           0.666667000000000    0.333333000000000    0.824876000000000 
P           0.954952000000000    0.390206000000000    0.282617000000000 
K           0.030806000000000    0.698878000000000    0.566595000000000 
K           0.301122000000000    0.331928000000000    0.566595000000000 
K           0.315991000000000    0.111173000000000    0.848886000000000 
K           0.668072000000000    0.969194000000000    0.566595000000000 
K           0.795182000000000    0.684009000000000    0.848886000000000 
K           0.888827000000000    0.204818000000000    0.848886000000000 
%ENDBLOCK POSITIONS_FRAC
