# Cell file generated by matador (Matthew Evans 2016)

%BLOCK LATTICE_CART
9.35263 0.0 0.0
-4.67632 8.09962 0.0
0.0 0.0 7.40138
%ENDBLOCK LATTICE_CART

%BLOCK POSITIONS_FRAC
P           0.000000000000000    0.000000000000000    0.000000000000000 
P           0.000000000000000    0.000000000000000    0.500000000000000 
P           0.333333000000000    0.666667000000000    0.000000000000000 
P           0.666667000000000    0.333333000000000    0.000000000000000 
K           0.186524000000000    0.744593000000000    0.500000000000000 
K           0.193898000000000    0.410697000000000    0.000000000000000 
K           0.216799000000000    0.806102000000000    0.000000000000000 
K           0.255407000000000    0.441932000000000    0.500000000000000 
K           0.410697000000000    0.193898000000000    0.000000000000000 
K           0.441932000000000    0.255407000000000    0.500000000000000 
K           0.558068000000000    0.813476000000000    0.500000000000000 
K           0.589303000000000    0.783201000000000    0.000000000000000 
K           0.744593000000000    0.186524000000000    0.500000000000000 
K           0.783201000000000    0.589303000000000    0.000000000000000 
K           0.806102000000000    0.216799000000000    0.000000000000000 
K           0.813476000000000    0.558068000000000    0.500000000000000 
%ENDBLOCK POSITIONS_FRAC
