# Cell file generated by matador (Matthew Evans 2016)

%BLOCK LATTICE_CART
7.14157 0.0 0.0
-3.57079 6.18478 0.0
0.0 0.0 6.81334
%ENDBLOCK LATTICE_CART

%BLOCK POSITIONS_FRAC
P           0.057374000000000    0.381801000000000    0.176680000000000 
P           0.284866000000000    0.008906000000000    0.510014000000000 
P           0.324428000000000    0.942626000000000    0.176680000000000 
P           0.390707000000000    0.048468000000000    0.843347000000000 
P           0.618199000000000    0.675572000000000    0.176680000000000 
P           0.657761000000000    0.609293000000000    0.843347000000000 
P           0.724040000000000    0.715134000000000    0.510014000000000 
P           0.951532000000000    0.342239000000000    0.843347000000000 
P           0.991094000000000    0.275960000000000    0.510014000000000 
K           0.000000000000000    0.000000000000000    0.549695000000000 
K           0.333333000000000    0.666667000000000    0.216361000000000 
K           0.666667000000000    0.333333000000000    0.883028000000000 
%ENDBLOCK POSITIONS_FRAC
