# Cell file generated by matador (Matthew Evans 2016)

%BLOCK LATTICE_CART
9.10682 0.0 0.0
0.0 16.5091 0.0
0.0 0.0 9.12695
%ENDBLOCK LATTICE_CART

%BLOCK POSITIONS_FRAC
P          -0.000000000000000    0.174218000000000    0.315160000000000 
P          -0.000000000000000    0.325782000000000    0.315160000000000 
P          -0.000000000000000    0.674218000000000    0.684840000000000 
P          -0.000000000000000    0.825782000000000    0.684840000000000 
P           0.500000000000000    0.174218000000000    0.184840000000000 
P           0.500000000000000    0.325782000000000    0.184840000000000 
P           0.500000000000000    0.674218000000000    0.815160000000000 
P           0.500000000000000    0.825782000000000    0.815160000000000 
K          -0.000000000000000    0.149456000000000    0.628150000000000 
K          -0.000000000000000    0.350544000000000    0.628150000000000 
K          -0.000000000000000    0.649456000000000    0.371850000000000 
K          -0.000000000000000    0.850544000000000    0.371850000000000 
K           0.185674000000000    0.250000000000000    0.939487000000000 
K           0.185674000000000    0.750000000000000    0.060513000000000 
K           0.250000000000000    0.113065000000000    0.250000000000000 
K           0.250000000000000    0.386935000000000    0.250000000000000 
K           0.250000000000000    0.613065000000000    0.750000000000000 
K           0.250000000000000    0.886935000000000    0.750000000000000 
K           0.314326000000000    0.250000000000000    0.560513000000000 
K           0.314326000000000    0.750000000000000    0.439487000000000 
K           0.500000000000000    0.149456000000000    0.871850000000000 
K           0.500000000000000    0.350544000000000    0.871850000000000 
K           0.500000000000000    0.649456000000000    0.128150000000000 
K           0.500000000000000    0.850544000000000    0.128150000000000 
K           0.685674000000000    0.250000000000000    0.560513000000000 
K           0.685674000000000    0.750000000000000    0.439487000000000 
K           0.750000000000000    0.113065000000000    0.250000000000000 
K           0.750000000000000    0.386935000000000    0.250000000000000 
K           0.750000000000000    0.613065000000000    0.750000000000000 
K           0.750000000000000    0.886935000000000    0.750000000000000 
K           0.814326000000000    0.250000000000000    0.939487000000000 
K           0.814326000000000    0.750000000000000    0.060513000000000 
%ENDBLOCK POSITIONS_FRAC
