# Cell file generated by matador (Matthew Evans 2016)

%BLOCK LATTICE_CART
6.30389 0.0 0.0
0.0 7.84912 0.0
4.55984 0.0 9.45642
%ENDBLOCK LATTICE_CART

%BLOCK POSITIONS_FRAC
P           0.218882000000000    0.000000000000000    0.765572000000000 
P           0.373978000000000    0.419791000000000    0.512814000000000 
P           0.373978000000000    0.580209000000000    0.512814000000000 
P           0.492896000000000    0.500000000000000    0.693751000000000 
P           0.619521000000000    0.327996000000000    0.048427000000000 
P           0.619521000000000    0.672004000000000    0.048427000000000 
P           0.636486000000000    0.245188000000000    0.782567000000000 
P           0.636486000000000    0.754812000000000    0.782567000000000 
K           0.235596000000000    0.304857000000000    0.735752000000000 
K           0.235596000000000    0.695143000000000    0.735752000000000 
K           0.345205000000000    0.000000000000000    0.286208000000000 
K           0.811546000000000    0.500000000000000    0.740888000000000 
K           0.872554000000000    0.000000000000000    0.578426000000000 
K           0.979574000000000    0.500000000000000    0.271045000000000 
%ENDBLOCK POSITIONS_FRAC
