# Cell file generated by matador (Matthew Evans 2016)

%BLOCK LATTICE_CART
7.7766 0.0 0.0
-3.8883 6.73473 0.0
0.0 0.0 5.2292
%ENDBLOCK LATTICE_CART

%BLOCK POSITIONS_FRAC
P           0.218578000000000    0.109289000000000    0.419672000000000 
P           0.224044000000000    0.448088000000000    0.086338000000000 
P           0.224044000000000    0.775956000000000    0.086338000000000 
P           0.551912000000000    0.775956000000000    0.086338000000000 
P           0.557377000000000    0.114755000000000    0.753005000000000 
P           0.557377000000000    0.442623000000000    0.753005000000000 
P           0.885245000000000    0.442623000000000    0.753005000000000 
P           0.890711000000000    0.109289000000000    0.419672000000000 
P           0.890711000000000    0.781422000000000    0.419672000000000 
K          -0.000000000000000   -0.000000000000000    0.888217000000000 
K           0.333333000000000    0.666667000000000    0.554884000000000 
K           0.666667000000000    0.333333000000000    0.221551000000000 
%ENDBLOCK POSITIONS_FRAC
