# Cell file generated by matador (Matthew Evans 2016)

%BLOCK LATTICE_CART
10.3473 0.0 0.0
0.0 10.3473 0.0
0.0 0.0 4.77239
%ENDBLOCK LATTICE_CART

%BLOCK POSITIONS_FRAC
P           0.000000000000000    0.000000000000000    0.000000000000000 
P           0.000000000000000    0.000000000000000    0.500000000000000 
P           0.500000000000000    0.500000000000000    0.000000000000000 
K           0.155750000000000    0.237454000000000    0.000000000000000 
K           0.237454000000000    0.844250000000000    0.000000000000000 
K           0.255297000000000    0.540775000000000    0.000000000000000 
K           0.459225000000000    0.255297000000000    0.000000000000000 
K           0.500000000000000    0.500000000000000    0.500000000000000 
K           0.540775000000000    0.744703000000000    0.000000000000000 
K           0.744703000000000    0.459225000000000    0.000000000000000 
K           0.762546000000000    0.155750000000000    0.000000000000000 
K           0.844250000000000    0.762546000000000    0.000000000000000 
%ENDBLOCK POSITIONS_FRAC
