# Cell file generated by matador (Matthew Evans 2016)

%BLOCK LATTICE_CART
7.75125 0.0 0.0
-3.87562 6.71278 0.0
0.0 0.0 9.87554
%ENDBLOCK LATTICE_CART

%BLOCK POSITIONS_FRAC
P           0.000000000000000    0.000000000000000    0.507529000000000 
P           0.115743000000000    0.487185000000000    0.445054000000000 
P           0.115743000000000    0.628558000000000    0.445054000000000 
P           0.333333000000000    0.666667000000000    0.744999000000000 
P           0.371442000000000    0.487185000000000    0.445054000000000 
P           0.371442000000000    0.884257000000000    0.445054000000000 
P           0.437751000000000    0.094448000000000    0.679132000000000 
P           0.437751000000000    0.343303000000000    0.679132000000000 
P           0.512815000000000    0.628558000000000    0.445054000000000 
P           0.512815000000000    0.884257000000000    0.445054000000000 
P           0.656697000000000    0.094448000000000    0.679132000000000 
P           0.656697000000000    0.562249000000000    0.679132000000000 
P           0.905552000000000    0.343303000000000    0.679132000000000 
P           0.905552000000000    0.562249000000000    0.679132000000000 
K           0.000000000000000    0.000000000000000    0.038959000000000 
K           0.333333000000000    0.666667000000000    0.283468000000000 
K           0.333333000000000    0.666667000000000    0.988323000000000 
K           0.666667000000000    0.333333000000000    0.219963000000000 
%ENDBLOCK POSITIONS_FRAC
