# Cell file generated by matador (Matthew Evans 2016)

%BLOCK LATTICE_CART
8.24995 0.0 0.0
0.0 8.24995 0.0
0.0 0.0 8.24995
%ENDBLOCK LATTICE_CART

%BLOCK POSITIONS_FRAC
P           0.000000000000000    0.000000000000000    0.000000000000000 
P           0.183377000000000    0.183377000000000    0.183377000000000 
P           0.183377000000000    0.183377000000000    0.816623000000000 
P           0.183377000000000    0.816623000000000    0.183377000000000 
P           0.183377000000000    0.816623000000000    0.816623000000000 
P           0.816623000000000    0.183377000000000    0.183377000000000 
P           0.816623000000000    0.183377000000000    0.816623000000000 
P           0.816623000000000    0.816623000000000    0.183377000000000 
P           0.816623000000000    0.816623000000000    0.816623000000000 
K           0.000000000000000    0.000000000000000    0.500000000000000 
K           0.000000000000000    0.500000000000000    0.000000000000000 
K           0.000000000000000    0.500000000000000    0.500000000000000 
K           0.500000000000000    0.000000000000000    0.000000000000000 
K           0.500000000000000    0.000000000000000    0.500000000000000 
K           0.500000000000000    0.500000000000000    0.000000000000000 
%ENDBLOCK POSITIONS_FRAC
