# Cell file generated by matador (Matthew Evans 2016)

%BLOCK LATTICE_CART
4.67791 0.0 0.0
0.0 7.71598 0.0
0.820787 0.0 7.38836
%ENDBLOCK LATTICE_CART

%BLOCK POSITIONS_FRAC
P           0.000000000000000    0.000000000000000    0.000000000000000 
P           0.000000000000000    0.000000000000000    0.500000000000000 
P           0.000000000000000    0.500000000000000    0.000000000000000 
P           0.000000000000000    0.500000000000000    0.500000000000000 
P           0.500000000000000    0.000000000000000    0.000000000000000 
P           0.500000000000000    0.000000000000000    0.500000000000000 
P           0.500000000000000    0.500000000000000    0.000000000000000 
K           0.415736000000000    0.239470000000000    0.697416000000000 
K           0.415736000000000    0.760530000000000    0.697416000000000 
K           0.584264000000000    0.239470000000000    0.302584000000000 
K           0.584264000000000    0.760530000000000    0.302584000000000 
%ENDBLOCK POSITIONS_FRAC
