# Cell file generated by matador (Matthew Evans 2016)

%BLOCK LATTICE_CART
8.50073 0.0 0.0
0.0 9.8654 0.0
0.0 0.0 7.86411
%ENDBLOCK LATTICE_CART

%BLOCK POSITIONS_FRAC
P           0.000000000000000    0.402940000000000    0.750000000000000 
P           0.000000000000000    0.597060000000000    0.250000000000000 
K           0.000000000000000    0.341033000000000    0.250000000000000 
K           0.000000000000000    0.658967000000000    0.750000000000000 
K           0.122247000000000    0.500000000000000    0.500000000000000 
K           0.177032000000000    0.136800000000000    0.172437000000000 
K           0.177032000000000    0.863200000000000    0.827563000000000 
K           0.324894000000000    0.000000000000000    0.000000000000000 
K           0.339881000000000    0.234036000000000    0.633925000000000 
K           0.339881000000000    0.765964000000000    0.366075000000000 
K           0.660119000000000    0.234036000000000    0.866075000000000 
K           0.660119000000000    0.765964000000000    0.133925000000000 
K           0.675106000000000    0.000000000000000    0.500000000000000 
K           0.822968000000000    0.136800000000000    0.327563000000000 
K           0.822968000000000    0.863200000000000    0.672437000000000 
K           0.877753000000000    0.500000000000000    0.000000000000000 
%ENDBLOCK POSITIONS_FRAC
