# Cell file generated by matador (Matthew Evans 2016)

%BLOCK LATTICE_CART
7.40504 0.0 0.0
1.38482 5.04658 0.0
-0.909075 0.87183 8.63113
%ENDBLOCK LATTICE_CART

%BLOCK POSITIONS_FRAC
P           0.000000000000000    0.000000000000000    0.500000000000000 
P           0.234544000000000    0.935100000000000    0.998860000000000 
P           0.500000000000000    0.000000000000000    0.500000000000000 
P           0.500000000000000    0.500000000000000    0.000000000000000 
P           0.765456000000000    0.064900000000000    0.001140000000000 
K           0.000000000000000    0.500000000000000    0.000000000000000 
K           0.100199000000000    0.348909000000000    0.765346000000000 
K           0.197368000000000    0.554717000000000    0.547665000000000 
K           0.500000000000000    0.000000000000000    0.000000000000000 
K           0.500000000000000    0.500000000000000    0.500000000000000 
K           0.802632000000000    0.445283000000000    0.452335000000000 
K           0.899801000000000    0.651091000000000    0.234654000000000 
%ENDBLOCK POSITIONS_FRAC
