# Cell file generated by matador (Matthew Evans 2016)

%BLOCK LATTICE_CART
6.30988 0.0 0.0
-3.15494 5.46451 0.0
0.0 0.0 8.31494
%ENDBLOCK LATTICE_CART

%BLOCK POSITIONS_FRAC
P           0.000000000000000    0.000000000000000    0.610768000000000 
P           0.000000000000000    0.000000000000000    0.749851000000000 
P           0.004219000000000    0.863670000000000    0.308282000000000 
P           0.011534000000000    0.417134000000000    0.755927000000000 
P           0.136330000000000    0.140548000000000    0.308282000000000 
P           0.162700000000000    0.716871000000000    0.058359000000000 
P           0.283129000000000    0.445829000000000    0.058359000000000 
P           0.386291000000000    0.137680000000000    0.626529000000000 
P           0.405600000000000    0.988466000000000    0.755927000000000 
P           0.554171000000000    0.837300000000000    0.058359000000000 
P           0.582866000000000    0.594400000000000    0.755927000000000 
P           0.751389000000000    0.613709000000000    0.626529000000000 
P           0.859452000000000    0.995781000000000    0.308282000000000 
P           0.862320000000000    0.248611000000000    0.626529000000000 
K           0.000000000000000    0.000000000000000    0.061845000000000 
K           0.666667000000000    0.333333000000000    0.465802000000000 
%ENDBLOCK POSITIONS_FRAC
