# Cell file generated by matador (Matthew Evans 2016)

%BLOCK LATTICE_CART
9.838 0.0 0.0
-4.919 8.51996 0.0
0.0 0.0 10.1303
%ENDBLOCK LATTICE_CART

%BLOCK POSITIONS_FRAC
P           0.000000000000000    0.229758000000000    0.172805000000000 
P           0.000000000000000    0.680935000000000    0.929595000000000 
P           0.229758000000000    0.000000000000000    0.172805000000000 
P           0.319065000000000    0.319065000000000    0.929595000000000 
P           0.680935000000000    0.000000000000000    0.929595000000000 
P           0.770242000000000    0.770242000000000    0.172805000000000 
K           0.000000000000000    0.000000000000000    0.125929000000000 
K           0.000000000000000    0.223908000000000    0.794575000000000 
K           0.000000000000000    0.370222000000000    0.356668000000000 
K           0.000000000000000    0.434224000000000    0.036307000000000 
K           0.000000000000000    0.540068000000000    0.652251000000000 
K           0.000000000000000    0.720023000000000    0.386390000000000 
K           0.223908000000000    0.000000000000000    0.794575000000000 
K           0.279977000000000    0.279977000000000    0.386390000000000 
K           0.333333000000000    0.666667000000000    0.881796000000000 
K           0.370222000000000    0.000000000000000    0.356668000000000 
K           0.434224000000000    0.000000000000000    0.036307000000000 
K           0.459932000000000    0.459932000000000    0.652251000000000 
K           0.540068000000000    0.000000000000000    0.652251000000000 
K           0.565776000000000    0.565776000000000    0.036307000000000 
K           0.629778000000000    0.629778000000000    0.356668000000000 
K           0.666667000000000    0.333333000000000    0.881796000000000 
K           0.720023000000000    0.000000000000000    0.386390000000000 
K           0.776092000000000    0.776092000000000    0.794575000000000 
%ENDBLOCK POSITIONS_FRAC
