# Cell file generated by matador (Matthew Evans 2016)

%BLOCK LATTICE_CART
8.85641 0.0 0.0
-4.42821 7.66988 0.0
0.0 0.0 7.21048
%ENDBLOCK LATTICE_CART

%BLOCK POSITIONS_FRAC
P           0.050315000000000    0.100629000000000    0.926219000000000 
P           0.050315000000000    0.949687000000000    0.926219000000000 
P           0.100629000000000    0.050315000000000    0.426219000000000 
P           0.169874000000000    0.584938000000000    0.624102000000000 
P           0.415064000000000    0.584938000000000    0.624102000000000 
P           0.415064000000000    0.830128000000000    0.624102000000000 
P           0.584938000000000    0.169874000000000    0.124102000000000 
P           0.584938000000000    0.415064000000000    0.124102000000000 
P           0.830128000000000    0.415064000000000    0.124102000000000 
P           0.899373000000000    0.949687000000000    0.926219000000000 
P           0.949687000000000    0.050315000000000    0.426219000000000 
P           0.949687000000000    0.899373000000000    0.426219000000000 
K           0.333334000000000    0.666668000000000    0.990952000000000 
K           0.666668000000000    0.333334000000000    0.490952000000000 
%ENDBLOCK POSITIONS_FRAC
