# Cell file generated by matador (Matthew Evans 2016)

%BLOCK LATTICE_CART
8.08816 0.0 0.0
0.0 9.97418 0.0
0.0 0.0 11.0698
%ENDBLOCK LATTICE_CART

%BLOCK POSITIONS_FRAC
P           0.000000000000000    0.000000000000000    0.936242000000000 
P           0.000000000000000    0.295545000000000    0.236162000000000 
P           0.000000000000000    0.704455000000000    0.236162000000000 
P           0.500000000000000    0.204455000000000    0.736162000000000 
P           0.500000000000000    0.500000000000000    0.436242000000000 
P           0.500000000000000    0.795545000000000    0.736162000000000 
K           0.000000000000000    0.000000000000000    0.217496000000000 
K           0.000000000000000    0.191094000000000    0.679130000000000 
K           0.000000000000000    0.808906000000000    0.679130000000000 
K           0.189196000000000    0.500000000000000    0.254932000000000 
K           0.215130000000000    0.500000000000000    0.886883000000000 
K           0.229676000000000    0.000000000000000    0.010326000000000 
K           0.270324000000000    0.500000000000000    0.510326000000000 
K           0.284870000000000    0.000000000000000    0.386883000000000 
K           0.310804000000000    0.000000000000000    0.754932000000000 
K           0.500000000000000    0.308906000000000    0.179130000000000 
K           0.500000000000000    0.500000000000000    0.717496000000000 
K           0.500000000000000    0.691094000000000    0.179130000000000 
K           0.689196000000000    0.000000000000000    0.754932000000000 
K           0.715130000000000    0.000000000000000    0.386883000000000 
K           0.729676000000000    0.500000000000000    0.510326000000000 
K           0.770324000000000    0.000000000000000    0.010326000000000 
K           0.784870000000000    0.500000000000000    0.886883000000000 
K           0.810804000000000    0.500000000000000    0.254932000000000 
%ENDBLOCK POSITIONS_FRAC
