# Cell file generated by matador (Matthew Evans 2016)

%BLOCK LATTICE_CART
4.85998 0.0 0.0
-2.42999 4.20886 0.0
0.0 0.0 8.18953
%ENDBLOCK LATTICE_CART

%BLOCK POSITIONS_FRAC
P          -0.000000000000000   -0.000000000000000    0.500000000000000 
P           0.333333000000000    0.666667000000000    0.166667000000000 
P           0.666667000000000    0.333333000000000    0.833333000000000 
K          -0.000000000000000   -0.000000000000000   -0.000000000000000 
K           0.333333000000000    0.666667000000000    0.666667000000000 
K           0.666667000000000    0.333333000000000    0.333333000000000 
%ENDBLOCK POSITIONS_FRAC
