# Cell file generated by matador (Matthew Evans 2016)

%BLOCK LATTICE_CART
6.39172 0.0 0.0
-3.19586 5.5354 0.0
0.0 0.0 7.11981
%ENDBLOCK LATTICE_CART

%BLOCK POSITIONS_FRAC
P          -0.000000000000000    0.000000000000000    0.500000000000000 
P           0.030595000000000    0.343981000000000    0.000000000000000 
P           0.030595000000000    0.686614000000000    0.000000000000000 
P           0.313386000000000    0.343981000000000    0.000000000000000 
P           0.313386000000000    0.969405000000000    0.000000000000000 
P           0.656019000000000    0.686614000000000    0.000000000000000 
P           0.656019000000000    0.969405000000000    0.000000000000000 
K           0.333333000000000    0.666667000000000    0.000000000000000 
K           0.666666000000000    0.333334000000000    0.500000000000000 
%ENDBLOCK POSITIONS_FRAC
