# Cell file generated by matador (Matthew Evans 2016)

%BLOCK LATTICE_CART
5.98268 0.0 0.0
0.0 10.1527 0.0
4.72195 0.0 9.63841
%ENDBLOCK LATTICE_CART

%BLOCK POSITIONS_FRAC
P           0.112169000000000    0.365875000000000    0.474284000000000 
P           0.112169000000000    0.634125000000000    0.474284000000000 
P           0.407317000000000    0.205498000000000    0.018273000000000 
P           0.407317000000000    0.794502000000000    0.018273000000000 
P           0.803343000000000    0.272310000000000    0.928019000000000 
P           0.803343000000000    0.727690000000000    0.928019000000000 
P           0.959588000000000    0.309747000000000    0.830024000000000 
P           0.959588000000000    0.690253000000000    0.830024000000000 
K           0.114212000000000    0.107461000000000    0.840488000000000 
K           0.114212000000000    0.892539000000000    0.840488000000000 
K           0.494708000000000    0.295035000000000    0.491810000000000 
K           0.494708000000000    0.704965000000000    0.491810000000000 
K           0.533250000000000    0.139628000000000    0.652155000000000 
K           0.533250000000000    0.860372000000000    0.652155000000000 
K           0.688579000000000    0.203733000000000    0.150047000000000 
K           0.688579000000000    0.796267000000000    0.150047000000000 
K           0.694212000000000    0.500000000000000    0.043182000000000 
K           0.863013000000000    0.000000000000000    0.258715000000000 
%ENDBLOCK POSITIONS_FRAC
