# Cell file generated by matador (Matthew Evans 2016)

%BLOCK LATTICE_CART
5.45038 0.0 0.0
-2.72519 4.72017 0.0
0.0 0.0 10.7079
%ENDBLOCK LATTICE_CART

%BLOCK POSITIONS_FRAC
P           0.000000000000000    0.000000000000000    0.500000000000000 
K           0.000000000000000    0.000000000000000    0.000000000000000 
K           0.000000000000000    0.500000000000000    0.500000000000000 
K           0.333333000000000    0.666667000000000    0.115290000000000 
K           0.500000000000000    0.000000000000000    0.500000000000000 
K           0.500000000000000    0.500000000000000    0.500000000000000 
K           0.666667000000000    0.333333000000000    0.884710000000000 
%ENDBLOCK POSITIONS_FRAC
