# Cell file generated by matador (Matthew Evans 2016)

%BLOCK LATTICE_CART
6.39141 0.0 0.0
0.0 6.03872 0.0
0.0 0.0 8.21534
%ENDBLOCK LATTICE_CART

%BLOCK POSITIONS_FRAC
P           0.000000000000000    0.500000000000000    0.500000000000000 
P           0.500000000000000    0.000000000000000    0.500000000000000 
K           0.000000000000000    0.269193000000000    0.204184000000000 
K           0.000000000000000    0.269193000000000    0.795816000000000 
K           0.000000000000000    0.730807000000000    0.204184000000000 
K           0.000000000000000    0.730807000000000    0.795816000000000 
K           0.500000000000000    0.230807000000000    0.204184000000000 
K           0.500000000000000    0.230807000000000    0.795816000000000 
K           0.500000000000000    0.769193000000000    0.204184000000000 
K           0.500000000000000    0.769193000000000    0.795816000000000 
%ENDBLOCK POSITIONS_FRAC
