# Cell file generated by matador (Matthew Evans 2016)

%BLOCK LATTICE_CART
7.97763 0.0 0.0
-3.98882 6.90883 0.0
0.0 0.0 13.0775
%ENDBLOCK LATTICE_CART

%BLOCK POSITIONS_FRAC
P           0.000000000000000    0.000000000000000    0.000000000000000 
P           0.000000000000000    0.000000000000000    0.248186000000000 
P           0.000000000000000    0.000000000000000    0.751814000000000 
P           0.333333000000000    0.666667000000000    0.210188000000000 
P           0.666667000000000    0.333333000000000    0.789812000000000 
K           0.000000000000000    0.500000000000000    0.500000000000000 
K           0.079611000000000    0.539805000000000    0.275444000000000 
K           0.167335000000000    0.334671000000000    0.111407000000000 
K           0.167335000000000    0.832665000000000    0.111407000000000 
K           0.334671000000000    0.167335000000000    0.888593000000000 
K           0.460195000000000    0.539805000000000    0.275444000000000 
K           0.460195000000000    0.920389000000000    0.275444000000000 
K           0.500000000000000    0.000000000000000    0.500000000000000 
K           0.500000000000000    0.500000000000000    0.500000000000000 
K           0.539805000000000    0.079611000000000    0.724556000000000 
K           0.539805000000000    0.460195000000000    0.724556000000000 
K           0.665329000000000    0.832665000000000    0.111407000000000 
K           0.832665000000000    0.167335000000000    0.888593000000000 
K           0.832665000000000    0.665329000000000    0.888593000000000 
K           0.920389000000000    0.460195000000000    0.724556000000000 
%ENDBLOCK POSITIONS_FRAC
