# Cell file generated by matador (Matthew Evans 2016)

%BLOCK LATTICE_CART
6.70869 0.0 0.0
0.0 8.77228 0.0
0.0 0.0 7.92529
%ENDBLOCK LATTICE_CART

%BLOCK POSITIONS_FRAC
P           0.189110000000000    0.000000000000000    0.271922000000000 
P           0.500000000000000    0.000000000000000    0.240968000000000 
P           0.810890000000000    0.000000000000000    0.271922000000000 
K           0.000000000000000    0.223926000000000    0.265908000000000 
K           0.000000000000000    0.500000000000000    0.045579000000000 
K           0.000000000000000    0.776074000000000    0.265908000000000 
K           0.224137000000000    0.000000000000000    0.595185000000000 
K           0.228115000000000    0.500000000000000    0.398787000000000 
K           0.281235000000000    0.500000000000000    0.768437000000000 
K           0.718765000000000    0.500000000000000    0.768437000000000 
K           0.771885000000000    0.500000000000000    0.398787000000000 
K           0.775863000000000    0.000000000000000    0.595185000000000 
%ENDBLOCK POSITIONS_FRAC
