# Cell file generated by matador (Matthew Evans 2016)

%BLOCK LATTICE_CART
7.17351 -0.0 0.0
-3.58675 6.21244 0.0
0.0 0.0 9.43775
%ENDBLOCK LATTICE_CART

%BLOCK POSITIONS_FRAC
P           0.333333000000000    0.666667000000000    0.295785000000000 
P           0.363783000000000    0.148623000000000    0.810770000000000 
P           0.516107000000000    0.098701000000000    0.306134000000000 
P           0.582594000000000    0.483893000000000    0.306134000000000 
P           0.784841000000000    0.636217000000000    0.810770000000000 
P           0.851377000000000    0.215159000000000    0.810770000000000 
P           0.901299000000000    0.417406000000000    0.306134000000000 
K           0.000000000000000    0.000000000000000    0.303122000000000 
K           0.000000000000000    0.000000000000000    0.571723000000000 
K           0.333333000000000    0.666667000000000    0.546564000000000 
K           0.666667000000000    0.333333000000000    0.152033000000000 
K           0.666667000000000    0.333333000000000    0.568822000000000 
%ENDBLOCK POSITIONS_FRAC
