# Cell file generated by matador (Matthew Evans 2016)

%BLOCK LATTICE_CART
7.80644 0.0 0.0
-3.90322 6.76057 0.0
0.0 0.0 6.92251
%ENDBLOCK LATTICE_CART

%BLOCK POSITIONS_FRAC
P           0.000000000000000    0.500000000000000    0.148673000000000 
P           0.000000000000000    0.500000000000000    0.851327000000000 
P           0.333333000000000    0.666667000000000    0.216791000000000 
P           0.333333000000000    0.666667000000000    0.783209000000000 
P           0.500000000000000    0.000000000000000    0.148673000000000 
P           0.500000000000000    0.000000000000000    0.851327000000000 
P           0.500000000000000    0.500000000000000    0.148673000000000 
P           0.500000000000000    0.500000000000000    0.851327000000000 
P           0.666667000000000    0.333333000000000    0.216791000000000 
P           0.666667000000000    0.333333000000000    0.783209000000000 
K           0.000000000000000    0.000000000000000    0.000000000000000 
K           0.000000000000000    0.000000000000000    0.500000000000000 
%ENDBLOCK POSITIONS_FRAC
