# Cell file generated by matador (Matthew Evans 2016)

%BLOCK LATTICE_CART
9.24273 0.0 0.0
0.0 9.24273 0.0
0.0 0.0 6.57127
%ENDBLOCK LATTICE_CART

%BLOCK POSITIONS_FRAC
P           0.000000000000000    0.000000000000000    0.360965000000000 
P           0.000000000000000    0.000000000000000    0.860965000000000 
K           0.000000000000000    0.379175000000000    0.087455000000000 
K           0.000000000000000    0.500000000000000    0.469870000000000 
K           0.000000000000000    0.620825000000000    0.087455000000000 
K           0.291416000000000    0.381238000000000    0.341672000000000 
K           0.291416000000000    0.618762000000000    0.341672000000000 
K           0.379175000000000    0.000000000000000    0.587455000000000 
K           0.381238000000000    0.291416000000000    0.841672000000000 
K           0.381238000000000    0.708584000000000    0.841672000000000 
K           0.500000000000000    0.000000000000000    0.969870000000000 
K           0.618762000000000    0.291416000000000    0.841672000000000 
K           0.618762000000000    0.708584000000000    0.841672000000000 
K           0.620825000000000    0.000000000000000    0.587455000000000 
K           0.708584000000000    0.381238000000000    0.341672000000000 
K           0.708584000000000    0.618762000000000    0.341672000000000 
%ENDBLOCK POSITIONS_FRAC
