# Cell file generated by matador (Matthew Evans 2016)

%BLOCK LATTICE_CART
7.27402 0.0 0.0
0.0 7.27402 0.0
0.0 0.0 6.96354
%ENDBLOCK LATTICE_CART

%BLOCK POSITIONS_FRAC
P           0.000000000000000    0.500000000000000    0.854257000000000 
P           0.261867000000000    0.401323000000000    0.599566000000000 
P           0.401323000000000    0.738133000000000    0.599566000000000 
P           0.500000000000000    0.000000000000000    0.854257000000000 
P           0.598677000000000    0.261867000000000    0.599566000000000 
P           0.738133000000000    0.598677000000000    0.599566000000000 
K           0.000000000000000    0.000000000000000    0.210807000000000 
K           0.240453000000000    0.618405000000000    0.175189000000000 
K           0.381595000000000    0.240453000000000    0.175189000000000 
K           0.618405000000000    0.759547000000000    0.175189000000000 
K           0.759547000000000    0.381595000000000    0.175189000000000 
%ENDBLOCK POSITIONS_FRAC
