# Cell file generated by matador (Matthew Evans 2016)

%BLOCK LATTICE_CART
8.13539 0.0 0.0
-4.0677 7.04545 0.0
0.0 0.0 11.055
%ENDBLOCK LATTICE_CART

%BLOCK POSITIONS_FRAC
P           0.375093000000000    0.038616000000000    0.420266000000000 
P           0.480351000000000    0.028445000000000    0.518698000000000 
P           0.548094000000000    0.519649000000000    0.518698000000000 
P           0.663523000000000    0.624907000000000    0.420266000000000 
P           0.961384000000000    0.336477000000000    0.420266000000000 
P           0.971555000000000    0.451906000000000    0.518698000000000 
K           0.079043000000000    0.814297000000000    0.610483000000000 
K           0.150125000000000    0.776400000000000    0.886183000000000 
K           0.185703000000000    0.264746000000000    0.610483000000000 
K           0.223600000000000    0.373725000000000    0.886183000000000 
K           0.333333000000000    0.666667000000000    0.151937000000000 
K           0.333333000000000    0.666667000000000    0.366507000000000 
K           0.483959000000000    0.276136000000000    0.012089000000000 
K           0.626275000000000    0.849875000000000    0.886183000000000 
K           0.666667000000000    0.333333000000000    0.373089000000000 
K           0.723864000000000    0.207823000000000    0.012089000000000 
K           0.735254000000000    0.920957000000000    0.610483000000000 
K           0.792177000000000    0.516041000000000    0.012089000000000 
%ENDBLOCK POSITIONS_FRAC
