# Cell file generated by matador (Matthew Evans 2016)

%BLOCK LATTICE_CART
7.27754 0.0 0.0
-3.63877 6.30253 0.0
0.0 0.0 6.24643
%ENDBLOCK LATTICE_CART

%BLOCK POSITIONS_FRAC
P           0.000000000000000    0.000000000000000    0.500000000000000 
P           0.290241000000000    0.051522000000000    0.500000000000000 
P           0.761282000000000    0.709759000000000    0.500000000000000 
P           0.948478000000000    0.238718000000000    0.500000000000000 
K           0.037656000000000    0.619594000000000    0.500000000000000 
K           0.333333000000000    0.666667000000000    0.500000000000000 
K           0.380406000000000    0.418061000000000    0.500000000000000 
K           0.581939000000000    0.962344000000000    0.500000000000000 
K           0.666667000000000    0.333333000000000    0.500000000000000 
%ENDBLOCK POSITIONS_FRAC
