# Cell file generated by matador (Matthew Evans 2016)

%BLOCK LATTICE_CART
8.62325 0.0 0.0
0.0 8.62325 0.0
0.0 0.0 8.72497
%ENDBLOCK LATTICE_CART

%BLOCK POSITIONS_FRAC
P           0.000000000000000    0.000000000000000    0.000000000000000 
P           0.000000000000000    0.000000000000000    0.250000000000000 
P           0.000000000000000    0.000000000000000    0.500000000000000 
P           0.000000000000000    0.000000000000000    0.750000000000000 
P           0.500000000000000    0.500000000000000    0.000000000000000 
P           0.500000000000000    0.500000000000000    0.500000000000000 
K           0.000000000000000    0.500000000000000    0.000000000000000 
K           0.000000000000000    0.500000000000000    0.500000000000000 
K           0.078384000000000    0.256006000000000    0.000000000000000 
K           0.078384000000000    0.743994000000000    0.500000000000000 
K           0.256006000000000    0.078384000000000    0.500000000000000 
K           0.256006000000000    0.921616000000000    0.000000000000000 
K           0.500000000000000    0.000000000000000    0.000000000000000 
K           0.500000000000000    0.000000000000000    0.500000000000000 
K           0.743994000000000    0.078384000000000    0.000000000000000 
K           0.743994000000000    0.921616000000000    0.500000000000000 
K           0.921616000000000    0.256006000000000    0.500000000000000 
K           0.921616000000000    0.743994000000000    0.000000000000000 
%ENDBLOCK POSITIONS_FRAC
