# Cell file generated by matador (Matthew Evans 2016)

%BLOCK LATTICE_CART
6.13097 0.0 0.0
0.0 6.46431 0.0
1.27756 0.0 7.87212
%ENDBLOCK LATTICE_CART

%BLOCK POSITIONS_FRAC
P           0.000000000000000    0.286361000000000   -0.000000000000000 
P           0.017453000000000    0.819749000000000    0.665872000000000 
P           0.122682000000000    0.159617000000000    0.892136000000000 
P           0.877318000000000    0.159617000000000    0.107864000000000 
P           0.982547000000000    0.819749000000000    0.334128000000000 
K           0.060719000000000    0.224627000000000    0.312129000000000 
K           0.260063000000000    0.594608000000000    0.102290000000000 
K           0.739937000000000    0.594608000000000    0.897710000000000 
K           0.939281000000000    0.224627000000000    0.687871000000000 
%ENDBLOCK POSITIONS_FRAC
