# Cell file generated by matador (Matthew Evans 2016)

%BLOCK LATTICE_CART
11.0604 0.0 0.0
-5.53021 9.5786 0.0
0.0 0.0 4.94424
%ENDBLOCK LATTICE_CART

%BLOCK POSITIONS_FRAC
P           0.000000000000000    0.000000000000000    0.061781000000000 
P           0.333333000000000    0.666667000000000    0.728448000000000 
P           0.666667000000000    0.333333000000000    0.395115000000000 
K           0.210543000000000    0.421085000000000    0.634780000000000 
K           0.210543000000000    0.789457000000000    0.634780000000000 
K           0.245581000000000    0.122791000000000    0.968114000000000 
K           0.543876000000000    0.087752000000000    0.301447000000000 
K           0.543876000000000    0.456124000000000    0.301447000000000 
K           0.578915000000000    0.789457000000000    0.634780000000000 
K           0.877209000000000    0.122791000000000    0.968114000000000 
K           0.877209000000000    0.754419000000000    0.968114000000000 
K           0.912248000000000    0.456124000000000    0.301447000000000 
%ENDBLOCK POSITIONS_FRAC
