# Cell file generated by matador (Matthew Evans 2016)

%BLOCK LATTICE_CART
8.16391 0.0 0.0
0.0 8.419 0.0
0.0 0.0 10.086
%ENDBLOCK LATTICE_CART

%BLOCK POSITIONS_FRAC
P           0.000000000000000    0.000000000000000    0.177276000000000 
P           0.000000000000000    0.000000000000000    0.822724000000000 
P           0.000000000000000    0.500000000000000    0.500000000000000 
P           0.255020000000000    0.500000000000000    0.500000000000000 
P           0.291302000000000    0.068303000000000    0.500000000000000 
P           0.291302000000000    0.931697000000000    0.500000000000000 
P           0.500000000000000    0.000000000000000    0.500000000000000 
P           0.708698000000000    0.068303000000000    0.500000000000000 
P           0.708698000000000    0.931697000000000    0.500000000000000 
P           0.744980000000000    0.500000000000000    0.500000000000000 
K           0.000000000000000    0.500000000000000    0.287591000000000 
K           0.000000000000000    0.500000000000000    0.712409000000000 
K           0.331961000000000    0.175903000000000    0.000000000000000 
K           0.331961000000000    0.824097000000000    0.000000000000000 
K           0.500000000000000    0.000000000000000    0.000000000000000 
K           0.500000000000000    0.500000000000000    0.500000000000000 
K           0.668039000000000    0.175903000000000    0.000000000000000 
K           0.668039000000000    0.824097000000000    0.000000000000000 
%ENDBLOCK POSITIONS_FRAC
