# Cell file generated by matador (Matthew Evans 2016)

%BLOCK LATTICE_CART
7.76894 0.0 0.0
0.0 9.602 0.0
-3.88587 0.0 7.36981
%ENDBLOCK LATTICE_CART

%BLOCK POSITIONS_FRAC
P           0.082332000000000    0.500000000000000    0.922570000000000 
P           0.148459000000000    0.000000000000000    0.998190000000000 
P           0.230600000000000    0.000000000000000    0.701937000000000 
P           0.232765000000000    0.000000000000000    0.493418000000000 
P           0.448146000000000    0.000000000000000    0.031446000000000 
P           0.492630000000000    0.000000000000000    0.262400000000000 
P           0.582332000000000    0.000000000000000    0.922570000000000 
P           0.648459000000000    0.500000000000000    0.998190000000000 
P           0.730600000000000    0.500000000000000    0.701937000000000 
P           0.732765000000000    0.500000000000000    0.493418000000000 
P           0.948146000000000    0.500000000000000    0.031446000000000 
P           0.992630000000000    0.500000000000000    0.262400000000000 
K           0.050181000000000    0.155278000000000    0.527125000000000 
K           0.050181000000000    0.844722000000000    0.527125000000000 
K           0.201414000000000    0.500000000000000    0.697045000000000 
K           0.398050000000000    0.500000000000000    0.224207000000000 
K           0.550181000000000    0.344722000000000    0.527125000000000 
K           0.550181000000000    0.655278000000000    0.527125000000000 
K           0.701414000000000    0.000000000000000    0.697045000000000 
K           0.898050000000000    0.000000000000000    0.224207000000000 
%ENDBLOCK POSITIONS_FRAC
