# Cell file generated by matador (Matthew Evans 2016)

%BLOCK LATTICE_CART
8.04888 0.0 0.0
-4.02444 6.97053 0.0
0.0 0.0 8.02128
%ENDBLOCK LATTICE_CART

%BLOCK POSITIONS_FRAC
P          -0.000000000000000    0.000000000000000    0.000000000000000 
P          -0.000000000000000    0.000000000000000    0.271576000000000 
P          -0.000000000000000    0.000000000000000    0.500000000000000 
P          -0.000000000000000    0.000000000000000    0.728424000000000 
P          -0.000000000000000    0.352384000000000    0.000000000000000 
P          -0.000000000000000    0.809772000000000    0.500000000000000 
P           0.190228000000000    0.190228000000000    0.500000000000000 
P           0.333333000000000    0.666667000000000    0.500000000000000 
P           0.352384000000000    0.000000000000000    0.000000000000000 
P           0.647616000000000    0.647616000000000    0.000000000000000 
P           0.666666000000000    0.333334000000000    0.500000000000000 
P           0.809772000000000    0.000000000000000    0.500000000000000 
K           0.333333000000000    0.666667000000000    0.000000000000000 
K           0.666666000000000    0.333334000000000    0.000000000000000 
%ENDBLOCK POSITIONS_FRAC
