# Cell file generated by matador (Matthew Evans 2016)

%BLOCK LATTICE_CART
7.16736 0.0 0.0
-3.58368 6.20712 0.0
0.0 0.0 7.26276
%ENDBLOCK LATTICE_CART

%BLOCK POSITIONS_FRAC
P           0.000000000000000    0.000000000000000    0.871039000000000 
P           0.333333000000000    0.666667000000000    0.451525000000000 
K           0.217483000000000    0.434965000000000    0.202229000000000 
K           0.217483000000000    0.782517000000000    0.202229000000000 
K           0.333333000000000    0.666667000000000    0.997473000000000 
K           0.547453000000000    0.094906000000000    0.672594000000000 
K           0.547453000000000    0.452547000000000    0.672594000000000 
K           0.565035000000000    0.782517000000000    0.202229000000000 
K           0.905094000000000    0.452547000000000    0.672594000000000 
%ENDBLOCK POSITIONS_FRAC
