# Cell file generated by matador (Matthew Evans 2016)

%BLOCK LATTICE_CART
9.49188 0.0 0.0
0.0 9.49188 0.0
0.0 0.0 7.34229
%ENDBLOCK LATTICE_CART

%BLOCK POSITIONS_FRAC
P           0.000000000000000    0.000000000000000    0.483513000000000 
P           0.000000000000000    0.000000000000000    0.890139000000000 
P           0.000000000000000    0.500000000000000    0.189015000000000 
P           0.000000000000000    0.500000000000000    0.486295000000000 
P           0.500000000000000    0.000000000000000    0.189015000000000 
P           0.500000000000000    0.000000000000000    0.486295000000000 
P           0.500000000000000    0.500000000000000    0.483513000000000 
P           0.500000000000000    0.500000000000000    0.890139000000000 
K           0.166726000000000    0.666726000000000    0.741406000000000 
K           0.169933000000000    0.669933000000000    0.459846000000000 
K           0.176586000000000    0.323414000000000    0.577929000000000 
K           0.323414000000000    0.823414000000000    0.577929000000000 
K           0.330067000000000    0.169933000000000    0.459846000000000 
K           0.333274000000000    0.166726000000000    0.741406000000000 
K           0.666726000000000    0.833274000000000    0.741406000000000 
K           0.669933000000000    0.830067000000000    0.459846000000000 
K           0.676586000000000    0.176586000000000    0.577929000000000 
K           0.823414000000000    0.676586000000000    0.577929000000000 
K           0.830067000000000    0.330067000000000    0.459846000000000 
K           0.833274000000000    0.333274000000000    0.741406000000000 
%ENDBLOCK POSITIONS_FRAC
