# Cell file generated by matador (Matthew Evans 2016)

%BLOCK LATTICE_CART
7.18729 0.0 0.0
0.0 7.18729 0.0
0.0 0.0 6.93963
%ENDBLOCK LATTICE_CART

%BLOCK POSITIONS_FRAC
P           0.000000000000000    0.000000000000000    0.500000000000000 
P           0.000000000000000    0.500000000000000    0.250000000000000 
P           0.183910000000000    0.316090000000000    0.250000000000000 
P           0.316090000000000    0.816090000000000    0.750000000000000 
P           0.500000000000000    0.000000000000000    0.750000000000000 
P           0.500000000000000    0.500000000000000    0.000000000000000 
P           0.683910000000000    0.183910000000000    0.750000000000000 
P           0.816090000000000    0.683910000000000    0.250000000000000 
K           0.000000000000000    0.000000000000000    0.000000000000000 
K           0.000000000000000    0.500000000000000    0.750000000000000 
K           0.500000000000000    0.000000000000000    0.250000000000000 
K           0.500000000000000    0.500000000000000    0.500000000000000 
%ENDBLOCK POSITIONS_FRAC
