# Cell file generated by matador (Matthew Evans 2016)

%BLOCK LATTICE_CART
8.25193 0.0 0.0
-4.12597 7.14638 0.0
0.0 0.0 5.78258
%ENDBLOCK LATTICE_CART

%BLOCK POSITIONS_FRAC
P           0.000000000000000    0.000000000000000    0.500000000000000 
P           0.333333000000000    0.666667000000000    0.699129000000000 
P           0.666667000000000    0.333333000000000    0.300871000000000 
K           0.000000000000000    0.500000000000000    0.000000000000000 
K           0.139276000000000    0.278552000000000    0.341991000000000 
K           0.139276000000000    0.860724000000000    0.341991000000000 
K           0.278552000000000    0.139276000000000    0.658009000000000 
K           0.500000000000000    0.000000000000000    0.000000000000000 
K           0.500000000000000    0.500000000000000    0.000000000000000 
K           0.721448000000000    0.860724000000000    0.341991000000000 
K           0.860724000000000    0.139276000000000    0.658009000000000 
K           0.860724000000000    0.721448000000000    0.658009000000000 
%ENDBLOCK POSITIONS_FRAC
