# Cell file generated by matador (Matthew Evans 2016)

%BLOCK LATTICE_CART
7.18857 0.0 0.0
-3.59428 6.22548 0.0
0.0 0.0 7.9519
%ENDBLOCK LATTICE_CART

%BLOCK POSITIONS_FRAC
P           0.000000000000000    0.000000000000000    0.770628000000000 
P           0.586573000000000    0.173145000000000    0.390801000000000 
P           0.586573000000000    0.413427000000000    0.390801000000000 
P           0.826855000000000    0.413427000000000    0.390801000000000 
K           0.022876000000000    0.511438000000000    0.721852000000000 
K           0.235037000000000    0.117519000000000    0.191237000000000 
K           0.488562000000000    0.511438000000000    0.721852000000000 
K           0.488562000000000    0.977124000000000    0.721852000000000 
K           0.882481000000000    0.117519000000000    0.191237000000000 
K           0.882481000000000    0.764963000000000    0.191237000000000 
%ENDBLOCK POSITIONS_FRAC
