# Cell file generated by matador (Matthew Evans 2016)

%BLOCK LATTICE_CART
7.35598 0.0 0.0
-3.67799 6.37046 0.0
0.0 0.0 4.75741
%ENDBLOCK LATTICE_CART

%BLOCK POSITIONS_FRAC
P           0.666667000000000    0.333333000000000    0.093525000000000 
K           0.000000000000000   -0.000000000000000    0.557283000000000 
K           0.000081000000000    0.527805000000000    0.662579000000000 
K           0.472195000000000    0.472276000000000    0.662579000000000 
K           0.527724000000000    0.999919000000000    0.662579000000000 
%ENDBLOCK POSITIONS_FRAC
