# Cell file generated by matador (Matthew Evans 2016)

%BLOCK LATTICE_CART
7.73351 0.0 0.0
-3.86675 6.69742 0.0
0.0 0.0 6.93864
%ENDBLOCK LATTICE_CART

%BLOCK POSITIONS_FRAC
P           0.000001000000000    0.000001000000000    0.250000000000000 
P           0.000001000000000    0.000001000000000    0.750000000000000 
P           0.184023000000000    0.368044000000000    0.250000000000000 
P           0.184023000000000    0.815979000000000    0.250000000000000 
P           0.368044000000000    0.184023000000000    0.750000000000000 
P           0.631958000000000    0.815979000000000    0.250000000000000 
P           0.815979000000000    0.184023000000000    0.750000000000000 
P           0.815979000000000    0.631958000000000    0.750000000000000 
K           0.333334000000000    0.666668000000000    0.250000000000000 
K           0.333334000000000    0.666668000000000    0.750000000000000 
K           0.666668000000000    0.333334000000000    0.250000000000000 
K           0.666668000000000    0.333334000000000    0.750000000000000 
%ENDBLOCK POSITIONS_FRAC
