# Cell file generated by matador (Matthew Evans 2016)

%BLOCK LATTICE_CART
7.09113 0.0 0.0
0.0 6.55902 0.0
0.0 0.0 7.38579
%ENDBLOCK LATTICE_CART

%BLOCK POSITIONS_FRAC
P           0.000000000000000    0.000000000000000    0.608271000000000 
P           0.500000000000000    0.500000000000000    0.108271000000000 
K           0.000000000000000    0.500000000000000    0.434948000000000 
K           0.221794000000000    0.500000000000000    0.036311000000000 
K           0.278206000000000    0.000000000000000    0.536311000000000 
K           0.500000000000000    0.000000000000000    0.934948000000000 
K           0.721794000000000    0.000000000000000    0.536311000000000 
K           0.778206000000000    0.500000000000000    0.036311000000000 
%ENDBLOCK POSITIONS_FRAC
