# Cell file generated by matador (Matthew Evans 2016)

%BLOCK LATTICE_CART
6.8735 0.0 0.0
-3.43675 5.95262 0.0
0.0 0.0 11.5808
%ENDBLOCK LATTICE_CART

%BLOCK POSITIONS_FRAC
P           0.097746000000000    0.367950000000000    0.266830000000000 
P           0.097746000000000    0.729795000000000    0.733170000000000 
P           0.270205000000000    0.367950000000000    0.733170000000000 
P           0.270205000000000    0.902254000000000    0.266830000000000 
P           0.367950000000000    0.097746000000000    0.733170000000000 
P           0.367950000000000    0.270205000000000    0.266830000000000 
P           0.632050000000000    0.729795000000000    0.266830000000000 
P           0.632050000000000    0.902254000000000    0.733170000000000 
P           0.729795000000000    0.097746000000000    0.266830000000000 
P           0.729795000000000    0.632050000000000    0.733170000000000 
P           0.902254000000000    0.270205000000000    0.733170000000000 
P           0.902254000000000    0.632050000000000    0.266830000000000 
K           0.000000000000000    0.000000000000000    0.000000000000000 
K           0.000000000000000    0.000000000000000    0.500000000000000 
K           0.000000000000000    0.500000000000000    0.000000000000000 
K           0.000000000000000    0.500000000000000    0.500000000000000 
K           0.500000000000000    0.000000000000000    0.000000000000000 
K           0.500000000000000    0.000000000000000    0.500000000000000 
K           0.500000000000000    0.500000000000000    0.000000000000000 
K           0.500000000000000    0.500000000000000    0.500000000000000 
%ENDBLOCK POSITIONS_FRAC
