# Cell file generated by matador (Matthew Evans 2016)

%BLOCK LATTICE_CART
7.25892 0.0 0.0
-3.62946 6.28641 0.0
0.0 0.0 9.8644
%ENDBLOCK LATTICE_CART

%BLOCK POSITIONS_FRAC
P           0.000000000000000    0.000000000000000    0.000000000000000 
P           0.000000000000000    0.000000000000000    0.500000000000000 
P           0.169292000000000    0.338584000000000    0.500000000000000 
P           0.169292000000000    0.830708000000000    0.500000000000000 
P           0.338584000000000    0.169292000000000    0.500000000000000 
P           0.661416000000000    0.830708000000000    0.500000000000000 
P           0.830708000000000    0.169292000000000    0.500000000000000 
P           0.830708000000000    0.661416000000000    0.500000000000000 
K           0.000000000000000    0.500000000000000    0.000000000000000 
K           0.000000000000000    0.500000000000000    0.500000000000000 
K           0.333333000000000    0.666667000000000    0.000000000000000 
K           0.333333000000000    0.666667000000000    0.500000000000000 
K           0.500000000000000    0.000000000000000    0.000000000000000 
K           0.500000000000000    0.000000000000000    0.500000000000000 
K           0.500000000000000    0.500000000000000    0.000000000000000 
K           0.500000000000000    0.500000000000000    0.500000000000000 
K           0.666667000000000    0.333333000000000    0.000000000000000 
K           0.666667000000000    0.333333000000000    0.500000000000000 
%ENDBLOCK POSITIONS_FRAC
