# Cell file generated by matador (Matthew Evans 2016)

%BLOCK LATTICE_CART
8.23167 0.0 0.0
0.0 7.74447 0.0
-0.834711 0.0 9.65247
%ENDBLOCK LATTICE_CART

%BLOCK POSITIONS_FRAC
P           0.323199000000000    0.573229000000000    0.356733000000000 
P           0.323199000000000    0.926771000000000    0.356733000000000 
P           0.676801000000000    0.073229000000000    0.643267000000000 
P           0.676801000000000    0.426771000000000    0.643267000000000 
K           0.000000000000000   -0.000000000000000    0.000000000000000 
K           0.000000000000000   -0.000000000000000    0.500000000000000 
K           0.000000000000000    0.500000000000000    0.000000000000000 
K           0.000000000000000    0.500000000000000    0.500000000000000 
K           0.123619000000000    0.250000000000000    0.303514000000000 
K           0.258630000000000    0.750000000000000    0.221405000000000 
K           0.369645000000000    0.250000000000000    0.767613000000000 
K           0.500000000000000   -0.000000000000000    0.500000000000000 
K           0.500000000000000    0.500000000000000    0.500000000000000 
K           0.630355000000000    0.750000000000000    0.232387000000000 
K           0.741370000000000    0.250000000000000    0.778595000000000 
K           0.876381000000000    0.750000000000000    0.696486000000000 
%ENDBLOCK POSITIONS_FRAC
