# Cell file generated by matador (Matthew Evans 2016)

%BLOCK LATTICE_CART
8.94668 -0.0 0.0
-4.47334 7.74805 0.0
0.0 0.0 7.91721
%ENDBLOCK LATTICE_CART

%BLOCK POSITIONS_FRAC
P          -0.000000000000000    0.000000000000000    0.524849000000000 
P          -0.000000000000000    0.000000000000000    0.682868000000000 
P           0.025080000000000    0.596524000000000    0.361379000000000 
P           0.333333000000000    0.666667000000000    0.184663000000000 
P           0.333333000000000    0.666667000000000    0.326407000000000 
P           0.333333000000000    0.666667000000000    0.675640000000000 
P           0.403476000000000    0.428557000000000    0.361379000000000 
P           0.571443000000000    0.974920000000000    0.361379000000000 
P           0.666666000000000    0.333334000000000    0.150168000000000 
K           0.241586000000000    0.044370000000000    0.460364000000000 
K           0.454770000000000    0.333139000000000    0.826187000000000 
K           0.666861000000000    0.121631000000000    0.826187000000000 
K           0.802783000000000    0.758414000000000    0.460364000000000 
K           0.878369000000000    0.545230000000000    0.826187000000000 
K           0.955630000000000    0.197217000000000    0.460364000000000 
%ENDBLOCK POSITIONS_FRAC
