# Cell file generated by matador (Matthew Evans 2016)

%BLOCK LATTICE_CART
6.51964 0.0 0.0
-3.25982 5.64617 0.0
0.0 0.0 4.02248
%ENDBLOCK LATTICE_CART

%BLOCK POSITIONS_FRAC
P           0.666667000000000    0.333333000000000    0.500000000000000 
K           0.000000000000000   -0.000000000000000    0.500000000000000 
K           0.333334000000000    0.666666000000000    0.000000000000000 
K           0.333334000000000    0.666666000000000    0.500000000000000 
%ENDBLOCK POSITIONS_FRAC
