# Cell file generated by matador (Matthew Evans 2016)

%BLOCK LATTICE_CART
9.87932 0.0 0.0
0.0 9.87932 0.0
0.0 0.0 13.0974
%ENDBLOCK LATTICE_CART

%BLOCK POSITIONS_FRAC
P           0.000000000000000    0.000000000000000    0.203578000000000 
P           0.000000000000000    0.000000000000000    0.796422000000000 
P           0.000000000000000    0.500000000000000    0.156521000000000 
P           0.000000000000000    0.500000000000000    0.843479000000000 
P           0.500000000000000    0.000000000000000    0.156521000000000 
P           0.500000000000000    0.000000000000000    0.843479000000000 
P           0.500000000000000    0.500000000000000    0.203578000000000 
P           0.500000000000000    0.500000000000000    0.796422000000000 
K           0.034394000000000    0.757553000000000    0.500000000000000 
K           0.041675000000000    0.224342000000000    0.000000000000000 
K           0.193009000000000    0.693009000000000    0.142693000000000 
K           0.193009000000000    0.693009000000000    0.857307000000000 
K           0.224342000000000    0.958325000000000    0.000000000000000 
K           0.242447000000000    0.034394000000000    0.500000000000000 
K           0.257553000000000    0.534394000000000    0.500000000000000 
K           0.275658000000000    0.458325000000000    0.000000000000000 
K           0.306991000000000    0.193009000000000    0.142693000000000 
K           0.306991000000000    0.193009000000000    0.857307000000000 
K           0.458325000000000    0.724342000000000    0.000000000000000 
K           0.465606000000000    0.257553000000000    0.500000000000000 
K           0.534394000000000    0.742447000000000    0.500000000000000 
K           0.541675000000000    0.275658000000000    0.000000000000000 
K           0.693009000000000    0.806991000000000    0.142693000000000 
K           0.693009000000000    0.806991000000000    0.857307000000000 
K           0.724342000000000    0.541675000000000    0.000000000000000 
K           0.742447000000000    0.465606000000000    0.500000000000000 
K           0.757553000000000    0.965606000000000    0.500000000000000 
K           0.775658000000000    0.041675000000000    0.000000000000000 
K           0.806991000000000    0.306991000000000    0.142693000000000 
K           0.806991000000000    0.306991000000000    0.857307000000000 
K           0.958325000000000    0.775658000000000    0.000000000000000 
K           0.965606000000000    0.242447000000000    0.500000000000000 
%ENDBLOCK POSITIONS_FRAC
