# Cell file generated by matador (Matthew Evans 2016)

%BLOCK LATTICE_CART
6.09216 0.0 0.0
0.0 6.09216 0.0
0.0 0.0 7.86652
%ENDBLOCK LATTICE_CART

%BLOCK POSITIONS_FRAC
P           0.000000000000000    0.500000000000000    0.344299000000000 
P           0.000000000000000    0.500000000000000    0.844299000000000 
P           0.050901000000000    0.429390000000000    0.559515000000000 
P           0.050901000000000    0.570610000000000    0.059515000000000 
P           0.429390000000000    0.050901000000000    0.059515000000000 
P           0.429390000000000    0.949099000000000    0.559515000000000 
P           0.500000000000000    0.000000000000000    0.344299000000000 
P           0.500000000000000    0.000000000000000    0.844299000000000 
P           0.570610000000000    0.050901000000000    0.559515000000000 
P           0.570610000000000    0.949099000000000    0.059515000000000 
P           0.949099000000000    0.429390000000000    0.059515000000000 
P           0.949099000000000    0.570610000000000    0.559515000000000 
K           0.500000000000000    0.500000000000000    0.280482000000000 
K           0.500000000000000    0.500000000000000    0.780482000000000 
%ENDBLOCK POSITIONS_FRAC
