# Cell file generated by matador (Matthew Evans 2016)

%BLOCK LATTICE_CART
6.55071 0.0 0.0
-3.27536 5.67308 0.0
0.0 0.0 11.3767
%ENDBLOCK LATTICE_CART

%BLOCK POSITIONS_FRAC
P           0.015630000000000    0.507815000000000    0.670515000000000 
P           0.492185000000000    0.507815000000000    0.670515000000000 
P           0.492185000000000    0.984370000000000    0.670515000000000 
K           0.000000000000000    0.000000000000000    0.613161000000000 
K           0.155260000000000    0.310520000000000    0.923701000000000 
K           0.155260000000000    0.844740000000000    0.923701000000000 
K           0.333333000000000    0.666667000000000    0.509018000000000 
K           0.508150000000000    0.016301000000000    0.293089000000000 
K           0.508150000000000    0.491850000000000    0.293089000000000 
K           0.666667000000000    0.333333000000000    0.853156000000000 
K           0.689480000000000    0.844740000000000    0.923701000000000 
K           0.983699000000000    0.491850000000000    0.293089000000000 
%ENDBLOCK POSITIONS_FRAC
