# Cell file generated by matador (Matthew Evans 2016)

%BLOCK LATTICE_CART
7.14578 0.0 0.0
0.0 9.93331 0.0
0.0 0.0 8.37303
%ENDBLOCK LATTICE_CART

%BLOCK POSITIONS_FRAC
P           0.000000000000000    0.250000000000000    0.340138000000000 
P           0.000000000000000    0.750000000000000    0.659862000000000 
P           0.500000000000000    0.250000000000000    0.659862000000000 
P           0.500000000000000    0.750000000000000    0.340138000000000 
K           0.000000000000000    0.000000000000000    0.500000000000000 
K           0.000000000000000    0.085526000000000    0.843634000000000 
K           0.000000000000000    0.414474000000000    0.843634000000000 
K           0.000000000000000    0.500000000000000    0.500000000000000 
K           0.000000000000000    0.585526000000000    0.156366000000000 
K           0.000000000000000    0.914474000000000    0.156366000000000 
K           0.500000000000000    0.000000000000000    0.500000000000000 
K           0.500000000000000    0.085526000000000    0.156366000000000 
K           0.500000000000000    0.414474000000000    0.156366000000000 
K           0.500000000000000    0.500000000000000    0.500000000000000 
K           0.500000000000000    0.585526000000000    0.843634000000000 
K           0.500000000000000    0.914474000000000    0.843634000000000 
%ENDBLOCK POSITIONS_FRAC
