# Cell file generated by matador (Matthew Evans 2016)

%BLOCK LATTICE_CART
7.67418 0.0 0.0
0.0 7.67418 0.0
0.0 0.0 7.67418
%ENDBLOCK LATTICE_CART

%BLOCK POSITIONS_FRAC
P           0.278391000000000    0.278391000000000    0.721609000000000 
P           0.278391000000000    0.721609000000000    0.278391000000000 
P           0.721609000000000    0.278391000000000    0.278391000000000 
P           0.721609000000000    0.721609000000000    0.721609000000000 
K           0.000000000000000    0.000000000000000    0.000000000000000 
K           0.195351000000000    0.195351000000000    0.455675000000000 
K           0.195351000000000    0.455675000000000    0.195351000000000 
K           0.195351000000000    0.544325000000000    0.804649000000000 
K           0.195351000000000    0.804649000000000    0.544325000000000 
K           0.455675000000000    0.195351000000000    0.195351000000000 
K           0.455675000000000    0.804649000000000    0.804649000000000 
K           0.500000000000000    0.500000000000000    0.500000000000000 
K           0.544325000000000    0.195351000000000    0.804649000000000 
K           0.544325000000000    0.804649000000000    0.195351000000000 
K           0.804649000000000    0.195351000000000    0.544325000000000 
K           0.804649000000000    0.455675000000000    0.804649000000000 
K           0.804649000000000    0.544325000000000    0.195351000000000 
K           0.804649000000000    0.804649000000000    0.455675000000000 
%ENDBLOCK POSITIONS_FRAC
