# Cell file generated by matador (Matthew Evans 2016)

%BLOCK LATTICE_CART
5.86187 0.0 0.0
0.0 5.51741 0.0
0.0 0.0 5.63703
%ENDBLOCK LATTICE_CART

%BLOCK POSITIONS_FRAC
P           0.339929000000000    0.000000000000000    0.554531000000000 
P           0.339929000000000    0.500000000000000    0.054531000000000 
P           0.660071000000000    0.000000000000000    0.554531000000000 
P           0.660071000000000    0.500000000000000    0.054531000000000 
K           0.500000000000000    0.000000000000000    0.003756000000000 
K           0.500000000000000    0.500000000000000    0.503756000000000 
%ENDBLOCK POSITIONS_FRAC
