# Cell file generated by matador (Matthew Evans 2016)

%BLOCK LATTICE_CART
7.86681 0.0 0.0
-3.93341 6.81286 0.0
0.0 0.0 8.01614
%ENDBLOCK LATTICE_CART

%BLOCK POSITIONS_FRAC
P           0.000000000000000    0.000000000000000    0.847470000000000 
P           0.333333000000000    0.666667000000000    0.514136000000000 
P           0.666667000000000    0.333333000000000    0.180803000000000 
K           0.009400000000000    0.504700000000000    0.350484000000000 
K           0.161967000000000    0.323933000000000    0.683818000000000 
K           0.161967000000000    0.838033000000000    0.683818000000000 
K           0.342734000000000    0.171367000000000    0.017151000000000 
K           0.495300000000000    0.504700000000000    0.350484000000000 
K           0.495300000000000    0.990600000000000    0.350484000000000 
K           0.676067000000000    0.838033000000000    0.683818000000000 
K           0.828633000000000    0.171367000000000    0.017151000000000 
K           0.828633000000000    0.657266000000000    0.017151000000000 
%ENDBLOCK POSITIONS_FRAC
