# Cell file generated by matador (Matthew Evans 2016)

%BLOCK LATTICE_CART
7.37574 -0.0 0.0
-3.68787 6.38758 0.0
0.0 0.0 7.21408
%ENDBLOCK LATTICE_CART

%BLOCK POSITIONS_FRAC
P           0.000000000000000   -0.000000000000000    0.465826000000000 
P           0.000000000000000   -0.000000000000000    0.642015000000000 
P           0.000000000000000   -0.000000000000000    0.865156000000000 
P           0.247475000000000    0.013123000000000    0.365003000000000 
P           0.666667000000000    0.333333000000000    0.584051000000000 
P           0.765648000000000    0.752525000000000    0.365003000000000 
P           0.986877000000000    0.234352000000000    0.365003000000000 
K           0.519473000000000    0.428642000000000    0.009572000000000 
K           0.571358000000000    0.090830000000000    0.009572000000000 
K           0.666667000000000    0.333333000000000    0.300580000000000 
K           0.909170000000000    0.480527000000000    0.009572000000000 
%ENDBLOCK POSITIONS_FRAC
