# Cell file generated by matador (Matthew Evans 2016)

%BLOCK LATTICE_CART
8.78485 0.0 0.0
-4.39242 7.6079 0.0
0.0 0.0 5.44953
%ENDBLOCK LATTICE_CART

%BLOCK POSITIONS_FRAC
P           0.468252000000000    0.309666000000000    0.301469000000000 
P           0.468252000000000    0.309666000000000    0.698531000000000 
P           0.690334000000000    0.158586000000000    0.301469000000000 
P           0.690334000000000    0.158586000000000    0.698531000000000 
P           0.841414000000000    0.531748000000000    0.301469000000000 
P           0.841414000000000    0.531748000000000    0.698531000000000 
K          -0.000000000000000   -0.000000000000000    0.000000000000000 
K          -0.000000000000000   -0.000000000000000    0.500000000000000 
K           0.333333000000000    0.666667000000000    0.000000000000000 
K           0.333333000000000    0.666667000000000    0.500000000000000 
K           0.666667000000000    0.333333000000000    0.000000000000000 
K           0.666667000000000    0.333333000000000    0.500000000000000 
%ENDBLOCK POSITIONS_FRAC
