# Cell file generated by matador (Matthew Evans 2016)

%BLOCK LATTICE_CART
7.31364 -0.0 0.0
-3.65682 6.3338 0.0
0.0 0.0 7.81995
%ENDBLOCK LATTICE_CART

%BLOCK POSITIONS_FRAC
P           0.019115000000000    0.352746000000000    0.806972000000000 
P           0.132584000000000    0.458531000000000    0.349592000000000 
P           0.325947000000000    0.867416000000000    0.016259000000000 
P           0.333631000000000    0.980885000000000    0.473638000000000 
P           0.352746000000000    0.333631000000000    0.140305000000000 
P           0.458531000000000    0.325947000000000    0.682926000000000 
P           0.541469000000000    0.674053000000000    0.682926000000000 
P           0.647254000000000    0.666369000000000    0.140305000000000 
P           0.666369000000000    0.019115000000000    0.473638000000000 
P           0.674053000000000    0.132584000000000    0.016259000000000 
P           0.867416000000000    0.541469000000000    0.349592000000000 
P           0.980885000000000    0.647254000000000    0.806972000000000 
K           0.000000000000000    0.500000000000000    0.088034000000000 
K           0.500000000000000    0.000000000000000    0.754701000000000 
K           0.500000000000000    0.500000000000000    0.421367000000000 
%ENDBLOCK POSITIONS_FRAC
