# Cell file generated by matador (Matthew Evans 2016)

%BLOCK LATTICE_CART
7.03493 0.0 0.0
-3.51747 6.09243 0.0
0.0 0.0 10.9276
%ENDBLOCK LATTICE_CART

%BLOCK POSITIONS_FRAC
P           0.000000000000000    0.000000000000000    0.250363000000000 
P           0.000000000000000    0.000000000000000    0.749637000000000 
P           0.333333000000000    0.666667000000000    0.000000000000000 
P           0.333333000000000    0.666667000000000    0.267305000000000 
P           0.333333000000000    0.666667000000000    0.500000000000000 
P           0.333333000000000    0.666667000000000    0.732695000000000 
K           0.000000000000000    0.000000000000000    0.000000000000000 
K           0.395556000000000    0.003499000000000    0.855720000000000 
K           0.395556000000000    0.392057000000000    0.144280000000000 
K           0.607943000000000    0.003499000000000    0.144280000000000 
K           0.607943000000000    0.604444000000000    0.855720000000000 
K           0.666667000000000    0.333333000000000    0.000000000000000 
K           0.666667000000000    0.333333000000000    0.500000000000000 
K           0.996501000000000    0.392057000000000    0.855720000000000 
K           0.996501000000000    0.604444000000000    0.144280000000000 
%ENDBLOCK POSITIONS_FRAC
