# Cell file generated by matador (Matthew Evans 2016)

%BLOCK LATTICE_CART
6.38787 0.0 0.0
-3.19394 5.53206 0.0
0.0 0.0 12.0839
%ENDBLOCK LATTICE_CART

%BLOCK POSITIONS_FRAC
P           0.000000000000000    0.500000000000000    0.000000000000000 
P           0.500000000000000    0.000000000000000    0.000000000000000 
P           0.500000000000000    0.500000000000000    0.000000000000000 
K           0.000000000000000    0.000000000000000    0.000000000000000 
K           0.000000000000000    0.000000000000000    0.500000000000000 
K           0.000000000000000    0.500000000000000    0.500000000000000 
K           0.333333000000000    0.666667000000000    0.074445000000000 
K           0.333333000000000    0.666667000000000    0.770120000000000 
K           0.500000000000000    0.000000000000000    0.500000000000000 
K           0.500000000000000    0.500000000000000    0.500000000000000 
K           0.666667000000000    0.333333000000000    0.229880000000000 
K           0.666667000000000    0.333333000000000    0.925554000000000 
%ENDBLOCK POSITIONS_FRAC
