# Cell file generated by matador (Matthew Evans 2016)

%BLOCK LATTICE_CART
5.96278 0.0 0.0
0.0 5.96278 0.0
0.0 0.0 11.2278
%ENDBLOCK LATTICE_CART

%BLOCK POSITIONS_FRAC
P           0.000000000000000    0.000000000000000    0.500000000000000 
P           0.000000000000000    0.500000000000000    0.576784000000000 
P           0.084844000000000    0.398542000000000    0.494996000000000 
P           0.398542000000000    0.915156000000000    0.505004000000000 
P           0.500000000000000    0.000000000000000    0.423216000000000 
P           0.601458000000000    0.084844000000000    0.505004000000000 
P           0.915156000000000    0.601458000000000    0.494996000000000 
K           0.000000000000000    0.500000000000000    0.326258000000000 
K           0.064231000000000    0.229609000000000    0.918316000000000 
K           0.229609000000000    0.935769000000000    0.081684000000000 
K           0.500000000000000    0.000000000000000    0.673742000000000 
K           0.770391000000000    0.064231000000000    0.081684000000000 
K           0.935769000000000    0.770391000000000    0.918316000000000 
%ENDBLOCK POSITIONS_FRAC
