# Cell file generated by matador (Matthew Evans 2016)

%BLOCK LATTICE_CART
7.72542 0.0 0.0
0.0 7.72542 0.0
0.0 0.0 9.45237
%ENDBLOCK LATTICE_CART

%BLOCK POSITIONS_FRAC
P           0.000000000000000    0.000000000000000    0.000000000000000 
P           0.500000000000000    0.500000000000000    0.500000000000000 
K           0.000000000000000    0.500000000000000    0.250000000000000 
K           0.000000000000000    0.500000000000000    0.750000000000000 
K           0.000343000000000    0.736976000000000    0.000000000000000 
K           0.236976000000000    0.499657000000000    0.500000000000000 
K           0.263024000000000    0.999657000000000    0.000000000000000 
K           0.499657000000000    0.236976000000000    0.500000000000000 
K           0.500000000000000    0.000000000000000    0.250000000000000 
K           0.500000000000000    0.000000000000000    0.750000000000000 
K           0.500343000000000    0.763024000000000    0.500000000000000 
K           0.736976000000000    0.000343000000000    0.000000000000000 
K           0.763024000000000    0.500343000000000    0.500000000000000 
K           0.999657000000000    0.263024000000000    0.000000000000000 
%ENDBLOCK POSITIONS_FRAC
