# Cell file generated by matador (Matthew Evans 2016)

%BLOCK LATTICE_CART
4.08922 0.0 0.0
0.0 4.08922 0.0
0.0 0.0 12.5452
%ENDBLOCK LATTICE_CART

%BLOCK POSITIONS_FRAC
P           0.000000000000000    0.000000000000000    0.000000000000000 
P           0.000000000000000    0.000000000000000    0.178289000000000 
P           0.000000000000000    0.000000000000000    0.500000000000000 
P           0.000000000000000    0.000000000000000    0.821711000000000 
P           0.000000000000000    0.500000000000000    0.290870000000000 
P           0.500000000000000    0.000000000000000    0.709130000000000 
P           0.500000000000000    0.500000000000000    0.000000000000000 
K           0.500000000000000    0.500000000000000    0.500000000000000 
%ENDBLOCK POSITIONS_FRAC
