# Cell file generated by matador (Matthew Evans 2016)

%BLOCK LATTICE_CART
8.86561 0.0 0.0
-4.4328 7.67784 0.0
0.0 0.0 10.1034
%ENDBLOCK LATTICE_CART

%BLOCK POSITIONS_FRAC
P           0.999999000000000    0.999999000000000    0.453239000000000 
P           0.999999000000000    0.999999000000000    0.953239000000000 
P           0.101104000000000    0.202208000000000    0.276616000000000 
P           0.101104000000000    0.898894000000000    0.276616000000000 
P           0.149382000000000    0.574691000000000    0.782883000000000 
P           0.202208000000000    0.101104000000000    0.776616000000000 
P           0.425307000000000    0.574691000000000    0.782883000000000 
P           0.425307000000000    0.850616000000000    0.782883000000000 
P           0.574691000000000    0.149382000000000    0.282883000000000 
P           0.574691000000000    0.425307000000000    0.282883000000000 
P           0.797790000000000    0.898894000000000    0.276616000000000 
P           0.850616000000000    0.425307000000000    0.282883000000000 
P           0.898894000000000    0.101104000000000    0.776616000000000 
P           0.898894000000000    0.797790000000000    0.776616000000000 
K           0.333332000000000    0.666666000000000    0.548859000000000 
K           0.333332000000000    0.666666000000000    0.942899000000000 
K           0.666666000000000    0.333332000000000    0.048859000000000 
K           0.666666000000000    0.333332000000000    0.442899000000000 
%ENDBLOCK POSITIONS_FRAC
