# Cell file generated by matador (Matthew Evans 2016)

%BLOCK LATTICE_CART
8.36152 0.0 0.0
0.0 8.36152 0.0
0.0 0.0 6.67293
%ENDBLOCK LATTICE_CART

%BLOCK POSITIONS_FRAC
P           0.000000000000000    0.500000000000000    0.000000000000000 
P           0.362069000000000    0.520650000000000    0.256298000000000 
P           0.362069000000000    0.520650000000000    0.743702000000000 
P           0.479350000000000    0.362069000000000    0.243702000000000 
P           0.479350000000000    0.362069000000000    0.756298000000000 
P           0.500000000000000    0.000000000000000    0.500000000000000 
P           0.520650000000000    0.637931000000000    0.243702000000000 
P           0.520650000000000    0.637931000000000    0.756298000000000 
P           0.637931000000000    0.479350000000000    0.256298000000000 
P           0.637931000000000    0.479350000000000    0.743702000000000 
K           0.000000000000000    0.000000000000000    0.000000000000000 
K           0.000000000000000    0.000000000000000    0.500000000000000 
K           0.237681000000000    0.354712000000000    0.000000000000000 
K           0.354712000000000    0.762319000000000    0.500000000000000 
K           0.500000000000000    0.500000000000000    0.000000000000000 
K           0.500000000000000    0.500000000000000    0.500000000000000 
K           0.645288000000000    0.237681000000000    0.500000000000000 
K           0.762319000000000    0.645288000000000    0.000000000000000 
%ENDBLOCK POSITIONS_FRAC
