# Cell file generated by matador (Matthew Evans 2016)

%BLOCK LATTICE_CART
3.42641 0.0 0.0
-1.7132 2.96735 0.0
0.0 0.0 6.32186
%ENDBLOCK LATTICE_CART

%BLOCK POSITIONS_FRAC
P           0.666667000000000    0.333333000000000    0.500000000000000 
K           0.000000000000000   -0.000000000000000    0.500000000000000 
%ENDBLOCK POSITIONS_FRAC
