# Cell file generated by matador (Matthew Evans 2016)

%BLOCK LATTICE_CART
7.53483 0.0 0.0
0.0 7.53483 0.0
0.0 0.0 5.45037
%ENDBLOCK LATTICE_CART

%BLOCK POSITIONS_FRAC
P           0.000000000000000    0.500000000000000    0.478054000000000 
P           0.500000000000000    0.000000000000000    0.521946000000000 
K           0.000000000000000    0.000000000000000    0.500000000000000 
K           0.000000000000000    0.292136000000000    0.125075000000000 
K           0.000000000000000    0.707864000000000    0.125075000000000 
K           0.292136000000000    0.000000000000000    0.874925000000000 
K           0.500000000000000    0.500000000000000    0.000000000000000 
K           0.707864000000000    0.000000000000000    0.874925000000000 
%ENDBLOCK POSITIONS_FRAC
