# Cell file generated by matador (Matthew Evans 2016)

%BLOCK LATTICE_CART
4.71451 0.0 0.0
-2.43944 6.69322 0.0
4.15788 2.06023 7.12103
%ENDBLOCK LATTICE_CART

%BLOCK POSITIONS_FRAC
P           0.000000000000000    0.500000000000000    0.000000000000000 
P           0.115134000000000    0.406386000000000    0.697826000000000 
P           0.374845000000000    0.897375000000000    0.859454000000000 
P           0.500000000000000    0.500000000000000    0.500000000000000 
P           0.625155000000000    0.102625000000000    0.140546000000000 
P           0.884866000000000    0.593614000000000    0.302174000000000 
K           0.000000000000000    0.000000000000000    0.000000000000000 
K           0.000000000000000    0.000000000000000    0.500000000000000 
K           0.000000000000000    0.500000000000000    0.500000000000000 
K           0.500000000000000    0.500000000000000    0.000000000000000 
%ENDBLOCK POSITIONS_FRAC
