# Cell file generated by matador (Matthew Evans 2016)

%BLOCK LATTICE_CART
8.34473 -0.0 0.0
-4.17236 7.22675 0.0
0.0 0.0 4.64837
%ENDBLOCK LATTICE_CART

%BLOCK POSITIONS_FRAC
P           0.000000000000000    0.000000000000000    0.500000000000000 
P           0.666667000000000    0.333333000000000    0.000000000000000 
K           0.113134000000000    0.654491000000000    0.000000000000000 
K           0.297663000000000    0.186962000000000    0.500000000000000 
K           0.345509000000000    0.458643000000000    0.000000000000000 
K           0.541357000000000    0.886866000000000    0.000000000000000 
K           0.813038000000000    0.110700000000000    0.500000000000000 
K           0.889300000000000    0.702337000000000    0.500000000000000 
%ENDBLOCK POSITIONS_FRAC
