# Cell file generated by matador (Matthew Evans 2016)

%BLOCK LATTICE_CART
8.82705 0.0 0.0
0.0 4.92569 0.0
0.0 0.0 9.29727
%ENDBLOCK LATTICE_CART

%BLOCK POSITIONS_FRAC
P           0.000000000000000   -0.000000000000000    0.360761000000000 
P           0.000000000000000   -0.000000000000000    0.500000000000000 
P           0.000000000000000   -0.000000000000000    0.639239000000000 
P           0.000000000000000    0.500000000000000    0.000000000000000 
P           0.500000000000000   -0.000000000000000    0.000000000000000 
P           0.500000000000000    0.500000000000000    0.360761000000000 
P           0.500000000000000    0.500000000000000    0.500000000000000 
P           0.500000000000000    0.500000000000000    0.639239000000000 
K           0.000000000000000   -0.000000000000000    0.000000000000000 
K           0.000000000000000    0.500000000000000    0.500000000000000 
K           0.500000000000000   -0.000000000000000    0.500000000000000 
K           0.500000000000000    0.500000000000000    0.000000000000000 
%ENDBLOCK POSITIONS_FRAC
