# Cell file generated by matador (Matthew Evans 2016)

%BLOCK LATTICE_CART
7.1391 -0.0 0.0
-3.56955 6.18264 0.0
0.0 0.0 5.03203
%ENDBLOCK LATTICE_CART

%BLOCK POSITIONS_FRAC
P          -0.000000000000000    0.000000000000000    0.542688000000000 
P           0.333333000000000    0.666667000000000    0.209604000000000 
P           0.333333000000000    0.666667000000000    0.903886000000000 
P           0.666667000000000    0.333333000000000    0.128259000000000 
P           0.666667000000000    0.333333000000000    0.451302000000000 
K           0.020613000000000    0.693477000000000    0.255257000000000 
K           0.306523000000000    0.327136000000000    0.255257000000000 
K           0.672864000000000    0.979387000000000    0.255257000000000 
%ENDBLOCK POSITIONS_FRAC
