# Cell file generated by matador (Matthew Evans 2016)

%BLOCK LATTICE_CART
7.53691 0.0 0.0
0.0 7.53691 0.0
0.0 0.0 7.53691
%ENDBLOCK LATTICE_CART

%BLOCK POSITIONS_FRAC
P           0.125000000000000    0.125000000000000    0.125000000000000 
P           0.375000000000000    0.875000000000000    0.625000000000000 
P           0.625000000000000    0.375000000000000    0.875000000000000 
P           0.875000000000000    0.625000000000000    0.375000000000000 
K           0.081836000000000    0.418164000000000    0.581836000000000 
K           0.168164000000000    0.668164000000000    0.831836000000000 
K           0.331836000000000    0.331836000000000    0.331836000000000 
K           0.418164000000000    0.581836000000000    0.081836000000000 
K           0.581836000000000    0.081836000000000    0.418164000000000 
K           0.668164000000000    0.831836000000000    0.168164000000000 
K           0.831836000000000    0.168164000000000    0.668164000000000 
K           0.918164000000000    0.918164000000000    0.918164000000000 
%ENDBLOCK POSITIONS_FRAC
