# Cell file generated by matador (Matthew Evans 2016)

%BLOCK LATTICE_CART
6.32507 0.0 0.0
0.0 21.8961 0.0
0.0 0.0 7.38426
%ENDBLOCK LATTICE_CART

%BLOCK POSITIONS_FRAC
P           0.000000000000000    0.000000000000000    0.500000000000000 
P           0.000000000000000    0.500000000000000   -0.000000000000000 
P           0.500000000000000    0.300632000000000    0.297673000000000 
P           0.500000000000000    0.300632000000000    0.702327000000000 
P           0.500000000000000    0.699368000000000    0.297673000000000 
P           0.500000000000000    0.699368000000000    0.702327000000000 
K           0.241605000000000    0.223697000000000    0.500000000000000 
K           0.241605000000000    0.776303000000000    0.500000000000000 
K           0.251639000000000    0.321242000000000   -0.000000000000000 
K           0.251639000000000    0.678758000000000   -0.000000000000000 
K           0.500000000000000    0.000000000000000   -0.000000000000000 
K           0.500000000000000    0.000000000000000    0.500000000000000 
K           0.500000000000000    0.146883000000000    0.228569000000000 
K           0.500000000000000    0.146883000000000    0.771431000000000 
K           0.500000000000000    0.424803000000000    0.251446000000000 
K           0.500000000000000    0.424803000000000    0.748554000000000 
K           0.500000000000000    0.575197000000000    0.251446000000000 
K           0.500000000000000    0.575197000000000    0.748554000000000 
K           0.500000000000000    0.853117000000000    0.228569000000000 
K           0.500000000000000    0.853117000000000    0.771431000000000 
K           0.748361000000000    0.321242000000000   -0.000000000000000 
K           0.748361000000000    0.678758000000000   -0.000000000000000 
K           0.758395000000000    0.223697000000000    0.500000000000000 
K           0.758395000000000    0.776303000000000    0.500000000000000 
%ENDBLOCK POSITIONS_FRAC
