# Cell file generated by matador (Matthew Evans 2016)

%BLOCK LATTICE_CART
9.25856 0.0 0.0
0.0 9.25856 0.0
0.0 0.0 7.03405
%ENDBLOCK LATTICE_CART

%BLOCK POSITIONS_FRAC
P           0.239590000000000    0.500000000000000    0.165453000000000 
P           0.500000000000000    0.239590000000000    0.665453000000000 
P           0.500000000000000    0.760410000000000    0.665453000000000 
P           0.760410000000000    0.500000000000000    0.165453000000000 
K           0.000000000000000    0.226054000000000    0.724808000000000 
K           0.000000000000000    0.292332000000000    0.161480000000000 
K           0.000000000000000    0.707668000000000    0.161480000000000 
K           0.000000000000000    0.773946000000000    0.724808000000000 
K           0.226054000000000    0.000000000000000    0.224808000000000 
K           0.241053000000000    0.500000000000000    0.502886000000000 
K           0.292332000000000    0.000000000000000    0.661480000000000 
K           0.500000000000000    0.241053000000000    0.002886000000000 
K           0.500000000000000    0.758947000000000    0.002886000000000 
K           0.707668000000000    0.000000000000000    0.661480000000000 
K           0.758947000000000    0.500000000000000    0.502886000000000 
K           0.773946000000000    0.000000000000000    0.224808000000000 
%ENDBLOCK POSITIONS_FRAC
