# Cell file generated by matador (Matthew Evans 2016)

%BLOCK LATTICE_CART
7.20651 0.0 0.0
0.0 4.73676 0.0
0.0 0.0 11.8489
%ENDBLOCK LATTICE_CART

%BLOCK POSITIONS_FRAC
P           0.000000000000000    0.000000000000000    0.379687000000000 
P           0.000000000000000    0.500000000000000    0.067322000000000 
P           0.000000000000000    0.500000000000000    0.659078000000000 
P           0.500000000000000    0.000000000000000    0.020237000000000 
P           0.500000000000000    0.000000000000000    0.917526000000000 
K           0.000000000000000    0.000000000000000    0.978622000000000 
K           0.178957000000000    0.218185000000000    0.499169000000000 
K           0.178957000000000    0.781815000000000    0.499169000000000 
K           0.500000000000000    0.500000000000000    0.336419000000000 
K           0.500000000000000    0.500000000000000    0.949623000000000 
K           0.821043000000000    0.218185000000000    0.499169000000000 
K           0.821043000000000    0.781815000000000    0.499169000000000 
%ENDBLOCK POSITIONS_FRAC
