# Cell file generated by matador (Matthew Evans 2016)

%BLOCK LATTICE_CART
8.72962 0.0 0.0
-4.36481 7.56007 0.0
0.0 0.0 5.97411
%ENDBLOCK LATTICE_CART

%BLOCK POSITIONS_FRAC
P          -0.000000000000000    0.000000000000000    0.000000000000000 
P           0.333333000000000    0.666667000000000    0.666667000000000 
P           0.666667000000000    0.333333000000000    0.333333000000000 
K          -0.000000000000000    0.000000000000000    0.500000000000000 
K          -0.000000000000000    0.690093000000000    0.000000000000000 
K           0.023427000000000    0.666667000000000    0.666667000000000 
K           0.309907000000000    0.309907000000000    0.000000000000000 
K           0.333333000000000    0.356760000000000    0.666667000000000 
K           0.333333000000000    0.666667000000000    0.166667000000000 
K           0.356760000000000    0.333333000000000    0.333333000000000 
K           0.643240000000000    0.976573000000000    0.666667000000000 
K           0.666667000000000    0.023427000000000    0.333333000000000 
K           0.666667000000000    0.333333000000000    0.833333000000000 
K           0.690093000000000    0.000000000000000    0.000000000000000 
K           0.976573000000000    0.643240000000000    0.333333000000000 
%ENDBLOCK POSITIONS_FRAC
