# Cell file generated by matador (Matthew Evans 2016)

%BLOCK LATTICE_CART
4.95451 0.0 0.0
0.0 7.94012 0.0
0.0 0.0 7.43686
%ENDBLOCK LATTICE_CART

%BLOCK POSITIONS_FRAC
P           0.500000000000000    0.000000000000000    0.028460000000000 
P           0.500000000000000    0.500000000000000    0.528460000000000 
K           0.000000000000000    0.000000000000000    0.004276000000000 
K           0.000000000000000    0.500000000000000    0.504276000000000 
K           0.500000000000000    0.210626000000000    0.344655000000000 
K           0.500000000000000    0.289374000000000    0.844655000000000 
K           0.500000000000000    0.710626000000000    0.844655000000000 
K           0.500000000000000    0.789374000000000    0.344655000000000 
%ENDBLOCK POSITIONS_FRAC
