# Cell file generated by matador (Matthew Evans 2016)

%BLOCK LATTICE_CART
8.14289 0.0 0.0
-4.07145 7.05195 0.0
0.0 0.0 7.80956
%ENDBLOCK LATTICE_CART

%BLOCK POSITIONS_FRAC
P           0.000000000000000    0.168148000000000    0.500000000000000 
P           0.168148000000000    0.000000000000000    0.500000000000000 
P           0.831852000000000    0.831852000000000    0.500000000000000 
K           0.000000000000000    0.000000000000000    0.000000000000000 
K           0.206007000000000    0.780451000000000    0.500000000000000 
K           0.219549000000000    0.425556000000000    0.500000000000000 
K           0.333333000000000    0.666667000000000    0.000000000000000 
K           0.425556000000000    0.219549000000000    0.500000000000000 
K           0.574444000000000    0.793993000000000    0.500000000000000 
K           0.666667000000000    0.333333000000000    0.000000000000000 
K           0.780451000000000    0.206007000000000    0.500000000000000 
K           0.793993000000000    0.574444000000000    0.500000000000000 
%ENDBLOCK POSITIONS_FRAC
