# Cell file generated by matador (Matthew Evans 2016)

%BLOCK LATTICE_CART
8.09959 0.0 0.0
-4.0498 7.01445 0.0
0.0 0.0 9.53061
%ENDBLOCK LATTICE_CART

%BLOCK POSITIONS_FRAC
P           0.000000000000000    0.000000000000000    0.000000000000000 
P           0.000000000000000    0.000000000000000    0.500000000000000 
P           0.333333000000000    0.666667000000000    0.157276000000000 
P           0.333333000000000    0.666667000000000    0.842724000000000 
P           0.666667000000000    0.333333000000000    0.157276000000000 
P           0.666667000000000    0.333333000000000    0.842724000000000 
K           0.000000000000000    0.481187000000000    0.279870000000000 
K           0.000000000000000    0.500000000000000    0.000000000000000 
K           0.000000000000000    0.518813000000000    0.720130000000000 
K           0.481187000000000    0.000000000000000    0.279870000000000 
K           0.481187000000000    0.481187000000000    0.720130000000000 
K           0.500000000000000    0.000000000000000    0.000000000000000 
K           0.500000000000000    0.500000000000000    0.000000000000000 
K           0.518813000000000    0.000000000000000    0.720130000000000 
K           0.518813000000000    0.518813000000000    0.279870000000000 
%ENDBLOCK POSITIONS_FRAC
