# Cell file generated by matador (Matthew Evans 2016)

%BLOCK LATTICE_CART
9.92414 0.0 0.0
-4.96207 8.59456 0.0
0.0 0.0 5.37945
%ENDBLOCK LATTICE_CART

%BLOCK POSITIONS_FRAC
P           0.026928000000000    0.513464000000000    0.500000000000000 
P           0.486536000000000    0.513464000000000    0.833333000000000 
P           0.486536000000000    0.973072000000000    0.166667000000000 
K           0.245980000000000    0.491959000000000    0.666667000000000 
K           0.245980000000000    0.754020000000000    0.333333000000000 
K           0.291231000000000    0.145616000000000    0.500000000000000 
K           0.446888000000000    0.223444000000000   -0.000000000000000 
K           0.508041000000000    0.754020000000000   -0.000000000000000 
K           0.776556000000000    0.223444000000000    0.333333000000000 
K           0.776556000000000    0.553112000000000    0.666667000000000 
K           0.854384000000000    0.145616000000000    0.833333000000000 
K           0.854384000000000    0.708769000000000    0.166667000000000 
%ENDBLOCK POSITIONS_FRAC
