# Cell file generated by matador (Matthew Evans 2016)

%BLOCK LATTICE_CART
5.01204 0.0 0.0
-2.50602 4.34055 0.0
0.0 0.0 8.00044
%ENDBLOCK LATTICE_CART

%BLOCK POSITIONS_FRAC
P           0.092419000000000    0.630138000000000    0.498042000000000 
P           0.116733000000000    0.729669000000000    0.833016000000000 
P           0.270331000000000    0.387066000000000    0.833016000000000 
P           0.369862000000000    0.462281000000000    0.498042000000000 
P           0.537719000000000    0.907581000000000    0.498042000000000 
P           0.612934000000000    0.883267000000000    0.833016000000000 
K           0.333333000000000    0.666667000000000    0.221483000000000 
%ENDBLOCK POSITIONS_FRAC
