# Cell file generated by matador (Matthew Evans 2016)

%BLOCK LATTICE_CART
7.04097 0.0 0.0
-3.52048 6.09766 0.0
0.0 0.0 8.34997
%ENDBLOCK LATTICE_CART

%BLOCK POSITIONS_FRAC
P           0.333332000000000    0.666666000000000    0.058488000000000 
P           0.333332000000000    0.666666000000000    0.842346000000000 
P           0.666666000000000    0.333332000000000    0.058488000000000 
P           0.666666000000000    0.333332000000000    0.842346000000000 
K           0.999999000000000    0.999999000000000    0.293776000000000 
K           0.999999000000000    0.499999000000000    0.344178000000000 
K           0.999999000000000    0.499999000000000    0.754432000000000 
K           0.499999000000000    0.999999000000000    0.344178000000000 
K           0.499999000000000    0.999999000000000    0.754432000000000 
K           0.499999000000000    0.499999000000000    0.344178000000000 
K           0.499999000000000    0.499999000000000    0.754432000000000 
%ENDBLOCK POSITIONS_FRAC
