# Cell file generated by matador (Matthew Evans 2016)

%BLOCK LATTICE_CART
7.05699 0.0 0.0
0.0 7.64249 0.0
-4.87332 0.0 9.23104
%ENDBLOCK LATTICE_CART

%BLOCK POSITIONS_FRAC
P           0.180894000000000    0.227073000000000    0.003460000000000 
P           0.319106000000000    0.727073000000000    0.996540000000000 
P           0.680894000000000    0.727073000000000    0.003460000000000 
P           0.819106000000000    0.227073000000000    0.996540000000000 
K           0.000000000000000    0.251008000000000    0.500000000000000 
K           0.000000000000000    0.600038000000000    0.500000000000000 
K           0.000000000000000    0.781337000000000    0.000000000000000 
K           0.241353000000000    0.361667000000000    0.265046000000000 
K           0.258647000000000    0.861667000000000    0.734954000000000 
K           0.500000000000000    0.100038000000000    0.500000000000000 
K           0.500000000000000    0.281337000000000    0.000000000000000 
K           0.500000000000000    0.751008000000000    0.500000000000000 
K           0.741353000000000    0.861667000000000    0.265046000000000 
K           0.758647000000000    0.361667000000000    0.734954000000000 
%ENDBLOCK POSITIONS_FRAC
