# Cell file generated by matador (Matthew Evans 2016)

%BLOCK LATTICE_CART
7.77569 0.0 0.0
0.0 8.60557 0.0
0.0 0.0 9.39877
%ENDBLOCK LATTICE_CART

%BLOCK POSITIONS_FRAC
P           0.183827000000000    0.750000000000000    0.299319000000000 
P           0.316173000000000    0.250000000000000    0.799319000000000 
P           0.683827000000000    0.750000000000000    0.200681000000000 
P           0.816173000000000    0.250000000000000    0.700681000000000 
K           0.000000000000000    0.000000000000000    0.500000000000000 
K           0.000000000000000    0.500000000000000    0.500000000000000 
K           0.097620000000000    0.250000000000000    0.099010000000000 
K           0.223375000000000    0.250000000000000    0.398493000000000 
K           0.276625000000000    0.750000000000000    0.898493000000000 
K           0.402380000000000    0.750000000000000    0.599010000000000 
K           0.500000000000000    0.000000000000000    0.000000000000000 
K           0.500000000000000    0.500000000000000    0.000000000000000 
K           0.597620000000000    0.250000000000000    0.400990000000000 
K           0.723375000000000    0.250000000000000    0.101507000000000 
K           0.776625000000000    0.750000000000000    0.601507000000000 
K           0.902380000000000    0.750000000000000    0.900990000000000 
%ENDBLOCK POSITIONS_FRAC
