# Cell file generated by matador (Matthew Evans 2016)

%BLOCK LATTICE_CART
8.37097 0.0 0.0
0.0 9.67723 0.0
0.0 0.0 15.9741
%ENDBLOCK LATTICE_CART

%BLOCK POSITIONS_FRAC
P           0.147663000000000    0.092367000000000    0.891632000000000 
P           0.147663000000000    0.407634000000000    0.891632000000000 
P           0.352337000000000    0.592367000000000    0.391632000000000 
P           0.352337000000000    0.907634000000000    0.391632000000000 
P           0.647663000000000    0.092367000000000    0.608368000000000 
P           0.647663000000000    0.407634000000000    0.608368000000000 
P           0.852337000000000    0.592367000000000    0.108368000000000 
P           0.852337000000000    0.907634000000000    0.108368000000000 
K           0.000000000000000    0.000001000000000    0.000000000000000 
K           0.000000000000000    0.000001000000000    0.500000000000000 
K           0.000000000000000    0.500001000000000    0.000000000000000 
K           0.000000000000000    0.500001000000000    0.500000000000000 
K           0.000394000000000    0.250001000000000    0.397030000000000 
K           0.039720000000000    0.750001000000000    0.895391000000000 
K           0.215969000000000    0.250001000000000    0.779784000000000 
K           0.239959000000000    0.750001000000000    0.737316000000000 
K           0.260041000000000    0.250001000000000    0.237316000000000 
K           0.284031000000000    0.750001000000000    0.279784000000000 
K           0.460280000000000    0.250001000000000    0.395391000000000 
K           0.499606000000000    0.750001000000000    0.897030000000000 
K           0.500000000000000    0.000001000000000    0.000000000000000 
K           0.500000000000000    0.000001000000000    0.500000000000000 
K           0.500000000000000    0.500001000000000    0.000000000000000 
K           0.500000000000000    0.500001000000000    0.500000000000000 
K           0.500394000000000    0.250001000000000    0.102970000000000 
K           0.539720000000000    0.750001000000000    0.604609000000000 
K           0.715969000000000    0.250001000000000    0.720216000000000 
K           0.739959000000000    0.750001000000000    0.762684000000000 
K           0.760041000000000    0.250001000000000    0.262684000000000 
K           0.784031000000000    0.750001000000000    0.220216000000000 
K           0.960280000000000    0.250001000000000    0.104609000000000 
K           0.999606000000000    0.750001000000000    0.602970000000000 
%ENDBLOCK POSITIONS_FRAC
