# Cell file generated by matador (Matthew Evans 2016)

%BLOCK LATTICE_CART
4.72452 0.0 0.0
-2.36226 4.09155 0.0
0.0 0.0 9.87454
%ENDBLOCK LATTICE_CART

%BLOCK POSITIONS_FRAC
P           0.000000000000000   -0.000000000000000    0.728630000000000 
P           0.333334000000000    0.666666000000000    0.019745000000000 
P           0.333334000000000    0.666666000000000    0.160333000000000 
P           0.333334000000000    0.666666000000000    0.486954000000000 
P           0.666667000000000    0.333333000000000    0.520088000000000 
K           0.666667000000000    0.333333000000000    0.198086000000000 
K           0.666667000000000    0.333333000000000    0.965196000000000 
%ENDBLOCK POSITIONS_FRAC
