# Cell file generated by matador (Matthew Evans 2016)

%BLOCK LATTICE_CART
6.22556 0.0 0.0
0.0 6.50541 0.0
2.28902 0.0 5.61261
%ENDBLOCK LATTICE_CART

%BLOCK POSITIONS_FRAC
P           0.302529000000000    0.337707000000000    0.032172000000000 
P           0.302529000000000    0.662293000000000    0.032172000000000 
P           0.461662000000000    0.500000000000000    0.728041000000000 
P           0.555238000000000    0.500000000000000    0.041539000000000 
P           0.600935000000000    0.088513000000000    0.709184000000000 
P           0.600935000000000    0.911487000000000    0.709184000000000 
P           0.848087000000000    0.000000000000000    0.926966000000000 
K           0.089170000000000    0.250344000000000    0.599093000000000 
K           0.089170000000000    0.749656000000000    0.599093000000000 
%ENDBLOCK POSITIONS_FRAC
