# Cell file generated by matador (Matthew Evans 2016)

%BLOCK LATTICE_CART
8.96608 0.0 0.0
0.0 8.96608 0.0
0.0 0.0 8.55914
%ENDBLOCK LATTICE_CART

%BLOCK POSITIONS_FRAC
P           0.000000000000000    0.000000000000000    0.000000000000000 
P           0.000000000000000    0.000000000000000    0.500000000000000 
P           0.000000000000000    0.500000000000000    0.000000000000000 
P           0.334541000000000    0.525764000000000    0.404380000000000 
P           0.334541000000000    0.525764000000000    0.595620000000000 
P           0.474236000000000    0.334541000000000    0.095620000000000 
P           0.474236000000000    0.334541000000000    0.904380000000000 
P           0.500000000000000    0.000000000000000    0.500000000000000 
P           0.500000000000000    0.500000000000000    0.000000000000000 
P           0.500000000000000    0.500000000000000    0.500000000000000 
P           0.525764000000000    0.665459000000000    0.095620000000000 
P           0.525764000000000    0.665459000000000    0.904380000000000 
P           0.665459000000000    0.474236000000000    0.404380000000000 
P           0.665459000000000    0.474236000000000    0.595620000000000 
K           0.000000000000000    0.000000000000000    0.250000000000000 
K           0.000000000000000    0.000000000000000    0.750000000000000 
K           0.000000000000000    0.500000000000000    0.500000000000000 
K           0.500000000000000    0.000000000000000    0.000000000000000 
K           0.500000000000000    0.500000000000000    0.250000000000000 
K           0.500000000000000    0.500000000000000    0.750000000000000 
%ENDBLOCK POSITIONS_FRAC
