# Cell file generated by matador (Matthew Evans 2016)

%BLOCK LATTICE_CART
6.614 0.0 0.0
-3.307 5.72789 0.0
0.0 0.0 7.49353
%ENDBLOCK LATTICE_CART

%BLOCK POSITIONS_FRAC
P           0.000000000000000    0.000000000000000    0.000000000000000 
P           0.000000000000000    0.000000000000000    0.500000000000000 
K           0.082941000000000    0.726586000000000    0.250000000000000 
K           0.273414000000000    0.356355000000000    0.250000000000000 
K           0.356355000000000    0.273414000000000    0.750000000000000 
K           0.643645000000000    0.917059000000000    0.250000000000000 
K           0.726586000000000    0.082941000000000    0.750000000000000 
K           0.917059000000000    0.643645000000000    0.750000000000000 
%ENDBLOCK POSITIONS_FRAC
