# Cell file generated by matador (Matthew Evans 2016)

%BLOCK LATTICE_CART
6.0153 0.0 0.0
-3.00765 5.2094 0.0
0.0 0.0 6.51996
%ENDBLOCK LATTICE_CART

%BLOCK POSITIONS_FRAC
P           0.000000000000000    0.194011000000000    0.408469000000000 
P           0.194011000000000    0.000000000000000    0.408469000000000 
P           0.333333000000000    0.666667000000000    0.077327000000000 
P           0.333333000000000    0.666667000000000    0.583332000000000 
P           0.666667000000000    0.333333000000000    0.077327000000000 
P           0.666667000000000    0.333333000000000    0.583332000000000 
P           0.805989000000000    0.805989000000000    0.408469000000000 
K           0.000000000000000    0.000000000000000    0.098257000000000 
%ENDBLOCK POSITIONS_FRAC
