# Cell file generated by matador (Matthew Evans 2016)

%BLOCK LATTICE_CART
6.18861 0.0 0.0
-3.0943 5.35949 0.0
0.0 0.0 9.33248
%ENDBLOCK LATTICE_CART

%BLOCK POSITIONS_FRAC
P           0.000000000000000    0.000000000000000    0.241266000000000 
P           0.000000000000000    0.000000000000000    0.758734000000000 
P           0.333333000000000    0.666667000000000    0.083440000000000 
P           0.333333000000000    0.666667000000000    0.904153000000000 
P           0.666667000000000    0.333333000000000    0.095848000000000 
P           0.666667000000000    0.333333000000000    0.916560000000000 
K           0.000000000000000    0.000000000000000    0.000000000000000 
K           0.000000000000000    0.000000000000000    0.500000000000000 
K           0.000000000000000    0.500000000000000    0.500000000000000 
K           0.500000000000000    0.000000000000000    0.500000000000000 
K           0.500000000000000    0.500000000000000    0.500000000000000 
%ENDBLOCK POSITIONS_FRAC
