# Cell file generated by matador (Matthew Evans 2016)

%BLOCK LATTICE_CART
8.32287 0.0 0.0
-4.16143 7.20782 0.0
0.0 0.0 6.08371
%ENDBLOCK LATTICE_CART

%BLOCK POSITIONS_FRAC
P           0.000000000000000    0.759698000000000    0.500000000000000 
P           0.093031000000000    0.666667000000000    0.166667000000000 
P           0.240302000000000    0.240302000000000    0.500000000000000 
P           0.333333000000000    0.426364000000000    0.166667000000000 
P           0.426364000000000    0.333333000000000    0.833333000000000 
P           0.573636000000000    0.906969000000000    0.166667000000000 
P           0.666667000000000    0.093031000000000    0.833333000000000 
P           0.759698000000000    0.000000000000000    0.500000000000000 
P           0.906969000000000    0.573636000000000    0.833333000000000 
K           0.000000000000000    0.000000000000000   -0.000000000000000 
K           0.000000000000000    0.000000000000000    0.500000000000000 
K           0.333333000000000    0.666667000000000    0.166667000000000 
K           0.333333000000000    0.666667000000000    0.666667000000000 
K           0.666667000000000    0.333333000000000    0.333333000000000 
K           0.666667000000000    0.333333000000000    0.833333000000000 
%ENDBLOCK POSITIONS_FRAC
