# Cell file generated by matador (Matthew Evans 2016)

%BLOCK LATTICE_CART
9.01839 0.0 0.0
0.0 8.40559 0.0
0.0 0.0 9.08736
%ENDBLOCK LATTICE_CART

%BLOCK POSITIONS_FRAC
P           0.000000000000000    0.352419000000000    0.775739000000000 
P           0.000000000000000    0.953968000000000    0.526945000000000 
P           0.500000000000000    0.046032000000000    0.026945000000000 
P           0.500000000000000    0.647581000000000    0.275739000000000 
K           0.000000000000000    0.117969000000000    0.716883000000000 
K           0.000000000000000    0.237376000000000    0.342746000000000 
K           0.000000000000000    0.465980000000000    0.044988000000000 
K           0.000000000000000    0.659517000000000    0.742302000000000 
K           0.000000000000000    0.706457000000000    0.414201000000000 
K           0.000000000000000    0.957108000000000    0.064861000000000 
K           0.500000000000000    0.042892000000000    0.564861000000000 
K           0.500000000000000    0.293543000000000    0.914201000000000 
K           0.500000000000000    0.340483000000000    0.242302000000000 
K           0.500000000000000    0.534020000000000    0.544988000000000 
K           0.500000000000000    0.762624000000000    0.842746000000000 
K           0.500000000000000    0.882031000000000    0.216883000000000 
%ENDBLOCK POSITIONS_FRAC
