# Cell file generated by matador (Matthew Evans 2016)

%BLOCK LATTICE_CART
7.00323 0.0 0.0
0.0 7.09312 0.0
-0.0411739 0.0 8.24208
%ENDBLOCK LATTICE_CART

%BLOCK POSITIONS_FRAC
P           0.000000000000000    0.000000000000000    0.000000000000000 
P           0.035729000000000    0.224353000000000    0.559878000000000 
P           0.035729000000000    0.775647000000000    0.559878000000000 
P           0.500000000000000    0.500000000000000    0.000000000000000 
P           0.500000000000000    0.500000000000000    0.500000000000000 
P           0.964271000000000    0.224353000000000    0.440122000000000 
P           0.964271000000000    0.775647000000000    0.440122000000000 
K           0.183935000000000    0.000000000000000    0.758209000000000 
K           0.425491000000000    0.190631000000000    0.377740000000000 
K           0.425491000000000    0.809369000000000    0.377740000000000 
K           0.574509000000000    0.190631000000000    0.622260000000000 
K           0.574509000000000    0.809369000000000    0.622260000000000 
K           0.816065000000000    0.000000000000000    0.241791000000000 
%ENDBLOCK POSITIONS_FRAC
