# Cell file generated by matador (Matthew Evans 2016)

%BLOCK LATTICE_CART
8.62866 0.0 0.0
-4.31433 7.47264 0.0
0.0 0.0 8.71264
%ENDBLOCK LATTICE_CART

%BLOCK POSITIONS_FRAC
P          -0.000000000000000    0.500000000000000    0.333333000000000 
P           0.500000000000000   -0.000000000000000   -0.000000000000000 
P           0.500000000000000    0.500000000000000    0.666667000000000 
K          -0.000000000000000   -0.000000000000000    0.166667000000000 
K          -0.000000000000000   -0.000000000000000    0.500000000000000 
K          -0.000000000000000   -0.000000000000000    0.833333000000000 
K          -0.000000000000000    0.500000000000000    0.833333000000000 
K           0.190256000000000    0.380513000000000    0.500000000000000 
K           0.190256000000000    0.809744000000000    0.166667000000000 
K           0.380513000000000    0.190256000000000    0.833333000000000 
K           0.500000000000000   -0.000000000000000    0.500000000000000 
K           0.500000000000000    0.500000000000000    0.166667000000000 
K           0.619487000000000    0.809744000000000    0.833333000000000 
K           0.809744000000000    0.190256000000000    0.166667000000000 
K           0.809744000000000    0.619487000000000    0.500000000000000 
%ENDBLOCK POSITIONS_FRAC
