# Cell file generated by matador (Matthew Evans 2016)

%BLOCK LATTICE_CART
6.3199 0.0 0.0
0.0 5.76463 0.0
0.0 0.0 8.39415
%ENDBLOCK LATTICE_CART

%BLOCK POSITIONS_FRAC
P           0.000000000000000    0.323735000000000    0.721882000000000 
P           0.000000000000000    0.500000000000000    0.871514000000000 
P           0.000000000000000    0.676265000000000    0.721882000000000 
P           0.500000000000000   -0.000000000000000    0.871514000000000 
P           0.500000000000000    0.176265000000000    0.721882000000000 
P           0.500000000000000    0.823735000000000    0.721882000000000 
K           0.000000000000000    0.500000000000000    0.272934000000000 
K           0.250000000000000    0.250000000000000    0.484914000000000 
K           0.250000000000000    0.750000000000000    0.484914000000000 
K           0.500000000000000   -0.000000000000000    0.272934000000000 
K           0.750000000000000    0.250000000000000    0.484914000000000 
K           0.750000000000000    0.750000000000000    0.484914000000000 
%ENDBLOCK POSITIONS_FRAC
