# Cell file generated by matador (Matthew Evans 2016)

%BLOCK LATTICE_CART
8.51043 0.0 0.0
-0.333927 8.45287 0.0
1.93655 1.74307 3.92087
%ENDBLOCK LATTICE_CART

%BLOCK POSITIONS_FRAC
P           0.000000000000000    0.000000000000000    0.500000000000000 
P           0.410805000000000    0.513285000000000    0.916689000000000 
P           0.500000000000000    0.000000000000000    0.000000000000000 
P           0.500000000000000    0.000000000000000    0.500000000000000 
P           0.589195000000000    0.486715000000000    0.083311000000000 
K           0.210008000000000    0.560773000000000    0.748833000000000 
K           0.322741000000000    0.232640000000000    0.561256000000000 
K           0.677259000000000    0.767360000000000    0.438744000000000 
K           0.789992000000000    0.439227000000000    0.251167000000000 
%ENDBLOCK POSITIONS_FRAC
