# Cell file generated by matador (Matthew Evans 2016)

%BLOCK LATTICE_CART
8.16008 0.0 0.0
0.0 9.3127 0.0
3.35293 0.0 5.89139
%ENDBLOCK LATTICE_CART

%BLOCK POSITIONS_FRAC
P           0.054642000000000    0.485846000000000    0.892826000000000 
P           0.088628000000000    0.968659000000000    0.796089000000000 
P           0.226472000000000    0.117940000000000    0.258405000000000 
P           0.773528000000000    0.117940000000000    0.741595000000000 
P           0.911372000000000    0.968659000000000    0.203911000000000 
P           0.945358000000000    0.485846000000000    0.107174000000000 
K           0.214725000000000    0.774464000000000    0.518273000000000 
K           0.341027000000000    0.888256000000000    0.072756000000000 
K           0.383513000000000    0.548412000000000    0.426746000000000 
K           0.500000000000000    0.177541000000000    0.500000000000000 
K           0.616487000000000    0.548412000000000    0.573254000000000 
K           0.658973000000000    0.888256000000000    0.927244000000000 
K           0.785275000000000    0.774464000000000    0.481727000000000 
%ENDBLOCK POSITIONS_FRAC
