# Cell file generated by matador (Matthew Evans 2016)

%BLOCK LATTICE_CART
7.65045 0.0 0.0
-3.82523 6.62549 0.0
0.0 0.0 6.36177
%ENDBLOCK LATTICE_CART

%BLOCK POSITIONS_FRAC
P           0.000000000000000    0.000000000000000    0.342811000000000 
P           0.000000000000000    0.000000000000000    0.500000000000000 
P           0.000000000000000    0.000000000000000    0.657189000000000 
P           0.333333000000000    0.666667000000000    0.881812000000000 
P           0.666667000000000    0.333333000000000    0.118188000000000 
K           0.000000000000000    0.500000000000000    0.000000000000000 
K           0.000000000000000    0.500000000000000    0.500000000000000 
K           0.500000000000000    0.000000000000000    0.000000000000000 
K           0.500000000000000    0.000000000000000    0.500000000000000 
K           0.500000000000000    0.500000000000000    0.000000000000000 
K           0.500000000000000    0.500000000000000    0.500000000000000 
%ENDBLOCK POSITIONS_FRAC
