# Cell file generated by matador (Matthew Evans 2016)

%BLOCK LATTICE_CART
7.30218 0.0 0.0
0.0 10.1918 0.0
0.0116116 0.0 8.44122
%ENDBLOCK LATTICE_CART

%BLOCK POSITIONS_FRAC
P           0.000000000000000    0.387048000000000    0.000000000000000 
P           0.307640000000000    0.373157000000000    0.937497000000000 
P           0.373714000000000    0.495032000000000    0.093380000000000 
P           0.411823000000000    0.051783000000000    0.004391000000000 
P           0.500000000000000    0.440472000000000    0.000000000000000 
P           0.500000000000000    0.692456000000000    0.000000000000000 
P           0.588177000000000    0.051783000000000    0.995609000000000 
P           0.626286000000000    0.495032000000000    0.906620000000000 
P           0.692360000000000    0.373157000000000    0.062503000000000 
K           0.000000000000000    0.117888000000000    0.000000000000000 
K           0.000000000000000    0.184995000000000    0.500000000000000 
K           0.000000000000000    0.423914000000000    0.500000000000000 
K           0.000000000000000    0.905825000000000    0.000000000000000 
K           0.187635000000000    0.886433000000000    0.252521000000000 
K           0.317336000000000    0.650608000000000    0.494951000000000 
K           0.500000000000000    0.058454000000000    0.500000000000000 
K           0.682664000000000    0.650608000000000    0.505049000000000 
K           0.812365000000000    0.886433000000000    0.747479000000000 
%ENDBLOCK POSITIONS_FRAC
