# Cell file generated by matador (Matthew Evans 2016)

%BLOCK LATTICE_CART
5.28275 0.0 0.0
-2.64138 4.575 0.0
0.0 0.0 5.92498
%ENDBLOCK LATTICE_CART

%BLOCK POSITIONS_FRAC
P           0.333333000000000    0.666667000000000    0.188603000000000 
P           0.333333000000000    0.666667000000000    0.488841000000000 
P           0.498293000000000    0.298069000000000    0.585426000000000 
P           0.701931000000000    0.200224000000000    0.585426000000000 
P           0.799776000000000    0.501707000000000    0.585426000000000 
K           0.000000000000000    0.000000000000000    0.839719000000000 
K           0.666667000000000    0.333333000000000    0.243430000000000 
%ENDBLOCK POSITIONS_FRAC
