# Cell file generated by matador (Matthew Evans 2016)

%BLOCK LATTICE_CART
6.72349 0.0 0.0
0.0 4.06818 0.0
-1.42778 0.0 11.0872
%ENDBLOCK LATTICE_CART

%BLOCK POSITIONS_FRAC
P           0.133420000000000   -0.000000000000000    0.228381000000000 
P           0.238934000000000   -0.000000000000000    0.321118000000000 
P           0.279037000000000    0.500000000000000    0.860339000000000 
P           0.324962000000000    0.500000000000000    0.591391000000000 
P           0.435027000000000    0.284239000000000    0.218278000000000 
P           0.435027000000000    0.715761000000000    0.218278000000000 
P           0.553367000000000   -0.000000000000000    0.416037000000000 
P           0.870977000000000   -0.000000000000000    0.701981000000000 
P           0.878093000000000   -0.000000000000000    0.306171000000000 
P           0.960792000000000    0.500000000000000    0.891598000000000 
K           0.134057000000000    0.242866000000000    0.668226000000000 
K           0.134057000000000    0.757134000000000    0.668226000000000 
%ENDBLOCK POSITIONS_FRAC
