# Cell file generated by matador (Matthew Evans 2016)

%BLOCK LATTICE_CART
7.64323 0.0 0.0
-3.82162 6.61923 0.0
0.0 0.0 8.932
%ENDBLOCK LATTICE_CART

%BLOCK POSITIONS_FRAC
P           0.000000000000000    0.000000000000000    0.000000000000000 
P           0.000000000000000    0.000000000000000    0.500000000000000 
P           0.333333000000000    0.666667000000000    0.353455000000000 
P           0.333333000000000    0.666667000000000    0.646545000000000 
P           0.666667000000000    0.333333000000000    0.353455000000000 
P           0.666667000000000    0.333333000000000    0.646545000000000 
K           0.000000000000000    0.335766000000000    0.739140000000000 
K           0.000000000000000    0.500000000000000    0.500000000000000 
K           0.000000000000000    0.664234000000000    0.260860000000000 
K           0.335766000000000    0.000000000000000    0.739140000000000 
K           0.335766000000000    0.335766000000000    0.260860000000000 
K           0.500000000000000    0.000000000000000    0.500000000000000 
K           0.500000000000000    0.500000000000000    0.500000000000000 
K           0.664234000000000    0.000000000000000    0.260860000000000 
K           0.664234000000000    0.664234000000000    0.739140000000000 
%ENDBLOCK POSITIONS_FRAC
