# Cell file generated by matador (Matthew Evans 2016)

%BLOCK LATTICE_CART
4.83811 0.0 0.0
-2.41906 4.18993 0.0
0.0 0.0 7.33154
%ENDBLOCK LATTICE_CART

%BLOCK POSITIONS_FRAC
P           0.000000000000000   -0.000000000000000    0.000000000000000 
P           0.000000000000000   -0.000000000000000    0.500000000000000 
P           0.333334000000000    0.666666000000000    0.000000000000000 
P           0.333334000000000    0.666666000000000    0.500000000000000 
P           0.588984000000000    0.177968000000000    0.500000000000000 
P           0.588984000000000    0.411016000000000    0.500000000000000 
P           0.822032000000000    0.411016000000000    0.500000000000000 
K           0.666667000000000    0.333333000000000    0.000000000000000 
%ENDBLOCK POSITIONS_FRAC
