# Cell file generated by matador (Matthew Evans 2016)

%BLOCK LATTICE_CART
6.88842 0.0 0.0
0.0 5.59013 0.0
3.8796 0.0 8.65982
%ENDBLOCK LATTICE_CART

%BLOCK POSITIONS_FRAC
P           0.125273000000000    0.000000000000000    0.098547000000000 
P           0.625273000000000    0.500000000000000    0.098547000000000 
K           0.107194000000000    0.000000000000000    0.887804000000000 
K           0.230215000000000    0.500000000000000    0.575937000000000 
K           0.304433000000000    0.000000000000000    0.419891000000000 
K           0.607194000000000    0.500000000000000    0.887804000000000 
K           0.730215000000000    0.000000000000000    0.575937000000000 
K           0.804433000000000    0.500000000000000    0.419891000000000 
%ENDBLOCK POSITIONS_FRAC
