# Cell file generated by matador (Matthew Evans 2016)

%BLOCK LATTICE_CART
8.62953 0.0 0.0
0.069543 4.96657 0.0
-4.2979 0.474731 7.60801
%ENDBLOCK LATTICE_CART

%BLOCK POSITIONS_FRAC
P           0.000000000000000    0.000000000000000    0.000000000000000 
P           0.000000000000000    0.000000000000000    0.500000000000000 
K           0.000000000000000    0.500000000000000    0.000000000000000 
K           0.151998000000000    0.859133000000000    0.253193000000000 
K           0.331107000000000    0.570517000000000    0.621037000000000 
K           0.500000000000000    0.500000000000000    0.000000000000000 
K           0.500000000000000    0.500000000000000    0.500000000000000 
K           0.668893000000000    0.429483000000000    0.378963000000000 
K           0.848002000000000    0.140867000000000    0.746807000000000 
%ENDBLOCK POSITIONS_FRAC
