# Cell file generated by matador (Matthew Evans 2016)

%BLOCK LATTICE_CART
8.7995 0.0 0.0
0.0 4.11509 0.0
0.0 0.0 6.65356
%ENDBLOCK LATTICE_CART

%BLOCK POSITIONS_FRAC
P           0.000000000000000    0.500000000000000   -0.000000000000000 
P           0.117147000000000    0.000000000000000    0.171182000000000 
P           0.117147000000000    0.000000000000000    0.828818000000000 
P           0.500000000000000    0.500000000000000   -0.000000000000000 
P           0.882853000000000    0.000000000000000    0.171182000000000 
P           0.882853000000000    0.000000000000000    0.828818000000000 
K           0.330571000000000    0.000000000000000    0.349705000000000 
K           0.330571000000000    0.000000000000000    0.650295000000000 
K           0.500000000000000    0.000000000000000   -0.000000000000000 
K           0.669429000000000    0.000000000000000    0.349705000000000 
K           0.669429000000000    0.000000000000000    0.650295000000000 
%ENDBLOCK POSITIONS_FRAC
