# Cell file generated by matador (Matthew Evans 2016)

%BLOCK LATTICE_CART
5.151 0.0 0.0
0.0 8.82065 0.0
1.76074 0.0 8.56036
%ENDBLOCK LATTICE_CART

%BLOCK POSITIONS_FRAC
P           0.000000000000000    0.265270000000000    0.000000000000000 
P           0.102204000000000    0.417593000000000    0.813984000000000 
P           0.378037000000000    0.160283000000000    0.421959000000000 
P           0.399320000000000    0.900609000000000    0.380530000000000 
P           0.411988000000000    0.586489000000000    0.323157000000000 
P           0.500000000000000    0.478807000000000    0.500000000000000 
P           0.588012000000000    0.586489000000000    0.676843000000000 
P           0.600680000000000    0.900609000000000    0.619470000000000 
P           0.621963000000000    0.160283000000000    0.578041000000000 
P           0.897796000000000    0.417593000000000    0.186016000000000 
K           0.000000000000000    0.428079000000000    0.500000000000000 
K           0.000000000000000    0.641329000000000    0.000000000000000 
K           0.000000000000000    0.752609000000000    0.500000000000000 
K           0.043808000000000    0.846868000000000    0.872504000000000 
K           0.500000000000000    0.707915000000000    0.500000000000000 
K           0.956192000000000    0.846868000000000    0.127496000000000 
%ENDBLOCK POSITIONS_FRAC
