# Cell file generated by matador (Matthew Evans 2016)

%BLOCK LATTICE_CART
5.2922 0.0 0.0
0.0 7.25084 0.0
0.0 0.0 4.72168
%ENDBLOCK LATTICE_CART

%BLOCK POSITIONS_FRAC
P           0.301988000000000    0.500000000000000    0.000000000000000 
P           0.698012000000000    0.500000000000000    0.000000000000000 
K           0.500000000000000    0.000000000000000    0.000000000000000 
K           0.500000000000000    0.000000000000000    0.500000000000000 
K           0.500000000000000    0.500000000000000    0.500000000000000 
%ENDBLOCK POSITIONS_FRAC
