# Cell file generated by matador (Matthew Evans 2016)

%BLOCK LATTICE_CART
7.26859 0.0 0.0
0.0 7.26859 0.0
0.0 0.0 7.24999
%ENDBLOCK LATTICE_CART

%BLOCK POSITIONS_FRAC
P          -0.000000000000000   -0.000000000000000    0.227155000000000 
P          -0.000000000000000   -0.000000000000000    0.772845000000000 
P          -0.000000000000000    0.181041000000000   -0.000000000000000 
P          -0.000000000000000    0.818959000000000   -0.000000000000000 
P           0.181041000000000   -0.000000000000000   -0.000000000000000 
P           0.318959000000000    0.500000000000000    0.500000000000000 
P           0.500000000000000    0.318959000000000    0.500000000000000 
P           0.500000000000000    0.500000000000000    0.272845000000000 
P           0.500000000000000    0.500000000000000    0.727155000000000 
P           0.500000000000000    0.681041000000000    0.500000000000000 
P           0.681041000000000    0.500000000000000    0.500000000000000 
P           0.818959000000000   -0.000000000000000   -0.000000000000000 
K          -0.000000000000000   -0.000000000000000    0.500000000000000 
K           0.500000000000000    0.500000000000000   -0.000000000000000 
%ENDBLOCK POSITIONS_FRAC
