# Cell file generated by matador (Matthew Evans 2016)

%BLOCK LATTICE_CART
5.30389 -0.0 0.0
-2.65194 4.5933 0.0
0.0 0.0 10.3471
%ENDBLOCK LATTICE_CART

%BLOCK POSITIONS_FRAC
P           0.333333000000000    0.666667000000000    0.685868000000000 
P           0.549646000000000    0.418266000000000    0.970099000000000 
P           0.581734000000000    0.131380000000000    0.970099000000000 
P           0.666667000000000    0.333333000000000    0.289520000000000 
P           0.666667000000000    0.333333000000000    0.416198000000000 
P           0.666667000000000    0.333333000000000    0.886779000000000 
P           0.868620000000000    0.450354000000000    0.970099000000000 
K           0.000000000000000    0.000000000000000    0.447039000000000 
K           0.333333000000000    0.666667000000000    0.219887000000000 
%ENDBLOCK POSITIONS_FRAC
