# Cell file generated by matador (Matthew Evans 2016)

%BLOCK LATTICE_CART
7.47035 0.0 0.0
-3.73517 6.46951 0.0
0.0 0.0 9.2577
%ENDBLOCK LATTICE_CART

%BLOCK POSITIONS_FRAC
P           0.000000000000000    0.000000000000000    0.675760000000000 
P           0.064617000000000    0.129233000000000    0.887145000000000 
P           0.064617000000000    0.935383000000000    0.887145000000000 
P           0.225624000000000    0.014599000000000    0.743025000000000 
P           0.225624000000000    0.211025000000000    0.743025000000000 
P           0.788975000000000    0.014599000000000    0.743025000000000 
P           0.788975000000000    0.774376000000000    0.743025000000000 
P           0.870767000000000    0.935383000000000    0.887145000000000 
P           0.985401000000000    0.211025000000000    0.743025000000000 
P           0.985401000000000    0.774376000000000    0.743025000000000 
K           0.000000000000000    0.000000000000000    0.430477000000000 
K           0.333333000000000    0.666667000000000    0.290654000000000 
K           0.333333000000000    0.666667000000000    0.519641000000000 
K           0.666667000000000    0.333333000000000    0.076583000000000 
%ENDBLOCK POSITIONS_FRAC
