# Cell file generated by matador (Matthew Evans 2016)

%BLOCK LATTICE_CART
6.04766 0.0 0.0
-2.14277 7.28195 0.0
2.19901 1.95454 7.11908
%ENDBLOCK LATTICE_CART

%BLOCK POSITIONS_FRAC
P           0.500000000000000    0.500000000000000    0.000000000000000 
K           0.000000000000000    0.000000000000000    0.500000000000000 
K           0.000000000000000    0.500000000000000    0.000000000000000 
K           0.000000000000000    0.500000000000000    0.500000000000000 
K           0.403345000000000    0.361392000000000    0.700292000000000 
K           0.500000000000000    0.000000000000000    0.000000000000000 
K           0.596655000000000    0.638608000000000    0.299708000000000 
%ENDBLOCK POSITIONS_FRAC
