# Cell file generated by matador (Matthew Evans 2016)

%BLOCK LATTICE_CART
9.21659 0.0 0.0
0.0 8.86847 0.0
0.0 0.0 7.64331
%ENDBLOCK LATTICE_CART

%BLOCK POSITIONS_FRAC
P          -0.000000000000000    0.000000000000000    0.473128000000000 
P          -0.000000000000000    0.000000000000000    0.670827000000000 
P          -0.000000000000000    0.000000000000000    0.935526000000000 
P          -0.000000000000000    0.500000000000000    0.048543000000000 
P           0.500000000000000    0.000000000000000    0.548543000000000 
P           0.500000000000000    0.500000000000000    0.170827000000000 
P           0.500000000000000    0.500000000000000    0.435526000000000 
P           0.500000000000000    0.500000000000000    0.973128000000000 
K          -0.000000000000000    0.500000000000000    0.660748000000000 
K           0.169483000000000    0.175560000000000    0.629273000000000 
K           0.224779000000000    0.842882000000000    0.466688000000000 
K           0.275221000000000    0.342882000000000    0.966688000000000 
K           0.330517000000000    0.675560000000000    0.129273000000000 
K           0.500000000000000    0.000000000000000    0.160748000000000 
K           0.669483000000000    0.324440000000000    0.129273000000000 
K           0.724779000000000    0.657118000000000    0.966688000000000 
K           0.775221000000000    0.157118000000000    0.466688000000000 
K           0.830517000000000    0.824440000000000    0.629273000000000 
%ENDBLOCK POSITIONS_FRAC
