# Cell file generated by matador (Matthew Evans 2016)

%BLOCK LATTICE_CART
4.79817 0.0 0.0
0.0 5.8781 0.0
0.146057 0.0 6.77094
%ENDBLOCK LATTICE_CART

%BLOCK POSITIONS_FRAC
P           0.150545000000000    0.000000000000000    0.707005000000000 
P           0.185332000000000    0.000000000000000    0.934855000000000 
P           0.233087000000000    0.500000000000000    0.801633000000000 
P           0.454990000000000    0.180069000000000    0.646169000000000 
P           0.454990000000000    0.819931000000000    0.646169000000000 
P           0.554582000000000    0.500000000000000    0.509751000000000 
P           0.953183000000000    0.000000000000000    0.833039000000000 
K           0.520179000000000    0.000000000000000    0.355551000000000 
K           0.919765000000000    0.500000000000000    0.323608000000000 
%ENDBLOCK POSITIONS_FRAC
