# Cell file generated by matador (Matthew Evans 2016)

%BLOCK LATTICE_CART
7.19442 0.0 0.0
0.0 7.19442 0.0
0.0 0.0 8.58739
%ENDBLOCK LATTICE_CART

%BLOCK POSITIONS_FRAC
P           0.000000000000000    0.500000000000000    0.500000000000000 
P           0.132930000000000    0.632930000000000    0.500000000000000 
P           0.136866000000000    0.363134000000000    0.000000000000000 
P           0.363134000000000    0.863134000000000    0.000000000000000 
P           0.367070000000000    0.132930000000000    0.500000000000000 
P           0.500000000000000    0.000000000000000    0.500000000000000 
P           0.632930000000000    0.867070000000000    0.500000000000000 
P           0.636866000000000    0.136866000000000    0.000000000000000 
P           0.863134000000000    0.636866000000000    0.000000000000000 
P           0.867070000000000    0.367070000000000    0.500000000000000 
K           0.000000000000000    0.000000000000000    0.500000000000000 
K           0.500000000000000    0.500000000000000    0.500000000000000 
%ENDBLOCK POSITIONS_FRAC
