# Cell file generated by matador (Matthew Evans 2016)

%BLOCK LATTICE_CART
4.08219 0.0 0.0
0.0 5.93047 0.0
1.78286 0.0 8.25142
%ENDBLOCK LATTICE_CART

%BLOCK POSITIONS_FRAC
P           0.032896000000000    0.500000000000000    0.714080000000000 
P           0.196286000000000    0.000000000000000    0.175397000000000 
P           0.368007000000000    0.000000000000000    0.910295000000000 
P           0.740621000000000    0.000000000000000    0.174840000000000 
P           0.802085000000000    0.500000000000000    0.959227000000000 
P           0.963786000000000    0.500000000000000    0.605574000000000 
P           0.979348000000000    0.000000000000000    0.043560000000000 
K           0.245782000000000    0.272959000000000    0.354514000000000 
K           0.245782000000000    0.727041000000000    0.354514000000000 
K           0.773446000000000    0.500000000000000    0.205942000000000 
%ENDBLOCK POSITIONS_FRAC
