# Cell file generated by matador (Matthew Evans 2016)

%BLOCK LATTICE_CART
6.54695 0.0 0.0
-3.27348 5.66983 0.0
0.0 0.0 10.5878
%ENDBLOCK LATTICE_CART

%BLOCK POSITIONS_FRAC
P           0.000000000000000    0.000000000000000    0.000000000000000 
P           0.019412000000000    0.509706000000000    0.000000000000000 
P           0.186187000000000    0.372373000000000    0.000000000000000 
P           0.186187000000000    0.813813000000000    0.000000000000000 
P           0.407983000000000    0.203991000000000    0.500000000000000 
P           0.490294000000000    0.509706000000000    0.000000000000000 
P           0.490294000000000    0.980588000000000    0.000000000000000 
P           0.627627000000000    0.813813000000000    0.000000000000000 
P           0.666667000000000    0.333333000000000    0.358291000000000 
P           0.666667000000000    0.333333000000000    0.641709000000000 
P           0.796009000000000    0.203991000000000    0.500000000000000 
P           0.796009000000000    0.592017000000000    0.500000000000000 
K           0.000000000000000    0.000000000000000    0.500000000000000 
K           0.333333000000000    0.666667000000000    0.500000000000000 
K           0.666667000000000    0.333333000000000    0.000000000000000 
%ENDBLOCK POSITIONS_FRAC
