# Cell file generated by matador (Matthew Evans 2016)

%BLOCK LATTICE_CART
10.8689 0.0 0.0
0.0 11.14 0.0
0.0 0.0 11.3495
%ENDBLOCK LATTICE_CART

%BLOCK POSITIONS_FRAC
P           0.000000000000000    0.000000000000000    0.000000000000000 
P           0.000000000000000    0.000000000000000    0.500000000000000 
P           0.245551000000000    0.500000000000000    0.000000000000000 
P           0.254449000000000    0.000000000000000    0.000000000000000 
P           0.500000000000000    0.500000000000000    0.000000000000000 
P           0.500000000000000    0.500000000000000    0.500000000000000 
P           0.745551000000000    0.000000000000000    0.000000000000000 
P           0.754449000000000    0.500000000000000    0.000000000000000 
K           0.000000000000000    0.161071000000000    0.142218000000000 
K           0.000000000000000    0.161071000000000    0.857782000000000 
K           0.000000000000000    0.308297000000000    0.363574000000000 
K           0.000000000000000    0.308297000000000    0.636426000000000 
K           0.000000000000000    0.691703000000000    0.363574000000000 
K           0.000000000000000    0.691703000000000    0.636426000000000 
K           0.000000000000000    0.838929000000000    0.142218000000000 
K           0.000000000000000    0.838929000000000    0.857782000000000 
K           0.208622000000000    0.000000000000000    0.188324000000000 
K           0.208622000000000    0.000000000000000    0.811676000000000 
K           0.291378000000000    0.500000000000000    0.188324000000000 
K           0.291378000000000    0.500000000000000    0.811676000000000 
K           0.500000000000000    0.191703000000000    0.363574000000000 
K           0.500000000000000    0.191703000000000    0.636426000000000 
K           0.500000000000000    0.338929000000000    0.142218000000000 
K           0.500000000000000    0.338929000000000    0.857782000000000 
K           0.500000000000000    0.661071000000000    0.142218000000000 
K           0.500000000000000    0.661071000000000    0.857782000000000 
K           0.500000000000000    0.808297000000000    0.363574000000000 
K           0.500000000000000    0.808297000000000    0.636426000000000 
K           0.708622000000000    0.500000000000000    0.188324000000000 
K           0.708622000000000    0.500000000000000    0.811676000000000 
K           0.791378000000000    0.000000000000000    0.188324000000000 
K           0.791378000000000    0.000000000000000    0.811676000000000 
%ENDBLOCK POSITIONS_FRAC
