# Cell file generated by matador (Matthew Evans 2016)

%BLOCK LATTICE_CART
8.21885 0.0 0.0
-4.10943 7.11773 0.0
0.0 0.0 7.75754
%ENDBLOCK LATTICE_CART

%BLOCK POSITIONS_FRAC
P           0.000000000000000    0.000000000000000    0.500000000000000 
P           0.000000000000000    0.267335000000000    0.000000000000000 
P           0.000000000000000    0.754417000000000    0.000000000000000 
P           0.245583000000000    0.245583000000000    0.000000000000000 
P           0.267335000000000    0.000000000000000    0.000000000000000 
P           0.732665000000000    0.732665000000000    0.000000000000000 
P           0.754417000000000    0.000000000000000    0.000000000000000 
K           0.000000000000000    0.000000000000000    0.000000000000000 
K           0.333333000000000    0.666667000000000    0.000000000000000 
K           0.333333000000000    0.666667000000000    0.500000000000000 
K           0.666667000000000    0.333333000000000    0.000000000000000 
K           0.666667000000000    0.333333000000000    0.500000000000000 
%ENDBLOCK POSITIONS_FRAC
