# Cell file generated by matador (Matthew Evans 2016)

%BLOCK LATTICE_CART
6.77903 0.0 0.0
-3.38951 5.87081 0.0
0.0 0.0 7.36276
%ENDBLOCK LATTICE_CART

%BLOCK POSITIONS_FRAC
P           0.272595000000000    0.091687000000000    0.131153000000000 
P           0.272595000000000    0.180910000000000    0.868847000000000 
P           0.535152000000000    0.267576000000000    0.000000000000000 
P           0.732424000000000    0.267576000000000    0.333334000000000 
P           0.732424000000000    0.464848000000000    0.666667000000000 
P           0.819090000000000    0.091687000000000    0.202180000000000 
P           0.819090000000000    0.727405000000000    0.797820000000000 
P           0.908313000000000    0.180910000000000    0.464487000000000 
P           0.908313000000000    0.727405000000000    0.535513000000000 
K           0.321352000000000    0.642705000000000    0.666667000000000 
K           0.321352000000000    0.678648000000000    0.333334000000000 
K           0.357295000000000    0.678648000000000    0.000000000000000 
%ENDBLOCK POSITIONS_FRAC
