# Cell file generated by matador (Matthew Evans 2016)

%BLOCK LATTICE_CART
5.01708 0.0 0.0
0.0 9.43663 0.0
0.0 0.0 7.82493
%ENDBLOCK LATTICE_CART

%BLOCK POSITIONS_FRAC
P           0.000000000000000   -0.000000000000000    0.254835000000000 
P           0.500000000000000    0.500000000000000    0.754835000000000 
K           0.000000000000000   -0.000000000000000    0.507468000000000 
K           0.206080000000000   -0.000000000000000    0.028807000000000 
K           0.213237000000000    0.500000000000000    0.176091000000000 
K           0.286763000000000   -0.000000000000000    0.676091000000000 
K           0.293920000000000    0.500000000000000    0.528807000000000 
K           0.500000000000000    0.500000000000000    0.007468000000000 
K           0.706080000000000    0.500000000000000    0.528807000000000 
K           0.713237000000000   -0.000000000000000    0.676091000000000 
K           0.786763000000000    0.500000000000000    0.176091000000000 
K           0.793920000000000   -0.000000000000000    0.028807000000000 
%ENDBLOCK POSITIONS_FRAC
