# Cell file generated by matador (Matthew Evans 2016)

%BLOCK LATTICE_CART
9.06879 0.0 0.0
-4.53439 7.8538 0.0
0.0 0.0 6.61784
%ENDBLOCK LATTICE_CART

%BLOCK POSITIONS_FRAC
P           0.000000000000000    0.000000000000000    0.439585000000000 
P           0.333333000000000    0.666667000000000    0.106252000000000 
P           0.666667000000000    0.333333000000000    0.772919000000000 
K           0.216274000000000    0.432548000000000    0.236427000000000 
K           0.216274000000000    0.783726000000000    0.236427000000000 
K           0.234118000000000    0.117059000000000    0.569761000000000 
K           0.549608000000000    0.099215000000000    0.903094000000000 
K           0.549608000000000    0.450392000000000    0.903094000000000 
K           0.567452000000000    0.783726000000000    0.236427000000000 
K           0.882941000000000    0.117059000000000    0.569761000000000 
K           0.882941000000000    0.765882000000000    0.569761000000000 
K           0.900785000000000    0.450392000000000    0.903094000000000 
%ENDBLOCK POSITIONS_FRAC
