# Cell file generated by matador (Matthew Evans 2016)

%BLOCK LATTICE_CART
8.34372 0.0 0.0
-4.17186 7.22588 0.0
0.0 0.0 7.65057
%ENDBLOCK LATTICE_CART

%BLOCK POSITIONS_FRAC
P           0.216475000000000    0.651551000000000    0.560904000000000 
P           0.253560000000000    0.083121000000000    0.860526000000000 
P           0.348449000000000    0.564924000000000    0.894237000000000 
P           0.361444000000000    0.093415000000000    0.499818000000000 
P           0.435076000000000    0.783525000000000    0.227570000000000 
P           0.731971000000000    0.638556000000000    0.166484000000000 
P           0.829561000000000    0.746440000000000    0.527193000000000 
P           0.906585000000000    0.268029000000000    0.833151000000000 
P           0.916879000000000    0.170439000000000    0.193860000000000 
K           0.295773000000000    0.241114000000000    0.242745000000000 
K           0.525989000000000    0.419266000000000    0.518532000000000 
K           0.580734000000000    0.106723000000000    0.851865000000000 
K           0.758886000000000    0.054659000000000    0.576078000000000 
K           0.893277000000000    0.474011000000000    0.185198000000000 
K           0.945341000000000    0.704227000000000    0.909412000000000 
%ENDBLOCK POSITIONS_FRAC
