# Cell file generated by matador (Matthew Evans 2016)

%BLOCK LATTICE_CART
8.07939 0.0 0.0
-4.0397 6.99696 0.0
0.0 0.0 5.5022
%ENDBLOCK LATTICE_CART

%BLOCK POSITIONS_FRAC
P           0.413874000000000    0.328858000000000    0.600760000000000 
P           0.671142000000000    0.085016000000000    0.600760000000000 
P           0.914984000000000    0.586126000000000    0.600760000000000 
K           0.000000000000000    0.000000000000000    0.935701000000000 
K           0.333333000000000    0.666667000000000    0.633932000000000 
K           0.383919000000000    0.323130000000000    0.120829000000000 
K           0.666667000000000    0.333333000000000    0.936838000000000 
K           0.676870000000000    0.060789000000000    0.120829000000000 
K           0.939211000000000    0.616081000000000    0.120829000000000 
%ENDBLOCK POSITIONS_FRAC
