# Cell file generated by matador (Matthew Evans 2016)

%BLOCK LATTICE_CART
8.01942 0.0 0.0
0.0 5.98731 0.0
0.319576 0.0 5.20653
%ENDBLOCK LATTICE_CART

%BLOCK POSITIONS_FRAC
P           0.445251000000000    0.500000000000000    0.863310000000000 
K           0.157525000000000    0.000000000000000    0.291176000000000 
K           0.538252000000000    0.270393000000000    0.135429000000000 
K           0.538252000000000    0.729607000000000    0.135429000000000 
K           0.635910000000000    0.000000000000000    0.376559000000000 
K           0.841808000000000    0.000000000000000    0.051449000000000 
K           0.916950000000000    0.500000000000000    0.377886000000000 
%ENDBLOCK POSITIONS_FRAC
