# Cell file generated by matador (Matthew Evans 2016)

%BLOCK LATTICE_CART
9.96811 0.0 0.0
-4.98405 8.63263 0.0
0.0 0.0 5.35168
%ENDBLOCK LATTICE_CART

%BLOCK POSITIONS_FRAC
P           0.008777000000000    0.713119000000000    0.668639000000000 
P           0.017721000000000    0.554305000000000    0.031321000000000 
P           0.129680000000000    0.410694000000000    0.658399000000000 
P           0.250068000000000    0.099810000000000    0.134300000000000 
P           0.281014000000000    0.870320000000000    0.325065000000000 
P           0.286881000000000    0.295658000000000    0.001972000000000 
P           0.434604000000000    0.384355000000000    0.516108000000000 
P           0.445695000000000    0.463416000000000    0.364654000000000 
P           0.536584000000000    0.982279000000000    0.697987000000000 
P           0.589306000000000    0.718986000000000    0.991732000000000 
P           0.615645000000000    0.050248000000000    0.849441000000000 
P           0.704342000000000    0.991223000000000    0.335305000000000 
P           0.849743000000000    0.749932000000000    0.800966000000000 
P           0.900190000000000    0.150257000000000    0.467633000000000 
P           0.949752000000000    0.565396000000000    0.182775000000000 
K           0.373319000000000    0.046959000000000    0.798412000000000 
K           0.673640000000000    0.626681000000000    0.465078000000000 
K           0.953041000000000    0.326360000000000    0.131745000000000 
%ENDBLOCK POSITIONS_FRAC
