# Cell file generated by matador (Matthew Evans 2016)

%BLOCK LATTICE_CART
8.27565 0.0 0.0
-4.13782 7.16692 0.0
0.0 0.0 10.4715
%ENDBLOCK LATTICE_CART

%BLOCK POSITIONS_FRAC
P          -0.000000000000000   -0.000000000000000    0.085490000000000 
P           0.333333000000000    0.666667000000000    0.752157000000000 
P           0.666667000000000    0.333333000000000    0.418823000000000 
K          -0.000000000000000   -0.000000000000000    0.395610000000000 
K          -0.000000000000000   -0.000000000000000    0.800343000000000 
K           0.037639000000000    0.240921000000000    0.196901000000000 
K           0.092412000000000    0.463385000000000    0.863567000000000 
K           0.203282000000000    0.962361000000000    0.196901000000000 
K           0.333333000000000    0.666667000000000    0.062277000000000 
K           0.333333000000000    0.666667000000000    0.467009000000000 
K           0.370973000000000    0.907588000000000    0.863567000000000 
K           0.425745000000000    0.130051000000000    0.530234000000000 
K           0.536615000000000    0.629027000000000    0.863567000000000 
K           0.666667000000000    0.333333000000000    0.133676000000000 
K           0.666667000000000    0.333333000000000    0.728943000000000 
K           0.704306000000000    0.574255000000000    0.530234000000000 
K           0.759079000000000    0.796718000000000    0.196901000000000 
K           0.869949000000000    0.295694000000000    0.530234000000000 
%ENDBLOCK POSITIONS_FRAC
