# Cell file generated by matador (Matthew Evans 2016)

%BLOCK LATTICE_CART
6.90965 0.0 0.0
-3.45482 5.98393 0.0
0.0 0.0 5.91274
%ENDBLOCK LATTICE_CART

%BLOCK POSITIONS_FRAC
P           0.000000000000000    0.000000000000000    0.000000000000000 
P           0.000000000000000    0.000000000000000    0.500000000000000 
P           0.333333000000000    0.666667000000000    0.000000000000000 
K           0.018919000000000    0.455025000000000    0.000000000000000 
K           0.361965000000000    0.231724000000000    0.000000000000000 
K           0.436106000000000    0.981081000000000    0.000000000000000 
K           0.544975000000000    0.563894000000000    0.000000000000000 
K           0.768276000000000    0.130241000000000    0.000000000000000 
K           0.869759000000000    0.638035000000000    0.000000000000000 
%ENDBLOCK POSITIONS_FRAC
