# Cell file generated by matador (Matthew Evans 2016)

%BLOCK LATTICE_CART
7.00579 0.0 0.0
0.0 4.5881 0.0
0.0 0.0 5.02725
%ENDBLOCK LATTICE_CART

%BLOCK POSITIONS_FRAC
P           0.000000000000000    0.000000000000000    0.000000000000000 
K           0.500000000000000    0.000000000000000    0.000000000000000 
K           0.500000000000000    0.000000000000000    0.500000000000000 
K           0.500000000000000    0.500000000000000    0.000000000000000 
%ENDBLOCK POSITIONS_FRAC
