# Cell file generated by matador (Matthew Evans 2016)

%BLOCK LATTICE_CART
7.87913 0.0 0.0
-3.93957 6.82353 0.0
0.0 0.0 8.69366
%ENDBLOCK LATTICE_CART

%BLOCK POSITIONS_FRAC
P           0.000000000000000    0.000000000000000    0.022925000000000 
P           0.000000000000000    0.000000000000000    0.518127000000000 
P           0.333333000000000    0.666667000000000    0.184794000000000 
P           0.333333000000000    0.666667000000000    0.689591000000000 
P           0.666667000000000    0.333333000000000    0.356258000000000 
P           0.666667000000000    0.333333000000000    0.851461000000000 
K           0.007815000000000    0.503908000000000    0.110202000000000 
K           0.162759000000000    0.325518000000000    0.443535000000000 
K           0.162759000000000    0.837241000000000    0.443535000000000 
K           0.341149000000000    0.170574000000000    0.776868000000000 
K           0.496092000000000    0.503908000000000    0.110202000000000 
K           0.496092000000000    0.992185000000000    0.110202000000000 
K           0.674482000000000    0.837241000000000    0.443535000000000 
K           0.829426000000000    0.170574000000000    0.776868000000000 
K           0.829426000000000    0.658851000000000    0.776868000000000 
%ENDBLOCK POSITIONS_FRAC
