# Cell file generated by matador (Matthew Evans 2016)

%BLOCK LATTICE_CART
10.6629 0.0 0.0
-5.33147 9.23438 0.0
0.0 0.0 9.10701
%ENDBLOCK LATTICE_CART

%BLOCK POSITIONS_FRAC
P           0.000000000000000    0.000000000000000    0.166009000000000 
P           0.000000000000000    0.000000000000000    0.833991000000000 
P           0.333333000000000    0.666667000000000    0.500658000000000 
P           0.333333000000000    0.666667000000000    0.832675000000000 
P           0.666667000000000    0.333333000000000    0.167325000000000 
P           0.666667000000000    0.333333000000000    0.499342000000000 
K           0.000000000000000    0.495110000000000    0.500000000000000 
K           0.000000000000000    0.540334000000000   -0.000000000000000 
K           0.126333000000000    0.792999000000000    0.333333000000000 
K           0.161777000000000    0.333333000000000    0.833333000000000 
K           0.171556000000000    0.838223000000000    0.833333000000000 
K           0.207001000000000    0.333333000000000    0.333333000000000 
K           0.333333000000000    0.161777000000000    0.166667000000000 
K           0.333333000000000    0.207001000000000    0.666667000000000 
K           0.459666000000000    0.459666000000000   -0.000000000000000 
K           0.495110000000000    0.000000000000000    0.500000000000000 
K           0.504890000000000    0.504890000000000    0.500000000000000 
K           0.540334000000000    0.000000000000000   -0.000000000000000 
K           0.666667000000000    0.828444000000000    0.833333000000000 
K           0.666667000000000    0.873667000000000    0.333333000000000 
K           0.792999000000000    0.126333000000000    0.666667000000000 
K           0.828444000000000    0.666667000000000    0.166667000000000 
K           0.838223000000000    0.171556000000000    0.166667000000000 
K           0.873667000000000    0.666667000000000    0.666667000000000 
%ENDBLOCK POSITIONS_FRAC
