# Cell file generated by matador (Matthew Evans 2016)

%BLOCK LATTICE_CART
9.26061 0.0 0.0
0.0 9.26061 0.0
0.0 0.0 10.7727
%ENDBLOCK LATTICE_CART

%BLOCK POSITIONS_FRAC
P           0.000000000000000    0.000000000000000    0.585393000000000 
P           0.000000000000000    0.500000000000000    0.071303000000000 
P           0.000000000000000    0.500000000000000    0.484143000000000 
P           0.500000000000000    0.000000000000000    0.071303000000000 
P           0.500000000000000    0.000000000000000    0.484143000000000 
P           0.500000000000000    0.500000000000000    0.585393000000000 
K           0.000000000000000    0.000000000000000    0.775159000000000 
K           0.125078000000000    0.625078000000000    0.674132000000000 
K           0.191031000000000    0.691031000000000    0.150347000000000 
K           0.191644000000000    0.308356000000000    0.923616000000000 
K           0.233719000000000    0.733719000000000    0.424999000000000 
K           0.266281000000000    0.233719000000000    0.424999000000000 
K           0.308356000000000    0.808356000000000    0.923616000000000 
K           0.308969000000000    0.191031000000000    0.150347000000000 
K           0.374922000000000    0.125078000000000    0.674132000000000 
K           0.500000000000000    0.500000000000000    0.775159000000000 
K           0.625078000000000    0.874922000000000    0.674132000000000 
K           0.691031000000000    0.808969000000000    0.150347000000000 
K           0.691644000000000    0.191644000000000    0.923616000000000 
K           0.733719000000000    0.766281000000000    0.424999000000000 
K           0.766281000000000    0.266281000000000    0.424999000000000 
K           0.808356000000000    0.691644000000000    0.923616000000000 
K           0.808969000000000    0.308969000000000    0.150347000000000 
K           0.874922000000000    0.374922000000000    0.674132000000000 
%ENDBLOCK POSITIONS_FRAC
