# Cell file generated by matador (Matthew Evans 2016)

%BLOCK LATTICE_CART
9.46077 0.0 0.0
0.0 9.46077 0.0
0.0 0.0 11.1796
%ENDBLOCK LATTICE_CART

%BLOCK POSITIONS_FRAC
P           0.000000000000000    0.000000000000000    0.000000000000000 
P           0.000000000000000    0.000000000000000    0.500000000000000 
P           0.000000000000000    0.500000000000000    0.250000000000000 
P           0.500000000000000    0.000000000000000    0.750000000000000 
P           0.500000000000000    0.500000000000000    0.000000000000000 
P           0.500000000000000    0.500000000000000    0.500000000000000 
K           0.000000000000000    0.215388000000000    0.252179000000000 
K           0.000000000000000    0.294165000000000    0.545867000000000 
K           0.000000000000000    0.500000000000000    0.750000000000000 
K           0.000000000000000    0.705835000000000    0.545867000000000 
K           0.000000000000000    0.784612000000000    0.252179000000000 
K           0.205835000000000    0.500000000000000    0.954133000000000 
K           0.215388000000000    0.000000000000000    0.747821000000000 
K           0.284612000000000    0.500000000000000    0.247821000000000 
K           0.294165000000000    0.000000000000000    0.454133000000000 
K           0.500000000000000    0.000000000000000    0.250000000000000 
K           0.500000000000000    0.205835000000000    0.045867000000000 
K           0.500000000000000    0.284612000000000    0.752179000000000 
K           0.500000000000000    0.715388000000000    0.752179000000000 
K           0.500000000000000    0.794165000000000    0.045867000000000 
K           0.705835000000000    0.000000000000000    0.454133000000000 
K           0.715388000000000    0.500000000000000    0.247821000000000 
K           0.784612000000000    0.000000000000000    0.747821000000000 
K           0.794165000000000    0.500000000000000    0.954133000000000 
%ENDBLOCK POSITIONS_FRAC
