# Cell file generated by matador (Matthew Evans 2016)

%BLOCK LATTICE_CART
7.71127 0.0 0.0
-3.85563 6.67815 0.0
0.0 0.0 6.46106
%ENDBLOCK LATTICE_CART

%BLOCK POSITIONS_FRAC
P           0.333333000000000    0.666667000000000    0.000000000000000 
P           0.666666000000000    0.333334000000000    0.500000000000000 
K          -0.000000000000000    0.000000000000000    0.000000000000000 
K          -0.000000000000000    0.000000000000000    0.500000000000000 
K           0.333333000000000    0.666667000000000    0.500000000000000 
K           0.514822000000000    0.463990000000000    0.000000000000000 
K           0.536010000000000    0.050832000000000    0.000000000000000 
K           0.949168000000000    0.485178000000000    0.000000000000000 
%ENDBLOCK POSITIONS_FRAC
