# Cell file generated by matador (Matthew Evans 2016)

%BLOCK LATTICE_CART
4.12332 0.0 0.0
0.0 4.12332 0.0
0.0 0.0 4.06668
%ENDBLOCK LATTICE_CART

%BLOCK POSITIONS_FRAC
P           0.500000000000000    0.500000000000000    0.500000000000000 
K           0.500000000000000    0.500000000000000    0.000000000000000 
%ENDBLOCK POSITIONS_FRAC
