# Cell file generated by matador (Matthew Evans 2016)

%BLOCK LATTICE_CART
8.24329 0.0 0.0
-4.12165 7.1389 0.0
0.0 0.0 8.949
%ENDBLOCK LATTICE_CART

%BLOCK POSITIONS_FRAC
P           0.000000000000000    0.000000000000000    0.119009000000000 
P           0.000000000000000    0.000000000000000    0.380991000000000 
P           0.000000000000000    0.000000000000000    0.619009000000000 
P           0.000000000000000    0.000000000000000    0.880991000000000 
P           0.000000000000000    0.500000000000000    0.000000000000000 
P           0.000000000000000    0.500000000000000    0.500000000000000 
P           0.500000000000000    0.000000000000000    0.000000000000000 
P           0.500000000000000    0.000000000000000    0.500000000000000 
P           0.500000000000000    0.500000000000000    0.000000000000000 
P           0.500000000000000    0.500000000000000    0.500000000000000 
K           0.000000000000000    0.322304000000000    0.250000000000000 
K           0.000000000000000    0.677696000000000    0.750000000000000 
K           0.322304000000000    0.000000000000000    0.250000000000000 
K           0.322304000000000    0.322304000000000    0.750000000000000 
K           0.677696000000000    0.000000000000000    0.750000000000000 
K           0.677696000000000    0.677696000000000    0.250000000000000 
%ENDBLOCK POSITIONS_FRAC
