# Cell file generated by matador (Matthew Evans 2016)

%BLOCK LATTICE_CART
9.86563 0.0 0.0
0.0 9.86563 0.0
0.0 0.0 4.56555
%ENDBLOCK LATTICE_CART

%BLOCK POSITIONS_FRAC
P           0.000000000000000    0.000000000000000    0.000000000000000 
P           0.163851000000000    0.163851000000000    0.222602000000000 
P           0.163851000000000    0.163851000000000    0.777398000000000 
P           0.336149000000000    0.663851000000000    0.277398000000000 
P           0.336149000000000    0.663851000000000    0.722602000000000 
P           0.500000000000000    0.500000000000000    0.500000000000000 
P           0.663851000000000    0.336149000000000    0.277398000000000 
P           0.663851000000000    0.336149000000000    0.722602000000000 
P           0.836149000000000    0.836149000000000    0.222602000000000 
P           0.836149000000000    0.836149000000000    0.777398000000000 
K           0.000000000000000    0.000000000000000    0.500000000000000 
K           0.000000000000000    0.500000000000000    0.000000000000000 
K           0.000000000000000    0.500000000000000    0.500000000000000 
K           0.500000000000000    0.000000000000000    0.000000000000000 
K           0.500000000000000    0.000000000000000    0.500000000000000 
K           0.500000000000000    0.500000000000000    0.000000000000000 
%ENDBLOCK POSITIONS_FRAC
