# Cell file generated by matador (Matthew Evans 2016)

%BLOCK LATTICE_CART
6.97867 0.0 0.0
-3.48934 6.04371 0.0
0.0 0.0 8.1768
%ENDBLOCK LATTICE_CART

%BLOCK POSITIONS_FRAC
P           0.000000000000000    0.713412000000000    0.500000000000000 
P           0.286588000000000    0.286588000000000    0.500000000000000 
P           0.333333000000000    0.666667000000000    0.318378000000000 
P           0.333333000000000    0.666667000000000    0.681340000000000 
P           0.666667000000000    0.333333000000000    0.318660000000000 
P           0.666667000000000    0.333333000000000    0.681622000000000 
P           0.713412000000000    0.000000000000000    0.500000000000000 
K           0.000000000000000    0.000000000000000    0.000000000000000 
K           0.000000000000000    0.000000000000000    0.500000000000000 
K           0.000000000000000    0.528698000000000    0.000000000000000 
K           0.471302000000000    0.471302000000000    0.000000000000000 
K           0.528698000000000    0.000000000000000    0.000000000000000 
%ENDBLOCK POSITIONS_FRAC
