# Cell file generated by matador (Matthew Evans 2016)

%BLOCK LATTICE_CART
9.53833 0.0 0.0
0.0 6.21283 0.0
0.0 0.0 9.23902
%ENDBLOCK LATTICE_CART

%BLOCK POSITIONS_FRAC
P           0.250000000000000    0.000000000000000    0.006241000000000 
P           0.250000000000000    0.500000000000000    0.695363000000000 
P           0.750000000000000    0.000000000000000    0.993759000000000 
P           0.750000000000000    0.500000000000000    0.304637000000000 
K           0.000000000000000    0.000000000000000    0.000000000000000 
K           0.000000000000000    0.000000000000000    0.500000000000000 
K           0.000000000000000    0.500000000000000    0.000000000000000 
K           0.000000000000000    0.500000000000000    0.500000000000000 
K           0.250000000000000    0.000000000000000    0.444738000000000 
K           0.250000000000000    0.178568000000000    0.663341000000000 
K           0.250000000000000    0.500000000000000    0.236907000000000 
K           0.250000000000000    0.821432000000000    0.663341000000000 
K           0.500000000000000    0.000000000000000    0.000000000000000 
K           0.500000000000000    0.000000000000000    0.500000000000000 
K           0.500000000000000    0.500000000000000    0.000000000000000 
K           0.500000000000000    0.500000000000000    0.500000000000000 
K           0.750000000000000    0.000000000000000    0.555262000000000 
K           0.750000000000000    0.178568000000000    0.336659000000000 
K           0.750000000000000    0.500000000000000    0.763093000000000 
K           0.750000000000000    0.821432000000000    0.336659000000000 
%ENDBLOCK POSITIONS_FRAC
