# Cell file generated by matador (Matthew Evans 2016)

%BLOCK LATTICE_CART
8.13912 0.0 0.0
0.0 8.04614 0.0
-1.65832 0.0 6.67006
%ENDBLOCK LATTICE_CART

%BLOCK POSITIONS_FRAC
P           0.000000000000000    0.278253000000000    0.500000000000000 
P           0.000000000000000    0.467375000000000    0.000000000000000 
P           0.000000000000000    0.771744000000000    0.000000000000000 
P           0.077524000000000    0.707593000000000    0.135572000000000 
P           0.332865000000000    0.786835000000000    0.537058000000000 
P           0.392864000000000    0.256618000000000    0.295376000000000 
P           0.441387000000000    0.552895000000000    0.922500000000000 
P           0.500000000000000    0.066563000000000    0.000000000000000 
P           0.500000000000000    0.434785000000000    0.500000000000000 
P           0.500000000000000    0.723226000000000    0.000000000000000 
P           0.558613000000000    0.552895000000000    0.077500000000000 
P           0.607136000000000    0.256618000000000    0.704624000000000 
P           0.667135000000000    0.786835000000000    0.462942000000000 
P           0.922476000000000    0.707593000000000    0.864428000000000 
K           0.084145000000000    0.147713000000000    0.760210000000000 
K           0.156593000000000    0.157106000000000    0.184621000000000 
K           0.843407000000000    0.157106000000000    0.815379000000000 
K           0.915855000000000    0.147713000000000    0.239790000000000 
%ENDBLOCK POSITIONS_FRAC
