# Cell file generated by matador (Matthew Evans 2016)

%BLOCK LATTICE_CART
6.77191 0.0 0.0
0.0 4.88591 0.0
0.0 0.0 11.2084
%ENDBLOCK LATTICE_CART

%BLOCK POSITIONS_FRAC
P           0.258645000000000    0.500000000000000    0.500000000000000 
P           0.741355000000000    0.500000000000000    0.000000000000000 
K           0.000000000000000    0.296793000000000    0.750000000000000 
K           0.000000000000000    0.703207000000000    0.250000000000000 
K           0.211363000000000    0.000000000000000    0.500000000000000 
K           0.446038000000000    0.245074000000000    0.848498000000000 
K           0.446038000000000    0.754926000000000    0.151502000000000 
K           0.553962000000000    0.245074000000000    0.651502000000000 
K           0.553962000000000    0.754926000000000    0.348498000000000 
K           0.788637000000000    0.000000000000000    0.000000000000000 
%ENDBLOCK POSITIONS_FRAC
