# Cell file generated by matador (Matthew Evans 2016)

%BLOCK LATTICE_CART
7.57083 0.0 0.0
0.0 8.48695 0.0
0.0 0.0 8.0327
%ENDBLOCK LATTICE_CART

%BLOCK POSITIONS_FRAC
P           0.000000000000000    0.000000000000000    0.836252000000000 
P           0.000000000000000    0.500000000000000    0.336252000000000 
P           0.429096000000000    0.115851000000000    0.102559000000000 
P           0.429096000000000    0.384149000000000    0.602559000000000 
P           0.429096000000000    0.615851000000000    0.602559000000000 
P           0.429096000000000    0.884149000000000    0.102559000000000 
P           0.570904000000000    0.115851000000000    0.102559000000000 
P           0.570904000000000    0.384149000000000    0.602559000000000 
P           0.570904000000000    0.615851000000000    0.602559000000000 
P           0.570904000000000    0.884149000000000    0.102559000000000 
K           0.319776000000000    0.000000000000000    0.416544000000000 
K           0.319776000000000    0.500000000000000    0.916544000000000 
K           0.680224000000000    0.000000000000000    0.416544000000000 
K           0.680224000000000    0.500000000000000    0.916544000000000 
%ENDBLOCK POSITIONS_FRAC
