# Cell file generated by matador (Matthew Evans 2016)

%BLOCK LATTICE_CART
6.79135 0.0 0.0
-3.39567 5.88148 0.0
0.0 0.0 7.64394
%ENDBLOCK LATTICE_CART

%BLOCK POSITIONS_FRAC
P           0.000000000000000    0.500000000000000    0.166667000000000 
P           0.247489000000000    0.494977000000000    0.500000000000000 
P           0.247489000000000    0.752511000000000    0.833334000000000 
P           0.494977000000000    0.247489000000000    0.166667000000000 
P           0.500000000000000    0.000000000000000    0.500000000000000 
P           0.500000000000000    0.500000000000000    0.833334000000000 
P           0.505023000000000    0.752511000000000    0.166667000000000 
P           0.752511000000000    0.247489000000000    0.833334000000000 
P           0.752511000000000    0.505023000000000    0.500000000000000 
K           0.000000000000000    0.500000000000000    0.666667000000000 
K           0.500000000000000    0.000000000000000    0.000000000000000 
K           0.500000000000000    0.500000000000000    0.333333000000000 
%ENDBLOCK POSITIONS_FRAC
