# Cell file generated by matador (Matthew Evans 2016)

%BLOCK LATTICE_CART
6.21856 0.0 0.0
0.0 6.21856 0.0
0.0 0.0 5.92599
%ENDBLOCK LATTICE_CART

%BLOCK POSITIONS_FRAC
P           0.232938000000000    0.767062000000000    0.000000000000000 
P           0.267062000000000    0.267062000000000    0.000000000000000 
P           0.732938000000000    0.732938000000000    0.000000000000000 
P           0.767062000000000    0.232938000000000    0.000000000000000 
K           0.000000000000000    0.000000000000000    0.000000000000000 
K           0.000000000000000    0.000000000000000    0.500000000000000 
K           0.500000000000000    0.500000000000000    0.000000000000000 
K           0.500000000000000    0.500000000000000    0.500000000000000 
%ENDBLOCK POSITIONS_FRAC
