# Cell file generated by matador (Matthew Evans 2016)

%BLOCK LATTICE_CART
11.2633 0.0 0.0
-5.63166 9.75433 0.0
0.0 0.0 5.43794
%ENDBLOCK LATTICE_CART

%BLOCK POSITIONS_FRAC
P           0.185771000000000    0.627912000000000    0.139888000000000 
P           0.372088000000000    0.557859000000000    0.139888000000000 
P           0.442141000000000    0.814229000000000    0.139888000000000 
P           0.557859000000000    0.185771000000000    0.860112000000000 
P           0.627912000000000    0.442141000000000    0.860112000000000 
P           0.814229000000000    0.372088000000000    0.860112000000000 
K           0.000000000000000    0.000000000000000    0.500000000000000 
K           0.000000000000000    0.500000000000000    0.000000000000000 
K           0.020549000000000    0.433815000000000    0.375487000000000 
K           0.413266000000000    0.979451000000000    0.375487000000000 
K           0.433815000000000    0.413266000000000    0.624513000000000 
K           0.500000000000000    0.000000000000000    0.000000000000000 
K           0.500000000000000    0.500000000000000    0.000000000000000 
K           0.566185000000000    0.586734000000000    0.375487000000000 
K           0.586734000000000    0.020549000000000    0.624513000000000 
K           0.979451000000000    0.566185000000000    0.624513000000000 
%ENDBLOCK POSITIONS_FRAC
