# Cell file generated by matador (Matthew Evans 2016)

%BLOCK LATTICE_CART
7.41098 0.0 0.0
-3.70549 6.4181 0.0
0.0 0.0 12.4991
%ENDBLOCK LATTICE_CART

%BLOCK POSITIONS_FRAC
P           0.218748000000000    0.437497000000000    0.500000000000000 
P           0.218748000000000    0.781252000000000    0.500000000000000 
P           0.333333000000000    0.666667000000000    0.000000000000000 
P           0.333333000000000    0.666667000000000    0.431165000000000 
P           0.333333000000000    0.666667000000000    0.568835000000000 
P           0.437497000000000    0.218748000000000    0.500000000000000 
P           0.562503000000000    0.781252000000000    0.500000000000000 
P           0.666667000000000    0.333333000000000    0.000000000000000 
P           0.666667000000000    0.333333000000000    0.431165000000000 
P           0.666667000000000    0.333333000000000    0.568835000000000 
P           0.781252000000000    0.218748000000000    0.500000000000000 
P           0.781252000000000    0.562503000000000    0.500000000000000 
K          -0.000000000000000    0.500000000000000    0.000000000000000 
K           0.500000000000000   -0.000000000000000    0.000000000000000 
K           0.500000000000000    0.500000000000000    0.000000000000000 
%ENDBLOCK POSITIONS_FRAC
