# Cell file generated by matador (Matthew Evans 2016)

%BLOCK LATTICE_CART
6.23083 0.0 0.0
-3.11541 5.39606 0.0
0.0 0.0 12.7277
%ENDBLOCK LATTICE_CART

%BLOCK POSITIONS_FRAC
P           0.000000000000000    0.000000000000000    0.248324000000000 
P           0.000000000000000    0.000000000000000    0.751676000000000 
P           0.333333000000000    0.666667000000000    0.418343000000000 
P           0.333333000000000    0.666667000000000    0.914990000000000 
P           0.666667000000000    0.333333000000000    0.085010000000000 
P           0.666667000000000    0.333333000000000    0.581657000000000 
K           0.000000000000000    0.000000000000000   -0.000000000000000 
K           0.000000000000000    0.000000000000000    0.500000000000000 
K           0.333333000000000    0.666667000000000    0.166667000000000 
K           0.333333000000000    0.666667000000000    0.666667000000000 
K           0.666667000000000    0.333333000000000    0.333333000000000 
K           0.666667000000000    0.333333000000000    0.833333000000000 
%ENDBLOCK POSITIONS_FRAC
