# Cell file generated by matador (Matthew Evans 2016)

%BLOCK LATTICE_CART
9.40357 0.0 0.0
-4.70179 8.14373 0.0
0.0 0.0 9.53293
%ENDBLOCK LATTICE_CART

%BLOCK POSITIONS_FRAC
P           0.000000000000000    0.000000000000000    0.301137000000000 
P           0.000000000000000    0.000000000000000    0.863195000000000 
P           0.333333000000000    0.666667000000000    0.173480000000000 
P           0.666667000000000    0.333333000000000    0.281621000000000 
P           0.666667000000000    0.333333000000000    0.608430000000000 
K           0.060039000000000    0.530019000000000    0.249407000000000 
K           0.141543000000000    0.283086000000000    0.060253000000000 
K           0.141543000000000    0.858457000000000    0.060253000000000 
K           0.167495000000000    0.334990000000000    0.583382000000000 
K           0.167495000000000    0.832505000000000    0.583382000000000 
K           0.396901000000000    0.198450000000000    0.447428000000000 
K           0.402385000000000    0.201192000000000    0.920961000000000 
K           0.469981000000000    0.530019000000000    0.249407000000000 
K           0.469981000000000    0.939961000000000    0.249407000000000 
K           0.665010000000000    0.832505000000000    0.583382000000000 
K           0.716914000000000    0.858457000000000    0.060253000000000 
K           0.798808000000000    0.201192000000000    0.920961000000000 
K           0.798808000000000    0.597615000000000    0.920961000000000 
K           0.801550000000000    0.198450000000000    0.447428000000000 
K           0.801550000000000    0.603099000000000    0.447428000000000 
%ENDBLOCK POSITIONS_FRAC
