# Cell file generated by matador (Matthew Evans 2016)

%BLOCK LATTICE_CART
8.40153 0.0 0.0
-4.20076 7.27594 0.0
0.0 0.0 7.67087
%ENDBLOCK LATTICE_CART

%BLOCK POSITIONS_FRAC
P           0.000000000000000    0.000000000000000    0.105469000000000 
P           0.333333000000000    0.666667000000000    0.772135000000000 
P           0.666667000000000    0.333333000000000    0.438802000000000 
K           0.209985000000000    0.419970000000000    0.968931000000000 
K           0.209985000000000    0.790015000000000    0.968931000000000 
K           0.246696000000000    0.123348000000000    0.302265000000000 
K           0.543318000000000    0.086637000000000    0.635598000000000 
K           0.543318000000000    0.456682000000000    0.635598000000000 
K           0.580030000000000    0.790015000000000    0.968931000000000 
K           0.876652000000000    0.123348000000000    0.302265000000000 
K           0.876652000000000    0.753304000000000    0.302265000000000 
K           0.913363000000000    0.456682000000000    0.635598000000000 
%ENDBLOCK POSITIONS_FRAC
