# Cell file generated by matador (Matthew Evans 2016)

%BLOCK LATTICE_CART
8.16202 0.0 0.0
0.0 8.16202 0.0
0.0 0.0 9.0863
%ENDBLOCK LATTICE_CART

%BLOCK POSITIONS_FRAC
P           0.000000000000000    0.500000000000000    0.194187000000000 
P           0.000000000000000    0.500000000000000    0.805813000000000 
P           0.500000000000000    0.000000000000000    0.194187000000000 
P           0.500000000000000    0.000000000000000    0.805813000000000 
K           0.000000000000000    0.000000000000000    0.500000000000000 
K           0.000000000000000    0.500000000000000    0.500000000000000 
K           0.207993000000000    0.707993000000000    0.264601000000000 
K           0.207993000000000    0.707993000000000    0.735399000000000 
K           0.292007000000000    0.207993000000000    0.264601000000000 
K           0.292007000000000    0.207993000000000    0.735399000000000 
K           0.500000000000000    0.000000000000000    0.500000000000000 
K           0.500000000000000    0.500000000000000    0.500000000000000 
K           0.707993000000000    0.792007000000000    0.264601000000000 
K           0.707993000000000    0.792007000000000    0.735399000000000 
K           0.792007000000000    0.292007000000000    0.264601000000000 
K           0.792007000000000    0.292007000000000    0.735399000000000 
%ENDBLOCK POSITIONS_FRAC
