# Cell file generated by matador (Matthew Evans 2016)

%BLOCK LATTICE_CART
8.10679 0.0 0.0
-4.0534 7.02069 0.0
0.0 0.0 7.45996
%ENDBLOCK LATTICE_CART

%BLOCK POSITIONS_FRAC
P           0.324898000000000    0.001508000000000    0.134250000000000 
P           0.457291000000000    0.054801000000000    0.961823000000000 
P           0.489130000000000    0.021172000000000    0.127887000000000 
P           0.532042000000000    0.510870000000000    0.794554000000000 
P           0.597511000000000    0.542709000000000    0.628490000000000 
P           0.608870000000000    0.343485000000000    0.950033000000000 
P           0.656515000000000    0.265385000000000    0.283367000000000 
P           0.676610000000000    0.675102000000000    0.800917000000000 
P           0.734615000000000    0.391130000000000    0.616700000000000 
P           0.945199000000000    0.402489000000000    0.295156000000000 
P           0.978828000000000    0.467958000000000    0.461221000000000 
P           0.998492000000000    0.323390000000000    0.467583000000000 
K           0.108007000000000    0.292146000000000    0.814736000000000 
K           0.184139000000000    0.891993000000000    0.481402000000000 
K           0.707854000000000    0.815861000000000    0.148069000000000 
%ENDBLOCK POSITIONS_FRAC
