# Cell file generated by matador (Matthew Evans 2016)

%BLOCK LATTICE_CART
5.55551 0.0 0.0
-2.77775 4.81121 0.0
0.0 0.0 8.93634
%ENDBLOCK LATTICE_CART

%BLOCK POSITIONS_FRAC
P           0.192265000000000    0.584447000000000    0.847717000000000 
P           0.392181000000000    0.807735000000000    0.847717000000000 
P           0.415553000000000    0.607819000000000    0.847717000000000 
K           0.162764000000000    0.359190000000000    0.389950000000000 
K           0.196424000000000    0.837236000000000    0.389950000000000 
K           0.640810000000000    0.803576000000000    0.389950000000000 
K           0.666666000000000    0.333334000000000    0.013486000000000 
%ENDBLOCK POSITIONS_FRAC
