# Cell file generated by matador (Matthew Evans 2016)

%BLOCK LATTICE_CART
12.3955 0.0 0.0
0.0 6.83745 0.0
0.0 0.0 6.40096
%ENDBLOCK LATTICE_CART

%BLOCK POSITIONS_FRAC
P           0.000000000000000    0.048911000000000    0.172494000000000 
P           0.000000000000000    0.230423000000000    0.967608000000000 
P           0.000000000000000    0.769577000000000    0.467608000000000 
P           0.000000000000000    0.951089000000000    0.672494000000000 
P           0.500000000000000    0.104132000000000    0.653203000000000 
P           0.500000000000000    0.316802000000000    0.807446000000000 
P           0.500000000000000    0.409151000000000    0.328727000000000 
P           0.500000000000000    0.590849000000000    0.828727000000000 
P           0.500000000000000    0.683198000000000    0.307446000000000 
P           0.500000000000000    0.895868000000000    0.153203000000000 
K           0.124476000000000    0.273186000000000    0.483965000000000 
K           0.124476000000000    0.726814000000000    0.983965000000000 
K           0.875524000000000    0.273186000000000    0.483965000000000 
K           0.875524000000000    0.726814000000000    0.983965000000000 
%ENDBLOCK POSITIONS_FRAC
