# Cell file generated by matador (Matthew Evans 2016)

%BLOCK LATTICE_CART
7.46567 0.0 0.0
-3.73284 6.46546 0.0
0.0 0.0 6.88173
%ENDBLOCK LATTICE_CART

%BLOCK POSITIONS_FRAC
P          -0.000000000000000    0.000000000000000    0.155348000000000 
P          -0.000000000000000    0.000000000000000    0.430854000000000 
P          -0.000000000000000    0.000000000000000    0.751280000000000 
P           0.421883000000000    0.065485000000000    0.975801000000000 
P           0.643602000000000    0.578117000000000    0.975801000000000 
P           0.666666000000000    0.333334000000000    0.474842000000000 
P           0.934515000000000    0.356398000000000    0.975801000000000 
K           0.134828000000000    0.753375000000000    0.879368000000000 
K           0.246625000000000    0.381454000000000    0.879368000000000 
K           0.618546000000000    0.865172000000000    0.879368000000000 
K           0.666666000000000    0.333334000000000    0.792234000000000 
%ENDBLOCK POSITIONS_FRAC
