# Cell file generated by matador (Matthew Evans 2016)

%BLOCK LATTICE_CART
11.6206 0.0 0.0
0.0 4.89416 0.0
-3.07048 0.0 6.06043
%ENDBLOCK LATTICE_CART

%BLOCK POSITIONS_FRAC
P           0.175362000000000    0.198255000000000    0.077490000000000 
P           0.175362000000000    0.801745000000000    0.077490000000000 
P           0.282997000000000    0.283538000000000    0.744956000000000 
P           0.282997000000000    0.716462000000000    0.744956000000000 
P           0.338873000000000    0.140372000000000    0.921370000000000 
P           0.338873000000000    0.859628000000000    0.921370000000000 
P           0.367345000000000    0.500000000000000    0.512803000000000 
P           0.392778000000000    0.000000000000000    0.364022000000000 
P           0.618764000000000    0.189045000000000    0.849096000000000 
P           0.618764000000000    0.810955000000000    0.849096000000000 
P           0.699068000000000    0.349389000000000    0.419249000000000 
P           0.699068000000000    0.650611000000000    0.419249000000000 
P           0.958615000000000    0.294730000000000    0.123495000000000 
P           0.958615000000000    0.705270000000000    0.123495000000000 
K           0.724667000000000    0.500000000000000    0.736476000000000 
K           0.996182000000000    0.000000000000000    0.772460000000000 
%ENDBLOCK POSITIONS_FRAC
