# Cell file generated by matador (Matthew Evans 2016)

%BLOCK LATTICE_CART
11.3983 0.0 0.0
-5.69914 9.87119 0.0
0.0 0.0 8.78586
%ENDBLOCK LATTICE_CART

%BLOCK POSITIONS_FRAC
P           0.000000000000000    0.000000000000000    0.500000000000000 
P           0.333333000000000    0.666667000000000    0.000000000000000 
P           0.538426000000000    0.076852000000000    0.500000000000000 
P           0.538426000000000    0.461574000000000    0.500000000000000 
P           0.666667000000000    0.333333000000000    0.500000000000000 
P           0.923148000000000    0.461574000000000    0.500000000000000 
K           0.114852000000000    0.229703000000000    0.288669000000000 
K           0.114852000000000    0.229703000000000    0.711331000000000 
K           0.114852000000000    0.885148000000000    0.288669000000000 
K           0.114852000000000    0.885148000000000    0.711331000000000 
K           0.118164000000000    0.559082000000000    0.295099000000000 
K           0.118164000000000    0.559082000000000    0.704901000000000 
K           0.440918000000000    0.559082000000000    0.295099000000000 
K           0.440918000000000    0.559082000000000    0.704901000000000 
K           0.440918000000000    0.881836000000000    0.295099000000000 
K           0.440918000000000    0.881836000000000    0.704901000000000 
K           0.579659000000000    0.159317000000000    0.179567000000000 
K           0.579659000000000    0.159317000000000    0.820433000000000 
K           0.579659000000000    0.420341000000000    0.179567000000000 
K           0.579659000000000    0.420341000000000    0.820433000000000 
K           0.770297000000000    0.885148000000000    0.288669000000000 
K           0.770297000000000    0.885148000000000    0.711331000000000 
K           0.840683000000000    0.420341000000000    0.179567000000000 
K           0.840683000000000    0.420341000000000    0.820433000000000 
%ENDBLOCK POSITIONS_FRAC
