# Cell file generated by matador (Matthew Evans 2016)

%BLOCK LATTICE_CART
9.02293 0.0 0.0
-4.51147 7.81409 0.0
0.0 0.0 6.36663
%ENDBLOCK LATTICE_CART

%BLOCK POSITIONS_FRAC
P          -0.000000000000000    0.000000000000000    0.277753000000000 
P          -0.000000000000000    0.000000000000000    0.567787000000000 
P           0.094271000000000    0.191255000000000    0.384087000000000 
P           0.096984000000000    0.905729000000000    0.384087000000000 
P           0.191255000000000    0.094271000000000    0.384087000000000 
P           0.333333000000000    0.666667000000000    0.179687000000000 
P           0.666666000000000    0.333334000000000    0.179687000000000 
P           0.808745000000000    0.903016000000000    0.384087000000000 
P           0.903016000000000    0.808745000000000    0.384087000000000 
P           0.905729000000000    0.096984000000000    0.384087000000000 
K           0.333333000000000    0.666667000000000    0.777913000000000 
K           0.666666000000000    0.333334000000000    0.777913000000000 
%ENDBLOCK POSITIONS_FRAC
