# Cell file generated by matador (Matthew Evans 2016)

%BLOCK LATTICE_CART
7.57599 0.0 0.0
-3.78799 6.561 0.0
0.0 0.0 9.20961
%ENDBLOCK LATTICE_CART

%BLOCK POSITIONS_FRAC
P           0.000000000000000    0.000000000000000    0.216946000000000 
P           0.000000000000000    0.000000000000000    0.783054000000000 
P           0.000000000000000    0.734972000000000    0.000000000000000 
P           0.265028000000000    0.265028000000000    0.000000000000000 
P           0.734972000000000    0.000000000000000    0.000000000000000 
K           0.000000000000000    0.000000000000000    0.000000000000000 
K           0.000000000000000    0.000000000000000    0.500000000000000 
K           0.000000000000000    0.735975000000000    0.500000000000000 
K           0.264025000000000    0.264025000000000    0.500000000000000 
K           0.333333000000000    0.666667000000000    0.756009000000000 
K           0.666667000000000    0.333333000000000    0.243991000000000 
K           0.735975000000000    0.000000000000000    0.500000000000000 
%ENDBLOCK POSITIONS_FRAC
