# Cell file generated by matador (Matthew Evans 2016)

%BLOCK LATTICE_CART
6.7826 0.0 0.0
-3.3913 5.87391 0.0
0.0 0.0 10.7992
%ENDBLOCK LATTICE_CART

%BLOCK POSITIONS_FRAC
P           0.000000000000000    0.000000000000000    0.346994000000000 
P           0.333333000000000    0.666667000000000    0.013660000000000 
P           0.666667000000000    0.333333000000000    0.680327000000000 
K           0.015927000000000    0.507963000000000    0.484341000000000 
K           0.158703000000000    0.317407000000000    0.817674000000000 
K           0.158703000000000    0.841297000000000    0.817674000000000 
K           0.349260000000000    0.174630000000000    0.151007000000000 
K           0.492037000000000    0.507963000000000    0.484341000000000 
K           0.492037000000000    0.984073000000000    0.484341000000000 
K           0.682593000000000    0.841297000000000    0.817674000000000 
K           0.825370000000000    0.174630000000000    0.151007000000000 
K           0.825370000000000    0.650740000000000    0.151007000000000 
%ENDBLOCK POSITIONS_FRAC
