# Cell file generated by matador (Matthew Evans 2016)

%BLOCK LATTICE_CART
4.91184 -0.0 0.0
-2.45592 4.25378 0.0
0.0 0.0 8.65251
%ENDBLOCK LATTICE_CART

%BLOCK POSITIONS_FRAC
P           0.070029000000000    0.346807000000000    0.050709000000000 
P           0.127721000000000    0.579947000000000    0.992959000000000 
P           0.276778000000000    0.929971000000000    0.050709000000000 
P           0.420053000000000    0.547774000000000    0.992959000000000 
P           0.452226000000000    0.872279000000000    0.992959000000000 
P           0.653193000000000    0.723222000000000    0.050709000000000 
K           0.000000000000000    0.000000000000000    0.670045000000000 
K           0.333333000000000    0.666667000000000    0.533844000000000 
K           0.666667000000000    0.333333000000000    0.795673000000000 
%ENDBLOCK POSITIONS_FRAC
