# Cell file generated by matador (Matthew Evans 2016)

%BLOCK LATTICE_CART
9.18292 0.0 0.0
0.0 8.26667 0.0
0.0 0.0 7.83361
%ENDBLOCK LATTICE_CART

%BLOCK POSITIONS_FRAC
P           0.000000000000000    0.225516000000000    0.429907000000000 
P           0.000000000000000    0.774484000000000    0.429907000000000 
P           0.500000000000000    0.274484000000000    0.929907000000000 
P           0.500000000000000    0.725516000000000    0.929907000000000 
K           0.000000000000000    0.206977000000000    0.148193000000000 
K           0.000000000000000    0.793023000000000    0.148193000000000 
K           0.213503000000000    0.500000000000000    0.976413000000000 
K           0.217411000000000    0.000000000000000    0.959260000000000 
K           0.282589000000000    0.500000000000000    0.459260000000000 
K           0.286497000000000    0.000000000000000    0.476413000000000 
K           0.500000000000000    0.293023000000000    0.648193000000000 
K           0.500000000000000    0.706977000000000    0.648193000000000 
K           0.713503000000000    0.000000000000000    0.476413000000000 
K           0.717411000000000    0.500000000000000    0.459260000000000 
K           0.782589000000000    0.000000000000000    0.959260000000000 
K           0.786497000000000    0.500000000000000    0.976413000000000 
%ENDBLOCK POSITIONS_FRAC
