# Cell file generated by matador (Matthew Evans 2016)

%BLOCK LATTICE_CART
6.59273 0.0 0.0
-3.29636 5.70947 0.0
0.0 0.0 9.08041
%ENDBLOCK LATTICE_CART

%BLOCK POSITIONS_FRAC
P           0.139308000000000    0.069654000000000    0.814953000000000 
P           0.263680000000000    0.527359000000000    0.481620000000000 
P           0.263680000000000    0.736320000000000    0.481620000000000 
P           0.472641000000000    0.736320000000000    0.481620000000000 
P           0.597013000000000    0.194026000000000    0.148287000000000 
P           0.597013000000000    0.402987000000000    0.148287000000000 
P           0.805974000000000    0.402987000000000    0.148287000000000 
P           0.930346000000000    0.069654000000000    0.814953000000000 
P           0.930346000000000    0.860692000000000    0.814953000000000 
K           0.000000000000000    0.000000000000000    0.252686000000000 
K           0.333333000000000    0.666667000000000    0.919353000000000 
K           0.666667000000000    0.333333000000000    0.586019000000000 
%ENDBLOCK POSITIONS_FRAC
