# Cell file generated by matador (Matthew Evans 2016)

%BLOCK LATTICE_CART
6.00906 0.0 0.0
-3.00453 5.20399 0.0
0.0 0.0 8.034
%ENDBLOCK LATTICE_CART

%BLOCK POSITIONS_FRAC
P           0.002209000000000    0.624913000000000    0.142887000000000 
P           0.002209000000000    0.624913000000000    0.857113000000000 
P           0.175524000000000    0.820522000000000    0.373257000000000 
P           0.175524000000000    0.820522000000000    0.626743000000000 
P           0.179478000000000    0.355000000000000    0.373257000000000 
P           0.179478000000000    0.355000000000000    0.626743000000000 
P           0.375087000000000    0.377296000000000    0.142887000000000 
P           0.375087000000000    0.377296000000000    0.857113000000000 
P           0.622704000000000    0.997791000000000    0.142887000000000 
P           0.622704000000000    0.997791000000000    0.857113000000000 
P           0.645000000000000    0.824476000000000    0.373257000000000 
P           0.645000000000000    0.824476000000000    0.626743000000000 
K           0.666667000000000    0.333333000000000    0.000000000000000 
K           0.666667000000000    0.333333000000000    0.500000000000000 
%ENDBLOCK POSITIONS_FRAC
