# Cell file generated by matador (Matthew Evans 2016)

%BLOCK LATTICE_CART
4.68048 0.0 0.0
0.0 5.91428 0.0
0.0 0.0 6.60348
%ENDBLOCK LATTICE_CART

%BLOCK POSITIONS_FRAC
P           0.325339000000000    0.088941000000000    0.645601000000000 
P           0.325339000000000    0.411059000000000    0.145601000000000 
P           0.325339000000000    0.588941000000000    0.145601000000000 
P           0.325339000000000    0.911059000000000    0.645601000000000 
P           0.674661000000000    0.088941000000000    0.645601000000000 
P           0.674661000000000    0.411059000000000    0.145601000000000 
P           0.674661000000000    0.588941000000000    0.145601000000000 
P           0.674661000000000    0.911059000000000    0.645601000000000 
K           0.000000000000000    0.000000000000000    0.015845000000000 
K           0.000000000000000    0.500000000000000    0.515845000000000 
%ENDBLOCK POSITIONS_FRAC
