# Cell file generated by matador (Matthew Evans 2016)

%BLOCK LATTICE_CART
8.56342 0.0 0.0
0.0 7.84225 0.0
0.0 0.0 5.91479
%ENDBLOCK LATTICE_CART

%BLOCK POSITIONS_FRAC
P           0.000000000000000    0.415288000000000    0.351194000000000 
P           0.000000000000000    0.415288000000000    0.648806000000000 
P           0.000000000000000    0.500000000000000    0.500000000000000 
P           0.000000000000000    0.584712000000000    0.351194000000000 
P           0.000000000000000    0.584712000000000    0.648806000000000 
P           0.500000000000000   -0.000000000000000   -0.000000000000000 
P           0.500000000000000    0.084712000000000    0.148806000000000 
P           0.500000000000000    0.084712000000000    0.851194000000000 
P           0.500000000000000    0.915288000000000    0.148806000000000 
P           0.500000000000000    0.915288000000000    0.851194000000000 
K           0.250000000000000    0.250000000000000    0.250000000000000 
K           0.250000000000000    0.250000000000000    0.750000000000000 
K           0.250000000000000    0.750000000000000    0.250000000000000 
K           0.250000000000000    0.750000000000000    0.750000000000000 
K           0.750000000000000    0.250000000000000    0.250000000000000 
K           0.750000000000000    0.250000000000000    0.750000000000000 
K           0.750000000000000    0.750000000000000    0.250000000000000 
K           0.750000000000000    0.750000000000000    0.750000000000000 
%ENDBLOCK POSITIONS_FRAC
