# Cell file generated by matador (Matthew Evans 2016)

%BLOCK LATTICE_CART
10.1738 0.0 0.0
0.0 7.06321 0.0
-0.84884 0.0 3.55715
%ENDBLOCK LATTICE_CART

%BLOCK POSITIONS_FRAC
P           0.792657000000000    0.082061000000000    0.097892000000000 
P           0.792657000000000    0.917939000000000    0.097892000000000 
K           0.177053000000000    0.500000000000000    0.079543000000000 
K           0.197571000000000    0.000000000000000    0.760824000000000 
K           0.398828000000000    0.000000000000000    0.832691000000000 
K           0.406769000000000    0.500000000000000    0.588029000000000 
K           0.586866000000000    0.000000000000000    0.369049000000000 
K           0.971302000000000    0.000000000000000    0.680481000000000 
%ENDBLOCK POSITIONS_FRAC
