# Cell file generated by matador (Matthew Evans 2016)

%BLOCK LATTICE_CART
6.77692 0.0 0.0
-3.38846 5.86899 0.0
0.0 0.0 7.39764
%ENDBLOCK LATTICE_CART

%BLOCK POSITIONS_FRAC
P           0.094241000000000    0.782355000000000    0.445201000000000 
P           0.217645000000000    0.311886000000000    0.445201000000000 
P           0.666667000000000    0.333333000000000    0.252830000000000 
P           0.688114000000000    0.905759000000000    0.445201000000000 
K          -0.000000000000000   -0.000000000000000    0.902620000000000 
K           0.141606000000000    0.317538000000000    0.103442000000000 
K           0.175931000000000    0.858394000000000    0.103442000000000 
K           0.682462000000000    0.824069000000000    0.103442000000000 
%ENDBLOCK POSITIONS_FRAC
