# Cell file generated by matador (Matthew Evans 2016)

%BLOCK LATTICE_CART
7.81517 0.0 0.0
-3.90759 6.76814 0.0
0.0 0.0 7.74718
%ENDBLOCK LATTICE_CART

%BLOCK POSITIONS_FRAC
P           0.333334000000000    0.666668000000000    0.096665000000000 
P           0.333334000000000    0.666668000000000    0.484179000000000 
P           0.333334000000000    0.666668000000000    0.645639000000000 
P           0.666668000000000    0.333334000000000    0.145639000000000 
P           0.666668000000000    0.333334000000000    0.596665000000000 
P           0.666668000000000    0.333334000000000    0.984179000000000 
K           0.002548000000000    0.791412000000000    0.045382000000000 
K           0.208590000000000    0.211137000000000    0.045382000000000 
K           0.211137000000000    0.002548000000000    0.545382000000000 
K           0.788865000000000    0.997454000000000    0.045382000000000 
K           0.791412000000000    0.788865000000000    0.545382000000000 
K           0.997454000000000    0.208590000000000    0.545382000000000 
%ENDBLOCK POSITIONS_FRAC
