# Cell file generated by matador (Matthew Evans 2016)

%BLOCK LATTICE_CART
8.16273 0.0 0.0
-4.08137 7.06913 0.0
0.0 0.0 9.86293
%ENDBLOCK LATTICE_CART

%BLOCK POSITIONS_FRAC
P           0.999999000000000    0.999999000000000    0.401941000000000 
P           0.999999000000000    0.999999000000000    0.598059000000000 
P           0.999999000000000    0.499999000000000    0.500000000000000 
P           0.333332000000000    0.666666000000000    0.138134000000000 
P           0.333332000000000    0.666666000000000    0.861866000000000 
P           0.499999000000000    0.999999000000000    0.500000000000000 
P           0.499999000000000    0.499999000000000    0.500000000000000 
P           0.666666000000000    0.333332000000000    0.138134000000000 
P           0.666666000000000    0.333332000000000    0.861866000000000 
K           0.074692000000000    0.405075000000000    0.000000000000000 
K           0.330382000000000    0.925306000000000    0.000000000000000 
K           0.405075000000000    0.330382000000000    0.000000000000000 
K           0.594923000000000    0.669616000000000    0.000000000000000 
K           0.669616000000000    0.074692000000000    0.000000000000000 
K           0.925306000000000    0.594923000000000    0.000000000000000 
%ENDBLOCK POSITIONS_FRAC
