# Cell file generated by matador (Matthew Evans 2016)

%BLOCK LATTICE_CART
8.4893 0.0 0.0
-4.24465 7.35195 0.0
0.0 0.0 7.49161
%ENDBLOCK LATTICE_CART

%BLOCK POSITIONS_FRAC
P          -0.000000000000000   -0.000000000000000    0.000000000000000 
P          -0.000000000000000   -0.000000000000000    0.240004000000000 
P          -0.000000000000000   -0.000000000000000    0.500000000000000 
P          -0.000000000000000   -0.000000000000000    0.759996000000000 
P          -0.000000000000000    0.500000000000000    0.000000000000000 
P          -0.000000000000000    0.500000000000000    0.500000000000000 
P           0.500000000000000   -0.000000000000000    0.000000000000000 
P           0.500000000000000   -0.000000000000000    0.500000000000000 
P           0.500000000000000    0.500000000000000    0.000000000000000 
P           0.500000000000000    0.500000000000000    0.500000000000000 
K          -0.000000000000000    0.290906000000000    0.811069000000000 
K          -0.000000000000000    0.709094000000000    0.188931000000000 
K           0.290906000000000   -0.000000000000000    0.811069000000000 
K           0.290906000000000    0.290906000000000    0.188931000000000 
K           0.333333000000000    0.666667000000000    0.500000000000000 
K           0.666667000000000    0.333333000000000    0.500000000000000 
K           0.709094000000000   -0.000000000000000    0.188931000000000 
K           0.709094000000000    0.709094000000000    0.811069000000000 
%ENDBLOCK POSITIONS_FRAC
