# Cell file generated by matador (Matthew Evans 2016)

%BLOCK LATTICE_CART
7.03169 0.0 0.0
0.0 7.03169 0.0
0.0 0.0 6.96066
%ENDBLOCK LATTICE_CART

%BLOCK POSITIONS_FRAC
P           0.000000000000000    0.000000000000000    0.000000000000000 
P           0.500000000000000    0.500000000000000    0.000000000000000 
K           0.000000000000000    0.000000000000000    0.500000000000000 
K           0.203143000000000    0.703143000000000    0.112005000000000 
K           0.296857000000000    0.203143000000000    0.887995000000000 
K           0.500000000000000    0.500000000000000    0.500000000000000 
K           0.703143000000000    0.796857000000000    0.887995000000000 
K           0.796857000000000    0.296857000000000    0.112005000000000 
%ENDBLOCK POSITIONS_FRAC
