# Cell file generated by matador (Matthew Evans 2016)

%BLOCK LATTICE_CART
8.084 0.0 0.0
0.0 8.084 0.0
0.0 0.0 8.084
%ENDBLOCK LATTICE_CART

%BLOCK POSITIONS_FRAC
P           0.000000000000000    0.000000000000000    0.000000000000000 
P           0.179874000000000    0.179874000000000    0.179874000000000 
P           0.179874000000000    0.820126000000000    0.820126000000000 
P           0.320126000000000    0.320126000000000    0.679874000000000 
P           0.320126000000000    0.679874000000000    0.320126000000000 
P           0.500000000000000    0.500000000000000    0.500000000000000 
P           0.679874000000000    0.320126000000000    0.320126000000000 
P           0.679874000000000    0.679874000000000    0.679874000000000 
P           0.820126000000000    0.179874000000000    0.820126000000000 
P           0.820126000000000    0.820126000000000    0.179874000000000 
K           0.000000000000000    0.000000000000000    0.500000000000000 
K           0.000000000000000    0.500000000000000    0.000000000000000 
K           0.000000000000000    0.500000000000000    0.500000000000000 
K           0.500000000000000    0.000000000000000    0.000000000000000 
K           0.500000000000000    0.000000000000000    0.500000000000000 
K           0.500000000000000    0.500000000000000    0.000000000000000 
%ENDBLOCK POSITIONS_FRAC
