# Cell file generated by matador (Matthew Evans 2016)

%BLOCK LATTICE_CART
7.38777 0.0 0.0
-3.69389 6.398 0.0
0.0 0.0 4.22613
%ENDBLOCK LATTICE_CART

%BLOCK POSITIONS_FRAC
P          -0.000000000000000    0.000000000000000    0.500000000000000 
P           0.100102000000000    0.716320000000000    0.393161000000000 
P           0.283680000000000    0.383782000000000    0.393161000000000 
P           0.383782000000000    0.100102000000000    0.606839000000000 
P           0.616218000000000    0.899898000000000    0.393161000000000 
P           0.716320000000000    0.616218000000000    0.606839000000000 
P           0.899898000000000    0.283680000000000    0.606839000000000 
K           0.333333000000000    0.666667000000000    0.221137000000000 
K           0.666666000000000    0.333334000000000    0.778863000000000 
%ENDBLOCK POSITIONS_FRAC
