# Cell file generated by matador (Matthew Evans 2016)

%BLOCK LATTICE_CART
7.37951 0.0 0.0
0.0 5.88485 0.0
0.0 0.0 8.60355
%ENDBLOCK LATTICE_CART

%BLOCK POSITIONS_FRAC
P           0.000000000000000    0.000000000000000    0.000000000000000 
P           0.000000000000000    0.000000000000000    0.500000000000000 
P           0.000000000000000    0.500000000000000    0.500000000000000 
P           0.079825000000000    0.132839000000000    0.500000000000000 
P           0.420175000000000    0.632839000000000    0.500000000000000 
P           0.500000000000000    0.000000000000000    0.500000000000000 
P           0.500000000000000    0.500000000000000    0.000000000000000 
P           0.500000000000000    0.500000000000000    0.500000000000000 
P           0.579825000000000    0.367161000000000    0.500000000000000 
P           0.920175000000000    0.867161000000000    0.500000000000000 
K           0.000000000000000    0.500000000000000    0.000000000000000 
K           0.174582000000000    0.755774000000000    0.500000000000000 
K           0.325418000000000    0.255774000000000    0.500000000000000 
K           0.500000000000000    0.000000000000000    0.000000000000000 
K           0.674582000000000    0.744226000000000    0.500000000000000 
K           0.825418000000000    0.244226000000000    0.500000000000000 
%ENDBLOCK POSITIONS_FRAC
