# Cell file generated by matador (Matthew Evans 2016)

%BLOCK LATTICE_CART
8.2415 0.0 0.0
-4.12075 7.13735 0.0
0.0 0.0 9.75027
%ENDBLOCK LATTICE_CART

%BLOCK POSITIONS_FRAC
P           0.000000000000000    0.500000000000000    0.663375000000000 
P           0.500000000000000    0.000000000000000    0.663375000000000 
P           0.500000000000000    0.500000000000000    0.663375000000000 
K           0.000000000000000    0.244208000000000    0.347714000000000 
K           0.000000000000000    0.245574000000000    0.851442000000000 
K           0.000000000000000    0.754426000000000    0.851442000000000 
K           0.000000000000000    0.755792000000000    0.347714000000000 
K           0.244208000000000    0.000000000000000    0.347714000000000 
K           0.244208000000000    0.244208000000000    0.347714000000000 
K           0.245574000000000    0.000000000000000    0.851442000000000 
K           0.245574000000000    0.245574000000000    0.851442000000000 
K           0.754426000000000    0.000000000000000    0.851442000000000 
K           0.754426000000000    0.754426000000000    0.851442000000000 
K           0.755792000000000    0.000000000000000    0.347714000000000 
K           0.755792000000000    0.755792000000000    0.347714000000000 
%ENDBLOCK POSITIONS_FRAC
