# Cell file generated by matador (Matthew Evans 2016)

%BLOCK LATTICE_CART
7.8222 0.0 0.0
-3.9111 6.77422 0.0
0.0 0.0 11.6144
%ENDBLOCK LATTICE_CART

%BLOCK POSITIONS_FRAC
P           0.999999000000000    0.999999000000000    0.372433000000000 
P           0.999999000000000    0.999999000000000    0.522991000000000 
P           0.999999000000000    0.999999000000000    0.711778000000000 
P           0.999999000000000    0.999999000000000    0.800301000000000 
P           0.999999000000000    0.999999000000000    0.952598000000000 
P           0.999999000000000    0.499999000000000    0.471568000000000 
P           0.999999000000000    0.499999000000000    0.667118000000000 
P           0.999999000000000    0.499999000000000    0.997544000000000 
P           0.499999000000000    0.999999000000000    0.471568000000000 
P           0.499999000000000    0.999999000000000    0.667118000000000 
P           0.499999000000000    0.999999000000000    0.997544000000000 
P           0.499999000000000    0.499999000000000    0.471568000000000 
P           0.499999000000000    0.499999000000000    0.667118000000000 
P           0.499999000000000    0.499999000000000    0.997544000000000 
K           0.333332000000000    0.666666000000000    0.140125000000000 
K           0.333332000000000    0.666666000000000    0.362907000000000 
K           0.666666000000000    0.333332000000000    0.140125000000000 
K           0.666666000000000    0.333332000000000    0.362907000000000 
%ENDBLOCK POSITIONS_FRAC
