# Cell file generated by matador (Matthew Evans 2016)

%BLOCK LATTICE_CART
6.18319 0.0 0.0
-3.09159 5.3548 0.0
0.0 0.0 8.35818
%ENDBLOCK LATTICE_CART

%BLOCK POSITIONS_FRAC
P          -0.000000000000000    0.000000000000000    0.000000000000000 
P          -0.000000000000000    0.000000000000000    0.500000000000000 
P          -0.000000000000000    0.277369000000000    0.500000000000000 
P           0.277369000000000    0.000000000000000    0.500000000000000 
P           0.722631000000000    0.722631000000000    0.500000000000000 
K           0.333333000000000    0.666667000000000    0.000000000000000 
K           0.333333000000000    0.666667000000000    0.500000000000000 
K           0.666666000000000    0.333334000000000    0.000000000000000 
K           0.666666000000000    0.333334000000000    0.500000000000000 
%ENDBLOCK POSITIONS_FRAC
