# Cell file generated by matador (Matthew Evans 2016)

%BLOCK LATTICE_CART
6.56581 0.0 0.0
-6.76667 12.0187 0.0
6.14383 10.4852 7.05458
%ENDBLOCK LATTICE_CART

%BLOCK POSITIONS_FRAC
P           0.000000000000000    0.500000000000000    0.000000000000000 
P           0.413610000000000    0.123052000000000    0.001456000000000 
P           0.500000000000000    0.500000000000000    0.500000000000000 
P           0.586390000000000    0.876948000000000    0.998544000000000 
K           0.000000000000000    0.000000000000000    0.000000000000000 
K           0.000000000000000    0.000000000000000    0.500000000000000 
K           0.000000000000000    0.500000000000000    0.500000000000000 
K           0.196239000000000    0.394292000000000    0.262444000000000 
K           0.388003000000000    0.142246000000000    0.231396000000000 
K           0.391548000000000    0.246856000000000    0.413588000000000 
K           0.398887000000000    0.298856000000000    0.701534000000000 
K           0.500000000000000    0.000000000000000    0.000000000000000 
K           0.500000000000000    0.000000000000000    0.500000000000000 
K           0.500000000000000    0.500000000000000    0.000000000000000 
K           0.601113000000000    0.701144000000000    0.298466000000000 
K           0.608452000000000    0.753144000000000    0.586412000000000 
K           0.611997000000000    0.857754000000000    0.768604000000000 
K           0.803761000000000    0.605708000000000    0.737556000000000 
%ENDBLOCK POSITIONS_FRAC
