# Cell file generated by matador (Matthew Evans 2016)

%BLOCK LATTICE_CART
11.4348 0.0 0.0
0.0 11.4348 0.0
0.0 0.0 10.0982
%ENDBLOCK LATTICE_CART

%BLOCK POSITIONS_FRAC
P           0.000000000000000    0.500000000000000    0.137417000000000 
P           0.000000000000000    0.500000000000000    0.362583000000000 
P           0.000000000000000    0.500000000000000    0.637417000000000 
P           0.000000000000000    0.500000000000000    0.862583000000000 
P           0.500000000000000    0.000000000000000    0.137417000000000 
P           0.500000000000000    0.000000000000000    0.362583000000000 
P           0.500000000000000    0.000000000000000    0.637417000000000 
P           0.500000000000000    0.000000000000000    0.862583000000000 
K           0.009569000000000    0.223427000000000    0.000000000000000 
K           0.125273000000000    0.125273000000000    0.316652000000000 
K           0.125273000000000    0.125273000000000    0.683348000000000 
K           0.183966000000000    0.816034000000000    0.218558000000000 
K           0.183966000000000    0.816034000000000    0.781442000000000 
K           0.223427000000000    0.009569000000000    0.000000000000000 
K           0.276573000000000    0.509569000000000    0.500000000000000 
K           0.316034000000000    0.316034000000000    0.281442000000000 
K           0.316034000000000    0.316034000000000    0.718558000000000 
K           0.374727000000000    0.625273000000000    0.183348000000000 
K           0.374727000000000    0.625273000000000    0.816652000000000 
K           0.490431000000000    0.723427000000000    0.500000000000000 
K           0.509569000000000    0.276573000000000    0.500000000000000 
K           0.625273000000000    0.374727000000000    0.183348000000000 
K           0.625273000000000    0.374727000000000    0.816652000000000 
K           0.683966000000000    0.683966000000000    0.281442000000000 
K           0.683966000000000    0.683966000000000    0.718558000000000 
K           0.723427000000000    0.490431000000000    0.500000000000000 
K           0.776573000000000    0.990431000000000    0.000000000000000 
K           0.816034000000000    0.183966000000000    0.218558000000000 
K           0.816034000000000    0.183966000000000    0.781442000000000 
K           0.874727000000000    0.874727000000000    0.316652000000000 
K           0.874727000000000    0.874727000000000    0.683348000000000 
K           0.990431000000000    0.776573000000000    0.000000000000000 
%ENDBLOCK POSITIONS_FRAC
