# Cell file generated by matador (Matthew Evans 2016)

%BLOCK LATTICE_CART
4.42079 0.0 0.0
-2.2104 3.82852 0.0
0.0 0.0 9.46043
%ENDBLOCK LATTICE_CART

%BLOCK POSITIONS_FRAC
P           0.000001000000000    0.000001000000000    0.095866000000000 
P           0.000001000000000    0.000001000000000    0.310436000000000 
P           0.000001000000000    0.000001000000000    0.595866000000000 
P           0.000001000000000    0.000001000000000    0.810436000000000 
K           0.333334000000000    0.666668000000000    0.957720000000000 
K           0.666668000000000    0.333334000000000    0.457720000000000 
%ENDBLOCK POSITIONS_FRAC
