# Cell file generated by matador (Matthew Evans 2016)

%BLOCK LATTICE_CART
8.51362 0.0 0.0
0.0 9.69403 0.0
3.84546 0.0 7.08848
%ENDBLOCK LATTICE_CART

%BLOCK POSITIONS_FRAC
P           0.000000000000000    0.000000000000000    0.500000000000000 
P           0.000000000000000    0.500000000000000    0.500000000000000 
P           0.500000000000000    0.000000000000000    0.500000000000000 
P           0.500000000000000    0.500000000000000    0.500000000000000 
K           0.000000000000000    0.000000000000000    0.000000000000000 
K           0.000000000000000    0.500000000000000    0.000000000000000 
K           0.033880000000000    0.250000000000000    0.554492000000000 
K           0.239958000000000    0.750000000000000    0.786448000000000 
K           0.361711000000000    0.250000000000000    0.591006000000000 
K           0.418699000000000    0.750000000000000    0.215275000000000 
K           0.500000000000000    0.000000000000000    0.000000000000000 
K           0.500000000000000    0.500000000000000    0.000000000000000 
K           0.581301000000000    0.250000000000000    0.784725000000000 
K           0.638289000000000    0.750000000000000    0.408994000000000 
K           0.760042000000000    0.250000000000000    0.213552000000000 
K           0.966120000000000    0.750000000000000    0.445508000000000 
%ENDBLOCK POSITIONS_FRAC
