# Cell file generated by matador (Matthew Evans 2016)

%BLOCK LATTICE_CART
6.15548 0.0 0.0
0.0 9.4836 0.0
1.73126 0.0 7.70238
%ENDBLOCK LATTICE_CART

%BLOCK POSITIONS_FRAC
P           0.000000000000000    0.041257000000000    0.500000000000000 
P           0.000000000000000    0.478661000000000   -0.000000000000000 
P           0.420884000000000    0.037986000000000    0.968624000000000 
P           0.500000000000000    0.350029000000000   -0.000000000000000 
P           0.500000000000000    0.922633000000000    0.500000000000000 
P           0.579116000000000    0.037986000000000    0.031376000000000 
K           0.000000000000000    0.538859000000000    0.500000000000000 
K           0.005855000000000    0.352816000000000    0.219393000000000 
K           0.230944000000000    0.843907000000000    0.974082000000000 
K           0.308651000000000    0.554673000000000    0.687132000000000 
K           0.500000000000000    0.160016000000000    0.500000000000000 
K           0.691349000000000    0.554673000000000    0.312868000000000 
K           0.769056000000000    0.843907000000000    0.025918000000000 
K           0.994145000000000    0.352816000000000    0.780607000000000 
%ENDBLOCK POSITIONS_FRAC
