# Cell file generated by matador (Matthew Evans 2016)

%BLOCK LATTICE_CART
7.57214 0.0 0.0
-3.78607 6.55767 0.0
0.0 0.0 8.34806
%ENDBLOCK LATTICE_CART

%BLOCK POSITIONS_FRAC
P           0.000000000000000    0.500000000000000    0.518926000000000 
P           0.333333000000000    0.666667000000000    0.605386000000000 
P           0.500000000000000    0.000000000000000    0.518926000000000 
P           0.500000000000000    0.500000000000000    0.518926000000000 
P           0.666667000000000    0.333333000000000    0.605386000000000 
K           0.000000000000000    0.000000000000000    0.655215000000000 
K           0.000000000000000    0.500000000000000    0.224807000000000 
K           0.333333000000000    0.666667000000000    0.326772000000000 
K           0.500000000000000    0.000000000000000    0.224807000000000 
K           0.500000000000000    0.500000000000000    0.224807000000000 
K           0.666667000000000    0.333333000000000    0.326772000000000 
%ENDBLOCK POSITIONS_FRAC
