# Cell file generated by matador (Matthew Evans 2016)

%BLOCK LATTICE_CART
9.73372 0.0 0.0
0.0 7.41184 0.0
-0.523717 0.0 7.05719
%ENDBLOCK LATTICE_CART

%BLOCK POSITIONS_FRAC
P           0.173653000000000    0.500000000000000    0.236585000000000 
P           0.872638000000000    0.170267000000000    0.685522000000000 
P           0.872638000000000    0.829733000000000    0.685522000000000 
K           0.024443000000000    0.000000000000000    0.433814000000000 
K           0.140052000000000    0.500000000000000    0.953201000000000 
K           0.344432000000000    0.000000000000000    0.283025000000000 
K           0.547550000000000    0.000000000000000    0.870114000000000 
K           0.605939000000000    0.500000000000000    0.374091000000000 
K           0.672244000000000    0.500000000000000    0.799993000000000 
K           0.714573000000000    0.000000000000000    0.312611000000000 
K           0.935142000000000    0.500000000000000    0.432538000000000 
K           0.961366000000000    0.000000000000000    0.898280000000000 
%ENDBLOCK POSITIONS_FRAC
