# Cell file generated by matador (Matthew Evans 2016)

%BLOCK LATTICE_CART
7.39021 0.0 0.0
0.0 7.21397 0.0
2.70118 0.0 5.30812
%ENDBLOCK LATTICE_CART

%BLOCK POSITIONS_FRAC
P           0.000000000000000    0.033016000000000    0.000000000000000 
P           0.000000000000000    0.661973000000000    0.000000000000000 
P           0.000000000000000    0.836123000000000    0.000000000000000 
P           0.412667000000000    0.420962000000000    0.062998000000000 
P           0.587333000000000    0.420962000000000    0.937002000000000 
K           0.238283000000000    0.494664000000000    0.706897000000000 
K           0.479163000000000    0.805110000000000    0.732259000000000 
K           0.520837000000000    0.805110000000000    0.267741000000000 
K           0.761717000000000    0.494664000000000    0.293103000000000 
%ENDBLOCK POSITIONS_FRAC
