# Cell file generated by matador (Matthew Evans 2016)

%BLOCK LATTICE_CART
10.4297 0.0 0.0
-5.21485 9.03238 0.0
0.0 0.0 9.13059
%ENDBLOCK LATTICE_CART

%BLOCK POSITIONS_FRAC
P           0.000000000000000    0.000000000000000    0.036481000000000 
P           0.000000000000000    0.000000000000000    0.483886000000000 
P           0.333333000000000    0.666667000000000    0.150553000000000 
P           0.333333000000000    0.666667000000000    0.703148000000000 
P           0.666667000000000    0.333333000000000    0.369814000000000 
P           0.666667000000000    0.333333000000000    0.817219000000000 
K           0.064857000000000    0.532429000000000    0.278680000000000 
K           0.086965000000000    0.543482000000000    0.854853000000000 
K           0.123184000000000    0.246368000000000    0.188186000000000 
K           0.123184000000000    0.876816000000000    0.188186000000000 
K           0.134238000000000    0.268476000000000    0.612013000000000 
K           0.134238000000000    0.865762000000000    0.612013000000000 
K           0.398191000000000    0.199095000000000    0.945346000000000 
K           0.420298000000000    0.210149000000000    0.521519000000000 
K           0.456518000000000    0.543482000000000    0.854853000000000 
K           0.456518000000000    0.913035000000000    0.854853000000000 
K           0.467571000000000    0.532429000000000    0.278680000000000 
K           0.467571000000000    0.935143000000000    0.278680000000000 
K           0.731524000000000    0.865762000000000    0.612013000000000 
K           0.753632000000000    0.876816000000000    0.188186000000000 
K           0.789851000000000    0.210149000000000    0.521519000000000 
K           0.789851000000000    0.579702000000000    0.521519000000000 
K           0.800905000000000    0.199095000000000    0.945346000000000 
K           0.800905000000000    0.601809000000000    0.945346000000000 
%ENDBLOCK POSITIONS_FRAC
