# Cell file generated by matador (Matthew Evans 2016)

%BLOCK LATTICE_CART
6.26469 0.0 0.0
-3.13235 5.42538 0.0
0.0 0.0 9.25465
%ENDBLOCK LATTICE_CART

%BLOCK POSITIONS_FRAC
P           0.000000000000000    0.699742000000000    0.500000000000000 
P           0.300258000000000    0.300258000000000    0.500000000000000 
P           0.699742000000000    0.000000000000000    0.500000000000000 
K           0.000000000000000    0.000000000000000    0.000000000000000 
K           0.333333000000000    0.666667000000000    0.000000000000000 
K           0.333333000000000    0.666667000000000    0.500000000000000 
K           0.666667000000000    0.333333000000000    0.000000000000000 
K           0.666667000000000    0.333333000000000    0.500000000000000 
%ENDBLOCK POSITIONS_FRAC
