# Cell file generated by matador (Matthew Evans 2016)

%BLOCK LATTICE_CART
6.83836 0.0 0.0
0.0 5.65003 0.0
0.0 0.0 6.66939
%ENDBLOCK LATTICE_CART

%BLOCK POSITIONS_FRAC
P           0.000000000000000    0.000000000000000    0.401901000000000 
P           0.000000000000000    0.264146000000000    0.840035000000000 
P           0.000000000000000    0.500000000000000    0.376359000000000 
P           0.000000000000000    0.735854000000000    0.840035000000000 
P           0.258116000000000    0.000000000000000    0.273621000000000 
P           0.500000000000000    0.000000000000000    0.442940000000000 
P           0.741884000000000    0.000000000000000    0.273621000000000 
K           0.321121000000000    0.500000000000000    0.249509000000000 
K           0.678879000000000    0.500000000000000    0.249509000000000 
%ENDBLOCK POSITIONS_FRAC
