# Cell file generated by matador (Matthew Evans 2016)

%BLOCK LATTICE_CART
4.36255 0.0 0.0
0.0 6.10959 0.0
2.16411 0.0 6.95984
%ENDBLOCK LATTICE_CART

%BLOCK POSITIONS_FRAC
P           0.090558000000000    0.086140000000000    0.998264000000000 
P           0.090558000000000    0.913860000000000    0.998264000000000 
P           0.124658000000000    0.245675000000000    0.449269000000000 
P           0.124658000000000    0.754325000000000    0.449269000000000 
P           0.479559000000000    0.318242000000000    0.395608000000000 
P           0.479559000000000    0.681758000000000    0.395608000000000 
K           0.458201000000000    0.000000000000000    0.242494000000000 
%ENDBLOCK POSITIONS_FRAC
