# Cell file generated by matador (Matthew Evans 2016)

%BLOCK LATTICE_CART
9.14419 0.0 0.0
-4.5721 7.9191 0.0
0.0 0.0 10.2313
%ENDBLOCK LATTICE_CART

%BLOCK POSITIONS_FRAC
P           0.333333000000000    0.666667000000000    0.000000000000000 
P           0.385609000000000    0.192805000000000    0.000000000000000 
P           0.666666000000000    0.333334000000000    0.000000000000000 
P           0.807195000000000    0.192805000000000    0.000000000000000 
P           0.807195000000000    0.614391000000000    0.000000000000000 
K          -0.000000000000000    0.000000000000000    0.000000000000000 
K          -0.000000000000000    0.000000000000000    0.500000000000000 
K           0.007202000000000    0.334387000000000    0.500000000000000 
K           0.007202000000000    0.672815000000000    0.500000000000000 
K           0.327185000000000    0.334387000000000    0.500000000000000 
K           0.327185000000000    0.992798000000000    0.500000000000000 
K           0.333333000000000    0.666667000000000    0.500000000000000 
K           0.528426000000000    0.056852000000000    0.159038000000000 
K           0.528426000000000    0.056852000000000    0.840962000000000 
K           0.528426000000000    0.471574000000000    0.159038000000000 
K           0.528426000000000    0.471574000000000    0.840962000000000 
K           0.665613000000000    0.672815000000000    0.500000000000000 
K           0.665613000000000    0.992798000000000    0.500000000000000 
K           0.943148000000000    0.471574000000000    0.159038000000000 
K           0.943148000000000    0.471574000000000    0.840962000000000 
%ENDBLOCK POSITIONS_FRAC
