# Cell file generated by matador (Matthew Evans 2016)

%BLOCK LATTICE_CART
10.3936 0.0 0.0
-5.19681 9.00115 0.0
0.0 0.0 10.1785
%ENDBLOCK LATTICE_CART

%BLOCK POSITIONS_FRAC
P           0.178988000000000    0.365170000000000    0.657638000000000 
P           0.186182000000000    0.821012000000000    0.657638000000000 
P           0.365170000000000    0.178988000000000    0.657638000000000 
P           0.634830000000000    0.813818000000000    0.657638000000000 
P           0.813818000000000    0.634830000000000    0.657638000000000 
P           0.821012000000000    0.186182000000000    0.657638000000000 
K           0.000000000000000    0.266046000000000    0.842353000000000 
K           0.000000000000000    0.362527000000000    0.237103000000000 
K           0.000000000000000    0.436075000000000    0.519313000000000 
K           0.000000000000000    0.602205000000000    0.742694000000000 
K           0.000000000000000    0.647977000000000    0.079040000000000 
K           0.000000000000000    0.821740000000000    0.413980000000000 
K           0.178260000000000    0.178260000000000    0.413980000000000 
K           0.266046000000000    0.000000000000000    0.842353000000000 
K           0.352023000000000    0.352023000000000    0.079040000000000 
K           0.362527000000000    0.000000000000000    0.237103000000000 
K           0.397795000000000    0.397795000000000    0.742694000000000 
K           0.436075000000000    0.000000000000000    0.519313000000000 
K           0.563925000000000    0.563925000000000    0.519313000000000 
K           0.602205000000000    0.000000000000000    0.742694000000000 
K           0.637473000000000    0.637473000000000    0.237103000000000 
K           0.647977000000000    0.000000000000000    0.079040000000000 
K           0.733954000000000    0.733954000000000    0.842353000000000 
K           0.821740000000000    0.000000000000000    0.413980000000000 
%ENDBLOCK POSITIONS_FRAC
