# Cell file generated by matador (Matthew Evans 2016)

%BLOCK LATTICE_CART
5.55888 0.0 0.0
-2.77944 4.81413 0.0
0.0 0.0 6.20764
%ENDBLOCK LATTICE_CART

%BLOCK POSITIONS_FRAC
P           0.000000000000000   -0.000000000000000    0.416626000000000 
P           0.000000000000000   -0.000000000000000    0.819283000000000 
P           0.520197000000000    0.291403000000000    0.256095000000000 
P           0.708597000000000    0.228794000000000    0.256095000000000 
P           0.771206000000000    0.479803000000000    0.256095000000000 
K           0.666667000000000    0.333333000000000    0.919695000000000 
%ENDBLOCK POSITIONS_FRAC
