# Cell file generated by matador (Matthew Evans 2016)

%BLOCK LATTICE_CART
7.35997 0.0 0.0
-3.67998 6.37392 0.0
0.0 0.0 5.24669
%ENDBLOCK LATTICE_CART

%BLOCK POSITIONS_FRAC
P           0.084761000000000    0.366351000000000    0.500000000000000 
P           0.084761000000000    0.718410000000000    0.500000000000000 
P           0.281590000000000    0.366351000000000    0.500000000000000 
P           0.281590000000000    0.915239000000000    0.500000000000000 
P           0.333333000000000    0.666667000000000    0.000000000000000 
P           0.633649000000000    0.718410000000000    0.500000000000000 
P           0.633649000000000    0.915239000000000    0.500000000000000 
K           0.000000000000000    0.000000000000000    0.000000000000000 
K           0.000000000000000    0.000000000000000    0.500000000000000 
K           0.666667000000000    0.333333000000000    0.000000000000000 
K           0.666667000000000    0.333333000000000    0.500000000000000 
%ENDBLOCK POSITIONS_FRAC
