# Cell file generated by matador (Matthew Evans 2016)

%BLOCK LATTICE_CART
7.19492 0.0 0.0
0.0 5.30939 0.0
-1.55539 0.0 6.29665
%ENDBLOCK LATTICE_CART

%BLOCK POSITIONS_FRAC
P           0.306911000000000    0.112533000000000    0.499790000000000 
P           0.306911000000000    0.887467000000000    0.499790000000000 
K           0.030763000000000    0.000000000000000    0.803485000000000 
K           0.128716000000000    0.500000000000000    0.048289000000000 
K           0.396068000000000    0.500000000000000    0.503202000000000 
K           0.552491000000000    0.000000000000000    0.253500000000000 
K           0.662881000000000    0.000000000000000    0.911308000000000 
K           0.790865000000000    0.305701000000000    0.129006000000000 
K           0.790865000000000    0.694299000000000    0.129006000000000 
%ENDBLOCK POSITIONS_FRAC
