# Cell file generated by matador (Matthew Evans 2016)

%BLOCK LATTICE_CART
5.86329 0.0 0.0
-2.93165 5.07776 0.0
0.0 0.0 7.32681
%ENDBLOCK LATTICE_CART

%BLOCK POSITIONS_FRAC
P           0.000000000000000    0.000000000000000    0.362526000000000 
K           0.000000000000000    0.000000000000000    0.060304000000000 
K           0.000000000000000    0.234547000000000    0.594882000000000 
K           0.234547000000000    0.000000000000000    0.594882000000000 
K           0.765453000000000    0.765453000000000    0.594882000000000 
%ENDBLOCK POSITIONS_FRAC
