# Cell file generated by matador (Matthew Evans 2016)

%BLOCK LATTICE_CART
7.44888 0.0 0.0
0.0 7.44888 0.0
0.0 0.0 11.0862
%ENDBLOCK LATTICE_CART

%BLOCK POSITIONS_FRAC
P           0.000000000000000    0.000000000000000   -0.000000000000000 
P           0.000000000000000    0.000000000000000    0.500000000000000 
P           0.500000000000000    0.500000000000000   -0.000000000000000 
P           0.500000000000000    0.500000000000000    0.500000000000000 
K           0.000000000000000    0.500000000000000   -0.000000000000000 
K           0.000000000000000    0.500000000000000    0.500000000000000 
K           0.315867000000000    0.315867000000000    0.358845000000000 
K           0.315867000000000    0.315867000000000    0.641155000000000 
K           0.315867000000000    0.684133000000000    0.141155000000000 
K           0.315867000000000    0.684133000000000    0.858845000000000 
K           0.500000000000000    0.000000000000000   -0.000000000000000 
K           0.500000000000000    0.000000000000000    0.500000000000000 
K           0.684133000000000    0.315867000000000    0.141155000000000 
K           0.684133000000000    0.315867000000000    0.858845000000000 
K           0.684133000000000    0.684133000000000    0.358845000000000 
K           0.684133000000000    0.684133000000000    0.641155000000000 
%ENDBLOCK POSITIONS_FRAC
