# Cell file generated by matador (Matthew Evans 2016)

%BLOCK LATTICE_CART
9.1397 0.0 0.0
0.51187 7.95946 0.0
-2.17622 -1.86959 3.68545
%ENDBLOCK LATTICE_CART

%BLOCK POSITIONS_FRAC
P           0.000000000000000    0.000000000000000    0.000000000000000 
P           0.000000000000000    0.500000000000000    0.000000000000000 
K           0.000000000000000    0.500000000000000    0.500000000000000 
K           0.178328000000000    0.876059000000000    0.396027000000000 
K           0.500000000000000    0.000000000000000    0.000000000000000 
K           0.500000000000000    0.500000000000000    0.500000000000000 
K           0.821672000000000    0.123941000000000    0.603973000000000 
%ENDBLOCK POSITIONS_FRAC
