# Cell file generated by matador (Matthew Evans 2016)

%BLOCK LATTICE_CART
7.80095 0.0 0.0
0.0 7.80095 0.0
0.0 0.0 7.80095
%ENDBLOCK LATTICE_CART

%BLOCK POSITIONS_FRAC
P           0.000000000000000    0.000000000000000    0.500000000000000 
P           0.000000000000000    0.500000000000000    0.000000000000000 
P           0.000000000000000    0.500000000000000    0.500000000000000 
P           0.148020000000000    0.148020000000000    0.148020000000000 
P           0.148020000000000    0.851980000000000    0.851980000000000 
P           0.500000000000000    0.000000000000000    0.000000000000000 
P           0.500000000000000    0.000000000000000    0.500000000000000 
P           0.500000000000000    0.500000000000000    0.000000000000000 
P           0.851980000000000    0.148020000000000    0.851980000000000 
P           0.851980000000000    0.851980000000000    0.148020000000000 
K           0.000000000000000    0.000000000000000    0.000000000000000 
K           0.500000000000000    0.500000000000000    0.500000000000000 
%ENDBLOCK POSITIONS_FRAC
