# Cell file generated by matador (Matthew Evans 2016)

%BLOCK LATTICE_CART
6.67236 0.0 0.0
-3.33618 5.77844 0.0
0.0 0.0 8.04208
%ENDBLOCK LATTICE_CART

%BLOCK POSITIONS_FRAC
P           0.000000000000000    0.000000000000000    0.952930000000000 
P           0.333333000000000    0.666667000000000    0.092867000000000 
P           0.333333000000000    0.666667000000000    0.677551000000000 
P           0.666667000000000    0.333333000000000    0.092867000000000 
P           0.666667000000000    0.333333000000000    0.677551000000000 
K           0.000000000000000    0.000000000000000    0.328380000000000 
K           0.000000000000000    0.325372000000000    0.827092000000000 
K           0.000000000000000    0.471330000000000    0.180177000000000 
K           0.325372000000000    0.000000000000000    0.827092000000000 
K           0.471330000000000    0.000000000000000    0.180177000000000 
K           0.528670000000000    0.528670000000000    0.180177000000000 
K           0.674628000000000    0.674628000000000    0.827092000000000 
%ENDBLOCK POSITIONS_FRAC
