# Cell file generated by matador (Matthew Evans 2016)

%BLOCK LATTICE_CART
10.7857 0.0 0.0
-5.39284 9.34067 0.0
0.0 0.0 7.35005
%ENDBLOCK LATTICE_CART

%BLOCK POSITIONS_FRAC
P           0.000000000000000    0.000000000000000    0.683878000000000 
P           0.262636000000000    0.525273000000000    0.065851000000000 
P           0.262636000000000    0.737364000000000    0.065851000000000 
P           0.474727000000000    0.737364000000000    0.065851000000000 
P           0.666667000000000    0.333333000000000    0.244311000000000 
K           0.126347000000000    0.252693000000000    0.149423000000000 
K           0.126347000000000    0.873653000000000    0.149423000000000 
K           0.162648000000000    0.325296000000000    0.675747000000000 
K           0.162648000000000    0.837352000000000    0.675747000000000 
K           0.248075000000000    0.124037000000000    0.884077000000000 
K           0.437073000000000    0.218537000000000    0.385739000000000 
K           0.563223000000000    0.126446000000000    0.994177000000000 
K           0.563223000000000    0.436777000000000    0.994177000000000 
K           0.674704000000000    0.837352000000000    0.675747000000000 
K           0.747307000000000    0.873653000000000    0.149423000000000 
K           0.781463000000000    0.218537000000000    0.385739000000000 
K           0.781463000000000    0.562927000000000    0.385739000000000 
K           0.873554000000000    0.436777000000000    0.994177000000000 
K           0.875963000000000    0.124037000000000    0.884077000000000 
K           0.875963000000000    0.751925000000000    0.884077000000000 
%ENDBLOCK POSITIONS_FRAC
