# Cell file generated by matador (Matthew Evans 2016)

%BLOCK LATTICE_CART
12.3043 0.0 0.0
-6.15217 10.6559 0.0
0.0 0.0 5.64
%ENDBLOCK LATTICE_CART

%BLOCK POSITIONS_FRAC
P           0.000000000000000    0.000000000000000    0.019869000000000 
P           0.333334000000000    0.666667000000000    0.737423000000000 
P           0.514352000000000    0.028704000000000    0.489748000000000 
P           0.514352000000000    0.485648000000000    0.489748000000000 
P           0.971296000000000    0.485648000000000    0.489748000000000 
K           0.101898000000000    0.203796000000000    0.695500000000000 
K           0.101898000000000    0.898102000000000    0.695500000000000 
K           0.238452000000000    0.119226000000000    0.368645000000000 
K           0.250779000000000    0.501559000000000    0.511071000000000 
K           0.250779000000000    0.749220000000000    0.511071000000000 
K           0.498441000000000    0.749220000000000    0.511071000000000 
K           0.502706000000000    0.251353000000000    0.576344000000000 
K           0.539082000000000    0.078165000000000    0.035269000000000 
K           0.539082000000000    0.460918000000000    0.035269000000000 
K           0.748647000000000    0.251353000000000    0.576344000000000 
K           0.748647000000000    0.497294000000000    0.576344000000000 
K           0.796204000000000    0.898102000000000    0.695500000000000 
K           0.880774000000000    0.119226000000000    0.368645000000000 
K           0.880774000000000    0.761548000000000    0.368645000000000 
K           0.921836000000000    0.460918000000000    0.035269000000000 
%ENDBLOCK POSITIONS_FRAC
