# Cell file generated by matador (Matthew Evans 2016)

%BLOCK LATTICE_CART
7.31702 0.0 0.0
-3.65851 6.33673 0.0
0.0 0.0 9.06646
%ENDBLOCK LATTICE_CART

%BLOCK POSITIONS_FRAC
P           0.000000000000000    0.000000000000000    0.525562000000000 
P           0.151816000000000    0.460306000000000    0.146612000000000 
P           0.308490000000000    0.848184000000000    0.146612000000000 
P           0.333333000000000    0.666667000000000    0.096465000000000 
P           0.539694000000000    0.691510000000000    0.146612000000000 
P           0.666667000000000    0.333333000000000    0.345583000000000 
K           0.011558000000000    0.285390000000000    0.338834000000000 
K           0.273833000000000    0.988442000000000    0.338834000000000 
K           0.370513000000000    0.287297000000000    0.058152000000000 
K           0.666667000000000    0.333333000000000    0.731637000000000 
K           0.712703000000000    0.083216000000000    0.058152000000000 
K           0.714610000000000    0.726167000000000    0.338834000000000 
K           0.916784000000000    0.629487000000000    0.058152000000000 
%ENDBLOCK POSITIONS_FRAC
