# Cell file generated by matador (Matthew Evans 2016)

%BLOCK LATTICE_CART
5.77972 0.0 0.0
-2.88986 5.00538 0.0
0.0 0.0 8.31565
%ENDBLOCK LATTICE_CART

%BLOCK POSITIONS_FRAC
P           0.000000000000000    0.000000000000000    0.139357000000000 
P           0.000000000000000    0.000000000000000    0.860643000000000 
P           0.333333000000000    0.666667000000000    0.000000000000000 
K           0.054153000000000    0.253919000000000    0.500000000000000 
K           0.199766000000000    0.945847000000000    0.500000000000000 
K           0.666667000000000    0.333333000000000    0.500000000000000 
K           0.746081000000000    0.800234000000000    0.500000000000000 
%ENDBLOCK POSITIONS_FRAC
