# Cell file generated by matador (Matthew Evans 2016)

%BLOCK LATTICE_CART
5.68122 0.0 0.0
-2.84061 4.92008 0.0
0.0 0.0 5.10957
%ENDBLOCK LATTICE_CART

%BLOCK POSITIONS_FRAC
P           0.000000000000000    0.000000000000000    0.362101000000000 
P           0.000000000000000    0.000000000000000    0.655123000000000 
K           0.333333000000000    0.666667000000000    0.741133000000000 
K           0.666667000000000    0.333333000000000    0.059094000000000 
%ENDBLOCK POSITIONS_FRAC
