# Cell file generated by matador (Matthew Evans 2016)

%BLOCK LATTICE_CART
6.92935 0.0 0.0
0.0 6.92935 0.0
0.0 0.0 5.51788
%ENDBLOCK LATTICE_CART

%BLOCK POSITIONS_FRAC
P           0.192114000000000    0.192114000000000    0.000000000000000 
P           0.192114000000000    0.807886000000000    0.000000000000000 
P           0.307886000000000    0.307886000000000    0.000000000000000 
P           0.307886000000000    0.692114000000000    0.000000000000000 
P           0.692114000000000    0.307886000000000    0.000000000000000 
P           0.692114000000000    0.692114000000000    0.000000000000000 
P           0.807886000000000    0.192114000000000    0.000000000000000 
P           0.807886000000000    0.807886000000000    0.000000000000000 
K           0.000000000000000    0.000000000000000    0.500000000000000 
K           0.000000000000000    0.500000000000000    0.981387000000000 
K           0.500000000000000    0.000000000000000    0.018613000000000 
K           0.500000000000000    0.500000000000000    0.500000000000000 
%ENDBLOCK POSITIONS_FRAC
