# Cell file generated by matador (Matthew Evans 2016)

%BLOCK LATTICE_CART
8.16168 0.0 0.0
-4.08084 7.06822 0.0
0.0 0.0 5.08836
%ENDBLOCK LATTICE_CART

%BLOCK POSITIONS_FRAC
P           0.140335000000000    0.730998000000000    0.986687000000000 
P           0.269002000000000    0.409337000000000    0.986687000000000 
P           0.333333000000000    0.666667000000000    0.565734000000000 
P           0.339364000000000    0.039070000000000    0.461994000000000 
P           0.478780000000000    0.461043000000000    0.309503000000000 
P           0.538957000000000    0.017737000000000    0.309503000000000 
P           0.590663000000000    0.859665000000000    0.986687000000000 
P           0.699706000000000    0.660636000000000    0.461994000000000 
P           0.960930000000000    0.300294000000000    0.461994000000000 
P           0.982263000000000    0.521220000000000    0.309503000000000 
K           0.000000000000000    0.000000000000000    0.360716000000000 
K           0.666667000000000    0.333333000000000    0.448809000000000 
%ENDBLOCK POSITIONS_FRAC
