# Cell file generated by matador (Matthew Evans 2016)

%BLOCK LATTICE_CART
6.10268 0.0 0.0
0.0 9.18064 0.0
1.39135 0.0 6.19456
%ENDBLOCK LATTICE_CART

%BLOCK POSITIONS_FRAC
P           0.238557000000000    0.349515000000000    0.749685000000000 
P           0.238557000000000    0.650485000000000    0.749685000000000 
K           0.262515000000000    0.000000000000000    0.501621000000000 
K           0.355767000000000    0.500000000000000    0.270926000000000 
K           0.407243000000000    0.000000000000000    0.936154000000000 
K           0.708890000000000    0.500000000000000    0.829305000000000 
K           0.770205000000000    0.000000000000000    0.270708000000000 
K           0.846855000000000    0.500000000000000    0.314190000000000 
%ENDBLOCK POSITIONS_FRAC
