# Cell file generated by matador (Matthew Evans 2016)

%BLOCK LATTICE_CART
3.84703 0.0 0.0
0.0 6.97472 0.0
0.0 0.0 14.5888
%ENDBLOCK LATTICE_CART

%BLOCK POSITIONS_FRAC
P           0.000000000000000    0.404664000000000    0.806288000000000 
P           0.000000000000000    0.500000000000000    0.508124000000000 
P           0.000000000000000    0.595336000000000    0.806288000000000 
P           0.269787000000000    0.227030000000000    0.534687000000000 
P           0.269787000000000    0.772970000000000    0.534687000000000 
P           0.500000000000000    0.000000000000000    0.120797000000000 
P           0.500000000000000    0.116396000000000    0.776266000000000 
P           0.500000000000000    0.378567000000000    0.487592000000000 
P           0.500000000000000    0.401730000000000    0.067653000000000 
P           0.500000000000000    0.500000000000000    0.742316000000000 
P           0.500000000000000    0.598270000000000    0.067653000000000 
P           0.500000000000000    0.621433000000000    0.487592000000000 
P           0.500000000000000    0.883604000000000    0.776266000000000 
P           0.730213000000000    0.227030000000000    0.534687000000000 
P           0.730213000000000    0.772970000000000    0.534687000000000 
K           0.000000000000000    0.000000000000000    0.218652000000000 
K           0.000000000000000    0.000000000000000    0.678619000000000 
K           0.500000000000000    0.000000000000000    0.453399000000000 
%ENDBLOCK POSITIONS_FRAC
