# Cell file generated by matador (Matthew Evans 2016)

%BLOCK LATTICE_CART
7.21882 0.0 0.0
0.0 7.21882 0.0
0.0 0.0 7.21882
%ENDBLOCK LATTICE_CART

%BLOCK POSITIONS_FRAC
P           0.000000000000000    0.000000000000000    0.000000000000000 
P           0.099996000000000    0.099996000000000    0.099996000000000 
P           0.099996000000000    0.900004000000000    0.900004000000000 
P           0.500000000000000    0.500000000000000    0.500000000000000 
P           0.900004000000000    0.099996000000000    0.900004000000000 
P           0.900004000000000    0.900004000000000    0.099996000000000 
K           0.000000000000000    0.000000000000000    0.500000000000000 
K           0.000000000000000    0.500000000000000    0.000000000000000 
K           0.000000000000000    0.500000000000000    0.500000000000000 
K           0.500000000000000    0.000000000000000    0.000000000000000 
K           0.500000000000000    0.000000000000000    0.500000000000000 
K           0.500000000000000    0.500000000000000    0.000000000000000 
%ENDBLOCK POSITIONS_FRAC
