# Cell file generated by matador (Matthew Evans 2016)

%BLOCK LATTICE_CART
9.2338 0.0 0.0
-4.6169 7.9967 0.0
0.0 0.0 4.91801
%ENDBLOCK LATTICE_CART

%BLOCK POSITIONS_FRAC
P           0.105922000000000    0.732719000000000    0.847727000000000 
P           0.267281000000000    0.373204000000000    0.847727000000000 
P           0.373204000000000    0.105922000000000    0.152273000000000 
P           0.626796000000000    0.894078000000000    0.847727000000000 
P           0.732719000000000    0.626796000000000    0.152273000000000 
P           0.894078000000000    0.267281000000000    0.152273000000000 
K           0.000000000000000    0.000000000000000    0.000000000000000 
K           0.000000000000000    0.000000000000000    0.500000000000000 
K           0.000000000000000    0.500000000000000    0.000000000000000 
K           0.500000000000000    0.000000000000000    0.000000000000000 
K           0.500000000000000    0.500000000000000    0.000000000000000 
%ENDBLOCK POSITIONS_FRAC
