# Cell file generated by matador (Matthew Evans 2016)

%BLOCK LATTICE_CART
7.10294 0.0 0.0
-3.55147 6.15133 0.0
0.0 0.0 7.31117
%ENDBLOCK LATTICE_CART

%BLOCK POSITIONS_FRAC
P           0.000000000000000    0.000000000000000   -0.000000000000000 
P           0.000000000000000    0.802485000000000   -0.000000000000000 
P           0.135818000000000    0.666667000000000    0.666667000000000 
P           0.197515000000000    0.197515000000000   -0.000000000000000 
P           0.333333000000000    0.469152000000000    0.666667000000000 
P           0.333333000000000    0.666667000000000    0.666667000000000 
P           0.469152000000000    0.333333000000000    0.333333000000000 
P           0.530848000000000    0.864182000000000    0.666667000000000 
P           0.666667000000000    0.135818000000000    0.333333000000000 
P           0.666667000000000    0.333333000000000    0.333333000000000 
P           0.802485000000000    0.000000000000000   -0.000000000000000 
P           0.864182000000000    0.530848000000000    0.333333000000000 
K           0.000000000000000    0.000000000000000    0.500000000000000 
K           0.333333000000000    0.666667000000000    0.166667000000000 
K           0.666667000000000    0.333333000000000    0.833333000000000 
%ENDBLOCK POSITIONS_FRAC
