# Cell file generated by matador (Matthew Evans 2016)

%BLOCK LATTICE_CART
8.57818 0.0 0.0
-4.28909 7.42892 0.0
0.0 0.0 7.08526
%ENDBLOCK LATTICE_CART

%BLOCK POSITIONS_FRAC
P           0.000000000000000    0.000000000000000    0.000000000000000 
P           0.333333000000000    0.666667000000000    0.500000000000000 
P           0.666667000000000    0.333333000000000    0.500000000000000 
K           0.000000000000000    0.000000000000000    0.500000000000000 
K           0.000000000000000    0.472001000000000    0.278992000000000 
K           0.000000000000000    0.472001000000000    0.721008000000000 
K           0.333333000000000    0.666667000000000    0.000000000000000 
K           0.472001000000000    0.000000000000000    0.278992000000000 
K           0.472001000000000    0.000000000000000    0.721008000000000 
K           0.527999000000000    0.527999000000000    0.278992000000000 
K           0.527999000000000    0.527999000000000    0.721008000000000 
K           0.666667000000000    0.333333000000000    0.000000000000000 
%ENDBLOCK POSITIONS_FRAC
