# Cell file generated by matador (Matthew Evans 2016)

%BLOCK LATTICE_CART
7.87277 0.0 0.0
-3.93638 6.81802 0.0
0.0 0.0 10.1069
%ENDBLOCK LATTICE_CART

%BLOCK POSITIONS_FRAC
P           0.000000000000000    0.000000000000000    0.000000000000000 
P           0.000000000000000    0.000000000000000    0.500000000000000 
P           0.000000000000000    0.679501000000000    0.500000000000000 
P           0.000000000000000    0.789633000000000    0.000000000000000 
P           0.210367000000000    0.210367000000000    0.000000000000000 
P           0.320499000000000    0.320499000000000    0.500000000000000 
P           0.333333000000000    0.666667000000000    0.559512000000000 
P           0.666667000000000    0.333333000000000    0.440488000000000 
P           0.679501000000000    0.000000000000000    0.500000000000000 
P           0.789633000000000    0.000000000000000    0.000000000000000 
K           0.000000000000000    0.000000000000000    0.195255000000000 
K           0.000000000000000    0.000000000000000    0.804745000000000 
K           0.333333000000000    0.666667000000000    0.369052000000000 
K           0.333333000000000    0.666667000000000    0.747957000000000 
K           0.666667000000000    0.333333000000000    0.252043000000000 
K           0.666667000000000    0.333333000000000    0.630948000000000 
%ENDBLOCK POSITIONS_FRAC
