# Cell file generated by matador (Matthew Evans 2016)

%BLOCK LATTICE_CART
8.07063 0.0 0.0
0.0 10.9528 0.0
0.0 0.0 7.59472
%ENDBLOCK LATTICE_CART

%BLOCK POSITIONS_FRAC
P           0.022392000000000    0.635779000000000    0.500000000000000 
P           0.477608000000000    0.135779000000000    0.500000000000000 
P           0.522392000000000    0.864221000000000    0.500000000000000 
P           0.977608000000000    0.364221000000000    0.500000000000000 
K           0.107102000000000    0.115308000000000    0.000000000000000 
K           0.146096000000000    0.233437000000000    0.500000000000000 
K           0.183442000000000    0.496320000000000    0.500000000000000 
K           0.316558000000000    0.996320000000000    0.500000000000000 
K           0.353904000000000    0.733437000000000    0.500000000000000 
K           0.392898000000000    0.615308000000000    0.000000000000000 
K           0.607102000000000    0.384692000000000    0.000000000000000 
K           0.646096000000000    0.266563000000000    0.500000000000000 
K           0.683442000000000    0.003680000000000    0.500000000000000 
K           0.816558000000000    0.503680000000000    0.500000000000000 
K           0.853904000000000    0.766563000000000    0.500000000000000 
K           0.892898000000000    0.884692000000000    0.000000000000000 
%ENDBLOCK POSITIONS_FRAC
