# Cell file generated by matador (Matthew Evans 2016)

%BLOCK LATTICE_CART
4.7073 0.0 0.0
0.0 9.89751 0.0
-2.75692 0.0 8.00217
%ENDBLOCK LATTICE_CART

%BLOCK POSITIONS_FRAC
P           0.000000000000000    0.395073000000000    0.500000000000000 
P           0.000000000000000    0.520917000000000    0.000000000000000 
P           0.000000000000000    0.898639000000000    0.000000000000000 
P           0.394567000000000    0.887385000000000    0.709595000000000 
P           0.605433000000000    0.887385000000000    0.290405000000000 
K           0.000000000000000    0.188944000000000    0.500000000000000 
K           0.038148000000000    0.692513000000000    0.858157000000000 
K           0.467507000000000    0.420467000000000    0.163078000000000 
K           0.500000000000000    0.123786000000000    0.500000000000000 
K           0.500000000000000    0.474084000000000    0.500000000000000 
K           0.532493000000000    0.420467000000000    0.836922000000000 
K           0.961852000000000    0.692513000000000    0.141843000000000 
%ENDBLOCK POSITIONS_FRAC
