# Cell file generated by matador (Matthew Evans 2016)

%BLOCK LATTICE_CART
8.73825 0.0 0.0
-4.36912 7.56754 0.0
0.0 0.0 5.82508
%ENDBLOCK LATTICE_CART

%BLOCK POSITIONS_FRAC
P           0.308758000000000    0.154379000000000    0.413146000000000 
P           0.361744000000000    0.180872000000000    0.949073000000000 
P           0.819128000000000    0.180872000000000    0.949073000000000 
P           0.819128000000000    0.638256000000000    0.949073000000000 
P           0.845621000000000    0.154379000000000    0.413146000000000 
P           0.845621000000000    0.691242000000000    0.413146000000000 
K           0.000000000000000    0.000000000000000    0.366692000000000 
K           0.153046000000000    0.306092000000000    0.783277000000000 
K           0.153046000000000    0.846954000000000    0.783277000000000 
K           0.333333000000000    0.666667000000000    0.156605000000000 
K           0.693908000000000    0.846954000000000    0.783277000000000 
%ENDBLOCK POSITIONS_FRAC
