# Cell file generated by matador (Matthew Evans 2016)

%BLOCK LATTICE_CART
7.63548 0.0 0.0
0.0 5.68959 0.0
-1.23259 0.0 7.70801
%ENDBLOCK LATTICE_CART

%BLOCK POSITIONS_FRAC
P           0.000000000000000    0.687774000000000    0.500000000000000 
P           0.000000000000000    0.732813000000000    0.000000000000000 
P           0.000000000000000    0.888146000000000    0.500000000000000 
P           0.178153000000000    0.642213000000000    0.090725000000000 
P           0.500000000000000    0.670352000000000    0.000000000000000 
P           0.821847000000000    0.642213000000000    0.909275000000000 
K           0.065939000000000    0.310715000000000    0.721825000000000 
K           0.337844000000000    0.991911000000000    0.117569000000000 
K           0.500000000000000    0.262036000000000    0.000000000000000 
K           0.662156000000000    0.991911000000000    0.882431000000000 
K           0.934061000000000    0.310715000000000    0.278175000000000 
%ENDBLOCK POSITIONS_FRAC
