# Cell file generated by matador (Matthew Evans 2016)

%BLOCK LATTICE_CART
9.52552 0.0 0.0
0.0 6.23982 0.0
0.0 0.0 7.41763
%ENDBLOCK LATTICE_CART

%BLOCK POSITIONS_FRAC
P           0.000000000000000    0.090155000000000    0.675672000000000 
P           0.000000000000000    0.500000000000000    0.027589000000000 
P           0.000000000000000    0.909845000000000    0.675672000000000 
P           0.114201000000000    0.000000000000000    0.619226000000000 
P           0.500000000000000    0.000000000000000    0.128331000000000 
P           0.500000000000000    0.500000000000000    0.068997000000000 
P           0.885799000000000    0.000000000000000    0.619226000000000 
K           0.000000000000000    0.500000000000000    0.377388000000000 
K           0.135003000000000    0.500000000000000    0.684819000000000 
K           0.235411000000000    0.500000000000000    0.370934000000000 
K           0.500000000000000    0.500000000000000    0.510949000000000 
K           0.764589000000000    0.500000000000000    0.370934000000000 
K           0.864997000000000    0.500000000000000    0.684819000000000 
%ENDBLOCK POSITIONS_FRAC
