# Cell file generated by matador (Matthew Evans 2016)

%BLOCK LATTICE_CART
5.14402 0.0 0.0
0.0 4.00684 0.0
-1.93249 0.0 5.37049
%ENDBLOCK LATTICE_CART

%BLOCK POSITIONS_FRAC
P           0.000000000000000    0.068319000000000    0.500000000000000 
P           0.208762000000000    0.755076000000000    0.686544000000000 
P           0.791238000000000    0.755076000000000    0.313456000000000 
K           0.000000000000000    0.528512000000000    0.000000000000000 
%ENDBLOCK POSITIONS_FRAC
