# Cell file generated by matador (Matthew Evans 2016)

%BLOCK LATTICE_CART
7.56391 0.0 0.0
0.0 7.56391 0.0
0.0 0.0 9.37697
%ENDBLOCK LATTICE_CART

%BLOCK POSITIONS_FRAC
P          -0.000000000000000    0.000000000000000   -0.000000000000000 
P           0.118861000000000    0.712560000000000    0.500000000000000 
P           0.212560000000000    0.381139000000000   -0.000000000000000 
P           0.287440000000000    0.118861000000000    0.500000000000000 
P           0.381139000000000    0.787440000000000   -0.000000000000000 
P           0.500000000000000    0.500000000000000    0.500000000000000 
P           0.618861000000000    0.212560000000000   -0.000000000000000 
P           0.712560000000000    0.881139000000000    0.500000000000000 
P           0.787440000000000    0.618861000000000   -0.000000000000000 
P           0.881139000000000    0.287440000000000    0.500000000000000 
K           0.059232000000000    0.627941000000000   -0.000000000000000 
K           0.127941000000000    0.440768000000000    0.500000000000000 
K           0.372059000000000    0.059232000000000   -0.000000000000000 
K           0.440768000000000    0.872059000000000    0.500000000000000 
K           0.559232000000000    0.127941000000000    0.500000000000000 
K           0.627941000000000    0.940768000000000   -0.000000000000000 
K           0.872059000000000    0.559232000000000    0.500000000000000 
K           0.940768000000000    0.372059000000000   -0.000000000000000 
%ENDBLOCK POSITIONS_FRAC
