# Cell file generated by matador (Matthew Evans 2016)

%BLOCK LATTICE_CART
6.7298 0.0 0.0
0.0 6.7298 0.0
0.0 0.0 9.25515
%ENDBLOCK LATTICE_CART

%BLOCK POSITIONS_FRAC
P           0.000000000000000    0.000000000000000    0.351467000000000 
P           0.000000000000000    0.000000000000000    0.648533000000000 
P           0.000000000000000    0.500000000000000    0.000000000000000 
P           0.102943000000000    0.397057000000000    0.000000000000000 
P           0.397057000000000    0.897057000000000    0.000000000000000 
P           0.500000000000000    0.000000000000000    0.000000000000000 
P           0.500000000000000    0.500000000000000    0.351467000000000 
P           0.500000000000000    0.500000000000000    0.648533000000000 
P           0.602943000000000    0.102943000000000    0.000000000000000 
P           0.897057000000000    0.602943000000000    0.000000000000000 
K           0.113530000000000    0.825730000000000    0.000000000000000 
K           0.174270000000000    0.113530000000000    0.000000000000000 
K           0.325730000000000    0.613530000000000    0.000000000000000 
K           0.386470000000000    0.325730000000000    0.000000000000000 
K           0.613530000000000    0.674270000000000    0.000000000000000 
K           0.674270000000000    0.386470000000000    0.000000000000000 
K           0.825730000000000    0.886470000000000    0.000000000000000 
K           0.886470000000000    0.174270000000000    0.000000000000000 
%ENDBLOCK POSITIONS_FRAC
