# Cell file generated by matador (Matthew Evans 2016)

%BLOCK LATTICE_CART
5.45895 0.0 0.0
-2.72948 4.72759 0.0
0.0 0.0 12.1806
%ENDBLOCK LATTICE_CART

%BLOCK POSITIONS_FRAC
P           0.333334000000000    0.666666000000000    0.194518000000000 
P           0.666668000000000    0.333332000000000    0.194518000000000 
K           0.000001000000000    0.346379000000000    0.465255000000000 
K           0.000001000000000    0.650634000000000    0.979162000000000 
K           0.346381000000000    0.999999000000000    0.465255000000000 
K           0.349366000000000    0.349364000000000    0.979162000000000 
K           0.650636000000000    0.999999000000000    0.979162000000000 
K           0.653621000000000    0.653619000000000    0.465255000000000 
%ENDBLOCK POSITIONS_FRAC
