# Cell file generated by matador (Matthew Evans 2016)

%BLOCK LATTICE_CART
4.62268 0.0 0.0
0.0 8.99519 0.0
0.0 0.0 9.26681
%ENDBLOCK LATTICE_CART

%BLOCK POSITIONS_FRAC
P           0.070754000000000    0.500000000000000    0.247558000000000 
P           0.250000000000000    0.202399000000000    0.194864000000000 
P           0.250000000000000    0.797601000000000    0.194864000000000 
P           0.429246000000000    0.500000000000000    0.247558000000000 
P           0.570754000000000    0.500000000000000    0.752442000000000 
P           0.750000000000000    0.202399000000000    0.805136000000000 
P           0.750000000000000    0.797601000000000    0.805136000000000 
P           0.929246000000000    0.500000000000000    0.752442000000000 
K           0.000000000000000    0.000000000000000    0.000000000000000 
K           0.000000000000000    0.000000000000000    0.500000000000000 
K           0.000000000000000    0.500000000000000    0.500000000000000 
K           0.500000000000000    0.000000000000000    0.000000000000000 
K           0.500000000000000    0.000000000000000    0.500000000000000 
K           0.500000000000000    0.500000000000000    0.500000000000000 
%ENDBLOCK POSITIONS_FRAC
