# Cell file generated by matador (Matthew Evans 2016)

%BLOCK LATTICE_CART
7.05907 0.0 0.0
-3.52953 6.11333 0.0
0.0 0.0 10.0133
%ENDBLOCK LATTICE_CART

%BLOCK POSITIONS_FRAC
P           0.000000000000000    0.000000000000000    0.304733000000000 
P           0.000000000000000    0.000000000000000    0.695267000000000 
P           0.333333000000000    0.666667000000000    0.000000000000000 
P           0.333333000000000    0.666667000000000    0.301502000000000 
P           0.333333000000000    0.666667000000000    0.698498000000000 
P           0.336654000000000    0.022369000000000    0.000000000000000 
P           0.336654000000000    0.314285000000000    0.000000000000000 
P           0.666667000000000    0.333333000000000    0.000000000000000 
P           0.685715000000000    0.022369000000000    0.000000000000000 
P           0.685715000000000    0.663346000000000    0.000000000000000 
P           0.977631000000000    0.314285000000000    0.000000000000000 
P           0.977631000000000    0.663346000000000    0.000000000000000 
K           0.000000000000000    0.000000000000000    0.000000000000000 
K           0.000000000000000    0.000000000000000    0.500000000000000 
K           0.333333000000000    0.666667000000000    0.500000000000000 
%ENDBLOCK POSITIONS_FRAC
