# Cell file generated by matador (Matthew Evans 2016)

%BLOCK LATTICE_CART
6.19695 0.0 0.0
-3.09847 5.36671 0.0
0.0 0.0 5.75599
%ENDBLOCK LATTICE_CART

%BLOCK POSITIONS_FRAC
P           0.000000000000000    0.500000000000000    0.505639000000000 
P           0.333333000000000    0.666667000000000    0.094042000000000 
P           0.333333000000000    0.666667000000000    0.523005000000000 
P           0.500000000000000    0.000000000000000    0.505639000000000 
P           0.500000000000000    0.500000000000000    0.505639000000000 
P           0.666667000000000    0.333333000000000    0.094042000000000 
P           0.666667000000000    0.333333000000000    0.523005000000000 
K           0.000000000000000    0.000000000000000    0.355988000000000 
%ENDBLOCK POSITIONS_FRAC
