# Cell file generated by matador (Matthew Evans 2016)

%BLOCK LATTICE_CART
7.7945 0.0 0.0
-3.89725 6.75023 0.0
0.0 0.0 8.29201
%ENDBLOCK LATTICE_CART

%BLOCK POSITIONS_FRAC
P          -0.000000000000000   -0.000000000000000    0.241197000000000 
P          -0.000000000000000   -0.000000000000000    0.758803000000000 
P           0.333333000000000    0.666667000000000    0.425470000000000 
P           0.333333000000000    0.666667000000000    0.907863000000000 
P           0.666667000000000    0.333333000000000    0.092137000000000 
P           0.666667000000000    0.333333000000000    0.574530000000000 
K          -0.000000000000000   -0.000000000000000   -0.000000000000000 
K          -0.000000000000000   -0.000000000000000    0.500000000000000 
K           0.333333000000000    0.666667000000000    0.166667000000000 
K           0.333333000000000    0.666667000000000    0.666667000000000 
K           0.666667000000000    0.333333000000000    0.333333000000000 
K           0.666667000000000    0.333333000000000    0.833333000000000 
%ENDBLOCK POSITIONS_FRAC
