# Cell file generated by matador (Matthew Evans 2016)

%BLOCK LATTICE_CART
4.58983 0.0 0.0
0.0 4.58983 0.0
0.0 0.0 7.41872
%ENDBLOCK LATTICE_CART

%BLOCK POSITIONS_FRAC
P           0.000000000000000    0.000000000000000    0.000000000000000 
P           0.057494000000000    0.122083000000000    0.759322000000000 
P           0.122083000000000    0.942506000000000    0.240678000000000 
P           0.500000000000000    0.500000000000000    0.000000000000000 
P           0.877917000000000    0.057494000000000    0.240678000000000 
P           0.942506000000000    0.877917000000000    0.759322000000000 
K           0.000000000000000    0.000000000000000    0.500000000000000 
%ENDBLOCK POSITIONS_FRAC
