# Cell file generated by matador (Matthew Evans 2016)

%BLOCK LATTICE_CART
10.8665 0.0 0.0
-5.43325 9.41066 0.0
0.0 0.0 10.2386
%ENDBLOCK LATTICE_CART

%BLOCK POSITIONS_FRAC
P           0.000000000000000    0.000000000000000    0.341320000000000 
P           0.000000000000000    0.000000000000000    0.658680000000000 
P           0.333333000000000    0.666667000000000    0.007986000000000 
P           0.333333000000000    0.666667000000000    0.325347000000000 
P           0.666667000000000    0.333333000000000    0.674653000000000 
P           0.666667000000000    0.333333000000000    0.992014000000000 
K           0.000000000000000    0.500000000000000   -0.000000000000000 
K           0.000000000000000    0.500000000000000    0.500000000000000 
K           0.166667000000000    0.333333000000000    0.333333000000000 
K           0.166667000000000    0.333333000000000    0.833333000000000 
K           0.166667000000000    0.833333000000000    0.333333000000000 
K           0.166667000000000    0.833333000000000    0.833333000000000 
K           0.333333000000000    0.166667000000000    0.166667000000000 
K           0.333333000000000    0.166667000000000    0.666667000000000 
K           0.500000000000000   -0.000000000000000   -0.000000000000000 
K           0.500000000000000   -0.000000000000000    0.500000000000000 
K           0.500000000000000    0.500000000000000   -0.000000000000000 
K           0.500000000000000    0.500000000000000    0.500000000000000 
K           0.666667000000000    0.833333000000000    0.333333000000000 
K           0.666667000000000    0.833333000000000    0.833333000000000 
K           0.833333000000000    0.166667000000000    0.166667000000000 
K           0.833333000000000    0.166667000000000    0.666667000000000 
K           0.833333000000000    0.666667000000000    0.166667000000000 
K           0.833333000000000    0.666667000000000    0.666667000000000 
%ENDBLOCK POSITIONS_FRAC
