# Cell file generated by matador (Matthew Evans 2016)

%BLOCK LATTICE_CART
9.28787 0.0 0.0
0.0 7.80752 0.0
-2.43295 0.0 6.89327
%ENDBLOCK LATTICE_CART

%BLOCK POSITIONS_FRAC
P           0.029184000000000    0.293599000000000    0.955377000000000 
P           0.029184000000000    0.706401000000000    0.955377000000000 
P           0.415294000000000    0.000000000000000    0.791001000000000 
K           0.159379000000000    0.500000000000000    0.693522000000000 
K           0.221248000000000    0.500000000000000    0.201320000000000 
K           0.260176000000000    0.000000000000000    0.423136000000000 
K           0.414852000000000    0.000000000000000    0.070343000000000 
K           0.601866000000000    0.500000000000000    0.290709000000000 
K           0.610650000000000    0.500000000000000    0.902269000000000 
K           0.700472000000000    0.000000000000000    0.958731000000000 
K           0.713299000000000    0.000000000000000    0.399614000000000 
K           0.846568000000000    0.500000000000000    0.674344000000000 
%ENDBLOCK POSITIONS_FRAC
