# Cell file generated by matador (Matthew Evans 2016)

%BLOCK LATTICE_CART
8.39376 0.0 0.0
-4.19688 7.26921 0.0
0.0 0.0 8.37899
%ENDBLOCK LATTICE_CART

%BLOCK POSITIONS_FRAC
P           0.000000000000000    0.000000000000000    0.120828000000000 
P           0.000000000000000    0.000000000000000    0.379172000000000 
P           0.000000000000000    0.000000000000000    0.620828000000000 
P           0.000000000000000    0.000000000000000    0.879172000000000 
P           0.333333000000000    0.666667000000000    0.622429000000000 
P           0.333333000000000    0.666667000000000    0.877571000000000 
P           0.666667000000000    0.333333000000000    0.122429000000000 
P           0.666667000000000    0.333333000000000    0.377571000000000 
K           0.013934000000000    0.743901000000000    0.250000000000000 
K           0.256099000000000    0.270033000000000    0.250000000000000 
K           0.270033000000000    0.256099000000000    0.750000000000000 
K           0.729967000000000    0.986066000000000    0.250000000000000 
K           0.743901000000000    0.013934000000000    0.750000000000000 
K           0.986066000000000    0.729967000000000    0.750000000000000 
%ENDBLOCK POSITIONS_FRAC
