# Cell file generated by matador (Matthew Evans 2016)

%BLOCK LATTICE_CART
6.53274 0.0 0.0
-3.26637 5.65752 0.0
0.0 0.0 7.98553
%ENDBLOCK LATTICE_CART

%BLOCK POSITIONS_FRAC
P           0.000000000000000    0.197673000000000    0.589040000000000 
P           0.197673000000000   -0.000000000000000    0.589040000000000 
P           0.333333000000000    0.666667000000000    0.035738000000000 
P           0.666667000000000    0.333333000000000    0.035738000000000 
P           0.802327000000000    0.802327000000000    0.589040000000000 
K           0.000000000000000    0.219109000000000    0.231807000000000 
K           0.000000000000000    0.478312000000000    0.764657000000000 
K           0.219109000000000   -0.000000000000000    0.231807000000000 
K           0.478312000000000   -0.000000000000000    0.764657000000000 
K           0.521688000000000    0.521688000000000    0.764657000000000 
K           0.780891000000000    0.780891000000000    0.231807000000000 
%ENDBLOCK POSITIONS_FRAC
