# Cell file generated by matador (Matthew Evans 2016)

%BLOCK LATTICE_CART
10.925 0.0 0.0
-5.46248 9.4613 0.0
0.0 0.0 9.78364
%ENDBLOCK LATTICE_CART

%BLOCK POSITIONS_FRAC
P           0.000000000000000    0.000000000000000    0.065083000000000 
P           0.000000000000000    0.000000000000000    0.722280000000000 
P           0.333333000000000    0.666667000000000    0.388947000000000 
P           0.333333000000000    0.666667000000000    0.731750000000000 
P           0.666667000000000    0.333333000000000    0.055614000000000 
P           0.666667000000000    0.333333000000000    0.398416000000000 
K           0.092248000000000    0.546124000000000    0.572575000000000 
K           0.120543000000000    0.241086000000000    0.905908000000000 
K           0.120543000000000    0.879457000000000    0.905908000000000 
K           0.208824000000000    0.417648000000000    0.194547000000000 
K           0.208824000000000    0.791176000000000    0.194547000000000 
K           0.249019000000000    0.124509000000000    0.527880000000000 
K           0.425581000000000    0.212791000000000    0.239242000000000 
K           0.453876000000000    0.546124000000000    0.572575000000000 
K           0.453876000000000    0.907752000000000    0.572575000000000 
K           0.542157000000000    0.084314000000000    0.861214000000000 
K           0.542157000000000    0.457843000000000    0.861214000000000 
K           0.582352000000000    0.791176000000000    0.194547000000000 
K           0.758914000000000    0.879457000000000    0.905908000000000 
K           0.787209000000000    0.212791000000000    0.239242000000000 
K           0.787209000000000    0.574419000000000    0.239242000000000 
K           0.875491000000000    0.124509000000000    0.527880000000000 
K           0.875491000000000    0.750981000000000    0.527880000000000 
K           0.915686000000000    0.457843000000000    0.861214000000000 
%ENDBLOCK POSITIONS_FRAC
