# Cell file generated by matador (Matthew Evans 2016)

%BLOCK LATTICE_CART
10.1751 0.0 0.0
-5.08754 8.81187 0.0
0.0 0.0 5.55469
%ENDBLOCK LATTICE_CART

%BLOCK POSITIONS_FRAC
P           0.124616000000000    0.044706000000000    0.619279000000000 
P           0.124616000000000    0.079910000000000    0.380721000000000 
P           0.206110000000000    0.412220000000000    0.500000000000000 
P           0.206110000000000    0.793890000000000    0.500000000000000 
P           0.233349000000000    0.116675000000000    0.500000000000000 
P           0.587780000000000    0.793890000000000    0.500000000000000 
P           0.883325000000000    0.116675000000000    0.500000000000000 
P           0.883325000000000    0.766651000000000    0.500000000000000 
P           0.920090000000000    0.044706000000000    0.380721000000000 
P           0.920090000000000    0.875384000000000    0.619279000000000 
P           0.955294000000000    0.079910000000000    0.619279000000000 
P           0.955294000000000    0.875384000000000    0.380721000000000 
K           0.333333000000000    0.666667000000000    0.000000000000000 
K           0.666666000000000    0.333334000000000    0.000000000000000 
%ENDBLOCK POSITIONS_FRAC
