# Cell file generated by matador (Matthew Evans 2016)

%BLOCK LATTICE_CART
6.54975 0.0 0.0
-3.27488 5.67225 0.0
0.0 0.0 17.5424
%ENDBLOCK LATTICE_CART

%BLOCK POSITIONS_FRAC
P          -0.000000000000000   -0.000000000000000    0.574158000000000 
P           0.333333000000000    0.666667000000000    0.240825000000000 
P           0.666667000000000    0.333333000000000    0.907491000000000 
K          -0.000000000000000   -0.000000000000000    0.713601000000000 
K          -0.000000000000000   -0.000000000000000    0.969304000000000 
K           0.046301000000000    0.271197000000000    0.084768000000000 
K           0.062136000000000    0.441771000000000    0.751434000000000 
K           0.224896000000000    0.953699000000000    0.084768000000000 
K           0.333333000000000    0.666667000000000    0.380268000000000 
K           0.333333000000000    0.666667000000000    0.635971000000000 
K           0.379634000000000    0.937864000000000    0.751434000000000 
K           0.395469000000000    0.108437000000000    0.418101000000000 
K           0.558229000000000    0.620366000000000    0.751434000000000 
K           0.666667000000000    0.333333000000000    0.046934000000000 
K           0.666667000000000    0.333333000000000    0.302638000000000 
K           0.712968000000000    0.604531000000000    0.418101000000000 
K           0.728803000000000    0.775104000000000    0.084768000000000 
K           0.891563000000000    0.287032000000000    0.418101000000000 
%ENDBLOCK POSITIONS_FRAC
