# Cell file generated by matador (Matthew Evans 2016)

%BLOCK LATTICE_CART
9.134 0.0 0.0
-4.567 7.91028 0.0
0.0 0.0 9.24688
%ENDBLOCK LATTICE_CART

%BLOCK POSITIONS_FRAC
P           0.000000000000000    0.000000000000000    0.021139000000000 
P           0.000000000000000    0.000000000000000    0.601405000000000 
P           0.333333000000000    0.666667000000000    0.268071000000000 
P           0.333333000000000    0.666667000000000    0.687805000000000 
P           0.666667000000000    0.333333000000000    0.354472000000000 
P           0.666667000000000    0.333333000000000    0.934738000000000 
K           0.000000000000000    0.000000000000000    0.334984000000000 
K           0.086382000000000    0.709821000000000    0.551672000000000 
K           0.290106000000000    0.246951000000000    0.885006000000000 
K           0.290179000000000    0.376561000000000    0.551672000000000 
K           0.333333000000000    0.666667000000000    0.001651000000000 
K           0.419716000000000    0.376488000000000    0.218339000000000 
K           0.623439000000000    0.913618000000000    0.551672000000000 
K           0.623512000000000    0.043228000000000    0.218339000000000 
K           0.666667000000000    0.333333000000000    0.668317000000000 
K           0.753049000000000    0.043155000000000    0.885006000000000 
K           0.956772000000000    0.580284000000000    0.218339000000000 
K           0.956845000000000    0.709894000000000    0.885006000000000 
%ENDBLOCK POSITIONS_FRAC
