# Cell file generated by matador (Matthew Evans 2016)

%BLOCK LATTICE_CART
7.25774 0.0 0.0
0.0 6.35671 0.0
0.0 0.0 8.44732
%ENDBLOCK LATTICE_CART

%BLOCK POSITIONS_FRAC
P           0.000000000000000    0.000000000000000    0.000000000000000 
P           0.000000000000000    0.000000000000000    0.500000000000000 
P           0.000000000000000    0.500000000000000    0.000000000000000 
P           0.000000000000000    0.500000000000000    0.500000000000000 
P           0.500000000000000    0.000000000000000    0.000000000000000 
P           0.500000000000000    0.000000000000000    0.500000000000000 
P           0.500000000000000    0.500000000000000    0.500000000000000 
K           0.163662000000000    0.269943000000000    0.226681000000000 
K           0.163662000000000    0.730057000000000    0.773319000000000 
K           0.500000000000000    0.500000000000000    0.000000000000000 
K           0.836338000000000    0.269943000000000    0.773319000000000 
K           0.836338000000000    0.730057000000000    0.226681000000000 
%ENDBLOCK POSITIONS_FRAC
