# Cell file generated by matador (Matthew Evans 2016)

%BLOCK LATTICE_CART
8.79156 0.0 0.0
-4.39578 7.61371 0.0
0.0 0.0 6.63709
%ENDBLOCK LATTICE_CART

%BLOCK POSITIONS_FRAC
P          -0.000000000000000   -0.000000000000000    0.057606000000000 
P          -0.000000000000000   -0.000000000000000    0.458609000000000 
P          -0.000000000000000   -0.000000000000000    0.850088000000000 
P           0.333333000000000    0.666667000000000    0.504971000000000 
P           0.333333000000000    0.666667000000000    0.695245000000000 
P           0.333333000000000    0.666667000000000    0.900358000000000 
P           0.666667000000000    0.333333000000000    0.284098000000000 
P           0.666667000000000    0.333333000000000    0.649858000000000 
K           0.018829000000000    0.297283000000000    0.619554000000000 
K           0.018829000000000    0.721546000000000    0.619554000000000 
K           0.278454000000000    0.297283000000000    0.619554000000000 
K           0.278454000000000    0.981171000000000    0.619554000000000 
K           0.702717000000000    0.721546000000000    0.619554000000000 
K           0.702717000000000    0.981171000000000    0.619554000000000 
%ENDBLOCK POSITIONS_FRAC
