# Cell file generated by matador (Matthew Evans 2016)

%BLOCK LATTICE_CART
7.13487 0.0 0.0
-3.56744 6.17898 0.0
0.0 0.0 8.09385
%ENDBLOCK LATTICE_CART

%BLOCK POSITIONS_FRAC
P           0.000000000000000    0.000001000000000    0.247101000000000 
P           0.000000000000000    0.000001000000000    0.752898000000000 
P           0.333334000000000    0.666667000000000    0.247101000000000 
P           0.333334000000000    0.666667000000000    0.752898000000000 
P           0.666667000000000    0.333334000000000    0.252898000000000 
P           0.666667000000000    0.333334000000000    0.747102000000000 
K           0.000000000000000    0.000001000000000    0.000000000000000 
K           0.000000000000000    0.000001000000000    0.500000000000000 
K           0.333334000000000    0.666667000000000    0.000000000000000 
K           0.333334000000000    0.666667000000000    0.500000000000000 
K           0.666667000000000    0.333334000000000    0.500000000000000 
%ENDBLOCK POSITIONS_FRAC
