# Cell file generated by matador (Matthew Evans 2016)

%BLOCK LATTICE_CART
7.64196 0.0 0.0
-3.82098 6.61813 0.0
0.0 0.0 10.5442
%ENDBLOCK LATTICE_CART

%BLOCK POSITIONS_FRAC
P           0.136944000000000    0.273887000000000    0.250000000000000 
P           0.136944000000000    0.273887000000000    0.750000000000000 
P           0.136944000000000    0.863056000000000    0.250000000000000 
P           0.136944000000000    0.863056000000000    0.750000000000000 
P           0.273887000000000    0.136944000000000    0.250000000000000 
P           0.273887000000000    0.136944000000000    0.750000000000000 
P           0.726113000000000    0.863056000000000    0.250000000000000 
P           0.726113000000000    0.863056000000000    0.750000000000000 
P           0.863056000000000    0.136944000000000    0.250000000000000 
P           0.863056000000000    0.136944000000000    0.750000000000000 
P           0.863056000000000    0.726113000000000    0.250000000000000 
P           0.863056000000000    0.726113000000000    0.750000000000000 
K           0.000000000000000    0.000000000000000    0.000000000000000 
K           0.000000000000000    0.000000000000000    0.500000000000000 
%ENDBLOCK POSITIONS_FRAC
