# Cell file generated by matador (Matthew Evans 2016)

%BLOCK LATTICE_CART
7.05376 0.0 0.0
0.0 7.05376 0.0
0.0 0.0 7.05376
%ENDBLOCK LATTICE_CART

%BLOCK POSITIONS_FRAC
P           0.163701000000000    0.163701000000000    0.163701000000000 
P           0.163701000000000    0.836299000000000    0.836299000000000 
P           0.250000000000000    0.250000000000000    0.750000000000000 
P           0.250000000000000    0.750000000000000    0.250000000000000 
P           0.336299000000000    0.336299000000000    0.336299000000000 
P           0.336299000000000    0.663701000000000    0.663701000000000 
P           0.663701000000000    0.336299000000000    0.663701000000000 
P           0.663701000000000    0.663701000000000    0.336299000000000 
P           0.750000000000000    0.250000000000000    0.250000000000000 
P           0.750000000000000    0.750000000000000    0.750000000000000 
P           0.836299000000000    0.163701000000000    0.836299000000000 
P           0.836299000000000    0.836299000000000    0.163701000000000 
K           0.000000000000000    0.000000000000000    0.000000000000000 
K           0.500000000000000    0.500000000000000    0.500000000000000 
%ENDBLOCK POSITIONS_FRAC
