# Cell file generated by matador (Matthew Evans 2016)

%BLOCK LATTICE_CART
7.83921 0.0 0.0
-3.91961 6.78896 0.0
0.0 0.0 2.92635
%ENDBLOCK LATTICE_CART

%BLOCK POSITIONS_FRAC
P           0.000001000000000    0.000001000000000    0.000000000000000 
P           0.000001000000000    0.000001000000000    0.341723000000000 
P           0.000001000000000    0.000001000000000    0.658277000000000 
K           0.333334000000000    0.666668000000000    0.000000000000000 
K           0.666668000000000    0.333334000000000    0.000000000000000 
%ENDBLOCK POSITIONS_FRAC
