# Cell file generated by matador (Matthew Evans 2016)

%BLOCK LATTICE_CART
5.63879 0.0 0.0
0.0 5.27841 0.0
1.03329 0.0 3.85258
%ENDBLOCK LATTICE_CART

%BLOCK POSITIONS_FRAC
P           0.000000000000000    0.204272000000000    0.000000000000000 
K           0.000000000000000    0.528324000000000    0.500000000000000 
K           0.500000000000000    0.169084000000000    0.500000000000000 
%ENDBLOCK POSITIONS_FRAC
