# Cell file generated by matador (Matthew Evans 2016)

%BLOCK LATTICE_CART
6.75025 0.0 0.0
0.0 6.75025 0.0
0.0 0.0 6.93705
%ENDBLOCK LATTICE_CART

%BLOCK POSITIONS_FRAC
P           0.338944000000000    0.406918000000000    0.000000000000000 
P           0.406918000000000    0.661056000000000    0.000000000000000 
P           0.500000000000000    0.500000000000000    0.500000000000000 
P           0.593082000000000    0.338944000000000    0.000000000000000 
P           0.661056000000000    0.593082000000000    0.000000000000000 
K           0.000000000000000    0.000000000000000    0.500000000000000 
K           0.000000000000000    0.500000000000000    0.000000000000000 
K           0.093459000000000    0.218841000000000    0.000000000000000 
K           0.218841000000000    0.906541000000000    0.000000000000000 
K           0.500000000000000    0.000000000000000    0.000000000000000 
K           0.781159000000000    0.093459000000000    0.000000000000000 
K           0.906541000000000    0.781159000000000    0.000000000000000 
%ENDBLOCK POSITIONS_FRAC
