# Cell file generated by matador (Matthew Evans 2016)

%BLOCK LATTICE_CART
7.74838 0.0 0.0
0.0 7.74838 0.0
0.0 0.0 7.74838
%ENDBLOCK LATTICE_CART

%BLOCK POSITIONS_FRAC
P           0.000000000000000    0.000000000000000    0.000000000000000 
P           0.000000000000000    0.000000000000000    0.181399000000000 
P           0.000000000000000    0.000000000000000    0.818601000000000 
P           0.000000000000000    0.181399000000000    0.000000000000000 
P           0.000000000000000    0.818601000000000    0.000000000000000 
P           0.181399000000000    0.000000000000000    0.000000000000000 
P           0.500000000000000    0.500000000000000    0.500000000000000 
P           0.818601000000000    0.000000000000000    0.000000000000000 
K           0.000000000000000    0.000000000000000    0.500000000000000 
K           0.000000000000000    0.500000000000000    0.000000000000000 
K           0.000000000000000    0.500000000000000    0.500000000000000 
K           0.500000000000000    0.000000000000000    0.000000000000000 
K           0.500000000000000    0.000000000000000    0.500000000000000 
K           0.500000000000000    0.500000000000000    0.000000000000000 
%ENDBLOCK POSITIONS_FRAC
