# Cell file generated by matador (Matthew Evans 2016)

%BLOCK LATTICE_CART
9.66438 0.0 0.0
-4.83219 8.3696 0.0
0.0 0.0 10.4055
%ENDBLOCK LATTICE_CART

%BLOCK POSITIONS_FRAC
P           0.000000000000000   -0.000000000000000    0.763804000000000 
P           0.000000000000000   -0.000000000000000    0.987808000000000 
P           0.333333000000000    0.666667000000000    0.430471000000000 
P           0.333333000000000    0.666667000000000    0.654475000000000 
P           0.666667000000000    0.333333000000000    0.097137000000000 
P           0.666667000000000    0.333333000000000    0.321142000000000 
K           0.095388000000000    0.547694000000000    0.224486000000000 
K           0.118973000000000    0.237946000000000    0.557820000000000 
K           0.118973000000000    0.881027000000000    0.557820000000000 
K           0.169223000000000    0.338446000000000    0.967876000000000 
K           0.169223000000000    0.830777000000000    0.967876000000000 
K           0.328221000000000    0.164111000000000    0.301209000000000 
K           0.428721000000000    0.214361000000000    0.891153000000000 
K           0.452306000000000    0.547694000000000    0.224486000000000 
K           0.452306000000000    0.904612000000000    0.224486000000000 
K           0.502556000000000    0.005112000000000    0.634542000000000 
K           0.502556000000000    0.497444000000000    0.634542000000000 
K           0.661554000000000    0.830777000000000    0.967876000000000 
K           0.762054000000000    0.881027000000000    0.557820000000000 
K           0.785639000000000    0.214361000000000    0.891153000000000 
K           0.785639000000000    0.571279000000000    0.891153000000000 
K           0.835889000000000    0.164111000000000    0.301209000000000 
K           0.835889000000000    0.671779000000000    0.301209000000000 
K           0.994888000000000    0.497444000000000    0.634542000000000 
%ENDBLOCK POSITIONS_FRAC
