# Cell file generated by matador (Matthew Evans 2016)

%BLOCK LATTICE_CART
9.44789 0.0 0.0
-4.72394 8.18211 0.0
0.0 0.0 8.1918
%ENDBLOCK LATTICE_CART

%BLOCK POSITIONS_FRAC
P           0.000000000000000    0.000000000000000    0.008875000000000 
P           0.333333000000000    0.666667000000000    0.388219000000000 
P           0.666667000000000    0.333333000000000    0.559084000000000 
P           0.666667000000000    0.333333000000000    0.954928000000000 
K           0.090167000000000    0.545084000000000    0.663096000000000 
K           0.234655000000000    0.117328000000000    0.169786000000000 
K           0.329545000000000    0.164772000000000    0.661430000000000 
K           0.454916000000000    0.545084000000000    0.663096000000000 
K           0.454916000000000    0.909833000000000    0.663096000000000 
K           0.512776000000000    0.025552000000000    0.202769000000000 
K           0.512776000000000    0.487224000000000    0.202769000000000 
K           0.835228000000000    0.164772000000000    0.661430000000000 
K           0.835228000000000    0.670455000000000    0.661430000000000 
K           0.882672000000000    0.117328000000000    0.169786000000000 
K           0.882672000000000    0.765345000000000    0.169786000000000 
K           0.974448000000000    0.487224000000000    0.202769000000000 
%ENDBLOCK POSITIONS_FRAC
