# Cell file generated by matador (Matthew Evans 2016)

%BLOCK LATTICE_CART
6.8303 0.0 0.0
0.0 8.67423 0.0
0.0 0.0 9.51546
%ENDBLOCK LATTICE_CART

%BLOCK POSITIONS_FRAC
P           0.020254000000000    0.250000000000000    0.876186000000000 
P           0.020254000000000    0.750000000000000    0.376186000000000 
P           0.979746000000000    0.250000000000000    0.376186000000000 
P           0.979746000000000    0.750000000000000    0.876186000000000 
K           0.205933000000000    0.250000000000000    0.590984000000000 
K           0.205933000000000    0.750000000000000    0.090984000000000 
K           0.220773000000000    0.250000000000000    0.030041000000000 
K           0.220773000000000    0.750000000000000    0.530041000000000 
K           0.440460000000000    0.250000000000000    0.294958000000000 
K           0.440460000000000    0.750000000000000    0.794958000000000 
K           0.559540000000000    0.250000000000000    0.794958000000000 
K           0.559540000000000    0.750000000000000    0.294958000000000 
K           0.779227000000000    0.250000000000000    0.530041000000000 
K           0.779227000000000    0.750000000000000    0.030041000000000 
K           0.794067000000000    0.250000000000000    0.090984000000000 
K           0.794067000000000    0.750000000000000    0.590984000000000 
%ENDBLOCK POSITIONS_FRAC
