# Cell file generated by matador (Matthew Evans 2016)

%BLOCK LATTICE_CART
10.593 0.0 0.0
0.0 10.593 0.0
0.0 0.0 8.12889
%ENDBLOCK LATTICE_CART

%BLOCK POSITIONS_FRAC
P           0.000000000000000    0.500000000000000    0.454275000000000 
P           0.101836000000000    0.601836000000000    0.879589000000000 
P           0.398164000000000    0.101836000000000    0.879589000000000 
P           0.500000000000000    0.000000000000000    0.454275000000000 
P           0.601836000000000    0.898164000000000    0.879589000000000 
P           0.898164000000000    0.398164000000000    0.879589000000000 
K           0.000000000000000    0.000000000000000    0.040678000000000 
K           0.113866000000000    0.613866000000000    0.601407000000000 
K           0.158933000000000    0.341067000000000    0.691330000000000 
K           0.228511000000000    0.728511000000000    0.989731000000000 
K           0.243966000000000    0.256034000000000    0.347853000000000 
K           0.256034000000000    0.756034000000000    0.347853000000000 
K           0.271489000000000    0.228511000000000    0.989731000000000 
K           0.341067000000000    0.841067000000000    0.691330000000000 
K           0.386134000000000    0.113866000000000    0.601407000000000 
K           0.500000000000000    0.500000000000000    0.040678000000000 
K           0.613866000000000    0.886134000000000    0.601407000000000 
K           0.658933000000000    0.158933000000000    0.691330000000000 
K           0.728511000000000    0.771489000000000    0.989731000000000 
K           0.743966000000000    0.243966000000000    0.347853000000000 
K           0.756034000000000    0.743966000000000    0.347853000000000 
K           0.771489000000000    0.271489000000000    0.989731000000000 
K           0.841067000000000    0.658933000000000    0.691330000000000 
K           0.886134000000000    0.386134000000000    0.601407000000000 
%ENDBLOCK POSITIONS_FRAC
