# Cell file generated by matador (Matthew Evans 2016)

%BLOCK LATTICE_CART
6.93052 0.0 0.0
-3.46526 6.00201 0.0
0.0 0.0 8.94828
%ENDBLOCK LATTICE_CART

%BLOCK POSITIONS_FRAC
P           0.000000000000000    0.000000000000000    0.028643000000000 
P           0.000000000000000    0.000000000000000    0.257717000000000 
P           0.000000000000000    0.000000000000000    0.490371000000000 
P           0.666667000000000    0.333333000000000    0.228871000000000 
P           0.666667000000000    0.333333000000000    0.603789000000000 
K           0.333333000000000    0.666667000000000    0.527737000000000 
K           0.333333000000000    0.666667000000000    0.962749000000000 
K           0.438490000000000    0.103515000000000    0.810050000000000 
K           0.665026000000000    0.561510000000000    0.810050000000000 
K           0.666667000000000    0.333333000000000    0.988940000000000 
K           0.896485000000000    0.334974000000000    0.810050000000000 
%ENDBLOCK POSITIONS_FRAC
