# Cell file generated by matador (Matthew Evans 2016)

%BLOCK LATTICE_CART
9.63769 0.0 0.0
0.0 9.63769 0.0
0.0 0.0 8.05456
%ENDBLOCK LATTICE_CART

%BLOCK POSITIONS_FRAC
P           0.000000000000000    0.500000000000000    0.000000000000000 
P           0.000000000000000    0.500000000000000    0.251694000000000 
P           0.000000000000000    0.500000000000000    0.748306000000000 
P           0.147218000000000    0.352782000000000    0.922798000000000 
P           0.147218000000000    0.647218000000000    0.077202000000000 
P           0.352782000000000    0.147218000000000    0.077202000000000 
P           0.352782000000000    0.852782000000000    0.922798000000000 
P           0.500000000000000    0.000000000000000    0.000000000000000 
P           0.500000000000000    0.000000000000000    0.251694000000000 
P           0.500000000000000    0.000000000000000    0.748306000000000 
P           0.647218000000000    0.147218000000000    0.922798000000000 
P           0.647218000000000    0.852782000000000    0.077202000000000 
P           0.852782000000000    0.352782000000000    0.077202000000000 
P           0.852782000000000    0.647218000000000    0.922798000000000 
K           0.000000000000000    0.000000000000000    0.000000000000000 
K           0.000000000000000    0.000000000000000    0.500000000000000 
K           0.000000000000000    0.500000000000000    0.500000000000000 
K           0.500000000000000    0.000000000000000    0.500000000000000 
K           0.500000000000000    0.500000000000000    0.000000000000000 
K           0.500000000000000    0.500000000000000    0.500000000000000 
%ENDBLOCK POSITIONS_FRAC
