# Cell file generated by matador (Matthew Evans 2016)

%BLOCK LATTICE_CART
7.21791 0.0 0.0
0.0 7.21791 0.0
0.0 0.0 7.69212
%ENDBLOCK LATTICE_CART

%BLOCK POSITIONS_FRAC
P           0.000000000000000    0.000000000000000    0.261689000000000 
P           0.000000000000000    0.500000000000000    0.196167000000000 
P           0.500000000000000    0.000000000000000    0.196167000000000 
P           0.500000000000000    0.500000000000000    0.103344000000000 
P           0.500000000000000    0.500000000000000    0.422359000000000 
P           0.500000000000000    0.500000000000000    0.557291000000000 
K           0.000000000000000    0.000000000000000    0.829242000000000 
K           0.000000000000000    0.500000000000000    0.626188000000000 
K           0.215648000000000    0.215648000000000    0.066008000000000 
K           0.215648000000000    0.784352000000000    0.066008000000000 
K           0.500000000000000    0.000000000000000    0.626188000000000 
K           0.784352000000000    0.215648000000000    0.066008000000000 
K           0.784352000000000    0.784352000000000    0.066008000000000 
%ENDBLOCK POSITIONS_FRAC
