# Cell file generated by matador (Matthew Evans 2016)

%BLOCK LATTICE_CART
10.8773 0.0 0.0
0.0 5.15475 0.0
3.45229 0.0 7.20472
%ENDBLOCK LATTICE_CART

%BLOCK POSITIONS_FRAC
P           0.094679000000000    0.801215000000000    0.700592000000000 
P           0.204342000000000    0.846226000000000    0.216881000000000 
P           0.224744000000000    0.115098000000000    0.008453000000000 
P           0.775256000000000    0.115098000000000    0.991547000000000 
P           0.795658000000000    0.846226000000000    0.783119000000000 
P           0.905321000000000    0.801215000000000    0.299408000000000 
K           0.000000000000000    0.657734000000000    0.000000000000000 
K           0.277552000000000    0.333945000000000    0.233674000000000 
K           0.428884000000000    0.766922000000000    0.410960000000000 
K           0.500000000000000    0.319533000000000    0.500000000000000 
K           0.500000000000000    0.855044000000000    0.000000000000000 
K           0.571116000000000    0.766922000000000    0.589040000000000 
K           0.722448000000000    0.333945000000000    0.766326000000000 
%ENDBLOCK POSITIONS_FRAC
