# Cell file generated by matador (Matthew Evans 2016)

%BLOCK LATTICE_CART
10.0449 0.0 0.0
-5.02245 8.69913 0.0
0.0 0.0 6.85891
%ENDBLOCK LATTICE_CART

%BLOCK POSITIONS_FRAC
P           0.000001000000000    0.000001000000000    0.194765000000000 
P           0.000001000000000    0.000001000000000    0.805235000000000 
P           0.000001000000000    0.500001000000000    0.185338000000000 
P           0.000001000000000    0.500001000000000    0.814662000000000 
P           0.333334000000000    0.666668000000000    0.500000000000000 
P           0.500001000000000    0.000001000000000    0.185338000000000 
P           0.500001000000000    0.000001000000000    0.814662000000000 
P           0.500001000000000    0.500001000000000    0.185338000000000 
P           0.500001000000000    0.500001000000000    0.814662000000000 
P           0.666668000000000    0.333334000000000    0.500000000000000 
K           0.162211000000000    0.760033000000000    0.500000000000000 
K           0.239969000000000    0.402180000000000    0.500000000000000 
K           0.402180000000000    0.162211000000000    0.500000000000000 
K           0.597822000000000    0.837791000000000    0.500000000000000 
K           0.760033000000000    0.597822000000000    0.500000000000000 
K           0.837791000000000    0.239969000000000    0.500000000000000 
%ENDBLOCK POSITIONS_FRAC
