# Cell file generated by matador (Matthew Evans 2016)

%BLOCK LATTICE_CART
8.58819 -0.0 0.0
-4.29409 7.43759 0.0
0.0 0.0 6.14288
%ENDBLOCK LATTICE_CART

%BLOCK POSITIONS_FRAC
P          -0.000000000000000   -0.000000000000000    0.041879000000000 
P           0.180281000000000    0.471063000000000    0.672062000000000 
P           0.195604000000000    0.042552000000000    0.005396000000000 
P           0.290782000000000    0.819719000000000    0.672062000000000 
P           0.333333000000000    0.666667000000000    0.708546000000000 
P           0.513614000000000    0.137729000000000    0.338729000000000 
P           0.528937000000000    0.709218000000000    0.672062000000000 
P           0.624115000000000    0.486386000000000    0.338729000000000 
P           0.666667000000000    0.333333000000000    0.375212000000000 
P           0.846948000000000    0.804396000000000    0.005396000000000 
P           0.862271000000000    0.375885000000000    0.338729000000000 
P           0.957448000000000    0.153052000000000    0.005396000000000 
K          -0.000000000000000   -0.000000000000000    0.379249000000000 
K           0.333333000000000    0.666667000000000    0.045915000000000 
K           0.666667000000000    0.333333000000000    0.712582000000000 
%ENDBLOCK POSITIONS_FRAC
