# Cell file generated by matador (Matthew Evans 2016)

%BLOCK LATTICE_CART
7.48726 0.0 0.0
-3.74363 6.48416 0.0
0.0 0.0 8.75922
%ENDBLOCK LATTICE_CART

%BLOCK POSITIONS_FRAC
P           0.000000000000000    0.000000000000000    0.059939000000000 
P           0.000000000000000    0.000000000000000    0.233167000000000 
P           0.024229000000000    0.689210000000000    0.595458000000000 
P           0.310790000000000    0.335019000000000    0.595458000000000 
P           0.455657000000000    0.190788000000000    0.567492000000000 
P           0.557373000000000    0.119727000000000    0.303357000000000 
P           0.562354000000000    0.442627000000000    0.303357000000000 
P           0.664981000000000    0.975771000000000    0.595458000000000 
P           0.666667000000000    0.333333000000000    0.638477000000000 
P           0.735132000000000    0.544343000000000    0.567492000000000 
P           0.809212000000000    0.264868000000000    0.567492000000000 
P           0.880273000000000    0.437646000000000    0.303357000000000 
K           0.155089000000000    0.443446000000000    0.213620000000000 
K           0.288357000000000    0.844911000000000    0.213620000000000 
K           0.333333000000000    0.666667000000000    0.388014000000000 
K           0.556554000000000    0.711643000000000    0.213620000000000 
%ENDBLOCK POSITIONS_FRAC
