# Cell file generated by matador (Matthew Evans 2016)

%BLOCK LATTICE_CART
8.76029 0.0 0.0
0.0 8.76029 0.0
0.0 0.0 12.7803
%ENDBLOCK LATTICE_CART

%BLOCK POSITIONS_FRAC
P           0.000000000000000    0.500000000000000    0.500000000000000 
P           0.250000000000000    0.250000000000000    0.000000000000000 
P           0.250000000000000    0.750000000000000    0.000000000000000 
P           0.500000000000000    0.000000000000000    0.500000000000000 
P           0.750000000000000    0.250000000000000    0.000000000000000 
P           0.750000000000000    0.750000000000000    0.000000000000000 
K           0.000000000000000    0.000000000000000    0.000000000000000 
K           0.000000000000000    0.000000000000000    0.500000000000000 
K           0.000000000000000    0.500000000000000    0.000000000000000 
K           0.197472000000000    0.302528000000000    0.270854000000000 
K           0.197472000000000    0.697472000000000    0.729146000000000 
K           0.250000000000000    0.250000000000000    0.500000000000000 
K           0.250000000000000    0.750000000000000    0.500000000000000 
K           0.302528000000000    0.197472000000000    0.729146000000000 
K           0.302528000000000    0.802528000000000    0.270854000000000 
K           0.500000000000000    0.000000000000000    0.000000000000000 
K           0.500000000000000    0.500000000000000    0.000000000000000 
K           0.500000000000000    0.500000000000000    0.500000000000000 
K           0.697472000000000    0.197472000000000    0.270854000000000 
K           0.697472000000000    0.802528000000000    0.729146000000000 
K           0.750000000000000    0.250000000000000    0.500000000000000 
K           0.750000000000000    0.750000000000000    0.500000000000000 
K           0.802528000000000    0.302528000000000    0.729146000000000 
K           0.802528000000000    0.697472000000000    0.270854000000000 
%ENDBLOCK POSITIONS_FRAC
