# Cell file generated by matador (Matthew Evans 2016)

%BLOCK LATTICE_CART
11.1659 0.0 0.0
0.0 6.166 0.0
-0.776489 0.0 4.45372
%ENDBLOCK LATTICE_CART

%BLOCK POSITIONS_FRAC
P           0.732648000000000    0.255740000000000    0.658194000000000 
P           0.732648000000000    0.744260000000000    0.658194000000000 
K           0.036191000000000    0.500000000000000    0.453289000000000 
K           0.141262000000000    0.000000000000000    0.575036000000000 
K           0.330051000000000    0.500000000000000    0.476630000000000 
K           0.598384000000000    0.500000000000000    0.293896000000000 
K           0.613750000000000    0.000000000000000    0.879051000000000 
K           0.834950000000000    0.500000000000000    0.911553000000000 
%ENDBLOCK POSITIONS_FRAC
