# Cell file generated by matador (Matthew Evans 2016)

%BLOCK LATTICE_CART
10.5707 0.0 0.0
-5.28533 9.15445 0.0
0.0 0.0 6.33978
%ENDBLOCK LATTICE_CART

%BLOCK POSITIONS_FRAC
P           0.000000000000000   -0.000000000000000    0.000000000000000 
P           0.000000000000000   -0.000000000000000    0.500000000000000 
P           0.238708000000000    0.477414000000000    0.000000000000000 
P           0.238708000000000    0.761292000000000    0.000000000000000 
P           0.333334000000000    0.666666000000000    0.342266000000000 
P           0.333334000000000    0.666666000000000    0.500000000000000 
P           0.333334000000000    0.666666000000000    0.657734000000000 
P           0.447334000000000    0.223667000000000    0.500000000000000 
P           0.513048000000000    0.026096000000000    0.000000000000000 
P           0.513048000000000    0.486952000000000    0.000000000000000 
P           0.522586000000000    0.761292000000000    0.000000000000000 
P           0.776333000000000    0.223667000000000    0.500000000000000 
P           0.776333000000000    0.552666000000000    0.500000000000000 
P           0.973904000000000    0.486952000000000    0.000000000000000 
K           0.666667000000000    0.333333000000000    0.000000000000000 
K           0.666667000000000    0.333333000000000    0.500000000000000 
%ENDBLOCK POSITIONS_FRAC
