# Cell file generated by matador (Matthew Evans 2016)

%BLOCK LATTICE_CART
9.23941 0.0 0.0
-4.61971 8.00157 0.0
0.0 0.0 8.51526
%ENDBLOCK LATTICE_CART

%BLOCK POSITIONS_FRAC
P           0.333332000000000    0.666668000000000    0.000000000000000 
P           0.333332000000000    0.666668000000000    0.500000000000000 
P           0.666666000000000    0.333334000000000    0.000000000000000 
P           0.666666000000000    0.333334000000000    0.500000000000000 
K           0.999999000000000    0.612821000000000    0.294610000000000 
K           0.999999000000000    0.612821000000000    0.705390000000000 
K           0.193081000000000    0.402849000000000    0.000000000000000 
K           0.209765000000000    0.806919000000000    0.000000000000000 
K           0.387179000000000    0.387181000000000    0.294610000000000 
K           0.387179000000000    0.387181000000000    0.705390000000000 
K           0.402847000000000    0.193083000000000    0.000000000000000 
K           0.597151000000000    0.790235000000000    0.000000000000000 
K           0.612819000000000    0.000001000000000    0.294610000000000 
K           0.612819000000000    0.000001000000000    0.705390000000000 
K           0.790233000000000    0.597153000000000    0.000000000000000 
K           0.806917000000000    0.209767000000000    0.000000000000000 
%ENDBLOCK POSITIONS_FRAC
