# Cell file generated by matador (Matthew Evans 2016)

%BLOCK LATTICE_CART
9.6149 0.0 0.0
-4.80745 8.32674 0.0
0.0 0.0 6.97453
%ENDBLOCK LATTICE_CART

%BLOCK POSITIONS_FRAC
P           0.000000000000000   -0.000000000000000    0.000000000000000 
P           0.000000000000000   -0.000000000000000    0.500000000000000 
P           0.117004000000000    0.325958000000000    0.878645000000000 
P           0.208954000000000    0.882996000000000    0.878645000000000 
P           0.325958000000000    0.208954000000000    0.121355000000000 
P           0.333333000000000    0.666667000000000    0.302704000000000 
P           0.666667000000000    0.333333000000000    0.697296000000000 
P           0.674042000000000    0.791046000000000    0.878645000000000 
P           0.791046000000000    0.117004000000000    0.121355000000000 
P           0.882996000000000    0.674042000000000    0.121355000000000 
K           0.000000000000000    0.500000000000000    0.000000000000000 
K           0.000000000000000    0.500000000000000    0.500000000000000 
K           0.500000000000000   -0.000000000000000    0.000000000000000 
K           0.500000000000000   -0.000000000000000    0.500000000000000 
K           0.500000000000000    0.500000000000000    0.000000000000000 
K           0.500000000000000    0.500000000000000    0.500000000000000 
%ENDBLOCK POSITIONS_FRAC
