# Cell file generated by matador (Matthew Evans 2016)

%BLOCK LATTICE_CART
8.09046 0.0 0.0
-4.04523 7.00654 0.0
0.0 0.0 6.472
%ENDBLOCK LATTICE_CART

%BLOCK POSITIONS_FRAC
P           0.000000000000000    0.000000000000000    0.000000000000000 
P           0.000000000000000    0.000000000000000    0.166667000000000 
P           0.000000000000000    0.000000000000000    0.333333000000000 
P           0.000000000000000    0.000000000000000    0.500000000000000 
P           0.000000000000000    0.000000000000000    0.666667000000000 
P           0.000000000000000    0.000000000000000    0.833333000000000 
P           0.000000000000000    0.500000000000000    0.166667000000000 
P           0.500000000000000    0.000000000000000    0.500000000000000 
P           0.500000000000000    0.500000000000000    0.833333000000000 
K           0.000000000000000    0.500000000000000    0.666667000000000 
K           0.500000000000000    0.000000000000000    0.000000000000000 
K           0.500000000000000    0.500000000000000    0.333333000000000 
%ENDBLOCK POSITIONS_FRAC
