# Cell file generated by matador (Matthew Evans 2016)

%BLOCK LATTICE_CART
10.0891 0.0 0.0
0.0 10.0891 0.0
0.0 0.0 11.9496
%ENDBLOCK LATTICE_CART

%BLOCK POSITIONS_FRAC
P           0.000000000000000    0.000000000000000    0.453550000000000 
P           0.000000000000000    0.000000000000000    0.622864000000000 
P           0.000000000000000    0.500000000000000    0.703550000000000 
P           0.000000000000000    0.500000000000000    0.872864000000000 
P           0.500000000000000    0.000000000000000    0.203550000000000 
P           0.500000000000000    0.000000000000000    0.372864000000000 
P           0.500000000000000    0.500000000000000    0.122864000000000 
P           0.500000000000000    0.500000000000000    0.953550000000000 
K           0.000000000000000    0.230121000000000    0.796786000000000 
K           0.000000000000000    0.233688000000000    0.118733000000000 
K           0.000000000000000    0.317258000000000    0.415760000000000 
K           0.000000000000000    0.682742000000000    0.415760000000000 
K           0.000000000000000    0.766312000000000    0.118733000000000 
K           0.000000000000000    0.769879000000000    0.796786000000000 
K           0.182742000000000    0.000000000000000    0.165760000000000 
K           0.230121000000000    0.500000000000000    0.046786000000000 
K           0.233688000000000    0.500000000000000    0.368733000000000 
K           0.266312000000000    0.000000000000000    0.868733000000000 
K           0.269879000000000    0.000000000000000    0.546786000000000 
K           0.317258000000000    0.500000000000000    0.665760000000000 
K           0.500000000000000    0.182742000000000    0.915760000000000 
K           0.500000000000000    0.266312000000000    0.618733000000000 
K           0.500000000000000    0.269879000000000    0.296786000000000 
K           0.500000000000000    0.730121000000000    0.296786000000000 
K           0.500000000000000    0.733688000000000    0.618733000000000 
K           0.500000000000000    0.817258000000000    0.915760000000000 
K           0.682742000000000    0.500000000000000    0.665760000000000 
K           0.730121000000000    0.000000000000000    0.546786000000000 
K           0.733688000000000    0.000000000000000    0.868733000000000 
K           0.766312000000000    0.500000000000000    0.368733000000000 
K           0.769879000000000    0.500000000000000    0.046786000000000 
K           0.817258000000000    0.000000000000000    0.165760000000000 
%ENDBLOCK POSITIONS_FRAC
