# Cell file generated by matador (Matthew Evans 2016)

%BLOCK LATTICE_CART
9.78611 0.0 0.0
-4.89306 8.47502 0.0
0.0 0.0 11.2725
%ENDBLOCK LATTICE_CART

%BLOCK POSITIONS_FRAC
P           0.000000000000000    0.000000000000000    0.000000000000000 
P           0.000000000000000    0.000000000000000    0.250000000000000 
P           0.000000000000000    0.000000000000000    0.500000000000000 
P           0.000000000000000    0.000000000000000    0.750000000000000 
P           0.333333000000000    0.666667000000000    0.250000000000000 
P           0.666667000000000    0.333333000000000    0.750000000000000 
K           0.000000000000000    0.500000000000000    0.000000000000000 
K           0.000000000000000    0.500000000000000    0.500000000000000 
K           0.058065000000000    0.741822000000000    0.750000000000000 
K           0.114085000000000    0.667816000000000    0.250000000000000 
K           0.258178000000000    0.316242000000000    0.750000000000000 
K           0.316242000000000    0.058065000000000    0.250000000000000 
K           0.332184000000000    0.446270000000000    0.250000000000000 
K           0.446270000000000    0.114085000000000    0.750000000000000 
K           0.500000000000000    0.000000000000000    0.000000000000000 
K           0.500000000000000    0.000000000000000    0.500000000000000 
K           0.500000000000000    0.500000000000000    0.000000000000000 
K           0.500000000000000    0.500000000000000    0.500000000000000 
K           0.553730000000000    0.885915000000000    0.250000000000000 
K           0.667816000000000    0.553730000000000    0.750000000000000 
K           0.683758000000000    0.941935000000000    0.750000000000000 
K           0.741822000000000    0.683758000000000    0.250000000000000 
K           0.885915000000000    0.332184000000000    0.750000000000000 
K           0.941935000000000    0.258178000000000    0.250000000000000 
%ENDBLOCK POSITIONS_FRAC
