# Cell file generated by matador (Matthew Evans 2016)

%BLOCK LATTICE_CART
9.0324 0.0 0.0
-4.5162 7.82229 0.0
0.0 0.0 9.09332
%ENDBLOCK LATTICE_CART

%BLOCK POSITIONS_FRAC
P           0.000000000000000    0.000000000000000    0.000000000000000 
P           0.000000000000000    0.000000000000000    0.500000000000000 
P           0.333333000000000    0.666667000000000    0.500000000000000 
P           0.666667000000000    0.333333000000000    0.500000000000000 
K           0.000000000000000    0.276459000000000    0.766807000000000 
K           0.000000000000000    0.500000000000000    0.000000000000000 
K           0.000000000000000    0.500000000000000    0.500000000000000 
K           0.000000000000000    0.723541000000000    0.233193000000000 
K           0.276459000000000    0.000000000000000    0.766807000000000 
K           0.276459000000000    0.276459000000000    0.233193000000000 
K           0.500000000000000    0.000000000000000    0.000000000000000 
K           0.500000000000000    0.000000000000000    0.500000000000000 
K           0.500000000000000    0.500000000000000    0.000000000000000 
K           0.500000000000000    0.500000000000000    0.500000000000000 
K           0.723541000000000    0.000000000000000    0.233193000000000 
K           0.723541000000000    0.723541000000000    0.766807000000000 
%ENDBLOCK POSITIONS_FRAC
