# Cell file generated by matador (Matthew Evans 2016)

%BLOCK LATTICE_CART
11.9493 0.0 0.0
0.0 11.9493 0.0
0.0 0.0 8.87763
%ENDBLOCK LATTICE_CART

%BLOCK POSITIONS_FRAC
P           0.000000000000000    0.500000000000000    0.000000000000000 
P           0.000000000000000    0.500000000000000    0.500000000000000 
P           0.123418000000000    0.123418000000000    0.000000000000000 
P           0.376582000000000    0.623418000000000    0.500000000000000 
P           0.500000000000000    0.000000000000000    0.000000000000000 
P           0.500000000000000    0.000000000000000    0.500000000000000 
P           0.623418000000000    0.376582000000000    0.500000000000000 
P           0.876582000000000    0.876582000000000    0.000000000000000 
K           0.000000000000000    0.000000000000000    0.000000000000000 
K           0.000000000000000    0.000000000000000    0.500000000000000 
K           0.000000000000000    0.500000000000000    0.250000000000000 
K           0.000000000000000    0.500000000000000    0.750000000000000 
K           0.055359000000000    0.715714000000000    0.000000000000000 
K           0.072479000000000    0.678948000000000    0.500000000000000 
K           0.178948000000000    0.427521000000000    0.000000000000000 
K           0.215714000000000    0.444641000000000    0.500000000000000 
K           0.284286000000000    0.944641000000000    0.000000000000000 
K           0.321052000000000    0.927521000000000    0.500000000000000 
K           0.427521000000000    0.178948000000000    0.000000000000000 
K           0.444641000000000    0.215714000000000    0.500000000000000 
K           0.500000000000000    0.000000000000000    0.250000000000000 
K           0.500000000000000    0.000000000000000    0.750000000000000 
K           0.500000000000000    0.500000000000000    0.000000000000000 
K           0.500000000000000    0.500000000000000    0.500000000000000 
K           0.555359000000000    0.784286000000000    0.500000000000000 
K           0.572479000000000    0.821052000000000    0.000000000000000 
K           0.678948000000000    0.072479000000000    0.500000000000000 
K           0.715714000000000    0.055359000000000    0.000000000000000 
K           0.784286000000000    0.555359000000000    0.500000000000000 
K           0.821052000000000    0.572479000000000    0.000000000000000 
K           0.927521000000000    0.321052000000000    0.500000000000000 
K           0.944641000000000    0.284286000000000    0.000000000000000 
%ENDBLOCK POSITIONS_FRAC
