# Cell file generated by matador (Matthew Evans 2016)

%BLOCK LATTICE_CART
8.98619 0.0 0.0
-4.4931 7.78227 0.0
0.0 0.0 6.70419
%ENDBLOCK LATTICE_CART

%BLOCK POSITIONS_FRAC
P           0.161562000000000    0.323123000000000    0.000000000000000 
P           0.161562000000000    0.838438000000000    0.000000000000000 
P           0.666667000000000    0.333333000000000    0.000000000000000 
P           0.676877000000000    0.838438000000000    0.000000000000000 
K           0.000000000000000   -0.000000000000000    0.000000000000000 
K           0.009541000000000    0.470524000000000    0.820321000000000 
K           0.009541000000000    0.539016000000000    0.179679000000000 
K           0.333334000000000    0.666666000000000    0.000000000000000 
K           0.333334000000000    0.666666000000000    0.500000000000000 
K           0.460984000000000    0.470524000000000    0.179679000000000 
K           0.460984000000000    0.990459000000000    0.820321000000000 
K           0.529476000000000    0.539016000000000    0.820321000000000 
K           0.529476000000000    0.990459000000000    0.179679000000000 
K           0.666667000000000    0.333333000000000    0.500000000000000 
%ENDBLOCK POSITIONS_FRAC
