# Cell file generated by matador (Matthew Evans 2016)

%BLOCK LATTICE_CART
6.13916 0.0 0.0
-3.06958 5.31667 0.0
0.0 0.0 5.51183
%ENDBLOCK LATTICE_CART

%BLOCK POSITIONS_FRAC
P           0.000000000000000    0.260349000000000    0.238160000000000 
P           0.000000000000000    0.739651000000000    0.238160000000000 
P           0.260349000000000    0.000000000000000    0.238160000000000 
P           0.260349000000000    0.260349000000000    0.238160000000000 
P           0.739651000000000    0.000000000000000    0.238160000000000 
P           0.739651000000000    0.739651000000000    0.238160000000000 
K           0.000000000000000    0.000000000000000    0.591319000000000 
%ENDBLOCK POSITIONS_FRAC
