# Cell file generated by matador (Matthew Evans 2016)

%BLOCK LATTICE_CART
8.93294 0.0 0.0
0.0 8.93294 0.0
0.0 0.0 10.7353
%ENDBLOCK LATTICE_CART

%BLOCK POSITIONS_FRAC
P           0.000000000000000    0.000000000000000    0.000000000000000 
P           0.000000000000000    0.000000000000000    0.500000000000000 
P           0.500000000000000    0.500000000000000    0.000000000000000 
P           0.500000000000000    0.500000000000000    0.250000000000000 
P           0.500000000000000    0.500000000000000    0.500000000000000 
P           0.500000000000000    0.500000000000000    0.750000000000000 
K           0.000000000000000    0.000000000000000    0.250000000000000 
K           0.000000000000000    0.000000000000000    0.750000000000000 
K           0.111891000000000    0.238369000000000    0.500000000000000 
K           0.111891000000000    0.761631000000000    0.000000000000000 
K           0.154373000000000    0.436089000000000    0.000000000000000 
K           0.154373000000000    0.563911000000000    0.500000000000000 
K           0.238369000000000    0.111891000000000    0.000000000000000 
K           0.238369000000000    0.888109000000000    0.500000000000000 
K           0.436089000000000    0.154373000000000    0.500000000000000 
K           0.436089000000000    0.845627000000000    0.000000000000000 
K           0.563911000000000    0.154373000000000    0.000000000000000 
K           0.563911000000000    0.845627000000000    0.500000000000000 
K           0.761631000000000    0.111891000000000    0.500000000000000 
K           0.761631000000000    0.888109000000000    0.000000000000000 
K           0.845627000000000    0.436089000000000    0.500000000000000 
K           0.845627000000000    0.563911000000000    0.000000000000000 
K           0.888109000000000    0.238369000000000    0.000000000000000 
K           0.888109000000000    0.761631000000000    0.500000000000000 
%ENDBLOCK POSITIONS_FRAC
