# Cell file generated by matador (Matthew Evans 2016)

%BLOCK LATTICE_CART
8.42104 0.0 0.0
-4.21052 7.29283 0.0
0.0 0.0 7.83205
%ENDBLOCK LATTICE_CART

%BLOCK POSITIONS_FRAC
P           0.116926000000000    0.374044000000000    0.899358000000000 
P           0.116926000000000    0.742882000000000    0.899358000000000 
P           0.257118000000000    0.374044000000000    0.899358000000000 
P           0.257118000000000    0.883074000000000    0.899358000000000 
P           0.374044000000000    0.116926000000000    0.899358000000000 
P           0.374044000000000    0.257118000000000    0.899358000000000 
P           0.625956000000000    0.742882000000000    0.899358000000000 
P           0.625956000000000    0.883074000000000    0.899358000000000 
P           0.742882000000000    0.116926000000000    0.899358000000000 
P           0.742882000000000    0.625956000000000    0.899358000000000 
P           0.883074000000000    0.257118000000000    0.899358000000000 
P           0.883074000000000    0.625956000000000    0.899358000000000 
K           0.000000000000000    0.500000000000000    0.670794000000000 
K           0.500000000000000    0.000000000000000    0.670794000000000 
K           0.500000000000000    0.500000000000000    0.670794000000000 
%ENDBLOCK POSITIONS_FRAC
