# Cell file generated by matador (Matthew Evans 2016)

%BLOCK LATTICE_CART
10.0909 -0.0 0.0
-5.04545 8.73898 0.0
0.0 0.0 5.41042
%ENDBLOCK LATTICE_CART

%BLOCK POSITIONS_FRAC
P           0.495806000000000    0.105526000000000    0.448331000000000 
P           0.549278000000000    0.216953000000000    0.233259000000000 
P           0.609720000000000    0.504194000000000    0.781665000000000 
P           0.640032000000000    0.309961000000000    0.886874000000000 
P           0.667675000000000    0.450722000000000    0.566592000000000 
P           0.669929000000000    0.359968000000000    0.220207000000000 
P           0.690039000000000    0.330071000000000    0.553540000000000 
P           0.783047000000000    0.332325000000000    0.899925000000000 
P           0.894474000000000    0.390280000000000    0.114998000000000 
K           0.134226000000000    0.287343000000000    0.128833000000000 
K           0.153117000000000    0.865774000000000    0.462167000000000 
K           0.216848000000000    0.030049000000000    0.041225000000000 
K           0.712657000000000    0.846883000000000    0.795500000000000 
K           0.813200000000000    0.783152000000000    0.374559000000000 
K           0.969951000000000    0.186800000000000    0.707892000000000 
%ENDBLOCK POSITIONS_FRAC
