# Cell file generated by matador (Matthew Evans 2016)

%BLOCK LATTICE_CART
6.34675 0.0 0.0
0.0 7.42442 0.0
0.133301 0.0 5.30279
%ENDBLOCK LATTICE_CART

%BLOCK POSITIONS_FRAC
P           0.000000000000000    0.650125000000000   -0.000000000000000 
P           0.125412000000000    0.713393000000000    0.069847000000000 
P           0.150170000000000    0.454189000000000    0.436588000000000 
P           0.425031000000000    0.632773000000000    0.035497000000000 
P           0.500000000000000    0.733889000000000    0.500000000000000 
P           0.574969000000000    0.632773000000000    0.964503000000000 
P           0.849830000000000    0.454189000000000    0.563412000000000 
P           0.874588000000000    0.713393000000000    0.930153000000000 
K           0.396015000000000    0.937077000000000    0.242388000000000 
K           0.603985000000000    0.937077000000000    0.757612000000000 
%ENDBLOCK POSITIONS_FRAC
