# Cell file generated by matador (Matthew Evans 2016)

%BLOCK LATTICE_CART
7.57704 0.0 0.0
-3.78852 6.56191 0.0
0.0 0.0 9.38776
%ENDBLOCK LATTICE_CART

%BLOCK POSITIONS_FRAC
P           0.333333000000000    0.666667000000000    0.000000000000000 
P           0.333333000000000    0.666667000000000    0.500000000000000 
P           0.445786000000000    0.070375000000000    0.808107000000000 
P           0.445786000000000    0.375411000000000    0.191893000000000 
P           0.624589000000000    0.070375000000000    0.191893000000000 
P           0.624589000000000    0.554214000000000    0.808107000000000 
P           0.666667000000000    0.333333000000000    0.133055000000000 
P           0.666667000000000    0.333333000000000    0.866945000000000 
P           0.929625000000000    0.375411000000000    0.808107000000000 
P           0.929625000000000    0.554214000000000    0.191893000000000 
K           0.273457000000000    0.006823000000000    0.405614000000000 
K           0.273457000000000    0.266634000000000    0.594386000000000 
K           0.733366000000000    0.006823000000000    0.594386000000000 
K           0.733366000000000    0.726543000000000    0.405614000000000 
K           0.993177000000000    0.266634000000000    0.405614000000000 
K           0.993177000000000    0.726543000000000    0.594386000000000 
%ENDBLOCK POSITIONS_FRAC
