# Cell file generated by matador (Matthew Evans 2016)

%BLOCK LATTICE_CART
9.12326 0.0 0.0
0.0 5.43436 0.0
1.37888 0.0 8.42677
%ENDBLOCK LATTICE_CART

%BLOCK POSITIONS_FRAC
P           0.000000000000000    0.131971000000000    0.000000000000000 
P           0.000000000000000    0.868029000000000    0.000000000000000 
P           0.500000000000000    0.000000000000000    0.000000000000000 
K           0.000000000000000    0.000000000000000    0.500000000000000 
K           0.000000000000000    0.500000000000000    0.000000000000000 
K           0.000000000000000    0.500000000000000    0.500000000000000 
K           0.106715000000000    0.274771000000000    0.732532000000000 
K           0.106715000000000    0.725229000000000    0.732532000000000 
K           0.239924000000000    0.500000000000000    0.124970000000000 
K           0.346381000000000    0.500000000000000    0.424746000000000 
K           0.500000000000000    0.500000000000000    0.000000000000000 
K           0.653619000000000    0.500000000000000    0.575254000000000 
K           0.760076000000000    0.500000000000000    0.875030000000000 
K           0.893285000000000    0.274771000000000    0.267468000000000 
K           0.893285000000000    0.725229000000000    0.267468000000000 
%ENDBLOCK POSITIONS_FRAC
