# Cell file generated by matador (Matthew Evans 2016)

%BLOCK LATTICE_CART
9.39565 0.0 0.0
0.0 7.74745 0.0
-0.880606 0.0 6.28988
%ENDBLOCK LATTICE_CART

%BLOCK POSITIONS_FRAC
P           0.000000000000000    0.096164000000000    0.500000000000000 
P           0.000000000000000    0.254397000000000    0.500000000000000 
P           0.000000000000000    0.448979000000000    0.500000000000000 
P           0.000000000000000    0.473694000000000    0.000000000000000 
P           0.000000000000000    0.872264000000000    0.000000000000000 
P           0.102103000000000    0.291807000000000    0.382870000000000 
P           0.397897000000000    0.791807000000000    0.617130000000000 
P           0.500000000000000    0.372264000000000    0.000000000000000 
P           0.500000000000000    0.596164000000000    0.500000000000000 
P           0.500000000000000    0.754397000000000    0.500000000000000 
P           0.500000000000000    0.948979000000000    0.500000000000000 
P           0.500000000000000    0.973694000000000    0.000000000000000 
P           0.602103000000000    0.791807000000000    0.382870000000000 
P           0.897897000000000    0.291807000000000    0.617130000000000 
K           0.169966000000000    0.679521000000000    0.821486000000000 
K           0.330034000000000    0.179521000000000    0.178514000000000 
K           0.669966000000000    0.179521000000000    0.821486000000000 
K           0.830034000000000    0.679521000000000    0.178514000000000 
%ENDBLOCK POSITIONS_FRAC
