# Cell file generated by matador (Matthew Evans 2016)

%BLOCK LATTICE_CART
5.82998 0.0 0.0
-2.91499 5.04891 0.0
0.0 0.0 9.63345
%ENDBLOCK LATTICE_CART

%BLOCK POSITIONS_FRAC
P           0.999999000000000    0.999999000000000    0.500000000000000 
P           0.333332000000000    0.666666000000000    0.252553000000000 
P           0.333332000000000    0.666666000000000    0.747447000000000 
P           0.666666000000000    0.333332000000000    0.252553000000000 
P           0.666666000000000    0.333332000000000    0.747447000000000 
K           0.333332000000000    0.666666000000000    0.000000000000000 
K           0.333332000000000    0.666666000000000    0.500000000000000 
K           0.666666000000000    0.333332000000000    0.000000000000000 
K           0.666666000000000    0.333332000000000    0.500000000000000 
%ENDBLOCK POSITIONS_FRAC
