# Cell file generated by matador (Matthew Evans 2016)

%BLOCK LATTICE_CART
7.31789 0.0 0.0
0.0 7.31789 0.0
0.0 0.0 7.31789
%ENDBLOCK LATTICE_CART

%BLOCK POSITIONS_FRAC
P           0.000000000000000    0.000000000000000    0.000000000000000 
P           0.000000000000000    0.500000000000000    0.500000000000000 
P           0.155939000000000    0.155939000000000    0.844061000000000 
P           0.155939000000000    0.844061000000000    0.155939000000000 
P           0.500000000000000    0.000000000000000    0.500000000000000 
P           0.500000000000000    0.500000000000000    0.000000000000000 
P           0.844061000000000    0.155939000000000    0.155939000000000 
P           0.844061000000000    0.844061000000000    0.844061000000000 
K           0.000000000000000    0.000000000000000    0.500000000000000 
K           0.000000000000000    0.500000000000000    0.000000000000000 
K           0.500000000000000    0.000000000000000    0.000000000000000 
K           0.500000000000000    0.500000000000000    0.500000000000000 
%ENDBLOCK POSITIONS_FRAC
