# Cell file generated by matador (Matthew Evans 2016)

%BLOCK LATTICE_CART
11.272 0.0 0.0
0.0 5.2883 0.0
0.154221 0.0 7.01374
%ENDBLOCK LATTICE_CART

%BLOCK POSITIONS_FRAC
P           0.000000000000000    0.267914000000000    0.000000000000000 
P           0.164798000000000    0.197302000000000    0.906761000000000 
P           0.835202000000000    0.197302000000000    0.093239000000000 
K           0.000000000000000    0.392786000000000    0.500000000000000 
K           0.138740000000000    0.864096000000000    0.086074000000000 
K           0.299634000000000    0.015292000000000    0.740281000000000 
K           0.392929000000000    0.057193000000000    0.035534000000000 
K           0.500000000000000    0.487603000000000    0.000000000000000 
K           0.500000000000000    0.766210000000000    0.500000000000000 
K           0.607071000000000    0.057193000000000    0.964466000000000 
K           0.700366000000000    0.015292000000000    0.259719000000000 
K           0.861260000000000    0.864096000000000    0.913926000000000 
%ENDBLOCK POSITIONS_FRAC
