# Cell file generated by matador (Matthew Evans 2016)

%BLOCK LATTICE_CART
11.3475 0.0 0.0
0.0 11.3475 0.0
0.0 0.0 10.5298
%ENDBLOCK LATTICE_CART

%BLOCK POSITIONS_FRAC
P           0.127635000000000    0.372365000000000    0.500000000000000 
P           0.179304000000000    0.679304000000000    0.000000000000000 
P           0.320696000000000    0.179304000000000    0.000000000000000 
P           0.372365000000000    0.872365000000000    0.500000000000000 
P           0.627635000000000    0.127635000000000    0.500000000000000 
P           0.679304000000000    0.820696000000000    0.000000000000000 
P           0.820696000000000    0.320696000000000    0.000000000000000 
P           0.872365000000000    0.627635000000000    0.500000000000000 
K           0.000000000000000    0.000000000000000    0.000000000000000 
K           0.000000000000000    0.000000000000000    0.500000000000000 
K           0.000000000000000    0.500000000000000    0.000000000000000 
K           0.000000000000000    0.500000000000000    0.500000000000000 
K           0.068617000000000    0.247506000000000    0.000000000000000 
K           0.211038000000000    0.288962000000000    0.305380000000000 
K           0.211038000000000    0.288962000000000    0.694620000000000 
K           0.247506000000000    0.931383000000000    0.000000000000000 
K           0.252494000000000    0.431383000000000    0.000000000000000 
K           0.288962000000000    0.788962000000000    0.305380000000000 
K           0.288962000000000    0.788962000000000    0.694620000000000 
K           0.431383000000000    0.747506000000000    0.000000000000000 
K           0.500000000000000    0.000000000000000    0.000000000000000 
K           0.500000000000000    0.000000000000000    0.500000000000000 
K           0.500000000000000    0.500000000000000    0.000000000000000 
K           0.500000000000000    0.500000000000000    0.500000000000000 
K           0.568617000000000    0.252494000000000    0.000000000000000 
K           0.711038000000000    0.211038000000000    0.305380000000000 
K           0.711038000000000    0.211038000000000    0.694620000000000 
K           0.747506000000000    0.568617000000000    0.000000000000000 
K           0.752494000000000    0.068617000000000    0.000000000000000 
K           0.788962000000000    0.711038000000000    0.305380000000000 
K           0.788962000000000    0.711038000000000    0.694620000000000 
K           0.931383000000000    0.752494000000000    0.000000000000000 
%ENDBLOCK POSITIONS_FRAC
