# Cell file generated by matador (Matthew Evans 2016)

%BLOCK LATTICE_CART
7.17767 0.0 0.0
0.409254 6.92953 0.0
-3.18576 -3.21852 5.73469
%ENDBLOCK LATTICE_CART

%BLOCK POSITIONS_FRAC
P           0.013223000000000    0.879928000000000    0.199258000000000 
P           0.986777000000000    0.120072000000000    0.800742000000000 
K           0.000000000000000    0.000000000000000    0.500000000000000 
K           0.000000000000000    0.500000000000000    0.000000000000000 
K           0.500000000000000    0.000000000000000    0.000000000000000 
K           0.500000000000000    0.000000000000000    0.500000000000000 
K           0.500000000000000    0.500000000000000    0.000000000000000 
K           0.500000000000000    0.500000000000000    0.500000000000000 
%ENDBLOCK POSITIONS_FRAC
