# Cell file generated by matador (Matthew Evans 2016)

%BLOCK LATTICE_CART
6.0094 0.0 0.0
-2.69656 6.88981 0.0
-2.47205 -0.31507 8.01801
%ENDBLOCK LATTICE_CART

%BLOCK POSITIONS_FRAC
P           0.044096000000000    0.388770000000000    0.490733000000000 
P           0.197919000000000    0.960564000000000    0.537744000000000 
P           0.265649000000000    0.678784000000000    0.517480000000000 
P           0.280486000000000    0.753440000000000    0.291155000000000 
P           0.364163000000000    0.560791000000000    0.141919000000000 
P           0.500000000000000    0.000000000000000    0.500000000000000 
P           0.500000000000000    0.500000000000000    0.500000000000000 
P           0.635837000000000    0.439209000000000    0.858081000000000 
P           0.719514000000000    0.246560000000000    0.708845000000000 
P           0.734351000000000    0.321216000000000    0.482520000000000 
P           0.802081000000000    0.039436000000000    0.462256000000000 
P           0.955904000000000    0.611230000000000    0.509267000000000 
K           0.373871000000000    0.160234000000000    0.112770000000000 
K           0.626129000000000    0.839766000000000    0.887230000000000 
%ENDBLOCK POSITIONS_FRAC
