# Cell file generated by matador (Matthew Evans 2016)

%BLOCK LATTICE_CART
4.64831 0.0 0.0
0.0 4.61361 0.0
1.90483 0.0 4.78786
%ENDBLOCK LATTICE_CART

%BLOCK POSITIONS_FRAC
P           0.424578000000000    0.150679000000000    0.348120000000000 
P           0.424578000000000    0.849321000000000    0.348120000000000 
P           0.575422000000000    0.150679000000000    0.651880000000000 
P           0.575422000000000    0.849321000000000    0.651880000000000 
K           0.500000000000000    0.500000000000000    0.000000000000000 
%ENDBLOCK POSITIONS_FRAC
