# Cell file generated by matador (Matthew Evans 2016)

%BLOCK LATTICE_CART
8.31557 0.0 0.0
-4.15779 7.2015 0.0
0.0 0.0 7.34827
%ENDBLOCK LATTICE_CART

%BLOCK POSITIONS_FRAC
P           0.000000000000000    0.000000000000000    0.997716000000000 
P           0.333333000000000    0.666667000000000    0.664383000000000 
P           0.666667000000000    0.333333000000000    0.331049000000000 
K           0.066894000000000    0.533447000000000    0.477969000000000 
K           0.133220000000000    0.266440000000000    0.811302000000000 
K           0.133220000000000    0.866780000000000    0.811302000000000 
K           0.400227000000000    0.200113000000000    0.144635000000000 
K           0.466553000000000    0.533447000000000    0.477969000000000 
K           0.466553000000000    0.933106000000000    0.477969000000000 
K           0.733560000000000    0.866780000000000    0.811302000000000 
K           0.799887000000000    0.200113000000000    0.144635000000000 
K           0.799887000000000    0.599773000000000    0.144635000000000 
%ENDBLOCK POSITIONS_FRAC
