# Cell file generated by matador (Matthew Evans 2016)

%BLOCK LATTICE_CART
5.08991 0.0 0.0
0.0 5.08991 0.0
0.0 0.0 6.74421
%ENDBLOCK LATTICE_CART

%BLOCK POSITIONS_FRAC
P           0.000000000000000    0.000000000000000    0.000000000000000 
P           0.277208000000000    0.500000000000000    0.500000000000000 
P           0.500000000000000    0.277208000000000    0.500000000000000 
P           0.500000000000000    0.500000000000000    0.500000000000000 
P           0.500000000000000    0.722792000000000    0.500000000000000 
P           0.722792000000000    0.500000000000000    0.500000000000000 
K           0.000000000000000    0.000000000000000    0.500000000000000 
K           0.500000000000000    0.500000000000000    0.000000000000000 
%ENDBLOCK POSITIONS_FRAC
