# Cell file generated by matador (Matthew Evans 2016)

%BLOCK LATTICE_CART
7.2727 0.0 0.0
0.0 6.41165 0.0
-2.37679 0.0 8.95803
%ENDBLOCK LATTICE_CART

%BLOCK POSITIONS_FRAC
P           0.116857000000000    0.305815000000000    0.825641000000000 
P           0.119665000000000    0.149313000000000    0.631719000000000 
P           0.194658000000000    0.292412000000000    0.050452000000000 
P           0.209862000000000    0.251450000000000    0.403853000000000 
P           0.238471000000000    0.131614000000000    0.099417000000000 
P           0.352486000000000    0.677294000000000    0.920413000000000 
P           0.445227000000000    0.936142000000000    0.967588000000000 
P           0.554773000000000    0.436142000000000    0.032412000000000 
P           0.647514000000000    0.177294000000000    0.079586000000000 
P           0.761529000000000    0.631614000000000    0.900583000000000 
P           0.790138000000000    0.751450000000000    0.596147000000000 
P           0.805342000000000    0.792412000000000    0.949548000000000 
P           0.880335000000000    0.649313000000000    0.368281000000000 
P           0.883143000000000    0.805815000000000    0.174359000000000 
K           0.095362000000000    0.634991000000000    0.572109000000000 
K           0.345890000000000    0.418615000000000    0.770094000000000 
K           0.654110000000000    0.918615000000000    0.229906000000000 
K           0.904638000000000    0.134991000000000    0.427891000000000 
%ENDBLOCK POSITIONS_FRAC
