# Cell file generated by matador (Matthew Evans 2016)

%BLOCK LATTICE_CART
9.80654 0.0 0.0
0.0 9.80654 0.0
0.0 0.0 12.3044
%ENDBLOCK LATTICE_CART

%BLOCK POSITIONS_FRAC
P          -0.000000000000000   -0.000000000000000    0.000000000000000 
P          -0.000000000000000   -0.000000000000000    0.500000000000000 
P          -0.000000000000000    0.500000000000000    0.250000000000000 
P          -0.000000000000000    0.500000000000000    0.750000000000000 
P           0.500000000000000   -0.000000000000000    0.250000000000000 
P           0.500000000000000   -0.000000000000000    0.750000000000000 
P           0.500000000000000    0.500000000000000    0.000000000000000 
P           0.500000000000000    0.500000000000000    0.500000000000000 
K          -0.000000000000000    0.255007000000000    0.120071000000000 
K          -0.000000000000000    0.305093000000000    0.838532000000000 
K          -0.000000000000000    0.343671000000000    0.515135000000000 
K          -0.000000000000000    0.656329000000000    0.515135000000000 
K          -0.000000000000000    0.694907000000000    0.838532000000000 
K          -0.000000000000000    0.744993000000000    0.120071000000000 
K           0.156329000000000    0.500000000000000    0.984865000000000 
K           0.194907000000000    0.500000000000000    0.661468000000000 
K           0.244993000000000    0.500000000000000    0.379929000000000 
K           0.255007000000000   -0.000000000000000    0.879929000000000 
K           0.305093000000000   -0.000000000000000    0.161468000000000 
K           0.343671000000000   -0.000000000000000    0.484865000000000 
K           0.500000000000000    0.156329000000000    0.015135000000000 
K           0.500000000000000    0.194907000000000    0.338532000000000 
K           0.500000000000000    0.244993000000000    0.620071000000000 
K           0.500000000000000    0.755007000000000    0.620071000000000 
K           0.500000000000000    0.805093000000000    0.338532000000000 
K           0.500000000000000    0.843671000000000    0.015135000000000 
K           0.656329000000000   -0.000000000000000    0.484865000000000 
K           0.694907000000000   -0.000000000000000    0.161468000000000 
K           0.744993000000000   -0.000000000000000    0.879929000000000 
K           0.755007000000000    0.500000000000000    0.379929000000000 
K           0.805093000000000    0.500000000000000    0.661468000000000 
K           0.843671000000000    0.500000000000000    0.984865000000000 
%ENDBLOCK POSITIONS_FRAC
