# Cell file generated by matador (Matthew Evans 2016)

%BLOCK LATTICE_CART
5.77352 0.0 0.0
-2.88676 5.00001 0.0
0.0 0.0 15.1705
%ENDBLOCK LATTICE_CART

%BLOCK POSITIONS_FRAC
P           0.000000000000000    0.000000000000000    0.397240000000000 
P           0.000000000000000    0.000000000000000    0.729588000000000 
P           0.333333000000000    0.666667000000000    0.063907000000000 
P           0.333333000000000    0.666667000000000    0.396255000000000 
P           0.666667000000000    0.333333000000000    0.062922000000000 
P           0.666667000000000    0.333333000000000    0.730574000000000 
K           0.000000000000000    0.000000000000000    0.061532000000000 
K           0.000000000000000    0.000000000000000    0.915394000000000 
K           0.333333000000000    0.666667000000000    0.582060000000000 
K           0.333333000000000    0.666667000000000    0.728199000000000 
K           0.666667000000000    0.333333000000000    0.248727000000000 
K           0.666667000000000    0.333333000000000    0.394866000000000 
%ENDBLOCK POSITIONS_FRAC
