# Cell file generated by matador (Matthew Evans 2016)

%BLOCK LATTICE_CART
11.0047 0.0 0.0
0.0 6.06608 0.0
-1.60291 0.0 6.95696
%ENDBLOCK LATTICE_CART

%BLOCK POSITIONS_FRAC
P           0.018118000000000    0.500000000000000    0.924174000000000 
P           0.172057000000000    0.000000000000000    0.549623000000000 
P           0.458870000000000    0.500000000000000    0.394854000000000 
K           0.139912000000000    0.000000000000000    0.057412000000000 
K           0.199404000000000    0.500000000000000    0.844452000000000 
K           0.262287000000000    0.500000000000000    0.420496000000000 
K           0.455933000000000    0.000000000000000    0.387029000000000 
K           0.584653000000000    0.249687000000000    0.057302000000000 
K           0.584653000000000    0.750313000000000    0.057302000000000 
K           0.591297000000000    0.500000000000000    0.665209000000000 
K           0.800996000000000    0.500000000000000    0.388568000000000 
K           0.960499000000000    0.000000000000000    0.395562000000000 
%ENDBLOCK POSITIONS_FRAC
