# Cell file generated by matador (Matthew Evans 2016)

%BLOCK LATTICE_CART
9.42827 0.0 0.0
-4.71413 8.16512 0.0
0.0 0.0 6.43907
%ENDBLOCK LATTICE_CART

%BLOCK POSITIONS_FRAC
P           0.000000000000000    0.500000000000000    0.000000000000000 
P           0.000000000000000    0.500000000000000    0.500000000000000 
P           0.333333000000000    0.666667000000000    0.000000000000000 
P           0.333333000000000    0.666667000000000    0.500000000000000 
P           0.500000000000000    0.000000000000000    0.000000000000000 
P           0.500000000000000    0.000000000000000    0.500000000000000 
P           0.500000000000000    0.500000000000000    0.000000000000000 
P           0.500000000000000    0.500000000000000    0.500000000000000 
P           0.666667000000000    0.333333000000000    0.000000000000000 
P           0.666667000000000    0.333333000000000    0.500000000000000 
K           0.000000000000000    0.247841000000000    0.250000000000000 
K           0.000000000000000    0.752159000000000    0.750000000000000 
K           0.247841000000000    0.000000000000000    0.250000000000000 
K           0.247841000000000    0.247841000000000    0.750000000000000 
K           0.752159000000000    0.000000000000000    0.750000000000000 
K           0.752159000000000    0.752159000000000    0.250000000000000 
%ENDBLOCK POSITIONS_FRAC
