# Cell file generated by matador (Matthew Evans 2016)

%BLOCK LATTICE_CART
5.2707 0.0 0.0
-2.63535 4.56456 0.0
0.0 0.0 4.62825
%ENDBLOCK LATTICE_CART

%BLOCK POSITIONS_FRAC
P           0.000000000000000    0.000000000000000    0.624037000000000 
P           0.000000000000000    0.000000000000000    0.957673000000000 
K           0.333333000000000    0.666667000000000    0.951048000000000 
K           0.666667000000000    0.333333000000000    0.951048000000000 
%ENDBLOCK POSITIONS_FRAC
