# Cell file generated by matador (Matthew Evans 2016)

%BLOCK LATTICE_CART
8.05062 0.0 0.0
0.0 8.05062 0.0
0.0 0.0 8.05062
%ENDBLOCK LATTICE_CART

%BLOCK POSITIONS_FRAC
P           0.158773000000000    0.354302000000000    0.354302000000000 
P           0.158773000000000    0.645698000000000    0.645698000000000 
P           0.354302000000000    0.158773000000000    0.354302000000000 
P           0.354302000000000    0.354302000000000    0.158773000000000 
P           0.354302000000000    0.645698000000000    0.841227000000000 
P           0.354302000000000    0.841227000000000    0.645698000000000 
P           0.645698000000000    0.158773000000000    0.645698000000000 
P           0.645698000000000    0.354302000000000    0.841227000000000 
P           0.645698000000000    0.645698000000000    0.158773000000000 
P           0.645698000000000    0.841227000000000    0.354302000000000 
P           0.841227000000000    0.354302000000000    0.645698000000000 
P           0.841227000000000    0.645698000000000    0.354302000000000 
K           0.000000000000000    0.000000000000000    0.000000000000000 
K           0.500000000000000    0.500000000000000    0.500000000000000 
%ENDBLOCK POSITIONS_FRAC
