# Cell file generated by matador (Matthew Evans 2016)

%BLOCK LATTICE_CART
9.23541 0.0 0.0
-4.61771 7.9981 0.0
0.0 0.0 6.46129
%ENDBLOCK LATTICE_CART

%BLOCK POSITIONS_FRAC
P           0.045104000000000    0.838796000000000    0.038552000000000 
P           0.161204000000000    0.206308000000000    0.038552000000000 
P           0.333333000000000    0.666667000000000    0.511241000000000 
P           0.353638000000000    0.228370000000000    0.652893000000000 
P           0.666667000000000    0.333333000000000    0.059256000000000 
P           0.771630000000000    0.125268000000000    0.652893000000000 
P           0.793692000000000    0.954896000000000    0.038552000000000 
P           0.874732000000000    0.646362000000000    0.652893000000000 
K           0.149412000000000    0.384475000000000    0.647566000000000 
K           0.235063000000000    0.850588000000000    0.647566000000000 
K           0.522196000000000    0.140550000000000    0.317228000000000 
K           0.615525000000000    0.764937000000000    0.647566000000000 
K           0.618354000000000    0.477804000000000    0.317228000000000 
K           0.859450000000000    0.381646000000000    0.317228000000000 
%ENDBLOCK POSITIONS_FRAC
