# Cell file generated by matador (Matthew Evans 2016)

%BLOCK LATTICE_CART
9.32752 0.0 0.0
-4.66376 8.07787 0.0
0.0 0.0 11.3968
%ENDBLOCK LATTICE_CART

%BLOCK POSITIONS_FRAC
P           0.000000000000000   -0.000000000000000    0.351825000000000 
P           0.000000000000000   -0.000000000000000    0.643787000000000 
P           0.333333000000000    0.666667000000000    0.018492000000000 
P           0.333333000000000    0.666667000000000    0.310454000000000 
P           0.666667000000000    0.333333000000000    0.685159000000000 
P           0.666667000000000    0.333333000000000    0.977120000000000 
K           0.016484000000000    0.508242000000000    0.379485000000000 
K           0.158425000000000    0.316849000000000    0.712819000000000 
K           0.158425000000000    0.841575000000000    0.712819000000000 
K           0.195653000000000    0.391307000000000    0.072724000000000 
K           0.195653000000000    0.804347000000000    0.072724000000000 
K           0.275360000000000    0.137680000000000    0.406057000000000 
K           0.349817000000000    0.174909000000000    0.046152000000000 
K           0.491758000000000    0.508242000000000    0.379485000000000 
K           0.491758000000000    0.983516000000000    0.379485000000000 
K           0.528987000000000    0.057973000000000    0.739391000000000 
K           0.528987000000000    0.471013000000000    0.739391000000000 
K           0.608693000000000    0.804347000000000    0.072724000000000 
K           0.683151000000000    0.841575000000000    0.712819000000000 
K           0.825091000000000    0.174909000000000    0.046152000000000 
K           0.825091000000000    0.650183000000000    0.046152000000000 
K           0.862320000000000    0.137680000000000    0.406057000000000 
K           0.862320000000000    0.724640000000000    0.406057000000000 
K           0.942027000000000    0.471013000000000    0.739391000000000 
%ENDBLOCK POSITIONS_FRAC
