# Cell file generated by matador (Matthew Evans 2016)

%BLOCK LATTICE_CART
8.75431 0.0 0.0
-4.37716 7.58146 0.0
0.0 0.0 5.25358
%ENDBLOCK LATTICE_CART

%BLOCK POSITIONS_FRAC
P           0.333332000000000    0.666668000000000    0.000000000000000 
P           0.666666000000000    0.333334000000000    0.000000000000000 
K           0.200061000000000    0.769404000000000    0.500000000000000 
K           0.230596000000000    0.430660000000000    0.500000000000000 
K           0.430658000000000    0.230598000000000    0.500000000000000 
K           0.569340000000000    0.799939000000000    0.500000000000000 
K           0.769402000000000    0.200063000000000    0.500000000000000 
K           0.799937000000000    0.569342000000000    0.500000000000000 
%ENDBLOCK POSITIONS_FRAC
