# Cell file generated by matador (Matthew Evans 2016)

%BLOCK LATTICE_CART
7.14403 0.0 0.0
-3.57201 6.18691 0.0
0.0 0.0 8.17313
%ENDBLOCK LATTICE_CART

%BLOCK POSITIONS_FRAC
P           0.562449000000000    0.281225000000000    0.000000000000000 
P           0.562449000000000    0.281225000000000    0.500000000000000 
P           0.666667000000000    0.333333000000000    0.158962000000000 
P           0.666667000000000    0.333333000000000    0.341038000000000 
P           0.666667000000000    0.333333000000000    0.658962000000000 
P           0.666667000000000    0.333333000000000    0.841038000000000 
P           0.718775000000000    0.281225000000000    0.000000000000000 
P           0.718775000000000    0.281225000000000    0.500000000000000 
P           0.718775000000000    0.437551000000000    0.000000000000000 
P           0.718775000000000    0.437551000000000    0.500000000000000 
K           0.000000000000000    0.000000000000000    0.250000000000000 
K           0.000000000000000    0.000000000000000    0.750000000000000 
K           0.333333000000000    0.666667000000000    0.250000000000000 
K           0.333333000000000    0.666667000000000    0.750000000000000 
%ENDBLOCK POSITIONS_FRAC
