# Cell file generated by matador (Matthew Evans 2016)

%BLOCK LATTICE_CART
6.55657 0.0 0.0
0.0 6.55657 0.0
0.0 0.0 14.3834
%ENDBLOCK LATTICE_CART

%BLOCK POSITIONS_FRAC
P           0.000000000000000    0.000000000000000    0.000000000000000 
P           0.000000000000000    0.000000000000000    0.500000000000000 
K           0.000000000000000    0.000000000000000    0.250000000000000 
K           0.000000000000000    0.000000000000000    0.750000000000000 
K           0.000000000000000    0.500000000000000    0.500000000000000 
K           0.262924000000000    0.500000000000000    0.412497000000000 
K           0.262924000000000    0.500000000000000    0.587503000000000 
K           0.500000000000000    0.000000000000000    0.000000000000000 
K           0.500000000000000    0.262924000000000    0.087503000000000 
K           0.500000000000000    0.262924000000000    0.912497000000000 
K           0.500000000000000    0.500000000000000    0.000000000000000 
K           0.500000000000000    0.500000000000000    0.500000000000000 
K           0.500000000000000    0.737076000000000    0.087503000000000 
K           0.500000000000000    0.737076000000000    0.912497000000000 
K           0.737076000000000    0.500000000000000    0.412497000000000 
K           0.737076000000000    0.500000000000000    0.587503000000000 
%ENDBLOCK POSITIONS_FRAC
