# Cell file generated by matador (Matthew Evans 2016)

%BLOCK LATTICE_CART
11.0667 0.0 0.0
0.0 11.2238 0.0
1.40846 0.0 4.1688
%ENDBLOCK LATTICE_CART

%BLOCK POSITIONS_FRAC
P           0.101953000000000    0.500000000000000    0.347192000000000 
P           0.308528000000000   -0.000000000000000    0.963420000000000 
P           0.486752000000000    0.500000000000000    0.697460000000000 
P           0.601953000000000   -0.000000000000000    0.347192000000000 
P           0.808528000000000    0.500000000000000    0.963420000000000 
P           0.986752000000000   -0.000000000000000    0.697460000000000 
K           0.034660000000000    0.500000000000000    0.905054000000000 
K           0.130014000000000   -0.000000000000000    0.888038000000000 
K           0.278496000000000    0.500000000000000    0.552364000000000 
K           0.305687000000000    0.500000000000000    0.058737000000000 
K           0.314388000000000   -0.000000000000000    0.417365000000000 
K           0.534660000000000   -0.000000000000000    0.905054000000000 
K           0.630014000000000    0.500000000000000    0.888038000000000 
K           0.778496000000000   -0.000000000000000    0.552364000000000 
K           0.805687000000000   -0.000000000000000    0.058737000000000 
K           0.814388000000000    0.500000000000000    0.417365000000000 
%ENDBLOCK POSITIONS_FRAC
