# Cell file generated by matador (Matthew Evans 2016)

%BLOCK LATTICE_CART
9.84868 -0.0 0.0
-4.92434 8.52921 0.0
0.0 0.0 5.34728
%ENDBLOCK LATTICE_CART

%BLOCK POSITIONS_FRAC
P           0.000000000000000    0.000000000000000    0.405101000000000 
P           0.000000000000000    0.000000000000000    0.594899000000000 
P           0.333333000000000    0.666667000000000    0.000000000000000 
P           0.333333000000000    0.666667000000000    0.500000000000000 
K           0.000000000000000    0.000000000000000    0.000000000000000 
K           0.266717000000000    0.039988000000000    0.204260000000000 
K           0.266717000000000    0.039988000000000    0.795740000000000 
K           0.773272000000000    0.733283000000000    0.204260000000000 
K           0.773272000000000    0.733283000000000    0.795740000000000 
K           0.960012000000000    0.226728000000000    0.204260000000000 
K           0.960012000000000    0.226728000000000    0.795740000000000 
%ENDBLOCK POSITIONS_FRAC
