# Cell file generated by matador (Matthew Evans 2016)

%BLOCK LATTICE_CART
6.73525 0.0 0.0
0.0 6.73525 0.0
0.0 0.0 10.7164
%ENDBLOCK LATTICE_CART

%BLOCK POSITIONS_FRAC
P           0.049030000000000    0.296964000000000    0.214812000000000 
P           0.203036000000000    0.049030000000000    0.285188000000000 
P           0.296964000000000    0.450970000000000    0.285188000000000 
P           0.450970000000000    0.203036000000000    0.214812000000000 
P           0.549030000000000    0.796964000000000    0.785188000000000 
P           0.703036000000000    0.549030000000000    0.714812000000000 
P           0.796964000000000    0.950970000000000    0.714812000000000 
P           0.950970000000000    0.703036000000000    0.785188000000000 
K          -0.000000000000000   -0.000000000000000   -0.000000000000000 
K          -0.000000000000000    0.500000000000000    0.500000000000000 
K           0.250000000000000    0.250000000000000    0.008952000000000 
K           0.250000000000000    0.250000000000000    0.491048000000000 
K           0.250000000000000    0.750000000000000    0.325312000000000 
K           0.250000000000000    0.750000000000000    0.825312000000000 
K           0.500000000000000   -0.000000000000000    0.500000000000000 
K           0.500000000000000    0.500000000000000   -0.000000000000000 
K           0.750000000000000    0.250000000000000    0.174688000000000 
K           0.750000000000000    0.250000000000000    0.674688000000000 
K           0.750000000000000    0.750000000000000    0.508952000000000 
K           0.750000000000000    0.750000000000000    0.991048000000000 
%ENDBLOCK POSITIONS_FRAC
