# Cell file generated by matador (Matthew Evans 2016)

%BLOCK LATTICE_CART
8.31549 0.0 0.0
0.0 6.84545 0.0
0.0 0.0 9.00027
%ENDBLOCK LATTICE_CART

%BLOCK POSITIONS_FRAC
P           0.000000000000000    0.000000000000000    0.350206000000000 
P           0.000000000000000    0.000000000000000    0.940550000000000 
P           0.000000000000000    0.500000000000000    0.464833000000000 
P           0.500000000000000    0.000000000000000    0.464833000000000 
P           0.500000000000000    0.500000000000000    0.350206000000000 
P           0.500000000000000    0.500000000000000    0.940550000000000 
K           0.000000000000000    0.000000000000000    0.697626000000000 
K           0.217754000000000    0.789073000000000    0.352600000000000 
K           0.245933000000000    0.314608000000000    0.692153000000000 
K           0.254067000000000    0.814608000000000    0.692153000000000 
K           0.282246000000000    0.289073000000000    0.352600000000000 
K           0.500000000000000    0.500000000000000    0.697626000000000 
K           0.717754000000000    0.710927000000000    0.352600000000000 
K           0.745933000000000    0.185392000000000    0.692153000000000 
K           0.754067000000000    0.685392000000000    0.692153000000000 
K           0.782246000000000    0.210927000000000    0.352600000000000 
%ENDBLOCK POSITIONS_FRAC
