# Cell file generated by matador (Matthew Evans 2016)

%BLOCK LATTICE_CART
7.32219 0.0 0.0
-3.6611 6.3412 0.0
0.0 0.0 6.66308
%ENDBLOCK LATTICE_CART

%BLOCK POSITIONS_FRAC
P           0.021010000000000    0.154506000000000    0.171756000000000 
P           0.021010000000000    0.154506000000000    0.328244000000000 
P           0.133495000000000    0.978990000000000    0.171756000000000 
P           0.133495000000000    0.978990000000000    0.328244000000000 
P           0.154505000000000    0.021011000000000    0.671756000000000 
P           0.154505000000000    0.021011000000000    0.828244000000000 
P           0.333333000000000    0.666667000000000    0.250000000000000 
P           0.666666000000000    0.333334000000000    0.750000000000000 
P           0.845494000000000    0.866505000000000    0.171756000000000 
P           0.845494000000000    0.866505000000000    0.328244000000000 
P           0.866504000000000    0.845495000000000    0.671756000000000 
P           0.866504000000000    0.845495000000000    0.828244000000000 
P           0.978989000000000    0.133496000000000    0.671756000000000 
P           0.978989000000000    0.133496000000000    0.828244000000000 
K           0.333333000000000    0.666667000000000    0.750000000000000 
K           0.666666000000000    0.333334000000000    0.250000000000000 
%ENDBLOCK POSITIONS_FRAC
