# Cell file generated by matador (Matthew Evans 2016)

%BLOCK LATTICE_CART
7.02325 0.0 0.0
0.0 7.3987 0.0
0.0 0.0 5.46904
%ENDBLOCK LATTICE_CART

%BLOCK POSITIONS_FRAC
P          -0.000000000000000    0.500000000000000    0.465314000000000 
P           0.500000000000000    0.000000000000000    0.965314000000000 
K          -0.000000000000000    0.000000000000000    0.960651000000000 
K           0.245691000000000    0.500000000000000    0.955310000000000 
K           0.254309000000000    0.000000000000000    0.455310000000000 
K           0.500000000000000    0.500000000000000    0.460651000000000 
K           0.745691000000000    0.000000000000000    0.455310000000000 
K           0.754309000000000    0.500000000000000    0.955310000000000 
%ENDBLOCK POSITIONS_FRAC
