# Cell file generated by matador (Matthew Evans 2016)

%BLOCK LATTICE_CART
6.60851 0.0 0.0
0.0 6.60851 0.0
0.0 0.0 7.01667
%ENDBLOCK LATTICE_CART

%BLOCK POSITIONS_FRAC
P           0.000000000000000    0.000000000000000    0.814401000000000 
P           0.000000000000000    0.379037000000000    0.605052000000000 
P           0.000000000000000    0.620963000000000    0.605052000000000 
P           0.379037000000000    0.000000000000000    0.605052000000000 
P           0.500000000000000    0.500000000000000    0.102638000000000 
P           0.500000000000000    0.500000000000000    0.492846000000000 
P           0.620963000000000    0.000000000000000    0.605052000000000 
K           0.000000000000000    0.000000000000000    0.384638000000000 
K           0.000000000000000    0.298322000000000    0.211225000000000 
K           0.000000000000000    0.701678000000000    0.211225000000000 
K           0.298322000000000    0.000000000000000    0.211225000000000 
K           0.701678000000000    0.000000000000000    0.211225000000000 
%ENDBLOCK POSITIONS_FRAC
