# Cell file generated by matador (Matthew Evans 2016)

%BLOCK LATTICE_CART
4.59036 0.0 0.0
0.0 3.6808 0.0
1.57895 0.0 6.20814
%ENDBLOCK LATTICE_CART

%BLOCK POSITIONS_FRAC
P           0.498131000000000    0.500000000000000    0.383464000000000 
K           0.138868000000000    0.500000000000000    0.882218000000000 
K           0.374677000000000    0.000000000000000    0.247680000000000 
%ENDBLOCK POSITIONS_FRAC
