# Cell file generated by matador (Matthew Evans 2016)

%BLOCK LATTICE_CART
7.35111 0.0 0.0
0.0 7.35111 0.0
0.0 0.0 6.18209
%ENDBLOCK LATTICE_CART

%BLOCK POSITIONS_FRAC
P           0.000000000000000    0.500000000000000    0.972565000000000 
P           0.500000000000000    0.000000000000000    0.972565000000000 
K           0.000000000000000    0.000000000000000    0.899112000000000 
K           0.000000000000000    0.291803000000000    0.362524000000000 
K           0.000000000000000    0.708197000000000    0.362524000000000 
K           0.291803000000000    0.000000000000000    0.362524000000000 
K           0.500000000000000    0.500000000000000    0.785566000000000 
K           0.708197000000000    0.000000000000000    0.362524000000000 
%ENDBLOCK POSITIONS_FRAC
