# Cell file generated by matador (Matthew Evans 2016)

%BLOCK LATTICE_CART
7.0866 0.0 0.0
0.0 5.81764 0.0
0.0 0.0 7.39704
%ENDBLOCK LATTICE_CART

%BLOCK POSITIONS_FRAC
P           0.000000000000000    0.188574000000000    0.652995000000000 
P           0.000000000000000    0.811426000000000    0.152995000000000 
K           0.000000000000000    0.030839000000000    0.371119000000000 
K           0.000000000000000    0.466583000000000    0.794373000000000 
K           0.000000000000000    0.533417000000000    0.294373000000000 
K           0.000000000000000    0.969161000000000    0.871119000000000 
K           0.500000000000000    0.387016000000000    0.408292000000000 
K           0.500000000000000    0.612984000000000    0.908292000000000 
%ENDBLOCK POSITIONS_FRAC
