# Cell file generated by matador (Matthew Evans 2016)

%BLOCK LATTICE_CART
9.56405 -0.0 0.0
-4.78203 8.28271 0.0
0.0 0.0 5.96943
%ENDBLOCK LATTICE_CART

%BLOCK POSITIONS_FRAC
P           0.000000000000000    0.000000000000000    0.175470000000000 
P           0.000000000000000    0.000000000000000    0.508803000000000 
P           0.000000000000000    0.000000000000000    0.842136000000000 
P           0.000000000000000    0.500000000000000    0.766475000000000 
P           0.500000000000000    0.000000000000000    0.433141000000000 
P           0.500000000000000    0.500000000000000    0.099808000000000 
K           0.135467000000000    0.746028000000000    0.726201000000000 
K           0.253972000000000    0.389439000000000    0.059534000000000 
K           0.389439000000000    0.135467000000000    0.392867000000000 
K           0.610561000000000    0.864533000000000    0.392867000000000 
K           0.746028000000000    0.610561000000000    0.059534000000000 
K           0.864533000000000    0.253972000000000    0.726201000000000 
%ENDBLOCK POSITIONS_FRAC
