# Cell file generated by matador (Matthew Evans 2016)

%BLOCK LATTICE_CART
5.8268 0.0 0.0
0.0 6.56663 0.0
0.0 0.0 5.99458
%ENDBLOCK LATTICE_CART

%BLOCK POSITIONS_FRAC
P           0.500000000000000    0.461005000000000    0.750000000000000 
P           0.500000000000000    0.538995000000000    0.250000000000000 
K           0.121273000000000    0.000000000000000    0.000000000000000 
K           0.500000000000000    0.043623000000000    0.250000000000000 
K           0.500000000000000    0.956377000000000    0.750000000000000 
K           0.878727000000000    0.000000000000000    0.500000000000000 
%ENDBLOCK POSITIONS_FRAC
