# Cell file generated by matador (Matthew Evans 2016)

%BLOCK LATTICE_CART
8.16532 0.0 0.0
0.0 7.19 0.0
2.95743 0.0 5.933
%ENDBLOCK LATTICE_CART

%BLOCK POSITIONS_FRAC
P           0.404114000000000    0.750000000000000    0.321501000000000 
P           0.595886000000000    0.250000000000000    0.678499000000000 
K           0.000000000000000    0.000000000000000    0.000000000000000 
K           0.000000000000000    0.000000000000000    0.500000000000000 
K           0.000000000000000    0.500000000000000    0.000000000000000 
K           0.000000000000000    0.500000000000000    0.500000000000000 
K           0.384577000000000    0.750000000000000    0.710386000000000 
K           0.615423000000000    0.250000000000000    0.289614000000000 
%ENDBLOCK POSITIONS_FRAC
