# Cell file generated by matador (Matthew Evans 2016)

%BLOCK LATTICE_CART
10.9659 0.0 0.0
0.0 8.14288 0.0
0.0 0.0 6.89992
%ENDBLOCK LATTICE_CART

%BLOCK POSITIONS_FRAC
P           0.000000000000000    0.000000000000000    0.063780000000000 
P           0.000000000000000    0.500000000000000    0.703801000000000 
P           0.500000000000000    0.000000000000000    0.296199000000000 
P           0.500000000000000    0.500000000000000    0.936220000000000 
K           0.000000000000000    0.000000000000000    0.592176000000000 
K           0.000000000000000    0.500000000000000    0.198494000000000 
K           0.091172000000000    0.390104000000000    0.449378000000000 
K           0.235940000000000    0.369232000000000    0.118898000000000 
K           0.264060000000000    0.869232000000000    0.881102000000000 
K           0.408828000000000    0.890104000000000    0.550622000000000 
K           0.500000000000000    0.000000000000000    0.801506000000000 
K           0.500000000000000    0.500000000000000    0.407824000000000 
K           0.591172000000000    0.109896000000000    0.550622000000000 
K           0.735940000000000    0.130768000000000    0.881102000000000 
K           0.764060000000000    0.630768000000000    0.118898000000000 
K           0.908828000000000    0.609896000000000    0.449378000000000 
%ENDBLOCK POSITIONS_FRAC
