# Cell file generated by matador (Matthew Evans 2016)

%BLOCK LATTICE_CART
7.33648 0.0 0.0
-3.66824 6.35358 0.0
0.0 0.0 11.024
%ENDBLOCK LATTICE_CART

%BLOCK POSITIONS_FRAC
P           0.000001000000000    0.000001000000000    0.168313000000000 
P           0.000001000000000    0.000001000000000    0.331687000000000 
P           0.000001000000000    0.000001000000000    0.668313000000000 
P           0.000001000000000    0.000001000000000    0.831687000000000 
P           0.000001000000000    0.500001000000000    0.250000000000000 
P           0.000001000000000    0.500001000000000    0.750000000000000 
P           0.500001000000000    0.000001000000000    0.250000000000000 
P           0.500001000000000    0.000001000000000    0.750000000000000 
P           0.500001000000000    0.500001000000000    0.250000000000000 
P           0.500001000000000    0.500001000000000    0.750000000000000 
K           0.333334000000000    0.666668000000000    0.250000000000000 
K           0.333334000000000    0.666668000000000    0.750000000000000 
K           0.666668000000000    0.333334000000000    0.250000000000000 
K           0.666668000000000    0.333334000000000    0.750000000000000 
%ENDBLOCK POSITIONS_FRAC
