# Cell file generated by matador (Matthew Evans 2016)

%BLOCK LATTICE_CART
6.95433 0.0 0.0
-3.47717 6.02263 0.0
0.0 0.0 4.59584
%ENDBLOCK LATTICE_CART

%BLOCK POSITIONS_FRAC
P           0.000000000000000   -0.000000000000000    0.174718000000000 
P           0.000000000000000   -0.000000000000000    0.678378000000000 
P           0.333334000000000    0.666666000000000    0.681185000000000 
P           0.666667000000000    0.333333000000000    0.049569000000000 
K           0.277607000000000    0.020229000000000    0.500771000000000 
K           0.742623000000000    0.722393000000000    0.500771000000000 
K           0.979771000000000    0.257377000000000    0.500771000000000 
%ENDBLOCK POSITIONS_FRAC
