# Cell file generated by matador (Matthew Evans 2016)

%BLOCK LATTICE_CART
5.00161 0.0 0.0
-2.65962 4.97074 0.0
-2.41705 -0.244723 9.02177
%ENDBLOCK LATTICE_CART

%BLOCK POSITIONS_FRAC
P           0.000000000000000    0.500000000000000    0.000000000000000 
P           0.500000000000000    0.000000000000000    0.000000000000000 
P           0.500000000000000    0.000000000000000    0.500000000000000 
K           0.000000000000000    0.000000000000000    0.500000000000000 
K           0.049275000000000    0.368263000000000    0.423103000000000 
K           0.500000000000000    0.500000000000000    0.500000000000000 
K           0.950725000000000    0.631737000000000    0.576897000000000 
%ENDBLOCK POSITIONS_FRAC
