# Cell file generated by matador (Matthew Evans 2016)

%BLOCK LATTICE_CART
6.92411 0.0 0.0
-3.46205 5.99645 0.0
0.0 0.0 9.72802
%ENDBLOCK LATTICE_CART

%BLOCK POSITIONS_FRAC
P           0.000000000000000    0.000000000000000    0.000000000000000 
P           0.000000000000000    0.500000000000000    0.500000000000000 
P           0.279437000000000    0.712324000000000    0.632121000000000 
P           0.287676000000000    0.567114000000000    0.632121000000000 
P           0.432886000000000    0.720563000000000    0.632121000000000 
P           0.500000000000000    0.000000000000000    0.500000000000000 
P           0.500000000000000    0.500000000000000    0.500000000000000 
P           0.567114000000000    0.279437000000000    0.367879000000000 
P           0.712324000000000    0.432886000000000    0.367879000000000 
P           0.720563000000000    0.287676000000000    0.367879000000000 
K           0.000000000000000    0.000000000000000    0.500000000000000 
K           0.000000000000000    0.500000000000000    0.000000000000000 
K           0.500000000000000    0.000000000000000    0.000000000000000 
K           0.500000000000000    0.500000000000000    0.000000000000000 
%ENDBLOCK POSITIONS_FRAC
