# Cell file generated by matador (Matthew Evans 2016)

%BLOCK LATTICE_CART
6.30027 0.0 0.0
-3.15013 5.45619 0.0
0.0 0.0 12.7761
%ENDBLOCK LATTICE_CART

%BLOCK POSITIONS_FRAC
P           0.000000000000000    0.000000000000000    0.090288000000000 
P           0.000000000000000    0.000000000000000    0.590288000000000 
P           0.095300000000000    0.190601000000000    0.969083000000000 
P           0.095300000000000    0.904700000000000    0.969083000000000 
P           0.190601000000000    0.095300000000000    0.469083000000000 
P           0.809399000000000    0.904700000000000    0.969083000000000 
P           0.904700000000000    0.095300000000000    0.469083000000000 
P           0.904700000000000    0.809399000000000    0.469083000000000 
K           0.000000000000000    0.000000000000000    0.326359000000000 
K           0.000000000000000    0.000000000000000    0.826359000000000 
K           0.160388000000000    0.320776000000000    0.730474000000000 
K           0.160388000000000    0.839612000000000    0.730474000000000 
K           0.320776000000000    0.160388000000000    0.230474000000000 
K           0.333333000000000    0.666667000000000    0.963282000000000 
K           0.666667000000000    0.333333000000000    0.463282000000000 
K           0.679224000000000    0.839612000000000    0.730474000000000 
K           0.839612000000000    0.160388000000000    0.230474000000000 
K           0.839612000000000    0.679224000000000    0.230474000000000 
%ENDBLOCK POSITIONS_FRAC
