# Cell file generated by matador (Matthew Evans 2016)

%BLOCK LATTICE_CART
7.09013 0.0 0.0
0.0 7.09013 0.0
0.0 0.0 7.0013
%ENDBLOCK LATTICE_CART

%BLOCK POSITIONS_FRAC
P           0.299597000000000    0.299597000000000    0.000000000000000 
P           0.299597000000000    0.700403000000000    0.000000000000000 
P           0.500000000000000    0.500000000000000    0.000000000000000 
P           0.700403000000000    0.299597000000000    0.000000000000000 
P           0.700403000000000    0.700403000000000    0.000000000000000 
K           0.000000000000000    0.000000000000000    0.000000000000000 
K           0.000000000000000    0.000000000000000    0.500000000000000 
K           0.149853000000000    0.500000000000000    0.402695000000000 
K           0.500000000000000    0.149853000000000    0.597305000000000 
K           0.500000000000000    0.500000000000000    0.500000000000000 
K           0.500000000000000    0.850147000000000    0.597305000000000 
K           0.850147000000000    0.500000000000000    0.402695000000000 
%ENDBLOCK POSITIONS_FRAC
