# Cell file generated by matador (Matthew Evans 2016)

%BLOCK LATTICE_CART
9.05487 0.0 0.0
-4.52743 7.84175 0.0
0.0 0.0 5.64848
%ENDBLOCK LATTICE_CART

%BLOCK POSITIONS_FRAC
P           0.197132000000000    0.795313000000000    0.872458000000000 
P           0.204687000000000    0.401820000000000    0.872458000000000 
P           0.264847000000000    0.136201000000000    0.205792000000000 
P           0.530466000000000    0.461979000000000    0.539125000000000 
P           0.538021000000000    0.068487000000000    0.539125000000000 
P           0.598180000000000    0.802868000000000    0.872458000000000 
P           0.863799000000000    0.128646000000000    0.205792000000000 
P           0.871354000000000    0.735153000000000    0.205792000000000 
P           0.931513000000000    0.469534000000000    0.539125000000000 
K          -0.000000000000000   -0.000000000000000    0.807342000000000 
K           0.333333000000000    0.666667000000000    0.474009000000000 
K           0.666667000000000    0.333333000000000    0.140675000000000 
%ENDBLOCK POSITIONS_FRAC
