# Cell file generated by matador (Matthew Evans 2016)

%BLOCK LATTICE_CART
12.746 0.0 0.0
-6.37301 11.0384 0.0
0.0 0.0 6.95094
%ENDBLOCK LATTICE_CART

%BLOCK POSITIONS_FRAC
P           0.000000000000000    0.000000000000000    0.000000000000000 
P           0.000000000000000    0.000000000000000    0.500000000000000 
P           0.333333000000000    0.666667000000000    0.250000000000000 
P           0.333333000000000    0.666667000000000    0.750000000000000 
P           0.666667000000000    0.333333000000000    0.250000000000000 
P           0.666667000000000    0.333333000000000    0.750000000000000 
K           0.000000000000000    0.812785000000000    0.000000000000000 
K           0.000000000000000    0.812785000000000    0.500000000000000 
K           0.099857000000000    0.392307000000000    0.750000000000000 
K           0.187215000000000    0.187215000000000    0.000000000000000 
K           0.187215000000000    0.187215000000000    0.500000000000000 
K           0.188791000000000    0.380686000000000    0.250000000000000 
K           0.191895000000000    0.811209000000000    0.250000000000000 
K           0.292450000000000    0.900143000000000    0.750000000000000 
K           0.380686000000000    0.188791000000000    0.750000000000000 
K           0.392307000000000    0.099857000000000    0.250000000000000 
K           0.607693000000000    0.707550000000000    0.750000000000000 
K           0.619314000000000    0.808105000000000    0.250000000000000 
K           0.707550000000000    0.607693000000000    0.250000000000000 
K           0.808105000000000    0.619314000000000    0.750000000000000 
K           0.811209000000000    0.191895000000000    0.750000000000000 
K           0.812785000000000    0.000000000000000    0.000000000000000 
K           0.812785000000000    0.000000000000000    0.500000000000000 
K           0.900143000000000    0.292450000000000    0.250000000000000 
%ENDBLOCK POSITIONS_FRAC
