# Cell file generated by matador (Matthew Evans 2016)

%BLOCK LATTICE_CART
8.32858 0.0 0.0
-4.16429 7.21276 0.0
0.0 0.0 6.80319
%ENDBLOCK LATTICE_CART

%BLOCK POSITIONS_FRAC
P           0.333332000000000    0.666666000000000    0.473062000000000 
P           0.333332000000000    0.666666000000000    0.655108000000000 
P           0.666666000000000    0.333332000000000    0.473062000000000 
P           0.666666000000000    0.333332000000000    0.655108000000000 
K           0.999999000000000    0.999999000000000    0.314194000000000 
K           0.110093000000000    0.440695000000000    0.902243000000000 
K           0.330601000000000    0.889905000000000    0.902243000000000 
K           0.440695000000000    0.330601000000000    0.902243000000000 
K           0.559303000000000    0.669397000000000    0.902243000000000 
K           0.669397000000000    0.110093000000000    0.902243000000000 
K           0.889905000000000    0.559303000000000    0.902243000000000 
%ENDBLOCK POSITIONS_FRAC
