# Cell file generated by matador (Matthew Evans 2016)

%BLOCK LATTICE_CART
9.84672 0.0 0.0
0.0 9.84672 0.0
0.0 0.0 9.94972
%ENDBLOCK LATTICE_CART

%BLOCK POSITIONS_FRAC
P           0.000000000000000    0.000000000000000    0.250000000000000 
P           0.000000000000000    0.000000000000000    0.750000000000000 
P           0.000000000000000    0.500000000000000    0.500000000000000 
P           0.500000000000000    0.000000000000000    0.000000000000000 
P           0.500000000000000    0.500000000000000    0.250000000000000 
P           0.500000000000000    0.500000000000000    0.750000000000000 
K           0.000000000000000    0.316473000000000    0.240674000000000 
K           0.000000000000000    0.316473000000000    0.759326000000000 
K           0.000000000000000    0.500000000000000    0.000000000000000 
K           0.000000000000000    0.683527000000000    0.240674000000000 
K           0.000000000000000    0.683527000000000    0.759326000000000 
K           0.280409000000000    0.500000000000000    0.313890000000000 
K           0.280409000000000    0.500000000000000    0.686110000000000 
K           0.316473000000000    0.000000000000000    0.259326000000000 
K           0.316473000000000    0.000000000000000    0.740674000000000 
K           0.500000000000000    0.000000000000000    0.500000000000000 
K           0.500000000000000    0.280409000000000    0.186110000000000 
K           0.500000000000000    0.280409000000000    0.813890000000000 
K           0.500000000000000    0.719591000000000    0.186110000000000 
K           0.500000000000000    0.719591000000000    0.813890000000000 
K           0.683527000000000    0.000000000000000    0.259326000000000 
K           0.683527000000000    0.000000000000000    0.740674000000000 
K           0.719591000000000    0.500000000000000    0.313890000000000 
K           0.719591000000000    0.500000000000000    0.686110000000000 
%ENDBLOCK POSITIONS_FRAC
