# Cell file generated by matador (Matthew Evans 2016)

%BLOCK LATTICE_CART
8.11434 0.0 0.0
0.0 12.8133 0.0
1.29732 0.0 6.39897
%ENDBLOCK LATTICE_CART

%BLOCK POSITIONS_FRAC
P           0.500000000000000    0.000000000000000    0.000000000000000 
P           0.500000000000000    0.000000000000000    0.500000000000000 
P           0.500000000000000    0.500000000000000    0.000000000000000 
P           0.500000000000000    0.500000000000000    0.500000000000000 
K           0.000000000000000    0.000000000000000    0.500000000000000 
K           0.000000000000000    0.500000000000000    0.500000000000000 
K           0.154746000000000    0.093907000000000    0.975674000000000 
K           0.154746000000000    0.406093000000000    0.975674000000000 
K           0.167855000000000    0.250000000000000    0.930305000000000 
K           0.386568000000000    0.592129000000000    0.761802000000000 
K           0.386568000000000    0.907871000000000    0.761802000000000 
K           0.454321000000000    0.250000000000000    0.670770000000000 
K           0.545679000000000    0.750000000000000    0.329230000000000 
K           0.613432000000000    0.092129000000000    0.238198000000000 
K           0.613432000000000    0.407871000000000    0.238198000000000 
K           0.832145000000000    0.750000000000000    0.069695000000000 
K           0.845254000000000    0.593907000000000    0.024326000000000 
K           0.845254000000000    0.906093000000000    0.024326000000000 
%ENDBLOCK POSITIONS_FRAC
