# Cell file generated by matador (Matthew Evans 2016)

%BLOCK LATTICE_CART
5.13221 0.0 0.0
0.0 5.13221 0.0
0.0 0.0 6.01284
%ENDBLOCK LATTICE_CART

%BLOCK POSITIONS_FRAC
P           0.000000000000000    0.500000000000000    0.649428000000000 
P           0.100952000000000    0.754350000000000    0.358648000000000 
P           0.245650000000000    0.100952000000000    0.358648000000000 
P           0.500000000000000    0.000000000000000    0.649428000000000 
P           0.500000000000000    0.500000000000000    0.724771000000000 
P           0.754350000000000    0.899048000000000    0.358648000000000 
P           0.899048000000000    0.245650000000000    0.358648000000000 
K           0.000000000000000    0.000000000000000    0.755076000000000 
%ENDBLOCK POSITIONS_FRAC
