# Cell file generated by matador (Matthew Evans 2016)

%BLOCK LATTICE_CART
6.55545 0.0 0.0
-3.27773 5.67719 0.0
0.0 0.0 11.361
%ENDBLOCK LATTICE_CART

%BLOCK POSITIONS_FRAC
P          -0.000000000000000   -0.000000000000000    0.027352000000000 
P          -0.000000000000000   -0.000000000000000    0.416275000000000 
P          -0.000000000000000   -0.000000000000000    0.527352000000000 
P          -0.000000000000000   -0.000000000000000    0.916275000000000 
P           0.333333000000000    0.666667000000000    0.157557000000000 
P           0.333333000000000    0.666667000000000    0.477941000000000 
P           0.666667000000000    0.333333000000000    0.657557000000000 
P           0.666667000000000    0.333333000000000    0.977941000000000 
K           0.071444000000000    0.370937000000000    0.843404000000000 
K           0.299493000000000    0.928556000000000    0.843404000000000 
K           0.370937000000000    0.071444000000000    0.343404000000000 
K           0.629063000000000    0.700507000000000    0.843404000000000 
K           0.700507000000000    0.629063000000000    0.343404000000000 
K           0.928556000000000    0.299493000000000    0.343404000000000 
%ENDBLOCK POSITIONS_FRAC
