# Cell file generated by matador (Matthew Evans 2016)

%BLOCK LATTICE_CART
9.24426 0.0 0.0
-4.62213 8.00576 0.0
0.0 0.0 4.11769
%ENDBLOCK LATTICE_CART

%BLOCK POSITIONS_FRAC
P           0.018694000000000    0.225690000000000    0.697198000000000 
P           0.107643000000000    0.459670000000000    0.363865000000000 
P           0.206996000000000    0.981306000000000    0.697198000000000 
P           0.352027000000000    0.892357000000000    0.363865000000000 
P           0.440977000000000    0.126337000000000    0.030531000000000 
P           0.540330000000000    0.647973000000000    0.363865000000000 
P           0.685361000000000    0.559023000000000    0.030531000000000 
P           0.774310000000000    0.793004000000000    0.697198000000000 
P           0.873663000000000    0.314639000000000    0.030531000000000 
K           0.000000000000000    0.000000000000000    0.437552000000000 
K           0.333333000000000    0.666667000000000    0.104218000000000 
K           0.666667000000000    0.333333000000000    0.770885000000000 
%ENDBLOCK POSITIONS_FRAC
