# Cell file generated by matador (Matthew Evans 2016)

%BLOCK LATTICE_CART
7.84782 0.0 0.0
-3.92391 6.79642 0.0
0.0 0.0 6.26523
%ENDBLOCK LATTICE_CART

%BLOCK POSITIONS_FRAC
P           0.000000000000000    0.000000000000000    0.000000000000000 
P           0.098863000000000    0.315477000000000    0.567397000000000 
P           0.216614000000000    0.901137000000000    0.567397000000000 
P           0.315477000000000    0.216614000000000    0.432603000000000 
P           0.684523000000000    0.783386000000000    0.567397000000000 
P           0.783386000000000    0.098863000000000    0.432603000000000 
P           0.901137000000000    0.684523000000000    0.432603000000000 
K           0.000000000000000    0.500000000000000    0.000000000000000 
K           0.000000000000000    0.500000000000000    0.500000000000000 
K           0.500000000000000    0.000000000000000    0.000000000000000 
K           0.500000000000000    0.000000000000000    0.500000000000000 
K           0.500000000000000    0.500000000000000    0.000000000000000 
K           0.500000000000000    0.500000000000000    0.500000000000000 
%ENDBLOCK POSITIONS_FRAC
