# Cell file generated by matador (Matthew Evans 2016)

%BLOCK LATTICE_CART
8.27237 0.0 0.0
0.0 8.27237 0.0
0.0 0.0 11.6483
%ENDBLOCK LATTICE_CART

%BLOCK POSITIONS_FRAC
P           0.000000000000000    0.500000000000000    0.578370000000000 
P           0.000000000000000    0.500000000000000    0.921630000000000 
P           0.500000000000000    0.000000000000000    0.078370000000000 
P           0.500000000000000    0.000000000000000    0.421630000000000 
K           0.000000000000000    0.000000000000000    0.000000000000000 
K           0.000000000000000    0.000000000000000    0.500000000000000 
K           0.000000000000000    0.500000000000000    0.250000000000000 
K           0.000000000000000    0.500000000000000    0.750000000000000 
K           0.105903000000000    0.827473000000000    0.095806000000000 
K           0.172527000000000    0.105903000000000    0.904194000000000 
K           0.327473000000000    0.394097000000000    0.404194000000000 
K           0.394097000000000    0.672527000000000    0.595806000000000 
K           0.500000000000000    0.000000000000000    0.250000000000000 
K           0.500000000000000    0.000000000000000    0.750000000000000 
K           0.500000000000000    0.500000000000000    0.000000000000000 
K           0.500000000000000    0.500000000000000    0.500000000000000 
K           0.605903000000000    0.327473000000000    0.595806000000000 
K           0.672527000000000    0.605903000000000    0.404194000000000 
K           0.827473000000000    0.894097000000000    0.904194000000000 
K           0.894097000000000    0.172527000000000    0.095806000000000 
%ENDBLOCK POSITIONS_FRAC
