# Cell file generated by matador (Matthew Evans 2016)

%BLOCK LATTICE_CART
5.93991 0.0 0.0
0.0 5.93991 0.0
0.0 0.0 5.20179
%ENDBLOCK LATTICE_CART

%BLOCK POSITIONS_FRAC
P           0.000000000000000    0.000000000000000    0.000000000000000 
K           0.238522000000000    0.488297000000000    0.000000000000000 
K           0.488297000000000    0.761478000000000    0.000000000000000 
K           0.511703000000000    0.238522000000000    0.000000000000000 
K           0.761478000000000    0.511703000000000    0.000000000000000 
%ENDBLOCK POSITIONS_FRAC
