# Cell file generated by matador (Matthew Evans 2016)

%BLOCK LATTICE_CART
8.21712 -0.0 0.0
-4.10856 7.11623 0.0
0.0 0.0 5.76296
%ENDBLOCK LATTICE_CART

%BLOCK POSITIONS_FRAC
P           0.039202000000000    0.714022000000000    0.094313000000000 
P           0.106224000000000    0.619214000000000    0.186203000000000 
P           0.285978000000000    0.325181000000000    0.094313000000000 
P           0.333333000000000    0.666667000000000    0.839328000000000 
P           0.380786000000000    0.487011000000000    0.186203000000000 
P           0.512989000000000    0.893776000000000    0.186203000000000 
P           0.674819000000000    0.960798000000000    0.094313000000000 
K           0.000000000000000    0.000000000000000    0.374141000000000 
K           0.417350000000000    0.265664000000000    0.482119000000000 
K           0.734336000000000    0.151685000000000    0.482119000000000 
K           0.848315000000000    0.582650000000000    0.482119000000000 
%ENDBLOCK POSITIONS_FRAC
