# Cell file generated by matador (Matthew Evans 2016)

%BLOCK LATTICE_CART
7.01594 0.0 0.0
0.0 8.69562 0.0
-1.58976 0.0 5.86594
%ENDBLOCK LATTICE_CART

%BLOCK POSITIONS_FRAC
P           0.014641000000000    0.500000000000000    0.450074000000000 
P           0.230780000000000    0.334717000000000    0.260169000000000 
P           0.230780000000000    0.665283000000000    0.260169000000000 
P           0.283714000000000    0.000000000000000    0.090162000000000 
P           0.413056000000000    0.402161000000000    0.387565000000000 
P           0.413056000000000    0.597839000000000    0.387565000000000 
P           0.456913000000000    0.076468000000000    0.142819000000000 
P           0.456913000000000    0.923532000000000    0.142819000000000 
P           0.484616000000000    0.415911000000000    0.915912000000000 
P           0.484616000000000    0.584089000000000    0.915912000000000 
P           0.619972000000000    0.377200000000000    0.377546000000000 
P           0.619972000000000    0.622800000000000    0.377546000000000 
P           0.712604000000000    0.088232000000000    0.285816000000000 
P           0.712604000000000    0.911768000000000    0.285816000000000 
K           0.190881000000000    0.500000000000000    0.853350000000000 
K           0.690352000000000    0.171729000000000    0.587142000000000 
K           0.690352000000000    0.828271000000000    0.587142000000000 
K           0.783525000000000    0.500000000000000    0.999155000000000 
%ENDBLOCK POSITIONS_FRAC
