# Cell file generated by matador (Matthew Evans 2016)

%BLOCK LATTICE_CART
11.588 0.0 0.0
-5.794 10.0355 0.0
0.0 0.0 8.59774
%ENDBLOCK LATTICE_CART

%BLOCK POSITIONS_FRAC
P           0.224644000000000    0.449288000000000    0.820230000000000 
P           0.224644000000000    0.775356000000000    0.820230000000000 
P           0.449288000000000    0.224644000000000    0.320230000000000 
P           0.550712000000000    0.775356000000000    0.820230000000000 
P           0.775356000000000    0.224644000000000    0.320230000000000 
P           0.775356000000000    0.550712000000000    0.320230000000000 
K           0.099841000000000    0.199683000000000    0.838114000000000 
K           0.099841000000000    0.900158000000000    0.838114000000000 
K           0.103107000000000    0.551554000000000    0.610378000000000 
K           0.178745000000000    0.357491000000000    0.457017000000000 
K           0.178745000000000    0.821255000000000    0.457017000000000 
K           0.199683000000000    0.099842000000000    0.338114000000000 
K           0.357491000000000    0.178745000000000    0.957017000000000 
K           0.448446000000000    0.551554000000000    0.610378000000000 
K           0.448446000000000    0.896893000000000    0.610378000000000 
K           0.551554000000000    0.103107000000000    0.110378000000000 
K           0.551554000000000    0.448446000000000    0.110378000000000 
K           0.642509000000000    0.821255000000000    0.457017000000000 
K           0.800317000000000    0.900158000000000    0.838114000000000 
K           0.821255000000000    0.178745000000000    0.957017000000000 
K           0.821255000000000    0.642509000000000    0.957017000000000 
K           0.896893000000000    0.448446000000000    0.110378000000000 
K           0.900158000000000    0.099842000000000    0.338114000000000 
K           0.900158000000000    0.800317000000000    0.338114000000000 
%ENDBLOCK POSITIONS_FRAC
