# Cell file generated by matador (Matthew Evans 2016)

%BLOCK LATTICE_CART
5.3719 0.0 0.0
-2.68595 4.6522 0.0
0.0 0.0 4.33102
%ENDBLOCK LATTICE_CART

%BLOCK POSITIONS_FRAC
P           0.000000000000000    0.000000000000000    0.000000000000000 
K           0.333333000000000    0.666667000000000    0.875776000000000 
K           0.666667000000000    0.333333000000000    0.124224000000000 
%ENDBLOCK POSITIONS_FRAC
