# Cell file generated by matador (Matthew Evans 2016)

%BLOCK LATTICE_CART
6.95866 0.0 0.0
-3.47933 6.02638 0.0
0.0 0.0 10.4265
%ENDBLOCK LATTICE_CART

%BLOCK POSITIONS_FRAC
P          -0.000000000000000    0.500000000000000    0.000000000000000 
P           0.500000000000000    0.000000000000000    0.000000000000000 
P           0.500000000000000    0.500000000000000    0.000000000000000 
K          -0.000000000000000    0.000000000000000    0.500000000000000 
K          -0.000000000000000    0.500000000000000    0.500000000000000 
K           0.165664000000000    0.331717000000000    0.000000000000000 
K           0.166053000000000    0.834336000000000    0.000000000000000 
K           0.331717000000000    0.166053000000000    0.000000000000000 
K           0.333333000000000    0.666667000000000    0.000000000000000 
K           0.500000000000000    0.000000000000000    0.500000000000000 
K           0.500000000000000    0.500000000000000    0.500000000000000 
K           0.666667000000000    0.333333000000000    0.000000000000000 
K           0.668283000000000    0.833947000000000    0.000000000000000 
K           0.833947000000000    0.165664000000000    0.000000000000000 
K           0.834336000000000    0.668283000000000    0.000000000000000 
%ENDBLOCK POSITIONS_FRAC
