# Cell file generated by matador (Matthew Evans 2016)

%BLOCK LATTICE_CART
5.45569 0.0 0.0
0.0 5.45569 0.0
0.0 0.0 9.18789
%ENDBLOCK LATTICE_CART

%BLOCK POSITIONS_FRAC
P           0.000000000000000    0.000000000000000    0.352777000000000 
P           0.000000000000000    0.000000000000000    0.852777000000000 
P           0.500000000000000    0.500000000000000    0.413582000000000 
P           0.500000000000000    0.500000000000000    0.913582000000000 
K           0.000000000000000    0.500000000000000    0.664737000000000 
K           0.000000000000000    0.500000000000000    0.901473000000000 
K           0.500000000000000    0.000000000000000    0.164737000000000 
K           0.500000000000000    0.000000000000000    0.401473000000000 
%ENDBLOCK POSITIONS_FRAC
