# Cell file generated by matador (Matthew Evans 2016)

%BLOCK LATTICE_CART
9.5281 0.0 0.0
-4.76405 8.25157 0.0
0.0 0.0 6.54313
%ENDBLOCK LATTICE_CART

%BLOCK POSITIONS_FRAC
P           0.333332000000000    0.666666000000000    0.194335000000000 
P           0.333332000000000    0.666666000000000    0.805665000000000 
P           0.666666000000000    0.333332000000000    0.194335000000000 
P           0.666666000000000    0.333332000000000    0.805665000000000 
K           0.999999000000000    0.999999000000000    0.000000000000000 
K           0.999999000000000    0.999999000000000    0.500000000000000 
K           0.999999000000000    0.499999000000000    0.000000000000000 
K           0.999999000000000    0.499999000000000    0.500000000000000 
K           0.333332000000000    0.666666000000000    0.500000000000000 
K           0.499999000000000    0.999999000000000    0.000000000000000 
K           0.499999000000000    0.999999000000000    0.500000000000000 
K           0.499999000000000    0.499999000000000    0.000000000000000 
K           0.499999000000000    0.499999000000000    0.500000000000000 
K           0.666666000000000    0.333332000000000    0.500000000000000 
%ENDBLOCK POSITIONS_FRAC
