# Cell file generated by matador (Matthew Evans 2016)

%BLOCK LATTICE_CART
7.95843 0.0 0.0
0.0 4.07024 0.0
6.51168 0.0 11.7137
%ENDBLOCK LATTICE_CART

%BLOCK POSITIONS_FRAC
P          -0.000000000000000    0.000000000000000    0.500000000000000 
P          -0.000000000000000    0.500000000000000    0.000000000000000 
P           0.316591000000000    0.228038000000000    0.947975000000000 
P           0.316591000000000    0.271962000000000    0.447975000000000 
P           0.500000000000000    0.000000000000000    0.000000000000000 
P           0.500000000000000    0.000000000000000    0.500000000000000 
P           0.500000000000000    0.500000000000000    0.000000000000000 
P           0.500000000000000    0.500000000000000    0.500000000000000 
P           0.683409000000000    0.728038000000000    0.552025000000000 
P           0.683409000000000    0.771962000000000    0.052025000000000 
K           0.403197000000000    0.223398000000000    0.164079000000000 
K           0.403197000000000    0.276602000000000    0.664079000000000 
K           0.596803000000000    0.723398000000000    0.335921000000000 
K           0.596803000000000    0.776602000000000    0.835921000000000 
%ENDBLOCK POSITIONS_FRAC
