# Cell file generated by matador (Matthew Evans 2016)

%BLOCK LATTICE_CART
7.64473 0.0 0.0
0.0 7.64473 0.0
0.0 0.0 10.7392
%ENDBLOCK LATTICE_CART

%BLOCK POSITIONS_FRAC
P           0.094342000000000    0.250605000000000    0.057022000000000 
P           0.156206000000000    0.245750000000000    0.850413000000000 
P           0.245750000000000    0.843794000000000    0.350413000000000 
P           0.250605000000000    0.905658000000000    0.557022000000000 
P           0.749395000000000    0.094342000000000    0.557022000000000 
P           0.754250000000000    0.156206000000000    0.350413000000000 
P           0.843794000000000    0.754250000000000    0.850413000000000 
P           0.905658000000000    0.749395000000000    0.057022000000000 
K           0.000000000000000    0.000000000000000    0.301356000000000 
K           0.000000000000000    0.000000000000000    0.801356000000000 
K           0.000000000000000    0.500000000000000    0.166880000000000 
K           0.052979000000000    0.127060000000000    0.564957000000000 
K           0.127060000000000    0.947021000000000    0.064957000000000 
K           0.147727000000000    0.578150000000000    0.872996000000000 
K           0.421850000000000    0.147727000000000    0.372996000000000 
K           0.500000000000000    0.000000000000000    0.666880000000000 
K           0.578150000000000    0.852273000000000    0.372996000000000 
K           0.852273000000000    0.421850000000000    0.872996000000000 
K           0.872940000000000    0.052979000000000    0.064957000000000 
K           0.947021000000000    0.872940000000000    0.564957000000000 
%ENDBLOCK POSITIONS_FRAC
