# Cell file generated by matador (Matthew Evans 2016)

%BLOCK LATTICE_CART
7.25485 0.0 0.0
0.0 7.25485 0.0
0.0 0.0 7.25485
%ENDBLOCK LATTICE_CART

%BLOCK POSITIONS_FRAC
P           0.275678000000000    0.500000000000000    0.500000000000000 
P           0.500000000000000    0.275678000000000    0.500000000000000 
P           0.500000000000000    0.500000000000000    0.275678000000000 
P           0.500000000000000    0.500000000000000    0.500000000000000 
P           0.500000000000000    0.500000000000000    0.724322000000000 
P           0.500000000000000    0.724322000000000    0.500000000000000 
P           0.724322000000000    0.500000000000000    0.500000000000000 
K           0.000000000000000    0.000000000000000    0.500000000000000 
K           0.000000000000000    0.500000000000000    0.000000000000000 
K           0.000000000000000    0.500000000000000    0.500000000000000 
K           0.500000000000000    0.000000000000000    0.000000000000000 
K           0.500000000000000    0.000000000000000    0.500000000000000 
K           0.500000000000000    0.500000000000000    0.000000000000000 
%ENDBLOCK POSITIONS_FRAC
