# Cell file generated by matador (Matthew Evans 2016)

%BLOCK LATTICE_CART
8.27082 0.0 0.0
0.0 8.27082 0.0
0.0 0.0 6.05235
%ENDBLOCK LATTICE_CART

%BLOCK POSITIONS_FRAC
P           0.000000000000000    0.000000000000000    0.182358000000000 
P           0.000000000000000    0.000000000000000    0.817642000000000 
P           0.500000000000000    0.500000000000000    0.317642000000000 
P           0.500000000000000    0.500000000000000    0.682358000000000 
K           0.250000000000000    0.250000000000000    0.250000000000000 
K           0.250000000000000    0.250000000000000    0.750000000000000 
K           0.250000000000000    0.750000000000000    0.250000000000000 
K           0.250000000000000    0.750000000000000    0.750000000000000 
K           0.750000000000000    0.250000000000000    0.250000000000000 
K           0.750000000000000    0.250000000000000    0.750000000000000 
K           0.750000000000000    0.750000000000000    0.250000000000000 
K           0.750000000000000    0.750000000000000    0.750000000000000 
%ENDBLOCK POSITIONS_FRAC
