# Cell file generated by matador (Matthew Evans 2016)

%BLOCK LATTICE_CART
12.568 0.0 0.0
-6.28402 10.8843 0.0
0.0 0.0 4.58468
%ENDBLOCK LATTICE_CART

%BLOCK POSITIONS_FRAC
P           0.000000000000000    0.000000000000000    0.000000000000000 
P           0.000000000000000    0.000000000000000    0.500000000000000 
P           0.333334000000000    0.666667000000000    0.000000000000000 
P           0.333334000000000    0.666667000000000    0.500000000000000 
K           0.275621000000000    0.021499000000000    0.250000000000000 
K           0.275620000000000    0.254122000000000    0.750000000000000 
K           0.490368000000000    0.166029000000000    0.750000000000000 
K           0.490368000000000    0.324339000000000    0.250000000000000 
K           0.675661000000000    0.166029000000000    0.250000000000000 
K           0.675661000000000    0.509632000000000    0.750000000000000 
K           0.745878000000000    0.021499000000000    0.750000000000000 
K           0.745877000000000    0.724379000000000    0.250000000000000 
K           0.833971000000000    0.324339000000000    0.750000000000000 
K           0.833971000000000    0.509632000000000    0.250000000000000 
K           0.978502000000000    0.254122000000000    0.250000000000000 
K           0.978502000000000    0.724379000000000    0.750000000000000 
%ENDBLOCK POSITIONS_FRAC
