# Cell file generated by matador (Matthew Evans 2016)

%BLOCK LATTICE_CART
7.58101 0.0 0.0
-3.79051 6.56535 0.0
0.0 0.0 7.9358
%ENDBLOCK LATTICE_CART

%BLOCK POSITIONS_FRAC
P           0.000000000000000   -0.000000000000000    0.532326000000000 
P           0.183040000000000    0.480637000000000    0.053535000000000 
P           0.186029000000000    0.035736000000000    0.386868000000000 
P           0.297598000000000    0.816960000000000    0.053535000000000 
P           0.333333000000000    0.666667000000000    0.198992000000000 
P           0.516373000000000    0.147304000000000    0.720201000000000 
P           0.519363000000000    0.702402000000000    0.053535000000000 
P           0.630931000000000    0.483627000000000    0.720201000000000 
P           0.666667000000000    0.333333000000000    0.865659000000000 
P           0.849706000000000    0.813971000000000    0.386868000000000 
P           0.852696000000000    0.369069000000000    0.720201000000000 
P           0.964264000000000    0.150294000000000    0.386868000000000 
K           0.000000000000000   -0.000000000000000    0.927850000000000 
K           0.333333000000000    0.666667000000000    0.594516000000000 
K           0.666667000000000    0.333333000000000    0.261183000000000 
%ENDBLOCK POSITIONS_FRAC
