# Cell file generated by matador (Matthew Evans 2016)

%BLOCK LATTICE_CART
12.1002 0.0 0.0
-6.05011 10.4791 0.0
0.0 0.0 7.07763
%ENDBLOCK LATTICE_CART

%BLOCK POSITIONS_FRAC
P           0.000000000000000    0.000000000000000    0.000000000000000 
P           0.000000000000000    0.000000000000000    0.500000000000000 
P           0.333333000000000    0.666667000000000    0.166667000000000 
P           0.333333000000000    0.666667000000000    0.666667000000000 
P           0.666667000000000    0.333333000000000    0.333333000000000 
P           0.666667000000000    0.333333000000000    0.833333000000000 
K          -0.000000000000000    0.436106000000000    0.000000000000000 
K          -0.000000000000000    0.519028000000000    0.500000000000000 
K           0.102773000000000    0.333333000000000    0.333333000000000 
K           0.147639000000000    0.814305000000000    0.833333000000000 
K           0.185695000000000    0.333333000000000    0.833333000000000 
K           0.230561000000000    0.897227000000000    0.333333000000000 
K           0.333333000000000    0.102773000000000    0.666667000000000 
K           0.333333000000000    0.185695000000000    0.166667000000000 
K           0.436106000000000    0.000000000000000    0.000000000000000 
K           0.480972000000000    0.480972000000000    0.500000000000000 
K           0.519028000000000    0.000000000000000    0.500000000000000 
K           0.563894000000000    0.563894000000000    0.000000000000000 
K           0.666667000000000    0.769439000000000    0.333333000000000 
K           0.666667000000000    0.852361000000000    0.833333000000000 
K           0.769439000000000    0.666667000000000    0.666667000000000 
K           0.814305000000000    0.147639000000000    0.166667000000000 
K           0.852361000000000    0.666667000000000    0.166667000000000 
K           0.897227000000000    0.230561000000000    0.666667000000000 
%ENDBLOCK POSITIONS_FRAC
