# Cell file generated by matador (Matthew Evans 2016)

%BLOCK LATTICE_CART
6.13814 0.0 0.0
0.0 6.43803 0.0
0.0 0.0 7.31066
%ENDBLOCK LATTICE_CART

%BLOCK POSITIONS_FRAC
P           0.000000000000000    0.284895000000000    0.250000000000000 
P           0.000000000000000    0.715105000000000    0.750000000000000 
K           0.102654000000000    0.129105000000000    0.576755000000000 
K           0.102654000000000    0.870895000000000    0.423245000000000 
K           0.341686000000000    0.000000000000000    0.000000000000000 
K           0.658314000000000    0.000000000000000    0.500000000000000 
K           0.897346000000000    0.129105000000000    0.923245000000000 
K           0.897346000000000    0.870895000000000    0.076755000000000 
%ENDBLOCK POSITIONS_FRAC
