# Cell file generated by matador (Matthew Evans 2016)

%BLOCK LATTICE_CART
6.09573 0.0 0.0
0.0 6.09573 0.0
0.0 0.0 5.11956
%ENDBLOCK LATTICE_CART

%BLOCK POSITIONS_FRAC
P           0.000000000000000    0.500000000000000    0.159768000000000 
P           0.000000000000000    0.500000000000000    0.840232000000000 
P           0.500000000000000    0.000000000000000    0.159768000000000 
P           0.500000000000000    0.000000000000000    0.840232000000000 
P           0.500000000000000    0.500000000000000    0.000000000000000 
K           0.000000000000000    0.000000000000000    0.000000000000000 
K           0.000000000000000    0.000000000000000    0.500000000000000 
%ENDBLOCK POSITIONS_FRAC
