# Cell file generated by matador (Matthew Evans 2016)

%BLOCK LATTICE_CART
9.70303 0.0 0.0
-4.85151 8.40307 0.0
0.0 0.0 12.6878
%ENDBLOCK LATTICE_CART

%BLOCK POSITIONS_FRAC
P           0.000000000000000    0.000000000000000    0.272876000000000 
P           0.000000000000000    0.000000000000000    0.772876000000000 
P           0.333333000000000    0.666667000000000    0.138818000000000 
P           0.333333000000000    0.666667000000000    0.638818000000000 
P           0.666667000000000    0.333333000000000    0.138818000000000 
P           0.666667000000000    0.333333000000000    0.638818000000000 
K           0.000000000000000    0.253440000000000    0.187575000000000 
K           0.000000000000000    0.403290000000000    0.525867000000000 
K           0.000000000000000    0.455615000000000    0.770544000000000 
K           0.000000000000000    0.544385000000000    0.270544000000000 
K           0.000000000000000    0.596710000000000    0.025867000000000 
K           0.000000000000000    0.746560000000000    0.687575000000000 
K           0.253440000000000    0.000000000000000    0.187575000000000 
K           0.253440000000000    0.253440000000000    0.687575000000000 
K           0.403290000000000    0.000000000000000    0.525867000000000 
K           0.403290000000000    0.403290000000000    0.025867000000000 
K           0.455615000000000    0.000000000000000    0.770544000000000 
K           0.455615000000000    0.455615000000000    0.270544000000000 
K           0.544385000000000    0.000000000000000    0.270544000000000 
K           0.544385000000000    0.544385000000000    0.770544000000000 
K           0.596710000000000    0.000000000000000    0.025867000000000 
K           0.596710000000000    0.596710000000000    0.525867000000000 
K           0.746560000000000    0.000000000000000    0.687575000000000 
K           0.746560000000000    0.746560000000000    0.187575000000000 
%ENDBLOCK POSITIONS_FRAC
