# Cell file generated by matador (Matthew Evans 2016)

%BLOCK LATTICE_CART
3.02467 0.0 0.0
0.0 6.80421 0.0
-1.78127 0.0 4.72213
%ENDBLOCK LATTICE_CART

%BLOCK POSITIONS_FRAC
P           0.072990000000000    0.000000000000000    0.122581000000000 
P           0.572990000000000    0.500000000000000    0.122581000000000 
K           0.054022000000000    0.500000000000000    0.613895000000000 
K           0.554022000000000    0.000000000000000    0.613895000000000 
%ENDBLOCK POSITIONS_FRAC
