# Cell file generated by matador (Matthew Evans 2016)

%BLOCK LATTICE_CART
7.41453 0.0 0.0
0.0 10.975 0.0
1.77849 0.0 10.6931
%ENDBLOCK LATTICE_CART

%BLOCK POSITIONS_FRAC
P           0.234970000000000    0.575846000000000    0.418669000000000 
P           0.234970000000000    0.924154000000000    0.418669000000000 
P           0.500000000000000    0.000000000000000   -0.000000000000000 
P           0.500000000000000    0.500000000000000   -0.000000000000000 
P           0.765030000000000    0.075846000000000    0.581331000000000 
P           0.765030000000000    0.424154000000000    0.581331000000000 
K           0.000000000000000    0.000000000000000   -0.000000000000000 
K           0.000000000000000    0.000000000000000    0.500000000000000 
K           0.000000000000000    0.500000000000000   -0.000000000000000 
K           0.000000000000000    0.500000000000000    0.500000000000000 
K           0.055604000000000    0.750000000000000    0.077226000000000 
K           0.170947000000000    0.750000000000000    0.420450000000000 
K           0.172677000000000    0.250000000000000    0.383708000000000 
K           0.329776000000000    0.250000000000000    0.647462000000000 
K           0.343101000000000    0.750000000000000    0.828102000000000 
K           0.492752000000000    0.250000000000000    0.928598000000000 
K           0.500000000000000    0.000000000000000    0.500000000000000 
K           0.500000000000000    0.500000000000000    0.500000000000000 
K           0.507248000000000    0.750000000000000    0.071402000000000 
K           0.656899000000000    0.250000000000000    0.171898000000000 
K           0.670224000000000    0.750000000000000    0.352538000000000 
K           0.827323000000000    0.750000000000000    0.616292000000000 
K           0.829053000000000    0.250000000000000    0.579550000000000 
K           0.944396000000000    0.250000000000000    0.922774000000000 
%ENDBLOCK POSITIONS_FRAC
