# Cell file generated by matador (Matthew Evans 2016)

%BLOCK LATTICE_CART
7.00477 0.0 0.0
-1.05424 5.98224 0.0
2.42202 2.91463 9.47852
%ENDBLOCK LATTICE_CART

%BLOCK POSITIONS_FRAC
P           0.162893000000000    0.358931000000000    0.156928000000000 
P           0.336247000000000    0.941644000000000    0.334470000000000 
P           0.384069000000000    0.042973000000000    0.188408000000000 
P           0.615931000000000    0.957027000000000    0.811592000000000 
P           0.663753000000000    0.058356000000000    0.665530000000000 
P           0.837107000000000    0.641069000000000    0.843072000000000 
K           0.000000000000000    0.000000000000000    0.000000000000000 
K           0.000000000000000    0.000000000000000    0.500000000000000 
K           0.000000000000000    0.500000000000000    0.000000000000000 
K           0.000000000000000    0.500000000000000    0.500000000000000 
K           0.500000000000000    0.000000000000000    0.000000000000000 
K           0.500000000000000    0.500000000000000    0.000000000000000 
K           0.500000000000000    0.500000000000000    0.500000000000000 
%ENDBLOCK POSITIONS_FRAC
