# Cell file generated by matador (Matthew Evans 2016)

%BLOCK LATTICE_CART
6.53445 0.0 0.0
-3.26722 5.659 0.0
0.0 0.0 8.55789
%ENDBLOCK LATTICE_CART

%BLOCK POSITIONS_FRAC
P           0.000000000000000    0.000000000000000    0.500000000000000 
P           0.333333000000000    0.666667000000000    0.347737000000000 
P           0.333333000000000    0.666667000000000    0.652263000000000 
P           0.666667000000000    0.333333000000000    0.347737000000000 
P           0.666667000000000    0.333333000000000    0.652263000000000 
K           0.000000000000000    0.000000000000000   -0.000000000000000 
K           0.000000000000000    0.230001000000000    0.323626000000000 
K           0.000000000000000    0.230001000000000    0.676374000000000 
K           0.230001000000000    0.000000000000000    0.323626000000000 
K           0.230001000000000    0.000000000000000    0.676374000000000 
K           0.769999000000000    0.769999000000000    0.323626000000000 
K           0.769999000000000    0.769999000000000    0.676374000000000 
%ENDBLOCK POSITIONS_FRAC
