# Cell file generated by matador (Matthew Evans 2016)

%BLOCK LATTICE_CART
5.86608 0.0 0.0
-1.08664 6.21492 0.0
-4.8665 -2.02948 8.50997
%ENDBLOCK LATTICE_CART

%BLOCK POSITIONS_FRAC
P           0.000000000000000    0.000000000000000    0.000000000000000 
P           0.264672000000000    0.379982000000000    0.703125000000000 
P           0.500000000000000    0.000000000000000    0.000000000000000 
P           0.735328000000000    0.620018000000000    0.296875000000000 
K           0.000000000000000    0.500000000000000    0.000000000000000 
K           0.414208000000000    0.886907000000000    0.279464000000000 
K           0.425610000000000    0.322107000000000    0.280212000000000 
K           0.500000000000000    0.000000000000000    0.500000000000000 
K           0.500000000000000    0.500000000000000    0.500000000000000 
K           0.574390000000000    0.677893000000000    0.719788000000000 
K           0.585792000000000    0.113093000000000    0.720536000000000 
%ENDBLOCK POSITIONS_FRAC
