# Cell file generated by matador (Matthew Evans 2016)

%BLOCK LATTICE_CART
8.40389 0.0 0.0
0.0 8.40389 0.0
0.0 0.0 6.74987
%ENDBLOCK LATTICE_CART

%BLOCK POSITIONS_FRAC
P           0.000000000000000    0.000000000000000    0.611843000000000 
P           0.500000000000000    0.500000000000000    0.155956000000000 
K           0.000000000000000    0.324341000000000    0.746396000000000 
K           0.000000000000000    0.370809000000000    0.192758000000000 
K           0.000000000000000    0.629191000000000    0.192758000000000 
K           0.000000000000000    0.675659000000000    0.746396000000000 
K           0.300536000000000    0.300536000000000    0.514051000000000 
K           0.300536000000000    0.699464000000000    0.514051000000000 
K           0.324341000000000    0.000000000000000    0.746396000000000 
K           0.370809000000000    0.000000000000000    0.192758000000000 
K           0.629191000000000    0.000000000000000    0.192758000000000 
K           0.675659000000000    0.000000000000000    0.746396000000000 
K           0.699464000000000    0.300536000000000    0.514051000000000 
K           0.699464000000000    0.699464000000000    0.514051000000000 
%ENDBLOCK POSITIONS_FRAC
