# Cell file generated by matador (Matthew Evans 2016)

%BLOCK LATTICE_CART
8.66804 0.0 0.0
0.0 8.66804 0.0
0.0 0.0 6.59016
%ENDBLOCK LATTICE_CART

%BLOCK POSITIONS_FRAC
P           0.063167000000000    0.194314000000000    0.858993000000000 
P           0.194314000000000    0.436833000000000    0.858993000000000 
P           0.305686000000000    0.063167000000000    0.858993000000000 
P           0.436833000000000    0.305686000000000    0.858993000000000 
P           0.563167000000000    0.694314000000000    0.141007000000000 
P           0.694314000000000    0.936833000000000    0.141007000000000 
P           0.805686000000000    0.563167000000000    0.141007000000000 
P           0.936833000000000    0.805686000000000    0.141007000000000 
K           0.000000000000000    0.000000000000000    0.000000000000000 
K           0.000000000000000    0.500000000000000    0.000000000000000 
K           0.250000000000000    0.750000000000000    0.500000000000000 
K           0.500000000000000    0.000000000000000    0.000000000000000 
K           0.500000000000000    0.500000000000000    0.000000000000000 
K           0.750000000000000    0.250000000000000    0.500000000000000 
%ENDBLOCK POSITIONS_FRAC
