# Cell file generated by matador (Matthew Evans 2016)

%BLOCK LATTICE_CART
6.45555 0.0 0.0
-3.22777 5.59067 0.0
0.0 0.0 9.98291
%ENDBLOCK LATTICE_CART

%BLOCK POSITIONS_FRAC
P           0.000000000000000    0.000000000000000    0.377401000000000 
P           0.275279000000000    0.551342000000000    0.043479000000000 
P           0.276063000000000    0.724721000000000    0.043479000000000 
P           0.333333000000000    0.666667000000000    0.462342000000000 
P           0.448658000000000    0.723937000000000    0.043479000000000 
P           0.666667000000000    0.333333000000000    0.640820000000000 
K           0.000000000000000    0.000000000000000    0.689642000000000 
K           0.288603000000000    0.085579000000000    0.866255000000000 
K           0.333333000000000    0.666667000000000    0.254378000000000 
K           0.333333000000000    0.666667000000000    0.676424000000000 
K           0.666667000000000    0.333333000000000    0.259604000000000 
K           0.796976000000000    0.711397000000000    0.866255000000000 
K           0.914421000000000    0.203024000000000    0.866255000000000 
%ENDBLOCK POSITIONS_FRAC
