# Cell file generated by matador (Matthew Evans 2016)

%BLOCK LATTICE_CART
8.03493 0.0 0.0
-2.74116 5.85906 0.0
2.29161 -1.71583 6.51783
%ENDBLOCK LATTICE_CART

%BLOCK POSITIONS_FRAC
P           0.000000000000000    0.500000000000000    0.000000000000000 
P           0.135947000000000    0.346597000000000    0.385755000000000 
P           0.183764000000000    0.177639000000000    0.957567000000000 
P           0.377896000000000    0.885350000000000    0.730210000000000 
P           0.440464000000000    0.777980000000000    0.498827000000000 
P           0.500000000000000    0.000000000000000    0.500000000000000 
P           0.559536000000000    0.222020000000000    0.501173000000000 
P           0.622104000000000    0.114650000000000    0.269790000000000 
P           0.816236000000000    0.822361000000000    0.042433000000000 
P           0.864053000000000    0.653403000000000    0.614245000000000 
K           0.180768000000000    0.146727000000000    0.615258000000000 
K           0.819232000000000    0.853273000000000    0.384742000000000 
%ENDBLOCK POSITIONS_FRAC
