# Cell file generated by matador (Matthew Evans 2016)

%BLOCK LATTICE_CART
6.71604 0.0 0.0
3.33961 6.1419 0.0
0.704203 0.840701 4.97143
%ENDBLOCK LATTICE_CART

%BLOCK POSITIONS_FRAC
P           0.000000000000000    0.500000000000000    0.500000000000000 
P           0.358884000000000    0.888402000000000    0.938932000000000 
P           0.641116000000000    0.111598000000000    0.061068000000000 
K           0.000000000000000    0.000000000000000    0.000000000000000 
K           0.500000000000000    0.500000000000000    0.000000000000000 
K           0.500000000000000    0.500000000000000    0.500000000000000 
%ENDBLOCK POSITIONS_FRAC
