# Cell file generated by matador (Matthew Evans 2016)

%BLOCK LATTICE_CART
6.23003 0.0 0.0
0.0 8.39321 0.0
0.0 0.0 7.26068
%ENDBLOCK LATTICE_CART

%BLOCK POSITIONS_FRAC
P           0.032558000000000    0.601543000000000    0.676498000000000 
P           0.131548000000000    0.919623000000000    0.351792000000000 
P           0.248979000000000    0.879624000000000    0.147121000000000 
P           0.251021000000000    0.379624000000000    0.852879000000000 
P           0.368452000000000    0.419623000000000    0.648208000000000 
P           0.467442000000000    0.101543000000000    0.323502000000000 
P           0.532558000000000    0.898457000000000    0.323502000000000 
P           0.631548000000000    0.580377000000000    0.648208000000000 
P           0.748979000000000    0.620376000000000    0.852879000000000 
P           0.751021000000000    0.120376000000000    0.147121000000000 
P           0.868452000000000    0.080377000000000    0.351792000000000 
P           0.967442000000000    0.398457000000000    0.676498000000000 
K           0.000000000000000    0.500000000000000    0.160702000000000 
K           0.500000000000000    0.000000000000000    0.839298000000000 
%ENDBLOCK POSITIONS_FRAC
