# Cell file generated by matador (Matthew Evans 2016)

%BLOCK LATTICE_CART
9.02899 0.0 0.0
-4.5145 7.81934 0.0
0.0 0.0 3.80703
%ENDBLOCK LATTICE_CART

%BLOCK POSITIONS_FRAC
P           0.000001000000000    0.000001000000000    0.176258000000000 
P           0.000001000000000    0.000001000000000    0.823742000000000 
P           0.000001000000000    0.500001000000000    0.000000000000000 
P           0.000001000000000    0.500001000000000    0.500000000000000 
P           0.500001000000000    0.000001000000000    0.000000000000000 
P           0.500001000000000    0.000001000000000    0.500000000000000 
P           0.500001000000000    0.500001000000000    0.000000000000000 
P           0.500001000000000    0.500001000000000    0.500000000000000 
K           0.333334000000000    0.666668000000000    0.500000000000000 
K           0.666668000000000    0.333334000000000    0.500000000000000 
%ENDBLOCK POSITIONS_FRAC
