# Cell file generated by matador (Matthew Evans 2016)

%BLOCK LATTICE_CART
7.58926 0.0 0.0
0.0 7.58926 0.0
0.0 0.0 6.88575
%ENDBLOCK LATTICE_CART

%BLOCK POSITIONS_FRAC
P          -0.000000000000000   -0.000000000000000    0.204343000000000 
P          -0.000000000000000   -0.000000000000000    0.795657000000000 
P           0.190337000000000    0.190337000000000    0.500000000000000 
P           0.190337000000000    0.809663000000000    0.500000000000000 
P           0.309663000000000    0.309663000000000    0.500000000000000 
P           0.309663000000000    0.690337000000000    0.500000000000000 
P           0.500000000000000    0.500000000000000    0.204343000000000 
P           0.500000000000000    0.500000000000000    0.795657000000000 
P           0.690337000000000    0.309663000000000    0.500000000000000 
P           0.690337000000000    0.690337000000000    0.500000000000000 
P           0.809663000000000    0.190337000000000    0.500000000000000 
P           0.809663000000000    0.809663000000000    0.500000000000000 
K           0.250000000000000    0.250000000000000    0.000000000000000 
K           0.250000000000000    0.750000000000000    0.000000000000000 
K           0.750000000000000    0.250000000000000    0.000000000000000 
K           0.750000000000000    0.750000000000000    0.000000000000000 
%ENDBLOCK POSITIONS_FRAC
