# Cell file generated by matador (Matthew Evans 2016)

%BLOCK LATTICE_CART
6.75857 0.0 0.0
-3.08944 7.57057 0.0
-1.5483 1.37966 6.38935
%ENDBLOCK LATTICE_CART

%BLOCK POSITIONS_FRAC
P           0.000000000000000    0.000000000000000    0.500000000000000 
P           0.000000000000000    0.500000000000000    0.000000000000000 
P           0.485105000000000    0.584422000000000    0.856597000000000 
P           0.500000000000000    0.500000000000000    0.000000000000000 
P           0.514895000000000    0.415578000000000    0.143403000000000 
K           0.000000000000000    0.000000000000000    0.000000000000000 
K           0.298471000000000    0.142056000000000    0.895257000000000 
K           0.315733000000000    0.907902000000000    0.432608000000000 
K           0.500000000000000    0.000000000000000    0.000000000000000 
K           0.500000000000000    0.500000000000000    0.500000000000000 
K           0.684267000000000    0.092098000000000    0.567392000000000 
K           0.701529000000000    0.857944000000000    0.104743000000000 
%ENDBLOCK POSITIONS_FRAC
