# Cell file generated by matador (Matthew Evans 2016)

%BLOCK LATTICE_CART
6.57791 0.0 0.0
-3.28896 5.69664 0.0
0.0 0.0 7.73805
%ENDBLOCK LATTICE_CART

%BLOCK POSITIONS_FRAC
P          -0.000000000000000    0.000000000000000    0.304338000000000 
P          -0.000000000000000    0.000000000000000    0.567162000000000 
P          -0.000000000000000    0.000000000000000    0.704973000000000 
P           0.333333000000000    0.666667000000000    0.675535000000000 
P           0.502324000000000    0.251162000000000    0.728323000000000 
P           0.666666000000000    0.333334000000000    0.454929000000000 
P           0.748838000000000    0.251162000000000    0.728323000000000 
P           0.748838000000000    0.497676000000000    0.728323000000000 
K           0.333333000000000    0.666667000000000    0.328677000000000 
K           0.666666000000000    0.333334000000000    0.115662000000000 
%ENDBLOCK POSITIONS_FRAC
