# Cell file generated by matador (Matthew Evans 2016)

%BLOCK LATTICE_CART
8.44444 0.0 0.0
0.0 8.44444 0.0
0.0 0.0 9.25006
%ENDBLOCK LATTICE_CART

%BLOCK POSITIONS_FRAC
P           0.122872000000000    0.500000000000000    0.957990000000000 
P           0.500000000000000    0.122872000000000    0.457990000000000 
P           0.500000000000000    0.877128000000000    0.457990000000000 
P           0.877128000000000    0.500000000000000    0.957990000000000 
K           0.000000000000000    0.199652000000000    0.218168000000000 
K           0.000000000000000    0.301595000000000    0.670096000000000 
K           0.000000000000000    0.698405000000000    0.670096000000000 
K           0.000000000000000    0.800348000000000    0.218168000000000 
K           0.199652000000000    0.000000000000000    0.718168000000000 
K           0.216950000000000    0.500000000000000    0.394813000000000 
K           0.301595000000000    0.000000000000000    0.170096000000000 
K           0.500000000000000    0.216950000000000    0.894813000000000 
K           0.500000000000000    0.783050000000000    0.894813000000000 
K           0.698405000000000    0.000000000000000    0.170096000000000 
K           0.783050000000000    0.500000000000000    0.394813000000000 
K           0.800348000000000    0.000000000000000    0.718168000000000 
%ENDBLOCK POSITIONS_FRAC
