# Cell file generated by matador (Matthew Evans 2016)

%BLOCK LATTICE_CART
7.7596 0.0 0.0
0.0 7.06598 0.0
1.64702 0.0 5.75788
%ENDBLOCK LATTICE_CART

%BLOCK POSITIONS_FRAC
P           0.744997000000000    0.357468000000000    0.187548000000000 
P           0.744997000000000    0.642532000000000    0.187548000000000 
K           0.090450000000000    0.500000000000000    0.315376000000000 
K           0.142886000000000    0.000000000000000    0.472924000000000 
K           0.210818000000000    0.000000000000000    0.976871000000000 
K           0.404848000000000    0.000000000000000    0.432754000000000 
K           0.516760000000000    0.000000000000000    0.945683000000000 
K           0.614961000000000    0.000000000000000    0.541008000000000 
K           0.862260000000000    0.000000000000000    0.248781000000000 
K           0.910619000000000    0.000000000000000    0.691121000000000 
%ENDBLOCK POSITIONS_FRAC
