# Cell file generated by matador (Matthew Evans 2016)

%BLOCK LATTICE_CART
7.55831 0.0 0.0
0.0 5.76395 0.0
0.694628 0.0 6.7434
%ENDBLOCK LATTICE_CART

%BLOCK POSITIONS_FRAC
P           0.091824000000000    0.500000000000000    0.086829000000000 
P           0.159228000000000    0.000000000000000    0.763401000000000 
P           0.230901000000000    0.000000000000000    0.625183000000000 
P           0.614002000000000    0.379658000000000    0.588834000000000 
P           0.614002000000000    0.620342000000000    0.588834000000000 
P           0.723302000000000    0.500000000000000    0.163339000000000 
P           0.842620000000000    0.500000000000000    0.506811000000000 
K           0.087530000000000    0.000000000000000    0.256309000000000 
K           0.412890000000000    0.500000000000000    0.441854000000000 
K           0.769278000000000    0.244192000000000    0.935766000000000 
K           0.769278000000000    0.755808000000000    0.935766000000000 
%ENDBLOCK POSITIONS_FRAC
