# Cell file generated by matador (Matthew Evans 2016)

%BLOCK LATTICE_CART
9.04043 0.0 0.0
0.0 7.93086 0.0
0.0 0.0 9.389
%ENDBLOCK LATTICE_CART

%BLOCK POSITIONS_FRAC
P           0.000000000000000    0.500000000000000    0.234740000000000 
P           0.000000000000000    0.500000000000000    0.500000000000000 
P           0.000000000000000    0.500000000000000    0.765260000000000 
P           0.137418000000000    0.802364000000000    0.500000000000000 
P           0.362582000000000    0.302364000000000    0.000000000000000 
P           0.500000000000000   -0.000000000000000    0.000000000000000 
P           0.500000000000000   -0.000000000000000    0.265260000000000 
P           0.500000000000000   -0.000000000000000    0.734740000000000 
P           0.637418000000000    0.697636000000000    0.000000000000000 
P           0.862582000000000    0.197636000000000    0.500000000000000 
K           0.000000000000000   -0.000000000000000    0.500000000000000 
K           0.000000000000000    0.500000000000000    0.000000000000000 
K           0.087161000000000    0.831267000000000    0.000000000000000 
K           0.412839000000000    0.331267000000000    0.500000000000000 
K           0.500000000000000   -0.000000000000000    0.500000000000000 
K           0.500000000000000    0.500000000000000    0.000000000000000 
K           0.587161000000000    0.668733000000000    0.500000000000000 
K           0.912839000000000    0.168733000000000    0.000000000000000 
%ENDBLOCK POSITIONS_FRAC
