# Cell file generated by matador (Matthew Evans 2016)

%BLOCK LATTICE_CART
8.97769 0.0 0.0
-4.48884 7.77491 0.0
0.0 0.0 8.16355
%ENDBLOCK LATTICE_CART

%BLOCK POSITIONS_FRAC
P           0.000000000000000    0.000000000000000    0.119924000000000 
P           0.000000000000000    0.000000000000000    0.619924000000000 
P           0.333333000000000    0.666667000000000    0.063232000000000 
P           0.666667000000000    0.333333000000000    0.563232000000000 
K           0.187331000000000    0.374663000000000    0.830922000000000 
K           0.187331000000000    0.812669000000000    0.830922000000000 
K           0.205262000000000    0.410524000000000    0.394200000000000 
K           0.205262000000000    0.794738000000000    0.394200000000000 
K           0.374663000000000    0.187331000000000    0.330922000000000 
K           0.410524000000000    0.205262000000000    0.894200000000000 
K           0.589476000000000    0.794738000000000    0.394200000000000 
K           0.625337000000000    0.812669000000000    0.830922000000000 
K           0.794738000000000    0.205262000000000    0.894200000000000 
K           0.794738000000000    0.589476000000000    0.894200000000000 
K           0.812669000000000    0.187331000000000    0.330922000000000 
K           0.812669000000000    0.625337000000000    0.330922000000000 
%ENDBLOCK POSITIONS_FRAC
