# Cell file generated by matador (Matthew Evans 2016)

%BLOCK LATTICE_CART
8.50944 0.0 0.0
-4.25472 7.3694 0.0
0.0 0.0 9.13043
%ENDBLOCK LATTICE_CART

%BLOCK POSITIONS_FRAC
P           0.000000000000000    0.000000000000000    0.414001000000000 
P           0.000000000000000    0.000000000000000    0.938680000000000 
P           0.333333000000000    0.666667000000000    0.020080000000000 
P           0.666667000000000    0.333333000000000    0.020080000000000 
K           0.204618000000000    0.409236000000000    0.173761000000000 
K           0.204618000000000    0.795382000000000    0.173761000000000 
K           0.208551000000000    0.417101000000000    0.515262000000000 
K           0.208551000000000    0.791449000000000    0.515262000000000 
K           0.409236000000000    0.204618000000000    0.173761000000000 
K           0.417101000000000    0.208551000000000    0.515262000000000 
K           0.582899000000000    0.791449000000000    0.515262000000000 
K           0.590764000000000    0.795382000000000    0.173761000000000 
K           0.791449000000000    0.208551000000000    0.515262000000000 
K           0.791449000000000    0.582899000000000    0.515262000000000 
K           0.795382000000000    0.204618000000000    0.173761000000000 
K           0.795382000000000    0.590764000000000    0.173761000000000 
%ENDBLOCK POSITIONS_FRAC
