# Cell file generated by matador (Matthew Evans 2016)

%BLOCK LATTICE_CART
4.69323 0.0 0.0
-2.34661 4.06445 0.0
0.0 0.0 7.7922
%ENDBLOCK LATTICE_CART

%BLOCK POSITIONS_FRAC
P           0.000000000000000    0.000000000000000    0.000000000000000 
P           0.000000000000000    0.000000000000000    0.144965000000000 
P           0.000000000000000    0.000000000000000    0.855035000000000 
P           0.333333000000000    0.666667000000000    0.352219000000000 
P           0.666667000000000    0.333333000000000    0.647781000000000 
K           0.000000000000000    0.000000000000000    0.500000000000000 
%ENDBLOCK POSITIONS_FRAC
