# Cell file generated by matador (Matthew Evans 2016)

%BLOCK LATTICE_CART
12.1581 0.0 0.0
0.0 8.24903 0.0
0.0 0.0 11.7006
%ENDBLOCK LATTICE_CART

%BLOCK POSITIONS_FRAC
P           0.000000000000000    0.000000000000000    0.500000000000000 
P           0.000000000000000    0.292906000000000    0.500000000000000 
P           0.000000000000000    0.500000000000000    0.000000000000000 
P           0.000000000000000    0.707094000000000    0.500000000000000 
P           0.500000000000000    0.000000000000000    0.000000000000000 
P           0.500000000000000    0.207094000000000    0.500000000000000 
P           0.500000000000000    0.500000000000000    0.500000000000000 
P           0.500000000000000    0.792906000000000    0.500000000000000 
K           0.000000000000000    0.187609000000000    0.131778000000000 
K           0.000000000000000    0.187609000000000    0.868222000000000 
K           0.000000000000000    0.812391000000000    0.131778000000000 
K           0.000000000000000    0.812391000000000    0.868222000000000 
K           0.130991000000000    0.500000000000000    0.321154000000000 
K           0.130991000000000    0.500000000000000    0.678846000000000 
K           0.140360000000000    0.176284000000000    0.500000000000000 
K           0.140360000000000    0.823716000000000    0.500000000000000 
K           0.359640000000000    0.323716000000000    0.500000000000000 
K           0.359640000000000    0.676284000000000    0.500000000000000 
K           0.369009000000000    0.000000000000000    0.321154000000000 
K           0.369009000000000    0.000000000000000    0.678846000000000 
K           0.500000000000000    0.312391000000000    0.131778000000000 
K           0.500000000000000    0.312391000000000    0.868222000000000 
K           0.500000000000000    0.687609000000000    0.131778000000000 
K           0.500000000000000    0.687609000000000    0.868222000000000 
K           0.630991000000000    0.000000000000000    0.321154000000000 
K           0.630991000000000    0.000000000000000    0.678846000000000 
K           0.640360000000000    0.323716000000000    0.500000000000000 
K           0.640360000000000    0.676284000000000    0.500000000000000 
K           0.859640000000000    0.176284000000000    0.500000000000000 
K           0.859640000000000    0.823716000000000    0.500000000000000 
K           0.869009000000000    0.500000000000000    0.321154000000000 
K           0.869009000000000    0.500000000000000    0.678846000000000 
%ENDBLOCK POSITIONS_FRAC
