# Cell file generated by matador (Matthew Evans 2016)

%BLOCK LATTICE_CART
6.5912 0.0 0.0
0.0 5.2111 0.0
-0.0212595 0.0 3.51202
%ENDBLOCK LATTICE_CART

%BLOCK POSITIONS_FRAC
P           0.061998000000000    0.983344000000000    0.113257000000000 
P           0.317554000000000    0.168130000000000    0.928856000000000 
P           0.325725000000000    0.450448000000000    0.269956000000000 
P           0.674275000000000    0.450448000000000    0.730044000000000 
P           0.682446000000000    0.168130000000000    0.071144000000000 
P           0.938002000000000    0.983344000000000    0.886743000000000 
K           0.000000000000000    0.590308000000000    0.500000000000000 
%ENDBLOCK POSITIONS_FRAC
