# Cell file generated by matador (Matthew Evans 2016)

%BLOCK LATTICE_CART
6.21768 0.0 0.0
0.0 7.80789 0.0
0.0 0.0 10.4735
%ENDBLOCK LATTICE_CART

%BLOCK POSITIONS_FRAC
P           0.000000000000000    0.000000000000000    0.276137000000000 
P           0.044023000000000    0.399496000000000    0.529239000000000 
P           0.455977000000000    0.899496000000000    0.529239000000000 
P           0.500000000000000    0.500000000000000    0.276137000000000 
P           0.544023000000000    0.100504000000000    0.529239000000000 
P           0.955977000000000    0.600504000000000    0.529239000000000 
K           0.000000000000000    0.000000000000000    0.001904000000000 
K           0.000000000000000    0.000000000000000    0.702199000000000 
K           0.000000000000000    0.500000000000000    0.225572000000000 
K           0.000000000000000    0.500000000000000    0.724133000000000 
K           0.114143000000000    0.689636000000000    0.899616000000000 
K           0.385857000000000    0.189636000000000    0.899616000000000 
K           0.500000000000000    0.000000000000000    0.225572000000000 
K           0.500000000000000    0.000000000000000    0.724133000000000 
K           0.500000000000000    0.500000000000000    0.001904000000000 
K           0.500000000000000    0.500000000000000    0.702199000000000 
K           0.614143000000000    0.810364000000000    0.899616000000000 
K           0.885857000000000    0.310364000000000    0.899616000000000 
%ENDBLOCK POSITIONS_FRAC
