# Cell file generated by matador (Matthew Evans 2016)

%BLOCK LATTICE_CART
6.4338 0.0 0.0
0.0 8.13764 0.0
-1.06081 0.0 6.00461
%ENDBLOCK LATTICE_CART

%BLOCK POSITIONS_FRAC
P           0.419108000000000    0.000000000000000    0.785090000000000 
P           0.762358000000000    0.306544000000000    0.692708000000000 
P           0.762358000000000    0.693456000000000    0.692708000000000 
P           0.860231000000000    0.118181000000000    0.895221000000000 
P           0.860231000000000    0.881819000000000    0.895221000000000 
P           0.927554000000000    0.000000000000000    0.545877000000000 
K           0.194818000000000    0.231756000000000    0.437458000000000 
K           0.194818000000000    0.768244000000000    0.437458000000000 
K           0.362676000000000    0.207143000000000    0.000478000000000 
K           0.362676000000000    0.792857000000000    0.000478000000000 
K           0.366862000000000    0.000000000000000    0.330663000000000 
%ENDBLOCK POSITIONS_FRAC
