# Cell file generated by matador (Matthew Evans 2016)

%BLOCK LATTICE_CART
8.91203 0.0 0.0
0.0 8.91203 0.0
0.0 0.0 6.58996
%ENDBLOCK LATTICE_CART

%BLOCK POSITIONS_FRAC
P           0.000000000000000    0.000000000000000    0.078866000000000 
P           0.000000000000000    0.000000000000000    0.392655000000000 
P           0.000000000000000    0.000000000000000    0.689959000000000 
P           0.000000000000000    0.500000000000000    0.203195000000000 
P           0.000000000000000    0.500000000000000    0.703195000000000 
P           0.500000000000000    0.000000000000000    0.203195000000000 
P           0.500000000000000    0.000000000000000    0.703195000000000 
P           0.500000000000000    0.500000000000000    0.189959000000000 
P           0.500000000000000    0.500000000000000    0.578866000000000 
P           0.500000000000000    0.500000000000000    0.892655000000000 
K           0.181439000000000    0.818561000000000    0.158010000000000 
K           0.238658000000000    0.238658000000000    0.223887000000000 
K           0.261342000000000    0.738658000000000    0.723887000000000 
K           0.318561000000000    0.318561000000000    0.658010000000000 
K           0.681439000000000    0.681439000000000    0.658010000000000 
K           0.738658000000000    0.261342000000000    0.723887000000000 
K           0.761342000000000    0.761342000000000    0.223887000000000 
K           0.818561000000000    0.181439000000000    0.158010000000000 
%ENDBLOCK POSITIONS_FRAC
