# Cell file generated by matador (Matthew Evans 2016)

%BLOCK LATTICE_CART
8.4104 0.0 0.0
-4.2052 7.28362 0.0
0.0 0.0 6.8919
%ENDBLOCK LATTICE_CART

%BLOCK POSITIONS_FRAC
P           0.333333000000000    0.666667000000000    0.606490000000000 
P           0.380964000000000    0.005981000000000    0.384736000000000 
P           0.380964000000000    0.374983000000000    0.384736000000000 
P           0.625017000000000    0.005981000000000    0.384736000000000 
P           0.625017000000000    0.619036000000000    0.384736000000000 
P           0.666666000000000    0.333334000000000    0.515624000000000 
P           0.666666000000000    0.333334000000000    0.760910000000000 
P           0.994019000000000    0.374983000000000    0.384736000000000 
P           0.994019000000000    0.619036000000000    0.384736000000000 
K           0.100238000000000    0.200477000000000    0.193485000000000 
K           0.100238000000000    0.899762000000000    0.193485000000000 
K           0.799523000000000    0.899762000000000    0.193485000000000 
%ENDBLOCK POSITIONS_FRAC
