# Cell file generated by matador (Matthew Evans 2016)

%BLOCK LATTICE_CART
7.519 0.0 0.0
0.0 7.519 0.0
0.0 0.0 7.519
%ENDBLOCK LATTICE_CART

%BLOCK POSITIONS_FRAC
P           0.000000000000000    0.000000000000000    0.174746000000000 
P           0.000000000000000    0.000000000000000    0.825254000000000 
P           0.000000000000000    0.174746000000000    0.000000000000000 
P           0.000000000000000    0.825254000000000    0.000000000000000 
P           0.174746000000000    0.000000000000000    0.000000000000000 
P           0.825254000000000    0.000000000000000    0.000000000000000 
K           0.000000000000000    0.000000000000000    0.500000000000000 
K           0.000000000000000    0.500000000000000    0.000000000000000 
K           0.000000000000000    0.500000000000000    0.500000000000000 
K           0.500000000000000    0.000000000000000    0.000000000000000 
K           0.500000000000000    0.000000000000000    0.500000000000000 
K           0.500000000000000    0.500000000000000    0.000000000000000 
K           0.500000000000000    0.500000000000000    0.500000000000000 
%ENDBLOCK POSITIONS_FRAC
