# Cell file generated by matador (Matthew Evans 2016)

%BLOCK LATTICE_CART
9.06304 0.0 0.0
-4.53152 7.84882 0.0
0.0 0.0 12.4468
%ENDBLOCK LATTICE_CART

%BLOCK POSITIONS_FRAC
P           0.216613000000000    0.497189000000000    0.750000000000000 
P           0.280576000000000    0.783387000000000    0.750000000000000 
P           0.497189000000000    0.280576000000000    0.250000000000000 
P           0.502811000000000    0.719424000000000    0.750000000000000 
P           0.719424000000000    0.216613000000000    0.250000000000000 
P           0.783387000000000    0.502811000000000    0.250000000000000 
K           0.000000000000000    0.000000000000000    0.000000000000000 
K           0.000000000000000    0.000000000000000    0.250000000000000 
K           0.000000000000000    0.000000000000000    0.500000000000000 
K           0.000000000000000    0.000000000000000    0.750000000000000 
K           0.024714000000000    0.691191000000000    0.250000000000000 
K           0.025422000000000    0.661831000000000    0.750000000000000 
K           0.308809000000000    0.333522000000000    0.250000000000000 
K           0.333333000000000    0.666667000000000    0.250000000000000 
K           0.333522000000000    0.024714000000000    0.750000000000000 
K           0.338169000000000    0.363591000000000    0.750000000000000 
K           0.363591000000000    0.025422000000000    0.250000000000000 
K           0.636409000000000    0.974578000000000    0.750000000000000 
K           0.661831000000000    0.636409000000000    0.250000000000000 
K           0.666478000000000    0.975286000000000    0.250000000000000 
K           0.666667000000000    0.333333000000000    0.750000000000000 
K           0.691191000000000    0.666478000000000    0.750000000000000 
K           0.974578000000000    0.338169000000000    0.250000000000000 
K           0.975286000000000    0.308809000000000    0.750000000000000 
%ENDBLOCK POSITIONS_FRAC
