# Cell file generated by matador (Matthew Evans 2016)

%BLOCK LATTICE_CART
11.9685 0.0 0.0
0.0 10.4287 0.0
0.0 0.0 5.26417
%ENDBLOCK LATTICE_CART

%BLOCK POSITIONS_FRAC
P           0.203940000000000    0.236578000000000    0.801172000000000 
P           0.203940000000000    0.763422000000000    0.801172000000000 
P           0.796060000000000    0.236578000000000    0.801172000000000 
P           0.796060000000000    0.763422000000000    0.801172000000000 
K           0.000000000000000    0.137095000000000    0.913409000000000 
K           0.000000000000000    0.364785000000000    0.593885000000000 
K           0.000000000000000    0.635215000000000    0.593885000000000 
K           0.000000000000000    0.862905000000000    0.913409000000000 
K           0.213937000000000    0.500000000000000    0.701704000000000 
K           0.326116000000000    0.000000000000000    0.176225000000000 
K           0.348206000000000    0.500000000000000    0.215784000000000 
K           0.500000000000000    0.271554000000000    0.165827000000000 
K           0.500000000000000    0.728446000000000    0.165827000000000 
K           0.651794000000000    0.500000000000000    0.215784000000000 
K           0.673884000000000    0.000000000000000    0.176225000000000 
K           0.786063000000000    0.500000000000000    0.701704000000000 
%ENDBLOCK POSITIONS_FRAC
