# Cell file generated by matador (Matthew Evans 2016)

%BLOCK LATTICE_CART
9.92117 0.0 0.0
-4.96059 8.59199 0.0
0.0 0.0 5.39975
%ENDBLOCK LATTICE_CART

%BLOCK POSITIONS_FRAC
P           0.000000000000000    0.000000000000000    0.000000000000000 
P           0.000000000000000    0.000000000000000    0.500000000000000 
P           0.333333000000000    0.666667000000000    0.129612000000000 
P           0.333333000000000    0.666667000000000    0.870388000000000 
P           0.666667000000000    0.333333000000000    0.129612000000000 
P           0.666667000000000    0.333333000000000    0.870388000000000 
K           0.000000000000000    0.500000000000000    0.000000000000000 
K           0.000000000000000    0.500000000000000    0.500000000000000 
K           0.333333000000000    0.666667000000000    0.500000000000000 
K           0.500000000000000    0.000000000000000    0.000000000000000 
K           0.500000000000000    0.000000000000000    0.500000000000000 
K           0.500000000000000    0.500000000000000    0.000000000000000 
K           0.500000000000000    0.500000000000000    0.500000000000000 
K           0.666667000000000    0.333333000000000    0.500000000000000 
%ENDBLOCK POSITIONS_FRAC
