# Cell file generated by matador (Matthew Evans 2016)

%BLOCK LATTICE_CART
12.3743 0.0 0.0
-6.18715 10.7165 0.0
0.0 0.0 1.79794
%ENDBLOCK LATTICE_CART

%BLOCK POSITIONS_FRAC
P           0.000000000000000   -0.000000000000000    0.753062000000000 
P           0.333333000000000    0.666667000000000    0.101219000000000 
P           0.467604000000000    0.041006000000000    0.699163000000000 
P           0.573402000000000    0.532396000000000    0.699163000000000 
P           0.958994000000000    0.426598000000000    0.699163000000000 
K           0.307504000000000    0.069391000000000    0.083024000000000 
K           0.761887000000000    0.692496000000000    0.083024000000000 
K           0.930609000000000    0.238113000000000    0.083024000000000 
%ENDBLOCK POSITIONS_FRAC
