# Cell file generated by matador (Matthew Evans 2016)

%BLOCK LATTICE_CART
5.2926 0.0 0.0
0.0 6.79034 0.0
-0.574483 0.0 4.39845
%ENDBLOCK LATTICE_CART

%BLOCK POSITIONS_FRAC
P           0.769668000000000    0.500000000000000    0.320177000000000 
P           0.861055000000000    0.161861000000000    0.569310000000000 
P           0.861055000000000    0.838139000000000    0.569310000000000 
K           0.327635000000000    0.318996000000000    0.786183000000000 
K           0.327635000000000    0.681004000000000    0.786183000000000 
%ENDBLOCK POSITIONS_FRAC
