# Cell file generated by matador (Matthew Evans 2016)

%BLOCK LATTICE_CART
6.76905 0.0 0.0
-3.38452 5.86217 0.0
0.0 0.0 10.1499
%ENDBLOCK LATTICE_CART

%BLOCK POSITIONS_FRAC
P           0.000000000000000    0.000000000000000    0.992039000000000 
P           0.000000000000000    0.233976000000000    0.610586000000000 
P           0.000000000000000    0.766024000000000    0.610586000000000 
P           0.233976000000000    0.000000000000000    0.610586000000000 
P           0.233976000000000    0.233976000000000    0.610586000000000 
P           0.333333000000000    0.666667000000000    0.625421000000000 
P           0.666667000000000    0.333333000000000    0.625421000000000 
P           0.766024000000000    0.000000000000000    0.610586000000000 
P           0.766024000000000    0.766024000000000    0.610586000000000 
K           0.000000000000000    0.500000000000000    0.176325000000000 
K           0.500000000000000    0.000000000000000    0.176325000000000 
K           0.500000000000000    0.500000000000000    0.176325000000000 
%ENDBLOCK POSITIONS_FRAC
