# Cell file generated by matador (Matthew Evans 2016)

%BLOCK LATTICE_CART
8.13224 0.0 0.0
-4.06612 7.04273 0.0
0.0 0.0 7.69485
%ENDBLOCK LATTICE_CART

%BLOCK POSITIONS_FRAC
P           0.000000000000000    0.559969000000000    0.333333000000000 
P           0.440031000000000    0.440031000000000   -0.000000000000000 
P           0.559969000000000    0.000000000000000    0.666667000000000 
K           0.000000000000000    0.140765000000000    0.333333000000000 
K           0.078903000000000    0.509278000000000    0.047553000000000 
K           0.140765000000000    0.000000000000000    0.666667000000000 
K           0.430375000000000    0.921097000000000    0.380886000000000 
K           0.490722000000000    0.569625000000000    0.714220000000000 
K           0.509278000000000    0.078903000000000    0.952447000000000 
K           0.569625000000000    0.490722000000000    0.285780000000000 
K           0.859235000000000    0.859235000000000   -0.000000000000000 
K           0.921097000000000    0.430375000000000    0.619114000000000 
%ENDBLOCK POSITIONS_FRAC
