# Cell file generated by matador (Matthew Evans 2016)

%BLOCK LATTICE_CART
5.70514 0.0 0.0
-2.03409 4.96057 0.0
5.14936 4.59646 9.67229
%ENDBLOCK LATTICE_CART

%BLOCK POSITIONS_FRAC
P           0.000000000000000    0.000000000000000    0.000000000000000 
P           0.000000000000000    0.000000000000000    0.500000000000000 
K           0.000000000000000    0.500000000000000    0.000000000000000 
K           0.000000000000000    0.500000000000000    0.500000000000000 
K           0.308416000000000    0.731857000000000    0.785436000000000 
K           0.500000000000000    0.000000000000000    0.000000000000000 
K           0.500000000000000    0.000000000000000    0.500000000000000 
K           0.500000000000000    0.500000000000000    0.000000000000000 
K           0.500000000000000    0.500000000000000    0.500000000000000 
K           0.691584000000000    0.268143000000000    0.214564000000000 
%ENDBLOCK POSITIONS_FRAC
