# Cell file generated by matador (Matthew Evans 2016)

%BLOCK LATTICE_CART
7.07264 0.0 0.0
-3.53632 6.12509 0.0
0.0 0.0 9.19793
%ENDBLOCK LATTICE_CART

%BLOCK POSITIONS_FRAC
P           0.072848000000000    0.145697000000000    0.117164000000000 
P           0.072848000000000    0.927152000000000    0.117164000000000 
P           0.169853000000000    0.339706000000000    0.652287000000000 
P           0.169853000000000    0.830147000000000    0.652287000000000 
P           0.289187000000000    0.144594000000000    0.805449000000000 
P           0.333333000000000    0.666667000000000    0.632374000000000 
P           0.660294000000000    0.830147000000000    0.652287000000000 
P           0.854303000000000    0.927152000000000    0.117164000000000 
P           0.855406000000000    0.144594000000000    0.805449000000000 
P           0.855406000000000    0.710813000000000    0.805449000000000 
K           0.000000000000000    0.000000000000000    0.350897000000000 
K           0.000000000000000    0.000000000000000    0.635914000000000 
K           0.333333000000000    0.666667000000000    0.887273000000000 
K           0.666667000000000    0.333333000000000    0.788728000000000 
%ENDBLOCK POSITIONS_FRAC
