# Cell file generated by matador (Matthew Evans 2016)

%BLOCK LATTICE_CART
9.67746 0.0 0.0
0.0 7.34027 0.0
-2.21801 0.0 3.8947
%ENDBLOCK LATTICE_CART

%BLOCK POSITIONS_FRAC
P           0.624295000000000    0.000000000000000    0.991512000000000 
K           0.005525000000000    0.500000000000000    0.383757000000000 
K           0.030252000000000    0.000000000000000    0.610166000000000 
K           0.221263000000000    0.500000000000000    0.289294000000000 
K           0.287066000000000    0.000000000000000    0.369699000000000 
K           0.395995000000000    0.500000000000000    0.873817000000000 
K           0.729700000000000    0.000000000000000    0.533819000000000 
%ENDBLOCK POSITIONS_FRAC
