# Cell file generated by matador (Matthew Evans 2016)

%BLOCK LATTICE_CART
6.61328 0.0 0.0
-3.30664 5.72727 0.0
0.0 0.0 4.55036
%ENDBLOCK LATTICE_CART

%BLOCK POSITIONS_FRAC
P           0.151987000000000    0.488245000000000    0.592825000000000 
P           0.336258000000000    0.848013000000000    0.592825000000000 
P           0.358957000000000    0.208454000000000    0.567389000000000 
P           0.511755000000000    0.663742000000000    0.592825000000000 
P           0.791546000000000    0.150503000000000    0.567389000000000 
P           0.849497000000000    0.641043000000000    0.567389000000000 
K           0.000000000000000    0.000000000000000    0.962182000000000 
%ENDBLOCK POSITIONS_FRAC
