# Cell file generated by matador (Matthew Evans 2016)

%BLOCK LATTICE_CART
10.0273 0.0 0.0
0.0 5.46518 0.0
0.0 0.0 9.22225
%ENDBLOCK LATTICE_CART

%BLOCK POSITIONS_FRAC
P           0.000000000000000    0.435642000000000    0.401597000000000 
P           0.000000000000000    0.450447000000000    0.562527000000000 
P           0.000000000000000    0.549553000000000    0.062527000000000 
P           0.000000000000000    0.564358000000000    0.901597000000000 
P           0.123571000000000    0.429818000000000    0.030705000000000 
P           0.123571000000000    0.570182000000000    0.530705000000000 
P           0.376429000000000    0.070182000000000    0.530705000000000 
P           0.376429000000000    0.929818000000000    0.030705000000000 
P           0.500000000000000    0.049553000000000    0.062527000000000 
P           0.500000000000000    0.064358000000000    0.901597000000000 
P           0.500000000000000    0.935642000000000    0.401597000000000 
P           0.500000000000000    0.950447000000000    0.562527000000000 
P           0.623571000000000    0.070182000000000    0.530705000000000 
P           0.623571000000000    0.929818000000000    0.030705000000000 
P           0.876429000000000    0.429818000000000    0.030705000000000 
P           0.876429000000000    0.570182000000000    0.530705000000000 
K           0.000000000000000    0.104023000000000    0.894922000000000 
K           0.000000000000000    0.895977000000000    0.394922000000000 
K           0.500000000000000    0.395977000000000    0.394922000000000 
K           0.500000000000000    0.604023000000000    0.894922000000000 
%ENDBLOCK POSITIONS_FRAC
