# Cell file generated by matador (Matthew Evans 2016)

%BLOCK LATTICE_CART
2.70571 0.0 0.0
0.0 12.875 0.0
5.23564 0.0 10.1622
%ENDBLOCK LATTICE_CART

%BLOCK POSITIONS_FRAC
P           0.000000000000000    0.500000000000000    0.000000000000000 
P           0.250000000000000    0.250000000000000    0.000000000000000 
P           0.250000000000000    0.750000000000000    0.000000000000000 
P           0.500000000000000    0.000000000000000    0.000000000000000 
P           0.750000000000000    0.250000000000000    0.000000000000000 
P           0.750000000000000    0.750000000000000    0.000000000000000 
K           0.014515000000000    0.500000000000000    0.376686000000000 
K           0.228102000000000    0.500000000000000    0.806438000000000 
K           0.271898000000000    0.000000000000000    0.193562000000000 
K           0.485485000000000    0.000000000000000    0.623314000000000 
K           0.514515000000000    0.000000000000000    0.376686000000000 
K           0.728102000000000    0.000000000000000    0.806438000000000 
K           0.771898000000000    0.500000000000000    0.193562000000000 
K           0.985485000000000    0.500000000000000    0.623314000000000 
%ENDBLOCK POSITIONS_FRAC
