# Cell file generated by matador (Matthew Evans 2016)

%BLOCK LATTICE_CART
7.07155 0.0 0.0
0.0 8.1125 0.0
0.0 0.0 5.75793
%ENDBLOCK LATTICE_CART

%BLOCK POSITIONS_FRAC
P           0.281967000000000    0.162175000000000    0.428140000000000 
P           0.281967000000000    0.337825000000000    0.928140000000000 
P           0.718033000000000    0.662175000000000    0.928140000000000 
P           0.718033000000000    0.837825000000000    0.428140000000000 
K           0.000000000000000    0.000000000000000    0.797935000000000 
K           0.000000000000000    0.500000000000000    0.297935000000000 
K           0.293804000000000    0.566472000000000    0.561132000000000 
K           0.293804000000000    0.933528000000000    0.061132000000000 
K           0.500000000000000    0.000000000000000    0.518184000000000 
K           0.500000000000000    0.500000000000000    0.018184000000000 
K           0.706196000000000    0.066472000000000    0.061132000000000 
K           0.706196000000000    0.433528000000000    0.561132000000000 
%ENDBLOCK POSITIONS_FRAC
