# Cell file generated by matador (Matthew Evans 2016)

%BLOCK LATTICE_CART
6.96671 0.0 0.0
-3.48336 6.03335 0.0
0.0 0.0 10.8015
%ENDBLOCK LATTICE_CART

%BLOCK POSITIONS_FRAC
P           0.000000000000000    0.000000000000000    0.195217000000000 
P           0.000000000000000    0.000000000000000    0.804783000000000 
P           0.666667000000000    0.333333000000000    0.000000000000000 
K           0.000000000000000    0.000000000000000    0.500000000000000 
K           0.333333000000000    0.666667000000000    0.500000000000000 
K           0.466913000000000    0.233456000000000    0.320797000000000 
K           0.466913000000000    0.233456000000000    0.679203000000000 
K           0.666667000000000    0.333333000000000    0.500000000000000 
K           0.766544000000000    0.233456000000000    0.320797000000000 
K           0.766544000000000    0.233456000000000    0.679203000000000 
K           0.766544000000000    0.533087000000000    0.320797000000000 
K           0.766544000000000    0.533087000000000    0.679203000000000 
%ENDBLOCK POSITIONS_FRAC
