# Cell file generated by matador (Matthew Evans 2016)

%BLOCK LATTICE_CART
8.63949 0.0 0.0
0.0 8.23629 0.0
-2.16021 0.0 6.58664
%ENDBLOCK LATTICE_CART

%BLOCK POSITIONS_FRAC
P           0.016264000000000    0.303356000000000    0.660573000000000 
P           0.016264000000000    0.696644000000000    0.160573000000000 
P           0.297895000000000    0.008868000000000    0.439769000000000 
P           0.297895000000000    0.991132000000000    0.939769000000000 
P           0.702105000000000    0.008868000000000    0.060231000000000 
P           0.702105000000000    0.991132000000000    0.560231000000000 
P           0.983736000000000    0.303356000000000    0.839427000000000 
P           0.983736000000000    0.696644000000000    0.339427000000000 
K           0.000000000000000    0.000000000000000   -0.000000000000000 
K           0.000000000000000    0.000000000000000    0.500000000000000 
K           0.000000000000000    0.134041000000000    0.250000000000000 
K           0.000000000000000    0.500000000000000   -0.000000000000000 
K           0.000000000000000    0.500000000000000    0.500000000000000 
K           0.000000000000000    0.865959000000000    0.750000000000000 
K           0.500000000000000    0.378251000000000    0.750000000000000 
K           0.500000000000000    0.500000000000000   -0.000000000000000 
K           0.500000000000000    0.500000000000000    0.500000000000000 
K           0.500000000000000    0.621749000000000    0.250000000000000 
%ENDBLOCK POSITIONS_FRAC
