# Cell file generated by matador (Matthew Evans 2016)

%BLOCK LATTICE_CART
7.55376 0.0 0.0
0.0 5.2633 0.0
1.21664 0.0 5.17966
%ENDBLOCK LATTICE_CART

%BLOCK POSITIONS_FRAC
P           0.144159000000000    0.500000000000000    0.189262000000000 
P           0.170838000000000    0.185126000000000    0.490516000000000 
P           0.170838000000000    0.814874000000000    0.490516000000000 
P           0.242661000000000    0.175459000000000    0.946927000000000 
P           0.242661000000000    0.824541000000000    0.946927000000000 
P           0.830547000000000    0.349284000000000    0.999444000000000 
P           0.830547000000000    0.650716000000000    0.999444000000000 
K           0.946464000000000    0.000000000000000    0.018769000000000 
%ENDBLOCK POSITIONS_FRAC
