# Cell file generated by matador (Matthew Evans 2016)

%BLOCK LATTICE_CART
7.37043 0.0 0.0
0.0 7.37043 0.0
0.0 0.0 7.37043
%ENDBLOCK LATTICE_CART

%BLOCK POSITIONS_FRAC
P           0.271354000000000    0.500000000000000    0.500000000000000 
P           0.500000000000000    0.271354000000000    0.500000000000000 
P           0.500000000000000    0.500000000000000    0.271354000000000 
P           0.500000000000000    0.500000000000000    0.728646000000000 
P           0.500000000000000    0.728646000000000    0.500000000000000 
P           0.728646000000000    0.500000000000000    0.500000000000000 
K           0.000000000000000    0.000000000000000    0.500000000000000 
K           0.000000000000000    0.500000000000000    0.000000000000000 
K           0.000000000000000    0.500000000000000    0.500000000000000 
K           0.500000000000000    0.000000000000000    0.000000000000000 
K           0.500000000000000    0.000000000000000    0.500000000000000 
K           0.500000000000000    0.500000000000000    0.000000000000000 
%ENDBLOCK POSITIONS_FRAC
