# Cell file generated by matador (Matthew Evans 2016)

%BLOCK LATTICE_CART
9.40794 0.0 0.0
0.0 9.40794 0.0
0.0 0.0 7.47357
%ENDBLOCK LATTICE_CART

%BLOCK POSITIONS_FRAC
P          -0.000000000000000    0.500000000000000   -0.000000000000000 
P          -0.000000000000000    0.500000000000000    0.500000000000000 
P           0.500000000000000   -0.000000000000000   -0.000000000000000 
P           0.500000000000000   -0.000000000000000    0.500000000000000 
K          -0.000000000000000   -0.000000000000000   -0.000000000000000 
K          -0.000000000000000   -0.000000000000000    0.500000000000000 
K           0.101096000000000    0.682286000000000    0.500000000000000 
K           0.182286000000000    0.398904000000000   -0.000000000000000 
K           0.317714000000000    0.898904000000000    0.500000000000000 
K           0.398904000000000    0.182286000000000   -0.000000000000000 
K           0.500000000000000    0.500000000000000   -0.000000000000000 
K           0.500000000000000    0.500000000000000    0.500000000000000 
K           0.601096000000000    0.817714000000000   -0.000000000000000 
K           0.682286000000000    0.101096000000000    0.500000000000000 
K           0.817714000000000    0.601096000000000   -0.000000000000000 
K           0.898904000000000    0.317714000000000    0.500000000000000 
%ENDBLOCK POSITIONS_FRAC
