# Cell file generated by matador (Matthew Evans 2016)

%BLOCK LATTICE_CART
6.22442 0.0 0.0
0.0 6.94438 0.0
-1.36781 0.0 9.14305
%ENDBLOCK LATTICE_CART

%BLOCK POSITIONS_FRAC
P           0.000000000000000    0.000000000000000    0.000000000000000 
P           0.000000000000000    0.000000000000000    0.500000000000000 
P           0.000000000000000    0.500000000000000    0.500000000000000 
P           0.458833000000000    0.300049000000000    0.624633000000000 
P           0.458833000000000    0.699951000000000    0.624633000000000 
P           0.500000000000000    0.000000000000000    0.000000000000000 
P           0.500000000000000    0.000000000000000    0.500000000000000 
P           0.500000000000000    0.500000000000000    0.500000000000000 
P           0.541167000000000    0.300049000000000    0.375367000000000 
P           0.541167000000000    0.699951000000000    0.375367000000000 
K           0.000000000000000    0.500000000000000    0.000000000000000 
K           0.500000000000000    0.500000000000000    0.000000000000000 
%ENDBLOCK POSITIONS_FRAC
