# Cell file generated by matador (Matthew Evans 2016)

%BLOCK LATTICE_CART
13.3435 0.0 0.0
0.0 10.7873 0.0
0.0 0.0 9.38417
%ENDBLOCK LATTICE_CART

%BLOCK POSITIONS_FRAC
P           0.000000000000000    0.500000000000000    0.250000000000000 
P           0.000000000000000    0.500000000000000    0.750000000000000 
P           0.250000000000000    0.250000000000000   -0.000000000000000 
P           0.250000000000000    0.750000000000000    0.500000000000000 
P           0.500000000000000    0.000000000000000    0.250000000000000 
P           0.500000000000000    0.000000000000000    0.750000000000000 
P           0.750000000000000    0.250000000000000    0.500000000000000 
P           0.750000000000000    0.750000000000000   -0.000000000000000 
K           0.000000000000000    0.000000000000000    0.250000000000000 
K           0.000000000000000    0.000000000000000    0.750000000000000 
K           0.070749000000000    0.250069000000000   -0.000000000000000 
K           0.070749000000000    0.749931000000000    0.500000000000000 
K           0.146996000000000    0.007511000000000    0.500000000000000 
K           0.146996000000000    0.992489000000000   -0.000000000000000 
K           0.250000000000000    0.250000000000000    0.500000000000000 
K           0.250000000000000    0.750000000000000   -0.000000000000000 
K           0.353004000000000    0.492489000000000    0.500000000000000 
K           0.353004000000000    0.507511000000000   -0.000000000000000 
K           0.429251000000000    0.249931000000000   -0.000000000000000 
K           0.429251000000000    0.750069000000000    0.500000000000000 
K           0.500000000000000    0.500000000000000    0.250000000000000 
K           0.500000000000000    0.500000000000000    0.750000000000000 
K           0.570749000000000    0.249931000000000    0.500000000000000 
K           0.570749000000000    0.750069000000000   -0.000000000000000 
K           0.646996000000000    0.492489000000000   -0.000000000000000 
K           0.646996000000000    0.507511000000000    0.500000000000000 
K           0.750000000000000    0.250000000000000   -0.000000000000000 
K           0.750000000000000    0.750000000000000    0.500000000000000 
K           0.853004000000000    0.007511000000000   -0.000000000000000 
K           0.853004000000000    0.992489000000000    0.500000000000000 
K           0.929251000000000    0.250069000000000    0.500000000000000 
K           0.929251000000000    0.749931000000000   -0.000000000000000 
%ENDBLOCK POSITIONS_FRAC
