# Cell file generated by matador (Matthew Evans 2016)

%BLOCK LATTICE_CART
7.61692 -0.0 0.0
-3.80846 6.59645 0.0
0.0 0.0 10.5807
%ENDBLOCK LATTICE_CART

%BLOCK POSITIONS_FRAC
P           0.000000000000000    0.500000000000000    0.105992000000000 
P           0.000000000000000    0.500000000000000    0.894008000000000 
P           0.099133000000000    0.480771000000000    0.000000000000000 
P           0.381638000000000    0.900867000000000    0.000000000000000 
P           0.480771000000000    0.381638000000000    0.000000000000000 
P           0.500000000000000    0.000000000000000    0.105992000000000 
P           0.500000000000000    0.000000000000000    0.894008000000000 
P           0.500000000000000    0.500000000000000    0.105992000000000 
P           0.500000000000000    0.500000000000000    0.894008000000000 
P           0.519229000000000    0.618362000000000    0.000000000000000 
P           0.618362000000000    0.099133000000000    0.000000000000000 
P           0.900867000000000    0.519229000000000    0.000000000000000 
K           0.000000000000000    0.500000000000000    0.500000000000000 
K           0.500000000000000    0.000000000000000    0.500000000000000 
K           0.500000000000000    0.500000000000000    0.500000000000000 
%ENDBLOCK POSITIONS_FRAC
