# Cell file generated by matador (Matthew Evans 2016)

%BLOCK LATTICE_CART
7.70447 0.0 0.0
0.0 7.70447 0.0
0.0 0.0 4.82753
%ENDBLOCK LATTICE_CART

%BLOCK POSITIONS_FRAC
P           0.000000000000000    0.000000000000000    0.000000000000000 
P           0.000000000000000    0.000000000000000    0.500000000000000 
P           0.000000000000000    0.500000000000000    0.500000000000000 
P           0.500000000000000    0.000000000000000    0.500000000000000 
P           0.500000000000000    0.500000000000000    0.000000000000000 
P           0.500000000000000    0.500000000000000    0.207145000000000 
P           0.500000000000000    0.500000000000000    0.792855000000000 
K           0.168152000000000    0.168152000000000    0.290905000000000 
K           0.168152000000000    0.831848000000000    0.709095000000000 
K           0.831848000000000    0.168152000000000    0.709095000000000 
K           0.831848000000000    0.831848000000000    0.290905000000000 
%ENDBLOCK POSITIONS_FRAC
