# Cell file generated by matador (Matthew Evans 2016)

%BLOCK LATTICE_CART
7.95601 0.0 0.0
0.0 7.79538 0.0
0.0 0.0 6.59367
%ENDBLOCK LATTICE_CART

%BLOCK POSITIONS_FRAC
P           0.000000000000000   -0.000000000000000    0.500000000000000 
P           0.000000000000000    0.500000000000000    0.000000000000000 
P           0.500000000000000   -0.000000000000000    0.000000000000000 
P           0.500000000000000    0.500000000000000    0.500000000000000 
K           0.000000000000000    0.157053000000000    0.109407000000000 
K           0.000000000000000    0.342947000000000    0.609407000000000 
K           0.000000000000000    0.657053000000000    0.390593000000000 
K           0.000000000000000    0.842947000000000    0.890593000000000 
K           0.500000000000000    0.157053000000000    0.390593000000000 
K           0.500000000000000    0.342947000000000    0.890593000000000 
K           0.500000000000000    0.657053000000000    0.109407000000000 
K           0.500000000000000    0.842947000000000    0.609407000000000 
%ENDBLOCK POSITIONS_FRAC
