# Cell file generated by matador (Matthew Evans 2016)

%BLOCK LATTICE_CART
4.63177 0.0 0.0
0.0 7.34147 0.0
0.0 0.0 9.87881
%ENDBLOCK LATTICE_CART

%BLOCK POSITIONS_FRAC
P           0.500000000000000    0.325835000000000    0.250000000000000 
P           0.500000000000000    0.674165000000000    0.750000000000000 
K           0.000000000000000    0.188887000000000    0.750000000000000 
K           0.000000000000000    0.811113000000000    0.250000000000000 
K           0.314546000000000    0.145237000000000    0.072696000000000 
K           0.314546000000000    0.854763000000000    0.927304000000000 
K           0.500000000000000    0.364122000000000    0.750000000000000 
K           0.500000000000000    0.635878000000000    0.250000000000000 
K           0.685454000000000    0.145237000000000    0.427304000000000 
K           0.685454000000000    0.854763000000000    0.572696000000000 
%ENDBLOCK POSITIONS_FRAC
