# Cell file generated by matador (Matthew Evans 2016)

%BLOCK LATTICE_CART
6.14501 0.0 0.0
-3.0725 5.32173 0.0
0.0 0.0 11.1477
%ENDBLOCK LATTICE_CART

%BLOCK POSITIONS_FRAC
P          -0.000000000000000    0.512737000000000    0.500000000000000 
P          -0.000000000000000    0.768242000000000    0.000000000000000 
P           0.172181000000000    0.360579000000000    0.048399000000000 
P           0.188398000000000    0.827819000000000    0.048399000000000 
P           0.231758000000000    0.231758000000000    0.000000000000000 
P           0.360579000000000    0.172181000000000    0.951601000000000 
P           0.487263000000000    0.487263000000000    0.500000000000000 
P           0.512737000000000    0.000000000000000    0.500000000000000 
P           0.639421000000000    0.811602000000000    0.048399000000000 
P           0.768242000000000    0.000000000000000    0.000000000000000 
P           0.811602000000000    0.639421000000000    0.951601000000000 
P           0.827819000000000    0.188398000000000    0.951601000000000 
K           0.333333000000000    0.666667000000000    0.221603000000000 
K           0.333333000000000    0.666667000000000    0.845165000000000 
K           0.666666000000000    0.333334000000000    0.154835000000000 
K           0.666666000000000    0.333334000000000    0.778397000000000 
%ENDBLOCK POSITIONS_FRAC
