# Cell file generated by matador (Matthew Evans 2016)

%BLOCK LATTICE_CART
9.82728 0.0 0.0
-4.91364 8.51067 0.0
0.0 0.0 8.79269
%ENDBLOCK LATTICE_CART

%BLOCK POSITIONS_FRAC
P           0.000000000000000    0.000000000000000    0.000000000000000 
P           0.000000000000000    0.225578000000000    0.000000000000000 
P           0.225578000000000    0.000000000000000    0.000000000000000 
P           0.333333000000000    0.666667000000000    0.000000000000000 
P           0.333333000000000    0.666667000000000    0.500000000000000 
P           0.666667000000000    0.333333000000000    0.000000000000000 
P           0.666667000000000    0.333333000000000    0.500000000000000 
P           0.774422000000000    0.774422000000000    0.000000000000000 
K           0.000000000000000    0.683475000000000    0.186761000000000 
K           0.000000000000000    0.683475000000000    0.813239000000000 
K           0.146380000000000    0.713516000000000    0.000000000000000 
K           0.286484000000000    0.432863000000000    0.000000000000000 
K           0.316525000000000    0.316525000000000    0.186761000000000 
K           0.316525000000000    0.316525000000000    0.813239000000000 
K           0.432863000000000    0.286484000000000    0.000000000000000 
K           0.567137000000000    0.853620000000000    0.000000000000000 
K           0.683475000000000    0.000000000000000    0.186761000000000 
K           0.683475000000000    0.000000000000000    0.813239000000000 
K           0.713516000000000    0.146380000000000    0.000000000000000 
K           0.853620000000000    0.567137000000000    0.000000000000000 
%ENDBLOCK POSITIONS_FRAC
