# Cell file generated by matador (Matthew Evans 2016)

%BLOCK LATTICE_CART
6.54474 0.0 0.0
0.0 6.26549 0.0
0.0 0.0 8.12214
%ENDBLOCK LATTICE_CART

%BLOCK POSITIONS_FRAC
P           0.080702000000000    0.000000000000000    0.322090000000000 
P           0.204510000000000    0.000000000000000    0.805243000000000 
P           0.395909000000000    0.000000000000000    0.102233000000000 
P           0.500000000000000    0.000000000000000    0.191853000000000 
P           0.500000000000000    0.251627000000000    0.199619000000000 
P           0.500000000000000    0.358155000000000    0.570767000000000 
P           0.500000000000000    0.500000000000000    0.019279000000000 
P           0.500000000000000    0.641845000000000    0.570767000000000 
P           0.500000000000000    0.748373000000000    0.199619000000000 
P           0.604091000000000    0.000000000000000    0.102233000000000 
P           0.795490000000000    0.000000000000000    0.805243000000000 
P           0.919298000000000    0.000000000000000    0.322090000000000 
K           0.000000000000000    0.000000000000000    0.622188000000000 
K           0.000000000000000    0.500000000000000    0.485761000000000 
K           0.500000000000000    0.000000000000000    0.428266000000000 
K           0.500000000000000    0.500000000000000    0.353893000000000 
%ENDBLOCK POSITIONS_FRAC
