# Cell file generated by matador (Matthew Evans 2016)

%BLOCK LATTICE_CART
8.70404 0.0 0.0
0.0 8.70404 0.0
0.0 0.0 8.44763
%ENDBLOCK LATTICE_CART

%BLOCK POSITIONS_FRAC
P           0.000000000000000    0.000000000000000    0.014929000000000 
P           0.000000000000000    0.000000000000000    0.535541000000000 
P           0.500000000000000    0.500000000000000    0.014929000000000 
P           0.500000000000000    0.500000000000000    0.535541000000000 
K           0.000000000000000    0.500000000000000    0.125045000000000 
K           0.090472000000000    0.409528000000000    0.895941000000000 
K           0.172442000000000    0.672442000000000    0.459643000000000 
K           0.189044000000000    0.310956000000000    0.176876000000000 
K           0.310956000000000    0.810956000000000    0.176876000000000 
K           0.327558000000000    0.172442000000000    0.459643000000000 
K           0.409528000000000    0.909528000000000    0.895941000000000 
K           0.500000000000000    0.000000000000000    0.125045000000000 
K           0.590472000000000    0.090472000000000    0.895941000000000 
K           0.672442000000000    0.827558000000000    0.459643000000000 
K           0.689044000000000    0.189044000000000    0.176876000000000 
K           0.810956000000000    0.689044000000000    0.176876000000000 
K           0.827558000000000    0.327558000000000    0.459643000000000 
K           0.909528000000000    0.590472000000000    0.895941000000000 
%ENDBLOCK POSITIONS_FRAC
