# Cell file generated by matador (Matthew Evans 2016)

%BLOCK LATTICE_CART
7.48871 -0.0 0.0
-3.74435 6.48541 0.0
0.0 0.0 9.66114
%ENDBLOCK LATTICE_CART

%BLOCK POSITIONS_FRAC
P           0.176703000000000    0.458493000000000    0.570877000000000 
P           0.208173000000000    0.051543000000000    0.904210000000000 
P           0.281790000000000    0.823297000000000    0.570877000000000 
P           0.510036000000000    0.125160000000000    0.237543000000000 
P           0.541507000000000    0.718210000000000    0.570877000000000 
P           0.615124000000000    0.489964000000000    0.237543000000000 
P           0.843370000000000    0.791827000000000    0.904210000000000 
P           0.874840000000000    0.384876000000000    0.237543000000000 
P           0.948457000000000    0.156630000000000    0.904210000000000 
K          -0.000000000000000    0.000000000000000    0.145191000000000 
K          -0.000000000000000    0.000000000000000    0.660763000000000 
K           0.333333000000000    0.666667000000000    0.327429000000000 
K           0.333333000000000    0.666667000000000    0.811858000000000 
K           0.666667000000000    0.333333000000000    0.478524000000000 
K           0.666667000000000    0.333333000000000    0.994096000000000 
%ENDBLOCK POSITIONS_FRAC
