# Cell file generated by matador (Matthew Evans 2016)

%BLOCK LATTICE_CART
11.6322 0.0 0.0
0.0 7.531 0.0
0.665684 0.0 3.16268
%ENDBLOCK LATTICE_CART

%BLOCK POSITIONS_FRAC
P           0.000000000000000    0.046138000000000    0.000000000000000 
P           0.000000000000000    0.522568000000000    0.000000000000000 
P           0.000000000000000    0.592582000000000    0.500000000000000 
P           0.331511000000000    0.189578000000000    0.559759000000000 
P           0.500000000000000    0.847657000000000    0.500000000000000 
P           0.500000000000000    0.939521000000000    0.000000000000000 
P           0.668489000000000    0.189578000000000    0.440241000000000 
K           0.116329000000000    0.244549000000000    0.777460000000000 
K           0.173605000000000    0.551317000000000    0.766559000000000 
K           0.500000000000000    0.566683000000000    0.500000000000000 
K           0.826395000000000    0.551317000000000    0.233441000000000 
K           0.883671000000000    0.244549000000000    0.222540000000000 
%ENDBLOCK POSITIONS_FRAC
