# Cell file generated by matador (Matthew Evans 2016)

%BLOCK LATTICE_CART
10.2695 0.0 0.0
0.0 7.23145 0.0
0.0 0.0 4.46984
%ENDBLOCK LATTICE_CART

%BLOCK POSITIONS_FRAC
P           0.500000000000000    0.202238000000000    0.247098000000000 
P           0.500000000000000    0.797762000000000    0.247098000000000 
K           0.140949000000000    0.500000000000000    0.861572000000000 
K           0.356385000000000    0.500000000000000    0.471979000000000 
K           0.500000000000000    0.203839000000000    0.803568000000000 
K           0.500000000000000    0.796161000000000    0.803568000000000 
K           0.643615000000000    0.500000000000000    0.471979000000000 
K           0.859051000000000    0.500000000000000    0.861572000000000 
%ENDBLOCK POSITIONS_FRAC
