# Cell file generated by matador (Matthew Evans 2016)

%BLOCK LATTICE_CART
6.20558 0.0 0.0
-2.17473 5.59536 0.0
0.920781 0.93281 4.4927
%ENDBLOCK LATTICE_CART

%BLOCK POSITIONS_FRAC
P           0.000000000000000    0.000000000000000    0.500000000000000 
P           0.500000000000000    0.000000000000000    0.000000000000000 
P           0.500000000000000    0.500000000000000    0.000000000000000 
K           0.414717000000000    0.657438000000000    0.336976000000000 
K           0.585283000000000    0.342562000000000    0.663024000000000 
%ENDBLOCK POSITIONS_FRAC
