# Cell file generated by matador (Matthew Evans 2016)

%BLOCK LATTICE_CART
9.64716 0.0 0.0
-4.82358 8.35469 0.0
0.0 0.0 4.23432
%ENDBLOCK LATTICE_CART

%BLOCK POSITIONS_FRAC
P           0.000000000000000    0.000000000000000    0.500000000000000 
P           0.333333000000000    0.666667000000000    0.000000000000000 
P           0.333333000000000    0.666667000000000    0.500000000000000 
P           0.666667000000000    0.333333000000000    0.000000000000000 
P           0.666667000000000    0.333333000000000    0.500000000000000 
K           0.000000000000000    0.000000000000000    0.000000000000000 
K           0.160828000000000    0.782678000000000    0.500000000000000 
K           0.217322000000000    0.378150000000000    0.500000000000000 
K           0.443737000000000    0.027385000000000    0.500000000000000 
K           0.583648000000000    0.556263000000000    0.500000000000000 
K           0.621850000000000    0.839172000000000    0.500000000000000 
K           0.972615000000000    0.416352000000000    0.500000000000000 
%ENDBLOCK POSITIONS_FRAC
