# Cell file generated by matador (Matthew Evans 2016)

%BLOCK LATTICE_CART
9.12827 0.0 0.0
0.0 9.12827 0.0
0.0 0.0 8.10347
%ENDBLOCK LATTICE_CART

%BLOCK POSITIONS_FRAC
P           0.319517000000000    0.500000000000000    0.848490000000000 
P           0.500000000000000    0.319517000000000    0.848490000000000 
P           0.500000000000000    0.680483000000000    0.848490000000000 
P           0.680483000000000    0.500000000000000    0.848490000000000 
K           0.000000000000000    0.000000000000000    0.035809000000000 
K           0.000000000000000    0.320658000000000    0.272741000000000 
K           0.000000000000000    0.500000000000000    0.731650000000000 
K           0.000000000000000    0.679342000000000    0.272741000000000 
K           0.176362000000000    0.176362000000000    0.684598000000000 
K           0.176362000000000    0.823638000000000    0.684598000000000 
K           0.320658000000000    0.000000000000000    0.272741000000000 
K           0.500000000000000    0.000000000000000    0.731650000000000 
K           0.500000000000000    0.500000000000000    0.256028000000000 
K           0.679342000000000    0.000000000000000    0.272741000000000 
K           0.823638000000000    0.176362000000000    0.684598000000000 
K           0.823638000000000    0.823638000000000    0.684598000000000 
%ENDBLOCK POSITIONS_FRAC
