# Cell file generated by matador (Matthew Evans 2016)

%BLOCK LATTICE_CART
7.01064 0.0 0.0
-3.50532 6.07139 0.0
0.0 0.0 9.89355
%ENDBLOCK LATTICE_CART

%BLOCK POSITIONS_FRAC
P          -0.000000000000000    0.000000000000000    0.000000000000000 
P          -0.000000000000000    0.000000000000000    0.358782000000000 
P          -0.000000000000000    0.000000000000000    0.500000000000000 
P          -0.000000000000000    0.000000000000000    0.641218000000000 
P          -0.000000000000000    0.500000000000000    0.000000000000000 
P          -0.000000000000000    0.500000000000000    0.500000000000000 
P           0.500000000000000    0.000000000000000    0.000000000000000 
P           0.500000000000000    0.000000000000000    0.500000000000000 
P           0.500000000000000    0.500000000000000    0.000000000000000 
P           0.500000000000000    0.500000000000000    0.500000000000000 
K           0.333333000000000    0.666667000000000    0.382580000000000 
K           0.333333000000000    0.666667000000000    0.979417000000000 
K           0.666666000000000    0.333334000000000    0.020583000000000 
K           0.666666000000000    0.333334000000000    0.617420000000000 
%ENDBLOCK POSITIONS_FRAC
