# Cell file generated by matador (Matthew Evans 2016)

%BLOCK LATTICE_CART
7.00504 0.0 0.0
-3.50252 6.06655 0.0
0.0 0.0 14.5975
%ENDBLOCK LATTICE_CART

%BLOCK POSITIONS_FRAC
P           0.000000000000000    0.000000000000000    0.219215000000000 
P           0.000000000000000    0.000000000000000    0.719215000000000 
P           0.333333000000000    0.666667000000000    0.251809000000000 
P           0.666667000000000    0.333333000000000    0.751809000000000 
K           0.147141000000000    0.294282000000000    0.317802000000000 
K           0.147141000000000    0.852859000000000    0.317802000000000 
K           0.188914000000000    0.377827000000000    0.579714000000000 
K           0.188914000000000    0.811086000000000    0.579714000000000 
K           0.294282000000000    0.147141000000000    0.817802000000000 
K           0.377827000000000    0.188914000000000    0.079714000000000 
K           0.622173000000000    0.811086000000000    0.579714000000000 
K           0.705718000000000    0.852859000000000    0.317802000000000 
K           0.811086000000000    0.188914000000000    0.079714000000000 
K           0.811086000000000    0.622173000000000    0.079714000000000 
K           0.852859000000000    0.147141000000000    0.817802000000000 
K           0.852859000000000    0.705718000000000    0.817802000000000 
%ENDBLOCK POSITIONS_FRAC
