# Cell file generated by matador (Matthew Evans 2016)

%BLOCK LATTICE_CART
8.78604 0.0 0.0
0.0 8.78604 0.0
0.0 0.0 11.2995
%ENDBLOCK LATTICE_CART

%BLOCK POSITIONS_FRAC
P           0.000000000000000    0.000000000000000    0.500000000000000 
P           0.000000000000000    0.500000000000000    0.250000000000000 
P           0.000000000000000    0.500000000000000    0.750000000000000 
P           0.500000000000000    0.000000000000000    0.250000000000000 
P           0.500000000000000    0.000000000000000    0.750000000000000 
P           0.500000000000000    0.500000000000000   -0.000000000000000 
K           0.000000000000000    0.000000000000000   -0.000000000000000 
K           0.025846000000000    0.290446000000000    0.500000000000000 
K           0.174972000000000    0.825028000000000    0.194319000000000 
K           0.174972000000000    0.825028000000000    0.805681000000000 
K           0.209554000000000    0.525846000000000   -0.000000000000000 
K           0.290446000000000    0.025846000000000    0.500000000000000 
K           0.325028000000000    0.325028000000000    0.305681000000000 
K           0.325028000000000    0.325028000000000    0.694319000000000 
K           0.474154000000000    0.790446000000000   -0.000000000000000 
K           0.500000000000000    0.500000000000000    0.500000000000000 
K           0.525846000000000    0.209554000000000   -0.000000000000000 
K           0.674972000000000    0.674972000000000    0.305681000000000 
K           0.674972000000000    0.674972000000000    0.694319000000000 
K           0.709554000000000    0.974154000000000    0.500000000000000 
K           0.790446000000000    0.474154000000000   -0.000000000000000 
K           0.825028000000000    0.174972000000000    0.194319000000000 
K           0.825028000000000    0.174972000000000    0.805681000000000 
K           0.974154000000000    0.709554000000000    0.500000000000000 
%ENDBLOCK POSITIONS_FRAC
