# Cell file generated by matador (Matthew Evans 2016)

%BLOCK LATTICE_CART
6.60746 0.0 0.0
0.0 4.37261 0.0
0.0 0.0 6.05698
%ENDBLOCK LATTICE_CART

%BLOCK POSITIONS_FRAC
P           0.000000000000000    0.500000000000000    0.346479000000000 
P           0.500000000000000    0.000000000000000    0.846479000000000 
K           0.000000000000000    0.000000000000000    0.443577000000000 
K           0.000000000000000    0.500000000000000    0.846621000000000 
K           0.500000000000000    0.000000000000000    0.346621000000000 
K           0.500000000000000    0.500000000000000    0.943577000000000 
%ENDBLOCK POSITIONS_FRAC
