# Cell file generated by matador (Matthew Evans 2016)

%BLOCK LATTICE_CART
7.9547 0.0 0.0
0.0 6.94718 0.0
0.0 0.0 8.54816
%ENDBLOCK LATTICE_CART

%BLOCK POSITIONS_FRAC
P           0.000000000000000    0.000000000000000    0.376232000000000 
P           0.500000000000000    0.500000000000000    0.876232000000000 
K           0.000000000000000    0.000000000000000    0.936285000000000 
K           0.000000000000000    0.500000000000000    0.011889000000000 
K           0.000000000000000    0.500000000000000    0.491519000000000 
K           0.117485000000000    0.207230000000000    0.510085000000000 
K           0.382515000000000    0.707230000000000    0.010085000000000 
K           0.500000000000000    0.000000000000000    0.511889000000000 
K           0.500000000000000    0.000000000000000    0.991519000000000 
K           0.500000000000000    0.500000000000000    0.436285000000000 
K           0.617485000000000    0.292770000000000    0.010085000000000 
K           0.882515000000000    0.792770000000000    0.510085000000000 
%ENDBLOCK POSITIONS_FRAC
