# Cell file generated by matador (Matthew Evans 2016)

%BLOCK LATTICE_CART
7.77275 0.0 0.0
-3.88637 6.7314 0.0
0.0 0.0 5.17064
%ENDBLOCK LATTICE_CART

%BLOCK POSITIONS_FRAC
P           0.000000000000000    0.500000000000000    0.377165000000000 
P           0.000000000000000    0.500000000000000    0.622835000000000 
P           0.333333000000000    0.666667000000000    0.386800000000000 
P           0.333333000000000    0.666667000000000    0.613200000000000 
P           0.500000000000000    0.000000000000000    0.377165000000000 
P           0.500000000000000    0.000000000000000    0.622835000000000 
P           0.500000000000000    0.500000000000000    0.377165000000000 
P           0.500000000000000    0.500000000000000    0.622835000000000 
P           0.666667000000000    0.333333000000000    0.386800000000000 
P           0.666667000000000    0.333333000000000    0.613200000000000 
K           0.000000000000000    0.000000000000000    0.000000000000000 
K           0.000000000000000    0.000000000000000    0.500000000000000 
K           0.333333000000000    0.666667000000000    0.000000000000000 
K           0.666667000000000    0.333333000000000    0.000000000000000 
%ENDBLOCK POSITIONS_FRAC
