# Cell file generated by matador (Matthew Evans 2016)

%BLOCK LATTICE_CART
8.28288 0.0 0.0
0.0 8.23797 0.0
0.0 0.0 8.54593
%ENDBLOCK LATTICE_CART

%BLOCK POSITIONS_FRAC
P           0.242438000000000    0.000000000000000    0.798816000000000 
P           0.242438000000000    0.500000000000000    0.298816000000000 
P           0.757562000000000    0.000000000000000    0.798816000000000 
P           0.757562000000000    0.500000000000000    0.298816000000000 
K           0.000000000000000    0.199182000000000    0.274342000000000 
K           0.000000000000000    0.300818000000000    0.774342000000000 
K           0.000000000000000    0.699182000000000    0.774342000000000 
K           0.000000000000000    0.800818000000000    0.274342000000000 
K           0.285847000000000    0.000000000000000    0.396214000000000 
K           0.285847000000000    0.500000000000000    0.896214000000000 
K           0.500000000000000    0.195530000000000    0.182459000000000 
K           0.500000000000000    0.304470000000000    0.682459000000000 
K           0.500000000000000    0.695530000000000    0.682459000000000 
K           0.500000000000000    0.804470000000000    0.182459000000000 
K           0.714153000000000    0.000000000000000    0.396214000000000 
K           0.714153000000000    0.500000000000000    0.896214000000000 
%ENDBLOCK POSITIONS_FRAC
