# Cell file generated by matador (Matthew Evans 2016)

%BLOCK LATTICE_CART
5.63266 0.0 0.0
0.0 6.38432 0.0
-1.27958 0.0 9.52404
%ENDBLOCK LATTICE_CART

%BLOCK POSITIONS_FRAC
P           0.000000000000000    0.310131000000000    0.500000000000000 
P           0.000000000000000    0.660156000000000    0.500000000000000 
P           0.500000000000000    0.175200000000000    0.000000000000000 
K           0.000000000000000    0.358359000000000    0.000000000000000 
K           0.332316000000000    0.764642000000000    0.619463000000000 
K           0.348598000000000    0.394789000000000    0.783647000000000 
K           0.500000000000000    0.405803000000000    0.500000000000000 
K           0.651402000000000    0.394789000000000    0.216353000000000 
K           0.667684000000000    0.764642000000000    0.380537000000000 
%ENDBLOCK POSITIONS_FRAC
