# Cell file generated by matador (Matthew Evans 2016)

%BLOCK LATTICE_CART
6.75107 0.0 0.0
0.0 6.75107 0.0
0.0 0.0 12.6772
%ENDBLOCK LATTICE_CART

%BLOCK POSITIONS_FRAC
P           0.000000000000000    0.000000000000000    0.157763000000000 
P           0.000000000000000    0.000000000000000    0.842237000000000 
P           0.000000000000000    0.500000000000000    0.000000000000000 
P           0.000000000000000    0.500000000000000    0.500000000000000 
P           0.500000000000000    0.000000000000000    0.000000000000000 
P           0.500000000000000    0.000000000000000    0.500000000000000 
P           0.500000000000000    0.500000000000000    0.307420000000000 
P           0.500000000000000    0.500000000000000    0.692580000000000 
K           0.000000000000000    0.000000000000000    0.000000000000000 
K           0.000000000000000    0.000000000000000    0.500000000000000 
K           0.230767000000000    0.230767000000000    0.218817000000000 
K           0.230767000000000    0.230767000000000    0.781183000000000 
K           0.230767000000000    0.769233000000000    0.218817000000000 
K           0.230767000000000    0.769233000000000    0.781183000000000 
K           0.769233000000000    0.230767000000000    0.218817000000000 
K           0.769233000000000    0.230767000000000    0.781183000000000 
K           0.769233000000000    0.769233000000000    0.218817000000000 
K           0.769233000000000    0.769233000000000    0.781183000000000 
%ENDBLOCK POSITIONS_FRAC
