# Cell file generated by matador (Matthew Evans 2016)

%BLOCK LATTICE_CART
7.58962 0.0 0.0
-3.79481 6.57281 0.0
0.0 0.0 8.47202
%ENDBLOCK LATTICE_CART

%BLOCK POSITIONS_FRAC
P           0.000000000000000    0.000000000000000    0.000000000000000 
P           0.000000000000000    0.500000000000000    0.500000000000000 
P           0.333333000000000    0.666667000000000    0.736624000000000 
P           0.500000000000000    0.000000000000000    0.500000000000000 
P           0.500000000000000    0.500000000000000    0.500000000000000 
P           0.666667000000000    0.333333000000000    0.263376000000000 
K           0.000000000000000    0.000000000000000    0.500000000000000 
K           0.000000000000000    0.500000000000000    0.000000000000000 
K           0.005126000000000    0.679600000000000    0.774996000000000 
K           0.320400000000000    0.325525000000000    0.774996000000000 
K           0.325525000000000    0.005126000000000    0.225004000000000 
K           0.500000000000000    0.000000000000000    0.000000000000000 
K           0.500000000000000    0.500000000000000    0.000000000000000 
K           0.674475000000000    0.994874000000000    0.774996000000000 
K           0.679600000000000    0.674475000000000    0.225004000000000 
K           0.994874000000000    0.320400000000000    0.225004000000000 
%ENDBLOCK POSITIONS_FRAC
