# Cell file generated by matador (Matthew Evans 2016)

%BLOCK LATTICE_CART
8.61485 0.0 0.0
0.0 10.2359 0.0
0.0 0.0 6.04703
%ENDBLOCK LATTICE_CART

%BLOCK POSITIONS_FRAC
P           0.000000000000000    0.232442000000000    0.250000000000000 
P           0.000000000000000    0.767558000000000    0.750000000000000 
P           0.056935000000000    0.000000000000000    0.000000000000000 
P           0.328874000000000    0.131398000000000    0.514157000000000 
P           0.328874000000000    0.868602000000000    0.485843000000000 
P           0.500000000000000    0.423999000000000    0.750000000000000 
P           0.500000000000000    0.576001000000000    0.250000000000000 
P           0.671126000000000    0.131398000000000    0.985843000000000 
P           0.671126000000000    0.868602000000000    0.014157000000000 
P           0.943065000000000    0.000000000000000    0.500000000000000 
K           0.146684000000000    0.458112000000000    0.706767000000000 
K           0.146684000000000    0.541888000000000    0.293233000000000 
K           0.367926000000000    0.500000000000000    0.000000000000000 
K           0.500000000000000    0.152656000000000    0.250000000000000 
K           0.500000000000000    0.847344000000000    0.750000000000000 
K           0.632074000000000    0.500000000000000    0.500000000000000 
K           0.853316000000000    0.458112000000000    0.793233000000000 
K           0.853316000000000    0.541888000000000    0.206767000000000 
%ENDBLOCK POSITIONS_FRAC
