# Cell file generated by matador (Matthew Evans 2016)

%BLOCK LATTICE_CART
9.71215 0.0 0.0
0.0 6.28874 0.0
-1.80552 0.0 5.29958
%ENDBLOCK LATTICE_CART

%BLOCK POSITIONS_FRAC
P           0.108785000000000    0.160685000000000    0.357745000000000 
P           0.108785000000000    0.839315000000000    0.357745000000000 
P           0.346045000000000    0.366048000000000    0.300654000000000 
P           0.346045000000000    0.633952000000000    0.300654000000000 
P           0.692240000000000    0.354854000000000    0.215545000000000 
P           0.692240000000000    0.645146000000000    0.215545000000000 
P           0.767750000000000    0.409725000000000    0.843884000000000 
P           0.767750000000000    0.590275000000000    0.843884000000000 
P           0.967871000000000    0.130920000000000    0.239691000000000 
P           0.967871000000000    0.869080000000000    0.239691000000000 
K           0.466172000000000    0.220707000000000    0.790899000000000 
K           0.466172000000000    0.779293000000000    0.790899000000000 
%ENDBLOCK POSITIONS_FRAC
