# Cell file generated by matador (Matthew Evans 2016)

%BLOCK LATTICE_CART
6.54015 0.0 0.0
0.0 4.23457 0.0
0.0052449 0.0 4.8058
%ENDBLOCK LATTICE_CART

%BLOCK POSITIONS_FRAC
P           0.015981000000000    0.500000000000000    0.528131000000000 
P           0.138137000000000   -0.000000000000000    0.377337000000000 
P           0.333775000000000   -0.000000000000000    0.783242000000000 
P           0.656038000000000   -0.000000000000000    0.207055000000000 
K           0.795776000000000    0.258441000000000    0.762229000000000 
K           0.795776000000000    0.741559000000000    0.762229000000000 
%ENDBLOCK POSITIONS_FRAC
