# Cell file generated by matador (Matthew Evans 2016)

%BLOCK LATTICE_CART
8.03886 0.0 0.0
-4.01943 6.96185 0.0
0.0 0.0 5.48252
%ENDBLOCK LATTICE_CART

%BLOCK POSITIONS_FRAC
P          -0.000000000000000   -0.000000000000000    0.224885000000000 
P           0.131824000000000    0.609423000000000    0.638176000000000 
P           0.390577000000000    0.522402000000000    0.638176000000000 
P           0.477598000000000    0.868176000000000    0.638176000000000 
P           0.522402000000000    0.390577000000000    0.638176000000000 
P           0.609423000000000    0.131824000000000    0.638176000000000 
P           0.868176000000000    0.477598000000000    0.638176000000000 
K          -0.000000000000000    0.312773000000000    0.705524000000000 
K           0.312773000000000   -0.000000000000000    0.705524000000000 
K           0.687227000000000    0.687227000000000    0.705524000000000 
%ENDBLOCK POSITIONS_FRAC
