# Cell file generated by matador (Matthew Evans 2016)

%BLOCK LATTICE_CART
5.98359 0.0 0.0
0.0 10.4082 0.0
0.0 0.0 7.34728
%ENDBLOCK LATTICE_CART

%BLOCK POSITIONS_FRAC
P           0.000000000000000    0.000000000000000    0.760191000000000 
P           0.000000000000000    0.500000000000000    0.260191000000000 
P           0.127070000000000    0.476926000000000    0.968236000000000 
P           0.127070000000000    0.976926000000000    0.468236000000000 
P           0.372930000000000    0.476926000000000    0.968236000000000 
P           0.372930000000000    0.976926000000000    0.468236000000000 
P           0.500000000000000    0.000000000000000    0.760191000000000 
P           0.500000000000000    0.500000000000000    0.260191000000000 
P           0.627070000000000    0.023074000000000    0.468236000000000 
P           0.627070000000000    0.523074000000000    0.968236000000000 
P           0.872930000000000    0.023074000000000    0.468236000000000 
P           0.872930000000000    0.523074000000000    0.968236000000000 
K           0.000000000000000    0.000000000000000    0.041327000000000 
K           0.000000000000000    0.500000000000000    0.541327000000000 
K           0.250000000000000    0.449373000000000    0.714835000000000 
K           0.250000000000000    0.949373000000000    0.214835000000000 
K           0.500000000000000    0.000000000000000    0.041327000000000 
K           0.500000000000000    0.500000000000000    0.541327000000000 
K           0.750000000000000    0.050627000000000    0.214835000000000 
K           0.750000000000000    0.550627000000000    0.714835000000000 
%ENDBLOCK POSITIONS_FRAC
