# Cell file generated by matador (Matthew Evans 2016)

%BLOCK LATTICE_CART
7.1926 0.0 0.0
-3.5963 6.22897 0.0
0.0 0.0 7.57576
%ENDBLOCK LATTICE_CART

%BLOCK POSITIONS_FRAC
P           0.333332000000000    0.666666000000000    0.262045000000000 
P           0.333332000000000    0.666666000000000    0.737955000000000 
P           0.666666000000000    0.333332000000000    0.262045000000000 
P           0.666666000000000    0.333332000000000    0.737955000000000 
K           0.999999000000000    0.499999000000000    0.000000000000000 
K           0.333332000000000    0.666666000000000    0.000000000000000 
K           0.499999000000000    0.999999000000000    0.000000000000000 
K           0.499999000000000    0.499999000000000    0.000000000000000 
K           0.666666000000000    0.333332000000000    0.000000000000000 
%ENDBLOCK POSITIONS_FRAC
