# Cell file generated by matador (Matthew Evans 2016)

%BLOCK LATTICE_CART
4.84115 0.0 0.0
0.0 8.09347 0.0
3.95798 0.0 9.16596
%ENDBLOCK LATTICE_CART

%BLOCK POSITIONS_FRAC
P           0.000376000000000    0.374727000000000    0.939681000000000 
P           0.000376000000000    0.625273000000000    0.939681000000000 
P           0.153327000000000    0.000000000000000    0.370463000000000 
P           0.234210000000000    0.500000000000000    0.949572000000000 
P           0.264668000000000    0.000000000000000    0.548821000000000 
P           0.349896000000000    0.000000000000000    0.389804000000000 
P           0.808035000000000    0.000000000000000    0.678952000000000 
K           0.029940000000000    0.000000000000000    0.985779000000000 
K           0.208186000000000    0.500000000000000    0.746916000000000 
K           0.311068000000000    0.000000000000000    0.135910000000000 
K           0.337589000000000    0.000000000000000    0.758954000000000 
K           0.743919000000000    0.308735000000000    0.687794000000000 
K           0.743919000000000    0.691265000000000    0.687794000000000 
%ENDBLOCK POSITIONS_FRAC
