# Cell file generated by matador (Matthew Evans 2016)

%BLOCK LATTICE_CART
2.79633 0.0 0.0
0.0 8.12418 0.0
-0.794738 0.0 12.9455
%ENDBLOCK LATTICE_CART

%BLOCK POSITIONS_FRAC
P           0.000000000000000    0.626001000000000    0.000000000000000 
K           0.000000000000000    0.296774000000000    0.500000000000000 
K           0.000000000000000    0.376875000000000    0.000000000000000 
K           0.220154000000000    0.633150000000000    0.685445000000000 
K           0.223337000000000    0.028578000000000    0.913830000000000 
K           0.776663000000000    0.028578000000000    0.086170000000000 
K           0.779846000000000    0.633150000000000    0.314555000000000 
%ENDBLOCK POSITIONS_FRAC
