# Cell file generated by matador (Matthew Evans 2016)

%BLOCK LATTICE_CART
13.3822 0.0 0.0
-6.69112 11.5894 0.0
0.0 0.0 4.17685
%ENDBLOCK LATTICE_CART

%BLOCK POSITIONS_FRAC
P           0.333333000000000    0.666667000000000    0.000000000000000 
P           0.333333000000000    0.666667000000000    0.500000000000000 
P           0.666666000000000    0.333333000000000    0.000000000000000 
P           0.666666000000000    0.333333000000000    0.500000000000000 
K           0.074757000000000    0.313940000000000    0.250000000000000 
K           0.074757000000000    0.760817000000000    0.750000000000000 
K           0.239183000000000    0.313940000000000    0.750000000000000 
K           0.239183000000000    0.925243000000000    0.250000000000000 
K           0.399054000000000    0.093277000000000    0.750000000000000 
K           0.399055000000000    0.305778000000000    0.250000000000000 
K           0.686060000000000    0.760817000000000    0.250000000000000 
K           0.686060000000000    0.925243000000000    0.750000000000000 
K           0.694222000000000    0.093277000000000    0.250000000000000 
K           0.694222000000000    0.600945000000000    0.750000000000000 
K           0.906723000000000    0.305778000000000    0.750000000000000 
K           0.906723000000000    0.600945000000000    0.250000000000000 
%ENDBLOCK POSITIONS_FRAC
