# Cell file generated by matador (Matthew Evans 2016)

%BLOCK LATTICE_CART
6.95879 0.0 0.0
-3.47939 6.02649 0.0
0.0 0.0 6.6049
%ENDBLOCK LATTICE_CART

%BLOCK POSITIONS_FRAC
P           0.333333000000000    0.666667000000000    0.598598000000000 
P           0.333333000000000    0.666667000000000    0.750000000000000 
P           0.333333000000000    0.666667000000000    0.901402000000000 
P           0.666667000000000    0.333333000000000    0.098598000000000 
P           0.666667000000000    0.333333000000000    0.250000000000000 
P           0.666667000000000    0.333333000000000    0.401402000000000 
K           0.000000000000000    0.000000000000000   -0.000000000000000 
K           0.000000000000000    0.000000000000000    0.500000000000000 
K           0.333333000000000    0.666667000000000    0.250000000000000 
K           0.666667000000000    0.333333000000000    0.750000000000000 
%ENDBLOCK POSITIONS_FRAC
