# Cell file generated by matador (Matthew Evans 2016)

%BLOCK LATTICE_CART
7.98272 0.0 0.0
0.0 7.38594 0.0
2.10313 0.0 5.5858
%ENDBLOCK LATTICE_CART

%BLOCK POSITIONS_FRAC
P           0.000000000000000    0.100076000000000    0.500000000000000 
P           0.000000000000000    0.112497000000000    0.000000000000000 
P           0.000000000000000    0.568988000000000    0.000000000000000 
P           0.000000000000000    0.885937000000000    0.500000000000000 
P           0.207135000000000    0.461277000000000    0.744700000000000 
P           0.251451000000000    0.168862000000000    0.862640000000000 
P           0.396823000000000    0.332088000000000    0.331739000000000 
P           0.500000000000000    0.041564000000000    0.000000000000000 
P           0.500000000000000    0.179066000000000    0.500000000000000 
P           0.500000000000000    0.432297000000000    0.000000000000000 
P           0.500000000000000    0.449225000000000    0.500000000000000 
P           0.500000000000000    0.787809000000000    0.000000000000000 
P           0.603177000000000    0.332088000000000    0.668261000000000 
P           0.748549000000000    0.168862000000000    0.137360000000000 
P           0.792865000000000    0.461277000000000    0.255300000000000 
K           0.000000000000000    0.569037000000000    0.500000000000000 
K           0.267296000000000    0.600159000000000    0.014427000000000 
K           0.732704000000000    0.600159000000000    0.985573000000000 
%ENDBLOCK POSITIONS_FRAC
