# Cell file generated by matador (Matthew Evans 2016)

%BLOCK LATTICE_CART
7.81577 0.0 0.0
-3.90788 6.76865 0.0
0.0 0.0 9.79846
%ENDBLOCK LATTICE_CART

%BLOCK POSITIONS_FRAC
P           0.000000000000000    0.000000000000000    0.710092000000000 
P           0.333333000000000    0.666667000000000    0.376759000000000 
P           0.666667000000000    0.333333000000000    0.043426000000000 
K           0.027487000000000    0.513743000000000    0.767529000000000 
K           0.152923000000000    0.305846000000000    0.100862000000000 
K           0.152923000000000    0.847077000000000    0.100862000000000 
K           0.360820000000000    0.180410000000000    0.434195000000000 
K           0.486257000000000    0.513743000000000    0.767529000000000 
K           0.486257000000000    0.972513000000000    0.767529000000000 
K           0.694154000000000    0.847077000000000    0.100862000000000 
K           0.819590000000000    0.180410000000000    0.434195000000000 
K           0.819590000000000    0.639180000000000    0.434195000000000 
%ENDBLOCK POSITIONS_FRAC
