# Cell file generated by matador (Matthew Evans 2016)

%BLOCK LATTICE_CART
7.05977 0.0 0.0
-3.52988 6.11394 0.0
0.0 0.0 5.23236
%ENDBLOCK LATTICE_CART

%BLOCK POSITIONS_FRAC
P           0.333333000000000    0.666667000000000    0.096583000000000 
K          -0.000000000000000    0.000000000000000    0.311955000000000 
K           0.463382000000000    0.233886000000000    0.914213000000000 
K           0.666666000000000    0.333334000000000    0.557932000000000 
K           0.766114000000000    0.229496000000000    0.914213000000000 
K           0.770504000000000    0.536618000000000    0.914213000000000 
%ENDBLOCK POSITIONS_FRAC
