# Cell file generated by matador (Matthew Evans 2016)

%BLOCK LATTICE_CART
9.05475 0.0 0.0
0.0 6.46237 0.0
0.0 0.0 10.1086
%ENDBLOCK LATTICE_CART

%BLOCK POSITIONS_FRAC
P           0.000000000000000    0.000000000000000    0.500000000000000 
P           0.000000000000000    0.500000000000000    0.000000000000000 
P           0.000000000000000    0.500000000000000    0.500000000000000 
K           0.000000000000000    0.224084000000000    0.256672000000000 
K           0.000000000000000    0.224084000000000    0.743328000000000 
K           0.000000000000000    0.775916000000000    0.256672000000000 
K           0.000000000000000    0.775916000000000    0.743328000000000 
K           0.309751000000000    0.000000000000000    0.136608000000000 
K           0.309751000000000    0.000000000000000    0.863392000000000 
K           0.500000000000000    0.320810000000000    0.346285000000000 
K           0.500000000000000    0.320810000000000    0.653715000000000 
K           0.500000000000000    0.679190000000000    0.346285000000000 
K           0.500000000000000    0.679190000000000    0.653715000000000 
K           0.690249000000000    0.000000000000000    0.136608000000000 
K           0.690249000000000    0.000000000000000    0.863392000000000 
%ENDBLOCK POSITIONS_FRAC
