# Cell file generated by matador (Matthew Evans 2016)

%BLOCK LATTICE_CART
6.06196 0.0 0.0
0.0 6.06196 0.0
0.0 0.0 8.80996
%ENDBLOCK LATTICE_CART

%BLOCK POSITIONS_FRAC
P           0.000000000000000    0.000000000000000    0.370756000000000 
P           0.000000000000000    0.000000000000000    0.629244000000000 
P           0.000000000000000    0.500000000000000    0.052967000000000 
P           0.096836000000000    0.596836000000000    0.919006000000000 
P           0.403164000000000    0.096836000000000    0.080994000000000 
P           0.500000000000000    0.000000000000000    0.947033000000000 
P           0.500000000000000    0.500000000000000    0.370756000000000 
P           0.500000000000000    0.500000000000000    0.629244000000000 
P           0.596836000000000    0.903164000000000    0.080994000000000 
P           0.903164000000000    0.403164000000000    0.919006000000000 
K           0.000000000000000    0.500000000000000    0.645275000000000 
K           0.500000000000000    0.000000000000000    0.354725000000000 
%ENDBLOCK POSITIONS_FRAC
