# Cell file generated by matador (Matthew Evans 2016)

%BLOCK LATTICE_CART
10.4906 0.0 0.0
0.0 9.37234 0.0
0.0 0.0 7.30778
%ENDBLOCK LATTICE_CART

%BLOCK POSITIONS_FRAC
P           0.000000000000000    0.000000000000000    0.000000000000000 
P           0.000000000000000    0.000000000000000    0.500000000000000 
P           0.000000000000000    0.500000000000000    0.500000000000000 
P           0.500000000000000    0.000000000000000    0.000000000000000 
P           0.500000000000000    0.500000000000000    0.000000000000000 
K           0.000000000000000    0.209870000000000    0.193887000000000 
K           0.000000000000000    0.209870000000000    0.806113000000000 
K           0.000000000000000    0.500000000000000    0.000000000000000 
K           0.000000000000000    0.790130000000000    0.193887000000000 
K           0.000000000000000    0.790130000000000    0.806113000000000 
K           0.222916000000000    0.500000000000000    0.256175000000000 
K           0.222916000000000    0.500000000000000    0.743825000000000 
K           0.264528000000000    0.220339000000000    0.000000000000000 
K           0.264528000000000    0.779661000000000    0.000000000000000 
K           0.500000000000000    0.000000000000000    0.500000000000000 
K           0.500000000000000    0.500000000000000    0.500000000000000 
K           0.735472000000000    0.220339000000000    0.000000000000000 
K           0.735472000000000    0.779661000000000    0.000000000000000 
K           0.777084000000000    0.500000000000000    0.256175000000000 
K           0.777084000000000    0.500000000000000    0.743825000000000 
%ENDBLOCK POSITIONS_FRAC
