# Cell file generated by matador (Matthew Evans 2016)

%BLOCK LATTICE_CART
6.59451 0.0 0.0
0.0 8.22636 0.0
2.91179 0.0 6.36566
%ENDBLOCK LATTICE_CART

%BLOCK POSITIONS_FRAC
P           0.487876000000000    0.500000000000000    0.447267000000000 
P           0.639741000000000    0.500000000000000    0.018320000000000 
K           0.002970000000000    0.500000000000000    0.388601000000000 
K           0.216547000000000    0.000000000000000    0.165203000000000 
K           0.516349000000000    0.500000000000000    0.776990000000000 
K           0.674356000000000    0.000000000000000    0.638524000000000 
K           0.699247000000000    0.000000000000000    0.169160000000000 
K           0.983573000000000    0.500000000000000    0.939293000000000 
%ENDBLOCK POSITIONS_FRAC
