# Cell file generated by matador (Matthew Evans 2016)

%BLOCK LATTICE_CART
7.08975 0.0 0.0
-0.0367167 7.08264 0.0
1.63933 -4.48377 7.80774
%ENDBLOCK LATTICE_CART

%BLOCK POSITIONS_FRAC
P           0.000000000000000    0.000000000000000    0.500000000000000 
P           0.000000000000000    0.500000000000000    0.000000000000000 
P           0.117533000000000    0.078203000000000    0.608112000000000 
P           0.500000000000000    0.000000000000000    0.000000000000000 
P           0.500000000000000    0.500000000000000    0.000000000000000 
P           0.500000000000000    0.500000000000000    0.500000000000000 
P           0.882467000000000    0.921797000000000    0.391888000000000 
K           0.000000000000000    0.500000000000000    0.500000000000000 
K           0.079782000000000    0.633316000000000    0.745354000000000 
K           0.397487000000000    0.038446000000000    0.739638000000000 
K           0.602513000000000    0.961554000000000    0.260362000000000 
K           0.920218000000000    0.366684000000000    0.254646000000000 
%ENDBLOCK POSITIONS_FRAC
