# Cell file generated by matador (Matthew Evans 2016)

%BLOCK LATTICE_CART
7.79012 0.0 0.0
0.0 7.79012 0.0
0.0 0.0 8.16821
%ENDBLOCK LATTICE_CART

%BLOCK POSITIONS_FRAC
P          -0.000000000000000   -0.000000000000000    0.937880000000000 
P           0.500000000000000    0.500000000000000    0.437880000000000 
K          -0.000000000000000    0.500000000000000    0.104390000000000 
K          -0.000000000000000    0.500000000000000    0.604390000000000 
K           0.178159000000000    0.178159000000000    0.714176000000000 
K           0.178159000000000    0.821841000000000    0.714176000000000 
K           0.321841000000000    0.321841000000000    0.214176000000000 
K           0.321841000000000    0.678159000000000    0.214176000000000 
K           0.500000000000000   -0.000000000000000    0.104390000000000 
K           0.500000000000000   -0.000000000000000    0.604390000000000 
K           0.678159000000000    0.321841000000000    0.214176000000000 
K           0.678159000000000    0.678159000000000    0.214176000000000 
K           0.821841000000000    0.178159000000000    0.714176000000000 
K           0.821841000000000    0.821841000000000    0.714176000000000 
%ENDBLOCK POSITIONS_FRAC
