# Cell file generated by matador (Matthew Evans 2016)

%BLOCK LATTICE_CART
7.19422 0.0 0.0
0.0 7.68068 0.0
-1.17746 0.0 5.66017
%ENDBLOCK LATTICE_CART

%BLOCK POSITIONS_FRAC
P           0.271165000000000    0.165711000000000    0.643631000000000 
P           0.432817000000000    0.134829000000000    0.772349000000000 
P           0.468403000000000    0.692411000000000    0.812144000000000 
P           0.500000000000000    0.401494000000000    0.000000000000000 
P           0.531597000000000    0.692411000000000    0.187856000000000 
P           0.567183000000000    0.134829000000000    0.227651000000000 
P           0.728835000000000    0.165711000000000    0.356369000000000 
K           0.000000000000000    0.495071000000000    0.000000000000000 
K           0.171705000000000    0.925765000000000    0.084340000000000 
K           0.206718000000000    0.588638000000000    0.434016000000000 
K           0.500000000000000    0.846409000000000    0.500000000000000 
K           0.793282000000000    0.588638000000000    0.565984000000000 
K           0.828295000000000    0.925765000000000    0.915660000000000 
%ENDBLOCK POSITIONS_FRAC
