# Cell file generated by matador (Matthew Evans 2016)

%BLOCK LATTICE_CART
7.13231 0.0 0.0
0.0 6.57249 0.0
-1.02033 0.0 5.97763
%ENDBLOCK LATTICE_CART

%BLOCK POSITIONS_FRAC
P           0.114158000000000    0.500000000000000    0.871364000000000 
P           0.547079000000000    0.122578000000000    0.652427000000000 
P           0.547079000000000    0.877422000000000    0.652427000000000 
K           0.113281000000000    0.500000000000000    0.218187000000000 
K           0.490645000000000    0.500000000000000    0.494610000000000 
K           0.500751000000000    0.500000000000000    0.839892000000000 
K           0.665832000000000    0.000000000000000    0.971907000000000 
K           0.872549000000000    0.500000000000000    0.613146000000000 
%ENDBLOCK POSITIONS_FRAC
