# Cell file generated by matador (Matthew Evans 2016)

%BLOCK LATTICE_CART
9.60799 0.0 0.0
-4.80399 8.32076 0.0
0.0 0.0 8.90041
%ENDBLOCK LATTICE_CART

%BLOCK POSITIONS_FRAC
P           0.333332000000000    0.666666000000000    0.191995000000000 
P           0.333332000000000    0.666666000000000    0.308005000000000 
P           0.333332000000000    0.666666000000000    0.691995000000000 
P           0.333332000000000    0.666666000000000    0.808005000000000 
P           0.666666000000000    0.333332000000000    0.191995000000000 
P           0.666666000000000    0.333332000000000    0.308005000000000 
P           0.666666000000000    0.333332000000000    0.691995000000000 
P           0.666666000000000    0.333332000000000    0.808005000000000 
K           0.999999000000000    0.999999000000000   -0.000000000000000 
K           0.999999000000000    0.999999000000000    0.250000000000000 
K           0.999999000000000    0.999999000000000    0.500000000000000 
K           0.999999000000000    0.999999000000000    0.750000000000000 
K           0.999999000000000    0.255344000000000    0.750000000000000 
K           0.999999000000000    0.744654000000000    0.250000000000000 
K           0.255344000000000    0.999999000000000    0.750000000000000 
K           0.255344000000000    0.255344000000000    0.250000000000000 
K           0.744654000000000    0.999999000000000    0.250000000000000 
K           0.744654000000000    0.744654000000000    0.750000000000000 
%ENDBLOCK POSITIONS_FRAC
