# Cell file generated by matador (Matthew Evans 2016)

%BLOCK LATTICE_CART
6.5954 0.0 0.0
0.0 6.32128 0.0
0.0 0.0 7.33634
%ENDBLOCK LATTICE_CART

%BLOCK POSITIONS_FRAC
P           0.000000000000000    0.500000000000000    0.672815000000000 
P           0.500000000000000    0.500000000000000    0.672815000000000 
K           0.250000000000000    0.226149000000000    0.325238000000000 
K           0.250000000000000    0.324267000000000    0.809574000000000 
K           0.250000000000000    0.843371000000000    0.942583000000000 
K           0.750000000000000    0.156629000000000    0.942583000000000 
K           0.750000000000000    0.675733000000000    0.809574000000000 
K           0.750000000000000    0.773851000000000    0.325238000000000 
%ENDBLOCK POSITIONS_FRAC
