# Cell file generated by matador (Matthew Evans 2016)

%BLOCK LATTICE_CART
6.13243 0.0 0.0
0.0 9.54118 0.0
0.0 0.0 5.97839
%ENDBLOCK LATTICE_CART

%BLOCK POSITIONS_FRAC
P           0.000000000000000    0.000000000000000    0.000000000000000 
P           0.000000000000000    0.000000000000000    0.500000000000000 
P           0.000000000000000    0.500000000000000    0.500000000000000 
P           0.500000000000000    0.000000000000000    0.000000000000000 
P           0.500000000000000    0.000000000000000    0.500000000000000 
P           0.500000000000000    0.500000000000000    0.000000000000000 
P           0.500000000000000    0.500000000000000    0.500000000000000 
K           0.322169000000000    0.376604000000000    0.240442000000000 
K           0.322169000000000    0.623396000000000    0.759558000000000 
K           0.677831000000000    0.376604000000000    0.759558000000000 
K           0.677831000000000    0.623396000000000    0.240442000000000 
%ENDBLOCK POSITIONS_FRAC
