# Cell file generated by matador (Matthew Evans 2016)

%BLOCK LATTICE_CART
6.76912 0.0 0.0
2.28539 7.49575 0.0
-0.565302 3.18762 5.97387
%ENDBLOCK LATTICE_CART

%BLOCK POSITIONS_FRAC
P           0.000000000000000    0.000000000000000    0.500000000000000 
P           0.000000000000000    0.500000000000000    0.500000000000000 
P           0.426251000000000    0.462775000000000    0.600697000000000 
P           0.573749000000000    0.537225000000000    0.399303000000000 
K           0.068006000000000    0.430798000000000    0.228472000000000 
K           0.500000000000000    0.000000000000000    0.000000000000000 
K           0.500000000000000    0.000000000000000    0.500000000000000 
K           0.500000000000000    0.500000000000000    0.000000000000000 
K           0.931994000000000    0.569202000000000    0.771528000000000 
%ENDBLOCK POSITIONS_FRAC
