# Cell file generated by matador (Matthew Evans 2016)

%BLOCK LATTICE_CART
9.82201 0.0 0.0
-4.91101 8.50611 0.0
0.0 0.0 13.5216
%ENDBLOCK LATTICE_CART

%BLOCK POSITIONS_FRAC
P           0.000000000000000    0.000000000000000    0.541023000000000 
P           0.343994000000000    0.030588000000000    0.925509000000000 
P           0.343994000000000    0.313405000000000    0.925509000000000 
P           0.666667000000000    0.333333000000000    0.635267000000000 
P           0.686595000000000    0.030588000000000    0.925509000000000 
P           0.686595000000000    0.656006000000000    0.925509000000000 
P           0.969412000000000    0.313405000000000    0.925509000000000 
P           0.969412000000000    0.656006000000000    0.925509000000000 
K           0.080486000000000    0.540243000000000    0.882199000000000 
K           0.133647000000000    0.267294000000000    0.813224000000000 
K           0.133647000000000    0.866353000000000    0.813224000000000 
K           0.176008000000000    0.352015000000000    0.051707000000000 
K           0.176008000000000    0.823992000000000    0.051707000000000 
K           0.219405000000000    0.109702000000000    0.623097000000000 
K           0.226064000000000    0.452129000000000    0.485373000000000 
K           0.226064000000000    0.773936000000000    0.485373000000000 
K           0.306621000000000    0.153311000000000    0.191407000000000 
K           0.459757000000000    0.540243000000000    0.882199000000000 
K           0.459757000000000    0.919514000000000    0.882199000000000 
K           0.513319000000000    0.026639000000000    0.659178000000000 
K           0.513319000000000    0.486681000000000    0.659178000000000 
K           0.541677000000000    0.083354000000000    0.397193000000000 
K           0.541677000000000    0.458323000000000    0.397193000000000 
K           0.547871000000000    0.773936000000000    0.485373000000000 
K           0.647985000000000    0.823992000000000    0.051707000000000 
K           0.732706000000000    0.866353000000000    0.813224000000000 
K           0.846689000000000    0.153311000000000    0.191407000000000 
K           0.846689000000000    0.693379000000000    0.191407000000000 
K           0.890298000000000    0.109702000000000    0.623097000000000 
K           0.890298000000000    0.780595000000000    0.623097000000000 
K           0.916646000000000    0.458323000000000    0.397193000000000 
K           0.973361000000000    0.486681000000000    0.659178000000000 
%ENDBLOCK POSITIONS_FRAC
