# Cell file generated by matador (Matthew Evans 2016)

%BLOCK LATTICE_CART
5.96028 0.0 0.0
0.0 5.96028 0.0
0.0 0.0 15.9686
%ENDBLOCK LATTICE_CART

%BLOCK POSITIONS_FRAC
P           0.000000000000000    0.000000000000000    0.000000000000000 
P           0.265521000000000    0.500000000000000    0.000000000000000 
P           0.317791000000000    0.319694000000000    0.183975000000000 
P           0.317791000000000    0.680306000000000    0.816025000000000 
P           0.319694000000000    0.317791000000000    0.816025000000000 
P           0.319694000000000    0.682209000000000    0.183975000000000 
P           0.500000000000000    0.265521000000000    0.000000000000000 
P           0.500000000000000    0.500000000000000    0.000000000000000 
P           0.500000000000000    0.734479000000000    0.000000000000000 
P           0.680306000000000    0.317791000000000    0.183975000000000 
P           0.680306000000000    0.682209000000000    0.816025000000000 
P           0.682209000000000    0.319694000000000    0.816025000000000 
P           0.682209000000000    0.680306000000000    0.183975000000000 
P           0.734479000000000    0.500000000000000    0.000000000000000 
K           0.500000000000000    0.500000000000000    0.328028000000000 
K           0.500000000000000    0.500000000000000    0.671972000000000 
%ENDBLOCK POSITIONS_FRAC
