# Cell file generated by matador (Matthew Evans 2016)

%BLOCK LATTICE_CART
6.95359 0.0 0.0
-3.47679 6.02198 0.0
0.0 0.0 9.75927
%ENDBLOCK LATTICE_CART

%BLOCK POSITIONS_FRAC
P          -0.000000000000000    0.000000000000000    0.013724000000000 
P           0.333333000000000    0.666667000000000    0.514985000000000 
P           0.465642000000000    0.080020000000000    0.901099000000000 
P           0.614378000000000    0.534358000000000    0.901099000000000 
P           0.666666000000000    0.333334000000000    0.205926000000000 
P           0.666666000000000    0.333334000000000    0.831523000000000 
P           0.919980000000000    0.385622000000000    0.901099000000000 
K           0.039957000000000    0.752205000000000    0.329800000000000 
K           0.148849000000000    0.342922000000000    0.572533000000000 
K           0.194073000000000    0.851151000000000    0.572533000000000 
K           0.247795000000000    0.287753000000000    0.329800000000000 
K           0.657078000000000    0.805927000000000    0.572533000000000 
K           0.712247000000000    0.960043000000000    0.329800000000000 
%ENDBLOCK POSITIONS_FRAC
