# Cell file generated by matador (Matthew Evans 2016)

%BLOCK LATTICE_CART
4.33259 0.0 0.0
2.62833 5.48697 0.0
-1.76085 -2.47676 5.23997
%ENDBLOCK LATTICE_CART

%BLOCK POSITIONS_FRAC
P           0.397601000000000    0.126633000000000    0.710913000000000 
P           0.500000000000000    0.000000000000000    0.500000000000000 
P           0.602399000000000    0.873367000000000    0.289087000000000 
K           0.000000000000000    0.000000000000000    0.500000000000000 
K           0.500000000000000    0.000000000000000    0.000000000000000 
%ENDBLOCK POSITIONS_FRAC
