# Cell file generated by matador (Matthew Evans 2016)

%BLOCK LATTICE_CART
10.7057 0.0 0.0
0.0 6.07304 0.0
0.0 0.0 8.98058
%ENDBLOCK LATTICE_CART

%BLOCK POSITIONS_FRAC
P           0.250000000000000    0.135163000000000    0.570994000000000 
P           0.250000000000000    0.635163000000000    0.070994000000000 
P           0.750000000000000    0.364837000000000    0.070994000000000 
P           0.750000000000000    0.864837000000000    0.570994000000000 
K           0.000000000000000    0.000000000000000    0.631233000000000 
K           0.000000000000000    0.500000000000000    0.131233000000000 
K           0.250000000000000    0.220956000000000    0.329511000000000 
K           0.250000000000000    0.230274000000000    0.879983000000000 
K           0.250000000000000    0.720956000000000    0.829511000000000 
K           0.250000000000000    0.730274000000000    0.379983000000000 
K           0.500000000000000    0.000000000000000    0.631233000000000 
K           0.500000000000000    0.500000000000000    0.131233000000000 
K           0.750000000000000    0.269726000000000    0.379983000000000 
K           0.750000000000000    0.279044000000000    0.829511000000000 
K           0.750000000000000    0.769726000000000    0.879983000000000 
K           0.750000000000000    0.779044000000000    0.329511000000000 
%ENDBLOCK POSITIONS_FRAC
