# Cell file generated by matador (Matthew Evans 2016)

%BLOCK LATTICE_CART
9.25009 0.0 0.0
0.0 6.35943 0.0
-0.728199 0.0 5.58423
%ENDBLOCK LATTICE_CART

%BLOCK POSITIONS_FRAC
P           0.183875000000000    0.153112000000000    0.864593000000000 
P           0.183875000000000    0.846888000000000    0.364593000000000 
P           0.230122000000000    0.407216000000000    0.728740000000000 
P           0.230122000000000    0.592784000000000    0.228740000000000 
P           0.329229000000000    0.409244000000000    0.382528000000000 
P           0.329229000000000    0.590756000000000    0.882528000000000 
P           0.373390000000000    0.164631000000000    0.441433000000000 
P           0.373390000000000    0.835369000000000    0.941433000000000 
P           0.925594000000000    0.291458000000000    0.159559000000000 
P           0.925594000000000    0.708542000000000    0.659559000000000 
K           0.611778000000000    0.238259000000000    0.355082000000000 
K           0.611778000000000    0.761741000000000    0.855082000000000 
%ENDBLOCK POSITIONS_FRAC
