# Cell file generated by matador (Matthew Evans 2016)

%BLOCK LATTICE_CART
7.18545 -0.0 0.0
-3.59273 6.22278 0.0
0.0 0.0 9.968
%ENDBLOCK LATTICE_CART

%BLOCK POSITIONS_FRAC
P           0.139851000000000    0.139672000000000    0.130386000000000 
P           0.193661000000000    0.666846000000000    0.797053000000000 
P           0.333154000000000    0.526816000000000    0.797053000000000 
P           0.473184000000000    0.806339000000000    0.797053000000000 
P           0.526995000000000    0.333512000000000    0.463719000000000 
P           0.666488000000000    0.193482000000000    0.463719000000000 
P           0.806518000000000    0.473005000000000    0.463719000000000 
P           0.860328000000000    0.000179000000000    0.130386000000000 
P           0.999821000000000    0.860149000000000    0.130386000000000 
K           0.000000000000000    0.000000000000000    0.333597000000000 
K           0.000000000000000    0.000000000000000    0.544133000000000 
K           0.333333000000000    0.666667000000000    0.000264000000000 
K           0.333333000000000    0.666667000000000    0.210800000000000 
K           0.666667000000000    0.333333000000000    0.666930000000000 
K           0.666667000000000    0.333333000000000    0.877466000000000 
%ENDBLOCK POSITIONS_FRAC
