# Cell file generated by matador (Matthew Evans 2016)

%BLOCK LATTICE_CART
5.60989 0.0 0.0
-2.80494 4.8583 0.0
0.0 0.0 10.2235
%ENDBLOCK LATTICE_CART

%BLOCK POSITIONS_FRAC
P          -0.000000000000000    0.000000000000000    0.000000000000000 
P           0.102615000000000    0.344038000000000    0.953975000000000 
P           0.241423000000000    0.897385000000000    0.953975000000000 
P           0.344038000000000    0.102615000000000    0.046025000000000 
P           0.655962000000000    0.758577000000000    0.953975000000000 
P           0.758577000000000    0.655962000000000    0.046025000000000 
P           0.897385000000000    0.241423000000000    0.046025000000000 
K           0.333333000000000    0.666667000000000    0.250532000000000 
K           0.333333000000000    0.666667000000000    0.600277000000000 
K           0.666666000000000    0.333334000000000    0.399723000000000 
K           0.666666000000000    0.333334000000000    0.749468000000000 
%ENDBLOCK POSITIONS_FRAC
