# Cell file generated by matador (Matthew Evans 2016)

%BLOCK LATTICE_CART
10.6144 0.0 0.0
-5.30721 9.19236 0.0
0.0 0.0 10.1107
%ENDBLOCK LATTICE_CART

%BLOCK POSITIONS_FRAC
P          -0.000000000000000    0.500000000000000    0.000000000000000 
P          -0.000000000000000    0.500000000000000    0.500000000000000 
P           0.500000000000000    0.000000000000000    0.000000000000000 
P           0.500000000000000    0.000000000000000    0.500000000000000 
P           0.500000000000000    0.500000000000000    0.000000000000000 
P           0.500000000000000    0.500000000000000    0.500000000000000 
K           0.028581000000000    0.218704000000000    0.250000000000000 
K           0.059768000000000    0.350461000000000    0.750000000000000 
K           0.147225000000000    0.539316000000000    0.250000000000000 
K           0.190123000000000    0.971419000000000    0.250000000000000 
K           0.218704000000000    0.190123000000000    0.750000000000000 
K           0.290693000000000    0.940232000000000    0.750000000000000 
K           0.350461000000000    0.290693000000000    0.250000000000000 
K           0.392090000000000    0.852775000000000    0.250000000000000 
K           0.460684000000000    0.607910000000000    0.250000000000000 
K           0.539316000000000    0.392090000000000    0.750000000000000 
K           0.607910000000000    0.147225000000000    0.750000000000000 
K           0.649539000000000    0.709307000000000    0.750000000000000 
K           0.709307000000000    0.059768000000000    0.250000000000000 
K           0.781296000000000    0.809877000000000    0.250000000000000 
K           0.809877000000000    0.028581000000000    0.750000000000000 
K           0.852775000000000    0.460684000000000    0.750000000000000 
K           0.940232000000000    0.649539000000000    0.250000000000000 
K           0.971419000000000    0.781296000000000    0.750000000000000 
%ENDBLOCK POSITIONS_FRAC
