# Cell file generated by matador (Matthew Evans 2016)

%BLOCK LATTICE_CART
9.86322 0.0 0.0
0.0 9.86322 0.0
0.0 0.0 13.4058
%ENDBLOCK LATTICE_CART

%BLOCK POSITIONS_FRAC
P           0.000000000000000    0.392069000000000    0.455696000000000 
P           0.000000000000000    0.607931000000000    0.455696000000000 
P           0.107931000000000    0.000000000000000    0.205696000000000 
P           0.392069000000000    0.500000000000000    0.705696000000000 
P           0.500000000000000    0.107931000000000    0.955696000000000 
P           0.500000000000000    0.892069000000000    0.955696000000000 
P           0.607931000000000    0.500000000000000    0.705696000000000 
P           0.892069000000000    0.000000000000000    0.205696000000000 
K           0.000000000000000    0.182313000000000    0.276909000000000 
K           0.000000000000000    0.193126000000000    0.032125000000000 
K           0.000000000000000    0.299898000000000    0.653730000000000 
K           0.000000000000000    0.700102000000000    0.653730000000000 
K           0.000000000000000    0.806874000000000    0.032125000000000 
K           0.000000000000000    0.817687000000000    0.276909000000000 
K           0.182313000000000    0.500000000000000    0.526909000000000 
K           0.193126000000000    0.500000000000000    0.282125000000000 
K           0.200102000000000    0.000000000000000    0.403730000000000 
K           0.299898000000000    0.500000000000000    0.903730000000000 
K           0.306874000000000    0.000000000000000    0.782125000000000 
K           0.317687000000000    0.000000000000000    0.026909000000000 
K           0.500000000000000    0.200102000000000    0.153730000000000 
K           0.500000000000000    0.306874000000000    0.532125000000000 
K           0.500000000000000    0.317687000000000    0.776909000000000 
K           0.500000000000000    0.682313000000000    0.776909000000000 
K           0.500000000000000    0.693126000000000    0.532125000000000 
K           0.500000000000000    0.799898000000000    0.153730000000000 
K           0.682313000000000    0.000000000000000    0.026909000000000 
K           0.693126000000000    0.000000000000000    0.782125000000000 
K           0.700102000000000    0.500000000000000    0.903730000000000 
K           0.799898000000000    0.000000000000000    0.403730000000000 
K           0.806874000000000    0.500000000000000    0.282125000000000 
K           0.817687000000000    0.500000000000000    0.526909000000000 
%ENDBLOCK POSITIONS_FRAC
