# Cell file generated by matador (Matthew Evans 2016)

%BLOCK LATTICE_CART
7.11939 0.0 0.0
-3.55969 6.16557 0.0
0.0 0.0 17.7919
%ENDBLOCK LATTICE_CART

%BLOCK POSITIONS_FRAC
P           0.000000000000000    0.000000000000000    0.972876000000000 
P           0.261015000000000    0.130507000000000    0.805854000000000 
P           0.333333000000000    0.666667000000000    0.391920000000000 
P           0.869493000000000    0.130507000000000    0.805854000000000 
P           0.869493000000000    0.738985000000000    0.805854000000000 
K           0.000000000000000    0.000000000000000    0.587524000000000 
K           0.000000000000000    0.000000000000000    0.746404000000000 
K           0.010268000000000    0.505134000000000    0.741716000000000 
K           0.177838000000000    0.355675000000000    0.478035000000000 
K           0.177838000000000    0.822162000000000    0.478035000000000 
K           0.315466000000000    0.157733000000000    0.268448000000000 
K           0.324312000000000    0.162156000000000    0.076339000000000 
K           0.333333000000000    0.666667000000000    0.882622000000000 
K           0.494866000000000    0.505134000000000    0.741716000000000 
K           0.494866000000000    0.989732000000000    0.741716000000000 
K           0.644325000000000    0.822162000000000    0.478035000000000 
K           0.837844000000000    0.162156000000000    0.076339000000000 
K           0.837844000000000    0.675688000000000    0.076339000000000 
K           0.842267000000000    0.157733000000000    0.268448000000000 
K           0.842267000000000    0.684534000000000    0.268448000000000 
%ENDBLOCK POSITIONS_FRAC
