# Cell file generated by matador (Matthew Evans 2016)

%BLOCK LATTICE_CART
7.51609 0.0 0.0
0.0 8.01038 0.0
0.0 0.0 7.03507
%ENDBLOCK LATTICE_CART

%BLOCK POSITIONS_FRAC
P           0.224535000000000    0.312362000000000    0.591437000000000 
P           0.224535000000000    0.687638000000000    0.408563000000000 
P           0.497838000000000    0.359308000000000    0.653315000000000 
P           0.497838000000000    0.640692000000000    0.346685000000000 
P           0.502162000000000    0.359308000000000    0.846685000000000 
P           0.502162000000000    0.640692000000000    0.153315000000000 
P           0.775465000000000    0.312362000000000    0.908563000000000 
P           0.775465000000000    0.687638000000000    0.091437000000000 
K           0.185901000000000    0.483176000000000    0.162921000000000 
K           0.185901000000000    0.516824000000000    0.837079000000000 
K           0.281285000000000    0.000000000000000    0.500000000000000 
K           0.500000000000000    0.113893000000000    0.250000000000000 
K           0.500000000000000    0.886107000000000    0.750000000000000 
K           0.718715000000000    0.000000000000000    0.000000000000000 
K           0.814099000000000    0.483176000000000    0.337079000000000 
K           0.814099000000000    0.516824000000000    0.662921000000000 
%ENDBLOCK POSITIONS_FRAC
