# Cell file generated by matador (Matthew Evans 2016)

%BLOCK LATTICE_CART
6.56004 0.0 0.0
0.0 6.9572 0.0
-2.41489 0.0 5.46082
%ENDBLOCK LATTICE_CART

%BLOCK POSITIONS_FRAC
P           0.184609000000000    0.000000000000000    0.783762000000000 
P           0.287829000000000    0.418915000000000    0.613044000000000 
P           0.287829000000000    0.581085000000000    0.613044000000000 
P           0.336258000000000    0.000000000000000    0.463569000000000 
P           0.555715000000000    0.140618000000000    0.655157000000000 
P           0.555715000000000    0.859382000000000    0.655157000000000 
P           0.692189000000000    0.087608000000000    0.130532000000000 
P           0.692189000000000    0.912392000000000    0.130532000000000 
K           0.551583000000000    0.500000000000000    0.179108000000000 
K           0.817246000000000    0.000000000000000    0.493401000000000 
K           0.840625000000000    0.000000000000000    0.851940000000000 
K           0.948692000000000    0.500000000000000    0.656028000000000 
%ENDBLOCK POSITIONS_FRAC
