# Cell file generated by matador (Matthew Evans 2016)

%BLOCK LATTICE_CART
8.62338 -0.0 0.0
-4.31169 7.46807 0.0
0.0 0.0 6.83518
%ENDBLOCK LATTICE_CART

%BLOCK POSITIONS_FRAC
P           0.003187000000000    0.350118000000000    0.429920000000000 
P           0.333333000000000    0.666667000000000    0.904701000000000 
P           0.346931000000000    0.996813000000000    0.429920000000000 
P           0.649882000000000    0.653069000000000    0.429920000000000 
P           0.666667000000000    0.333333000000000    0.132281000000000 
K           0.228082000000000    0.500267000000000    0.248411000000000 
K           0.272185000000000    0.771918000000000    0.248411000000000 
K           0.333333000000000    0.666667000000000    0.489895000000000 
K           0.449801000000000    0.374050000000000    0.513985000000000 
K           0.499733000000000    0.727815000000000    0.248411000000000 
K           0.625950000000000    0.075752000000000    0.513985000000000 
K           0.924248000000000    0.550199000000000    0.513985000000000 
%ENDBLOCK POSITIONS_FRAC
