# Cell file generated by matador (Matthew Evans 2016)

%BLOCK LATTICE_CART
6.10565 0.0 0.0
-3.05283 5.28765 0.0
0.0 0.0 11.259
%ENDBLOCK LATTICE_CART

%BLOCK POSITIONS_FRAC
P           0.333333000000000    0.666667000000000    0.319465000000000 
P           0.666666000000000    0.333334000000000    0.319465000000000 
K          -0.000000000000000    0.310600000000000    0.140671000000000 
K           0.310600000000000    0.000000000000000    0.140671000000000 
K           0.333333000000000    0.666667000000000    0.514278000000000 
K           0.333333000000000    0.666667000000000    0.960287000000000 
K           0.666666000000000    0.333334000000000    0.514278000000000 
K           0.666666000000000    0.333334000000000    0.960287000000000 
K           0.689400000000000    0.689400000000000    0.140671000000000 
%ENDBLOCK POSITIONS_FRAC
