# Cell file generated by matador (Matthew Evans 2016)

%BLOCK LATTICE_CART
4.76898 0.0 0.0
0.0 8.27108 0.0
-0.862424 0.0 7.36237
%ENDBLOCK LATTICE_CART

%BLOCK POSITIONS_FRAC
P           0.370141000000000    0.310081000000000    0.632614000000000 
P           0.370141000000000    0.689919000000000    0.132614000000000 
P           0.387682000000000    0.179882000000000    0.351946000000000 
P           0.387682000000000    0.820118000000000    0.851946000000000 
P           0.483389000000000    0.186218000000000    0.892453000000000 
P           0.483389000000000    0.813782000000000    0.392453000000000 
P           0.965563000000000    0.296725000000000    0.797747000000000 
P           0.965563000000000    0.703275000000000    0.297747000000000 
K           0.241753000000000    0.480573000000000    0.373725000000000 
K           0.241753000000000    0.519427000000000    0.873725000000000 
%ENDBLOCK POSITIONS_FRAC
