# Cell file generated by matador (Matthew Evans 2016)

%BLOCK LATTICE_CART
5.56835 0.0 0.0
-2.78418 4.82234 0.0
0.0 0.0 5.2525
%ENDBLOCK LATTICE_CART

%BLOCK POSITIONS_FRAC
P           0.251834000000000    0.189145000000000    0.784719000000000 
P           0.666667000000000    0.333333000000000    0.243578000000000 
P           0.666667000000000    0.333333000000000    0.577421000000000 
P           0.810855000000000    0.062689000000000    0.784719000000000 
P           0.937311000000000    0.748166000000000    0.784719000000000 
K           0.000000000000000    0.000000000000000    0.217307000000000 
K           0.333333000000000    0.666667000000000    0.122092000000000 
%ENDBLOCK POSITIONS_FRAC
