# Cell file generated by matador (Matthew Evans 2016)

%BLOCK LATTICE_CART
7.41689 0.0 0.0
0.0 7.41689 0.0
0.0 0.0 7.41689
%ENDBLOCK LATTICE_CART

%BLOCK POSITIONS_FRAC
P           0.000000000000000    0.000000000000000    0.500000000000000 
P           0.000000000000000    0.500000000000000    0.000000000000000 
P           0.000000000000000    0.500000000000000    0.500000000000000 
P           0.198219000000000    0.500000000000000    0.500000000000000 
P           0.500000000000000    0.000000000000000    0.000000000000000 
P           0.500000000000000    0.000000000000000    0.500000000000000 
P           0.500000000000000    0.198219000000000    0.500000000000000 
P           0.500000000000000    0.500000000000000    0.000000000000000 
P           0.500000000000000    0.500000000000000    0.198219000000000 
P           0.500000000000000    0.500000000000000    0.801781000000000 
P           0.500000000000000    0.801781000000000    0.500000000000000 
P           0.801781000000000    0.500000000000000    0.500000000000000 
K           0.000000000000000    0.000000000000000    0.000000000000000 
K           0.500000000000000    0.500000000000000    0.500000000000000 
%ENDBLOCK POSITIONS_FRAC
