# Cell file generated by matador (Matthew Evans 2016)

%BLOCK LATTICE_CART
6.28406 0.0 0.0
3.46868 6.264 0.0
0.273226 0.874106 5.69345
%ENDBLOCK LATTICE_CART

%BLOCK POSITIONS_FRAC
P           0.000000000000000    0.000000000000000    0.500000000000000 
P           0.000000000000000    0.500000000000000    0.000000000000000 
P           0.500000000000000    0.000000000000000    0.000000000000000 
P           0.500000000000000    0.000000000000000    0.500000000000000 
P           0.500000000000000    0.500000000000000    0.000000000000000 
K           0.496317000000000    0.645880000000000    0.589872000000000 
K           0.503683000000000    0.354120000000000    0.410128000000000 
%ENDBLOCK POSITIONS_FRAC
