# Cell file generated by matador (Matthew Evans 2016)

%BLOCK LATTICE_CART
6.94041 0.0 0.0
-3.47021 6.01057 0.0
0.0 0.0 7.02243
%ENDBLOCK LATTICE_CART

%BLOCK POSITIONS_FRAC
P           0.000000000000000    0.000000000000000    0.000000000000000 
P           0.000000000000000    0.000000000000000    0.254977000000000 
P           0.000000000000000    0.000000000000000    0.500000000000000 
P           0.000000000000000    0.000000000000000    0.745023000000000 
P           0.333333000000000    0.666667000000000    0.511242000000000 
P           0.666667000000000    0.333333000000000    0.488758000000000 
K           0.000000000000000    0.500000000000000    0.500000000000000 
K           0.333333000000000    0.666667000000000    0.204604000000000 
K           0.500000000000000    0.000000000000000    0.500000000000000 
K           0.500000000000000    0.500000000000000    0.500000000000000 
K           0.666667000000000    0.333333000000000    0.795396000000000 
%ENDBLOCK POSITIONS_FRAC
