# Cell file generated by matador (Matthew Evans 2016)

%BLOCK LATTICE_CART
7.01493 0.0 0.0
-3.50746 6.07511 0.0
0.0 0.0 10.0776
%ENDBLOCK LATTICE_CART

%BLOCK POSITIONS_FRAC
P           0.000000000000000    0.500000000000000    0.000000000000000 
P           0.500000000000000    0.000000000000000    0.000000000000000 
P           0.500000000000000    0.500000000000000    0.000000000000000 
K           0.000000000000000    0.000000000000000    0.000000000000000 
K           0.191447000000000    0.382895000000000    0.818482000000000 
K           0.191447000000000    0.808553000000000    0.818482000000000 
K           0.333333000000000    0.666667000000000    0.080031000000000 
K           0.382895000000000    0.191447000000000    0.181518000000000 
K           0.617105000000000    0.808553000000000    0.818482000000000 
K           0.666667000000000    0.333333000000000    0.919969000000000 
K           0.808553000000000    0.191447000000000    0.181518000000000 
K           0.808553000000000    0.617105000000000    0.181518000000000 
%ENDBLOCK POSITIONS_FRAC
