# Cell file generated by matador (Matthew Evans 2016)

%BLOCK LATTICE_CART
8.58357 0.0 0.0
0.0 8.58357 0.0
0.0 0.0 6.9405
%ENDBLOCK LATTICE_CART

%BLOCK POSITIONS_FRAC
P           0.000000000000000    0.239272000000000    0.500000000000000 
P           0.000000000000000    0.500000000000000    0.500000000000000 
P           0.000000000000000    0.760728000000000    0.500000000000000 
P           0.239272000000000    0.000000000000000    0.500000000000000 
P           0.500000000000000    0.000000000000000    0.500000000000000 
P           0.760728000000000    0.000000000000000    0.500000000000000 
K           0.000000000000000    0.000000000000000    0.000000000000000 
K           0.084902000000000    0.084902000000000    0.739961000000000 
K           0.084902000000000    0.915098000000000    0.260039000000000 
K           0.500000000000000    0.500000000000000    0.000000000000000 
K           0.500000000000000    0.500000000000000    0.500000000000000 
K           0.915098000000000    0.084902000000000    0.260039000000000 
K           0.915098000000000    0.915098000000000    0.739961000000000 
%ENDBLOCK POSITIONS_FRAC
