# Cell file generated by matador (Matthew Evans 2016)

%BLOCK LATTICE_CART
9.50138 0.0 0.0
-4.75069 8.22844 0.0
0.0 0.0 6.41462
%ENDBLOCK LATTICE_CART

%BLOCK POSITIONS_FRAC
P           0.008635000000000    0.228199000000000    0.893515000000000 
P           0.163077000000000    0.612419000000000    0.663008000000000 
P           0.219564000000000    0.991365000000000    0.893515000000000 
P           0.387581000000000    0.550658000000000    0.663008000000000 
P           0.449342000000000    0.836923000000000    0.663008000000000 
P           0.476552000000000    0.358901000000000    0.865325000000000 
P           0.533586000000000    0.463800000000000    0.148568000000000 
P           0.536200000000000    0.069786000000000    0.148568000000000 
P           0.641099000000000    0.117651000000000    0.865325000000000 
P           0.771801000000000    0.780436000000000    0.893515000000000 
P           0.882349000000000    0.523448000000000    0.865325000000000 
P           0.930214000000000    0.466414000000000    0.148568000000000 
K           0.000000000000000    0.000000000000000    0.398701000000000 
K           0.666667000000000    0.333333000000000    0.676865000000000 
%ENDBLOCK POSITIONS_FRAC
