# Cell file generated by matador (Matthew Evans 2016)

%BLOCK LATTICE_CART
8.99651 0.0 0.0
0.0 8.99651 0.0
0.0 0.0 7.13677
%ENDBLOCK LATTICE_CART

%BLOCK POSITIONS_FRAC
P           0.161849000000000    0.338151000000000    0.110115000000000 
P           0.338151000000000    0.838151000000000    0.889885000000000 
P           0.661849000000000    0.161849000000000    0.889885000000000 
P           0.838151000000000    0.661849000000000    0.110115000000000 
K          -0.000000000000000    0.000000000000000    0.000000000000000 
K          -0.000000000000000    0.000000000000000    0.500000000000000 
K           0.134128000000000    0.634128000000000    0.223122000000000 
K           0.192424000000000    0.692424000000000    0.676756000000000 
K           0.307576000000000    0.192424000000000    0.323244000000000 
K           0.365872000000000    0.134128000000000    0.776878000000000 
K           0.500000000000000    0.500000000000000    0.000000000000000 
K           0.500000000000000    0.500000000000000    0.500000000000000 
K           0.634128000000000    0.865872000000000    0.776878000000000 
K           0.692424000000000    0.807576000000000    0.323244000000000 
K           0.807576000000000    0.307576000000000    0.676756000000000 
K           0.865872000000000    0.365872000000000    0.223122000000000 
%ENDBLOCK POSITIONS_FRAC
