# Cell file generated by matador (Matthew Evans 2016)

%BLOCK LATTICE_CART
7.67925 0.0 0.0
0.0 5.85099 0.0
0.778761 0.0 6.34701
%ENDBLOCK LATTICE_CART

%BLOCK POSITIONS_FRAC
P           0.000000000000000    0.000000000000000    0.500000000000000 
P           0.000000000000000    0.303769000000000    0.000000000000000 
P           0.000000000000000    0.340006000000000    0.500000000000000 
P           0.000000000000000    0.659994000000000    0.500000000000000 
P           0.000000000000000    0.696231000000000    0.000000000000000 
P           0.500000000000000    0.175378000000000    0.000000000000000 
P           0.500000000000000    0.329089000000000    0.500000000000000 
P           0.500000000000000    0.500000000000000    0.500000000000000 
P           0.500000000000000    0.670911000000000    0.500000000000000 
P           0.500000000000000    0.824622000000000    0.000000000000000 
K           0.263846000000000    0.316818000000000    0.098725000000000 
K           0.263846000000000    0.683182000000000    0.098725000000000 
K           0.736154000000000    0.316818000000000    0.901275000000000 
K           0.736154000000000    0.683182000000000    0.901275000000000 
%ENDBLOCK POSITIONS_FRAC
