# Cell file generated by matador (Matthew Evans 2016)

%BLOCK LATTICE_CART
8.25064 0.0 0.0
0.0 5.57666 0.0
0.0 0.0 6.66218
%ENDBLOCK LATTICE_CART

%BLOCK POSITIONS_FRAC
P           0.000000000000000    0.403227000000000    0.727565000000000 
P           0.500000000000000    0.596773000000000    0.227565000000000 
K           0.000000000000000    0.269109000000000    0.256661000000000 
K           0.000000000000000    0.759316000000000    0.442979000000000 
K           0.000000000000000    0.820094000000000    0.914722000000000 
K           0.500000000000000    0.179906000000000    0.414722000000000 
K           0.500000000000000    0.240684000000000    0.942979000000000 
K           0.500000000000000    0.730891000000000    0.756661000000000 
%ENDBLOCK POSITIONS_FRAC
