# Cell file generated by matador (Matthew Evans 2016)

%BLOCK LATTICE_CART
7.86409 0.0 0.0
-3.93204 6.8105 0.0
0.0 0.0 7.01319
%ENDBLOCK LATTICE_CART

%BLOCK POSITIONS_FRAC
P           0.999999000000000    0.999999000000000    0.132366000000000 
P           0.999999000000000    0.999999000000000    0.367634000000000 
P           0.999999000000000    0.999999000000000    0.632366000000000 
P           0.999999000000000    0.999999000000000    0.867634000000000 
P           0.186501000000000    0.373002000000000    0.750000000000000 
P           0.186501000000000    0.813497000000000    0.750000000000000 
P           0.373002000000000    0.186501000000000    0.250000000000000 
P           0.626996000000000    0.813497000000000    0.750000000000000 
P           0.813497000000000    0.186501000000000    0.250000000000000 
P           0.813497000000000    0.626996000000000    0.250000000000000 
K           0.333332000000000    0.666666000000000    0.750000000000000 
K           0.666666000000000    0.333332000000000    0.250000000000000 
%ENDBLOCK POSITIONS_FRAC
