# Cell file generated by matador (Matthew Evans 2016)

%BLOCK LATTICE_CART
9.27381 0.0 0.0
0.0 9.45075 0.0
-1.03079 0.0 6.65402
%ENDBLOCK LATTICE_CART

%BLOCK POSITIONS_FRAC
P           0.056387000000000    0.500000000000000    0.648641000000000 
P           0.074865000000000    0.500000000000000    0.296020000000000 
P           0.556387000000000    0.000000000000000    0.648641000000000 
P           0.574865000000000    0.000000000000000    0.296020000000000 
K           0.026759000000000    0.000000000000000    0.331382000000000 
K           0.148575000000000    0.000000000000000    0.958570000000000 
K           0.257147000000000    0.500000000000000    0.501311000000000 
K           0.297140000000000    0.500000000000000    0.962994000000000 
K           0.306618000000000    0.000000000000000    0.609362000000000 
K           0.476186000000000    0.000000000000000    0.019579000000000 
K           0.526759000000000    0.500000000000000    0.331382000000000 
K           0.648575000000000    0.500000000000000    0.958570000000000 
K           0.757147000000000    0.000000000000000    0.501311000000000 
K           0.797140000000000    0.000000000000000    0.962994000000000 
K           0.806618000000000    0.500000000000000    0.609362000000000 
K           0.976186000000000    0.500000000000000    0.019579000000000 
%ENDBLOCK POSITIONS_FRAC
