# Cell file generated by matador (Matthew Evans 2016)

%BLOCK LATTICE_CART
9.00562 0.0 0.0
-4.50281 7.7991 0.0
0.0 0.0 6.63626
%ENDBLOCK LATTICE_CART

%BLOCK POSITIONS_FRAC
P          -0.000000000000000    0.000000000000000    0.553904000000000 
P           0.333333000000000    0.666667000000000    0.220571000000000 
P           0.666667000000000    0.333333000000000    0.887238000000000 
K          -0.000000000000000    0.000000000000000    0.252283000000000 
K           0.206090000000000    0.412181000000000    0.612237000000000 
K           0.206090000000000    0.793910000000000    0.612237000000000 
K           0.254486000000000    0.127243000000000    0.945570000000000 
K           0.333333000000000    0.666667000000000    0.918950000000000 
K           0.539424000000000    0.078848000000000    0.278903000000000 
K           0.539424000000000    0.460576000000000    0.278903000000000 
K           0.587819000000000    0.793910000000000    0.612237000000000 
K           0.666667000000000    0.333333000000000    0.585617000000000 
K           0.872757000000000    0.127243000000000    0.945570000000000 
K           0.872757000000000    0.745514000000000    0.945570000000000 
K           0.921152000000000    0.460576000000000    0.278903000000000 
%ENDBLOCK POSITIONS_FRAC
