# Cell file generated by matador (Matthew Evans 2016)

%BLOCK LATTICE_CART
8.62117 0.0 0.0
-4.31058 7.46615 0.0
0.0 0.0 6.17301
%ENDBLOCK LATTICE_CART

%BLOCK POSITIONS_FRAC
P           0.000000000000000    0.682406000000000    0.415706000000000 
P           0.000000000000000    0.687361000000000    0.236099000000000 
P           0.136800000000000    0.776277000000000    0.784991000000000 
P           0.223723000000000    0.360524000000000    0.784991000000000 
P           0.312639000000000    0.312639000000000    0.236099000000000 
P           0.317594000000000    0.317594000000000    0.415706000000000 
P           0.360524000000000    0.223723000000000    0.784991000000000 
P           0.639476000000000    0.863200000000000    0.784991000000000 
P           0.682406000000000    0.000000000000000    0.415706000000000 
P           0.687361000000000    0.000000000000000    0.236099000000000 
P           0.776277000000000    0.136800000000000    0.784991000000000 
P           0.863200000000000    0.639476000000000    0.784991000000000 
K           0.000000000000000    0.000000000000000    0.185695000000000 
K           0.000000000000000    0.266880000000000    0.153504000000000 
K           0.266880000000000    0.000000000000000    0.153504000000000 
K           0.733120000000000    0.733120000000000    0.153504000000000 
%ENDBLOCK POSITIONS_FRAC
