# Cell file generated by matador (Matthew Evans 2016)

%BLOCK LATTICE_CART
8.40338 0.0 0.0
-4.20169 7.27754 0.0
0.0 0.0 8.83834
%ENDBLOCK LATTICE_CART

%BLOCK POSITIONS_FRAC
P           0.090821000000000    0.344400000000000    0.537276000000000 
P           0.090821000000000    0.746421000000000    0.537276000000000 
P           0.253579000000000    0.344400000000000    0.537276000000000 
P           0.253579000000000    0.909179000000000    0.537276000000000 
P           0.372733000000000    0.186367000000000    0.030110000000000 
P           0.655600000000000    0.746421000000000    0.537276000000000 
P           0.655600000000000    0.909179000000000    0.537276000000000 
P           0.666667000000000    0.333333000000000    0.416683000000000 
P           0.813633000000000    0.186367000000000    0.030110000000000 
P           0.813633000000000    0.627267000000000    0.030110000000000 
K           0.000000000000000    0.000000000000000    0.219937000000000 
K           0.025869000000000    0.373508000000000    0.158887000000000 
K           0.025869000000000    0.652361000000000    0.158887000000000 
K           0.347639000000000    0.373508000000000    0.158887000000000 
K           0.347639000000000    0.974131000000000    0.158887000000000 
K           0.626492000000000    0.652361000000000    0.158887000000000 
K           0.626492000000000    0.974131000000000    0.158887000000000 
K           0.666667000000000    0.333333000000000    0.151899000000000 
%ENDBLOCK POSITIONS_FRAC
