# Cell file generated by matador (Matthew Evans 2016)

%BLOCK LATTICE_CART
10.1852 0.0 0.0
0.0 12.9183 0.0
0.0 0.0 9.99579
%ENDBLOCK LATTICE_CART

%BLOCK POSITIONS_FRAC
P           0.000000000000000    0.000000000000000    0.209643000000000 
P           0.000000000000000    0.000000000000000    0.814102000000000 
P           0.000000000000000    0.500000000000000    0.314102000000000 
P           0.000000000000000    0.500000000000000    0.709643000000000 
P           0.500000000000000    0.000000000000000    0.314102000000000 
P           0.500000000000000    0.000000000000000    0.709643000000000 
P           0.500000000000000    0.500000000000000    0.209643000000000 
P           0.500000000000000    0.500000000000000    0.814102000000000 
K           0.000000000000000    0.128340000000000    0.063563000000000 
K           0.000000000000000    0.236032000000000    0.802148000000000 
K           0.000000000000000    0.263968000000000    0.302148000000000 
K           0.000000000000000    0.371660000000000    0.563563000000000 
K           0.000000000000000    0.628340000000000    0.563563000000000 
K           0.000000000000000    0.736032000000000    0.302148000000000 
K           0.000000000000000    0.763968000000000    0.802148000000000 
K           0.000000000000000    0.871660000000000    0.063563000000000 
K           0.222429000000000    0.000000000000000    0.703416000000000 
K           0.222429000000000    0.500000000000000    0.203416000000000 
K           0.277571000000000    0.000000000000000    0.203416000000000 
K           0.277571000000000    0.500000000000000    0.703416000000000 
K           0.500000000000000    0.128340000000000    0.563563000000000 
K           0.500000000000000    0.236032000000000    0.302148000000000 
K           0.500000000000000    0.263968000000000    0.802148000000000 
K           0.500000000000000    0.371660000000000    0.063563000000000 
K           0.500000000000000    0.628340000000000    0.063563000000000 
K           0.500000000000000    0.736032000000000    0.802148000000000 
K           0.500000000000000    0.763968000000000    0.302148000000000 
K           0.500000000000000    0.871660000000000    0.563563000000000 
K           0.722429000000000    0.000000000000000    0.203416000000000 
K           0.722429000000000    0.500000000000000    0.703416000000000 
K           0.777571000000000    0.000000000000000    0.703416000000000 
K           0.777571000000000    0.500000000000000    0.203416000000000 
%ENDBLOCK POSITIONS_FRAC
