# Cell file generated by matador (Matthew Evans 2016)

%BLOCK LATTICE_CART
7.62951 -0.0 0.0
-3.81476 6.60735 0.0
0.0 0.0 8.96395
%ENDBLOCK LATTICE_CART

%BLOCK POSITIONS_FRAC
P           0.104163000000000    0.417034000000000    0.000000000000000 
P           0.149593000000000    0.802687000000000    0.500000000000000 
P           0.197313000000000    0.346906000000000    0.500000000000000 
P           0.312871000000000    0.895837000000000    0.000000000000000 
P           0.333333000000000    0.666667000000000    0.000000000000000 
P           0.346906000000000    0.149593000000000    0.500000000000000 
P           0.417034000000000    0.312871000000000    0.000000000000000 
P           0.582966000000000    0.687129000000000    0.000000000000000 
P           0.653094000000000    0.850407000000000    0.500000000000000 
P           0.666667000000000    0.333333000000000    0.000000000000000 
P           0.687129000000000    0.104163000000000    0.000000000000000 
P           0.802687000000000    0.653094000000000    0.500000000000000 
P           0.850407000000000    0.197313000000000    0.500000000000000 
P           0.895837000000000    0.582966000000000    0.000000000000000 
K           0.000000000000000    0.000000000000000    0.500000000000000 
K           0.000000000000000    0.500000000000000    0.500000000000000 
K           0.500000000000000    0.000000000000000    0.500000000000000 
K           0.500000000000000    0.500000000000000    0.500000000000000 
%ENDBLOCK POSITIONS_FRAC
