# Cell file generated by matador (Matthew Evans 2016)

%BLOCK LATTICE_CART
7.93615 0.0 0.0
0.837997 6.6422 0.0
4.39817 3.04293 7.44072
%ENDBLOCK LATTICE_CART

%BLOCK POSITIONS_FRAC
P           0.225347000000000    0.836329000000000    0.010697000000000 
P           0.418284000000000    0.065277000000000    0.723562000000000 
P           0.500000000000000    0.000000000000000    0.000000000000000 
P           0.581716000000000    0.934723000000000    0.276438000000000 
P           0.774653000000000    0.163671000000000    0.989303000000000 
K           0.000000000000000    0.000000000000000    0.000000000000000 
K           0.000000000000000    0.000000000000000    0.500000000000000 
K           0.000000000000000    0.500000000000000    0.000000000000000 
K           0.000000000000000    0.500000000000000    0.500000000000000 
K           0.500000000000000    0.000000000000000    0.500000000000000 
K           0.500000000000000    0.500000000000000    0.000000000000000 
K           0.500000000000000    0.500000000000000    0.500000000000000 
%ENDBLOCK POSITIONS_FRAC
