# Cell file generated by matador (Matthew Evans 2016)

%BLOCK LATTICE_CART
7.20794 0.0 0.0
-3.60397 6.24226 0.0
0.0 0.0 9.93683
%ENDBLOCK LATTICE_CART

%BLOCK POSITIONS_FRAC
P           0.000000000000000    0.384246000000000    0.666667000000000 
P           0.129002000000000    0.376327000000000    0.431784000000000 
P           0.247326000000000    0.870998000000000    0.098451000000000 
P           0.282926000000000    0.711613000000000    0.754792000000000 
P           0.288387000000000    0.571313000000000    0.088126000000000 
P           0.376327000000000    0.129002000000000    0.568217000000000 
P           0.384246000000000    0.000000000000000    0.333334000000000 
P           0.428687000000000    0.717074000000000    0.421459000000000 
P           0.571313000000000    0.288387000000000    0.911875000000000 
P           0.615754000000000    0.615754000000000    0.000000000000000 
P           0.623673000000000    0.752674000000000    0.765117000000000 
P           0.711613000000000    0.282926000000000    0.245208000000000 
P           0.717074000000000    0.428687000000000    0.578542000000000 
P           0.752674000000000    0.623673000000000    0.234883000000000 
P           0.870998000000000    0.247326000000000    0.901550000000000 
K           0.000000000000000    0.766484000000000    0.666667000000000 
K           0.233516000000000    0.233516000000000    0.000000000000000 
K           0.766484000000000    0.000000000000000    0.333334000000000 
%ENDBLOCK POSITIONS_FRAC
