# Cell file generated by matador (Matthew Evans 2016)

%BLOCK LATTICE_CART
7.46692 0.0 0.0
-3.73346 6.46654 0.0
0.0 0.0 9.53509
%ENDBLOCK LATTICE_CART

%BLOCK POSITIONS_FRAC
P           0.000000000000000    0.500000000000000    0.000000000000000 
P           0.333333000000000    0.666667000000000    0.290406000000000 
P           0.333333000000000    0.666667000000000    0.709594000000000 
P           0.500000000000000    0.000000000000000    0.000000000000000 
P           0.500000000000000    0.500000000000000    0.000000000000000 
P           0.666667000000000    0.333333000000000    0.290406000000000 
P           0.666667000000000    0.333333000000000    0.709594000000000 
K           0.000000000000000    0.000000000000000    0.000000000000000 
K           0.000000000000000    0.000000000000000    0.500000000000000 
K           0.000000000000000    0.500000000000000    0.500000000000000 
K           0.500000000000000    0.000000000000000    0.500000000000000 
K           0.500000000000000    0.500000000000000    0.500000000000000 
%ENDBLOCK POSITIONS_FRAC
