# Cell file generated by matador (Matthew Evans 2016)

%BLOCK LATTICE_CART
5.04637 0.0 0.0
-2.52319 4.37029 0.0
0.0 0.0 5.07684
%ENDBLOCK LATTICE_CART

%BLOCK POSITIONS_FRAC
P           0.000000000000000    0.000000000000000    0.500000000000000 
K           0.333333000000000    0.666667000000000    0.615519000000000 
K           0.666667000000000    0.333333000000000    0.384481000000000 
%ENDBLOCK POSITIONS_FRAC
