# Cell file generated by matador (Matthew Evans 2016)

%BLOCK LATTICE_CART
10.0594 0.0 0.0
0.0 10.0594 0.0
0.0 0.0 9.79246
%ENDBLOCK LATTICE_CART

%BLOCK POSITIONS_FRAC
P           0.000000000000000    0.000000000000000    0.000000000000000 
P           0.000000000000000    0.000000000000000    0.500000000000000 
P           0.000000000000000    0.500000000000000    0.750000000000000 
P           0.500000000000000    0.000000000000000    0.250000000000000 
P           0.500000000000000    0.500000000000000    0.000000000000000 
P           0.500000000000000    0.500000000000000    0.500000000000000 
K           0.000000000000000    0.202905000000000    0.223287000000000 
K           0.000000000000000    0.274422000000000    0.594428000000000 
K           0.000000000000000    0.500000000000000    0.250000000000000 
K           0.000000000000000    0.725578000000000    0.594428000000000 
K           0.000000000000000    0.797095000000000    0.223287000000000 
K           0.202905000000000    0.000000000000000    0.776713000000000 
K           0.225578000000000    0.500000000000000    0.905572000000000 
K           0.274422000000000    0.000000000000000    0.405572000000000 
K           0.297095000000000    0.500000000000000    0.276713000000000 
K           0.500000000000000    0.000000000000000    0.750000000000000 
K           0.500000000000000    0.225578000000000    0.094428000000000 
K           0.500000000000000    0.297095000000000    0.723287000000000 
K           0.500000000000000    0.702905000000000    0.723287000000000 
K           0.500000000000000    0.774422000000000    0.094428000000000 
K           0.702905000000000    0.500000000000000    0.276713000000000 
K           0.725578000000000    0.000000000000000    0.405572000000000 
K           0.774422000000000    0.500000000000000    0.905572000000000 
K           0.797095000000000    0.000000000000000    0.776713000000000 
%ENDBLOCK POSITIONS_FRAC
