# Cell file generated by matador (Matthew Evans 2016)

%BLOCK LATTICE_CART
5.87774 0.0 0.0
-2.93887 5.09027 0.0
0.0 0.0 5.29968
%ENDBLOCK LATTICE_CART

%BLOCK POSITIONS_FRAC
P           0.666667000000000    0.333333000000000    0.500000000000000 
K           0.000000000000000   -0.000000000000000    0.500000000000000 
K           0.333334000000000    0.666666000000000    0.000000000000000 
K           0.666667000000000    0.333333000000000    0.000000000000000 
%ENDBLOCK POSITIONS_FRAC
