# Cell file generated by matador (Matthew Evans 2016)

%BLOCK LATTICE_CART
8.01457 0.0 0.0
-4.00728 6.94082 0.0
0.0 0.0 8.59546
%ENDBLOCK LATTICE_CART

%BLOCK POSITIONS_FRAC
P           0.000000000000000    0.000000000000000    0.035935000000000 
P           0.333333000000000    0.666667000000000    0.702602000000000 
P           0.666667000000000    0.333333000000000    0.369269000000000 
K           0.060475000000000    0.530238000000000    0.264380000000000 
K           0.136429000000000    0.272858000000000    0.597714000000000 
K           0.136429000000000    0.863571000000000    0.597714000000000 
K           0.393809000000000    0.196904000000000    0.931047000000000 
K           0.469762000000000    0.530238000000000    0.264380000000000 
K           0.469762000000000    0.939525000000000    0.264380000000000 
K           0.727142000000000    0.863571000000000    0.597714000000000 
K           0.803096000000000    0.196904000000000    0.931047000000000 
K           0.803096000000000    0.606191000000000    0.931047000000000 
%ENDBLOCK POSITIONS_FRAC
