# Cell file generated by matador (Matthew Evans 2016)

%BLOCK LATTICE_CART
8.52646 0.0 0.0
-4.26323 7.38413 0.0
0.0 0.0 6.94296
%ENDBLOCK LATTICE_CART

%BLOCK POSITIONS_FRAC
P           0.000000000000000    0.000000000000000    0.000000000000000 
P           0.000000000000000    0.000000000000000    0.500000000000000 
P           0.333333000000000    0.666667000000000    0.000000000000000 
P           0.333333000000000    0.666667000000000    0.211938000000000 
P           0.333333000000000    0.666667000000000    0.788062000000000 
P           0.666667000000000    0.333333000000000    0.000000000000000 
K           0.233594000000000    0.039931000000000    0.191122000000000 
K           0.233594000000000    0.039931000000000    0.808878000000000 
K           0.333333000000000    0.666667000000000    0.500000000000000 
K           0.666667000000000    0.333333000000000    0.500000000000000 
K           0.806337000000000    0.766406000000000    0.191122000000000 
K           0.806337000000000    0.766406000000000    0.808878000000000 
K           0.960069000000000    0.193663000000000    0.191122000000000 
K           0.960069000000000    0.193663000000000    0.808878000000000 
%ENDBLOCK POSITIONS_FRAC
