# Cell file generated by matador (Matthew Evans 2016)

%BLOCK LATTICE_CART
4.01503 0.0 0.0
-2.00751 3.47712 0.0
0.0 0.0 6.52628
%ENDBLOCK LATTICE_CART

%BLOCK POSITIONS_FRAC
P           0.120711000000000    0.758963000000000    0.107292000000000 
P           0.241037000000000    0.361748000000000    0.107292000000000 
P           0.638252000000000    0.879289000000000    0.107292000000000 
K           0.000000000000000    0.000000000000000    0.623369000000000 
%ENDBLOCK POSITIONS_FRAC
