# Cell file generated by matador (Matthew Evans 2016)

%BLOCK LATTICE_CART
9.00264 0.0 0.0
0.0 9.00264 0.0
0.0 0.0 5.6709
%ENDBLOCK LATTICE_CART

%BLOCK POSITIONS_FRAC
P           0.157089000000000    0.342911000000000    0.250000000000000 
P           0.342911000000000    0.842911000000000    0.750000000000000 
P           0.657089000000000    0.157089000000000    0.750000000000000 
P           0.842911000000000    0.657089000000000    0.250000000000000 
K           0.000000000000000    0.000000000000000    0.000000000000000 
K           0.000000000000000    0.000000000000000    0.500000000000000 
K           0.000000000000000    0.500000000000000    0.250000000000000 
K           0.000000000000000    0.500000000000000    0.750000000000000 
K           0.500000000000000    0.000000000000000    0.250000000000000 
K           0.500000000000000    0.000000000000000    0.750000000000000 
K           0.500000000000000    0.500000000000000    0.000000000000000 
K           0.500000000000000    0.500000000000000    0.500000000000000 
%ENDBLOCK POSITIONS_FRAC
