# Cell file generated by matador (Matthew Evans 2016)

%BLOCK LATTICE_CART
8.48785 0.0 0.0
-4.24393 7.3507 0.0
0.0 0.0 5.73496
%ENDBLOCK LATTICE_CART

%BLOCK POSITIONS_FRAC
P           0.000000000000000    0.270786000000000    0.500000000000000 
P           0.000000000000000    0.729214000000000    0.500000000000000 
P           0.270786000000000    0.000000000000000    0.500000000000000 
P           0.270786000000000    0.270786000000000    0.500000000000000 
P           0.729214000000000    0.000000000000000    0.500000000000000 
P           0.729214000000000    0.729214000000000    0.500000000000000 
K           0.000000000000000    0.000000000000000    0.500000000000000 
K           0.204739000000000    0.409478000000000    0.930958000000000 
K           0.204739000000000    0.795261000000000    0.930958000000000 
K           0.409478000000000    0.204739000000000    0.069042000000000 
K           0.590522000000000    0.795261000000000    0.930958000000000 
K           0.795261000000000    0.204739000000000    0.069042000000000 
K           0.795261000000000    0.590522000000000    0.069042000000000 
%ENDBLOCK POSITIONS_FRAC
