# Cell file generated by matador (Matthew Evans 2016)

%BLOCK LATTICE_CART
7.0358 0.0 0.0
0.0 6.0882 0.0
0.0 0.0 6.5877
%ENDBLOCK LATTICE_CART

%BLOCK POSITIONS_FRAC
P           0.000000000000000    0.500000000000000    0.000000000000000 
P           0.000000000000000    0.500000000000000    0.500000000000000 
P           0.500000000000000    0.000000000000000    0.000000000000000 
P           0.500000000000000    0.500000000000000    0.500000000000000 
K           0.302025000000000    0.226730000000000    0.703083000000000 
K           0.302025000000000    0.773270000000000    0.296917000000000 
K           0.697975000000000    0.226730000000000    0.296917000000000 
K           0.697975000000000    0.773270000000000    0.703083000000000 
%ENDBLOCK POSITIONS_FRAC
