# Cell file generated by matador (Matthew Evans 2016)

%BLOCK LATTICE_CART
5.88899 0.0 0.0
-2.94449 5.10001 0.0
0.0 0.0 4.85352
%ENDBLOCK LATTICE_CART

%BLOCK POSITIONS_FRAC
P           0.116634000000000    0.736076000000000    0.905570000000000 
P           0.263924000000000    0.380558000000000    0.905570000000000 
P           0.619442000000000    0.883366000000000    0.905570000000000 
P           0.666666000000000    0.333334000000000    0.367953000000000 
P           0.666666000000000    0.333334000000000    0.866072000000000 
K           0.333333000000000    0.666667000000000    0.527412000000000 
%ENDBLOCK POSITIONS_FRAC
