# Cell file generated by matador (Matthew Evans 2016)

%BLOCK LATTICE_CART
4.21915 0.0 0.0
0.0 6.80203 0.0
0.0 0.0 10.2676
%ENDBLOCK LATTICE_CART

%BLOCK POSITIONS_FRAC
P           0.000000000000000    0.000000000000000    0.000000000000000 
P           0.141641000000000    0.500000000000000    0.500000000000000 
P           0.280519000000000    0.000000000000000    0.000000000000000 
P           0.719481000000000    0.000000000000000    0.000000000000000 
P           0.858359000000000    0.500000000000000    0.500000000000000 
K           0.358333000000000    0.169036000000000    0.798999000000000 
K           0.358333000000000    0.830964000000000    0.201001000000000 
K           0.641667000000000    0.169036000000000    0.201001000000000 
K           0.641667000000000    0.830964000000000    0.798999000000000 
%ENDBLOCK POSITIONS_FRAC
