# Cell file generated by matador (Matthew Evans 2016)

%BLOCK LATTICE_CART
7.95663 0.0 0.0
0.0 7.21971 0.0
0.0 0.0 6.09188
%ENDBLOCK LATTICE_CART

%BLOCK POSITIONS_FRAC
P           0.020351000000000    0.000000000000000    0.000000000000000 
P           0.979649000000000    0.000000000000000    0.500000000000000 
K           0.000000000000000    0.272302000000000    0.250000000000000 
K           0.000000000000000    0.727698000000000    0.750000000000000 
K           0.293585000000000    0.500000000000000    0.000000000000000 
K           0.500000000000000    0.056264000000000    0.750000000000000 
K           0.500000000000000    0.943736000000000    0.250000000000000 
K           0.706415000000000    0.500000000000000    0.500000000000000 
%ENDBLOCK POSITIONS_FRAC
