# Cell file generated by matador (Matthew Evans 2016)

%BLOCK LATTICE_CART
8.55819 0.0 0.0
-4.2791 7.41161 0.0
0.0 0.0 6.28069
%ENDBLOCK LATTICE_CART

%BLOCK POSITIONS_FRAC
P           0.000000000000000   -0.000000000000000    0.528289000000000 
P           0.000000000000000   -0.000000000000000    0.757976000000000 
P           0.333334000000000    0.666666000000000    0.166934000000000 
P           0.333334000000000    0.666666000000000    0.791981000000000 
P           0.333334000000000    0.666666000000000    0.973675000000000 
P           0.666667000000000    0.333333000000000    0.017031000000000 
P           0.666667000000000    0.333333000000000    0.255438000000000 
P           0.666667000000000    0.333333000000000    0.817751000000000 
K           0.065949000000000    0.180135000000000    0.199853000000000 
K           0.114187000000000    0.934051000000000    0.199853000000000 
K           0.442605000000000    0.431269000000000    0.848582000000000 
K           0.568731000000000    0.011336000000000    0.848582000000000 
K           0.819865000000000    0.885813000000000    0.199853000000000 
K           0.988664000000000    0.557395000000000    0.848582000000000 
%ENDBLOCK POSITIONS_FRAC
