# Cell file generated by matador (Matthew Evans 2016)

%BLOCK LATTICE_CART
7.91287 0.0 0.0
-3.95643 6.85274 0.0
0.0 0.0 9.0168
%ENDBLOCK LATTICE_CART

%BLOCK POSITIONS_FRAC
P           0.000000000000000    0.000000000000000    0.391669000000000 
P           0.000000000000000    0.000000000000000    0.824517000000000 
P           0.139068000000000    0.278135000000000    0.296800000000000 
P           0.139068000000000    0.860932000000000    0.296800000000000 
P           0.330518000000000    0.053123000000000    0.663417000000000 
P           0.330518000000000    0.277394000000000    0.663417000000000 
P           0.333333000000000    0.666667000000000    0.126872000000000 
P           0.333333000000000    0.666667000000000    0.400494000000000 
P           0.666667000000000    0.333333000000000    0.333259000000000 
P           0.666667000000000    0.333333000000000    0.477518000000000 
P           0.721865000000000    0.860932000000000    0.296800000000000 
P           0.722606000000000    0.053123000000000    0.663417000000000 
P           0.722606000000000    0.669482000000000    0.663417000000000 
P           0.946877000000000    0.277394000000000    0.663417000000000 
P           0.946877000000000    0.669482000000000    0.663417000000000 
K           0.483768000000000    0.241884000000000    0.984067000000000 
K           0.758116000000000    0.241884000000000    0.984067000000000 
K           0.758116000000000    0.516232000000000    0.984067000000000 
%ENDBLOCK POSITIONS_FRAC
