# Cell file generated by matador (Matthew Evans 2016)

%BLOCK LATTICE_CART
7.65273 0.0 0.0
0.0 7.65273 0.0
0.0 0.0 11.4294
%ENDBLOCK LATTICE_CART

%BLOCK POSITIONS_FRAC
P          -0.000000000000000   -0.000000000000000    0.210220000000000 
P          -0.000000000000000   -0.000000000000000    0.581040000000000 
P           0.500000000000000    0.500000000000000    0.081040000000000 
P           0.500000000000000    0.500000000000000    0.710220000000000 
K           0.177180000000000    0.177180000000000    0.865767000000000 
K           0.197331000000000    0.802669000000000    0.769973000000000 
K           0.221179000000000    0.221179000000000    0.545658000000000 
K           0.278821000000000    0.721179000000000    0.045658000000000 
K           0.302669000000000    0.302669000000000    0.269973000000000 
K           0.322820000000000    0.677180000000000    0.365767000000000 
K           0.677180000000000    0.322820000000000    0.365767000000000 
K           0.697331000000000    0.697331000000000    0.269973000000000 
K           0.721179000000000    0.278821000000000    0.045658000000000 
K           0.778821000000000    0.778821000000000    0.545658000000000 
K           0.802669000000000    0.197331000000000    0.769973000000000 
K           0.822820000000000    0.822820000000000    0.865767000000000 
%ENDBLOCK POSITIONS_FRAC
