# Cell file generated by matador (Matthew Evans 2016)

%BLOCK LATTICE_CART
5.10033 0.0 0.0
-2.55016 4.41701 0.0
0.0 0.0 6.1498
%ENDBLOCK LATTICE_CART

%BLOCK POSITIONS_FRAC
P          -0.000000000000000    0.500000000000000    0.000000000000000 
P           0.500000000000000    0.000000000000000    0.000000000000000 
P           0.500000000000000    0.500000000000000    0.000000000000000 
K           0.333333000000000    0.666667000000000    0.475955000000000 
K           0.666666000000000    0.333334000000000    0.524045000000000 
%ENDBLOCK POSITIONS_FRAC
