# Cell file generated by matador (Matthew Evans 2016)

%BLOCK LATTICE_CART
7.65809 0.0 0.0
-3.82904 6.6321 0.0
0.0 0.0 8.1604
%ENDBLOCK LATTICE_CART

%BLOCK POSITIONS_FRAC
P           0.000000000000000    0.000000000000000    0.339568000000000 
P           0.333333000000000    0.666667000000000    0.909394000000000 
P           0.666667000000000    0.333333000000000    0.909394000000000 
K           0.000000000000000    0.000000000000000    0.090490000000000 
K           0.000000000000000    0.332776000000000    0.902548000000000 
K           0.000000000000000    0.667224000000000    0.902548000000000 
K           0.332776000000000    0.000000000000000    0.902548000000000 
K           0.332776000000000    0.332776000000000    0.902548000000000 
K           0.333333000000000    0.666667000000000    0.269990000000000 
K           0.666667000000000    0.333333000000000    0.269990000000000 
K           0.667224000000000    0.000000000000000    0.902548000000000 
K           0.667224000000000    0.667224000000000    0.902548000000000 
%ENDBLOCK POSITIONS_FRAC
