# Cell file generated by matador (Matthew Evans 2016)

%BLOCK LATTICE_CART
5.21818 0.0 0.0
0.0 6.55112 0.0
0.0 0.0 5.77714
%ENDBLOCK LATTICE_CART

%BLOCK POSITIONS_FRAC
P           0.500000000000000    0.000000000000000    0.405769000000000 
P           0.500000000000000    0.000000000000000    0.594231000000000 
K           0.251531000000000    0.328577000000000    0.500000000000000 
K           0.251531000000000    0.671423000000000    0.500000000000000 
K           0.748469000000000    0.328577000000000    0.500000000000000 
K           0.748469000000000    0.671423000000000    0.500000000000000 
%ENDBLOCK POSITIONS_FRAC
