# Cell file generated by matador (Matthew Evans 2016)

%BLOCK LATTICE_CART
5.75804 0.0 0.0
-2.87902 4.98661 0.0
0.0 0.0 6.76916
%ENDBLOCK LATTICE_CART

%BLOCK POSITIONS_FRAC
P          -0.000000000000000    0.000000000000000    0.752868000000000 
P          -0.000000000000000    0.506717000000000    0.818814000000000 
P          -0.000000000000000    0.839974000000000    0.333402000000000 
P           0.160026000000000    0.160026000000000    0.333402000000000 
P           0.493283000000000    0.493283000000000    0.818814000000000 
P           0.506717000000000    0.000000000000000    0.818814000000000 
P           0.839974000000000    0.000000000000000    0.333402000000000 
K           0.333333000000000    0.666667000000000    0.115086000000000 
K           0.666666000000000    0.333334000000000    0.115086000000000 
%ENDBLOCK POSITIONS_FRAC
