# Cell file generated by matador (Matthew Evans 2016)

%BLOCK LATTICE_CART
7.25522 0.0 0.0
0.0 9.17691 0.0
0.0 0.0 9.50118
%ENDBLOCK LATTICE_CART

%BLOCK POSITIONS_FRAC
P           0.000000000000000    0.250000000000000    0.184820000000000 
P           0.000000000000000    0.750000000000000    0.815180000000000 
P           0.500000000000000    0.250000000000000    0.815180000000000 
P           0.500000000000000    0.750000000000000    0.184820000000000 
K           0.228533000000000    0.250000000000000    0.324531000000000 
K           0.228533000000000    0.750000000000000    0.675469000000000 
K           0.250000000000000    0.250000000000000    0.000000000000000 
K           0.250000000000000    0.750000000000000    0.000000000000000 
K           0.271467000000000    0.250000000000000    0.675469000000000 
K           0.271467000000000    0.750000000000000    0.324531000000000 
K           0.728533000000000    0.250000000000000    0.675469000000000 
K           0.728533000000000    0.750000000000000    0.324531000000000 
K           0.750000000000000    0.250000000000000    0.000000000000000 
K           0.750000000000000    0.750000000000000    0.000000000000000 
K           0.771467000000000    0.250000000000000    0.324531000000000 
K           0.771467000000000    0.750000000000000    0.675469000000000 
%ENDBLOCK POSITIONS_FRAC
