# Cell file generated by matador (Matthew Evans 2016)

%BLOCK LATTICE_CART
3.53656 0.0 0.0
0.0 10.8038 0.0
0.0 0.0 8.146
%ENDBLOCK LATTICE_CART

%BLOCK POSITIONS_FRAC
P           0.000000000000000    0.251351000000000    0.000000000000000 
P           0.000000000000000    0.346097000000000    0.000000000000000 
P           0.000000000000000    0.653903000000000    0.000000000000000 
P           0.000000000000000    0.748649000000000    0.000000000000000 
P           0.500000000000000    0.000000000000000    0.500000000000000 
K           0.442253000000000    0.302021000000000    0.660975000000000 
K           0.442253000000000    0.697979000000000    0.339025000000000 
K           0.557747000000000    0.302021000000000    0.339025000000000 
K           0.557747000000000    0.697979000000000    0.660975000000000 
%ENDBLOCK POSITIONS_FRAC
