# Cell file generated by matador (Matthew Evans 2016)

%BLOCK LATTICE_CART
8.6816 0.0 0.0
-4.3408 7.51849 0.0
0.0 0.0 6.79744
%ENDBLOCK LATTICE_CART

%BLOCK POSITIONS_FRAC
P           0.000000000000000    0.000000000000000    0.234240000000000 
P           0.333333000000000    0.666667000000000    0.900906000000000 
P           0.666667000000000    0.333333000000000    0.567573000000000 
K           0.182206000000000    0.364412000000000    0.063506000000000 
K           0.182206000000000    0.817794000000000    0.063506000000000 
K           0.302255000000000    0.151128000000000    0.396839000000000 
K           0.515539000000000    0.031078000000000    0.730173000000000 
K           0.515539000000000    0.484461000000000    0.730173000000000 
K           0.635588000000000    0.817794000000000    0.063506000000000 
K           0.848872000000000    0.151128000000000    0.396839000000000 
K           0.848872000000000    0.697745000000000    0.396839000000000 
K           0.968922000000000    0.484461000000000    0.730173000000000 
%ENDBLOCK POSITIONS_FRAC
