# Cell file generated by matador (Matthew Evans 2016)

%BLOCK LATTICE_CART
5.71005 0.0 0.0
0.0 5.2943 0.0
-3.24815 0.0 7.34264
%ENDBLOCK LATTICE_CART

%BLOCK POSITIONS_FRAC
P           0.081817000000000    0.185331000000000    0.273904000000000 
P           0.081817000000000    0.814669000000000    0.773904000000000 
P           0.086471000000000    0.473574000000000    0.055149000000000 
P           0.086471000000000    0.526426000000000    0.555149000000000 
P           0.186053000000000    0.414620000000000    0.417275000000000 
P           0.186053000000000    0.585380000000000    0.917275000000000 
P           0.280624000000000    0.429435000000000    0.986027000000000 
P           0.280624000000000    0.570565000000000    0.486027000000000 
P           0.916286000000000    0.166737000000000    0.638086000000000 
P           0.916286000000000    0.833263000000000    0.138086000000000 
K           0.713051000000000    0.412397000000000    0.761856000000000 
K           0.713051000000000    0.587603000000000    0.261856000000000 
%ENDBLOCK POSITIONS_FRAC
