# Cell file generated by matador (Matthew Evans 2016)

%BLOCK LATTICE_CART
8.63288 0.0 0.0
-4.31644 7.4763 0.0
0.0 0.0 13.2501
%ENDBLOCK LATTICE_CART

%BLOCK POSITIONS_FRAC
P           0.000000000000000    0.000000000000000    0.065455000000000 
P           0.000000000000000    0.406716000000000    0.638498000000000 
P           0.333333000000000    0.666667000000000    0.156997000000000 
P           0.406716000000000    0.000000000000000    0.638498000000000 
P           0.593284000000000    0.593284000000000    0.638498000000000 
P           0.666667000000000    0.333333000000000    0.156997000000000 
K           0.000000000000000    0.000000000000000    0.248426000000000 
K           0.000000000000000    0.254117000000000    0.076108000000000 
K           0.000000000000000    0.407242000000000    0.398336000000000 
K           0.000000000000000    0.643580000000000    0.173536000000000 
K           0.000000000000000    0.772913000000000    0.746986000000000 
K           0.000000000000000    0.795521000000000    0.483453000000000 
K           0.204479000000000    0.204479000000000    0.483453000000000 
K           0.227087000000000    0.227087000000000    0.746986000000000 
K           0.254117000000000    0.000000000000000    0.076108000000000 
K           0.333333000000000    0.666667000000000    0.997845000000000 
K           0.356420000000000    0.356420000000000    0.173536000000000 
K           0.407242000000000    0.000000000000000    0.398336000000000 
K           0.592758000000000    0.592758000000000    0.398336000000000 
K           0.643580000000000    0.000000000000000    0.173536000000000 
K           0.666667000000000    0.333333000000000    0.997845000000000 
K           0.745883000000000    0.745883000000000    0.076108000000000 
K           0.772913000000000    0.000000000000000    0.746986000000000 
K           0.795521000000000    0.000000000000000    0.483453000000000 
%ENDBLOCK POSITIONS_FRAC
