# Cell file generated by matador (Matthew Evans 2016)

%BLOCK LATTICE_CART
6.40845 0.0 0.0
-3.20422 5.54988 0.0
0.0 0.0 12.1067
%ENDBLOCK LATTICE_CART

%BLOCK POSITIONS_FRAC
P           0.000000000000000    0.000000000000000    0.500000000000000 
P           0.333333000000000    0.666667000000000    0.166667000000000 
P           0.666667000000000    0.333333000000000    0.833333000000000 
K           0.000000000000000    0.500000000000000    0.000000000000000 
K           0.166667000000000    0.333333000000000    0.333333000000000 
K           0.166667000000000    0.833333000000000    0.333333000000000 
K           0.333333000000000    0.166667000000000    0.666667000000000 
K           0.500000000000000    0.000000000000000    0.000000000000000 
K           0.500000000000000    0.500000000000000    0.000000000000000 
K           0.666667000000000    0.833333000000000    0.333333000000000 
K           0.833333000000000    0.166667000000000    0.666667000000000 
K           0.833333000000000    0.666667000000000    0.666667000000000 
%ENDBLOCK POSITIONS_FRAC
