# Cell file generated by matador (Matthew Evans 2016)

%BLOCK LATTICE_CART
7.16569 0.0 0.0
0.0 7.16569 0.0
0.0 0.0 7.36359
%ENDBLOCK LATTICE_CART

%BLOCK POSITIONS_FRAC
P           0.000000000000000    0.000000000000000    0.500000000000000 
P           0.063580000000000    0.316386000000000    0.351867000000000 
P           0.183614000000000    0.436420000000000    0.851867000000000 
P           0.316386000000000    0.936420000000000    0.648133000000000 
P           0.436420000000000    0.816386000000000    0.148133000000000 
P           0.500000000000000    0.500000000000000    0.000000000000000 
P           0.563580000000000    0.183614000000000    0.148133000000000 
P           0.683614000000000    0.063580000000000    0.648133000000000 
P           0.816386000000000    0.563580000000000    0.851867000000000 
P           0.936420000000000    0.683614000000000    0.351867000000000 
K           0.000000000000000    0.000000000000000    0.000000000000000 
K           0.500000000000000    0.500000000000000    0.500000000000000 
%ENDBLOCK POSITIONS_FRAC
