# Cell file generated by matador (Matthew Evans 2016)

%BLOCK LATTICE_CART
9.23081 0.0 0.0
0.0 10.247 0.0
0.0 0.0 9.50687
%ENDBLOCK LATTICE_CART

%BLOCK POSITIONS_FRAC
P           0.000000000000000    0.177669000000000    0.167597000000000 
P           0.000000000000000    0.448240000000000    0.583112000000000 
P           0.000000000000000    0.551760000000000    0.083112000000000 
P           0.000000000000000    0.822331000000000    0.667597000000000 
P           0.500000000000000    0.084915000000000    0.948130000000000 
P           0.500000000000000    0.915085000000000    0.448130000000000 
K           0.000000000000000    0.027382000000000    0.734285000000000 
K           0.000000000000000    0.157390000000000    0.464777000000000 
K           0.000000000000000    0.316373000000000    0.737656000000000 
K           0.000000000000000    0.346637000000000    0.069705000000000 
K           0.000000000000000    0.427007000000000    0.371420000000000 
K           0.000000000000000    0.572993000000000    0.871420000000000 
K           0.000000000000000    0.653363000000000    0.569705000000000 
K           0.000000000000000    0.683627000000000    0.237656000000000 
K           0.000000000000000    0.842610000000000    0.964777000000000 
K           0.000000000000000    0.972618000000000    0.234285000000000 
K           0.500000000000000    0.069477000000000    0.319426000000000 
K           0.500000000000000    0.232986000000000    0.653557000000000 
K           0.500000000000000    0.245687000000000    0.067427000000000 
K           0.500000000000000    0.474383000000000    0.474995000000000 
K           0.500000000000000    0.525617000000000    0.974995000000000 
K           0.500000000000000    0.754313000000000    0.567427000000000 
K           0.500000000000000    0.767014000000000    0.153557000000000 
K           0.500000000000000    0.930523000000000    0.819426000000000 
%ENDBLOCK POSITIONS_FRAC
