# Cell file generated by matador (Matthew Evans 2016)

%BLOCK LATTICE_CART
8.30089 -0.0 0.0
-4.15044 7.18878 0.0
0.0 0.0 7.56525
%ENDBLOCK LATTICE_CART

%BLOCK POSITIONS_FRAC
P           0.000000000000000    0.500000000000000    0.000000000000000 
P           0.500000000000000    0.000000000000000    0.000000000000000 
P           0.500000000000000    0.500000000000000    0.000000000000000 
K           0.000000000000000    0.500000000000000    0.500000000000000 
K           0.184554000000000    0.766541000000000    0.000000000000000 
K           0.233459000000000    0.418014000000000    0.000000000000000 
K           0.418014000000000    0.184554000000000    0.000000000000000 
K           0.500000000000000    0.000000000000000    0.500000000000000 
K           0.500000000000000    0.500000000000000    0.500000000000000 
K           0.581986000000000    0.815446000000000    0.000000000000000 
K           0.766541000000000    0.581986000000000    0.000000000000000 
K           0.815446000000000    0.233459000000000    0.000000000000000 
%ENDBLOCK POSITIONS_FRAC
