# Cell file generated by matador (Matthew Evans 2016)

%BLOCK LATTICE_CART
7.27181 0.0 0.0
0.0 7.27181 0.0
0.0 0.0 7.08708
%ENDBLOCK LATTICE_CART

%BLOCK POSITIONS_FRAC
P           0.500000000000000    0.500000000000000    0.000000000000000 
P           0.500000000000000    0.500000000000000    0.250000000000000 
P           0.500000000000000    0.500000000000000    0.500000000000000 
P           0.500000000000000    0.500000000000000    0.750000000000000 
K           0.000000000000000    0.000000000000000    0.250000000000000 
K           0.000000000000000    0.000000000000000    0.750000000000000 
K           0.211174000000000    0.500000000000000    0.266556000000000 
K           0.211174000000000    0.500000000000000    0.733444000000000 
K           0.500000000000000    0.211174000000000    0.233444000000000 
K           0.500000000000000    0.211174000000000    0.766556000000000 
K           0.500000000000000    0.788826000000000    0.233444000000000 
K           0.500000000000000    0.788826000000000    0.766556000000000 
K           0.788826000000000    0.500000000000000    0.266556000000000 
K           0.788826000000000    0.500000000000000    0.733444000000000 
%ENDBLOCK POSITIONS_FRAC
