# Cell file generated by matador (Matthew Evans 2016)

%BLOCK LATTICE_CART
10.8791 0.0 0.0
0.0 10.9847 0.0
-2.05728 0.0 8.20273
%ENDBLOCK LATTICE_CART

%BLOCK POSITIONS_FRAC
P           0.359667000000000    0.500000000000000    0.355015000000000 
P           0.491345000000000    0.500000000000000    0.767652000000000 
P           0.493924000000000    0.000000000000000    0.500327000000000 
P           0.859667000000000    0.000000000000000    0.355015000000000 
P           0.991345000000000    0.000000000000000    0.767652000000000 
P           0.993924000000000    0.500000000000000    0.500327000000000 
K           0.065099000000000    0.000000000000000    0.464579000000000 
K           0.116617000000000    0.500000000000000    0.731052000000000 
K           0.175605000000000    0.000000000000000    0.868402000000000 
K           0.221348000000000    0.500000000000000    0.090484000000000 
K           0.259670000000000    0.000000000000000    0.269870000000000 
K           0.336236000000000    0.500000000000000    0.582562000000000 
K           0.341091000000000    0.000000000000000    0.631211000000000 
K           0.450977000000000    0.000000000000000    0.082290000000000 
K           0.491207000000000    0.500000000000000    0.090420000000000 
K           0.565099000000000    0.500000000000000    0.464579000000000 
K           0.616617000000000    0.000000000000000    0.731052000000000 
K           0.675605000000000    0.500000000000000    0.868402000000000 
K           0.721348000000000    0.000000000000000    0.090484000000000 
K           0.759670000000000    0.500000000000000    0.269870000000000 
K           0.836236000000000    0.000000000000000    0.582562000000000 
K           0.841091000000000    0.500000000000000    0.631211000000000 
K           0.950977000000000    0.500000000000000    0.082290000000000 
K           0.991207000000000    0.000000000000000    0.090420000000000 
%ENDBLOCK POSITIONS_FRAC
