# Cell file generated by matador (Matthew Evans 2016)

%BLOCK LATTICE_CART
6.89378 0.0 0.0
-3.44689 5.97019 0.0
0.0 0.0 13.9766
%ENDBLOCK LATTICE_CART

%BLOCK POSITIONS_FRAC
P           0.008350000000000    0.504175000000000    0.136362000000000 
P           0.495825000000000    0.504175000000000    0.136362000000000 
P           0.495825000000000    0.991650000000000    0.136362000000000 
P           0.666667000000000    0.333333000000000    0.457389000000000 
K           0.000000000000000    0.000000000000000    0.099372000000000 
K           0.000000000000000    0.000000000000000    0.774734000000000 
K           0.181807000000000    0.363614000000000    0.345106000000000 
K           0.181807000000000    0.818193000000000    0.345106000000000 
K           0.350347000000000    0.175174000000000    0.514563000000000 
K           0.513567000000000    0.027135000000000    0.702181000000000 
K           0.513567000000000    0.486433000000000    0.702181000000000 
K           0.636386000000000    0.818193000000000    0.345106000000000 
K           0.666667000000000    0.333333000000000    0.969230000000000 
K           0.824826000000000    0.175174000000000    0.514563000000000 
K           0.824826000000000    0.649653000000000    0.514563000000000 
K           0.972865000000000    0.486433000000000    0.702181000000000 
%ENDBLOCK POSITIONS_FRAC
