# Cell file generated by matador (Matthew Evans 2016)

%BLOCK LATTICE_CART
8.86419 0.0 0.0
0.0 8.86419 0.0
0.0 0.0 9.56231
%ENDBLOCK LATTICE_CART

%BLOCK POSITIONS_FRAC
P           0.000000000000000    0.000000000000000    0.209155000000000 
P           0.000000000000000    0.000000000000000    0.790845000000000 
P           0.500000000000000    0.500000000000000    0.381472000000000 
P           0.500000000000000    0.500000000000000    0.500000000000000 
P           0.500000000000000    0.500000000000000    0.618528000000000 
K           0.000000000000000    0.000000000000000    0.000000000000000 
K           0.000000000000000    0.000000000000000    0.500000000000000 
K           0.000000000000000    0.500000000000000    0.321704000000000 
K           0.000000000000000    0.500000000000000    0.980782000000000 
K           0.012483000000000    0.756572000000000    0.187829000000000 
K           0.242651000000000    0.455902000000000    0.053658000000000 
K           0.243428000000000    0.012483000000000    0.812171000000000 
K           0.455902000000000    0.757349000000000    0.946342000000000 
K           0.500000000000000    0.000000000000000    0.019218000000000 
K           0.500000000000000    0.000000000000000    0.678296000000000 
K           0.500000000000000    0.500000000000000    0.000000000000000 
K           0.544098000000000    0.242651000000000    0.946342000000000 
K           0.756572000000000    0.987517000000000    0.812171000000000 
K           0.757349000000000    0.544098000000000    0.053658000000000 
K           0.987517000000000    0.243428000000000    0.187829000000000 
%ENDBLOCK POSITIONS_FRAC
