# Cell file generated by matador (Matthew Evans 2016)

%BLOCK LATTICE_CART
10.8639 0.0 0.0
0.0 6.44682 0.0
-2.20765 0.0 8.94394
%ENDBLOCK LATTICE_CART

%BLOCK POSITIONS_FRAC
P           0.528158000000000    0.085503000000000    0.071952000000000 
P           0.528158000000000    0.914497000000000    0.071952000000000 
P           0.539181000000000    0.206600000000000    0.858466000000000 
P           0.539181000000000    0.793400000000000    0.858466000000000 
K           0.104353000000000    0.500000000000000    0.776224000000000 
K           0.183680000000000    0.000000000000000    0.578073000000000 
K           0.224948000000000    0.000000000000000    0.821025000000000 
K           0.303759000000000    0.000000000000000    0.184138000000000 
K           0.462863000000000    0.000000000000000    0.614612000000000 
K           0.681721000000000    0.000000000000000    0.266313000000000 
K           0.728560000000000    0.000000000000000    0.742897000000000 
K           0.765538000000000    0.000000000000000    0.094570000000000 
K           0.822832000000000    0.500000000000000    0.624607000000000 
K           0.915070000000000    0.500000000000000    0.307972000000000 
K           0.945035000000000    0.000000000000000    0.901969000000000 
K           0.986148000000000    0.000000000000000    0.402306000000000 
%ENDBLOCK POSITIONS_FRAC
