# Cell file generated by matador (Matthew Evans 2016)

%BLOCK LATTICE_CART
10.0598 0.0 0.0
-5.02988 8.71201 0.0
0.0 0.0 10.2099
%ENDBLOCK LATTICE_CART

%BLOCK POSITIONS_FRAC
P           0.000000000000000    0.000000000000000    0.101726000000000 
P           0.000000000000000    0.000000000000000    0.543676000000000 
P           0.333333000000000    0.666667000000000    0.210343000000000 
P           0.333333000000000    0.666667000000000    0.768393000000000 
P           0.666667000000000    0.333333000000000    0.435060000000000 
P           0.666667000000000    0.333333000000000    0.877009000000000 
K           0.025327000000000    0.512663000000000    0.268302000000000 
K           0.041804000000000    0.520902000000000    0.826754000000000 
K           0.145765000000000    0.291529000000000    0.160087000000000 
K           0.145765000000000    0.854235000000000    0.160087000000000 
K           0.154003000000000    0.308007000000000    0.601635000000000 
K           0.154003000000000    0.845997000000000    0.601635000000000 
K           0.358660000000000    0.179330000000000    0.934968000000000 
K           0.375137000000000    0.187569000000000    0.493420000000000 
K           0.479098000000000    0.520902000000000    0.826754000000000 
K           0.479098000000000    0.958196000000000    0.826754000000000 
K           0.487337000000000    0.512663000000000    0.268302000000000 
K           0.487337000000000    0.974673000000000    0.268302000000000 
K           0.691993000000000    0.845997000000000    0.601635000000000 
K           0.708471000000000    0.854235000000000    0.160087000000000 
K           0.812431000000000    0.187569000000000    0.493420000000000 
K           0.812431000000000    0.624863000000000    0.493420000000000 
K           0.820670000000000    0.179330000000000    0.934968000000000 
K           0.820670000000000    0.641340000000000    0.934968000000000 
%ENDBLOCK POSITIONS_FRAC
