# Cell file generated by matador (Matthew Evans 2016)

%BLOCK LATTICE_CART
8.66308 0.0 0.0
0.0 7.69632 0.0
0.215487 0.0 4.83486
%ENDBLOCK LATTICE_CART

%BLOCK POSITIONS_FRAC
P           0.427697000000000    0.000000000000000    0.727281000000000 
P           0.927697000000000    0.500000000000000    0.727281000000000 
K           0.071994000000000    0.000000000000000    0.210002000000000 
K           0.250478000000000    0.500000000000000    0.543258000000000 
K           0.460065000000000    0.000000000000000    0.191011000000000 
K           0.571994000000000    0.500000000000000    0.210002000000000 
K           0.750478000000000    0.000000000000000    0.543258000000000 
K           0.960065000000000    0.500000000000000    0.191011000000000 
%ENDBLOCK POSITIONS_FRAC
