# Cell file generated by matador (Matthew Evans 2016)

%BLOCK LATTICE_CART
6.5509 -0.0 0.0
-3.27545 5.67325 0.0
0.0 0.0 9.11405
%ENDBLOCK LATTICE_CART

%BLOCK POSITIONS_FRAC
P           0.021736000000000    0.380933000000000    0.193430000000000 
P           0.022188000000000    0.849890000000000    0.109222000000000 
P           0.150110000000000    0.172298000000000    0.109222000000000 
P           0.333333000000000    0.666667000000000    0.753522000000000 
P           0.359198000000000    0.978264000000000    0.193430000000000 
P           0.619067000000000    0.640802000000000    0.193430000000000 
P           0.827702000000000    0.977812000000000    0.109222000000000 
K           0.084763000000000    0.730519000000000    0.519407000000000 
K           0.269481000000000    0.354244000000000    0.519407000000000 
K           0.333333000000000    0.666667000000000    0.259123000000000 
K           0.645756000000000    0.915237000000000    0.519407000000000 
K           0.666667000000000    0.333333000000000    0.898982000000000 
%ENDBLOCK POSITIONS_FRAC
