# Cell file generated by matador (Matthew Evans 2016)

%BLOCK LATTICE_CART
8.0728 0.0 0.0
0.0 8.0728 0.0
0.0 0.0 8.74292
%ENDBLOCK LATTICE_CART

%BLOCK POSITIONS_FRAC
P           0.000000000000000    0.000000000000000    0.000000000000000 
P           0.000000000000000    0.000000000000000    0.500000000000000 
P           0.500000000000000    0.500000000000000    0.000000000000000 
P           0.500000000000000    0.500000000000000    0.500000000000000 
K           0.000000000000000    0.500000000000000    0.000000000000000 
K           0.000000000000000    0.500000000000000    0.500000000000000 
K           0.184625000000000    0.185938000000000    0.500000000000000 
K           0.185938000000000    0.815375000000000    0.500000000000000 
K           0.314062000000000    0.684625000000000    0.000000000000000 
K           0.315375000000000    0.314062000000000    0.000000000000000 
K           0.500000000000000    0.000000000000000    0.000000000000000 
K           0.500000000000000    0.000000000000000    0.500000000000000 
K           0.684625000000000    0.685938000000000    0.000000000000000 
K           0.685938000000000    0.315375000000000    0.000000000000000 
K           0.814062000000000    0.184625000000000    0.500000000000000 
K           0.815375000000000    0.814062000000000    0.500000000000000 
%ENDBLOCK POSITIONS_FRAC
