# Cell file generated by matador (Matthew Evans 2016)

%BLOCK LATTICE_CART
12.3178 0.0 0.0
-6.15891 10.6675 0.0
0.0 0.0 6.07715
%ENDBLOCK LATTICE_CART

%BLOCK POSITIONS_FRAC
P           0.000000000000000    0.541650000000000    0.000000000000000 
P           0.333333000000000    0.666667000000000    0.500000000000000 
P           0.458350000000000    0.458350000000000    0.000000000000000 
P           0.541650000000000    0.000000000000000    0.000000000000000 
P           0.666667000000000    0.333333000000000    0.500000000000000 
K           0.000000000000000    0.000000000000000    0.000000000000000 
K           0.168412000000000    0.782353000000000    0.000000000000000 
K           0.191891000000000    0.777316000000000    0.500000000000000 
K           0.217647000000000    0.386060000000000    0.000000000000000 
K           0.222684000000000    0.414575000000000    0.500000000000000 
K           0.333333000000000    0.666667000000000    0.000000000000000 
K           0.386060000000000    0.217647000000000    0.000000000000000 
K           0.414575000000000    0.222684000000000    0.500000000000000 
K           0.585425000000000    0.808109000000000    0.500000000000000 
K           0.613940000000000    0.831588000000000    0.000000000000000 
K           0.666667000000000    0.333333000000000    0.000000000000000 
K           0.777316000000000    0.191891000000000    0.500000000000000 
K           0.782353000000000    0.168412000000000    0.000000000000000 
K           0.808109000000000    0.585425000000000    0.500000000000000 
K           0.831588000000000    0.613940000000000    0.000000000000000 
%ENDBLOCK POSITIONS_FRAC
