# Cell file generated by matador (Matthew Evans 2016)

%BLOCK LATTICE_CART
6.8361 0.0 0.0
0.0 5.42034 0.0
2.31694 0.0 4.20161
%ENDBLOCK LATTICE_CART

%BLOCK POSITIONS_FRAC
P           0.205158000000000    0.500000000000000    0.843484000000000 
P           0.234540000000000    0.500000000000000    0.030395000000000 
P           0.703969000000000    0.000000000000000    0.447714000000000 
P           0.883441000000000    0.000000000000000    0.435271000000000 
P           0.890244000000000    0.000000000000000    0.715370000000000 
K           0.447241000000000    0.265692000000000    0.140964000000000 
K           0.447241000000000    0.734308000000000    0.140964000000000 
%ENDBLOCK POSITIONS_FRAC
