# Cell file generated by matador (Matthew Evans 2016)

%BLOCK LATTICE_CART
6.75919 0.0 0.0
0.0 6.75919 0.0
0.0 0.0 6.75919
%ENDBLOCK LATTICE_CART

%BLOCK POSITIONS_FRAC
P           0.079165000000000    0.079165000000000    0.079165000000000 
P           0.079165000000000    0.920835000000000    0.920835000000000 
P           0.420835000000000    0.420835000000000    0.420835000000000 
P           0.420835000000000    0.579165000000000    0.579165000000000 
P           0.579165000000000    0.420835000000000    0.579165000000000 
P           0.579165000000000    0.579165000000000    0.420835000000000 
P           0.920835000000000    0.079165000000000    0.920835000000000 
P           0.920835000000000    0.920835000000000    0.079165000000000 
K           0.250000000000000    0.250000000000000    0.250000000000000 
K           0.250000000000000    0.750000000000000    0.750000000000000 
K           0.750000000000000    0.250000000000000    0.750000000000000 
K           0.750000000000000    0.750000000000000    0.250000000000000 
%ENDBLOCK POSITIONS_FRAC
