# Cell file generated by matador (Matthew Evans 2016)

%BLOCK LATTICE_CART
7.99129 0.0 0.0
-3.51698 7.13675 0.0
-1.22307 0.923174 3.98622
%ENDBLOCK LATTICE_CART

%BLOCK POSITIONS_FRAC
P           0.000000000000000    0.500000000000000    0.500000000000000 
P           0.153722000000000    0.250154000000000    0.127997000000000 
P           0.156763000000000    0.909480000000000    0.507286000000000 
P           0.184142000000000    0.818153000000000    0.259386000000000 
P           0.815858000000000    0.181847000000000    0.740614000000000 
P           0.843237000000000    0.090520000000000    0.492714000000000 
P           0.846278000000000    0.749846000000000    0.872003000000000 
K           0.388287000000000    0.682488000000000    0.773083000000000 
K           0.611713000000000    0.317512000000000    0.226917000000000 
%ENDBLOCK POSITIONS_FRAC
