# Cell file generated by matador (Matthew Evans 2016)

%BLOCK LATTICE_CART
8.73139 0.0 0.0
-4.36569 7.5616 0.0
0.0 0.0 7.17275
%ENDBLOCK LATTICE_CART

%BLOCK POSITIONS_FRAC
P           0.000000000000000    0.000000000000000    0.745666000000000 
P           0.333333000000000    0.666667000000000    0.700092000000000 
P           0.666667000000000    0.333333000000000    0.700092000000000 
K           0.000000000000000    0.216246000000000    0.457102000000000 
K           0.000000000000000    0.314187000000000    0.053562000000000 
K           0.000000000000000    0.675240000000000    0.796788000000000 
K           0.216246000000000    0.000000000000000    0.457102000000000 
K           0.314187000000000    0.000000000000000    0.053562000000000 
K           0.324760000000000    0.324760000000000    0.796788000000000 
K           0.675240000000000    0.000000000000000    0.796788000000000 
K           0.685813000000000    0.685813000000000    0.053562000000000 
K           0.783754000000000    0.783754000000000    0.457102000000000 
%ENDBLOCK POSITIONS_FRAC
