# Cell file generated by matador (Matthew Evans 2016)

%BLOCK LATTICE_CART
8.62487 0.0 0.0
-4.31244 7.46936 0.0
0.0 0.0 5.93345
%ENDBLOCK LATTICE_CART

%BLOCK POSITIONS_FRAC
P           0.187914000000000    0.593957000000000    0.250000000000000 
P           0.333333000000000    0.666667000000000    0.250000000000000 
P           0.406043000000000    0.593957000000000    0.250000000000000 
P           0.406043000000000    0.812086000000000    0.250000000000000 
P           0.593957000000000    0.187914000000000    0.750000000000000 
P           0.593957000000000    0.406043000000000    0.750000000000000 
P           0.666667000000000    0.333333000000000    0.750000000000000 
P           0.812086000000000    0.406043000000000    0.750000000000000 
K          -0.000000000000000    0.500000000000000    0.000000000000000 
K          -0.000000000000000    0.500000000000000    0.500000000000000 
K           0.500000000000000   -0.000000000000000    0.000000000000000 
K           0.500000000000000   -0.000000000000000    0.500000000000000 
K           0.500000000000000    0.500000000000000    0.000000000000000 
K           0.500000000000000    0.500000000000000    0.500000000000000 
%ENDBLOCK POSITIONS_FRAC
