# Cell file generated by matador (Matthew Evans 2016)

%BLOCK LATTICE_CART
5.8306 0.0 0.0
-2.9153 5.04944 0.0
0.0 0.0 9.96782
%ENDBLOCK LATTICE_CART

%BLOCK POSITIONS_FRAC
P          -0.000000000000000   -0.000000000000000    0.517246000000000 
P           0.001613000000000    0.695104000000000    0.822321000000000 
P           0.304896000000000    0.306509000000000    0.822321000000000 
P           0.306509000000000    0.001613000000000    0.822321000000000 
P           0.693491000000000    0.998387000000000    0.822321000000000 
P           0.695104000000000    0.693491000000000    0.822321000000000 
P           0.998387000000000    0.304896000000000    0.822321000000000 
K          -0.000000000000000    0.500000000000000    0.050559000000000 
K           0.333333000000000    0.666667000000000    0.707006000000000 
K           0.500000000000000   -0.000000000000000    0.050559000000000 
K           0.500000000000000    0.500000000000000    0.050559000000000 
K           0.666667000000000    0.333333000000000    0.707006000000000 
%ENDBLOCK POSITIONS_FRAC
