# Cell file generated by matador (Matthew Evans 2016)

%BLOCK LATTICE_CART
8.26932 -0.0 0.0
-4.13466 7.16144 0.0
0.0 0.0 8.70367
%ENDBLOCK LATTICE_CART

%BLOCK POSITIONS_FRAC
P           0.000000000000000    0.000000000000000    0.117171000000000 
P           0.000000000000000    0.000000000000000    0.375622000000000 
P           0.000000000000000    0.000000000000000    0.613607000000000 
P           0.000000000000000    0.000000000000000    0.919234000000000 
P           0.230586000000000    0.509670000000000    0.901403000000000 
P           0.279084000000000    0.769414000000000    0.901403000000000 
P           0.333333000000000    0.666667000000000    0.274594000000000 
P           0.490330000000000    0.720916000000000    0.901403000000000 
P           0.666667000000000    0.333333000000000    0.406760000000000 
P           0.666667000000000    0.333333000000000    0.773369000000000 
K           0.000418000000000    0.780669000000000    0.499996000000000 
K           0.219331000000000    0.219749000000000    0.499996000000000 
K           0.666667000000000    0.333333000000000    0.033116000000000 
K           0.780251000000000    0.999582000000000    0.499996000000000 
%ENDBLOCK POSITIONS_FRAC
