# Cell file generated by matador (Matthew Evans 2016)

%BLOCK LATTICE_CART
7.38474 0.0 0.0
0.0 7.38474 0.0
0.0 0.0 7.38474
%ENDBLOCK LATTICE_CART

%BLOCK POSITIONS_FRAC
P           0.081509000000000    0.081509000000000    0.081509000000000 
P           0.081509000000000    0.918491000000000    0.918491000000000 
P           0.418491000000000    0.418491000000000    0.418491000000000 
P           0.418491000000000    0.581509000000000    0.581509000000000 
P           0.581509000000000    0.418491000000000    0.581509000000000 
P           0.581509000000000    0.581509000000000    0.418491000000000 
P           0.918491000000000    0.081509000000000    0.918491000000000 
P           0.918491000000000    0.918491000000000    0.081509000000000 
K           0.000000000000000    0.250000000000000    0.500000000000000 
K           0.000000000000000    0.750000000000000    0.500000000000000 
K           0.250000000000000    0.500000000000000    0.000000000000000 
K           0.500000000000000    0.000000000000000    0.250000000000000 
K           0.500000000000000    0.000000000000000    0.750000000000000 
K           0.750000000000000    0.500000000000000    0.000000000000000 
%ENDBLOCK POSITIONS_FRAC
