# Cell file generated by matador (Matthew Evans 2016)

%BLOCK LATTICE_CART
7.61198 0.0 0.0
0.0 7.61198 0.0
0.0 0.0 7.78041
%ENDBLOCK LATTICE_CART

%BLOCK POSITIONS_FRAC
P           0.000000000000000    0.000000000000000    0.890570000000000 
P           0.000000000000000    0.500000000000000    0.202972000000000 
P           0.000000000000000    0.500000000000000    0.572574000000000 
P           0.072991000000000    0.428301000000000    0.337899000000000 
P           0.428301000000000    0.927009000000000    0.337899000000000 
P           0.500000000000000    0.000000000000000    0.202972000000000 
P           0.500000000000000    0.000000000000000    0.572574000000000 
P           0.571699000000000    0.072991000000000    0.337899000000000 
P           0.927009000000000    0.571699000000000    0.337899000000000 
K           0.000000000000000    0.000000000000000    0.187324000000000 
K           0.243367000000000    0.262547000000000    0.953408000000000 
K           0.262547000000000    0.756633000000000    0.953408000000000 
K           0.500000000000000    0.500000000000000    0.777890000000000 
K           0.737453000000000    0.243367000000000    0.953408000000000 
K           0.756633000000000    0.737453000000000    0.953408000000000 
%ENDBLOCK POSITIONS_FRAC
