# Cell file generated by matador (Matthew Evans 2016)

%BLOCK LATTICE_CART
5.62239 0.0 0.0
0.0 6.92044 0.0
0.0 0.0 10.3637
%ENDBLOCK LATTICE_CART

%BLOCK POSITIONS_FRAC
P           0.000000000000000    0.190615000000000    0.250000000000000 
P           0.000000000000000    0.500000000000000    0.000000000000000 
P           0.000000000000000    0.500000000000000    0.500000000000000 
P           0.000000000000000    0.809385000000000    0.750000000000000 
P           0.500000000000000    0.000000000000000    0.000000000000000 
P           0.500000000000000    0.000000000000000    0.500000000000000 
P           0.500000000000000    0.309385000000000    0.750000000000000 
P           0.500000000000000    0.690615000000000    0.250000000000000 
K           0.000000000000000    0.165879000000000    0.750000000000000 
K           0.000000000000000    0.834121000000000    0.250000000000000 
K           0.500000000000000    0.334121000000000    0.250000000000000 
K           0.500000000000000    0.665879000000000    0.750000000000000 
%ENDBLOCK POSITIONS_FRAC
