# Cell file generated by matador (Matthew Evans 2016)

%BLOCK LATTICE_CART
7.68914 0.0 0.0
-3.84457 6.65899 0.0
0.0 0.0 9.9366
%ENDBLOCK LATTICE_CART

%BLOCK POSITIONS_FRAC
P           0.116540000000000    0.553871000000000    0.118049000000000 
P           0.116540000000000    0.562669000000000    0.881951000000000 
P           0.132879000000000    0.066439000000000    0.000000000000000 
P           0.437331000000000    0.553871000000000    0.881951000000000 
P           0.437331000000000    0.883460000000000    0.118049000000000 
P           0.446129000000000    0.562669000000000    0.118049000000000 
P           0.446129000000000    0.883460000000000    0.881951000000000 
P           0.507555000000000    0.015109000000000    0.500000000000000 
P           0.507555000000000    0.492445000000000    0.500000000000000 
P           0.933561000000000    0.066439000000000    0.000000000000000 
P           0.933561000000000    0.867121000000000    0.000000000000000 
P           0.984891000000000    0.492445000000000    0.500000000000000 
K           0.000000000000000    0.000000000000000    0.500000000000000 
K           0.333333000000000    0.666667000000000    0.500000000000000 
K           0.666667000000000    0.333333000000000    0.500000000000000 
%ENDBLOCK POSITIONS_FRAC
