# Cell file generated by matador (Matthew Evans 2016)

%BLOCK LATTICE_CART
8.05665 0.0 0.0
0.0 8.05665 0.0
0.0 0.0 8.05665
%ENDBLOCK LATTICE_CART

%BLOCK POSITIONS_FRAC
P           0.000000000000000    0.000000000000000    0.248243000000000 
P           0.000000000000000    0.000000000000000    0.751757000000000 
P           0.000000000000000    0.248243000000000    0.000000000000000 
P           0.000000000000000    0.751757000000000    0.000000000000000 
P           0.248243000000000    0.000000000000000    0.000000000000000 
P           0.251757000000000    0.500000000000000    0.500000000000000 
P           0.500000000000000    0.251757000000000    0.500000000000000 
P           0.500000000000000    0.500000000000000    0.251757000000000 
P           0.500000000000000    0.500000000000000    0.748243000000000 
P           0.500000000000000    0.748243000000000    0.500000000000000 
P           0.748243000000000    0.500000000000000    0.500000000000000 
P           0.751757000000000    0.000000000000000    0.000000000000000 
K           0.000000000000000    0.000000000000000    0.000000000000000 
K           0.500000000000000    0.500000000000000    0.500000000000000 
%ENDBLOCK POSITIONS_FRAC
