# Cell file generated by matador (Matthew Evans 2016)

%BLOCK LATTICE_CART
7.23627 0.0 0.0
-3.61814 6.26679 0.0
0.0 0.0 8.0915
%ENDBLOCK LATTICE_CART

%BLOCK POSITIONS_FRAC
P           0.180795000000000    0.064798000000000    0.754455000000000 
P           0.666667000000000    0.333333000000000    0.644170000000000 
P           0.666667000000000    0.333333000000000    0.861774000000000 
P           0.884004000000000    0.819205000000000    0.754455000000000 
P           0.935202000000000    0.115996000000000    0.754455000000000 
K           0.000000000000000   -0.000000000000000    0.371921000000000 
K           0.000000000000000   -0.000000000000000    0.960599000000000 
K           0.333334000000000    0.666666000000000    0.231768000000000 
K           0.348313000000000    0.231857000000000    0.199672000000000 
K           0.666667000000000    0.333333000000000    0.247904000000000 
K           0.768143000000000    0.116456000000000    0.199672000000000 
K           0.883544000000000    0.651687000000000    0.199672000000000 
%ENDBLOCK POSITIONS_FRAC
