# Cell file generated by matador (Matthew Evans 2016)

%BLOCK LATTICE_CART
8.53771 0.0 0.0
0.0 8.53771 0.0
0.0 0.0 6.65722
%ENDBLOCK LATTICE_CART

%BLOCK POSITIONS_FRAC
P           0.095631000000000    0.772715000000000    0.520664000000000 
P           0.227285000000000    0.904369000000000    0.479336000000000 
P           0.272715000000000    0.404369000000000    0.520664000000000 
P           0.404369000000000    0.272715000000000    0.479336000000000 
P           0.595631000000000    0.727285000000000    0.479336000000000 
P           0.727285000000000    0.595631000000000    0.520664000000000 
P           0.772715000000000    0.095631000000000    0.479336000000000 
P           0.904369000000000    0.227285000000000    0.520664000000000 
K           0.000000000000000    0.000000000000000    0.000000000000000 
K           0.000000000000000    0.000000000000000    0.500000000000000 
K           0.000000000000000    0.500000000000000    0.225835000000000 
K           0.500000000000000    0.000000000000000    0.774165000000000 
K           0.500000000000000    0.500000000000000    0.000000000000000 
K           0.500000000000000    0.500000000000000    0.500000000000000 
%ENDBLOCK POSITIONS_FRAC
