# Cell file generated by matador (Matthew Evans 2016)

%BLOCK LATTICE_CART
11.4895 0.0 0.0
-5.74476 9.95022 0.0
0.0 0.0 8.22573
%ENDBLOCK LATTICE_CART

%BLOCK POSITIONS_FRAC
P           0.092022000000000    0.184043000000000    0.406225000000000 
P           0.092022000000000    0.907978000000000    0.406225000000000 
P           0.413400000000000    0.206700000000000    0.994193000000000 
P           0.793300000000000    0.206700000000000    0.994193000000000 
P           0.793300000000000    0.586600000000000    0.994193000000000 
P           0.815957000000000    0.907978000000000    0.406225000000000 
K           0.176412000000000    0.352822000000000    0.689049000000000 
K           0.176412000000000    0.823588000000000    0.689049000000000 
K           0.179720000000000    0.089860000000000    0.942059000000000 
K           0.223637000000000    0.447273000000000    0.281576000000000 
K           0.223637000000000    0.776363000000000    0.281576000000000 
K           0.314458000000000    0.157229000000000    0.543794000000000 
K           0.533571000000000    0.067141000000000    0.082325000000000 
K           0.533571000000000    0.466429000000000    0.082325000000000 
K           0.542081000000000    0.084161000000000    0.577884000000000 
K           0.542081000000000    0.457919000000000    0.577884000000000 
K           0.552727000000000    0.776363000000000    0.281576000000000 
K           0.647178000000000    0.823588000000000    0.689049000000000 
K           0.842771000000000    0.157229000000000    0.543794000000000 
K           0.842771000000000    0.685542000000000    0.543794000000000 
K           0.910140000000000    0.089860000000000    0.942059000000000 
K           0.910140000000000    0.820280000000000    0.942059000000000 
K           0.915839000000000    0.457919000000000    0.577884000000000 
K           0.932859000000000    0.466429000000000    0.082325000000000 
%ENDBLOCK POSITIONS_FRAC
