# Cell file generated by matador (Matthew Evans 2016)

%BLOCK LATTICE_CART
11.5066 0.0 0.0
-5.7533 9.96501 0.0
0.0 0.0 5.94804
%ENDBLOCK LATTICE_CART

%BLOCK POSITIONS_FRAC
P           0.059338000000000    0.529669000000000    0.500000000000000 
P           0.470331000000000    0.529669000000000    0.500000000000000 
P           0.470331000000000    0.940662000000000    0.500000000000000 
P           0.666667000000000    0.333333000000000   -0.000000000000000 
K           0.176789000000000    0.088394000000000    0.250783000000000 
K           0.176789000000000    0.088394000000000    0.749217000000000 
K           0.401580000000000    0.069791000000000    0.500000000000000 
K           0.401580000000000    0.331789000000000    0.500000000000000 
K           0.668211000000000    0.069791000000000    0.500000000000000 
K           0.668211000000000    0.598420000000000    0.500000000000000 
K           0.911606000000000    0.088394000000000    0.250783000000000 
K           0.911606000000000    0.088394000000000    0.749217000000000 
K           0.911605000000000    0.823211000000000    0.250783000000000 
K           0.911605000000000    0.823211000000000    0.749217000000000 
K           0.930209000000000    0.331789000000000    0.500000000000000 
K           0.930209000000000    0.598420000000000    0.500000000000000 
%ENDBLOCK POSITIONS_FRAC
