# Cell file generated by matador (Matthew Evans 2016)

%BLOCK LATTICE_CART
6.79627 0.0 0.0
0.0 6.79627 0.0
0.0 0.0 6.79627
%ENDBLOCK LATTICE_CART

%BLOCK POSITIONS_FRAC
P           0.020292000000000    0.020292000000000    0.020292000000000 
P           0.229708000000000    0.770292000000000    0.270292000000000 
P           0.270292000000000    0.229708000000000    0.770292000000000 
P           0.479708000000000    0.979708000000000    0.520292000000000 
P           0.520292000000000    0.479708000000000    0.979708000000000 
P           0.729708000000000    0.729708000000000    0.729708000000000 
P           0.770292000000000    0.270292000000000    0.229708000000000 
P           0.979708000000000    0.520292000000000    0.479708000000000 
K           0.125000000000000    0.625000000000000    0.875000000000000 
K           0.375000000000000    0.375000000000000    0.375000000000000 
K           0.625000000000000    0.875000000000000    0.125000000000000 
K           0.875000000000000    0.125000000000000    0.625000000000000 
%ENDBLOCK POSITIONS_FRAC
