# Cell file generated by matador (Matthew Evans 2016)

%BLOCK LATTICE_CART
7.60901 0.0 0.0
0.0 8.8905 0.0
-1.97259 0.0 5.75719
%ENDBLOCK LATTICE_CART

%BLOCK POSITIONS_FRAC
P           0.057123000000000    0.632394000000000    0.383859000000000 
P           0.162434000000000    0.082371000000000    0.764400000000000 
P           0.837566000000000    0.082371000000000    0.235600000000000 
P           0.942877000000000    0.632394000000000    0.616141000000000 
K           0.000000000000000    0.155242000000000    0.000000000000000 
K           0.000000000000000    0.307176000000000    0.500000000000000 
K           0.000000000000000    0.953777000000000    0.500000000000000 
K           0.105874000000000    0.789550000000000    0.914893000000000 
K           0.500000000000000    0.229581000000000    0.000000000000000 
K           0.500000000000000    0.657430000000000    0.000000000000000 
K           0.500000000000000    0.847482000000000    0.500000000000000 
K           0.894126000000000    0.789550000000000    0.085107000000000 
%ENDBLOCK POSITIONS_FRAC
