# Cell file generated by matador (Matthew Evans 2016)

%BLOCK LATTICE_CART
13.4361 0.0 0.0
-6.71803 11.636 0.0
0.0 0.0 8.73242
%ENDBLOCK LATTICE_CART

%BLOCK POSITIONS_FRAC
P           0.000000000000000    0.000000000000000    0.250000000000000 
P           0.000000000000000    0.000000000000000    0.750000000000000 
P           0.333333000000000    0.666667000000000    0.000000000000000 
P           0.333333000000000    0.666667000000000    0.500000000000000 
P           0.666667000000000    0.333333000000000    0.000000000000000 
P           0.666667000000000    0.333333000000000    0.250000000000000 
P           0.666667000000000    0.333333000000000    0.500000000000000 
P           0.666667000000000    0.333333000000000    0.750000000000000 
K           0.101534000000000    0.300864000000000    0.750000000000000 
K           0.101534000000000    0.800670000000000    0.250000000000000 
K           0.122307000000000    0.483520000000000    0.250000000000000 
K           0.122307000000000    0.638787000000000    0.750000000000000 
K           0.199330000000000    0.300864000000000    0.250000000000000 
K           0.199330000000000    0.898466000000000    0.750000000000000 
K           0.300037000000000    0.075324000000000    0.250000000000000 
K           0.300037000000000    0.224713000000000    0.750000000000000 
K           0.361213000000000    0.483520000000000    0.750000000000000 
K           0.361213000000000    0.877693000000000    0.250000000000000 
K           0.516480000000000    0.638787000000000    0.250000000000000 
K           0.516480000000000    0.877693000000000    0.750000000000000 
K           0.544492000000000    0.158006000000000    0.750000000000000 
K           0.544492000000000    0.386486000000000    0.250000000000000 
K           0.613514000000000    0.158006000000000    0.250000000000000 
K           0.613514000000000    0.455508000000000    0.750000000000000 
K           0.699136000000000    0.800670000000000    0.750000000000000 
K           0.699136000000000    0.898466000000000    0.250000000000000 
K           0.775287000000000    0.075324000000000    0.750000000000000 
K           0.775287000000000    0.699963000000000    0.250000000000000 
K           0.841994000000000    0.386486000000000    0.750000000000000 
K           0.841994000000000    0.455508000000000    0.250000000000000 
K           0.924676000000000    0.224713000000000    0.250000000000000 
K           0.924676000000000    0.699963000000000    0.750000000000000 
%ENDBLOCK POSITIONS_FRAC
