# Cell file generated by matador (Matthew Evans 2016)

%BLOCK LATTICE_CART
6.01932 0.0 0.0
0.0 6.45114 0.0
-2.96302 0.0 6.1923
%ENDBLOCK LATTICE_CART

%BLOCK POSITIONS_FRAC
P           0.064478000000000    0.322902000000000    0.805061000000000 
P           0.064478000000000    0.677098000000000    0.805061000000000 
P           0.139231000000000    0.500000000000000    0.809028000000000 
P           0.157532000000000   -0.000000000000000    0.746578000000000 
P           0.510118000000000    0.500000000000000    0.454823000000000 
P           0.690359000000000   -0.000000000000000    0.502227000000000 
P           0.754460000000000   -0.000000000000000    0.233490000000000 
K           0.328030000000000    0.192219000000000    0.393882000000000 
K           0.328030000000000    0.807781000000000    0.393882000000000 
%ENDBLOCK POSITIONS_FRAC
