# Cell file generated by matador (Matthew Evans 2016)

%BLOCK LATTICE_CART
7.21209 0.0 0.0
-3.60605 6.24585 0.0
0.0 0.0 7.99474
%ENDBLOCK LATTICE_CART

%BLOCK POSITIONS_FRAC
P          -0.000000000000000    0.000000000000000    0.250000000000000 
P          -0.000000000000000    0.000000000000000    0.750000000000000 
P           0.333333000000000    0.666667000000000    0.416667000000000 
P           0.333333000000000    0.666667000000000    0.916667000000000 
P           0.666667000000000    0.333333000000000    0.083333000000000 
P           0.666667000000000    0.333333000000000    0.583333000000000 
K          -0.000000000000000    0.000000000000000    0.000000000000000 
K          -0.000000000000000    0.000000000000000    0.500000000000000 
K           0.333333000000000    0.666667000000000    0.166667000000000 
K           0.333333000000000    0.666667000000000    0.666667000000000 
K           0.666667000000000    0.333333000000000    0.333333000000000 
K           0.666667000000000    0.333333000000000    0.833333000000000 
%ENDBLOCK POSITIONS_FRAC
