# Cell file generated by matador (Matthew Evans 2016)

%BLOCK LATTICE_CART
8.36007 -0.0 0.0
-4.18004 7.24003 0.0
0.0 0.0 6.20964
%ENDBLOCK LATTICE_CART

%BLOCK POSITIONS_FRAC
P           0.000000000000000    0.000000000000000    0.828133000000000 
P           0.088397000000000    0.565296000000000    0.929877000000000 
P           0.222778000000000    0.458746000000000    0.175752000000000 
P           0.235967000000000    0.777222000000000    0.175752000000000 
P           0.333333000000000    0.666667000000000    0.578758000000000 
P           0.434704000000000    0.523101000000000    0.929877000000000 
P           0.458746000000000    0.235967000000000    0.175752000000000 
P           0.476899000000000    0.911603000000000    0.929877000000000 
P           0.523101000000000    0.088397000000000    0.929877000000000 
P           0.541254000000000    0.764033000000000    0.175752000000000 
P           0.565296000000000    0.476899000000000    0.929877000000000 
P           0.666667000000000    0.333333000000000    0.578758000000000 
P           0.764033000000000    0.222778000000000    0.175752000000000 
P           0.777222000000000    0.541254000000000    0.175752000000000 
P           0.911603000000000    0.434704000000000    0.929877000000000 
K           0.000000000000000    0.500000000000000    0.595598000000000 
K           0.500000000000000    0.000000000000000    0.595598000000000 
K           0.500000000000000    0.500000000000000    0.595598000000000 
%ENDBLOCK POSITIONS_FRAC
