# Cell file generated by matador (Matthew Evans 2016)

%BLOCK LATTICE_CART
7.7709 0.0 0.0
0.0 7.7709 0.0
0.0 0.0 7.72228
%ENDBLOCK LATTICE_CART

%BLOCK POSITIONS_FRAC
P           0.221181000000000    0.500000000000000    0.250000000000000 
P           0.221181000000000    0.500000000000000    0.750000000000000 
P           0.500000000000000    0.221181000000000    0.250000000000000 
P           0.500000000000000    0.221181000000000    0.750000000000000 
P           0.500000000000000    0.778819000000000    0.250000000000000 
P           0.500000000000000    0.778819000000000    0.750000000000000 
P           0.778819000000000    0.500000000000000    0.250000000000000 
P           0.778819000000000    0.500000000000000    0.750000000000000 
K           0.000000000000000    0.000000000000000    0.000000000000000 
K           0.000000000000000    0.000000000000000    0.250000000000000 
K           0.000000000000000    0.000000000000000    0.500000000000000 
K           0.000000000000000    0.000000000000000    0.750000000000000 
K           0.318011000000000    0.318011000000000    0.500000000000000 
K           0.318011000000000    0.681989000000000    0.000000000000000 
K           0.500000000000000    0.500000000000000    0.000000000000000 
K           0.500000000000000    0.500000000000000    0.500000000000000 
K           0.681989000000000    0.318011000000000    0.000000000000000 
K           0.681989000000000    0.681989000000000    0.500000000000000 
%ENDBLOCK POSITIONS_FRAC
