# Cell file generated by matador (Matthew Evans 2016)

%BLOCK LATTICE_CART
6.10405 0.0 0.0
0.0 8.116 0.0
-2.00737 0.0 5.6047
%ENDBLOCK LATTICE_CART

%BLOCK POSITIONS_FRAC
P           0.066228000000000    0.500000000000000    0.654998000000000 
P           0.185722000000000   -0.000000000000000    0.750794000000000 
P           0.293071000000000    0.298973000000000    0.100666000000000 
P           0.293071000000000    0.701027000000000    0.100666000000000 
P           0.446721000000000    0.500000000000000    0.746227000000000 
P           0.566228000000000   -0.000000000000000    0.654998000000000 
P           0.685722000000000    0.500000000000000    0.750794000000000 
P           0.793071000000000    0.201027000000000    0.100666000000000 
P           0.793071000000000    0.798973000000000    0.100666000000000 
P           0.946721000000000   -0.000000000000000    0.746227000000000 
K           0.114701000000000    0.500000000000000    0.220012000000000 
K           0.614701000000000   -0.000000000000000    0.220012000000000 
%ENDBLOCK POSITIONS_FRAC
