# Cell file generated by matador (Matthew Evans 2016)

%BLOCK LATTICE_CART
8.39202 0.0 0.0
0.0 8.39202 0.0
0.0 0.0 6.12716
%ENDBLOCK LATTICE_CART

%BLOCK POSITIONS_FRAC
P           0.000000000000000    0.000000000000000    0.000000000000000 
P           0.000000000000000    0.000000000000000    0.173585000000000 
P           0.000000000000000    0.000000000000000    0.826415000000000 
P           0.172254000000000    0.379428000000000    0.045187000000000 
P           0.172254000000000    0.620572000000000    0.954813000000000 
P           0.379428000000000    0.172254000000000    0.045187000000000 
P           0.379428000000000    0.827746000000000    0.954813000000000 
P           0.500000000000000    0.500000000000000    0.000000000000000 
P           0.620572000000000    0.172254000000000    0.954813000000000 
P           0.620572000000000    0.827746000000000    0.045187000000000 
P           0.827746000000000    0.379428000000000    0.954813000000000 
P           0.827746000000000    0.620572000000000    0.045187000000000 
K           0.000000000000000    0.000000000000000    0.500000000000000 
K           0.500000000000000    0.500000000000000    0.500000000000000 
%ENDBLOCK POSITIONS_FRAC
