# Cell file generated by matador (Matthew Evans 2016)

%BLOCK LATTICE_CART
5.80315 0.0 0.0
0.0 5.80315 0.0
0.0 0.0 10.8674
%ENDBLOCK LATTICE_CART

%BLOCK POSITIONS_FRAC
P           0.000000000000000    0.000000000000000    0.330484000000000 
P           0.000000000000000    0.000000000000000    0.830484000000000 
P           0.112490000000000    0.231983000000000    0.262037000000000 
P           0.112490000000000    0.768017000000000    0.262037000000000 
P           0.231983000000000    0.112490000000000    0.762037000000000 
P           0.231983000000000    0.887510000000000    0.762037000000000 
P           0.500000000000000    0.500000000000000    0.033213000000000 
P           0.500000000000000    0.500000000000000    0.533213000000000 
P           0.768017000000000    0.112490000000000    0.762037000000000 
P           0.768017000000000    0.887510000000000    0.762037000000000 
P           0.887510000000000    0.231983000000000    0.262037000000000 
P           0.887510000000000    0.768017000000000    0.262037000000000 
K           0.000000000000000    0.500000000000000    0.781679000000000 
K           0.500000000000000    0.000000000000000    0.281679000000000 
%ENDBLOCK POSITIONS_FRAC
