# Cell file generated by matador (Matthew Evans 2016)

%BLOCK LATTICE_CART
8.38408 0.0 0.0
1.45404 7.48373 0.0
-2.78616 2.3996 5.25328
%ENDBLOCK LATTICE_CART

%BLOCK POSITIONS_FRAC
P           0.000000000000000    0.000000000000000    0.500000000000000 
P           0.201978000000000    0.059608000000000    0.769018000000000 
P           0.224427000000000    0.310956000000000    0.038154000000000 
P           0.500000000000000    0.000000000000000    0.500000000000000 
P           0.500000000000000    0.500000000000000    0.000000000000000 
P           0.775573000000000    0.689044000000000    0.961846000000000 
P           0.798022000000000    0.940392000000000    0.230982000000000 
K           0.000000000000000    0.500000000000000    0.000000000000000 
K           0.150496000000000    0.307157000000000    0.512014000000000 
K           0.383084000000000    0.517471000000000    0.588907000000000 
K           0.500000000000000    0.000000000000000    0.000000000000000 
K           0.616916000000000    0.482529000000000    0.411093000000000 
K           0.849504000000000    0.692843000000000    0.487986000000000 
%ENDBLOCK POSITIONS_FRAC
