# Cell file generated by matador (Matthew Evans 2016)

%BLOCK LATTICE_CART
7.61033 0.0 0.0
-3.98185 10.6973 0.0
-0.681033 -0.589845 4.78484
%ENDBLOCK LATTICE_CART

%BLOCK POSITIONS_FRAC
P           0.000000000000000    0.000000000000000    0.000000000000000 
P           0.000000000000000    0.000000000000000    0.500000000000000 
P           0.000000000000000    0.500000000000000    0.000000000000000 
P           0.500000000000000    0.000000000000000    0.000000000000000 
P           0.500000000000000    0.000000000000000    0.500000000000000 
K           0.000000000000000    0.500000000000000    0.500000000000000 
K           0.077494000000000    0.744165000000000    0.468605000000000 
K           0.392591000000000    0.472319000000000    0.854049000000000 
K           0.500000000000000    0.500000000000000    0.500000000000000 
K           0.607409000000000    0.527681000000000    0.145951000000000 
K           0.922506000000000    0.255835000000000    0.531395000000000 
%ENDBLOCK POSITIONS_FRAC
