# Cell file generated by matador (Matthew Evans 2016)

%BLOCK LATTICE_CART
6.10633 0.0 0.0
0.0 6.10633 0.0
0.0 0.0 10.9215
%ENDBLOCK LATTICE_CART

%BLOCK POSITIONS_FRAC
P           0.000000000000000    0.000000000000000    0.500000000000000 
P           0.000000000000000    0.500000000000000    0.750000000000000 
P           0.500000000000000    0.000000000000000    0.250000000000000 
P           0.500000000000000    0.500000000000000    0.000000000000000 
K           0.032086000000000    0.250000000000000    0.125000000000000 
K           0.250000000000000    0.032086000000000    0.875000000000000 
K           0.250000000000000    0.467914000000000    0.375000000000000 
K           0.467914000000000    0.250000000000000    0.625000000000000 
K           0.532086000000000    0.750000000000000    0.625000000000000 
K           0.750000000000000    0.532086000000000    0.375000000000000 
K           0.750000000000000    0.967914000000000    0.875000000000000 
K           0.967914000000000    0.750000000000000    0.125000000000000 
%ENDBLOCK POSITIONS_FRAC
