# Cell file generated by matador (Matthew Evans 2016)

%BLOCK LATTICE_CART
6.40784 0.0 0.0
-3.20392 5.54935 0.0
0.0 0.0 4.94032
%ENDBLOCK LATTICE_CART

%BLOCK POSITIONS_FRAC
P           0.333333000000000    0.666667000000000    0.133151000000000 
P           0.333333000000000    0.666667000000000    0.569360000000000 
P           0.666667000000000    0.333333000000000    0.133151000000000 
P           0.666667000000000    0.333333000000000    0.569360000000000 
K           0.000000000000000    0.500000000000000    0.827112000000000 
K           0.500000000000000   -0.000000000000000    0.827112000000000 
K           0.500000000000000    0.500000000000000    0.827112000000000 
%ENDBLOCK POSITIONS_FRAC
