# Cell file generated by matador (Matthew Evans 2016)

%BLOCK LATTICE_CART
8.10581 0.0 0.0
-4.0529 7.01984 0.0
0.0 0.0 8.96475
%ENDBLOCK LATTICE_CART

%BLOCK POSITIONS_FRAC
P           0.000000000000000    0.000000000000000    0.564119000000000 
P           0.000000000000000    0.000000000000000    0.833619000000000 
P           0.000000000000000    0.173782000000000    0.946615000000000 
P           0.000000000000000    0.826218000000000    0.946615000000000 
P           0.173782000000000    0.000000000000000    0.946615000000000 
P           0.173782000000000    0.173782000000000    0.946615000000000 
P           0.333333000000000    0.666667000000000    0.033138000000000 
P           0.666667000000000    0.333333000000000    0.033138000000000 
P           0.826218000000000    0.000000000000000    0.946615000000000 
P           0.826218000000000    0.826218000000000    0.946615000000000 
K           0.000000000000000    0.000000000000000    0.318948000000000 
K           0.000000000000000    0.500000000000000    0.020200000000000 
K           0.500000000000000    0.000000000000000    0.020200000000000 
K           0.500000000000000    0.500000000000000    0.020200000000000 
%ENDBLOCK POSITIONS_FRAC
