# Cell file generated by matador (Matthew Evans 2016)

%BLOCK LATTICE_CART
6.23594 0.0 0.0
0.0 6.17741 0.0
0.0 0.0 5.9111
%ENDBLOCK LATTICE_CART

%BLOCK POSITIONS_FRAC
P           0.000000000000000    0.000000000000000    0.323875000000000 
P           0.500000000000000    0.500000000000000    0.823875000000000 
K           0.000000000000000    0.185733000000000    0.785068000000000 
K           0.000000000000000    0.814267000000000    0.785068000000000 
K           0.500000000000000    0.314267000000000    0.285068000000000 
K           0.500000000000000    0.685733000000000    0.285068000000000 
%ENDBLOCK POSITIONS_FRAC
