# Cell file generated by matador (Matthew Evans 2016)

%BLOCK LATTICE_CART
10.0761 0.0 0.0
0.0 8.72297 0.0
0.0 0.0 9.55782
%ENDBLOCK LATTICE_CART

%BLOCK POSITIONS_FRAC
P           0.000000000000000    0.500000000000000    0.297156000000000 
P           0.200315000000000    0.000000000000000    0.524306000000000 
P           0.299685000000000    0.500000000000000    0.524306000000000 
P           0.500000000000000    0.000000000000000    0.297156000000000 
P           0.700315000000000    0.500000000000000    0.524306000000000 
P           0.799685000000000    0.000000000000000    0.524306000000000 
K           0.000000000000000    0.000000000000000    0.177825000000000 
K           0.000000000000000    0.251982000000000    0.975869000000000 
K           0.000000000000000    0.263983000000000    0.373847000000000 
K           0.000000000000000    0.329237000000000    0.672142000000000 
K           0.000000000000000    0.670763000000000    0.672142000000000 
K           0.000000000000000    0.736017000000000    0.373847000000000 
K           0.000000000000000    0.748018000000000    0.975869000000000 
K           0.185862000000000    0.000000000000000    0.791486000000000 
K           0.314138000000000    0.500000000000000    0.791486000000000 
K           0.500000000000000    0.170763000000000    0.672142000000000 
K           0.500000000000000    0.236017000000000    0.373847000000000 
K           0.500000000000000    0.248018000000000    0.975869000000000 
K           0.500000000000000    0.500000000000000    0.177825000000000 
K           0.500000000000000    0.751982000000000    0.975869000000000 
K           0.500000000000000    0.763983000000000    0.373847000000000 
K           0.500000000000000    0.829237000000000    0.672142000000000 
K           0.685862000000000    0.500000000000000    0.791486000000000 
K           0.814138000000000    0.000000000000000    0.791486000000000 
%ENDBLOCK POSITIONS_FRAC
