# Cell file generated by matador (Matthew Evans 2016)

%BLOCK LATTICE_CART
8.3405 0.0 0.0
-4.17025 7.22308 0.0
0.0 0.0 5.27746
%ENDBLOCK LATTICE_CART

%BLOCK POSITIONS_FRAC
P           0.000000000000000    0.000000000000000    0.000000000000000 
P           0.000000000000000    0.000000000000000    0.500000000000000 
P           0.333333000000000    0.666667000000000    0.403662000000000 
P           0.333333000000000    0.666667000000000    0.596338000000000 
P           0.666667000000000    0.333333000000000    0.403662000000000 
P           0.666667000000000    0.333333000000000    0.596338000000000 
K           0.000000000000000    0.500000000000000    0.000000000000000 
K           0.333333000000000    0.666667000000000    0.000000000000000 
K           0.500000000000000    0.000000000000000    0.000000000000000 
K           0.500000000000000    0.500000000000000    0.000000000000000 
K           0.666667000000000    0.333333000000000    0.000000000000000 
%ENDBLOCK POSITIONS_FRAC
