# Cell file generated by matador (Matthew Evans 2016)

%BLOCK LATTICE_CART
10.7485 0.0 0.0
0.0 9.40708 0.0
-3.38096 0.0 7.88907
%ENDBLOCK LATTICE_CART

%BLOCK POSITIONS_FRAC
P           0.064823000000000    0.000000000000000    0.497177000000000 
P           0.375512000000000    0.500000000000000    0.205272000000000 
P           0.477520000000000    0.000000000000000    0.762860000000000 
P           0.724828000000000    0.000000000000000    0.270119000000000 
P           0.983270000000000    0.000000000000000    0.041923000000000 
K           0.013994000000000    0.500000000000000    0.931366000000000 
K           0.086002000000000    0.500000000000000    0.614273000000000 
K           0.182104000000000    0.000000000000000    0.254998000000000 
K           0.256374000000000    0.000000000000000    0.664255000000000 
K           0.318926000000000    0.000000000000000    0.030478000000000 
K           0.328363000000000    0.500000000000000    0.522742000000000 
K           0.440106000000000    0.500000000000000    0.016090000000000 
K           0.463607000000000    0.000000000000000    0.501714000000000 
K           0.589901000000000    0.000000000000000    0.014190000000000 
K           0.614469000000000    0.500000000000000    0.782311000000000 
K           0.700761000000000    0.331702000000000    0.437065000000000 
K           0.700761000000000    0.668298000000000    0.437065000000000 
K           0.832102000000000    0.500000000000000    0.137250000000000 
K           0.911283000000000    0.000000000000000    0.265229000000000 
K           0.981427000000000    0.000000000000000    0.735127000000000 
%ENDBLOCK POSITIONS_FRAC
