# Cell file generated by matador (Matthew Evans 2016)

%BLOCK LATTICE_CART
7.27436 0.0 0.0
-3.63718 6.29978 0.0
0.0 0.0 8.92806
%ENDBLOCK LATTICE_CART

%BLOCK POSITIONS_FRAC
P           0.000000000000000    0.282051000000000    0.000000000000000 
P           0.000000000000000    0.282051000000000    0.500000000000000 
P           0.282051000000000    0.000000000000000    0.000000000000000 
P           0.282051000000000    0.000000000000000    0.500000000000000 
P           0.333333000000000    0.666667000000000    0.525573000000000 
P           0.333333000000000    0.666667000000000    0.974427000000000 
P           0.666667000000000    0.333333000000000    0.025573000000000 
P           0.666667000000000    0.333333000000000    0.474427000000000 
P           0.717949000000000    0.717949000000000    0.000000000000000 
P           0.717949000000000    0.717949000000000    0.500000000000000 
K           0.000000000000000    0.000000000000000    0.000000000000000 
K           0.000000000000000    0.000000000000000    0.500000000000000 
K           0.333333000000000    0.666667000000000    0.250000000000000 
K           0.333333000000000    0.666667000000000    0.750000000000000 
K           0.666667000000000    0.333333000000000    0.250000000000000 
K           0.666667000000000    0.333333000000000    0.750000000000000 
%ENDBLOCK POSITIONS_FRAC
