# Cell file generated by matador (Matthew Evans 2016)

%BLOCK LATTICE_CART
7.16097 -0.0 0.0
-3.58049 6.20159 0.0
0.0 0.0 6.65482
%ENDBLOCK LATTICE_CART

%BLOCK POSITIONS_FRAC
P           0.069073000000000    0.230783000000000    0.617493000000000 
P           0.161710000000000    0.930927000000000    0.617493000000000 
P           0.769217000000000    0.838290000000000    0.617493000000000 
K           0.000000000000000    0.000000000000000    0.048276000000000 
K           0.043005000000000    0.602152000000000    0.848951000000000 
K           0.397848000000000    0.440853000000000    0.848951000000000 
K           0.559147000000000    0.956995000000000    0.848951000000000 
K           0.666667000000000    0.333333000000000    0.384938000000000 
%ENDBLOCK POSITIONS_FRAC
