# Cell file generated by matador (Matthew Evans 2016)

%BLOCK LATTICE_CART
12.9412 0.0 0.0
-6.47061 11.2074 0.0
0.0 0.0 7.17269
%ENDBLOCK LATTICE_CART

%BLOCK POSITIONS_FRAC
P           0.000000000000000    0.000000000000000    0.500000000000000 
P           0.000000000000000    0.458902000000000    0.221915000000000 
P           0.000000000000000    0.458902000000000    0.778085000000000 
P           0.458902000000000    0.000000000000000    0.221915000000000 
P           0.458902000000000    0.000000000000000    0.778085000000000 
P           0.541098000000000    0.541098000000000    0.221915000000000 
P           0.541098000000000    0.541098000000000    0.778085000000000 
K           0.000000000000000    0.000000000000000    0.000000000000000 
K           0.000000000000000    0.238930000000000    0.267636000000000 
K           0.000000000000000    0.238930000000000    0.732364000000000 
K           0.141101000000000    0.732182000000000    0.500000000000000 
K           0.185590000000000    0.800913000000000    0.000000000000000 
K           0.199087000000000    0.384677000000000    0.000000000000000 
K           0.238930000000000    0.000000000000000    0.267636000000000 
K           0.238930000000000    0.000000000000000    0.732364000000000 
K           0.267818000000000    0.408919000000000    0.500000000000000 
K           0.333333000000000    0.666667000000000    0.500000000000000 
K           0.384677000000000    0.199087000000000    0.000000000000000 
K           0.408919000000000    0.267818000000000    0.500000000000000 
K           0.591081000000000    0.858899000000000    0.500000000000000 
K           0.615323000000000    0.814410000000000    0.000000000000000 
K           0.666667000000000    0.333333000000000    0.500000000000000 
K           0.732182000000000    0.141101000000000    0.500000000000000 
K           0.761070000000000    0.761070000000000    0.267636000000000 
K           0.761070000000000    0.761070000000000    0.732364000000000 
K           0.800913000000000    0.185590000000000    0.000000000000000 
K           0.814410000000000    0.615323000000000    0.000000000000000 
K           0.858899000000000    0.591081000000000    0.500000000000000 
%ENDBLOCK POSITIONS_FRAC
