# Cell file generated by matador (Matthew Evans 2016)

%BLOCK LATTICE_CART
8.39231 0.0 0.0
-4.19615 7.26795 0.0
0.0 0.0 8.30101
%ENDBLOCK LATTICE_CART

%BLOCK POSITIONS_FRAC
P           0.000000000000000    0.000000000000000    0.020526000000000 
P           0.000000000000000    0.000000000000000    0.206564000000000 
P           0.000000000000000    0.000000000000000    0.782026000000000 
P           0.000000000000000    0.500000000000000    0.087980000000000 
P           0.333333000000000    0.666667000000000    0.329993000000000 
P           0.333333000000000    0.666667000000000    0.756939000000000 
P           0.333333000000000    0.666667000000000    0.979167000000000 
P           0.500000000000000    0.000000000000000    0.087980000000000 
P           0.500000000000000    0.500000000000000    0.087980000000000 
P           0.666667000000000    0.333333000000000    0.329993000000000 
P           0.666667000000000    0.333333000000000    0.756939000000000 
P           0.666667000000000    0.333333000000000    0.979167000000000 
K           0.000000000000000    0.500000000000000    0.583746000000000 
K           0.500000000000000    0.000000000000000    0.583746000000000 
K           0.500000000000000    0.500000000000000    0.583746000000000 
%ENDBLOCK POSITIONS_FRAC
