# Cell file generated by matador (Matthew Evans 2016)

%BLOCK LATTICE_CART
8.09266 0.0 0.0
0.0 11.0641 0.0
0.0 0.0 9.8103
%ENDBLOCK LATTICE_CART

%BLOCK POSITIONS_FRAC
P           0.000000000000000    0.500000000000000    0.000000000000000 
P           0.000000000000000    0.500000000000000    0.205533000000000 
P           0.000000000000000    0.500000000000000    0.794467000000000 
P           0.500000000000000    0.000000000000000    0.000000000000000 
P           0.500000000000000    0.000000000000000    0.205533000000000 
P           0.500000000000000    0.000000000000000    0.794467000000000 
K           0.000000000000000    0.500000000000000    0.500000000000000 
K           0.043540000000000    0.712247000000000    0.000000000000000 
K           0.145024000000000    0.920572000000000    0.500000000000000 
K           0.217759000000000    0.000454000000000    0.000000000000000 
K           0.221802000000000    0.176947000000000    0.500000000000000 
K           0.278198000000000    0.676947000000000    0.500000000000000 
K           0.282241000000000    0.500454000000000    0.000000000000000 
K           0.354976000000000    0.420572000000000    0.500000000000000 
K           0.456460000000000    0.212247000000000    0.000000000000000 
K           0.500000000000000    0.000000000000000    0.500000000000000 
K           0.543540000000000    0.787753000000000    0.000000000000000 
K           0.645024000000000    0.579428000000000    0.500000000000000 
K           0.717759000000000    0.499546000000000    0.000000000000000 
K           0.721802000000000    0.323053000000000    0.500000000000000 
K           0.778198000000000    0.823053000000000    0.500000000000000 
K           0.782241000000000    0.999546000000000    0.000000000000000 
K           0.854976000000000    0.079428000000000    0.500000000000000 
K           0.956460000000000    0.287753000000000    0.000000000000000 
%ENDBLOCK POSITIONS_FRAC
