# Cell file generated by matador (Matthew Evans 2016)

%BLOCK LATTICE_CART
4.35619 0.0 0.0
-2.1781 3.77257 0.0
0.0 0.0 16.3038
%ENDBLOCK LATTICE_CART

%BLOCK POSITIONS_FRAC
P           0.000000000000000    0.000000000000000    0.171132000000000 
P           0.000000000000000    0.000000000000000    0.551925000000000 
P           0.178999000000000    0.734643000000000    0.647573000000000 
P           0.265357000000000    0.444356000000000    0.647573000000000 
P           0.333333000000000    0.666667000000000    0.255330000000000 
P           0.555644000000000    0.821001000000000    0.647573000000000 
P           0.666667000000000    0.333333000000000    0.443048000000000 
K           0.000000000000000    0.000000000000000    0.729347000000000 
K           0.333333000000000    0.666667000000000    0.820316000000000 
K           0.666667000000000    0.333333000000000    0.073413000000000 
%ENDBLOCK POSITIONS_FRAC
