# Cell file generated by matador (Matthew Evans 2016)

%BLOCK LATTICE_CART
4.80645 0.0 0.0
0.0 8.27478 0.0
0.0 0.0 11.6717
%ENDBLOCK LATTICE_CART

%BLOCK POSITIONS_FRAC
P          -0.000000000000000    0.347230000000000    0.500000000000000 
P          -0.000000000000000    0.500000000000000    0.500000000000000 
P          -0.000000000000000    0.652770000000000    0.500000000000000 
P           0.218396000000000    0.000000000000000    0.222571000000000 
P           0.218396000000000    0.000000000000000    0.777429000000000 
P           0.281604000000000    0.500000000000000    0.277429000000000 
P           0.281604000000000    0.500000000000000    0.722571000000000 
P           0.500000000000000    0.000000000000000    0.000000000000000 
P           0.500000000000000    0.152770000000000    0.000000000000000 
P           0.500000000000000    0.847230000000000    0.000000000000000 
P           0.718396000000000    0.500000000000000    0.277429000000000 
P           0.718396000000000    0.500000000000000    0.722571000000000 
P           0.781604000000000    0.000000000000000    0.222571000000000 
P           0.781604000000000    0.000000000000000    0.777429000000000 
K          -0.000000000000000    0.000000000000000    0.000000000000000 
K           0.500000000000000    0.500000000000000    0.500000000000000 
%ENDBLOCK POSITIONS_FRAC
