# Cell file generated by matador (Matthew Evans 2016)

%BLOCK LATTICE_CART
5.62948 0.0 0.0
0.0 10.6492 0.0
3.8244 0.0 7.20146
%ENDBLOCK LATTICE_CART

%BLOCK POSITIONS_FRAC
P           0.062180000000000    0.261133000000000    0.265239000000000 
P           0.101215000000000    0.331052000000000    0.751574000000000 
P           0.380730000000000    0.863110000000000    0.667476000000000 
P           0.619270000000000    0.863110000000000    0.332524000000000 
P           0.898785000000000    0.331052000000000    0.248426000000000 
P           0.937820000000000    0.261133000000000    0.734761000000000 
K          -0.000000000000000    0.024933000000000    0.000000000000000 
K          -0.000000000000000    0.707030000000000    0.500000000000000 
K          -0.000000000000000    0.994635000000000    0.500000000000000 
K           0.295179000000000    0.144185000000000    0.673331000000000 
K           0.500000000000000    0.317157000000000    0.500000000000000 
K           0.500000000000000    0.605475000000000    0.500000000000000 
K           0.500000000000000    0.978860000000000    0.000000000000000 
K           0.704821000000000    0.144185000000000    0.326669000000000 
%ENDBLOCK POSITIONS_FRAC
