# Cell file generated by matador (Matthew Evans 2016)

%BLOCK LATTICE_CART
7.10295 0.0 0.0
3.06061 7.13917 0.0
0.816781 4.28285 7.81968
%ENDBLOCK LATTICE_CART

%BLOCK POSITIONS_FRAC
P           0.000000000000000    0.000000000000000    0.000000000000000 
P           0.000000000000000    0.000000000000000    0.500000000000000 
P           0.043808000000000    0.832594000000000    0.820636000000000 
P           0.202817000000000    0.927249000000000    0.833152000000000 
P           0.284719000000000    0.096998000000000    0.970510000000000 
P           0.500000000000000    0.000000000000000    0.000000000000000 
P           0.500000000000000    0.000000000000000    0.500000000000000 
P           0.500000000000000    0.500000000000000    0.000000000000000 
P           0.500000000000000    0.500000000000000    0.500000000000000 
P           0.715281000000000    0.903002000000000    0.029490000000000 
P           0.797183000000000    0.072751000000000    0.166848000000000 
P           0.956192000000000    0.167406000000000    0.179364000000000 
K           0.147881000000000    0.614549000000000    0.107577000000000 
K           0.852119000000000    0.385451000000000    0.892423000000000 
%ENDBLOCK POSITIONS_FRAC
