# Cell file generated by matador (Matthew Evans 2016)

%BLOCK LATTICE_CART
5.68901 0.0 0.0
0.0 7.66515 0.0
0.0 0.0 6.77045
%ENDBLOCK LATTICE_CART

%BLOCK POSITIONS_FRAC
P           0.000000000000000    0.500000000000000    0.990899000000000 
P           0.108545000000000    0.801256000000000    0.545571000000000 
P           0.391455000000000    0.301256000000000    0.045571000000000 
P           0.500000000000000    0.000000000000000    0.490899000000000 
P           0.608545000000000    0.698744000000000    0.045571000000000 
P           0.891455000000000    0.198744000000000    0.545571000000000 
K           0.000000000000000    0.000000000000000    0.813672000000000 
K           0.000000000000000    0.500000000000000    0.544540000000000 
K           0.500000000000000    0.000000000000000    0.044540000000000 
K           0.500000000000000    0.500000000000000    0.313672000000000 
%ENDBLOCK POSITIONS_FRAC
