# Cell file generated by matador (Matthew Evans 2016)

%BLOCK LATTICE_CART
6.35965 0.0 0.0
0.0 6.35965 0.0
0.0 0.0 9.16352
%ENDBLOCK LATTICE_CART

%BLOCK POSITIONS_FRAC
P           0.000000000000000    0.174687000000000    0.000000000000000 
P           0.000000000000000    0.825313000000000    0.000000000000000 
P           0.174687000000000    0.000000000000000    0.000000000000000 
P           0.825313000000000    0.000000000000000    0.000000000000000 
K           0.000000000000000    0.000000000000000    0.500000000000000 
K           0.000000000000000    0.500000000000000    0.500000000000000 
K           0.500000000000000    0.000000000000000    0.500000000000000 
K           0.500000000000000    0.500000000000000    0.000000000000000 
K           0.500000000000000    0.500000000000000    0.281744000000000 
K           0.500000000000000    0.500000000000000    0.500000000000000 
K           0.500000000000000    0.500000000000000    0.718256000000000 
%ENDBLOCK POSITIONS_FRAC
