# Cell file generated by matador (Matthew Evans 2016)

%BLOCK LATTICE_CART
8.85602 0.0 0.0
-1.55812 8.25781 0.0
1.41111 -1.91756 8.11248
%ENDBLOCK LATTICE_CART

%BLOCK POSITIONS_FRAC
P           0.103453000000000    0.125739000000000    0.446776000000000 
P           0.223515000000000    0.475284000000000    0.544646000000000 
P           0.235292000000000    0.321913000000000    0.120649000000000 
P           0.301220000000000    0.919687000000000    0.389415000000000 
P           0.309613000000000    0.942590000000000    0.757298000000000 
P           0.339074000000000    0.744005000000000    0.507604000000000 
P           0.660926000000000    0.255995000000000    0.492396000000000 
P           0.690387000000000    0.057410000000000    0.242702000000000 
P           0.698780000000000    0.080313000000000    0.610585000000000 
P           0.764708000000000    0.678087000000000    0.879351000000000 
P           0.776485000000000    0.524716000000000    0.455354000000000 
P           0.896547000000000    0.874261000000000    0.553224000000000 
K           0.000000000000000    0.000000000000000    0.000000000000000 
K           0.006623000000000    0.448350000000000    0.724901000000000 
K           0.138918000000000    0.849296000000000    0.028076000000000 
K           0.500000000000000    0.000000000000000    0.500000000000000 
K           0.500000000000000    0.500000000000000    0.000000000000000 
K           0.500000000000000    0.500000000000000    0.500000000000000 
K           0.861082000000000    0.150704000000000    0.971924000000000 
K           0.993377000000000    0.551650000000000    0.275099000000000 
%ENDBLOCK POSITIONS_FRAC
