# Cell file generated by matador (Matthew Evans 2016)

%BLOCK LATTICE_CART
6.7584 0.0 0.0
-3.3792 5.85294 0.0
0.0 0.0 12.2704
%ENDBLOCK LATTICE_CART

%BLOCK POSITIONS_FRAC
P           0.000000000000000    0.000000000000000    0.000000000000000 
P           0.000000000000000    0.000000000000000    0.500000000000000 
P           0.000000000000000    0.174791000000000    0.000000000000000 
P           0.000000000000000    0.594359000000000    0.000000000000000 
P           0.174791000000000    0.000000000000000    0.000000000000000 
P           0.333333000000000    0.666667000000000    0.522188000000000 
P           0.405641000000000    0.405641000000000    0.000000000000000 
P           0.594359000000000    0.000000000000000    0.000000000000000 
P           0.666667000000000    0.333333000000000    0.477812000000000 
P           0.825209000000000    0.825209000000000    0.000000000000000 
K           0.000000000000000    0.000000000000000    0.160169000000000 
K           0.000000000000000    0.000000000000000    0.839831000000000 
K           0.333333000000000    0.666667000000000    0.687329000000000 
K           0.666667000000000    0.333333000000000    0.312671000000000 
%ENDBLOCK POSITIONS_FRAC
