# Cell file generated by matador (Matthew Evans 2016)

%BLOCK LATTICE_CART
7.67523 0.0 0.0
0.0 9.15261 0.0
1.68706 0.0 5.47752
%ENDBLOCK LATTICE_CART

%BLOCK POSITIONS_FRAC
P           0.000000000000000    0.499273000000000    0.000000000000000 
P           0.000000000000000    0.623455000000000    0.000000000000000 
P           0.500000000000000    0.034056000000000    0.500000000000000 
P           0.500000000000000    0.196267000000000    0.000000000000000 
P           0.500000000000000    0.504781000000000    0.000000000000000 
K           0.000000000000000    0.246534000000000    0.500000000000000 
K           0.000000000000000    0.895323000000000    0.500000000000000 
K           0.126112000000000    0.526871000000000    0.306325000000000 
K           0.220623000000000    0.288207000000000    0.937198000000000 
K           0.500000000000000    0.713044000000000    0.500000000000000 
K           0.779377000000000    0.288207000000000    0.062802000000000 
K           0.873888000000000    0.526871000000000    0.693675000000000 
%ENDBLOCK POSITIONS_FRAC
