# Cell file generated by matador (Matthew Evans 2016)

%BLOCK LATTICE_CART
5.97157 0.0 0.0
0.0 5.97157 0.0
0.0 0.0 5.70572
%ENDBLOCK LATTICE_CART

%BLOCK POSITIONS_FRAC
P           0.000000000000000    0.000000000000000    0.000000000000000 
P           0.000000000000000    0.500000000000000    0.301448000000000 
P           0.213745000000000    0.254126000000000    0.262093000000000 
P           0.254126000000000    0.786255000000000    0.737907000000000 
P           0.500000000000000    0.000000000000000    0.698552000000000 
P           0.745874000000000    0.213745000000000    0.737907000000000 
P           0.786255000000000    0.745874000000000    0.262093000000000 
K           0.500000000000000    0.500000000000000    0.000000000000000 
K           0.500000000000000    0.500000000000000    0.500000000000000 
%ENDBLOCK POSITIONS_FRAC
