# Cell file generated by matador (Matthew Evans 2016)

%BLOCK LATTICE_CART
6.25909 0.0 0.0
0.0 11.0468 0.0
0.809883 0.0 10.052
%ENDBLOCK LATTICE_CART

%BLOCK POSITIONS_FRAC
P           0.356074000000000    0.409241000000000    0.163906000000000 
P           0.356074000000000    0.590759000000000    0.663906000000000 
P           0.643926000000000    0.409241000000000    0.336094000000000 
P           0.643926000000000    0.590759000000000    0.836094000000000 
K           0.000000000000000    0.000000000000000    0.000000000000000 
K           0.000000000000000    0.000000000000000    0.500000000000000 
K           0.000000000000000    0.124170000000000    0.250000000000000 
K           0.000000000000000    0.500000000000000    0.000000000000000 
K           0.000000000000000    0.500000000000000    0.500000000000000 
K           0.000000000000000    0.875830000000000    0.750000000000000 
K           0.500000000000000    0.000000000000000    0.000000000000000 
K           0.500000000000000    0.000000000000000    0.500000000000000 
K           0.500000000000000    0.250991000000000    0.250000000000000 
K           0.500000000000000    0.500000000000000    0.000000000000000 
K           0.500000000000000    0.500000000000000    0.500000000000000 
K           0.500000000000000    0.749009000000000    0.750000000000000 
%ENDBLOCK POSITIONS_FRAC
