# Cell file generated by matador (Matthew Evans 2016)

%BLOCK LATTICE_CART
7.63256 0.0 0.0
0.0 4.6675 0.0
2.36665 0.0 6.51403
%ENDBLOCK LATTICE_CART

%BLOCK POSITIONS_FRAC
P           0.000000000000000    0.610385000000000    0.500000000000000 
P           0.016189000000000    0.904249000000000    0.386835000000000 
P           0.349520000000000    0.459212000000000    0.331472000000000 
P           0.398461000000000    0.789493000000000    0.850369000000000 
P           0.601539000000000    0.789493000000000    0.149631000000000 
P           0.650480000000000    0.459212000000000    0.668528000000000 
P           0.983811000000000    0.904249000000000    0.613165000000000 
K           0.000000000000000    0.371200000000000    0.000000000000000 
K           0.251808000000000    0.373502000000000    0.072071000000000 
K           0.500000000000000    0.075316000000000    0.000000000000000 
K           0.748192000000000    0.373502000000000    0.927929000000000 
%ENDBLOCK POSITIONS_FRAC
