# Cell file generated by matador (Matthew Evans 2016)

%BLOCK LATTICE_CART
7.10165 0.0 0.0
-3.55083 6.15021 0.0
0.0 0.0 11.1157
%ENDBLOCK LATTICE_CART

%BLOCK POSITIONS_FRAC
P           0.000000000000000    0.000000000000000    0.304814000000000 
P           0.333333000000000    0.666667000000000    0.971481000000000 
P           0.666667000000000    0.333333000000000    0.638148000000000 
K           0.174169000000000    0.348338000000000    0.658609000000000 
K           0.174169000000000    0.825831000000000    0.658609000000000 
K           0.318328000000000    0.159164000000000    0.991942000000000 
K           0.507502000000000    0.015005000000000    0.325276000000000 
K           0.507502000000000    0.492498000000000    0.325276000000000 
K           0.651662000000000    0.825831000000000    0.658609000000000 
K           0.840836000000000    0.159164000000000    0.991942000000000 
K           0.840836000000000    0.681672000000000    0.991942000000000 
K           0.984995000000000    0.492498000000000    0.325276000000000 
%ENDBLOCK POSITIONS_FRAC
