# Cell file generated by matador (Matthew Evans 2016)

%BLOCK LATTICE_CART
9.35974 0.0 0.0
-4.67987 8.10577 0.0
0.0 0.0 8.64862
%ENDBLOCK LATTICE_CART

%BLOCK POSITIONS_FRAC
P           0.241944000000000    0.483888000000000    0.041923000000000 
P           0.241944000000000    0.758056000000000    0.041923000000000 
P           0.516112000000000    0.758056000000000    0.041923000000000 
P           0.666667000000000    0.333333000000000    0.173540000000000 
K           0.046190000000000    0.523095000000000    0.023036000000000 
K           0.162836000000000    0.325671000000000    0.285539000000000 
K           0.162836000000000    0.837164000000000    0.285539000000000 
K           0.166076000000000    0.332153000000000    0.729315000000000 
K           0.166076000000000    0.833924000000000    0.729315000000000 
K           0.416376000000000    0.208188000000000    0.599980000000000 
K           0.476905000000000    0.523095000000000    0.023036000000000 
K           0.476905000000000    0.953810000000000    0.023036000000000 
K           0.667847000000000    0.833924000000000    0.729315000000000 
K           0.674329000000000    0.837164000000000    0.285539000000000 
K           0.791812000000000    0.208188000000000    0.599980000000000 
K           0.791812000000000    0.583624000000000    0.599980000000000 
%ENDBLOCK POSITIONS_FRAC
