# Cell file generated by matador (Matthew Evans 2016)

%BLOCK LATTICE_CART
9.54872 0.0 0.0
-4.77436 8.26944 0.0
0.0 0.0 6.35322
%ENDBLOCK LATTICE_CART

%BLOCK POSITIONS_FRAC
P           0.062563000000000    0.197860000000000    0.239397000000000 
P           0.091488000000000    0.717923000000000    0.563993000000000 
P           0.135297000000000    0.937437000000000    0.239397000000000 
P           0.197860000000000    0.135297000000000    0.760603000000000 
P           0.282077000000000    0.373565000000000    0.563993000000000 
P           0.333333000000000    0.666667000000000    0.617265000000000 
P           0.373565000000000    0.091488000000000    0.436007000000000 
P           0.626435000000000    0.908512000000000    0.563993000000000 
P           0.666667000000000    0.333333000000000    0.382735000000000 
P           0.717923000000000    0.626435000000000    0.436007000000000 
P           0.802140000000000    0.864703000000000    0.239397000000000 
P           0.864703000000000    0.062563000000000    0.760603000000000 
P           0.908512000000000    0.282077000000000    0.436007000000000 
P           0.937437000000000    0.802140000000000    0.760603000000000 
K           0.000000000000000    0.000000000000000    0.000000000000000 
K           0.000000000000000    0.000000000000000    0.500000000000000 
K           0.333333000000000    0.666667000000000    0.956080000000000 
K           0.666667000000000    0.333333000000000    0.043920000000000 
%ENDBLOCK POSITIONS_FRAC
