# Cell file generated by matador (Matthew Evans 2016)

%BLOCK LATTICE_CART
6.09401 0.0 0.0
-3.04701 5.27757 0.0
0.0 0.0 6.8501
%ENDBLOCK LATTICE_CART

%BLOCK POSITIONS_FRAC
P           0.000000000000000    0.633290000000000    0.500000000000000 
P           0.333333000000000    0.666667000000000    0.938663000000000 
P           0.366710000000000    0.366710000000000    0.500000000000000 
P           0.633290000000000    0.000000000000000    0.500000000000000 
P           0.666667000000000    0.333333000000000    0.061337000000000 
K           0.000000000000000    0.000000000000000    0.000000000000000 
K           0.333333000000000    0.666667000000000    0.584283000000000 
K           0.666667000000000    0.333333000000000    0.415717000000000 
%ENDBLOCK POSITIONS_FRAC
