# Cell file generated by matador (Matthew Evans 2016)

%BLOCK LATTICE_CART
9.21306 0.0 0.0
-4.60653 7.97874 0.0
0.0 0.0 5.08379
%ENDBLOCK LATTICE_CART

%BLOCK POSITIONS_FRAC
P           0.000000000000000    0.000000000000000    0.500000000000000 
P           0.000000000000000    0.500000000000000    0.500000000000000 
P           0.500000000000000    0.000000000000000    0.500000000000000 
P           0.500000000000000    0.500000000000000    0.500000000000000 
K           0.000000000000000    0.000000000000000    0.000000000000000 
K           0.000000000000000    0.500000000000000    0.000000000000000 
K           0.229777000000000    0.459554000000000    0.456011000000000 
K           0.229777000000000    0.770223000000000    0.456011000000000 
K           0.459554000000000    0.229777000000000    0.543989000000000 
K           0.500000000000000    0.000000000000000    0.000000000000000 
K           0.500000000000000    0.500000000000000    0.000000000000000 
K           0.540446000000000    0.770223000000000    0.456011000000000 
K           0.770223000000000    0.229777000000000    0.543989000000000 
K           0.770223000000000    0.540446000000000    0.543989000000000 
%ENDBLOCK POSITIONS_FRAC
