# Cell file generated by matador (Matthew Evans 2016)

%BLOCK LATTICE_CART
11.3768 0.0 0.0
0.0 6.55408 0.0
0.0 0.0 6.71221
%ENDBLOCK LATTICE_CART

%BLOCK POSITIONS_FRAC
P           0.000000000000000    0.000000000000000    0.500000000000000 
P           0.500000000000000    0.500000000000000    0.000000000000000 
P           0.500000000000000    0.500000000000000    0.500000000000000 
K           0.000000000000000    0.000000000000000    0.000000000000000 
K           0.000000000000000    0.500000000000000    0.000000000000000 
K           0.000000000000000    0.500000000000000    0.500000000000000 
K           0.221561000000000    0.500000000000000    0.258437000000000 
K           0.221561000000000    0.500000000000000    0.741563000000000 
K           0.500000000000000    0.000000000000000    0.000000000000000 
K           0.500000000000000    0.000000000000000    0.500000000000000 
K           0.778439000000000    0.500000000000000    0.258437000000000 
K           0.778439000000000    0.500000000000000    0.741563000000000 
%ENDBLOCK POSITIONS_FRAC
