# Cell file generated by matador (Matthew Evans 2016)

%BLOCK LATTICE_CART
8.81406 0.0 0.0
0.0 8.81406 0.0
0.0 0.0 7.93735
%ENDBLOCK LATTICE_CART

%BLOCK POSITIONS_FRAC
P           0.000000000000000    0.000000000000000    0.000000000000000 
P           0.000000000000000    0.000000000000000    0.332660000000000 
P           0.000000000000000    0.000000000000000    0.667340000000000 
P           0.000000000000000    0.500000000000000    0.611102000000000 
P           0.000000000000000    0.500000000000000    0.750000000000000 
P           0.000000000000000    0.500000000000000    0.888898000000000 
P           0.500000000000000    0.000000000000000    0.111102000000000 
P           0.500000000000000    0.000000000000000    0.250000000000000 
P           0.500000000000000    0.000000000000000    0.388898000000000 
P           0.500000000000000    0.500000000000000    0.167340000000000 
P           0.500000000000000    0.500000000000000    0.500000000000000 
P           0.500000000000000    0.500000000000000    0.832660000000000 
K           0.138510000000000    0.346690000000000    0.382462000000000 
K           0.153310000000000    0.638510000000000    0.117538000000000 
K           0.346690000000000    0.861490000000000    0.617538000000000 
K           0.361490000000000    0.153310000000000    0.882462000000000 
K           0.638510000000000    0.846690000000000    0.882462000000000 
K           0.653310000000000    0.138510000000000    0.617538000000000 
K           0.846690000000000    0.361490000000000    0.117538000000000 
K           0.861490000000000    0.653310000000000    0.382462000000000 
%ENDBLOCK POSITIONS_FRAC
