# Cell file generated by matador (Matthew Evans 2016)

%BLOCK LATTICE_CART
7.46229 0.0 0.0
0.0 7.46229 0.0
0.0 0.0 12.1451
%ENDBLOCK LATTICE_CART

%BLOCK POSITIONS_FRAC
P          -0.000000000000000    0.500000000000000    0.040377000000000 
P          -0.000000000000000    0.500000000000000    0.540377000000000 
P           0.500000000000000   -0.000000000000000    0.040377000000000 
P           0.500000000000000   -0.000000000000000    0.540377000000000 
K          -0.000000000000000   -0.000000000000000    0.198484000000000 
K          -0.000000000000000   -0.000000000000000    0.702854000000000 
K           0.230025000000000    0.230025000000000    0.955524000000000 
K           0.230025000000000    0.769975000000000    0.955524000000000 
K           0.269975000000000    0.269975000000000    0.455524000000000 
K           0.269975000000000    0.730025000000000    0.455524000000000 
K           0.500000000000000    0.500000000000000    0.202854000000000 
K           0.500000000000000    0.500000000000000    0.698484000000000 
K           0.730025000000000    0.269975000000000    0.455524000000000 
K           0.730025000000000    0.730025000000000    0.455524000000000 
K           0.769975000000000    0.230025000000000    0.955524000000000 
K           0.769975000000000    0.769975000000000    0.955524000000000 
%ENDBLOCK POSITIONS_FRAC
