# Cell file generated by matador (Matthew Evans 2016)

%BLOCK LATTICE_CART
5.07021 0.0 0.0
-2.53511 4.39093 0.0
0.0 0.0 11.7722
%ENDBLOCK LATTICE_CART

%BLOCK POSITIONS_FRAC
P           0.052365000000000    0.496952000000000    0.256650000000000 
P           0.277731000000000    0.045005000000000    0.613027000000000 
P           0.444587000000000    0.947635000000000    0.256650000000000 
P           0.503048000000000    0.555413000000000    0.256650000000000 
P           0.666667000000000    0.333333000000000    0.779551000000000 
P           0.767274000000000    0.722269000000000    0.613027000000000 
P           0.954995000000000    0.232726000000000    0.613027000000000 
K           0.000000000000000    0.000000000000000    0.260580000000000 
K           0.333333000000000    0.666667000000000    0.879381000000000 
K           0.666667000000000    0.333333000000000    0.112770000000000 
%ENDBLOCK POSITIONS_FRAC
