# Cell file generated by matador (Matthew Evans 2016)

%BLOCK LATTICE_CART
8.45457 -0.0 0.0
-4.22728 7.32187 0.0
0.0 0.0 8.63715
%ENDBLOCK LATTICE_CART

%BLOCK POSITIONS_FRAC
P           0.000000000000000   -0.000000000000000    0.146519000000000 
P           0.000000000000000   -0.000000000000000    0.979337000000000 
P           0.007637000000000    0.828428000000000    0.364997000000000 
P           0.171572000000000    0.179209000000000    0.364997000000000 
P           0.333333000000000    0.666667000000000    0.540044000000000 
P           0.458021000000000    0.019841000000000    0.405805000000000 
P           0.561820000000000    0.541979000000000    0.405805000000000 
P           0.666667000000000    0.333333000000000    0.578709000000000 
P           0.820791000000000    0.992363000000000    0.364997000000000 
P           0.980159000000000    0.438180000000000    0.405805000000000 
K           0.114809000000000    0.684314000000000    0.043720000000000 
K           0.315686000000000    0.430495000000000    0.043720000000000 
K           0.388075000000000    0.162476000000000    0.621267000000000 
K           0.569505000000000    0.885191000000000    0.043720000000000 
K           0.774401000000000    0.611925000000000    0.621267000000000 
K           0.837524000000000    0.225599000000000    0.621267000000000 
%ENDBLOCK POSITIONS_FRAC
