# Cell file generated by matador (Matthew Evans 2016)

%BLOCK LATTICE_CART
8.67205 0.0 0.0
0.0 9.98673 0.0
-0.439072 0.0 3.93442
%ENDBLOCK LATTICE_CART

%BLOCK POSITIONS_FRAC
P           0.000000000000000    0.000000000000000    0.500000000000000 
P           0.000000000000000    0.369135000000000    0.500000000000000 
P           0.000000000000000    0.630865000000000    0.500000000000000 
P           0.297874000000000    0.000000000000000    0.331731000000000 
P           0.500000000000000    0.000000000000000    0.000000000000000 
P           0.500000000000000    0.500000000000000    0.000000000000000 
P           0.702126000000000    0.000000000000000    0.668269000000000 
K           0.000000000000000    0.000000000000000    0.000000000000000 
K           0.234565000000000    0.000000000000000    0.821004000000000 
K           0.246335000000000    0.500000000000000    0.550203000000000 
K           0.753665000000000    0.500000000000000    0.449797000000000 
K           0.765435000000000    0.000000000000000    0.178996000000000 
%ENDBLOCK POSITIONS_FRAC
