# Cell file generated by matador (Matthew Evans 2016)

%BLOCK LATTICE_CART
8.57827 0.0 0.0
0.0 8.57827 0.0
0.0 0.0 7.91603
%ENDBLOCK LATTICE_CART

%BLOCK POSITIONS_FRAC
P           0.159158000000000    0.159158000000000    0.500000000000000 
P           0.159158000000000    0.840842000000000    0.500000000000000 
P           0.840842000000000    0.159158000000000    0.500000000000000 
P           0.840842000000000    0.840842000000000    0.500000000000000 
K           0.000000000000000    0.000000000000000    0.000000000000000 
K           0.000000000000000    0.000000000000000    0.500000000000000 
K           0.000000000000000    0.500000000000000    0.500000000000000 
K           0.201566000000000    0.385247000000000    0.500000000000000 
K           0.201566000000000    0.614753000000000    0.500000000000000 
K           0.385247000000000    0.201566000000000    0.500000000000000 
K           0.385247000000000    0.798434000000000    0.500000000000000 
K           0.500000000000000    0.000000000000000    0.500000000000000 
K           0.500000000000000    0.500000000000000    0.000000000000000 
K           0.500000000000000    0.500000000000000    0.500000000000000 
K           0.614753000000000    0.201566000000000    0.500000000000000 
K           0.614753000000000    0.798434000000000    0.500000000000000 
K           0.798434000000000    0.385247000000000    0.500000000000000 
K           0.798434000000000    0.614753000000000    0.500000000000000 
%ENDBLOCK POSITIONS_FRAC
