# Cell file generated by matador (Matthew Evans 2016)

%BLOCK LATTICE_CART
5.90892 0.0 0.0
-2.95446 5.11727 0.0
0.0 0.0 11.6488
%ENDBLOCK LATTICE_CART

%BLOCK POSITIONS_FRAC
P           0.666667000000000    0.333333000000000    0.000000000000000 
P           0.666667000000000    0.333333000000000    0.500000000000000 
K           0.142909000000000    0.317651000000000    0.250000000000000 
K           0.142909000000000    0.825258000000000    0.750000000000000 
K           0.174742000000000    0.317651000000000    0.750000000000000 
K           0.174742000000000    0.857091000000000    0.250000000000000 
K           0.666667000000000    0.333333000000000    0.250000000000000 
K           0.666667000000000    0.333333000000000    0.750000000000000 
K           0.682349000000000    0.825258000000000    0.250000000000000 
K           0.682349000000000    0.857091000000000    0.750000000000000 
%ENDBLOCK POSITIONS_FRAC
