# Cell file generated by matador (Matthew Evans 2016)

%BLOCK LATTICE_CART
6.61025 0.0 0.0
0.0 6.45875 0.0
0.0 0.0 6.30231
%ENDBLOCK LATTICE_CART

%BLOCK POSITIONS_FRAC
P           0.000000000000000    0.500000000000000    0.238616000000000 
P           0.000000000000000    0.500000000000000    0.950091000000000 
P           0.231220000000000    0.500000000000000    0.981330000000000 
P           0.500000000000000    0.000000000000000    0.419684000000000 
P           0.768780000000000    0.500000000000000    0.981330000000000 
K           0.000000000000000    0.212791000000000    0.482941000000000 
K           0.000000000000000    0.787209000000000    0.482941000000000 
K           0.238678000000000    0.500000000000000    0.589215000000000 
K           0.500000000000000    0.165010000000000    0.965797000000000 
K           0.500000000000000    0.834990000000000    0.965797000000000 
K           0.761322000000000    0.500000000000000    0.589215000000000 
%ENDBLOCK POSITIONS_FRAC
