# Cell file generated by matador (Matthew Evans 2016)

%BLOCK LATTICE_CART
7.13963 0.0 0.0
0.0 8.43936 0.0
0.344364 0.0 5.26478
%ENDBLOCK LATTICE_CART

%BLOCK POSITIONS_FRAC
P           0.111196000000000    0.309795000000000    0.175246000000000 
P           0.111196000000000    0.690205000000000    0.175246000000000 
P           0.182459000000000    0.500000000000000    0.677315000000000 
P           0.201849000000000    0.500000000000000    0.087390000000000 
P           0.217988000000000    0.272462000000000    0.889407000000000 
P           0.217988000000000    0.727538000000000    0.889407000000000 
P           0.394951000000000    0.072825000000000    0.693279000000000 
P           0.394951000000000    0.927175000000000    0.693279000000000 
P           0.691413000000000    0.500000000000000    0.137134000000000 
P           0.975767000000000    0.000000000000000    0.746121000000000 
K           0.244992000000000    0.000000000000000    0.239002000000000 
K           0.571120000000000    0.000000000000000    0.007110000000000 
K           0.728779000000000    0.500000000000000    0.644716000000000 
K           0.832618000000000    0.000000000000000    0.211367000000000 
%ENDBLOCK POSITIONS_FRAC
