# Cell file generated by matador (Matthew Evans 2016)

%BLOCK LATTICE_CART
8.94487 0.0 0.0
-4.47244 7.74649 0.0
0.0 0.0 8.09105
%ENDBLOCK LATTICE_CART

%BLOCK POSITIONS_FRAC
P           0.000000000000000    0.000000000000000    0.250000000000000 
P           0.000000000000000    0.000000000000000    0.750000000000000 
P           0.333333000000000    0.666667000000000    0.750000000000000 
P           0.666667000000000    0.333333000000000    0.250000000000000 
K           0.086170000000000    0.748379000000000    0.250000000000000 
K           0.089228000000000    0.416677000000000    0.750000000000000 
K           0.251621000000000    0.337791000000000    0.250000000000000 
K           0.327449000000000    0.910772000000000    0.750000000000000 
K           0.337791000000000    0.251621000000000    0.750000000000000 
K           0.416677000000000    0.089228000000000    0.250000000000000 
K           0.583323000000000    0.672551000000000    0.750000000000000 
K           0.662209000000000    0.913830000000000    0.250000000000000 
K           0.672551000000000    0.583323000000000    0.250000000000000 
K           0.748379000000000    0.086170000000000    0.750000000000000 
K           0.910772000000000    0.327449000000000    0.250000000000000 
K           0.913830000000000    0.662209000000000    0.750000000000000 
%ENDBLOCK POSITIONS_FRAC
