# Cell file generated by matador (Matthew Evans 2016)

%BLOCK LATTICE_CART
4.68928 0.0 0.0
0.0 6.72719 0.0
-1.26446 0.0 5.52626
%ENDBLOCK LATTICE_CART

%BLOCK POSITIONS_FRAC
P          -0.000000000000000    0.336751000000000   -0.000000000000000 
P          -0.000000000000000    0.511479000000000    0.500000000000000 
P          -0.000000000000000    0.676054000000000   -0.000000000000000 
P          -0.000000000000000    0.832636000000000    0.500000000000000 
P           0.500000000000000    0.015910000000000   -0.000000000000000 
K           0.387430000000000    0.403159000000000    0.706321000000000 
K           0.500000000000000    0.801957000000000    0.500000000000000 
K           0.612570000000000    0.403159000000000    0.293679000000000 
%ENDBLOCK POSITIONS_FRAC
