# Cell file generated by matador (Matthew Evans 2016)

%BLOCK LATTICE_CART
5.57 0.0 0.0
0.0 5.57 0.0
0.0 0.0 10.2316
%ENDBLOCK LATTICE_CART

%BLOCK POSITIONS_FRAC
P           0.500000000000000    0.500000000000000    0.000000000000000 
P           0.500000000000000    0.500000000000000    0.500000000000000 
K           0.000000000000000    0.500000000000000    0.500000000000000 
K           0.185322000000000    0.314677000000000    0.000000000000000 
K           0.314677000000000    0.814678000000000    0.000000000000000 
K           0.500000000000000    0.000000000000000    0.500000000000000 
K           0.685323000000000    0.185322000000000    0.000000000000000 
K           0.814678000000000    0.685323000000000    0.000000000000000 
%ENDBLOCK POSITIONS_FRAC
