# Cell file generated by matador (Matthew Evans 2016)

%BLOCK LATTICE_CART
7.93014 0.0 0.0
0.0 7.93014 0.0
0.0 0.0 6.55557
%ENDBLOCK LATTICE_CART

%BLOCK POSITIONS_FRAC
P           0.000000000000000    0.000000000000000    0.330475000000000 
P           0.000000000000000    0.000000000000000    0.830475000000000 
P           0.500000000000000    0.500000000000000    0.174649000000000 
P           0.500000000000000    0.500000000000000    0.674649000000000 
K           0.206901000000000    0.206901000000000    0.264653000000000 
K           0.206901000000000    0.793099000000000    0.764653000000000 
K           0.284606000000000    0.284606000000000    0.709145000000000 
K           0.284606000000000    0.715394000000000    0.209145000000000 
K           0.715394000000000    0.284606000000000    0.209145000000000 
K           0.715394000000000    0.715394000000000    0.709145000000000 
K           0.793099000000000    0.206901000000000    0.764653000000000 
K           0.793099000000000    0.793099000000000    0.264653000000000 
%ENDBLOCK POSITIONS_FRAC
