# Cell file generated by matador (Matthew Evans 2016)

%BLOCK LATTICE_CART
6.6312 0.0 0.0
-3.3156 5.74278 0.0
0.0 0.0 8.44059
%ENDBLOCK LATTICE_CART

%BLOCK POSITIONS_FRAC
P           0.000000000000000    0.000000000000000    0.060215000000000 
P           0.000000000000000    0.000000000000000    0.224043000000000 
P           0.666667000000000    0.333333000000000    0.345053000000000 
K           0.000000000000000    0.000000000000000    0.597776000000000 
K           0.531512000000000    0.063024000000000    0.964216000000000 
K           0.531512000000000    0.468488000000000    0.964216000000000 
K           0.666667000000000    0.333333000000000    0.721742000000000 
K           0.936976000000000    0.468488000000000    0.964216000000000 
%ENDBLOCK POSITIONS_FRAC
