# Cell file generated by matador (Matthew Evans 2016)

%BLOCK LATTICE_CART
7.37697 0.0 0.0
0.0 7.37697 0.0
0.0 0.0 10.9202
%ENDBLOCK LATTICE_CART

%BLOCK POSITIONS_FRAC
P           0.000000000000000    0.500000000000000    0.183147000000000 
P           0.000000000000000    0.500000000000000    0.816853000000000 
P           0.500000000000000    0.000000000000000    0.183147000000000 
P           0.500000000000000    0.000000000000000    0.816853000000000 
K           0.000000000000000    0.000000000000000    0.000000000000000 
K           0.000000000000000    0.500000000000000    0.000000000000000 
K           0.000000000000000    0.500000000000000    0.500000000000000 
K           0.070365000000000    0.152810000000000    0.403893000000000 
K           0.152810000000000    0.929635000000000    0.596107000000000 
K           0.347190000000000    0.429635000000000    0.596107000000000 
K           0.429635000000000    0.652810000000000    0.403893000000000 
K           0.500000000000000    0.000000000000000    0.000000000000000 
K           0.500000000000000    0.000000000000000    0.500000000000000 
K           0.500000000000000    0.500000000000000    0.000000000000000 
K           0.570365000000000    0.347190000000000    0.403893000000000 
K           0.652810000000000    0.570365000000000    0.596107000000000 
K           0.847190000000000    0.070365000000000    0.596107000000000 
K           0.929635000000000    0.847190000000000    0.403893000000000 
%ENDBLOCK POSITIONS_FRAC
