# Cell file generated by matador (Matthew Evans 2016)

%BLOCK LATTICE_CART
11.8417 0.0 0.0
-5.92084 10.2552 0.0
0.0 0.0 8.00933
%ENDBLOCK LATTICE_CART

%BLOCK POSITIONS_FRAC
P           0.204114000000000    0.408228000000000    0.814614000000000 
P           0.204114000000000    0.795886000000000    0.814614000000000 
P           0.408228000000000    0.204114000000000    0.314614000000000 
P           0.591772000000000    0.795886000000000    0.814614000000000 
P           0.795886000000000    0.204114000000000    0.314614000000000 
P           0.795886000000000    0.591772000000000    0.314614000000000 
K           0.071845000000000    0.535922000000000    0.766072000000000 
K           0.096456000000000    0.192912000000000    0.481083000000000 
K           0.096456000000000    0.903544000000000    0.481083000000000 
K           0.192912000000000    0.096456000000000    0.981083000000000 
K           0.237584000000000    0.475168000000000    0.138411000000000 
K           0.237584000000000    0.762416000000000    0.138411000000000 
K           0.464078000000000    0.535922000000000    0.766072000000000 
K           0.464078000000000    0.928155000000000    0.766072000000000 
K           0.475168000000000    0.237584000000000    0.638411000000000 
K           0.524832000000000    0.762416000000000    0.138411000000000 
K           0.535922000000000    0.071845000000000    0.266072000000000 
K           0.535922000000000    0.464078000000000    0.266072000000000 
K           0.762416000000000    0.237584000000000    0.638411000000000 
K           0.762416000000000    0.524832000000000    0.638411000000000 
K           0.807088000000000    0.903544000000000    0.481083000000000 
K           0.903544000000000    0.096456000000000    0.981083000000000 
K           0.903544000000000    0.807088000000000    0.981083000000000 
K           0.928155000000000    0.464078000000000    0.266072000000000 
%ENDBLOCK POSITIONS_FRAC
