# Cell file generated by matador (Matthew Evans 2016)

%BLOCK LATTICE_CART
8.33758 0.0 0.0
-4.16879 7.22056 0.0
0.0 0.0 9.25547
%ENDBLOCK LATTICE_CART

%BLOCK POSITIONS_FRAC
P           0.108956000000000    0.353128000000000    0.603944000000000 
P           0.244172000000000    0.891044000000000    0.603944000000000 
P           0.313539000000000    0.089162000000000    0.937278000000000 
P           0.442290000000000    0.019795000000000    0.270611000000000 
P           0.577505000000000    0.557710000000000    0.270611000000000 
P           0.646872000000000    0.755828000000000    0.603944000000000 
P           0.775623000000000    0.686461000000000    0.937278000000000 
P           0.910838000000000    0.224377000000000    0.937278000000000 
P           0.980205000000000    0.422495000000000    0.270611000000000 
K           0.000000000000000   -0.000000000000000    0.432997000000000 
K           0.000000000000000   -0.000000000000000    0.710716000000000 
K           0.333333000000000    0.666667000000000    0.099664000000000 
K           0.333333000000000    0.666667000000000    0.377382000000000 
K           0.666667000000000    0.333333000000000    0.044049000000000 
K           0.666667000000000    0.333333000000000    0.766331000000000 
%ENDBLOCK POSITIONS_FRAC
