# Cell file generated by matador (Matthew Evans 2016)

%BLOCK LATTICE_CART
8.59601 0.0 0.0
0.0 8.16029 0.0
0.0 0.0 7.54849
%ENDBLOCK LATTICE_CART

%BLOCK POSITIONS_FRAC
P           0.088231000000000    0.129634000000000    0.471326000000000 
P           0.088231000000000    0.370366000000000    0.528674000000000 
P           0.250000000000000    0.250000000000000    0.500000000000000 
P           0.250000000000000    0.750000000000000    0.500000000000000 
P           0.411769000000000    0.129634000000000    0.528674000000000 
P           0.411769000000000    0.370366000000000    0.471326000000000 
P           0.588231000000000    0.629634000000000    0.528674000000000 
P           0.588231000000000    0.870366000000000    0.471326000000000 
P           0.750000000000000    0.250000000000000    0.500000000000000 
P           0.750000000000000    0.750000000000000    0.500000000000000 
P           0.911769000000000    0.629634000000000    0.471326000000000 
P           0.911769000000000    0.870366000000000    0.528674000000000 
K           0.250000000000000    0.750000000000000    0.000000000000000 
K           0.750000000000000    0.250000000000000    0.000000000000000 
%ENDBLOCK POSITIONS_FRAC
