# Cell file generated by matador (Matthew Evans 2016)

%BLOCK LATTICE_CART
7.12052 0.0 0.0
-3.56026 6.16655 0.0
0.0 0.0 8.56164
%ENDBLOCK LATTICE_CART

%BLOCK POSITIONS_FRAC
P           0.000000000000000    0.500000000000000    0.000000000000000 
P           0.166667000000000    0.333333000000000    0.333333000000000 
P           0.166667000000000    0.833333000000000    0.333333000000000 
P           0.333333000000000    0.166667000000000    0.666667000000000 
P           0.500000000000000    0.000000000000000    0.000000000000000 
P           0.500000000000000    0.500000000000000    0.000000000000000 
P           0.666667000000000    0.833333000000000    0.333333000000000 
P           0.833333000000000    0.166667000000000    0.666667000000000 
P           0.833333000000000    0.666667000000000    0.666667000000000 
K           0.000000000000000    0.000000000000000    0.000000000000000 
K           0.000000000000000    0.000000000000000    0.500000000000000 
K           0.333333000000000    0.666667000000000    0.166667000000000 
K           0.333333000000000    0.666667000000000    0.666667000000000 
K           0.666667000000000    0.333333000000000    0.333333000000000 
K           0.666667000000000    0.333333000000000    0.833333000000000 
%ENDBLOCK POSITIONS_FRAC
