# Cell file generated by matador (Matthew Evans 2016)

%BLOCK LATTICE_CART
5.98898 0.0 0.0
0.0 8.1296 0.0
1.81641 0.0 11.8899
%ENDBLOCK LATTICE_CART

%BLOCK POSITIONS_FRAC
P           0.413437000000000    0.365725000000000    0.358791000000000 
P           0.413437000000000    0.634275000000000    0.358791000000000 
P           0.586563000000000    0.365725000000000    0.641209000000000 
P           0.586563000000000    0.634275000000000    0.641209000000000 
K           0.000000000000000    0.000000000000000    0.000000000000000 
K           0.000000000000000    0.000000000000000    0.500000000000000 
K           0.000000000000000    0.500000000000000    0.000000000000000 
K           0.000000000000000    0.500000000000000    0.500000000000000 
K           0.183000000000000    0.500000000000000    0.720509000000000 
K           0.324373000000000    0.000000000000000    0.247689000000000 
K           0.500000000000000    0.000000000000000    0.000000000000000 
K           0.500000000000000    0.000000000000000    0.500000000000000 
K           0.500000000000000    0.500000000000000    0.000000000000000 
K           0.500000000000000    0.500000000000000    0.500000000000000 
K           0.675627000000000    0.000000000000000    0.752311000000000 
K           0.817000000000000    0.500000000000000    0.279491000000000 
%ENDBLOCK POSITIONS_FRAC
