# Cell file generated by matador (Matthew Evans 2016)

%BLOCK LATTICE_CART
6.46678 0.0 0.0
-3.23339 5.60039 0.0
0.0 0.0 7.37989
%ENDBLOCK LATTICE_CART

%BLOCK POSITIONS_FRAC
P           0.000000000000000    0.000000000000000    0.000000000000000 
P           0.000000000000000    0.000000000000000    0.276981000000000 
P           0.000000000000000    0.000000000000000    0.500000000000000 
P           0.000000000000000    0.000000000000000    0.723019000000000 
K           0.000000000000000    0.384810000000000    0.000000000000000 
K           0.333333000000000    0.666667000000000    0.617505000000000 
K           0.384810000000000    0.000000000000000    0.000000000000000 
K           0.615190000000000    0.615190000000000    0.000000000000000 
K           0.666667000000000    0.333333000000000    0.382495000000000 
%ENDBLOCK POSITIONS_FRAC
