# Cell file generated by matador (Matthew Evans 2016)

%BLOCK LATTICE_CART
9.18606 0.0 0.0
0.0 9.0393 0.0
0.0 0.0 8.31182
%ENDBLOCK LATTICE_CART

%BLOCK POSITIONS_FRAC
P           0.148426000000000    0.000000000000000    0.823739000000000 
P           0.351574000000000    0.500000000000000    0.323739000000000 
P           0.648426000000000    0.500000000000000    0.323739000000000 
P           0.851574000000000    0.000000000000000    0.823739000000000 
K           0.000000000000000    0.000000000000000    0.990219000000000 
K           0.000000000000000    0.264917000000000    0.202264000000000 
K           0.000000000000000    0.272588000000000    0.582180000000000 
K           0.000000000000000    0.500000000000000    0.934356000000000 
K           0.000000000000000    0.727412000000000    0.582180000000000 
K           0.000000000000000    0.735083000000000    0.202264000000000 
K           0.500000000000000    0.000000000000000    0.434356000000000 
K           0.500000000000000    0.227412000000000    0.082180000000000 
K           0.500000000000000    0.235083000000000    0.702264000000000 
K           0.500000000000000    0.500000000000000    0.490219000000000 
K           0.500000000000000    0.764917000000000    0.702264000000000 
K           0.500000000000000    0.772588000000000    0.082180000000000 
%ENDBLOCK POSITIONS_FRAC
