# Cell file generated by matador (Matthew Evans 2016)

%BLOCK LATTICE_CART
6.33717 0.0 0.0
0.0 4.99388 0.0
-0.309764 0.0 5.55443
%ENDBLOCK LATTICE_CART

%BLOCK POSITIONS_FRAC
P           0.116989000000000    0.500000000000000    0.913296000000000 
P           0.180437000000000    0.224074000000000    0.943891000000000 
P           0.180437000000000    0.775926000000000    0.943891000000000 
P           0.250357000000000    0.500000000000000    0.626119000000000 
P           0.376605000000000    0.000000000000000    0.022787000000000 
P           0.535281000000000    0.500000000000000    0.856997000000000 
P           0.559778000000000    0.000000000000000    0.220509000000000 
K           0.878237000000000    0.214440000000000    0.741938000000000 
K           0.878237000000000    0.785560000000000    0.741938000000000 
%ENDBLOCK POSITIONS_FRAC
