# Cell file generated by matador (Matthew Evans 2016)

%BLOCK LATTICE_CART
7.40059 0.0 0.0
-3.70029 6.4091 0.0
0.0 0.0 8.72113
%ENDBLOCK LATTICE_CART

%BLOCK POSITIONS_FRAC
P           0.000000000000000    0.000000000000000    0.613787000000000 
P           0.011865000000000    0.269665000000000    0.175154000000000 
P           0.257800000000000    0.988135000000000    0.175154000000000 
P           0.333333000000000    0.666667000000000    0.522592000000000 
P           0.333333000000000    0.666667000000000    0.669873000000000 
P           0.730335000000000    0.742200000000000    0.175154000000000 
K           0.000000000000000    0.000000000000000    0.857915000000000 
K           0.091330000000000    0.284990000000000    0.530192000000000 
K           0.193660000000000    0.908670000000000    0.530192000000000 
K           0.400512000000000    0.267914000000000    0.736559000000000 
K           0.715010000000000    0.806340000000000    0.530192000000000 
K           0.732086000000000    0.132598000000000    0.736559000000000 
K           0.867402000000000    0.599488000000000    0.736559000000000 
%ENDBLOCK POSITIONS_FRAC
