# Cell file generated by matador (Matthew Evans 2016)

%BLOCK LATTICE_CART
7.42219 0.0 0.0
-4.20658 7.77825 0.0
-2.98313 -4.60958 6.19762
%ENDBLOCK LATTICE_CART

%BLOCK POSITIONS_FRAC
P           0.019288000000000    0.835621000000000    0.614379000000000 
P           0.029862000000000    0.701953000000000    0.310331000000000 
P           0.970138000000000    0.298047000000000    0.689669000000000 
P           0.980711000000000    0.164379000000000    0.385621000000000 
K           0.000000000000000    0.000000000000000    0.500000000000000 
K           0.128902000000000    0.655853000000000    0.827133000000000 
K           0.422472000000000    0.013128000000000    0.740207000000000 
K           0.500000000000000    0.000000000000000    0.000000000000000 
K           0.500000000000000    0.500000000000000    0.500000000000000 
K           0.577528000000000    0.986872000000000    0.259793000000000 
K           0.871098000000000    0.344147000000000    0.172867000000000 
%ENDBLOCK POSITIONS_FRAC
