# Cell file generated by matador (Matthew Evans 2016)

%BLOCK LATTICE_CART
6.20088 0.0 0.0
-3.10044 5.37012 0.0
0.0 0.0 10.5791
%ENDBLOCK LATTICE_CART

%BLOCK POSITIONS_FRAC
P           0.000000000000000    0.000000000000000    0.500000000000000 
P           0.333333000000000    0.666667000000000    0.000000000000000 
K           0.000000000000000    0.000000000000000    0.000000000000000 
K           0.292526000000000    0.146263000000000    0.226524000000000 
K           0.292526000000000    0.146263000000000    0.773476000000000 
K           0.333333000000000    0.666667000000000    0.500000000000000 
K           0.666667000000000    0.333333000000000    0.000000000000000 
K           0.666667000000000    0.333333000000000    0.500000000000000 
K           0.853737000000000    0.146263000000000    0.226524000000000 
K           0.853737000000000    0.146263000000000    0.773476000000000 
K           0.853737000000000    0.707474000000000    0.226524000000000 
K           0.853737000000000    0.707474000000000    0.773476000000000 
%ENDBLOCK POSITIONS_FRAC
