# Cell file generated by matador (Matthew Evans 2016)

%BLOCK LATTICE_CART
8.75214 0.0 0.0
-4.37607 7.57958 0.0
0.0 0.0 8.19904
%ENDBLOCK LATTICE_CART

%BLOCK POSITIONS_FRAC
P          -0.000000000000000    0.500000000000000    0.050613000000000 
P          -0.000000000000000    0.500000000000000    0.851464000000000 
P           0.022765000000000    0.769004000000000    0.995987000000000 
P           0.230996000000000    0.253761000000000    0.995987000000000 
P           0.253761000000000    0.022765000000000    0.995987000000000 
P           0.500000000000000   -0.000000000000000    0.050613000000000 
P           0.500000000000000   -0.000000000000000    0.851464000000000 
P           0.500000000000000    0.500000000000000    0.050613000000000 
P           0.500000000000000    0.500000000000000    0.851464000000000 
P           0.746239000000000    0.977235000000000    0.995987000000000 
P           0.769004000000000    0.746239000000000    0.995987000000000 
P           0.977235000000000    0.230996000000000    0.995987000000000 
K           0.085520000000000    0.725464000000000    0.488145000000000 
K           0.274536000000000    0.360056000000000    0.488145000000000 
K           0.333333000000000    0.666667000000000    0.362542000000000 
K           0.360056000000000    0.085520000000000    0.488145000000000 
K           0.639944000000000    0.914480000000000    0.488145000000000 
K           0.666667000000000    0.333333000000000    0.362542000000000 
K           0.725464000000000    0.639944000000000    0.488145000000000 
K           0.914480000000000    0.274536000000000    0.488145000000000 
%ENDBLOCK POSITIONS_FRAC
