# Cell file generated by matador (Matthew Evans 2016)

%BLOCK LATTICE_CART
7.77234 0.0 0.0
-3.88617 6.73104 0.0
0.0 0.0 11.3584
%ENDBLOCK LATTICE_CART

%BLOCK POSITIONS_FRAC
P           0.290149000000000    0.020502000000000    0.016758000000000 
P           0.290149000000000    0.269647000000000    0.516758000000000 
P           0.666667000000000    0.333333000000000    0.078719000000000 
P           0.666667000000000    0.333333000000000    0.578719000000000 
P           0.730353000000000    0.020502000000000    0.516758000000000 
P           0.730353000000000    0.709851000000000    0.016758000000000 
P           0.979498000000000    0.269647000000000    0.016758000000000 
P           0.979498000000000    0.709851000000000    0.516758000000000 
K           0.000000000000000    0.000000000000000    0.038965000000000 
K           0.000000000000000    0.000000000000000    0.538965000000000 
K           0.225423000000000    0.030315000000000    0.813277000000000 
K           0.225423000000000    0.195108000000000    0.313277000000000 
K           0.666667000000000    0.333333000000000    0.342891000000000 
K           0.666667000000000    0.333333000000000    0.842891000000000 
K           0.804892000000000    0.030315000000000    0.313277000000000 
K           0.804892000000000    0.774577000000000    0.813277000000000 
K           0.969685000000000    0.195108000000000    0.813277000000000 
K           0.969685000000000    0.774577000000000    0.313277000000000 
%ENDBLOCK POSITIONS_FRAC
