# Cell file generated by matador (Matthew Evans 2016)

%BLOCK LATTICE_CART
8.52697 0.0 0.0
-4.26348 7.38457 0.0
0.0 0.0 4.44721
%ENDBLOCK LATTICE_CART

%BLOCK POSITIONS_FRAC
P           0.000000000000000    0.000000000000000    0.500000000000000 
P           0.488151000000000    0.429395000000000    0.500000000000000 
P           0.570605000000000    0.058756000000000    0.500000000000000 
P           0.941244000000000    0.511849000000000    0.500000000000000 
K           0.000000000000000    0.000000000000000    0.000000000000000 
K           0.333333000000000    0.666667000000000    0.500000000000000 
K           0.666667000000000    0.333333000000000    0.000000000000000 
K           0.666667000000000    0.333333000000000    0.500000000000000 
%ENDBLOCK POSITIONS_FRAC
