# Cell file generated by matador (Matthew Evans 2016)

%BLOCK LATTICE_CART
5.29627 0.0 0.0
-2.64813 4.5867 0.0
0.0 0.0 13.901
%ENDBLOCK LATTICE_CART

%BLOCK POSITIONS_FRAC
P           0.000000000000000    0.000000000000000    0.336238000000000 
P           0.000000000000000    0.000000000000000    0.663762000000000 
K           0.000000000000000    0.000000000000000    0.000000000000000 
K           0.000000000000000    0.000000000000000    0.500000000000000 
K           0.333333000000000    0.666667000000000    0.000000000000000 
K           0.333333000000000    0.666667000000000    0.500000000000000 
K           0.666667000000000    0.333333000000000    0.000000000000000 
K           0.666667000000000    0.333333000000000    0.500000000000000 
%ENDBLOCK POSITIONS_FRAC
