# Cell file generated by matador (Matthew Evans 2016)

%BLOCK LATTICE_CART
9.69583 0.0 0.0
0.0 9.69583 0.0
0.0 0.0 14.0032
%ENDBLOCK LATTICE_CART

%BLOCK POSITIONS_FRAC
P           0.000000000000000    0.000000000000000    0.000000000000000 
P           0.000000000000000    0.000000000000000    0.500000000000000 
P           0.000000000000000    0.500000000000000    0.111877000000000 
P           0.000000000000000    0.500000000000000    0.611877000000000 
P           0.500000000000000    0.000000000000000    0.388123000000000 
P           0.500000000000000    0.000000000000000    0.888123000000000 
P           0.500000000000000    0.500000000000000    0.000000000000000 
P           0.500000000000000    0.500000000000000    0.500000000000000 
K           0.000000000000000    0.174513000000000    0.897469000000000 
K           0.000000000000000    0.181419000000000    0.388940000000000 
K           0.000000000000000    0.818581000000000    0.388940000000000 
K           0.000000000000000    0.825487000000000    0.897469000000000 
K           0.174513000000000    0.000000000000000    0.102531000000000 
K           0.181419000000000    0.000000000000000    0.611060000000000 
K           0.250000000000000    0.250000000000000    0.250000000000000 
K           0.250000000000000    0.250000000000000    0.750000000000000 
K           0.250000000000000    0.750000000000000    0.250000000000000 
K           0.250000000000000    0.750000000000000    0.750000000000000 
K           0.318581000000000    0.500000000000000    0.888940000000000 
K           0.325487000000000    0.500000000000000    0.397469000000000 
K           0.500000000000000    0.318581000000000    0.111060000000000 
K           0.500000000000000    0.325487000000000    0.602531000000000 
K           0.500000000000000    0.674513000000000    0.602531000000000 
K           0.500000000000000    0.681419000000000    0.111060000000000 
K           0.674513000000000    0.500000000000000    0.397469000000000 
K           0.681419000000000    0.500000000000000    0.888940000000000 
K           0.750000000000000    0.250000000000000    0.250000000000000 
K           0.750000000000000    0.250000000000000    0.750000000000000 
K           0.750000000000000    0.750000000000000    0.250000000000000 
K           0.750000000000000    0.750000000000000    0.750000000000000 
K           0.818581000000000    0.000000000000000    0.611060000000000 
K           0.825487000000000    0.000000000000000    0.102531000000000 
%ENDBLOCK POSITIONS_FRAC
