# Cell file generated by matador (Matthew Evans 2016)

%BLOCK LATTICE_CART
4.89846 0.0 0.0
-2.44923 4.24219 0.0
0.0 0.0 6.28927
%ENDBLOCK LATTICE_CART

%BLOCK POSITIONS_FRAC
P           0.000000000000000    0.000000000000000    0.222839000000000 
P           0.666667000000000    0.333333000000000    0.333939000000000 
K           0.000000000000000    0.000000000000000    0.732933000000000 
K           0.333333000000000    0.666667000000000    0.015617000000000 
K           0.666667000000000    0.333333000000000    0.728652000000000 
%ENDBLOCK POSITIONS_FRAC
