# Cell file generated by matador (Matthew Evans 2016)

%BLOCK LATTICE_CART
9.30764 0.0 0.0
-4.65382 8.06065 0.0
0.0 0.0 6.58431
%ENDBLOCK LATTICE_CART

%BLOCK POSITIONS_FRAC
P          -0.000000000000000   -0.000000000000000    0.644332000000000 
P           0.333333000000000    0.666667000000000    0.310999000000000 
P           0.666667000000000    0.333333000000000    0.977665000000000 
K           0.179239000000000    0.358477000000000    0.029878000000000 
K           0.179239000000000    0.820761000000000    0.029878000000000 
K           0.308189000000000    0.154095000000000    0.363212000000000 
K           0.512572000000000    0.025144000000000    0.696545000000000 
K           0.512572000000000    0.487428000000000    0.696545000000000 
K           0.641523000000000    0.820761000000000    0.029878000000000 
K           0.845905000000000    0.154095000000000    0.363212000000000 
K           0.845905000000000    0.691811000000000    0.363212000000000 
K           0.974856000000000    0.487428000000000    0.696545000000000 
%ENDBLOCK POSITIONS_FRAC
