# Cell file generated by matador (Matthew Evans 2016)

%BLOCK LATTICE_CART
9.06453 0.0 0.0
0.0 7.75909 0.0
3.19203 0.0 6.02414
%ENDBLOCK LATTICE_CART

%BLOCK POSITIONS_FRAC
P           0.921026000000000    0.500000000000000    0.422282000000000 
P           0.973192000000000    0.164078000000000    0.721264000000000 
P           0.973192000000000    0.835922000000000    0.721264000000000 
K           0.034058000000000    0.500000000000000    0.788446000000000 
K           0.206652000000000    0.500000000000000    0.093954000000000 
K           0.247090000000000    0.000000000000000    0.190951000000000 
K           0.361708000000000    0.000000000000000    0.540808000000000 
K           0.399892000000000    0.500000000000000    0.339010000000000 
K           0.572818000000000    0.000000000000000    0.782569000000000 
K           0.660549000000000    0.500000000000000    0.494827000000000 
K           0.677310000000000    0.500000000000000    0.905511000000000 
K           0.858366000000000    0.000000000000000    0.329993000000000 
%ENDBLOCK POSITIONS_FRAC
