# Cell file generated by matador (Matthew Evans 2016)

%BLOCK LATTICE_CART
8.62323 -0.0 0.0
-4.31161 7.46794 0.0
0.0 0.0 6.8784
%ENDBLOCK LATTICE_CART

%BLOCK POSITIONS_FRAC
P           0.073565000000000    0.303929000000000    0.838574000000000 
P           0.101314000000000    0.519801000000000    0.137524000000000 
P           0.230364000000000    0.926435000000000    0.838574000000000 
P           0.418486000000000    0.898686000000000    0.137524000000000 
P           0.480199000000000    0.581514000000000    0.137524000000000 
P           0.696071000000000    0.769636000000000    0.838574000000000 
K           0.286610000000000    0.268922000000000    0.095142000000000 
K           0.516610000000000    0.420193000000000    0.681055000000000 
K           0.579807000000000    0.096417000000000    0.681055000000000 
K           0.666667000000000    0.333333000000000    0.347890000000000 
K           0.731078000000000    0.017688000000000    0.095142000000000 
K           0.903583000000000    0.483390000000000    0.681055000000000 
K           0.982312000000000    0.713390000000000    0.095142000000000 
%ENDBLOCK POSITIONS_FRAC
