# Cell file generated by matador (Matthew Evans 2016)

%BLOCK LATTICE_CART
8.59271 0.0 0.0
-4.29635 7.4415 0.0
0.0 0.0 8.68682
%ENDBLOCK LATTICE_CART

%BLOCK POSITIONS_FRAC
P           0.000000000000000    0.000000000000000    0.500000000000000 
P           0.000000000000000    0.205947000000000    0.500000000000000 
P           0.000000000000000    0.794053000000000    0.500000000000000 
P           0.205947000000000    0.000000000000000    0.500000000000000 
P           0.205947000000000    0.205947000000000    0.500000000000000 
P           0.333333000000000    0.666667000000000    0.500000000000000 
P           0.666667000000000    0.333333000000000    0.500000000000000 
P           0.794053000000000    0.000000000000000    0.500000000000000 
P           0.794053000000000    0.794053000000000    0.500000000000000 
K           0.000000000000000    0.500000000000000    0.000000000000000 
K           0.000000000000000    0.500000000000000    0.500000000000000 
K           0.500000000000000    0.000000000000000    0.000000000000000 
K           0.500000000000000    0.000000000000000    0.500000000000000 
K           0.500000000000000    0.500000000000000    0.000000000000000 
K           0.500000000000000    0.500000000000000    0.500000000000000 
%ENDBLOCK POSITIONS_FRAC
