# Cell file generated by matador (Matthew Evans 2016)

%BLOCK LATTICE_CART
7.2117 0.0 0.0
-3.60585 6.24551 0.0
0.0 0.0 10.0863
%ENDBLOCK LATTICE_CART

%BLOCK POSITIONS_FRAC
P           0.000000000000000    0.000000000000000   -0.000000000000000 
P           0.333333000000000    0.666667000000000    0.666667000000000 
P           0.666667000000000    0.333333000000000    0.333333000000000 
K           0.000000000000000    0.000000000000000    0.500000000000000 
K           0.000000000000000    0.722672000000000    0.500000000000000 
K           0.056006000000000    0.666667000000000    0.166667000000000 
K           0.277328000000000    0.277328000000000    0.500000000000000 
K           0.333333000000000    0.389339000000000    0.166667000000000 
K           0.333333000000000    0.666667000000000    0.166667000000000 
K           0.389339000000000    0.333333000000000    0.833333000000000 
K           0.610661000000000    0.943994000000000    0.166667000000000 
K           0.666667000000000    0.056006000000000    0.833333000000000 
K           0.666667000000000    0.333333000000000    0.833333000000000 
K           0.722672000000000   -0.000000000000000    0.500000000000000 
K           0.943994000000000    0.610661000000000    0.833333000000000 
%ENDBLOCK POSITIONS_FRAC
