# Cell file generated by matador (Matthew Evans 2016)

%BLOCK LATTICE_CART
6.29446 0.0 0.0
-3.14723 5.45116 0.0
0.0 0.0 14.1202
%ENDBLOCK LATTICE_CART

%BLOCK POSITIONS_FRAC
P           0.000000000000000    0.500000000000000    0.000000000000000 
P           0.500000000000000    0.000000000000000    0.000000000000000 
P           0.500000000000000    0.500000000000000    0.000000000000000 
K           0.000000000000000    0.000000000000000    0.000000000000000 
K           0.009358000000000    0.504679000000000    0.365656000000000 
K           0.333333000000000    0.666667000000000    0.165220000000000 
K           0.495321000000000    0.504679000000000    0.365656000000000 
K           0.495321000000000    0.990642000000000    0.365656000000000 
K           0.504679000000000    0.009358000000000    0.634344000000000 
K           0.504679000000000    0.495321000000000    0.634344000000000 
K           0.666667000000000    0.333333000000000    0.834780000000000 
K           0.990642000000000    0.495321000000000    0.634344000000000 
%ENDBLOCK POSITIONS_FRAC
