# Cell file generated by matador (Matthew Evans 2016)

%BLOCK LATTICE_CART
7.53436 0.0 0.0
0.0 7.53436 0.0
0.0 0.0 7.53436
%ENDBLOCK LATTICE_CART

%BLOCK POSITIONS_FRAC
P           0.241465000000000    0.241465000000000    0.241465000000000 
P           0.241465000000000    0.258535000000000    0.741465000000000 
P           0.258535000000000    0.741465000000000    0.241465000000000 
P           0.258535000000000    0.758535000000000    0.741465000000000 
P           0.741465000000000    0.241465000000000    0.258535000000000 
P           0.741465000000000    0.258535000000000    0.758535000000000 
P           0.758535000000000    0.741465000000000    0.258535000000000 
P           0.758535000000000    0.758535000000000    0.758535000000000 
K           0.000000000000000    0.000000000000000    0.000000000000000 
K           0.000000000000000    0.500000000000000    0.500000000000000 
K           0.500000000000000    0.000000000000000    0.500000000000000 
K           0.500000000000000    0.500000000000000    0.000000000000000 
%ENDBLOCK POSITIONS_FRAC
