# Cell file generated by matador (Matthew Evans 2016)

%BLOCK LATTICE_CART
9.13439 0.0 0.0
0.0 7.74517 0.0
2.41042 0.0 6.95895
%ENDBLOCK LATTICE_CART

%BLOCK POSITIONS_FRAC
P           0.311254000000000    0.131248000000000    0.236195000000000 
P           0.311254000000000    0.868752000000000    0.236195000000000 
P           0.720982000000000    0.244917000000000    0.782544000000000 
P           0.720982000000000    0.755083000000000    0.782544000000000 
P           0.904171000000000    0.256989000000000    0.574773000000000 
P           0.904171000000000    0.743011000000000    0.574773000000000 
K           0.260889000000000    0.000000000000000    0.957654000000000 
K           0.343203000000000    0.200295000000000    0.591985000000000 
K           0.343203000000000    0.799705000000000    0.591985000000000 
K           0.503944000000000    0.274120000000000    0.248506000000000 
K           0.503944000000000    0.725880000000000    0.248506000000000 
K           0.581642000000000    0.000000000000000    0.796003000000000 
K           0.741850000000000    0.211897000000000    0.303910000000000 
K           0.741850000000000    0.788103000000000    0.303910000000000 
K           0.882191000000000    0.000000000000000    0.145461000000000 
%ENDBLOCK POSITIONS_FRAC
