# Cell file generated by matador (Matthew Evans 2016)

%BLOCK LATTICE_CART
6.57681 0.0 0.0
0.0 6.26923 0.0
0.0 0.0 8.14565
%ENDBLOCK LATTICE_CART

%BLOCK POSITIONS_FRAC
P           0.000000000000000    0.221163000000000    0.814120000000000 
P           0.500000000000000    0.778837000000000    0.314120000000000 
K           0.000000000000000    0.051637000000000    0.124164000000000 
K           0.000000000000000    0.414319000000000    0.398146000000000 
K           0.000000000000000    0.875090000000000    0.624406000000000 
K           0.500000000000000    0.124910000000000    0.124406000000000 
K           0.500000000000000    0.585681000000000    0.898146000000000 
K           0.500000000000000    0.948363000000000    0.624164000000000 
%ENDBLOCK POSITIONS_FRAC
