# Cell file generated by matador (Matthew Evans 2016)

%BLOCK LATTICE_CART
7.20429 0.0 0.0
-3.60215 6.2391 0.0
0.0 0.0 9.78091
%ENDBLOCK LATTICE_CART

%BLOCK POSITIONS_FRAC
P           0.255437000000000    0.510874000000000    0.750000000000000 
P           0.255437000000000    0.744563000000000    0.750000000000000 
P           0.333333000000000    0.666667000000000    0.683086000000000 
P           0.333333000000000    0.666667000000000    0.816914000000000 
P           0.489126000000000    0.744563000000000    0.750000000000000 
P           0.510874000000000    0.255437000000000    0.250000000000000 
P           0.666667000000000    0.333333000000000    0.183086000000000 
P           0.666667000000000    0.333333000000000    0.316914000000000 
P           0.744563000000000    0.255437000000000    0.250000000000000 
P           0.744563000000000    0.489126000000000    0.250000000000000 
K           0.000000000000000    0.000000000000000    0.000000000000000 
K           0.000000000000000    0.000000000000000    0.250000000000000 
K           0.000000000000000    0.000000000000000    0.500000000000000 
K           0.000000000000000    0.000000000000000    0.750000000000000 
%ENDBLOCK POSITIONS_FRAC
