# Cell file generated by matador (Matthew Evans 2016)

%BLOCK LATTICE_CART
7.46972 0.0 0.0
0.179952 7.3575 0.0
0.892466 -0.453337 5.42171
%ENDBLOCK LATTICE_CART

%BLOCK POSITIONS_FRAC
P           0.192948000000000    0.637126000000000    0.299343000000000 
P           0.270084000000000    0.454258000000000    0.954631000000000 
P           0.500000000000000    0.500000000000000    0.000000000000000 
P           0.729916000000000    0.545742000000000    0.045369000000000 
P           0.807052000000000    0.362874000000000    0.700657000000000 
K           0.000000000000000    0.000000000000000    0.000000000000000 
K           0.000000000000000    0.000000000000000    0.500000000000000 
K           0.000000000000000    0.500000000000000    0.000000000000000 
K           0.000000000000000    0.500000000000000    0.500000000000000 
K           0.500000000000000    0.000000000000000    0.000000000000000 
K           0.500000000000000    0.500000000000000    0.500000000000000 
%ENDBLOCK POSITIONS_FRAC
