# Cell file generated by matador (Matthew Evans 2016)

%BLOCK LATTICE_CART
5.66628 0.0 0.0
-2.83314 4.90714 0.0
0.0 0.0 15.1266
%ENDBLOCK LATTICE_CART

%BLOCK POSITIONS_FRAC
P           0.076627000000000    0.153254000000000    0.166667000000000 
P           0.076627000000000    0.923373000000000    0.833334000000000 
P           0.536320000000000    0.072640000000000    0.666667000000000 
P           0.536320000000000    0.463680000000000    0.333334000000000 
P           0.846746000000000    0.923373000000000    0.500000000000000 
P           0.927360000000000    0.463680000000000    0.000000000000000 
K           0.169921000000000    0.584961000000000    0.500000000000000 
K           0.415039000000000    0.584961000000000    0.833334000000000 
K           0.415039000000000    0.830079000000000    0.166667000000000 
K           0.514929000000000    0.030935000000000    0.847597000000000 
K           0.514929000000000    0.483994000000000    0.152403000000000 
K           0.516006000000000    0.030935000000000    0.485737000000000 
K           0.516006000000000    0.485071000000000    0.514264000000000 
K           0.969065000000000    0.483994000000000    0.180931000000000 
K           0.969065000000000    0.485071000000000    0.819070000000000 
%ENDBLOCK POSITIONS_FRAC
