# Cell file generated by matador (Matthew Evans 2016)

%BLOCK LATTICE_CART
5.42522 0.0 0.0
-0.233775 6.51649 0.0
0.690199 -2.66318 7.42006
%ENDBLOCK LATTICE_CART

%BLOCK POSITIONS_FRAC
P           0.104444000000000    0.404711000000000    0.711633000000000 
P           0.233480000000000    0.362336000000000    0.140739000000000 
P           0.307891000000000    0.168043000000000    0.386261000000000 
P           0.692109000000000    0.831957000000000    0.613739000000000 
P           0.766520000000000    0.637664000000000    0.859261000000000 
P           0.895556000000000    0.595289000000000    0.288367000000000 
K           0.000000000000000    0.000000000000000    0.500000000000000 
K           0.000000000000000    0.500000000000000    0.000000000000000 
K           0.500000000000000    0.000000000000000    0.500000000000000 
K           0.500000000000000    0.500000000000000    0.000000000000000 
K           0.500000000000000    0.500000000000000    0.500000000000000 
%ENDBLOCK POSITIONS_FRAC
