# Cell file generated by matador (Matthew Evans 2016)

%BLOCK LATTICE_CART
7.81396 0.0 0.0
-3.90698 6.76709 0.0
0.0 0.0 5.59087
%ENDBLOCK LATTICE_CART

%BLOCK POSITIONS_FRAC
P           0.333333000000000    0.666667000000000    0.063586000000000 
P           0.333333000000000    0.666667000000000    0.810608000000000 
P           0.666666000000000    0.333334000000000    0.063586000000000 
P           0.666666000000000    0.333334000000000    0.810608000000000 
K          -0.000000000000000    0.000000000000000    0.153237000000000 
K          -0.000000000000000    0.414081000000000    0.107133000000000 
K          -0.000000000000000    0.660519000000000    0.985970000000000 
K           0.339481000000000    0.339481000000000    0.985970000000000 
K           0.414081000000000    0.000000000000000    0.107133000000000 
K           0.585919000000000    0.585919000000000    0.107133000000000 
K           0.660519000000000    0.000000000000000    0.985970000000000 
%ENDBLOCK POSITIONS_FRAC
