# Cell file generated by matador (Matthew Evans 2016)

%BLOCK LATTICE_CART
6.7993 0.0 0.0
0.0 7.36666 0.0
-0.15583 0.0 6.54007
%ENDBLOCK LATTICE_CART

%BLOCK POSITIONS_FRAC
P           0.096261000000000    0.280225000000000    0.214717000000000 
P           0.096261000000000    0.719775000000000    0.214717000000000 
P           0.750762000000000    0.296049000000000    0.705010000000000 
P           0.750762000000000    0.703951000000000    0.705010000000000 
P           0.851848000000000    0.167789000000000    0.340092000000000 
P           0.851848000000000    0.832211000000000    0.340092000000000 
P           0.999861000000000    0.500000000000000    0.126316000000000 
K           0.077191000000000    0.352325000000000    0.844559000000000 
K           0.077191000000000    0.647675000000000    0.844559000000000 
K           0.473723000000000    0.000000000000000    0.233419000000000 
K           0.678444000000000    0.500000000000000    0.114393000000000 
%ENDBLOCK POSITIONS_FRAC
