# Cell file generated by matador (Matthew Evans 2016)

%BLOCK LATTICE_CART
6.79105 0.0 0.0
0.0 7.92487 0.0
0.0 0.0 12.8145
%ENDBLOCK LATTICE_CART

%BLOCK POSITIONS_FRAC
P           0.000000000000000    0.000000000000000   -0.000000000000000 
P           0.000000000000000    0.000000000000000    0.500000000000000 
P           0.000000000000000    0.373104000000000   -0.000000000000000 
P           0.000000000000000    0.500000000000000   -0.000000000000000 
P           0.000000000000000    0.626896000000000   -0.000000000000000 
P           0.147299000000000    0.000000000000000    0.500000000000000 
P           0.352701000000000    0.500000000000000   -0.000000000000000 
P           0.500000000000000    0.000000000000000    0.500000000000000 
P           0.500000000000000    0.126896000000000    0.500000000000000 
P           0.500000000000000    0.500000000000000   -0.000000000000000 
P           0.500000000000000    0.500000000000000    0.500000000000000 
P           0.500000000000000    0.873104000000000    0.500000000000000 
P           0.647299000000000    0.500000000000000   -0.000000000000000 
P           0.852701000000000    0.000000000000000    0.500000000000000 
K           0.000000000000000    0.500000000000000    0.154081000000000 
K           0.000000000000000    0.500000000000000    0.500000000000000 
K           0.000000000000000    0.500000000000000    0.845919000000000 
K           0.500000000000000    0.000000000000000   -0.000000000000000 
K           0.500000000000000    0.000000000000000    0.345919000000000 
K           0.500000000000000    0.000000000000000    0.654081000000000 
%ENDBLOCK POSITIONS_FRAC
