# Cell file generated by matador (Matthew Evans 2016)

%BLOCK LATTICE_CART
5.96028 0.0 0.0
0.0 5.96028 0.0
0.0 0.0 10.494
%ENDBLOCK LATTICE_CART

%BLOCK POSITIONS_FRAC
P           0.000000000000000    0.500000000000000    0.500000000000000 
P           0.500000000000000    0.000000000000000    0.500000000000000 
K           0.000000000000000    0.000000000000000    0.500000000000000 
K           0.168439000000000    0.668439000000000    0.110049000000000 
K           0.168439000000000    0.668439000000000    0.889951000000000 
K           0.331561000000000    0.168439000000000    0.110049000000000 
K           0.331561000000000    0.168439000000000    0.889951000000000 
K           0.500000000000000    0.500000000000000    0.500000000000000 
K           0.668439000000000    0.831561000000000    0.110049000000000 
K           0.668439000000000    0.831561000000000    0.889951000000000 
K           0.831561000000000    0.331561000000000    0.110049000000000 
K           0.831561000000000    0.331561000000000    0.889951000000000 
%ENDBLOCK POSITIONS_FRAC
