# Cell file generated by matador (Matthew Evans 2016)

%BLOCK LATTICE_CART
7.18001 0.0 0.0
-3.59001 6.21807 0.0
0.0 0.0 6.68665
%ENDBLOCK LATTICE_CART

%BLOCK POSITIONS_FRAC
P           0.175671000000000    0.351342000000000    0.500000000000000 
P           0.175671000000000    0.824329000000000    0.500000000000000 
P           0.333334000000000    0.666666000000000    0.000000000000000 
P           0.648658000000000    0.824329000000000    0.500000000000000 
P           0.666667000000000    0.333333000000000    0.000000000000000 
K           0.094773000000000    0.189545000000000    0.000000000000000 
K           0.094773000000000    0.905227000000000    0.000000000000000 
K           0.666667000000000    0.333333000000000    0.500000000000000 
K           0.810455000000000    0.905227000000000    0.000000000000000 
%ENDBLOCK POSITIONS_FRAC
