# Cell file generated by matador (Matthew Evans 2016)

%BLOCK LATTICE_CART
8.95504 0.0 0.0
-4.47752 7.75529 0.0
0.0 0.0 7.49333
%ENDBLOCK LATTICE_CART

%BLOCK POSITIONS_FRAC
P           0.000000000000000    0.295499000000000    0.500000000000000 
P           0.000000000000000    0.704501000000000    0.500000000000000 
P           0.128944000000000    0.257888000000000    0.500000000000000 
P           0.128944000000000    0.871056000000000    0.500000000000000 
P           0.257888000000000    0.128944000000000    0.500000000000000 
P           0.295499000000000    0.000000000000000    0.500000000000000 
P           0.295499000000000    0.295499000000000    0.500000000000000 
P           0.333333000000000    0.666667000000000    0.500000000000000 
P           0.666667000000000    0.333333000000000    0.500000000000000 
P           0.704501000000000    0.000000000000000    0.500000000000000 
P           0.704501000000000    0.704501000000000    0.500000000000000 
P           0.742112000000000    0.871056000000000    0.500000000000000 
P           0.871056000000000    0.128944000000000    0.500000000000000 
P           0.871056000000000    0.742112000000000    0.500000000000000 
K           0.000000000000000    0.000000000000000    0.000000000000000 
K           0.000000000000000    0.000000000000000    0.500000000000000 
%ENDBLOCK POSITIONS_FRAC
