# Cell file generated by matador (Matthew Evans 2016)

%BLOCK LATTICE_CART
6.35618 0.0 0.0
-3.17809 5.50461 0.0
0.0 0.0 12.0219
%ENDBLOCK LATTICE_CART

%BLOCK POSITIONS_FRAC
P           0.040902000000000    0.354574000000000    0.680616000000000 
P           0.077185000000000    0.164703000000000    0.344446000000000 
P           0.087518000000000    0.922815000000000    0.677779000000000 
P           0.313672000000000    0.959098000000000    0.013950000000000 
P           0.472432000000000    0.159491000000000    0.803242000000000 
P           0.645426000000000    0.686328000000000    0.347283000000000 
P           0.687058000000000    0.527568000000000    0.136575000000000 
P           0.835297000000000    0.912482000000000    0.011113000000000 
P           0.840509000000000    0.312942000000000    0.469908000000000 
K           0.153335000000000    0.583119000000000    0.027966000000000 
K           0.416881000000000    0.570216000000000    0.694632000000000 
K           0.429784000000000    0.846665000000000    0.361299000000000 
%ENDBLOCK POSITIONS_FRAC
