# Cell file generated by matador (Matthew Evans 2016)

%BLOCK LATTICE_CART
6.62185 0.0 0.0
0.0 6.62185 0.0
0.0 0.0 10.1978
%ENDBLOCK LATTICE_CART

%BLOCK POSITIONS_FRAC
P           0.000000000000000    0.219695000000000    0.624654000000000 
P           0.000000000000000    0.301359000000000    0.101061000000000 
P           0.000000000000000    0.698641000000000    0.101061000000000 
P           0.000000000000000    0.780305000000000    0.624654000000000 
P           0.219695000000000    0.000000000000000    0.624654000000000 
P           0.301359000000000    0.000000000000000    0.101061000000000 
P           0.698641000000000    0.000000000000000    0.101061000000000 
P           0.780305000000000    0.000000000000000    0.624654000000000 
K           0.000000000000000    0.500000000000000    0.383873000000000 
K           0.000000000000000    0.500000000000000    0.577598000000000 
K           0.000000000000000    0.500000000000000    0.843167000000000 
K           0.500000000000000    0.000000000000000    0.383873000000000 
K           0.500000000000000    0.000000000000000    0.577598000000000 
K           0.500000000000000    0.000000000000000    0.843167000000000 
%ENDBLOCK POSITIONS_FRAC
