# Cell file generated by matador (Matthew Evans 2016)

%BLOCK LATTICE_CART
7.79514 0.0 0.0
-2.09968 8.37807 0.0
0.283618 -3.07825 6.37852
%ENDBLOCK LATTICE_CART

%BLOCK POSITIONS_FRAC
P           0.000000000000000    0.000000000000000    0.500000000000000 
P           0.000000000000000    0.500000000000000    0.500000000000000 
P           0.419482000000000    0.183595000000000    0.278794000000000 
P           0.500000000000000    0.500000000000000    0.000000000000000 
P           0.580518000000000    0.816405000000000    0.721206000000000 
K           0.000000000000000    0.500000000000000    0.000000000000000 
K           0.050933000000000    0.209971000000000    0.183420000000000 
K           0.330991000000000    0.834152000000000    0.594385000000000 
K           0.500000000000000    0.000000000000000    0.000000000000000 
K           0.500000000000000    0.000000000000000    0.500000000000000 
K           0.669009000000000    0.165848000000000    0.405615000000000 
K           0.949067000000000    0.790029000000000    0.816580000000000 
%ENDBLOCK POSITIONS_FRAC
