# Cell file generated by matador (Matthew Evans 2016)

%BLOCK LATTICE_CART
8.59962 0.0 0.0
2.82138 6.58077 0.0
-1.12127 -2.11912 5.59966
%ENDBLOCK LATTICE_CART

%BLOCK POSITIONS_FRAC
P           0.000000000000000    0.000000000000000    0.500000000000000 
P           0.120847000000000    0.714418000000000    0.599390000000000 
P           0.177620000000000    0.588419000000000    0.402137000000000 
P           0.500000000000000    0.000000000000000    0.500000000000000 
P           0.822380000000000    0.411581000000000    0.597863000000000 
P           0.879153000000000    0.285582000000000    0.400610000000000 
K           0.000000000000000    0.000000000000000    0.000000000000000 
K           0.000000000000000    0.500000000000000    0.500000000000000 
K           0.500000000000000    0.000000000000000    0.000000000000000 
K           0.500000000000000    0.500000000000000    0.000000000000000 
K           0.500000000000000    0.500000000000000    0.500000000000000 
%ENDBLOCK POSITIONS_FRAC
