# Cell file generated by matador (Matthew Evans 2016)

%BLOCK LATTICE_CART
7.45558 0.0 0.0
0.0 7.45558 0.0
0.0 0.0 7.45558
%ENDBLOCK LATTICE_CART

%BLOCK POSITIONS_FRAC
P           0.000000000000000    0.000000000000000    0.231745000000000 
P           0.000000000000000    0.000000000000000    0.768255000000000 
P           0.000000000000000    0.231745000000000    0.000000000000000 
P           0.000000000000000    0.768255000000000    0.000000000000000 
P           0.231745000000000    0.000000000000000    0.000000000000000 
P           0.768255000000000    0.000000000000000    0.000000000000000 
K           0.000000000000000    0.000000000000000    0.500000000000000 
K           0.000000000000000    0.500000000000000    0.000000000000000 
K           0.000000000000000    0.500000000000000    0.500000000000000 
K           0.346791000000000    0.346791000000000    0.653209000000000 
K           0.346791000000000    0.653209000000000    0.346791000000000 
K           0.500000000000000    0.000000000000000    0.000000000000000 
K           0.500000000000000    0.000000000000000    0.500000000000000 
K           0.500000000000000    0.500000000000000    0.000000000000000 
K           0.653209000000000    0.346791000000000    0.346791000000000 
K           0.653209000000000    0.653209000000000    0.653209000000000 
%ENDBLOCK POSITIONS_FRAC
