# Cell file generated by matador (Matthew Evans 2016)

%BLOCK LATTICE_CART
11.8603 0.0 0.0
0.0 11.8603 0.0
0.0 0.0 9.59197
%ENDBLOCK LATTICE_CART

%BLOCK POSITIONS_FRAC
P           0.000000000000000    0.000000000000000    0.156736000000000 
P           0.000000000000000    0.000000000000000    0.666375000000000 
P           0.000000000000000    0.500000000000000    0.406736000000000 
P           0.000000000000000    0.500000000000000    0.916375000000000 
P           0.500000000000000    0.000000000000000    0.416375000000000 
P           0.500000000000000    0.000000000000000    0.906736000000000 
P           0.500000000000000    0.500000000000000    0.166375000000000 
P           0.500000000000000    0.500000000000000    0.656736000000000 
K           0.000000000000000    0.219094000000000    0.760836000000000 
K           0.000000000000000    0.224707000000000    0.087478000000000 
K           0.000000000000000    0.242783000000000    0.407844000000000 
K           0.000000000000000    0.757217000000000    0.407844000000000 
K           0.000000000000000    0.775293000000000    0.087478000000000 
K           0.000000000000000    0.780906000000000    0.760836000000000 
K           0.219094000000000    0.500000000000000    0.010836000000000 
K           0.224707000000000    0.500000000000000    0.337478000000000 
K           0.242783000000000    0.500000000000000    0.657844000000000 
K           0.257217000000000    0.000000000000000    0.157844000000000 
K           0.275293000000000    0.000000000000000    0.837478000000000 
K           0.280906000000000    0.000000000000000    0.510836000000000 
K           0.500000000000000    0.257217000000000    0.907844000000000 
K           0.500000000000000    0.275293000000000    0.587478000000000 
K           0.500000000000000    0.280906000000000    0.260836000000000 
K           0.500000000000000    0.719094000000000    0.260836000000000 
K           0.500000000000000    0.724707000000000    0.587478000000000 
K           0.500000000000000    0.742783000000000    0.907844000000000 
K           0.719094000000000    0.000000000000000    0.510836000000000 
K           0.724707000000000    0.000000000000000    0.837478000000000 
K           0.742783000000000    0.000000000000000    0.157844000000000 
K           0.757217000000000    0.500000000000000    0.657844000000000 
K           0.775293000000000    0.500000000000000    0.337478000000000 
K           0.780906000000000    0.500000000000000    0.010836000000000 
%ENDBLOCK POSITIONS_FRAC
