# Cell file generated by matador (Matthew Evans 2016)

%BLOCK LATTICE_CART
8.67475 0.0 0.0
-4.33738 7.51255 0.0
0.0 0.0 7.72222
%ENDBLOCK LATTICE_CART

%BLOCK POSITIONS_FRAC
P           0.000000000000000    0.000000000000000    0.500000000000000 
P           0.005745000000000    0.864162000000000    0.354991000000000 
P           0.135838000000000    0.141582000000000    0.354991000000000 
P           0.141582000000000    0.005745000000000    0.645009000000000 
P           0.858418000000000    0.994255000000000    0.354991000000000 
P           0.864162000000000    0.858418000000000    0.645009000000000 
P           0.994255000000000    0.135838000000000    0.645009000000000 
K           0.000000000000000    0.500000000000000    0.000000000000000 
K           0.000000000000000    0.500000000000000    0.500000000000000 
K           0.500000000000000    0.000000000000000    0.000000000000000 
K           0.500000000000000    0.000000000000000    0.500000000000000 
K           0.500000000000000    0.500000000000000    0.000000000000000 
K           0.500000000000000    0.500000000000000    0.500000000000000 
%ENDBLOCK POSITIONS_FRAC
