# Cell file generated by matador (Matthew Evans 2016)

%BLOCK LATTICE_CART
11.1617 0.0 0.0
-5.58083 9.66628 0.0
0.0 0.0 6.21598
%ENDBLOCK LATTICE_CART

%BLOCK POSITIONS_FRAC
P           0.333333000000000    0.666667000000000    0.000000000000000 
P           0.666666000000000    0.333334000000000    0.000000000000000 
K          -0.000000000000000    0.310562000000000    0.629735000000000 
K          -0.000000000000000    0.500000000000000    0.000000000000000 
K          -0.000000000000000    0.500000000000000    0.500000000000000 
K          -0.000000000000000    0.689438000000000    0.370265000000000 
K           0.310562000000000    0.000000000000000    0.629735000000000 
K           0.310562000000000    0.310562000000000    0.370265000000000 
K           0.333333000000000    0.666667000000000    0.500000000000000 
K           0.500000000000000    0.000000000000000    0.000000000000000 
K           0.500000000000000    0.000000000000000    0.500000000000000 
K           0.500000000000000    0.500000000000000    0.000000000000000 
K           0.500000000000000    0.500000000000000    0.500000000000000 
K           0.666666000000000    0.333334000000000    0.500000000000000 
K           0.689438000000000    0.000000000000000    0.370265000000000 
K           0.689438000000000    0.689438000000000    0.629735000000000 
%ENDBLOCK POSITIONS_FRAC
