# Cell file generated by matador (Matthew Evans 2016)

%BLOCK LATTICE_CART
9.38707 0.0 0.0
0.0 5.13421 0.0
-1.61611 0.0 4.99027
%ENDBLOCK LATTICE_CART

%BLOCK POSITIONS_FRAC
P           0.338780000000000    0.200669000000000    0.444148000000000 
P           0.338780000000000    0.799331000000000    0.444148000000000 
K           0.004558000000000    0.286182000000000    0.982862000000000 
K           0.004558000000000    0.713818000000000    0.982862000000000 
K           0.178177000000000    0.500000000000000    0.645700000000000 
K           0.227392000000000    0.000000000000000    0.799138000000000 
K           0.635255000000000    0.000000000000000    0.238966000000000 
%ENDBLOCK POSITIONS_FRAC
