# Cell file generated by matador (Matthew Evans 2016)

%BLOCK LATTICE_CART
4.63941 0.0 0.0
-2.31971 4.01785 0.0
0.0 0.0 10.8277
%ENDBLOCK LATTICE_CART

%BLOCK POSITIONS_FRAC
P           0.000001000000000    0.000001000000000    0.571917000000000 
P           0.000001000000000    0.000001000000000    0.681373000000000 
P           0.000001000000000    0.000001000000000    0.799011000000000 
P           0.333334000000000    0.666668000000000    0.564466000000000 
P           0.666668000000000    0.333334000000000    0.564466000000000 
K           0.333334000000000    0.666668000000000    0.092808000000000 
K           0.666668000000000    0.333334000000000    0.092808000000000 
%ENDBLOCK POSITIONS_FRAC
