# Cell file generated by matador (Matthew Evans 2016)

%BLOCK LATTICE_CART
7.25881 0.0 0.0
-3.62941 6.28632 0.0
0.0 0.0 6.98373
%ENDBLOCK LATTICE_CART

%BLOCK POSITIONS_FRAC
P           0.000000000000000    0.000000000000000    0.259435000000000 
K           0.000000000000000    0.000000000000000    0.639943000000000 
K           0.000000000000000    0.500000000000000    0.733393000000000 
K           0.333333000000000    0.666667000000000    0.176192000000000 
K           0.500000000000000    0.000000000000000    0.733393000000000 
K           0.500000000000000    0.500000000000000    0.733393000000000 
K           0.666667000000000    0.333333000000000    0.176192000000000 
%ENDBLOCK POSITIONS_FRAC
