# Cell file generated by matador (Matthew Evans 2016)

%BLOCK LATTICE_CART
8.93189 0.0 0.0
-4.46594 7.73524 0.0
0.0 0.0 6.1911
%ENDBLOCK LATTICE_CART

%BLOCK POSITIONS_FRAC
P           0.000000000000000    0.000000000000000    0.012293000000000 
P           0.333333000000000    0.666667000000000    0.470938000000000 
P           0.666667000000000    0.333333000000000    0.065176000000000 
K           0.047418000000000    0.523709000000000    0.603594000000000 
K           0.141079000000000    0.282157000000000    0.035166000000000 
K           0.141079000000000    0.858921000000000    0.035166000000000 
K           0.409332000000000    0.204666000000000    0.330702000000000 
K           0.476291000000000    0.523709000000000    0.603594000000000 
K           0.476291000000000    0.952582000000000    0.603594000000000 
K           0.717843000000000    0.858921000000000    0.035166000000000 
K           0.795334000000000    0.204666000000000    0.330702000000000 
K           0.795334000000000    0.590668000000000    0.330702000000000 
%ENDBLOCK POSITIONS_FRAC
