# Cell file generated by matador (Matthew Evans 2016)

%BLOCK LATTICE_CART
7.74556 0.0 0.0
0.0 7.74556 0.0
0.0 0.0 9.38868
%ENDBLOCK LATTICE_CART

%BLOCK POSITIONS_FRAC
P           0.094039000000000    0.905961000000000    0.505977000000000 
P           0.405961000000000    0.405961000000000    0.005977000000000 
P           0.594039000000000    0.594039000000000    0.005977000000000 
P           0.905961000000000    0.094039000000000    0.505977000000000 
K           0.146678000000000    0.853322000000000    0.262038000000000 
K           0.187081000000000    0.187081000000000    0.492872000000000 
K           0.216814000000000    0.783186000000000    0.692543000000000 
K           0.283186000000000    0.283186000000000    0.192543000000000 
K           0.312919000000000    0.687081000000000    0.992872000000000 
K           0.353322000000000    0.353322000000000    0.762038000000000 
K           0.646678000000000    0.646678000000000    0.762038000000000 
K           0.687081000000000    0.312919000000000    0.992872000000000 
K           0.716814000000000    0.716814000000000    0.192543000000000 
K           0.783186000000000    0.216814000000000    0.692543000000000 
K           0.812919000000000    0.812919000000000    0.492872000000000 
K           0.853322000000000    0.146678000000000    0.262038000000000 
%ENDBLOCK POSITIONS_FRAC
