# Cell file generated by matador (Matthew Evans 2016)

%BLOCK LATTICE_CART
8.31543 0.0 0.0
-4.15772 7.20138 0.0
0.0 0.0 8.787
%ENDBLOCK LATTICE_CART

%BLOCK POSITIONS_FRAC
P          -0.000000000000000   -0.000000000000000    0.500000000000000 
P          -0.000000000000000    0.258355000000000    0.000000000000000 
P           0.074978000000000    0.408311000000000    0.666667000000000 
P           0.258355000000000   -0.000000000000000    0.000000000000000 
P           0.333333000000000    0.666667000000000    0.166667000000000 
P           0.333333000000000    0.925022000000000    0.666667000000000 
P           0.408311000000000    0.074978000000000    0.333333000000000 
P           0.591689000000000    0.666667000000000    0.666667000000000 
P           0.666667000000000    0.333333000000000    0.833333000000000 
P           0.666667000000000    0.591689000000000    0.333333000000000 
P           0.741645000000000    0.741645000000000    0.000000000000000 
P           0.925022000000000    0.333333000000000    0.333333000000000 
K          -0.000000000000000   -0.000000000000000    0.000000000000000 
K           0.333333000000000    0.666667000000000    0.666667000000000 
K           0.666667000000000    0.333333000000000    0.333333000000000 
%ENDBLOCK POSITIONS_FRAC
