# Cell file generated by matador (Matthew Evans 2016)

%BLOCK LATTICE_CART
11.3808 0.0 0.0
-5.69038 9.85602 0.0
0.0 0.0 8.34138
%ENDBLOCK LATTICE_CART

%BLOCK POSITIONS_FRAC
P           0.000000000000000    0.000000000000000    0.023911000000000 
P           0.000000000000000    0.000000000000000    0.366575000000000 
P           0.333333000000000    0.666667000000000    0.033241000000000 
P           0.333333000000000    0.666667000000000    0.690578000000000 
P           0.666667000000000    0.333333000000000    0.357245000000000 
P           0.666667000000000    0.333333000000000    0.699908000000000 
K           0.097170000000000    0.194339000000000    0.119120000000000 
K           0.097170000000000    0.902830000000000    0.119120000000000 
K           0.138994000000000    0.569497000000000    0.785787000000000 
K           0.221375000000000    0.442750000000000    0.350224000000000 
K           0.221375000000000    0.778625000000000    0.350224000000000 
K           0.223917000000000    0.111958000000000    0.683557000000000 
K           0.430503000000000    0.569497000000000    0.785787000000000 
K           0.430503000000000    0.861006000000000    0.785787000000000 
K           0.472327000000000    0.236164000000000    0.452454000000000 
K           0.554708000000000    0.109417000000000    0.016890000000000 
K           0.554708000000000    0.445292000000000    0.016890000000000 
K           0.557250000000000    0.778625000000000    0.350224000000000 
K           0.763836000000000    0.236164000000000    0.452454000000000 
K           0.763836000000000    0.527673000000000    0.452454000000000 
K           0.805661000000000    0.902830000000000    0.119120000000000 
K           0.888042000000000    0.111958000000000    0.683557000000000 
K           0.888042000000000    0.776083000000000    0.683557000000000 
K           0.890583000000000    0.445292000000000    0.016890000000000 
%ENDBLOCK POSITIONS_FRAC
