# Cell file generated by matador (Matthew Evans 2016)

%BLOCK LATTICE_CART
7.1909 0.0 0.0
0.0 7.76689 0.0
0.0 0.0 7.4358
%ENDBLOCK LATTICE_CART

%BLOCK POSITIONS_FRAC
P           0.000000000000000    0.000000000000000    0.934208000000000 
P           0.000000000000000    0.500000000000000    0.538020000000000 
P           0.000000000000000    0.500000000000000    0.908496000000000 
P           0.500000000000000    0.000000000000000    0.420251000000000 
P           0.500000000000000    0.500000000000000    0.443329000000000 
P           0.500000000000000    0.500000000000000    0.985087000000000 
K           0.159895000000000    0.500000000000000    0.266237000000000 
K           0.500000000000000    0.000000000000000    0.151569000000000 
K           0.500000000000000    0.232071000000000    0.004157000000000 
K           0.500000000000000    0.238563000000000    0.694527000000000 
K           0.500000000000000    0.500000000000000    0.706278000000000 
K           0.500000000000000    0.761437000000000    0.694527000000000 
K           0.500000000000000    0.767929000000000    0.004157000000000 
K           0.840105000000000    0.500000000000000    0.266237000000000 
%ENDBLOCK POSITIONS_FRAC
