# Cell file generated by matador (Matthew Evans 2016)

%BLOCK LATTICE_CART
9.33957 0.0 0.0
0.0 6.13306 0.0
-1.47352 0.0 6.62381
%ENDBLOCK LATTICE_CART

%BLOCK POSITIONS_FRAC
P           0.000000000000000    0.544486000000000    0.500000000000000 
P           0.297359000000000    0.582077000000000    0.984212000000000 
P           0.373286000000000    0.988072000000000    0.217396000000000 
P           0.500000000000000    0.227252000000000    0.500000000000000 
P           0.500000000000000    0.438546000000000    0.000000000000000 
P           0.626714000000000    0.988072000000000    0.782604000000000 
P           0.702641000000000    0.582077000000000    0.015788000000000 
K           0.000000000000000    0.366014000000000    0.000000000000000 
K           0.150601000000000    0.132459000000000    0.164211000000000 
K           0.228443000000000    0.065844000000000    0.551241000000000 
K           0.771557000000000    0.065844000000000    0.448759000000000 
K           0.849399000000000    0.132459000000000    0.835789000000000 
%ENDBLOCK POSITIONS_FRAC
