# Cell file generated by matador (Matthew Evans 2016)

%BLOCK LATTICE_CART
7.06266 0.0 0.0
-3.53133 6.11645 0.0
0.0 0.0 11.4457
%ENDBLOCK LATTICE_CART

%BLOCK POSITIONS_FRAC
P           0.240239000000000    0.647527000000000    0.907439000000000 
P           0.333333000000000    0.666667000000000    0.031282000000000 
P           0.352473000000000    0.592712000000000    0.907439000000000 
P           0.407288000000000    0.759761000000000    0.907439000000000 
K          -0.000000000000000   -0.000000000000000    0.325055000000000 
K          -0.000000000000000   -0.000000000000000    0.620582000000000 
K          -0.000000000000000   -0.000000000000000    0.851871000000000 
K           0.131430000000000    0.390176000000000    0.502923000000000 
K           0.258745000000000    0.868570000000000    0.502923000000000 
K           0.331499000000000    0.279512000000000    0.102312000000000 
K           0.333333000000000    0.666667000000000    0.341895000000000 
K           0.609824000000000    0.741255000000000    0.502923000000000 
K           0.666667000000000    0.333333000000000    0.255855000000000 
K           0.666667000000000    0.333333000000000    0.842706000000000 
K           0.720488000000000    0.051988000000000    0.102312000000000 
K           0.948012000000000    0.668501000000000    0.102312000000000 
%ENDBLOCK POSITIONS_FRAC
