# Cell file generated by matador (Matthew Evans 2016)

%BLOCK LATTICE_CART
5.95627 0.0 0.0
0.0 5.95627 0.0
0.0 0.0 17.1376
%ENDBLOCK LATTICE_CART

%BLOCK POSITIONS_FRAC
P           0.000000000000000    0.000000000000000    0.000000000000000 
P           0.118716000000000    0.118716000000000    0.000000000000000 
P           0.381284000000000    0.618716000000000    0.500000000000000 
P           0.500000000000000    0.500000000000000    0.500000000000000 
P           0.618716000000000    0.381284000000000    0.500000000000000 
P           0.881284000000000    0.881284000000000    0.000000000000000 
K           0.000000000000000    0.000000000000000    0.273381000000000 
K           0.000000000000000    0.000000000000000    0.726619000000000 
K           0.000000000000000    0.500000000000000    0.000000000000000 
K           0.000000000000000    0.500000000000000    0.250000000000000 
K           0.000000000000000    0.500000000000000    0.500000000000000 
K           0.000000000000000    0.500000000000000    0.750000000000000 
K           0.500000000000000    0.000000000000000    0.000000000000000 
K           0.500000000000000    0.000000000000000    0.250000000000000 
K           0.500000000000000    0.000000000000000    0.500000000000000 
K           0.500000000000000    0.000000000000000    0.750000000000000 
K           0.500000000000000    0.500000000000000    0.226619000000000 
K           0.500000000000000    0.500000000000000    0.773381000000000 
%ENDBLOCK POSITIONS_FRAC
