# Cell file generated by matador (Matthew Evans 2016)

%BLOCK LATTICE_CART
6.09033 0.0 0.0
0.0 6.47566 0.0
2.91568 0.0 6.88985
%ENDBLOCK LATTICE_CART

%BLOCK POSITIONS_FRAC
P           0.652930000000000    0.081138000000000    0.636178000000000 
P           0.652930000000000    0.918862000000000    0.636178000000000 
K           0.047721000000000    0.000000000000000    0.747880000000000 
K           0.310932000000000    0.000000000000000    0.111486000000000 
K           0.318242000000000    0.500000000000000    0.726340000000000 
K           0.425564000000000    0.000000000000000    0.430080000000000 
K           0.731493000000000    0.500000000000000    0.872146000000000 
K           0.822893000000000    0.000000000000000    0.035358000000000 
K           0.860583000000000    0.000000000000000    0.317312000000000 
%ENDBLOCK POSITIONS_FRAC
