# Cell file generated by matador (Matthew Evans 2016)

%BLOCK LATTICE_CART
6.8461 0.0 0.0
-3.42305 5.92889 0.0
0.0 0.0 9.123
%ENDBLOCK LATTICE_CART

%BLOCK POSITIONS_FRAC
P           0.000000000000000    0.000000000000000    0.000000000000000 
P           0.000000000000000    0.000000000000000    0.500000000000000 
P           0.333333000000000    0.666667000000000    0.148720000000000 
P           0.333333000000000    0.666667000000000    0.851280000000000 
P           0.666667000000000    0.333333000000000    0.148720000000000 
P           0.666667000000000    0.333333000000000    0.851280000000000 
K           0.000000000000000    0.779057000000000    0.258608000000000 
K           0.000000000000000    0.779057000000000    0.741392000000000 
K           0.220943000000000    0.220943000000000    0.258608000000000 
K           0.220943000000000    0.220943000000000    0.741392000000000 
K           0.333333000000000    0.666667000000000    0.500000000000000 
K           0.666667000000000    0.333333000000000    0.500000000000000 
K           0.779057000000000    0.000000000000000    0.258608000000000 
K           0.779057000000000    0.000000000000000    0.741392000000000 
%ENDBLOCK POSITIONS_FRAC
