# Cell file generated by matador (Matthew Evans 2016)

%BLOCK LATTICE_CART
6.99653 0.0 0.0
0.0 6.99653 0.0
0.0 0.0 8.34958
%ENDBLOCK LATTICE_CART

%BLOCK POSITIONS_FRAC
P           0.000000000000000    0.000000000000000    0.500000000000000 
P           0.210041000000000    0.451628000000000    0.915045000000000 
P           0.451628000000000    0.789959000000000    0.084955000000000 
P           0.500000000000000    0.500000000000000    0.000000000000000 
P           0.500000000000000    0.500000000000000    0.500000000000000 
P           0.548372000000000    0.210041000000000    0.084955000000000 
P           0.789959000000000    0.548372000000000    0.915045000000000 
K           0.000000000000000    0.500000000000000    0.189620000000000 
K           0.119647000000000    0.234035000000000    0.292088000000000 
K           0.234035000000000    0.880353000000000    0.707912000000000 
K           0.500000000000000    0.000000000000000    0.810380000000000 
K           0.765965000000000    0.119647000000000    0.707912000000000 
K           0.880353000000000    0.765965000000000    0.292088000000000 
%ENDBLOCK POSITIONS_FRAC
