# Cell file generated by matador (Matthew Evans 2016)

%BLOCK LATTICE_CART
8.57791 0.0 0.0
0.0 8.57791 0.0
0.0 0.0 9.2869
%ENDBLOCK LATTICE_CART

%BLOCK POSITIONS_FRAC
P          -0.000000000000000   -0.000000000000000    0.358709000000000 
P          -0.000000000000000   -0.000000000000000    0.985724000000000 
P           0.500000000000000    0.500000000000000    0.485724000000000 
P           0.500000000000000    0.500000000000000    0.858709000000000 
K          -0.000000000000000   -0.000000000000000    0.722190000000000 
K          -0.000000000000000    0.500000000000000    0.333288000000000 
K          -0.000000000000000    0.500000000000000    0.833288000000000 
K           0.181479000000000    0.181479000000000    0.676192000000000 
K           0.181479000000000    0.818521000000000    0.676192000000000 
K           0.318521000000000    0.318521000000000    0.176192000000000 
K           0.318521000000000    0.681479000000000    0.176192000000000 
K           0.500000000000000   -0.000000000000000    0.333288000000000 
K           0.500000000000000   -0.000000000000000    0.833288000000000 
K           0.500000000000000    0.500000000000000    0.222190000000000 
K           0.681479000000000    0.318521000000000    0.176192000000000 
K           0.681479000000000    0.681479000000000    0.176192000000000 
K           0.818521000000000    0.181479000000000    0.676192000000000 
K           0.818521000000000    0.818521000000000    0.676192000000000 
%ENDBLOCK POSITIONS_FRAC
