# Cell file generated by matador (Matthew Evans 2016)

%BLOCK LATTICE_CART
9.62135 0.0 0.0
-4.81067 8.33233 0.0
0.0 0.0 11.7803
%ENDBLOCK LATTICE_CART

%BLOCK POSITIONS_FRAC
P           0.000000000000000    0.000000000000000    0.054810000000000 
P           0.000000000000000    0.000000000000000    0.226720000000000 
P           0.333333000000000    0.666667000000000    0.721477000000000 
P           0.333333000000000    0.666667000000000    0.893387000000000 
P           0.666667000000000    0.333333000000000    0.388144000000000 
P           0.666667000000000    0.333333000000000    0.560054000000000 
K           0.169244000000000    0.338487000000000    0.982122000000000 
K           0.169244000000000    0.830756000000000    0.982122000000000 
K           0.220974000000000    0.441947000000000    0.392420000000000 
K           0.220974000000000    0.779026000000000    0.392420000000000 
K           0.224720000000000    0.112360000000000    0.725753000000000 
K           0.328179000000000    0.164090000000000    0.315455000000000 
K           0.502577000000000    0.005154000000000    0.648789000000000 
K           0.502577000000000    0.497423000000000    0.648789000000000 
K           0.554307000000000    0.108614000000000    0.059087000000000 
K           0.554307000000000    0.445693000000000    0.059087000000000 
K           0.558053000000000    0.779026000000000    0.392420000000000 
K           0.661513000000000    0.830756000000000    0.982122000000000 
K           0.835910000000000    0.164090000000000    0.315455000000000 
K           0.835910000000000    0.671821000000000    0.315455000000000 
K           0.887640000000000    0.112360000000000    0.725753000000000 
K           0.887640000000000    0.775280000000000    0.725753000000000 
K           0.891386000000000    0.445693000000000    0.059087000000000 
K           0.994846000000000    0.497423000000000    0.648789000000000 
%ENDBLOCK POSITIONS_FRAC
