# Cell file generated by matador (Matthew Evans 2016)

%BLOCK LATTICE_CART
4.93658 0.0 0.0
-2.46829 4.2752 0.0
0.0 0.0 5.80374
%ENDBLOCK LATTICE_CART

%BLOCK POSITIONS_FRAC
P           0.000000000000000    0.000000000000000    0.168674000000000 
P           0.333333000000000    0.666667000000000    0.562359000000000 
P           0.333333000000000    0.666667000000000    0.857299000000000 
P           0.666667000000000    0.333333000000000    0.881699000000000 
K           0.000000000000000    0.000000000000000    0.546921000000000 
%ENDBLOCK POSITIONS_FRAC
