# Cell file generated by matador (Matthew Evans 2016)

%BLOCK LATTICE_CART
7.99915 0.0 0.0
-3.99957 6.92747 0.0
0.0 0.0 9.00685
%ENDBLOCK LATTICE_CART

%BLOCK POSITIONS_FRAC
P           0.081187000000000    0.318061000000000    0.526154000000000 
P           0.236874000000000    0.918813000000000    0.526154000000000 
P           0.318061000000000    0.081187000000000    0.026154000000000 
P           0.333333000000000    0.666667000000000    0.048905000000000 
P           0.666667000000000    0.333333000000000    0.548905000000000 
P           0.681939000000000    0.763126000000000    0.526154000000000 
P           0.763126000000000    0.681939000000000    0.026154000000000 
P           0.918813000000000    0.236874000000000    0.026154000000000 
K           0.065074000000000    0.828481000000000    0.268849000000000 
K           0.171519000000000    0.236593000000000    0.268849000000000 
K           0.236593000000000    0.171519000000000    0.768849000000000 
K           0.333333000000000    0.666667000000000    0.348097000000000 
K           0.333333000000000    0.666667000000000    0.748109000000000 
K           0.666667000000000    0.333333000000000    0.248109000000000 
K           0.666667000000000    0.333333000000000    0.848097000000000 
K           0.763407000000000    0.934926000000000    0.268849000000000 
K           0.828481000000000    0.065074000000000    0.768849000000000 
K           0.934926000000000    0.763407000000000    0.768849000000000 
%ENDBLOCK POSITIONS_FRAC
