# Cell file generated by matador (Matthew Evans 2016)

%BLOCK LATTICE_CART
10.6065 0.0 0.0
-5.30323 9.18546 0.0
0.0 0.0 6.88674
%ENDBLOCK LATTICE_CART

%BLOCK POSITIONS_FRAC
P          -0.000000000000000   -0.000000000000000    0.000000000000000 
P          -0.000000000000000    0.500000000000000    0.354793000000000 
P          -0.000000000000000    0.500000000000000    0.500000000000000 
P          -0.000000000000000    0.500000000000000    0.645207000000000 
P           0.500000000000000   -0.000000000000000    0.354793000000000 
P           0.500000000000000   -0.000000000000000    0.500000000000000 
P           0.500000000000000   -0.000000000000000    0.645207000000000 
P           0.500000000000000    0.500000000000000    0.354793000000000 
P           0.500000000000000    0.500000000000000    0.500000000000000 
P           0.500000000000000    0.500000000000000    0.645207000000000 
K           0.094102000000000    0.379722000000000    0.000000000000000 
K           0.285620000000000    0.905898000000000    0.000000000000000 
K           0.333333000000000    0.666667000000000    0.000000000000000 
K           0.379722000000000    0.285620000000000    0.000000000000000 
K           0.620278000000000    0.714380000000000    0.000000000000000 
K           0.666667000000000    0.333333000000000    0.000000000000000 
K           0.714380000000000    0.094102000000000    0.000000000000000 
K           0.905898000000000    0.620278000000000    0.000000000000000 
%ENDBLOCK POSITIONS_FRAC
