# Cell file generated by matador (Matthew Evans 2016)

%BLOCK LATTICE_CART
7.41957 0.0 0.0
0.0 5.49055 0.0
-2.84725 0.0 7.97704
%ENDBLOCK LATTICE_CART

%BLOCK POSITIONS_FRAC
P           0.091768000000000    0.871642000000000    0.986622000000000 
P           0.167417000000000    0.237564000000000    0.965439000000000 
P           0.290057000000000    0.096962000000000    0.310235000000000 
P           0.328853000000000    0.508967000000000    0.743980000000000 
P           0.398284000000000    0.780225000000000    0.860007000000000 
P           0.500000000000000    0.151323000000000    0.500000000000000 
P           0.500000000000000    0.281943000000000    0.000000000000000 
P           0.601716000000000    0.780225000000000    0.139993000000000 
P           0.671147000000000    0.508967000000000    0.256020000000000 
P           0.709943000000000    0.096962000000000    0.689765000000000 
P           0.832583000000000    0.237564000000000    0.034561000000000 
P           0.908232000000000    0.871642000000000    0.013378000000000 
K           0.000000000000000    0.523227000000000    0.000000000000000 
K           0.000000000000000    0.890386000000000    0.500000000000000 
K           0.179769000000000    0.728241000000000    0.261056000000000 
K           0.820231000000000    0.728241000000000    0.738944000000000 
%ENDBLOCK POSITIONS_FRAC
