# Cell file generated by matador (Matthew Evans 2016)

%BLOCK LATTICE_CART
8.25467 0.0 0.0
0.0 8.25467 0.0
0.0 0.0 9.04229
%ENDBLOCK LATTICE_CART

%BLOCK POSITIONS_FRAC
P           0.000000000000000    0.500000000000000    0.250000000000000 
P           0.000000000000000    0.500000000000000    0.750000000000000 
P           0.500000000000000    0.000000000000000    0.250000000000000 
P           0.500000000000000    0.000000000000000    0.750000000000000 
K           0.000000000000000    0.000000000000000    0.000000000000000 
K           0.000000000000000    0.500000000000000    0.000000000000000 
K           0.000000000000000    0.500000000000000    0.500000000000000 
K           0.102256000000000    0.102256000000000    0.753058000000000 
K           0.102256000000000    0.897744000000000    0.246942000000000 
K           0.397744000000000    0.397744000000000    0.253058000000000 
K           0.397744000000000    0.602256000000000    0.746942000000000 
K           0.500000000000000    0.000000000000000    0.000000000000000 
K           0.500000000000000    0.000000000000000    0.500000000000000 
K           0.500000000000000    0.500000000000000    0.500000000000000 
K           0.602256000000000    0.397744000000000    0.746942000000000 
K           0.602256000000000    0.602256000000000    0.253058000000000 
K           0.897744000000000    0.102256000000000    0.246942000000000 
K           0.897744000000000    0.897744000000000    0.753058000000000 
%ENDBLOCK POSITIONS_FRAC
