# Cell file generated by matador (Matthew Evans 2016)

%BLOCK LATTICE_CART
7.03302 0.0 0.0
0.0 7.03302 0.0
0.0 0.0 7.03302
%ENDBLOCK LATTICE_CART

%BLOCK POSITIONS_FRAC
P           0.000000000000000    0.210702000000000    0.500000000000000 
P           0.000000000000000    0.789298000000000    0.500000000000000 
P           0.164182000000000    0.164182000000000    0.164182000000000 
P           0.164182000000000    0.835818000000000    0.835818000000000 
P           0.210702000000000    0.500000000000000    0.000000000000000 
P           0.500000000000000    0.000000000000000    0.210702000000000 
P           0.500000000000000    0.000000000000000    0.789298000000000 
P           0.789298000000000    0.500000000000000    0.000000000000000 
P           0.835818000000000    0.164182000000000    0.835818000000000 
P           0.835818000000000    0.835818000000000    0.164182000000000 
K           0.000000000000000    0.000000000000000    0.000000000000000 
K           0.500000000000000    0.500000000000000    0.500000000000000 
%ENDBLOCK POSITIONS_FRAC
