# Cell file generated by matador (Matthew Evans 2016)

%BLOCK LATTICE_CART
7.25809 0.0 0.0
-3.62904 6.28569 0.0
0.0 0.0 11.2881
%ENDBLOCK LATTICE_CART

%BLOCK POSITIONS_FRAC
P           0.171790000000000    0.585895000000000    0.000000000000000 
P           0.333333000000000    0.666667000000000    0.000000000000000 
P           0.414105000000000    0.585895000000000    0.000000000000000 
P           0.414105000000000    0.828210000000000    0.000000000000000 
P           0.492535000000000    0.094387000000000    0.048251000000000 
P           0.492535000000000    0.398148000000000    0.951749000000000 
P           0.601852000000000    0.094387000000000    0.951749000000000 
P           0.601852000000000    0.507465000000000    0.048251000000000 
P           0.666667000000000    0.333333000000000    0.000000000000000 
P           0.666667000000000    0.333333000000000    0.500000000000000 
P           0.905613000000000    0.398148000000000    0.048251000000000 
P           0.905613000000000    0.507465000000000    0.951749000000000 
K           0.183037000000000    0.077871000000000    0.268140000000000 
K           0.183037000000000    0.105166000000000    0.731860000000000 
K           0.894834000000000    0.077871000000000    0.731860000000000 
K           0.894834000000000    0.816963000000000    0.268140000000000 
K           0.922129000000000    0.105166000000000    0.268140000000000 
K           0.922129000000000    0.816963000000000    0.731860000000000 
%ENDBLOCK POSITIONS_FRAC
