# Cell file generated by matador (Matthew Evans 2016)

%BLOCK LATTICE_CART
6.44838 0.0 0.0
0.0 7.80629 0.0
1.87438 0.0 7.52965
%ENDBLOCK LATTICE_CART

%BLOCK POSITIONS_FRAC
P           0.000000000000000    0.387935000000000    0.500000000000000 
P           0.000000000000000    0.580366000000000    0.000000000000000 
P           0.142943000000000    0.092178000000000    0.286907000000000 
P           0.488582000000000    0.213207000000000    0.694063000000000 
P           0.500000000000000    0.557089000000000    0.500000000000000 
P           0.511418000000000    0.213207000000000    0.305937000000000 
P           0.857057000000000    0.092178000000000    0.713093000000000 
K           0.000000000000000    0.878835000000000    0.500000000000000 
K           0.000000000000000    0.884312000000000    0.000000000000000 
K           0.040196000000000    0.287666000000000    0.128132000000000 
K           0.251937000000000    0.765874000000000    0.570269000000000 
K           0.748063000000000    0.765874000000000    0.429731000000000 
K           0.959804000000000    0.287666000000000    0.871868000000000 
%ENDBLOCK POSITIONS_FRAC
