# Cell file generated by matador (Matthew Evans 2016)

%BLOCK LATTICE_CART
7.65635 0.0 0.0
0.0 7.48076 0.0
0.0 0.0 7.02082
%ENDBLOCK LATTICE_CART

%BLOCK POSITIONS_FRAC
P           0.000000000000000    0.000000000000000    0.741238000000000 
P           0.000000000000000    0.500000000000000    0.241238000000000 
K           0.000000000000000    0.000000000000000    0.410542000000000 
K           0.000000000000000    0.500000000000000    0.910542000000000 
K           0.318366000000000    0.531946000000000    0.715526000000000 
K           0.318366000000000    0.968054000000000    0.215526000000000 
K           0.500000000000000    0.000000000000000    0.555299000000000 
K           0.500000000000000    0.500000000000000    0.055299000000000 
K           0.681634000000000    0.031946000000000    0.215526000000000 
K           0.681634000000000    0.468054000000000    0.715526000000000 
%ENDBLOCK POSITIONS_FRAC
