# Cell file generated by matador (Matthew Evans 2016)

%BLOCK LATTICE_CART
7.1161 0.0 0.0
0.0 6.26166 0.0
2.10525 0.0 6.65043
%ENDBLOCK LATTICE_CART

%BLOCK POSITIONS_FRAC
P           0.007306000000000    0.000000000000000    0.453994000000000 
P           0.064714000000000    0.500000000000000    0.888538000000000 
P           0.254525000000000    0.272975000000000    0.098746000000000 
P           0.254525000000000    0.727025000000000    0.098746000000000 
P           0.320732000000000    0.000000000000000    0.549496000000000 
P           0.365144000000000    0.500000000000000    0.143687000000000 
P           0.670591000000000    0.157904000000000    0.253591000000000 
P           0.670591000000000    0.842096000000000    0.253591000000000 
P           0.856571000000000    0.000000000000000    0.689516000000000 
P           0.965888000000000    0.500000000000000    0.699824000000000 
K           0.509050000000000    0.000000000000000    0.981315000000000 
K           0.777741000000000    0.323211000000000    0.528590000000000 
K           0.777741000000000    0.676789000000000    0.528590000000000 
K           0.935293000000000    0.000000000000000    0.955822000000000 
%ENDBLOCK POSITIONS_FRAC
