# Cell file generated by matador (Matthew Evans 2016)

%BLOCK LATTICE_CART
7.17252 0.0 0.0
0.0 7.17252 0.0
0.0 0.0 8.75027
%ENDBLOCK LATTICE_CART

%BLOCK POSITIONS_FRAC
P           0.000000000000000    0.000000000000000    0.489303000000000 
P           0.000000000000000    0.000000000000000    0.962032000000000 
P           0.500000000000000    0.500000000000000    0.462032000000000 
P           0.500000000000000    0.500000000000000    0.989303000000000 
K           0.000000000000000    0.000000000000000    0.249870000000000 
K           0.000000000000000    0.343292000000000    0.511677000000000 
K           0.000000000000000    0.656708000000000    0.511677000000000 
K           0.156708000000000    0.500000000000000    0.011677000000000 
K           0.343292000000000    0.000000000000000    0.511677000000000 
K           0.500000000000000    0.156708000000000    0.011677000000000 
K           0.500000000000000    0.500000000000000    0.749870000000000 
K           0.500000000000000    0.843292000000000    0.011677000000000 
K           0.656708000000000    0.000000000000000    0.511677000000000 
K           0.843292000000000    0.500000000000000    0.011677000000000 
%ENDBLOCK POSITIONS_FRAC
