# Cell file generated by matador (Matthew Evans 2016)

%BLOCK LATTICE_CART
8.41115 0.0 0.0
0.0 4.84463 0.0
-1.31478 0.0 11.8599
%ENDBLOCK LATTICE_CART

%BLOCK POSITIONS_FRAC
P           0.088092000000000    0.268980000000000    0.899332000000000 
P           0.088092000000000    0.731020000000000    0.899332000000000 
P           0.568057000000000    0.000000000000000    0.518588000000000 
K           0.074990000000000    0.000000000000000    0.353454000000000 
K           0.087739000000000    0.500000000000000    0.515132000000000 
K           0.280814000000000    0.500000000000000    0.001385000000000 
K           0.363196000000000    0.000000000000000    0.638064000000000 
K           0.453992000000000    0.500000000000000    0.449217000000000 
K           0.589764000000000    0.000000000000000    0.311489000000000 
K           0.621777000000000    0.000000000000000    0.003155000000000 
K           0.788963000000000    0.500000000000000    0.634098000000000 
K           0.870019000000000    0.500000000000000    0.903153000000000 
%ENDBLOCK POSITIONS_FRAC
