# Cell file generated by matador (Matthew Evans 2016)

%BLOCK LATTICE_CART
6.27098 0.0 0.0
0.0 10.8448 0.0
4.73248 0.0 9.93006
%ENDBLOCK LATTICE_CART

%BLOCK POSITIONS_FRAC
P          -0.000000000000000    0.315388000000000    0.250000000000000 
P          -0.000000000000000    0.500000000000000    0.000000000000000 
P          -0.000000000000000    0.500000000000000    0.500000000000000 
P          -0.000000000000000    0.684612000000000    0.750000000000000 
P           0.324664000000000    0.045398000000000    0.818798000000000 
P           0.324664000000000    0.954602000000000    0.318798000000000 
P           0.500000000000000    0.000000000000000    0.000000000000000 
P           0.500000000000000    0.000000000000000    0.500000000000000 
P           0.500000000000000    0.393247000000000    0.250000000000000 
P           0.500000000000000    0.500000000000000    0.000000000000000 
P           0.500000000000000    0.500000000000000    0.500000000000000 
P           0.500000000000000    0.606753000000000    0.750000000000000 
P           0.675336000000000    0.045398000000000    0.681202000000000 
P           0.675336000000000    0.954602000000000    0.181202000000000 
K          -0.000000000000000    0.000000000000000    0.000000000000000 
K          -0.000000000000000    0.000000000000000    0.500000000000000 
K           0.465578000000000    0.269880000000000    0.572379000000000 
K           0.465578000000000    0.730120000000000    0.072379000000000 
K           0.534422000000000    0.269880000000000    0.927621000000000 
K           0.534422000000000    0.730120000000000    0.427621000000000 
%ENDBLOCK POSITIONS_FRAC
