# Cell file generated by matador (Matthew Evans 2016)

%BLOCK LATTICE_CART
8.86724 0.0 0.0
0.0 4.21543 0.0
0.0 0.0 9.00412
%ENDBLOCK LATTICE_CART

%BLOCK POSITIONS_FRAC
P           0.250000000000000    0.250000000000000    0.527879000000000 
P           0.250000000000000    0.250000000000000    0.972121000000000 
P           0.750000000000000    0.750000000000000    0.027879000000000 
P           0.750000000000000    0.750000000000000    0.472121000000000 
K           0.250000000000000    0.250000000000000    0.250000000000000 
K           0.250000000000000    0.250000000000000    0.750000000000000 
K           0.250000000000000    0.750000000000000    0.750000000000000 
K           0.750000000000000    0.250000000000000    0.250000000000000 
K           0.750000000000000    0.750000000000000    0.250000000000000 
K           0.750000000000000    0.750000000000000    0.750000000000000 
%ENDBLOCK POSITIONS_FRAC
