# Cell file generated by matador (Matthew Evans 2016)

%BLOCK LATTICE_CART
10.3601 0.0 0.0
0.0 10.3601 0.0
0.0 0.0 10.8475
%ENDBLOCK LATTICE_CART

%BLOCK POSITIONS_FRAC
P           0.000000000000000    0.500000000000000    0.000000000000000 
P           0.000000000000000    0.500000000000000    0.500000000000000 
P           0.335748000000000    0.335748000000000    0.500000000000000 
P           0.335748000000000    0.664252000000000    0.500000000000000 
P           0.500000000000000    0.000000000000000    0.000000000000000 
P           0.500000000000000    0.000000000000000    0.500000000000000 
P           0.664252000000000    0.335748000000000    0.500000000000000 
P           0.664252000000000    0.664252000000000    0.500000000000000 
K           0.142445000000000    0.345941000000000    0.500000000000000 
K           0.142445000000000    0.654059000000000    0.500000000000000 
K           0.144335000000000    0.352296000000000    0.000000000000000 
K           0.144335000000000    0.647704000000000    0.000000000000000 
K           0.148854000000000    0.500000000000000    0.264841000000000 
K           0.148854000000000    0.500000000000000    0.735159000000000 
K           0.345941000000000    0.142445000000000    0.500000000000000 
K           0.345941000000000    0.857555000000000    0.500000000000000 
K           0.352296000000000    0.144335000000000    0.000000000000000 
K           0.352296000000000    0.855665000000000    0.000000000000000 
K           0.500000000000000    0.148854000000000    0.264841000000000 
K           0.500000000000000    0.148854000000000    0.735159000000000 
K           0.500000000000000    0.851146000000000    0.264841000000000 
K           0.500000000000000    0.851146000000000    0.735159000000000 
K           0.647704000000000    0.144335000000000    0.000000000000000 
K           0.647704000000000    0.855665000000000    0.000000000000000 
K           0.654059000000000    0.142445000000000    0.500000000000000 
K           0.654059000000000    0.857555000000000    0.500000000000000 
K           0.851146000000000    0.500000000000000    0.264841000000000 
K           0.851146000000000    0.500000000000000    0.735159000000000 
K           0.855665000000000    0.352296000000000    0.000000000000000 
K           0.855665000000000    0.647704000000000    0.000000000000000 
K           0.857555000000000    0.345941000000000    0.500000000000000 
K           0.857555000000000    0.654059000000000    0.500000000000000 
%ENDBLOCK POSITIONS_FRAC
