# Cell file generated by matador (Matthew Evans 2016)

%BLOCK LATTICE_CART
8.50693 0.0 0.0
-4.25346 7.36721 0.0
0.0 0.0 8.83034
%ENDBLOCK LATTICE_CART

%BLOCK POSITIONS_FRAC
P           0.009880000000000    0.735624000000000    0.014398000000000 
P           0.264376000000000    0.274256000000000    0.014398000000000 
P           0.274256000000000    0.264376000000000    0.514398000000000 
P           0.333333000000000    0.666667000000000    0.946335000000000 
P           0.666667000000000    0.333333000000000    0.446335000000000 
P           0.725744000000000    0.990120000000000    0.014398000000000 
P           0.735624000000000    0.009880000000000    0.514398000000000 
P           0.990120000000000    0.725744000000000    0.514398000000000 
K           0.008415000000000    0.396716000000000    0.959451000000000 
K           0.388301000000000    0.991585000000000    0.959451000000000 
K           0.396716000000000    0.008415000000000    0.459451000000000 
K           0.603284000000000    0.611699000000000    0.959451000000000 
K           0.611699000000000    0.603284000000000    0.459451000000000 
K           0.991585000000000    0.388301000000000    0.459451000000000 
%ENDBLOCK POSITIONS_FRAC
