# Cell file generated by matador (Matthew Evans 2016)

%BLOCK LATTICE_CART
6.10032 0.0 0.0
-3.05016 5.28303 0.0
0.0 0.0 9.19388
%ENDBLOCK LATTICE_CART

%BLOCK POSITIONS_FRAC
P           0.100517000000000    0.627691000000000    0.985052000000000 
P           0.372309000000000    0.472826000000000    0.985052000000000 
P           0.527174000000000    0.899483000000000    0.985052000000000 
K          -0.000000000000000    0.000000000000000    0.504755000000000 
K           0.435906000000000    0.240074000000000    0.768976000000000 
K           0.666667000000000    0.333333000000000    0.306039000000000 
K           0.759926000000000    0.195832000000000    0.768976000000000 
K           0.804168000000000    0.564094000000000    0.768976000000000 
%ENDBLOCK POSITIONS_FRAC
