# Cell file generated by matador (Matthew Evans 2016)

%BLOCK LATTICE_CART
8.42866 0.0 0.0
-4.21433 7.29943 0.0
0.0 0.0 7.0362
%ENDBLOCK LATTICE_CART

%BLOCK POSITIONS_FRAC
P           0.000000000000000    0.000000000000000    0.129844000000000 
P           0.000000000000000    0.000000000000000    0.870156000000000 
P           0.333333000000000    0.666667000000000    0.000000000000000 
P           0.333333000000000    0.666667000000000    0.417146000000000 
P           0.333333000000000    0.666667000000000    0.582854000000000 
P           0.666667000000000    0.333333000000000    0.000000000000000 
P           0.666667000000000    0.333333000000000    0.417146000000000 
P           0.666667000000000    0.333333000000000    0.582854000000000 
K           0.000000000000000    0.000000000000000    0.500000000000000 
K           0.000000000000000    0.500000000000000    0.000000000000000 
K           0.500000000000000    0.000000000000000    0.000000000000000 
K           0.500000000000000    0.500000000000000    0.000000000000000 
%ENDBLOCK POSITIONS_FRAC
