# Cell file generated by matador (Matthew Evans 2016)

%BLOCK LATTICE_CART
3.81002 0.0 0.0
0.0 5.09315 0.0
-1.51979 0.0 8.19261
%ENDBLOCK LATTICE_CART

%BLOCK POSITIONS_FRAC
P           0.000000000000000    0.713426000000000    0.000000000000000 
P           0.099582000000000    0.315529000000000    0.357882000000000 
P           0.500000000000000    0.161140000000000    0.000000000000000 
P           0.500000000000000    0.358031000000000    0.000000000000000 
P           0.900418000000000    0.315529000000000    0.642118000000000 
K           0.500000000000000    0.603534000000000    0.500000000000000 
%ENDBLOCK POSITIONS_FRAC
