# Cell file generated by matador (Matthew Evans 2016)

%BLOCK LATTICE_CART
9.20437 0.0 0.0
0.0 9.20437 0.0
0.0 0.0 4.49128
%ENDBLOCK LATTICE_CART

%BLOCK POSITIONS_FRAC
P           0.000000000000000    0.000000000000000    0.000000000000000 
P           0.131136000000000    0.287494000000000    0.490503000000000 
P           0.212506000000000    0.368864000000000    0.009497000000000 
P           0.287494000000000    0.868864000000000    0.509497000000000 
P           0.368864000000000    0.787494000000000    0.990503000000000 
P           0.500000000000000    0.500000000000000    0.500000000000000 
P           0.631136000000000    0.212506000000000    0.990503000000000 
P           0.712506000000000    0.131136000000000    0.509497000000000 
P           0.787494000000000    0.631136000000000    0.009497000000000 
P           0.868864000000000    0.712506000000000    0.490503000000000 
K           0.000000000000000    0.000000000000000    0.500000000000000 
K           0.000000000000000    0.500000000000000    0.250000000000000 
K           0.500000000000000    0.000000000000000    0.750000000000000 
K           0.500000000000000    0.500000000000000    0.000000000000000 
%ENDBLOCK POSITIONS_FRAC
