# Cell file generated by matador (Matthew Evans 2016)

%BLOCK LATTICE_CART
9.5055 0.0 0.0
-4.75275 8.232 0.0
0.0 0.0 8.45117
%ENDBLOCK LATTICE_CART

%BLOCK POSITIONS_FRAC
P           0.000000000000000    0.000000000000000    0.000000000000000 
P           0.233889000000000    0.702383000000000    0.500000000000000 
P           0.297617000000000    0.531506000000000    0.500000000000000 
P           0.468494000000000    0.766111000000000    0.500000000000000 
K           0.000000000000000    0.000000000000000    0.500000000000000 
K           0.068623000000000    0.339710000000000    0.500000000000000 
K           0.271087000000000    0.931377000000000    0.500000000000000 
K           0.333333000000000    0.666667000000000    0.000000000000000 
K           0.337531000000000    0.269812000000000    0.500000000000000 
K           0.347171000000000    0.014117000000000    0.000000000000000 
K           0.660290000000000    0.728913000000000    0.500000000000000 
K           0.666667000000000    0.333333000000000    0.500000000000000 
K           0.666946000000000    0.652829000000000    0.000000000000000 
K           0.730188000000000    0.067719000000000    0.500000000000000 
K           0.932281000000000    0.662469000000000    0.500000000000000 
K           0.985883000000000    0.333054000000000    0.000000000000000 
%ENDBLOCK POSITIONS_FRAC
