# Cell file generated by matador (Matthew Evans 2016)

%BLOCK LATTICE_CART
8.47405 0.0 0.0
-4.23703 7.33874 0.0
0.0 0.0 7.3033
%ENDBLOCK LATTICE_CART

%BLOCK POSITIONS_FRAC
P           0.060507000000000    0.749001000000000    0.292553000000000 
P           0.250999000000000    0.311506000000000    0.292553000000000 
P           0.311506000000000    0.250999000000000    0.792553000000000 
P           0.333333000000000    0.666667000000000    0.186049000000000 
P           0.666667000000000    0.333333000000000    0.686049000000000 
P           0.688494000000000    0.939493000000000    0.292553000000000 
P           0.749001000000000    0.060507000000000    0.792553000000000 
P           0.939493000000000    0.688494000000000    0.792553000000000 
K          -0.000000000000000   -0.000000000000000    0.392721000000000 
K          -0.000000000000000   -0.000000000000000    0.892721000000000 
K           0.035997000000000    0.331525000000000    0.746901000000000 
K           0.295528000000000    0.964003000000000    0.746901000000000 
K           0.331525000000000    0.035997000000000    0.246901000000000 
K           0.333333000000000    0.666667000000000    0.709875000000000 
K           0.666667000000000    0.333333000000000    0.209875000000000 
K           0.668475000000000    0.704472000000000    0.746901000000000 
K           0.704472000000000    0.668475000000000    0.246901000000000 
K           0.964003000000000    0.295528000000000    0.246901000000000 
%ENDBLOCK POSITIONS_FRAC
