# Cell file generated by matador (Matthew Evans 2016)

%BLOCK LATTICE_CART
9.8243 0.0 0.0
0.0 9.8243 0.0
0.0 0.0 8.82697
%ENDBLOCK LATTICE_CART

%BLOCK POSITIONS_FRAC
P           0.000000000000000    0.500000000000000    0.218654000000000 
P           0.083839000000000    0.416161000000000    0.533415000000000 
P           0.416161000000000    0.916161000000000    0.533415000000000 
P           0.500000000000000    0.000000000000000    0.218654000000000 
P           0.583839000000000    0.083839000000000    0.533415000000000 
P           0.916161000000000    0.583839000000000    0.533415000000000 
K           0.000000000000000    0.000000000000000    0.666507000000000 
K           0.127758000000000    0.372242000000000    0.890007000000000 
K           0.134404000000000    0.365596000000000    0.317331000000000 
K           0.166538000000000    0.666538000000000    0.043962000000000 
K           0.234251000000000    0.734251000000000    0.600144000000000 
K           0.265749000000000    0.234251000000000    0.600144000000000 
K           0.333462000000000    0.166538000000000    0.043962000000000 
K           0.365596000000000    0.865596000000000    0.317331000000000 
K           0.372242000000000    0.872242000000000    0.890007000000000 
K           0.500000000000000    0.500000000000000    0.666507000000000 
K           0.627758000000000    0.127758000000000    0.890007000000000 
K           0.634404000000000    0.134404000000000    0.317331000000000 
K           0.666538000000000    0.833462000000000    0.043962000000000 
K           0.734251000000000    0.765749000000000    0.600144000000000 
K           0.765749000000000    0.265749000000000    0.600144000000000 
K           0.833462000000000    0.333462000000000    0.043962000000000 
K           0.865596000000000    0.634404000000000    0.317331000000000 
K           0.872242000000000    0.627758000000000    0.890007000000000 
%ENDBLOCK POSITIONS_FRAC
