# Cell file generated by matador (Matthew Evans 2016)

%BLOCK LATTICE_CART
7.95002 0.0 0.0
0.0 7.95002 0.0
0.0 0.0 10.8424
%ENDBLOCK LATTICE_CART

%BLOCK POSITIONS_FRAC
P          -0.000000000000000    0.500000000000000    0.250000000000000 
P          -0.000000000000000    0.500000000000000    0.750000000000000 
P           0.500000000000000   -0.000000000000000    0.250000000000000 
P           0.500000000000000   -0.000000000000000    0.750000000000000 
K          -0.000000000000000   -0.000000000000000   -0.000000000000000 
K          -0.000000000000000   -0.000000000000000    0.500000000000000 
K           0.110134000000000    0.354151000000000    0.500000000000000 
K           0.145849000000000    0.389866000000000   -0.000000000000000 
K           0.354151000000000    0.889866000000000    0.500000000000000 
K           0.389866000000000    0.854151000000000   -0.000000000000000 
K           0.500000000000000    0.500000000000000   -0.000000000000000 
K           0.500000000000000    0.500000000000000    0.500000000000000 
K           0.610134000000000    0.145849000000000   -0.000000000000000 
K           0.645849000000000    0.110134000000000    0.500000000000000 
K           0.854151000000000    0.610134000000000   -0.000000000000000 
K           0.889866000000000    0.645849000000000    0.500000000000000 
%ENDBLOCK POSITIONS_FRAC
