# Cell file generated by matador (Matthew Evans 2016)

%BLOCK LATTICE_CART
5.5987 0.0 0.0
0.0 6.05085 0.0
0.0 0.0 5.84873
%ENDBLOCK LATTICE_CART

%BLOCK POSITIONS_FRAC
P           0.000000000000000    0.000000000000000    0.463480000000000 
K           0.000000000000000    0.000000000000000    0.818420000000000 
K           0.000000000000000    0.263151000000000    0.046782000000000 
K           0.000000000000000    0.500000000000000    0.546795000000000 
K           0.000000000000000    0.736849000000000    0.046782000000000 
K           0.500000000000000    0.500000000000000    0.176388000000000 
%ENDBLOCK POSITIONS_FRAC
