# Cell file generated by matador (Matthew Evans 2016)

%BLOCK LATTICE_CART
7.58143 0.0 0.0
-3.79072 6.56571 0.0
0.0 0.0 9.578
%ENDBLOCK LATTICE_CART

%BLOCK POSITIONS_FRAC
P           0.000000000000000    0.353309000000000    0.250000000000000 
P           0.000000000000000    0.646691000000000    0.750000000000000 
P           0.333333000000000    0.666667000000000    0.246769000000000 
P           0.333333000000000    0.666667000000000    0.746769000000000 
P           0.353309000000000    0.000000000000000    0.250000000000000 
P           0.353309000000000    0.353309000000000    0.750000000000000 
P           0.646691000000000    0.000000000000000    0.750000000000000 
P           0.646691000000000    0.646691000000000    0.250000000000000 
P           0.666667000000000    0.333333000000000    0.253231000000000 
P           0.666667000000000    0.333333000000000    0.753231000000000 
K           0.000000000000000    0.500000000000000   -0.000000000000000 
K           0.000000000000000    0.500000000000000    0.500000000000000 
K           0.500000000000000    0.000000000000000   -0.000000000000000 
K           0.500000000000000    0.000000000000000    0.500000000000000 
K           0.500000000000000    0.500000000000000   -0.000000000000000 
K           0.500000000000000    0.500000000000000    0.500000000000000 
%ENDBLOCK POSITIONS_FRAC
