# Cell file generated by matador (Matthew Evans 2016)

%BLOCK LATTICE_CART
8.6262 0.0 0.0
-4.3131 7.47051 0.0
0.0 0.0 8.26123
%ENDBLOCK LATTICE_CART

%BLOCK POSITIONS_FRAC
P           0.333333000000000    0.666667000000000    0.257905000000000 
P           0.333333000000000    0.666667000000000    0.742095000000000 
K          -0.000000000000000    0.000000000000000    0.000000000000000 
K          -0.000000000000000    0.000000000000000    0.500000000000000 
K           0.333333000000000    0.666667000000000    0.000000000000000 
K           0.333333000000000    0.666667000000000    0.500000000000000 
K           0.518092000000000    0.036185000000000    0.000000000000000 
K           0.518092000000000    0.481908000000000    0.000000000000000 
K           0.521971000000000    0.043944000000000    0.500000000000000 
K           0.521971000000000    0.478029000000000    0.500000000000000 
K           0.666666000000000    0.333334000000000    0.000000000000000 
K           0.666666000000000    0.333334000000000    0.500000000000000 
K           0.956056000000000    0.478029000000000    0.500000000000000 
K           0.963815000000000    0.481908000000000    0.000000000000000 
%ENDBLOCK POSITIONS_FRAC
