# Cell file generated by matador (Matthew Evans 2016)

%BLOCK LATTICE_CART
5.5213 -0.0 0.0
-2.76065 4.78159 0.0
0.0 0.0 8.49673
%ENDBLOCK LATTICE_CART

%BLOCK POSITIONS_FRAC
P           0.666667000000000    0.333333000000000    0.078390000000000 
P           0.666667000000000    0.333333000000000    0.539294000000000 
P           0.666667000000000    0.333333000000000    0.658513000000000 
P           0.666667000000000    0.333333000000000    0.913736000000000 
K           0.127790000000000    0.807717000000000    0.788455000000000 
K           0.192283000000000    0.320073000000000    0.788455000000000 
K           0.679927000000000    0.872210000000000    0.788455000000000 
%ENDBLOCK POSITIONS_FRAC
