# Cell file generated by matador (Matthew Evans 2016)

%BLOCK LATTICE_CART
7.77359 0.0 0.0
-3.88679 6.73212 0.0
0.0 0.0 7.24673
%ENDBLOCK LATTICE_CART

%BLOCK POSITIONS_FRAC
P           0.000000000000000    0.517471000000000    0.500000000000000 
P           0.333333000000000    0.666667000000000    0.931856000000000 
P           0.482529000000000    0.482529000000000    0.500000000000000 
P           0.517471000000000    0.000000000000000    0.500000000000000 
P           0.666667000000000    0.333333000000000    0.068144000000000 
K           0.000000000000000    0.000000000000000    0.000000000000000 
K           0.000000000000000    0.355188000000000    0.000000000000000 
K           0.333333000000000    0.666667000000000    0.378852000000000 
K           0.355188000000000    0.000000000000000    0.000000000000000 
K           0.644812000000000    0.644812000000000    0.000000000000000 
K           0.666667000000000    0.333333000000000    0.621148000000000 
%ENDBLOCK POSITIONS_FRAC
