# Cell file generated by matador (Matthew Evans 2016)

%BLOCK LATTICE_CART
4.17288 0.0 0.0
0.0 4.17288 0.0
0.0 0.0 5.35695
%ENDBLOCK LATTICE_CART

%BLOCK POSITIONS_FRAC
P           0.500000000000000    0.500000000000000    0.004365000000000 
P           0.500000000000000    0.500000000000000    0.739816000000000 
K           0.000000000000000    0.500000000000000    0.617371000000000 
K           0.500000000000000    0.000000000000000    0.617371000000000 
%ENDBLOCK POSITIONS_FRAC
