# Cell file generated by matador (Matthew Evans 2016)

%BLOCK LATTICE_CART
7.57633 0.0 0.0
-3.78816 6.56129 0.0
0.0 0.0 10.1655
%ENDBLOCK LATTICE_CART

%BLOCK POSITIONS_FRAC
P           0.115035000000000    0.658114000000000    0.000000000000000 
P           0.341884000000000    0.456921000000000    0.000000000000000 
P           0.456921000000000    0.115035000000000    0.000000000000000 
P           0.543077000000000    0.884963000000000    0.000000000000000 
P           0.658114000000000    0.543077000000000    0.000000000000000 
P           0.884963000000000    0.341884000000000    0.000000000000000 
K           0.999999000000000    0.499999000000000    0.500000000000000 
K           0.090671000000000    0.293266000000000    0.500000000000000 
K           0.202594000000000    0.909327000000000    0.500000000000000 
K           0.293266000000000    0.202594000000000    0.500000000000000 
K           0.499999000000000    0.999999000000000    0.500000000000000 
K           0.499999000000000    0.499999000000000    0.500000000000000 
K           0.706732000000000    0.797404000000000    0.500000000000000 
K           0.797404000000000    0.090671000000000    0.500000000000000 
K           0.909327000000000    0.706732000000000    0.500000000000000 
%ENDBLOCK POSITIONS_FRAC
