# Cell file generated by matador (Matthew Evans 2016)

%BLOCK LATTICE_CART
7.20563 -0.0 0.0
-3.60281 6.24026 0.0
0.0 0.0 9.6104
%ENDBLOCK LATTICE_CART

%BLOCK POSITIONS_FRAC
P           0.148783000000000    0.403623000000000    0.140460000000000 
P           0.150342000000000    0.619559000000000    0.406656000000000 
P           0.187675000000000    0.763771000000000    0.883540000000000 
P           0.236229000000000    0.423903000000000    0.883540000000000 
P           0.254840000000000    0.851217000000000    0.140460000000000 
P           0.344360000000000    0.105013000000000    0.292890000000000 
P           0.380441000000000    0.530783000000000    0.406656000000000 
P           0.469217000000000    0.849658000000000    0.406656000000000 
P           0.576097000000000    0.812325000000000    0.883540000000000 
P           0.596377000000000    0.745160000000000    0.140460000000000 
P           0.760653000000000    0.655640000000000    0.292890000000000 
P           0.894987000000000    0.239347000000000    0.292890000000000 
K           0.000000000000000    0.000000000000000    0.057254000000000 
K           0.666667000000000    0.333333000000000    0.030784000000000 
K           0.666667000000000    0.333333000000000    0.807335000000000 
%ENDBLOCK POSITIONS_FRAC
