# Cell file generated by matador (Matthew Evans 2016)

%BLOCK LATTICE_CART
5.94451 0.0 0.0
-2.97225 5.14809 0.0
0.0 0.0 8.97111
%ENDBLOCK LATTICE_CART

%BLOCK POSITIONS_FRAC
P          -0.000000000000000    0.000000000000000    0.324842000000000 
P          -0.000000000000000    0.000000000000000    0.675158000000000 
P          -0.000000000000000    0.500000000000000    0.000000000000000 
P           0.500000000000000    0.000000000000000    0.000000000000000 
P           0.500000000000000    0.500000000000000    0.000000000000000 
K           0.333333000000000    0.666667000000000    0.342167000000000 
K           0.333333000000000    0.666667000000000    0.589738000000000 
K           0.666666000000000    0.333334000000000    0.410262000000000 
K           0.666666000000000    0.333334000000000    0.657833000000000 
%ENDBLOCK POSITIONS_FRAC
