# Cell file generated by matador (Matthew Evans 2016)

%BLOCK LATTICE_CART
7.65177 0.0 0.0
0.0 9.08541 0.0
0.0 0.0 8.73401
%ENDBLOCK LATTICE_CART

%BLOCK POSITIONS_FRAC
P           0.000000000000000    0.000000000000000    0.000000000000000 
P           0.000000000000000    0.500000000000000    0.000000000000000 
P           0.500000000000000    0.000000000000000    0.500000000000000 
P           0.500000000000000    0.500000000000000    0.500000000000000 
K           0.000000000000000    0.000000000000000    0.500000000000000 
K           0.000000000000000    0.243822000000000    0.217238000000000 
K           0.000000000000000    0.243822000000000    0.782762000000000 
K           0.000000000000000    0.500000000000000    0.500000000000000 
K           0.000000000000000    0.756178000000000    0.217238000000000 
K           0.000000000000000    0.756178000000000    0.782762000000000 
K           0.500000000000000    0.000000000000000    0.000000000000000 
K           0.500000000000000    0.256178000000000    0.282762000000000 
K           0.500000000000000    0.256178000000000    0.717238000000000 
K           0.500000000000000    0.500000000000000    0.000000000000000 
K           0.500000000000000    0.743822000000000    0.282762000000000 
K           0.500000000000000    0.743822000000000    0.717238000000000 
%ENDBLOCK POSITIONS_FRAC
