# Cell file generated by matador (Matthew Evans 2016)

%BLOCK LATTICE_CART
6.4331 0.0 0.0
0.0 4.78829 0.0
-1.55679 0.0 11.2699
%ENDBLOCK LATTICE_CART

%BLOCK POSITIONS_FRAC
P           0.000000000000000    0.000000000000000    0.000000000000000 
P           0.000000000000000    0.106179000000000    0.500000000000000 
P           0.000000000000000    0.893821000000000    0.500000000000000 
K           0.000000000000000    0.500000000000000    0.000000000000000 
K           0.000000000000000    0.500000000000000    0.500000000000000 
K           0.274105000000000    0.000000000000000    0.131471000000000 
K           0.500000000000000    0.000000000000000    0.000000000000000 
K           0.500000000000000    0.500000000000000    0.500000000000000 
K           0.725895000000000    0.000000000000000    0.868529000000000 
%ENDBLOCK POSITIONS_FRAC
