# Cell file generated by matador (Matthew Evans 2016)

%BLOCK LATTICE_CART
7.69763 0.0 0.0
0.0 8.53949 0.0
0.0 0.0 6.87277
%ENDBLOCK LATTICE_CART

%BLOCK POSITIONS_FRAC
P           0.000000000000000    0.000000000000000    0.544226000000000 
P           0.000000000000000    0.500000000000000    0.527980000000000 
P           0.065901000000000    0.444921000000000    0.933294000000000 
P           0.210228000000000    0.539564000000000    0.747543000000000 
P           0.289772000000000    0.039564000000000    0.247543000000000 
P           0.434099000000000    0.944921000000000    0.433294000000000 
P           0.500000000000000    0.000000000000000    0.027980000000000 
P           0.500000000000000    0.500000000000000    0.044226000000000 
P           0.565901000000000    0.055079000000000    0.433294000000000 
P           0.710228000000000    0.960436000000000    0.247543000000000 
P           0.789772000000000    0.460436000000000    0.747543000000000 
P           0.934099000000000    0.555079000000000    0.933294000000000 
K           0.000000000000000    0.500000000000000    0.218068000000000 
K           0.089346000000000    0.838875000000000    0.913695000000000 
K           0.410654000000000    0.338875000000000    0.413695000000000 
K           0.500000000000000    0.000000000000000    0.718068000000000 
K           0.589346000000000    0.661125000000000    0.413695000000000 
K           0.910654000000000    0.161125000000000    0.913695000000000 
%ENDBLOCK POSITIONS_FRAC
