# Cell file generated by matador (Matthew Evans 2016)

%BLOCK LATTICE_CART
6.2998 0.0 0.0
0.0 6.2998 0.0
0.0 0.0 8.34665
%ENDBLOCK LATTICE_CART

%BLOCK POSITIONS_FRAC
P           0.500000000000000    0.500000000000000    0.273201000000000 
P           0.500000000000000    0.500000000000000    0.677641000000000 
K           0.000000000000000    0.500000000000000    0.005957000000000 
K           0.261569000000000    0.261569000000000    0.397648000000000 
K           0.261569000000000    0.738431000000000    0.397648000000000 
K           0.500000000000000    0.000000000000000    0.005957000000000 
K           0.738431000000000    0.261569000000000    0.397648000000000 
K           0.738431000000000    0.738431000000000    0.397648000000000 
%ENDBLOCK POSITIONS_FRAC
