# Cell file generated by matador (Matthew Evans 2016)

%BLOCK LATTICE_CART
10.8747 0.0 0.0
-5.43735 9.41776 0.0
0.0 0.0 6.1929
%ENDBLOCK LATTICE_CART

%BLOCK POSITIONS_FRAC
P           0.000000000000000    0.000000000000000    0.455738000000000 
P           0.000000000000000    0.500000000000000    0.030713000000000 
P           0.500000000000000    0.000000000000000    0.030713000000000 
P           0.500000000000000    0.500000000000000    0.030713000000000 
K           0.163597000000000    0.327193000000000    0.983344000000000 
K           0.163597000000000    0.836403000000000    0.983344000000000 
K           0.206150000000000    0.412300000000000    0.451161000000000 
K           0.206150000000000    0.793850000000000    0.451161000000000 
K           0.327193000000000    0.163597000000000    0.983344000000000 
K           0.412300000000000    0.206150000000000    0.451161000000000 
K           0.587700000000000    0.793850000000000    0.451161000000000 
K           0.672807000000000    0.836403000000000    0.983344000000000 
K           0.793850000000000    0.206150000000000    0.451161000000000 
K           0.793850000000000    0.587700000000000    0.451161000000000 
K           0.836403000000000    0.163597000000000    0.983344000000000 
K           0.836403000000000    0.672807000000000    0.983344000000000 
%ENDBLOCK POSITIONS_FRAC
