# Cell file generated by matador (Matthew Evans 2016)

%BLOCK LATTICE_CART
8.76764 0.0 0.0
0.0 8.76764 0.0
0.0 0.0 6.1869
%ENDBLOCK LATTICE_CART

%BLOCK POSITIONS_FRAC
P           0.000000000000000    0.000000000000000    0.000000000000000 
P           0.099060000000000    0.830782000000000    0.128728000000000 
P           0.169218000000000    0.900940000000000    0.871272000000000 
P           0.183321000000000    0.816679000000000    0.500000000000000 
P           0.316679000000000    0.316679000000000    0.500000000000000 
P           0.330782000000000    0.400940000000000    0.128728000000000 
P           0.400940000000000    0.330782000000000    0.871272000000000 
P           0.500000000000000    0.500000000000000    0.000000000000000 
P           0.599060000000000    0.669218000000000    0.871272000000000 
P           0.669218000000000    0.599060000000000    0.128728000000000 
P           0.683321000000000    0.683321000000000    0.500000000000000 
P           0.816679000000000    0.183321000000000    0.500000000000000 
P           0.830782000000000    0.099060000000000    0.871272000000000 
P           0.900940000000000    0.169218000000000    0.128728000000000 
K           0.000000000000000    0.000000000000000    0.500000000000000 
K           0.000000000000000    0.500000000000000    0.377512000000000 
K           0.500000000000000    0.000000000000000    0.622488000000000 
K           0.500000000000000    0.500000000000000    0.500000000000000 
%ENDBLOCK POSITIONS_FRAC
