# Cell file generated by matador (Matthew Evans 2016)

%BLOCK LATTICE_CART
7.41722 0.0 0.0
0.0 7.41722 0.0
0.0 0.0 5.78181
%ENDBLOCK LATTICE_CART

%BLOCK POSITIONS_FRAC
P           0.000000000000000    0.000000000000000    0.000000000000000 
P           0.000000000000000    0.000000000000000    0.500000000000000 
K           0.128626000000000    0.660228000000000    0.500000000000000 
K           0.339772000000000    0.128626000000000    0.000000000000000 
K           0.500000000000000    0.500000000000000    0.000000000000000 
K           0.500000000000000    0.500000000000000    0.500000000000000 
K           0.660228000000000    0.871374000000000    0.000000000000000 
K           0.871374000000000    0.339772000000000    0.500000000000000 
%ENDBLOCK POSITIONS_FRAC
