# Cell file generated by matador (Matthew Evans 2016)

%BLOCK LATTICE_CART
9.62957 0.0 0.0
-4.81479 8.33945 0.0
0.0 0.0 5.79102
%ENDBLOCK LATTICE_CART

%BLOCK POSITIONS_FRAC
P           0.000000000000000    0.000000000000000    0.385097000000000 
P           0.000000000000000    0.000000000000000    0.614903000000000 
P           0.000000000000000    0.650597000000000    0.500000000000000 
P           0.016070000000000    0.682737000000000    0.833333000000000 
P           0.317263000000000    0.333333000000000    0.833333000000000 
P           0.333333000000000    0.317263000000000    0.166667000000000 
P           0.333333000000000    0.666667000000000    0.051764000000000 
P           0.333333000000000    0.666667000000000    0.281569000000000 
P           0.349403000000000    0.349403000000000    0.500000000000000 
P           0.650597000000000    0.000000000000000    0.500000000000000 
P           0.666667000000000    0.333333000000000    0.718431000000000 
P           0.666667000000000    0.333333000000000    0.948236000000000 
P           0.666667000000000    0.983930000000000    0.833333000000000 
P           0.682737000000000    0.016070000000000    0.166667000000000 
P           0.983930000000000    0.666667000000000    0.166667000000000 
K           0.000000000000000    0.000000000000000    0.000000000000000 
K           0.333333000000000    0.666667000000000    0.666667000000000 
K           0.666667000000000    0.333333000000000    0.333333000000000 
%ENDBLOCK POSITIONS_FRAC
