# Cell file generated by matador (Matthew Evans 2016)

%BLOCK LATTICE_CART
9.05414 0.0 0.0
0.0 6.56363 0.0
0.0 0.0 5.32141
%ENDBLOCK LATTICE_CART

%BLOCK POSITIONS_FRAC
P           0.000000000000000    0.000000000000000    0.000000000000000 
P           0.488183000000000    0.250871000000000    0.209764000000000 
P           0.488183000000000    0.749129000000000    0.790236000000000 
P           0.500000000000000    0.000000000000000    0.500000000000000 
P           0.511817000000000    0.250871000000000    0.790236000000000 
P           0.511817000000000    0.749129000000000    0.209764000000000 
K           0.328946000000000    0.269861000000000    0.613876000000000 
K           0.328946000000000    0.730139000000000    0.386124000000000 
K           0.500000000000000    0.000000000000000    0.000000000000000 
K           0.500000000000000    0.500000000000000    0.500000000000000 
K           0.671054000000000    0.269861000000000    0.386124000000000 
K           0.671054000000000    0.730139000000000    0.613876000000000 
%ENDBLOCK POSITIONS_FRAC
