# Cell file generated by matador (Matthew Evans 2016)

%BLOCK LATTICE_CART
5.66492 0.0 0.0
-2.83246 4.90597 0.0
0.0 0.0 6.82685
%ENDBLOCK LATTICE_CART

%BLOCK POSITIONS_FRAC
P           0.584854000000000    0.169708000000000    0.666667000000000 
P           0.584854000000000    0.415146000000000    0.333333000000000 
P           0.830292000000000    0.415146000000000    0.000000000000000 
K           0.311486000000000    0.655743000000000    0.500000000000000 
K           0.344257000000000    0.655743000000000    0.833333000000000 
K           0.344257000000000    0.688514000000000    0.166667000000000 
%ENDBLOCK POSITIONS_FRAC
