# Cell file generated by matador (Matthew Evans 2016)

%BLOCK LATTICE_CART
9.20636 0.0 0.0
0.0 10.7459 0.0
-1.78247 0.0 5.98271
%ENDBLOCK LATTICE_CART

%BLOCK POSITIONS_FRAC
P           0.248813000000000    0.500000000000000    0.979251000000000 
P           0.403843000000000    0.500000000000000    0.593006000000000 
P           0.643687000000000    0.500000000000000    0.324964000000000 
P           0.928627000000000    0.500000000000000    0.611008000000000 
K           0.030414000000000    0.500000000000000    0.939206000000000 
K           0.102270000000000    0.000000000000000    0.526462000000000 
K           0.116440000000000    0.500000000000000    0.459099000000000 
K           0.149012000000000    0.000000000000000    0.015486000000000 
K           0.352436000000000    0.335351000000000    0.764109000000000 
K           0.352436000000000    0.664649000000000    0.764109000000000 
K           0.414900000000000    0.500000000000000    0.253846000000000 
K           0.491632000000000    0.000000000000000    0.147044000000000 
K           0.667323000000000    0.500000000000000    0.651623000000000 
K           0.769688000000000    0.500000000000000    0.129645000000000 
K           0.802046000000000    0.000000000000000    0.648345000000000 
K           0.833399000000000    0.000000000000000    0.133123000000000 
%ENDBLOCK POSITIONS_FRAC
