# Cell file generated by matador (Matthew Evans 2016)

%BLOCK LATTICE_CART
8.08062 0.0 0.0
-4.04031 6.99802 0.0
0.0 0.0 6.95583
%ENDBLOCK LATTICE_CART

%BLOCK POSITIONS_FRAC
P           0.125039000000000    0.120951000000000    0.803380000000000 
P           0.312156000000000    0.296091000000000    0.840605000000000 
P           0.544110000000000    0.204908000000000    0.789220000000000 
P           0.660798000000000    0.455890000000000    0.455886000000000 
P           0.703909000000000    0.016065000000000    0.173938000000000 
P           0.795092000000000    0.339202000000000    0.122553000000000 
P           0.879049000000000    0.004088000000000    0.136713000000000 
P           0.983935000000000    0.687844000000000    0.507271000000000 
P           0.995912000000000    0.874961000000000    0.470046000000000 
K           0.212314000000000    0.495693000000000    0.531928000000000 
K           0.283379000000000    0.787686000000000    0.198595000000000 
K           0.504307000000000    0.716621000000000    0.865262000000000 
%ENDBLOCK POSITIONS_FRAC
