# Cell file generated by matador (Matthew Evans 2016)

%BLOCK LATTICE_CART
8.45684 0.0 0.0
0.0 8.45684 0.0
0.0 0.0 13.0016
%ENDBLOCK LATTICE_CART

%BLOCK POSITIONS_FRAC
P           0.000000000000000    0.000000000000000    0.000000000000000 
P           0.250000000000000    0.250000000000000    0.250000000000000 
P           0.250000000000000    0.750000000000000    0.750000000000000 
P           0.500000000000000    0.500000000000000    0.500000000000000 
P           0.750000000000000    0.250000000000000    0.750000000000000 
P           0.750000000000000    0.750000000000000    0.250000000000000 
K           0.000000000000000    0.000000000000000    0.500000000000000 
K           0.000000000000000    0.500000000000000    0.000000000000000 
K           0.000000000000000    0.500000000000000    0.250000000000000 
K           0.000000000000000    0.500000000000000    0.500000000000000 
K           0.000000000000000    0.500000000000000    0.750000000000000 
K           0.193077000000000    0.193077000000000    0.647301000000000 
K           0.193077000000000    0.806923000000000    0.352699000000000 
K           0.306923000000000    0.306923000000000    0.852699000000000 
K           0.306923000000000    0.693077000000000    0.147301000000000 
K           0.500000000000000    0.000000000000000    0.000000000000000 
K           0.500000000000000    0.000000000000000    0.250000000000000 
K           0.500000000000000    0.000000000000000    0.500000000000000 
K           0.500000000000000    0.000000000000000    0.750000000000000 
K           0.500000000000000    0.500000000000000    0.000000000000000 
K           0.693077000000000    0.306923000000000    0.147301000000000 
K           0.693077000000000    0.693077000000000    0.852699000000000 
K           0.806923000000000    0.193077000000000    0.352699000000000 
K           0.806923000000000    0.806923000000000    0.647301000000000 
%ENDBLOCK POSITIONS_FRAC
