# Cell file generated by matador (Matthew Evans 2016)

%BLOCK LATTICE_CART
5.71082 0.0 0.0
-3.82562 7.4498 0.0
-0.859574 0.418633 7.30472
%ENDBLOCK LATTICE_CART

%BLOCK POSITIONS_FRAC
P           0.000000000000000    0.000000000000000    0.000000000000000 
P           0.000000000000000    0.000000000000000    0.500000000000000 
P           0.000000000000000    0.500000000000000    0.000000000000000 
P           0.000000000000000    0.500000000000000    0.500000000000000 
P           0.139541000000000    0.137792000000000    0.913035000000000 
P           0.305288000000000    0.277297000000000    0.769289000000000 
P           0.500000000000000    0.500000000000000    0.000000000000000 
P           0.500000000000000    0.500000000000000    0.500000000000000 
P           0.694712000000000    0.722703000000000    0.230711000000000 
P           0.860459000000000    0.862208000000000    0.086965000000000 
K           0.390592000000000    0.034286000000000    0.766319000000000 
K           0.451754000000000    0.748601000000000    0.602273000000000 
K           0.548246000000000    0.251399000000000    0.397727000000000 
K           0.609408000000000    0.965715000000000    0.233681000000000 
%ENDBLOCK POSITIONS_FRAC
