# Cell file generated by matador (Matthew Evans 2016)

%BLOCK LATTICE_CART
8.60225 0.0 0.0
0.0 6.73852 0.0
0.0 0.0 9.66494
%ENDBLOCK LATTICE_CART

%BLOCK POSITIONS_FRAC
P           0.000000000000000    0.000000000000000    0.000000000000000 
P           0.000000000000000    0.000000000000000    0.500000000000000 
K           0.000000000000000    0.500000000000000    0.000000000000000 
K           0.000000000000000    0.500000000000000    0.500000000000000 
K           0.126909000000000    0.096379000000000    0.672495000000000 
K           0.126909000000000    0.903621000000000    0.327505000000000 
K           0.415208000000000    0.103256000000000    0.722560000000000 
K           0.415208000000000    0.896744000000000    0.277440000000000 
K           0.500000000000000    0.000000000000000    0.500000000000000 
K           0.500000000000000    0.500000000000000    0.500000000000000 
K           0.584792000000000    0.103256000000000    0.277440000000000 
K           0.584792000000000    0.896744000000000    0.722560000000000 
K           0.873091000000000    0.096379000000000    0.327505000000000 
K           0.873091000000000    0.903621000000000    0.672495000000000 
%ENDBLOCK POSITIONS_FRAC
