# Cell file generated by matador (Matthew Evans 2016)

%BLOCK LATTICE_CART
8.5613 -0.0 0.0
-4.28065 7.4143 0.0
0.0 0.0 8.19759
%ENDBLOCK LATTICE_CART

%BLOCK POSITIONS_FRAC
P           0.000000000000000    0.000000000000000    0.182570000000000 
P           0.000000000000000    0.000000000000000    0.313953000000000 
P           0.000000000000000    0.000000000000000    0.947127000000000 
P           0.000000000000000    0.500000000000000    0.155843000000000 
P           0.059016000000000    0.873022000000000    0.365057000000000 
P           0.126978000000000    0.185994000000000    0.365057000000000 
P           0.185994000000000    0.059016000000000    0.365057000000000 
P           0.500000000000000    0.000000000000000    0.155843000000000 
P           0.500000000000000    0.500000000000000    0.155843000000000 
P           0.814006000000000    0.940984000000000    0.365057000000000 
P           0.873022000000000    0.814006000000000    0.365057000000000 
P           0.940984000000000    0.126978000000000    0.365057000000000 
K           0.000000000000000    0.500000000000000    0.713563000000000 
K           0.500000000000000    0.000000000000000    0.713563000000000 
K           0.500000000000000    0.500000000000000    0.713563000000000 
%ENDBLOCK POSITIONS_FRAC
