# Cell file generated by matador (Matthew Evans 2016)

%BLOCK LATTICE_CART
8.33276 0.0 0.0
-4.16638 7.21638 0.0
0.0 0.0 5.42599
%ENDBLOCK LATTICE_CART

%BLOCK POSITIONS_FRAC
P           0.333333000000000    0.666667000000000    0.102593000000000 
P           0.333333000000000    0.666667000000000    0.897407000000000 
P           0.666666000000000    0.333334000000000    0.102593000000000 
P           0.666666000000000    0.333334000000000    0.897407000000000 
K          -0.000000000000000    0.000000000000000    0.000000000000000 
K          -0.000000000000000    0.000000000000000    0.500000000000000 
K          -0.000000000000000    0.723708000000000    0.000000000000000 
K           0.276292000000000    0.276292000000000    0.000000000000000 
K           0.723708000000000    0.000000000000000    0.000000000000000 
%ENDBLOCK POSITIONS_FRAC
