# Cell file generated by matador (Matthew Evans 2016)

%BLOCK LATTICE_CART
5.89865 0.0 0.0
0.0 10.5479 0.0
0.0 0.0 5.59979
%ENDBLOCK LATTICE_CART

%BLOCK POSITIONS_FRAC
P           0.062444000000000    0.500000000000000    0.000000000000000 
P           0.246731000000000    0.216558000000000    0.150780000000000 
P           0.246731000000000    0.783442000000000    0.849220000000000 
P           0.445985000000000    0.500000000000000    0.000000000000000 
P           0.448658000000000    0.000000000000000    0.500000000000000 
P           0.551342000000000    0.000000000000000    0.000000000000000 
P           0.554015000000000    0.500000000000000    0.500000000000000 
P           0.753269000000000    0.216558000000000    0.349220000000000 
P           0.753269000000000    0.783442000000000    0.650780000000000 
P           0.937556000000000    0.500000000000000    0.500000000000000 
K           0.500000000000000    0.361186000000000    0.750000000000000 
K           0.500000000000000    0.638814000000000    0.250000000000000 
%ENDBLOCK POSITIONS_FRAC
