# Cell file generated by matador (Matthew Evans 2016)

%BLOCK LATTICE_CART
8.60101 0.0 0.0
-4.30051 7.44869 0.0
0.0 0.0 7.79256
%ENDBLOCK LATTICE_CART

%BLOCK POSITIONS_FRAC
P           0.000001000000000    0.000001000000000    0.250000000000000 
P           0.000001000000000    0.000001000000000    0.750000000000000 
P           0.000001000000000    0.500001000000000    0.000000000000000 
P           0.000001000000000    0.500001000000000    0.500000000000000 
P           0.094572000000000    0.189143000000000    0.250000000000000 
P           0.094572000000000    0.905430000000000    0.250000000000000 
P           0.189143000000000    0.094572000000000    0.750000000000000 
P           0.500001000000000    0.000001000000000    0.000000000000000 
P           0.500001000000000    0.000001000000000    0.500000000000000 
P           0.500001000000000    0.500001000000000    0.000000000000000 
P           0.500001000000000    0.500001000000000    0.500000000000000 
P           0.810859000000000    0.905430000000000    0.250000000000000 
P           0.905430000000000    0.094572000000000    0.750000000000000 
P           0.905430000000000    0.810859000000000    0.750000000000000 
K           0.333334000000000    0.666668000000000    0.750000000000000 
K           0.666668000000000    0.333334000000000    0.250000000000000 
%ENDBLOCK POSITIONS_FRAC
