# Cell file generated by matador (Matthew Evans 2016)

%BLOCK LATTICE_CART
8.05915 0.0 0.0
-4.02958 6.97943 0.0
0.0 0.0 10.8967
%ENDBLOCK LATTICE_CART

%BLOCK POSITIONS_FRAC
P           0.000000000000000    0.000000000000000    0.096302000000000 
P           0.000000000000000    0.224777000000000    0.715488000000000 
P           0.224777000000000    0.000000000000000    0.715488000000000 
P           0.775223000000000    0.775223000000000    0.715488000000000 
K           0.000000000000000    0.397738000000000    0.212284000000000 
K           0.000000000000000    0.472284000000000    0.722307000000000 
K           0.000000000000000    0.547253000000000    0.454290000000000 
K           0.000000000000000    0.582244000000000    0.975685000000000 
K           0.397738000000000    0.000000000000000    0.212284000000000 
K           0.417756000000000    0.417756000000000    0.975685000000000 
K           0.452747000000000    0.452747000000000    0.454290000000000 
K           0.472284000000000    0.000000000000000    0.722307000000000 
K           0.527716000000000    0.527716000000000    0.722307000000000 
K           0.547253000000000    0.000000000000000    0.454290000000000 
K           0.582244000000000    0.000000000000000    0.975685000000000 
K           0.602262000000000    0.602262000000000    0.212284000000000 
%ENDBLOCK POSITIONS_FRAC
