# Cell file generated by matador (Matthew Evans 2016)

%BLOCK LATTICE_CART
8.59481 0.0 0.0
-4.2974 7.44332 0.0
0.0 0.0 8.06293
%ENDBLOCK LATTICE_CART

%BLOCK POSITIONS_FRAC
P           0.000000000000000    0.000000000000000    0.077336000000000 
P           0.000000000000000    0.000000000000000    0.422664000000000 
P           0.000000000000000    0.000000000000000    0.577336000000000 
P           0.000000000000000    0.000000000000000    0.922664000000000 
P           0.333333000000000    0.666667000000000    0.501952000000000 
P           0.333333000000000    0.666667000000000    0.998048000000000 
P           0.666667000000000    0.333333000000000    0.001952000000000 
P           0.666667000000000    0.333333000000000    0.498048000000000 
K           0.193063000000000    0.386126000000000    0.250000000000000 
K           0.193063000000000    0.806937000000000    0.250000000000000 
K           0.333333000000000    0.666667000000000    0.250000000000000 
K           0.333333000000000    0.666667000000000    0.750000000000000 
K           0.386126000000000    0.193063000000000    0.750000000000000 
K           0.613874000000000    0.806937000000000    0.250000000000000 
K           0.666667000000000    0.333333000000000    0.250000000000000 
K           0.666667000000000    0.333333000000000    0.750000000000000 
K           0.806937000000000    0.193063000000000    0.750000000000000 
K           0.806937000000000    0.613874000000000    0.750000000000000 
%ENDBLOCK POSITIONS_FRAC
