# Cell file generated by matador (Matthew Evans 2016)

%BLOCK LATTICE_CART
4.98735 0.0 0.0
-2.49368 4.31918 0.0
0.0 0.0 11.5735
%ENDBLOCK LATTICE_CART

%BLOCK POSITIONS_FRAC
P           0.534830000000000    0.432879000000000    0.929024000000000 
P           0.567121000000000    0.101951000000000    0.929024000000000 
P           0.666667000000000    0.333333000000000    0.995203000000000 
P           0.898049000000000    0.465170000000000    0.929024000000000 
K           0.000000000000000    0.000000000000000    0.218125000000000 
K           0.333333000000000    0.666667000000000    0.230047000000000 
K           0.333333000000000    0.666667000000000    0.688238000000000 
%ENDBLOCK POSITIONS_FRAC
