# Cell file generated by matador (Matthew Evans 2016)

%BLOCK LATTICE_CART
7.6784 0.0 0.0
-3.8392 6.64969 0.0
0.0 0.0 11.3486
%ENDBLOCK LATTICE_CART

%BLOCK POSITIONS_FRAC
P           0.284066000000000    0.025821000000000    0.364409000000000 
P           0.284066000000000    0.258245000000000    0.364409000000000 
P           0.741755000000000    0.025821000000000    0.364409000000000 
P           0.741755000000000    0.715934000000000    0.364409000000000 
P           0.974179000000000    0.258245000000000    0.364409000000000 
P           0.974179000000000    0.715934000000000    0.364409000000000 
K           0.400243000000000    0.200121000000000    0.150930000000000 
K           0.500417000000000    0.000834000000000    0.585080000000000 
K           0.500417000000000    0.499583000000000    0.585080000000000 
K           0.524017000000000    0.048034000000000    0.883113000000000 
K           0.524017000000000    0.475983000000000    0.883113000000000 
K           0.799879000000000    0.200121000000000    0.150930000000000 
K           0.799879000000000    0.599757000000000    0.150930000000000 
K           0.951966000000000    0.475983000000000    0.883113000000000 
K           0.999166000000000    0.499583000000000    0.585080000000000 
%ENDBLOCK POSITIONS_FRAC
