# Cell file generated by matador (Matthew Evans 2016)

%BLOCK LATTICE_CART
7.68189 0.0 0.0
0.0 5.74653 0.0
-0.533664 0.0 7.06529
%ENDBLOCK LATTICE_CART

%BLOCK POSITIONS_FRAC
P           0.000000000000000    0.000000000000000    0.000000000000000 
P           0.000000000000000    0.500000000000000    0.500000000000000 
P           0.080449000000000    0.189672000000000    0.634037000000000 
P           0.080449000000000    0.810328000000000    0.634037000000000 
P           0.919551000000000    0.189672000000000    0.365963000000000 
P           0.919551000000000    0.810328000000000    0.365963000000000 
K           0.290026000000000    0.246812000000000    0.097040000000000 
K           0.290026000000000    0.753188000000000    0.097040000000000 
K           0.496361000000000    0.000000000000000    0.314163000000000 
K           0.500000000000000    0.000000000000000    0.000000000000000 
K           0.503639000000000    0.000000000000000    0.685837000000000 
K           0.709974000000000    0.246812000000000    0.902960000000000 
K           0.709974000000000    0.753188000000000    0.902960000000000 
%ENDBLOCK POSITIONS_FRAC
