# Cell file generated by matador (Matthew Evans 2016)

%BLOCK LATTICE_CART
6.41955 0.0 0.0
0.0 4.84755 0.0
3.40759 0.0 12.0024
%ENDBLOCK LATTICE_CART

%BLOCK POSITIONS_FRAC
P           0.034073000000000    0.500000000000000    0.544345000000000 
P           0.580314000000000    0.301450000000000    0.272200000000000 
P           0.580314000000000    0.698550000000000    0.272200000000000 
P           0.911789000000000    0.000000000000000    0.628425000000000 
K           0.209734000000000    0.500000000000000    0.213975000000000 
K           0.260584000000000    0.500000000000000    0.665800000000000 
K           0.399644000000000    0.000000000000000    0.121419000000000 
K           0.673285000000000    0.500000000000000    0.528447000000000 
K           0.908605000000000    0.240890000000000    0.290959000000000 
K           0.908605000000000    0.759110000000000    0.290959000000000 
K           0.939074000000000    0.500000000000000    0.059818000000000 
%ENDBLOCK POSITIONS_FRAC
