# Cell file generated by matador (Matthew Evans 2016)

%BLOCK LATTICE_CART
4.45387 0.0 0.0
0.0 4.45387 0.0
0.0 0.0 7.05987
%ENDBLOCK LATTICE_CART

%BLOCK POSITIONS_FRAC
P           0.000000000000000    0.212050000000000    0.500000000000000 
P           0.000000000000000    0.787950000000000    0.500000000000000 
P           0.212050000000000    0.000000000000000    0.500000000000000 
P           0.787950000000000    0.000000000000000    0.500000000000000 
K           0.000000000000000    0.000000000000000    0.000000000000000 
%ENDBLOCK POSITIONS_FRAC
