# Cell file generated by matador (Matthew Evans 2016)

%BLOCK LATTICE_CART
7.85923 0.0 0.0
-3.92962 6.8063 0.0
0.0 0.0 7.52019
%ENDBLOCK LATTICE_CART

%BLOCK POSITIONS_FRAC
P           0.666667000000000    0.333333000000000    0.000000000000000 
P           0.666667000000000    0.333333000000000    0.250000000000000 
P           0.666667000000000    0.333333000000000    0.500000000000000 
P           0.666667000000000    0.333333000000000    0.750000000000000 
K           0.000000000000000   -0.000000000000000    0.000000000000000 
K           0.000000000000000   -0.000000000000000    0.500000000000000 
K           0.066152000000000    0.214542000000000    0.250000000000000 
K           0.066152000000000    0.851610000000000    0.750000000000000 
K           0.148390000000000    0.214542000000000    0.750000000000000 
K           0.148390000000000    0.933848000000000    0.250000000000000 
K           0.333334000000000    0.666666000000000    0.250000000000000 
K           0.333334000000000    0.666666000000000    0.750000000000000 
K           0.785458000000000    0.851610000000000    0.250000000000000 
K           0.785458000000000    0.933848000000000    0.750000000000000 
%ENDBLOCK POSITIONS_FRAC
