# Cell file generated by matador (Matthew Evans 2016)

%BLOCK LATTICE_CART
3.00586 0.0 0.0
0.0 9.18026 0.0
-0.998031 0.0 10.0222
%ENDBLOCK LATTICE_CART

%BLOCK POSITIONS_FRAC
P           0.049791000000000    0.084953000000000    0.796356000000000 
P           0.074380000000000    0.569083000000000    0.403732000000000 
P           0.214154000000000    0.863639000000000    0.079620000000000 
P           0.374587000000000    0.536884000000000    0.694655000000000 
P           0.387850000000000    0.271469000000000    0.742171000000000 
P           0.612150000000000    0.771469000000000    0.257829000000000 
P           0.625413000000000    0.036884000000000    0.305345000000000 
P           0.785846000000000    0.363639000000000    0.920380000000000 
P           0.925620000000000    0.069083000000000    0.596268000000000 
P           0.950209000000000    0.584953000000000    0.203644000000000 
K           0.331384000000000    0.072934000000000    0.996600000000000 
K           0.668616000000000    0.572934000000000    0.003400000000000 
%ENDBLOCK POSITIONS_FRAC
