# Cell file generated by matador (Matthew Evans 2016)

%BLOCK LATTICE_CART
7.91555 -0.0 0.0
-3.95777 6.85506 0.0
0.0 0.0 7.67597
%ENDBLOCK LATTICE_CART

%BLOCK POSITIONS_FRAC
P           0.000000000000000    0.000000000000000    0.520277000000000 
P           0.153750000000000    0.349686000000000    0.866205000000000 
P           0.195936000000000    0.846250000000000    0.866205000000000 
P           0.650314000000000    0.804064000000000    0.866205000000000 
P           0.666667000000000    0.333333000000000    0.345879000000000 
K           0.190515000000000    0.394719000000000    0.356109000000000 
K           0.204204000000000    0.809485000000000    0.356109000000000 
K           0.300975000000000    0.202269000000000    0.583107000000000 
K           0.605281000000000    0.795796000000000    0.356109000000000 
K           0.666667000000000    0.333333000000000    0.636202000000000 
K           0.797731000000000    0.098706000000000    0.583107000000000 
K           0.901294000000000    0.699025000000000    0.583107000000000 
%ENDBLOCK POSITIONS_FRAC
