# Cell file generated by matador (Matthew Evans 2016)

%BLOCK LATTICE_CART
7.40216 0.0 0.0
-3.70108 6.41046 0.0
0.0 0.0 11.1663
%ENDBLOCK LATTICE_CART

%BLOCK POSITIONS_FRAC
P           0.000000000000000    0.000000000000000    0.447365000000000 
P           0.000000000000000    0.000000000000000    0.848338000000000 
P           0.333333000000000    0.666667000000000    0.113737000000000 
P           0.333333000000000    0.666667000000000    0.453390000000000 
K           0.000000000000000    0.000000000000000    0.070756000000000 
K           0.002971000000000    0.742654000000000    0.190727000000000 
K           0.051487000000000    0.648109000000000    0.577907000000000 
K           0.257346000000000    0.260317000000000    0.190727000000000 
K           0.333333000000000    0.666667000000000    0.929486000000000 
K           0.351891000000000    0.403378000000000    0.577907000000000 
K           0.596622000000000    0.948513000000000    0.577907000000000 
K           0.666667000000000    0.333333000000000    0.096756000000000 
K           0.666667000000000    0.333333000000000    0.760810000000000 
K           0.739683000000000    0.997029000000000    0.190727000000000 
%ENDBLOCK POSITIONS_FRAC
