# Cell file generated by matador (Matthew Evans 2016)

%BLOCK LATTICE_CART
6.49637 0.0 0.0
0.0 6.49637 0.0
0.0 0.0 8.46034
%ENDBLOCK LATTICE_CART

%BLOCK POSITIONS_FRAC
P           0.243444000000000    0.243444000000000    0.821320000000000 
P           0.243444000000000    0.756556000000000    0.821320000000000 
P           0.756556000000000    0.243444000000000    0.821320000000000 
P           0.756556000000000    0.756556000000000    0.821320000000000 
K           0.000000000000000    0.000000000000000    0.301799000000000 
K           0.000000000000000    0.000000000000000    0.571451000000000 
K           0.000000000000000    0.500000000000000    0.841394000000000 
K           0.207701000000000    0.500000000000000    0.441677000000000 
K           0.500000000000000    0.000000000000000    0.841394000000000 
K           0.500000000000000    0.207701000000000    0.441677000000000 
K           0.500000000000000    0.792299000000000    0.441677000000000 
K           0.792299000000000    0.500000000000000    0.441677000000000 
%ENDBLOCK POSITIONS_FRAC
