# Cell file generated by matador (Matthew Evans 2016)

%BLOCK LATTICE_CART
5.25169 0.0 0.0
-2.62584 4.54809 0.0
0.0 0.0 5.12569
%ENDBLOCK LATTICE_CART

%BLOCK POSITIONS_FRAC
P           0.000000000000000    0.000000000000000    0.008128000000000 
P           0.000000000000000    0.000000000000000    0.245149000000000 
K           0.000000000000000    0.500000000000000    0.642046000000000 
K           0.500000000000000    0.000000000000000    0.642046000000000 
K           0.500000000000000    0.500000000000000    0.642046000000000 
%ENDBLOCK POSITIONS_FRAC
