# Cell file generated by matador (Matthew Evans 2016)

%BLOCK LATTICE_CART
9.94474 0.0 0.0
0.0 4.71828 0.0
1.58025 0.0 4.53542
%ENDBLOCK LATTICE_CART

%BLOCK POSITIONS_FRAC
P           0.000000000000000    0.062166000000000   -0.000000000000000 
P           0.000000000000000    0.071921000000000    0.500000000000000 
P           0.041475000000000    0.736925000000000    0.644598000000000 
P           0.059330000000000    0.396476000000000    0.733705000000000 
P           0.940670000000000    0.396476000000000    0.266295000000000 
P           0.958525000000000    0.736925000000000    0.355402000000000 
K           0.327333000000000    0.924029000000000    0.397449000000000 
K           0.672667000000000    0.924029000000000    0.602551000000000 
%ENDBLOCK POSITIONS_FRAC
