# Cell file generated by matador (Matthew Evans 2016)

%BLOCK LATTICE_CART
7.16798 0.0 0.0
-3.58399 6.20765 0.0
0.0 0.0 9.1461
%ENDBLOCK LATTICE_CART

%BLOCK POSITIONS_FRAC
P           0.000000000000000    0.000000000000000    0.258577000000000 
P           0.333333000000000    0.666667000000000    0.993008000000000 
P           0.666667000000000    0.333333000000000    0.057494000000000 
P           0.666667000000000    0.333333000000000    0.317455000000000 
P           0.666667000000000    0.333333000000000    0.607310000000000 
P           0.666667000000000    0.333333000000000    0.887168000000000 
K           0.000000000000000    0.000000000000000    0.828506000000000 
K           0.021720000000000    0.255471000000000    0.631594000000000 
K           0.233751000000000    0.978280000000000    0.631594000000000 
K           0.318838000000000    0.312874000000000    0.156092000000000 
K           0.333333000000000    0.666667000000000    0.216645000000000 
K           0.687126000000000    0.005964000000000    0.156092000000000 
K           0.744529000000000    0.766249000000000    0.631594000000000 
K           0.994036000000000    0.681162000000000    0.156092000000000 
%ENDBLOCK POSITIONS_FRAC
