# Cell file generated by matador (Matthew Evans 2016)

%BLOCK LATTICE_CART
6.75975 0.0 0.0
-3.37987 5.85411 0.0
0.0 0.0 7.84885
%ENDBLOCK LATTICE_CART

%BLOCK POSITIONS_FRAC
P           0.000000000000000    0.000000000000000    0.383291000000000 
P           0.000000000000000    0.000000000000000    0.876536000000000 
P           0.178319000000000    0.461051000000000    0.157932000000000 
P           0.282733000000000    0.821681000000000    0.157932000000000 
P           0.333333000000000    0.666667000000000    0.123647000000000 
P           0.333333000000000    0.666667000000000    0.475542000000000 
P           0.538949000000000    0.717267000000000    0.157932000000000 
P           0.666667000000000    0.333333000000000    0.555330000000000 
K           0.043778000000000    0.270659000000000    0.655152000000000 
K           0.226881000000000    0.956222000000000    0.655152000000000 
K           0.666667000000000    0.333333000000000    0.163981000000000 
K           0.729341000000000    0.773119000000000    0.655152000000000 
%ENDBLOCK POSITIONS_FRAC
