# Cell file generated by matador (Matthew Evans 2016)

%BLOCK LATTICE_CART
11.0332 0.0 0.0
0.0 11.0332 0.0
0.0 0.0 11.0486
%ENDBLOCK LATTICE_CART

%BLOCK POSITIONS_FRAC
P           0.000000000000000    0.000000000000000    0.054485000000000 
P           0.000000000000000    0.000000000000000    0.554485000000000 
P           0.000000000000000    0.500000000000000    0.412891000000000 
P           0.000000000000000    0.500000000000000    0.912891000000000 
P           0.500000000000000    0.000000000000000    0.412891000000000 
P           0.500000000000000    0.000000000000000    0.912891000000000 
P           0.500000000000000    0.500000000000000    0.054485000000000 
P           0.500000000000000    0.500000000000000    0.554485000000000 
K           0.134280000000000    0.365720000000000    0.663609000000000 
K           0.134280000000000    0.634280000000000    0.163609000000000 
K           0.159333000000000    0.340667000000000    0.007017000000000 
K           0.159333000000000    0.659333000000000    0.507017000000000 
K           0.176900000000000    0.323100000000000    0.290034000000000 
K           0.176900000000000    0.676900000000000    0.790034000000000 
K           0.323100000000000    0.176900000000000    0.790034000000000 
K           0.323100000000000    0.823100000000000    0.290034000000000 
K           0.340667000000000    0.159333000000000    0.507017000000000 
K           0.340667000000000    0.840667000000000    0.007017000000000 
K           0.365720000000000    0.134280000000000    0.163609000000000 
K           0.365720000000000    0.865720000000000    0.663609000000000 
K           0.634280000000000    0.134280000000000    0.663609000000000 
K           0.634280000000000    0.865720000000000    0.163609000000000 
K           0.659333000000000    0.159333000000000    0.007017000000000 
K           0.659333000000000    0.840667000000000    0.507017000000000 
K           0.676900000000000    0.176900000000000    0.290034000000000 
K           0.676900000000000    0.823100000000000    0.790034000000000 
K           0.823100000000000    0.323100000000000    0.790034000000000 
K           0.823100000000000    0.676900000000000    0.290034000000000 
K           0.840667000000000    0.340667000000000    0.507017000000000 
K           0.840667000000000    0.659333000000000    0.007017000000000 
K           0.865720000000000    0.365720000000000    0.163609000000000 
K           0.865720000000000    0.634280000000000    0.663609000000000 
%ENDBLOCK POSITIONS_FRAC
