# Cell file generated by matador (Matthew Evans 2016)

%BLOCK LATTICE_CART
5.15735 0.0 0.0
0.0 6.25253 0.0
-4.34043 0.0 8.42331
%ENDBLOCK LATTICE_CART

%BLOCK POSITIONS_FRAC
P           0.148995000000000    0.000000000000000    0.438676000000000 
P           0.159679000000000    0.500000000000000    0.303733000000000 
P           0.414719000000000    0.260001000000000    0.311138000000000 
P           0.414719000000000    0.739999000000000    0.311138000000000 
P           0.473181000000000    0.500000000000000    0.243043000000000 
P           0.648995000000000    0.500000000000000    0.438676000000000 
P           0.659679000000000    0.000000000000000    0.303733000000000 
P           0.914719000000000    0.239999000000000    0.311138000000000 
P           0.914719000000000    0.760001000000000    0.311138000000000 
P           0.973181000000000    0.000000000000000    0.243043000000000 
K           0.342305000000000    0.500000000000000    0.740596000000000 
K           0.842305000000000    0.000000000000000    0.740596000000000 
%ENDBLOCK POSITIONS_FRAC
