# Cell file generated by matador (Matthew Evans 2016)

%BLOCK LATTICE_CART
7.14249 0.0 0.0
0.0 6.49077 0.0
-2.10201 0.0 6.545
%ENDBLOCK LATTICE_CART

%BLOCK POSITIONS_FRAC
P           0.130548000000000    0.991664000000000    0.221736000000000 
P           0.353009000000000    0.931879000000000    0.728310000000000 
P           0.500000000000000    0.360980000000000    0.000000000000000 
P           0.646991000000000    0.931879000000000    0.271690000000000 
P           0.869452000000000    0.991664000000000    0.778264000000000 
K          -0.000000000000000    0.106452000000000    0.500000000000000 
K          -0.000000000000000    0.554423000000000    0.000000000000000 
K           0.136957000000000    0.330600000000000    0.250818000000000 
K           0.289899000000000    0.085572000000000    0.956372000000000 
K           0.710101000000000    0.085572000000000    0.043628000000000 
K           0.863043000000000    0.330600000000000    0.749182000000000 
%ENDBLOCK POSITIONS_FRAC
