# Cell file generated by matador (Matthew Evans 2016)

%BLOCK LATTICE_CART
8.83369 0.0 0.0
0.0 6.94906 0.0
0.99875 0.0 5.44085
%ENDBLOCK LATTICE_CART

%BLOCK POSITIONS_FRAC
P           0.000000000000000    0.500000000000000    0.000000000000000 
P           0.000000000000000    0.500000000000000    0.500000000000000 
K           0.000000000000000    0.211960000000000    0.250000000000000 
K           0.000000000000000    0.788040000000000    0.750000000000000 
K           0.500000000000000    0.000000000000000    0.000000000000000 
K           0.500000000000000    0.000000000000000    0.500000000000000 
K           0.500000000000000    0.422761000000000    0.750000000000000 
K           0.500000000000000    0.577239000000000    0.250000000000000 
%ENDBLOCK POSITIONS_FRAC
