# Cell file generated by matador (Matthew Evans 2016)

%BLOCK LATTICE_CART
7.22923 0.0 0.0
-3.61462 6.2607 0.0
0.0 0.0 6.56169
%ENDBLOCK LATTICE_CART

%BLOCK POSITIONS_FRAC
P           0.000000000000000    0.500000000000000    0.000000000000000 
P           0.333333000000000    0.666667000000000    0.090341000000000 
P           0.333333000000000    0.666667000000000    0.909659000000000 
P           0.500000000000000    0.000000000000000    0.000000000000000 
P           0.500000000000000    0.500000000000000    0.000000000000000 
P           0.666667000000000    0.333333000000000    0.090341000000000 
P           0.666667000000000    0.333333000000000    0.909659000000000 
K           0.000000000000000    0.000000000000000    0.000000000000000 
K           0.000000000000000    0.500000000000000    0.500000000000000 
K           0.500000000000000    0.000000000000000    0.500000000000000 
K           0.500000000000000    0.500000000000000    0.500000000000000 
%ENDBLOCK POSITIONS_FRAC
