# Cell file generated by matador (Matthew Evans 2016)

%BLOCK LATTICE_CART
7.04903 0.0 0.0
-3.52452 6.10464 0.0
0.0 0.0 4.74337
%ENDBLOCK LATTICE_CART

%BLOCK POSITIONS_FRAC
P           0.019354000000000    0.521546000000000    0.983395000000000 
P           0.174529000000000    0.369925000000000    0.637830000000000 
P           0.195396000000000    0.825471000000000    0.637830000000000 
P           0.478454000000000    0.497808000000000    0.983395000000000 
P           0.502192000000000    0.980646000000000    0.983395000000000 
P           0.630075000000000    0.804604000000000    0.637830000000000 
P           0.666667000000000    0.333333000000000    0.784751000000000 
K           0.000000000000000    0.000000000000000    0.136601000000000 
K           0.333333000000000    0.666667000000000    0.250380000000000 
%ENDBLOCK POSITIONS_FRAC
