# Cell file generated by matador (Matthew Evans 2016)

%BLOCK LATTICE_CART
8.69703 0.0 0.0
-4.34851 7.53185 0.0
0.0 0.0 5.72083
%ENDBLOCK LATTICE_CART

%BLOCK POSITIONS_FRAC
P           0.000000000000000   -0.000000000000000    0.500000000000000 
P           0.303463000000000    0.084912000000000    0.480903000000000 
P           0.303463000000000    0.218550000000000    0.519097000000000 
P           0.333334000000000    0.666666000000000    0.500000000000000 
P           0.449645000000000    0.096232000000000    0.551279000000000 
P           0.449645000000000    0.353413000000000    0.448721000000000 
P           0.646587000000000    0.096232000000000    0.448721000000000 
P           0.646587000000000    0.550355000000000    0.551279000000000 
P           0.781450000000000    0.084912000000000    0.519097000000000 
P           0.781450000000000    0.696537000000000    0.480903000000000 
P           0.903768000000000    0.353413000000000    0.551279000000000 
P           0.903768000000000    0.550355000000000    0.448721000000000 
P           0.915088000000000    0.218550000000000    0.480903000000000 
P           0.915088000000000    0.696537000000000    0.519097000000000 
K           0.196574000000000    0.393147000000000    0.500000000000000 
K           0.196574000000000    0.803426000000000    0.500000000000000 
K           0.606853000000000    0.803426000000000    0.500000000000000 
K           0.666667000000000    0.333333000000000    0.500000000000000 
%ENDBLOCK POSITIONS_FRAC
