# Cell file generated by matador (Matthew Evans 2016)

%BLOCK LATTICE_CART
7.79541 0.0 0.0
0.0 9.5709 0.0
0.0 0.0 13.3324
%ENDBLOCK LATTICE_CART

%BLOCK POSITIONS_FRAC
P           0.500000000000000    0.000000000000000    0.004763000000000 
P           0.500000000000000    0.215676000000000    0.290786000000000 
P           0.500000000000000    0.284324000000000    0.790786000000000 
P           0.500000000000000    0.500000000000000    0.504763000000000 
P           0.500000000000000    0.715676000000000    0.790786000000000 
P           0.500000000000000    0.784324000000000    0.290786000000000 
K           0.000000000000000    0.000000000000000    0.528455000000000 
K           0.000000000000000    0.000000000000000    0.749305000000000 
K           0.000000000000000    0.244792000000000    0.900890000000000 
K           0.000000000000000    0.255208000000000    0.400890000000000 
K           0.000000000000000    0.500000000000000    0.028455000000000 
K           0.000000000000000    0.500000000000000    0.249305000000000 
K           0.000000000000000    0.744792000000000    0.400890000000000 
K           0.000000000000000    0.755208000000000    0.900890000000000 
K           0.500000000000000    0.000000000000000    0.386005000000000 
K           0.500000000000000    0.158507000000000    0.672186000000000 
K           0.500000000000000    0.208192000000000    0.965832000000000 
K           0.500000000000000    0.291808000000000    0.465832000000000 
K           0.500000000000000    0.341493000000000    0.172186000000000 
K           0.500000000000000    0.500000000000000    0.886005000000000 
K           0.500000000000000    0.658507000000000    0.172186000000000 
K           0.500000000000000    0.708192000000000    0.465832000000000 
K           0.500000000000000    0.791808000000000    0.965832000000000 
K           0.500000000000000    0.841493000000000    0.672186000000000 
%ENDBLOCK POSITIONS_FRAC
