# Cell file generated by matador (Matthew Evans 2016)

%BLOCK LATTICE_CART
9.03138 0.0 0.0
-4.51569 7.8214 0.0
0.0 0.0 7.00389
%ENDBLOCK LATTICE_CART

%BLOCK POSITIONS_FRAC
P           0.000000000000000    0.287385000000000    0.456074000000000 
P           0.000000000000000    0.712615000000000    0.456074000000000 
P           0.202487000000000    0.601244000000000    0.589450000000000 
P           0.287385000000000    0.000000000000000    0.456074000000000 
P           0.287385000000000    0.287385000000000    0.456074000000000 
P           0.333333000000000    0.666667000000000    0.909048000000000 
P           0.398756000000000    0.601244000000000    0.589450000000000 
P           0.398756000000000    0.797513000000000    0.589450000000000 
P           0.601244000000000    0.202487000000000    0.589450000000000 
P           0.601244000000000    0.398756000000000    0.589450000000000 
P           0.666667000000000    0.333333000000000    0.909048000000000 
P           0.712615000000000    0.000000000000000    0.456074000000000 
P           0.712615000000000    0.712615000000000    0.456074000000000 
P           0.797513000000000    0.398756000000000    0.589450000000000 
K           0.000000000000000    0.000000000000000    0.757567000000000 
K           0.000000000000000    0.500000000000000    0.281829000000000 
K           0.500000000000000    0.000000000000000    0.281829000000000 
K           0.500000000000000    0.500000000000000    0.281829000000000 
%ENDBLOCK POSITIONS_FRAC
