# Cell file generated by matador (Matthew Evans 2016)

%BLOCK LATTICE_CART
7.98574 0.0 0.0
-3.99287 6.91586 0.0
0.0 0.0 11.4596
%ENDBLOCK LATTICE_CART

%BLOCK POSITIONS_FRAC
P           0.000000000000000    0.000000000000000    0.000000000000000 
P           0.000000000000000    0.000000000000000    0.272714000000000 
P           0.000000000000000    0.000000000000000    0.727286000000000 
P           0.162932000000000    0.067878000000000    0.320111000000000 
P           0.162932000000000    0.067878000000000    0.679889000000000 
P           0.342934000000000    0.251947000000000    0.000000000000000 
P           0.666667000000000    0.333333000000000    0.292376000000000 
P           0.666667000000000    0.333333000000000    0.707624000000000 
P           0.748053000000000    0.090987000000000    0.000000000000000 
P           0.904947000000000    0.837068000000000    0.320111000000000 
P           0.904947000000000    0.837068000000000    0.679889000000000 
P           0.909013000000000    0.657066000000000    0.000000000000000 
P           0.932122000000000    0.095053000000000    0.320111000000000 
P           0.932122000000000    0.095053000000000    0.679889000000000 
K           0.000000000000000    0.000000000000000    0.500000000000000 
K           0.333333000000000    0.666667000000000    0.000000000000000 
K           0.666667000000000    0.333333000000000    0.000000000000000 
K           0.666667000000000    0.333333000000000    0.500000000000000 
%ENDBLOCK POSITIONS_FRAC
