# Cell file generated by matador (Matthew Evans 2016)

%BLOCK LATTICE_CART
4.6607 0.0 0.0
-2.33035 4.03629 0.0
0.0 0.0 5.61809
%ENDBLOCK LATTICE_CART

%BLOCK POSITIONS_FRAC
P           0.000000000000000    0.000000000000000    0.570800000000000 
K           0.333333000000000    0.666667000000000    0.766012000000000 
K           0.666667000000000    0.333333000000000    0.545235000000000 
%ENDBLOCK POSITIONS_FRAC
