# Cell file generated by matador (Matthew Evans 2016)

%BLOCK LATTICE_CART
9.55799 0.0 0.0
0.0 6.38768 0.0
1.22762 0.0 6.77056
%ENDBLOCK LATTICE_CART

%BLOCK POSITIONS_FRAC
P           0.184225000000000    0.374333000000000    0.323562000000000 
P           0.184225000000000    0.625667000000000    0.323562000000000 
P           0.815775000000000    0.374333000000000    0.676438000000000 
P           0.815775000000000    0.625667000000000    0.676438000000000 
K           0.000000000000000    0.000000000000000    0.500000000000000 
K           0.000000000000000    0.500000000000000    0.000000000000000 
K           0.196492000000000    0.000000000000000    0.236635000000000 
K           0.280794000000000    0.194319000000000    0.886473000000000 
K           0.280794000000000    0.805681000000000    0.886473000000000 
K           0.719206000000000    0.194319000000000    0.113527000000000 
K           0.719206000000000    0.805681000000000    0.113527000000000 
K           0.803508000000000    0.000000000000000    0.763365000000000 
%ENDBLOCK POSITIONS_FRAC
