# Cell file generated by matador (Matthew Evans 2016)

%BLOCK LATTICE_CART
6.84662 0.0 0.0
0.0 4.87834 0.0
3.08692 0.0 15.8382
%ENDBLOCK LATTICE_CART

%BLOCK POSITIONS_FRAC
P           0.000000000000000   -0.000000000000000    0.000000000000000 
P           0.000000000000000    0.500000000000000    0.000000000000000 
P           0.062014000000000    0.250000000000000    0.192768000000000 
P           0.135110000000000    0.750000000000000    0.852392000000000 
P           0.205735000000000    0.570433000000000    0.815254000000000 
P           0.205735000000000    0.929567000000000    0.815254000000000 
P           0.500000000000000   -0.000000000000000    0.000000000000000 
P           0.500000000000000   -0.000000000000000    0.500000000000000 
P           0.500000000000000    0.500000000000000    0.000000000000000 
P           0.500000000000000    0.500000000000000    0.500000000000000 
P           0.794265000000000    0.070433000000000    0.184746000000000 
P           0.794265000000000    0.429567000000000    0.184746000000000 
P           0.864890000000000    0.250000000000000    0.147608000000000 
P           0.937986000000000    0.750000000000000    0.807232000000000 
K           0.448924000000000    0.012540000000000    0.663435000000000 
K           0.448924000000000    0.487460000000000    0.663435000000000 
K           0.551076000000000    0.512540000000000    0.336565000000000 
K           0.551076000000000    0.987460000000000    0.336565000000000 
%ENDBLOCK POSITIONS_FRAC
