# Cell file generated by matador (Matthew Evans 2016)

%BLOCK LATTICE_CART
4.44657 0.0 0.0
-2.22328 3.85084 0.0
0.0 0.0 5.25477
%ENDBLOCK LATTICE_CART

%BLOCK POSITIONS_FRAC
P           0.000000000000000   -0.000000000000000    0.169848000000000 
P           0.000000000000000   -0.000000000000000    0.675504000000000 
K           0.666667000000000    0.333333000000000    0.634443000000000 
%ENDBLOCK POSITIONS_FRAC
