# Cell file generated by matador (Matthew Evans 2016)

%BLOCK LATTICE_CART
8.2118 0.0 0.0
0.0 6.80841 0.0
1.11397 0.0 8.26921
%ENDBLOCK LATTICE_CART

%BLOCK POSITIONS_FRAC
P           0.070237000000000    0.043514000000000    0.059581000000000 
P           0.070237000000000    0.956486000000000    0.559581000000000 
P           0.098732000000000    0.190675000000000    0.168941000000000 
P           0.098732000000000    0.809325000000000    0.668941000000000 
P           0.235318000000000    0.005957000000000    0.886889000000000 
P           0.235318000000000    0.994043000000000    0.386889000000000 
P           0.290539000000000    0.221988000000000    0.673921000000000 
P           0.290539000000000    0.778012000000000    0.173921000000000 
P           0.367339000000000    0.451071000000000    0.064426000000000 
P           0.367339000000000    0.548929000000000    0.564426000000000 
P           0.379434000000000    0.460353000000000    0.733700000000000 
P           0.379434000000000    0.539647000000000    0.233700000000000 
P           0.480431000000000    0.107566000000000    0.867759000000000 
P           0.480431000000000    0.892434000000000    0.367759000000000 
K           0.741138000000000    0.272168000000000    0.391359000000000 
K           0.741138000000000    0.727832000000000    0.891359000000000 
%ENDBLOCK POSITIONS_FRAC
