# Cell file generated by matador (Matthew Evans 2016)

%BLOCK LATTICE_CART
7.63591 0.0 0.0
0.0 7.31327 0.0
0.0 0.0 5.85957
%ENDBLOCK LATTICE_CART

%BLOCK POSITIONS_FRAC
P           0.069992000000000    0.482136000000000    0.537653000000000 
P           0.430008000000000    0.982136000000000    0.462347000000000 
P           0.569992000000000    0.017864000000000    0.462347000000000 
P           0.930008000000000    0.517864000000000    0.537653000000000 
K           0.000000000000000    0.500000000000000    0.208466000000000 
K           0.021462000000000    0.780863000000000    0.801845000000000 
K           0.478538000000000    0.280863000000000    0.198155000000000 
K           0.500000000000000    0.000000000000000    0.791534000000000 
K           0.521462000000000    0.719137000000000    0.198155000000000 
K           0.978538000000000    0.219137000000000    0.801845000000000 
%ENDBLOCK POSITIONS_FRAC
