# Cell file generated by matador (Matthew Evans 2016)

%BLOCK LATTICE_CART
6.68209 0.0 0.0
-3.34105 5.78686 0.0
0.0 0.0 10.8918
%ENDBLOCK LATTICE_CART

%BLOCK POSITIONS_FRAC
P           0.000000000000000    0.000000000000000    0.183624000000000 
P           0.000000000000000    0.000000000000000    0.425846000000000 
P           0.000000000000000    0.000000000000000    0.574154000000000 
P           0.000000000000000    0.000000000000000    0.816376000000000 
P           0.333333000000000    0.666667000000000    0.092513000000000 
P           0.333333000000000    0.666667000000000    0.240821000000000 
P           0.333333000000000    0.666667000000000    0.483042000000000 
P           0.333333000000000    0.666667000000000    0.850291000000000 
P           0.666667000000000    0.333333000000000    0.149709000000000 
P           0.666667000000000    0.333333000000000    0.516958000000000 
P           0.666667000000000    0.333333000000000    0.759179000000000 
P           0.666667000000000    0.333333000000000    0.907487000000000 
K           0.000000000000000    0.000000000000000    0.000000000000000 
K           0.333333000000000    0.666667000000000    0.666667000000000 
K           0.666667000000000    0.333333000000000    0.333333000000000 
%ENDBLOCK POSITIONS_FRAC
