# Cell file generated by matador (Matthew Evans 2016)

%BLOCK LATTICE_CART
8.15475 0.0 0.0
-4.07738 7.06222 0.0
0.0 0.0 5.60011
%ENDBLOCK LATTICE_CART

%BLOCK POSITIONS_FRAC
P           0.003439000000000    0.634742000000000    0.301717000000000 
P           0.365258000000000    0.368697000000000    0.301717000000000 
P           0.368697000000000    0.365258000000000    0.698283000000000 
P           0.631303000000000    0.996561000000000    0.301717000000000 
P           0.634742000000000    0.003439000000000    0.698283000000000 
P           0.996561000000000    0.631303000000000    0.698283000000000 
K           0.000000000000000    0.000000000000000    0.000000000000000 
K           0.000000000000000    0.000000000000000    0.500000000000000 
K           0.333333000000000    0.666667000000000    0.366456000000000 
K           0.666667000000000    0.333333000000000    0.633544000000000 
%ENDBLOCK POSITIONS_FRAC
