# Cell file generated by matador (Matthew Evans 2016)

%BLOCK LATTICE_CART
6.36572 0.0 0.0
-3.18286 5.51287 0.0
0.0 0.0 5.23304
%ENDBLOCK LATTICE_CART

%BLOCK POSITIONS_FRAC
P           0.000000000000000    0.000000000000000    0.500000000000000 
P           0.000000000000000    0.298895000000000    0.500000000000000 
P           0.298895000000000    0.000000000000000    0.500000000000000 
P           0.333333000000000    0.666667000000000    0.500000000000000 
P           0.666667000000000    0.333333000000000    0.500000000000000 
P           0.701105000000000    0.701105000000000    0.500000000000000 
K           0.000000000000000    0.000000000000000    0.000000000000000 
%ENDBLOCK POSITIONS_FRAC
