# Cell file generated by matador (Matthew Evans 2016)

%BLOCK LATTICE_CART
7.66657 0.0 0.0
0.0 7.66657 0.0
0.0 0.0 7.265
%ENDBLOCK LATTICE_CART

%BLOCK POSITIONS_FRAC
P           0.000000000000000    0.500000000000000    0.867280000000000 
P           0.500000000000000    0.000000000000000    0.132720000000000 
P           0.500000000000000    0.500000000000000    0.275292000000000 
P           0.500000000000000    0.500000000000000    0.500000000000000 
P           0.500000000000000    0.500000000000000    0.724708000000000 
K           0.000000000000000    0.500000000000000    0.355496000000000 
K           0.209121000000000    0.313466000000000    0.790912000000000 
K           0.313466000000000    0.790879000000000    0.209088000000000 
K           0.500000000000000    0.000000000000000    0.644504000000000 
K           0.500000000000000    0.500000000000000    0.000000000000000 
K           0.686534000000000    0.209121000000000    0.209088000000000 
K           0.790879000000000    0.686534000000000    0.790912000000000 
%ENDBLOCK POSITIONS_FRAC
