# Cell file generated by matador (Matthew Evans 2016)

%BLOCK LATTICE_CART
9.33398 0.0 0.0
0.0 9.33398 0.0
0.0 0.0 11.1313
%ENDBLOCK LATTICE_CART

%BLOCK POSITIONS_FRAC
P           0.000000000000000    0.000000000000000    0.000000000000000 
P           0.000000000000000    0.000000000000000    0.250000000000000 
P           0.000000000000000    0.000000000000000    0.500000000000000 
P           0.000000000000000    0.000000000000000    0.750000000000000 
P           0.500000000000000    0.500000000000000    0.000000000000000 
P           0.500000000000000    0.500000000000000    0.500000000000000 
K           0.063540000000000    0.338110000000000    0.500000000000000 
K           0.063540000000000    0.661890000000000    0.000000000000000 
K           0.261345000000000    0.261345000000000    0.213558000000000 
K           0.261345000000000    0.261345000000000    0.786442000000000 
K           0.261345000000000    0.738655000000000    0.286442000000000 
K           0.261345000000000    0.738655000000000    0.713558000000000 
K           0.338110000000000    0.063540000000000    0.500000000000000 
K           0.338110000000000    0.936460000000000    0.000000000000000 
K           0.500000000000000    0.500000000000000    0.250000000000000 
K           0.500000000000000    0.500000000000000    0.750000000000000 
K           0.661890000000000    0.063540000000000    0.000000000000000 
K           0.661890000000000    0.936460000000000    0.500000000000000 
K           0.738655000000000    0.261345000000000    0.286442000000000 
K           0.738655000000000    0.261345000000000    0.713558000000000 
K           0.738655000000000    0.738655000000000    0.213558000000000 
K           0.738655000000000    0.738655000000000    0.786442000000000 
K           0.936460000000000    0.338110000000000    0.000000000000000 
K           0.936460000000000    0.661890000000000    0.500000000000000 
%ENDBLOCK POSITIONS_FRAC
