# Cell file generated by matador (Matthew Evans 2016)

%BLOCK LATTICE_CART
7.83037 0.0 0.0
-3.91519 6.7813 0.0
0.0 0.0 5.52849
%ENDBLOCK LATTICE_CART

%BLOCK POSITIONS_FRAC
P           0.000000000000000    0.000000000000000    0.000000000000000 
P           0.098579000000000    0.197159000000000    0.000000000000000 
P           0.098580000000000    0.901421000000000    0.000000000000000 
P           0.333333000000000    0.666667000000000    0.500000000000000 
P           0.666667000000000    0.333333000000000    0.000000000000000 
P           0.666667000000000    0.333333000000000    0.500000000000000 
P           0.802841000000000    0.901420000000000    0.000000000000000 
K           0.325884000000000    0.032657000000000    0.500000000000000 
K           0.325884000000000    0.293227000000000    0.500000000000000 
K           0.706773000000000    0.032657000000000    0.500000000000000 
K           0.706773000000000    0.674116000000000    0.500000000000000 
K           0.967343000000000    0.293227000000000    0.500000000000000 
K           0.967343000000000    0.674116000000000    0.500000000000000 
%ENDBLOCK POSITIONS_FRAC
