# Cell file generated by matador (Matthew Evans 2016)

%BLOCK LATTICE_CART
8.63235 0.0 0.0
0.0 5.38165 0.0
2.4567 0.0 6.91661
%ENDBLOCK LATTICE_CART

%BLOCK POSITIONS_FRAC
P           0.421647000000000    0.295835000000000    0.584709000000000 
P           0.421647000000000    0.704165000000000    0.584709000000000 
K           0.022025000000000    0.000000000000000    0.480515000000000 
K           0.168622000000000    0.500000000000000    0.103113000000000 
K           0.190119000000000    0.500000000000000    0.603443000000000 
K           0.557835000000000    0.000000000000000    0.084683000000000 
K           0.708320000000000    0.500000000000000    0.310446000000000 
K           0.751912000000000    0.500000000000000    0.785303000000000 
%ENDBLOCK POSITIONS_FRAC
