# Cell file generated by matador (Matthew Evans 2016)

%BLOCK LATTICE_CART
10.739 0.0 0.0
0.0 10.739 0.0
0.0 0.0 5.14614
%ENDBLOCK LATTICE_CART

%BLOCK POSITIONS_FRAC
P           0.000000000000000    0.000000000000000    0.500000000000000 
P           0.000000000000000    0.305793000000000    0.361398000000000 
P           0.000000000000000    0.500000000000000    0.638641000000000 
P           0.000000000000000    0.500000000000000    0.861359000000000 
P           0.000000000000000    0.694207000000000    0.361398000000000 
P           0.194207000000000    0.500000000000000    0.138602000000000 
P           0.305793000000000    0.000000000000000    0.638602000000000 
P           0.500000000000000    0.000000000000000    0.138641000000000 
P           0.500000000000000    0.000000000000000    0.361359000000000 
P           0.500000000000000    0.194207000000000    0.861398000000000 
P           0.500000000000000    0.500000000000000   -0.000000000000000 
P           0.500000000000000    0.805793000000000    0.861398000000000 
P           0.694207000000000    0.000000000000000    0.638602000000000 
P           0.805793000000000    0.500000000000000    0.138602000000000 
K           0.000000000000000    0.000000000000000   -0.000000000000000 
K           0.000000000000000    0.500000000000000    0.250000000000000 
K           0.500000000000000    0.000000000000000    0.750000000000000 
K           0.500000000000000    0.500000000000000    0.500000000000000 
%ENDBLOCK POSITIONS_FRAC
