# Cell file generated by matador (Matthew Evans 2016)

%BLOCK LATTICE_CART
6.2528 0.0 0.0
-1.24025 6.9522 0.0
0.238134 1.23411 3.54456
%ENDBLOCK LATTICE_CART

%BLOCK POSITIONS_FRAC
P           0.000000000000000    0.500000000000000    0.000000000000000 
P           0.458782000000000    0.908452000000000    0.042129000000000 
P           0.500000000000000    0.500000000000000    0.000000000000000 
P           0.500000000000000    0.500000000000000    0.500000000000000 
P           0.541218000000000    0.091548000000000    0.957871000000000 
K           0.500000000000000    0.000000000000000    0.500000000000000 
%ENDBLOCK POSITIONS_FRAC
