# Cell file generated by matador (Matthew Evans 2016)

%BLOCK LATTICE_CART
9.71002 0.0 0.0
-4.85501 8.40912 0.0
0.0 0.0 11.3556
%ENDBLOCK LATTICE_CART

%BLOCK POSITIONS_FRAC
P           0.000000000000000    0.000000000000000    0.141190000000000 
P           0.000000000000000    0.000000000000000    0.858810000000000 
P           0.333333000000000    0.666667000000000    0.525477000000000 
P           0.333333000000000    0.666667000000000    0.807856000000000 
P           0.666667000000000    0.333333000000000    0.192144000000000 
P           0.666667000000000    0.333333000000000    0.474523000000000 
K           0.000000000000000    0.500000000000000    0.000000000000000 
K           0.000000000000000    0.500000000000000    0.500000000000000 
K           0.166667000000000    0.333333000000000    0.333333000000000 
K           0.166667000000000    0.333333000000000    0.833333000000000 
K           0.166667000000000    0.833333000000000    0.333333000000000 
K           0.166667000000000    0.833333000000000    0.833333000000000 
K           0.333333000000000    0.166667000000000    0.166667000000000 
K           0.333333000000000    0.166667000000000    0.666667000000000 
K           0.500000000000000    0.000000000000000    0.000000000000000 
K           0.500000000000000    0.000000000000000    0.500000000000000 
K           0.500000000000000    0.500000000000000    0.000000000000000 
K           0.500000000000000    0.500000000000000    0.500000000000000 
K           0.666667000000000    0.833333000000000    0.333333000000000 
K           0.666667000000000    0.833333000000000    0.833333000000000 
K           0.833333000000000    0.166667000000000    0.166667000000000 
K           0.833333000000000    0.166667000000000    0.666667000000000 
K           0.833333000000000    0.666667000000000    0.166667000000000 
K           0.833333000000000    0.666667000000000    0.666667000000000 
%ENDBLOCK POSITIONS_FRAC
