# Cell file generated by matador (Matthew Evans 2016)

%BLOCK LATTICE_CART
4.92765 0.0 0.0
0.0 10.4828 0.0
0.0 0.0 8.65922
%ENDBLOCK LATTICE_CART

%BLOCK POSITIONS_FRAC
P           0.000000000000000    0.219621000000000    0.000000000000000 
P           0.000000000000000    0.780379000000000    0.000000000000000 
P           0.500000000000000    0.000000000000000    0.000000000000000 
P           0.500000000000000    0.500000000000000    0.500000000000000 
K           0.000000000000000    0.500000000000000    0.000000000000000 
K           0.237463000000000    0.205277000000000    0.500000000000000 
K           0.237463000000000    0.794723000000000    0.500000000000000 
K           0.278937000000000    0.000000000000000    0.237070000000000 
K           0.278937000000000    0.000000000000000    0.762930000000000 
K           0.500000000000000    0.500000000000000    0.000000000000000 
K           0.721063000000000    0.000000000000000    0.237070000000000 
K           0.721063000000000    0.000000000000000    0.762930000000000 
K           0.762537000000000    0.205277000000000    0.500000000000000 
K           0.762537000000000    0.794723000000000    0.500000000000000 
%ENDBLOCK POSITIONS_FRAC
