# Cell file generated by matador (Matthew Evans 2016)

%BLOCK LATTICE_CART
13.4211 0.0 0.0
0.0 10.7953 0.0
0.0219553 0.0 7.00603
%ENDBLOCK LATTICE_CART

%BLOCK POSITIONS_FRAC
P           0.352632000000000    0.500000000000000    0.640484000000000 
P           0.422307000000000    0.000000000000000    0.868269000000000 
P           0.478371000000000    0.000000000000000    0.147700000000000 
P           0.852632000000000    0.000000000000000    0.640484000000000 
P           0.922307000000000    0.500000000000000    0.868269000000000 
P           0.978371000000000    0.500000000000000    0.147700000000000 
K           0.012633000000000    0.500000000000000    0.480008000000000 
K           0.066755000000000    0.000000000000000    0.075172000000000 
K           0.110574000000000    0.500000000000000    0.871524000000000 
K           0.208879000000000    0.000000000000000    0.715909000000000 
K           0.228388000000000    0.500000000000000    0.473585000000000 
K           0.303455000000000    0.000000000000000    0.351613000000000 
K           0.321917000000000    0.500000000000000    0.028973000000000 
K           0.412072000000000    0.272975000000000    0.575383000000000 
K           0.412072000000000    0.727025000000000    0.575383000000000 
K           0.512633000000000    0.000000000000000    0.480008000000000 
K           0.566755000000000    0.500000000000000    0.075172000000000 
K           0.610574000000000    0.000000000000000    0.871524000000000 
K           0.708879000000000    0.500000000000000    0.715909000000000 
K           0.728388000000000    0.000000000000000    0.473585000000000 
K           0.803455000000000    0.500000000000000    0.351613000000000 
K           0.821917000000000    0.000000000000000    0.028973000000000 
K           0.912072000000000    0.227025000000000    0.575383000000000 
K           0.912072000000000    0.772975000000000    0.575383000000000 
%ENDBLOCK POSITIONS_FRAC
