# Cell file generated by matador (Matthew Evans 2016)

%BLOCK LATTICE_CART
12.5335 0.0 0.0
0.0 4.50872 0.0
0.0 0.0 9.87133
%ENDBLOCK LATTICE_CART

%BLOCK POSITIONS_FRAC
P           0.113313000000000    0.750000000000000    0.000000000000000 
P           0.386687000000000    0.750000000000000    0.000000000000000 
P           0.613313000000000    0.250000000000000    0.000000000000000 
P           0.886687000000000    0.250000000000000    0.000000000000000 
K           0.019431000000000    0.164138000000000    0.195239000000000 
K           0.019431000000000    0.335862000000000    0.804761000000000 
K           0.250000000000000    0.750000000000000    0.500000000000000 
K           0.480569000000000    0.164138000000000    0.804761000000000 
K           0.480569000000000    0.335862000000000    0.195239000000000 
K           0.519431000000000    0.664138000000000    0.804761000000000 
K           0.519431000000000    0.835862000000000    0.195239000000000 
K           0.750000000000000    0.250000000000000    0.500000000000000 
K           0.980569000000000    0.664138000000000    0.195239000000000 
K           0.980569000000000    0.835862000000000    0.804761000000000 
%ENDBLOCK POSITIONS_FRAC
