# Cell file generated by matador (Matthew Evans 2016)

%BLOCK LATTICE_CART
6.99452 0.0 0.0
-1.4309 7.22782 0.0
4.25202 0.465948 7.55349
%ENDBLOCK LATTICE_CART

%BLOCK POSITIONS_FRAC
P           0.000000000000000    0.000000000000000    0.000000000000000 
P           0.000000000000000    0.000000000000000    0.500000000000000 
P           0.287652000000000    0.647331000000000    0.762439000000000 
P           0.500000000000000    0.000000000000000    0.000000000000000 
P           0.500000000000000    0.500000000000000    0.000000000000000 
P           0.712348000000000    0.352669000000000    0.237561000000000 
K           0.000000000000000    0.500000000000000    0.000000000000000 
K           0.291972000000000    0.253390000000000    0.094816000000000 
K           0.380523000000000    0.969088000000000    0.432290000000000 
K           0.619477000000000    0.030912000000000    0.567710000000000 
K           0.708028000000000    0.746610000000000    0.905184000000000 
%ENDBLOCK POSITIONS_FRAC
