# Cell file generated by matador (Matthew Evans 2016)

%BLOCK LATTICE_CART
5.58536 0.0 0.0
0.0 7.99049 0.0
-1.69863 0.0 4.89726
%ENDBLOCK LATTICE_CART

%BLOCK POSITIONS_FRAC
P          -0.000000000000000    0.000000000000000    0.500000000000000 
P          -0.000000000000000    0.187633000000000    0.500000000000000 
P          -0.000000000000000    0.500000000000000    0.000000000000000 
P          -0.000000000000000    0.812367000000000    0.500000000000000 
P           0.500000000000000    0.000000000000000    0.000000000000000 
K           0.334883000000000    0.500000000000000    0.783139000000000 
K           0.665117000000000    0.500000000000000    0.216861000000000 
%ENDBLOCK POSITIONS_FRAC
