# Cell file generated by matador (Matthew Evans 2016)

%BLOCK LATTICE_CART
8.40979 0.0 0.0
-1.33812 7.56715 0.0
3.4016 0.786855 6.06277
%ENDBLOCK LATTICE_CART

%BLOCK POSITIONS_FRAC
P           0.193934000000000    0.229363000000000    0.473819000000000 
P           0.280597000000000    0.361975000000000    0.828423000000000 
P           0.416512000000000    0.561313000000000    0.289700000000000 
P           0.583488000000000    0.438687000000000    0.710300000000000 
P           0.719403000000000    0.638025000000000    0.171577000000000 
P           0.806066000000000    0.770637000000000    0.526181000000000 
K           0.000000000000000    0.000000000000000    0.000000000000000 
K           0.000000000000000    0.000000000000000    0.500000000000000 
K           0.000000000000000    0.500000000000000    0.000000000000000 
K           0.000000000000000    0.500000000000000    0.500000000000000 
K           0.500000000000000    0.000000000000000    0.000000000000000 
K           0.500000000000000    0.500000000000000    0.000000000000000 
K           0.500000000000000    0.500000000000000    0.500000000000000 
%ENDBLOCK POSITIONS_FRAC
