# Cell file generated by matador (Matthew Evans 2016)

%BLOCK LATTICE_CART
6.44366 0.0 0.0
-3.22183 5.58037 0.0
0.0 0.0 5.63908
%ENDBLOCK LATTICE_CART

%BLOCK POSITIONS_FRAC
P           0.127164000000000    0.734889000000000    0.801551000000000 
P           0.265111000000000    0.392275000000000    0.801551000000000 
P           0.366780000000000    0.073186000000000    0.944284000000000 
P           0.607725000000000    0.872836000000000    0.801551000000000 
P           0.666667000000000    0.333333000000000    0.478941000000000 
P           0.706406000000000    0.633220000000000    0.944284000000000 
P           0.926814000000000    0.293594000000000    0.944284000000000 
K           0.000000000000000    0.000000000000000    0.246170000000000 
%ENDBLOCK POSITIONS_FRAC
