# Cell file generated by matador (Matthew Evans 2016)

%BLOCK LATTICE_CART
5.05737 0.0 0.0
-2.52869 4.37981 0.0
0.0 0.0 5.52815
%ENDBLOCK LATTICE_CART

%BLOCK POSITIONS_FRAC
P           0.000000000000000    0.000000000000000    0.191239000000000 
K           0.333333000000000    0.666667000000000    0.548040000000000 
K           0.666667000000000    0.333333000000000    0.548040000000000 
%ENDBLOCK POSITIONS_FRAC
