# Cell file generated by matador (Matthew Evans 2016)

%BLOCK LATTICE_CART
8.07195 0.0 0.0
0.0 6.48609 0.0
0.0 0.0 6.8727
%ENDBLOCK LATTICE_CART

%BLOCK POSITIONS_FRAC
P           0.000000000000000   -0.000000000000000    0.717598000000000 
P           0.000000000000000    0.500000000000000    0.217598000000000 
P           0.500000000000000   -0.000000000000000    0.717598000000000 
P           0.500000000000000    0.500000000000000    0.217598000000000 
K           0.000000000000000   -0.000000000000000    0.072672000000000 
K           0.000000000000000    0.500000000000000    0.572672000000000 
K           0.250000000000000    0.146014000000000    0.639143000000000 
K           0.250000000000000    0.646014000000000    0.139143000000000 
K           0.500000000000000   -0.000000000000000    0.072672000000000 
K           0.500000000000000    0.500000000000000    0.572672000000000 
K           0.750000000000000    0.353986000000000    0.139143000000000 
K           0.750000000000000    0.853986000000000    0.639143000000000 
%ENDBLOCK POSITIONS_FRAC
