# Cell file generated by matador (Matthew Evans 2016)

%BLOCK LATTICE_CART
8.23934 0.0 0.0
-4.11967 7.13548 0.0
0.0 0.0 10.9878
%ENDBLOCK LATTICE_CART

%BLOCK POSITIONS_FRAC
P           0.000000000000000    0.000000000000000    0.234284000000000 
P           0.037207000000000    0.599206000000000    0.232144000000000 
P           0.082234000000000    0.790640000000000    0.622349000000000 
P           0.209360000000000    0.291594000000000    0.622349000000000 
P           0.333333000000000    0.666667000000000    0.100380000000000 
P           0.333333000000000    0.666667000000000    0.809681000000000 
P           0.400794000000000    0.438001000000000    0.232144000000000 
P           0.477445000000000    0.438323000000000    0.403810000000000 
P           0.561677000000000    0.039122000000000    0.403810000000000 
P           0.561999000000000    0.962793000000000    0.232144000000000 
P           0.666667000000000    0.333333000000000    0.038266000000000 
P           0.666667000000000    0.333333000000000    0.461749000000000 
P           0.708406000000000    0.917766000000000    0.622349000000000 
P           0.960878000000000    0.522555000000000    0.403810000000000 
K           0.000000000000000    0.000000000000000    0.824853000000000 
K           0.148915000000000    0.328340000000000    0.402693000000000 
K           0.179425000000000    0.851085000000000    0.402693000000000 
K           0.333333000000000    0.666667000000000    0.624101000000000 
K           0.666667000000000    0.333333000000000    0.831484000000000 
K           0.671660000000000    0.820575000000000    0.402693000000000 
%ENDBLOCK POSITIONS_FRAC
