# Cell file generated by matador (Matthew Evans 2016)

%BLOCK LATTICE_CART
9.2683 -0.0 0.0
-4.63415 8.02658 0.0
0.0 0.0 6.5186
%ENDBLOCK LATTICE_CART

%BLOCK POSITIONS_FRAC
P           0.092609000000000    0.289995000000000    0.705057000000000 
P           0.197385000000000    0.907391000000000    0.705057000000000 
P           0.289995000000000    0.197385000000000    0.294943000000000 
P           0.333333000000000    0.666667000000000    0.834417000000000 
P           0.666666000000000    0.333334000000000    0.165583000000000 
P           0.710005000000000    0.802615000000000    0.705057000000000 
P           0.802615000000000    0.092610000000000    0.294943000000000 
P           0.907390000000000    0.710005000000000    0.294943000000000 
K          -0.000000000000000    0.000000000000000    0.000000000000000 
K          -0.000000000000000    0.500000000000000    0.500000000000000 
K           0.212940000000000    0.679325000000000    0.378178000000000 
K           0.320675000000000    0.533616000000000    0.378178000000000 
K           0.466384000000000    0.787060000000000    0.378178000000000 
K           0.500000000000000    0.000000000000000    0.500000000000000 
K           0.500000000000000    0.500000000000000    0.500000000000000 
K           0.533615000000000    0.212941000000000    0.621822000000000 
K           0.679324000000000    0.466385000000000    0.621822000000000 
K           0.787059000000000    0.320676000000000    0.621822000000000 
%ENDBLOCK POSITIONS_FRAC
