# Cell file generated by matador (Matthew Evans 2016)

%BLOCK LATTICE_CART
7.06627 0.0 0.0
-3.53314 6.11957 0.0
0.0 0.0 7.75057
%ENDBLOCK LATTICE_CART

%BLOCK POSITIONS_FRAC
P           0.000000000000000    0.500000000000000    0.101947000000000 
P           0.000000000000000    0.500000000000000    0.601947000000000 
P           0.333333000000000    0.666667000000000    0.230996000000000 
P           0.333333000000000    0.666667000000000    0.730996000000000 
P           0.500000000000000    0.000000000000000    0.101947000000000 
P           0.500000000000000    0.000000000000000    0.601947000000000 
P           0.500000000000000    0.500000000000000    0.101947000000000 
P           0.500000000000000    0.500000000000000    0.601947000000000 
P           0.666667000000000    0.333333000000000    0.230996000000000 
P           0.666667000000000    0.333333000000000    0.730996000000000 
K           0.000000000000000    0.000000000000000    0.102668000000000 
K           0.000000000000000    0.000000000000000    0.602668000000000 
%ENDBLOCK POSITIONS_FRAC
