# Cell file generated by matador (Matthew Evans 2016)

%BLOCK LATTICE_CART
5.68242 0.0 0.0
0.0 9.46012 0.0
0.0 0.0 9.16465
%ENDBLOCK LATTICE_CART

%BLOCK POSITIONS_FRAC
P           0.015621000000000    0.769232000000000    0.690838000000000 
P           0.218982000000000    0.923497000000000    0.036834000000000 
P           0.281018000000000    0.423497000000000    0.536834000000000 
P           0.484379000000000    0.269232000000000    0.190838000000000 
P           0.515621000000000    0.730768000000000    0.190838000000000 
P           0.718982000000000    0.576503000000000    0.536834000000000 
P           0.781018000000000    0.076503000000000    0.036834000000000 
P           0.984379000000000    0.230768000000000    0.690838000000000 
K           0.000000000000000   -0.000000000000000    0.223715000000000 
K           0.000000000000000   -0.000000000000000    0.715192000000000 
K           0.000000000000000    0.500000000000000    0.098002000000000 
K           0.000000000000000    0.500000000000000    0.667079000000000 
K           0.500000000000000   -0.000000000000000    0.167079000000000 
K           0.500000000000000   -0.000000000000000    0.598002000000000 
K           0.500000000000000    0.500000000000000    0.215192000000000 
K           0.500000000000000    0.500000000000000    0.723715000000000 
%ENDBLOCK POSITIONS_FRAC
