# Cell file generated by matador (Matthew Evans 2016)

%BLOCK LATTICE_CART
6.06521 0.0 0.0
0.0 9.40845 0.0
3.16761 0.0 6.53105
%ENDBLOCK LATTICE_CART

%BLOCK POSITIONS_FRAC
P           0.000000000000000    0.000000000000000    0.000000000000000 
P           0.000000000000000    0.000000000000000    0.500000000000000 
P           0.000000000000000    0.500000000000000    0.000000000000000 
P           0.000000000000000    0.500000000000000    0.500000000000000 
P           0.365441000000000    0.276787000000000    0.488064000000000 
P           0.365441000000000    0.723213000000000    0.988064000000000 
P           0.486166000000000    0.204634000000000    0.549860000000000 
P           0.486166000000000    0.795366000000000    0.049860000000000 
P           0.513834000000000    0.204634000000000    0.950140000000000 
P           0.513834000000000    0.795366000000000    0.450140000000000 
P           0.634559000000000    0.276787000000000    0.011936000000000 
P           0.634559000000000    0.723213000000000    0.511936000000000 
K           0.500000000000000    0.500000000000000    0.000000000000000 
K           0.500000000000000    0.500000000000000    0.500000000000000 
%ENDBLOCK POSITIONS_FRAC
