# Cell file generated by matador (Matthew Evans 2016)

%BLOCK LATTICE_CART
5.70752 0.0 0.0
-2.85376 4.94286 0.0
0.0 0.0 7.88983
%ENDBLOCK LATTICE_CART

%BLOCK POSITIONS_FRAC
P          -0.000000000000000    0.000000000000000    0.471707000000000 
P           0.201635000000000    0.590092000000000    0.597386000000000 
P           0.333333000000000    0.666667000000000    0.770193000000000 
P           0.388457000000000    0.798365000000000    0.597386000000000 
P           0.409908000000000    0.611543000000000    0.597386000000000 
K           0.333333000000000    0.666667000000000    0.150899000000000 
K           0.666666000000000    0.333334000000000    0.622961000000000 
%ENDBLOCK POSITIONS_FRAC
