# Cell file generated by matador (Matthew Evans 2016)

%BLOCK LATTICE_CART
5.85807 0.0 0.0
0.0 5.85807 0.0
0.0 0.0 11.8619
%ENDBLOCK LATTICE_CART

%BLOCK POSITIONS_FRAC
P           0.000000000000000    0.500000000000000    0.202215000000000 
P           0.000000000000000    0.500000000000000    0.639776000000000 
P           0.000000000000000    0.500000000000000    0.829127000000000 
P           0.000000000000000    0.500000000000000    0.992354000000000 
P           0.500000000000000    0.000000000000000    0.202215000000000 
P           0.500000000000000    0.000000000000000    0.639776000000000 
P           0.500000000000000    0.000000000000000    0.829127000000000 
P           0.500000000000000    0.000000000000000    0.992354000000000 
P           0.500000000000000    0.500000000000000    0.450367000000000 
K           0.000000000000000    0.000000000000000    0.020814000000000 
K           0.000000000000000    0.000000000000000    0.487240000000000 
K           0.000000000000000    0.000000000000000    0.705691000000000 
K           0.000000000000000    0.500000000000000    0.441667000000000 
K           0.500000000000000    0.000000000000000    0.441667000000000 
K           0.500000000000000    0.500000000000000    0.986479000000000 
%ENDBLOCK POSITIONS_FRAC
