# Cell file generated by matador (Matthew Evans 2016)

%BLOCK LATTICE_CART
7.54601 0.0 0.0
-3.77301 6.53504 0.0
0.0 0.0 9.56467
%ENDBLOCK LATTICE_CART

%BLOCK POSITIONS_FRAC
P           0.000000000000000    0.000000000000000    0.139636000000000 
P           0.000000000000000    0.000000000000000    0.250000000000000 
P           0.000000000000000    0.000000000000000    0.360364000000000 
P           0.000000000000000    0.000000000000000    0.639636000000000 
P           0.000000000000000    0.000000000000000    0.750000000000000 
P           0.000000000000000    0.000000000000000    0.860364000000000 
P           0.333333000000000    0.666667000000000    0.250000000000000 
P           0.666667000000000    0.333333000000000    0.750000000000000 
K           0.000000000000000    0.347426000000000    0.000000000000000 
K           0.000000000000000    0.347426000000000    0.500000000000000 
K           0.333333000000000    0.666667000000000    0.551467000000000 
K           0.333333000000000    0.666667000000000    0.948533000000000 
K           0.347426000000000    0.000000000000000    0.000000000000000 
K           0.347426000000000    0.000000000000000    0.500000000000000 
K           0.652574000000000    0.652574000000000    0.000000000000000 
K           0.652574000000000    0.652574000000000    0.500000000000000 
K           0.666667000000000    0.333333000000000    0.051467000000000 
K           0.666667000000000    0.333333000000000    0.448533000000000 
%ENDBLOCK POSITIONS_FRAC
