# Cell file generated by matador (Matthew Evans 2016)

%BLOCK LATTICE_CART
12.9946 0.0 0.0
-6.4973 11.2537 0.0
0.0 0.0 6.86616
%ENDBLOCK LATTICE_CART

%BLOCK POSITIONS_FRAC
P           0.000000000000000    0.000000000000000    0.000000000000000 
P           0.000000000000000    0.000000000000000    0.500000000000000 
P           0.333333000000000    0.666667000000000    0.166667000000000 
P           0.333333000000000    0.666667000000000    0.666667000000000 
P           0.666667000000000    0.333333000000000    0.333333000000000 
P           0.666667000000000    0.333333000000000    0.833333000000000 
K          -0.000000000000000    0.780078000000000    0.000000000000000 
K          -0.000000000000000    0.841803000000000    0.500000000000000 
K           0.113411000000000    0.666667000000000    0.666667000000000 
K           0.158197000000000    0.158197000000000    0.500000000000000 
K           0.175137000000000    0.666667000000000    0.166667000000000 
K           0.219922000000000    0.219922000000000    0.000000000000000 
K           0.333333000000000    0.446744000000000    0.666667000000000 
K           0.333333000000000    0.508470000000000    0.166667000000000 
K           0.446744000000000    0.333333000000000    0.333333000000000 
K           0.491530000000000    0.824863000000000    0.166667000000000 
K           0.508470000000000    0.333333000000000    0.833333000000000 
K           0.553256000000000    0.886589000000000    0.666667000000000 
K           0.666667000000000    0.113411000000000    0.333333000000000 
K           0.666667000000000    0.175137000000000    0.833333000000000 
K           0.780078000000000    0.000000000000000    0.000000000000000 
K           0.824863000000000    0.491530000000000    0.833333000000000 
K           0.841803000000000    0.000000000000000    0.500000000000000 
K           0.886589000000000    0.553256000000000    0.333333000000000 
%ENDBLOCK POSITIONS_FRAC
