# Cell file generated by matador (Matthew Evans 2016)

%BLOCK LATTICE_CART
7.96515 0.0 0.0
-3.98257 6.89802 0.0
0.0 0.0 6.49138
%ENDBLOCK LATTICE_CART

%BLOCK POSITIONS_FRAC
P           0.133038000000000    0.566518000000000    0.500000000000000 
P           0.333332000000000    0.666666000000000    0.308100000000000 
P           0.333332000000000    0.666666000000000    0.691900000000000 
P           0.433480000000000    0.566518000000000    0.500000000000000 
P           0.433480000000000    0.866960000000000    0.500000000000000 
P           0.566518000000000    0.133038000000000    0.500000000000000 
P           0.566518000000000    0.433480000000000    0.500000000000000 
P           0.666666000000000    0.333332000000000    0.308100000000000 
P           0.666666000000000    0.333332000000000    0.691900000000000 
P           0.866960000000000    0.433480000000000    0.500000000000000 
K           0.333332000000000    0.666666000000000    0.000000000000000 
K           0.666666000000000    0.333332000000000    0.000000000000000 
%ENDBLOCK POSITIONS_FRAC
