# Cell file generated by matador (Matthew Evans 2016)

%BLOCK LATTICE_CART
6.96195 0.0 0.0
-3.48097 6.02922 0.0
0.0 0.0 10.1443
%ENDBLOCK LATTICE_CART

%BLOCK POSITIONS_FRAC
P           0.000000000000000    0.000000000000000    0.000000000000000 
P           0.000000000000000    0.000000000000000    0.161646000000000 
P           0.000000000000000    0.000000000000000    0.838354000000000 
P           0.333333000000000    0.666667000000000    0.505020000000000 
P           0.333333000000000    0.666667000000000    0.666667000000000 
P           0.333333000000000    0.666667000000000    0.828313000000000 
P           0.666667000000000    0.333333000000000    0.171687000000000 
P           0.666667000000000    0.333333000000000    0.333333000000000 
P           0.666667000000000    0.333333000000000    0.494980000000000 
K           0.000000000000000    0.000000000000000    0.500000000000000 
K           0.333333000000000    0.666667000000000    0.166667000000000 
K           0.666667000000000    0.333333000000000    0.833333000000000 
%ENDBLOCK POSITIONS_FRAC
