# Cell file generated by matador (Matthew Evans 2016)

%BLOCK LATTICE_CART
7.11189 -0.0 0.0
-3.55595 6.15908 0.0
0.0 0.0 8.27135
%ENDBLOCK LATTICE_CART

%BLOCK POSITIONS_FRAC
P           0.227047000000000    0.020806000000000    0.337749000000000 
P           0.548878000000000    0.106089000000000    0.373413000000000 
P           0.557211000000000    0.451122000000000    0.373413000000000 
P           0.666667000000000    0.333333000000000    0.117243000000000 
P           0.793758000000000    0.772953000000000    0.337749000000000 
P           0.893911000000000    0.442789000000000    0.373413000000000 
P           0.979194000000000    0.206242000000000    0.337749000000000 
K           0.036806000000000    0.576164000000000    0.893771000000000 
K           0.333333000000000    0.666667000000000    0.041983000000000 
K           0.423836000000000    0.460642000000000    0.893771000000000 
K           0.539358000000000    0.963194000000000    0.893771000000000 
K           0.666667000000000    0.333333000000000    0.684061000000000 
%ENDBLOCK POSITIONS_FRAC
