# Cell file generated by matador (Matthew Evans 2016)

%BLOCK LATTICE_CART
6.83155 0.0 0.0
0.0 6.83155 0.0
0.0 0.0 8.80374
%ENDBLOCK LATTICE_CART

%BLOCK POSITIONS_FRAC
P           0.000000000000000    0.000000000000000    0.250000000000000 
P           0.000000000000000    0.000000000000000    0.750000000000000 
P           0.238212000000000    0.238212000000000    0.250000000000000 
P           0.238212000000000    0.238212000000000    0.750000000000000 
P           0.238212000000000    0.761788000000000    0.250000000000000 
P           0.238212000000000    0.761788000000000    0.750000000000000 
P           0.761788000000000    0.238212000000000    0.250000000000000 
P           0.761788000000000    0.238212000000000    0.750000000000000 
P           0.761788000000000    0.761788000000000    0.250000000000000 
P           0.761788000000000    0.761788000000000    0.750000000000000 
K           0.000000000000000    0.000000000000000    0.000000000000000 
K           0.000000000000000    0.000000000000000    0.500000000000000 
K           0.500000000000000    0.500000000000000    0.250000000000000 
K           0.500000000000000    0.500000000000000    0.750000000000000 
%ENDBLOCK POSITIONS_FRAC
