# Cell file generated by matador (Matthew Evans 2016)

%BLOCK LATTICE_CART
6.28456 -0.0 0.0
-3.14228 5.44259 0.0
0.0 0.0 8.82833
%ENDBLOCK LATTICE_CART

%BLOCK POSITIONS_FRAC
P           0.222434000000000    0.491557000000000    0.701437000000000 
P           0.269123000000000    0.777566000000000    0.701437000000000 
P           0.491557000000000    0.269123000000000    0.298563000000000 
P           0.508443000000000    0.730877000000000    0.701437000000000 
P           0.730877000000000    0.222434000000000    0.298563000000000 
P           0.777566000000000    0.508443000000000    0.298563000000000 
K           0.000000000000000    0.500000000000000    0.000000000000000 
K           0.000000000000000    0.500000000000000    0.500000000000000 
K           0.500000000000000    0.000000000000000    0.000000000000000 
K           0.500000000000000    0.000000000000000    0.500000000000000 
K           0.500000000000000    0.500000000000000    0.000000000000000 
K           0.500000000000000    0.500000000000000    0.500000000000000 
%ENDBLOCK POSITIONS_FRAC
