# Cell file generated by matador (Matthew Evans 2016)

%BLOCK LATTICE_CART
7.77059 0.0 0.0
-3.88529 6.72953 0.0
0.0 0.0 7.56238
%ENDBLOCK LATTICE_CART

%BLOCK POSITIONS_FRAC
P          -0.000000000000000    0.000000000000000    0.368762000000000 
P          -0.000000000000000    0.000000000000000    0.868762000000000 
P           0.162069000000000    0.631399000000000    0.345379000000000 
P           0.333333000000000    0.666667000000000    0.803435000000000 
P           0.368601000000000    0.530672000000000    0.345379000000000 
P           0.469328000000000    0.837931000000000    0.345379000000000 
P           0.530671000000000    0.368602000000000    0.845379000000000 
P           0.631398000000000    0.162070000000000    0.845379000000000 
P           0.666666000000000    0.333334000000000    0.303435000000000 
P           0.837930000000000    0.469329000000000    0.845379000000000 
K           0.333333000000000    0.666667000000000    0.099206000000000 
K           0.666666000000000    0.333334000000000    0.599206000000000 
%ENDBLOCK POSITIONS_FRAC
