# Cell file generated by matador (Matthew Evans 2016)

%BLOCK LATTICE_CART
5.43167 0.0 0.0
-2.71584 4.70397 0.0
0.0 0.0 12.1733
%ENDBLOCK LATTICE_CART

%BLOCK POSITIONS_FRAC
P           0.666667000000000    0.333333000000000    0.288239000000000 
P           0.666667000000000    0.333333000000000    0.711761000000000 
K           0.000000000000000   -0.000000000000000    0.000000000000000 
K           0.000000000000000   -0.000000000000000    0.500000000000000 
K           0.333334000000000    0.666666000000000    0.000000000000000 
K           0.333334000000000    0.666666000000000    0.500000000000000 
K           0.666667000000000    0.333333000000000    0.000000000000000 
K           0.666667000000000    0.333333000000000    0.500000000000000 
%ENDBLOCK POSITIONS_FRAC
