# Cell file generated by matador (Matthew Evans 2016)

%BLOCK LATTICE_CART
6.76695 0.0 0.0
0.0 8.07244 0.0
-1.26368 0.0 6.30178
%ENDBLOCK LATTICE_CART

%BLOCK POSITIONS_FRAC
P           0.493000000000000    0.500000000000000    0.019080000000000 
P           0.993000000000000   -0.000000000000000    0.019080000000000 
K           0.209100000000000    0.500000000000000    0.496678000000000 
K           0.368304000000000   -0.000000000000000    0.112846000000000 
K           0.428805000000000   -0.000000000000000    0.673690000000000 
K           0.709100000000000   -0.000000000000000    0.496678000000000 
K           0.868304000000000    0.500000000000000    0.112846000000000 
K           0.928805000000000    0.500000000000000    0.673690000000000 
%ENDBLOCK POSITIONS_FRAC
