# Cell file generated by matador (Matthew Evans 2016)

%BLOCK LATTICE_CART
6.81801 0.0 0.0
-3.409 5.90457 0.0
0.0 0.0 6.89769
%ENDBLOCK LATTICE_CART

%BLOCK POSITIONS_FRAC
P           0.000000000000000    0.500000000000000    0.000000000000000 
P           0.333333000000000    0.666667000000000    0.397482000000000 
P           0.333333000000000    0.666667000000000    0.602518000000000 
P           0.500000000000000    0.000000000000000    0.000000000000000 
P           0.500000000000000    0.500000000000000    0.000000000000000 
P           0.666667000000000    0.333333000000000    0.397482000000000 
P           0.666667000000000    0.333333000000000    0.602518000000000 
K           0.000000000000000    0.000000000000000    0.500000000000000 
K           0.000000000000000    0.500000000000000    0.500000000000000 
K           0.500000000000000    0.000000000000000    0.500000000000000 
K           0.500000000000000    0.500000000000000    0.500000000000000 
%ENDBLOCK POSITIONS_FRAC
