# Cell file generated by matador (Matthew Evans 2016)

%BLOCK LATTICE_CART
13.2307 0.0 0.0
-6.61537 11.4582 0.0
0.0 0.0 5.34646
%ENDBLOCK LATTICE_CART

%BLOCK POSITIONS_FRAC
P           0.000000000000000    0.000000000000000    0.000000000000000 
P           0.000000000000000    0.000000000000000    0.500000000000000 
P           0.000000000000000    0.500000000000000    0.000000000000000 
P           0.500000000000000    0.000000000000000    0.000000000000000 
P           0.500000000000000    0.500000000000000    0.000000000000000 
K           0.000000000000000    0.500000000000000    0.500000000000000 
K           0.156717000000000    0.352542000000000    0.000000000000000 
K           0.195825000000000    0.843283000000000    0.000000000000000 
K           0.219147000000000    0.741333000000000    0.500000000000000 
K           0.258667000000000    0.477813000000000    0.500000000000000 
K           0.352542000000000    0.195825000000000    0.000000000000000 
K           0.477813000000000    0.219147000000000    0.500000000000000 
K           0.500000000000000    0.000000000000000    0.500000000000000 
K           0.500000000000000    0.500000000000000    0.500000000000000 
K           0.522187000000000    0.780853000000000    0.500000000000000 
K           0.647458000000000    0.804175000000000    0.000000000000000 
K           0.741333000000000    0.522187000000000    0.500000000000000 
K           0.780853000000000    0.258667000000000    0.500000000000000 
K           0.804175000000000    0.156717000000000    0.000000000000000 
K           0.843283000000000    0.647458000000000    0.000000000000000 
%ENDBLOCK POSITIONS_FRAC
