# Cell file generated by matador (Matthew Evans 2016)

%BLOCK LATTICE_CART
9.57466 0.0 0.0
0.0 13.4151 0.0
0.0 0.0 10.3117
%ENDBLOCK LATTICE_CART

%BLOCK POSITIONS_FRAC
P           0.000000000000000    0.000000000000000    0.000000000000000 
P           0.000000000000000    0.000000000000000    0.500000000000000 
P           0.000000000000000    0.500000000000000    0.000000000000000 
P           0.000000000000000    0.500000000000000    0.500000000000000 
P           0.500000000000000    0.000000000000000    0.000000000000000 
P           0.500000000000000    0.000000000000000    0.500000000000000 
P           0.500000000000000    0.500000000000000    0.000000000000000 
P           0.500000000000000    0.500000000000000    0.500000000000000 
K           0.000000000000000    0.175964000000000    0.013415000000000 
K           0.000000000000000    0.175964000000000    0.486585000000000 
K           0.000000000000000    0.374309000000000    0.603864000000000 
K           0.000000000000000    0.374309000000000    0.896136000000000 
K           0.000000000000000    0.625691000000000    0.103864000000000 
K           0.000000000000000    0.625691000000000    0.396136000000000 
K           0.000000000000000    0.824036000000000    0.513415000000000 
K           0.000000000000000    0.824036000000000    0.986585000000000 
K           0.249666000000000    0.352614000000000    0.250000000000000 
K           0.249666000000000    0.647386000000000    0.750000000000000 
K           0.250334000000000    0.147386000000000    0.750000000000000 
K           0.250334000000000    0.852614000000000    0.250000000000000 
K           0.500000000000000    0.125691000000000    0.103864000000000 
K           0.500000000000000    0.125691000000000    0.396136000000000 
K           0.500000000000000    0.324036000000000    0.513415000000000 
K           0.500000000000000    0.324036000000000    0.986585000000000 
K           0.500000000000000    0.675964000000000    0.013415000000000 
K           0.500000000000000    0.675964000000000    0.486585000000000 
K           0.500000000000000    0.874309000000000    0.603864000000000 
K           0.500000000000000    0.874309000000000    0.896136000000000 
K           0.749666000000000    0.147386000000000    0.750000000000000 
K           0.749666000000000    0.852614000000000    0.250000000000000 
K           0.750334000000000    0.352614000000000    0.250000000000000 
K           0.750334000000000    0.647386000000000    0.750000000000000 
%ENDBLOCK POSITIONS_FRAC
