# Cell file generated by matador (Matthew Evans 2016)

%BLOCK LATTICE_CART
8.00258 0.0 0.0
0.0 10.9085 0.0
0.624799 0.0 6.59069
%ENDBLOCK LATTICE_CART

%BLOCK POSITIONS_FRAC
P           0.500000000000000    0.000000000000000    0.000000000000000 
P           0.500000000000000    0.000000000000000    0.500000000000000 
P           0.500000000000000    0.500000000000000    0.000000000000000 
P           0.500000000000000    0.500000000000000    0.500000000000000 
K           0.000000000000000    0.000000000000000    0.000000000000000 
K           0.000000000000000    0.000000000000000    0.500000000000000 
K           0.000000000000000    0.500000000000000    0.000000000000000 
K           0.000000000000000    0.500000000000000    0.500000000000000 
K           0.049073000000000    0.750000000000000    0.813477000000000 
K           0.182714000000000    0.250000000000000    0.623788000000000 
K           0.371112000000000    0.750000000000000    0.534636000000000 
K           0.430952000000000    0.750000000000000    0.074344000000000 
K           0.569048000000000    0.250000000000000    0.925656000000000 
K           0.628888000000000    0.250000000000000    0.465364000000000 
K           0.817286000000000    0.750000000000000    0.376212000000000 
K           0.950927000000000    0.250000000000000    0.186523000000000 
%ENDBLOCK POSITIONS_FRAC
