# Cell file generated by matador (Matthew Evans 2016)

%BLOCK LATTICE_CART
8.60669 0.0 0.0
-4.30335 7.45362 0.0
0.0 0.0 4.67597
%ENDBLOCK LATTICE_CART

%BLOCK POSITIONS_FRAC
P           0.256735000000000    0.007835000000000    0.992198000000000 
P           0.374833000000000    0.209369000000000    0.947510000000000 
P           0.751100000000000    0.743265000000000    0.325531000000000 
P           0.790631000000000    0.165464000000000    0.614177000000000 
P           0.834536000000000    0.625167000000000    0.280843000000000 
P           0.992165000000000    0.248900000000000    0.658865000000000 
K           0.301219000000000    0.294086000000000    0.321707000000000 
K           0.705914000000000    0.007132000000000    0.988374000000000 
K           0.992868000000000    0.698781000000000    0.655041000000000 
%ENDBLOCK POSITIONS_FRAC
