# Cell file generated by matador (Matthew Evans 2016)

%BLOCK LATTICE_CART
12.3499 -0.0 0.0
-6.17496 10.6953 0.0
0.0 0.0 9.30287
%ENDBLOCK LATTICE_CART

%BLOCK POSITIONS_FRAC
P           0.000000000000000    0.000000000000000    0.250000000000000 
P           0.000000000000000    0.000000000000000    0.750000000000000 
P           0.000000000000000    0.500000000000000    0.000000000000000 
P           0.000000000000000    0.500000000000000    0.500000000000000 
P           0.500000000000000    0.000000000000000    0.000000000000000 
P           0.500000000000000    0.000000000000000    0.500000000000000 
P           0.500000000000000    0.500000000000000    0.000000000000000 
P           0.500000000000000    0.500000000000000    0.500000000000000 
K           0.045196000000000    0.499221000000000    0.250000000000000 
K           0.060286000000000    0.839749000000000    0.750000000000000 
K           0.124627000000000    0.783909000000000    0.250000000000000 
K           0.160251000000000    0.220537000000000    0.750000000000000 
K           0.216091000000000    0.340718000000000    0.250000000000000 
K           0.220537000000000    0.060286000000000    0.250000000000000 
K           0.236698000000000    0.500852000000000    0.750000000000000 
K           0.264153000000000    0.763302000000000    0.750000000000000 
K           0.340718000000000    0.124627000000000    0.750000000000000 
K           0.454024000000000    0.954804000000000    0.250000000000000 
K           0.499148000000000    0.735847000000000    0.750000000000000 
K           0.499221000000000    0.454024000000000    0.750000000000000 
K           0.500779000000000    0.545976000000000    0.250000000000000 
K           0.500852000000000    0.264153000000000    0.250000000000000 
K           0.545976000000000    0.045196000000000    0.750000000000000 
K           0.659282000000000    0.875373000000000    0.250000000000000 
K           0.735847000000000    0.236698000000000    0.250000000000000 
K           0.763302000000000    0.499148000000000    0.250000000000000 
K           0.779463000000000    0.939714000000000    0.750000000000000 
K           0.783909000000000    0.659282000000000    0.750000000000000 
K           0.839749000000000    0.779463000000000    0.250000000000000 
K           0.875373000000000    0.216091000000000    0.750000000000000 
K           0.939714000000000    0.160251000000000    0.250000000000000 
K           0.954804000000000    0.500779000000000    0.750000000000000 
%ENDBLOCK POSITIONS_FRAC
