# Cell file generated by matador (Matthew Evans 2016)

%BLOCK LATTICE_CART
5.07439 0.0 0.0
-2.5372 4.39455 0.0
0.0 0.0 4.65412
%ENDBLOCK LATTICE_CART

%BLOCK POSITIONS_FRAC
P           0.209078000000000    0.721566000000000    0.632817000000000 
P           0.278434000000000    0.487513000000000    0.632817000000000 
P           0.512487000000000    0.790922000000000    0.632817000000000 
K           0.000000000000000    0.000000000000000    0.586729000000000 
%ENDBLOCK POSITIONS_FRAC
