# Cell file generated by matador (Matthew Evans 2016)

%BLOCK LATTICE_CART
7.60232 0.0 0.0
-3.80116 6.5838 0.0
0.0 0.0 7.38481
%ENDBLOCK LATTICE_CART

%BLOCK POSITIONS_FRAC
P           0.000000000000000    0.000000000000000    0.340342000000000 
P           0.000000000000000    0.000000000000000    0.659658000000000 
K           0.000000000000000    0.352405000000000    0.318325000000000 
K           0.000000000000000    0.352405000000000    0.681675000000000 
K           0.333333000000000    0.666667000000000   -0.000000000000000 
K           0.352405000000000    0.000000000000000    0.318325000000000 
K           0.352405000000000    0.000000000000000    0.681675000000000 
K           0.647595000000000    0.647595000000000    0.318325000000000 
K           0.647595000000000    0.647595000000000    0.681675000000000 
K           0.666667000000000    0.333333000000000   -0.000000000000000 
%ENDBLOCK POSITIONS_FRAC
