# Cell file generated by matador (Matthew Evans 2016)

%BLOCK LATTICE_CART
6.14553 0.0 0.0
0.0 7.99885 0.0
-4.23882 0.0 8.66943
%ENDBLOCK LATTICE_CART

%BLOCK POSITIONS_FRAC
P           0.079614000000000    0.269951000000000    0.717045000000000 
P           0.079614000000000    0.730049000000000    0.717045000000000 
P           0.258357000000000    0.298403000000000    0.860200000000000 
P           0.258357000000000    0.701597000000000    0.860200000000000 
P           0.429291000000000    0.287820000000000    0.959952000000000 
P           0.429291000000000    0.712180000000000    0.959952000000000 
P           0.497436000000000    0.500000000000000    0.075994000000000 
P           0.548195000000000    0.500000000000000    0.955844000000000 
P           0.905181000000000    0.500000000000000    0.905128000000000 
P           0.940096000000000    0.500000000000000    0.115028000000000 
K           0.370345000000000    0.500000000000000    0.664337000000000 
K           0.558221000000000    0.500000000000000    0.344211000000000 
K           0.648410000000000    0.500000000000000    0.575259000000000 
K           0.685686000000000    0.000000000000000    0.805872000000000 
%ENDBLOCK POSITIONS_FRAC
