# Cell file generated by matador (Matthew Evans 2016)

%BLOCK LATTICE_CART
6.87916 0.0 0.0
0.0 7.47571 0.0
0.0 0.0 10.1267
%ENDBLOCK LATTICE_CART

%BLOCK POSITIONS_FRAC
P           0.000000000000000    0.500000000000000    0.321671000000000 
P           0.000000000000000    0.500000000000000    0.509538000000000 
P           0.000000000000000    0.500000000000000    0.860343000000000 
P           0.500000000000000    0.000000000000000    0.139657000000000 
P           0.500000000000000    0.000000000000000    0.490462000000000 
P           0.500000000000000    0.000000000000000    0.678329000000000 
K           0.000000000000000    0.000000000000000    0.398310000000000 
K           0.110563000000000    0.129438000000000    0.902661000000000 
K           0.212327000000000    0.427626000000000    0.714105000000000 
K           0.287673000000000    0.927626000000000    0.285895000000000 
K           0.389437000000000    0.629438000000000    0.097339000000000 
K           0.500000000000000    0.500000000000000    0.601690000000000 
K           0.610563000000000    0.370562000000000    0.097339000000000 
K           0.712327000000000    0.072374000000000    0.285895000000000 
K           0.787673000000000    0.572374000000000    0.714105000000000 
K           0.889437000000000    0.870562000000000    0.902661000000000 
%ENDBLOCK POSITIONS_FRAC
