# Cell file generated by matador (Matthew Evans 2016)

%BLOCK LATTICE_CART
5.83572 0.0 0.0
-2.91786 5.05389 0.0
0.0 0.0 5.3269
%ENDBLOCK LATTICE_CART

%BLOCK POSITIONS_FRAC
P           0.333334000000000    0.666668000000000    0.282545000000000 
P           0.666668000000000    0.333334000000000    0.282545000000000 
K           0.000001000000000    0.000001000000000    0.478493000000000 
K           0.000001000000000    0.500001000000000    0.814587000000000 
K           0.500001000000000    0.000001000000000    0.814587000000000 
K           0.500001000000000    0.500001000000000    0.814587000000000 
%ENDBLOCK POSITIONS_FRAC
