# Cell file generated by matador (Matthew Evans 2016)

%BLOCK LATTICE_CART
5.69624 0.0 0.0
0.0 5.1997 0.0
-2.40736 0.0 6.5977
%ENDBLOCK LATTICE_CART

%BLOCK POSITIONS_FRAC
P           0.000000000000000    0.371401000000000    0.000000000000000 
P           0.500000000000000    0.050053000000000    0.500000000000000 
P           0.500000000000000    0.111828000000000    0.000000000000000 
P           0.500000000000000    0.824318000000000    0.500000000000000 
K           0.195228000000000    0.412362000000000    0.634798000000000 
K           0.804772000000000    0.412362000000000    0.365202000000000 
%ENDBLOCK POSITIONS_FRAC
