# Cell file generated by matador (Matthew Evans 2016)

%BLOCK LATTICE_CART
6.29325 0.0 0.0
-3.14663 5.45012 0.0
0.0 0.0 13.1031
%ENDBLOCK LATTICE_CART

%BLOCK POSITIONS_FRAC
P           0.000000000000000    0.500000000000000    0.500000000000000 
P           0.166667000000000    0.333333000000000    0.833333000000000 
P           0.166667000000000    0.833333000000000    0.833333000000000 
P           0.333333000000000    0.166667000000000    0.166667000000000 
P           0.500000000000000   -0.000000000000000    0.500000000000000 
P           0.500000000000000    0.500000000000000    0.500000000000000 
P           0.666667000000000    0.833333000000000    0.833333000000000 
P           0.833333000000000    0.166667000000000    0.166667000000000 
P           0.833333000000000    0.666667000000000    0.166667000000000 
K           0.000000000000000    0.000000000000000    0.412795000000000 
K           0.000000000000000    0.000000000000000    0.587205000000000 
K           0.333333000000000    0.666667000000000    0.079462000000000 
K           0.333333000000000    0.666667000000000    0.253872000000000 
K           0.666667000000000    0.333333000000000    0.746128000000000 
K           0.666667000000000    0.333333000000000    0.920538000000000 
%ENDBLOCK POSITIONS_FRAC
