# Cell file generated by matador (Matthew Evans 2016)

%BLOCK LATTICE_CART
11.3617 0.0 0.0
0.976262 5.4887 0.0
-0.375072 4.66849 8.69927
%ENDBLOCK LATTICE_CART

%BLOCK POSITIONS_FRAC
P           0.235346000000000    0.371904000000000    0.067249000000000 
P           0.266044000000000    0.607327000000000    0.454745000000000 
P           0.280812000000000    0.889933000000000    0.015350000000000 
P           0.382326000000000    0.853709000000000    0.656546000000000 
P           0.617674000000000    0.146291000000000    0.343454000000000 
P           0.719188000000000    0.110067000000000    0.984650000000000 
P           0.733956000000000    0.392673000000000    0.545255000000000 
P           0.764654000000000    0.628096000000000    0.932751000000000 
K           0.000000000000000    0.000000000000000    0.500000000000000 
K           0.000000000000000    0.500000000000000    0.000000000000000 
K           0.346852000000000    0.228402000000000    0.778571000000000 
K           0.360064000000000    0.274610000000000    0.360898000000000 
K           0.500000000000000    0.000000000000000    0.000000000000000 
K           0.500000000000000    0.000000000000000    0.500000000000000 
K           0.500000000000000    0.500000000000000    0.000000000000000 
K           0.500000000000000    0.500000000000000    0.500000000000000 
K           0.639936000000000    0.725390000000000    0.639102000000000 
K           0.653148000000000    0.771598000000000    0.221429000000000 
%ENDBLOCK POSITIONS_FRAC
