# Cell file generated by matador (Matthew Evans 2016)

%BLOCK LATTICE_CART
7.38421 0.0 0.0
-3.6921 6.39491 0.0
0.0 0.0 7.68142
%ENDBLOCK LATTICE_CART

%BLOCK POSITIONS_FRAC
P           0.000000000000000    0.344199000000000    0.787117000000000 
P           0.000000000000000    0.655801000000000    0.787117000000000 
P           0.333333000000000    0.666667000000000    0.864406000000000 
P           0.344199000000000    0.000000000000000    0.787117000000000 
P           0.344199000000000    0.344199000000000    0.787117000000000 
P           0.655801000000000    0.000000000000000    0.787117000000000 
P           0.655801000000000    0.655801000000000    0.787117000000000 
P           0.666667000000000    0.333333000000000    0.864406000000000 
K           0.000000000000000    0.000000000000000    0.228238000000000 
K           0.000000000000000    0.500000000000000    0.230297000000000 
K           0.500000000000000    0.000000000000000    0.230297000000000 
K           0.500000000000000    0.500000000000000    0.230297000000000 
%ENDBLOCK POSITIONS_FRAC
