# Cell file generated by matador (Matthew Evans 2016)

%BLOCK LATTICE_CART
6.79396 -0.0 0.0
-3.39698 5.88374 0.0
0.0 0.0 10.1642
%ENDBLOCK LATTICE_CART

%BLOCK POSITIONS_FRAC
P           0.037009000000000    0.180006000000000    0.412564000000000 
P           0.064467000000000    0.291714000000000    0.891605000000000 
P           0.142997000000000    0.962991000000000    0.412564000000000 
P           0.227245000000000    0.935533000000000    0.891605000000000 
P           0.333333000000000    0.666667000000000    0.846545000000000 
P           0.564940000000000    0.361295000000000    0.458830000000000 
P           0.638705000000000    0.203646000000000    0.458830000000000 
P           0.708286000000000    0.772755000000000    0.891605000000000 
P           0.796354000000000    0.435060000000000    0.458830000000000 
P           0.819994000000000    0.857003000000000    0.412564000000000 
K           0.333333000000000    0.666667000000000    0.211656000000000 
K           0.333333000000000    0.666667000000000    0.581587000000000 
K           0.524598000000000    0.472469000000000    0.743160000000000 
K           0.527531000000000    0.052130000000000    0.743160000000000 
K           0.666666000000000    0.333334000000000    0.993401000000000 
K           0.947870000000000    0.475402000000000    0.743160000000000 
%ENDBLOCK POSITIONS_FRAC
