# Cell file generated by matador (Matthew Evans 2016)

%BLOCK LATTICE_CART
9.74254 0.0 0.0
-4.87127 8.43729 0.0
0.0 0.0 12.6021
%ENDBLOCK LATTICE_CART

%BLOCK POSITIONS_FRAC
P          -0.000000000000000   -0.000000000000000    0.050742000000000 
P          -0.000000000000000   -0.000000000000000    0.812989000000000 
P           0.333333000000000    0.666667000000000    0.479655000000000 
P           0.333333000000000    0.666667000000000    0.717408000000000 
P           0.666667000000000    0.333333000000000    0.146322000000000 
P           0.666667000000000    0.333333000000000    0.384075000000000 
K           0.073596000000000    0.536798000000000    0.543787000000000 
K           0.129869000000000    0.259738000000000    0.877121000000000 
K           0.129869000000000    0.870131000000000    0.877121000000000 
K           0.189557000000000    0.379113000000000    0.123536000000000 
K           0.189557000000000    0.810443000000000    0.123536000000000 
K           0.287553000000000    0.143777000000000    0.456869000000000 
K           0.406929000000000    0.203464000000000    0.210454000000000 
K           0.463202000000000    0.536798000000000    0.543787000000000 
K           0.463202000000000    0.926404000000000    0.543787000000000 
K           0.522890000000000    0.045780000000000    0.790202000000000 
K           0.522890000000000    0.477110000000000    0.790202000000000 
K           0.620887000000000    0.810443000000000    0.123536000000000 
K           0.740262000000000    0.870131000000000    0.877121000000000 
K           0.796536000000000    0.203464000000000    0.210454000000000 
K           0.796536000000000    0.593071000000000    0.210454000000000 
K           0.856223000000000    0.143777000000000    0.456869000000000 
K           0.856223000000000    0.712447000000000    0.456869000000000 
K           0.954220000000000    0.477110000000000    0.790202000000000 
%ENDBLOCK POSITIONS_FRAC
