# Cell file generated by matador (Matthew Evans 2016)

%BLOCK LATTICE_CART
7.31636 0.0 0.0
-3.65818 6.33615 0.0
0.0 0.0 9.19009
%ENDBLOCK LATTICE_CART

%BLOCK POSITIONS_FRAC
P           0.000000000000000    0.000000000000000    0.165013000000000 
P           0.000000000000000    0.000000000000000    0.298321000000000 
P           0.000000000000000    0.000000000000000    0.665013000000000 
P           0.000000000000000    0.000000000000000    0.798321000000000 
P           0.333333000000000    0.666667000000000    0.381268000000000 
P           0.666667000000000    0.333333000000000    0.881268000000000 
K           0.128062000000000    0.751020000000000    0.061892000000000 
K           0.248980000000000    0.377041000000000    0.061892000000000 
K           0.377041000000000    0.128062000000000    0.561892000000000 
K           0.622959000000000    0.871938000000000    0.061892000000000 
K           0.751020000000000    0.622959000000000    0.561892000000000 
K           0.871938000000000    0.248980000000000    0.561892000000000 
%ENDBLOCK POSITIONS_FRAC
