# Cell file generated by matador (Matthew Evans 2016)

%BLOCK LATTICE_CART
6.07232 0.0 0.0
-3.03616 5.25878 0.0
0.0 0.0 8.22103
%ENDBLOCK LATTICE_CART

%BLOCK POSITIONS_FRAC
P           0.102158000000000    0.489743000000000    0.783708000000000 
P           0.333333000000000    0.666667000000000    0.982008000000000 
P           0.387586000000000    0.897842000000000    0.783708000000000 
P           0.510257000000000    0.612414000000000    0.783708000000000 
P           0.525020000000000    0.297098000000000    0.647096000000000 
P           0.702902000000000    0.227922000000000    0.647096000000000 
P           0.772078000000000    0.474980000000000    0.647096000000000 
K           0.000000000000000    0.000000000000000    0.976140000000000 
K           0.333333000000000    0.666667000000000    0.419561000000000 
%ENDBLOCK POSITIONS_FRAC
