# Cell file generated by matador (Matthew Evans 2016)

%BLOCK LATTICE_CART
7.28355 -0.0 0.0
-3.64178 6.30774 0.0
0.0 0.0 5.9622
%ENDBLOCK LATTICE_CART

%BLOCK POSITIONS_FRAC
P           0.345668000000000    0.113571000000000    0.103698000000000 
P           0.469505000000000    0.448448000000000    0.714878000000000 
P           0.551552000000000    0.021057000000000    0.048211000000000 
P           0.767903000000000    0.654332000000000    0.770365000000000 
P           0.886429000000000    0.232097000000000    0.437031000000000 
P           0.978943000000000    0.530495000000000    0.381544000000000 
K           0.136386000000000    0.821913000000000    0.904882000000000 
K           0.178087000000000    0.314473000000000    0.238215000000000 
K           0.685527000000000    0.863614000000000    0.571548000000000 
%ENDBLOCK POSITIONS_FRAC
