# Cell file generated by matador (Matthew Evans 2016)

%BLOCK LATTICE_CART
7.9989 0.0 0.0
0.0 6.93511 0.0
3.13376 0.0 5.47141
%ENDBLOCK LATTICE_CART

%BLOCK POSITIONS_FRAC
P           0.500000000000000    0.000000000000000    0.000000000000000 
P           0.500000000000000    0.000000000000000    0.500000000000000 
K           0.000000000000000    0.000000000000000    0.000000000000000 
K           0.000000000000000    0.000000000000000    0.500000000000000 
K           0.000000000000000    0.369819000000000    0.250000000000000 
K           0.000000000000000    0.630181000000000    0.750000000000000 
K           0.500000000000000    0.500000000000000    0.000000000000000 
K           0.500000000000000    0.500000000000000    0.500000000000000 
%ENDBLOCK POSITIONS_FRAC
