# Cell file generated by matador (Matthew Evans 2016)

%BLOCK LATTICE_CART
8.36669 0.0 0.0
-4.18334 7.24577 0.0
0.0 0.0 7.46433
%ENDBLOCK LATTICE_CART

%BLOCK POSITIONS_FRAC
P          -0.000000000000000   -0.000000000000000    0.471826000000000 
P           0.086413000000000    0.861778000000000    0.763504000000000 
P           0.138222000000000    0.224635000000000    0.763504000000000 
P           0.202509000000000    0.775560000000000    0.853860000000000 
P           0.224440000000000    0.426949000000000    0.853860000000000 
P           0.570757000000000    0.355954000000000    0.479684000000000 
P           0.573051000000000    0.797491000000000    0.853860000000000 
P           0.644046000000000    0.214803000000000    0.479684000000000 
P           0.666667000000000    0.333333000000000    0.407376000000000 
P           0.666667000000000    0.333333000000000    0.838234000000000 
P           0.775365000000000    0.913587000000000    0.763504000000000 
P           0.785197000000000    0.429243000000000    0.479684000000000 
K           0.222994000000000    0.754416000000000    0.213845000000000 
K           0.245584000000000    0.468578000000000    0.213845000000000 
K           0.333333000000000    0.666667000000000    0.458834000000000 
K           0.531422000000000    0.777006000000000    0.213845000000000 
%ENDBLOCK POSITIONS_FRAC
