# Cell file generated by matador (Matthew Evans 2016)

%BLOCK LATTICE_CART
9.78324 0.0 0.0
-4.89162 8.47253 0.0
0.0 0.0 4.88317
%ENDBLOCK LATTICE_CART

%BLOCK POSITIONS_FRAC
P           0.666667000000000    0.333333000000000    0.109733000000000 
P           0.666667000000000    0.333333000000000    0.390267000000000 
P           0.666667000000000    0.333333000000000    0.609733000000000 
P           0.666667000000000    0.333333000000000    0.890267000000000 
K           0.000000000000000   -0.000000000000000    0.000000000000000 
K           0.000000000000000   -0.000000000000000    0.500000000000000 
K           0.186423000000000    0.372845000000000    0.000000000000000 
K           0.186423000000000    0.372845000000000    0.500000000000000 
K           0.186423000000000    0.813577000000000    0.000000000000000 
K           0.186423000000000    0.813577000000000    0.500000000000000 
K           0.333334000000000    0.666666000000000    0.000000000000000 
K           0.333334000000000    0.666666000000000    0.500000000000000 
K           0.627155000000000    0.813577000000000    0.000000000000000 
K           0.627155000000000    0.813577000000000    0.500000000000000 
%ENDBLOCK POSITIONS_FRAC
