# Cell file generated by matador (Matthew Evans 2016)

%BLOCK LATTICE_CART
7.95451 0.0 0.0
0.0 7.15647 0.0
-2.38083 0.0 5.26423
%ENDBLOCK LATTICE_CART

%BLOCK POSITIONS_FRAC
P           0.000000000000000    0.047845000000000    0.500000000000000 
P           0.000000000000000    0.670120000000000    0.000000000000000 
P           0.474426000000000    0.439509000000000    0.183509000000000 
P           0.500000000000000    0.416980000000000    0.500000000000000 
P           0.500000000000000    0.496406000000000    0.000000000000000 
P           0.525574000000000    0.439509000000000    0.816491000000000 
K           0.273127000000000    0.324660000000000    0.856534000000000 
K           0.289735000000000    0.102142000000000    0.123192000000000 
K           0.710265000000000    0.102142000000000    0.876808000000000 
K           0.726873000000000    0.324660000000000    0.143466000000000 
%ENDBLOCK POSITIONS_FRAC
