# Cell file generated by matador (Matthew Evans 2016)

%BLOCK LATTICE_CART
6.61705 0.0 0.0
-3.30853 5.73054 0.0
0.0 0.0 7.242
%ENDBLOCK LATTICE_CART

%BLOCK POSITIONS_FRAC
P          -0.000000000000000    0.000000000000000    0.054699000000000 
P          -0.000000000000000    0.000000000000000    0.534652000000000 
P           0.333333000000000    0.666667000000000    0.321583000000000 
P           0.333333000000000    0.666667000000000    0.515471000000000 
P           0.333333000000000    0.666667000000000    0.956042000000000 
P           0.666666000000000    0.333334000000000    0.128289000000000 
P           0.666666000000000    0.333334000000000    0.314334000000000 
K           0.111838000000000    0.223677000000000    0.314646000000000 
K           0.111838000000000    0.888162000000000    0.314646000000000 
K           0.776323000000000    0.888162000000000    0.314646000000000 
%ENDBLOCK POSITIONS_FRAC
