# Cell file generated by matador (Matthew Evans 2016)

%BLOCK LATTICE_CART
6.94779 0.0 0.0
-3.47389 6.01696 0.0
0.0 0.0 11.0795
%ENDBLOCK LATTICE_CART

%BLOCK POSITIONS_FRAC
P           0.000000000000000    0.000000000000000    0.259641000000000 
P           0.333333000000000    0.666667000000000    0.926308000000000 
P           0.666667000000000    0.333333000000000    0.592975000000000 
K           0.013858000000000    0.506929000000000    0.778755000000000 
K           0.159738000000000    0.319475000000000    0.112089000000000 
K           0.159738000000000    0.840262000000000    0.112089000000000 
K           0.347191000000000    0.173596000000000    0.445422000000000 
K           0.493071000000000    0.506929000000000    0.778755000000000 
K           0.493071000000000    0.986142000000000    0.778755000000000 
K           0.680525000000000    0.840262000000000    0.112089000000000 
K           0.826404000000000    0.173596000000000    0.445422000000000 
K           0.826404000000000    0.652809000000000    0.445422000000000 
%ENDBLOCK POSITIONS_FRAC
