# Cell file generated by matador (Matthew Evans 2016)

%BLOCK LATTICE_CART
8.57091 0.0 0.0
0.0 8.57091 0.0
0.0 0.0 6.86248
%ENDBLOCK LATTICE_CART

%BLOCK POSITIONS_FRAC
P           0.000000000000000    0.000000000000000    0.000000000000000 
P           0.500000000000000    0.500000000000000    0.000000000000000 
P           0.500000000000000    0.500000000000000    0.500000000000000 
K           0.000000000000000    0.000000000000000    0.500000000000000 
K           0.215781000000000    0.500000000000000    0.403857000000000 
K           0.223945000000000    0.500000000000000    0.886706000000000 
K           0.500000000000000    0.215781000000000    0.596143000000000 
K           0.500000000000000    0.223945000000000    0.113294000000000 
K           0.500000000000000    0.776055000000000    0.113294000000000 
K           0.500000000000000    0.784219000000000    0.596143000000000 
K           0.776055000000000    0.500000000000000    0.886706000000000 
K           0.784219000000000    0.500000000000000    0.403857000000000 
%ENDBLOCK POSITIONS_FRAC
