# Cell file generated by matador (Matthew Evans 2016)

%BLOCK LATTICE_CART
8.97214 0.0 0.0
0.0 8.97214 0.0
0.0 0.0 7.21283
%ENDBLOCK LATTICE_CART

%BLOCK POSITIONS_FRAC
P           0.000000000000000    0.000000000000000    0.250000000000000 
P           0.000000000000000    0.000000000000000    0.750000000000000 
P           0.500000000000000    0.500000000000000    0.250000000000000 
P           0.500000000000000    0.500000000000000    0.750000000000000 
K           0.000000000000000    0.500000000000000    0.250000000000000 
K           0.000000000000000    0.500000000000000    0.750000000000000 
K           0.137977000000000    0.729174000000000    0.500000000000000 
K           0.229174000000000    0.637977000000000    0.000000000000000 
K           0.270826000000000    0.137977000000000    0.000000000000000 
K           0.362023000000000    0.229174000000000    0.500000000000000 
K           0.500000000000000    0.000000000000000    0.250000000000000 
K           0.500000000000000    0.000000000000000    0.750000000000000 
K           0.637977000000000    0.770826000000000    0.500000000000000 
K           0.729174000000000    0.862023000000000    0.000000000000000 
K           0.770826000000000    0.362023000000000    0.000000000000000 
K           0.862023000000000    0.270826000000000    0.500000000000000 
%ENDBLOCK POSITIONS_FRAC
