# Cell file generated by matador (Matthew Evans 2016)

%BLOCK LATTICE_CART
5.93966 0.0 0.0
0.0 6.81749 0.0
2.12004 0.0 5.04101
%ENDBLOCK LATTICE_CART

%BLOCK POSITIONS_FRAC
P           0.788096000000000    0.500000000000000    0.807432000000000 
K           0.098530000000000    0.351560000000000    0.135327000000000 
K           0.098530000000000    0.648440000000000    0.135327000000000 
K           0.337657000000000    0.500000000000000    0.789035000000000 
K           0.411222000000000    0.500000000000000    0.163812000000000 
K           0.820668000000000    0.000000000000000    0.839376000000000 
%ENDBLOCK POSITIONS_FRAC
