# Cell file generated by matador (Matthew Evans 2016)

%BLOCK LATTICE_CART
12.7993 0.0 0.0
0.0 12.7993 0.0
0.0 0.0 8.3906
%ENDBLOCK LATTICE_CART

%BLOCK POSITIONS_FRAC
P           0.210019000000000    0.210019000000000    0.000000000000000 
P           0.210019000000000    0.789981000000000    0.000000000000000 
P           0.289981000000000    0.289981000000000    0.500000000000000 
P           0.289981000000000    0.710019000000000    0.500000000000000 
P           0.710019000000000    0.289981000000000    0.500000000000000 
P           0.710019000000000    0.710019000000000    0.500000000000000 
P           0.789981000000000    0.210019000000000    0.000000000000000 
P           0.789981000000000    0.789981000000000    0.000000000000000 
K           0.000000000000000    0.163335000000000    0.567191000000000 
K           0.000000000000000    0.276516000000000    0.906715000000000 
K           0.000000000000000    0.330532000000000    0.254658000000000 
K           0.000000000000000    0.669468000000000    0.254658000000000 
K           0.000000000000000    0.723484000000000    0.906715000000000 
K           0.000000000000000    0.836665000000000    0.567191000000000 
K           0.163335000000000    0.000000000000000    0.432809000000000 
K           0.169468000000000    0.500000000000000    0.245342000000000 
K           0.223484000000000    0.500000000000000    0.593285000000000 
K           0.276516000000000    0.000000000000000    0.093285000000000 
K           0.330532000000000    0.000000000000000    0.745342000000000 
K           0.336665000000000    0.500000000000000    0.932809000000000 
K           0.500000000000000    0.169468000000000    0.754658000000000 
K           0.500000000000000    0.223484000000000    0.406715000000000 
K           0.500000000000000    0.336665000000000    0.067191000000000 
K           0.500000000000000    0.663335000000000    0.067191000000000 
K           0.500000000000000    0.776516000000000    0.406715000000000 
K           0.500000000000000    0.830532000000000    0.754658000000000 
K           0.663335000000000    0.500000000000000    0.932809000000000 
K           0.669468000000000    0.000000000000000    0.745342000000000 
K           0.723484000000000    0.000000000000000    0.093285000000000 
K           0.776516000000000    0.500000000000000    0.593285000000000 
K           0.830532000000000    0.500000000000000    0.245342000000000 
K           0.836665000000000    0.000000000000000    0.432809000000000 
%ENDBLOCK POSITIONS_FRAC
