# Cell file generated by matador (Matthew Evans 2016)

%BLOCK LATTICE_CART
11.3728 -0.0 0.0
-5.6864 9.84913 0.0
0.0 0.0 3.5688
%ENDBLOCK LATTICE_CART

%BLOCK POSITIONS_FRAC
P           0.052806000000000    0.846021000000000    0.000000000000000 
P           0.153979000000000    0.206785000000000    0.000000000000000 
P           0.206785000000000    0.052806000000000    0.000000000000000 
P           0.793215000000000    0.947194000000000    0.000000000000000 
P           0.846021000000000    0.793215000000000    0.000000000000000 
P           0.947194000000000    0.153979000000000    0.000000000000000 
K           0.000000000000000    0.500000000000000    0.000000000000000 
K           0.174752000000000    0.463353000000000    0.500000000000000 
K           0.288602000000000    0.825248000000000    0.500000000000000 
K           0.463353000000000    0.288602000000000    0.500000000000000 
K           0.500000000000000    0.000000000000000    0.000000000000000 
K           0.500000000000000    0.500000000000000    0.000000000000000 
K           0.536647000000000    0.711398000000000    0.500000000000000 
K           0.711398000000000    0.174752000000000    0.500000000000000 
K           0.825248000000000    0.536647000000000    0.500000000000000 
%ENDBLOCK POSITIONS_FRAC
