# Cell file generated by matador (Matthew Evans 2016)

%BLOCK LATTICE_CART
7.14246 0.0 0.0
0.0 8.17923 0.0
-0.969673 0.0 5.85857
%ENDBLOCK LATTICE_CART

%BLOCK POSITIONS_FRAC
P           0.000000000000000    0.314773000000000    0.500000000000000 
P           0.000000000000000    0.500000000000000    0.500000000000000 
P           0.000000000000000    0.685227000000000    0.500000000000000 
P           0.023701000000000    0.000000000000000    0.094596000000000 
P           0.215149000000000    0.000000000000000    0.757248000000000 
P           0.411895000000000    0.500000000000000    0.804279000000000 
P           0.500000000000000    0.000000000000000    0.500000000000000 
P           0.500000000000000    0.206244000000000   -0.000000000000000 
P           0.500000000000000    0.793756000000000   -0.000000000000000 
P           0.588105000000000    0.500000000000000    0.195721000000000 
P           0.784851000000000    0.000000000000000    0.242752000000000 
P           0.976298000000000    0.000000000000000    0.905404000000000 
K           0.000000000000000    0.000000000000000    0.500000000000000 
K           0.500000000000000    0.500000000000000    0.500000000000000 
%ENDBLOCK POSITIONS_FRAC
