# Cell file generated by matador (Matthew Evans 2016)

%BLOCK LATTICE_CART
7.39975 0.0 0.0
-3.69988 6.40837 0.0
0.0 0.0 10.4887
%ENDBLOCK LATTICE_CART

%BLOCK POSITIONS_FRAC
P           0.000000000000000    0.000000000000000    0.250000000000000 
P           0.000000000000000    0.000000000000000    0.750000000000000 
P           0.021237000000000    0.510619000000000    0.750000000000000 
P           0.489381000000000    0.510619000000000    0.750000000000000 
P           0.489381000000000    0.978763000000000    0.750000000000000 
P           0.510619000000000    0.021237000000000    0.250000000000000 
P           0.510619000000000    0.489381000000000    0.250000000000000 
P           0.978763000000000    0.489381000000000    0.250000000000000 
K           0.000000000000000    0.000000000000000    0.000000000000000 
K           0.000000000000000    0.000000000000000    0.500000000000000 
K           0.333333000000000    0.666667000000000    0.059659000000000 
K           0.333333000000000    0.666667000000000    0.250000000000000 
K           0.333333000000000    0.666667000000000    0.440341000000000 
K           0.333333000000000    0.666667000000000    0.750000000000000 
K           0.666667000000000    0.333333000000000    0.250000000000000 
K           0.666667000000000    0.333333000000000    0.559659000000000 
K           0.666667000000000    0.333333000000000    0.750000000000000 
K           0.666667000000000    0.333333000000000    0.940341000000000 
%ENDBLOCK POSITIONS_FRAC
