# Cell file generated by matador (Matthew Evans 2016)

%BLOCK LATTICE_CART
9.65571 0.0 0.0
0.0 6.41077 0.0
0.0 0.0 6.97201
%ENDBLOCK LATTICE_CART

%BLOCK POSITIONS_FRAC
P           0.250000000000000    0.250000000000000    0.263973000000000 
P           0.250000000000000    0.250000000000000    0.503886000000000 
P           0.250000000000000    0.750000000000000    0.386916000000000 
P           0.750000000000000    0.250000000000000    0.613084000000000 
P           0.750000000000000    0.750000000000000    0.496114000000000 
P           0.750000000000000    0.750000000000000    0.736027000000000 
K           0.000000000000000    0.000000000000000    0.500000000000000 
K           0.000000000000000    0.500000000000000    0.500000000000000 
K           0.250000000000000    0.750000000000000    0.892320000000000 
K           0.500000000000000    0.000000000000000    0.500000000000000 
K           0.500000000000000    0.500000000000000    0.500000000000000 
K           0.750000000000000    0.250000000000000    0.107680000000000 
%ENDBLOCK POSITIONS_FRAC
