# Cell file generated by matador (Matthew Evans 2016)

%BLOCK LATTICE_CART
8.24959 0.0 0.0
-4.1248 7.14436 0.0
0.0 0.0 7.14964
%ENDBLOCK LATTICE_CART

%BLOCK POSITIONS_FRAC
P           0.009713000000000    0.504856000000000    0.500000000000000 
P           0.495144000000000    0.504856000000000    0.500000000000000 
P           0.495144000000000    0.990287000000000    0.500000000000000 
K           0.028214000000000    0.514106000000000    0.213432000000000 
K           0.028214000000000    0.514106000000000    0.786568000000000 
K           0.333334000000000    0.666666000000000    0.500000000000000 
K           0.485894000000000    0.514106000000000    0.213432000000000 
K           0.485894000000000    0.514106000000000    0.786568000000000 
K           0.485894000000000    0.971786000000000    0.213432000000000 
K           0.485894000000000    0.971786000000000    0.786568000000000 
K           0.666667000000000    0.333333000000000    0.000000000000000 
K           0.666667000000000    0.333333000000000    0.500000000000000 
%ENDBLOCK POSITIONS_FRAC
