# Cell file generated by matador (Matthew Evans 2016)

%BLOCK LATTICE_CART
11.3878 0.0 0.0
-5.69391 9.86214 0.0
0.0 0.0 7.6857
%ENDBLOCK LATTICE_CART

%BLOCK POSITIONS_FRAC
P           0.195492000000000    0.597747000000000    0.953442000000000 
P           0.402255000000000    0.597747000000000    0.953442000000000 
P           0.402255000000000    0.804510000000000    0.953442000000000 
P           0.597747000000000    0.195492000000000    0.453442000000000 
P           0.597747000000000    0.402255000000000    0.453442000000000 
P           0.804510000000000    0.402255000000000    0.453442000000000 
K           0.024943000000000    0.512472000000000    0.475086000000000 
K           0.139282000000000    0.278563000000000    0.628575000000000 
K           0.139282000000000    0.860720000000000    0.628575000000000 
K           0.161681000000000    0.323361000000000    0.173895000000000 
K           0.161681000000000    0.838321000000000    0.173895000000000 
K           0.278563000000000    0.139282000000000    0.128575000000000 
K           0.323361000000000    0.161681000000000    0.673895000000000 
K           0.487530000000000    0.512472000000000    0.475086000000000 
K           0.487530000000000    0.975059000000000    0.475086000000000 
K           0.512472000000000    0.024943000000000    0.975086000000000 
K           0.512472000000000    0.487530000000000    0.975086000000000 
K           0.676641000000000    0.838321000000000    0.173895000000000 
K           0.721439000000000    0.860720000000000    0.628575000000000 
K           0.838321000000000    0.161681000000000    0.673895000000000 
K           0.838321000000000    0.676641000000000    0.673895000000000 
K           0.860720000000000    0.139282000000000    0.128575000000000 
K           0.860720000000000    0.721439000000000    0.128575000000000 
K           0.975059000000000    0.487530000000000    0.975086000000000 
%ENDBLOCK POSITIONS_FRAC
