# Cell file generated by matador (Matthew Evans 2016)

%BLOCK LATTICE_CART
10.0811 0.0 0.0
-5.04055 8.73049 0.0
0.0 0.0 9.65562
%ENDBLOCK LATTICE_CART

%BLOCK POSITIONS_FRAC
P           0.000000000000000    0.000000000000000    0.138091000000000 
P           0.000000000000000    0.000000000000000    0.638091000000000 
P           0.333333000000000    0.666667000000000    0.194790000000000 
P           0.333333000000000    0.666667000000000    0.882513000000000 
P           0.666667000000000    0.333333000000000    0.382513000000000 
P           0.666667000000000    0.333333000000000    0.694790000000000 
K           0.066303000000000    0.533151000000000    0.690071000000000 
K           0.100996000000000    0.201992000000000    0.867445000000000 
K           0.100996000000000    0.899004000000000    0.867445000000000 
K           0.201992000000000    0.100996000000000    0.367445000000000 
K           0.204911000000000    0.409821000000000    0.212526000000000 
K           0.204911000000000    0.795089000000000    0.212526000000000 
K           0.409821000000000    0.204911000000000    0.712526000000000 
K           0.466849000000000    0.533151000000000    0.690071000000000 
K           0.466849000000000    0.933697000000000    0.690071000000000 
K           0.533151000000000    0.066303000000000    0.190071000000000 
K           0.533151000000000    0.466849000000000    0.190071000000000 
K           0.590179000000000    0.795089000000000    0.212526000000000 
K           0.795089000000000    0.204911000000000    0.712526000000000 
K           0.795089000000000    0.590179000000000    0.712526000000000 
K           0.798008000000000    0.899004000000000    0.867445000000000 
K           0.899004000000000    0.100996000000000    0.367445000000000 
K           0.899004000000000    0.798008000000000    0.367445000000000 
K           0.933697000000000    0.466849000000000    0.190071000000000 
%ENDBLOCK POSITIONS_FRAC
