# Cell file generated by matador (Matthew Evans 2016)

%BLOCK LATTICE_CART
7.86773 0.0 0.0
0.0 5.17671 0.0
-3.04057 0.0 9.80684
%ENDBLOCK LATTICE_CART

%BLOCK POSITIONS_FRAC
P           0.017195000000000    0.649119000000000    0.816386000000000 
P           0.017195000000000    0.850881000000000    0.316386000000000 
P           0.032936000000000    0.585037000000000    0.662989000000000 
P           0.032936000000000    0.914963000000000    0.162989000000000 
P           0.044268000000000    0.002452000000000    0.771943000000000 
P           0.044268000000000    0.497548000000000    0.271943000000000 
P           0.955731000000000    0.502452000000000    0.728057000000000 
P           0.955731000000000    0.997548000000000    0.228057000000000 
P           0.967064000000000    0.085037000000000    0.837011000000000 
P           0.967064000000000    0.414963000000000    0.337011000000000 
P           0.982805000000000    0.149119000000000    0.683614000000000 
P           0.982805000000000    0.350881000000000    0.183614000000000 
K           0.302023000000000    0.241961000000000    0.999254000000000 
K           0.302023000000000    0.258039000000000    0.499254000000000 
K           0.500000000000000    0.000000000000000   -0.000000000000000 
K           0.500000000000000    0.500000000000000    0.500000000000000 
K           0.697977000000000    0.741961000000000    0.500746000000000 
K           0.697977000000000    0.758039000000000    0.000746000000000 
%ENDBLOCK POSITIONS_FRAC
