# Cell file generated by matador (Matthew Evans 2016)

%BLOCK LATTICE_CART
4.53771 0.0 0.0
0.0 6.77314 0.0
-1.14305 0.0 8.45837
%ENDBLOCK LATTICE_CART

%BLOCK POSITIONS_FRAC
P          -0.000000000000000    0.102280000000000    0.500000000000000 
P          -0.000000000000000    0.555669000000000    0.000000000000000 
P           0.483890000000000    0.163058000000000    0.416827000000000 
P           0.500000000000000    0.580802000000000    0.500000000000000 
P           0.516110000000000    0.163058000000000    0.583173000000000 
K           0.321451000000000    0.409510000000000    0.211217000000000 
K           0.500000000000000    0.206968000000000    0.000000000000000 
K           0.500000000000000    0.886628000000000    0.500000000000000 
K           0.678549000000000    0.409510000000000    0.788783000000000 
%ENDBLOCK POSITIONS_FRAC
