# Cell file generated by matador (Matthew Evans 2016)

%BLOCK LATTICE_CART
6.72297 0.0 0.0
-3.36149 5.82226 0.0
0.0 0.0 11.4945
%ENDBLOCK LATTICE_CART

%BLOCK POSITIONS_FRAC
P           0.000000000000000    0.000000000000000    0.500000000000000 
P           0.169818000000000    0.339636000000000    0.000000000000000 
P           0.169818000000000    0.830182000000000    0.000000000000000 
P           0.660364000000000    0.830182000000000    0.000000000000000 
K           0.000000000000000    0.000000000000000    0.000000000000000 
K           0.187812000000000    0.375623000000000    0.395326000000000 
K           0.187812000000000    0.375623000000000    0.604674000000000 
K           0.187812000000000    0.812188000000000    0.395326000000000 
K           0.187812000000000    0.812188000000000    0.604674000000000 
K           0.333333000000000    0.666667000000000    0.500000000000000 
K           0.624377000000000    0.812188000000000    0.395326000000000 
K           0.624377000000000    0.812188000000000    0.604674000000000 
K           0.666667000000000    0.333333000000000    0.000000000000000 
K           0.666667000000000    0.333333000000000    0.500000000000000 
%ENDBLOCK POSITIONS_FRAC
