# Cell file generated by matador (Matthew Evans 2016)

%BLOCK LATTICE_CART
8.5212 0.0 0.0
0.0 8.41841 0.0
-0.0588419 0.0 5.38957
%ENDBLOCK LATTICE_CART

%BLOCK POSITIONS_FRAC
P           0.000000000000000    0.000000000000000    0.000000000000000 
P           0.000000000000000    0.000000000000000    0.500000000000000 
P           0.000000000000000    0.500000000000000    0.000000000000000 
P           0.000000000000000    0.500000000000000    0.500000000000000 
P           0.367668000000000    0.250000000000000    0.823158000000000 
P           0.381974000000000    0.750000000000000    0.028764000000000 
P           0.462990000000000    0.750000000000000    0.823297000000000 
P           0.500000000000000    0.000000000000000    0.000000000000000 
P           0.500000000000000    0.000000000000000    0.500000000000000 
P           0.500000000000000    0.500000000000000    0.000000000000000 
P           0.500000000000000    0.500000000000000    0.500000000000000 
P           0.537010000000000    0.250000000000000    0.176703000000000 
P           0.618026000000000    0.250000000000000    0.971236000000000 
P           0.632332000000000    0.750000000000000    0.176842000000000 
K           0.080352000000000    0.750000000000000    0.448988000000000 
K           0.171328000000000    0.250000000000000    0.294136000000000 
K           0.828672000000000    0.750000000000000    0.705864000000000 
K           0.919648000000000    0.250000000000000    0.551012000000000 
%ENDBLOCK POSITIONS_FRAC
