# Cell file generated by matador (Matthew Evans 2016)

%BLOCK LATTICE_CART
7.48705 0.0 0.0
-3.74352 6.48397 0.0
0.0 0.0 7.44124
%ENDBLOCK LATTICE_CART

%BLOCK POSITIONS_FRAC
P           0.156336000000000    0.578168000000000    0.750000000000000 
P           0.421834000000000    0.578168000000000    0.750000000000000 
P           0.421834000000000    0.843666000000000    0.750000000000000 
P           0.578168000000000    0.156336000000000    0.250000000000000 
P           0.578168000000000    0.421834000000000    0.250000000000000 
P           0.843666000000000    0.421834000000000    0.250000000000000 
K           0.000001000000000    0.361145000000000    0.500000000000000 
K           0.000001000000000    0.638857000000000   -0.000000000000000 
K           0.333334000000000    0.666668000000000    0.250000000000000 
K           0.361145000000000    0.000001000000000    0.500000000000000 
K           0.361145000000000    0.361145000000000   -0.000000000000000 
K           0.638857000000000    0.000001000000000   -0.000000000000000 
K           0.638857000000000    0.638857000000000    0.500000000000000 
K           0.666668000000000    0.333334000000000    0.750000000000000 
%ENDBLOCK POSITIONS_FRAC
