# Cell file generated by matador (Matthew Evans 2016)

%BLOCK LATTICE_CART
7.49617 0.0 0.0
0.0 7.49617 0.0
0.0 0.0 7.38409
%ENDBLOCK LATTICE_CART

%BLOCK POSITIONS_FRAC
P           0.000000000000000    0.230040000000000    0.312266000000000 
P           0.000000000000000    0.769960000000000    0.312266000000000 
P           0.230040000000000    0.000000000000000    0.812266000000000 
P           0.500000000000000    0.500000000000000    0.180900000000000 
P           0.500000000000000    0.500000000000000    0.680900000000000 
P           0.769960000000000    0.000000000000000    0.812266000000000 
K           0.000000000000000    0.500000000000000    0.092401000000000 
K           0.000000000000000    0.500000000000000    0.441778000000000 
K           0.187588000000000    0.500000000000000    0.897967000000000 
K           0.500000000000000    0.000000000000000    0.592401000000000 
K           0.500000000000000    0.000000000000000    0.941778000000000 
K           0.500000000000000    0.187588000000000    0.397967000000000 
K           0.500000000000000    0.812412000000000    0.397967000000000 
K           0.812412000000000    0.500000000000000    0.897967000000000 
%ENDBLOCK POSITIONS_FRAC
