# Cell file generated by matador (Matthew Evans 2016)

%BLOCK LATTICE_CART
8.54095 0.0 0.0
-4.27048 7.39668 0.0
0.0 0.0 6.70711
%ENDBLOCK LATTICE_CART

%BLOCK POSITIONS_FRAC
P           0.062518000000000    0.261069000000000    0.490798000000000 
P           0.062518000000000    0.801449000000000    0.509202000000000 
P           0.198551000000000    0.261069000000000    0.509202000000000 
P           0.198551000000000    0.937482000000000    0.490798000000000 
P           0.666667000000000    0.333333000000000    0.000000000000000 
P           0.666667000000000    0.333333000000000    0.200531000000000 
P           0.666667000000000    0.333333000000000    0.799469000000000 
P           0.738931000000000    0.801449000000000    0.490798000000000 
P           0.738931000000000    0.937482000000000    0.509202000000000 
K           0.000000000000000    0.000000000000000    0.500000000000000 
K           0.333333000000000    0.666667000000000    0.500000000000000 
K           0.396276000000000    0.198138000000000    0.500000000000000 
K           0.666667000000000    0.333333000000000    0.500000000000000 
K           0.801862000000000    0.198138000000000    0.500000000000000 
K           0.801862000000000    0.603724000000000    0.500000000000000 
%ENDBLOCK POSITIONS_FRAC
