# Cell file generated by matador (Matthew Evans 2016)

%BLOCK LATTICE_CART
7.20219 0.0 0.0
-3.6011 6.23728 0.0
0.0 0.0 10.0444
%ENDBLOCK LATTICE_CART

%BLOCK POSITIONS_FRAC
P           0.055665000000000    0.145895000000000    0.204832000000000 
P           0.090230000000000    0.944335000000000    0.204832000000000 
P           0.187439000000000    0.576437000000000    0.871498000000000 
P           0.388998000000000    0.812561000000000    0.871498000000000 
P           0.423563000000000    0.611002000000000    0.871498000000000 
P           0.520772000000000    0.243103000000000    0.538165000000000 
P           0.722331000000000    0.479228000000000    0.538165000000000 
P           0.756897000000000    0.277669000000000    0.538165000000000 
P           0.854105000000000    0.909770000000000    0.204832000000000 
K          -0.000000000000000   -0.000000000000000    0.761432000000000 
K          -0.000000000000000   -0.000000000000000    0.993792000000000 
K           0.333333000000000    0.666667000000000    0.428099000000000 
K           0.333333000000000    0.666667000000000    0.660458000000000 
K           0.666667000000000    0.333333000000000    0.094766000000000 
K           0.666667000000000    0.333333000000000    0.327125000000000 
%ENDBLOCK POSITIONS_FRAC
