# Cell file generated by matador (Matthew Evans 2016)

%BLOCK LATTICE_CART
9.38179 0.0 0.0
-4.6909 8.12487 0.0
0.0 0.0 6.41989
%ENDBLOCK LATTICE_CART

%BLOCK POSITIONS_FRAC
P           0.000000000000000    0.000000000000000    0.602017000000000 
P           0.333333000000000    0.666667000000000    0.268683000000000 
P           0.666667000000000    0.333333000000000    0.935350000000000 
K           0.012517000000000    0.506258000000000    0.311805000000000 
K           0.160408000000000    0.320817000000000    0.645138000000000 
K           0.160408000000000    0.839592000000000    0.645138000000000 
K           0.345850000000000    0.172925000000000    0.978471000000000 
K           0.493742000000000    0.506258000000000    0.311805000000000 
K           0.493742000000000    0.987483000000000    0.311805000000000 
K           0.679183000000000    0.839592000000000    0.645138000000000 
K           0.827075000000000    0.172925000000000    0.978471000000000 
K           0.827075000000000    0.654150000000000    0.978471000000000 
%ENDBLOCK POSITIONS_FRAC
