# Cell file generated by matador (Matthew Evans 2016)

%BLOCK LATTICE_CART
8.1409 -0.0 0.0
-4.07045 7.05023 0.0
0.0 0.0 7.54996
%ENDBLOCK LATTICE_CART

%BLOCK POSITIONS_FRAC
P           0.600625000000000    0.360637000000000    0.651044000000000 
P           0.639363000000000    0.239989000000000    0.651044000000000 
P           0.666666000000000    0.333334000000000    0.196837000000000 
P           0.760011000000000    0.399375000000000    0.651044000000000 
K          -0.000000000000000    0.000000000000000    0.826885000000000 
K           0.051451000000000    0.576915000000000    0.186376000000000 
K           0.051755000000000    0.855316000000000    0.565332000000000 
K           0.144684000000000    0.196439000000000    0.565332000000000 
K           0.423085000000000    0.474536000000000    0.186376000000000 
K           0.525464000000000    0.948549000000000    0.186376000000000 
K           0.803561000000000    0.948245000000000    0.565332000000000 
%ENDBLOCK POSITIONS_FRAC
