# Cell file generated by matador (Matthew Evans 2016)

%BLOCK LATTICE_CART
8.7077 0.0 0.0
0.0 6.40035 0.0
0.0 0.0 10.6549
%ENDBLOCK LATTICE_CART

%BLOCK POSITIONS_FRAC
P           0.449533000000000    0.400505000000000    0.217364000000000 
P           0.449533000000000    0.599495000000000    0.782636000000000 
P           0.550467000000000    0.400505000000000    0.282636000000000 
P           0.550467000000000    0.599495000000000    0.717364000000000 
K           0.050227000000000    0.500000000000000    0.000000000000000 
K           0.229086000000000    0.345547000000000    0.360734000000000 
K           0.229086000000000    0.654453000000000    0.639266000000000 
K           0.342621000000000    0.500000000000000    0.500000000000000 
K           0.438819000000000    0.099376000000000    0.604081000000000 
K           0.438819000000000    0.900624000000000    0.395919000000000 
K           0.561181000000000    0.099376000000000    0.895919000000000 
K           0.561181000000000    0.900624000000000    0.104081000000000 
K           0.657379000000000    0.500000000000000    0.000000000000000 
K           0.770914000000000    0.345547000000000    0.139266000000000 
K           0.770914000000000    0.654453000000000    0.860734000000000 
K           0.949773000000000    0.500000000000000    0.500000000000000 
%ENDBLOCK POSITIONS_FRAC
