# Cell file generated by matador (Matthew Evans 2016)

%BLOCK LATTICE_CART
9.10975 0.0 0.0
0.0 9.10975 0.0
0.0 0.0 5.11135
%ENDBLOCK LATTICE_CART

%BLOCK POSITIONS_FRAC
P           0.500000000000000    0.500000000000000    0.250000000000000 
P           0.500000000000000    0.500000000000000    0.750000000000000 
K           0.000000000000000    0.000000000000000    0.000000000000000 
K           0.000000000000000    0.000000000000000    0.500000000000000 
K           0.000000000000000    0.232300000000000    0.280234000000000 
K           0.000000000000000    0.232300000000000    0.719766000000000 
K           0.000000000000000    0.500000000000000    0.000000000000000 
K           0.000000000000000    0.767700000000000    0.280234000000000 
K           0.000000000000000    0.767700000000000    0.719766000000000 
K           0.232300000000000    0.000000000000000    0.219766000000000 
K           0.232300000000000    0.000000000000000    0.780234000000000 
K           0.500000000000000    0.000000000000000    0.500000000000000 
K           0.767700000000000    0.000000000000000    0.219766000000000 
K           0.767700000000000    0.000000000000000    0.780234000000000 
%ENDBLOCK POSITIONS_FRAC
