# Cell file generated by matador (Matthew Evans 2016)

%BLOCK LATTICE_CART
7.04717 0.0 0.0
0.0 7.04717 0.0
0.0 0.0 6.52858
%ENDBLOCK LATTICE_CART

%BLOCK POSITIONS_FRAC
P           0.222884000000000    0.222884000000000    0.250000000000000 
P           0.222884000000000    0.222884000000000    0.750000000000000 
P           0.222884000000000    0.777116000000000    0.250000000000000 
P           0.222884000000000    0.777116000000000    0.750000000000000 
P           0.777116000000000    0.222884000000000    0.250000000000000 
P           0.777116000000000    0.222884000000000    0.750000000000000 
P           0.777116000000000    0.777116000000000    0.250000000000000 
P           0.777116000000000    0.777116000000000    0.750000000000000 
K           0.000000000000000    0.500000000000000    0.000000000000000 
K           0.000000000000000    0.500000000000000    0.500000000000000 
K           0.500000000000000    0.000000000000000    0.000000000000000 
K           0.500000000000000    0.000000000000000    0.500000000000000 
K           0.500000000000000    0.500000000000000    0.250000000000000 
K           0.500000000000000    0.500000000000000    0.750000000000000 
%ENDBLOCK POSITIONS_FRAC
