# Cell file generated by matador (Matthew Evans 2016)

%BLOCK LATTICE_CART
9.89901 0.0 0.0
-4.9495 8.57279 0.0
0.0 0.0 6.85337
%ENDBLOCK LATTICE_CART

%BLOCK POSITIONS_FRAC
P           0.290615000000000    0.590039000000000    0.569714000000000 
P           0.290615000000000    0.700576000000000    0.069714000000000 
P           0.299424000000000    0.590039000000000    0.069714000000000 
P           0.299424000000000    0.709385000000000    0.569714000000000 
P           0.409961000000000    0.700576000000000    0.569714000000000 
P           0.409961000000000    0.709385000000000    0.069714000000000 
P           0.590039000000000    0.290615000000000    0.930286000000000 
P           0.590039000000000    0.299424000000000    0.430286000000000 
P           0.700576000000000    0.290615000000000    0.430286000000000 
P           0.700576000000000    0.409961000000000    0.930286000000000 
P           0.709385000000000    0.299424000000000    0.930286000000000 
P           0.709385000000000    0.409961000000000    0.430286000000000 
K           0.000000000000000    0.000000000000000    0.250000000000000 
K           0.000000000000000    0.000000000000000    0.750000000000000 
K           0.000000000000000    0.225173000000000    0.250000000000000 
K           0.000000000000000    0.774827000000000    0.750000000000000 
K           0.225173000000000    0.000000000000000    0.250000000000000 
K           0.225173000000000    0.225173000000000    0.750000000000000 
K           0.774827000000000    0.000000000000000    0.750000000000000 
K           0.774827000000000    0.774827000000000    0.250000000000000 
%ENDBLOCK POSITIONS_FRAC
