# Cell file generated by matador (Matthew Evans 2016)

%BLOCK LATTICE_CART
8.15843 0.0 0.0
0.0 8.15843 0.0
0.0 0.0 10.5422
%ENDBLOCK LATTICE_CART

%BLOCK POSITIONS_FRAC
P           0.000000000000000    0.000000000000000    0.310287000000000 
P           0.000000000000000    0.000000000000000    0.689713000000000 
P           0.500000000000000    0.500000000000000    0.310287000000000 
P           0.500000000000000    0.500000000000000    0.689713000000000 
K           0.000000000000000    0.000000000000000    0.500000000000000 
K           0.156514000000000    0.343486000000000    0.673731000000000 
K           0.156514000000000    0.656514000000000    0.673731000000000 
K           0.250000000000000    0.250000000000000    0.500000000000000 
K           0.250000000000000    0.750000000000000    0.500000000000000 
K           0.343486000000000    0.156514000000000    0.326269000000000 
K           0.343486000000000    0.843486000000000    0.326269000000000 
K           0.500000000000000    0.500000000000000    0.500000000000000 
K           0.656514000000000    0.156514000000000    0.326269000000000 
K           0.656514000000000    0.843486000000000    0.326269000000000 
K           0.750000000000000    0.250000000000000    0.500000000000000 
K           0.750000000000000    0.750000000000000    0.500000000000000 
K           0.843486000000000    0.343486000000000    0.673731000000000 
K           0.843486000000000    0.656514000000000    0.673731000000000 
%ENDBLOCK POSITIONS_FRAC
