# Cell file generated by matador (Matthew Evans 2016)

%BLOCK LATTICE_CART
11.3357 0.0 0.0
0.0 13.1308 0.0
0.0 0.0 9.29882
%ENDBLOCK LATTICE_CART

%BLOCK POSITIONS_FRAC
P           0.000000000000000    0.338179000000000    0.923018000000000 
P           0.000000000000000    0.352116000000000    0.179591000000000 
P           0.000000000000000    0.647884000000000    0.179591000000000 
P           0.000000000000000    0.661821000000000    0.923018000000000 
P           0.500000000000000    0.147884000000000    0.179591000000000 
P           0.500000000000000    0.161821000000000    0.923018000000000 
P           0.500000000000000    0.838179000000000    0.923018000000000 
P           0.500000000000000    0.852116000000000    0.179591000000000 
K           0.000000000000000    0.124292000000000    0.401703000000000 
K           0.000000000000000    0.128459000000000    0.763314000000000 
K           0.000000000000000    0.377818000000000    0.593293000000000 
K           0.000000000000000    0.622182000000000    0.593293000000000 
K           0.000000000000000    0.871541000000000    0.763314000000000 
K           0.000000000000000    0.875708000000000    0.401703000000000 
K           0.208882000000000    0.000000000000000    0.124456000000000 
K           0.246372000000000    0.000000000000000    0.446336000000000 
K           0.250000000000000    0.250000000000000    0.038819000000000 
K           0.250000000000000    0.750000000000000    0.038819000000000 
K           0.253628000000000    0.500000000000000    0.446336000000000 
K           0.291118000000000    0.500000000000000    0.124456000000000 
K           0.500000000000000    0.122182000000000    0.593293000000000 
K           0.500000000000000    0.371541000000000    0.763314000000000 
K           0.500000000000000    0.375708000000000    0.401703000000000 
K           0.500000000000000    0.624292000000000    0.401703000000000 
K           0.500000000000000    0.628459000000000    0.763314000000000 
K           0.500000000000000    0.877818000000000    0.593293000000000 
K           0.708882000000000    0.500000000000000    0.124456000000000 
K           0.746372000000000    0.500000000000000    0.446336000000000 
K           0.750000000000000    0.250000000000000    0.038819000000000 
K           0.750000000000000    0.750000000000000    0.038819000000000 
K           0.753628000000000    0.000000000000000    0.446336000000000 
K           0.791118000000000    0.000000000000000    0.124456000000000 
%ENDBLOCK POSITIONS_FRAC
