# Cell file generated by matador (Matthew Evans 2016)

%BLOCK LATTICE_CART
5.61842 0.0 0.0
0.0 5.20579 0.0
4.04294 0.0 9.09684
%ENDBLOCK LATTICE_CART

%BLOCK POSITIONS_FRAC
P           0.000000000000000    0.920945000000000    0.500000000000000 
K           0.000000000000000    0.165979000000000    0.000000000000000 
K           0.132384000000000    0.409666000000000    0.173917000000000 
K           0.443298000000000    0.766501000000000    0.786331000000000 
K           0.556702000000000    0.766501000000000    0.213669000000000 
K           0.867616000000000    0.409666000000000    0.826083000000000 
%ENDBLOCK POSITIONS_FRAC
