# Cell file generated by matador (Matthew Evans 2016)

%BLOCK LATTICE_CART
9.61201 0.0 0.0
-4.806 8.32424 0.0
0.0 0.0 11.6223
%ENDBLOCK LATTICE_CART

%BLOCK POSITIONS_FRAC
P           0.000000000000000    0.000000000000000    0.283260000000000 
P           0.000000000000000    0.000000000000000    0.659878000000000 
P           0.333333000000000    0.666667000000000    0.326545000000000 
P           0.333333000000000    0.666667000000000    0.949927000000000 
P           0.666667000000000    0.333333000000000    0.616594000000000 
P           0.666667000000000    0.333333000000000    0.993212000000000 
K           0.169151000000000    0.338302000000000    0.790885000000000 
K           0.169151000000000    0.830849000000000    0.790885000000000 
K           0.204192000000000    0.408383000000000    0.107563000000000 
K           0.204192000000000    0.795808000000000    0.107563000000000 
K           0.258283000000000    0.129142000000000    0.440897000000000 
K           0.328364000000000    0.164182000000000    0.124218000000000 
K           0.502485000000000    0.004969000000000    0.457552000000000 
K           0.502485000000000    0.497515000000000    0.457552000000000 
K           0.537525000000000    0.075050000000000    0.774230000000000 
K           0.537525000000000    0.462475000000000    0.774230000000000 
K           0.591617000000000    0.795808000000000    0.107563000000000 
K           0.661698000000000    0.830849000000000    0.790885000000000 
K           0.835818000000000    0.164182000000000    0.124218000000000 
K           0.835818000000000    0.671636000000000    0.124218000000000 
K           0.870858000000000    0.129142000000000    0.440897000000000 
K           0.870858000000000    0.741717000000000    0.440897000000000 
K           0.924950000000000    0.462475000000000    0.774230000000000 
K           0.995031000000000    0.497515000000000    0.457552000000000 
%ENDBLOCK POSITIONS_FRAC
