# Cell file generated by matador (Matthew Evans 2016)

%BLOCK LATTICE_CART
7.6143 0.0 0.0
-3.80715 6.59417 0.0
0.0 0.0 9.16912
%ENDBLOCK LATTICE_CART

%BLOCK POSITIONS_FRAC
P           0.096454000000000    0.231972000000000    0.052136000000000 
P           0.096454000000000    0.864482000000000    0.947864000000000 
P           0.135518000000000    0.231972000000000    0.614531000000000 
P           0.135518000000000    0.903546000000000    0.385469000000000 
P           0.768028000000000    0.864482000000000    0.718802000000000 
P           0.768028000000000    0.903546000000000    0.281198000000000 
K           0.214346000000000    0.428692000000000    0.833333000000000 
K           0.214346000000000    0.785654000000000    0.166667000000000 
K           0.291428000000000    0.045269000000000    0.615247000000000 
K           0.291428000000000    0.246159000000000    0.384753000000000 
K           0.571308000000000    0.785654000000000    0.500000000000000 
K           0.753841000000000    0.045269000000000    0.051420000000000 
K           0.753841000000000    0.708572000000000    0.948580000000000 
K           0.954731000000000    0.246159000000000    0.281914000000000 
K           0.954731000000000    0.708572000000000    0.718086000000000 
%ENDBLOCK POSITIONS_FRAC
