# Cell file generated by matador (Matthew Evans 2016)

%BLOCK LATTICE_CART
7.44603 0.0 0.0
0.0 7.44603 0.0
0.0 0.0 6.74382
%ENDBLOCK LATTICE_CART

%BLOCK POSITIONS_FRAC
P           0.000000000000000    0.000000000000000    0.296568000000000 
P           0.000000000000000    0.000000000000000    0.703432000000000 
P           0.000000000000000    0.500000000000000    0.500000000000000 
P           0.500000000000000    0.000000000000000    0.500000000000000 
P           0.500000000000000    0.500000000000000    0.258842000000000 
P           0.500000000000000    0.500000000000000    0.500000000000000 
P           0.500000000000000    0.500000000000000    0.741158000000000 
K           0.000000000000000    0.000000000000000    0.000000000000000 
K           0.247414000000000    0.465154000000000    0.000000000000000 
K           0.465154000000000    0.752586000000000    0.000000000000000 
K           0.534846000000000    0.247414000000000    0.000000000000000 
K           0.752586000000000    0.534846000000000    0.000000000000000 
%ENDBLOCK POSITIONS_FRAC
