# Cell file generated by matador (Matthew Evans 2016)

%BLOCK LATTICE_CART
7.24205 0.0 0.0
0.0 7.24205 0.0
0.0 0.0 7.08301
%ENDBLOCK LATTICE_CART

%BLOCK POSITIONS_FRAC
P           0.000000000000000    0.500000000000000    0.502884000000000 
P           0.000000000000000    0.500000000000000    0.997116000000000 
P           0.361918000000000    0.500000000000000    0.250000000000000 
P           0.500000000000000    0.000000000000000    0.002884000000000 
P           0.500000000000000    0.000000000000000    0.497116000000000 
P           0.500000000000000    0.361918000000000    0.750000000000000 
P           0.500000000000000    0.500000000000000    0.250000000000000 
P           0.500000000000000    0.500000000000000    0.750000000000000 
P           0.500000000000000    0.638082000000000    0.750000000000000 
P           0.638082000000000    0.500000000000000    0.250000000000000 
K           0.000000000000000    0.000000000000000    0.250000000000000 
K           0.000000000000000    0.000000000000000    0.750000000000000 
%ENDBLOCK POSITIONS_FRAC
