# Cell file generated by matador (Matthew Evans 2016)

%BLOCK LATTICE_CART
8.08021 0.0 0.0
-4.04011 6.99767 0.0
0.0 0.0 7.27816
%ENDBLOCK LATTICE_CART

%BLOCK POSITIONS_FRAC
P           0.003336000000000    0.439292000000000    0.366694000000000 
P           0.102623000000000    0.329997000000000    0.700027000000000 
P           0.227374000000000    0.897377000000000    0.700027000000000 
P           0.336669000000000    0.105959000000000    0.033360000000000 
P           0.435956000000000    0.996664000000000    0.366694000000000 
P           0.560708000000000    0.564044000000000    0.366694000000000 
P           0.670003000000000    0.772626000000000    0.700027000000000 
P           0.769290000000000    0.663331000000000    0.033360000000000 
P           0.894041000000000    0.230710000000000    0.033360000000000 
K           0.000000000000000   -0.000000000000000    0.063510000000000 
K           0.000000000000000   -0.000000000000000    0.445395000000000 
K           0.333333000000000    0.666667000000000    0.112062000000000 
K           0.333333000000000    0.666667000000000    0.730177000000000 
K           0.666667000000000    0.333333000000000    0.396844000000000 
K           0.666667000000000    0.333333000000000    0.778728000000000 
%ENDBLOCK POSITIONS_FRAC
