# Cell file generated by matador (Matthew Evans 2016)

%BLOCK LATTICE_CART
7.15237 0.0 0.0
-3.57619 6.19414 0.0
0.0 0.0 9.36806
%ENDBLOCK LATTICE_CART

%BLOCK POSITIONS_FRAC
P           0.012299000000000    0.803956000000000    0.392852000000000 
P           0.124990000000000    0.654367000000000    0.059519000000000 
P           0.196044000000000    0.208343000000000    0.392852000000000 
P           0.345633000000000    0.470623000000000    0.059519000000000 
P           0.458324000000000    0.321034000000000    0.726186000000000 
P           0.529377000000000    0.875010000000000    0.059519000000000 
P           0.678966000000000    0.137290000000000    0.726186000000000 
P           0.791657000000000    0.987701000000000    0.392852000000000 
P           0.862710000000000    0.541676000000000    0.726186000000000 
K           0.000000000000000    0.000000000000000    0.069153000000000 
K           0.000000000000000    0.000000000000000    0.636326000000000 
K           0.333333000000000    0.666667000000000    0.302993000000000 
K           0.333333000000000    0.666667000000000    0.735820000000000 
K           0.666667000000000    0.333333000000000    0.402487000000000 
K           0.666667000000000    0.333333000000000    0.969659000000000 
%ENDBLOCK POSITIONS_FRAC
