# Cell file generated by matador (Matthew Evans 2016)

%BLOCK LATTICE_CART
6.97808 0.0 0.0
-3.48904 6.0432 0.0
0.0 0.0 9.02235
%ENDBLOCK LATTICE_CART

%BLOCK POSITIONS_FRAC
P           0.000000000000000    0.000000000000000    0.135941000000000 
P           0.000000000000000    0.000000000000000    0.471986000000000 
P           0.000000000000000    0.000000000000000    0.635941000000000 
P           0.000000000000000    0.000000000000000    0.971986000000000 
K           0.000000000000000    0.352351000000000    0.789507000000000 
K           0.000000000000000    0.647649000000000    0.289507000000000 
K           0.333333000000000    0.666667000000000    0.396173000000000 
K           0.333333000000000    0.666667000000000    0.896173000000000 
K           0.352351000000000    0.000000000000000    0.789507000000000 
K           0.352351000000000    0.352351000000000    0.289507000000000 
K           0.647649000000000    0.000000000000000    0.289507000000000 
K           0.647649000000000    0.647649000000000    0.789507000000000 
K           0.666667000000000    0.333333000000000    0.396173000000000 
K           0.666667000000000    0.333333000000000    0.896173000000000 
%ENDBLOCK POSITIONS_FRAC
