# Cell file generated by matador (Matthew Evans 2016)

%BLOCK LATTICE_CART
6.90991 0.0 0.0
0.0 6.90991 0.0
0.0 0.0 6.90991
%ENDBLOCK LATTICE_CART

%BLOCK POSITIONS_FRAC
P           0.355153000000000    0.355153000000000    0.644847000000000 
P           0.355153000000000    0.644847000000000    0.355153000000000 
P           0.382190000000000    0.382190000000000    0.382190000000000 
P           0.382190000000000    0.617810000000000    0.617810000000000 
P           0.617810000000000    0.382190000000000    0.617810000000000 
P           0.617810000000000    0.617810000000000    0.382190000000000 
P           0.644847000000000    0.355153000000000    0.355153000000000 
P           0.644847000000000    0.644847000000000    0.644847000000000 
K           0.000000000000000    0.000000000000000    0.500000000000000 
K           0.000000000000000    0.500000000000000    0.000000000000000 
K           0.000000000000000    0.500000000000000    0.500000000000000 
K           0.500000000000000    0.000000000000000    0.000000000000000 
K           0.500000000000000    0.000000000000000    0.500000000000000 
K           0.500000000000000    0.500000000000000    0.000000000000000 
%ENDBLOCK POSITIONS_FRAC
