# Cell file generated by matador (Matthew Evans 2016)

%BLOCK LATTICE_CART
7.69179 0.0 0.0
0.0 6.53461 0.0
0.0 0.0 7.53781
%ENDBLOCK LATTICE_CART

%BLOCK POSITIONS_FRAC
P           0.000000000000000   -0.000000000000000    0.459977000000000 
P           0.000000000000000   -0.000000000000000    0.598771000000000 
P           0.000000000000000    0.500000000000000    0.793252000000000 
P           0.500000000000000   -0.000000000000000    0.793252000000000 
P           0.500000000000000    0.500000000000000    0.459977000000000 
P           0.500000000000000    0.500000000000000    0.598771000000000 
K           0.000000000000000    0.500000000000000    0.525598000000000 
K           0.137721000000000    0.425139000000000    0.156589000000000 
K           0.362279000000000    0.925139000000000    0.156589000000000 
K           0.500000000000000   -0.000000000000000    0.525598000000000 
K           0.637721000000000    0.074861000000000    0.156589000000000 
K           0.862279000000000    0.574861000000000    0.156589000000000 
%ENDBLOCK POSITIONS_FRAC
