# Cell file generated by matador (Matthew Evans 2016)

%BLOCK LATTICE_CART
6.47025 0.0 0.0
-3.23512 5.6034 0.0
0.0 0.0 7.4165
%ENDBLOCK LATTICE_CART

%BLOCK POSITIONS_FRAC
P           0.000000000000000    0.000000000000000    0.910808000000000 
P           0.000000000000000    0.500000000000000    0.176769000000000 
P           0.000000000000000    0.500000000000000    0.391699000000000 
P           0.500000000000000    0.000000000000000    0.176769000000000 
P           0.500000000000000    0.000000000000000    0.391699000000000 
P           0.500000000000000    0.500000000000000    0.176769000000000 
P           0.500000000000000    0.500000000000000    0.391699000000000 
K           0.000000000000000    0.000000000000000    0.587385000000000 
K           0.333333000000000    0.666667000000000    0.711683000000000 
K           0.666667000000000    0.333333000000000    0.711683000000000 
%ENDBLOCK POSITIONS_FRAC
