# Cell file generated by matador (Matthew Evans 2016)

%BLOCK LATTICE_CART
7.38591 0.0 0.0
0.0 7.38591 0.0
0.0 0.0 7.69513
%ENDBLOCK LATTICE_CART

%BLOCK POSITIONS_FRAC
P           0.000000000000000    0.000000000000000    0.000000000000000 
P           0.500000000000000    0.500000000000000    0.500000000000000 
K           0.000000000000000    0.240030000000000    0.202068000000000 
K           0.000000000000000    0.500000000000000    0.352805000000000 
K           0.000000000000000    0.500000000000000    0.852805000000000 
K           0.000000000000000    0.759970000000000    0.202068000000000 
K           0.240030000000000    0.000000000000000    0.797932000000000 
K           0.259970000000000    0.500000000000000    0.702068000000000 
K           0.500000000000000    0.000000000000000    0.147195000000000 
K           0.500000000000000    0.000000000000000    0.647195000000000 
K           0.500000000000000    0.259970000000000    0.297932000000000 
K           0.500000000000000    0.740030000000000    0.297932000000000 
K           0.740030000000000    0.500000000000000    0.702068000000000 
K           0.759970000000000    0.000000000000000    0.797932000000000 
%ENDBLOCK POSITIONS_FRAC
