# Cell file generated by matador (Matthew Evans 2016)

%BLOCK LATTICE_CART
7.61602 0.0 0.0
0.0 7.61602 0.0
0.0 0.0 10.8017
%ENDBLOCK LATTICE_CART

%BLOCK POSITIONS_FRAC
P          -0.000000000000000    0.500000000000000    0.008605000000000 
P          -0.000000000000000    0.500000000000000    0.491395000000000 
P           0.500000000000000    0.000000000000000    0.508605000000000 
P           0.500000000000000    0.000000000000000    0.991395000000000 
K          -0.000000000000000    0.000000000000000    0.500000000000000 
K          -0.000000000000000    0.217459000000000    0.905291000000000 
K          -0.000000000000000    0.500000000000000    0.250000000000000 
K          -0.000000000000000    0.782541000000000    0.905291000000000 
K           0.217459000000000    0.000000000000000    0.094709000000000 
K           0.282541000000000    0.500000000000000    0.594709000000000 
K           0.500000000000000    0.000000000000000    0.750000000000000 
K           0.500000000000000    0.282541000000000    0.405291000000000 
K           0.500000000000000    0.500000000000000    0.000000000000000 
K           0.500000000000000    0.717459000000000    0.405291000000000 
K           0.717459000000000    0.500000000000000    0.594709000000000 
K           0.782541000000000    0.000000000000000    0.094709000000000 
%ENDBLOCK POSITIONS_FRAC
