# Cell file generated by matador (Matthew Evans 2016)

%BLOCK LATTICE_CART
8.53233 0.0 0.0
0.0 8.3863 0.0
0.0 0.0 8.91226
%ENDBLOCK LATTICE_CART

%BLOCK POSITIONS_FRAC
P           0.000000000000000    0.000000000000000    0.000000000000000 
P           0.000000000000000    0.000000000000000    0.500000000000000 
P           0.500000000000000    0.000000000000000    0.000000000000000 
P           0.500000000000000    0.000000000000000    0.500000000000000 
K           0.000000000000000    0.240710000000000    0.731981000000000 
K           0.000000000000000    0.500000000000000    0.000000000000000 
K           0.000000000000000    0.500000000000000    0.500000000000000 
K           0.000000000000000    0.759290000000000    0.268019000000000 
K           0.250000000000000    0.430207000000000    0.250000000000000 
K           0.250000000000000    0.569793000000000    0.750000000000000 
K           0.500000000000000    0.240710000000000    0.768019000000000 
K           0.500000000000000    0.500000000000000    0.000000000000000 
K           0.500000000000000    0.500000000000000    0.500000000000000 
K           0.500000000000000    0.759290000000000    0.231981000000000 
K           0.750000000000000    0.430207000000000    0.250000000000000 
K           0.750000000000000    0.569793000000000    0.750000000000000 
%ENDBLOCK POSITIONS_FRAC
