# Cell file generated by matador (Matthew Evans 2016)

%BLOCK LATTICE_CART
4.41382 0.0 0.0
0.0 4.9394 0.0
0.0 0.0 8.16421
%ENDBLOCK LATTICE_CART

%BLOCK POSITIONS_FRAC
P           0.243198000000000    0.441020000000000    0.849642000000000 
P           0.243198000000000    0.558980000000000    0.349642000000000 
P           0.756802000000000    0.441020000000000    0.849642000000000 
P           0.756802000000000    0.558980000000000    0.349642000000000 
K           0.500000000000000    0.125215000000000    0.044107000000000 
K           0.500000000000000    0.874785000000000    0.544107000000000 
%ENDBLOCK POSITIONS_FRAC
