# Cell file generated by matador (Matthew Evans 2016)

%BLOCK LATTICE_CART
8.46757 0.0 0.0
-4.23378 7.33313 0.0
0.0 0.0 8.02528
%ENDBLOCK LATTICE_CART

%BLOCK POSITIONS_FRAC
P           0.333332000000000    0.666666000000000    0.085241000000000 
P           0.333332000000000    0.666666000000000    0.914759000000000 
P           0.666666000000000    0.333332000000000    0.085241000000000 
P           0.666666000000000    0.333332000000000    0.914759000000000 
K           0.999999000000000    0.999999000000000    0.000000000000000 
K           0.999999000000000    0.999999000000000    0.500000000000000 
K           0.999999000000000    0.499999000000000    0.000000000000000 
K           0.999999000000000    0.499999000000000    0.500000000000000 
K           0.333332000000000    0.666666000000000    0.500000000000000 
K           0.499999000000000    0.999999000000000    0.000000000000000 
K           0.499999000000000    0.999999000000000    0.500000000000000 
K           0.499999000000000    0.499999000000000    0.000000000000000 
K           0.499999000000000    0.499999000000000    0.500000000000000 
K           0.666666000000000    0.333332000000000    0.500000000000000 
%ENDBLOCK POSITIONS_FRAC
