# Cell file generated by matador (Matthew Evans 2016)

%BLOCK LATTICE_CART
6.72511 0.0 0.0
-3.36255 5.82411 0.0
0.0 0.0 4.4907
%ENDBLOCK LATTICE_CART

%BLOCK POSITIONS_FRAC
P           0.121875000000000    0.438283000000000    0.350602000000000 
P           0.152460000000000    0.599925000000000    0.091441000000000 
P           0.316408000000000    0.878125000000000    0.350602000000000 
P           0.400075000000000    0.552535000000000    0.091441000000000 
P           0.447465000000000    0.847540000000000    0.091441000000000 
P           0.561717000000000    0.683592000000000    0.350602000000000 
K           0.333333000000000    0.666667000000000    0.703222000000000 
%ENDBLOCK POSITIONS_FRAC
