# Cell file generated by matador (Matthew Evans 2016)

%BLOCK LATTICE_CART
6.89461 0.0 0.0
0.0 6.89461 0.0
0.0 0.0 7.88085
%ENDBLOCK LATTICE_CART

%BLOCK POSITIONS_FRAC
P           0.000000000000000    0.000000000000000    0.367946000000000 
P           0.000000000000000    0.000000000000000    0.500000000000000 
P           0.000000000000000    0.000000000000000    0.632054000000000 
P           0.205118000000000    0.705118000000000    0.500000000000000 
P           0.294882000000000    0.205118000000000    0.500000000000000 
P           0.500000000000000    0.500000000000000    0.367946000000000 
P           0.500000000000000    0.500000000000000    0.500000000000000 
P           0.500000000000000    0.500000000000000    0.632054000000000 
P           0.705118000000000    0.794882000000000    0.500000000000000 
P           0.794882000000000    0.294882000000000    0.500000000000000 
K           0.000000000000000    0.500000000000000    0.000000000000000 
K           0.000000000000000    0.500000000000000    0.500000000000000 
K           0.500000000000000    0.000000000000000    0.000000000000000 
K           0.500000000000000    0.000000000000000    0.500000000000000 
%ENDBLOCK POSITIONS_FRAC
