# Cell file generated by matador (Matthew Evans 2016)

%BLOCK LATTICE_CART
6.20475 0.0 0.0
0.0 3.0965 0.0
-0.639479 0.0 8.11126
%ENDBLOCK LATTICE_CART

%BLOCK POSITIONS_FRAC
P           0.500000000000000    0.000000000000000    0.000000000000000 
K           0.480541000000000    0.000000000000000    0.744197000000000 
K           0.500000000000000    0.000000000000000    0.500000000000000 
K           0.519459000000000    0.000000000000000    0.255803000000000 
%ENDBLOCK POSITIONS_FRAC
