# Cell file generated by matador (Matthew Evans 2016)

%BLOCK LATTICE_CART
8.30392 0.0 0.0
0.0 8.12015 0.0
0.0 0.0 5.85254
%ENDBLOCK LATTICE_CART

%BLOCK POSITIONS_FRAC
P           0.000000000000000    0.500000000000000    0.224764000000000 
P           0.010171000000000    0.067336000000000    0.906387000000000 
P           0.070998000000000    0.272123000000000    0.526293000000000 
P           0.160863000000000    0.396633000000000    0.070544000000000 
P           0.339137000000000    0.896633000000000    0.070544000000000 
P           0.429002000000000    0.772123000000000    0.526293000000000 
P           0.489829000000000    0.567336000000000    0.906387000000000 
P           0.500000000000000    0.000000000000000    0.224764000000000 
P           0.510171000000000    0.432664000000000    0.906387000000000 
P           0.570998000000000    0.227877000000000    0.526293000000000 
P           0.660863000000000    0.103367000000000    0.070544000000000 
P           0.839137000000000    0.603367000000000    0.070544000000000 
P           0.929002000000000    0.727877000000000    0.526293000000000 
P           0.989829000000000    0.932664000000000    0.906387000000000 
K           0.000000000000000    0.000000000000000    0.493751000000000 
K           0.500000000000000    0.500000000000000    0.493751000000000 
%ENDBLOCK POSITIONS_FRAC
