# Cell file generated by matador (Matthew Evans 2016)

%BLOCK LATTICE_CART
8.11127 0.0 0.0
-2.09237 4.31053 0.0
0.950948 2.81731 7.60487
%ENDBLOCK LATTICE_CART

%BLOCK POSITIONS_FRAC
P           0.000000000000000    0.500000000000000    0.500000000000000 
P           0.500000000000000    0.000000000000000    0.500000000000000 
P           0.500000000000000    0.500000000000000    0.000000000000000 
K           0.000000000000000    0.000000000000000    0.500000000000000 
K           0.214418000000000    0.589111000000000    0.084281000000000 
K           0.500000000000000    0.000000000000000    0.000000000000000 
K           0.785582000000000    0.410889000000000    0.915719000000000 
%ENDBLOCK POSITIONS_FRAC
