# Cell file generated by matador (Matthew Evans 2016)

%BLOCK LATTICE_CART
7.39029 0.0 0.0
0.0 7.39029 0.0
0.0 0.0 5.37032
%ENDBLOCK LATTICE_CART

%BLOCK POSITIONS_FRAC
P           0.000000000000000    0.000000000000000    0.254851000000000 
P           0.000000000000000    0.000000000000000    0.472700000000000 
P           0.000000000000000    0.000000000000000    0.955355000000000 
P           0.500000000000000    0.500000000000000    0.175375000000000 
P           0.500000000000000    0.500000000000000    0.941118000000000 
K           0.000000000000000    0.500000000000000    0.751514000000000 
K           0.215621000000000    0.215621000000000    0.989530000000000 
K           0.215621000000000    0.784379000000000    0.989530000000000 
K           0.500000000000000    0.000000000000000    0.751514000000000 
K           0.784379000000000    0.215621000000000    0.989530000000000 
K           0.784379000000000    0.784379000000000    0.989530000000000 
%ENDBLOCK POSITIONS_FRAC
