# Cell file generated by matador (Matthew Evans 2016)

%BLOCK LATTICE_CART
7.4573 0.0 0.0
-3.72865 6.45821 0.0
0.0 0.0 7.15026
%ENDBLOCK LATTICE_CART

%BLOCK POSITIONS_FRAC
P           0.000000000000000   -0.000000000000000   -0.000000000000000 
P           0.000000000000000   -0.000000000000000    0.220289000000000 
P           0.000000000000000   -0.000000000000000    0.779711000000000 
P           0.333333000000000    0.666667000000000    0.446377000000000 
P           0.333333000000000    0.666667000000000    0.666667000000000 
P           0.333333000000000    0.666667000000000    0.886956000000000 
P           0.666667000000000    0.333333000000000    0.113044000000000 
P           0.666667000000000    0.333333000000000    0.333333000000000 
P           0.666667000000000    0.333333000000000    0.553623000000000 
K           0.000000000000000   -0.000000000000000    0.500000000000000 
K           0.333333000000000    0.666667000000000    0.166667000000000 
K           0.666667000000000    0.333333000000000    0.833333000000000 
%ENDBLOCK POSITIONS_FRAC
