# Cell file generated by matador (Matthew Evans 2016)

%BLOCK LATTICE_CART
10.7564 0.0 0.0
-5.37819 9.3153 0.0
0.0 0.0 4.77235
%ENDBLOCK LATTICE_CART

%BLOCK POSITIONS_FRAC
P           0.000000000000000    0.000000000000000    0.000000000000000 
P           0.000000000000000    0.000000000000000    0.500000000000000 
P           0.333333000000000    0.666667000000000    0.000000000000000 
P           0.333333000000000    0.666667000000000    0.500000000000000 
P           0.666667000000000    0.333333000000000    0.000000000000000 
P           0.666667000000000    0.333333000000000    0.500000000000000 
K           0.050326000000000    0.323451000000000    0.500000000000000 
K           0.273124000000000    0.949674000000000    0.500000000000000 
K           0.299770000000000    0.273002000000000    0.500000000000000 
K           0.350667000000000    0.317271000000000    0.000000000000000 
K           0.676549000000000    0.726876000000000    0.500000000000000 
K           0.682729000000000    0.033397000000000    0.000000000000000 
K           0.726998000000000    0.026768000000000    0.500000000000000 
K           0.966603000000000    0.649333000000000    0.000000000000000 
K           0.973232000000000    0.700230000000000    0.500000000000000 
%ENDBLOCK POSITIONS_FRAC
