# Cell file generated by matador (Matthew Evans 2016)

%BLOCK LATTICE_CART
3.5893 0.0 0.0
-0.671229 5.52492 0.0
-1.84213 -1.79091 3.40096
%ENDBLOCK LATTICE_CART

%BLOCK POSITIONS_FRAC
P           0.149968000000000    0.590174000000000    0.144989000000000 
P           0.850032000000000    0.409826000000000    0.855011000000000 
K           0.000000000000000    0.500000000000000    0.500000000000000 
%ENDBLOCK POSITIONS_FRAC
