# Cell file generated by matador (Matthew Evans 2016)

%BLOCK LATTICE_CART
6.41201 0.0 0.0
0.0 7.94544 0.0
0.0 0.0 10.9547
%ENDBLOCK LATTICE_CART

%BLOCK POSITIONS_FRAC
P           0.500000000000000    0.000000000000000    0.500000000000000 
P           0.500000000000000    0.500000000000000    0.000000000000000 
K           0.000000000000000    0.000000000000000    0.000000000000000 
K           0.000000000000000    0.500000000000000    0.500000000000000 
K           0.304558000000000    0.231957000000000    0.130930000000000 
K           0.304558000000000    0.231957000000000    0.869070000000000 
K           0.304558000000000    0.768043000000000    0.130930000000000 
K           0.304558000000000    0.768043000000000    0.869070000000000 
K           0.500000000000000    0.000000000000000    0.000000000000000 
K           0.500000000000000    0.500000000000000    0.500000000000000 
K           0.695442000000000    0.231957000000000    0.130930000000000 
K           0.695442000000000    0.231957000000000    0.869070000000000 
K           0.695442000000000    0.768043000000000    0.130930000000000 
K           0.695442000000000    0.768043000000000    0.869070000000000 
%ENDBLOCK POSITIONS_FRAC
