# Cell file generated by matador (Matthew Evans 2016)

%BLOCK LATTICE_CART
11.2372 0.0 0.0
0.0 11.2372 0.0
0.0 0.0 7.79856
%ENDBLOCK LATTICE_CART

%BLOCK POSITIONS_FRAC
P           0.000000000000000    0.000000000000000    0.000000000000000 
P           0.000000000000000    0.000000000000000    0.500000000000000 
P           0.000000000000000    0.500000000000000    0.000000000000000 
P           0.500000000000000    0.000000000000000    0.000000000000000 
P           0.500000000000000    0.500000000000000    0.000000000000000 
P           0.500000000000000    0.500000000000000    0.500000000000000 
K           0.000000000000000    0.500000000000000    0.500000000000000 
K           0.144590000000000    0.157446000000000    0.500000000000000 
K           0.147741000000000    0.647741000000000    0.264321000000000 
K           0.147741000000000    0.647741000000000    0.735679000000000 
K           0.157446000000000    0.855410000000000    0.500000000000000 
K           0.342554000000000    0.355410000000000    0.500000000000000 
K           0.352259000000000    0.147741000000000    0.264321000000000 
K           0.352259000000000    0.147741000000000    0.735679000000000 
K           0.355410000000000    0.657446000000000    0.500000000000000 
K           0.500000000000000    0.000000000000000    0.500000000000000 
K           0.644590000000000    0.342554000000000    0.500000000000000 
K           0.647741000000000    0.852259000000000    0.264321000000000 
K           0.647741000000000    0.852259000000000    0.735679000000000 
K           0.657446000000000    0.644590000000000    0.500000000000000 
K           0.842554000000000    0.144590000000000    0.500000000000000 
K           0.852259000000000    0.352259000000000    0.264321000000000 
K           0.852259000000000    0.352259000000000    0.735679000000000 
K           0.855410000000000    0.842554000000000    0.500000000000000 
%ENDBLOCK POSITIONS_FRAC
