# Cell file generated by matador (Matthew Evans 2016)

%BLOCK LATTICE_CART
8.12513 0.0 0.0
-0.0817394 8.4075 0.0
1.39233 -2.54401 5.04074
%ENDBLOCK LATTICE_CART

%BLOCK POSITIONS_FRAC
P           0.087566000000000    0.715671000000000    0.540677000000000 
P           0.171685000000000    0.624140000000000    0.806497000000000 
P           0.406926000000000    0.256419000000000    0.655117000000000 
P           0.593074000000000    0.743581000000000    0.344883000000000 
P           0.828315000000000    0.375860000000000    0.193503000000000 
P           0.912434000000000    0.284329000000000    0.459323000000000 
K           0.000000000000000    0.000000000000000    0.000000000000000 
K           0.000000000000000    0.500000000000000    0.000000000000000 
K           0.500000000000000    0.000000000000000    0.000000000000000 
K           0.500000000000000    0.500000000000000    0.500000000000000 
%ENDBLOCK POSITIONS_FRAC
