# Cell file generated by matador (Matthew Evans 2016)

%BLOCK LATTICE_CART
7.50632 0.0 0.0
0.0 7.50632 0.0
0.0 0.0 5.90046
%ENDBLOCK LATTICE_CART

%BLOCK POSITIONS_FRAC
P           0.000000000000000    0.290143000000000    0.290630000000000 
P           0.000000000000000    0.290143000000000    0.709370000000000 
P           0.000000000000000    0.500000000000000    0.000000000000000 
P           0.000000000000000    0.709857000000000    0.290630000000000 
P           0.000000000000000    0.709857000000000    0.709370000000000 
P           0.290143000000000    0.000000000000000    0.209370000000000 
P           0.290143000000000    0.000000000000000    0.790630000000000 
P           0.500000000000000    0.000000000000000    0.500000000000000 
P           0.709857000000000    0.000000000000000    0.209370000000000 
P           0.709857000000000    0.000000000000000    0.790630000000000 
K           0.000000000000000    0.000000000000000    0.000000000000000 
K           0.000000000000000    0.000000000000000    0.500000000000000 
K           0.000000000000000    0.500000000000000    0.500000000000000 
K           0.500000000000000    0.000000000000000    0.000000000000000 
K           0.500000000000000    0.500000000000000    0.250000000000000 
K           0.500000000000000    0.500000000000000    0.750000000000000 
%ENDBLOCK POSITIONS_FRAC
