# Cell file generated by matador (Matthew Evans 2016)

%BLOCK LATTICE_CART
6.4179 0.0 0.0
-3.20895 5.55806 0.0
0.0 0.0 14.2627
%ENDBLOCK LATTICE_CART

%BLOCK POSITIONS_FRAC
P           0.000000000000000    0.000000000000000    0.250000000000000 
P           0.000000000000000    0.000000000000000    0.750000000000000 
P           0.000000000000000    0.832445000000000    0.000000000000000 
P           0.000000000000000    0.832445000000000    0.500000000000000 
P           0.167555000000000    0.167555000000000    0.000000000000000 
P           0.167555000000000    0.167555000000000    0.500000000000000 
P           0.205404000000000    0.544527000000000    0.750000000000000 
P           0.339123000000000    0.794596000000000    0.750000000000000 
P           0.455473000000000    0.660877000000000    0.750000000000000 
P           0.544527000000000    0.205404000000000    0.250000000000000 
P           0.660877000000000    0.455473000000000    0.250000000000000 
P           0.794596000000000    0.339123000000000    0.250000000000000 
P           0.832445000000000    0.000000000000000    0.000000000000000 
P           0.832445000000000    0.000000000000000    0.500000000000000 
K           0.159594000000000    0.697796000000000    0.250000000000000 
K           0.302204000000000    0.461798000000000    0.250000000000000 
K           0.461798000000000    0.302204000000000    0.750000000000000 
K           0.538202000000000    0.840406000000000    0.250000000000000 
K           0.697796000000000    0.159594000000000    0.750000000000000 
K           0.840406000000000    0.538202000000000    0.750000000000000 
%ENDBLOCK POSITIONS_FRAC
