# Cell file generated by matador (Matthew Evans 2016)

%BLOCK LATTICE_CART
10.6302 0.0 0.0
0.0 10.6302 0.0
0.0 0.0 5.64162
%ENDBLOCK LATTICE_CART

%BLOCK POSITIONS_FRAC
P           0.000000000000000    0.500000000000000    0.000000000000000 
P           0.000000000000000    0.500000000000000    0.250000000000000 
P           0.000000000000000    0.500000000000000    0.500000000000000 
P           0.000000000000000    0.500000000000000    0.750000000000000 
P           0.500000000000000    0.000000000000000    0.000000000000000 
P           0.500000000000000    0.000000000000000    0.250000000000000 
P           0.500000000000000    0.000000000000000    0.500000000000000 
P           0.500000000000000    0.000000000000000    0.750000000000000 
K           0.000000000000000    0.000000000000000    0.500000000000000 
K           0.078466000000000    0.753508000000000    0.500000000000000 
K           0.246492000000000    0.921534000000000    0.500000000000000 
K           0.253508000000000    0.421534000000000    0.000000000000000 
K           0.421534000000000    0.253508000000000    0.000000000000000 
K           0.500000000000000    0.500000000000000    0.000000000000000 
K           0.578466000000000    0.746492000000000    0.000000000000000 
K           0.746492000000000    0.578466000000000    0.000000000000000 
K           0.753508000000000    0.078466000000000    0.500000000000000 
K           0.921534000000000    0.246492000000000    0.500000000000000 
%ENDBLOCK POSITIONS_FRAC
