# Cell file generated by matador (Matthew Evans 2016)

%BLOCK LATTICE_CART
6.11709 0.0 0.0
-3.05855 5.29756 0.0
0.0 0.0 8.49032
%ENDBLOCK LATTICE_CART

%BLOCK POSITIONS_FRAC
P           0.000000000000000    0.000000000000000    0.264438000000000 
P           0.000000000000000    0.000000000000000    0.735562000000000 
P           0.333333000000000    0.666667000000000    0.000000000000000 
P           0.333333000000000    0.666667000000000    0.148707000000000 
P           0.333333000000000    0.666667000000000    0.851293000000000 
P           0.666667000000000    0.333333000000000    0.264437000000000 
P           0.666667000000000    0.333333000000000    0.735563000000000 
K           0.000000000000000    0.000000000000000    0.000000000000000 
K           0.000000000000000    0.000000000000000    0.500000000000000 
K           0.333333000000000    0.666667000000000    0.500000000000000 
K           0.666667000000000    0.333333000000000    0.500000000000000 
%ENDBLOCK POSITIONS_FRAC
