# Cell file generated by matador (Matthew Evans 2016)

%BLOCK LATTICE_CART
9.73286 0.0 0.0
-4.86643 8.4289 0.0
0.0 0.0 14.1859
%ENDBLOCK LATTICE_CART

%BLOCK POSITIONS_FRAC
P           0.000000000000000    0.000000000000000    0.469813000000000 
P           0.272959000000000    0.013736000000000    0.980471000000000 
P           0.272959000000000    0.259223000000000    0.980471000000000 
P           0.333333000000000    0.666667000000000    0.892172000000000 
P           0.740777000000000    0.013736000000000    0.980471000000000 
P           0.740777000000000    0.727041000000000    0.980471000000000 
P           0.986264000000000    0.259223000000000    0.980471000000000 
P           0.986264000000000    0.727041000000000    0.980471000000000 
K           0.000000000000000    0.000000000000000    0.024645000000000 
K           0.001164000000000    0.500582000000000    0.296016000000000 
K           0.048906000000000    0.524453000000000    0.590481000000000 
K           0.120904000000000    0.241808000000000    0.483030000000000 
K           0.120904000000000    0.879096000000000    0.483030000000000 
K           0.135200000000000    0.270400000000000    0.271137000000000 
K           0.135200000000000    0.864800000000000    0.271137000000000 
K           0.200025000000000    0.400050000000000    0.068485000000000 
K           0.200025000000000    0.799975000000000    0.068485000000000 
K           0.257000000000000    0.128500000000000    0.796201000000000 
K           0.333333000000000    0.666667000000000    0.420422000000000 
K           0.475547000000000    0.524453000000000    0.590481000000000 
K           0.475547000000000    0.951094000000000    0.590481000000000 
K           0.499418000000000    0.500582000000000    0.296016000000000 
K           0.499418000000000    0.998836000000000    0.296016000000000 
K           0.532505000000000    0.065009000000000    0.029872000000000 
K           0.532505000000000    0.467495000000000    0.029872000000000 
K           0.599950000000000    0.799975000000000    0.068485000000000 
K           0.666667000000000    0.333333000000000    0.524272000000000 
K           0.729600000000000    0.864800000000000    0.271137000000000 
K           0.758192000000000    0.879096000000000    0.483030000000000 
K           0.871500000000000    0.128500000000000    0.796201000000000 
K           0.871500000000000    0.743000000000000    0.796201000000000 
K           0.934991000000000    0.467495000000000    0.029872000000000 
%ENDBLOCK POSITIONS_FRAC
