# Cell file generated by matador (Matthew Evans 2016)

%BLOCK LATTICE_CART
10.8958 0.0 0.0
-5.44792 9.43608 0.0
0.0 0.0 8.10195
%ENDBLOCK LATTICE_CART

%BLOCK POSITIONS_FRAC
P           0.000000000000000    0.588752000000000    0.310100000000000 
P           0.333333000000000    0.666667000000000    0.555719000000000 
P           0.411248000000000    0.411248000000000    0.310100000000000 
P           0.588752000000000    0.000000000000000    0.310100000000000 
P           0.666667000000000    0.333333000000000    0.555719000000000 
K           0.000000000000000    0.332587000000000    0.963629000000000 
K           0.000000000000000    0.360781000000000    0.523624000000000 
K           0.000000000000000    0.638832000000000    0.785128000000000 
K           0.000000000000000    0.815497000000000    0.484668000000000 
K           0.000000000000000    0.818961000000000    0.079276000000000 
K           0.181039000000000    0.181039000000000    0.079276000000000 
K           0.184503000000000    0.184503000000000    0.484668000000000 
K           0.332587000000000    0.000000000000000    0.963629000000000 
K           0.360781000000000    0.000000000000000    0.523624000000000 
K           0.361168000000000    0.361168000000000    0.785128000000000 
K           0.638832000000000    0.000000000000000    0.785128000000000 
K           0.639219000000000    0.639219000000000    0.523624000000000 
K           0.667413000000000    0.667413000000000    0.963629000000000 
K           0.815497000000000    0.000000000000000    0.484668000000000 
K           0.818961000000000    0.000000000000000    0.079276000000000 
%ENDBLOCK POSITIONS_FRAC
