# Cell file generated by matador (Matthew Evans 2016)

%BLOCK LATTICE_CART
6.60616 0.0 0.0
0.0 7.58101 0.0
-1.7627 0.0 6.50817
%ENDBLOCK LATTICE_CART

%BLOCK POSITIONS_FRAC
P           0.959964000000000    0.000000000000000    0.930510000000000 
K           0.110889000000000    0.234668000000000    0.968237000000000 
K           0.110889000000000    0.765332000000000    0.968237000000000 
K           0.278182000000000    0.500000000000000    0.695015000000000 
K           0.304707000000000    0.000000000000000    0.226410000000000 
K           0.362851000000000    0.222514000000000    0.553581000000000 
K           0.362851000000000    0.777486000000000    0.553581000000000 
K           0.648282000000000    0.500000000000000    0.550962000000000 
%ENDBLOCK POSITIONS_FRAC
