# Cell file generated by matador (Matthew Evans 2016)

%BLOCK LATTICE_CART
10.6931 0.0 0.0
-5.34654 9.26049 0.0
0.0 0.0 9.95745
%ENDBLOCK LATTICE_CART

%BLOCK POSITIONS_FRAC
P           0.000000000000000    0.000000000000000    0.359492000000000 
P           0.000000000000000    0.000000000000000    0.640508000000000 
P           0.333333000000000    0.666667000000000    0.026158000000000 
P           0.333333000000000    0.666667000000000    0.307175000000000 
P           0.666667000000000    0.333333000000000    0.692825000000000 
P           0.666667000000000    0.333333000000000    0.973842000000000 
K           0.000000000000000    0.405591000000000    0.500000000000000 
K           0.000000000000000    0.713897000000000    0.000000000000000 
K           0.047230000000000    0.666667000000000    0.666667000000000 
K           0.072258000000000    0.333333000000000    0.833333000000000 
K           0.261076000000000    0.927742000000000    0.833333000000000 
K           0.286103000000000    0.286103000000000    0.000000000000000 
K           0.333333000000000    0.072258000000000    0.166667000000000 
K           0.333333000000000    0.380564000000000    0.666667000000000 
K           0.380564000000000    0.333333000000000    0.333333000000000 
K           0.405591000000000    0.000000000000000    0.500000000000000 
K           0.594409000000000    0.594409000000000    0.500000000000000 
K           0.619436000000000    0.952770000000000    0.666667000000000 
K           0.666667000000000    0.047230000000000    0.333333000000000 
K           0.666667000000000    0.738924000000000    0.833333000000000 
K           0.713897000000000    0.000000000000000    0.000000000000000 
K           0.738924000000000    0.666667000000000    0.166667000000000 
K           0.927742000000000    0.261076000000000    0.166667000000000 
K           0.952770000000000    0.619436000000000    0.333333000000000 
%ENDBLOCK POSITIONS_FRAC
