# Cell file generated by matador (Matthew Evans 2016)

%BLOCK LATTICE_CART
7.17155 0.0 0.0
-3.58578 6.21075 0.0
0.0 0.0 6.00401
%ENDBLOCK LATTICE_CART

%BLOCK POSITIONS_FRAC
P           0.000000000000000    0.000000000000000    0.333110000000000 
P           0.000000000000000    0.000000000000000    0.500000000000000 
P           0.000000000000000    0.000000000000000    0.666890000000000 
P           0.333333000000000    0.666667000000000    0.166889000000000 
P           0.333333000000000    0.666667000000000    0.833111000000000 
K           0.000000000000000    0.000000000000000    0.000000000000000 
K           0.333333000000000    0.666667000000000    0.500000000000000 
K           0.666667000000000    0.333333000000000    0.000000000000000 
K           0.666667000000000    0.333333000000000    0.500000000000000 
%ENDBLOCK POSITIONS_FRAC
