# Cell file generated by matador (Matthew Evans 2016)

%BLOCK LATTICE_CART
7.91478 0.0 0.0
0.0 7.04898 0.0
-0.745169 0.0 5.2651
%ENDBLOCK LATTICE_CART

%BLOCK POSITIONS_FRAC
P           0.414271000000000    0.389958000000000    0.030232000000000 
P           0.414271000000000    0.610042000000000    0.030232000000000 
P           0.546887000000000    0.268240000000000    0.919048000000000 
P           0.546887000000000    0.731760000000000    0.919048000000000 
P           0.952877000000000    0.335346000000000    0.689374000000000 
P           0.952877000000000    0.664654000000000    0.689374000000000 
K           0.142761000000000    0.000000000000000    0.938799000000000 
K           0.308925000000000    0.000000000000000    0.357421000000000 
K           0.411089000000000    0.500000000000000    0.417546000000000 
K           0.695081000000000    0.500000000000000    0.886642000000000 
%ENDBLOCK POSITIONS_FRAC
