# Cell file generated by matador (Matthew Evans 2016)

%BLOCK LATTICE_CART
10.1359 0.0 0.0
0.0 10.1359 0.0
0.0 0.0 13.4533
%ENDBLOCK LATTICE_CART

%BLOCK POSITIONS_FRAC
P           0.163274000000000    0.336726000000000    0.250000000000000 
P           0.163274000000000    0.336726000000000    0.750000000000000 
P           0.336726000000000    0.836726000000000    0.250000000000000 
P           0.336726000000000    0.836726000000000    0.750000000000000 
P           0.663274000000000    0.163274000000000    0.250000000000000 
P           0.663274000000000    0.163274000000000    0.750000000000000 
P           0.836726000000000    0.663274000000000    0.250000000000000 
P           0.836726000000000    0.663274000000000    0.750000000000000 
K           0.000000000000000    0.000000000000000    0.000000000000000 
K           0.000000000000000    0.000000000000000    0.500000000000000 
K           0.000000000000000    0.500000000000000    0.250000000000000 
K           0.000000000000000    0.500000000000000    0.750000000000000 
K           0.080986000000000    0.337925000000000    0.000000000000000 
K           0.139867000000000    0.739157000000000    0.500000000000000 
K           0.162075000000000    0.419014000000000    0.500000000000000 
K           0.239157000000000    0.639867000000000    0.000000000000000 
K           0.260843000000000    0.139867000000000    0.500000000000000 
K           0.337925000000000    0.919014000000000    0.000000000000000 
K           0.360133000000000    0.239157000000000    0.000000000000000 
K           0.419014000000000    0.837925000000000    0.500000000000000 
K           0.500000000000000    0.000000000000000    0.250000000000000 
K           0.500000000000000    0.000000000000000    0.750000000000000 
K           0.500000000000000    0.500000000000000    0.000000000000000 
K           0.500000000000000    0.500000000000000    0.500000000000000 
K           0.580986000000000    0.162075000000000    0.500000000000000 
K           0.639867000000000    0.760843000000000    0.000000000000000 
K           0.662075000000000    0.080986000000000    0.000000000000000 
K           0.739157000000000    0.860133000000000    0.500000000000000 
K           0.760843000000000    0.360133000000000    0.000000000000000 
K           0.837925000000000    0.580986000000000    0.500000000000000 
K           0.860133000000000    0.260843000000000    0.500000000000000 
K           0.919014000000000    0.662075000000000    0.000000000000000 
%ENDBLOCK POSITIONS_FRAC
