# Cell file generated by matador (Matthew Evans 2016)

%BLOCK LATTICE_CART
7.8537 0.0 0.0
-3.92685 6.8015 0.0
0.0 0.0 7.47156
%ENDBLOCK LATTICE_CART

%BLOCK POSITIONS_FRAC
P          -0.000000000000000   -0.000000000000000    0.363334000000000 
P          -0.000000000000000    0.731854000000000    0.415888000000000 
P           0.268146000000000    0.268146000000000    0.415888000000000 
P           0.333333000000000    0.666667000000000    0.708257000000000 
P           0.333333000000000    0.666667000000000    0.924171000000000 
P           0.666667000000000    0.333333000000000    0.708257000000000 
P           0.666667000000000    0.333333000000000    0.924171000000000 
P           0.731854000000000   -0.000000000000000    0.415888000000000 
K          -0.000000000000000    0.347199000000000    0.071319000000000 
K          -0.000000000000000    0.649951000000000    0.765595000000000 
K           0.347199000000000   -0.000000000000000    0.071319000000000 
K           0.350049000000000    0.350049000000000    0.765595000000000 
K           0.649951000000000   -0.000000000000000    0.765595000000000 
K           0.652801000000000    0.652801000000000    0.071319000000000 
%ENDBLOCK POSITIONS_FRAC
