# Cell file generated by matador (Matthew Evans 2016)

%BLOCK LATTICE_CART
7.007 0.0 0.0
-3.5035 6.06824 0.0
0.0 0.0 7.37749
%ENDBLOCK LATTICE_CART

%BLOCK POSITIONS_FRAC
P           0.000000000000000   -0.000000000000000    0.342562000000000 
P           0.000000000000000   -0.000000000000000    0.842562000000000 
P           0.111535000000000    0.404118000000000    0.777118000000000 
P           0.111535000000000    0.707417000000000    0.277118000000000 
P           0.292583000000000    0.404118000000000    0.277118000000000 
P           0.292583000000000    0.888465000000000    0.777118000000000 
P           0.333334000000000    0.666666000000000    0.249009000000000 
P           0.333334000000000    0.666666000000000    0.749009000000000 
P           0.595882000000000    0.707417000000000    0.777118000000000 
P           0.595882000000000    0.888465000000000    0.277118000000000 
K           0.666667000000000    0.333333000000000    0.476903000000000 
K           0.666667000000000    0.333333000000000    0.976903000000000 
%ENDBLOCK POSITIONS_FRAC
