# Cell file generated by matador (Matthew Evans 2016)

%BLOCK LATTICE_CART
7.9117 0.0 0.0
-3.95585 6.85174 0.0
0.0 0.0 7.94218
%ENDBLOCK LATTICE_CART

%BLOCK POSITIONS_FRAC
P           0.000000000000000    0.500000000000000    0.500000000000000 
P           0.181482000000000    0.362964000000000    0.000000000000000 
P           0.181482000000000    0.818518000000000    0.000000000000000 
P           0.362964000000000    0.181482000000000    0.000000000000000 
P           0.500000000000000    0.000000000000000    0.500000000000000 
P           0.500000000000000    0.500000000000000    0.500000000000000 
P           0.637036000000000    0.818518000000000    0.000000000000000 
P           0.818518000000000    0.181482000000000    0.000000000000000 
P           0.818518000000000    0.637036000000000    0.000000000000000 
K           0.000000000000000    0.000000000000000    0.000000000000000 
K           0.000000000000000    0.000000000000000    0.500000000000000 
K           0.333333000000000    0.666667000000000    0.000000000000000 
K           0.333333000000000    0.666667000000000    0.500000000000000 
K           0.666667000000000    0.333333000000000    0.000000000000000 
K           0.666667000000000    0.333333000000000    0.500000000000000 
%ENDBLOCK POSITIONS_FRAC
