# Cell file generated by matador (Matthew Evans 2016)

%BLOCK LATTICE_CART
8.35618 0.0 0.0
-4.17809 7.23667 0.0
0.0 0.0 7.50611
%ENDBLOCK LATTICE_CART

%BLOCK POSITIONS_FRAC
P           0.394667000000000    0.266556000000000    0.029571000000000 
P           0.733444000000000    0.128110000000000    0.029571000000000 
P           0.871890000000000    0.605333000000000    0.029571000000000 
K           0.033323000000000    0.355043000000000    0.248140000000000 
K           0.060395000000000    0.237784000000000    0.812249000000000 
K           0.177391000000000    0.939605000000000    0.812249000000000 
K           0.321720000000000    0.966677000000000    0.248140000000000 
K           0.333334000000000    0.666666000000000    0.524252000000000 
K           0.644957000000000    0.678280000000000    0.248140000000000 
K           0.666667000000000    0.333333000000000    0.084906000000000 
K           0.666667000000000    0.333333000000000    0.417709000000000 
K           0.762216000000000    0.822609000000000    0.812249000000000 
%ENDBLOCK POSITIONS_FRAC
