# Cell file generated by matador (Matthew Evans 2016)

%BLOCK LATTICE_CART
8.16585 0.0 0.0
0.0 8.16585 0.0
0.0 0.0 8.97338
%ENDBLOCK LATTICE_CART

%BLOCK POSITIONS_FRAC
P           0.000000000000000    0.000000000000000   -0.000000000000000 
P           0.000000000000000    0.000000000000000    0.500000000000000 
P           0.500000000000000    0.500000000000000   -0.000000000000000 
P           0.500000000000000    0.500000000000000    0.500000000000000 
K           0.000000000000000    0.500000000000000    0.250000000000000 
K           0.000000000000000    0.500000000000000    0.750000000000000 
K           0.133383000000000    0.293381000000000   -0.000000000000000 
K           0.206619000000000    0.366617000000000    0.500000000000000 
K           0.293381000000000    0.866617000000000   -0.000000000000000 
K           0.366617000000000    0.793381000000000    0.500000000000000 
K           0.500000000000000    0.000000000000000    0.250000000000000 
K           0.500000000000000    0.000000000000000    0.750000000000000 
K           0.633383000000000    0.206619000000000    0.500000000000000 
K           0.706619000000000    0.133383000000000   -0.000000000000000 
K           0.793381000000000    0.633383000000000    0.500000000000000 
K           0.866617000000000    0.706619000000000   -0.000000000000000 
%ENDBLOCK POSITIONS_FRAC
