# Cell file generated by matador (Matthew Evans 2016)

%BLOCK LATTICE_CART
5.77746 0.0 0.0
-0.26674 7.0257 0.0
1.87178 0.0868547 5.01254
%ENDBLOCK LATTICE_CART

%BLOCK POSITIONS_FRAC
P           0.000000000000000    0.000000000000000    0.500000000000000 
P           0.000000000000000    0.500000000000000    0.000000000000000 
P           0.000000000000000    0.500000000000000    0.500000000000000 
P           0.296482000000000    0.134338000000000    0.816004000000000 
P           0.703518000000000    0.865662000000000    0.183996000000000 
K           0.500000000000000    0.000000000000000    0.000000000000000 
K           0.500000000000000    0.000000000000000    0.500000000000000 
%ENDBLOCK POSITIONS_FRAC
