# Cell file generated by matador (Matthew Evans 2016)

%BLOCK LATTICE_CART
6.48425 0.0 0.0
-1.26684 5.45468 0.0
-2.92861 0.424335 5.53805
%ENDBLOCK LATTICE_CART

%BLOCK POSITIONS_FRAC
P           0.000000000000000    0.000000000000000    0.000000000000000 
P           0.000000000000000    0.000000000000000    0.500000000000000 
P           0.000000000000000    0.500000000000000    0.500000000000000 
P           0.250713000000000    0.282320000000000    0.364850000000000 
P           0.500000000000000    0.000000000000000    0.000000000000000 
P           0.500000000000000    0.500000000000000    0.500000000000000 
P           0.749287000000000    0.717680000000000    0.635150000000000 
K           0.500000000000000    0.000000000000000    0.500000000000000 
%ENDBLOCK POSITIONS_FRAC
