# Cell file generated by matador (Matthew Evans 2016)

%BLOCK LATTICE_CART
7.57659 0.0 0.0
0.0 7.57659 0.0
0.0 0.0 7.57659
%ENDBLOCK LATTICE_CART

%BLOCK POSITIONS_FRAC
P           0.000000000000000    0.000000000000000    0.150749000000000 
P           0.000000000000000    0.000000000000000    0.849251000000000 
P           0.000000000000000    0.150749000000000    0.000000000000000 
P           0.000000000000000    0.849251000000000    0.000000000000000 
P           0.150749000000000    0.000000000000000    0.000000000000000 
P           0.849251000000000    0.000000000000000    0.000000000000000 
K           0.000000000000000    0.000000000000000    0.500000000000000 
K           0.000000000000000    0.500000000000000    0.000000000000000 
K           0.000000000000000    0.500000000000000    0.500000000000000 
K           0.500000000000000    0.000000000000000    0.000000000000000 
K           0.500000000000000    0.000000000000000    0.500000000000000 
K           0.500000000000000    0.500000000000000    0.000000000000000 
K           0.500000000000000    0.500000000000000    0.500000000000000 
%ENDBLOCK POSITIONS_FRAC
