# Cell file generated by matador (Matthew Evans 2016)

%BLOCK LATTICE_CART
6.01006 0.0 0.0
-3.00503 5.20486 0.0
0.0 0.0 11.098
%ENDBLOCK LATTICE_CART

%BLOCK POSITIONS_FRAC
P           0.000000000000000    0.000000000000000    0.250000000000000 
P           0.000000000000000    0.000000000000000    0.750000000000000 
P           0.333333000000000    0.666667000000000    0.250000000000000 
P           0.333333000000000    0.666667000000000    0.750000000000000 
P           0.666667000000000    0.333333000000000    0.250000000000000 
P           0.666667000000000    0.333333000000000    0.750000000000000 
K           0.017416000000000    0.340402000000000    0.250000000000000 
K           0.322986000000000    0.982584000000000    0.250000000000000 
K           0.340402000000000    0.017416000000000    0.750000000000000 
K           0.659598000000000    0.677014000000000    0.250000000000000 
K           0.677014000000000    0.659598000000000    0.750000000000000 
K           0.982584000000000    0.322986000000000    0.750000000000000 
%ENDBLOCK POSITIONS_FRAC
