# Cell file generated by matador (Matthew Evans 2016)

%BLOCK LATTICE_CART
8.70704 0.0 0.0
0.0 7.93864 0.0
0.0 0.0 6.18896
%ENDBLOCK LATTICE_CART

%BLOCK POSITIONS_FRAC
P           0.132784000000000    0.096776000000000    0.772560000000000 
P           0.132784000000000    0.903224000000000    0.227440000000000 
P           0.268889000000000    0.000000000000000    0.500000000000000 
P           0.319404000000000    0.195344000000000    0.342827000000000 
P           0.319404000000000    0.804656000000000    0.657173000000000 
P           0.680596000000000    0.195344000000000    0.157173000000000 
P           0.680596000000000    0.804656000000000    0.842827000000000 
P           0.731111000000000    0.000000000000000    0.000000000000000 
P           0.867216000000000    0.096776000000000    0.727440000000000 
P           0.867216000000000    0.903224000000000    0.272560000000000 
K           0.457170000000000    0.000000000000000    0.000000000000000 
K           0.542830000000000    0.000000000000000    0.500000000000000 
%ENDBLOCK POSITIONS_FRAC
