# Cell file generated by matador (Matthew Evans 2016)

%BLOCK LATTICE_CART
8.81694 0.0 0.0
-4.40847 7.63569 0.0
0.0 0.0 4.5371
%ENDBLOCK LATTICE_CART

%BLOCK POSITIONS_FRAC
P           0.333333000000000    0.666667000000000    0.290841000000000 
P           0.666666000000000    0.333334000000000    0.709159000000000 
K          -0.000000000000000    0.363011000000000    0.000000000000000 
K          -0.000000000000000    0.684617000000000    0.500000000000000 
K           0.315383000000000    0.315383000000000    0.500000000000000 
K           0.363011000000000    0.000000000000000    0.000000000000000 
K           0.636989000000000    0.636989000000000    0.000000000000000 
K           0.684617000000000    0.000000000000000    0.500000000000000 
%ENDBLOCK POSITIONS_FRAC
