# Cell file generated by matador (Matthew Evans 2016)

%BLOCK LATTICE_CART
8.15614 0.0 0.0
-4.07807 7.06342 0.0
0.0 0.0 8.54714
%ENDBLOCK LATTICE_CART

%BLOCK POSITIONS_FRAC
P           0.000000000000000   -0.000000000000000    0.000000000000000 
P           0.000000000000000   -0.000000000000000    0.500000000000000 
P           0.333334000000000    0.666666000000000    0.000000000000000 
P           0.333334000000000    0.666666000000000    0.500000000000000 
P           0.492384000000000    0.461977000000000    0.500000000000000 
P           0.538023000000000    0.030406000000000    0.500000000000000 
P           0.666667000000000    0.333333000000000    0.000000000000000 
P           0.666667000000000    0.333333000000000    0.500000000000000 
P           0.969594000000000    0.507616000000000    0.500000000000000 
K           0.499182000000000    0.457237000000000    0.139494000000000 
K           0.499182000000000    0.457237000000000    0.860506000000000 
K           0.542763000000000    0.041944000000000    0.139494000000000 
K           0.542763000000000    0.041944000000000    0.860506000000000 
K           0.958056000000000    0.500818000000000    0.139494000000000 
K           0.958056000000000    0.500818000000000    0.860506000000000 
%ENDBLOCK POSITIONS_FRAC
