# Cell file generated by matador (Matthew Evans 2016)

%BLOCK LATTICE_CART
8.71302 0.0 0.0
-4.35651 7.5457 0.0
0.0 0.0 8.90733
%ENDBLOCK LATTICE_CART

%BLOCK POSITIONS_FRAC
P           0.000000000000000    0.000000000000000    0.500000000000000 
P           0.000000000000000    0.229411000000000    0.500000000000000 
P           0.229411000000000    0.000000000000000    0.500000000000000 
P           0.770589000000000    0.770589000000000    0.500000000000000 
K           0.000000000000000    0.803839000000000    0.231093000000000 
K           0.000000000000000    0.803839000000000    0.768907000000000 
K           0.194251000000000    0.443990000000000    0.000000000000000 
K           0.196161000000000    0.196161000000000    0.231093000000000 
K           0.196161000000000    0.196161000000000    0.768907000000000 
K           0.249739000000000    0.805749000000000    0.000000000000000 
K           0.443990000000000    0.194251000000000    0.000000000000000 
K           0.556010000000000    0.750261000000000    0.000000000000000 
K           0.750261000000000    0.556010000000000    0.000000000000000 
K           0.803839000000000    0.000000000000000    0.231093000000000 
K           0.803839000000000    0.000000000000000    0.768907000000000 
K           0.805749000000000    0.249739000000000    0.000000000000000 
%ENDBLOCK POSITIONS_FRAC
