# Cell file generated by matador (Matthew Evans 2016)

%BLOCK LATTICE_CART
9.21641 0.0 0.0
0.0 4.41661 0.0
0.0 0.0 7.96174
%ENDBLOCK LATTICE_CART

%BLOCK POSITIONS_FRAC
P           0.020390000000000    0.144679000000000    0.586734000000000 
P           0.020390000000000    0.855321000000000    0.086734000000000 
P           0.979611000000000    0.144679000000000    0.086734000000000 
P           0.979611000000000    0.855321000000000    0.586734000000000 
K           0.000000000000000    0.500000000000000    0.428992000000000 
K           0.000000000000000    0.500000000000000    0.928992000000000 
K           0.314603000000000    0.007826000000000    0.552385000000000 
K           0.314603000000000    0.992174000000000    0.052385000000000 
K           0.500000000000000    0.500000000000000    0.176814000000000 
K           0.500000000000000    0.500000000000000    0.676814000000000 
K           0.685398000000000    0.007826000000000    0.052385000000000 
K           0.685398000000000    0.992174000000000    0.552385000000000 
%ENDBLOCK POSITIONS_FRAC
