# Cell file generated by matador (Matthew Evans 2016)

%BLOCK LATTICE_CART
7.48099 0.0 0.0
-3.74049 6.47873 0.0
0.0 0.0 9.46325
%ENDBLOCK LATTICE_CART

%BLOCK POSITIONS_FRAC
P           0.000000000000000    0.316713000000000    0.500000000000000 
P           0.316713000000000    0.000000000000000    0.500000000000000 
P           0.683287000000000    0.683287000000000    0.500000000000000 
K           0.000000000000000    0.000000000000000    0.500000000000000 
K           0.000000000000000    0.432001000000000    0.212106000000000 
K           0.000000000000000    0.432001000000000    0.787894000000000 
K           0.333333000000000    0.666667000000000    0.000000000000000 
K           0.432001000000000    0.000000000000000    0.212106000000000 
K           0.432001000000000    0.000000000000000    0.787894000000000 
K           0.567999000000000    0.567999000000000    0.212106000000000 
K           0.567999000000000    0.567999000000000    0.787894000000000 
K           0.666667000000000    0.333333000000000    0.000000000000000 
%ENDBLOCK POSITIONS_FRAC
