# Cell file generated by matador (Matthew Evans 2016)

%BLOCK LATTICE_CART
9.29971 0.0 0.0
2.18133 8.27741 0.0
-0.762224 -2.01263 6.83425
%ENDBLOCK LATTICE_CART

%BLOCK POSITIONS_FRAC
P           0.159094000000000    0.297324000000000    0.878690000000000 
P           0.840906000000000    0.702676000000000    0.121310000000000 
K           0.000000000000000    0.000000000000000    0.000000000000000 
K           0.000000000000000    0.000000000000000    0.500000000000000 
K           0.000000000000000    0.500000000000000    0.000000000000000 
K           0.000000000000000    0.500000000000000    0.500000000000000 
K           0.167579000000000    0.775626000000000    0.925247000000000 
K           0.357111000000000    0.150634000000000    0.204684000000000 
K           0.456682000000000    0.801987000000000    0.236354000000000 
K           0.500000000000000    0.000000000000000    0.000000000000000 
K           0.500000000000000    0.000000000000000    0.500000000000000 
K           0.500000000000000    0.500000000000000    0.000000000000000 
K           0.500000000000000    0.500000000000000    0.500000000000000 
K           0.543318000000000    0.198013000000000    0.763646000000000 
K           0.642889000000000    0.849366000000000    0.795316000000000 
K           0.832421000000000    0.224374000000000    0.074753000000000 
%ENDBLOCK POSITIONS_FRAC
