# Cell file generated by matador (Matthew Evans 2016)

%BLOCK LATTICE_CART
4.39272 0.0 0.0
0.0 4.83886 0.0
1.53624 0.0 4.46338
%ENDBLOCK LATTICE_CART

%BLOCK POSITIONS_FRAC
P           0.379785000000000    0.774272000000000    0.372984000000000 
P           0.402102000000000    0.492133000000000    0.467907000000000 
P           0.597898000000000    0.492133000000000    0.532093000000000 
P           0.620215000000000    0.774272000000000    0.627016000000000 
K           0.000000000000000    0.198032000000000    0.500000000000000 
%ENDBLOCK POSITIONS_FRAC
