# Cell file generated by matador (Matthew Evans 2016)

%BLOCK LATTICE_CART
8.60257 0.0 0.0
-4.30129 7.45005 0.0
0.0 0.0 7.14179
%ENDBLOCK LATTICE_CART

%BLOCK POSITIONS_FRAC
P           0.000001000000000    0.000001000000000    0.000000000000000 
P           0.000001000000000    0.000001000000000    0.500000000000000 
P           0.110931000000000    0.221861000000000    0.250000000000000 
P           0.110931000000000    0.889071000000000    0.250000000000000 
P           0.221861000000000    0.110931000000000    0.750000000000000 
P           0.778141000000000    0.889071000000000    0.250000000000000 
P           0.889071000000000    0.110931000000000    0.750000000000000 
P           0.889071000000000    0.778141000000000    0.750000000000000 
K           0.333334000000000    0.666668000000000    0.250000000000000 
K           0.333334000000000    0.666668000000000    0.750000000000000 
K           0.666668000000000    0.333334000000000    0.250000000000000 
K           0.666668000000000    0.333334000000000    0.750000000000000 
%ENDBLOCK POSITIONS_FRAC
