# Cell file generated by matador (Matthew Evans 2016)

%BLOCK LATTICE_CART
9.1347 0.0 0.0
-4.56735 7.91088 0.0
0.0 0.0 8.21602
%ENDBLOCK LATTICE_CART

%BLOCK POSITIONS_FRAC
P           0.000000000000000    0.000000000000000    0.424154000000000 
P           0.000000000000000    0.000000000000000    0.924154000000000 
P           0.333333000000000    0.666667000000000    0.947801000000000 
P           0.666667000000000    0.333333000000000    0.447801000000000 
K           0.153035000000000    0.306069000000000    0.949331000000000 
K           0.153035000000000    0.846965000000000    0.949331000000000 
K           0.212982000000000    0.425965000000000    0.469640000000000 
K           0.212982000000000    0.787018000000000    0.469640000000000 
K           0.306069000000000    0.153035000000000    0.449331000000000 
K           0.425965000000000    0.212982000000000    0.969640000000000 
K           0.574035000000000    0.787018000000000    0.469640000000000 
K           0.693931000000000    0.846965000000000    0.949331000000000 
K           0.787018000000000    0.212982000000000    0.969640000000000 
K           0.787018000000000    0.574035000000000    0.969640000000000 
K           0.846965000000000    0.153035000000000    0.449331000000000 
K           0.846965000000000    0.693931000000000    0.449331000000000 
%ENDBLOCK POSITIONS_FRAC
