# Cell file generated by matador (Matthew Evans 2016)

%BLOCK LATTICE_CART
7.92869 0.0 0.0
-3.96434 6.86645 0.0
0.0 0.0 8.03017
%ENDBLOCK LATTICE_CART

%BLOCK POSITIONS_FRAC
P           0.205014000000000    0.088540000000000    0.666141000000000 
P           0.205014000000000    0.116474000000000    0.333859000000000 
P           0.883526000000000    0.088540000000000    0.667192000000000 
P           0.883526000000000    0.794986000000000    0.332808000000000 
P           0.911460000000000    0.116474000000000    0.999474000000000 
P           0.911460000000000    0.794986000000000    0.000526000000000 
K           0.202733000000000    0.601366000000000    0.500000000000000 
K           0.398634000000000    0.601366000000000    0.833333000000000 
K           0.398634000000000    0.797267000000000    0.166667000000000 
K           0.546862000000000    0.093724000000000    0.666667000000000 
K           0.546862000000000    0.453138000000000    0.333333000000000 
K           0.906276000000000    0.453138000000000   -0.000000000000000 
%ENDBLOCK POSITIONS_FRAC
