# Cell file generated by matador (Matthew Evans 2016)

%BLOCK LATTICE_CART
7.73641 0.0 0.0
-3.8682 6.69993 0.0
0.0 0.0 9.75477
%ENDBLOCK LATTICE_CART

%BLOCK POSITIONS_FRAC
P           0.000000000000000    0.000000000000000    0.488802000000000 
P           0.000000000000000    0.000000000000000    0.633739000000000 
P           0.116716000000000    0.029244000000000    0.993016000000000 
P           0.245861000000000    0.549951000000000    0.659683000000000 
P           0.304089000000000    0.754139000000000    0.659683000000000 
P           0.333333000000000    0.666667000000000    0.155469000000000 
P           0.333333000000000    0.666667000000000    0.300406000000000 
P           0.450049000000000    0.695911000000000    0.659683000000000 
P           0.579195000000000    0.216617000000000    0.326350000000000 
P           0.637423000000000    0.420805000000000    0.326350000000000 
P           0.666667000000000    0.333333000000000    0.822136000000000 
P           0.666667000000000    0.333333000000000    0.967072000000000 
P           0.783383000000000    0.362577000000000    0.326350000000000 
P           0.912528000000000    0.883284000000000    0.993016000000000 
P           0.970756000000000    0.087472000000000    0.993016000000000 
K           0.000000000000000    0.000000000000000    0.251676000000000 
K           0.333333000000000    0.666667000000000    0.918343000000000 
K           0.666667000000000    0.333333000000000    0.585010000000000 
%ENDBLOCK POSITIONS_FRAC
