# Cell file generated by matador (Matthew Evans 2016)

%BLOCK LATTICE_CART
7.3826 0.0 0.0
-3.6913 6.39352 0.0
0.0 0.0 6.66737
%ENDBLOCK LATTICE_CART

%BLOCK POSITIONS_FRAC
P           0.000000000000000    0.000000000000000    0.000000000000000 
P           0.000000000000000    0.270907000000000    0.500000000000000 
P           0.000000000000000    0.690530000000000    0.500000000000000 
P           0.270907000000000    0.000000000000000    0.500000000000000 
P           0.309470000000000    0.309470000000000    0.500000000000000 
P           0.690530000000000    0.000000000000000    0.500000000000000 
P           0.729093000000000    0.729093000000000    0.500000000000000 
K           0.000000000000000    0.000000000000000    0.500000000000000 
K           0.000000000000000    0.436465000000000    0.000000000000000 
K           0.436465000000000    0.000000000000000    0.000000000000000 
K           0.563535000000000    0.563535000000000    0.000000000000000 
%ENDBLOCK POSITIONS_FRAC
