# Cell file generated by matador (Matthew Evans 2016)

%BLOCK LATTICE_CART
8.34892 0.0 0.0
-4.17446 7.23038 0.0
0.0 0.0 9.20335
%ENDBLOCK LATTICE_CART

%BLOCK POSITIONS_FRAC
P           0.000000000000000    0.000000000000000    0.500000000000000 
P           0.333333000000000    0.666667000000000    0.772074000000000 
P           0.666667000000000    0.333333000000000    0.227926000000000 
K           0.096751000000000    0.193503000000000    0.336553000000000 
K           0.096751000000000    0.903249000000000    0.336553000000000 
K           0.168749000000000    0.337499000000000    0.987842000000000 
K           0.168749000000000    0.831251000000000    0.987842000000000 
K           0.193503000000000    0.096751000000000    0.663447000000000 
K           0.337499000000000    0.168749000000000    0.012158000000000 
K           0.662501000000000    0.831251000000000    0.987842000000000 
K           0.806497000000000    0.903249000000000    0.336553000000000 
K           0.831251000000000    0.168749000000000    0.012158000000000 
K           0.831251000000000    0.662501000000000    0.012158000000000 
K           0.903249000000000    0.096751000000000    0.663447000000000 
K           0.903249000000000    0.806497000000000    0.663447000000000 
%ENDBLOCK POSITIONS_FRAC
