# Cell file generated by matador (Matthew Evans 2016)

%BLOCK LATTICE_CART
10.1731 0.0 0.0
0.0 10.1731 0.0
0.0 0.0 5.09718
%ENDBLOCK LATTICE_CART

%BLOCK POSITIONS_FRAC
P           0.000000000000000    0.000000000000000    0.208842000000000 
P           0.000000000000000    0.000000000000000    0.791158000000000 
P           0.093975000000000    0.093975000000000    0.500000000000000 
P           0.093975000000000    0.906025000000000    0.500000000000000 
P           0.500000000000000    0.500000000000000    0.236839000000000 
P           0.500000000000000    0.500000000000000    0.763161000000000 
P           0.906025000000000    0.093975000000000    0.500000000000000 
P           0.906025000000000    0.906025000000000    0.500000000000000 
K           0.000000000000000    0.389601000000000    0.776758000000000 
K           0.000000000000000    0.610399000000000    0.776758000000000 
K           0.189338000000000    0.240142000000000    0.816492000000000 
K           0.189338000000000    0.759858000000000    0.816492000000000 
K           0.240142000000000    0.189338000000000    0.183508000000000 
K           0.240142000000000    0.810662000000000    0.183508000000000 
K           0.389601000000000    0.000000000000000    0.223242000000000 
K           0.610399000000000    0.000000000000000    0.223242000000000 
K           0.759858000000000    0.189338000000000    0.183508000000000 
K           0.759858000000000    0.810662000000000    0.183508000000000 
K           0.810662000000000    0.240142000000000    0.816492000000000 
K           0.810662000000000    0.759858000000000    0.816492000000000 
%ENDBLOCK POSITIONS_FRAC
