# Cell file generated by matador (Matthew Evans 2016)

%BLOCK LATTICE_CART
6.79531 0.0 0.0
0.0 5.45686 0.0
0.0 0.0 5.94796
%ENDBLOCK LATTICE_CART

%BLOCK POSITIONS_FRAC
P           0.000000000000000    0.069464000000000    0.482355000000000 
P           0.000000000000000    0.930536000000000    0.982355000000000 
P           0.500000000000000    0.351085000000000    0.503525000000000 
P           0.500000000000000    0.648915000000000    0.003525000000000 
K           0.000000000000000    0.413452000000000    0.339366000000000 
K           0.000000000000000    0.586548000000000    0.839366000000000 
K           0.500000000000000    0.204793000000000    0.132226000000000 
K           0.500000000000000    0.795207000000000    0.632226000000000 
%ENDBLOCK POSITIONS_FRAC
