# Cell file generated by matador (Matthew Evans 2016)

%BLOCK LATTICE_CART
10.6307 0.0 0.0
0.0 10.6307 0.0
0.0 0.0 9.07778
%ENDBLOCK LATTICE_CART

%BLOCK POSITIONS_FRAC
P           0.000000000000000    0.000000000000000    0.118307000000000 
P           0.000000000000000    0.000000000000000    0.881693000000000 
P           0.000000000000000    0.500000000000000    0.942163000000000 
P           0.500000000000000    0.000000000000000    0.057838000000000 
P           0.500000000000000    0.500000000000000    0.220229000000000 
P           0.500000000000000    0.500000000000000    0.779771000000000 
K           0.000000000000000    0.000000000000000    0.500000000000000 
K           0.000000000000000    0.221720000000000    0.055821000000000 
K           0.000000000000000    0.269275000000000    0.605407000000000 
K           0.000000000000000    0.730725000000000    0.605407000000000 
K           0.000000000000000    0.778280000000000    0.055821000000000 
K           0.221720000000000    0.000000000000000    0.944179000000000 
K           0.232289000000000    0.500000000000000    0.283622000000000 
K           0.269275000000000    0.000000000000000    0.394593000000000 
K           0.296600000000000    0.500000000000000    0.639042000000000 
K           0.500000000000000    0.232289000000000    0.716378000000000 
K           0.500000000000000    0.296600000000000    0.360958000000000 
K           0.500000000000000    0.500000000000000    0.000000000000000 
K           0.500000000000000    0.703400000000000    0.360958000000000 
K           0.500000000000000    0.767711000000000    0.716378000000000 
K           0.703400000000000    0.500000000000000    0.639042000000000 
K           0.730725000000000    0.000000000000000    0.394593000000000 
K           0.767711000000000    0.500000000000000    0.283622000000000 
K           0.778280000000000    0.000000000000000    0.944179000000000 
%ENDBLOCK POSITIONS_FRAC
