# Cell file generated by matador (Matthew Evans 2016)

%BLOCK LATTICE_CART
10.23 0.0 0.0
0.0 8.242 0.0
2.22987 0.0 6.97665
%ENDBLOCK LATTICE_CART

%BLOCK POSITIONS_FRAC
P           0.255997000000000    0.000000000000000    0.318361000000000 
P           0.339662000000000    0.500000000000000    0.038530000000000 
P           0.724071000000000    0.500000000000000    0.892642000000000 
P           0.925243000000000    0.000000000000000    0.299005000000000 
K           0.148679000000000    0.000000000000000    0.799036000000000 
K           0.155349000000000    0.270387000000000    0.392130000000000 
K           0.155349000000000    0.729613000000000    0.392130000000000 
K           0.399369000000000    0.000000000000000    0.477555000000000 
K           0.446022000000000    0.000000000000000    0.079890000000000 
K           0.454596000000000    0.500000000000000    0.519578000000000 
K           0.526083000000000    0.500000000000000    0.083222000000000 
K           0.604468000000000    0.000000000000000    0.686309000000000 
K           0.721804000000000    0.000000000000000    0.226828000000000 
K           0.746097000000000    0.500000000000000    0.578723000000000 
K           0.869213000000000    0.000000000000000    0.752302000000000 
K           0.945006000000000    0.500000000000000    0.149943000000000 
%ENDBLOCK POSITIONS_FRAC
