# Cell file generated by matador (Matthew Evans 2016)

%BLOCK LATTICE_CART
8.87002 0.0 0.0
0.0 5.83395 0.0
0.0 0.0 12.1281
%ENDBLOCK LATTICE_CART

%BLOCK POSITIONS_FRAC
P           0.000000000000000    0.500000000000000    0.300704000000000 
P           0.500000000000000    0.200277000000000    0.777445000000000 
P           0.500000000000000    0.500000000000000    0.165709000000000 
P           0.500000000000000    0.799723000000000    0.777445000000000 
K           0.000000000000000    0.245863000000000    0.652819000000000 
K           0.000000000000000    0.500000000000000    0.110512000000000 
K           0.000000000000000    0.754137000000000    0.652819000000000 
K           0.171763000000000    0.000000000000000    0.101378000000000 
K           0.255437000000000    0.500000000000000    0.429476000000000 
K           0.500000000000000    0.000000000000000    0.074694000000000 
K           0.500000000000000    0.000000000000000    0.634147000000000 
K           0.500000000000000    0.248102000000000    0.313602000000000 
K           0.500000000000000    0.500000000000000    0.993611000000000 
K           0.500000000000000    0.751898000000000    0.313602000000000 
K           0.744563000000000    0.500000000000000    0.429476000000000 
K           0.828237000000000    0.000000000000000    0.101378000000000 
%ENDBLOCK POSITIONS_FRAC
