# Cell file generated by matador (Matthew Evans 2016)

%BLOCK LATTICE_CART
8.78185 0.0 0.0
-4.39092 7.6053 0.0
0.0 0.0 6.26964
%ENDBLOCK LATTICE_CART

%BLOCK POSITIONS_FRAC
P          -0.000000000000000    0.000000000000000    0.103560000000000 
P          -0.000000000000000    0.000000000000000    0.396440000000000 
P          -0.000000000000000    0.000000000000000    0.603560000000000 
P          -0.000000000000000    0.000000000000000    0.896440000000000 
P           0.093195000000000    0.221134000000000    0.250000000000000 
P           0.127939000000000    0.906805000000000    0.250000000000000 
P           0.221134000000000    0.093195000000000    0.750000000000000 
P           0.778866000000000    0.872061000000000    0.250000000000000 
P           0.872061000000000    0.778866000000000    0.750000000000000 
P           0.906805000000000    0.127939000000000    0.750000000000000 
K           0.333333000000000    0.666667000000000    0.250000000000000 
K           0.666666000000000    0.333334000000000    0.750000000000000 
%ENDBLOCK POSITIONS_FRAC
