# Cell file generated by matador (Matthew Evans 2016)

%BLOCK LATTICE_CART
8.71668 0.0 0.0
0.0 8.71668 0.0
0.0 0.0 11.372
%ENDBLOCK LATTICE_CART

%BLOCK POSITIONS_FRAC
P           0.000000000000000    0.000000000000000    0.000000000000000 
P           0.000000000000000    0.000000000000000    0.174166000000000 
P           0.000000000000000    0.000000000000000    0.825834000000000 
P           0.500000000000000    0.500000000000000    0.000000000000000 
P           0.500000000000000    0.500000000000000    0.174166000000000 
P           0.500000000000000    0.500000000000000    0.825834000000000 
K           0.000000000000000    0.262150000000000    0.444271000000000 
K           0.000000000000000    0.500000000000000    0.062726000000000 
K           0.000000000000000    0.737850000000000    0.444271000000000 
K           0.174537000000000    0.325463000000000    0.845401000000000 
K           0.174537000000000    0.674537000000000    0.845401000000000 
K           0.237850000000000    0.500000000000000    0.444271000000000 
K           0.262150000000000    0.000000000000000    0.555729000000000 
K           0.325463000000000    0.174537000000000    0.154599000000000 
K           0.325463000000000    0.825463000000000    0.154599000000000 
K           0.500000000000000    0.000000000000000    0.937274000000000 
K           0.500000000000000    0.237850000000000    0.555729000000000 
K           0.500000000000000    0.762150000000000    0.555729000000000 
K           0.674537000000000    0.174537000000000    0.154599000000000 
K           0.674537000000000    0.825463000000000    0.154599000000000 
K           0.737850000000000    0.000000000000000    0.555729000000000 
K           0.762150000000000    0.500000000000000    0.444271000000000 
K           0.825463000000000    0.325463000000000    0.845401000000000 
K           0.825463000000000    0.674537000000000    0.845401000000000 
%ENDBLOCK POSITIONS_FRAC
