# Cell file generated by matador (Matthew Evans 2016)

%BLOCK LATTICE_CART
8.47609 0.0 0.0
-4.23805 7.34051 0.0
0.0 0.0 9.06394
%ENDBLOCK LATTICE_CART

%BLOCK POSITIONS_FRAC
P          -0.000000000000000   -0.000000000000000    0.343392000000000 
P           0.333333000000000    0.666667000000000    0.010059000000000 
P           0.666667000000000    0.333333000000000    0.676726000000000 
K          -0.000000000000000   -0.000000000000000    0.030337000000000 
K           0.090881000000000    0.545441000000000    0.901760000000000 
K           0.121226000000000    0.242452000000000    0.235093000000000 
K           0.121226000000000    0.878774000000000    0.235093000000000 
K           0.333333000000000    0.666667000000000    0.697004000000000 
K           0.424214000000000    0.212107000000000    0.568426000000000 
K           0.454559000000000    0.545441000000000    0.901760000000000 
K           0.454559000000000    0.909119000000000    0.901760000000000 
K           0.666667000000000    0.333333000000000    0.363671000000000 
K           0.757548000000000    0.878774000000000    0.235093000000000 
K           0.787893000000000    0.212107000000000    0.568426000000000 
K           0.787893000000000    0.575786000000000    0.568426000000000 
%ENDBLOCK POSITIONS_FRAC
