# Cell file generated by matador (Matthew Evans 2016)

%BLOCK LATTICE_CART
9.07529 0.0 0.0
-4.53765 7.85943 0.0
0.0 0.0 13.5132
%ENDBLOCK LATTICE_CART

%BLOCK POSITIONS_FRAC
P          -0.000000000000000   -0.000000000000000    0.057990000000000 
P          -0.000000000000000   -0.000000000000000    0.271507000000000 
P           0.333333000000000    0.666667000000000    0.724657000000000 
P           0.333333000000000    0.666667000000000    0.938174000000000 
P           0.666667000000000    0.333333000000000    0.391324000000000 
P           0.666667000000000    0.333333000000000    0.604840000000000 
K           0.184751000000000    0.369501000000000    0.503346000000000 
K           0.184751000000000    0.815249000000000    0.503346000000000 
K           0.199503000000000    0.399006000000000    0.980666000000000 
K           0.199503000000000    0.800497000000000    0.980666000000000 
K           0.267661000000000    0.133830000000000    0.313999000000000 
K           0.297165000000000    0.148583000000000    0.836680000000000 
K           0.518084000000000    0.036168000000000    0.170013000000000 
K           0.518084000000000    0.481916000000000    0.170013000000000 
K           0.532836000000000    0.065672000000000    0.647333000000000 
K           0.532836000000000    0.467164000000000    0.647333000000000 
K           0.600994000000000    0.800497000000000    0.980666000000000 
K           0.630499000000000    0.815249000000000    0.503346000000000 
K           0.851417000000000    0.148583000000000    0.836680000000000 
K           0.851417000000000    0.702835000000000    0.836680000000000 
K           0.866170000000000    0.133830000000000    0.313999000000000 
K           0.866170000000000    0.732339000000000    0.313999000000000 
K           0.934328000000000    0.467164000000000    0.647333000000000 
K           0.963832000000000    0.481916000000000    0.170013000000000 
%ENDBLOCK POSITIONS_FRAC
