# Cell file generated by matador (Matthew Evans 2016)

%BLOCK LATTICE_CART
7.1501 0.0 0.0
0.0 7.1501 0.0
0.0 0.0 5.19789
%ENDBLOCK LATTICE_CART

%BLOCK POSITIONS_FRAC
P           0.379645000000000    0.379645000000000    0.000000000000000 
P           0.379645000000000    0.620355000000000    0.000000000000000 
P           0.500000000000000    0.500000000000000    0.171076000000000 
P           0.500000000000000    0.500000000000000    0.500000000000000 
P           0.500000000000000    0.500000000000000    0.828924000000000 
P           0.620355000000000    0.379645000000000    0.000000000000000 
P           0.620355000000000    0.620355000000000    0.000000000000000 
K           0.000000000000000    0.500000000000000    0.000000000000000 
K           0.000000000000000    0.500000000000000    0.500000000000000 
K           0.500000000000000    0.000000000000000    0.000000000000000 
K           0.500000000000000    0.000000000000000    0.500000000000000 
%ENDBLOCK POSITIONS_FRAC
