# Cell file generated by matador (Matthew Evans 2016)

%BLOCK LATTICE_CART
8.96809 0.0 0.0
-4.48405 7.7666 0.0
0.0 0.0 7.64656
%ENDBLOCK LATTICE_CART

%BLOCK POSITIONS_FRAC
P           0.000000000000000    0.000000000000000    0.268341000000000 
P           0.000000000000000    0.000000000000000    0.731659000000000 
P           0.469696000000000    0.131446000000000    0.291876000000000 
P           0.469696000000000    0.338250000000000    0.708124000000000 
P           0.661750000000000    0.131446000000000    0.708124000000000 
P           0.661750000000000    0.530304000000000    0.291876000000000 
P           0.666667000000000    0.333333000000000    0.286569000000000 
P           0.666667000000000    0.333333000000000    0.713431000000000 
P           0.868554000000000    0.338250000000000    0.291876000000000 
P           0.868554000000000    0.530304000000000    0.708124000000000 
K           0.000000000000000    0.000000000000000    0.000000000000000 
K           0.197264000000000    0.008052000000000    0.130311000000000 
K           0.197264000000000    0.189212000000000    0.869689000000000 
K           0.333333000000000    0.666667000000000    0.000000000000000 
K           0.810788000000000    0.008052000000000    0.869689000000000 
K           0.810788000000000    0.802736000000000    0.130311000000000 
K           0.991948000000000    0.189212000000000    0.130311000000000 
K           0.991948000000000    0.802736000000000    0.869689000000000 
%ENDBLOCK POSITIONS_FRAC
