# Cell file generated by matador (Matthew Evans 2016)

%BLOCK LATTICE_CART
8.70094 0.0 0.0
1.69128 8.69494 0.0
3.2076 2.04367 8.90007
%ENDBLOCK LATTICE_CART

%BLOCK POSITIONS_FRAC
P           0.420053000000000    0.822591000000000    0.891676000000000 
P           0.579947000000000    0.177409000000000    0.108324000000000 
K           0.000000000000000    0.000000000000000    0.000000000000000 
K           0.000000000000000    0.000000000000000    0.500000000000000 
K           0.000000000000000    0.500000000000000    0.000000000000000 
K           0.000000000000000    0.500000000000000    0.500000000000000 
K           0.341776000000000    0.846021000000000    0.599531000000000 
K           0.368394000000000    0.570350000000000    0.839179000000000 
K           0.470110000000000    0.298345000000000    0.646558000000000 
K           0.500000000000000    0.000000000000000    0.000000000000000 
K           0.500000000000000    0.000000000000000    0.500000000000000 
K           0.500000000000000    0.500000000000000    0.000000000000000 
K           0.500000000000000    0.500000000000000    0.500000000000000 
K           0.529890000000000    0.701655000000000    0.353442000000000 
K           0.631606000000000    0.429650000000000    0.160821000000000 
K           0.658224000000000    0.153979000000000    0.400469000000000 
%ENDBLOCK POSITIONS_FRAC
