# Cell file generated by matador (Matthew Evans 2016)

%BLOCK LATTICE_CART
7.19461 0.0 0.0
-3.5973 6.23071 0.0
0.0 0.0 11.5204
%ENDBLOCK LATTICE_CART

%BLOCK POSITIONS_FRAC
P          -0.000000000000000    0.000000000000000    0.104941000000000 
P          -0.000000000000000    0.000000000000000    0.895059000000000 
P           0.333333000000000    0.666667000000000    0.561725000000000 
P           0.333333000000000    0.666667000000000    0.771608000000000 
P           0.666667000000000    0.333333000000000    0.228392000000000 
P           0.666667000000000    0.333333000000000    0.438275000000000 
K          -0.000000000000000    0.500000000000000    0.000000000000000 
K           0.166667000000000    0.333333000000000    0.333333000000000 
K           0.166667000000000    0.833333000000000    0.333333000000000 
K           0.333333000000000    0.166667000000000    0.666667000000000 
K           0.500000000000000    0.000000000000000    0.000000000000000 
K           0.500000000000000    0.500000000000000    0.000000000000000 
K           0.666667000000000    0.833333000000000    0.333333000000000 
K           0.833333000000000    0.166667000000000    0.666667000000000 
K           0.833333000000000    0.666667000000000    0.666667000000000 
%ENDBLOCK POSITIONS_FRAC
