# Cell file generated by matador (Matthew Evans 2016)

%BLOCK LATTICE_CART
7.36132 0.0 0.0
0.0 7.36132 0.0
0.0 0.0 7.83403
%ENDBLOCK LATTICE_CART

%BLOCK POSITIONS_FRAC
P           0.398009000000000    0.398009000000000    0.717393000000000 
P           0.398009000000000    0.601991000000000    0.282607000000000 
P           0.500000000000000    0.500000000000000    0.232648000000000 
P           0.500000000000000    0.500000000000000    0.767352000000000 
P           0.601991000000000    0.398009000000000    0.282607000000000 
P           0.601991000000000    0.601991000000000    0.717393000000000 
K           0.000000000000000    0.000000000000000    0.000000000000000 
K           0.000000000000000    0.000000000000000    0.500000000000000 
K           0.000000000000000    0.500000000000000    0.500000000000000 
K           0.500000000000000    0.000000000000000    0.500000000000000 
K           0.500000000000000    0.500000000000000    0.500000000000000 
%ENDBLOCK POSITIONS_FRAC
