# Cell file generated by matador (Matthew Evans 2016)

%BLOCK LATTICE_CART
8.6339 0.0 0.0
0.0 8.6339 0.0
0.0 0.0 10.3407
%ENDBLOCK LATTICE_CART

%BLOCK POSITIONS_FRAC
P           0.000000000000000    0.000000000000000    0.500000000000000 
P           0.000000000000000    0.500000000000000    0.250000000000000 
P           0.000000000000000    0.500000000000000    0.750000000000000 
P           0.030668000000000    0.729606000000000    0.500000000000000 
P           0.229606000000000    0.469332000000000    0.000000000000000 
P           0.270394000000000    0.030668000000000    0.500000000000000 
P           0.469332000000000    0.770394000000000    0.000000000000000 
P           0.500000000000000    0.000000000000000    0.250000000000000 
P           0.500000000000000    0.000000000000000    0.750000000000000 
P           0.500000000000000    0.500000000000000    0.000000000000000 
P           0.530668000000000    0.229606000000000    0.000000000000000 
P           0.729606000000000    0.969332000000000    0.500000000000000 
P           0.770394000000000    0.530668000000000    0.000000000000000 
P           0.969332000000000    0.270394000000000    0.500000000000000 
K           0.000000000000000    0.000000000000000    0.000000000000000 
K           0.000000000000000    0.500000000000000    0.000000000000000 
K           0.000000000000000    0.500000000000000    0.500000000000000 
K           0.500000000000000    0.000000000000000    0.000000000000000 
K           0.500000000000000    0.000000000000000    0.500000000000000 
K           0.500000000000000    0.500000000000000    0.500000000000000 
%ENDBLOCK POSITIONS_FRAC
