# Cell file generated by matador (Matthew Evans 2016)

%BLOCK LATTICE_CART
7.1766 0.0 0.0
0.0 7.1766 0.0
0.0 0.0 7.42606
%ENDBLOCK LATTICE_CART

%BLOCK POSITIONS_FRAC
P           0.000000000000000    0.000000000000000    0.193212000000000 
P           0.500000000000000    0.500000000000000    0.693212000000000 
K           0.000000000000000    0.000000000000000    0.754810000000000 
K           0.114580000000000    0.885420000000000    0.478605000000000 
K           0.206744000000000    0.793256000000000    0.138539000000000 
K           0.293256000000000    0.293256000000000    0.638539000000000 
K           0.385420000000000    0.385420000000000    0.978605000000000 
K           0.500000000000000    0.500000000000000    0.254810000000000 
K           0.614580000000000    0.614580000000000    0.978605000000000 
K           0.706744000000000    0.706744000000000    0.638539000000000 
K           0.793256000000000    0.206744000000000    0.138539000000000 
K           0.885420000000000    0.114580000000000    0.478605000000000 
%ENDBLOCK POSITIONS_FRAC
