# Cell file generated by matador (Matthew Evans 2016)

%BLOCK LATTICE_CART
4.3096 0.0 0.0
0.0 8.71818 0.0
0.0 0.0 12.1443
%ENDBLOCK LATTICE_CART

%BLOCK POSITIONS_FRAC
P           0.116066000000000    0.000000000000000    0.325322000000000 
P           0.116066000000000    0.000000000000000    0.674678000000000 
P           0.500000000000000    0.270595000000000    0.000000000000000 
P           0.500000000000000    0.729405000000000    0.000000000000000 
P           0.883934000000000    0.000000000000000    0.325322000000000 
P           0.883934000000000    0.000000000000000    0.674678000000000 
K           0.000000000000000    0.000000000000000    0.000000000000000 
K           0.000000000000000    0.500000000000000    0.000000000000000 
K           0.000000000000000    0.500000000000000    0.500000000000000 
K           0.500000000000000    0.000000000000000    0.000000000000000 
K           0.500000000000000    0.266328000000000    0.321627000000000 
K           0.500000000000000    0.266328000000000    0.678373000000000 
K           0.500000000000000    0.500000000000000    0.000000000000000 
K           0.500000000000000    0.733672000000000    0.321627000000000 
K           0.500000000000000    0.733672000000000    0.678373000000000 
%ENDBLOCK POSITIONS_FRAC
