# Cell file generated by matador (Matthew Evans 2016)

%BLOCK LATTICE_CART
7.7877 0.0 0.0
-3.89385 6.74434 0.0
0.0 0.0 8.00331
%ENDBLOCK LATTICE_CART

%BLOCK POSITIONS_FRAC
P           0.000000000000000    0.500000000000000    0.000000000000000 
P           0.500000000000000    0.000000000000000    0.000000000000000 
P           0.500000000000000    0.500000000000000    0.000000000000000 
K           0.000000000000000    0.000000000000000    0.000000000000000 
K           0.000000000000000    0.345945000000000    0.632142000000000 
K           0.000000000000000    0.654055000000000    0.367858000000000 
K           0.333333000000000    0.666667000000000    0.000000000000000 
K           0.345945000000000    0.000000000000000    0.632142000000000 
K           0.345945000000000    0.345945000000000    0.367858000000000 
K           0.654055000000000    0.000000000000000    0.367858000000000 
K           0.654055000000000    0.654055000000000    0.632142000000000 
K           0.666667000000000    0.333333000000000    0.000000000000000 
%ENDBLOCK POSITIONS_FRAC
