# Cell file generated by matador (Matthew Evans 2016)

%BLOCK LATTICE_CART
6.75929 0.0 0.0
-3.37965 5.85372 0.0
0.0 0.0 7.99242
%ENDBLOCK LATTICE_CART

%BLOCK POSITIONS_FRAC
P           0.333334000000000    0.666668000000000    0.500000000000000 
P           0.666668000000000    0.333334000000000    0.500000000000000 
K           0.000001000000000    0.500001000000000    0.000000000000000 
K           0.000001000000000    0.500001000000000    0.500000000000000 
K           0.500001000000000    0.000001000000000    0.000000000000000 
K           0.500001000000000    0.000001000000000    0.500000000000000 
K           0.500001000000000    0.500001000000000    0.000000000000000 
K           0.500001000000000    0.500001000000000    0.500000000000000 
%ENDBLOCK POSITIONS_FRAC
