# Cell file generated by matador (Matthew Evans 2016)

%BLOCK LATTICE_CART
6.70794 0.0 0.0
0.0 7.79543 0.0
0.0 0.0 6.52177
%ENDBLOCK LATTICE_CART

%BLOCK POSITIONS_FRAC
P           0.000000000000000    0.000000000000000    0.931543000000000 
P           0.000000000000000    0.500000000000000    0.431543000000000 
K           0.000000000000000    0.247895000000000    0.358467000000000 
K           0.000000000000000    0.252105000000000    0.858467000000000 
K           0.000000000000000    0.747895000000000    0.858467000000000 
K           0.000000000000000    0.752105000000000    0.358467000000000 
K           0.500000000000000    0.000000000000000    0.461869000000000 
K           0.500000000000000    0.500000000000000    0.961869000000000 
%ENDBLOCK POSITIONS_FRAC
