# Cell file generated by matador (Matthew Evans 2016)

%BLOCK LATTICE_CART
5.87186 0.0 0.0
0.0 9.01888 0.0
0.0 0.0 6.12362
%ENDBLOCK LATTICE_CART

%BLOCK POSITIONS_FRAC
P           0.500000000000000    0.000000000000000    0.000000000000000 
P           0.500000000000000    0.000000000000000    0.173395000000000 
P           0.500000000000000    0.000000000000000    0.826605000000000 
P           0.500000000000000    0.273058000000000    0.500000000000000 
P           0.500000000000000    0.726942000000000    0.500000000000000 
K           0.000000000000000    0.000000000000000    0.000000000000000 
K           0.000000000000000    0.500000000000000    0.000000000000000 
K           0.000000000000000    0.500000000000000    0.500000000000000 
K           0.500000000000000    0.000000000000000    0.500000000000000 
K           0.500000000000000    0.500000000000000    0.000000000000000 
K           0.500000000000000    0.500000000000000    0.500000000000000 
%ENDBLOCK POSITIONS_FRAC
