# Cell file generated by matador (Matthew Evans 2016)

%BLOCK LATTICE_CART
8.49907 0.0 0.0
-1.56559 7.06346 0.0
5.03552 2.21305 9.24686
%ENDBLOCK LATTICE_CART

%BLOCK POSITIONS_FRAC
P           0.267232000000000    0.075145000000000    0.450374000000000 
P           0.427765000000000    0.112934000000000    0.662004000000000 
P           0.572235000000000    0.887066000000000    0.337996000000000 
P           0.732768000000000    0.924855000000000    0.549626000000000 
K           0.000000000000000    0.000000000000000    0.000000000000000 
K           0.000000000000000    0.000000000000000    0.500000000000000 
K           0.000000000000000    0.500000000000000    0.500000000000000 
K           0.119707000000000    0.982692000000000    0.170013000000000 
K           0.388049000000000    0.556914000000000    0.873565000000000 
K           0.442360000000000    0.233708000000000    0.912259000000000 
K           0.475250000000000    0.823076000000000    0.572631000000000 
K           0.500000000000000    0.000000000000000    0.000000000000000 
K           0.500000000000000    0.500000000000000    0.000000000000000 
K           0.500000000000000    0.500000000000000    0.500000000000000 
K           0.524750000000000    0.176924000000000    0.427369000000000 
K           0.557640000000000    0.766292000000000    0.087741000000000 
K           0.611951000000000    0.443086000000000    0.126435000000000 
K           0.880293000000000    0.017308000000000    0.829987000000000 
%ENDBLOCK POSITIONS_FRAC
