# Cell file generated by matador (Matthew Evans 2016)

%BLOCK LATTICE_CART
7.07055 0.0 0.0
0.0 7.07055 0.0
0.0 0.0 7.07055
%ENDBLOCK LATTICE_CART

%BLOCK POSITIONS_FRAC
P           0.000000000000000    0.000000000000000    0.210735000000000 
P           0.000000000000000    0.000000000000000    0.789265000000000 
P           0.000000000000000    0.210735000000000    0.000000000000000 
P           0.000000000000000    0.789265000000000    0.000000000000000 
P           0.210735000000000    0.000000000000000    0.000000000000000 
P           0.789265000000000    0.000000000000000    0.000000000000000 
K           0.000000000000000    0.500000000000000    0.500000000000000 
K           0.314884000000000    0.314884000000000    0.314884000000000 
K           0.314884000000000    0.685116000000000    0.685116000000000 
K           0.500000000000000    0.000000000000000    0.500000000000000 
K           0.500000000000000    0.500000000000000    0.000000000000000 
K           0.500000000000000    0.500000000000000    0.500000000000000 
K           0.685116000000000    0.314884000000000    0.685116000000000 
K           0.685116000000000    0.685116000000000    0.314884000000000 
%ENDBLOCK POSITIONS_FRAC
