# Cell file generated by matador (Matthew Evans 2016)

%BLOCK LATTICE_CART
7.28237 0.0 0.0
-3.64119 6.30672 0.0
0.0 0.0 7.17851
%ENDBLOCK LATTICE_CART

%BLOCK POSITIONS_FRAC
P           0.000000000000000   -0.000000000000000    0.500000000000000 
P           0.333333000000000    0.666667000000000    0.166667000000000 
P           0.666667000000000    0.333333000000000    0.833333000000000 
K           0.000000000000000    0.495805000000000   -0.000000000000000 
K           0.162472000000000    0.333333000000000    0.333333000000000 
K           0.170861000000000    0.837528000000000    0.333333000000000 
K           0.333333000000000    0.162472000000000    0.666667000000000 
K           0.495805000000000   -0.000000000000000   -0.000000000000000 
K           0.504195000000000    0.504195000000000   -0.000000000000000 
K           0.666667000000000    0.829139000000000    0.333333000000000 
K           0.829139000000000    0.666667000000000    0.666667000000000 
K           0.837528000000000    0.170861000000000    0.666667000000000 
%ENDBLOCK POSITIONS_FRAC
