# Cell file generated by matador (Matthew Evans 2016)

%BLOCK LATTICE_CART
7.17526 0.0 0.0
-3.58763 6.21395 0.0
0.0 0.0 11.6059
%ENDBLOCK LATTICE_CART

%BLOCK POSITIONS_FRAC
P           0.072932000000000    0.536466000000000    0.730795000000000 
P           0.209479000000000    0.104740000000000    0.743779000000000 
P           0.463534000000000    0.536466000000000    0.730795000000000 
P           0.463534000000000    0.927068000000000    0.730795000000000 
P           0.895260000000000    0.104740000000000    0.743779000000000 
P           0.895260000000000    0.790521000000000    0.743779000000000 
K           0.000000000000000    0.000000000000000    0.054640000000000 
K           0.000000000000000    0.000000000000000    0.504051000000000 
K           0.196389000000000    0.392779000000000    0.557454000000000 
K           0.196389000000000    0.803611000000000    0.557454000000000 
K           0.500723000000000    0.001446000000000    0.191660000000000 
K           0.500723000000000    0.499277000000000    0.191660000000000 
K           0.607221000000000    0.803611000000000    0.557454000000000 
K           0.666667000000000    0.333333000000000    0.602404000000000 
K           0.998554000000000    0.499277000000000    0.191660000000000 
%ENDBLOCK POSITIONS_FRAC
