# Cell file generated by matador (Matthew Evans 2016)

%BLOCK LATTICE_CART
6.97265 0.0 0.0
-3.48633 6.0385 0.0
0.0 0.0 6.56309
%ENDBLOCK LATTICE_CART

%BLOCK POSITIONS_FRAC
P           0.000000000000000    0.000000000000000    0.499430000000000 
K           0.000000000000000    0.000000000000000    0.006948000000000 
K           0.333333000000000    0.666667000000000    0.122895000000000 
K           0.427955000000000    0.296976000000000    0.521672000000000 
K           0.666667000000000    0.333333000000000    0.726105000000000 
K           0.703024000000000    0.130978000000000    0.521672000000000 
K           0.869022000000000    0.572045000000000    0.521672000000000 
%ENDBLOCK POSITIONS_FRAC
