# Cell file generated by matador (Matthew Evans 2016)

%BLOCK LATTICE_CART
5.41215 0.0 0.0
-2.70608 4.68706 0.0
0.0 0.0 6.6359
%ENDBLOCK LATTICE_CART

%BLOCK POSITIONS_FRAC
P          -0.000000000000000    0.000000000000000    0.344118000000000 
P           0.193349000000000    0.728020000000000    0.397013000000000 
P           0.271980000000000    0.465329000000000    0.397013000000000 
P           0.534671000000000    0.806651000000000    0.397013000000000 
P           0.541740000000000    0.182652000000000    0.226957000000000 
P           0.640912000000000    0.458260000000000    0.226957000000000 
P           0.817348000000000    0.359088000000000    0.226957000000000 
K           0.333333000000000    0.666667000000000    0.878180000000000 
K           0.666666000000000    0.333334000000000    0.794465000000000 
%ENDBLOCK POSITIONS_FRAC
