# Cell file generated by matador (Matthew Evans 2016)

%BLOCK LATTICE_CART
6.54554 0.0 0.0
-3.27277 5.66861 0.0
0.0 0.0 5.04508
%ENDBLOCK LATTICE_CART

%BLOCK POSITIONS_FRAC
P           0.000000000000000    0.000000000000000    0.103574000000000 
P           0.000000000000000    0.000000000000000    0.896426000000000 
P           0.333333000000000    0.666667000000000    0.290831000000000 
P           0.333333000000000    0.666667000000000    0.709169000000000 
P           0.666667000000000    0.333333000000000    0.290831000000000 
P           0.666667000000000    0.333333000000000    0.709169000000000 
K           0.000000000000000    0.000000000000000    0.500000000000000 
%ENDBLOCK POSITIONS_FRAC
