# Cell file generated by matador (Matthew Evans 2016)

%BLOCK LATTICE_CART
8.25622 0.0 0.0
0.0 11.3258 0.0
-3.78273 0.0 7.03755
%ENDBLOCK LATTICE_CART

%BLOCK POSITIONS_FRAC
P           0.227994000000000    0.725644000000000    0.342897000000000 
P           0.772006000000000    0.725644000000000    0.657103000000000 
K           0.000000000000000    0.429893000000000    0.500000000000000 
K           0.081182000000000    0.923780000000000    0.391588000000000 
K           0.224038000000000    0.916017000000000    0.700677000000000 
K           0.255071000000000    0.528168000000000    0.063127000000000 
K           0.402617000000000    0.158737000000000    0.582503000000000 
K           0.428212000000000    0.557977000000000    0.780729000000000 
K           0.500000000000000    0.045626000000000   -0.000000000000000 
K           0.500000000000000    0.629228000000000    0.500000000000000 
K           0.500000000000000    0.815715000000000    0.500000000000000 
K           0.571788000000000    0.557977000000000    0.219271000000000 
K           0.597383000000000    0.158737000000000    0.417497000000000 
K           0.744929000000000    0.528168000000000    0.936873000000000 
K           0.775962000000000    0.916017000000000    0.299323000000000 
K           0.918818000000000    0.923780000000000    0.608412000000000 
%ENDBLOCK POSITIONS_FRAC
