# Cell file generated by matador (Matthew Evans 2016)

%BLOCK LATTICE_CART
7.15702 0.0 0.0
-0.652336 5.41063 0.0
-2.82063 0.0522825 4.90581
%ENDBLOCK LATTICE_CART

%BLOCK POSITIONS_FRAC
P           0.169219000000000    0.056070000000000    0.621122000000000 
P           0.210680000000000    0.678562000000000    0.560205000000000 
P           0.358324000000000    0.524723000000000    0.074953000000000 
P           0.500000000000000    0.000000000000000    0.500000000000000 
P           0.641676000000000    0.475277000000000    0.925047000000000 
P           0.789320000000000    0.321438000000000    0.439795000000000 
P           0.830781000000000    0.943930000000000    0.378878000000000 
K           0.500000000000000    0.000000000000000    0.000000000000000 
K           0.500000000000000    0.500000000000000    0.500000000000000 
%ENDBLOCK POSITIONS_FRAC
