# Cell file generated by matador (Matthew Evans 2016)

%BLOCK LATTICE_CART
6.33273 0.0 0.0
-3.16636 5.4843 0.0
0.0 0.0 8.43131
%ENDBLOCK LATTICE_CART

%BLOCK POSITIONS_FRAC
P           0.000000000000000    0.000000000000000    0.547215000000000 
P           0.083348000000000    0.542911000000000    0.163783000000000 
P           0.123756000000000    0.873771000000000    0.497116000000000 
P           0.126229000000000    0.249985000000000    0.497116000000000 
P           0.333333000000000    0.666667000000000    0.213882000000000 
P           0.416681000000000    0.209577000000000    0.830450000000000 
P           0.457089000000000    0.540437000000000    0.163783000000000 
P           0.459563000000000    0.916652000000000    0.163783000000000 
P           0.666667000000000    0.333333000000000    0.880548000000000 
P           0.750015000000000    0.876244000000000    0.497116000000000 
P           0.790423000000000    0.207104000000000    0.830450000000000 
P           0.792896000000000    0.583319000000000    0.830450000000000 
K           0.000000000000000    0.000000000000000    0.022590000000000 
K           0.333333000000000    0.666667000000000    0.689257000000000 
K           0.666667000000000    0.333333000000000    0.355924000000000 
%ENDBLOCK POSITIONS_FRAC
