# Cell file generated by matador (Matthew Evans 2016)

%BLOCK LATTICE_CART
6.41231 0.0 0.0
0.0 8.8252 0.0
0.0 0.0 11.4725
%ENDBLOCK LATTICE_CART

%BLOCK POSITIONS_FRAC
P           0.000000000000000    0.000000000000000    0.670164000000000 
P           0.000000000000000    0.500000000000000    0.170164000000000 
P           0.500000000000000    0.000000000000000    0.170164000000000 
P           0.500000000000000    0.500000000000000    0.670164000000000 
K           0.000000000000000    0.000000000000000    0.439394000000000 
K           0.000000000000000    0.175543000000000    0.809078000000000 
K           0.000000000000000    0.324457000000000    0.309078000000000 
K           0.000000000000000    0.500000000000000    0.939394000000000 
K           0.000000000000000    0.675543000000000    0.309078000000000 
K           0.000000000000000    0.824457000000000    0.809078000000000 
K           0.500000000000000    0.000000000000000    0.939394000000000 
K           0.500000000000000    0.175543000000000    0.309078000000000 
K           0.500000000000000    0.324457000000000    0.809078000000000 
K           0.500000000000000    0.500000000000000    0.439394000000000 
K           0.500000000000000    0.675543000000000    0.809078000000000 
K           0.500000000000000    0.824457000000000    0.309078000000000 
%ENDBLOCK POSITIONS_FRAC
