# Cell file generated by matador (Matthew Evans 2016)

%BLOCK LATTICE_CART
7.74344 0.0 0.0
-2.19656 5.65455 0.0
3.48774 -0.85917 7.2143
%ENDBLOCK LATTICE_CART

%BLOCK POSITIONS_FRAC
P           0.000000000000000    0.500000000000000    0.500000000000000 
P           0.083705000000000    0.969611000000000    0.368354000000000 
P           0.100572000000000    0.618358000000000    0.346594000000000 
P           0.500000000000000    0.500000000000000    0.500000000000000 
P           0.899428000000000    0.381642000000000    0.653406000000000 
P           0.916295000000000    0.030389000000000    0.631646000000000 
K           0.000000000000000    0.000000000000000    0.000000000000000 
K           0.000000000000000    0.500000000000000    0.000000000000000 
K           0.500000000000000    0.000000000000000    0.000000000000000 
K           0.500000000000000    0.000000000000000    0.500000000000000 
%ENDBLOCK POSITIONS_FRAC
