# Cell file generated by matador (Matthew Evans 2016)

%BLOCK LATTICE_CART
5.83986 0.0 0.0
-2.91993 5.05746 0.0
0.0 0.0 14.0832
%ENDBLOCK LATTICE_CART

%BLOCK POSITIONS_FRAC
P           0.039321000000000    0.399202000000000    0.840349000000000 
P           0.119637000000000    0.465627000000000    0.574247000000000 
P           0.345990000000000    0.880363000000000    0.574247000000000 
P           0.359881000000000    0.960679000000000    0.840349000000000 
P           0.489444000000000    0.124129000000000    0.777059000000000 
P           0.534373000000000    0.654010000000000    0.574247000000000 
P           0.600798000000000    0.640119000000000    0.840349000000000 
P           0.634685000000000    0.510556000000000    0.777059000000000 
P           0.666667000000000    0.333333000000000    0.641953000000000 
P           0.875871000000000    0.365315000000000    0.777059000000000 
K           0.053432000000000    0.274156000000000    0.121639000000000 
K           0.220724000000000    0.946568000000000    0.121639000000000 
K           0.333333000000000    0.666667000000000    0.308488000000000 
K           0.666667000000000    0.333333000000000    0.268047000000000 
K           0.666667000000000    0.333333000000000    0.916046000000000 
K           0.725844000000000    0.779276000000000    0.121639000000000 
%ENDBLOCK POSITIONS_FRAC
