# Cell file generated by matador (Matthew Evans 2016)

%BLOCK LATTICE_CART
5.69939 0.0 0.0
1.0404 4.41254 0.0
-4.03459 1.68137 11.9
%ENDBLOCK LATTICE_CART

%BLOCK POSITIONS_FRAC
P           0.000000000000000    0.000000000000000    0.500000000000000 
K           0.000000000000000    0.500000000000000    0.000000000000000 
K           0.191177000000000    0.034641000000000    0.752181000000000 
K           0.500000000000000    0.000000000000000    0.500000000000000 
K           0.500000000000000    0.500000000000000    0.000000000000000 
K           0.500000000000000    0.500000000000000    0.500000000000000 
K           0.808823000000000    0.965359000000000    0.247819000000000 
%ENDBLOCK POSITIONS_FRAC
