# Cell file generated by matador (Matthew Evans 2016)

%BLOCK LATTICE_CART
7.8772 0.0 0.0
0.0 9.03722 0.0
-2.80086 0.0 6.40987
%ENDBLOCK LATTICE_CART

%BLOCK POSITIONS_FRAC
P           0.117678000000000    0.540089000000000    0.952208000000000 
P           0.117678000000000    0.959911000000000    0.452208000000000 
P           0.190598000000000    0.125335000000000    0.778007000000000 
P           0.190598000000000    0.374665000000000    0.278007000000000 
P           0.264070000000000    0.044429000000000    0.287658000000000 
P           0.264070000000000    0.455571000000000    0.787658000000000 
P           0.500000000000000    0.000000000000000    0.000000000000000 
P           0.500000000000000    0.500000000000000    0.500000000000000 
P           0.735930000000000    0.544429000000000    0.212342000000000 
P           0.735930000000000    0.955571000000000    0.712342000000000 
P           0.809402000000000    0.625335000000000    0.721993000000000 
P           0.809402000000000    0.874665000000000    0.221993000000000 
P           0.882322000000000    0.040089000000000    0.547792000000000 
P           0.882322000000000    0.459911000000000    0.047792000000000 
K           0.000000000000000    0.000000000000000    0.000000000000000 
K           0.000000000000000    0.500000000000000    0.500000000000000 
K           0.318052000000000    0.732556000000000    0.755925000000000 
K           0.318052000000000    0.767444000000000    0.255925000000000 
K           0.681948000000000    0.232556000000000    0.744075000000000 
K           0.681948000000000    0.267444000000000    0.244075000000000 
%ENDBLOCK POSITIONS_FRAC
