# Cell file generated by matador (Matthew Evans 2016)

%BLOCK LATTICE_CART
4.16244 0.0 0.0
0.0 6.9546 0.0
0.0 0.0 6.37108
%ENDBLOCK LATTICE_CART

%BLOCK POSITIONS_FRAC
P           0.000000000000000    0.000000000000000    0.000000000000000 
P           0.000000000000000    0.500000000000000    0.000000000000000 
P           0.250000000000000    0.000000000000000    0.993673000000000 
P           0.500000000000000    0.000000000000000    0.000000000000000 
P           0.500000000000000    0.500000000000000    0.000000000000000 
P           0.750000000000000    0.000000000000000    0.006327000000000 
K           0.250000000000000    0.000000000000000    0.386986000000000 
K           0.750000000000000    0.000000000000000    0.613014000000000 
%ENDBLOCK POSITIONS_FRAC
