# Cell file generated by matador (Matthew Evans 2016)

%BLOCK LATTICE_CART
9.51198 0.0 0.0
0.0 10.0382 0.0
2.36941 0.0 6.4223
%ENDBLOCK LATTICE_CART

%BLOCK POSITIONS_FRAC
P           0.183744000000000    0.177129000000000    0.555624000000000 
P           0.183744000000000    0.822871000000000    0.055624000000000 
P           0.447028000000000    0.358279000000000    0.726290000000000 
P           0.447028000000000    0.641721000000000    0.226290000000000 
P           0.552972000000000    0.358279000000000    0.773710000000000 
P           0.552972000000000    0.641721000000000    0.273710000000000 
P           0.816256000000000    0.177129000000000    0.944376000000000 
P           0.816256000000000    0.822871000000000    0.444376000000000 
K          -0.000000000000000    0.000000000000000    0.000000000000000 
K          -0.000000000000000    0.000000000000000    0.500000000000000 
K          -0.000000000000000    0.371770000000000    0.250000000000000 
K          -0.000000000000000    0.500000000000000    0.000000000000000 
K          -0.000000000000000    0.500000000000000    0.500000000000000 
K          -0.000000000000000    0.628230000000000    0.750000000000000 
K           0.500000000000000    0.000000000000000    0.000000000000000 
K           0.500000000000000    0.000000000000000    0.500000000000000 
K           0.500000000000000    0.500000000000000    0.000000000000000 
K           0.500000000000000    0.500000000000000    0.500000000000000 
%ENDBLOCK POSITIONS_FRAC
