# Cell file generated by matador (Matthew Evans 2016)

%BLOCK LATTICE_CART
7.80879 0.0 0.0
0.0 7.3853 0.0
0.0 0.0 10.1485
%ENDBLOCK LATTICE_CART

%BLOCK POSITIONS_FRAC
P           0.175284000000000    0.210972000000000    0.351549000000000 
P           0.324716000000000    0.710972000000000    0.648451000000000 
P           0.675284000000000    0.289028000000000    0.648451000000000 
P           0.824716000000000    0.789028000000000    0.351549000000000 
K           0.000000000000000   -0.000000000000000    0.269772000000000 
K           0.000000000000000    0.500000000000000    0.389461000000000 
K           0.000000000000000    0.500000000000000    0.596627000000000 
K           0.044072000000000    0.221146000000000    0.613975000000000 
K           0.233614000000000    0.020641000000000    0.801938000000000 
K           0.266386000000000    0.520641000000000    0.198062000000000 
K           0.455928000000000    0.721146000000000    0.386025000000000 
K           0.500000000000000   -0.000000000000000    0.403373000000000 
K           0.500000000000000   -0.000000000000000    0.610539000000000 
K           0.500000000000000    0.500000000000000    0.730228000000000 
K           0.544072000000000    0.278854000000000    0.386025000000000 
K           0.733614000000000    0.479359000000000    0.198062000000000 
K           0.766386000000000    0.979359000000000    0.801938000000000 
K           0.955928000000000    0.778854000000000    0.613975000000000 
%ENDBLOCK POSITIONS_FRAC
