# Cell file generated by matador (Matthew Evans 2016)

%BLOCK LATTICE_CART
8.6577 0.0 0.0
-4.32885 7.49779 0.0
0.0 0.0 8.83551
%ENDBLOCK LATTICE_CART

%BLOCK POSITIONS_FRAC
P           0.000000000000000    0.000000000000000    0.336085000000000 
P           0.333333000000000    0.666667000000000    0.002752000000000 
P           0.666667000000000    0.333333000000000    0.669419000000000 
K           0.000000000000000    0.000000000000000    0.052877000000000 
K           0.110191000000000    0.220381000000000    0.862264000000000 
K           0.110191000000000    0.889809000000000    0.862264000000000 
K           0.112952000000000    0.556476000000000    0.528930000000000 
K           0.333333000000000    0.666667000000000    0.719544000000000 
K           0.443524000000000    0.556476000000000    0.528930000000000 
K           0.443524000000000    0.887048000000000    0.528930000000000 
K           0.446285000000000    0.223143000000000    0.195597000000000 
K           0.666667000000000    0.333333000000000    0.386211000000000 
K           0.776857000000000    0.223143000000000    0.195597000000000 
K           0.776857000000000    0.553715000000000    0.195597000000000 
K           0.779619000000000    0.889809000000000    0.862264000000000 
%ENDBLOCK POSITIONS_FRAC
