# Cell file generated by matador (Matthew Evans 2016)

%BLOCK LATTICE_CART
8.925 0.0 0.0
0.0 8.925 0.0
0.0 0.0 3.16728
%ENDBLOCK LATTICE_CART

%BLOCK POSITIONS_FRAC
P           0.000000000000000    0.000000000000000    0.500000000000000 
P           0.330375000000000    0.500000000000000    0.873332000000000 
P           0.500000000000000    0.330375000000000    0.126668000000000 
P           0.500000000000000    0.669625000000000    0.126668000000000 
P           0.669625000000000    0.500000000000000    0.873332000000000 
K           0.177126000000000    0.500000000000000    0.362627000000000 
K           0.500000000000000    0.177126000000000    0.637373000000000 
K           0.500000000000000    0.822874000000000    0.637373000000000 
K           0.822874000000000    0.500000000000000    0.362627000000000 
%ENDBLOCK POSITIONS_FRAC
