# Cell file generated by matador (Matthew Evans 2016)

%BLOCK LATTICE_CART
8.73007 0.0 0.0
-4.36504 7.56047 0.0
0.0 0.0 4.72994
%ENDBLOCK LATTICE_CART

%BLOCK POSITIONS_FRAC
P           0.174131000000000    0.750533000000000    0.995822000000000 
P           0.249467000000000    0.423599000000000    0.995822000000000 
P           0.435631000000000    0.324909000000000    0.080935000000000 
P           0.576401000000000    0.825869000000000    0.995822000000000 
P           0.666667000000000    0.333333000000000    0.870411000000000 
P           0.675091000000000    0.110722000000000    0.080935000000000 
P           0.889278000000000    0.564369000000000    0.080935000000000 
K           0.070607000000000    0.554630000000000    0.347457000000000 
K           0.445370000000000    0.515977000000000    0.347457000000000 
K           0.484023000000000    0.929393000000000    0.347457000000000 
K           0.666667000000000    0.333333000000000    0.306174000000000 
%ENDBLOCK POSITIONS_FRAC
