# Cell file generated by matador (Matthew Evans 2016)

%BLOCK LATTICE_CART
8.34657 0.0 0.0
-4.17328 7.22834 0.0
0.0 0.0 6.88683
%ENDBLOCK LATTICE_CART

%BLOCK POSITIONS_FRAC
P           0.000000000000000    0.000000000000000    0.765754000000000 
P           0.080217000000000    0.763625000000000    0.860035000000000 
P           0.202165000000000    0.155971000000000    0.352508000000000 
P           0.236375000000000    0.316592000000000    0.860035000000000 
P           0.333333000000000    0.666667000000000    0.404792000000000 
P           0.424816000000000    0.051523000000000    0.866206000000000 
P           0.600809000000000    0.378429000000000    0.207092000000000 
P           0.621571000000000    0.222380000000000    0.207092000000000 
P           0.626707000000000    0.575184000000000    0.866206000000000 
P           0.683408000000000    0.919783000000000    0.860035000000000 
P           0.777620000000000    0.399191000000000    0.207092000000000 
P           0.844029000000000    0.046194000000000    0.352508000000000 
P           0.948477000000000    0.373293000000000    0.866206000000000 
P           0.953806000000000    0.797835000000000    0.352508000000000 
K           0.000000000000000    0.000000000000000    0.130716000000000 
K           0.666667000000000    0.333333000000000    0.925767000000000 
%ENDBLOCK POSITIONS_FRAC
