# Cell file generated by matador (Matthew Evans 2016)

%BLOCK LATTICE_CART
8.24665 0.0 0.0
0.0 5.88511 0.0
3.09549 0.0 5.45161
%ENDBLOCK LATTICE_CART

%BLOCK POSITIONS_FRAC
P           0.837958000000000    0.000000000000000    0.767631000000000 
K           0.011369000000000    0.276876000000000    0.680082000000000 
K           0.011369000000000    0.723124000000000    0.680082000000000 
K           0.125660000000000    0.500000000000000    0.999158000000000 
K           0.294600000000000    0.500000000000000    0.513004000000000 
K           0.481191000000000    0.000000000000000    0.289566000000000 
K           0.746136000000000    0.500000000000000    0.622485000000000 
K           0.969865000000000    0.000000000000000    0.992837000000000 
%ENDBLOCK POSITIONS_FRAC
