# Cell file generated by matador (Matthew Evans 2016)

%BLOCK LATTICE_CART
7.64811 -0.0 0.0
-3.82406 6.62346 0.0
0.0 0.0 8.55584
%ENDBLOCK LATTICE_CART

%BLOCK POSITIONS_FRAC
P           0.126798000000000    0.627817000000000    0.222067000000000 
P           0.372183000000000    0.498981000000000    0.222067000000000 
P           0.501019000000000    0.873202000000000    0.222067000000000 
P           0.546473000000000    0.233191000000000    0.318344000000000 
P           0.686719000000000    0.453527000000000    0.318344000000000 
P           0.766809000000000    0.313281000000000    0.318344000000000 
K           0.183941000000000    0.155346000000000    0.422077000000000 
K           0.443118000000000    0.055182000000000    0.514052000000000 
K           0.612064000000000    0.556882000000000    0.514052000000000 
K           0.666667000000000    0.333333000000000    0.017634000000000 
K           0.844654000000000    0.028595000000000    0.422077000000000 
K           0.944818000000000    0.387936000000000    0.514052000000000 
K           0.971405000000000    0.816059000000000    0.422077000000000 
%ENDBLOCK POSITIONS_FRAC
