# Cell file generated by matador (Matthew Evans 2016)

%BLOCK LATTICE_CART
5.42618 0.0 0.0
0.0 5.42618 0.0
0.0 0.0 14.4443
%ENDBLOCK LATTICE_CART

%BLOCK POSITIONS_FRAC
P           0.000000000000000    0.000000000000000    0.000000000000000 
P           0.000000000000000    0.000000000000000    0.071088000000000 
P           0.000000000000000    0.000000000000000    0.311870000000000 
P           0.000000000000000    0.000000000000000    0.688130000000000 
P           0.000000000000000    0.000000000000000    0.928912000000000 
P           0.240438000000000    0.240438000000000    0.000000000000000 
P           0.259562000000000    0.740438000000000    0.500000000000000 
P           0.500000000000000    0.500000000000000    0.188130000000000 
P           0.500000000000000    0.500000000000000    0.428912000000000 
P           0.500000000000000    0.500000000000000    0.500000000000000 
P           0.500000000000000    0.500000000000000    0.571088000000000 
P           0.500000000000000    0.500000000000000    0.811870000000000 
P           0.740438000000000    0.259562000000000    0.500000000000000 
P           0.759562000000000    0.759562000000000    0.000000000000000 
K           0.000000000000000    0.000000000000000    0.500000000000000 
K           0.500000000000000    0.500000000000000    0.000000000000000 
%ENDBLOCK POSITIONS_FRAC
