# Cell file generated by matador (Matthew Evans 2016)

%BLOCK LATTICE_CART
5.82859 0.0 0.0
0.0 6.86563 0.0
0.0 0.0 6.85928
%ENDBLOCK LATTICE_CART

%BLOCK POSITIONS_FRAC
P           0.000000000000000    0.182539000000000    0.000000000000000 
P           0.000000000000000    0.817461000000000    0.000000000000000 
P           0.500000000000000    0.000000000000000    0.500000000000000 
P           0.500000000000000    0.500000000000000    0.276839000000000 
P           0.500000000000000    0.500000000000000    0.500000000000000 
P           0.500000000000000    0.500000000000000    0.723161000000000 
K           0.000000000000000    0.236735000000000    0.289706000000000 
K           0.000000000000000    0.236735000000000    0.710294000000000 
K           0.000000000000000    0.500000000000000    0.500000000000000 
K           0.000000000000000    0.763265000000000    0.289706000000000 
K           0.000000000000000    0.763265000000000    0.710294000000000 
%ENDBLOCK POSITIONS_FRAC
