# Cell file generated by matador (Matthew Evans 2016)

%BLOCK LATTICE_CART
6.19727 0.0 0.0
-3.09864 5.367 0.0
0.0 0.0 9.14686
%ENDBLOCK LATTICE_CART

%BLOCK POSITIONS_FRAC
P           0.113052000000000    0.556527000000000    0.630905000000000 
P           0.443475000000000    0.556527000000000    0.630905000000000 
P           0.443475000000000    0.886950000000000    0.630905000000000 
P           0.556527000000000    0.113052000000000    0.130905000000000 
P           0.556527000000000    0.443475000000000    0.130905000000000 
P           0.886950000000000    0.443475000000000    0.130905000000000 
K           0.333334000000000    0.666668000000000    0.397990000000000 
K           0.333334000000000    0.666668000000000    0.971322000000000 
K           0.666668000000000    0.333334000000000    0.471322000000000 
K           0.666668000000000    0.333334000000000    0.897990000000000 
%ENDBLOCK POSITIONS_FRAC
