# Cell file generated by matador (Matthew Evans 2016)

%BLOCK LATTICE_CART
6.30522 0.0 0.0
-3.15261 5.46048 0.0
0.0 0.0 11.3054
%ENDBLOCK LATTICE_CART

%BLOCK POSITIONS_FRAC
P           0.000000000000000    0.000000000000000    0.417259000000000 
P           0.000000000000000    0.000000000000000    0.931402000000000 
P           0.333333000000000    0.666667000000000    0.092321000000000 
P           0.333333000000000    0.666667000000000    0.441828000000000 
P           0.333333000000000    0.666667000000000    0.958539000000000 
K           0.000000000000000    0.000000000000000    0.690304000000000 
K           0.278246000000000    0.147485000000000    0.193485000000000 
K           0.333333000000000    0.666667000000000    0.691829000000000 
K           0.666667000000000    0.333333000000000    0.218430000000000 
K           0.852515000000000    0.130761000000000    0.193485000000000 
K           0.869239000000000    0.721754000000000    0.193485000000000 
%ENDBLOCK POSITIONS_FRAC
