# Cell file generated by matador (Matthew Evans 2016)

%BLOCK LATTICE_CART
7.93864 0.0 0.0
-3.96932 6.87506 0.0
0.0 0.0 6.61441
%ENDBLOCK LATTICE_CART

%BLOCK POSITIONS_FRAC
P          -0.000000000000000   -0.000000000000000    0.000000000000000 
P          -0.000000000000000    0.248068000000000    0.500000000000000 
P          -0.000000000000000    0.751932000000000    0.500000000000000 
P           0.248068000000000   -0.000000000000000    0.500000000000000 
P           0.248068000000000    0.248068000000000    0.500000000000000 
P           0.751932000000000   -0.000000000000000    0.500000000000000 
P           0.751932000000000    0.751932000000000    0.500000000000000 
K          -0.000000000000000    0.500000000000000    0.000000000000000 
K          -0.000000000000000    0.500000000000000    0.500000000000000 
K           0.500000000000000   -0.000000000000000    0.000000000000000 
K           0.500000000000000   -0.000000000000000    0.500000000000000 
K           0.500000000000000    0.500000000000000    0.000000000000000 
K           0.500000000000000    0.500000000000000    0.500000000000000 
%ENDBLOCK POSITIONS_FRAC
