# Cell file generated by matador (Matthew Evans 2016)

%BLOCK LATTICE_CART
6.42408 0.0 0.0
-3.21204 5.56341 0.0
0.0 0.0 9.69675
%ENDBLOCK LATTICE_CART

%BLOCK POSITIONS_FRAC
P           0.221503000000000    0.013889000000000    0.682781000000000 
P           0.333333000000000    0.666667000000000    0.162931000000000 
P           0.333333000000000    0.666667000000000    0.403302000000000 
P           0.792386000000000    0.778497000000000    0.682781000000000 
P           0.986111000000000    0.207614000000000    0.682781000000000 
K           0.000000000000000    0.000000000000000    0.456897000000000 
K           0.000000000000000    0.000000000000000    0.937118000000000 
K           0.333333000000000    0.666667000000000    0.766817000000000 
K           0.439813000000000    0.409572000000000    0.925675000000000 
K           0.590428000000000    0.030241000000000    0.925675000000000 
K           0.969759000000000    0.560187000000000    0.925675000000000 
%ENDBLOCK POSITIONS_FRAC
