# Cell file generated by matador (Matthew Evans 2016)

%BLOCK LATTICE_CART
7.20235 0.0 0.0
0.0 7.20235 0.0
0.0 0.0 7.20235
%ENDBLOCK LATTICE_CART

%BLOCK POSITIONS_FRAC
P           0.000000000000000    0.000000000000000    0.500000000000000 
P           0.000000000000000    0.138844000000000    0.500000000000000 
P           0.000000000000000    0.500000000000000    0.000000000000000 
P           0.000000000000000    0.500000000000000    0.500000000000000 
P           0.000000000000000    0.861156000000000    0.500000000000000 
P           0.138844000000000    0.500000000000000    0.000000000000000 
P           0.500000000000000    0.000000000000000    0.000000000000000 
P           0.500000000000000    0.000000000000000    0.138844000000000 
P           0.500000000000000    0.000000000000000    0.500000000000000 
P           0.500000000000000    0.000000000000000    0.861156000000000 
P           0.500000000000000    0.500000000000000    0.000000000000000 
P           0.861156000000000    0.500000000000000    0.000000000000000 
K           0.000000000000000    0.000000000000000    0.000000000000000 
K           0.500000000000000    0.500000000000000    0.500000000000000 
%ENDBLOCK POSITIONS_FRAC
