# Cell file generated by matador (Matthew Evans 2016)

%BLOCK LATTICE_CART
8.57377 0.0 0.0
-4.28688 7.4251 0.0
0.0 0.0 8.98694
%ENDBLOCK LATTICE_CART

%BLOCK POSITIONS_FRAC
P           0.666667000000000    0.333333000000000    0.222546000000000 
P           0.666667000000000    0.333333000000000    0.777454000000000 
K           0.201715000000000    0.100857000000000    0.000000000000000 
K           0.333334000000000    0.666666000000000    0.000000000000000 
K           0.477243000000000    0.042153000000000    0.320881000000000 
K           0.477243000000000    0.435090000000000    0.679119000000000 
K           0.564910000000000    0.042153000000000    0.679119000000000 
K           0.564910000000000    0.522757000000000    0.320881000000000 
K           0.666667000000000    0.333333000000000    0.000000000000000 
K           0.666667000000000    0.333333000000000    0.500000000000000 
K           0.899143000000000    0.100857000000000    0.000000000000000 
K           0.899143000000000    0.798285000000000    0.000000000000000 
K           0.957847000000000    0.435090000000000    0.320881000000000 
K           0.957847000000000    0.522757000000000    0.679119000000000 
%ENDBLOCK POSITIONS_FRAC
