# Cell file generated by matador (Matthew Evans 2016)

%BLOCK LATTICE_CART
8.81434 0.0 0.0
-4.40717 7.63344 0.0
0.0 0.0 7.39074
%ENDBLOCK LATTICE_CART

%BLOCK POSITIONS_FRAC
P           0.000000000000000    0.000000000000000    0.250000000000000 
P           0.000000000000000    0.000000000000000    0.750000000000000 
K           0.000000000000000    0.745241000000000    0.000000000000000 
K           0.000000000000000    0.745241000000000    0.500000000000000 
K           0.194245000000000    0.423390000000000    0.250000000000000 
K           0.229145000000000    0.805755000000000    0.250000000000000 
K           0.254759000000000    0.254759000000000    0.000000000000000 
K           0.254759000000000    0.254759000000000    0.500000000000000 
K           0.333333000000000    0.666667000000000    0.750000000000000 
K           0.423390000000000    0.194245000000000    0.750000000000000 
K           0.576610000000000    0.770855000000000    0.250000000000000 
K           0.666667000000000    0.333333000000000    0.250000000000000 
K           0.745241000000000    0.000000000000000    0.000000000000000 
K           0.745241000000000    0.000000000000000    0.500000000000000 
K           0.770855000000000    0.576610000000000    0.750000000000000 
K           0.805755000000000    0.229145000000000    0.750000000000000 
%ENDBLOCK POSITIONS_FRAC
