# Cell file generated by matador (Matthew Evans 2016)

%BLOCK LATTICE_CART
7.96451 0.0 0.0
-1.13071 5.04645 0.0
2.46782 -0.630423 4.88243
%ENDBLOCK LATTICE_CART

%BLOCK POSITIONS_FRAC
P           0.000000000000000    0.000000000000000    0.000000000000000 
P           0.032918000000000    0.374742000000000    0.413412000000000 
P           0.052751000000000    0.861559000000000    0.768458000000000 
P           0.202241000000000    0.696874000000000    0.471399000000000 
P           0.797759000000000    0.303126000000000    0.528601000000000 
P           0.947249000000000    0.138441000000000    0.231542000000000 
P           0.967082000000000    0.625258000000000    0.586588000000000 
K           0.000000000000000    0.000000000000000    0.500000000000000 
K           0.500000000000000    0.000000000000000    0.000000000000000 
K           0.500000000000000    0.000000000000000    0.500000000000000 
%ENDBLOCK POSITIONS_FRAC
