# Cell file generated by matador (Matthew Evans 2016)

%BLOCK LATTICE_CART
8.66083 0.0 0.0
0.0 6.78217 0.0
-1.29518 0.0 7.47272
%ENDBLOCK LATTICE_CART

%BLOCK POSITIONS_FRAC
P           0.290378000000000    0.500000000000000    0.608997000000000 
P           0.781339000000000    0.500000000000000    0.639549000000000 
P           0.913830000000000    0.000000000000000    0.289324000000000 
K           0.057279000000000    0.500000000000000    0.925318000000000 
K           0.074065000000000    0.000000000000000    0.993118000000000 
K           0.115559000000000    0.500000000000000    0.362833000000000 
K           0.189485000000000    0.000000000000000    0.574093000000000 
K           0.382179000000000    0.271841000000000    0.010011000000000 
K           0.382179000000000    0.728159000000000    0.010011000000000 
K           0.617245000000000    0.000000000000000    0.315827000000000 
K           0.667543000000000    0.000000000000000    0.722197000000000 
K           0.710341000000000    0.500000000000000    0.030436000000000 
%ENDBLOCK POSITIONS_FRAC
