# Cell file generated by matador (Matthew Evans 2016)

%BLOCK LATTICE_CART
6.27043 0.0 0.0
0.0 7.00535 0.0
1.54107 0.0 6.54441
%ENDBLOCK LATTICE_CART

%BLOCK POSITIONS_FRAC
P           0.003890000000000    0.301414000000000    0.283848000000000 
P           0.003890000000000    0.698586000000000    0.283848000000000 
P           0.011261000000000    0.000000000000000    0.718009000000000 
P           0.216807000000000    0.337140000000000    0.779892000000000 
P           0.216807000000000    0.662860000000000    0.779892000000000 
P           0.266667000000000    0.275338000000000    0.036251000000000 
P           0.266667000000000    0.724662000000000    0.036251000000000 
K           0.533362000000000    0.000000000000000    0.586402000000000 
K           0.557593000000000    0.337170000000000    0.494491000000000 
K           0.557593000000000    0.662830000000000    0.494491000000000 
K           0.576831000000000    0.500000000000000    0.967222000000000 
%ENDBLOCK POSITIONS_FRAC
