# Cell file generated by matador (Matthew Evans 2016)

%BLOCK LATTICE_CART
8.70503 0.0 0.0
0.0 5.75667 0.0
0.0 0.0 8.76192
%ENDBLOCK LATTICE_CART

%BLOCK POSITIONS_FRAC
P           0.000000000000000    0.000000000000000    0.500000000000000 
P           0.207250000000000    0.002712000000000    0.701167000000000 
P           0.207250000000000    0.997288000000000    0.298833000000000 
P           0.792750000000000    0.002712000000000    0.298833000000000 
P           0.792750000000000    0.997288000000000    0.701167000000000 
K           0.000000000000000    0.000000000000000    0.000000000000000 
K           0.000000000000000    0.500000000000000    0.000000000000000 
K           0.000000000000000    0.500000000000000    0.500000000000000 
K           0.500000000000000    0.000000000000000    0.000000000000000 
K           0.500000000000000    0.000000000000000    0.500000000000000 
K           0.500000000000000    0.500000000000000    0.000000000000000 
K           0.500000000000000    0.500000000000000    0.500000000000000 
%ENDBLOCK POSITIONS_FRAC
