# Cell file generated by matador (Matthew Evans 2016)

%BLOCK LATTICE_CART
8.53156 0.0 0.0
0.0 8.53156 0.0
0.0 0.0 7.65162
%ENDBLOCK LATTICE_CART

%BLOCK POSITIONS_FRAC
P           0.041012000000000    0.915755000000000    0.260401000000000 
P           0.084245000000000    0.958988000000000    0.739599000000000 
P           0.123305000000000    0.123305000000000    0.000000000000000 
P           0.376695000000000    0.623305000000000    0.000000000000000 
P           0.415755000000000    0.458988000000000    0.260401000000000 
P           0.458988000000000    0.415755000000000    0.739599000000000 
P           0.541012000000000    0.584245000000000    0.739599000000000 
P           0.584245000000000    0.541012000000000    0.260401000000000 
P           0.623305000000000    0.376695000000000    0.000000000000000 
P           0.876695000000000    0.876695000000000    0.000000000000000 
P           0.915755000000000    0.041012000000000    0.739599000000000 
P           0.958988000000000    0.084245000000000    0.260401000000000 
K           0.000000000000000    0.000000000000000    0.500000000000000 
K           0.500000000000000    0.500000000000000    0.500000000000000 
%ENDBLOCK POSITIONS_FRAC
