# Cell file generated by matador (Matthew Evans 2016)

%BLOCK LATTICE_CART
6.51077 0.0 0.0
-3.25539 5.63849 0.0
0.0 0.0 8.70449
%ENDBLOCK LATTICE_CART

%BLOCK POSITIONS_FRAC
P           0.333333000000000    0.666667000000000    0.369177000000000 
P           0.457002000000000    0.137060000000000    0.655892000000000 
P           0.680056000000000    0.542998000000000    0.655892000000000 
P           0.862940000000000    0.319944000000000    0.655892000000000 
K          -0.000000000000000    0.000000000000000    0.941188000000000 
K           0.333333000000000    0.666667000000000    0.129727000000000 
K           0.466995000000000    0.079170000000000    0.008576000000000 
K           0.612175000000000    0.533005000000000    0.008576000000000 
K           0.920830000000000    0.387825000000000    0.008576000000000 
%ENDBLOCK POSITIONS_FRAC
