# Cell file generated by matador (Matthew Evans 2016)

%BLOCK LATTICE_CART
5.43802 0.0 0.0
0.0 5.43802 0.0
0.0 0.0 9.4566
%ENDBLOCK LATTICE_CART

%BLOCK POSITIONS_FRAC
P           0.000000000000000    0.000000000000000    0.478323000000000 
P           0.085029000000000    0.816469000000000    0.288029000000000 
P           0.183531000000000    0.085029000000000    0.288029000000000 
P           0.273833000000000    0.686843000000000    0.171418000000000 
P           0.313157000000000    0.273833000000000    0.171418000000000 
P           0.500000000000000    0.500000000000000    0.932607000000000 
P           0.686843000000000    0.726167000000000    0.171418000000000 
P           0.726167000000000    0.313157000000000    0.171418000000000 
P           0.816469000000000    0.914971000000000    0.288029000000000 
P           0.914971000000000    0.183531000000000    0.288029000000000 
K           0.000000000000000    0.500000000000000    0.385544000000000 
K           0.000000000000000    0.500000000000000    0.775354000000000 
K           0.500000000000000    0.000000000000000    0.385544000000000 
K           0.500000000000000    0.000000000000000    0.775354000000000 
%ENDBLOCK POSITIONS_FRAC
