# Cell file generated by matador (Matthew Evans 2016)

%BLOCK LATTICE_CART
7.97506 0.0 0.0
0.0 10.1357 0.0
0.0 0.0 7.35498
%ENDBLOCK LATTICE_CART

%BLOCK POSITIONS_FRAC
P           0.000000000000000    0.000000000000000    0.000000000000000 
P           0.000000000000000    0.500000000000000    0.500000000000000 
P           0.500000000000000    0.000000000000000    0.000000000000000 
P           0.500000000000000    0.500000000000000    0.500000000000000 
K           0.000000000000000    0.000000000000000    0.500000000000000 
K           0.000000000000000    0.500000000000000    0.000000000000000 
K           0.248734000000000    0.230758000000000    0.500000000000000 
K           0.248734000000000    0.769242000000000    0.500000000000000 
K           0.251266000000000    0.269242000000000    0.000000000000000 
K           0.251266000000000    0.730758000000000    0.000000000000000 
K           0.500000000000000    0.000000000000000    0.500000000000000 
K           0.500000000000000    0.500000000000000    0.000000000000000 
K           0.748734000000000    0.269242000000000    0.000000000000000 
K           0.748734000000000    0.730758000000000    0.000000000000000 
K           0.751266000000000    0.230758000000000    0.500000000000000 
K           0.751266000000000    0.769242000000000    0.500000000000000 
%ENDBLOCK POSITIONS_FRAC
