# Cell file generated by matador (Matthew Evans 2016)

%BLOCK LATTICE_CART
4.86247 0.0 0.0
0.0 6.75206 0.0
0.0 0.0 7.34094
%ENDBLOCK LATTICE_CART

%BLOCK POSITIONS_FRAC
P           0.211409000000000    0.353692000000000    0.096467000000000 
P           0.211409000000000    0.646308000000000    0.903533000000000 
P           0.288591000000000    0.353692000000000    0.403533000000000 
P           0.288591000000000    0.646308000000000    0.596467000000000 
P           0.711409000000000    0.353692000000000    0.403533000000000 
P           0.711409000000000    0.646308000000000    0.596467000000000 
P           0.788591000000000    0.353692000000000    0.096467000000000 
P           0.788591000000000    0.646308000000000    0.903533000000000 
K           0.000000000000000    0.000000000000000    0.000000000000000 
K           0.000000000000000    0.000000000000000    0.500000000000000 
K           0.500000000000000    0.000000000000000    0.000000000000000 
K           0.500000000000000    0.000000000000000    0.500000000000000 
%ENDBLOCK POSITIONS_FRAC
