# Cell file generated by matador (Matthew Evans 2016)

%BLOCK LATTICE_CART
9.29334 0.0 0.0
0.0 8.58484 0.0
0.0 0.0 3.93504
%ENDBLOCK LATTICE_CART

%BLOCK POSITIONS_FRAC
P           0.135305000000000    0.248551000000000    0.681686000000000 
P           0.135305000000000    0.751449000000000    0.318314000000000 
P           0.364695000000000    0.251449000000000    0.181686000000000 
P           0.364695000000000    0.748551000000000    0.818314000000000 
P           0.635305000000000    0.251449000000000    0.818314000000000 
P           0.635305000000000    0.748551000000000    0.181686000000000 
P           0.864695000000000    0.248551000000000    0.318314000000000 
P           0.864695000000000    0.751449000000000    0.681686000000000 
K           0.000000000000000    0.000000000000000    0.000000000000000 
K           0.000000000000000    0.500000000000000    0.500000000000000 
K           0.500000000000000    0.000000000000000    0.000000000000000 
K           0.500000000000000    0.500000000000000    0.500000000000000 
%ENDBLOCK POSITIONS_FRAC
