# Cell file generated by matador (Matthew Evans 2016)

%BLOCK LATTICE_CART
6.59415 0.0 0.0
0.0 6.59415 0.0
0.0 0.0 7.15028
%ENDBLOCK LATTICE_CART

%BLOCK POSITIONS_FRAC
P           0.000000000000000    0.000000000000000    0.435375000000000 
P           0.000000000000000    0.000000000000000    0.935375000000000 
P           0.000000000000000    0.500000000000000    0.022826000000000 
P           0.000000000000000    0.500000000000000    0.337794000000000 
P           0.000000000000000    0.500000000000000    0.829863000000000 
P           0.500000000000000    0.000000000000000    0.329863000000000 
P           0.500000000000000    0.000000000000000    0.522826000000000 
P           0.500000000000000    0.000000000000000    0.837794000000000 
P           0.500000000000000    0.500000000000000    0.397214000000000 
P           0.500000000000000    0.500000000000000    0.897214000000000 
K           0.115624000000000    0.262683000000000    0.576186000000000 
K           0.262683000000000    0.884376000000000    0.076186000000000 
K           0.737317000000000    0.115624000000000    0.076186000000000 
K           0.884376000000000    0.737317000000000    0.576186000000000 
%ENDBLOCK POSITIONS_FRAC
