# Cell file generated by matador (Matthew Evans 2016)

%BLOCK LATTICE_CART
7.12303 0.0 0.0
0.0 11.2914 0.0
0.0 0.0 5.88927
%ENDBLOCK LATTICE_CART

%BLOCK POSITIONS_FRAC
P           0.000000000000000    0.045311000000000    0.750000000000000 
P           0.000000000000000    0.954689000000000    0.250000000000000 
P           0.022465000000000    0.500000000000000    0.000000000000000 
P           0.344266000000000    0.000000000000000    0.000000000000000 
P           0.361134000000000    0.500000000000000    0.000000000000000 
P           0.500000000000000    0.114140000000000    0.750000000000000 
P           0.500000000000000    0.256451000000000    0.250000000000000 
P           0.500000000000000    0.349747000000000    0.750000000000000 
P           0.500000000000000    0.650253000000000    0.250000000000000 
P           0.500000000000000    0.743549000000000    0.750000000000000 
P           0.500000000000000    0.885860000000000    0.250000000000000 
P           0.638866000000000    0.500000000000000    0.500000000000000 
P           0.655734000000000    0.000000000000000    0.500000000000000 
P           0.977535000000000    0.500000000000000    0.500000000000000 
K           0.211468000000000    0.192468000000000    0.559146000000000 
K           0.211468000000000    0.807532000000000    0.440854000000000 
K           0.788532000000000    0.192468000000000    0.940854000000000 
K           0.788532000000000    0.807532000000000    0.059146000000000 
%ENDBLOCK POSITIONS_FRAC
