# Cell file generated by matador (Matthew Evans 2016)

%BLOCK LATTICE_CART
8.1449 0.0 0.0
0.0 8.1449 0.0
0.0 0.0 8.68848
%ENDBLOCK LATTICE_CART

%BLOCK POSITIONS_FRAC
P           0.000000000000000    0.000000000000000    0.572568000000000 
P           0.000000000000000    0.500000000000000    0.822568000000000 
P           0.020183000000000    0.237499000000000    0.569382000000000 
P           0.237499000000000    0.479817000000000    0.819382000000000 
P           0.262501000000000    0.020183000000000    0.319382000000000 
P           0.479817000000000    0.262501000000000    0.069382000000000 
P           0.500000000000000    0.000000000000000    0.322568000000000 
P           0.500000000000000    0.500000000000000    0.072568000000000 
P           0.520183000000000    0.737499000000000    0.069382000000000 
P           0.737499000000000    0.979817000000000    0.319382000000000 
P           0.762501000000000    0.520183000000000    0.819382000000000 
P           0.979817000000000    0.762501000000000    0.569382000000000 
K           0.106329000000000    0.186269000000000    0.868696000000000 
K           0.186269000000000    0.393671000000000    0.118696000000000 
K           0.313731000000000    0.106329000000000    0.618696000000000 
K           0.393671000000000    0.313731000000000    0.368696000000000 
K           0.606329000000000    0.686269000000000    0.368696000000000 
K           0.686269000000000    0.893671000000000    0.618696000000000 
K           0.813731000000000    0.606329000000000    0.118696000000000 
K           0.893671000000000    0.813731000000000    0.868696000000000 
%ENDBLOCK POSITIONS_FRAC
