# Cell file generated by matador (Matthew Evans 2016)

%BLOCK LATTICE_CART
8.69783 0.0 0.0
0.0 8.69783 0.0
0.0 0.0 6.80363
%ENDBLOCK LATTICE_CART

%BLOCK POSITIONS_FRAC
P           0.000000000000000    0.000000000000000    0.000000000000000 
P           0.500000000000000    0.500000000000000    0.000000000000000 
P           0.500000000000000    0.500000000000000    0.500000000000000 
K           0.000000000000000    0.000000000000000    0.500000000000000 
K           0.222493000000000    0.500000000000000    0.264800000000000 
K           0.222493000000000    0.500000000000000    0.735200000000000 
K           0.500000000000000    0.222493000000000    0.264800000000000 
K           0.500000000000000    0.222493000000000    0.735200000000000 
K           0.500000000000000    0.777507000000000    0.264800000000000 
K           0.500000000000000    0.777507000000000    0.735200000000000 
K           0.777507000000000    0.500000000000000    0.264800000000000 
K           0.777507000000000    0.500000000000000    0.735200000000000 
%ENDBLOCK POSITIONS_FRAC
