# Cell file generated by matador (Matthew Evans 2016)

%BLOCK LATTICE_CART
9.55256 0.0 0.0
0.0 11.6726 0.0
0.0 0.0 12.4994
%ENDBLOCK LATTICE_CART

%BLOCK POSITIONS_FRAC
P           0.250000000000000    0.250000000000000    0.250000000000000 
P           0.250000000000000    0.250000000000000    0.750000000000000 
P           0.250000000000000    0.750000000000000    0.250000000000000 
P           0.250000000000000    0.750000000000000    0.750000000000000 
P           0.750000000000000    0.250000000000000    0.250000000000000 
P           0.750000000000000    0.250000000000000    0.750000000000000 
P           0.750000000000000    0.750000000000000    0.250000000000000 
P           0.750000000000000    0.750000000000000    0.750000000000000 
K           0.000000000000000    0.344081000000000    0.323204000000000 
K           0.000000000000000    0.344081000000000    0.676796000000000 
K           0.000000000000000    0.655919000000000    0.323204000000000 
K           0.000000000000000    0.655919000000000    0.676796000000000 
K           0.155758000000000    0.126198000000000    0.000000000000000 
K           0.155758000000000    0.873802000000000    0.000000000000000 
K           0.217402000000000    0.373420000000000    0.000000000000000 
K           0.217402000000000    0.626580000000000    0.000000000000000 
K           0.282598000000000    0.126580000000000    0.500000000000000 
K           0.282598000000000    0.873420000000000    0.500000000000000 
K           0.344242000000000    0.373802000000000    0.500000000000000 
K           0.344242000000000    0.626198000000000    0.500000000000000 
K           0.500000000000000    0.155919000000000    0.176796000000000 
K           0.500000000000000    0.155919000000000    0.823204000000000 
K           0.500000000000000    0.844081000000000    0.176796000000000 
K           0.500000000000000    0.844081000000000    0.823204000000000 
K           0.655758000000000    0.373802000000000    0.500000000000000 
K           0.655758000000000    0.626198000000000    0.500000000000000 
K           0.717402000000000    0.126580000000000    0.500000000000000 
K           0.717402000000000    0.873420000000000    0.500000000000000 
K           0.782598000000000    0.373420000000000    0.000000000000000 
K           0.782598000000000    0.626580000000000    0.000000000000000 
K           0.844242000000000    0.126198000000000    0.000000000000000 
K           0.844242000000000    0.873802000000000    0.000000000000000 
%ENDBLOCK POSITIONS_FRAC
