# Cell file generated by matador (Matthew Evans 2016)

%BLOCK LATTICE_CART
9.46439 0.0 0.0
-4.73219 8.1964 0.0
0.0 0.0 5.35406
%ENDBLOCK LATTICE_CART

%BLOCK POSITIONS_FRAC
P           0.000000000000000    0.000000000000000    0.165083000000000 
P           0.333333000000000    0.666667000000000    0.478174000000000 
P           0.397468000000000    0.132309000000000    0.483939000000000 
P           0.666667000000000    0.333333000000000    0.450906000000000 
P           0.734841000000000    0.602532000000000    0.483939000000000 
P           0.867691000000000    0.265159000000000    0.483939000000000 
K           0.015950000000000    0.330410000000000    0.979996000000000 
K           0.314460000000000    0.984050000000000    0.979996000000000 
K           0.491905000000000    0.316719000000000    0.032068000000000 
K           0.669590000000000    0.685540000000000    0.979996000000000 
K           0.683281000000000    0.175186000000000    0.032068000000000 
K           0.824814000000000    0.508095000000000    0.032068000000000 
%ENDBLOCK POSITIONS_FRAC
