# Cell file generated by matador (Matthew Evans 2016)

%BLOCK LATTICE_CART
7.23493 0.0 0.0
-3.61747 6.26564 0.0
0.0 0.0 8.67495
%ENDBLOCK LATTICE_CART

%BLOCK POSITIONS_FRAC
P           0.000000000000000    0.000000000000000    0.500000000000000 
P           0.000000000000000    0.500000000000000    0.500000000000000 
P           0.333333000000000    0.666667000000000    0.000000000000000 
P           0.500000000000000    0.000000000000000    0.500000000000000 
P           0.500000000000000    0.500000000000000    0.500000000000000 
P           0.666667000000000    0.333333000000000    0.000000000000000 
K           0.000000000000000    0.000000000000000    0.000000000000000 
K           0.000000000000000    0.286389000000000    0.075125000000000 
K           0.000000000000000    0.713611000000000    0.924875000000000 
K           0.286389000000000    0.000000000000000    0.075125000000000 
K           0.286389000000000    0.286389000000000    0.924875000000000 
K           0.333333000000000    0.666667000000000    0.500000000000000 
K           0.666667000000000    0.333333000000000    0.500000000000000 
K           0.713611000000000    0.000000000000000    0.924875000000000 
K           0.713611000000000    0.713611000000000    0.075125000000000 
%ENDBLOCK POSITIONS_FRAC
