# Cell file generated by matador (Matthew Evans 2016)

%BLOCK LATTICE_CART
9.12666 0.0 0.0
0.0 9.12666 0.0
0.0 0.0 9.12666
%ENDBLOCK LATTICE_CART

%BLOCK POSITIONS_FRAC
P           0.000000000000000    0.000000000000000    0.000000000000000 
P           0.159461000000000    0.159461000000000    0.159461000000000 
P           0.159461000000000    0.840539000000000    0.840539000000000 
P           0.250000000000000    0.250000000000000    0.750000000000000 
P           0.250000000000000    0.750000000000000    0.250000000000000 
P           0.340539000000000    0.340539000000000    0.340539000000000 
P           0.340539000000000    0.659461000000000    0.659461000000000 
P           0.500000000000000    0.500000000000000    0.500000000000000 
P           0.659461000000000    0.340539000000000    0.659461000000000 
P           0.659461000000000    0.659461000000000    0.340539000000000 
P           0.750000000000000    0.250000000000000    0.250000000000000 
P           0.750000000000000    0.750000000000000    0.750000000000000 
P           0.840539000000000    0.159461000000000    0.840539000000000 
P           0.840539000000000    0.840539000000000    0.159461000000000 
K           0.000000000000000    0.000000000000000    0.500000000000000 
K           0.000000000000000    0.500000000000000    0.000000000000000 
K           0.000000000000000    0.500000000000000    0.500000000000000 
K           0.500000000000000    0.000000000000000    0.000000000000000 
K           0.500000000000000    0.000000000000000    0.500000000000000 
K           0.500000000000000    0.500000000000000    0.000000000000000 
%ENDBLOCK POSITIONS_FRAC
