# Cell file generated by matador (Matthew Evans 2016)

%BLOCK LATTICE_CART
7.01594 0.0 0.0
-3.50797 6.07598 0.0
0.0 0.0 5.39879
%ENDBLOCK LATTICE_CART

%BLOCK POSITIONS_FRAC
P           0.001249000000000    0.478418000000000    0.500000000000000 
P           0.477168000000000    0.998751000000000    0.500000000000000 
P           0.521582000000000    0.522832000000000    0.500000000000000 
K          -0.000000000000000    0.000000000000000    0.000000000000000 
K          -0.000000000000000    0.000000000000000    0.500000000000000 
K           0.333333000000000    0.666667000000000    0.500000000000000 
K           0.666666000000000    0.333334000000000    0.000000000000000 
%ENDBLOCK POSITIONS_FRAC
