# Cell file generated by matador (Matthew Evans 2016)

%BLOCK LATTICE_CART
8.67544 0.0 0.0
0.0 8.67544 0.0
0.0 0.0 7.72252
%ENDBLOCK LATTICE_CART

%BLOCK POSITIONS_FRAC
P           0.000000000000000    0.000000000000000    0.436578000000000 
P           0.000000000000000    0.000000000000000    0.936578000000000 
P           0.309392000000000    0.454305000000000    0.412766000000000 
P           0.309392000000000    0.545695000000000    0.912766000000000 
P           0.454305000000000    0.309392000000000    0.412766000000000 
P           0.454305000000000    0.690608000000000    0.912766000000000 
P           0.545695000000000    0.309392000000000    0.912766000000000 
P           0.545695000000000    0.690608000000000    0.412766000000000 
P           0.690608000000000    0.454305000000000    0.912766000000000 
P           0.690608000000000    0.545695000000000    0.412766000000000 
K           0.140924000000000    0.140924000000000    0.207204000000000 
K           0.140924000000000    0.859076000000000    0.707204000000000 
K           0.190691000000000    0.190691000000000    0.584158000000000 
K           0.190691000000000    0.809309000000000    0.084158000000000 
K           0.809309000000000    0.190691000000000    0.084158000000000 
K           0.809309000000000    0.809309000000000    0.584158000000000 
K           0.859076000000000    0.140924000000000    0.707204000000000 
K           0.859076000000000    0.859076000000000    0.207204000000000 
%ENDBLOCK POSITIONS_FRAC
