# Cell file generated by matador (Matthew Evans 2016)

%BLOCK LATTICE_CART
6.93205 0.0 0.0
-3.46602 6.00333 0.0
0.0 0.0 9.29816
%ENDBLOCK LATTICE_CART

%BLOCK POSITIONS_FRAC
P           0.165700000000000    0.331400000000000    0.500000000000000 
P           0.165700000000000    0.834300000000000    0.500000000000000 
P           0.331400000000000    0.165700000000000    0.500000000000000 
P           0.668600000000000    0.834300000000000    0.500000000000000 
P           0.834300000000000    0.165700000000000    0.500000000000000 
P           0.834300000000000    0.668600000000000    0.500000000000000 
K           0.000000000000000    0.500000000000000    0.000000000000000 
K           0.000000000000000    0.500000000000000    0.500000000000000 
K           0.333333000000000    0.666667000000000    0.000000000000000 
K           0.500000000000000    0.000000000000000    0.000000000000000 
K           0.500000000000000    0.000000000000000    0.500000000000000 
K           0.500000000000000    0.500000000000000    0.000000000000000 
K           0.500000000000000    0.500000000000000    0.500000000000000 
K           0.666667000000000    0.333333000000000    0.000000000000000 
%ENDBLOCK POSITIONS_FRAC
