# Cell file generated by matador (Matthew Evans 2016)

%BLOCK LATTICE_CART
8.33375 0.0 0.0
0.0 8.33375 0.0
0.0 0.0 6.65979
%ENDBLOCK LATTICE_CART

%BLOCK POSITIONS_FRAC
P           0.000000000000000    0.500000000000000    0.086028000000000 
P           0.000000000000000    0.500000000000000    0.413972000000000 
P           0.000000000000000    0.500000000000000    0.586028000000000 
P           0.000000000000000    0.500000000000000    0.913972000000000 
P           0.500000000000000    0.000000000000000    0.086028000000000 
P           0.500000000000000    0.000000000000000    0.413972000000000 
P           0.500000000000000    0.000000000000000    0.586028000000000 
P           0.500000000000000    0.000000000000000    0.913972000000000 
K           0.019856000000000    0.246232000000000    0.500000000000000 
K           0.019856000000000    0.753768000000000    0.000000000000000 
K           0.246232000000000    0.019856000000000    0.500000000000000 
K           0.246232000000000    0.980144000000000    0.000000000000000 
K           0.500000000000000    0.500000000000000    0.000000000000000 
K           0.500000000000000    0.500000000000000    0.500000000000000 
K           0.753768000000000    0.019856000000000    0.000000000000000 
K           0.753768000000000    0.980144000000000    0.500000000000000 
K           0.980144000000000    0.246232000000000    0.000000000000000 
K           0.980144000000000    0.753768000000000    0.500000000000000 
%ENDBLOCK POSITIONS_FRAC
