# Cell file generated by matador (Matthew Evans 2016)

%BLOCK LATTICE_CART
3.54473 0.0 0.0
0.0 8.91276 0.0
0.0 0.0 8.3683
%ENDBLOCK LATTICE_CART

%BLOCK POSITIONS_FRAC
P           0.000000000000000    0.000000000000000    0.000000000000000 
P           0.000000000000000    0.000000000000000    0.500000000000000 
P           0.500000000000000    0.000000000000000    0.000000000000000 
P           0.500000000000000    0.000000000000000    0.500000000000000 
K           0.000000000000000    0.424617000000000    0.659511000000000 
K           0.000000000000000    0.575383000000000    0.340489000000000 
K           0.500000000000000    0.424617000000000    0.840489000000000 
K           0.500000000000000    0.575383000000000    0.159511000000000 
%ENDBLOCK POSITIONS_FRAC
