# Cell file generated by matador (Matthew Evans 2016)

%BLOCK LATTICE_CART
6.69655 0.0 0.0
-3.34827 5.79938 0.0
0.0 0.0 10.9652
%ENDBLOCK LATTICE_CART

%BLOCK POSITIONS_FRAC
P           0.000000000000000    0.000000000000000    0.500000000000000 
P           0.333333000000000    0.666667000000000    0.475330000000000 
P           0.666667000000000    0.333333000000000    0.524670000000000 
K           0.000000000000000    0.000000000000000    0.000000000000000 
K           0.034350000000000    0.517175000000000    0.781620000000000 
K           0.333333000000000    0.666667000000000    0.025807000000000 
K           0.482825000000000    0.517175000000000    0.781620000000000 
K           0.482825000000000    0.965650000000000    0.781620000000000 
K           0.517175000000000    0.034350000000000    0.218380000000000 
K           0.517175000000000    0.482825000000000    0.218380000000000 
K           0.666667000000000    0.333333000000000    0.974193000000000 
K           0.965650000000000    0.482825000000000    0.218380000000000 
%ENDBLOCK POSITIONS_FRAC
