# Cell file generated by matador (Matthew Evans 2016)

%BLOCK LATTICE_CART
4.67636 0.0 0.0
0.0240451 12.72 0.0
-3.00938 3.08406 7.75963
%ENDBLOCK LATTICE_CART

%BLOCK POSITIONS_FRAC
P           0.000000000000000    0.000000000000000    0.000000000000000 
P           0.000000000000000    0.000000000000000    0.500000000000000 
P           0.000000000000000    0.500000000000000    0.000000000000000 
P           0.000000000000000    0.500000000000000    0.500000000000000 
P           0.153276000000000    0.806278000000000    0.040377000000000 
P           0.185116000000000    0.429850000000000    0.600890000000000 
P           0.332781000000000    0.119624000000000    0.813392000000000 
P           0.500000000000000    0.000000000000000    0.000000000000000 
P           0.500000000000000    0.000000000000000    0.500000000000000 
P           0.500000000000000    0.500000000000000    0.000000000000000 
P           0.500000000000000    0.500000000000000    0.500000000000000 
P           0.667219000000000    0.880376000000000    0.186608000000000 
P           0.814884000000000    0.570150000000000    0.399110000000000 
P           0.846724000000000    0.193722000000000    0.959623000000000 
K           0.140291000000000    0.106543000000000    0.284055000000000 
K           0.235711000000000    0.336924000000000    0.360126000000000 
K           0.764289000000000    0.663076000000000    0.639874000000000 
K           0.859709000000000    0.893457000000000    0.715945000000000 
%ENDBLOCK POSITIONS_FRAC
