# Cell file generated by matador (Matthew Evans 2016)

%BLOCK LATTICE_CART
7.3737 0.0 0.0
0.0 9.80785 0.0
0.0 0.0 4.2587
%ENDBLOCK LATTICE_CART

%BLOCK POSITIONS_FRAC
P           0.153213000000000    0.985399000000000    0.550331000000000 
P           0.189064000000000    0.792242000000000    0.930036000000000 
P           0.220063000000000    0.880229000000000    0.167372000000000 
P           0.279937000000000    0.119771000000000    0.667372000000000 
P           0.310936000000000    0.207758000000000    0.430036000000000 
P           0.346787000000000    0.014601000000000    0.050331000000000 
P           0.653213000000000    0.014601000000000    0.050331000000000 
P           0.689064000000000    0.207758000000000    0.430036000000000 
P           0.720063000000000    0.119771000000000    0.667372000000000 
P           0.779937000000000    0.880229000000000    0.167372000000000 
P           0.810936000000000    0.792242000000000    0.930036000000000 
P           0.846787000000000    0.985399000000000    0.550331000000000 
K           0.000000000000000    0.519989000000000    0.682457000000000 
K           0.500000000000000    0.480011000000000    0.182457000000000 
%ENDBLOCK POSITIONS_FRAC
