# Cell file generated by matador (Matthew Evans 2016)

%BLOCK LATTICE_CART
8.1567 0.0 0.0
-4.07835 7.06391 0.0
0.0 0.0 7.73713
%ENDBLOCK LATTICE_CART

%BLOCK POSITIONS_FRAC
P           0.000000000000000    0.000000000000000    0.153849000000000 
P           0.333333000000000    0.666667000000000    0.820515000000000 
P           0.666667000000000    0.333333000000000    0.487182000000000 
K           0.212023000000000    0.424045000000000    0.312129000000000 
K           0.212023000000000    0.787977000000000    0.312129000000000 
K           0.242621000000000    0.121311000000000    0.645462000000000 
K           0.545356000000000    0.090712000000000    0.978796000000000 
K           0.545356000000000    0.454644000000000    0.978796000000000 
K           0.575955000000000    0.787977000000000    0.312129000000000 
K           0.878689000000000    0.121311000000000    0.645462000000000 
K           0.878689000000000    0.757379000000000    0.645462000000000 
K           0.909288000000000    0.454644000000000    0.978796000000000 
%ENDBLOCK POSITIONS_FRAC
