# Cell file generated by matador (Matthew Evans 2016)

%BLOCK LATTICE_CART
7.97109 0.0 0.0
-3.98554 6.90317 0.0
0.0 0.0 10.6094
%ENDBLOCK LATTICE_CART

%BLOCK POSITIONS_FRAC
P          -0.000000000000000   -0.000000000000000    0.195819000000000 
P          -0.000000000000000   -0.000000000000000    0.393741000000000 
P          -0.000000000000000   -0.000000000000000    0.606259000000000 
P          -0.000000000000000   -0.000000000000000    0.804181000000000 
P           0.333333000000000    0.666667000000000    0.060408000000000 
P           0.333333000000000    0.666667000000000    0.272925000000000 
P           0.333333000000000    0.666667000000000    0.470847000000000 
P           0.333333000000000    0.666667000000000    0.862486000000000 
P           0.666667000000000    0.333333000000000    0.137514000000000 
P           0.666667000000000    0.333333000000000    0.529153000000000 
P           0.666667000000000    0.333333000000000    0.727075000000000 
P           0.666667000000000    0.333333000000000    0.939592000000000 
K          -0.000000000000000   -0.000000000000000    0.000000000000000 
K           0.333333000000000    0.666667000000000    0.666667000000000 
K           0.666667000000000    0.333333000000000    0.333333000000000 
%ENDBLOCK POSITIONS_FRAC
