# Cell file generated by matador (Matthew Evans 2016)

%BLOCK LATTICE_CART
6.52758 0.0 0.0
0.0 6.52758 0.0
0.0 0.0 4.9772
%ENDBLOCK LATTICE_CART

%BLOCK POSITIONS_FRAC
P           0.000000000000000    0.000000000000000    0.000000000000000 
P           0.117347000000000    0.882653000000000    0.000000000000000 
P           0.382653000000000    0.382653000000000    0.000000000000000 
P           0.500000000000000    0.500000000000000    0.000000000000000 
P           0.617347000000000    0.617347000000000    0.000000000000000 
P           0.882653000000000    0.117347000000000    0.000000000000000 
K           0.000000000000000    0.000000000000000    0.500000000000000 
K           0.000000000000000    0.500000000000000    0.896406000000000 
K           0.500000000000000    0.000000000000000    0.103594000000000 
K           0.500000000000000    0.500000000000000    0.500000000000000 
%ENDBLOCK POSITIONS_FRAC
