# Cell file generated by matador (Matthew Evans 2016)

%BLOCK LATTICE_CART
6.86737 0.0 0.0
0.0 10.6376 0.0
0.0 0.0 4.73842
%ENDBLOCK LATTICE_CART

%BLOCK POSITIONS_FRAC
P           0.250000000000000    0.082752000000000    0.619385000000000 
P           0.750000000000000    0.917248000000000    0.619385000000000 
K           0.250000000000000    0.057619000000000    0.182930000000000 
K           0.250000000000000    0.314060000000000    0.898018000000000 
K           0.250000000000000    0.731780000000000    0.030826000000000 
K           0.750000000000000    0.268220000000000    0.030826000000000 
K           0.750000000000000    0.685940000000000    0.898018000000000 
K           0.750000000000000    0.942381000000000    0.182930000000000 
%ENDBLOCK POSITIONS_FRAC
