# Cell file generated by matador (Matthew Evans 2016)

%BLOCK LATTICE_CART
8.93146 0.0 0.0
-4.46573 7.73487 0.0
0.0 0.0 4.53936
%ENDBLOCK LATTICE_CART

%BLOCK POSITIONS_FRAC
P           0.000000000000000    0.762810000000000    0.591939000000000 
P           0.000000000000000    0.885899000000000    0.751479000000000 
P           0.114101000000000    0.114101000000000    0.751479000000000 
P           0.237190000000000    0.237190000000000    0.591939000000000 
P           0.762810000000000    0.000000000000000    0.591939000000000 
P           0.885899000000000    0.000000000000000    0.751479000000000 
K           0.000000000000000    0.000000000000000    0.280005000000000 
K           0.000000000000000    0.428710000000000    0.450309000000000 
K           0.428710000000000    0.000000000000000    0.450309000000000 
K           0.571290000000000    0.571290000000000    0.450309000000000 
%ENDBLOCK POSITIONS_FRAC
