# Cell file generated by matador (Matthew Evans 2016)

%BLOCK LATTICE_CART
5.48111 0.0 0.0
-2.74056 4.74678 0.0
0.0 0.0 6.21548
%ENDBLOCK LATTICE_CART

%BLOCK POSITIONS_FRAC
P           0.333333000000000    0.666667000000000    0.396575000000000 
P           0.333333000000000    0.666667000000000    0.603425000000000 
P           0.666667000000000    0.333333000000000    0.396575000000000 
P           0.666667000000000    0.333333000000000    0.603425000000000 
K           0.000000000000000    0.000000000000000    0.000000000000000 
K           0.000000000000000    0.000000000000000    0.500000000000000 
%ENDBLOCK POSITIONS_FRAC
