# Cell file generated by matador (Matthew Evans 2016)

%BLOCK LATTICE_CART
7.83195 0.0 0.0
0.0 6.7424 0.0
0.0 0.0 7.76778
%ENDBLOCK LATTICE_CART

%BLOCK POSITIONS_FRAC
P           0.000000000000000    0.000000000000000    0.140592000000000 
P           0.000000000000000    0.500000000000000    0.073813000000000 
P           0.000000000000000    0.500000000000000    0.884246000000000 
P           0.500000000000000    0.000000000000000    0.744108000000000 
P           0.500000000000000    0.000000000000000    0.933391000000000 
P           0.500000000000000    0.500000000000000    0.774196000000000 
K           0.240326000000000    0.000000000000000    0.302210000000000 
K           0.257623000000000    0.245236000000000    0.472311000000000 
K           0.257623000000000    0.754764000000000    0.472311000000000 
K           0.346694000000000    0.500000000000000    0.102998000000000 
K           0.500000000000000    0.181852000000000    0.182615000000000 
K           0.500000000000000    0.818148000000000    0.182615000000000 
K           0.653306000000000    0.500000000000000    0.102998000000000 
K           0.742377000000000    0.245236000000000    0.472311000000000 
K           0.742377000000000    0.754764000000000    0.472311000000000 
K           0.759674000000000    0.000000000000000    0.302210000000000 
%ENDBLOCK POSITIONS_FRAC
