# Cell file generated by matador (Matthew Evans 2016)

%BLOCK LATTICE_CART
5.76549 0.0 0.0
0.0 5.76549 0.0
0.0 0.0 9.89324
%ENDBLOCK LATTICE_CART

%BLOCK POSITIONS_FRAC
P           0.000000000000000    0.181758000000000    0.411456000000000 
P           0.000000000000000    0.818242000000000    0.411456000000000 
P           0.127080000000000    0.500000000000000    0.816452000000000 
P           0.181758000000000    0.000000000000000    0.911456000000000 
P           0.500000000000000    0.127080000000000    0.316452000000000 
P           0.500000000000000    0.872920000000000    0.316452000000000 
P           0.818242000000000    0.000000000000000    0.911456000000000 
P           0.872920000000000    0.500000000000000    0.816452000000000 
K           0.219831000000000    0.500000000000000    0.048462000000000 
K           0.500000000000000    0.219831000000000    0.548462000000000 
K           0.500000000000000    0.780169000000000    0.548462000000000 
K           0.780169000000000    0.500000000000000    0.048462000000000 
%ENDBLOCK POSITIONS_FRAC
