# Cell file generated by matador (Matthew Evans 2016)

%BLOCK LATTICE_CART
5.26214 0.0 0.0
-2.63107 4.55715 0.0
0.0 0.0 13.0065
%ENDBLOCK LATTICE_CART

%BLOCK POSITIONS_FRAC
P           0.224519000000000    0.458830000000000    0.124018000000000 
P           0.234311000000000    0.775481000000000    0.124018000000000 
P           0.311064000000000    0.078726000000000    0.460748000000000 
P           0.541170000000000    0.765689000000000    0.124018000000000 
P           0.666667000000000    0.333333000000000    0.913774000000000 
P           0.767662000000000    0.688936000000000    0.460748000000000 
P           0.921274000000000    0.232338000000000    0.460748000000000 
K           0.000000000000000    0.000000000000000    0.932897000000000 
K           0.333333000000000    0.666667000000000    0.621249000000000 
K           0.333333000000000    0.666667000000000    0.921115000000000 
K           0.666667000000000    0.333333000000000    0.212406000000000 
K           0.666667000000000    0.333333000000000    0.696505000000000 
%ENDBLOCK POSITIONS_FRAC
