# Cell file generated by matador (Matthew Evans 2016)

%BLOCK LATTICE_CART
9.72564 0.0 0.0
0.0 9.72564 0.0
0.0 0.0 6.26101
%ENDBLOCK LATTICE_CART

%BLOCK POSITIONS_FRAC
P           0.000000000000000    0.500000000000000    0.000000000000000 
P           0.000000000000000    0.500000000000000    0.500000000000000 
P           0.500000000000000    0.000000000000000    0.000000000000000 
P           0.500000000000000    0.000000000000000    0.500000000000000 
K           0.000000000000000    0.000000000000000    0.000000000000000 
K           0.000000000000000    0.000000000000000    0.500000000000000 
K           0.058371000000000    0.697110000000000    0.000000000000000 
K           0.197110000000000    0.558371000000000    0.500000000000000 
K           0.302890000000000    0.058371000000000    0.000000000000000 
K           0.441629000000000    0.197110000000000    0.500000000000000 
K           0.500000000000000    0.500000000000000    0.000000000000000 
K           0.500000000000000    0.500000000000000    0.500000000000000 
K           0.558371000000000    0.802890000000000    0.500000000000000 
K           0.697110000000000    0.941629000000000    0.000000000000000 
K           0.802890000000000    0.441629000000000    0.500000000000000 
K           0.941629000000000    0.302890000000000    0.000000000000000 
%ENDBLOCK POSITIONS_FRAC
