# Cell file generated by matador (Matthew Evans 2016)

%BLOCK LATTICE_CART
7.00157 0.0 0.0
0.0 5.60146 0.0
3.19395 0.0 7.7478
%ENDBLOCK LATTICE_CART

%BLOCK POSITIONS_FRAC
P           0.041897000000000    0.500000000000000    0.370301000000000 
P           0.721309000000000   -0.000000000000000    0.242288000000000 
P           0.738793000000000    0.262527000000000    0.497648000000000 
P           0.738793000000000    0.737473000000000    0.497648000000000 
P           0.880388000000000    0.500000000000000    0.860932000000000 
P           0.901683000000000   -0.000000000000000    0.412693000000000 
K           0.029059000000000   -0.000000000000000    0.943022000000000 
K           0.354803000000000    0.184504000000000    0.818339000000000 
K           0.354803000000000    0.815496000000000    0.818339000000000 
K           0.374033000000000    0.500000000000000    0.685045000000000 
K           0.419790000000000   -0.000000000000000    0.430798000000000 
K           0.486629000000000   -0.000000000000000    0.008156000000000 
K           0.607895000000000    0.500000000000000    0.236546000000000 
%ENDBLOCK POSITIONS_FRAC
