# Cell file generated by matador (Matthew Evans 2016)

%BLOCK LATTICE_CART
7.3093 0.0 0.0
-3.65465 6.33004 0.0
0.0 0.0 6.49096
%ENDBLOCK LATTICE_CART

%BLOCK POSITIONS_FRAC
P           0.000000000000000    0.000000000000000    0.127769000000000 
P           0.000000000000000    0.000000000000000    0.500000000000000 
P           0.000000000000000    0.000000000000000    0.872231000000000 
P           0.333333000000000    0.666667000000000    0.000000000000000 
P           0.666667000000000    0.333333000000000    0.000000000000000 
K           0.000000000000000    0.500000000000000    0.000000000000000 
K           0.000000000000000    0.500000000000000    0.500000000000000 
K           0.500000000000000    0.000000000000000    0.000000000000000 
K           0.500000000000000    0.000000000000000    0.500000000000000 
K           0.500000000000000    0.500000000000000    0.000000000000000 
K           0.500000000000000    0.500000000000000    0.500000000000000 
%ENDBLOCK POSITIONS_FRAC
