# Cell file generated by matador (Matthew Evans 2016)

%BLOCK LATTICE_CART
6.64583 0.0 0.0
0.0 6.64583 0.0
0.0 0.0 8.43222
%ENDBLOCK LATTICE_CART

%BLOCK POSITIONS_FRAC
P           0.000000000000000    0.500000000000000    0.200843000000000 
P           0.211675000000000    0.711675000000000    0.668258000000000 
P           0.288325000000000    0.211675000000000    0.668258000000000 
P           0.500000000000000    0.000000000000000    0.200843000000000 
P           0.711675000000000    0.788325000000000    0.668258000000000 
P           0.788325000000000    0.288325000000000    0.668258000000000 
K           0.109615000000000    0.390385000000000    0.838789000000000 
K           0.212607000000000    0.712607000000000    0.054962000000000 
K           0.287393000000000    0.212607000000000    0.054962000000000 
K           0.390385000000000    0.890385000000000    0.838789000000000 
K           0.609615000000000    0.109615000000000    0.838789000000000 
K           0.712607000000000    0.787393000000000    0.054962000000000 
K           0.787393000000000    0.287393000000000    0.054962000000000 
K           0.890385000000000    0.609615000000000    0.838789000000000 
%ENDBLOCK POSITIONS_FRAC
