# Cell file generated by matador (Matthew Evans 2016)

%BLOCK LATTICE_CART
6.31534 0.0 0.0
0.0 6.60455 0.0
0.0 0.0 7.97238
%ENDBLOCK LATTICE_CART

%BLOCK POSITIONS_FRAC
P           0.152104000000000    0.250000000000000    0.404822000000000 
P           0.152104000000000    0.750000000000000    0.595178000000000 
P           0.347896000000000    0.250000000000000    0.095178000000000 
P           0.347896000000000    0.750000000000000    0.904822000000000 
P           0.652104000000000    0.250000000000000    0.095178000000000 
P           0.652104000000000    0.750000000000000    0.904822000000000 
P           0.847896000000000    0.250000000000000    0.404822000000000 
P           0.847896000000000    0.750000000000000    0.595178000000000 
K           0.000000000000000    0.250000000000000    0.036242000000000 
K           0.000000000000000    0.750000000000000    0.963758000000000 
K           0.500000000000000    0.250000000000000    0.463758000000000 
K           0.500000000000000    0.750000000000000    0.536242000000000 
%ENDBLOCK POSITIONS_FRAC
