# Cell file generated by matador (Matthew Evans 2016)

%BLOCK LATTICE_CART
6.72369 0.0 0.0
-3.36185 5.82289 0.0
0.0 0.0 8.71004
%ENDBLOCK LATTICE_CART

%BLOCK POSITIONS_FRAC
P           0.333333000000000    0.666667000000000    0.578900000000000 
P           0.666666000000000    0.333334000000000    0.578900000000000 
K          -0.000000000000000    0.000000000000000    0.901876000000000 
K          -0.000000000000000    0.342633000000000    0.331187000000000 
K          -0.000000000000000    0.735348000000000    0.086714000000000 
K          -0.000000000000000    0.799553000000000    0.521558000000000 
K           0.200447000000000    0.200447000000000    0.521558000000000 
K           0.264652000000000    0.264652000000000    0.086714000000000 
K           0.342633000000000    0.000000000000000    0.331187000000000 
K           0.657367000000000    0.657367000000000    0.331187000000000 
K           0.735348000000000    0.000000000000000    0.086714000000000 
K           0.799553000000000    0.000000000000000    0.521558000000000 
%ENDBLOCK POSITIONS_FRAC
