# Cell file generated by matador (Matthew Evans 2016)

%BLOCK LATTICE_CART
6.91447 0.0 0.0
0.0 6.09625 0.0
0.230064 0.0 4.72066
%ENDBLOCK LATTICE_CART

%BLOCK POSITIONS_FRAC
P           0.030699000000000    0.981522000000000    0.147259000000000 
P           0.459288000000000    0.197147000000000    0.349376000000000 
P           0.500000000000000    0.580225000000000    0.000000000000000 
P           0.540712000000000    0.197147000000000    0.650624000000000 
P           0.969301000000000    0.981522000000000    0.852741000000000 
K           0.378527000000000    0.815520000000000    0.333259000000000 
K           0.621473000000000    0.815520000000000    0.666741000000000 
%ENDBLOCK POSITIONS_FRAC
