# Cell file generated by matador (Matthew Evans 2016)

%BLOCK LATTICE_CART
8.48843 0.0 0.0
0.0 8.35947 0.0
1.66615 0.0 8.25261
%ENDBLOCK LATTICE_CART

%BLOCK POSITIONS_FRAC
P           0.156471000000000    0.137655000000000    0.542191000000000 
P           0.156471000000000    0.862345000000000    0.542191000000000 
P           0.367836000000000    0.303652000000000    0.229180000000000 
P           0.367836000000000    0.696348000000000    0.229180000000000 
P           0.956277000000000    0.384304000000000    0.128162000000000 
P           0.956277000000000    0.615696000000000    0.128162000000000 
K           0.072753000000000   -0.000000000000000    0.225556000000000 
K           0.176489000000000    0.500000000000000    0.668608000000000 
K           0.443711000000000    0.500000000000000    0.869413000000000 
K           0.443882000000000   -0.000000000000000    0.865736000000000 
K           0.603239000000000    0.500000000000000    0.236066000000000 
K           0.709228000000000   -0.000000000000000    0.229430000000000 
K           0.732990000000000    0.500000000000000    0.463221000000000 
K           0.809883000000000    0.268395000000000    0.908159000000000 
K           0.809883000000000    0.731605000000000    0.908159000000000 
K           0.879827000000000    0.500000000000000    0.757835000000000 
%ENDBLOCK POSITIONS_FRAC
