# Cell file generated by matador (Matthew Evans 2016)

%BLOCK LATTICE_CART
9.2975 0.0 0.0
-4.64875 8.05187 0.0
0.0 0.0 4.05172
%ENDBLOCK LATTICE_CART

%BLOCK POSITIONS_FRAC
P           0.000000000000000    0.269954000000000    0.000000000000000 
P           0.063379000000000    0.396712000000000    0.666667000000000 
P           0.269954000000000    0.000000000000000    0.000000000000000 
P           0.333333000000000    0.936621000000000    0.666667000000000 
P           0.396712000000000    0.063379000000000    0.333333000000000 
P           0.603288000000000    0.666667000000000    0.666667000000000 
P           0.666667000000000    0.603288000000000    0.333333000000000 
P           0.730046000000000    0.730046000000000    0.000000000000000 
P           0.936621000000000    0.333333000000000    0.333333000000000 
K           0.000000000000000    0.000000000000000    0.000000000000000 
K           0.333333000000000    0.666667000000000    0.666667000000000 
K           0.666667000000000    0.333333000000000    0.333333000000000 
%ENDBLOCK POSITIONS_FRAC
