# Cell file generated by matador (Matthew Evans 2016)

%BLOCK LATTICE_CART
5.70411 0.0 0.0
0.0 5.70411 0.0
0.0 0.0 6.95317
%ENDBLOCK LATTICE_CART

%BLOCK POSITIONS_FRAC
P           0.000000000000000    0.000000000000000    0.500000000000000 
P           0.500000000000000    0.500000000000000    0.500000000000000 
K           0.000000000000000    0.000000000000000    0.000000000000000 
K           0.219881000000000    0.289119000000000    0.000000000000000 
K           0.289119000000000    0.780119000000000    0.000000000000000 
K           0.500000000000000    0.500000000000000    0.000000000000000 
K           0.710881000000000    0.219881000000000    0.000000000000000 
K           0.780119000000000    0.710881000000000    0.000000000000000 
%ENDBLOCK POSITIONS_FRAC
