# Cell file generated by matador (Matthew Evans 2016)

%BLOCK LATTICE_CART
8.23942 0.0 0.0
-4.11971 7.13555 0.0
0.0 0.0 9.30293
%ENDBLOCK LATTICE_CART

%BLOCK POSITIONS_FRAC
P           0.666667000000000    0.333333000000000    0.219055000000000 
P           0.666667000000000    0.333333000000000    0.780945000000000 
K           0.000000000000000   -0.000000000000000    0.000000000000000 
K           0.000000000000000   -0.000000000000000    0.500000000000000 
K           0.333334000000000    0.666666000000000    0.000000000000000 
K           0.333334000000000    0.666666000000000    0.500000000000000 
K           0.481948000000000    0.054077000000000    0.793514000000000 
K           0.481948000000000    0.427869000000000    0.206486000000000 
K           0.572131000000000    0.054077000000000    0.206486000000000 
K           0.572131000000000    0.518052000000000    0.793514000000000 
K           0.666667000000000    0.333333000000000    0.000000000000000 
K           0.666667000000000    0.333333000000000    0.500000000000000 
K           0.945923000000000    0.427869000000000    0.793514000000000 
K           0.945923000000000    0.518052000000000    0.206486000000000 
%ENDBLOCK POSITIONS_FRAC
