# Cell file generated by matador (Matthew Evans 2016)

%BLOCK LATTICE_CART
8.94375 0.0 0.0
-4.47187 7.74551 0.0
0.0 0.0 6.15811
%ENDBLOCK LATTICE_CART

%BLOCK POSITIONS_FRAC
P           0.000000000000000    0.000000000000000    0.202448000000000 
P           0.000000000000000    0.000000000000000    0.560560000000000 
P           0.000000000000000    0.000000000000000    0.955753000000000 
P           0.333333000000000    0.666667000000000    0.779897000000000 
P           0.666667000000000    0.333333000000000    0.779897000000000 
K           0.000000000000000    0.285822000000000    0.223498000000000 
K           0.000000000000000    0.714178000000000    0.223498000000000 
K           0.285822000000000    0.000000000000000    0.223498000000000 
K           0.285822000000000    0.285822000000000    0.223498000000000 
K           0.714178000000000    0.000000000000000    0.223498000000000 
K           0.714178000000000    0.714178000000000    0.223498000000000 
%ENDBLOCK POSITIONS_FRAC
