# Cell file generated by matador (Matthew Evans 2016)

%BLOCK LATTICE_CART
8.97882 0.0 0.0
-4.48941 7.77589 0.0
0.0 0.0 14.926
%ENDBLOCK LATTICE_CART

%BLOCK POSITIONS_FRAC
P           0.000000000000000    0.000000000000000    0.051661000000000 
P           0.000000000000000    0.000000000000000    0.305450000000000 
P           0.333333000000000    0.666667000000000    0.718328000000000 
P           0.333333000000000    0.666667000000000    0.972117000000000 
P           0.666667000000000    0.333333000000000    0.384994000000000 
P           0.666667000000000    0.333333000000000    0.638783000000000 
K           0.004416000000000    0.502208000000000    0.039174000000000 
K           0.164459000000000    0.328917000000000    0.372507000000000 
K           0.164459000000000    0.835541000000000    0.372507000000000 
K           0.177562000000000    0.355124000000000    0.879420000000000 
K           0.177562000000000    0.822438000000000    0.879420000000000 
K           0.311543000000000    0.155771000000000    0.212754000000000 
K           0.337750000000000    0.168875000000000    0.705841000000000 
K           0.497792000000000    0.502208000000000    0.039174000000000 
K           0.497792000000000    0.995584000000000    0.039174000000000 
K           0.510895000000000    0.021791000000000    0.546087000000000 
K           0.510895000000000    0.489105000000000    0.546087000000000 
K           0.644876000000000    0.822438000000000    0.879420000000000 
K           0.671083000000000    0.835541000000000    0.372507000000000 
K           0.831125000000000    0.168875000000000    0.705841000000000 
K           0.831125000000000    0.662250000000000    0.705841000000000 
K           0.844229000000000    0.155771000000000    0.212754000000000 
K           0.844229000000000    0.688457000000000    0.212754000000000 
K           0.978209000000000    0.489105000000000    0.546087000000000 
%ENDBLOCK POSITIONS_FRAC
