# Cell file generated by matador (Matthew Evans 2016)

%BLOCK LATTICE_CART
7.14569 0.0 0.0
-3.57285 6.18835 0.0
0.0 0.0 7.61193
%ENDBLOCK LATTICE_CART

%BLOCK POSITIONS_FRAC
P           0.000000000000000    0.000000000000000    0.338239000000000 
P           0.666667000000000    0.333333000000000    0.380770000000000 
K           0.330121000000000    0.165060000000000    0.737235000000000 
K           0.375182000000000    0.187591000000000    0.172133000000000 
K           0.812409000000000    0.187591000000000    0.172133000000000 
K           0.812409000000000    0.624818000000000    0.172133000000000 
K           0.834940000000000    0.165060000000000    0.737235000000000 
K           0.834940000000000    0.669879000000000    0.737235000000000 
%ENDBLOCK POSITIONS_FRAC
