# Cell file generated by matador (Matthew Evans 2016)

%BLOCK LATTICE_CART
8.96003 0.0 0.0
0.0 8.96003 0.0
0.0 0.0 4.7842
%ENDBLOCK LATTICE_CART

%BLOCK POSITIONS_FRAC
P           0.000000000000000    0.000000000000000    0.500000000000000 
P           0.002886000000000    0.293987000000000    0.003374000000000 
P           0.293987000000000    0.997114000000000    0.996626000000000 
P           0.304714000000000    0.608098000000000    0.496412000000000 
P           0.391902000000000    0.304714000000000    0.503588000000000 
P           0.608098000000000    0.695286000000000    0.503588000000000 
P           0.695286000000000    0.391902000000000    0.496412000000000 
P           0.706013000000000    0.002886000000000    0.996626000000000 
P           0.997114000000000    0.706013000000000    0.003374000000000 
K           0.000000000000000    0.000000000000000    0.000000000000000 
K           0.500000000000000    0.500000000000000    0.000000000000000 
K           0.500000000000000    0.500000000000000    0.500000000000000 
%ENDBLOCK POSITIONS_FRAC
