# Cell file generated by matador (Matthew Evans 2016)

%BLOCK LATTICE_CART
7.79364 0.0 0.0
0.0 5.57334 0.0
0.674712 0.0 7.01207
%ENDBLOCK LATTICE_CART

%BLOCK POSITIONS_FRAC
P           0.148497000000000    0.400133000000000    0.192937000000000 
P           0.327009000000000    0.857078000000000    0.591689000000000 
P           0.672991000000000    0.857078000000000    0.408311000000000 
P           0.851503000000000    0.400133000000000    0.807063000000000 
K           0.000000000000000    0.028876000000000    0.500000000000000 
K           0.000000000000000    0.854469000000000    0.000000000000000 
K           0.106641000000000    0.516213000000000    0.655890000000000 
K           0.357816000000000    0.035962000000000    0.891859000000000 
K           0.500000000000000    0.712804000000000    0.000000000000000 
K           0.642184000000000    0.035962000000000    0.108141000000000 
K           0.893359000000000    0.516213000000000    0.344110000000000 
%ENDBLOCK POSITIONS_FRAC
