# Cell file generated by matador (Matthew Evans 2016)

%BLOCK LATTICE_CART
9.78848 0.0 0.0
-4.89424 8.47707 0.0
0.0 0.0 7.63882
%ENDBLOCK LATTICE_CART

%BLOCK POSITIONS_FRAC
P           0.070702000000000    0.803719000000000    0.250000000000000 
P           0.196281000000000    0.266983000000000    0.250000000000000 
P           0.266983000000000    0.196281000000000    0.750000000000000 
P           0.733017000000000    0.929298000000000    0.250000000000000 
P           0.803719000000000    0.070702000000000    0.750000000000000 
P           0.929298000000000    0.733017000000000    0.750000000000000 
K          -0.000000000000000   -0.000000000000000    0.250000000000000 
K          -0.000000000000000   -0.000000000000000    0.750000000000000 
K          -0.000000000000000    0.302779000000000    0.000000000000000 
K          -0.000000000000000    0.302779000000000    0.500000000000000 
K           0.302779000000000   -0.000000000000000    0.000000000000000 
K           0.302779000000000   -0.000000000000000    0.500000000000000 
K           0.333333000000000    0.666667000000000    0.750000000000000 
K           0.666667000000000    0.333333000000000    0.250000000000000 
K           0.697221000000000    0.697221000000000    0.000000000000000 
K           0.697221000000000    0.697221000000000    0.500000000000000 
%ENDBLOCK POSITIONS_FRAC
