# Cell file generated by matador (Matthew Evans 2016)

%BLOCK LATTICE_CART
8.5684 0.0 0.0
-4.2842 7.42045 0.0
0.0 0.0 15.7888
%ENDBLOCK LATTICE_CART

%BLOCK POSITIONS_FRAC
P           0.037549000000000    0.311194000000000    0.250000000000000 
P           0.273645000000000    0.962451000000000    0.250000000000000 
P           0.311194000000000    0.273645000000000    0.750000000000000 
P           0.688806000000000    0.726355000000000    0.250000000000000 
P           0.726355000000000    0.037549000000000    0.750000000000000 
P           0.962451000000000    0.688806000000000    0.750000000000000 
K           0.000000000000000    0.000000000000000   -0.000000000000000 
K           0.000000000000000    0.000000000000000    0.500000000000000 
K           0.000000000000000    0.500000000000000   -0.000000000000000 
K           0.000000000000000    0.500000000000000    0.500000000000000 
K           0.046372000000000    0.276524000000000    0.750000000000000 
K           0.230151000000000    0.953628000000000    0.750000000000000 
K           0.276524000000000    0.230151000000000    0.250000000000000 
K           0.333333000000000    0.666667000000000    0.250000000000000 
K           0.333333000000000    0.666667000000000    0.750000000000000 
K           0.500000000000000    0.000000000000000   -0.000000000000000 
K           0.500000000000000    0.000000000000000    0.500000000000000 
K           0.500000000000000    0.500000000000000   -0.000000000000000 
K           0.500000000000000    0.500000000000000    0.500000000000000 
K           0.666667000000000    0.333333000000000    0.250000000000000 
K           0.666667000000000    0.333333000000000    0.750000000000000 
K           0.723476000000000    0.769849000000000    0.750000000000000 
K           0.769849000000000    0.046372000000000    0.250000000000000 
K           0.953628000000000    0.723476000000000    0.250000000000000 
%ENDBLOCK POSITIONS_FRAC
