# Cell file generated by matador (Matthew Evans 2016)

%BLOCK LATTICE_CART
7.87253 0.0 0.0
0.0 6.61634 0.0
0.0 0.0 6.13014
%ENDBLOCK LATTICE_CART

%BLOCK POSITIONS_FRAC
P           0.000000000000000    0.000000000000000    0.665259000000000 
P           0.000000000000000    0.000000000000000    0.870670000000000 
P           0.500000000000000    0.500000000000000    0.665259000000000 
P           0.500000000000000    0.500000000000000    0.870670000000000 
K           0.000000000000000    0.500000000000000    0.455433000000000 
K           0.221492000000000    0.011907000000000    0.058318000000000 
K           0.278508000000000    0.511907000000000    0.058318000000000 
K           0.500000000000000    0.000000000000000    0.455433000000000 
K           0.721492000000000    0.488093000000000    0.058318000000000 
K           0.778508000000000    0.988093000000000    0.058318000000000 
%ENDBLOCK POSITIONS_FRAC
