# Cell file generated by matador (Matthew Evans 2016)

%BLOCK LATTICE_CART
5.86962 0.0 0.0
0.0 7.36953 0.0
0.0 0.0 7.79623
%ENDBLOCK LATTICE_CART

%BLOCK POSITIONS_FRAC
P           0.000000000000000    0.000000000000000    0.413858000000000 
P           0.000000000000000    0.000000000000000    0.583564000000000 
P           0.000000000000000    0.000000000000000    0.934369000000000 
P           0.250000000000000    0.293519000000000    0.389296000000000 
P           0.250000000000000    0.421801000000000    0.479400000000000 
P           0.500000000000000    0.000000000000000    0.413858000000000 
P           0.500000000000000    0.000000000000000    0.583564000000000 
P           0.500000000000000    0.000000000000000    0.934369000000000 
P           0.750000000000000    0.578199000000000    0.479400000000000 
P           0.750000000000000    0.706481000000000    0.389296000000000 
K           0.250000000000000    0.275398000000000    0.011821000000000 
K           0.750000000000000    0.724602000000000    0.011821000000000 
%ENDBLOCK POSITIONS_FRAC
