# Cell file generated by matador (Matthew Evans 2016)

%BLOCK LATTICE_CART
8.40381 0.0 0.0
0.0 8.40381 0.0
0.0 0.0 8.05448
%ENDBLOCK LATTICE_CART

%BLOCK POSITIONS_FRAC
P          -0.000000000000000   -0.000000000000000    0.115618000000000 
P          -0.000000000000000   -0.000000000000000    0.432825000000000 
P          -0.000000000000000   -0.000000000000000    0.725630000000000 
P          -0.000000000000000    0.500000000000000    0.173499000000000 
P          -0.000000000000000    0.500000000000000    0.673499000000000 
P           0.500000000000000   -0.000000000000000    0.173499000000000 
P           0.500000000000000   -0.000000000000000    0.673499000000000 
P           0.500000000000000    0.500000000000000    0.225630000000000 
P           0.500000000000000    0.500000000000000    0.615618000000000 
P           0.500000000000000    0.500000000000000    0.932825000000000 
K           0.246170000000000    0.753563000000000    0.483799000000000 
K           0.246437000000000    0.246170000000000    0.483799000000000 
K           0.253563000000000    0.746170000000000    0.983799000000000 
K           0.253830000000000    0.253563000000000    0.983799000000000 
K           0.746170000000000    0.746437000000000    0.983799000000000 
K           0.746437000000000    0.253830000000000    0.983799000000000 
K           0.753563000000000    0.753830000000000    0.483799000000000 
K           0.753830000000000    0.246437000000000    0.483799000000000 
%ENDBLOCK POSITIONS_FRAC
