# Cell file generated by matador (Matthew Evans 2016)

%BLOCK LATTICE_CART
6.24094 0.0 0.0
-3.12047 5.40481 0.0
0.0 0.0 5.48624
%ENDBLOCK LATTICE_CART

%BLOCK POSITIONS_FRAC
P           0.013824000000000    0.419170000000000    0.152335000000000 
P           0.013824000000000    0.594654000000000    0.847665000000000 
P           0.405346000000000    0.419170000000000    0.847665000000000 
P           0.405346000000000    0.986176000000000    0.152335000000000 
P           0.580830000000000    0.594654000000000    0.152335000000000 
P           0.580830000000000    0.986176000000000    0.847665000000000 
K           0.333333000000000    0.666667000000000    0.000000000000000 
%ENDBLOCK POSITIONS_FRAC
