# Cell file generated by matador (Matthew Evans 2016)

%BLOCK LATTICE_CART
3.56002 0.0 0.0
-1.78001 3.08307 0.0
0.0 0.0 5.97432
%ENDBLOCK LATTICE_CART

%BLOCK POSITIONS_FRAC
P           0.333333000000000    0.666667000000000    0.099001000000000 
P           0.666667000000000    0.333333000000000    0.900999000000000 
K           0.000000000000000    0.000000000000000    0.000000000000000 
%ENDBLOCK POSITIONS_FRAC
