# Cell file generated by matador (Matthew Evans 2016)

%BLOCK LATTICE_CART
8.49484 0.0 0.0
-4.24742 7.35675 0.0
0.0 0.0 7.82014
%ENDBLOCK LATTICE_CART

%BLOCK POSITIONS_FRAC
P           0.179081000000000    0.589541000000000    0.000000000000000 
P           0.410459000000000    0.589541000000000    0.666667000000000 
P           0.410459000000000    0.820919000000000    0.333333000000000 
K           0.148194000000000    0.074098000000000    0.500000000000000 
K           0.201186000000000    0.402373000000000    0.833333000000000 
K           0.201186000000000    0.798814000000000    0.166667000000000 
K           0.214870000000000    0.429741000000000    0.333333000000000 
K           0.214870000000000    0.785130000000000    0.666667000000000 
K           0.570259000000000    0.785130000000000    0.000000000000000 
K           0.597627000000000    0.798814000000000    0.500000000000000 
K           0.925902000000000    0.074098000000000    0.166667000000000 
K           0.925902000000000    0.851806000000000    0.833333000000000 
%ENDBLOCK POSITIONS_FRAC
