# Cell file generated by matador (Matthew Evans 2016)

%BLOCK LATTICE_CART
5.95243 0.0 0.0
0.0 5.81143 0.0
0.0 0.0 9.31926
%ENDBLOCK LATTICE_CART

%BLOCK POSITIONS_FRAC
P           0.000000000000000    0.180135000000000    0.954244000000000 
P           0.000000000000000    0.819865000000000    0.954244000000000 
P           0.291865000000000   -0.000000000000000    0.580349000000000 
P           0.305094000000000    0.216371000000000    0.987470000000000 
P           0.305094000000000    0.783629000000000    0.987470000000000 
P           0.694906000000000    0.216371000000000    0.987470000000000 
P           0.694906000000000    0.783629000000000    0.987470000000000 
P           0.708135000000000   -0.000000000000000    0.580349000000000 
K           0.000000000000000    0.259761000000000    0.397117000000000 
K           0.000000000000000    0.740239000000000    0.397117000000000 
K           0.500000000000000    0.260931000000000    0.799661000000000 
K           0.500000000000000    0.739069000000000    0.799661000000000 
%ENDBLOCK POSITIONS_FRAC
