# Cell file generated by matador (Matthew Evans 2016)

%BLOCK LATTICE_CART
7.57186 0.0 0.0
0.0 7.86237 0.0
0.0 0.0 7.21288
%ENDBLOCK LATTICE_CART

%BLOCK POSITIONS_FRAC
P           0.000000000000000    0.500000000000000    0.935528000000000 
P           0.500000000000000    0.500000000000000    0.935528000000000 
K           0.000000000000000    0.000000000000000    0.670785000000000 
K           0.099461000000000    0.609471000000000    0.289780000000000 
K           0.250000000000000    0.096835000000000    0.283187000000000 
K           0.250000000000000    0.246837000000000    0.905183000000000 
K           0.250000000000000    0.389311000000000    0.651218000000000 
K           0.400539000000000    0.609471000000000    0.289780000000000 
K           0.500000000000000    0.000000000000000    0.670785000000000 
K           0.599461000000000    0.390529000000000    0.289780000000000 
K           0.750000000000000    0.610689000000000    0.651218000000000 
K           0.750000000000000    0.753163000000000    0.905183000000000 
K           0.750000000000000    0.903165000000000    0.283187000000000 
K           0.900539000000000    0.390529000000000    0.289780000000000 
%ENDBLOCK POSITIONS_FRAC
