# Cell file generated by matador (Matthew Evans 2016)

%BLOCK LATTICE_CART
13.0289 0.0 0.0
0.0 13.8327 0.0
0.0 0.0 6.46817
%ENDBLOCK LATTICE_CART

%BLOCK POSITIONS_FRAC
P           0.000000000000000    0.000000000000000    0.000000000000000 
P           0.000000000000000    0.000000000000000    0.500000000000000 
P           0.000000000000000    0.500000000000000    0.000000000000000 
P           0.000000000000000    0.500000000000000    0.500000000000000 
P           0.500000000000000    0.000000000000000    0.000000000000000 
P           0.500000000000000    0.000000000000000    0.500000000000000 
P           0.500000000000000    0.500000000000000    0.000000000000000 
P           0.500000000000000    0.500000000000000    0.500000000000000 
K           0.000000000000000    0.080403000000000    0.248074000000000 
K           0.000000000000000    0.217655000000000    0.597834000000000 
K           0.000000000000000    0.282345000000000    0.097834000000000 
K           0.000000000000000    0.419597000000000    0.748074000000000 
K           0.000000000000000    0.580403000000000    0.251926000000000 
K           0.000000000000000    0.717655000000000    0.902166000000000 
K           0.000000000000000    0.782345000000000    0.402166000000000 
K           0.000000000000000    0.919597000000000    0.751926000000000 
K           0.250000000000000    0.025452000000000    0.750000000000000 
K           0.250000000000000    0.474548000000000    0.250000000000000 
K           0.250000000000000    0.525452000000000    0.750000000000000 
K           0.250000000000000    0.974548000000000    0.250000000000000 
K           0.500000000000000    0.080403000000000    0.251926000000000 
K           0.500000000000000    0.217655000000000    0.902166000000000 
K           0.500000000000000    0.282345000000000    0.402166000000000 
K           0.500000000000000    0.419597000000000    0.751926000000000 
K           0.500000000000000    0.580403000000000    0.248074000000000 
K           0.500000000000000    0.717655000000000    0.597834000000000 
K           0.500000000000000    0.782345000000000    0.097834000000000 
K           0.500000000000000    0.919597000000000    0.748074000000000 
K           0.750000000000000    0.025452000000000    0.750000000000000 
K           0.750000000000000    0.474548000000000    0.250000000000000 
K           0.750000000000000    0.525452000000000    0.750000000000000 
K           0.750000000000000    0.974548000000000    0.250000000000000 
%ENDBLOCK POSITIONS_FRAC
