# Cell file generated by matador (Matthew Evans 2016)

%BLOCK LATTICE_CART
9.4571 -0.0 0.0
-4.72855 8.19009 0.0
0.0 0.0 8.3477
%ENDBLOCK LATTICE_CART

%BLOCK POSITIONS_FRAC
P           0.000000000000000    0.000000000000000    0.260413000000000 
P           0.000000000000000    0.000000000000000    0.739587000000000 
P           0.131297000000000    0.802106000000000    0.822864000000000 
P           0.197894000000000    0.329190000000000    0.822864000000000 
P           0.329190000000000    0.131297000000000    0.177136000000000 
P           0.333333000000000    0.666667000000000    0.690202000000000 
P           0.666667000000000    0.333333000000000    0.309798000000000 
P           0.670810000000000    0.868703000000000    0.822864000000000 
P           0.802106000000000    0.670810000000000    0.177136000000000 
P           0.868703000000000    0.197894000000000    0.177136000000000 
K           0.000000000000000    0.000000000000000    0.000000000000000 
K           0.000000000000000    0.000000000000000    0.500000000000000 
K           0.000000000000000    0.500000000000000    0.000000000000000 
K           0.000000000000000    0.500000000000000    0.500000000000000 
K           0.500000000000000    0.000000000000000    0.000000000000000 
K           0.500000000000000    0.000000000000000    0.500000000000000 
K           0.500000000000000    0.500000000000000    0.000000000000000 
K           0.500000000000000    0.500000000000000    0.500000000000000 
%ENDBLOCK POSITIONS_FRAC
