# Cell file generated by matador (Matthew Evans 2016)

%BLOCK LATTICE_CART
6.82127 0.0 0.0
-3.41063 5.90739 0.0
0.0 0.0 10.4787
%ENDBLOCK LATTICE_CART

%BLOCK POSITIONS_FRAC
P           0.113255000000000    0.226510000000000    0.080027000000000 
P           0.113255000000000    0.226510000000000    0.919973000000000 
P           0.113255000000000    0.886745000000000    0.080027000000000 
P           0.113255000000000    0.886745000000000    0.919973000000000 
P           0.328108000000000    0.164055000000000    0.500000000000000 
P           0.773490000000000    0.886745000000000    0.080027000000000 
P           0.773490000000000    0.886745000000000    0.919973000000000 
P           0.835945000000000    0.164055000000000    0.500000000000000 
P           0.835945000000000    0.671892000000000    0.500000000000000 
K           0.333333000000000    0.666667000000000    0.500000000000000 
K           0.666666000000000    0.333334000000000    0.000000000000000 
K           0.666666000000000    0.333334000000000    0.500000000000000 
%ENDBLOCK POSITIONS_FRAC
