# Cell file generated by matador (Matthew Evans 2016)

%BLOCK LATTICE_CART
9.10601 0.0 0.0
-4.553 7.88603 0.0
0.0 0.0 8.0278
%ENDBLOCK LATTICE_CART

%BLOCK POSITIONS_FRAC
P           0.000000000000000    0.000000000000000    0.165330000000000 
P           0.000000000000000    0.500000000000000    0.813633000000000 
P           0.500000000000000    0.000000000000000    0.813633000000000 
P           0.500000000000000    0.500000000000000    0.813633000000000 
K           0.000000000000000    0.334398000000000    0.049342000000000 
K           0.000000000000000    0.665602000000000    0.049342000000000 
K           0.193042000000000    0.386084000000000    0.377072000000000 
K           0.193042000000000    0.806958000000000    0.377072000000000 
K           0.334398000000000    0.000000000000000    0.049342000000000 
K           0.334398000000000    0.334398000000000    0.049342000000000 
K           0.386084000000000    0.193042000000000    0.377072000000000 
K           0.613916000000000    0.806958000000000    0.377072000000000 
K           0.665602000000000    0.000000000000000    0.049342000000000 
K           0.665602000000000    0.665602000000000    0.049342000000000 
K           0.806958000000000    0.193042000000000    0.377072000000000 
K           0.806958000000000    0.613916000000000    0.377072000000000 
%ENDBLOCK POSITIONS_FRAC
