# Cell file generated by matador (Matthew Evans 2016)

%BLOCK LATTICE_CART
9.20675 0.0 0.0
0.0 9.20675 0.0
0.0 0.0 5.91336
%ENDBLOCK LATTICE_CART

%BLOCK POSITIONS_FRAC
P           0.000000000000000    0.000000000000000    0.000000000000000 
P           0.000000000000000    0.500000000000000    0.537871000000000 
P           0.000000000000000    0.500000000000000    0.993880000000000 
P           0.500000000000000    0.000000000000000    0.006120000000000 
P           0.500000000000000    0.000000000000000    0.462129000000000 
P           0.500000000000000    0.500000000000000    0.161782000000000 
P           0.500000000000000    0.500000000000000    0.838218000000000 
K           0.000000000000000    0.000000000000000    0.500000000000000 
K           0.142917000000000    0.265366000000000    0.835917000000000 
K           0.265366000000000    0.857083000000000    0.164083000000000 
K           0.500000000000000    0.500000000000000    0.500000000000000 
K           0.734634000000000    0.142917000000000    0.164083000000000 
K           0.857083000000000    0.734634000000000    0.835917000000000 
%ENDBLOCK POSITIONS_FRAC
