# Cell file generated by matador (Matthew Evans 2016)

%BLOCK LATTICE_CART
7.30161 -0.0 0.0
-3.6508 6.32338 0.0
0.0 0.0 9.71869
%ENDBLOCK LATTICE_CART

%BLOCK POSITIONS_FRAC
P           0.000000000000000    0.000000000000000    0.500000000000000 
P           0.053094000000000    0.407482000000000    0.000000000000000 
P           0.354388000000000    0.946906000000000    0.000000000000000 
P           0.407482000000000    0.354388000000000    0.000000000000000 
P           0.592518000000000    0.645612000000000    0.000000000000000 
P           0.645612000000000    0.053094000000000    0.000000000000000 
P           0.946906000000000    0.592518000000000    0.000000000000000 
K           0.000000000000000    0.000000000000000    0.000000000000000 
K           0.000000000000000    0.500000000000000    0.500000000000000 
K           0.333333000000000    0.666667000000000    0.500000000000000 
K           0.500000000000000    0.000000000000000    0.500000000000000 
K           0.500000000000000    0.500000000000000    0.500000000000000 
K           0.666667000000000    0.333333000000000    0.500000000000000 
%ENDBLOCK POSITIONS_FRAC
