# Cell file generated by matador (Matthew Evans 2016)

%BLOCK LATTICE_CART
6.98265 0.0 0.0
0.0 8.59116 0.0
0.0 0.0 8.62781
%ENDBLOCK LATTICE_CART

%BLOCK POSITIONS_FRAC
P           0.250000000000000    0.541602000000000    0.718620000000000 
P           0.750000000000000    0.458398000000000    0.718620000000000 
K           0.000000000000000    0.000000000000000    0.154092000000000 
K           0.000000000000000    0.000000000000000    0.568397000000000 
K           0.000000000000000    0.500000000000000    0.981795000000000 
K           0.053997000000000    0.341640000000000    0.437028000000000 
K           0.250000000000000    0.248121000000000    0.601191000000000 
K           0.446003000000000    0.341640000000000    0.437028000000000 
K           0.500000000000000    0.000000000000000    0.154092000000000 
K           0.500000000000000    0.000000000000000    0.568397000000000 
K           0.500000000000000    0.500000000000000    0.981795000000000 
K           0.553997000000000    0.658360000000000    0.437028000000000 
K           0.750000000000000    0.751879000000000    0.601191000000000 
K           0.946003000000000    0.658360000000000    0.437028000000000 
%ENDBLOCK POSITIONS_FRAC
