# Cell file generated by matador (Matthew Evans 2016)

%BLOCK LATTICE_CART
5.6306 0.0 0.0
0.0 7.5999 0.0
-0.418311 0.0 9.40505
%ENDBLOCK LATTICE_CART

%BLOCK POSITIONS_FRAC
P           0.104831000000000   -0.000000000000000    0.453131000000000 
P           0.556219000000000    0.500000000000000    0.546908000000000 
P           0.617391000000000    0.417204000000000    0.789268000000000 
P           0.617391000000000    0.582796000000000    0.789268000000000 
P           0.799742000000000   -0.000000000000000    0.593463000000000 
P           0.909090000000000    0.500000000000000    0.491487000000000 
P           0.955967000000000    0.500000000000000    0.031100000000000 
K           0.099540000000000    0.276694000000000    0.697443000000000 
K           0.099540000000000    0.723306000000000    0.697443000000000 
K           0.284358000000000    0.500000000000000    0.375940000000000 
K           0.512303000000000    0.500000000000000    0.999760000000000 
K           0.594832000000000    0.500000000000000    0.220936000000000 
K           0.913845000000000   -0.000000000000000    0.164314000000000 
%ENDBLOCK POSITIONS_FRAC
