# Cell file generated by matador (Matthew Evans 2016)

%BLOCK LATTICE_CART
6.47371 0.0 0.0
0.0 7.91247 0.0
2.27213 0.0 6.47236
%ENDBLOCK LATTICE_CART

%BLOCK POSITIONS_FRAC
P           0.847185000000000    0.000000000000000    0.046069000000000 
P           0.970208000000000    0.500000000000000    0.425517000000000 
K           0.040334000000000    0.000000000000000    0.695686000000000 
K           0.127489000000000    0.500000000000000    0.111912000000000 
K           0.300570000000000    0.000000000000000    0.094206000000000 
K           0.426834000000000    0.500000000000000    0.340916000000000 
K           0.503311000000000    0.500000000000000    0.725185000000000 
K           0.903894000000000    0.500000000000000    0.818668000000000 
%ENDBLOCK POSITIONS_FRAC
