# Cell file generated by matador (Matthew Evans 2016)

%BLOCK LATTICE_CART
9.28196 0.0 0.0
0.0 5.26941 0.0
-0.536712 0.0 7.60796
%ENDBLOCK LATTICE_CART

%BLOCK POSITIONS_FRAC
P           0.375667000000000    0.000000000000000    0.946299000000000 
P           0.542586000000000    0.000000000000000    0.420915000000000 
P           0.776482000000000    0.500000000000000    0.353101000000000 
P           0.876899000000000    0.500000000000000    0.924788000000000 
P           0.892541000000000    0.000000000000000    0.097646000000000 
K           0.013450000000000    0.500000000000000    0.193713000000000 
K           0.073646000000000    0.000000000000000    0.968880000000000 
K           0.075535000000000    0.000000000000000    0.594335000000000 
K           0.138761000000000    0.500000000000000    0.770305000000000 
K           0.336293000000000    0.000000000000000    0.219830000000000 
K           0.355721000000000    0.500000000000000    0.458850000000000 
K           0.393438000000000    0.500000000000000    0.792632000000000 
%ENDBLOCK POSITIONS_FRAC
