# Cell file generated by matador (Matthew Evans 2016)

%BLOCK LATTICE_CART
4.68393 0.0 0.0
-2.77594 4.82156 0.0
-0.511368 1.1908 5.64982
%ENDBLOCK LATTICE_CART

%BLOCK POSITIONS_FRAC
P           0.000000000000000    0.000000000000000    0.000000000000000 
P           0.198829000000000    0.454899000000000    0.799106000000000 
P           0.364921000000000    0.988476000000000    0.934970000000000 
P           0.635079000000000    0.011524000000000    0.065030000000000 
P           0.801171000000000    0.545101000000000    0.200894000000000 
K           0.500000000000000    0.500000000000000    0.500000000000000 
%ENDBLOCK POSITIONS_FRAC
