# Cell file generated by matador (Matthew Evans 2016)

%BLOCK LATTICE_CART
9.12187 -0.0 0.0
-4.56093 7.89977 0.0
0.0 0.0 3.91246
%ENDBLOCK LATTICE_CART

%BLOCK POSITIONS_FRAC
P           0.000000000000000    0.000000000000000    0.000000000000000 
P           0.000000000000000    0.000000000000000    0.500000000000000 
K           0.071352000000000    0.696640000000000    0.000000000000000 
K           0.303360000000000    0.374711000000000    0.000000000000000 
K           0.374711000000000    0.071352000000000    0.000000000000000 
K           0.625289000000000    0.928648000000000    0.000000000000000 
K           0.696640000000000    0.625289000000000    0.000000000000000 
K           0.928648000000000    0.303360000000000    0.000000000000000 
%ENDBLOCK POSITIONS_FRAC
