# Cell file generated by matador (Matthew Evans 2016)

%BLOCK LATTICE_CART
4.86421 0.0 0.0
0.0 8.9276 0.0
0.424265 0.0 10.6414
%ENDBLOCK LATTICE_CART

%BLOCK POSITIONS_FRAC
P           0.000000000000000    0.477107000000000    0.000000000000000 
P           0.000000000000000    0.513039000000000    0.500000000000000 
P           0.000000000000000    0.786004000000000    0.500000000000000 
P           0.000000000000000    0.924436000000000    0.500000000000000 
P           0.500000000000000    0.154919000000000    0.500000000000000 
P           0.500000000000000    0.481389000000000    0.000000000000000 
P           0.500000000000000    0.652421000000000    0.500000000000000 
K           0.123119000000000    0.272215000000000    0.920387000000000 
K           0.171051000000000    0.529775000000000    0.768861000000000 
K           0.213536000000000    0.120860000000000    0.713112000000000 
K           0.786464000000000    0.120860000000000    0.286888000000000 
K           0.828949000000000    0.529775000000000    0.231139000000000 
K           0.876881000000000    0.272215000000000    0.079613000000000 
%ENDBLOCK POSITIONS_FRAC
