# Cell file generated by matador (Matthew Evans 2016)

%BLOCK LATTICE_CART
9.73299 0.0 0.0
0.0 9.77974 0.0
0.0 0.0 5.84504
%ENDBLOCK LATTICE_CART

%BLOCK POSITIONS_FRAC
P           0.000000000000000    0.000000000000000    0.348910000000000 
P           0.000000000000000    0.500000000000000    0.693520000000000 
P           0.004692000000000    0.391805000000000    0.688845000000000 
P           0.069108000000000    0.179050000000000    0.032845000000000 
P           0.250000000000000    0.683979000000000    0.758977000000000 
P           0.430892000000000    0.179050000000000    0.032845000000000 
P           0.495308000000000    0.391805000000000    0.688845000000000 
P           0.500000000000000    0.000000000000000    0.348910000000000 
P           0.500000000000000    0.500000000000000    0.693520000000000 
P           0.504692000000000    0.608195000000000    0.688845000000000 
P           0.569108000000000    0.820950000000000    0.032845000000000 
P           0.750000000000000    0.316021000000000    0.758977000000000 
P           0.930892000000000    0.820950000000000    0.032845000000000 
P           0.995308000000000    0.608195000000000    0.688845000000000 
K           0.250000000000000    0.905067000000000    0.016674000000000 
K           0.750000000000000    0.094933000000000    0.016674000000000 
%ENDBLOCK POSITIONS_FRAC
