# Cell file generated by matador (Matthew Evans 2016)

%BLOCK LATTICE_CART
6.90155 0.0 0.0
-3.45077 5.97692 0.0
0.0 0.0 11.6384
%ENDBLOCK LATTICE_CART

%BLOCK POSITIONS_FRAC
P          -0.000000000000000    0.000000000000000    0.262900000000000 
P          -0.000000000000000    0.000000000000000    0.397697000000000 
P          -0.000000000000000    0.000000000000000    0.521173000000000 
P          -0.000000000000000    0.000000000000000    0.970657000000000 
P           0.333333000000000    0.666667000000000    0.064364000000000 
P           0.333333000000000    0.666667000000000    0.187840000000000 
P           0.333333000000000    0.666667000000000    0.637323000000000 
P           0.333333000000000    0.666667000000000    0.929567000000000 
P           0.666667000000000    0.333333000000000    0.303990000000000 
P           0.666667000000000    0.333333000000000    0.596234000000000 
P           0.666667000000000    0.333333000000000    0.731030000000000 
P           0.666667000000000    0.333333000000000    0.854507000000000 
K          -0.000000000000000    0.000000000000000    0.765039000000000 
K           0.333333000000000    0.666667000000000    0.431705000000000 
K           0.666667000000000    0.333333000000000    0.098372000000000 
%ENDBLOCK POSITIONS_FRAC
