# Cell file generated by matador (Matthew Evans 2016)

%BLOCK LATTICE_CART
5.43846 0.0 0.0
-2.71923 4.70985 0.0
0.0 0.0 12.7396
%ENDBLOCK LATTICE_CART

%BLOCK POSITIONS_FRAC
P           0.000000000000000    0.000000000000000    0.398252000000000 
P           0.100462000000000    0.550231000000000    0.891236000000000 
P           0.449769000000000    0.550231000000000    0.891236000000000 
P           0.449769000000000    0.899538000000000    0.891236000000000 
K           0.072798000000000    0.536399000000000    0.409565000000000 
K           0.323591000000000    0.161795000000000    0.086955000000000 
K           0.333333000000000    0.666667000000000    0.167293000000000 
K           0.463601000000000    0.536399000000000    0.409565000000000 
K           0.463601000000000    0.927202000000000    0.409565000000000 
K           0.838205000000000    0.161795000000000    0.086955000000000 
K           0.838205000000000    0.676409000000000    0.086955000000000 
%ENDBLOCK POSITIONS_FRAC
