# Cell file generated by matador (Matthew Evans 2016)

%BLOCK LATTICE_CART
7.97359 0.0 0.0
0.0 7.60185 0.0
0.0 0.0 6.83705
%ENDBLOCK LATTICE_CART

%BLOCK POSITIONS_FRAC
P           0.220463000000000    0.055620000000000    0.728916000000000 
P           0.220463000000000    0.944380000000000    0.271084000000000 
P           0.320903000000000    0.406837000000000    0.333304000000000 
P           0.320903000000000    0.593163000000000    0.666696000000000 
P           0.353379000000000    0.028324000000000    0.709836000000000 
P           0.353379000000000    0.971676000000000    0.290164000000000 
P           0.646621000000000    0.028324000000000    0.790164000000000 
P           0.646621000000000    0.971676000000000    0.209836000000000 
P           0.679097000000000    0.406837000000000    0.166696000000000 
P           0.679097000000000    0.593163000000000    0.833304000000000 
P           0.779537000000000    0.055620000000000    0.771084000000000 
P           0.779537000000000    0.944380000000000    0.228916000000000 
K           0.074892000000000    0.000000000000000    0.000000000000000 
K           0.464445000000000    0.211824000000000    0.941299000000000 
K           0.464445000000000    0.788176000000000    0.058701000000000 
K           0.535555000000000    0.211824000000000    0.558701000000000 
K           0.535555000000000    0.788176000000000    0.441299000000000 
K           0.925108000000000    0.000000000000000    0.500000000000000 
%ENDBLOCK POSITIONS_FRAC
