# Cell file generated by matador (Matthew Evans 2016)

%BLOCK LATTICE_CART
8.36973 0.0 0.0
-4.18487 7.2484 0.0
0.0 0.0 10.5941
%ENDBLOCK LATTICE_CART

%BLOCK POSITIONS_FRAC
P           0.999999000000000    0.999999000000000    0.000000000000000 
P           0.999999000000000    0.999999000000000    0.250000000000000 
P           0.999999000000000    0.999999000000000    0.500000000000000 
P           0.999999000000000    0.999999000000000    0.750000000000000 
P           0.024993000000000    0.512496000000000    0.250000000000000 
P           0.333332000000000    0.666666000000000    0.250000000000000 
P           0.333332000000000    0.666666000000000    0.750000000000000 
P           0.487502000000000    0.512496000000000    0.250000000000000 
P           0.487502000000000    0.975005000000000    0.250000000000000 
P           0.512496000000000    0.024993000000000    0.750000000000000 
P           0.512496000000000    0.487502000000000    0.750000000000000 
P           0.666666000000000    0.333332000000000    0.250000000000000 
P           0.666666000000000    0.333332000000000    0.750000000000000 
P           0.975005000000000    0.487502000000000    0.750000000000000 
K           0.333332000000000    0.666666000000000    0.568385000000000 
K           0.333332000000000    0.666666000000000    0.931615000000000 
K           0.666666000000000    0.333332000000000    0.068385000000000 
K           0.666666000000000    0.333332000000000    0.431615000000000 
%ENDBLOCK POSITIONS_FRAC
