# Cell file generated by matador (Matthew Evans 2016)

%BLOCK LATTICE_CART
5.67502 0.0 0.0
0.0 7.37291 0.0
0.0 0.0 6.10383
%ENDBLOCK LATTICE_CART

%BLOCK POSITIONS_FRAC
P           0.000000000000000    0.500000000000000    0.000000000000000 
P           0.211601000000000    0.500000000000000    0.193152000000000 
P           0.211601000000000    0.500000000000000    0.806848000000000 
P           0.352270000000000    0.500000000000000    0.500000000000000 
P           0.647730000000000    0.500000000000000    0.500000000000000 
P           0.788399000000000    0.500000000000000    0.193152000000000 
P           0.788399000000000    0.500000000000000    0.806848000000000 
K           0.000000000000000    0.000000000000000    0.000000000000000 
K           0.000000000000000    0.000000000000000    0.500000000000000 
K           0.000000000000000    0.500000000000000    0.500000000000000 
K           0.500000000000000    0.000000000000000    0.000000000000000 
K           0.500000000000000    0.500000000000000    0.000000000000000 
%ENDBLOCK POSITIONS_FRAC
