# Cell file generated by matador (Matthew Evans 2016)

%BLOCK LATTICE_CART
7.84847 0.0 0.0
-3.92424 6.79698 0.0
0.0 0.0 9.83816
%ENDBLOCK LATTICE_CART

%BLOCK POSITIONS_FRAC
P           0.000000000000000    0.000000000000000    0.000000000000000 
P           0.021770000000000    0.441298000000000    0.563264000000000 
P           0.021770000000000    0.580472000000000    0.436736000000000 
P           0.147124000000000    0.294248000000000    0.500000000000000 
P           0.147124000000000    0.852876000000000    0.500000000000000 
P           0.288239000000000    0.144120000000000    0.000000000000000 
P           0.333333000000000    0.666667000000000    0.500000000000000 
P           0.419528000000000    0.441298000000000    0.436736000000000 
P           0.419528000000000    0.978230000000000    0.563264000000000 
P           0.558702000000000    0.580472000000000    0.563264000000000 
P           0.558702000000000    0.978230000000000    0.436736000000000 
P           0.705752000000000    0.852876000000000    0.500000000000000 
P           0.855880000000000    0.144120000000000    0.000000000000000 
P           0.855880000000000    0.711761000000000    0.000000000000000 
K           0.000000000000000    0.000000000000000    0.500000000000000 
K           0.333333000000000    0.666667000000000    0.000000000000000 
K           0.666667000000000    0.333333000000000    0.000000000000000 
K           0.666667000000000    0.333333000000000    0.500000000000000 
%ENDBLOCK POSITIONS_FRAC
