# Cell file generated by matador (Matthew Evans 2016)

%BLOCK LATTICE_CART
6.16877 0.0 0.0
-3.08438 5.34231 0.0
0.0 0.0 8.32302
%ENDBLOCK LATTICE_CART

%BLOCK POSITIONS_FRAC
P           0.000000000000000    0.000000000000000    0.500000000000000 
P           0.000000000000000    0.500000000000000    0.000000000000000 
P           0.000000000000000    0.500000000000000    0.259703000000000 
P           0.000000000000000    0.500000000000000    0.740297000000000 
P           0.500000000000000    0.000000000000000    0.000000000000000 
P           0.500000000000000    0.000000000000000    0.259703000000000 
P           0.500000000000000    0.000000000000000    0.740297000000000 
P           0.500000000000000    0.500000000000000    0.000000000000000 
P           0.500000000000000    0.500000000000000    0.259703000000000 
P           0.500000000000000    0.500000000000000    0.740297000000000 
K           0.000000000000000    0.000000000000000    0.000000000000000 
K           0.000000000000000    0.500000000000000    0.500000000000000 
K           0.500000000000000    0.000000000000000    0.500000000000000 
K           0.500000000000000    0.500000000000000    0.500000000000000 
%ENDBLOCK POSITIONS_FRAC
