# Cell file generated by matador (Matthew Evans 2016)

%BLOCK LATTICE_CART
7.94526 0.0 0.0
0.0 7.94526 0.0
0.0 0.0 9.40729
%ENDBLOCK LATTICE_CART

%BLOCK POSITIONS_FRAC
P           0.137378000000000    0.137378000000000    0.380955000000000 
P           0.137378000000000    0.862622000000000    0.880955000000000 
P           0.862622000000000    0.137378000000000    0.880955000000000 
P           0.862622000000000    0.862622000000000    0.380955000000000 
K           0.129797000000000    0.129797000000000    0.819986000000000 
K           0.129797000000000    0.870203000000000    0.319986000000000 
K           0.260101000000000    0.260101000000000    0.226651000000000 
K           0.260101000000000    0.739899000000000    0.726651000000000 
K           0.370206000000000    0.370206000000000    0.714975000000000 
K           0.370206000000000    0.629794000000000    0.214975000000000 
K           0.629794000000000    0.370206000000000    0.214975000000000 
K           0.629794000000000    0.629794000000000    0.714975000000000 
K           0.739899000000000    0.260101000000000    0.726651000000000 
K           0.739899000000000    0.739899000000000    0.226651000000000 
K           0.870203000000000    0.129797000000000    0.319986000000000 
K           0.870203000000000    0.870203000000000    0.819986000000000 
%ENDBLOCK POSITIONS_FRAC
