# Cell file generated by matador (Matthew Evans 2016)

%BLOCK LATTICE_CART
9.13786 0.0 0.0
0.0 6.78025 0.0
-1.32513 0.0 7.36817
%ENDBLOCK LATTICE_CART

%BLOCK POSITIONS_FRAC
P           0.000000000000000    0.000000000000000    0.000000000000000 
P           0.000000000000000    0.500000000000000    0.000000000000000 
P           0.500000000000000    0.000000000000000    0.000000000000000 
P           0.500000000000000    0.000000000000000    0.500000000000000 
P           0.500000000000000    0.500000000000000    0.000000000000000 
P           0.500000000000000    0.500000000000000    0.500000000000000 
K           0.119898000000000    0.250000000000000    0.901566000000000 
K           0.206786000000000    0.750000000000000    0.106852000000000 
K           0.248832000000000    0.501339000000000    0.490694000000000 
K           0.248832000000000    0.998661000000000    0.490694000000000 
K           0.751168000000000    0.001339000000000    0.509306000000000 
K           0.751168000000000    0.498661000000000    0.509306000000000 
K           0.793214000000000    0.250000000000000    0.893148000000000 
K           0.880102000000000    0.750000000000000    0.098434000000000 
%ENDBLOCK POSITIONS_FRAC
