# Cell file generated by matador (Matthew Evans 2016)

%BLOCK LATTICE_CART
8.31191 0.0 0.0
0.0 5.6391 0.0
-2.42731 0.0 6.42218
%ENDBLOCK LATTICE_CART

%BLOCK POSITIONS_FRAC
P           0.547457000000000    0.500000000000000    0.861545000000000 
P           0.897385000000000    0.500000000000000    0.088755000000000 
K           0.299654000000000    0.000000000000000    0.283945000000000 
K           0.392982000000000    0.000000000000000    0.888635000000000 
K           0.658822000000000    0.000000000000000    0.419230000000000 
K           0.760335000000000    0.500000000000000    0.766441000000000 
K           0.922246000000000    0.000000000000000    0.214974000000000 
K           0.979429000000000    0.000000000000000    0.772690000000000 
%ENDBLOCK POSITIONS_FRAC
