# Cell file generated by matador (Matthew Evans 2016)

%BLOCK LATTICE_CART
10.137 0.0 0.0
0.0 10.137 0.0
0.0 0.0 12.8247
%ENDBLOCK LATTICE_CART

%BLOCK POSITIONS_FRAC
P           0.000000000000000    0.279326000000000    0.257534000000000 
P           0.000000000000000    0.720674000000000    0.257534000000000 
P           0.220674000000000    0.500000000000000    0.757534000000000 
P           0.279326000000000    0.000000000000000    0.257534000000000 
P           0.500000000000000    0.220674000000000    0.757534000000000 
P           0.500000000000000    0.779326000000000    0.757534000000000 
P           0.720674000000000    0.000000000000000    0.257534000000000 
P           0.779326000000000    0.500000000000000    0.757534000000000 
K           0.000000000000000    0.000000000000000    0.136835000000000 
K           0.000000000000000    0.000000000000000    0.855861000000000 
K           0.000000000000000    0.288455000000000    0.735780000000000 
K           0.000000000000000    0.500000000000000    0.003547000000000 
K           0.000000000000000    0.500000000000000    0.503547000000000 
K           0.000000000000000    0.711545000000000    0.735780000000000 
K           0.158124000000000    0.158124000000000    0.310620000000000 
K           0.158124000000000    0.841876000000000    0.310620000000000 
K           0.211545000000000    0.500000000000000    0.235780000000000 
K           0.288455000000000    0.000000000000000    0.735780000000000 
K           0.341876000000000    0.341876000000000    0.810620000000000 
K           0.341876000000000    0.658124000000000    0.810620000000000 
K           0.500000000000000    0.000000000000000    0.003547000000000 
K           0.500000000000000    0.000000000000000    0.503547000000000 
K           0.500000000000000    0.211545000000000    0.235780000000000 
K           0.500000000000000    0.500000000000000    0.355861000000000 
K           0.500000000000000    0.500000000000000    0.636835000000000 
K           0.500000000000000    0.788455000000000    0.235780000000000 
K           0.658124000000000    0.341876000000000    0.810620000000000 
K           0.658124000000000    0.658124000000000    0.810620000000000 
K           0.711545000000000    0.000000000000000    0.735780000000000 
K           0.788455000000000    0.500000000000000    0.235780000000000 
K           0.841876000000000    0.158124000000000    0.310620000000000 
K           0.841876000000000    0.841876000000000    0.310620000000000 
%ENDBLOCK POSITIONS_FRAC
