# Cell file generated by matador (Matthew Evans 2016)

%BLOCK LATTICE_CART
7.24804 0.0 0.0
0.0 7.54314 0.0
-2.71395 0.0 7.95872
%ENDBLOCK LATTICE_CART

%BLOCK POSITIONS_FRAC
P           0.031768000000000    0.000000000000000    0.584031000000000 
P           0.569488000000000    0.000000000000000    0.023325000000000 
P           0.585762000000000    0.500000000000000    0.557526000000000 
K           0.044242000000000    0.500000000000000    0.342848000000000 
K           0.174278000000000    0.000000000000000    0.111302000000000 
K           0.227141000000000    0.500000000000000    0.071423000000000 
K           0.266552000000000    0.000000000000000    0.807610000000000 
K           0.274440000000000    0.000000000000000    0.466931000000000 
K           0.394838000000000    0.500000000000000    0.794330000000000 
K           0.623811000000000    0.500000000000000    0.315219000000000 
K           0.623845000000000    0.000000000000000    0.353515000000000 
K           0.818115000000000    0.500000000000000    0.866220000000000 
%ENDBLOCK POSITIONS_FRAC
