# Cell file generated by matador (Matthew Evans 2016)

%BLOCK LATTICE_CART
11.2889 0.0 0.0
0.0 8.09646 0.0
0.0 0.0 6.77604
%ENDBLOCK LATTICE_CART

%BLOCK POSITIONS_FRAC
P           0.000000000000000    0.000000000000000    0.500000000000000 
P           0.000000000000000    0.500000000000000    0.000000000000000 
P           0.500000000000000    0.000000000000000    0.000000000000000 
P           0.500000000000000    0.500000000000000    0.500000000000000 
K           0.000000000000000    0.264457000000000    0.330122000000000 
K           0.000000000000000    0.264457000000000    0.669878000000000 
K           0.000000000000000    0.735543000000000    0.330122000000000 
K           0.000000000000000    0.735543000000000    0.669878000000000 
K           0.141654000000000    0.000000000000000    0.220701000000000 
K           0.141654000000000    0.000000000000000    0.779299000000000 
K           0.358346000000000    0.500000000000000    0.220701000000000 
K           0.358346000000000    0.500000000000000    0.779299000000000 
K           0.500000000000000    0.235543000000000    0.330122000000000 
K           0.500000000000000    0.235543000000000    0.669878000000000 
K           0.500000000000000    0.764457000000000    0.330122000000000 
K           0.500000000000000    0.764457000000000    0.669878000000000 
K           0.641654000000000    0.500000000000000    0.220701000000000 
K           0.641654000000000    0.500000000000000    0.779299000000000 
K           0.858346000000000    0.000000000000000    0.220701000000000 
K           0.858346000000000    0.000000000000000    0.779299000000000 
%ENDBLOCK POSITIONS_FRAC
