# Cell file generated by matador (Matthew Evans 2016)

%BLOCK LATTICE_CART
6.34129 0.0 0.0
0.0 4.79943 0.0
4.00831 0.0 14.2177
%ENDBLOCK LATTICE_CART

%BLOCK POSITIONS_FRAC
P           0.324745000000000    0.500000000000000    0.276752000000000 
P           0.802242000000000    0.500000000000000    0.123700000000000 
K           0.095784000000000    0.500000000000000    0.563778000000000 
K           0.207860000000000    0.000000000000000    0.590710000000000 
K           0.230699000000000    0.000000000000000    0.328533000000000 
K           0.311726000000000    0.000000000000000    0.750569000000000 
K           0.318002000000000    0.000000000000000    0.985751000000000 
K           0.376762000000000    0.500000000000000    0.626721000000000 
K           0.446573000000000    0.500000000000000    0.449750000000000 
K           0.548429000000000    0.000000000000000    0.229505000000000 
K           0.618356000000000    0.000000000000000    0.768308000000000 
K           0.647525000000000    0.000000000000000    0.004677000000000 
K           0.719600000000000    0.000000000000000    0.577410000000000 
K           0.830722000000000    0.000000000000000    0.315858000000000 
%ENDBLOCK POSITIONS_FRAC
