# Cell file generated by matador (Matthew Evans 2016)

%BLOCK LATTICE_CART
8.48638 0.0 0.0
0.0 8.48638 0.0
0.0 0.0 10.1034
%ENDBLOCK LATTICE_CART

%BLOCK POSITIONS_FRAC
P           0.500000000000000    0.500000000000000    0.000000000000000 
P           0.500000000000000    0.500000000000000    0.250000000000000 
P           0.500000000000000    0.500000000000000    0.500000000000000 
P           0.500000000000000    0.500000000000000    0.750000000000000 
K           0.233557000000000    0.407173000000000    0.500000000000000 
K           0.233557000000000    0.592827000000000    0.000000000000000 
K           0.239639000000000    0.239639000000000    0.330742000000000 
K           0.239639000000000    0.239639000000000    0.669258000000000 
K           0.239639000000000    0.760361000000000    0.169258000000000 
K           0.239639000000000    0.760361000000000    0.830742000000000 
K           0.407173000000000    0.233557000000000    0.500000000000000 
K           0.407173000000000    0.766443000000000    0.000000000000000 
K           0.592827000000000    0.233557000000000    0.000000000000000 
K           0.592827000000000    0.766443000000000    0.500000000000000 
K           0.760361000000000    0.239639000000000    0.169258000000000 
K           0.760361000000000    0.239639000000000    0.830742000000000 
K           0.760361000000000    0.760361000000000    0.330742000000000 
K           0.760361000000000    0.760361000000000    0.669258000000000 
K           0.766443000000000    0.407173000000000    0.000000000000000 
K           0.766443000000000    0.592827000000000    0.500000000000000 
%ENDBLOCK POSITIONS_FRAC
