# Cell file generated by matador (Matthew Evans 2016)

%BLOCK LATTICE_CART
9.6117 0.0 0.0
-4.80585 8.32398 0.0
0.0 0.0 11.8985
%ENDBLOCK LATTICE_CART

%BLOCK POSITIONS_FRAC
P           0.000000000000000    0.000000000000000    0.232798000000000 
P           0.000000000000000    0.000000000000000    0.744844000000000 
P           0.333333000000000    0.666667000000000    0.411511000000000 
P           0.333333000000000    0.666667000000000    0.899464000000000 
P           0.666667000000000    0.333333000000000    0.078178000000000 
P           0.666667000000000    0.333333000000000    0.566131000000000 
K           0.096388000000000    0.548194000000000    0.961188000000000 
K           0.118473000000000    0.236946000000000    0.294521000000000 
K           0.118473000000000    0.881527000000000    0.294521000000000 
K           0.166885000000000    0.333770000000000    0.742246000000000 
K           0.166885000000000    0.833115000000000    0.742246000000000 
K           0.332897000000000    0.166448000000000    0.075579000000000 
K           0.429721000000000    0.214860000000000    0.627855000000000 
K           0.451806000000000    0.548194000000000    0.961188000000000 
K           0.451806000000000    0.903612000000000    0.961188000000000 
K           0.500218000000000    0.000437000000000    0.408913000000000 
K           0.500218000000000    0.499782000000000    0.408913000000000 
K           0.666230000000000    0.833115000000000    0.742246000000000 
K           0.763054000000000    0.881527000000000    0.294521000000000 
K           0.785140000000000    0.214860000000000    0.627855000000000 
K           0.785140000000000    0.570279000000000    0.627855000000000 
K           0.833552000000000    0.166448000000000    0.075579000000000 
K           0.833552000000000    0.667103000000000    0.075579000000000 
K           0.999563000000000    0.499782000000000    0.408913000000000 
%ENDBLOCK POSITIONS_FRAC
