# Cell file generated by matador (Matthew Evans 2016)

%BLOCK LATTICE_CART
6.35226 0.0 0.0
0.0 6.35226 0.0
0.0 0.0 8.05798
%ENDBLOCK LATTICE_CART

%BLOCK POSITIONS_FRAC
P           0.000000000000000    0.000000000000000    0.248202000000000 
P           0.000000000000000    0.000000000000000    0.751798000000000 
P           0.000000000000000    0.500000000000000    0.201636000000000 
P           0.000000000000000    0.500000000000000    0.346615000000000 
P           0.000000000000000    0.500000000000000    0.741012000000000 
P           0.500000000000000    0.000000000000000    0.258988000000000 
P           0.500000000000000    0.000000000000000    0.653385000000000 
P           0.500000000000000    0.000000000000000    0.798364000000000 
P           0.500000000000000    0.500000000000000    0.248202000000000 
P           0.500000000000000    0.500000000000000    0.751798000000000 
K           0.000000000000000    0.000000000000000    0.000000000000000 
K           0.000000000000000    0.000000000000000    0.500000000000000 
K           0.500000000000000    0.500000000000000    0.000000000000000 
K           0.500000000000000    0.500000000000000    0.500000000000000 
%ENDBLOCK POSITIONS_FRAC
