# Cell file generated by matador (Matthew Evans 2016)

%BLOCK LATTICE_CART
6.15295 0.0 0.0
-3.07647 5.32861 0.0
0.0 0.0 10.1008
%ENDBLOCK LATTICE_CART

%BLOCK POSITIONS_FRAC
P           0.112408000000000    0.108534000000000    0.598029000000000 
P           0.224799000000000    0.670540000000000    0.264695000000000 
P           0.329460000000000    0.554259000000000    0.264695000000000 
P           0.445741000000000    0.775201000000000    0.264695000000000 
P           0.558132000000000    0.337207000000000    0.931362000000000 
P           0.662793000000000    0.220925000000000    0.931362000000000 
P           0.779075000000000    0.441868000000000    0.931362000000000 
P           0.891466000000000    0.003873000000000    0.598029000000000 
P           0.996127000000000    0.887592000000000    0.598029000000000 
K          -0.000000000000000    0.000000000000000    0.091411000000000 
K          -0.000000000000000    0.000000000000000    0.292421000000000 
K           0.333333000000000    0.666667000000000    0.758078000000000 
K           0.333333000000000    0.666667000000000    0.959088000000000 
K           0.666667000000000    0.333333000000000    0.424745000000000 
K           0.666667000000000    0.333333000000000    0.625754000000000 
%ENDBLOCK POSITIONS_FRAC
