# Cell file generated by matador (Matthew Evans 2016)

%BLOCK LATTICE_CART
9.81801 0.0 0.0
-4.909 8.50265 0.0
0.0 0.0 7.89002
%ENDBLOCK LATTICE_CART

%BLOCK POSITIONS_FRAC
P           0.000000000000000    0.000000000000000    0.000000000000000 
P           0.333333000000000    0.666667000000000    0.000000000000000 
P           0.333333000000000    0.666667000000000    0.500000000000000 
P           0.666667000000000    0.333333000000000    0.000000000000000 
K           0.032499000000000    0.360254000000000    0.000000000000000 
K           0.032499000000000    0.672245000000000    0.000000000000000 
K           0.119929000000000    0.239858000000000    0.308968000000000 
K           0.119929000000000    0.239858000000000    0.691032000000000 
K           0.119929000000000    0.880071000000000    0.308968000000000 
K           0.119929000000000    0.880071000000000    0.691032000000000 
K           0.327755000000000    0.360254000000000    0.000000000000000 
K           0.327755000000000    0.967501000000000    0.000000000000000 
K           0.639746000000000    0.672245000000000    0.000000000000000 
K           0.639746000000000    0.967501000000000    0.000000000000000 
K           0.760142000000000    0.880071000000000    0.308968000000000 
K           0.760142000000000    0.880071000000000    0.691032000000000 
%ENDBLOCK POSITIONS_FRAC
