# Cell file generated by matador (Matthew Evans 2016)

%BLOCK LATTICE_CART
7.72869 0.0 0.0
0.0 7.72869 0.0
0.0 0.0 8.87369
%ENDBLOCK LATTICE_CART

%BLOCK POSITIONS_FRAC
P           0.000000000000000    0.000000000000000    0.141564000000000 
P           0.000000000000000    0.000000000000000    0.858436000000000 
P           0.000000000000000    0.500000000000000    0.000000000000000 
P           0.251069000000000    0.500000000000000    0.000000000000000 
P           0.500000000000000    0.000000000000000    0.000000000000000 
P           0.500000000000000    0.251069000000000    0.000000000000000 
P           0.500000000000000    0.500000000000000    0.423384000000000 
P           0.500000000000000    0.500000000000000    0.576616000000000 
P           0.500000000000000    0.748931000000000    0.000000000000000 
P           0.748931000000000    0.500000000000000    0.000000000000000 
K           0.290973000000000    0.321612000000000    0.704791000000000 
K           0.290973000000000    0.678388000000000    0.295209000000000 
K           0.321612000000000    0.290973000000000    0.295209000000000 
K           0.321612000000000    0.709027000000000    0.704791000000000 
K           0.678388000000000    0.290973000000000    0.704791000000000 
K           0.678388000000000    0.709027000000000    0.295209000000000 
K           0.709027000000000    0.321612000000000    0.295209000000000 
K           0.709027000000000    0.678388000000000    0.704791000000000 
%ENDBLOCK POSITIONS_FRAC
