# Cell file generated by matador (Matthew Evans 2016)

%BLOCK LATTICE_CART
2.72092 0.0 0.0
0.0 4.22237 0.0
1.64333 0.0 5.69302
%ENDBLOCK LATTICE_CART

%BLOCK POSITIONS_FRAC
P           0.133925000000000    0.736018000000000    0.301765000000000 
P           0.866075000000000    0.736018000000000    0.698235000000000 
K           0.500000000000000    0.004210000000000    0.500000000000000 
%ENDBLOCK POSITIONS_FRAC
