# Cell file generated by matador (Matthew Evans 2016)

%BLOCK LATTICE_CART
7.77264 0.0 0.0
0.0 7.77264 0.0
0.0 0.0 7.77264
%ENDBLOCK LATTICE_CART

%BLOCK POSITIONS_FRAC
P           0.079980000000000    0.079980000000000    0.079980000000000 
P           0.079980000000000    0.920020000000000    0.920020000000000 
P           0.357915000000000    0.500000000000000    0.500000000000000 
P           0.500000000000000    0.357915000000000    0.500000000000000 
P           0.500000000000000    0.500000000000000    0.357915000000000 
P           0.500000000000000    0.500000000000000    0.642085000000000 
P           0.500000000000000    0.642085000000000    0.500000000000000 
P           0.642085000000000    0.500000000000000    0.500000000000000 
P           0.920020000000000    0.079980000000000    0.920020000000000 
P           0.920020000000000    0.920020000000000    0.079980000000000 
K           0.000000000000000    0.000000000000000    0.500000000000000 
K           0.000000000000000    0.500000000000000    0.000000000000000 
K           0.000000000000000    0.500000000000000    0.500000000000000 
K           0.500000000000000    0.000000000000000    0.000000000000000 
K           0.500000000000000    0.000000000000000    0.500000000000000 
K           0.500000000000000    0.500000000000000    0.000000000000000 
%ENDBLOCK POSITIONS_FRAC
