# Cell file generated by matador (Matthew Evans 2016)

%BLOCK LATTICE_CART
6.95705 0.0 0.0
-3.47853 6.02498 0.0
0.0 0.0 13.4781
%ENDBLOCK LATTICE_CART

%BLOCK POSITIONS_FRAC
P           0.000000000000000    0.000000000000000    0.000000000000000 
P           0.000000000000000    0.000000000000000    0.500000000000000 
P           0.333333000000000    0.666667000000000    0.750000000000000 
P           0.666667000000000    0.333333000000000    0.250000000000000 
K           0.000000000000000    0.500000000000000    0.000000000000000 
K           0.000000000000000    0.500000000000000    0.500000000000000 
K           0.000122000000000    0.357141000000000    0.750000000000000 
K           0.357019000000000    0.999878000000000    0.750000000000000 
K           0.357141000000000    0.357019000000000    0.250000000000000 
K           0.500000000000000    0.000000000000000    0.000000000000000 
K           0.500000000000000    0.000000000000000    0.500000000000000 
K           0.500000000000000    0.500000000000000    0.000000000000000 
K           0.500000000000000    0.500000000000000    0.500000000000000 
K           0.642859000000000    0.642981000000000    0.750000000000000 
K           0.642981000000000    0.000122000000000    0.250000000000000 
K           0.999878000000000    0.642859000000000    0.250000000000000 
%ENDBLOCK POSITIONS_FRAC
