# Cell file generated by matador (Matthew Evans 2016)

%BLOCK LATTICE_CART
9.41375 0.0 0.0
0.0 3.43751 0.0
3.11573 0.0 7.95179
%ENDBLOCK LATTICE_CART

%BLOCK POSITIONS_FRAC
P           0.456523000000000    0.000000000000000    0.301192000000000 
P           0.722361000000000    0.000000000000000    0.734822000000000 
P           0.845908000000000    0.500000000000000    0.526543000000000 
K           0.014055000000000    0.000000000000000    0.814568000000000 
K           0.097252000000000    0.500000000000000    0.266747000000000 
K           0.282304000000000    0.500000000000000    0.043034000000000 
K           0.339934000000000    0.500000000000000    0.408851000000000 
%ENDBLOCK POSITIONS_FRAC
