# Cell file generated by matador (Matthew Evans 2016)

%BLOCK LATTICE_CART
11.4582 0.0 0.0
0.0 10.6571 0.0
0.152327 0.0 9.44952
%ENDBLOCK LATTICE_CART

%BLOCK POSITIONS_FRAC
P           0.000000000000000    0.262613000000000    0.000000000000000 
P           0.000000000000000    0.737387000000000    0.000000000000000 
P           0.179761000000000    0.500000000000000    0.311286000000000 
P           0.320239000000000    0.000000000000000    0.688714000000000 
P           0.500000000000000    0.237387000000000    0.000000000000000 
P           0.500000000000000    0.762613000000000    0.000000000000000 
P           0.679761000000000    0.000000000000000    0.311286000000000 
P           0.820239000000000    0.500000000000000    0.688714000000000 
K           0.000000000000000    0.000000000000000    0.000000000000000 
K           0.000000000000000    0.000000000000000    0.500000000000000 
K           0.000000000000000    0.500000000000000    0.000000000000000 
K           0.000000000000000    0.500000000000000    0.500000000000000 
K           0.155629000000000    0.000000000000000    0.752706000000000 
K           0.242856000000000    0.000000000000000    0.134657000000000 
K           0.250000000000000    0.250000000000000    0.000000000000000 
K           0.250000000000000    0.250000000000000    0.500000000000000 
K           0.250000000000000    0.750000000000000    0.000000000000000 
K           0.250000000000000    0.750000000000000    0.500000000000000 
K           0.257144000000000    0.500000000000000    0.865343000000000 
K           0.344371000000000    0.500000000000000    0.247294000000000 
K           0.500000000000000    0.000000000000000    0.000000000000000 
K           0.500000000000000    0.000000000000000    0.500000000000000 
K           0.500000000000000    0.500000000000000    0.000000000000000 
K           0.500000000000000    0.500000000000000    0.500000000000000 
K           0.655629000000000    0.500000000000000    0.752706000000000 
K           0.742856000000000    0.500000000000000    0.134657000000000 
K           0.750000000000000    0.250000000000000    0.000000000000000 
K           0.750000000000000    0.250000000000000    0.500000000000000 
K           0.750000000000000    0.750000000000000    0.000000000000000 
K           0.750000000000000    0.750000000000000    0.500000000000000 
K           0.757144000000000    0.000000000000000    0.865343000000000 
K           0.844371000000000    0.000000000000000    0.247294000000000 
%ENDBLOCK POSITIONS_FRAC
