# Cell file generated by matador (Matthew Evans 2016)

%BLOCK LATTICE_CART
5.63591 0.0 0.0
-0.543987 7.56841 0.0
-2.56103 -2.09308 6.3461
%ENDBLOCK LATTICE_CART

%BLOCK POSITIONS_FRAC
P           0.155555000000000    0.005937000000000    0.295277000000000 
P           0.500000000000000    0.000000000000000    0.500000000000000 
P           0.844445000000000    0.994063000000000    0.704723000000000 
K           0.000000000000000    0.000000000000000    0.000000000000000 
K           0.000000000000000    0.000000000000000    0.500000000000000 
K           0.000000000000000    0.500000000000000    0.000000000000000 
K           0.000000000000000    0.500000000000000    0.500000000000000 
K           0.500000000000000    0.000000000000000    0.000000000000000 
%ENDBLOCK POSITIONS_FRAC
