# Cell file generated by matador (Matthew Evans 2016)

%BLOCK LATTICE_CART
8.54686 0.0 0.0
0.0 7.27573 0.0
0.0 0.0 8.08033
%ENDBLOCK LATTICE_CART

%BLOCK POSITIONS_FRAC
P           0.143651000000000    0.500000000000000    0.490891000000000 
P           0.500000000000000    0.500000000000000    0.487376000000000 
P           0.856349000000000    0.500000000000000    0.490891000000000 
K           0.000000000000000    0.198198000000000    0.709021000000000 
K           0.000000000000000    0.251117000000000    0.330064000000000 
K           0.000000000000000    0.500000000000000    0.958481000000000 
K           0.000000000000000    0.748883000000000    0.330064000000000 
K           0.000000000000000    0.801802000000000    0.709021000000000 
K           0.321099000000000    0.500000000000000    0.658576000000000 
K           0.327882000000000    0.500000000000000    0.039344000000000 
K           0.672118000000000    0.500000000000000    0.039344000000000 
K           0.678901000000000    0.500000000000000    0.658576000000000 
%ENDBLOCK POSITIONS_FRAC
