# Cell file generated by matador (Matthew Evans 2016)

%BLOCK LATTICE_CART
6.13143 0.0 0.0
-3.06571 5.30997 0.0
0.0 0.0 12.3532
%ENDBLOCK LATTICE_CART

%BLOCK POSITIONS_FRAC
P           0.046931000000000    0.264993000000000    0.933502000000000 
P           0.046931000000000    0.781938000000000    0.066498000000000 
P           0.218062000000000    0.264993000000000    0.399831000000000 
P           0.218062000000000    0.953069000000000    0.600169000000000 
P           0.285298000000000    0.579650000000000    0.862923000000000 
P           0.285298000000000    0.705648000000000    0.137077000000000 
P           0.294352000000000    0.579650000000000    0.470410000000000 
P           0.294352000000000    0.714702000000000    0.529590000000000 
P           0.420350000000000    0.705648000000000    0.196256000000000 
P           0.420350000000000    0.714702000000000    0.803744000000000 
P           0.735007000000000    0.781938000000000    0.266835000000000 
P           0.735007000000000    0.953069000000000    0.733165000000000 
K           0.470497000000000    0.235248000000000    0.500000000000000 
K           0.535694000000000    0.267847000000000   -0.000000000000000 
K           0.732153000000000    0.267847000000000    0.333333000000000 
K           0.732153000000000    0.464306000000000    0.666667000000000 
K           0.764752000000000    0.235248000000000    0.833333000000000 
K           0.764752000000000    0.529503000000000    0.166667000000000 
%ENDBLOCK POSITIONS_FRAC
