# Cell file generated by matador (Matthew Evans 2016)

%BLOCK LATTICE_CART
6.13906 0.0 0.0
-3.06953 5.31658 0.0
0.0 0.0 4.849
%ENDBLOCK LATTICE_CART

%BLOCK POSITIONS_FRAC
P           0.000000000000000    0.500000000000000    0.425978000000000 
P           0.333333000000000    0.666667000000000    0.814507000000000 
P           0.500000000000000    0.000000000000000    0.425978000000000 
P           0.500000000000000    0.500000000000000    0.425978000000000 
P           0.666667000000000    0.333333000000000    0.814507000000000 
K           0.000000000000000    0.000000000000000    0.034224000000000 
%ENDBLOCK POSITIONS_FRAC
