# Cell file generated by matador (Matthew Evans 2016)

%BLOCK LATTICE_CART
4.03451 0.0 0.0
1.49172 8.93492 0.0
-3.41822 3.07024 5.13504
%ENDBLOCK LATTICE_CART

%BLOCK POSITIONS_FRAC
P           0.000000000000000    0.000000000000000    0.000000000000000 
P           0.266690000000000    0.368906000000000    0.441343000000000 
P           0.733310000000000    0.631094000000000    0.558657000000000 
K           0.195744000000000    0.797058000000000    0.433313000000000 
K           0.500000000000000    0.000000000000000    0.500000000000000 
K           0.500000000000000    0.500000000000000    0.000000000000000 
K           0.804256000000000    0.202942000000000    0.566687000000000 
%ENDBLOCK POSITIONS_FRAC
