# Cell file generated by matador (Matthew Evans 2016)

%BLOCK LATTICE_CART
8.85538 -0.0 0.0
-4.42769 7.66899 0.0
0.0 0.0 7.39085
%ENDBLOCK LATTICE_CART

%BLOCK POSITIONS_FRAC
P           0.101468000000000    0.691453000000000    0.250000000000000 
P           0.308547000000000    0.410015000000000    0.250000000000000 
P           0.333333000000000    0.666667000000000    0.516496000000000 
P           0.333333000000000    0.666667000000000    0.983504000000000 
P           0.410015000000000    0.101468000000000    0.750000000000000 
P           0.589985000000000    0.898532000000000    0.250000000000000 
P           0.666667000000000    0.333333000000000    0.016496000000000 
P           0.666667000000000    0.333333000000000    0.483504000000000 
P           0.691453000000000    0.589985000000000    0.750000000000000 
P           0.898532000000000    0.308547000000000    0.750000000000000 
K           0.000000000000000    0.000000000000000    0.250000000000000 
K           0.000000000000000    0.000000000000000    0.750000000000000 
K           0.333333000000000    0.666667000000000    0.250000000000000 
K           0.666667000000000    0.333333000000000    0.750000000000000 
%ENDBLOCK POSITIONS_FRAC
