# Cell file generated by matador (Matthew Evans 2016)

%BLOCK LATTICE_CART
7.2181 0.0 0.0
0.0 7.2181 0.0
0.0 0.0 7.2181
%ENDBLOCK LATTICE_CART

%BLOCK POSITIONS_FRAC
P           0.000000000000000    0.000000000000000    0.000000000000000 
P           0.000000000000000    0.000000000000000    0.269438000000000 
P           0.000000000000000    0.000000000000000    0.730562000000000 
P           0.000000000000000    0.269438000000000    0.000000000000000 
P           0.000000000000000    0.730562000000000    0.000000000000000 
P           0.269438000000000    0.000000000000000    0.000000000000000 
P           0.730562000000000    0.000000000000000    0.000000000000000 
K           0.000000000000000    0.500000000000000    0.500000000000000 
K           0.500000000000000    0.000000000000000    0.500000000000000 
K           0.500000000000000    0.500000000000000    0.000000000000000 
K           0.500000000000000    0.500000000000000    0.500000000000000 
%ENDBLOCK POSITIONS_FRAC
