# Cell file generated by matador (Matthew Evans 2016)

%BLOCK LATTICE_CART
4.06578 0.0 0.0
0.0 8.13193 0.0
3.28835 0.0 6.42513
%ENDBLOCK LATTICE_CART

%BLOCK POSITIONS_FRAC
P           0.350371000000000    0.267513000000000    0.963133000000000 
P           0.350371000000000    0.732487000000000    0.963133000000000 
K           0.329201000000000    0.500000000000000    0.737720000000000 
K           0.424382000000000    0.000000000000000    0.815874000000000 
K           0.672639000000000    0.351579000000000    0.295722000000000 
K           0.672639000000000    0.648421000000000    0.295722000000000 
K           0.815613000000000    0.000000000000000    0.415570000000000 
%ENDBLOCK POSITIONS_FRAC
