# Cell file generated by matador (Matthew Evans 2016)

%BLOCK LATTICE_CART
9.18067 0.0 0.0
-4.59034 7.95069 0.0
0.0 0.0 5.79276
%ENDBLOCK LATTICE_CART

%BLOCK POSITIONS_FRAC
P           0.000000000000000    0.500000000000000    0.500000000000000 
P           0.333333000000000    0.666667000000000    0.500000000000000 
P           0.500000000000000    0.000000000000000    0.500000000000000 
P           0.500000000000000    0.500000000000000    0.500000000000000 
P           0.666667000000000    0.333333000000000    0.500000000000000 
K           0.000000000000000    0.000000000000000    0.000000000000000 
K           0.111439000000000    0.474205000000000    0.000000000000000 
K           0.362766000000000    0.888561000000000    0.000000000000000 
K           0.474205000000000    0.362766000000000    0.000000000000000 
K           0.525795000000000    0.637234000000000    0.000000000000000 
K           0.637234000000000    0.111439000000000    0.000000000000000 
K           0.888561000000000    0.525795000000000    0.000000000000000 
%ENDBLOCK POSITIONS_FRAC
