# Cell file generated by matador (Matthew Evans 2016)

%BLOCK LATTICE_CART
6.29483 0.0 0.0
-3.14742 5.45148 0.0
0.0 0.0 12.714
%ENDBLOCK LATTICE_CART

%BLOCK POSITIONS_FRAC
P           0.093974000000000    0.271263000000000    0.510997000000000 
P           0.093974000000000    0.822711000000000    0.489003000000000 
P           0.177289000000000    0.271263000000000    0.155669000000000 
P           0.177289000000000    0.906026000000000    0.844331000000000 
P           0.728737000000000    0.822711000000000    0.177664000000000 
P           0.728737000000000    0.906026000000000    0.822336000000000 
K           0.271368000000000    0.542735000000000    0.833333000000000 
K           0.271368000000000    0.728632000000000    0.166667000000000 
K           0.427084000000000    0.115123000000000    0.575291000000000 
K           0.427084000000000    0.311961000000000    0.424709000000000 
K           0.457265000000000    0.728632000000000    0.500000000000000 
K           0.688039000000000    0.115123000000000    0.091376000000000 
K           0.688039000000000    0.572916000000000    0.908624000000000 
K           0.884877000000000    0.311961000000000    0.241957000000000 
K           0.884877000000000    0.572916000000000    0.758043000000000 
%ENDBLOCK POSITIONS_FRAC
