# Cell file generated by matador (Matthew Evans 2016)

%BLOCK LATTICE_CART
7.72577 0.0 0.0
-3.86289 6.69071 0.0
0.0 0.0 5.67004
%ENDBLOCK LATTICE_CART

%BLOCK POSITIONS_FRAC
P           0.000000000000000    0.000000000000000    0.250000000000000 
P           0.000000000000000    0.000000000000000    0.750000000000000 
K           0.080460000000000    0.787581000000000    0.750000000000000 
K           0.212419000000000    0.292878000000000    0.750000000000000 
K           0.292878000000000    0.080460000000000    0.250000000000000 
K           0.707122000000000    0.919540000000000    0.750000000000000 
K           0.787581000000000    0.707122000000000    0.250000000000000 
K           0.919540000000000    0.212419000000000    0.250000000000000 
%ENDBLOCK POSITIONS_FRAC
