# Cell file generated by matador (Matthew Evans 2016)

%BLOCK LATTICE_CART
7.81975 0.0 0.0
-3.90987 6.7721 0.0
0.0 0.0 6.63005
%ENDBLOCK LATTICE_CART

%BLOCK POSITIONS_FRAC
P           0.100145000000000    0.386538000000000    0.717118000000000 
P           0.286393000000000    0.899855000000000    0.717118000000000 
P           0.534106000000000    0.107320000000000    0.146018000000000 
P           0.573214000000000    0.465894000000000    0.146018000000000 
P           0.613462000000000    0.713607000000000    0.717118000000000 
P           0.892680000000000    0.426786000000000    0.146018000000000 
K           0.012689000000000    0.792034000000000    0.030801000000000 
K           0.207966000000000    0.220655000000000    0.030801000000000 
K           0.333333000000000    0.666667000000000    0.811877000000000 
K           0.666667000000000    0.333333000000000    0.910640000000000 
K           0.779345000000000    0.987311000000000    0.030801000000000 
%ENDBLOCK POSITIONS_FRAC
