# Cell file generated by matador (Matthew Evans 2016)

%BLOCK LATTICE_CART
7.63279 0.0 0.0
-3.81639 6.61019 0.0
0.0 0.0 8.57858
%ENDBLOCK LATTICE_CART

%BLOCK POSITIONS_FRAC
P          -0.000000000000000    0.000000000000000    0.763833000000000 
P           0.333333000000000    0.666667000000000    0.430499000000000 
P           0.666667000000000    0.333333000000000    0.097166000000000 
K           0.174926000000000    0.349852000000000    0.254495000000000 
K           0.174926000000000    0.825074000000000    0.254495000000000 
K           0.316815000000000    0.158407000000000    0.587828000000000 
K           0.508259000000000    0.016518000000000    0.921162000000000 
K           0.508259000000000    0.491741000000000    0.921162000000000 
K           0.650148000000000    0.825074000000000    0.254495000000000 
K           0.841593000000000    0.158407000000000    0.587828000000000 
K           0.841593000000000    0.683185000000000    0.587828000000000 
K           0.983482000000000    0.491741000000000    0.921162000000000 
%ENDBLOCK POSITIONS_FRAC
