# Cell file generated by matador (Matthew Evans 2016)

%BLOCK LATTICE_CART
3.88142 0.0 0.0
0.0 9.18614 0.0
0.0 0.0 8.17488
%ENDBLOCK LATTICE_CART

%BLOCK POSITIONS_FRAC
P           0.073944000000000    0.453008000000000    0.096553000000000 
P           0.073944000000000    0.453008000000000    0.903447000000000 
P           0.199736000000000    0.716776000000000    0.500000000000000 
P           0.300264000000000    0.216776000000000    0.000000000000000 
P           0.426056000000000    0.953008000000000    0.403447000000000 
P           0.426056000000000    0.953008000000000    0.596553000000000 
P           0.573944000000000    0.046992000000000    0.403447000000000 
P           0.573944000000000    0.046992000000000    0.596553000000000 
P           0.699736000000000    0.783224000000000    0.000000000000000 
P           0.800264000000000    0.283224000000000    0.500000000000000 
P           0.926056000000000    0.546992000000000    0.096553000000000 
P           0.926056000000000    0.546992000000000    0.903447000000000 
K           0.000000000000000    0.500000000000000    0.500000000000000 
K           0.500000000000000    0.000000000000000    0.000000000000000 
%ENDBLOCK POSITIONS_FRAC
