# Cell file generated by matador (Matthew Evans 2016)

%BLOCK LATTICE_CART
7.52905 0.0 0.0
0.0 7.52905 0.0
0.0 0.0 5.87341
%ENDBLOCK LATTICE_CART

%BLOCK POSITIONS_FRAC
P           0.000000000000000    0.000000000000000    0.000000000000000 
P           0.500000000000000    0.500000000000000    0.500000000000000 
K           0.000000000000000    0.000000000000000    0.500000000000000 
K           0.234703000000000    0.765297000000000    0.190686000000000 
K           0.234703000000000    0.765297000000000    0.809314000000000 
K           0.265297000000000    0.265297000000000    0.309314000000000 
K           0.265297000000000    0.265297000000000    0.690686000000000 
K           0.500000000000000    0.500000000000000    0.000000000000000 
K           0.734703000000000    0.734703000000000    0.309314000000000 
K           0.734703000000000    0.734703000000000    0.690686000000000 
K           0.765297000000000    0.234703000000000    0.190686000000000 
K           0.765297000000000    0.234703000000000    0.809314000000000 
%ENDBLOCK POSITIONS_FRAC
