# Cell file generated by matador (Matthew Evans 2016)

%BLOCK LATTICE_CART
8.17903 0.0 0.0
0.0 8.17903 0.0
0.0 0.0 8.12724
%ENDBLOCK LATTICE_CART

%BLOCK POSITIONS_FRAC
P           0.067242000000000    0.500000000000000    0.250000000000000 
P           0.067242000000000    0.500000000000000    0.750000000000000 
P           0.500000000000000    0.067242000000000    0.250000000000000 
P           0.500000000000000    0.067242000000000    0.750000000000000 
P           0.500000000000000    0.500000000000000    0.000000000000000 
P           0.500000000000000    0.500000000000000    0.500000000000000 
P           0.500000000000000    0.932758000000000    0.250000000000000 
P           0.500000000000000    0.932758000000000    0.750000000000000 
P           0.932758000000000    0.500000000000000    0.250000000000000 
P           0.932758000000000    0.500000000000000    0.750000000000000 
K           0.370982000000000    0.370982000000000    0.290773000000000 
K           0.370982000000000    0.370982000000000    0.709227000000000 
K           0.370982000000000    0.629018000000000    0.209227000000000 
K           0.370982000000000    0.629018000000000    0.790773000000000 
K           0.629018000000000    0.370982000000000    0.209227000000000 
K           0.629018000000000    0.370982000000000    0.790773000000000 
K           0.629018000000000    0.629018000000000    0.290773000000000 
K           0.629018000000000    0.629018000000000    0.709227000000000 
%ENDBLOCK POSITIONS_FRAC
