# Cell file generated by matador (Matthew Evans 2016)

%BLOCK LATTICE_CART
9.08876 0.0 0.0
-4.54438 7.8711 0.0
0.0 0.0 8.17252
%ENDBLOCK LATTICE_CART

%BLOCK POSITIONS_FRAC
P           0.000000000000000    0.000000000000000    0.000000000000000 
P           0.000000000000000    0.000000000000000    0.500000000000000 
P           0.333333000000000    0.666667000000000    0.000000000000000 
P           0.666667000000000    0.333333000000000    0.000000000000000 
K           0.000000000000000    0.449864000000000    0.216405000000000 
K           0.000000000000000    0.449864000000000    0.783595000000000 
K           0.216080000000000    0.438773000000000    0.500000000000000 
K           0.222693000000000    0.783920000000000    0.500000000000000 
K           0.438773000000000    0.216080000000000    0.500000000000000 
K           0.449864000000000    0.000000000000000    0.216405000000000 
K           0.449864000000000    0.000000000000000    0.783595000000000 
K           0.550136000000000    0.550136000000000    0.216405000000000 
K           0.550136000000000    0.550136000000000    0.783595000000000 
K           0.561227000000000    0.777307000000000    0.500000000000000 
K           0.777307000000000    0.561227000000000    0.500000000000000 
K           0.783920000000000    0.222693000000000    0.500000000000000 
%ENDBLOCK POSITIONS_FRAC
