# Cell file generated by matador (Matthew Evans 2016)

%BLOCK LATTICE_CART
6.81783 0.0 0.0
-3.40891 5.90441 0.0
0.0 0.0 4.84205
%ENDBLOCK LATTICE_CART

%BLOCK POSITIONS_FRAC
P           0.000000000000000   -0.000000000000000    0.000000000000000 
P           0.000000000000000   -0.000000000000000    0.500000000000000 
P           0.333334000000000    0.666666000000000    0.000000000000000 
P           0.333334000000000    0.666666000000000    0.280741000000000 
P           0.333334000000000    0.666666000000000    0.500000000000000 
P           0.333334000000000    0.666666000000000    0.719259000000000 
P           0.666667000000000    0.333333000000000    0.500000000000000 
K           0.666667000000000    0.333333000000000    0.000000000000000 
%ENDBLOCK POSITIONS_FRAC
