# Cell file generated by matador (Matthew Evans 2016)

%BLOCK LATTICE_CART
8.58911 0.0 0.0
-4.29456 7.43839 0.0
0.0 0.0 8.65651
%ENDBLOCK LATTICE_CART

%BLOCK POSITIONS_FRAC
P           0.146710000000000    0.625566000000000    0.054876000000000 
P           0.374433000000000    0.521142000000000    0.721543000000000 
P           0.383186000000000    0.189221000000000    0.258448000000000 
P           0.478857000000000    0.853289000000000    0.388209000000000 
P           0.504538000000000    0.289741000000000    0.757436000000000 
P           0.710258000000000    0.214795000000000    0.424103000000000 
P           0.785204000000000    0.495461000000000    0.090770000000000 
P           0.806036000000000    0.616813000000000    0.591781000000000 
P           0.810778000000000    0.193963000000000    0.925114000000000 
K           0.046803000000000    0.582544000000000    0.678801000000000 
K           0.238622000000000    0.218049000000000    0.566080000000000 
K           0.417455000000000    0.464258000000000    0.345468000000000 
K           0.535741000000000    0.953196000000000    0.012135000000000 
K           0.781950000000000    0.020571000000000    0.232746000000000 
K           0.979428000000000    0.761377000000000    0.899413000000000 
%ENDBLOCK POSITIONS_FRAC
