# Cell file generated by matador (Matthew Evans 2016)

%BLOCK LATTICE_CART
7.89841 0.0 0.0
-3.9492 6.84022 0.0
0.0 0.0 8.28142
%ENDBLOCK LATTICE_CART

%BLOCK POSITIONS_FRAC
P           0.000000000000000    0.000000000000000    0.500000000000000 
P           0.333333000000000    0.666667000000000    0.713357000000000 
P           0.666667000000000    0.333333000000000    0.286643000000000 
K           0.000000000000000    0.500000000000000    0.500000000000000 
K           0.142654000000000    0.285308000000000    0.147286000000000 
K           0.142654000000000    0.857346000000000    0.147286000000000 
K           0.285308000000000    0.142654000000000    0.852714000000000 
K           0.500000000000000    0.000000000000000    0.500000000000000 
K           0.500000000000000    0.500000000000000    0.500000000000000 
K           0.714692000000000    0.857346000000000    0.147286000000000 
K           0.857346000000000    0.142654000000000    0.852714000000000 
K           0.857346000000000    0.714692000000000    0.852714000000000 
%ENDBLOCK POSITIONS_FRAC
