# Cell file generated by matador (Matthew Evans 2016)

%BLOCK LATTICE_CART
6.99453 0.0 0.0
-3.49726 6.05744 0.0
0.0 0.0 5.42901
%ENDBLOCK LATTICE_CART

%BLOCK POSITIONS_FRAC
P           0.333332000000000    0.666666000000000    0.750000000000000 
P           0.666666000000000    0.333332000000000    0.250000000000000 
K           0.130735000000000    0.816731000000000    0.250000000000000 
K           0.183267000000000    0.314003000000000    0.250000000000000 
K           0.314003000000000    0.130735000000000    0.750000000000000 
K           0.685995000000000    0.869263000000000    0.250000000000000 
K           0.816731000000000    0.685995000000000    0.750000000000000 
K           0.869263000000000    0.183267000000000    0.750000000000000 
%ENDBLOCK POSITIONS_FRAC
