# Cell file generated by matador (Matthew Evans 2016)

%BLOCK LATTICE_CART
7.80162 0.0 0.0
-3.90081 6.7564 0.0
0.0 0.0 11.1996
%ENDBLOCK LATTICE_CART

%BLOCK POSITIONS_FRAC
P           0.000000000000000   -0.000000000000000    0.473365000000000 
P           0.000000000000000   -0.000000000000000    0.991863000000000 
P           0.333333000000000    0.666667000000000    0.140031000000000 
P           0.333333000000000    0.666667000000000    0.658530000000000 
P           0.666667000000000    0.333333000000000    0.325196000000000 
P           0.666667000000000    0.333333000000000    0.806698000000000 
K           0.000000000000000   -0.000000000000000    0.213466000000000 
K           0.163008000000000    0.359054000000000    0.225056000000000 
K           0.196046000000000    0.836992000000000    0.225056000000000 
K           0.307613000000000    0.137288000000000    0.558389000000000 
K           0.333333000000000    0.666667000000000    0.880133000000000 
K           0.496341000000000    0.025720000000000    0.891723000000000 
K           0.529379000000000    0.503659000000000    0.891723000000000 
K           0.640946000000000    0.803954000000000    0.225056000000000 
K           0.666667000000000    0.333333000000000    0.546799000000000 
K           0.829675000000000    0.692387000000000    0.558389000000000 
K           0.862712000000000    0.170325000000000    0.558389000000000 
K           0.974280000000000    0.470621000000000    0.891723000000000 
%ENDBLOCK POSITIONS_FRAC
