# Cell file generated by matador (Matthew Evans 2016)

%BLOCK LATTICE_CART
11.301 0.0 0.0
0.0 10.8222 0.0
-1.57829 0.0 7.74658
%ENDBLOCK LATTICE_CART

%BLOCK POSITIONS_FRAC
P           0.041550000000000    0.000000000000000    0.572067000000000 
P           0.247115000000000    0.500000000000000    0.438936000000000 
P           0.344669000000000    0.000000000000000    0.887129000000000 
P           0.541550000000000    0.500000000000000    0.572067000000000 
P           0.747115000000000    0.000000000000000    0.438936000000000 
P           0.844669000000000    0.500000000000000    0.887129000000000 
K           0.062588000000000    0.500000000000000    0.137203000000000 
K           0.099939000000000    0.000000000000000    0.021139000000000 
K           0.106119000000000    0.500000000000000    0.723266000000000 
K           0.310428000000000    0.500000000000000    0.092051000000000 
K           0.333681000000000    0.000000000000000    0.271199000000000 
K           0.336592000000000    0.000000000000000    0.638240000000000 
K           0.367163000000000    0.500000000000000    0.686129000000000 
K           0.401067000000000    0.308671000000000    0.388182000000000 
K           0.401067000000000    0.691329000000000    0.388182000000000 
K           0.562588000000000    0.000000000000000    0.137203000000000 
K           0.599939000000000    0.500000000000000    0.021139000000000 
K           0.606119000000000    0.000000000000000    0.723266000000000 
K           0.810428000000000    0.000000000000000    0.092051000000000 
K           0.833681000000000    0.500000000000000    0.271199000000000 
K           0.836592000000000    0.500000000000000    0.638240000000000 
K           0.867163000000000    0.000000000000000    0.686129000000000 
K           0.901067000000000    0.191329000000000    0.388182000000000 
K           0.901067000000000    0.808671000000000    0.388182000000000 
%ENDBLOCK POSITIONS_FRAC
