# Cell file generated by matador (Matthew Evans 2016)

%BLOCK LATTICE_CART
5.81703 0.0 0.0
-2.90851 5.03769 0.0
0.0 0.0 10.1288
%ENDBLOCK LATTICE_CART

%BLOCK POSITIONS_FRAC
P           0.000000000000000    0.000000000000000    0.000000000000000 
P           0.000000000000000    0.000000000000000    0.297473000000000 
P           0.000000000000000    0.000000000000000    0.702527000000000 
P           0.333333000000000    0.666667000000000    0.369193000000000 
P           0.333333000000000    0.666667000000000    0.666667000000000 
P           0.333333000000000    0.666667000000000    0.964140000000000 
P           0.666667000000000    0.333333000000000    0.035860000000000 
P           0.666667000000000    0.333333000000000    0.333333000000000 
P           0.666667000000000    0.333333000000000    0.630807000000000 
K           0.000000000000000    0.000000000000000    0.500000000000000 
K           0.333333000000000    0.666667000000000    0.166667000000000 
K           0.666667000000000    0.333333000000000    0.833333000000000 
%ENDBLOCK POSITIONS_FRAC
