# Cell file generated by matador (Matthew Evans 2016)

%BLOCK LATTICE_CART
9.43346 0.0 0.0
0.0 9.43346 0.0
0.0 0.0 8.01641
%ENDBLOCK LATTICE_CART

%BLOCK POSITIONS_FRAC
P           0.000000000000000    0.500000000000000    0.201637000000000 
P           0.000000000000000    0.500000000000000    0.701637000000000 
P           0.500000000000000    0.000000000000000    0.298363000000000 
P           0.500000000000000    0.000000000000000    0.798363000000000 
K           0.000000000000000    0.000000000000000    0.500000000000000 
K           0.067667000000000    0.306167000000000    0.489607000000000 
K           0.155597000000000    0.844403000000000    0.000000000000000 
K           0.193833000000000    0.567667000000000    0.989607000000000 
K           0.306167000000000    0.067667000000000    0.510393000000000 
K           0.344403000000000    0.344403000000000    0.500000000000000 
K           0.432333000000000    0.806167000000000    0.010393000000000 
K           0.500000000000000    0.500000000000000    0.000000000000000 
K           0.567667000000000    0.193833000000000    0.010393000000000 
K           0.655597000000000    0.655597000000000    0.500000000000000 
K           0.693833000000000    0.932333000000000    0.510393000000000 
K           0.806167000000000    0.432333000000000    0.989607000000000 
K           0.844403000000000    0.155597000000000    0.000000000000000 
K           0.932333000000000    0.693833000000000    0.489607000000000 
%ENDBLOCK POSITIONS_FRAC
