# Cell file generated by matador (Matthew Evans 2016)

%BLOCK LATTICE_CART
7.95211 0.0 0.0
-3.97605 6.88673 0.0
0.0 0.0 5.70799
%ENDBLOCK LATTICE_CART

%BLOCK POSITIONS_FRAC
P           0.000000000000000    0.000000000000000    0.464318000000000 
P           0.241256000000000    0.620628000000000    0.780741000000000 
P           0.379372000000000    0.620628000000000    0.780741000000000 
P           0.379372000000000    0.758744000000000    0.780741000000000 
P           0.540530000000000    0.081060000000000    0.649377000000000 
P           0.540530000000000    0.459470000000000    0.649377000000000 
P           0.918940000000000    0.459470000000000    0.649377000000000 
K           0.000000000000000    0.000000000000000    0.113932000000000 
K           0.088869000000000    0.177738000000000    0.843166000000000 
K           0.088869000000000    0.911131000000000    0.843166000000000 
K           0.822262000000000    0.911131000000000    0.843166000000000 
%ENDBLOCK POSITIONS_FRAC
