# Cell file generated by matador (Matthew Evans 2016)

%BLOCK LATTICE_CART
8.23895 0.0 0.0
-4.11947 7.13514 0.0
0.0 0.0 6.52724
%ENDBLOCK LATTICE_CART

%BLOCK POSITIONS_FRAC
P           0.333333000000000    0.666667000000000    0.070278000000000 
P           0.333333000000000    0.666667000000000    0.594277000000000 
P           0.666666000000000    0.333334000000000    0.070278000000000 
P           0.666666000000000    0.333334000000000    0.594277000000000 
K          -0.000000000000000    0.000000000000000    0.907536000000000 
K          -0.000000000000000    0.301770000000000    0.010880000000000 
K          -0.000000000000000    0.680744000000000    0.259497000000000 
K           0.301770000000000    0.000000000000000    0.010880000000000 
K           0.319256000000000    0.319256000000000    0.259497000000000 
K           0.680744000000000    0.000000000000000    0.259497000000000 
K           0.698230000000000    0.698230000000000    0.010880000000000 
%ENDBLOCK POSITIONS_FRAC
