# Cell file generated by matador (Matthew Evans 2016)

%BLOCK LATTICE_CART
7.72233 0.0 0.0
-3.86117 6.68774 0.0
0.0 0.0 8.51207
%ENDBLOCK LATTICE_CART

%BLOCK POSITIONS_FRAC
P           0.000000000000000    0.000000000000000    0.234960000000000 
P           0.000000000000000    0.000000000000000    0.500000000000000 
P           0.000000000000000    0.000000000000000    0.765040000000000 
P           0.303370000000000    0.151685000000000    0.000000000000000 
P           0.333333000000000    0.666667000000000    0.000000000000000 
P           0.333333000000000    0.666667000000000    0.118151000000000 
P           0.333333000000000    0.666667000000000    0.500000000000000 
P           0.333333000000000    0.666667000000000    0.881849000000000 
P           0.443888000000000    0.221944000000000    0.500000000000000 
P           0.666667000000000    0.333333000000000    0.500000000000000 
P           0.778056000000000    0.221944000000000    0.500000000000000 
P           0.778056000000000    0.556112000000000    0.500000000000000 
P           0.848315000000000    0.151685000000000    0.000000000000000 
P           0.848315000000000    0.696630000000000    0.000000000000000 
K           0.000000000000000    0.000000000000000    0.000000000000000 
K           0.666667000000000    0.333333000000000    0.000000000000000 
%ENDBLOCK POSITIONS_FRAC
