# Cell file generated by matador (Matthew Evans 2016)

%BLOCK LATTICE_CART
10.6663 0.0 0.0
0.0 10.6663 0.0
0.0 0.0 8.11481
%ENDBLOCK LATTICE_CART

%BLOCK POSITIONS_FRAC
P           0.000000000000000    0.000000000000000    0.000000000000000 
P           0.000000000000000    0.500000000000000    0.000000000000000 
P           0.000000000000000    0.500000000000000    0.500000000000000 
P           0.500000000000000    0.000000000000000    0.000000000000000 
P           0.500000000000000    0.000000000000000    0.500000000000000 
P           0.500000000000000    0.500000000000000    0.000000000000000 
K           0.000000000000000    0.000000000000000    0.500000000000000 
K           0.098309000000000    0.401691000000000    0.768324000000000 
K           0.098309000000000    0.598309000000000    0.231676000000000 
K           0.250000000000000    0.250000000000000    0.000000000000000 
K           0.250000000000000    0.250000000000000    0.500000000000000 
K           0.250000000000000    0.750000000000000    0.000000000000000 
K           0.250000000000000    0.750000000000000    0.500000000000000 
K           0.401691000000000    0.098309000000000    0.231676000000000 
K           0.401691000000000    0.901691000000000    0.768324000000000 
K           0.500000000000000    0.500000000000000    0.500000000000000 
K           0.598309000000000    0.098309000000000    0.768324000000000 
K           0.598309000000000    0.901691000000000    0.231676000000000 
K           0.750000000000000    0.250000000000000    0.000000000000000 
K           0.750000000000000    0.250000000000000    0.500000000000000 
K           0.750000000000000    0.750000000000000    0.000000000000000 
K           0.750000000000000    0.750000000000000    0.500000000000000 
K           0.901691000000000    0.401691000000000    0.231676000000000 
K           0.901691000000000    0.598309000000000    0.768324000000000 
%ENDBLOCK POSITIONS_FRAC
