# Cell file generated by matador (Matthew Evans 2016)

%BLOCK LATTICE_CART
9.27631 0.0 0.0
-4.63816 8.03352 0.0
0.0 0.0 6.50718
%ENDBLOCK LATTICE_CART

%BLOCK POSITIONS_FRAC
P           0.000000000000000    0.000000000000000    0.000000000000000 
P           0.000000000000000    0.000000000000000    0.153677000000000 
P           0.000000000000000    0.000000000000000    0.846323000000000 
P           0.000000000000000    0.500000000000000    0.500000000000000 
P           0.175619000000000    0.351238000000000    0.500000000000000 
P           0.175619000000000    0.824381000000000    0.500000000000000 
P           0.333333000000000    0.666667000000000    0.000000000000000 
P           0.333333000000000    0.666667000000000    0.500000000000000 
P           0.351238000000000    0.175619000000000    0.500000000000000 
P           0.500000000000000    0.000000000000000    0.500000000000000 
P           0.500000000000000    0.500000000000000    0.500000000000000 
P           0.648762000000000    0.824381000000000    0.500000000000000 
P           0.666667000000000    0.333333000000000    0.000000000000000 
P           0.666667000000000    0.333333000000000    0.500000000000000 
P           0.824381000000000    0.175619000000000    0.500000000000000 
P           0.824381000000000    0.648762000000000    0.500000000000000 
K           0.000000000000000    0.000000000000000    0.500000000000000 
K           0.000000000000000    0.500000000000000    0.000000000000000 
K           0.500000000000000    0.000000000000000    0.000000000000000 
K           0.500000000000000    0.500000000000000    0.000000000000000 
%ENDBLOCK POSITIONS_FRAC
