# Cell file generated by matador (Matthew Evans 2016)

%BLOCK LATTICE_CART
11.095 0.0 0.0
0.0 10.7994 0.0
0.0 0.0 10.4444
%ENDBLOCK LATTICE_CART

%BLOCK POSITIONS_FRAC
P           0.197085000000000    0.250000000000000    0.125179000000000 
P           0.197085000000000    0.750000000000000    0.874821000000000 
P           0.302915000000000    0.250000000000000    0.874821000000000 
P           0.302915000000000    0.750000000000000    0.125179000000000 
P           0.697085000000000    0.250000000000000    0.874821000000000 
P           0.697085000000000    0.750000000000000    0.125179000000000 
P           0.802915000000000    0.250000000000000    0.125179000000000 
P           0.802915000000000    0.750000000000000    0.874821000000000 
K           0.000000000000000    0.050504000000000    0.161736000000000 
K           0.000000000000000    0.112256000000000    0.606330000000000 
K           0.000000000000000    0.387744000000000    0.606330000000000 
K           0.000000000000000    0.449496000000000    0.161736000000000 
K           0.000000000000000    0.550504000000000    0.838264000000000 
K           0.000000000000000    0.612256000000000    0.393670000000000 
K           0.000000000000000    0.887744000000000    0.393670000000000 
K           0.000000000000000    0.949496000000000    0.838264000000000 
K           0.233973000000000    0.250000000000000    0.642416000000000 
K           0.233973000000000    0.750000000000000    0.357584000000000 
K           0.266027000000000    0.250000000000000    0.357584000000000 
K           0.266027000000000    0.750000000000000    0.642416000000000 
K           0.500000000000000    0.050504000000000    0.838264000000000 
K           0.500000000000000    0.112256000000000    0.393670000000000 
K           0.500000000000000    0.387744000000000    0.393670000000000 
K           0.500000000000000    0.449496000000000    0.838264000000000 
K           0.500000000000000    0.550504000000000    0.161736000000000 
K           0.500000000000000    0.612256000000000    0.606330000000000 
K           0.500000000000000    0.887744000000000    0.606330000000000 
K           0.500000000000000    0.949496000000000    0.161736000000000 
K           0.733973000000000    0.250000000000000    0.357584000000000 
K           0.733973000000000    0.750000000000000    0.642416000000000 
K           0.766027000000000    0.250000000000000    0.642416000000000 
K           0.766027000000000    0.750000000000000    0.357584000000000 
%ENDBLOCK POSITIONS_FRAC
