# Cell file generated by matador (Matthew Evans 2016)

%BLOCK LATTICE_CART
8.41872 0.0 0.0
-4.20936 7.29082 0.0
0.0 0.0 9.9279
%ENDBLOCK LATTICE_CART

%BLOCK POSITIONS_FRAC
P           0.000000000000000    0.000000000000000    0.059227000000000 
P           0.000000000000000    0.000000000000000    0.559227000000000 
P           0.204944000000000    0.538916000000000    0.496286000000000 
P           0.333333000000000    0.666667000000000    0.450988000000000 
P           0.333971000000000    0.795056000000000    0.496286000000000 
P           0.461084000000000    0.666029000000000    0.496286000000000 
P           0.538916000000000    0.204944000000000    0.996286000000000 
P           0.666029000000000    0.461084000000000    0.996286000000000 
P           0.666667000000000    0.333333000000000    0.950988000000000 
P           0.795056000000000    0.333971000000000    0.996286000000000 
K           0.120798000000000    0.629595000000000    0.134744000000000 
K           0.333333000000000    0.666667000000000    0.838753000000000 
K           0.370405000000000    0.491203000000000    0.134744000000000 
K           0.491203000000000    0.370405000000000    0.634744000000000 
K           0.508797000000000    0.879202000000000    0.134744000000000 
K           0.629595000000000    0.120798000000000    0.634744000000000 
K           0.666667000000000    0.333333000000000    0.338753000000000 
K           0.879202000000000    0.508797000000000    0.634744000000000 
%ENDBLOCK POSITIONS_FRAC
