# Cell file generated by matador (Matthew Evans 2016)

%BLOCK LATTICE_CART
5.8327 0.0 0.0
-2.91635 5.05127 0.0
0.0 0.0 8.68687
%ENDBLOCK LATTICE_CART

%BLOCK POSITIONS_FRAC
P           0.000000000000000    0.000000000000000    0.131053000000000 
P           0.000000000000000    0.000000000000000    0.868947000000000 
P           0.333333000000000    0.666667000000000    0.535613000000000 
P           0.333333000000000    0.666667000000000    0.797720000000000 
P           0.666667000000000    0.333333000000000    0.202280000000000 
P           0.666667000000000    0.333333000000000    0.464387000000000 
K           0.000000000000000    0.000000000000000    0.500000000000000 
K           0.333333000000000    0.666667000000000    0.166667000000000 
K           0.666667000000000    0.333333000000000    0.833333000000000 
%ENDBLOCK POSITIONS_FRAC
