# Cell file generated by matador (Matthew Evans 2016)

%BLOCK LATTICE_CART
4.08419 0.0 0.0
0.0 8.32469 0.0
-5.1126 0.0 9.9159
%ENDBLOCK LATTICE_CART

%BLOCK POSITIONS_FRAC
P           0.102633000000000    0.000000000000000    0.694565000000000 
P           0.202168000000000    0.000000000000000    0.854838000000000 
P           0.269008000000000    0.000000000000000    0.269003000000000 
P           0.280771000000000    0.500000000000000    0.593871000000000 
P           0.342781000000000    0.500000000000000    0.393851000000000 
P           0.520503000000000    0.500000000000000    0.754139000000000 
P           0.598595000000000    0.500000000000000    0.068410000000000 
K           0.102998000000000    0.500000000000000    0.876550000000000 
K           0.189421000000000    0.500000000000000    0.181432000000000 
K           0.504690000000000    0.000000000000000    0.480499000000000 
K           0.859605000000000    0.292618000000000    0.414165000000000 
K           0.859605000000000    0.707382000000000    0.414165000000000 
%ENDBLOCK POSITIONS_FRAC
