# Cell file generated by matador (Matthew Evans 2016)

%BLOCK LATTICE_CART
9.3577 0.0 0.0
-4.67885 8.10401 0.0
0.0 0.0 7.8747
%ENDBLOCK LATTICE_CART

%BLOCK POSITIONS_FRAC
P           0.000000000000000    0.000000000000000    0.500000000000000 
P           0.000000000000000    0.500000000000000    0.500000000000000 
P           0.500000000000000    0.000000000000000    0.500000000000000 
P           0.500000000000000    0.500000000000000    0.500000000000000 
K           0.000000000000000    0.000000000000000    0.000000000000000 
K           0.000000000000000    0.500000000000000    0.000000000000000 
K           0.163426000000000    0.326852000000000    0.160077000000000 
K           0.163426000000000    0.836574000000000    0.160077000000000 
K           0.326852000000000    0.163426000000000    0.839923000000000 
K           0.333333000000000    0.666667000000000    0.543634000000000 
K           0.500000000000000    0.000000000000000    0.000000000000000 
K           0.500000000000000    0.500000000000000    0.000000000000000 
K           0.666667000000000    0.333333000000000    0.456366000000000 
K           0.673148000000000    0.836574000000000    0.160077000000000 
K           0.836574000000000    0.163426000000000    0.839923000000000 
K           0.836574000000000    0.673148000000000    0.839923000000000 
%ENDBLOCK POSITIONS_FRAC
