# Cell file generated by matador (Matthew Evans 2016)

%BLOCK LATTICE_CART
10.5328 0.0 0.0
0.0 10.5328 0.0
0.0 0.0 8.56543
%ENDBLOCK LATTICE_CART

%BLOCK POSITIONS_FRAC
P           0.000000000000000    0.000000000000000    0.500000000000000 
P           0.250000000000000    0.250000000000000    0.250000000000000 
P           0.250000000000000    0.750000000000000    0.750000000000000 
P           0.500000000000000    0.500000000000000    0.000000000000000 
P           0.750000000000000    0.250000000000000    0.750000000000000 
P           0.750000000000000    0.750000000000000    0.250000000000000 
K           0.000000000000000    0.000000000000000    0.000000000000000 
K           0.000000000000000    0.500000000000000    0.250000000000000 
K           0.000000000000000    0.500000000000000    0.750000000000000 
K           0.116835000000000    0.116835000000000    0.274112000000000 
K           0.116835000000000    0.883165000000000    0.725888000000000 
K           0.250000000000000    0.250000000000000    0.750000000000000 
K           0.250000000000000    0.750000000000000    0.250000000000000 
K           0.383165000000000    0.383165000000000    0.225888000000000 
K           0.383165000000000    0.616835000000000    0.774112000000000 
K           0.500000000000000    0.000000000000000    0.250000000000000 
K           0.500000000000000    0.000000000000000    0.750000000000000 
K           0.500000000000000    0.500000000000000    0.500000000000000 
K           0.616835000000000    0.383165000000000    0.774112000000000 
K           0.616835000000000    0.616835000000000    0.225888000000000 
K           0.750000000000000    0.250000000000000    0.250000000000000 
K           0.750000000000000    0.750000000000000    0.750000000000000 
K           0.883165000000000    0.116835000000000    0.725888000000000 
K           0.883165000000000    0.883165000000000    0.274112000000000 
%ENDBLOCK POSITIONS_FRAC
