# Cell file generated by matador (Matthew Evans 2016)

%BLOCK LATTICE_CART
6.5242 0.0 0.0
0.0 7.01976 0.0
-2.94318 0.0 5.78844
%ENDBLOCK LATTICE_CART

%BLOCK POSITIONS_FRAC
P           0.000000000000000    0.469156000000000    0.500000000000000 
P           0.000000000000000    0.684430000000000    0.500000000000000 
K           0.000000000000000    0.679410000000000    0.000000000000000 
K           0.239957000000000    0.919419000000000    0.977505000000000 
K           0.322758000000000    0.346747000000000    0.141780000000000 
K           0.500000000000000    0.061923000000000    0.500000000000000 
K           0.677242000000000    0.346747000000000    0.858220000000000 
K           0.760043000000000    0.919419000000000    0.022495000000000 
%ENDBLOCK POSITIONS_FRAC
