# Cell file generated by matador (Matthew Evans 2016)

%BLOCK LATTICE_CART
9.49678 0.0 0.0
0.0 10.167 0.0
0.0 0.0 6.83524
%ENDBLOCK LATTICE_CART

%BLOCK POSITIONS_FRAC
P          -0.000000000000000   -0.000000000000000    0.500000000000000 
P          -0.000000000000000    0.500000000000000    0.500000000000000 
P           0.500000000000000   -0.000000000000000   -0.000000000000000 
P           0.500000000000000    0.500000000000000   -0.000000000000000 
K          -0.000000000000000   -0.000000000000000   -0.000000000000000 
K          -0.000000000000000    0.250000000000000    0.581526000000000 
K          -0.000000000000000    0.500000000000000   -0.000000000000000 
K          -0.000000000000000    0.750000000000000    0.418474000000000 
K           0.250000000000000    0.250000000000000    0.250000000000000 
K           0.250000000000000    0.750000000000000    0.750000000000000 
K           0.500000000000000   -0.000000000000000    0.500000000000000 
K           0.500000000000000    0.250000000000000    0.918474000000000 
K           0.500000000000000    0.500000000000000    0.500000000000000 
K           0.500000000000000    0.750000000000000    0.081526000000000 
K           0.750000000000000    0.250000000000000    0.250000000000000 
K           0.750000000000000    0.750000000000000    0.750000000000000 
%ENDBLOCK POSITIONS_FRAC
