# Cell file generated by matador (Matthew Evans 2016)

%BLOCK LATTICE_CART
8.59812 0.0 0.0
0.0 8.59812 0.0
0.0 0.0 6.51628
%ENDBLOCK LATTICE_CART

%BLOCK POSITIONS_FRAC
P           0.000000000000000    0.000000000000000    0.000000000000000 
P           0.000000000000000    0.000000000000000    0.500000000000000 
P           0.500000000000000    0.500000000000000    0.500000000000000 
K           0.000000000000000    0.271304000000000    0.956709000000000 
K           0.000000000000000    0.316896000000000    0.443515000000000 
K           0.000000000000000    0.683104000000000    0.443515000000000 
K           0.000000000000000    0.728696000000000    0.956709000000000 
K           0.271304000000000    0.000000000000000    0.043291000000000 
K           0.316896000000000    0.000000000000000    0.556485000000000 
K           0.500000000000000    0.500000000000000    0.000000000000000 
K           0.683104000000000    0.000000000000000    0.556485000000000 
K           0.728696000000000    0.000000000000000    0.043291000000000 
%ENDBLOCK POSITIONS_FRAC
