# Cell file generated by matador (Matthew Evans 2016)

%BLOCK LATTICE_CART
7.05048 0.0 0.0
-3.52524 6.1059 0.0
0.0 0.0 7.58764
%ENDBLOCK LATTICE_CART

%BLOCK POSITIONS_FRAC
P           0.333334000000000    0.666668000000000    0.081278000000000 
P           0.666668000000000    0.333334000000000    0.581278000000000 
K           0.036893000000000    0.518447000000000    0.355201000000000 
K           0.481555000000000    0.518447000000000    0.355201000000000 
K           0.481555000000000    0.963109000000000    0.355201000000000 
K           0.518447000000000    0.036893000000000    0.855201000000000 
K           0.518447000000000    0.481555000000000    0.855201000000000 
K           0.963109000000000    0.481555000000000    0.855201000000000 
%ENDBLOCK POSITIONS_FRAC
