# Cell file generated by matador (Matthew Evans 2016)

%BLOCK LATTICE_CART
7.10769 0.0 0.0
0.0 7.10769 0.0
0.0 0.0 8.60845
%ENDBLOCK LATTICE_CART

%BLOCK POSITIONS_FRAC
P           0.000000000000000    0.000000000000000    0.774010000000000 
P           0.000000000000000    0.362821000000000    0.966724000000000 
P           0.000000000000000    0.500000000000000    0.024010000000000 
P           0.000000000000000    0.637179000000000    0.966724000000000 
P           0.137179000000000    0.000000000000000    0.716724000000000 
P           0.362821000000000    0.500000000000000    0.216724000000000 
P           0.500000000000000    0.000000000000000    0.524010000000000 
P           0.500000000000000    0.137179000000000    0.466724000000000 
P           0.500000000000000    0.500000000000000    0.274010000000000 
P           0.500000000000000    0.862821000000000    0.466724000000000 
P           0.637179000000000    0.500000000000000    0.216724000000000 
P           0.862821000000000    0.000000000000000    0.716724000000000 
K           0.000000000000000    0.000000000000000    0.126845000000000 
K           0.000000000000000    0.500000000000000    0.376845000000000 
K           0.500000000000000    0.000000000000000    0.876845000000000 
K           0.500000000000000    0.500000000000000    0.626845000000000 
%ENDBLOCK POSITIONS_FRAC
