# Cell file generated by matador (Matthew Evans 2016)

%BLOCK LATTICE_CART
6.58297 0.0 0.0
-3.29149 5.70102 0.0
0.0 0.0 7.18891
%ENDBLOCK LATTICE_CART

%BLOCK POSITIONS_FRAC
P          -0.000000000000000    0.000000000000000    0.121297000000000 
P           0.093258000000000    0.383063000000000    0.867133000000000 
P           0.154069000000000    0.588617000000000    0.733815000000000 
P           0.289805000000000    0.906742000000000    0.867133000000000 
P           0.333333000000000    0.666667000000000    0.029736000000000 
P           0.333333000000000    0.666667000000000    0.180099000000000 
P           0.411383000000000    0.565452000000000    0.733815000000000 
P           0.434548000000000    0.845931000000000    0.733815000000000 
P           0.616937000000000    0.710195000000000    0.867133000000000 
K           0.312368000000000    0.056933000000000    0.583562000000000 
K           0.744565000000000    0.687632000000000    0.583562000000000 
K           0.943067000000000    0.255435000000000    0.583562000000000 
%ENDBLOCK POSITIONS_FRAC
