# Cell file generated by matador (Matthew Evans 2016)

%BLOCK LATTICE_CART
8.55031 0.0 0.0
-4.27515 7.40478 0.0
0.0 0.0 6.94894
%ENDBLOCK LATTICE_CART

%BLOCK POSITIONS_FRAC
P           0.000000000000000    0.000000000000000    0.000000000000000 
P           0.000000000000000    0.000000000000000    0.500000000000000 
K           0.000000000000000    0.244583000000000    0.750000000000000 
K           0.000000000000000    0.755417000000000    0.250000000000000 
K           0.244583000000000    0.000000000000000    0.750000000000000 
K           0.244583000000000    0.244583000000000    0.250000000000000 
K           0.333333000000000    0.666667000000000    0.163036000000000 
K           0.333333000000000    0.666667000000000    0.663036000000000 
K           0.666667000000000    0.333333000000000    0.336964000000000 
K           0.666667000000000    0.333333000000000    0.836964000000000 
K           0.755417000000000    0.000000000000000    0.250000000000000 
K           0.755417000000000    0.755417000000000    0.750000000000000 
%ENDBLOCK POSITIONS_FRAC
