# Cell file generated by matador (Matthew Evans 2016)

%BLOCK LATTICE_CART
7.76781 0.0 0.0
0.0 8.08049 0.0
0.0 0.0 10.1715
%ENDBLOCK LATTICE_CART

%BLOCK POSITIONS_FRAC
P           0.000000000000000    0.221412000000000    0.635209000000000 
P           0.000000000000000    0.778588000000000    0.135209000000000 
P           0.500000000000000    0.278588000000000    0.135209000000000 
P           0.500000000000000    0.721412000000000    0.635209000000000 
K           0.000000000000000    0.041337000000000    0.285640000000000 
K           0.000000000000000    0.369472000000000    0.906576000000000 
K           0.000000000000000    0.390100000000000    0.194605000000000 
K           0.000000000000000    0.609900000000000    0.694605000000000 
K           0.000000000000000    0.630528000000000    0.406576000000000 
K           0.000000000000000    0.958663000000000    0.785640000000000 
K           0.500000000000000    0.109900000000000    0.694605000000000 
K           0.500000000000000    0.130528000000000    0.406576000000000 
K           0.500000000000000    0.458663000000000    0.785640000000000 
K           0.500000000000000    0.541337000000000    0.285640000000000 
K           0.500000000000000    0.869472000000000    0.906576000000000 
K           0.500000000000000    0.890100000000000    0.194605000000000 
%ENDBLOCK POSITIONS_FRAC
