# Cell file generated by matador (Matthew Evans 2016)

%BLOCK LATTICE_CART
10.902 0.0 0.0
-5.45099 9.44139 0.0
0.0 0.0 6.17225
%ENDBLOCK LATTICE_CART

%BLOCK POSITIONS_FRAC
P           0.000000000000000    0.000000000000000   -0.000000000000000 
P           0.000000000000000    0.000000000000000    0.250000000000000 
P           0.000000000000000    0.000000000000000    0.500000000000000 
P           0.000000000000000    0.000000000000000    0.750000000000000 
P           0.215615000000000    0.431231000000000    0.750000000000000 
P           0.215615000000000    0.784385000000000    0.750000000000000 
P           0.333333000000000    0.666667000000000    0.250000000000000 
P           0.333333000000000    0.666667000000000    0.750000000000000 
P           0.431231000000000    0.215615000000000    0.250000000000000 
P           0.568769000000000    0.784385000000000    0.750000000000000 
P           0.666667000000000    0.333333000000000    0.250000000000000 
P           0.666667000000000    0.333333000000000    0.750000000000000 
P           0.784385000000000    0.215615000000000    0.250000000000000 
P           0.784385000000000    0.568769000000000    0.250000000000000 
K           0.000000000000000    0.400698000000000   -0.000000000000000 
K           0.000000000000000    0.599302000000000    0.500000000000000 
K           0.400698000000000    0.000000000000000   -0.000000000000000 
K           0.400698000000000    0.400698000000000    0.500000000000000 
K           0.599302000000000    0.000000000000000    0.500000000000000 
K           0.599302000000000    0.599302000000000   -0.000000000000000 
%ENDBLOCK POSITIONS_FRAC
