# Cell file generated by matador (Matthew Evans 2016)

%BLOCK LATTICE_CART
7.61985 0.0 0.0
0.0 7.61985 0.0
0.0 0.0 7.26083
%ENDBLOCK LATTICE_CART

%BLOCK POSITIONS_FRAC
P           0.000000000000000    0.500000000000000    0.500000000000000 
P           0.500000000000000    0.000000000000000    0.500000000000000 
K           0.133950000000000    0.330887000000000    0.000000000000000 
K           0.133950000000000    0.669113000000000    0.000000000000000 
K           0.330887000000000    0.133950000000000    0.000000000000000 
K           0.330887000000000    0.866050000000000    0.000000000000000 
K           0.669113000000000    0.133950000000000    0.000000000000000 
K           0.669113000000000    0.866050000000000    0.000000000000000 
K           0.866050000000000    0.330887000000000    0.000000000000000 
K           0.866050000000000    0.669113000000000    0.000000000000000 
%ENDBLOCK POSITIONS_FRAC
