# Cell file generated by matador (Matthew Evans 2016)

%BLOCK LATTICE_CART
8.47998 0.0 0.0
-4.23999 7.34387 0.0
0.0 0.0 8.15671
%ENDBLOCK LATTICE_CART

%BLOCK POSITIONS_FRAC
P           0.000000000000000    0.500000000000000    0.500000000000000 
P           0.500000000000000    0.000000000000000    0.500000000000000 
P           0.500000000000000    0.500000000000000    0.500000000000000 
K           0.000000000000000    0.000000000000000    0.000000000000000 
K           0.132273000000000    0.423324000000000    0.000000000000000 
K           0.291051000000000    0.867727000000000    0.000000000000000 
K           0.333333000000000    0.666667000000000    0.500000000000000 
K           0.423324000000000    0.291051000000000    0.000000000000000 
K           0.576676000000000    0.708949000000000    0.000000000000000 
K           0.666667000000000    0.333333000000000    0.500000000000000 
K           0.708949000000000    0.132273000000000    0.000000000000000 
K           0.867727000000000    0.576676000000000    0.000000000000000 
%ENDBLOCK POSITIONS_FRAC
