# Cell file generated by matador (Matthew Evans 2016)

%BLOCK LATTICE_CART
7.06236 0.0 0.0
-3.53118 6.11618 0.0
0.0 0.0 13.1232
%ENDBLOCK LATTICE_CART

%BLOCK POSITIONS_FRAC
P          -0.000000000000000   -0.000000000000000    0.722801000000000 
P           0.333333000000000    0.666667000000000    0.389467000000000 
P           0.666667000000000    0.333333000000000    0.056134000000000 
K          -0.000000000000000   -0.000000000000000    0.263397000000000 
K          -0.000000000000000   -0.000000000000000    0.515159000000000 
K           0.215946000000000    0.107973000000000    0.936484000000000 
K           0.225360000000000    0.450720000000000    0.603150000000000 
K           0.225360000000000    0.774640000000000    0.603150000000000 
K           0.333333000000000    0.666667000000000    0.181826000000000 
K           0.333333000000000    0.666667000000000    0.930064000000000 
K           0.549280000000000    0.774640000000000    0.603150000000000 
K           0.558694000000000    0.117387000000000    0.269817000000000 
K           0.558694000000000    0.441306000000000    0.269817000000000 
K           0.666667000000000    0.333333000000000    0.596731000000000 
K           0.666667000000000    0.333333000000000    0.848492000000000 
K           0.882613000000000    0.441306000000000    0.269817000000000 
K           0.892027000000000    0.107973000000000    0.936484000000000 
K           0.892027000000000    0.784054000000000    0.936484000000000 
%ENDBLOCK POSITIONS_FRAC
