# Cell file generated by matador (Matthew Evans 2016)

%BLOCK LATTICE_CART
7.36046 -0.0 0.0
-3.68023 6.37434 0.0
0.0 0.0 7.68788
%ENDBLOCK LATTICE_CART

%BLOCK POSITIONS_FRAC
P           0.000000000000000    0.000000000000000    0.430298000000000 
P           0.165828000000000    0.744423000000000    0.606317000000000 
P           0.255577000000000    0.421404000000000    0.606317000000000 
P           0.333333000000000    0.666667000000000    0.263810000000000 
P           0.421404000000000    0.165828000000000    0.606317000000000 
P           0.578596000000000    0.834172000000000    0.606317000000000 
P           0.666667000000000    0.333333000000000    0.263810000000000 
P           0.744423000000000    0.578596000000000    0.606317000000000 
P           0.834172000000000    0.255577000000000    0.606317000000000 
K           0.000000000000000    0.000000000000000    0.878737000000000 
K           0.000000000000000    0.500000000000000    0.420209000000000 
K           0.333333000000000    0.666667000000000    0.917011000000000 
K           0.500000000000000    0.000000000000000    0.420209000000000 
K           0.500000000000000    0.500000000000000    0.420209000000000 
K           0.666667000000000    0.333333000000000    0.917011000000000 
%ENDBLOCK POSITIONS_FRAC
