# Cell file generated by matador (Matthew Evans 2016)

%BLOCK LATTICE_CART
7.94083 0.0 0.0
-3.97042 6.87696 0.0
0.0 0.0 7.9832
%ENDBLOCK LATTICE_CART

%BLOCK POSITIONS_FRAC
P           0.162131000000000    0.081065000000000    0.500000000000000 
P           0.918935000000000    0.081065000000000    0.166667000000000 
P           0.918935000000000    0.837869000000000    0.833333000000000 
K           0.076867000000000    0.153732000000000    0.833333000000000 
K           0.076867000000000    0.923133000000000    0.166667000000000 
K           0.265522000000000    0.531044000000000    0.333333000000000 
K           0.265522000000000    0.734478000000000    0.666667000000000 
K           0.464030000000000    0.232015000000000    0.000000000000000 
K           0.468956000000000    0.734478000000000    0.000000000000000 
K           0.767985000000000    0.232015000000000    0.666667000000000 
K           0.767985000000000    0.535970000000000    0.333333000000000 
K           0.846268000000000    0.923133000000000    0.500000000000000 
%ENDBLOCK POSITIONS_FRAC
