# Cell file generated by matador (Matthew Evans 2016)

%BLOCK LATTICE_CART
7.29361 0.0 0.0
-3.6468 6.31645 0.0
0.0 0.0 7.42117
%ENDBLOCK LATTICE_CART

%BLOCK POSITIONS_FRAC
P           0.000000000000000   -0.000000000000000    0.500000000000000 
P           0.000000000000000    0.279982000000000    0.500000000000000 
P           0.000000000000000    0.720018000000000    0.500000000000000 
P           0.279982000000000   -0.000000000000000    0.500000000000000 
P           0.279982000000000    0.279982000000000    0.500000000000000 
P           0.720018000000000   -0.000000000000000    0.500000000000000 
P           0.720018000000000    0.720018000000000    0.500000000000000 
K           0.000000000000000    0.500000000000000    0.000000000000000 
K           0.333333000000000    0.666667000000000    0.508984000000000 
K           0.500000000000000   -0.000000000000000    0.000000000000000 
K           0.500000000000000    0.500000000000000    0.000000000000000 
K           0.666667000000000    0.333333000000000    0.491016000000000 
%ENDBLOCK POSITIONS_FRAC
