# Cell file generated by matador (Matthew Evans 2016)

%BLOCK LATTICE_CART
5.17568 0.0 0.0
0.0 5.17568 0.0
0.0 0.0 5.17568
%ENDBLOCK LATTICE_CART

%BLOCK POSITIONS_FRAC
P           0.258104000000000    0.258104000000000    0.741896000000000 
P           0.258104000000000    0.741896000000000    0.258104000000000 
P           0.500000000000000    0.500000000000000    0.500000000000000 
P           0.741896000000000    0.258104000000000    0.258104000000000 
P           0.741896000000000    0.741896000000000    0.741896000000000 
K           0.000000000000000    0.000000000000000    0.000000000000000 
%ENDBLOCK POSITIONS_FRAC
