# Cell file generated by matador (Matthew Evans 2016)

%BLOCK LATTICE_CART
7.81521 0.0 0.0
-3.9076 6.76817 0.0
0.0 0.0 5.44843
%ENDBLOCK LATTICE_CART

%BLOCK POSITIONS_FRAC
P           0.333333000000000    0.666667000000000    0.886045000000000 
P           0.666666000000000    0.333334000000000    0.886045000000000 
K          -0.000000000000000    0.407881000000000    0.850720000000000 
K          -0.000000000000000    0.739465000000000    0.547320000000000 
K           0.260535000000000    0.260535000000000    0.547320000000000 
K           0.407881000000000    0.000000000000000    0.850720000000000 
K           0.592119000000000    0.592119000000000    0.850720000000000 
K           0.739465000000000    0.000000000000000    0.547320000000000 
%ENDBLOCK POSITIONS_FRAC
