# Cell file generated by matador (Matthew Evans 2016)

%BLOCK LATTICE_CART
6.80441 0.0 0.0
-3.4022 5.89279 0.0
0.0 0.0 7.64248
%ENDBLOCK LATTICE_CART

%BLOCK POSITIONS_FRAC
P           0.000000000000000    0.000000000000000    0.000000000000000 
P           0.000000000000000    0.000000000000000    0.500000000000000 
K           0.000000000000000    0.000000000000000    0.250000000000000 
K           0.000000000000000    0.000000000000000    0.750000000000000 
K           0.333333000000000    0.666667000000000    0.250000000000000 
K           0.333333000000000    0.666667000000000    0.750000000000000 
K           0.666667000000000    0.333333000000000    0.250000000000000 
K           0.666667000000000    0.333333000000000    0.750000000000000 
%ENDBLOCK POSITIONS_FRAC
