# Cell file generated by matador (Matthew Evans 2016)

%BLOCK LATTICE_CART
8.33753 0.0 0.0
0.0 8.33753 0.0
0.0 0.0 8.33753
%ENDBLOCK LATTICE_CART

%BLOCK POSITIONS_FRAC
P           0.117282000000000    0.117282000000000    0.882718000000000 
P           0.117282000000000    0.882718000000000    0.117282000000000 
P           0.259833000000000    0.259833000000000    0.740167000000000 
P           0.259833000000000    0.740167000000000    0.259833000000000 
P           0.500000000000000    0.500000000000000    0.500000000000000 
P           0.740167000000000    0.259833000000000    0.259833000000000 
P           0.740167000000000    0.740167000000000    0.740167000000000 
P           0.882718000000000    0.117282000000000    0.117282000000000 
P           0.882718000000000    0.882718000000000    0.882718000000000 
K           0.000000000000000    0.000000000000000    0.500000000000000 
K           0.000000000000000    0.500000000000000    0.000000000000000 
K           0.000000000000000    0.500000000000000    0.500000000000000 
K           0.500000000000000    0.000000000000000    0.000000000000000 
K           0.500000000000000    0.000000000000000    0.500000000000000 
K           0.500000000000000    0.500000000000000    0.000000000000000 
%ENDBLOCK POSITIONS_FRAC
