# Cell file generated by matador (Matthew Evans 2016)

%BLOCK LATTICE_CART
6.00473 0.0 0.0
-1.61132 7.09249 0.0
-1.748 -1.61103 5.81492
%ENDBLOCK LATTICE_CART

%BLOCK POSITIONS_FRAC
P           0.000000000000000    0.000000000000000    0.000000000000000 
P           0.101063000000000    0.394701000000000    0.797481000000000 
P           0.244253000000000    0.259726000000000    0.785199000000000 
P           0.360017000000000    0.877659000000000    0.275277000000000 
P           0.639983000000000    0.122341000000000    0.724723000000000 
P           0.755747000000000    0.740274000000000    0.214801000000000 
P           0.898937000000000    0.605299000000000    0.202519000000000 
K           0.000000000000000    0.000000000000000    0.500000000000000 
K           0.000000000000000    0.500000000000000    0.500000000000000 
K           0.500000000000000    0.000000000000000    0.000000000000000 
K           0.500000000000000    0.500000000000000    0.000000000000000 
%ENDBLOCK POSITIONS_FRAC
