# Cell file generated by matador (Matthew Evans 2016)

%BLOCK LATTICE_CART
9.73328 0.0 0.0
-0.365646 2.83029 0.0
0.28438 2.74317 9.85929
%ENDBLOCK LATTICE_CART

%BLOCK POSITIONS_FRAC
P           0.500000000000000    0.000000000000000    0.000000000000000 
K           0.013185000000000    0.133927000000000    0.375557000000000 
K           0.214262000000000    0.193566000000000    0.743071000000000 
K           0.500000000000000    0.500000000000000    0.500000000000000 
K           0.785738000000000    0.806434000000000    0.256929000000000 
K           0.986815000000000    0.866073000000000    0.624443000000000 
%ENDBLOCK POSITIONS_FRAC
