# Cell file generated by matador (Matthew Evans 2016)

%BLOCK LATTICE_CART
4.15883 0.0 0.0
0.0 8.59192 0.0
-0.210223 0.0 6.05508
%ENDBLOCK LATTICE_CART

%BLOCK POSITIONS_FRAC
P          -0.000000000000000    0.027071000000000    0.000000000000000 
P          -0.000000000000000    0.423644000000000    0.500000000000000 
P          -0.000000000000000    0.832329000000000    0.500000000000000 
P           0.500000000000000    0.566031000000000    0.000000000000000 
P           0.500000000000000    0.820262000000000    0.000000000000000 
K           0.236906000000000    0.089886000000000    0.418372000000000 
K           0.763094000000000    0.089886000000000    0.581628000000000 
%ENDBLOCK POSITIONS_FRAC
