# Cell file generated by matador (Matthew Evans 2016)

%BLOCK LATTICE_CART
8.2879 0.0 0.0
-4.14395 7.17753 0.0
0.0 0.0 5.70283
%ENDBLOCK LATTICE_CART

%BLOCK POSITIONS_FRAC
P          -0.000000000000000    0.000000000000000    0.500000000000000 
P          -0.000000000000000    0.119424000000000    0.000000000000000 
P           0.036562000000000    0.309544000000000    0.117854000000000 
P           0.119424000000000    0.000000000000000    0.000000000000000 
P           0.272982000000000    0.963438000000000    0.117854000000000 
P           0.309544000000000    0.036562000000000    0.882146000000000 
P           0.690456000000000    0.727018000000000    0.117854000000000 
P           0.727018000000000    0.690456000000000    0.882146000000000 
P           0.880576000000000    0.880576000000000    0.000000000000000 
P           0.963438000000000    0.272982000000000    0.882146000000000 
K           0.333333000000000    0.666667000000000    0.202050000000000 
K           0.666666000000000    0.333334000000000    0.797950000000000 
%ENDBLOCK POSITIONS_FRAC
