# Cell file generated by matador (Matthew Evans 2016)

%BLOCK LATTICE_CART
7.77913 0.0 0.0
-3.88956 6.73692 0.0
0.0 0.0 6.70727
%ENDBLOCK LATTICE_CART

%BLOCK POSITIONS_FRAC
P           0.014505000000000    0.276223000000000    0.848650000000000 
P           0.193111000000000    0.135993000000000    0.091807000000000 
P           0.261718000000000    0.985495000000000    0.848650000000000 
P           0.723777000000000    0.738282000000000    0.848650000000000 
P           0.864007000000000    0.057118000000000    0.091807000000000 
P           0.942882000000000    0.806889000000000    0.091807000000000 
K           0.000000000000000    0.000000000000000    0.379202000000000 
K           0.169313000000000    0.467819000000000    0.314102000000000 
K           0.298505000000000    0.830687000000000    0.314102000000000 
K           0.532181000000000    0.701495000000000    0.314102000000000 
K           0.666667000000000    0.333333000000000    0.749393000000000 
%ENDBLOCK POSITIONS_FRAC
