# Cell file generated by matador (Matthew Evans 2016)

%BLOCK LATTICE_CART
6.88495 0.0 0.0
0.0 7.02054 0.0
0.0 0.0 9.82461
%ENDBLOCK LATTICE_CART

%BLOCK POSITIONS_FRAC
P           0.000000000000000    0.000000000000000    0.133611000000000 
P           0.000000000000000    0.500000000000000    0.574171000000000 
P           0.102487000000000    0.862687000000000    0.788805000000000 
P           0.397513000000000    0.362687000000000    0.788805000000000 
P           0.500000000000000    0.000000000000000    0.574171000000000 
P           0.500000000000000    0.500000000000000    0.133611000000000 
P           0.602487000000000    0.637313000000000    0.788805000000000 
P           0.897513000000000    0.137313000000000    0.788805000000000 
K           0.000000000000000    0.000000000000000    0.375296000000000 
K           0.000000000000000    0.000000000000000    0.584879000000000 
K           0.000000000000000    0.500000000000000    0.276245000000000 
K           0.500000000000000    0.000000000000000    0.276245000000000 
K           0.500000000000000    0.500000000000000    0.375296000000000 
K           0.500000000000000    0.500000000000000    0.584879000000000 
%ENDBLOCK POSITIONS_FRAC
