# Cell file generated by matador (Matthew Evans 2016)

%BLOCK LATTICE_CART
7.45884 0.0 0.0
-3.72942 6.45955 0.0
0.0 0.0 8.51572
%ENDBLOCK LATTICE_CART

%BLOCK POSITIONS_FRAC
P           0.333334000000000    0.666668000000000    0.421247000000000 
P           0.333334000000000    0.666668000000000    0.809656000000000 
P           0.666668000000000    0.333334000000000    0.421247000000000 
P           0.666668000000000    0.333334000000000    0.809656000000000 
K           0.000001000000000    0.000001000000000    0.643682000000000 
K           0.000001000000000    0.500001000000000    0.010056000000000 
K           0.000001000000000    0.500001000000000    0.579281000000000 
K           0.500001000000000    0.000001000000000    0.010056000000000 
K           0.500001000000000    0.000001000000000    0.579281000000000 
K           0.500001000000000    0.500001000000000    0.010056000000000 
K           0.500001000000000    0.500001000000000    0.579281000000000 
%ENDBLOCK POSITIONS_FRAC
