# Cell file generated by matador (Matthew Evans 2016)

%BLOCK LATTICE_CART
7.28517 0.0 0.0
0.0 7.28517 0.0
0.0 0.0 7.28517
%ENDBLOCK LATTICE_CART

%BLOCK POSITIONS_FRAC
P           0.125000000000000    0.875000000000000    0.375000000000000 
P           0.375000000000000    0.125000000000000    0.875000000000000 
P           0.625000000000000    0.625000000000000    0.625000000000000 
P           0.875000000000000    0.375000000000000    0.125000000000000 
K           0.031177000000000    0.031177000000000    0.031177000000000 
K           0.218823000000000    0.218823000000000    0.218823000000000 
K           0.281177000000000    0.781177000000000    0.718823000000000 
K           0.468823000000000    0.968823000000000    0.531177000000000 
K           0.531177000000000    0.468823000000000    0.968823000000000 
K           0.718823000000000    0.281177000000000    0.781177000000000 
K           0.781177000000000    0.718823000000000    0.281177000000000 
K           0.968823000000000    0.531177000000000    0.468823000000000 
%ENDBLOCK POSITIONS_FRAC
