# Cell file generated by matador (Matthew Evans 2016)

%BLOCK LATTICE_CART
4.21147 0.0 0.0
1.55289 6.53902 0.0
-0.553 0.292794 9.92352
%ENDBLOCK LATTICE_CART

%BLOCK POSITIONS_FRAC
P           0.000000000000000    0.000000000000000    0.500000000000000 
P           0.285451000000000    0.319672000000000    0.607669000000000 
P           0.481629000000000    0.731587000000000    0.760592000000000 
P           0.500000000000000    0.000000000000000    0.000000000000000 
P           0.500000000000000    0.500000000000000    0.000000000000000 
P           0.518371000000000    0.268413000000000    0.239408000000000 
P           0.714549000000000    0.680328000000000    0.392331000000000 
K           0.000000000000000    0.000000000000000    0.000000000000000 
K           0.000000000000000    0.500000000000000    0.000000000000000 
K           0.500000000000000    0.000000000000000    0.500000000000000 
K           0.500000000000000    0.500000000000000    0.500000000000000 
%ENDBLOCK POSITIONS_FRAC
