# Cell file generated by matador (Matthew Evans 2016)

%BLOCK LATTICE_CART
4.62381 0.0 0.0
0.0 6.92703 0.0
2.14528 0.0 5.78669
%ENDBLOCK LATTICE_CART

%BLOCK POSITIONS_FRAC
P           0.000000000000000    0.018808000000000    0.500000000000000 
P           0.000000000000000    0.167169000000000    0.000000000000000 
P           0.500000000000000    0.633352000000000    0.000000000000000 
K           0.311895000000000    0.378673000000000    0.790981000000000 
K           0.500000000000000    0.120111000000000    0.500000000000000 
K           0.500000000000000    0.982128000000000    0.000000000000000 
K           0.688105000000000    0.378673000000000    0.209019000000000 
%ENDBLOCK POSITIONS_FRAC
