# Cell file generated by matador (Matthew Evans 2016)

%BLOCK LATTICE_CART
7.74428 0.0 0.0
0.0 7.58158 0.0
1.14038 0.0 5.41945
%ENDBLOCK LATTICE_CART

%BLOCK POSITIONS_FRAC
P           0.000000000000000   -0.000000000000000    0.000000000000000 
P           0.000000000000000   -0.000000000000000    0.500000000000000 
P           0.000000000000000    0.500000000000000    0.000000000000000 
P           0.000000000000000    0.500000000000000    0.500000000000000 
P           0.416385000000000    0.242248000000000    0.938071000000000 
P           0.416385000000000    0.257752000000000    0.438071000000000 
P           0.500000000000000   -0.000000000000000    0.500000000000000 
P           0.500000000000000    0.500000000000000    0.000000000000000 
P           0.583615000000000    0.742248000000000    0.561929000000000 
P           0.583615000000000    0.757752000000000    0.061929000000000 
K           0.224954000000000    0.551311000000000    0.214246000000000 
K           0.224954000000000    0.948689000000000    0.714246000000000 
K           0.775046000000000    0.051311000000000    0.285754000000000 
K           0.775046000000000    0.448689000000000    0.785754000000000 
%ENDBLOCK POSITIONS_FRAC
