# Cell file generated by matador (Matthew Evans 2016)

%BLOCK LATTICE_CART
7.75742 -0.0 0.0
-3.87871 6.71812 0.0
0.0 0.0 6.4042
%ENDBLOCK LATTICE_CART

%BLOCK POSITIONS_FRAC
P           0.250126000000000    0.539980000000000    0.178927000000000 
P           0.289853000000000    0.749874000000000    0.178927000000000 
P           0.460020000000000    0.710147000000000    0.178927000000000 
K          -0.000000000000000    0.000000000000000    0.399770000000000 
K           0.075875000000000    0.328683000000000    0.871330000000000 
K           0.252808000000000    0.924125000000000    0.871330000000000 
K           0.333333000000000    0.666667000000000    0.618904000000000 
K           0.666666000000000    0.333334000000000    0.542030000000000 
K           0.671317000000000    0.747192000000000    0.871330000000000 
%ENDBLOCK POSITIONS_FRAC
