# Cell file generated by matador (Matthew Evans 2016)

%BLOCK LATTICE_CART
10.9159 0.0 0.0
0.0 10.9159 0.0
0.0 0.0 9.48781
%ENDBLOCK LATTICE_CART

%BLOCK POSITIONS_FRAC
P           0.084656000000000    0.853826000000000    0.252428000000000 
P           0.146174000000000    0.084656000000000    0.252428000000000 
P           0.353826000000000    0.584656000000000    0.252428000000000 
P           0.415344000000000    0.353826000000000    0.252428000000000 
P           0.584656000000000    0.646174000000000    0.252428000000000 
P           0.646174000000000    0.415344000000000    0.252428000000000 
P           0.853826000000000    0.915344000000000    0.252428000000000 
P           0.915344000000000    0.146174000000000    0.252428000000000 
K           0.093748000000000    0.406252000000000    0.529534000000000 
K           0.097291000000000    0.597291000000000    0.781977000000000 
K           0.099515000000000    0.599515000000000    0.100256000000000 
K           0.185134000000000    0.314866000000000    0.257781000000000 
K           0.195881000000000    0.695881000000000    0.514384000000000 
K           0.202778000000000    0.297222000000000    0.787161000000000 
K           0.297222000000000    0.797222000000000    0.787161000000000 
K           0.304119000000000    0.195881000000000    0.514384000000000 
K           0.314866000000000    0.814866000000000    0.257781000000000 
K           0.400485000000000    0.099515000000000    0.100256000000000 
K           0.402709000000000    0.097291000000000    0.781977000000000 
K           0.406252000000000    0.906252000000000    0.529534000000000 
K           0.593748000000000    0.093748000000000    0.529534000000000 
K           0.597291000000000    0.902709000000000    0.781977000000000 
K           0.599515000000000    0.900485000000000    0.100256000000000 
K           0.685134000000000    0.185134000000000    0.257781000000000 
K           0.695881000000000    0.804119000000000    0.514384000000000 
K           0.702778000000000    0.202778000000000    0.787161000000000 
K           0.797222000000000    0.702778000000000    0.787161000000000 
K           0.804119000000000    0.304119000000000    0.514384000000000 
K           0.814866000000000    0.685134000000000    0.257781000000000 
K           0.900485000000000    0.400485000000000    0.100256000000000 
K           0.902709000000000    0.402709000000000    0.781977000000000 
K           0.906252000000000    0.593748000000000    0.529534000000000 
%ENDBLOCK POSITIONS_FRAC
