# Cell file generated by matador (Matthew Evans 2016)

%BLOCK LATTICE_CART
9.6202 0.0 0.0
0.0 5.4168 0.0
0.0 0.0 7.99952
%ENDBLOCK LATTICE_CART

%BLOCK POSITIONS_FRAC
P           0.000000000000000    0.000000000000000    0.095472000000000 
P           0.000000000000000    0.000000000000000    0.469327000000000 
P           0.000000000000000    0.000000000000000    0.596753000000000 
P           0.500000000000000    0.500000000000000    0.096753000000000 
P           0.500000000000000    0.500000000000000    0.595472000000000 
P           0.500000000000000    0.500000000000000    0.969327000000000 
K           0.000000000000000    0.500000000000000    0.986688000000000 
K           0.150255000000000    0.839813000000000    0.287797000000000 
K           0.349745000000000    0.339813000000000    0.787797000000000 
K           0.500000000000000    0.000000000000000    0.486688000000000 
K           0.650255000000000    0.660187000000000    0.787797000000000 
K           0.849745000000000    0.160187000000000    0.287797000000000 
%ENDBLOCK POSITIONS_FRAC
