# Cell file generated by matador (Matthew Evans 2016)

%BLOCK LATTICE_CART
5.75809 0.0 0.0
0.0 6.08735 0.0
2.65532 0.0 7.50336
%ENDBLOCK LATTICE_CART

%BLOCK POSITIONS_FRAC
P           0.199896000000000    0.587159000000000    0.238724000000000 
P           0.220788000000000    0.349562000000000    0.409097000000000 
P           0.374548000000000    0.330499000000000    0.658062000000000 
P           0.500000000000000    0.682091000000000    0.500000000000000 
P           0.625452000000000    0.330499000000000    0.341938000000000 
P           0.779212000000000    0.349562000000000    0.590903000000000 
P           0.800104000000000    0.587159000000000    0.761276000000000 
K           0.354738000000000    0.810909000000000    0.954279000000000 
K           0.500000000000000    0.069646000000000    0.500000000000000 
K           0.645262000000000    0.810909000000000    0.045721000000000 
%ENDBLOCK POSITIONS_FRAC
