# Cell file generated by matador (Matthew Evans 2016)

%BLOCK LATTICE_CART
9.24311 0.0 0.0
-4.62156 8.00477 0.0
0.0 0.0 7.08296
%ENDBLOCK LATTICE_CART

%BLOCK POSITIONS_FRAC
P           0.000000000000000    0.000000000000000   -0.000000000000000 
P           0.000000000000000    0.397841000000000   -0.000000000000000 
P           0.064508000000000    0.333333000000000    0.333333000000000 
P           0.268825000000000    0.935492000000000    0.333333000000000 
P           0.333333000000000    0.064508000000000    0.666667000000000 
P           0.333333000000000    0.666667000000000    0.666667000000000 
P           0.397841000000000    0.000000000000000   -0.000000000000000 
P           0.602159000000000    0.602159000000000   -0.000000000000000 
P           0.666667000000000    0.333333000000000    0.333333000000000 
P           0.666667000000000    0.731175000000000    0.333333000000000 
P           0.731175000000000    0.666667000000000    0.666667000000000 
P           0.935492000000000    0.268825000000000    0.666667000000000 
K           0.000000000000000    0.000000000000000    0.500000000000000 
K           0.333333000000000    0.666667000000000    0.166667000000000 
K           0.666667000000000    0.333333000000000    0.833333000000000 
%ENDBLOCK POSITIONS_FRAC
