# Cell file generated by matador (Matthew Evans 2016)

%BLOCK LATTICE_CART
6.22327 0.0 0.0
-3.11163 5.38951 0.0
0.0 0.0 16.9046
%ENDBLOCK LATTICE_CART

%BLOCK POSITIONS_FRAC
P           0.513849000000000    0.027699000000000    0.833333000000000 
P           0.513849000000000    0.486151000000000    0.166667000000000 
P           0.972301000000000    0.486151000000000    0.500000000000000 
K           0.137820000000000    0.389119000000000    0.987437000000000 
K           0.137820000000000    0.748702000000000    0.012562000000000 
K           0.236481000000000    0.472962000000000    0.333333000000000 
K           0.236481000000000    0.763519000000000    0.666666000000000 
K           0.251298000000000    0.389119000000000    0.679229000000000 
K           0.251298000000000    0.862180000000000    0.320771000000000 
K           0.527038000000000    0.763519000000000   -0.000000000000000 
K           0.610881000000000    0.748702000000000    0.654104000000000 
K           0.610881000000000    0.862180000000000    0.345896000000000 
K           0.621428000000000    0.310714000000000   -0.000000000000000 
K           0.689286000000000    0.310714000000000    0.666666000000000 
K           0.689286000000000    0.378572000000000    0.333333000000000 
%ENDBLOCK POSITIONS_FRAC
