# Cell file generated by matador (Matthew Evans 2016)

%BLOCK LATTICE_CART
6.76507 0.0 0.0
-3.38253 5.85872 0.0
0.0 0.0 7.1635
%ENDBLOCK LATTICE_CART

%BLOCK POSITIONS_FRAC
P           0.333332000000000    0.666666000000000    0.000000000000000 
P           0.666666000000000    0.333332000000000    0.000000000000000 
K           0.999999000000000    0.499999000000000    0.000000000000000 
K           0.999999000000000    0.499999000000000    0.500000000000000 
K           0.499999000000000    0.999999000000000    0.000000000000000 
K           0.499999000000000    0.999999000000000    0.500000000000000 
K           0.499999000000000    0.499999000000000    0.000000000000000 
K           0.499999000000000    0.499999000000000    0.500000000000000 
%ENDBLOCK POSITIONS_FRAC
