# Cell file generated by matador (Matthew Evans 2016)

%BLOCK LATTICE_CART
9.76928 0.0 0.0
0.0 6.2168 0.0
0.0 0.0 8.75205
%ENDBLOCK LATTICE_CART

%BLOCK POSITIONS_FRAC
P           0.000000000000000    0.000000000000000    0.000000000000000 
P           0.000000000000000    0.000000000000000    0.500000000000000 
P           0.000000000000000    0.500000000000000    0.000000000000000 
P           0.500000000000000    0.000000000000000    0.500000000000000 
P           0.500000000000000    0.500000000000000    0.000000000000000 
P           0.500000000000000    0.500000000000000    0.500000000000000 
K           0.192060000000000    0.467409000000000    0.500000000000000 
K           0.248500000000000    0.811069000000000    0.500000000000000 
K           0.251500000000000    0.311069000000000    0.000000000000000 
K           0.307940000000000    0.967409000000000    0.000000000000000 
K           0.692060000000000    0.032591000000000    0.000000000000000 
K           0.748500000000000    0.688931000000000    0.000000000000000 
K           0.751500000000000    0.188931000000000    0.500000000000000 
K           0.807940000000000    0.532591000000000    0.500000000000000 
%ENDBLOCK POSITIONS_FRAC
