# Cell file generated by matador (Matthew Evans 2016)

%BLOCK LATTICE_CART
5.73566 0.0 0.0
0.0 6.49834 0.0
2.76006 0.0 7.55323
%ENDBLOCK LATTICE_CART

%BLOCK POSITIONS_FRAC
P           0.035790000000000    0.250000000000000    0.049973000000000 
P           0.964210000000000    0.750000000000000    0.950027000000000 
K           0.000000000000000    0.000000000000000    0.500000000000000 
K           0.000000000000000    0.500000000000000    0.500000000000000 
K           0.433882000000000    0.750000000000000    0.600504000000000 
K           0.462413000000000    0.750000000000000    0.101389000000000 
K           0.537587000000000    0.250000000000000    0.898611000000000 
K           0.566118000000000    0.250000000000000    0.399496000000000 
%ENDBLOCK POSITIONS_FRAC
