# Cell file generated by matador (Matthew Evans 2016)

%BLOCK LATTICE_CART
9.36314 0.0 0.0
-4.68157 8.10872 0.0
0.0 0.0 6.16587
%ENDBLOCK LATTICE_CART

%BLOCK POSITIONS_FRAC
P           0.000000000000000    0.000000000000000    0.000000000000000 
P           0.333333000000000    0.666667000000000    0.000000000000000 
P           0.333333000000000    0.666667000000000    0.500000000000000 
P           0.666667000000000    0.333333000000000    0.500000000000000 
K           0.000000000000000    0.000000000000000    0.500000000000000 
K           0.318134000000000    0.159067000000000    0.500000000000000 
K           0.543342000000000    0.086684000000000    0.000000000000000 
K           0.543342000000000    0.456658000000000    0.000000000000000 
K           0.666667000000000    0.333333000000000    0.000000000000000 
K           0.840933000000000    0.159067000000000    0.500000000000000 
K           0.840933000000000    0.681866000000000    0.500000000000000 
K           0.913316000000000    0.456658000000000    0.000000000000000 
%ENDBLOCK POSITIONS_FRAC
