# Cell file generated by matador (Matthew Evans 2016)

%BLOCK LATTICE_CART
6.73249 0.0 0.0
-3.36625 5.83051 0.0
0.0 0.0 9.05289
%ENDBLOCK LATTICE_CART

%BLOCK POSITIONS_FRAC
P           0.000000000000000    0.000000000000000    0.220905000000000 
P           0.000000000000000    0.000000000000000    0.779095000000000 
P           0.075452000000000    0.330443000000000    0.500000000000000 
P           0.254991000000000    0.924548000000000    0.500000000000000 
P           0.333333000000000    0.666667000000000    0.279282000000000 
P           0.333333000000000    0.666667000000000    0.720718000000000 
P           0.669557000000000    0.745009000000000    0.500000000000000 
K           0.000000000000000    0.000000000000000    0.000000000000000 
K           0.000000000000000    0.000000000000000    0.500000000000000 
K           0.333333000000000    0.666667000000000    0.000000000000000 
K           0.333333000000000    0.666667000000000    0.500000000000000 
K           0.666667000000000    0.333333000000000    0.000000000000000 
%ENDBLOCK POSITIONS_FRAC
