# Cell file generated by matador (Matthew Evans 2016)

%BLOCK LATTICE_CART
7.83921 0.0 0.0
-3.91961 6.78896 0.0
0.0 0.0 10.0038
%ENDBLOCK LATTICE_CART

%BLOCK POSITIONS_FRAC
P           0.000000000000000    0.500000000000000    0.000000000000000 
P           0.000000000000000    0.500000000000000    0.500000000000000 
P           0.333333000000000    0.666667000000000    0.235960000000000 
P           0.333333000000000    0.666667000000000    0.764040000000000 
P           0.500000000000000    0.000000000000000    0.000000000000000 
P           0.500000000000000    0.000000000000000    0.500000000000000 
P           0.500000000000000    0.500000000000000    0.000000000000000 
P           0.500000000000000    0.500000000000000    0.500000000000000 
P           0.666667000000000    0.333333000000000    0.235960000000000 
P           0.666667000000000    0.333333000000000    0.764040000000000 
K           0.000000000000000    0.000000000000000    0.000000000000000 
K           0.000000000000000    0.000000000000000    0.500000000000000 
K           0.333333000000000    0.666667000000000    0.000000000000000 
K           0.666667000000000    0.333333000000000    0.000000000000000 
%ENDBLOCK POSITIONS_FRAC
