# Cell file generated by matador (Matthew Evans 2016)

%BLOCK LATTICE_CART
11.2497 0.0 0.0
0.0 11.2497 0.0
0.0 0.0 9.39933
%ENDBLOCK LATTICE_CART

%BLOCK POSITIONS_FRAC
P           0.000000000000000    0.000000000000000    0.000000000000000 
P           0.000000000000000    0.000000000000000    0.222216000000000 
P           0.000000000000000    0.000000000000000    0.500000000000000 
P           0.000000000000000    0.000000000000000    0.777784000000000 
P           0.500000000000000    0.500000000000000    0.000000000000000 
P           0.500000000000000    0.500000000000000    0.277784000000000 
P           0.500000000000000    0.500000000000000    0.500000000000000 
P           0.500000000000000    0.500000000000000    0.722216000000000 
K           0.084185000000000    0.753214000000000    0.000000000000000 
K           0.100540000000000    0.646109000000000    0.500000000000000 
K           0.146109000000000    0.399460000000000    0.000000000000000 
K           0.246786000000000    0.084185000000000    0.000000000000000 
K           0.250000000000000    0.250000000000000    0.250000000000000 
K           0.250000000000000    0.250000000000000    0.750000000000000 
K           0.250000000000000    0.750000000000000    0.250000000000000 
K           0.250000000000000    0.750000000000000    0.750000000000000 
K           0.253214000000000    0.415815000000000    0.500000000000000 
K           0.353891000000000    0.100540000000000    0.500000000000000 
K           0.399460000000000    0.853891000000000    0.000000000000000 
K           0.415815000000000    0.746786000000000    0.500000000000000 
K           0.584185000000000    0.253214000000000    0.500000000000000 
K           0.600540000000000    0.146109000000000    0.000000000000000 
K           0.646109000000000    0.899460000000000    0.500000000000000 
K           0.746786000000000    0.584185000000000    0.500000000000000 
K           0.750000000000000    0.250000000000000    0.250000000000000 
K           0.750000000000000    0.250000000000000    0.750000000000000 
K           0.750000000000000    0.750000000000000    0.250000000000000 
K           0.750000000000000    0.750000000000000    0.750000000000000 
K           0.753214000000000    0.915815000000000    0.000000000000000 
K           0.853891000000000    0.600540000000000    0.000000000000000 
K           0.899460000000000    0.353891000000000    0.500000000000000 
K           0.915815000000000    0.246786000000000    0.000000000000000 
%ENDBLOCK POSITIONS_FRAC
