# Cell file generated by matador (Matthew Evans 2016)

%BLOCK LATTICE_CART
8.82637 0.0 0.0
-4.41319 7.64386 0.0
0.0 0.0 7.3069
%ENDBLOCK LATTICE_CART

%BLOCK POSITIONS_FRAC
P           0.000000000000000    0.500000000000000    0.000000000000000 
P           0.500000000000000    0.000000000000000    0.000000000000000 
P           0.500000000000000    0.500000000000000    0.000000000000000 
K           0.000000000000000    0.000000000000000    0.000000000000000 
K           0.000000000000000    0.309046000000000    0.171037000000000 
K           0.000000000000000    0.690954000000000    0.828963000000000 
K           0.309046000000000    0.000000000000000    0.171037000000000 
K           0.309046000000000    0.309046000000000    0.828963000000000 
K           0.333333000000000    0.666667000000000    0.500000000000000 
K           0.666667000000000    0.333333000000000    0.500000000000000 
K           0.690954000000000    0.000000000000000    0.828963000000000 
K           0.690954000000000    0.690954000000000    0.171037000000000 
%ENDBLOCK POSITIONS_FRAC
