# Cell file generated by matador (Matthew Evans 2016)

%BLOCK LATTICE_CART
6.41141 0.0 0.0
0.0 7.10345 0.0
1.95332 0.0 4.96377
%ENDBLOCK LATTICE_CART

%BLOCK POSITIONS_FRAC
P           0.031249000000000    0.500000000000000    0.421887000000000 
P           0.991477000000000    0.500000000000000    0.249533000000000 
K           0.450811000000000    0.000000000000000    0.772154000000000 
K           0.538393000000000    0.500000000000000    0.324813000000000 
K           0.718475000000000    0.500000000000000    0.925460000000000 
K           0.893292000000000    0.000000000000000    0.738195000000000 
%ENDBLOCK POSITIONS_FRAC
