# Cell file generated by matador (Matthew Evans 2016)

%BLOCK LATTICE_CART
7.9928 0.0 0.0
-3.9964 6.92197 0.0
0.0 0.0 7.55036
%ENDBLOCK LATTICE_CART

%BLOCK POSITIONS_FRAC
P           0.039351000000000    0.335734000000000    0.500000000000000 
P           0.296383000000000    0.960649000000000    0.500000000000000 
P           0.358428000000000    0.196847000000000    0.500000000000000 
P           0.664266000000000    0.703617000000000    0.500000000000000 
P           0.803153000000000    0.161581000000000    0.500000000000000 
P           0.838419000000000    0.641572000000000    0.500000000000000 
K           0.063219000000000    0.597833000000000    0.500000000000000 
K           0.080697000000000    0.280589000000000    0.000000000000000 
K           0.199892000000000    0.919303000000000    0.000000000000000 
K           0.333333000000000    0.666667000000000    0.000000000000000 
K           0.333333000000000    0.666667000000000    0.500000000000000 
K           0.402167000000000    0.465386000000000    0.500000000000000 
K           0.534614000000000    0.936781000000000    0.500000000000000 
K           0.666667000000000    0.333333000000000    0.500000000000000 
K           0.719411000000000    0.800108000000000    0.000000000000000 
%ENDBLOCK POSITIONS_FRAC
