# Cell file generated by matador (Matthew Evans 2016)

%BLOCK LATTICE_CART
8.85415 0.0 0.0
-4.42708 7.66792 0.0
0.0 0.0 11.0956
%ENDBLOCK LATTICE_CART

%BLOCK POSITIONS_FRAC
P           0.000000000000000    0.000000000000000    0.500000000000000 
P           0.158305000000000    0.079153000000000    0.000000000000000 
P           0.333333000000000    0.666667000000000    0.000000000000000 
P           0.920847000000000    0.079153000000000    0.000000000000000 
P           0.920847000000000    0.841695000000000    0.000000000000000 
K           0.000207000000000    0.331591000000000    0.500000000000000 
K           0.000207000000000    0.668616000000000    0.500000000000000 
K           0.001708000000000    0.334125000000000    0.000000000000000 
K           0.001708000000000    0.667582000000000    0.000000000000000 
K           0.331384000000000    0.331591000000000    0.500000000000000 
K           0.331384000000000    0.999793000000000    0.500000000000000 
K           0.332418000000000    0.334125000000000    0.000000000000000 
K           0.332418000000000    0.998292000000000    0.000000000000000 
K           0.333333000000000    0.666667000000000    0.500000000000000 
K           0.665875000000000    0.667582000000000    0.000000000000000 
K           0.665875000000000    0.998292000000000    0.000000000000000 
K           0.666667000000000    0.333333000000000    0.000000000000000 
K           0.666667000000000    0.333333000000000    0.500000000000000 
K           0.668409000000000    0.668616000000000    0.500000000000000 
K           0.668409000000000    0.999793000000000    0.500000000000000 
%ENDBLOCK POSITIONS_FRAC
