# Cell file generated by matador (Matthew Evans 2016)

%BLOCK LATTICE_CART
7.04048 0.0 0.0
-3.52024 6.09724 0.0
0.0 0.0 10.0943
%ENDBLOCK LATTICE_CART

%BLOCK POSITIONS_FRAC
P           0.000000000000000    0.000000000000000    0.371349000000000 
P           0.000000000000000    0.000000000000000    0.628651000000000 
P           0.000000000000000    0.500000000000000    0.500000000000000 
P           0.166667000000000    0.333333000000000    0.833333000000000 
P           0.166667000000000    0.833333000000000    0.833333000000000 
P           0.333333000000000    0.166667000000000    0.166667000000000 
P           0.333333000000000    0.666667000000000    0.038016000000000 
P           0.333333000000000    0.666667000000000    0.295317000000000 
P           0.500000000000000    0.000000000000000    0.500000000000000 
P           0.500000000000000    0.500000000000000    0.500000000000000 
P           0.666667000000000    0.333333000000000    0.704683000000000 
P           0.666667000000000    0.333333000000000    0.961984000000000 
P           0.666667000000000    0.833333000000000    0.833333000000000 
P           0.833333000000000    0.166667000000000    0.166667000000000 
P           0.833333000000000    0.666667000000000    0.166667000000000 
K           0.000000000000000    0.000000000000000   -0.000000000000000 
K           0.333333000000000    0.666667000000000    0.666667000000000 
K           0.666667000000000    0.333333000000000    0.333333000000000 
%ENDBLOCK POSITIONS_FRAC
