# Cell file generated by matador (Matthew Evans 2016)

%BLOCK LATTICE_CART
7.91673 0.0 0.0
-3.95836 6.85609 0.0
0.0 0.0 8.4637
%ENDBLOCK LATTICE_CART

%BLOCK POSITIONS_FRAC
P          -0.000000000000000    0.000000000000000    0.009420000000000 
P          -0.000000000000000    0.000000000000000    0.509420000000000 
P           0.493679000000000    0.018569000000000    0.729040000000000 
P           0.493679000000000    0.475111000000000    0.229040000000000 
P           0.503884000000000    0.147469000000000    0.784243000000000 
P           0.503884000000000    0.356417000000000    0.284243000000000 
P           0.524889000000000    0.018569000000000    0.229040000000000 
P           0.524889000000000    0.506321000000000    0.729040000000000 
P           0.643583000000000    0.147469000000000    0.284243000000000 
P           0.643583000000000    0.496116000000000    0.784243000000000 
P           0.852531000000000    0.356417000000000    0.784243000000000 
P           0.852531000000000    0.496116000000000    0.284243000000000 
P           0.981431000000000    0.475111000000000    0.729040000000000 
P           0.981431000000000    0.506321000000000    0.229040000000000 
K           0.333333000000000    0.666667000000000    0.460874000000000 
K           0.333333000000000    0.666667000000000    0.960874000000000 
%ENDBLOCK POSITIONS_FRAC
