# Cell file generated by matador (Matthew Evans 2016)

%BLOCK LATTICE_CART
7.15737 0.0 0.0
-3.57868 6.19846 0.0
0.0 0.0 5.24204
%ENDBLOCK LATTICE_CART

%BLOCK POSITIONS_FRAC
P           0.333333000000000    0.666667000000000    0.050419000000000 
P           0.666666000000000    0.333334000000000    0.949581000000000 
K          -0.000000000000000    0.000000000000000    0.000000000000000 
K          -0.000000000000000    0.000000000000000    0.500000000000000 
K          -0.000000000000000    0.500000000000000    0.000000000000000 
K           0.500000000000000    0.000000000000000    0.000000000000000 
K           0.500000000000000    0.500000000000000    0.000000000000000 
%ENDBLOCK POSITIONS_FRAC
