# Cell file generated by matador (Matthew Evans 2016)

%BLOCK LATTICE_CART
4.80927 0.0 0.0
-2.40463 4.16495 0.0
0.0 0.0 7.3329
%ENDBLOCK LATTICE_CART

%BLOCK POSITIONS_FRAC
P           0.000000000000000   -0.000000000000000    0.604094000000000 
P           0.000000000000000   -0.000000000000000    0.770476000000000 
P           0.333334000000000    0.666666000000000    0.033426000000000 
P           0.333334000000000    0.666666000000000    0.544138000000000 
P           0.666667000000000    0.333333000000000    0.537517000000000 
K           0.666667000000000    0.333333000000000    0.818842000000000 
%ENDBLOCK POSITIONS_FRAC
