# Cell file generated by matador (Matthew Evans 2016)

%BLOCK LATTICE_CART
11.8264 0.0 0.0
0.0 11.8264 0.0
0.0 0.0 9.95905
%ENDBLOCK LATTICE_CART

%BLOCK POSITIONS_FRAC
P           0.000000000000000    0.250000000000000    0.424177000000000 
P           0.000000000000000    0.250000000000000    0.825823000000000 
P           0.000000000000000    0.750000000000000    0.174177000000000 
P           0.000000000000000    0.750000000000000    0.575823000000000 
P           0.500000000000000    0.250000000000000    0.075823000000000 
P           0.500000000000000    0.250000000000000    0.674177000000000 
P           0.500000000000000    0.750000000000000    0.325823000000000 
P           0.500000000000000    0.750000000000000    0.924177000000000 
K           0.000000000000000    0.000000000000000    0.000000000000000 
K           0.000000000000000    0.000000000000000    0.500000000000000 
K           0.000000000000000    0.250000000000000    0.125000000000000 
K           0.000000000000000    0.250000000000000    0.625000000000000 
K           0.000000000000000    0.500000000000000    0.000000000000000 
K           0.000000000000000    0.500000000000000    0.500000000000000 
K           0.000000000000000    0.750000000000000    0.375000000000000 
K           0.000000000000000    0.750000000000000    0.875000000000000 
K           0.250000000000000    0.250000000000000    0.250000000000000 
K           0.250000000000000    0.250000000000000    0.750000000000000 
K           0.250000000000000    0.750000000000000    0.250000000000000 
K           0.250000000000000    0.750000000000000    0.750000000000000 
K           0.500000000000000    0.000000000000000    0.000000000000000 
K           0.500000000000000    0.000000000000000    0.500000000000000 
K           0.500000000000000    0.250000000000000    0.375000000000000 
K           0.500000000000000    0.250000000000000    0.875000000000000 
K           0.500000000000000    0.500000000000000    0.000000000000000 
K           0.500000000000000    0.500000000000000    0.500000000000000 
K           0.500000000000000    0.750000000000000    0.125000000000000 
K           0.500000000000000    0.750000000000000    0.625000000000000 
K           0.750000000000000    0.250000000000000    0.250000000000000 
K           0.750000000000000    0.250000000000000    0.750000000000000 
K           0.750000000000000    0.750000000000000    0.250000000000000 
K           0.750000000000000    0.750000000000000    0.750000000000000 
%ENDBLOCK POSITIONS_FRAC
