# Cell file generated by matador (Matthew Evans 2016)

%BLOCK LATTICE_CART
8.53406 0.0 0.0
-4.26703 7.39071 0.0
0.0 0.0 5.70317
%ENDBLOCK LATTICE_CART

%BLOCK POSITIONS_FRAC
P           0.135306000000000    0.270610000000000    0.250000000000000 
P           0.135306000000000    0.864696000000000    0.250000000000000 
P           0.270610000000000    0.135306000000000    0.750000000000000 
P           0.729392000000000    0.864696000000000    0.250000000000000 
P           0.864696000000000    0.135306000000000    0.750000000000000 
P           0.864696000000000    0.729392000000000    0.750000000000000 
K           0.000001000000000    0.000001000000000    0.250000000000000 
K           0.000001000000000    0.000001000000000    0.750000000000000 
K           0.000001000000000    0.500001000000000   -0.000000000000000 
K           0.000001000000000    0.500001000000000    0.500000000000000 
K           0.500001000000000    0.000001000000000   -0.000000000000000 
K           0.500001000000000    0.000001000000000    0.500000000000000 
K           0.500001000000000    0.500001000000000   -0.000000000000000 
K           0.500001000000000    0.500001000000000    0.500000000000000 
%ENDBLOCK POSITIONS_FRAC
