# Cell file generated by matador (Matthew Evans 2016)

%BLOCK LATTICE_CART
9.04371 0.0 0.0
0.0 9.04371 0.0
0.0 0.0 8.49627
%ENDBLOCK LATTICE_CART

%BLOCK POSITIONS_FRAC
P           0.000000000000000    0.000000000000000    0.170554000000000 
P           0.000000000000000    0.000000000000000    0.829446000000000 
P           0.000000000000000    0.500000000000000    0.151771000000000 
P           0.000000000000000    0.500000000000000    0.348229000000000 
P           0.500000000000000    0.000000000000000    0.651771000000000 
P           0.500000000000000    0.000000000000000    0.848229000000000 
P           0.500000000000000    0.500000000000000    0.329446000000000 
P           0.500000000000000    0.500000000000000    0.670554000000000 
K           0.000000000000000    0.000000000000000    0.500000000000000 
K           0.121198000000000    0.734702000000000    0.350401000000000 
K           0.234702000000000    0.621198000000000    0.149599000000000 
K           0.265298000000000    0.121198000000000    0.649599000000000 
K           0.378802000000000    0.234702000000000    0.850401000000000 
K           0.500000000000000    0.500000000000000    0.000000000000000 
K           0.621198000000000    0.765298000000000    0.850401000000000 
K           0.734702000000000    0.878802000000000    0.649599000000000 
K           0.765298000000000    0.378802000000000    0.149599000000000 
K           0.878802000000000    0.265298000000000    0.350401000000000 
%ENDBLOCK POSITIONS_FRAC
