# Cell file generated by matador (Matthew Evans 2016)

%BLOCK LATTICE_CART
8.68098 0.0 0.0
-4.34049 7.51795 0.0
0.0 0.0 9.52593
%ENDBLOCK LATTICE_CART

%BLOCK POSITIONS_FRAC
P           0.095524000000000    0.191047000000000    0.000000000000000 
P           0.095524000000000    0.904476000000000    0.000000000000000 
P           0.191048000000000    0.095523000000000    0.000000000000000 
P           0.333334000000000    0.666666000000000    0.500000000000000 
P           0.666667000000000    0.333333000000000    0.500000000000000 
P           0.808953000000000    0.904476000000000    0.000000000000000 
P           0.904477000000000    0.095523000000000    0.000000000000000 
P           0.904477000000000    0.808952000000000    0.000000000000000 
K           0.000000000000000    0.343921000000000    0.845481000000000 
K           0.000000000000000    0.500000000000000    0.000000000000000 
K           0.000000000000000    0.500000000000000    0.500000000000000 
K           0.000000000000000    0.656079000000000    0.154519000000000 
K           0.343921000000000   -0.000000000000000    0.845481000000000 
K           0.343921000000000    0.343921000000000    0.154519000000000 
K           0.500000000000000   -0.000000000000000    0.000000000000000 
K           0.500000000000000   -0.000000000000000    0.500000000000000 
K           0.500000000000000    0.500000000000000    0.000000000000000 
K           0.500000000000000    0.500000000000000    0.500000000000000 
K           0.656079000000000   -0.000000000000000    0.154519000000000 
K           0.656079000000000    0.656079000000000    0.845481000000000 
%ENDBLOCK POSITIONS_FRAC
