# Cell file generated by matador (Matthew Evans 2016)

%BLOCK LATTICE_CART
10.7849 0.0 0.0
-5.39247 9.34003 0.0
0.0 0.0 9.75924
%ENDBLOCK LATTICE_CART

%BLOCK POSITIONS_FRAC
P           0.158467000000000    0.437755000000000    0.750000000000000 
P           0.279288000000000    0.841533000000000    0.750000000000000 
P           0.437755000000000    0.158467000000000    0.250000000000000 
P           0.562245000000000    0.720712000000000    0.750000000000000 
P           0.720712000000000    0.562245000000000    0.250000000000000 
P           0.841533000000000    0.279288000000000    0.250000000000000 
K           0.030662000000000    0.829005000000000    0.750000000000000 
K           0.046867000000000    0.333803000000000    0.250000000000000 
K           0.125823000000000    0.636054000000000    0.250000000000000 
K           0.170995000000000    0.201657000000000    0.750000000000000 
K           0.201657000000000    0.170995000000000    0.250000000000000 
K           0.286936000000000    0.953133000000000    0.250000000000000 
K           0.333803000000000    0.046867000000000    0.750000000000000 
K           0.363946000000000    0.489769000000000    0.250000000000000 
K           0.489769000000000    0.363946000000000    0.750000000000000 
K           0.510231000000000    0.874177000000000    0.250000000000000 
K           0.636054000000000    0.125823000000000    0.750000000000000 
K           0.666197000000000    0.713064000000000    0.250000000000000 
K           0.713064000000000    0.666197000000000    0.750000000000000 
K           0.798343000000000    0.969338000000000    0.750000000000000 
K           0.829005000000000    0.030662000000000    0.250000000000000 
K           0.874177000000000    0.510231000000000    0.750000000000000 
K           0.953133000000000    0.286936000000000    0.750000000000000 
K           0.969338000000000    0.798343000000000    0.250000000000000 
%ENDBLOCK POSITIONS_FRAC
