# Cell file generated by matador (Matthew Evans 2016)

%BLOCK LATTICE_CART
7.07611 0.0 0.0
0.0 7.07611 0.0
0.0 0.0 8.47644
%ENDBLOCK LATTICE_CART

%BLOCK POSITIONS_FRAC
P           0.000000000000000    0.000000000000000    0.500000000000000 
P           0.000000000000000    0.500000000000000    0.016355000000000 
P           0.000000000000000    0.500000000000000    0.483645000000000 
P           0.023450000000000    0.781959000000000    0.286108000000000 
P           0.218041000000000    0.023450000000000    0.713892000000000 
P           0.281959000000000    0.476550000000000    0.213892000000000 
P           0.476550000000000    0.718041000000000    0.786108000000000 
P           0.500000000000000    0.000000000000000    0.516355000000000 
P           0.500000000000000    0.000000000000000    0.983645000000000 
P           0.500000000000000    0.500000000000000    0.000000000000000 
P           0.523450000000000    0.281959000000000    0.786108000000000 
P           0.718041000000000    0.523450000000000    0.213892000000000 
P           0.781959000000000    0.976550000000000    0.713892000000000 
P           0.976550000000000    0.218041000000000    0.286108000000000 
K           0.000000000000000    0.500000000000000    0.250000000000000 
K           0.000000000000000    0.500000000000000    0.750000000000000 
K           0.500000000000000    0.000000000000000    0.250000000000000 
K           0.500000000000000    0.000000000000000    0.750000000000000 
%ENDBLOCK POSITIONS_FRAC
