# Cell file generated by matador (Matthew Evans 2016)

%BLOCK LATTICE_CART
5.88635 0.0 0.0
-2.94318 5.09773 0.0
0.0 0.0 7.09871
%ENDBLOCK LATTICE_CART

%BLOCK POSITIONS_FRAC
P           0.289786000000000    0.284443000000000    0.839522000000000 
P           0.526682000000000    0.107377000000000    0.085272000000000 
P           0.580696000000000    0.473318000000000    0.085272000000000 
P           0.715557000000000    0.005342000000000    0.839522000000000 
P           0.892623000000000    0.419304000000000    0.085272000000000 
P           0.994658000000000    0.710214000000000    0.839522000000000 
K           0.000000000000000    0.000000000000000    0.118470000000000 
K           0.333333000000000    0.666667000000000    0.407892000000000 
K           0.666667000000000    0.333333000000000    0.472451000000000 
%ENDBLOCK POSITIONS_FRAC
