# Cell file generated by matador (Matthew Evans 2016)

%BLOCK LATTICE_CART
8.24439 0.0 0.0
0.0 8.24439 0.0
0.0 0.0 8.24439
%ENDBLOCK LATTICE_CART

%BLOCK POSITIONS_FRAC
P           0.000000000000000    0.000000000000000    0.000000000000000 
P           0.500000000000000    0.500000000000000    0.500000000000000 
K           0.000000000000000    0.000000000000000    0.500000000000000 
K           0.000000000000000    0.500000000000000    0.000000000000000 
K           0.000000000000000    0.500000000000000    0.500000000000000 
K           0.185792000000000    0.185792000000000    0.185792000000000 
K           0.185792000000000    0.814208000000000    0.814208000000000 
K           0.314208000000000    0.314208000000000    0.685792000000000 
K           0.314208000000000    0.685792000000000    0.314208000000000 
K           0.500000000000000    0.000000000000000    0.000000000000000 
K           0.500000000000000    0.000000000000000    0.500000000000000 
K           0.500000000000000    0.500000000000000    0.000000000000000 
K           0.685792000000000    0.314208000000000    0.314208000000000 
K           0.685792000000000    0.685792000000000    0.685792000000000 
K           0.814208000000000    0.185792000000000    0.814208000000000 
K           0.814208000000000    0.814208000000000    0.185792000000000 
%ENDBLOCK POSITIONS_FRAC
