# Cell file generated by matador (Matthew Evans 2016)

%BLOCK LATTICE_CART
8.00145 0.0 0.0
0.0 12.4356 0.0
0.0 0.0 12.5333
%ENDBLOCK LATTICE_CART

%BLOCK POSITIONS_FRAC
P           0.169683000000000    0.426588000000000    0.422178000000000 
P           0.169683000000000    0.573412000000000    0.922178000000000 
P           0.330317000000000    0.073412000000000    0.922178000000000 
P           0.330317000000000    0.926588000000000    0.422178000000000 
P           0.669683000000000    0.073412000000000    0.922178000000000 
P           0.669683000000000    0.926588000000000    0.422178000000000 
P           0.830317000000000    0.426588000000000    0.422178000000000 
P           0.830317000000000    0.573412000000000    0.922178000000000 
K           0.000000000000000    0.044429000000000    0.607789000000000 
K           0.000000000000000    0.092946000000000    0.340843000000000 
K           0.000000000000000    0.152951000000000    0.979633000000000 
K           0.000000000000000    0.259903000000000    0.692460000000000 
K           0.000000000000000    0.445228000000000    0.872227000000000 
K           0.000000000000000    0.499212000000000    0.108534000000000 
K           0.000000000000000    0.500788000000000    0.608534000000000 
K           0.000000000000000    0.554772000000000    0.372227000000000 
K           0.000000000000000    0.740097000000000    0.192460000000000 
K           0.000000000000000    0.847049000000000    0.479633000000000 
K           0.000000000000000    0.907054000000000    0.840843000000000 
K           0.000000000000000    0.955571000000000    0.107789000000000 
K           0.500000000000000    0.000788000000000    0.608534000000000 
K           0.500000000000000    0.054772000000000    0.372227000000000 
K           0.500000000000000    0.240097000000000    0.192460000000000 
K           0.500000000000000    0.347049000000000    0.479633000000000 
K           0.500000000000000    0.407054000000000    0.840843000000000 
K           0.500000000000000    0.455571000000000    0.107789000000000 
K           0.500000000000000    0.544429000000000    0.607789000000000 
K           0.500000000000000    0.592946000000000    0.340843000000000 
K           0.500000000000000    0.652951000000000    0.979633000000000 
K           0.500000000000000    0.759903000000000    0.692460000000000 
K           0.500000000000000    0.945228000000000    0.872227000000000 
K           0.500000000000000    0.999212000000000    0.108534000000000 
%ENDBLOCK POSITIONS_FRAC
