# Cell file generated by matador (Matthew Evans 2016)

%BLOCK LATTICE_CART
7.33159 0.0 0.0
-3.66579 6.34934 0.0
0.0 0.0 8.80692
%ENDBLOCK LATTICE_CART

%BLOCK POSITIONS_FRAC
P           0.000000000000000    0.000000000000000    0.160756000000000 
P           0.000000000000000    0.000000000000000    0.341197000000000 
P           0.105897000000000    0.270817000000000    0.801267000000000 
P           0.164920000000000    0.894103000000000    0.801267000000000 
P           0.270817000000000    0.164920000000000    0.801267000000000 
P           0.333333000000000    0.666667000000000    0.919758000000000 
P           0.666667000000000    0.333333000000000    0.919758000000000 
P           0.729183000000000    0.835080000000000    0.801267000000000 
P           0.835080000000000    0.105897000000000    0.801267000000000 
P           0.894103000000000    0.729183000000000    0.801267000000000 
K           0.000000000000000    0.000000000000000    0.617810000000000 
K           0.000000000000000    0.500000000000000    0.585699000000000 
K           0.500000000000000    0.000000000000000    0.585699000000000 
K           0.500000000000000    0.500000000000000    0.585699000000000 
%ENDBLOCK POSITIONS_FRAC
