# Cell file generated by matador (Matthew Evans 2016)

%BLOCK LATTICE_CART
5.50394 0.0 0.0
0.0 8.23154 0.0
2.30049 0.0 7.21637
%ENDBLOCK LATTICE_CART

%BLOCK POSITIONS_FRAC
P           0.341108000000000    0.797352000000000    0.743933000000000 
P           0.658892000000000    0.797352000000000    0.256067000000000 
K           0.000000000000000    0.510485000000000   -0.000000000000000 
K           0.000000000000000    0.581437000000000    0.500000000000000 
K           0.180310000000000    0.272695000000000    0.248288000000000 
K           0.443892000000000    0.434405000000000    0.721290000000000 
K           0.500000000000000    0.122470000000000    0.500000000000000 
K           0.556108000000000    0.434405000000000    0.278710000000000 
K           0.819690000000000    0.272695000000000    0.751712000000000 
%ENDBLOCK POSITIONS_FRAC
