# Cell file generated by matador (Matthew Evans 2016)

%BLOCK LATTICE_CART
6.57157 0.0 0.0
-3.28578 5.69114 0.0
0.0 0.0 9.7539
%ENDBLOCK LATTICE_CART

%BLOCK POSITIONS_FRAC
P          -0.000000000000000   -0.000000000000000    0.309195000000000 
P           0.125118000000000    0.360497000000000    0.602654000000000 
P           0.235379000000000    0.874882000000000    0.602654000000000 
P           0.372648000000000    0.229637000000000    0.909755000000000 
P           0.639503000000000    0.764621000000000    0.602654000000000 
P           0.770363000000000    0.143011000000000    0.909755000000000 
P           0.856989000000000    0.627352000000000    0.909755000000000 
K           0.056911000000000    0.734656000000000    0.098408000000000 
K           0.265344000000000    0.322255000000000    0.098408000000000 
K           0.333333000000000    0.666667000000000    0.068361000000000 
K           0.666667000000000    0.333333000000000    0.105428000000000 
K           0.677745000000000    0.943089000000000    0.098408000000000 
%ENDBLOCK POSITIONS_FRAC
