# Cell file generated by matador (Matthew Evans 2016)

%BLOCK LATTICE_CART
8.50163 0.0 0.0
-4.25082 7.36263 0.0
0.0 0.0 11.5381
%ENDBLOCK LATTICE_CART

%BLOCK POSITIONS_FRAC
P           0.000000000000000    0.000000000000000    0.118678000000000 
P           0.000000000000000    0.000000000000000    0.500000000000000 
P           0.000000000000000    0.000000000000000    0.881322000000000 
P           0.333333000000000    0.666667000000000    0.902211000000000 
P           0.666667000000000    0.333333000000000    0.097789000000000 
K           0.000000000000000    0.500000000000000    0.500000000000000 
K           0.165716000000000    0.331432000000000    0.271660000000000 
K           0.165716000000000    0.834284000000000    0.271660000000000 
K           0.183751000000000    0.367502000000000    0.929089000000000 
K           0.183751000000000    0.816249000000000    0.929089000000000 
K           0.331432000000000    0.165716000000000    0.728340000000000 
K           0.367502000000000    0.183751000000000    0.070911000000000 
K           0.500000000000000    0.000000000000000    0.500000000000000 
K           0.500000000000000    0.500000000000000    0.500000000000000 
K           0.632498000000000    0.816249000000000    0.929089000000000 
K           0.668568000000000    0.834284000000000    0.271660000000000 
K           0.816249000000000    0.183751000000000    0.070911000000000 
K           0.816249000000000    0.632498000000000    0.070911000000000 
K           0.834284000000000    0.165716000000000    0.728340000000000 
K           0.834284000000000    0.668568000000000    0.728340000000000 
%ENDBLOCK POSITIONS_FRAC
