# Cell file generated by matador (Matthew Evans 2016)

%BLOCK LATTICE_CART
5.5498 -0.0 0.0
-2.7749 4.80627 0.0
0.0 0.0 6.82975
%ENDBLOCK LATTICE_CART

%BLOCK POSITIONS_FRAC
P           0.333334000000000    0.666666000000000    0.396338000000000 
P           0.333334000000000    0.666666000000000    0.659422000000000 
P           0.501376000000000    0.431826000000000    0.894741000000000 
P           0.568174000000000    0.069550000000000    0.894741000000000 
P           0.666667000000000    0.333333000000000    0.873790000000000 
P           0.930450000000000    0.498624000000000    0.894741000000000 
K           0.666667000000000    0.333333000000000    0.176123000000000 
%ENDBLOCK POSITIONS_FRAC
