# Cell file generated by matador (Matthew Evans 2016)

%BLOCK LATTICE_CART
9.46892 0.0 0.0
0.0 9.46892 0.0
0.0 0.0 6.81257
%ENDBLOCK LATTICE_CART

%BLOCK POSITIONS_FRAC
P           0.000000000000000    0.500000000000000    0.750000000000000 
P           0.063488000000000    0.313938000000000    0.973743000000000 
P           0.186062000000000    0.436512000000000    0.526257000000000 
P           0.313938000000000    0.936512000000000    0.026257000000000 
P           0.436512000000000    0.813938000000000    0.473743000000000 
P           0.500000000000000    0.000000000000000    0.250000000000000 
P           0.563488000000000    0.186062000000000    0.473743000000000 
P           0.686062000000000    0.063488000000000    0.026257000000000 
P           0.813938000000000    0.563488000000000    0.526257000000000 
P           0.936512000000000    0.686062000000000    0.973743000000000 
K           0.000000000000000    0.000000000000000    0.000000000000000 
K           0.228639000000000    0.728639000000000    0.750000000000000 
K           0.271361000000000    0.228639000000000    0.250000000000000 
K           0.500000000000000    0.500000000000000    0.500000000000000 
K           0.728639000000000    0.771361000000000    0.250000000000000 
K           0.771361000000000    0.271361000000000    0.750000000000000 
%ENDBLOCK POSITIONS_FRAC
