# Cell file generated by matador (Matthew Evans 2016)

%BLOCK LATTICE_CART
9.3622 0.0 0.0
-4.6811 8.1079 0.0
0.0 0.0 5.12106
%ENDBLOCK LATTICE_CART

%BLOCK POSITIONS_FRAC
P           0.000000000000000    0.000000000000000    0.500000000000000 
P           0.333333000000000    0.666667000000000    0.056535000000000 
P           0.333333000000000    0.666667000000000    0.771523000000000 
P           0.666667000000000    0.333333000000000    0.228477000000000 
P           0.666667000000000    0.333333000000000    0.943465000000000 
K           0.000000000000000    0.000000000000000    0.000000000000000 
K           0.000000000000000    0.500000000000000    0.000000000000000 
K           0.000000000000000    0.500000000000000    0.500000000000000 
K           0.500000000000000    0.000000000000000    0.000000000000000 
K           0.500000000000000    0.000000000000000    0.500000000000000 
K           0.500000000000000    0.500000000000000    0.000000000000000 
K           0.500000000000000    0.500000000000000    0.500000000000000 
%ENDBLOCK POSITIONS_FRAC
