# Cell file generated by matador (Matthew Evans 2016)

%BLOCK LATTICE_CART
7.49454 0.0 0.0
-3.74727 6.49046 0.0
0.0 0.0 5.99669
%ENDBLOCK LATTICE_CART

%BLOCK POSITIONS_FRAC
P           0.219400000000000    0.438799000000000    0.890534000000000 
P           0.219400000000000    0.780600000000000    0.890534000000000 
P           0.227868000000000    0.113934000000000    0.223868000000000 
P           0.552733000000000    0.105466000000000    0.557201000000000 
P           0.552733000000000    0.447267000000000    0.557201000000000 
P           0.561201000000000    0.780600000000000    0.890534000000000 
P           0.886066000000000    0.113934000000000    0.223868000000000 
P           0.886066000000000    0.772132000000000    0.223868000000000 
P           0.894534000000000    0.447267000000000    0.557201000000000 
K           0.000000000000000    0.000000000000000    0.960096000000000 
K           0.333333000000000    0.666667000000000    0.626763000000000 
K           0.666667000000000    0.333333000000000    0.293429000000000 
%ENDBLOCK POSITIONS_FRAC
