# Cell file generated by matador (Matthew Evans 2016)

%BLOCK LATTICE_CART
7.81249 0.0 0.0
0.0 7.81249 0.0
0.0 0.0 6.67349
%ENDBLOCK LATTICE_CART

%BLOCK POSITIONS_FRAC
P           0.000000000000000    0.500000000000000    0.000000000000000 
P           0.077328000000000    0.214525000000000    0.761276000000000 
P           0.077328000000000    0.785475000000000    0.238724000000000 
P           0.106200000000000    0.500000000000000    0.500000000000000 
P           0.214525000000000    0.077328000000000    0.761276000000000 
P           0.214525000000000    0.922672000000000    0.238724000000000 
P           0.500000000000000    0.000000000000000    0.000000000000000 
P           0.500000000000000    0.106200000000000    0.500000000000000 
P           0.500000000000000    0.893800000000000    0.500000000000000 
P           0.785475000000000    0.077328000000000    0.238724000000000 
P           0.785475000000000    0.922672000000000    0.761276000000000 
P           0.893800000000000    0.500000000000000    0.500000000000000 
P           0.922672000000000    0.214525000000000    0.238724000000000 
P           0.922672000000000    0.785475000000000    0.761276000000000 
K           0.000000000000000    0.000000000000000    0.500000000000000 
K           0.500000000000000    0.500000000000000    0.500000000000000 
%ENDBLOCK POSITIONS_FRAC
