# Cell file generated by matador (Matthew Evans 2016)

%BLOCK LATTICE_CART
10.3608 0.0 0.0
0.0 10.3608 0.0
0.0 0.0 8.73345
%ENDBLOCK LATTICE_CART

%BLOCK POSITIONS_FRAC
P           0.000000000000000    0.000000000000000   -0.000000000000000 
P           0.000000000000000    0.000000000000000    0.250000000000000 
P           0.000000000000000    0.000000000000000    0.500000000000000 
P           0.000000000000000    0.000000000000000    0.750000000000000 
P           0.500000000000000    0.500000000000000    0.250000000000000 
P           0.500000000000000    0.500000000000000    0.750000000000000 
K           0.000000000000000    0.257781000000000    0.277602000000000 
K           0.000000000000000    0.257781000000000    0.722398000000000 
K           0.000000000000000    0.500000000000000   -0.000000000000000 
K           0.000000000000000    0.742219000000000    0.277602000000000 
K           0.000000000000000    0.742219000000000    0.722398000000000 
K           0.203653000000000    0.500000000000000    0.254246000000000 
K           0.203653000000000    0.500000000000000    0.745754000000000 
K           0.257781000000000    0.000000000000000    0.222398000000000 
K           0.257781000000000    0.000000000000000    0.777602000000000 
K           0.500000000000000    0.000000000000000    0.500000000000000 
K           0.500000000000000    0.203653000000000    0.245754000000000 
K           0.500000000000000    0.203653000000000    0.754246000000000 
K           0.500000000000000    0.796347000000000    0.245754000000000 
K           0.500000000000000    0.796347000000000    0.754246000000000 
K           0.742219000000000    0.000000000000000    0.222398000000000 
K           0.742219000000000    0.000000000000000    0.777602000000000 
K           0.796347000000000    0.500000000000000    0.254246000000000 
K           0.796347000000000    0.500000000000000    0.745754000000000 
%ENDBLOCK POSITIONS_FRAC
