# Cell file generated by matador (Matthew Evans 2016)

%BLOCK LATTICE_CART
11.3134 0.0 0.0
0.0 6.95907 0.0
0.0 0.0 11.1581
%ENDBLOCK LATTICE_CART

%BLOCK POSITIONS_FRAC
P           0.000000000000000    0.000000000000000    0.500000000000000 
P           0.000000000000000    0.500000000000000    0.500000000000000 
P           0.250000000000000    0.250000000000000    0.884050000000000 
P           0.500000000000000    0.000000000000000    0.500000000000000 
P           0.500000000000000    0.500000000000000    0.500000000000000 
P           0.750000000000000    0.750000000000000    0.115950000000000 
K           0.000000000000000    0.000000000000000    0.000000000000000 
K           0.000000000000000    0.500000000000000    0.000000000000000 
K           0.029837000000000    0.250000000000000    0.217924000000000 
K           0.050553000000000    0.250000000000000    0.790461000000000 
K           0.079247000000000    0.250000000000000    0.532023000000000 
K           0.250000000000000    0.750000000000000    0.946619000000000 
K           0.420753000000000    0.250000000000000    0.532023000000000 
K           0.449447000000000    0.250000000000000    0.790461000000000 
K           0.470163000000000    0.250000000000000    0.217924000000000 
K           0.500000000000000    0.000000000000000    0.000000000000000 
K           0.500000000000000    0.500000000000000    0.000000000000000 
K           0.529837000000000    0.750000000000000    0.782076000000000 
K           0.550553000000000    0.750000000000000    0.209539000000000 
K           0.579247000000000    0.750000000000000    0.467977000000000 
K           0.750000000000000    0.250000000000000    0.053381000000000 
K           0.920753000000000    0.750000000000000    0.467977000000000 
K           0.949447000000000    0.750000000000000    0.209539000000000 
K           0.970163000000000    0.750000000000000    0.782076000000000 
%ENDBLOCK POSITIONS_FRAC
