# Cell file generated by matador (Matthew Evans 2016)

%BLOCK LATTICE_CART
7.24663 0.0 0.0
-3.62332 6.27577 0.0
0.0 0.0 6.96168
%ENDBLOCK LATTICE_CART

%BLOCK POSITIONS_FRAC
P           0.198146000000000    0.099073000000000    0.000000000000000 
P           0.666667000000000    0.333333000000000    0.500000000000000 
P           0.900927000000000    0.099073000000000    0.000000000000000 
P           0.900927000000000    0.801854000000000    0.000000000000000 
K           0.015117000000000    0.507558000000000    0.194473000000000 
K           0.015117000000000    0.507558000000000    0.805527000000000 
K           0.492442000000000    0.507558000000000    0.194473000000000 
K           0.492442000000000    0.507558000000000    0.805527000000000 
K           0.492442000000000    0.984883000000000    0.194473000000000 
K           0.492442000000000    0.984883000000000    0.805527000000000 
K           0.666667000000000    0.333333000000000    0.000000000000000 
%ENDBLOCK POSITIONS_FRAC
