# Cell file generated by matador (Matthew Evans 2016)

%BLOCK LATTICE_CART
13.8949 0.0 0.0
-6.94747 12.0334 0.0
0.0 0.0 6.26983
%ENDBLOCK LATTICE_CART

%BLOCK POSITIONS_FRAC
P           0.000000000000000    0.000000000000000    0.250000000000000 
P           0.000000000000000    0.000000000000000    0.750000000000000 
P           0.333334000000000    0.666667000000000    0.250000000000000 
P           0.333334000000000    0.666667000000000    0.750000000000000 
P           0.666667000000000    0.333333000000000    0.250000000000000 
P           0.666667000000000    0.333333000000000    0.750000000000000 
K           0.000000000000000    0.825460000000000   -0.000000000000000 
K           0.000000000000000    0.825460000000000    0.500000000000000 
K           0.083096000000000    0.335678000000000    0.750000000000000 
K           0.099246000000000    0.630823000000000    0.250000000000000 
K           0.174540000000000    0.174540000000000   -0.000000000000000 
K           0.174540000000000    0.174540000000000    0.500000000000000 
K           0.252582000000000    0.916904000000000    0.750000000000000 
K           0.335678000000000    0.083096000000000    0.250000000000000 
K           0.369177000000000    0.468423000000000    0.250000000000000 
K           0.468423000000000    0.369177000000000    0.750000000000000 
K           0.531577000000000    0.900754000000000    0.250000000000000 
K           0.630823000000000    0.099246000000000    0.750000000000000 
K           0.664322000000000    0.747418000000000    0.750000000000000 
K           0.747418000000000    0.664322000000000    0.250000000000000 
K           0.825460000000000    0.000000000000000   -0.000000000000000 
K           0.825460000000000    0.000000000000000    0.500000000000000 
K           0.900754000000000    0.531577000000000    0.750000000000000 
K           0.916904000000000    0.252582000000000    0.250000000000000 
%ENDBLOCK POSITIONS_FRAC
