# Cell file generated by matador (Matthew Evans 2016)

%BLOCK LATTICE_CART
6.6673 0.0 0.0
-3.33365 5.77405 0.0
0.0 0.0 6.99952
%ENDBLOCK LATTICE_CART

%BLOCK POSITIONS_FRAC
P          -0.000000000000000    0.000000000000000    0.580799000000000 
P           0.333333000000000    0.666667000000000    0.730441000000000 
P           0.666666000000000    0.333334000000000    0.080684000000000 
P           0.666666000000000    0.333334000000000    0.521095000000000 
P           0.666666000000000    0.333334000000000    0.910936000000000 
K           0.333333000000000    0.666667000000000    0.105263000000000 
K           0.500906000000000    0.001812000000000    0.230247000000000 
K           0.500906000000000    0.499094000000000    0.230247000000000 
K           0.998188000000000    0.499094000000000    0.230247000000000 
%ENDBLOCK POSITIONS_FRAC
