# Cell file generated by matador (Matthew Evans 2016)

%BLOCK LATTICE_CART
8.57195 0.0 0.0
0.0 4.98042 0.0
2.64423 0.0 8.72923
%ENDBLOCK LATTICE_CART

%BLOCK POSITIONS_FRAC
P           0.150185000000000    0.286427000000000    0.305544000000000 
P           0.267799000000000    0.454921000000000    0.170530000000000 
P           0.301367000000000    0.646860000000000    0.594689000000000 
P           0.500000000000000    0.022099000000000    0.500000000000000 
P           0.698633000000000    0.646860000000000    0.405311000000000 
P           0.732201000000000    0.454921000000000    0.829470000000000 
P           0.849815000000000    0.286427000000000    0.694456000000000 
K           0.000000000000000    0.481362000000000    0.500000000000000 
K           0.000000000000000    0.764520000000000    0.000000000000000 
K           0.084117000000000    0.861362000000000    0.623684000000000 
K           0.352293000000000    0.091808000000000    0.329915000000000 
K           0.647707000000000    0.091808000000000    0.670085000000000 
K           0.915883000000000    0.861362000000000    0.376316000000000 
%ENDBLOCK POSITIONS_FRAC
