# Cell file generated by matador (Matthew Evans 2016)

%BLOCK LATTICE_CART
7.06013 0.0 0.0
-3.53007 6.11425 0.0
0.0 0.0 5.16765
%ENDBLOCK LATTICE_CART

%BLOCK POSITIONS_FRAC
P           0.000000000000000    0.000000000000000    0.040238000000000 
P           0.000000000000000    0.000000000000000    0.502974000000000 
P           0.666667000000000    0.333333000000000    0.207330000000000 
P           0.666667000000000    0.333333000000000    0.562883000000000 
K           0.072071000000000    0.593130000000000    0.419564000000000 
K           0.406870000000000    0.478941000000000    0.419564000000000 
K           0.521059000000000    0.927929000000000    0.419564000000000 
%ENDBLOCK POSITIONS_FRAC
