# Cell file generated by matador (Matthew Evans 2016)

%BLOCK LATTICE_CART
11.4194 0.0 0.0
0.0 11.4194 0.0
0.0 0.0 6.90249
%ENDBLOCK LATTICE_CART

%BLOCK POSITIONS_FRAC
P           0.000000000000000    0.000000000000000    0.500000000000000 
P           0.000000000000000    0.500000000000000    0.000000000000000 
P           0.000000000000000    0.500000000000000    0.500000000000000 
P           0.500000000000000    0.000000000000000    0.000000000000000 
P           0.500000000000000    0.000000000000000    0.500000000000000 
P           0.500000000000000    0.500000000000000    0.000000000000000 
K           0.000000000000000    0.000000000000000    0.000000000000000 
K           0.004292000000000    0.773388000000000    0.500000000000000 
K           0.226612000000000    0.004292000000000    0.500000000000000 
K           0.230361000000000    0.233167000000000    0.000000000000000 
K           0.233167000000000    0.769639000000000    0.000000000000000 
K           0.266833000000000    0.269639000000000    0.500000000000000 
K           0.269639000000000    0.733167000000000    0.500000000000000 
K           0.273388000000000    0.504292000000000    0.000000000000000 
K           0.495708000000000    0.273388000000000    0.000000000000000 
K           0.500000000000000    0.500000000000000    0.500000000000000 
K           0.504292000000000    0.726612000000000    0.000000000000000 
K           0.726612000000000    0.495708000000000    0.000000000000000 
K           0.730361000000000    0.266833000000000    0.500000000000000 
K           0.733167000000000    0.730361000000000    0.500000000000000 
K           0.766833000000000    0.230361000000000    0.000000000000000 
K           0.769639000000000    0.766833000000000    0.000000000000000 
K           0.773388000000000    0.995708000000000    0.500000000000000 
K           0.995708000000000    0.226612000000000    0.500000000000000 
%ENDBLOCK POSITIONS_FRAC
