# Cell file generated by matador (Matthew Evans 2016)

%BLOCK LATTICE_CART
6.72567 0.0 0.0
0.0 9.79859 0.0
0.0 0.0 8.96889
%ENDBLOCK LATTICE_CART

%BLOCK POSITIONS_FRAC
P           0.000000000000000    0.000000000000000    0.057271000000000 
P           0.097540000000000    0.714699000000000    0.345325000000000 
P           0.402460000000000    0.214699000000000    0.345325000000000 
P           0.500000000000000    0.500000000000000    0.057271000000000 
P           0.597540000000000    0.785301000000000    0.345325000000000 
P           0.902460000000000    0.285301000000000    0.345325000000000 
K           0.000000000000000    0.000000000000000    0.730662000000000 
K           0.000000000000000    0.500000000000000    0.300564000000000 
K           0.144186000000000    0.717449000000000    0.755103000000000 
K           0.190253000000000    0.215377000000000    0.083248000000000 
K           0.309747000000000    0.715377000000000    0.083248000000000 
K           0.355814000000000    0.217449000000000    0.755103000000000 
K           0.500000000000000    0.000000000000000    0.300564000000000 
K           0.500000000000000    0.500000000000000    0.730662000000000 
K           0.644186000000000    0.782551000000000    0.755103000000000 
K           0.690253000000000    0.284623000000000    0.083248000000000 
K           0.809747000000000    0.784623000000000    0.083248000000000 
K           0.855814000000000    0.282551000000000    0.755103000000000 
%ENDBLOCK POSITIONS_FRAC
