# Cell file generated by matador (Matthew Evans 2016)

%BLOCK LATTICE_CART
6.40007 0.0 0.0
-3.20004 5.54263 0.0
0.0 0.0 5.43758
%ENDBLOCK LATTICE_CART

%BLOCK POSITIONS_FRAC
P          -0.000000000000000    0.000000000000000    0.178533000000000 
P          -0.000000000000000    0.000000000000000    0.821467000000000 
P           0.122379000000000    0.244759000000000    0.000000000000000 
P           0.122379000000000    0.877621000000000    0.000000000000000 
P           0.755241000000000    0.877621000000000    0.000000000000000 
K           0.333333000000000    0.666667000000000    0.500000000000000 
K           0.666666000000000    0.333334000000000    0.000000000000000 
%ENDBLOCK POSITIONS_FRAC
