# Cell file generated by matador (Matthew Evans 2016)

%BLOCK LATTICE_CART
11.0442 0.0 0.0
0.0 4.74734 0.0
-4.21957 0.0 11.7018
%ENDBLOCK LATTICE_CART

%BLOCK POSITIONS_FRAC
P           0.500000000000000    0.000000000000000    0.000000000000000 
P           0.500000000000000    0.000000000000000    0.500000000000000 
K           0.000000000000000    0.500000000000000    0.000000000000000 
K           0.000000000000000    0.500000000000000    0.500000000000000 
K           0.223318000000000    0.136020000000000    0.296794000000000 
K           0.223318000000000    0.863980000000000    0.796794000000000 
K           0.278262000000000    0.497152000000000    0.500409000000000 
K           0.278262000000000    0.502848000000000    0.000409000000000 
K           0.500000000000000    0.426431000000000    0.750000000000000 
K           0.500000000000000    0.500000000000000    0.000000000000000 
K           0.500000000000000    0.500000000000000    0.500000000000000 
K           0.500000000000000    0.573569000000000    0.250000000000000 
K           0.721738000000000    0.497152000000000    0.999591000000000 
K           0.721738000000000    0.502848000000000    0.499591000000000 
K           0.776682000000000    0.136020000000000    0.203206000000000 
K           0.776682000000000    0.863980000000000    0.703206000000000 
%ENDBLOCK POSITIONS_FRAC
