# Cell file generated by matador (Matthew Evans 2016)

%BLOCK LATTICE_CART
6.90545 0.0 0.0
-3.45272 5.98029 0.0
0.0 0.0 9.47587
%ENDBLOCK LATTICE_CART

%BLOCK POSITIONS_FRAC
P           0.000000000000000   -0.000000000000000    0.000000000000000 
P           0.000000000000000   -0.000000000000000    0.107060000000000 
P           0.000000000000000   -0.000000000000000    0.892940000000000 
P           0.333333000000000    0.666667000000000    0.559607000000000 
P           0.333333000000000    0.666667000000000    0.666667000000000 
P           0.333333000000000    0.666667000000000    0.773727000000000 
P           0.666667000000000    0.333333000000000    0.226273000000000 
P           0.666667000000000    0.333333000000000    0.333333000000000 
P           0.666667000000000    0.333333000000000    0.440393000000000 
K           0.000000000000000   -0.000000000000000    0.500000000000000 
K           0.333333000000000    0.666667000000000    0.166667000000000 
K           0.666667000000000    0.333333000000000    0.833333000000000 
%ENDBLOCK POSITIONS_FRAC
