# Cell file generated by matador (Matthew Evans 2016)

%BLOCK LATTICE_CART
9.15168 0.0 0.0
-4.57584 7.92559 0.0
0.0 0.0 7.16971
%ENDBLOCK LATTICE_CART

%BLOCK POSITIONS_FRAC
P           0.000000000000000    0.000000000000000    0.500000000000000 
P           0.057292000000000    0.419106000000000    0.359165000000000 
P           0.057292000000000    0.419106000000000    0.640835000000000 
P           0.333333000000000    0.666667000000000    0.000000000000000 
P           0.333333000000000    0.666667000000000    0.500000000000000 
P           0.361814000000000    0.942708000000000    0.359165000000000 
P           0.361814000000000    0.942708000000000    0.640835000000000 
P           0.580894000000000    0.638186000000000    0.359165000000000 
P           0.580894000000000    0.638186000000000    0.640835000000000 
P           0.666667000000000    0.333333000000000    0.000000000000000 
K           0.000000000000000    0.000000000000000    0.000000000000000 
K           0.251051000000000    0.103349000000000    0.000000000000000 
K           0.511608000000000    0.454331000000000    0.000000000000000 
K           0.545669000000000    0.057276000000000    0.000000000000000 
K           0.666667000000000    0.333333000000000    0.500000000000000 
K           0.852298000000000    0.748949000000000    0.000000000000000 
K           0.896651000000000    0.147702000000000    0.000000000000000 
K           0.942724000000000    0.488392000000000    0.000000000000000 
%ENDBLOCK POSITIONS_FRAC
