# Cell file generated by matador (Matthew Evans 2016)

%BLOCK LATTICE_CART
6.07139 0.0 0.0
0.0 6.82838 0.0
0.569152 0.0 9.10486
%ENDBLOCK LATTICE_CART

%BLOCK POSITIONS_FRAC
P           0.153662000000000    0.618752000000000    0.462222000000000 
P           0.209676000000000    0.093532000000000    0.039927000000000 
P           0.500000000000000    0.022989000000000    0.500000000000000 
P           0.790324000000000    0.093532000000000    0.960073000000000 
P           0.846338000000000    0.618752000000000    0.537778000000000 
K           0.000000000000000    0.130426000000000    0.500000000000000 
K           0.198345000000000    0.559772000000000    0.846657000000000 
K           0.243764000000000    0.938675000000000    0.720925000000000 
K           0.500000000000000    0.436237000000000   -0.000000000000000 
K           0.756236000000000    0.938675000000000    0.279075000000000 
K           0.801655000000000    0.559772000000000    0.153343000000000 
%ENDBLOCK POSITIONS_FRAC
