# Cell file generated by matador (Matthew Evans 2016)

%BLOCK LATTICE_CART
9.56531 0.0 0.0
-4.78265 8.2838 0.0
0.0 0.0 12.9457
%ENDBLOCK LATTICE_CART

%BLOCK POSITIONS_FRAC
P           0.000000000000000    0.000000000000000    0.444428000000000 
P           0.000000000000000    0.500000000000000    0.765619000000000 
P           0.333333000000000    0.666667000000000    0.503564000000000 
P           0.500000000000000    0.000000000000000    0.765619000000000 
P           0.500000000000000    0.500000000000000    0.765619000000000 
P           0.666667000000000    0.333333000000000    0.503564000000000 
K           0.000000000000000    0.000000000000000    0.719072000000000 
K           0.000000000000000    0.316817000000000    0.007460000000000 
K           0.000000000000000    0.324782000000000    0.513341000000000 
K           0.000000000000000    0.500000000000000    0.283416000000000 
K           0.000000000000000    0.675218000000000    0.513341000000000 
K           0.000000000000000    0.683183000000000    0.007460000000000 
K           0.316817000000000    0.000000000000000    0.007460000000000 
K           0.316817000000000    0.316817000000000    0.007460000000000 
K           0.324782000000000    0.000000000000000    0.513341000000000 
K           0.324782000000000    0.324782000000000    0.513341000000000 
K           0.333333000000000    0.666667000000000    0.868988000000000 
K           0.500000000000000    0.000000000000000    0.283416000000000 
K           0.500000000000000    0.500000000000000    0.283416000000000 
K           0.666667000000000    0.333333000000000    0.868988000000000 
K           0.675218000000000    0.000000000000000    0.513341000000000 
K           0.675218000000000    0.675218000000000    0.513341000000000 
K           0.683183000000000    0.000000000000000    0.007460000000000 
K           0.683183000000000    0.683183000000000    0.007460000000000 
%ENDBLOCK POSITIONS_FRAC
