# Cell file generated by matador (Matthew Evans 2016)

%BLOCK LATTICE_CART
6.27836 -0.0 0.0
-3.13918 5.43722 0.0
0.0 0.0 5.94492
%ENDBLOCK LATTICE_CART

%BLOCK POSITIONS_FRAC
P           0.333333000000000    0.666667000000000    0.477695000000000 
K           0.022766000000000    0.813968000000000    0.263407000000000 
K           0.186032000000000    0.208800000000000    0.263407000000000 
K           0.666666000000000    0.333334000000000    0.857550000000000 
K           0.791200000000000    0.977234000000000    0.263407000000000 
%ENDBLOCK POSITIONS_FRAC
