# Cell file generated by matador (Matthew Evans 2016)

%BLOCK LATTICE_CART
6.75983 0.0 0.0
0.0 6.75983 0.0
0.0 0.0 15.0818
%ENDBLOCK LATTICE_CART

%BLOCK POSITIONS_FRAC
P           0.247736000000000    0.500000000000000    0.533022000000000 
P           0.500000000000000    0.247736000000000    0.533022000000000 
P           0.500000000000000    0.752264000000000    0.533022000000000 
P           0.752264000000000    0.500000000000000    0.533022000000000 
K           0.248475000000000    0.248475000000000    0.862290000000000 
K           0.248475000000000    0.751525000000000    0.862290000000000 
K           0.252519000000000    0.252519000000000    0.109007000000000 
K           0.252519000000000    0.747481000000000    0.109007000000000 
K           0.253883000000000    0.253883000000000    0.445671000000000 
K           0.253883000000000    0.746117000000000    0.445671000000000 
K           0.746117000000000    0.253883000000000    0.445671000000000 
K           0.746117000000000    0.746117000000000    0.445671000000000 
K           0.747481000000000    0.252519000000000    0.109007000000000 
K           0.747481000000000    0.747481000000000    0.109007000000000 
K           0.751525000000000    0.248475000000000    0.862290000000000 
K           0.751525000000000    0.751525000000000    0.862290000000000 
%ENDBLOCK POSITIONS_FRAC
