# Cell file generated by matador (Matthew Evans 2016)

%BLOCK LATTICE_CART
13.1113 0.0 0.0
0.0 8.97303 0.0
0.0 0.0 11.8343
%ENDBLOCK LATTICE_CART

%BLOCK POSITIONS_FRAC
P           0.351409000000000    0.190240000000000    0.288409000000000 
P           0.351409000000000    0.190240000000000    0.711591000000000 
P           0.351409000000000    0.809760000000000    0.288409000000000 
P           0.351409000000000    0.809760000000000    0.711591000000000 
P           0.648591000000000    0.190240000000000    0.288409000000000 
P           0.648591000000000    0.190240000000000    0.711591000000000 
P           0.648591000000000    0.809760000000000    0.288409000000000 
P           0.648591000000000    0.809760000000000    0.711591000000000 
K           0.000000000000000    0.333224000000000    0.165441000000000 
K           0.000000000000000    0.333224000000000    0.834559000000000 
K           0.000000000000000    0.666776000000000    0.165441000000000 
K           0.000000000000000    0.666776000000000    0.834559000000000 
K           0.113275000000000    0.297007000000000    0.500000000000000 
K           0.113275000000000    0.702993000000000    0.500000000000000 
K           0.130949000000000    0.166776000000000    0.000000000000000 
K           0.130949000000000    0.833224000000000    0.000000000000000 
K           0.336779000000000    0.272341000000000    0.500000000000000 
K           0.336779000000000    0.727659000000000    0.500000000000000 
K           0.353600000000000    0.000000000000000    0.123039000000000 
K           0.353600000000000    0.000000000000000    0.876961000000000 
K           0.386651000000000    0.000000000000000    0.370655000000000 
K           0.386651000000000    0.000000000000000    0.629345000000000 
K           0.613349000000000    0.000000000000000    0.370655000000000 
K           0.613349000000000    0.000000000000000    0.629345000000000 
K           0.646400000000000    0.000000000000000    0.123039000000000 
K           0.646400000000000    0.000000000000000    0.876961000000000 
K           0.663221000000000    0.272341000000000    0.500000000000000 
K           0.663221000000000    0.727659000000000    0.500000000000000 
K           0.869051000000000    0.166776000000000    0.000000000000000 
K           0.869051000000000    0.833224000000000    0.000000000000000 
K           0.886725000000000    0.297007000000000    0.500000000000000 
K           0.886725000000000    0.702993000000000    0.500000000000000 
%ENDBLOCK POSITIONS_FRAC
