# Cell file generated by matador (Matthew Evans 2016)

%BLOCK LATTICE_CART
8.17527 0.0 0.0
0.0 5.25744 0.0
0.0 0.0 7.72795
%ENDBLOCK LATTICE_CART

%BLOCK POSITIONS_FRAC
P           0.500000000000000    0.000000000000000    0.829574000000000 
P           0.500000000000000    0.500000000000000    0.329574000000000 
K           0.000000000000000    0.000000000000000    0.983292000000000 
K           0.000000000000000    0.500000000000000    0.483292000000000 
K           0.278175000000000    0.000000000000000    0.342329000000000 
K           0.278175000000000    0.500000000000000    0.842329000000000 
K           0.721825000000000    0.000000000000000    0.342329000000000 
K           0.721825000000000    0.500000000000000    0.842329000000000 
%ENDBLOCK POSITIONS_FRAC
