# Cell file generated by matador (Matthew Evans 2016)

%BLOCK LATTICE_CART
8.4975 0.0 0.0
0.0 8.4975 0.0
0.0 0.0 8.4975
%ENDBLOCK LATTICE_CART

%BLOCK POSITIONS_FRAC
P           0.000000000000000    0.000000000000000    0.000000000000000 
P           0.088902000000000    0.088902000000000    0.911098000000000 
P           0.088902000000000    0.911098000000000    0.088902000000000 
P           0.411098000000000    0.411098000000000    0.588902000000000 
P           0.411098000000000    0.588902000000000    0.411098000000000 
P           0.500000000000000    0.500000000000000    0.500000000000000 
P           0.588902000000000    0.411098000000000    0.411098000000000 
P           0.588902000000000    0.588902000000000    0.588902000000000 
P           0.911098000000000    0.088902000000000    0.088902000000000 
P           0.911098000000000    0.911098000000000    0.911098000000000 
K           0.250000000000000    0.250000000000000    0.250000000000000 
K           0.250000000000000    0.250000000000000    0.750000000000000 
K           0.250000000000000    0.750000000000000    0.250000000000000 
K           0.250000000000000    0.750000000000000    0.750000000000000 
K           0.750000000000000    0.250000000000000    0.250000000000000 
K           0.750000000000000    0.250000000000000    0.750000000000000 
K           0.750000000000000    0.750000000000000    0.250000000000000 
K           0.750000000000000    0.750000000000000    0.750000000000000 
%ENDBLOCK POSITIONS_FRAC
