# Cell file generated by matador (Matthew Evans 2016)

%BLOCK LATTICE_CART
9.0389 0.0 0.0
-4.51945 7.82792 0.0
0.0 0.0 6.34144
%ENDBLOCK LATTICE_CART

%BLOCK POSITIONS_FRAC
P           0.243849000000000    0.621925000000000    0.500000000000000 
P           0.378075000000000    0.621925000000000    0.833333000000000 
P           0.378075000000000    0.756151000000000    0.166667000000000 
K           0.207907000000000    0.415814000000000    0.666667000000000 
K           0.207907000000000    0.792093000000000    0.333333000000000 
K           0.235102000000000    0.470204000000000    0.166667000000000 
K           0.235102000000000    0.764898000000000    0.833333000000000 
K           0.529796000000000    0.764898000000000    0.500000000000000 
K           0.583672000000000    0.167344000000000    0.666667000000000 
K           0.583672000000000    0.416328000000000    0.333333000000000 
K           0.584186000000000    0.792093000000000    0.000000000000000 
K           0.832656000000000    0.416328000000000    0.000000000000000 
%ENDBLOCK POSITIONS_FRAC
