# Cell file generated by matador (Matthew Evans 2016)

%BLOCK LATTICE_CART
9.57233 0.0 0.0
0.0 6.35225 0.0
-0.319244 0.0 7.57306
%ENDBLOCK LATTICE_CART

%BLOCK POSITIONS_FRAC
P           0.355475000000000    0.500000000000000    0.800511000000000 
P           0.855475000000000    0.000000000000000    0.800511000000000 
K           0.002254000000000    0.000000000000000    0.599020000000000 
K           0.079568000000000    0.500000000000000    0.282430000000000 
K           0.097549000000000    0.500000000000000    0.712124000000000 
K           0.227517000000000    0.000000000000000    0.917503000000000 
K           0.234976000000000    0.000000000000000    0.429972000000000 
K           0.387323000000000    0.500000000000000    0.191886000000000 
K           0.387860000000000    0.000000000000000    0.686683000000000 
K           0.502254000000000    0.500000000000000    0.599020000000000 
K           0.579568000000000    0.000000000000000    0.282430000000000 
K           0.597549000000000    0.000000000000000    0.712124000000000 
K           0.727517000000000    0.500000000000000    0.917503000000000 
K           0.734976000000000    0.500000000000000    0.429972000000000 
K           0.887323000000000    0.000000000000000    0.191886000000000 
K           0.887860000000000    0.500000000000000    0.686683000000000 
%ENDBLOCK POSITIONS_FRAC
