# Cell file generated by matador (Matthew Evans 2016)

%BLOCK LATTICE_CART
6.83767 0.0 0.0
0.0 6.83767 0.0
0.0 0.0 6.69945
%ENDBLOCK LATTICE_CART

%BLOCK POSITIONS_FRAC
P           0.000000000000000    0.000000000000000    0.000000000000000 
P           0.308192000000000    0.499530000000000    0.232038000000000 
P           0.308192000000000    0.500470000000000    0.767962000000000 
P           0.499530000000000    0.308192000000000    0.232038000000000 
P           0.499530000000000    0.691808000000000    0.767962000000000 
P           0.500000000000000    0.500000000000000    0.500000000000000 
P           0.500470000000000    0.308192000000000    0.767962000000000 
P           0.500470000000000    0.691808000000000    0.232038000000000 
P           0.691808000000000    0.499530000000000    0.767962000000000 
P           0.691808000000000    0.500470000000000    0.232038000000000 
K           0.000000000000000    0.000000000000000    0.500000000000000 
K           0.500000000000000    0.500000000000000    0.000000000000000 
%ENDBLOCK POSITIONS_FRAC
