# Cell file generated by matador (Matthew Evans 2016)

%BLOCK LATTICE_CART
8.2995 0.0 0.0
-4.14975 7.18758 0.0
0.0 0.0 10.2092
%ENDBLOCK LATTICE_CART

%BLOCK POSITIONS_FRAC
P           0.000000000000000    0.000000000000000    0.250000000000000 
P           0.000000000000000    0.000000000000000    0.750000000000000 
P           0.003777000000000    0.501888000000000    0.750000000000000 
P           0.142628000000000    0.285255000000000    0.750000000000000 
P           0.142628000000000    0.857372000000000    0.750000000000000 
P           0.285255000000000    0.142628000000000    0.250000000000000 
P           0.498112000000000    0.501888000000000    0.750000000000000 
P           0.498112000000000    0.996223000000000    0.750000000000000 
P           0.501888000000000    0.003777000000000    0.250000000000000 
P           0.501888000000000    0.498112000000000    0.250000000000000 
P           0.714745000000000    0.857372000000000    0.750000000000000 
P           0.857372000000000    0.142628000000000    0.250000000000000 
P           0.857372000000000    0.714745000000000    0.250000000000000 
P           0.996223000000000    0.498112000000000    0.250000000000000 
K           0.000000000000000    0.000000000000000    0.000000000000000 
K           0.000000000000000    0.000000000000000    0.500000000000000 
K           0.333333000000000    0.666667000000000    0.250000000000000 
K           0.333333000000000    0.666667000000000    0.750000000000000 
K           0.666667000000000    0.333333000000000    0.250000000000000 
K           0.666667000000000    0.333333000000000    0.750000000000000 
%ENDBLOCK POSITIONS_FRAC
