# Cell file generated by matador (Matthew Evans 2016)

%BLOCK LATTICE_CART
7.96705 0.0 0.0
-3.98353 6.89967 0.0
0.0 0.0 7.85639
%ENDBLOCK LATTICE_CART

%BLOCK POSITIONS_FRAC
P           0.000000000000000    0.000000000000000    0.486990000000000 
P           0.333333000000000    0.666667000000000    0.153656000000000 
P           0.666667000000000    0.333333000000000    0.820323000000000 
K           0.172593000000000    0.345186000000000    0.912551000000000 
K           0.172593000000000    0.827407000000000    0.912551000000000 
K           0.321481000000000    0.160740000000000    0.245884000000000 
K           0.505926000000000    0.011853000000000    0.579218000000000 
K           0.505926000000000    0.494074000000000    0.579218000000000 
K           0.654814000000000    0.827407000000000    0.912551000000000 
K           0.839260000000000    0.160740000000000    0.245884000000000 
K           0.839260000000000    0.678519000000000    0.245884000000000 
K           0.988147000000000    0.494074000000000    0.579218000000000 
%ENDBLOCK POSITIONS_FRAC
