# Cell file generated by matador (Matthew Evans 2016)

%BLOCK LATTICE_CART
6.11225 0.0 0.0
0.0 6.94111 0.0
0.623121 0.0 5.42837
%ENDBLOCK LATTICE_CART

%BLOCK POSITIONS_FRAC
P           0.224168000000000    0.763548000000000    0.086832000000000 
P           0.278730000000000    0.238776000000000    0.235091000000000 
P           0.328629000000000    0.428912000000000    0.874710000000000 
P           0.425669000000000    0.327801000000000    0.720620000000000 
P           0.574331000000000    0.827801000000000    0.279380000000000 
P           0.671371000000000    0.928912000000000    0.125290000000000 
P           0.721270000000000    0.738776000000000    0.764909000000000 
P           0.775832000000000    0.263548000000000    0.913168000000000 
K           0.154210000000000    0.118421000000000    0.607849000000000 
K           0.845790000000000    0.618421000000000    0.392151000000000 
%ENDBLOCK POSITIONS_FRAC
