# Cell file generated by matador (Matthew Evans 2016)

%BLOCK LATTICE_CART
6.27881 0.0 0.0
4.0324 7.40732 0.0
1.46503 -2.81362 8.88155
%ENDBLOCK LATTICE_CART

%BLOCK POSITIONS_FRAC
P           0.058605000000000    0.249930000000000    0.053883000000000 
P           0.064704000000000    0.312041000000000    0.444890000000000 
P           0.163894000000000    0.917609000000000    0.610155000000000 
P           0.238959000000000    0.417049000000000    0.075327000000000 
P           0.254020000000000    0.530059000000000    0.700068000000000 
P           0.272134000000000    0.568674000000000    0.913024000000000 
P           0.362303000000000    0.825287000000000    0.779167000000000 
P           0.491338000000000    0.880604000000000    0.565953000000000 
P           0.508662000000000    0.119396000000000    0.434047000000000 
P           0.637697000000000    0.174713000000000    0.220833000000000 
P           0.727866000000000    0.431326000000000    0.086976000000000 
P           0.745980000000000    0.469941000000000    0.299932000000000 
P           0.761041000000000    0.582951000000000    0.924673000000000 
P           0.836106000000000    0.082391000000000    0.389845000000000 
P           0.935296000000000    0.687959000000000    0.555110000000000 
P           0.941395000000000    0.750070000000000    0.946117000000000 
K           0.383149000000000    0.743899000000000    0.343557000000000 
K           0.467816000000000    0.834813000000000    0.130407000000000 
K           0.532184000000000    0.165187000000000    0.869593000000000 
K           0.616851000000000    0.256101000000000    0.656443000000000 
%ENDBLOCK POSITIONS_FRAC
