# Cell file generated by matador (Matthew Evans 2016)

%BLOCK LATTICE_CART
5.63363 0.0 0.0
-2.81682 4.87887 0.0
0.0 0.0 17.1863
%ENDBLOCK LATTICE_CART

%BLOCK POSITIONS_FRAC
P           0.000000000000000    0.000000000000000    0.500000000000000 
P           0.000000000000000    0.500000000000000    0.500000000000000 
P           0.500000000000000    0.000000000000000    0.500000000000000 
P           0.500000000000000    0.500000000000000    0.500000000000000 
K           0.000000000000000    0.000000000000000    0.000000000000000 
K           0.000000000000000    0.500000000000000    0.000000000000000 
K           0.333333000000000    0.666667000000000    0.274233000000000 
K           0.333333000000000    0.666667000000000    0.725767000000000 
K           0.500000000000000    0.000000000000000    0.000000000000000 
K           0.500000000000000    0.500000000000000    0.000000000000000 
K           0.666667000000000    0.333333000000000    0.274233000000000 
K           0.666667000000000    0.333333000000000    0.725767000000000 
%ENDBLOCK POSITIONS_FRAC
