# Cell file generated by matador (Matthew Evans 2016)

%BLOCK LATTICE_CART
6.79219 0.0 0.0
-3.39609 5.88221 0.0
0.0 0.0 6.2528
%ENDBLOCK LATTICE_CART

%BLOCK POSITIONS_FRAC
P           0.219649000000000    0.525930000000000    0.085856000000000 
P           0.306279000000000    0.780351000000000    0.085856000000000 
P           0.333333000000000    0.666667000000000    0.675995000000000 
P           0.474070000000000    0.693721000000000    0.085856000000000 
P           0.525929000000000    0.219650000000000    0.585856000000000 
P           0.666666000000000    0.333334000000000    0.175995000000000 
P           0.693720000000000    0.474071000000000    0.585856000000000 
P           0.780350000000000    0.306280000000000    0.585856000000000 
K           0.333333000000000    0.666667000000000    0.373033000000000 
K           0.666666000000000    0.333334000000000    0.873033000000000 
%ENDBLOCK POSITIONS_FRAC
