# Cell file generated by matador (Matthew Evans 2016)

%BLOCK LATTICE_CART
11.6932 0.0 0.0
-5.8466 10.1266 0.0
0.0 0.0 10.9957
%ENDBLOCK LATTICE_CART

%BLOCK POSITIONS_FRAC
P           0.000000000000000    0.000000000000000    0.000000000000000 
P           0.000000000000000    0.000000000000000    0.500000000000000 
P           0.333333000000000    0.666667000000000    0.000000000000000 
P           0.333333000000000    0.666667000000000    0.250000000000000 
P           0.333333000000000    0.666667000000000    0.500000000000000 
P           0.333333000000000    0.666667000000000    0.750000000000000 
P           0.666667000000000    0.333333000000000    0.250000000000000 
P           0.666667000000000    0.333333000000000    0.750000000000000 
K           0.107936000000000    0.235811000000000    0.250000000000000 
K           0.107936000000000    0.872124000000000    0.750000000000000 
K           0.127876000000000    0.235811000000000    0.750000000000000 
K           0.127876000000000    0.892064000000000    0.250000000000000 
K           0.154012000000000    0.508634000000000    0.250000000000000 
K           0.154012000000000    0.645378000000000    0.750000000000000 
K           0.331054000000000    0.157714000000000    0.750000000000000 
K           0.331054000000000    0.173340000000000    0.250000000000000 
K           0.354622000000000    0.508634000000000    0.750000000000000 
K           0.354622000000000    0.845988000000000    0.250000000000000 
K           0.491366000000000    0.645378000000000    0.250000000000000 
K           0.491366000000000    0.845988000000000    0.750000000000000 
K           0.556631000000000    0.125742000000000    0.250000000000000 
K           0.556631000000000    0.430889000000000    0.750000000000000 
K           0.569111000000000    0.125742000000000    0.750000000000000 
K           0.569111000000000    0.443369000000000    0.250000000000000 
K           0.764189000000000    0.872124000000000    0.250000000000000 
K           0.764189000000000    0.892064000000000    0.750000000000000 
K           0.826660000000000    0.157714000000000    0.250000000000000 
K           0.826660000000000    0.668946000000000    0.750000000000000 
K           0.842286000000000    0.173340000000000    0.750000000000000 
K           0.842286000000000    0.668946000000000    0.250000000000000 
K           0.874258000000000    0.430889000000000    0.250000000000000 
K           0.874258000000000    0.443369000000000    0.750000000000000 
%ENDBLOCK POSITIONS_FRAC
