# Cell file generated by matador (Matthew Evans 2016)

%BLOCK LATTICE_CART
8.13822 0.0 0.0
-4.06911 7.04791 0.0
0.0 0.0 7.88803
%ENDBLOCK LATTICE_CART

%BLOCK POSITIONS_FRAC
P           0.000001000000000    0.000001000000000    0.134678000000000 
P           0.000001000000000    0.000001000000000    0.365322000000000 
P           0.000001000000000    0.000001000000000    0.634678000000000 
P           0.000001000000000    0.000001000000000    0.865322000000000 
P           0.144338000000000    0.288675000000000    0.750000000000000 
P           0.144338000000000    0.855664000000000    0.750000000000000 
P           0.288675000000000    0.144338000000000    0.250000000000000 
P           0.333334000000000    0.666668000000000    0.503548000000000 
P           0.333334000000000    0.666668000000000    0.996452000000000 
P           0.666668000000000    0.333334000000000    0.003548000000000 
P           0.666668000000000    0.333334000000000    0.496452000000000 
P           0.711327000000000    0.855664000000000    0.750000000000000 
P           0.855664000000000    0.144338000000000    0.250000000000000 
P           0.855664000000000    0.711327000000000    0.250000000000000 
K           0.333334000000000    0.666668000000000    0.250000000000000 
K           0.333334000000000    0.666668000000000    0.750000000000000 
K           0.666668000000000    0.333334000000000    0.250000000000000 
K           0.666668000000000    0.333334000000000    0.750000000000000 
%ENDBLOCK POSITIONS_FRAC
