# Cell file generated by matador (Matthew Evans 2016)

%BLOCK LATTICE_CART
5.51017 0.0 0.0
-2.75509 4.77195 0.0
0.0 0.0 6.6738
%ENDBLOCK LATTICE_CART

%BLOCK POSITIONS_FRAC
P          -0.000000000000000   -0.000000000000000    0.500000000000000 
P           0.333333000000000    0.666667000000000    0.312775000000000 
P           0.333333000000000    0.666667000000000    0.687225000000000 
P           0.666667000000000    0.333333000000000    0.312775000000000 
P           0.666667000000000    0.333333000000000    0.687225000000000 
K          -0.000000000000000    0.500000000000000    0.500000000000000 
K           0.500000000000000   -0.000000000000000    0.500000000000000 
K           0.500000000000000    0.500000000000000    0.500000000000000 
%ENDBLOCK POSITIONS_FRAC
