# Cell file generated by matador (Matthew Evans 2016)

%BLOCK LATTICE_CART
7.4816 0.0 0.0
0.0 7.4816 0.0
0.0 0.0 7.4816
%ENDBLOCK LATTICE_CART

%BLOCK POSITIONS_FRAC
P           0.000000000000000    0.000000000000000    0.000000000000000 
P           0.095661000000000    0.095661000000000    0.095661000000000 
P           0.095661000000000    0.904339000000000    0.904339000000000 
P           0.404339000000000    0.404339000000000    0.404339000000000 
P           0.404339000000000    0.595661000000000    0.595661000000000 
P           0.500000000000000    0.500000000000000    0.500000000000000 
P           0.595661000000000    0.404339000000000    0.595661000000000 
P           0.595661000000000    0.595661000000000    0.404339000000000 
P           0.904339000000000    0.095661000000000    0.904339000000000 
P           0.904339000000000    0.904339000000000    0.095661000000000 
K           0.250000000000000    0.250000000000000    0.250000000000000 
K           0.250000000000000    0.750000000000000    0.750000000000000 
K           0.750000000000000    0.250000000000000    0.750000000000000 
K           0.750000000000000    0.750000000000000    0.250000000000000 
%ENDBLOCK POSITIONS_FRAC
