# Cell file generated by matador (Matthew Evans 2016)

%BLOCK LATTICE_CART
7.73884 0.0 0.0
0.0 5.68685 0.0
0.57763 0.0 6.51381
%ENDBLOCK LATTICE_CART

%BLOCK POSITIONS_FRAC
P           0.057386000000000    0.126018000000000    0.022213000000000 
P           0.182798000000000    0.888735000000000    0.608135000000000 
P           0.272599000000000    0.147041000000000    0.750370000000000 
P           0.309524000000000    0.090383000000000    0.907721000000000 
P           0.340139000000000    0.852977000000000    0.963772000000000 
P           0.659861000000000    0.352977000000000    0.036228000000000 
P           0.690476000000000    0.590383000000000    0.092279000000000 
P           0.727401000000000    0.647041000000000    0.249630000000000 
P           0.817202000000000    0.388735000000000    0.391865000000000 
P           0.942614000000000    0.626018000000000    0.977787000000000 
K           0.202119000000000    0.431050000000000    0.355473000000000 
K           0.797881000000000    0.931050000000000    0.644527000000000 
%ENDBLOCK POSITIONS_FRAC
