# Cell file generated by matador (Matthew Evans 2016)

%BLOCK LATTICE_CART
7.59287 0.0 0.0
-3.79643 6.57562 0.0
0.0 0.0 7.45018
%ENDBLOCK LATTICE_CART

%BLOCK POSITIONS_FRAC
P           0.126302000000000    0.321906000000000    0.491255000000000 
P           0.158413000000000    0.621471000000000    0.661757000000000 
P           0.195604000000000    0.873698000000000    0.491255000000000 
P           0.378529000000000    0.536944000000000    0.661757000000000 
P           0.452157000000000    0.260151000000000    0.691077000000000 
P           0.455799000000000    0.407456000000000    0.912876000000000 
P           0.463056000000000    0.841587000000000    0.661757000000000 
P           0.592544000000000    0.048343000000000    0.912876000000000 
P           0.678094000000000    0.804396000000000    0.491255000000000 
P           0.739849000000000    0.192006000000000    0.691077000000000 
P           0.807994000000000    0.547843000000000    0.691077000000000 
P           0.951657000000000    0.544201000000000    0.912876000000000 
K           0.333333000000000    0.666667000000000    0.141125000000000 
K           0.666666000000000    0.333334000000000    0.030375000000000 
%ENDBLOCK POSITIONS_FRAC
