# Cell file generated by matador (Matthew Evans 2016)

%BLOCK LATTICE_CART
10.0092 0.0 0.0
-5.00462 8.66825 0.0
0.0 0.0 5.75327
%ENDBLOCK LATTICE_CART

%BLOCK POSITIONS_FRAC
P           0.000000000000000    0.190620000000000    0.481754000000000 
P           0.000000000000000    0.809380000000000    0.481754000000000 
P           0.190620000000000    0.000000000000000    0.481754000000000 
P           0.190620000000000    0.190620000000000    0.481754000000000 
P           0.809380000000000    0.000000000000000    0.481754000000000 
P           0.809380000000000    0.809380000000000    0.481754000000000 
K           0.248845000000000    0.497690000000000    0.034412000000000 
K           0.248845000000000    0.751155000000000    0.034412000000000 
K           0.333333000000000    0.666667000000000    0.539494000000000 
K           0.497690000000000    0.248845000000000    0.034412000000000 
K           0.502310000000000    0.751155000000000    0.034412000000000 
K           0.666667000000000    0.333333000000000    0.539494000000000 
K           0.751155000000000    0.248845000000000    0.034412000000000 
K           0.751155000000000    0.502310000000000    0.034412000000000 
%ENDBLOCK POSITIONS_FRAC
