# Cell file generated by matador (Matthew Evans 2016)

%BLOCK LATTICE_CART
11.2793 0.0 0.0
0.0 7.3391 0.0
0.0 0.0 11.9668
%ENDBLOCK LATTICE_CART

%BLOCK POSITIONS_FRAC
P           0.000000000000000   -0.000000000000000    0.374985000000000 
P           0.000000000000000    0.182491000000000    0.170808000000000 
P           0.000000000000000    0.817509000000000    0.170808000000000 
P           0.500000000000000    0.317509000000000    0.170808000000000 
P           0.500000000000000    0.500000000000000    0.374985000000000 
P           0.500000000000000    0.682491000000000    0.170808000000000 
K           0.000000000000000    0.269753000000000    0.723148000000000 
K           0.000000000000000    0.500000000000000    0.259343000000000 
K           0.000000000000000    0.730247000000000    0.723148000000000 
K           0.156693000000000   -0.000000000000000    0.908056000000000 
K           0.250000000000000    0.250000000000000    0.098097000000000 
K           0.250000000000000    0.250000000000000    0.388792000000000 
K           0.250000000000000    0.750000000000000    0.098097000000000 
K           0.250000000000000    0.750000000000000    0.388792000000000 
K           0.343307000000000    0.500000000000000    0.908056000000000 
K           0.500000000000000   -0.000000000000000    0.259343000000000 
K           0.500000000000000    0.230247000000000    0.723148000000000 
K           0.500000000000000    0.769753000000000    0.723148000000000 
K           0.656693000000000    0.500000000000000    0.908056000000000 
K           0.750000000000000    0.250000000000000    0.098097000000000 
K           0.750000000000000    0.250000000000000    0.388792000000000 
K           0.750000000000000    0.750000000000000    0.098097000000000 
K           0.750000000000000    0.750000000000000    0.388792000000000 
K           0.843307000000000   -0.000000000000000    0.908056000000000 
%ENDBLOCK POSITIONS_FRAC
