# Cell file generated by matador (Matthew Evans 2016)

%BLOCK LATTICE_CART
7.2465 0.0 0.0
0.0 7.2465 0.0
0.0 0.0 12.7967
%ENDBLOCK LATTICE_CART

%BLOCK POSITIONS_FRAC
P          -0.000000000000000    0.224004000000000   -0.000000000000000 
P          -0.000000000000000    0.775996000000000   -0.000000000000000 
P           0.224004000000000    0.000000000000000   -0.000000000000000 
P           0.275996000000000    0.500000000000000    0.500000000000000 
P           0.500000000000000    0.275996000000000    0.500000000000000 
P           0.500000000000000    0.724004000000000    0.500000000000000 
P           0.724004000000000    0.500000000000000    0.500000000000000 
P           0.775996000000000    0.000000000000000   -0.000000000000000 
K          -0.000000000000000    0.000000000000000    0.211526000000000 
K          -0.000000000000000    0.000000000000000    0.500000000000000 
K          -0.000000000000000    0.000000000000000    0.788474000000000 
K          -0.000000000000000    0.500000000000000   -0.000000000000000 
K          -0.000000000000000    0.500000000000000    0.500000000000000 
K           0.500000000000000    0.000000000000000   -0.000000000000000 
K           0.500000000000000    0.000000000000000    0.500000000000000 
K           0.500000000000000    0.500000000000000   -0.000000000000000 
K           0.500000000000000    0.500000000000000    0.288474000000000 
K           0.500000000000000    0.500000000000000    0.711526000000000 
%ENDBLOCK POSITIONS_FRAC
