# Cell file generated by matador (Matthew Evans 2016)

%BLOCK LATTICE_CART
7.78131 0.0 0.0
0.0 5.06174 0.0
-0.74311 0.0 8.41532
%ENDBLOCK LATTICE_CART

%BLOCK POSITIONS_FRAC
P           0.043210000000000    0.068647000000000    0.526750000000000 
P           0.043210000000000    0.931353000000000    0.026750000000000 
P           0.129717000000000    0.399658000000000    0.841322000000000 
P           0.129717000000000    0.600342000000000    0.341322000000000 
P           0.173951000000000    0.418563000000000    0.462399000000000 
P           0.173951000000000    0.581437000000000    0.962399000000000 
P           0.688818000000000    0.135361000000000    0.695419000000000 
P           0.688818000000000    0.864639000000000    0.195419000000000 
P           0.842908000000000    0.036976000000000    0.466779000000000 
P           0.842908000000000    0.963024000000000    0.966779000000000 
K           0.201792000000000    0.080797000000000    0.239643000000000 
K           0.201792000000000    0.919203000000000    0.739643000000000 
%ENDBLOCK POSITIONS_FRAC
