# Cell file generated by matador (Matthew Evans 2016)

%BLOCK LATTICE_CART
7.16397 0.0 0.0
0.0 4.29827 0.0
1.75693 0.0 7.29334
%ENDBLOCK LATTICE_CART

%BLOCK POSITIONS_FRAC
P           0.438678000000000    0.382161000000000    0.826284000000000 
P           0.438678000000000    0.617839000000000    0.826284000000000 
K           0.097901000000000   -0.000000000000000    0.191986000000000 
K           0.139785000000000   -0.000000000000000    0.783619000000000 
K           0.680214000000000   -0.000000000000000    0.625922000000000 
K           0.695865000000000    0.251929000000000    0.235877000000000 
K           0.695865000000000    0.748071000000000    0.235877000000000 
K           0.945387000000000    0.500000000000000    0.915103000000000 
%ENDBLOCK POSITIONS_FRAC
