# Cell file generated by matador (Matthew Evans 2016)

%BLOCK LATTICE_CART
8.84345 0.0 0.0
-4.42173 7.65866 0.0
0.0 0.0 6.63038
%ENDBLOCK LATTICE_CART

%BLOCK POSITIONS_FRAC
P           0.333333000000000    0.666667000000000    0.120480000000000 
P           0.333333000000000    0.666667000000000    0.379520000000000 
P           0.333333000000000    0.666667000000000    0.620480000000000 
P           0.333333000000000    0.666667000000000    0.879520000000000 
P           0.666667000000000    0.333333000000000    0.120480000000000 
P           0.666667000000000    0.333333000000000    0.379520000000000 
P           0.666667000000000    0.333333000000000    0.620480000000000 
P           0.666667000000000    0.333333000000000    0.879520000000000 
K           0.000000000000000    0.500000000000000    0.250000000000000 
K           0.000000000000000    0.500000000000000    0.750000000000000 
K           0.500000000000000    0.000000000000000    0.250000000000000 
K           0.500000000000000    0.000000000000000    0.750000000000000 
K           0.500000000000000    0.500000000000000    0.250000000000000 
K           0.500000000000000    0.500000000000000    0.750000000000000 
%ENDBLOCK POSITIONS_FRAC
