# Cell file generated by matador (Matthew Evans 2016)

%BLOCK LATTICE_CART
6.19832 0.0 0.0
0.0 6.19832 0.0
0.0 0.0 8.76166
%ENDBLOCK LATTICE_CART

%BLOCK POSITIONS_FRAC
P           0.000000000000000    0.500000000000000    0.409441000000000 
P           0.000000000000000    0.500000000000000    0.532890000000000 
P           0.000000000000000    0.500000000000000    0.659766000000000 
P           0.500000000000000    0.000000000000000    0.409441000000000 
P           0.500000000000000    0.000000000000000    0.532890000000000 
P           0.500000000000000    0.000000000000000    0.659766000000000 
K           0.000000000000000    0.000000000000000    0.286114000000000 
K           0.268684000000000    0.723531000000000    0.728978000000000 
K           0.276469000000000    0.268684000000000    0.728978000000000 
K           0.723531000000000    0.731316000000000    0.728978000000000 
K           0.731316000000000    0.276469000000000    0.728978000000000 
%ENDBLOCK POSITIONS_FRAC
