# Cell file generated by matador (Matthew Evans 2016)

%BLOCK LATTICE_CART
9.3547 0.0 0.0
-4.67735 8.10141 0.0
0.0 0.0 13.0085
%ENDBLOCK LATTICE_CART

%BLOCK POSITIONS_FRAC
P          -0.000000000000000    0.362591000000000    0.000000000000000 
P          -0.000000000000000    0.362591000000000    0.500000000000000 
P           0.362591000000000   -0.000000000000000    0.000000000000000 
P           0.362591000000000   -0.000000000000000    0.500000000000000 
P           0.637409000000000    0.637409000000000    0.000000000000000 
P           0.637409000000000    0.637409000000000    0.500000000000000 
K          -0.000000000000000   -0.000000000000000    0.000000000000000 
K          -0.000000000000000   -0.000000000000000    0.250000000000000 
K          -0.000000000000000   -0.000000000000000    0.500000000000000 
K          -0.000000000000000   -0.000000000000000    0.750000000000000 
K           0.020183000000000    0.319495000000000    0.250000000000000 
K           0.023202000000000    0.689951000000000    0.750000000000000 
K           0.299312000000000    0.979817000000000    0.250000000000000 
K           0.310049000000000    0.333251000000000    0.750000000000000 
K           0.319495000000000    0.020183000000000    0.750000000000000 
K           0.333251000000000    0.310049000000000    0.250000000000000 
K           0.333333000000000    0.666667000000000    0.750000000000000 
K           0.666667000000000    0.333333000000000    0.250000000000000 
K           0.666749000000000    0.976798000000000    0.750000000000000 
K           0.680505000000000    0.700688000000000    0.250000000000000 
K           0.689951000000000    0.023202000000000    0.250000000000000 
K           0.700688000000000    0.680505000000000    0.750000000000000 
K           0.976798000000000    0.666749000000000    0.250000000000000 
K           0.979817000000000    0.299312000000000    0.750000000000000 
%ENDBLOCK POSITIONS_FRAC
