# Cell file generated by matador (Matthew Evans 2016)

%BLOCK LATTICE_CART
7.40223 0.0 0.0
-3.70112 6.41052 0.0
0.0 0.0 6.14502
%ENDBLOCK LATTICE_CART

%BLOCK POSITIONS_FRAC
P           0.000000000000000    0.383238000000000    0.987085000000000 
P           0.000000000000000    0.616762000000000    0.987085000000000 
P           0.383238000000000    0.000000000000000    0.987085000000000 
P           0.383238000000000    0.383238000000000    0.987085000000000 
P           0.616762000000000    0.000000000000000    0.987085000000000 
P           0.616762000000000    0.616762000000000    0.987085000000000 
K           0.000000000000000    0.500000000000000    0.393496000000000 
K           0.333333000000000    0.666667000000000    0.658500000000000 
K           0.500000000000000    0.000000000000000    0.393496000000000 
K           0.500000000000000    0.500000000000000    0.393496000000000 
K           0.666667000000000    0.333333000000000    0.658500000000000 
%ENDBLOCK POSITIONS_FRAC
