# Cell file generated by matador (Matthew Evans 2016)

%BLOCK LATTICE_CART
8.14453 0.0 0.0
0.0 8.83952 0.0
0.0 0.0 6.28665
%ENDBLOCK LATTICE_CART

%BLOCK POSITIONS_FRAC
P           0.000000000000000    0.500000000000000    0.726774000000000 
P           0.260448000000000    0.432528000000000    0.126219000000000 
P           0.260448000000000    0.567472000000000    0.126219000000000 
P           0.500000000000000    0.500000000000000    0.745126000000000 
P           0.739552000000000    0.432528000000000    0.126219000000000 
P           0.739552000000000    0.567472000000000    0.126219000000000 
K           0.303512000000000    0.000000000000000    0.858528000000000 
K           0.327082000000000    0.500000000000000    0.472761000000000 
K           0.500000000000000    0.158094000000000    0.914052000000000 
K           0.500000000000000    0.285197000000000    0.333427000000000 
K           0.500000000000000    0.714803000000000    0.333427000000000 
K           0.500000000000000    0.841906000000000    0.914052000000000 
K           0.672918000000000    0.500000000000000    0.472761000000000 
K           0.696488000000000    0.000000000000000    0.858528000000000 
%ENDBLOCK POSITIONS_FRAC
