# Cell file generated by matador (Matthew Evans 2016)

%BLOCK LATTICE_CART
9.76606 0.0 0.0
-4.88303 8.45765 0.0
0.0 0.0 10.4913
%ENDBLOCK LATTICE_CART

%BLOCK POSITIONS_FRAC
P           0.000000000000000    0.000000000000000    0.572880000000000 
P           0.084453000000000    0.542226000000000    0.546580000000000 
P           0.457774000000000    0.542226000000000    0.546580000000000 
P           0.457774000000000    0.915547000000000    0.546580000000000 
P           0.666667000000000    0.333333000000000    0.552389000000000 
K           0.175127000000000    0.350255000000000    0.371164000000000 
K           0.175127000000000    0.824873000000000    0.371164000000000 
K           0.216127000000000    0.432255000000000    0.967025000000000 
K           0.216127000000000    0.783873000000000    0.967025000000000 
K           0.229510000000000    0.114755000000000    0.201948000000000 
K           0.401749000000000    0.200875000000000    0.547592000000000 
K           0.554544000000000    0.109087000000000    0.952165000000000 
K           0.554544000000000    0.445456000000000    0.952165000000000 
K           0.567745000000000    0.783873000000000    0.967025000000000 
K           0.649745000000000    0.824873000000000    0.371164000000000 
K           0.799125000000000    0.200875000000000    0.547592000000000 
K           0.799125000000000    0.598251000000000    0.547592000000000 
K           0.885245000000000    0.114755000000000    0.201948000000000 
K           0.885245000000000    0.770490000000000    0.201948000000000 
K           0.890913000000000    0.445456000000000    0.952165000000000 
%ENDBLOCK POSITIONS_FRAC
