# Cell file generated by matador (Matthew Evans 2016)

%BLOCK LATTICE_CART
9.08381 -0.0 0.0
-4.54191 7.86681 0.0
0.0 0.0 7.69451
%ENDBLOCK LATTICE_CART

%BLOCK POSITIONS_FRAC
P           0.007527000000000    0.730976000000000    0.835299000000000 
P           0.025638000000000    0.173054000000000    0.286788000000000 
P           0.147415000000000    0.974362000000000    0.286788000000000 
P           0.269024000000000    0.276551000000000    0.835299000000000 
P           0.333333000000000    0.666667000000000    0.136071000000000 
P           0.401547000000000    0.308852000000000    0.412031000000000 
P           0.691148000000000    0.092695000000000    0.412031000000000 
P           0.723449000000000    0.992473000000000    0.835299000000000 
P           0.826946000000000    0.852585000000000    0.286788000000000 
P           0.907305000000000    0.598453000000000    0.412031000000000 
K           0.333333000000000    0.666667000000000    0.403224000000000 
K           0.443807000000000    0.146258000000000    0.895667000000000 
K           0.702451000000000    0.556193000000000    0.895667000000000 
K           0.853742000000000    0.297549000000000    0.895667000000000 
%ENDBLOCK POSITIONS_FRAC
