# Cell file generated by matador (Matthew Evans 2016)

%BLOCK LATTICE_CART
4.46893 0.0 0.0
0.0 4.46893 0.0
0.0 0.0 17.1714
%ENDBLOCK LATTICE_CART

%BLOCK POSITIONS_FRAC
P           0.000000000000000    0.000000000000000    0.000000000000000 
P           0.500000000000000    0.500000000000000    0.500000000000000 
K           0.000000000000000    0.000000000000000    0.500000000000000 
K           0.000000000000000    0.500000000000000    0.303198000000000 
K           0.000000000000000    0.500000000000000    0.803198000000000 
K           0.500000000000000    0.000000000000000    0.196802000000000 
K           0.500000000000000    0.000000000000000    0.696802000000000 
K           0.500000000000000    0.500000000000000    0.000000000000000 
%ENDBLOCK POSITIONS_FRAC
