# Cell file generated by matador (Matthew Evans 2016)

%BLOCK LATTICE_CART
6.73561 0.0 0.0
0.0772124 8.85577 0.0
-2.61624 1.11262 4.5208
%ENDBLOCK LATTICE_CART

%BLOCK POSITIONS_FRAC
P           0.000000000000000    0.000000000000000    0.000000000000000 
P           0.000000000000000    0.500000000000000    0.000000000000000 
P           0.000000000000000    0.500000000000000    0.500000000000000 
P           0.347420000000000    0.376801000000000    0.008453000000000 
P           0.434489000000000    0.988455000000000    0.829991000000000 
P           0.500000000000000    0.500000000000000    0.000000000000000 
P           0.565511000000000    0.011545000000000    0.170009000000000 
P           0.652580000000000    0.623199000000000    0.991547000000000 
K           0.000000000000000    0.000000000000000    0.500000000000000 
K           0.500000000000000    0.000000000000000    0.500000000000000 
%ENDBLOCK POSITIONS_FRAC
