# Cell file generated by matador (Matthew Evans 2016)

%BLOCK LATTICE_CART
7.60373 0.0 0.0
0.0 8.88485 0.0
0.0 0.0 5.03023
%ENDBLOCK LATTICE_CART

%BLOCK POSITIONS_FRAC
P           0.000000000000000    0.000000000000000    0.047165000000000 
P           0.000000000000000    0.000000000000000    0.804972000000000 
P           0.000000000000000    0.500000000000000    0.304972000000000 
P           0.000000000000000    0.500000000000000    0.547165000000000 
P           0.353561000000000    0.065202000000000    0.108456000000000 
P           0.353561000000000    0.434798000000000    0.608456000000000 
P           0.646439000000000    0.565202000000000    0.608456000000000 
P           0.646439000000000    0.934798000000000    0.108456000000000 
K           0.048578000000000    0.639944000000000    0.905806000000000 
K           0.048578000000000    0.860056000000000    0.405806000000000 
K           0.500000000000000    0.000000000000000    0.588194000000000 
K           0.500000000000000    0.500000000000000    0.088194000000000 
K           0.951422000000000    0.139944000000000    0.405806000000000 
K           0.951422000000000    0.360056000000000    0.905806000000000 
%ENDBLOCK POSITIONS_FRAC
