# Cell file generated by matador (Matthew Evans 2016)

%BLOCK LATTICE_CART
6.81011 -0.0 0.0
-3.40505 5.89773 0.0
0.0 0.0 10.1579
%ENDBLOCK LATTICE_CART

%BLOCK POSITIONS_FRAC
P           0.999999000000000    0.499999000000000    0.000000000000000 
P           0.999999000000000    0.499999000000000    0.500000000000000 
P           0.021665000000000    0.245716000000000    0.750000000000000 
P           0.224049000000000    0.978333000000000    0.750000000000000 
P           0.245716000000000    0.224049000000000    0.250000000000000 
P           0.499999000000000    0.999999000000000    0.000000000000000 
P           0.499999000000000    0.999999000000000    0.500000000000000 
P           0.499999000000000    0.499999000000000    0.000000000000000 
P           0.499999000000000    0.499999000000000    0.500000000000000 
P           0.754282000000000    0.775949000000000    0.750000000000000 
P           0.775949000000000    0.021665000000000    0.250000000000000 
P           0.978333000000000    0.754282000000000    0.250000000000000 
K           0.333332000000000    0.666666000000000    0.250000000000000 
K           0.333332000000000    0.666666000000000    0.750000000000000 
K           0.666666000000000    0.333332000000000    0.250000000000000 
K           0.666666000000000    0.333332000000000    0.750000000000000 
%ENDBLOCK POSITIONS_FRAC
