# Cell file generated by matador (Matthew Evans 2016)

%BLOCK LATTICE_CART
5.80601 0.0 0.0
0.0 7.10297 0.0
-0.127099 0.0 4.91284
%ENDBLOCK LATTICE_CART

%BLOCK POSITIONS_FRAC
P          -0.000000000000000    0.184423000000000    0.500000000000000 
P          -0.000000000000000    0.889117000000000    0.500000000000000 
P           0.500000000000000    0.076931000000000    0.000000000000000 
P           0.500000000000000    0.653432000000000    0.500000000000000 
K           0.120106000000000    0.477427000000000    0.671707000000000 
K           0.500000000000000    0.101370000000000    0.500000000000000 
K           0.879894000000000    0.477427000000000    0.328293000000000 
%ENDBLOCK POSITIONS_FRAC
