# Cell file generated by matador (Matthew Evans 2016)

%BLOCK LATTICE_CART
9.84527 0.0 0.0
-4.92263 8.52625 0.0
0.0 0.0 7.33823
%ENDBLOCK LATTICE_CART

%BLOCK POSITIONS_FRAC
P           0.333332000000000    0.666666000000000    0.000000000000000 
P           0.333332000000000    0.666666000000000    0.159318000000000 
P           0.333332000000000    0.666666000000000    0.500000000000000 
P           0.333332000000000    0.666666000000000    0.840682000000000 
P           0.666666000000000    0.333332000000000    0.000000000000000 
P           0.666666000000000    0.333332000000000    0.159318000000000 
P           0.666666000000000    0.333332000000000    0.500000000000000 
P           0.666666000000000    0.333332000000000    0.840682000000000 
K           0.999999000000000    0.999999000000000    0.000000000000000 
K           0.999999000000000    0.499999000000000    0.500000000000000 
K           0.025509000000000    0.719663000000000    0.500000000000000 
K           0.280335000000000    0.305845000000000    0.500000000000000 
K           0.305845000000000    0.025509000000000    0.500000000000000 
K           0.499999000000000    0.999999000000000    0.500000000000000 
K           0.499999000000000    0.499999000000000    0.500000000000000 
K           0.694153000000000    0.974489000000000    0.500000000000000 
K           0.719663000000000    0.694153000000000    0.500000000000000 
K           0.974489000000000    0.280335000000000    0.500000000000000 
%ENDBLOCK POSITIONS_FRAC
