# Cell file generated by matador (Matthew Evans 2016)

%BLOCK LATTICE_CART
8.4788 0.0 0.0
-4.2394 7.34286 0.0
0.0 0.0 8.11406
%ENDBLOCK LATTICE_CART

%BLOCK POSITIONS_FRAC
P           0.333333000000000    0.666667000000000    0.193373000000000 
P           0.333333000000000    0.666667000000000    0.500000000000000 
P           0.333333000000000    0.666667000000000    0.806627000000000 
P           0.566134000000000    0.132268000000000    0.000000000000000 
P           0.566134000000000    0.433866000000000    0.000000000000000 
P           0.867732000000000    0.433866000000000    0.000000000000000 
K           0.090985000000000    0.538390000000000    0.342238000000000 
K           0.090985000000000    0.552595000000000    0.657762000000000 
K           0.447405000000000    0.538390000000000    0.657762000000000 
K           0.447405000000000    0.909015000000000    0.342238000000000 
K           0.461610000000000    0.552595000000000    0.342238000000000 
K           0.461610000000000    0.909015000000000    0.657762000000000 
K           0.562797000000000    0.125596000000000    0.500000000000000 
K           0.562797000000000    0.437203000000000    0.500000000000000 
K           0.874404000000000    0.437203000000000    0.500000000000000 
%ENDBLOCK POSITIONS_FRAC
