# Cell file generated by matador (Matthew Evans 2016)

%BLOCK LATTICE_CART
14.6564 0.0 0.0
-7.32818 12.6928 0.0
0.0 0.0 6.64003
%ENDBLOCK LATTICE_CART

%BLOCK POSITIONS_FRAC
P           0.000000000000000    0.394743000000000    0.000000000000000 
P           0.000000000000000    0.605257000000000    0.000000000000000 
P           0.333333000000000    0.666667000000000    0.827450000000000 
P           0.394743000000000    0.000000000000000    0.000000000000000 
P           0.394743000000000    0.394743000000000    0.000000000000000 
P           0.605257000000000    0.000000000000000    0.000000000000000 
P           0.605257000000000    0.605257000000000    0.000000000000000 
P           0.666667000000000    0.333333000000000    0.172550000000000 
K           0.141142000000000    0.570571000000000    0.486144000000000 
K           0.141731000000000    0.283461000000000    0.224352000000000 
K           0.141731000000000    0.858269000000000    0.224352000000000 
K           0.150325000000000    0.575162000000000    0.967817000000000 
K           0.175841000000000    0.351683000000000    0.758020000000000 
K           0.175841000000000    0.824159000000000    0.758020000000000 
K           0.283461000000000    0.141731000000000    0.775648000000000 
K           0.351683000000000    0.175841000000000    0.241980000000000 
K           0.424838000000000    0.575162000000000    0.967817000000000 
K           0.424838000000000    0.849675000000000    0.967817000000000 
K           0.429429000000000    0.570571000000000    0.486144000000000 
K           0.429429000000000    0.858858000000000    0.486144000000000 
K           0.570571000000000    0.141142000000000    0.513856000000000 
K           0.570571000000000    0.429429000000000    0.513856000000000 
K           0.575162000000000    0.150325000000000    0.032183000000000 
K           0.575162000000000    0.424838000000000    0.032183000000000 
K           0.648317000000000    0.824159000000000    0.758020000000000 
K           0.716539000000000    0.858269000000000    0.224352000000000 
K           0.824159000000000    0.175841000000000    0.241980000000000 
K           0.824159000000000    0.648317000000000    0.241980000000000 
K           0.849675000000000    0.424838000000000    0.032183000000000 
K           0.858269000000000    0.141731000000000    0.775648000000000 
K           0.858269000000000    0.716539000000000    0.775648000000000 
K           0.858858000000000    0.429429000000000    0.513856000000000 
%ENDBLOCK POSITIONS_FRAC
