# Cell file generated by matador (Matthew Evans 2016)

%BLOCK LATTICE_CART
10.1727 0.0 0.0
-5.08634 8.8098 0.0
0.0 0.0 6.25066
%ENDBLOCK LATTICE_CART

%BLOCK POSITIONS_FRAC
P           0.000000000000000    0.000000000000000    0.250000000000000 
P           0.000000000000000    0.000000000000000    0.750000000000000 
P           0.333333000000000    0.666667000000000    0.750000000000000 
P           0.666667000000000    0.333333000000000    0.250000000000000 
K           0.087599000000000    0.812949000000000    0.750000000000000 
K           0.120880000000000    0.438694000000000    0.250000000000000 
K           0.187051000000000    0.274650000000000    0.750000000000000 
K           0.274650000000000    0.187051000000000    0.250000000000000 
K           0.317814000000000    0.879120000000000    0.250000000000000 
K           0.438694000000000    0.120880000000000    0.750000000000000 
K           0.561306000000000    0.682186000000000    0.250000000000000 
K           0.682186000000000    0.561306000000000    0.750000000000000 
K           0.725350000000000    0.912401000000000    0.750000000000000 
K           0.812949000000000    0.087599000000000    0.250000000000000 
K           0.879120000000000    0.317814000000000    0.750000000000000 
K           0.912401000000000    0.725350000000000    0.250000000000000 
%ENDBLOCK POSITIONS_FRAC
