# Cell file generated by matador (Matthew Evans 2016)

%BLOCK LATTICE_CART
6.36655 0.0 0.0
0.0 6.36655 0.0
0.0 0.0 10.4286
%ENDBLOCK LATTICE_CART

%BLOCK POSITIONS_FRAC
P           0.000000000000000    0.000000000000000    0.281792000000000 
P           0.000000000000000    0.000000000000000    0.718208000000000 
P           0.500000000000000    0.500000000000000    0.314989000000000 
P           0.500000000000000    0.500000000000000    0.685011000000000 
K           0.000000000000000    0.000000000000000    0.000000000000000 
K           0.000000000000000    0.000000000000000    0.500000000000000 
K           0.000000000000000    0.500000000000000    0.477994000000000 
K           0.000000000000000    0.500000000000000    0.884623000000000 
K           0.500000000000000    0.000000000000000    0.115377000000000 
K           0.500000000000000    0.000000000000000    0.522006000000000 
K           0.500000000000000    0.500000000000000    0.500000000000000 
%ENDBLOCK POSITIONS_FRAC
