# Cell file generated by matador (Matthew Evans 2016)

%BLOCK LATTICE_CART
6.90505 0.0 0.0
0.0 6.90505 0.0
0.0 0.0 15.5557
%ENDBLOCK LATTICE_CART

%BLOCK POSITIONS_FRAC
P           0.000000000000000   -0.000000000000000   -0.000000000000000 
P           0.000000000000000    0.500000000000000    0.250000000000000 
P           0.000000000000000    0.500000000000000    0.750000000000000 
P           0.237375000000000    0.237375000000000    0.559781000000000 
P           0.237375000000000    0.762625000000000    0.440219000000000 
P           0.262625000000000    0.262625000000000    0.059781000000000 
P           0.262625000000000    0.737375000000000    0.940219000000000 
P           0.500000000000000   -0.000000000000000    0.250000000000000 
P           0.500000000000000   -0.000000000000000    0.750000000000000 
P           0.500000000000000    0.500000000000000    0.500000000000000 
P           0.737375000000000    0.262625000000000    0.940219000000000 
P           0.737375000000000    0.737375000000000    0.059781000000000 
P           0.762625000000000    0.237375000000000    0.440219000000000 
P           0.762625000000000    0.762625000000000    0.559781000000000 
K           0.000000000000000   -0.000000000000000    0.500000000000000 
K           0.000000000000000    0.500000000000000   -0.000000000000000 
K           0.000000000000000    0.500000000000000    0.500000000000000 
K           0.500000000000000   -0.000000000000000   -0.000000000000000 
K           0.500000000000000   -0.000000000000000    0.500000000000000 
K           0.500000000000000    0.500000000000000   -0.000000000000000 
%ENDBLOCK POSITIONS_FRAC
