# Cell file generated by matador (Matthew Evans 2016)

%BLOCK LATTICE_CART
8.02759 0.0 0.0
-4.0138 6.9521 0.0
0.0 0.0 5.21278
%ENDBLOCK LATTICE_CART

%BLOCK POSITIONS_FRAC
P           0.333332000000000    0.666666000000000    0.598487000000000 
P           0.666666000000000    0.333332000000000    0.598487000000000 
K           0.999999000000000    0.380734000000000    0.010390000000000 
K           0.999999000000000    0.751888000000000    0.370017000000000 
K           0.248110000000000    0.248110000000000    0.370017000000000 
K           0.380734000000000    0.999999000000000    0.010390000000000 
K           0.619264000000000    0.619264000000000    0.010390000000000 
K           0.751888000000000    0.999999000000000    0.370017000000000 
%ENDBLOCK POSITIONS_FRAC
