# Cell file generated by matador (Matthew Evans 2016)

%BLOCK LATTICE_CART
6.61439 0.0 0.0
-3.3072 5.72823 0.0
0.0 0.0 7.30835
%ENDBLOCK LATTICE_CART

%BLOCK POSITIONS_FRAC
P           0.395543000000000    0.197772000000000    0.000000000000000 
P           0.507081000000000    0.014162000000000    0.166667000000000 
P           0.507081000000000    0.492919000000000    0.833333000000000 
P           0.802228000000000    0.197772000000000    0.333333000000000 
P           0.802228000000000    0.604457000000000    0.666667000000000 
P           0.985838000000000    0.492919000000000    0.500000000000000 
K           0.236727000000000    0.473455000000000    0.666667000000000 
K           0.236727000000000    0.763273000000000    0.333333000000000 
K           0.526545000000000    0.763273000000000    0.000000000000000 
%ENDBLOCK POSITIONS_FRAC
