# Cell file generated by matador (Matthew Evans 2016)

%BLOCK LATTICE_CART
4.58657 0.0 0.0
-0.255514 10.4384 0.0
0.997706 0.635024 6.28482
%ENDBLOCK LATTICE_CART

%BLOCK POSITIONS_FRAC
P           0.000000000000000    0.500000000000000    0.000000000000000 
P           0.033342000000000    0.187843000000000    0.457942000000000 
P           0.142656000000000    0.497327000000000    0.166722000000000 
P           0.169248000000000    0.481458000000000    0.832995000000000 
P           0.348833000000000    0.844895000000000    0.565191000000000 
P           0.407245000000000    0.441076000000000    0.912400000000000 
P           0.500000000000000    0.000000000000000    0.000000000000000 
P           0.500000000000000    0.000000000000000    0.500000000000000 
P           0.500000000000000    0.500000000000000    0.000000000000000 
P           0.592755000000000    0.558924000000000    0.087600000000000 
P           0.651167000000000    0.155105000000000    0.434809000000000 
P           0.830752000000000    0.518542000000000    0.167005000000000 
P           0.857344000000000    0.502673000000000    0.833278000000000 
P           0.966658000000000    0.812157000000000    0.542058000000000 
K           0.096369000000000    0.916642000000000    0.076868000000000 
K           0.903631000000000    0.083358000000000    0.923132000000000 
%ENDBLOCK POSITIONS_FRAC
