# Cell file generated by matador (Matthew Evans 2016)

%BLOCK LATTICE_CART
7.79638 0.0 0.0
-3.89819 6.75186 0.0
0.0 0.0 8.77314
%ENDBLOCK LATTICE_CART

%BLOCK POSITIONS_FRAC
P          -0.000000000000000    0.000000000000000    0.427773000000000 
P           0.146482000000000    0.006031000000000    0.423574000000000 
P           0.192882000000000    0.520184000000000    0.090241000000000 
P           0.327302000000000    0.807118000000000    0.090241000000000 
P           0.333333000000000    0.666667000000000    0.094439000000000 
P           0.479816000000000    0.672698000000000    0.090241000000000 
P           0.526216000000000    0.186851000000000    0.756907000000000 
P           0.660635000000000    0.473784000000000    0.756907000000000 
P           0.666667000000000    0.333333000000000    0.761106000000000 
P           0.813149000000000    0.339365000000000    0.756907000000000 
P           0.859549000000000    0.853518000000000    0.423574000000000 
P           0.993969000000000    0.140451000000000    0.423574000000000 
K          -0.000000000000000    0.000000000000000    0.920033000000000 
K           0.333333000000000    0.666667000000000    0.586700000000000 
K           0.666667000000000    0.333333000000000    0.253366000000000 
%ENDBLOCK POSITIONS_FRAC
