# Cell file generated by matador (Matthew Evans 2016)

%BLOCK LATTICE_CART
6.63891 0.0 0.0
0.0 14.3571 0.0
-3.12883 0.0 5.42162
%ENDBLOCK LATTICE_CART

%BLOCK POSITIONS_FRAC
P           0.012812000000000    0.204859000000000    0.440613000000000 
P           0.012812000000000    0.795141000000000    0.940613000000000 
P           0.202256000000000    0.342755000000000    0.688317000000000 
P           0.202256000000000    0.657245000000000    0.188317000000000 
P           0.400616000000000    0.466768000000000    0.741570000000000 
P           0.400616000000000    0.533232000000000    0.241570000000000 
P           0.427130000000000    0.441634000000000    0.578201000000000 
P           0.427130000000000    0.558366000000000    0.078201000000000 
P           0.729539000000000    0.420418000000000    0.241684000000000 
P           0.729539000000000    0.579582000000000    0.741684000000000 
K           0.648523000000000    0.124007000000000    0.327735000000000 
K           0.648523000000000    0.875993000000000    0.827735000000000 
K           0.776833000000000    0.170161000000000    0.828312000000000 
K           0.776833000000000    0.829839000000000    0.328312000000000 
K           0.997359000000000    0.008898000000000    0.175563000000000 
K           0.997359000000000    0.991102000000000    0.675563000000000 
%ENDBLOCK POSITIONS_FRAC
