# Cell file generated by matador (Matthew Evans 2016)

%BLOCK LATTICE_CART
7.35197 0.0 0.0
-3.67599 6.36699 0.0
0.0 0.0 8.00388
%ENDBLOCK LATTICE_CART

%BLOCK POSITIONS_FRAC
P           0.000000000000000    0.000000000000000    0.000000000000000 
P           0.000000000000000    0.000000000000000    0.250121000000000 
P           0.000000000000000    0.000000000000000    0.749879000000000 
P           0.000000000000000    0.779510000000000    0.000000000000000 
P           0.220490000000000    0.220490000000000    0.000000000000000 
P           0.779510000000000    0.000000000000000    0.000000000000000 
K           0.000000000000000    0.000000000000000    0.500000000000000 
K           0.000000000000000    0.515955000000000    0.272926000000000 
K           0.000000000000000    0.515955000000000    0.727074000000000 
K           0.484045000000000    0.484045000000000    0.272926000000000 
K           0.484045000000000    0.484045000000000    0.727074000000000 
K           0.515955000000000    0.000000000000000    0.272926000000000 
K           0.515955000000000    0.000000000000000    0.727074000000000 
%ENDBLOCK POSITIONS_FRAC
