# Cell file generated by matador (Matthew Evans 2016)

%BLOCK LATTICE_CART
8.85474 0.0 0.0
0.0 8.85474 0.0
0.0 0.0 8.85474
%ENDBLOCK LATTICE_CART

%BLOCK POSITIONS_FRAC
P           0.000000000000000    0.000000000000000    0.500000000000000 
P           0.000000000000000    0.500000000000000    0.000000000000000 
P           0.000000000000000    0.500000000000000    0.500000000000000 
P           0.147952000000000    0.147952000000000    0.852048000000000 
P           0.147952000000000    0.852048000000000    0.147952000000000 
P           0.352048000000000    0.352048000000000    0.647952000000000 
P           0.352048000000000    0.647952000000000    0.352048000000000 
P           0.500000000000000    0.000000000000000    0.000000000000000 
P           0.500000000000000    0.000000000000000    0.500000000000000 
P           0.500000000000000    0.500000000000000    0.000000000000000 
P           0.647952000000000    0.352048000000000    0.352048000000000 
P           0.647952000000000    0.647952000000000    0.647952000000000 
P           0.852048000000000    0.147952000000000    0.147952000000000 
P           0.852048000000000    0.852048000000000    0.852048000000000 
K           0.000000000000000    0.000000000000000    0.000000000000000 
K           0.250000000000000    0.250000000000000    0.250000000000000 
K           0.250000000000000    0.750000000000000    0.750000000000000 
K           0.500000000000000    0.500000000000000    0.500000000000000 
K           0.750000000000000    0.250000000000000    0.750000000000000 
K           0.750000000000000    0.750000000000000    0.250000000000000 
%ENDBLOCK POSITIONS_FRAC
