# Cell file generated by matador (Matthew Evans 2016)

%BLOCK LATTICE_CART
8.26877 0.0 0.0
-4.13439 7.16097 0.0
0.0 0.0 7.90687
%ENDBLOCK LATTICE_CART

%BLOCK POSITIONS_FRAC
P           0.000000000000000    0.000000000000000    0.805367000000000 
P           0.333333000000000    0.666667000000000    0.284386000000000 
P           0.666667000000000    0.333333000000000    0.284386000000000 
K           0.000000000000000    0.500000000000000    0.138954000000000 
K           0.212211000000000    0.424422000000000    0.746841000000000 
K           0.212211000000000    0.787789000000000    0.746841000000000 
K           0.424422000000000    0.212211000000000    0.746841000000000 
K           0.500000000000000    0.000000000000000    0.138954000000000 
K           0.500000000000000    0.500000000000000    0.138954000000000 
K           0.575578000000000    0.787789000000000    0.746841000000000 
K           0.787789000000000    0.212211000000000    0.746841000000000 
K           0.787789000000000    0.575578000000000    0.746841000000000 
%ENDBLOCK POSITIONS_FRAC
