# Cell file generated by matador (Matthew Evans 2016)

%BLOCK LATTICE_CART
8.73798 0.0 0.0
-4.36899 7.56732 0.0
0.0 0.0 7.55121
%ENDBLOCK LATTICE_CART

%BLOCK POSITIONS_FRAC
P           0.000000000000000    0.595854000000000    0.500000000000000 
P           0.404146000000000    0.404146000000000    0.500000000000000 
P           0.595854000000000    0.000000000000000    0.500000000000000 
K           0.000000000000000    0.000000000000000    0.000000000000000 
K           0.000000000000000    0.611765000000000    0.208142000000000 
K           0.000000000000000    0.611765000000000    0.791858000000000 
K           0.333333000000000    0.666667000000000    0.500000000000000 
K           0.388235000000000    0.388235000000000    0.208142000000000 
K           0.388235000000000    0.388235000000000    0.791858000000000 
K           0.611765000000000    0.000000000000000    0.208142000000000 
K           0.611765000000000    0.000000000000000    0.791858000000000 
K           0.666667000000000    0.333333000000000    0.500000000000000 
%ENDBLOCK POSITIONS_FRAC
