# Cell file generated by matador (Matthew Evans 2016)

%BLOCK LATTICE_CART
7.22939 0.0 0.0
-3.61469 6.26083 0.0
0.0 0.0 6.65347
%ENDBLOCK LATTICE_CART

%BLOCK POSITIONS_FRAC
P           0.333333000000000    0.666667000000000    0.000000000000000 
P           0.666666000000000    0.333334000000000    0.000000000000000 
K          -0.000000000000000    0.329204000000000    0.621878000000000 
K          -0.000000000000000    0.670796000000000    0.378122000000000 
K           0.329204000000000    0.000000000000000    0.621878000000000 
K           0.329204000000000    0.329204000000000    0.378122000000000 
K           0.670796000000000    0.000000000000000    0.378122000000000 
K           0.670796000000000    0.670796000000000    0.621878000000000 
%ENDBLOCK POSITIONS_FRAC
