# Cell file generated by matador (Matthew Evans 2016)

%BLOCK LATTICE_CART
5.99786 0.0 0.0
0.0 6.3234 0.0
0.0 0.0 7.34607
%ENDBLOCK LATTICE_CART

%BLOCK POSITIONS_FRAC
P           0.500000000000000    0.309362000000000    0.500000000000000 
P           0.500000000000000    0.500000000000000    0.286041000000000 
P           0.500000000000000    0.500000000000000    0.713959000000000 
P           0.500000000000000    0.690638000000000    0.500000000000000 
K           0.000000000000000   -0.000000000000000    0.000000000000000 
K           0.000000000000000    0.500000000000000    0.000000000000000 
K           0.000000000000000    0.500000000000000    0.500000000000000 
K           0.500000000000000   -0.000000000000000    0.000000000000000 
K           0.500000000000000   -0.000000000000000    0.500000000000000 
K           0.500000000000000    0.500000000000000    0.000000000000000 
%ENDBLOCK POSITIONS_FRAC
