# Cell file generated by matador (Matthew Evans 2016)

%BLOCK LATTICE_CART
8.30617 0.0 0.0
-4.15308 7.19335 0.0
0.0 0.0 9.64963
%ENDBLOCK LATTICE_CART

%BLOCK POSITIONS_FRAC
P           0.000000000000000    0.000000000000000    0.188266000000000 
P           0.000000000000000    0.000000000000000    0.662017000000000 
P           0.333333000000000    0.666667000000000    0.328683000000000 
P           0.333333000000000    0.666667000000000    0.854933000000000 
P           0.666667000000000    0.333333000000000    0.521599000000000 
P           0.666667000000000    0.333333000000000    0.995350000000000 
K           0.074830000000000    0.379766000000000    0.212544000000000 
K           0.286901000000000    0.028397000000000    0.545878000000000 
K           0.304936000000000    0.925170000000000    0.212544000000000 
K           0.408163000000000    0.046433000000000    0.879211000000000 
K           0.620234000000000    0.695064000000000    0.212544000000000 
K           0.638270000000000    0.591837000000000    0.879211000000000 
K           0.741496000000000    0.713099000000000    0.545878000000000 
K           0.953567000000000    0.361730000000000    0.879211000000000 
K           0.971603000000000    0.258504000000000    0.545878000000000 
%ENDBLOCK POSITIONS_FRAC
