# Cell file generated by matador (Matthew Evans 2016)

%BLOCK LATTICE_CART
10.3262 0.0 0.0
-5.1631 8.94275 0.0
0.0 0.0 10.7215
%ENDBLOCK LATTICE_CART

%BLOCK POSITIONS_FRAC
P           0.000000000000000    0.000000000000000    0.367847000000000 
P           0.000000000000000    0.000000000000000    0.636961000000000 
P           0.333333000000000    0.666667000000000    0.034514000000000 
P           0.333333000000000    0.666667000000000    0.303627000000000 
P           0.666667000000000    0.333333000000000    0.701181000000000 
P           0.666667000000000    0.333333000000000    0.970294000000000 
K           0.019448000000000    0.509724000000000    0.486803000000000 
K           0.023475000000000    0.511737000000000    0.136979000000000 
K           0.154929000000000    0.309859000000000    0.470313000000000 
K           0.154929000000000    0.845071000000000    0.470313000000000 
K           0.156943000000000    0.313885000000000    0.820137000000000 
K           0.156943000000000    0.843057000000000    0.820137000000000 
K           0.352781000000000    0.176391000000000    0.153470000000000 
K           0.356808000000000    0.178404000000000    0.803646000000000 
K           0.488263000000000    0.511737000000000    0.136979000000000 
K           0.488263000000000    0.976525000000000    0.136979000000000 
K           0.490276000000000    0.509724000000000    0.486803000000000 
K           0.490276000000000    0.980552000000000    0.486803000000000 
K           0.686115000000000    0.843057000000000    0.820137000000000 
K           0.690141000000000    0.845071000000000    0.470313000000000 
K           0.821596000000000    0.178404000000000    0.803646000000000 
K           0.821596000000000    0.643192000000000    0.803646000000000 
K           0.823609000000000    0.176391000000000    0.153470000000000 
K           0.823609000000000    0.647219000000000    0.153470000000000 
%ENDBLOCK POSITIONS_FRAC
