# Cell file generated by matador (Matthew Evans 2016)

%BLOCK LATTICE_CART
7.81093 -0.0 0.0
-3.90546 6.76446 0.0
0.0 0.0 8.18209
%ENDBLOCK LATTICE_CART

%BLOCK POSITIONS_FRAC
P           0.263711000000000    0.144652000000000    0.109978000000000 
P           0.556210000000000    0.356363000000000    0.484746000000000 
P           0.643637000000000    0.199847000000000    0.484746000000000 
P           0.800153000000000    0.443790000000000    0.484746000000000 
P           0.855348000000000    0.119059000000000    0.109978000000000 
P           0.880941000000000    0.736289000000000    0.109978000000000 
K          -0.000000000000000   -0.000000000000000    0.963446000000000 
K           0.004916000000000    0.628654000000000    0.698466000000000 
K           0.195974000000000    0.078159000000000    0.380765000000000 
K           0.371346000000000    0.376262000000000    0.698466000000000 
K           0.623738000000000    0.995084000000000    0.698466000000000 
K           0.882185000000000    0.804026000000000    0.380765000000000 
K           0.921841000000000    0.117815000000000    0.380765000000000 
%ENDBLOCK POSITIONS_FRAC
