# Cell file generated by matador (Matthew Evans 2016)

%BLOCK LATTICE_CART
8.36135 0.0 0.0
-4.18068 7.24114 0.0
0.0 0.0 9.9735
%ENDBLOCK LATTICE_CART

%BLOCK POSITIONS_FRAC
P           0.333332000000000    0.666666000000000    0.084850000000000 
P           0.333332000000000    0.666666000000000    0.332738000000000 
P           0.666666000000000    0.333332000000000    0.584850000000000 
P           0.666666000000000    0.333332000000000    0.832738000000000 
K           0.052009000000000    0.526004000000000    0.188227000000000 
K           0.130817000000000    0.261635000000000    0.882112000000000 
K           0.130817000000000    0.869181000000000    0.882112000000000 
K           0.261635000000000    0.130817000000000    0.382112000000000 
K           0.473994000000000    0.526004000000000    0.188227000000000 
K           0.473994000000000    0.947989000000000    0.188227000000000 
K           0.526004000000000    0.052009000000000    0.688227000000000 
K           0.526004000000000    0.473994000000000    0.688227000000000 
K           0.738363000000000    0.869181000000000    0.882112000000000 
K           0.869181000000000    0.130817000000000    0.382112000000000 
K           0.869181000000000    0.738363000000000    0.382112000000000 
K           0.947989000000000    0.473994000000000    0.688227000000000 
%ENDBLOCK POSITIONS_FRAC
