# Cell file generated by matador (Matthew Evans 2016)

%BLOCK LATTICE_CART
6.05736 0.0 0.0
0.0 7.46225 0.0
-1.37863 0.0 8.16705
%ENDBLOCK LATTICE_CART

%BLOCK POSITIONS_FRAC
P           0.493033000000000    0.222694000000000    0.633863000000000 
P           0.493033000000000    0.277306000000000    0.133863000000000 
P           0.506967000000000    0.722694000000000    0.866137000000000 
P           0.506967000000000    0.777306000000000    0.366137000000000 
K           0.000000000000000    0.000000000000000    0.500000000000000 
K           0.000000000000000    0.500000000000000   -0.000000000000000 
K           0.500000000000000    0.000000000000000   -0.000000000000000 
K           0.500000000000000    0.000000000000000    0.500000000000000 
K           0.500000000000000    0.500000000000000   -0.000000000000000 
K           0.500000000000000    0.500000000000000    0.500000000000000 
%ENDBLOCK POSITIONS_FRAC
