# Cell file generated by matador (Matthew Evans 2016)

%BLOCK LATTICE_CART
9.12061 0.0 0.0
-4.5603 7.89868 0.0
0.0 0.0 6.71974
%ENDBLOCK LATTICE_CART

%BLOCK POSITIONS_FRAC
P           0.000000000000000    0.309565000000000    0.448964000000000 
P           0.000000000000000    0.628923000000000    0.934747000000000 
P           0.309565000000000    0.000000000000000    0.448964000000000 
P           0.371077000000000    0.371077000000000    0.934747000000000 
P           0.628923000000000    0.000000000000000    0.934747000000000 
P           0.690435000000000    0.690435000000000    0.448964000000000 
K           0.000000000000000    0.000000000000000    0.090719000000000 
K           0.214286000000000    0.436088000000000    0.704002000000000 
K           0.221801000000000    0.785714000000000    0.704002000000000 
K           0.436088000000000    0.214286000000000    0.704002000000000 
K           0.563912000000000    0.778199000000000    0.704002000000000 
K           0.778199000000000    0.563912000000000    0.704002000000000 
K           0.785714000000000    0.221801000000000    0.704002000000000 
%ENDBLOCK POSITIONS_FRAC
