# Cell file generated by matador (Matthew Evans 2016)

%BLOCK LATTICE_CART
7.44905 0.0 0.0
0.0 6.52238 0.0
3.78584 0.0 8.06798
%ENDBLOCK LATTICE_CART

%BLOCK POSITIONS_FRAC
P           0.086607000000000    0.573337000000000    0.550492000000000 
P           0.360647000000000    0.016410000000000    0.580052000000000 
P           0.393215000000000    0.793910000000000    0.035993000000000 
P           0.606785000000000    0.793910000000000    0.964007000000000 
P           0.639353000000000    0.016410000000000    0.419948000000000 
P           0.913393000000000    0.573337000000000    0.449508000000000 
K          -0.000000000000000    0.984988000000000    0.500000000000000 
K           0.235956000000000    0.210119000000000    0.836293000000000 
K           0.373439000000000    0.689169000000000    0.686941000000000 
K           0.500000000000000    0.499436000000000    0.000000000000000 
K           0.626561000000000    0.689169000000000    0.313059000000000 
K           0.764044000000000    0.210119000000000    0.163707000000000 
%ENDBLOCK POSITIONS_FRAC
