# Cell file generated by matador (Matthew Evans 2016)

%BLOCK LATTICE_CART
7.39051 0.0 0.0
0.0 12.0701 0.0
0.0 0.0 5.4739
%ENDBLOCK LATTICE_CART

%BLOCK POSITIONS_FRAC
P           0.000000000000000    0.179126000000000    0.250000000000000 
P           0.000000000000000    0.179126000000000    0.750000000000000 
P           0.000000000000000    0.820874000000000    0.250000000000000 
P           0.000000000000000    0.820874000000000    0.750000000000000 
P           0.308847000000000    0.000000000000000    0.250000000000000 
P           0.308847000000000    0.000000000000000    0.750000000000000 
P           0.500000000000000    0.500000000000000    0.107544000000000 
P           0.500000000000000    0.500000000000000    0.392456000000000 
P           0.500000000000000    0.500000000000000    0.607544000000000 
P           0.500000000000000    0.500000000000000    0.892456000000000 
P           0.691153000000000    0.000000000000000    0.250000000000000 
P           0.691153000000000    0.000000000000000    0.750000000000000 
K           0.000000000000000    0.500000000000000    0.250000000000000 
K           0.000000000000000    0.500000000000000    0.750000000000000 
%ENDBLOCK POSITIONS_FRAC
