# Cell file generated by matador (Matthew Evans 2016)

%BLOCK LATTICE_CART
11.8543 0.0 0.0
-5.92715 10.2661 0.0
0.0 0.0 9.53099
%ENDBLOCK LATTICE_CART

%BLOCK POSITIONS_FRAC
P           0.000000000000000    0.000000000000000    0.250000000000000 
P           0.000000000000000    0.000000000000000    0.750000000000000 
P           0.031815000000000    0.779679000000000    0.250000000000000 
P           0.220321000000000    0.252135000000000    0.250000000000000 
P           0.252135000000000    0.220321000000000    0.750000000000000 
P           0.747865000000000    0.968185000000000    0.250000000000000 
P           0.779679000000000    0.031815000000000    0.750000000000000 
P           0.968185000000000    0.747865000000000    0.750000000000000 
K           0.000000000000000    0.000000000000000   -0.000000000000000 
K           0.000000000000000    0.000000000000000    0.500000000000000 
K           0.053567000000000    0.577025000000000    0.250000000000000 
K           0.077610000000000    0.295743000000000    0.250000000000000 
K           0.167725000000000    0.789154000000000    0.750000000000000 
K           0.210846000000000    0.378571000000000    0.750000000000000 
K           0.218132000000000    0.922390000000000    0.250000000000000 
K           0.295743000000000    0.077610000000000    0.750000000000000 
K           0.333333000000000    0.666667000000000    0.250000000000000 
K           0.333333000000000    0.666667000000000    0.750000000000000 
K           0.378571000000000    0.210846000000000    0.250000000000000 
K           0.422975000000000    0.476542000000000    0.250000000000000 
K           0.476542000000000    0.422975000000000    0.750000000000000 
K           0.523458000000000    0.946433000000000    0.250000000000000 
K           0.577025000000000    0.053567000000000    0.750000000000000 
K           0.621429000000000    0.832275000000000    0.750000000000000 
K           0.666667000000000    0.333333000000000    0.250000000000000 
K           0.666667000000000    0.333333000000000    0.750000000000000 
K           0.704257000000000    0.781868000000000    0.250000000000000 
K           0.781868000000000    0.704257000000000    0.750000000000000 
K           0.789154000000000    0.167725000000000    0.250000000000000 
K           0.832275000000000    0.621429000000000    0.250000000000000 
K           0.922390000000000    0.218132000000000    0.750000000000000 
K           0.946433000000000    0.523458000000000    0.750000000000000 
%ENDBLOCK POSITIONS_FRAC
