# Cell file generated by matador (Matthew Evans 2016)

%BLOCK LATTICE_CART
8.20184 0.0 0.0
0.0 7.07582 0.0
0.0 0.0 9.27732
%ENDBLOCK LATTICE_CART

%BLOCK POSITIONS_FRAC
P           0.222520000000000    0.115625000000000    0.000000000000000 
P           0.222520000000000    0.884375000000000    0.000000000000000 
P           0.277480000000000    0.384375000000000    0.000000000000000 
P           0.277480000000000    0.615625000000000    0.000000000000000 
P           0.722520000000000    0.384375000000000    0.000000000000000 
P           0.722520000000000    0.615625000000000    0.000000000000000 
P           0.777480000000000    0.115625000000000    0.000000000000000 
P           0.777480000000000    0.884375000000000    0.000000000000000 
K           0.000000000000000    0.000000000000000    0.000000000000000 
K           0.000000000000000    0.500000000000000    0.000000000000000 
K           0.000000000000000    0.500000000000000    0.500000000000000 
K           0.500000000000000    0.000000000000000    0.000000000000000 
K           0.500000000000000    0.000000000000000    0.500000000000000 
K           0.500000000000000    0.500000000000000    0.000000000000000 
%ENDBLOCK POSITIONS_FRAC
