# Cell file generated by matador (Matthew Evans 2016)

%BLOCK LATTICE_CART
8.21455 0.0 0.0
-4.10728 7.11401 0.0
0.0 0.0 10.4694
%ENDBLOCK LATTICE_CART

%BLOCK POSITIONS_FRAC
P           0.333334000000000    0.666670000000000    0.261424000000000 
P           0.333334000000000    0.666670000000000    0.738576000000000 
P           0.666668000000000    0.333336000000000    0.261424000000000 
P           0.666668000000000    0.333336000000000    0.738576000000000 
K           0.000001000000000    0.522493000000000    0.285458000000000 
K           0.000001000000000    0.522493000000000    0.714542000000000 
K           0.202977000000000    0.789396000000000    0.500000000000000 
K           0.210608000000000    0.413585000000000    0.500000000000000 
K           0.413583000000000    0.210610000000000    0.500000000000000 
K           0.477511000000000    0.477513000000000    0.285458000000000 
K           0.477511000000000    0.477513000000000    0.714542000000000 
K           0.522491000000000    0.000003000000000    0.285458000000000 
K           0.522491000000000    0.000003000000000    0.714542000000000 
K           0.586419000000000    0.797027000000000    0.500000000000000 
K           0.789394000000000    0.202979000000000    0.500000000000000 
K           0.797025000000000    0.586421000000000    0.500000000000000 
%ENDBLOCK POSITIONS_FRAC
