# Cell file generated by matador (Matthew Evans 2016)

%BLOCK LATTICE_CART
6.9269 0.0 0.0
0.0 7.17508 0.0
0.0 0.0 8.12021
%ENDBLOCK LATTICE_CART

%BLOCK POSITIONS_FRAC
P           0.297576000000000    0.402729000000000    0.526910000000000 
P           0.297576000000000    0.597271000000000    0.526910000000000 
P           0.310431000000000    0.070977000000000    0.644388000000000 
P           0.310431000000000    0.929023000000000    0.644388000000000 
P           0.689569000000000    0.070977000000000    0.644388000000000 
P           0.689569000000000    0.929023000000000    0.644388000000000 
P           0.702424000000000    0.402729000000000    0.526910000000000 
P           0.702424000000000    0.597271000000000    0.526910000000000 
K           0.000000000000000    0.000000000000000    0.375349000000000 
K           0.000000000000000    0.153919000000000    0.972410000000000 
K           0.000000000000000    0.500000000000000    0.573320000000000 
K           0.000000000000000    0.846081000000000    0.972410000000000 
%ENDBLOCK POSITIONS_FRAC
