# Cell file generated by matador (Matthew Evans 2016)

%BLOCK LATTICE_CART
8.43941 0.0 0.0
-4.21971 7.30875 0.0
0.0 0.0 9.39577
%ENDBLOCK LATTICE_CART

%BLOCK POSITIONS_FRAC
P          -0.000000000000000    0.000000000000000    0.239711000000000 
P          -0.000000000000000    0.000000000000000    0.422675000000000 
P           0.333333000000000    0.666667000000000    0.089341000000000 
P           0.333333000000000    0.666667000000000    0.906378000000000 
P           0.666667000000000    0.333333000000000    0.573044000000000 
P           0.666667000000000    0.333333000000000    0.756008000000000 
K           0.199245000000000    0.398491000000000    0.640548000000000 
K           0.199245000000000    0.800755000000000    0.640548000000000 
K           0.268176000000000    0.134088000000000    0.973881000000000 
K           0.532579000000000    0.065157000000000    0.307214000000000 
K           0.532579000000000    0.467421000000000    0.307214000000000 
K           0.601509000000000    0.800755000000000    0.640548000000000 
K           0.865912000000000    0.134088000000000    0.973881000000000 
K           0.865912000000000    0.731824000000000    0.973881000000000 
K           0.934843000000000    0.467421000000000    0.307214000000000 
%ENDBLOCK POSITIONS_FRAC
