# Cell file generated by matador (Matthew Evans 2016)

%BLOCK LATTICE_CART
7.85887 0.0 0.0
-3.92943 6.80598 0.0
0.0 0.0 8.27847
%ENDBLOCK LATTICE_CART

%BLOCK POSITIONS_FRAC
P           0.000000000000000    0.500000000000000    0.500000000000000 
P           0.500000000000000    0.000000000000000    0.500000000000000 
P           0.500000000000000    0.500000000000000    0.500000000000000 
K           0.000000000000000    0.500000000000000    0.000000000000000 
K           0.125773000000000    0.251547000000000    0.171741000000000 
K           0.125773000000000    0.874227000000000    0.171741000000000 
K           0.251547000000000    0.125773000000000    0.828259000000000 
K           0.500000000000000    0.000000000000000    0.000000000000000 
K           0.500000000000000    0.500000000000000    0.000000000000000 
K           0.748453000000000    0.874227000000000    0.171741000000000 
K           0.874227000000000    0.125773000000000    0.828259000000000 
K           0.874227000000000    0.748453000000000    0.828259000000000 
%ENDBLOCK POSITIONS_FRAC
