# Cell file generated by matador (Matthew Evans 2016)

%BLOCK LATTICE_CART
6.38997 0.0 0.0
0.0 6.38997 0.0
0.0 0.0 16.5739
%ENDBLOCK LATTICE_CART

%BLOCK POSITIONS_FRAC
P          -0.000000000000000   -0.000000000000000    0.209107000000000 
P          -0.000000000000000   -0.000000000000000    0.790893000000000 
P           0.500000000000000    0.500000000000000    0.290893000000000 
P           0.500000000000000    0.500000000000000    0.709107000000000 
K          -0.000000000000000    0.264087000000000    0.918463000000000 
K          -0.000000000000000    0.500000000000000    0.250000000000000 
K          -0.000000000000000    0.500000000000000    0.750000000000000 
K          -0.000000000000000    0.735913000000000    0.918463000000000 
K           0.235913000000000    0.500000000000000    0.581537000000000 
K           0.264087000000000   -0.000000000000000    0.081537000000000 
K           0.500000000000000   -0.000000000000000    0.250000000000000 
K           0.500000000000000   -0.000000000000000    0.750000000000000 
K           0.500000000000000    0.235913000000000    0.418463000000000 
K           0.500000000000000    0.764087000000000    0.418463000000000 
K           0.735913000000000   -0.000000000000000    0.081537000000000 
K           0.764087000000000    0.500000000000000    0.581537000000000 
%ENDBLOCK POSITIONS_FRAC
