# Cell file generated by matador (Matthew Evans 2016)

%BLOCK LATTICE_CART
4.69454 0.0 0.0
0.0 7.48379 0.0
-0.93593 0.0 8.24361
%ENDBLOCK LATTICE_CART

%BLOCK POSITIONS_FRAC
P           0.456745000000000    0.300015000000000    0.847360000000000 
P           0.456745000000000    0.699985000000000    0.847360000000000 
P           0.652619000000000    0.110314000000000    0.787868000000000 
P           0.652619000000000    0.889686000000000    0.787868000000000 
P           0.795984000000000    0.000000000000000    0.153856000000000 
P           0.852601000000000    0.099341000000000    0.312027000000000 
P           0.852601000000000    0.900659000000000    0.312027000000000 
K           0.158924000000000    0.500000000000000    0.112562000000000 
K           0.191514000000000    0.317448000000000    0.581550000000000 
K           0.191514000000000    0.682552000000000    0.581550000000000 
K           0.232093000000000    0.000000000000000    0.049500000000000 
K           0.716600000000000    0.500000000000000    0.353166000000000 
K           0.737493000000000    0.500000000000000    0.717195000000000 
%ENDBLOCK POSITIONS_FRAC
