# Cell file generated by matador (Matthew Evans 2016)

%BLOCK LATTICE_CART
6.12498 0.0 0.0
0.0 6.12498 0.0
0.0 0.0 6.12498
%ENDBLOCK LATTICE_CART

%BLOCK POSITIONS_FRAC
P           0.058532000000000    0.058532000000000    0.941468000000000 
P           0.058532000000000    0.941468000000000    0.058532000000000 
P           0.941468000000000    0.058532000000000    0.058532000000000 
P           0.941468000000000    0.941468000000000    0.941468000000000 
K           0.000000000000000    0.500000000000000    0.500000000000000 
K           0.500000000000000    0.000000000000000    0.500000000000000 
K           0.500000000000000    0.500000000000000    0.000000000000000 
%ENDBLOCK POSITIONS_FRAC
