# Cell file generated by matador (Matthew Evans 2016)

%BLOCK LATTICE_CART
8.73223 0.0 0.0
-4.36611 7.56233 0.0
0.0 0.0 19.8255
%ENDBLOCK LATTICE_CART

%BLOCK POSITIONS_FRAC
P           0.147795000000000    0.295588000000000    0.313533000000000 
P           0.147795000000000    0.852207000000000    0.313533000000000 
P           0.295588000000000    0.147795000000000    0.813533000000000 
P           0.333334000000000    0.666668000000000    0.312826000000000 
P           0.666668000000000    0.333334000000000    0.812826000000000 
P           0.704414000000000    0.852207000000000    0.313533000000000 
P           0.852207000000000    0.147795000000000    0.813533000000000 
P           0.852207000000000    0.704414000000000    0.813533000000000 
K           0.079365000000000    0.539683000000000    0.938383000000000 
K           0.140244000000000    0.280487000000000    0.743999000000000 
K           0.140244000000000    0.859758000000000    0.743999000000000 
K           0.142376000000000    0.284751000000000    0.428615000000000 
K           0.142376000000000    0.857626000000000    0.428615000000000 
K           0.159539000000000    0.319078000000000    0.098239000000000 
K           0.159539000000000    0.840463000000000    0.098239000000000 
K           0.280487000000000    0.140244000000000    0.243999000000000 
K           0.284751000000000    0.142376000000000    0.928615000000000 
K           0.319078000000000    0.159539000000000    0.598239000000000 
K           0.460319000000000    0.539683000000000    0.938383000000000 
K           0.460319000000000    0.920637000000000    0.938383000000000 
K           0.539683000000000    0.079365000000000    0.438383000000000 
K           0.539683000000000    0.460319000000000    0.438383000000000 
K           0.680924000000000    0.840463000000000    0.098239000000000 
K           0.715251000000000    0.857626000000000    0.428615000000000 
K           0.719515000000000    0.859758000000000    0.743999000000000 
K           0.840463000000000    0.159539000000000    0.598239000000000 
K           0.840463000000000    0.680924000000000    0.598239000000000 
K           0.857626000000000    0.142376000000000    0.928615000000000 
K           0.857626000000000    0.715251000000000    0.928615000000000 
K           0.859758000000000    0.140244000000000    0.243999000000000 
K           0.859758000000000    0.719515000000000    0.243999000000000 
K           0.920637000000000    0.460319000000000    0.438383000000000 
%ENDBLOCK POSITIONS_FRAC
