# Cell file generated by matador (Matthew Evans 2016)

%BLOCK LATTICE_CART
7.81747 0.0 0.0
0.0 7.81747 0.0
0.0 0.0 6.85339
%ENDBLOCK LATTICE_CART

%BLOCK POSITIONS_FRAC
P           0.117741000000000    0.117741000000000    0.000000000000000 
P           0.117741000000000    0.882259000000000    0.000000000000000 
P           0.382259000000000    0.382259000000000    0.500000000000000 
P           0.382259000000000    0.617741000000000    0.500000000000000 
P           0.617741000000000    0.382259000000000    0.500000000000000 
P           0.617741000000000    0.617741000000000    0.500000000000000 
P           0.882259000000000    0.117741000000000    0.000000000000000 
P           0.882259000000000    0.882259000000000    0.000000000000000 
K           0.000000000000000    0.000000000000000    0.500000000000000 
K           0.000000000000000    0.500000000000000    0.250000000000000 
K           0.000000000000000    0.500000000000000    0.750000000000000 
K           0.500000000000000    0.000000000000000    0.250000000000000 
K           0.500000000000000    0.000000000000000    0.750000000000000 
K           0.500000000000000    0.500000000000000    0.000000000000000 
%ENDBLOCK POSITIONS_FRAC
