# Cell file generated by matador (Matthew Evans 2016)

%BLOCK LATTICE_CART
7.21931 0.0 0.0
-3.60965 6.25211 0.0
0.0 0.0 10.1091
%ENDBLOCK LATTICE_CART

%BLOCK POSITIONS_FRAC
P           0.000000000000000    0.000000000000000    0.094541000000000 
P           0.000000000000000    0.000000000000000    0.262037000000000 
P           0.000000000000000    0.000000000000000    0.737963000000000 
P           0.000000000000000    0.000000000000000    0.905459000000000 
P           0.333333000000000    0.666667000000000    0.404629000000000 
P           0.333333000000000    0.666667000000000    0.572125000000000 
P           0.333333000000000    0.666667000000000    0.761208000000000 
P           0.333333000000000    0.666667000000000    0.928704000000000 
P           0.666667000000000    0.333333000000000    0.071296000000000 
P           0.666667000000000    0.333333000000000    0.238792000000000 
P           0.666667000000000    0.333333000000000    0.427875000000000 
P           0.666667000000000    0.333333000000000    0.595371000000000 
K           0.000000000000000    0.000000000000000    0.500000000000000 
K           0.333333000000000    0.666667000000000    0.166667000000000 
K           0.666667000000000    0.333333000000000    0.833333000000000 
%ENDBLOCK POSITIONS_FRAC
