# Cell file generated by matador (Matthew Evans 2016)

%BLOCK LATTICE_CART
5.83403 0.0 0.0
-2.91701 5.05242 0.0
0.0 0.0 9.40857
%ENDBLOCK LATTICE_CART

%BLOCK POSITIONS_FRAC
P           0.000000000000000    0.000000000000000    0.556546000000000 
P           0.531902000000000    0.398816000000000    0.270034000000000 
P           0.601184000000000    0.133086000000000    0.270034000000000 
P           0.666667000000000    0.333333000000000    0.588829000000000 
P           0.866914000000000    0.468098000000000    0.270034000000000 
K           0.000000000000000    0.000000000000000    0.221967000000000 
K           0.000000000000000    0.000000000000000    0.909155000000000 
K           0.016890000000000    0.506188000000000    0.805404000000000 
K           0.489297000000000    0.983110000000000    0.805404000000000 
K           0.493812000000000    0.510703000000000    0.805404000000000 
K           0.666667000000000    0.333333000000000    0.966592000000000 
%ENDBLOCK POSITIONS_FRAC
