# Cell file generated by matador (Matthew Evans 2016)

%BLOCK LATTICE_CART
8.48154 0.0 0.0
-4.24077 7.34523 0.0
0.0 0.0 7.47513
%ENDBLOCK LATTICE_CART

%BLOCK POSITIONS_FRAC
P           0.490876000000000    0.245438000000000    0.500000000000000 
P           0.754562000000000    0.245438000000000    0.166667000000000 
P           0.754562000000000    0.509124000000000    0.833333000000000 
K           0.060395000000000    0.530197000000000    0.500000000000000 
K           0.146636000000000    0.573318000000000    0.000000000000000 
K           0.219818000000000    0.109909000000000    0.000000000000000 
K           0.426682000000000    0.573318000000000    0.666667000000000 
K           0.426682000000000    0.853364000000000    0.333333000000000 
K           0.469803000000000    0.530197000000000    0.166667000000000 
K           0.469803000000000    0.939605000000000    0.833333000000000 
K           0.890091000000000    0.109909000000000    0.666667000000000 
K           0.890091000000000    0.780182000000000    0.333333000000000 
%ENDBLOCK POSITIONS_FRAC
