# Cell file generated by matador (Matthew Evans 2016)

%BLOCK LATTICE_CART
4.05395 0.0 0.0
0.904473 9.36238 0.0
2.69664 -0.459133 5.04095
%ENDBLOCK LATTICE_CART

%BLOCK POSITIONS_FRAC
P           0.221022000000000    0.198507000000000    0.878883000000000 
P           0.329730000000000    0.492959000000000    0.997342000000000 
P           0.469433000000000    0.775004000000000    0.849993000000000 
P           0.530567000000000    0.224996000000000    0.150007000000000 
P           0.670270000000000    0.507041000000000    0.002658000000000 
P           0.778978000000000    0.801493000000000    0.121117000000000 
K           0.000000000000000    0.000000000000000    0.500000000000000 
%ENDBLOCK POSITIONS_FRAC
