# Cell file generated by matador (Matthew Evans 2016)

%BLOCK LATTICE_CART
7.92597 0.0 0.0
-3.96298 6.86409 0.0
0.0 0.0 7.3619
%ENDBLOCK LATTICE_CART

%BLOCK POSITIONS_FRAC
P          -0.000000000000000    0.000000000000000    0.000000000000000 
P          -0.000000000000000    0.000000000000000    0.201777000000000 
P          -0.000000000000000    0.000000000000000    0.798223000000000 
P          -0.000000000000000    0.500000000000000    0.500000000000000 
P           0.271919000000000    0.543838000000000    0.977527000000000 
P           0.271919000000000    0.728081000000000    0.977527000000000 
P           0.333333000000000    0.666667000000000    0.865733000000000 
P           0.456162000000000    0.728081000000000    0.977527000000000 
P           0.500000000000000    0.000000000000000    0.500000000000000 
P           0.500000000000000    0.500000000000000    0.500000000000000 
P           0.543838000000000    0.271919000000000    0.022473000000000 
P           0.666667000000000    0.333333000000000    0.134267000000000 
P           0.728081000000000    0.271919000000000    0.022473000000000 
P           0.728081000000000    0.456162000000000    0.022473000000000 
K           0.158810000000000    0.317620000000000    0.779402000000000 
K           0.158810000000000    0.841190000000000    0.779402000000000 
K           0.317620000000000    0.158810000000000    0.220598000000000 
K           0.682380000000000    0.841190000000000    0.779402000000000 
K           0.841190000000000    0.158810000000000    0.220598000000000 
K           0.841190000000000    0.682380000000000    0.220598000000000 
%ENDBLOCK POSITIONS_FRAC
