# Cell file generated by matador (Matthew Evans 2016)

%BLOCK LATTICE_CART
8.96933 -0.0 0.0
-4.48467 7.76767 0.0
0.0 0.0 6.18679
%ENDBLOCK LATTICE_CART

%BLOCK POSITIONS_FRAC
P           0.319345000000000    0.097266000000000    0.500000000000000 
P           0.333333000000000    0.666667000000000    0.000000000000000 
P           0.333333000000000    0.666667000000000    0.500000000000000 
P           0.666667000000000    0.333333000000000    0.000000000000000 
P           0.666667000000000    0.333333000000000    0.500000000000000 
P           0.777921000000000    0.680655000000000    0.500000000000000 
P           0.902734000000000    0.222079000000000    0.500000000000000 
K           0.138203000000000    0.773375000000000    0.500000000000000 
K           0.226625000000000    0.364828000000000    0.500000000000000 
K           0.296626000000000    0.048566000000000    0.000000000000000 
K           0.635172000000000    0.861797000000000    0.500000000000000 
K           0.751940000000000    0.703374000000000    0.000000000000000 
K           0.951434000000000    0.248060000000000    0.000000000000000 
%ENDBLOCK POSITIONS_FRAC
