# Cell file generated by matador (Matthew Evans 2016)

%BLOCK LATTICE_CART
9.84823 0.0 0.0
-4.92411 8.52882 0.0
0.0 0.0 8.38283
%ENDBLOCK LATTICE_CART

%BLOCK POSITIONS_FRAC
P           0.052856000000000    0.197083000000000    0.000000000000000 
P           0.144228000000000    0.947146000000000    0.000000000000000 
P           0.197083000000000    0.144228000000000    0.000000000000000 
P           0.333334000000000    0.666668000000000    0.000000000000000 
P           0.333334000000000    0.666668000000000    0.274477000000000 
P           0.333334000000000    0.666668000000000    0.500000000000000 
P           0.333334000000000    0.666668000000000    0.725523000000000 
P           0.666668000000000    0.333334000000000    0.000000000000000 
P           0.666668000000000    0.333334000000000    0.274477000000000 
P           0.666668000000000    0.333334000000000    0.500000000000000 
P           0.666668000000000    0.333334000000000    0.725523000000000 
P           0.802919000000000    0.855774000000000    0.000000000000000 
P           0.855774000000000    0.052856000000000    0.000000000000000 
P           0.947146000000000    0.802919000000000    0.000000000000000 
K           0.121383000000000    0.699048000000000    0.000000000000000 
K           0.300954000000000    0.422335000000000    0.000000000000000 
K           0.422335000000000    0.121383000000000    0.000000000000000 
K           0.577667000000000    0.878619000000000    0.000000000000000 
K           0.699048000000000    0.577667000000000    0.000000000000000 
K           0.878619000000000    0.300954000000000    0.000000000000000 
%ENDBLOCK POSITIONS_FRAC
