# Cell file generated by matador (Matthew Evans 2016)

%BLOCK LATTICE_CART
7.81128 -0.0 0.0
-3.90564 6.76477 0.0
0.0 0.0 11.1923
%ENDBLOCK LATTICE_CART

%BLOCK POSITIONS_FRAC
P           0.333333000000000    0.666667000000000    0.606418000000000 
P           0.333333000000000    0.666667000000000    0.845807000000000 
P           0.666666000000000    0.333334000000000    0.848981000000000 
K          -0.000000000000000    0.000000000000000    0.080962000000000 
K          -0.000000000000000    0.000000000000000    0.751940000000000 
K           0.203310000000000    0.143730000000000    0.502469000000000 
K           0.243081000000000    0.011059000000000    0.953861000000000 
K           0.333333000000000    0.666667000000000    0.041646000000000 
K           0.333333000000000    0.666667000000000    0.317895000000000 
K           0.535034000000000    0.082886000000000    0.093259000000000 
K           0.547852000000000    0.464966000000000    0.093259000000000 
K           0.666666000000000    0.333334000000000    0.276776000000000 
K           0.666666000000000    0.333334000000000    0.575407000000000 
K           0.767978000000000    0.756919000000000    0.953861000000000 
K           0.856270000000000    0.059580000000000    0.502469000000000 
K           0.917114000000000    0.452148000000000    0.093259000000000 
K           0.940420000000000    0.796690000000000    0.502469000000000 
K           0.988941000000000    0.232022000000000    0.953861000000000 
%ENDBLOCK POSITIONS_FRAC
