# Cell file generated by matador (Matthew Evans 2016)

%BLOCK LATTICE_CART
4.87642 0.0 0.0
-2.43821 4.2231 0.0
0.0 0.0 17.9233
%ENDBLOCK LATTICE_CART

%BLOCK POSITIONS_FRAC
P           0.000000000000000    0.000000000000000    0.500000000000000 
K           0.000000000000000    0.000000000000000    0.000000000000000 
K           0.333333000000000    0.666667000000000    0.000000000000000 
K           0.333333000000000    0.666667000000000    0.257708000000000 
K           0.333333000000000    0.666667000000000    0.500000000000000 
K           0.333333000000000    0.666667000000000    0.742292000000000 
K           0.666667000000000    0.333333000000000    0.000000000000000 
K           0.666667000000000    0.333333000000000    0.500000000000000 
%ENDBLOCK POSITIONS_FRAC
