# Cell file generated by matador (Matthew Evans 2016)

%BLOCK LATTICE_CART
9.39338 0.0 0.0
0.0 9.39338 0.0
0.0 0.0 13.672
%ENDBLOCK LATTICE_CART

%BLOCK POSITIONS_FRAC
P           0.119829000000000    0.500000000000000    0.017456000000000 
P           0.177299000000000    0.500000000000000    0.754303000000000 
P           0.500000000000000    0.119829000000000    0.517456000000000 
P           0.500000000000000    0.177299000000000    0.254303000000000 
P           0.500000000000000    0.822701000000000    0.254303000000000 
P           0.500000000000000    0.880171000000000    0.517456000000000 
P           0.822701000000000    0.500000000000000    0.754303000000000 
P           0.880171000000000    0.500000000000000    0.017456000000000 
K           0.000000000000000    0.170205000000000    0.976779000000000 
K           0.000000000000000    0.215336000000000    0.299433000000000 
K           0.000000000000000    0.254880000000000    0.733717000000000 
K           0.000000000000000    0.745120000000000    0.733717000000000 
K           0.000000000000000    0.784664000000000    0.299433000000000 
K           0.000000000000000    0.829795000000000    0.976779000000000 
K           0.170205000000000    0.000000000000000    0.476779000000000 
K           0.215336000000000    0.000000000000000    0.799433000000000 
K           0.254880000000000    0.000000000000000    0.233717000000000 
K           0.292103000000000    0.500000000000000    0.306081000000000 
K           0.317543000000000    0.500000000000000    0.948129000000000 
K           0.324035000000000    0.500000000000000    0.608656000000000 
K           0.500000000000000    0.292103000000000    0.806081000000000 
K           0.500000000000000    0.317543000000000    0.448129000000000 
K           0.500000000000000    0.324035000000000    0.108656000000000 
K           0.500000000000000    0.675965000000000    0.108656000000000 
K           0.500000000000000    0.682457000000000    0.448129000000000 
K           0.500000000000000    0.707897000000000    0.806081000000000 
K           0.675965000000000    0.500000000000000    0.608656000000000 
K           0.682457000000000    0.500000000000000    0.948129000000000 
K           0.707897000000000    0.500000000000000    0.306081000000000 
K           0.745120000000000    0.000000000000000    0.233717000000000 
K           0.784664000000000    0.000000000000000    0.799433000000000 
K           0.829795000000000    0.000000000000000    0.476779000000000 
%ENDBLOCK POSITIONS_FRAC
