# Cell file generated by matador (Matthew Evans 2016)

%BLOCK LATTICE_CART
5.7431 0.0 0.0
0.0 6.8035 0.0
-1.97862 0.0 6.14908
%ENDBLOCK LATTICE_CART

%BLOCK POSITIONS_FRAC
P           0.208076000000000    0.024290000000000    0.726206000000000 
P           0.208076000000000    0.975710000000000    0.226206000000000 
P           0.238978000000000    0.255740000000000    0.273200000000000 
P           0.238978000000000    0.744260000000000    0.773200000000000 
P           0.366694000000000    0.192830000000000    0.904445000000000 
P           0.366694000000000    0.807170000000000    0.404445000000000 
K           0.895350000000000    0.417020000000000    0.687216000000000 
K           0.895350000000000    0.582980000000000    0.187216000000000 
%ENDBLOCK POSITIONS_FRAC
