# Cell file generated by matador (Matthew Evans 2016)

%BLOCK LATTICE_CART
10.4352 0.0 0.0
0.0 6.29323 0.0
-0.346627 0.0 6.01066
%ENDBLOCK LATTICE_CART

%BLOCK POSITIONS_FRAC
P           0.004027000000000    0.500000000000000    0.883057000000000 
P           0.254307000000000    0.113144000000000    0.701881000000000 
P           0.254307000000000    0.886856000000000    0.701881000000000 
P           0.316873000000000    0.500000000000000    0.427951000000000 
P           0.619846000000000    0.000000000000000    0.503901000000000 
P           0.821786000000000    0.500000000000000    0.191041000000000 
P           0.836749000000000    0.500000000000000    0.834404000000000 
K           0.677784000000000    0.201994000000000    0.902530000000000 
K           0.677784000000000    0.798006000000000    0.902530000000000 
K           0.903656000000000    0.000000000000000    0.409471000000000 
K           0.928113000000000    0.185887000000000    0.068195000000000 
K           0.928113000000000    0.814113000000000    0.068195000000000 
%ENDBLOCK POSITIONS_FRAC
