# Cell file generated by matador (Matthew Evans 2016)

%BLOCK LATTICE_CART
8.15951 0.0 0.0
0.0 7.08422 0.0
-5.07457 0.0 9.14582
%ENDBLOCK LATTICE_CART

%BLOCK POSITIONS_FRAC
P           0.284312000000000    0.240669000000000    0.467582000000000 
P           0.284312000000000    0.759331000000000    0.467582000000000 
P           0.327485000000000    0.105615000000000    0.531847000000000 
P           0.327485000000000    0.894385000000000    0.531847000000000 
P           0.784312000000000    0.259331000000000    0.467582000000000 
P           0.784312000000000    0.740669000000000    0.467582000000000 
P           0.827485000000000    0.394385000000000    0.531847000000000 
P           0.827485000000000    0.605615000000000    0.531847000000000 
K           0.038789000000000    0.000000000000000    0.669415000000000 
K           0.072039000000000    0.500000000000000    0.191995000000000 
K           0.117630000000000    0.500000000000000    0.647735000000000 
K           0.354387000000000    0.500000000000000    0.340678000000000 
K           0.397812000000000    0.500000000000000    0.040345000000000 
K           0.538789000000000    0.500000000000000    0.669415000000000 
K           0.572039000000000    0.000000000000000    0.191995000000000 
K           0.617630000000000    0.000000000000000    0.647735000000000 
K           0.854387000000000    0.000000000000000    0.340678000000000 
K           0.897812000000000    0.000000000000000    0.040345000000000 
%ENDBLOCK POSITIONS_FRAC
