# Cell file generated by matador (Matthew Evans 2016)

%BLOCK LATTICE_CART
9.44833 0.0 0.0
0.0 9.44833 0.0
0.0 0.0 6.14075
%ENDBLOCK LATTICE_CART

%BLOCK POSITIONS_FRAC
P           0.000000000000000    0.173525000000000    0.500000000000000 
P           0.000000000000000    0.500000000000000    0.250000000000000 
P           0.000000000000000    0.500000000000000    0.750000000000000 
P           0.000000000000000    0.826475000000000    0.500000000000000 
P           0.173525000000000    0.000000000000000    0.500000000000000 
P           0.326475000000000    0.500000000000000   -0.000000000000000 
P           0.500000000000000    0.000000000000000    0.250000000000000 
P           0.500000000000000    0.000000000000000    0.750000000000000 
P           0.500000000000000    0.326475000000000   -0.000000000000000 
P           0.500000000000000    0.673525000000000   -0.000000000000000 
P           0.673525000000000    0.500000000000000   -0.000000000000000 
P           0.826475000000000    0.000000000000000    0.500000000000000 
K           0.000000000000000    0.000000000000000   -0.000000000000000 
K           0.500000000000000    0.500000000000000    0.500000000000000 
%ENDBLOCK POSITIONS_FRAC
