# Cell file generated by matador (Matthew Evans 2016)

%BLOCK LATTICE_CART
11.9137 0.0 0.0
0.0 7.77546 0.0
-4.5033 0.0 8.47885
%ENDBLOCK LATTICE_CART

%BLOCK POSITIONS_FRAC
P           0.314315000000000    0.111636000000000    0.796774000000000 
P           0.314315000000000    0.388364000000000    0.796774000000000 
P           0.685685000000000    0.611636000000000    0.203226000000000 
P           0.685685000000000    0.888364000000000    0.203226000000000 
K           0.000000000000000    0.000000000000000    0.000000000000000 
K           0.000000000000000    0.000000000000000    0.500000000000000 
K           0.000000000000000    0.500000000000000    0.000000000000000 
K           0.000000000000000    0.500000000000000    0.500000000000000 
K           0.070768000000000    0.250000000000000    0.507337000000000 
K           0.227567000000000    0.750000000000000    0.801356000000000 
K           0.255001000000000    0.250000000000000    0.023897000000000 
K           0.405714000000000    0.750000000000000    0.634197000000000 
K           0.500000000000000    0.000000000000000    0.000000000000000 
K           0.500000000000000    0.000000000000000    0.500000000000000 
K           0.500000000000000    0.500000000000000    0.000000000000000 
K           0.500000000000000    0.500000000000000    0.500000000000000 
K           0.594286000000000    0.250000000000000    0.365803000000000 
K           0.744999000000000    0.750000000000000    0.976103000000000 
K           0.772433000000000    0.250000000000000    0.198644000000000 
K           0.929232000000000    0.750000000000000    0.492663000000000 
%ENDBLOCK POSITIONS_FRAC
