# Cell file generated by matador (Matthew Evans 2016)

%BLOCK LATTICE_CART
11.1159 0.0 0.0
0.0 5.81657 0.0
-0.842533 0.0 6.84167
%ENDBLOCK LATTICE_CART

%BLOCK POSITIONS_FRAC
P           0.068917000000000    0.872119000000000    0.052662000000000 
P           0.071675000000000    0.955962000000000    0.585294000000000 
P           0.079931000000000    0.492084000000000    0.417171000000000 
P           0.105164000000000    0.486310000000000    0.846762000000000 
P           0.200388000000000    0.557970000000000    0.478632000000000 
P           0.253901000000000    0.729812000000000    0.875695000000000 
P           0.286169000000000    0.918818000000000    0.878323000000000 
P           0.713831000000000    0.418818000000000    0.121677000000000 
P           0.746099000000000    0.229812000000000    0.124305000000000 
P           0.799612000000000    0.057970000000000    0.521368000000000 
P           0.894836000000000    0.986310000000000    0.153238000000000 
P           0.920069000000000    0.992084000000000    0.582829000000000 
P           0.928325000000000    0.455962000000000    0.414706000000000 
P           0.931083000000000    0.372119000000000    0.947338000000000 
K           0.326085000000000    0.497050000000000    0.211929000000000 
K           0.359747000000000    0.081524000000000    0.296388000000000 
K           0.640253000000000    0.581524000000000    0.703612000000000 
K           0.673915000000000    0.997050000000000    0.788071000000000 
%ENDBLOCK POSITIONS_FRAC
