# Cell file generated by matador (Matthew Evans 2016)

%BLOCK LATTICE_CART
8.67796 -0.0 0.0
-4.33898 7.51533 0.0
0.0 0.0 8.80647
%ENDBLOCK LATTICE_CART

%BLOCK POSITIONS_FRAC
P           0.000000000000000    0.000000000000000    0.503574000000000 
P           0.001885000000000    0.467738000000000    0.202445000000000 
P           0.132520000000000    0.331449000000000    0.535778000000000 
P           0.198929000000000    0.867480000000000    0.535778000000000 
P           0.333333000000000    0.666667000000000    0.170241000000000 
P           0.335218000000000    0.134405000000000    0.869112000000000 
P           0.465853000000000    0.998115000000000    0.202445000000000 
P           0.532262000000000    0.534147000000000    0.202445000000000 
P           0.666667000000000    0.333333000000000    0.836908000000000 
P           0.668551000000000    0.801071000000000    0.535778000000000 
P           0.799187000000000    0.664782000000000    0.869112000000000 
P           0.865595000000000    0.200813000000000    0.869112000000000 
K           0.000000000000000    0.000000000000000    0.854681000000000 
K           0.333333000000000    0.666667000000000    0.521347000000000 
K           0.666667000000000    0.333333000000000    0.188014000000000 
%ENDBLOCK POSITIONS_FRAC
