# Cell file generated by matador (Matthew Evans 2016)

%BLOCK LATTICE_CART
10.025 0.0 0.0
-5.01252 8.68194 0.0
0.0 0.0 6.9279
%ENDBLOCK LATTICE_CART

%BLOCK POSITIONS_FRAC
P           0.333333000000000    0.666667000000000    0.000000000000000 
P           0.333333000000000    0.666667000000000    0.500000000000000 
P           0.666666000000000    0.333334000000000    0.000000000000000 
P           0.666666000000000    0.333334000000000    0.500000000000000 
K           0.025584000000000    0.367987000000000    0.500000000000000 
K           0.025584000000000    0.657599000000000    0.500000000000000 
K           0.098966000000000    0.197932000000000    0.209975000000000 
K           0.098966000000000    0.197932000000000    0.790025000000000 
K           0.098966000000000    0.901034000000000    0.209975000000000 
K           0.098966000000000    0.901034000000000    0.790025000000000 
K           0.342401000000000    0.367987000000000    0.500000000000000 
K           0.342401000000000    0.974416000000000    0.500000000000000 
K           0.632013000000000    0.657599000000000    0.500000000000000 
K           0.632013000000000    0.974416000000000    0.500000000000000 
K           0.802068000000000    0.901034000000000    0.209975000000000 
K           0.802068000000000    0.901034000000000    0.790025000000000 
%ENDBLOCK POSITIONS_FRAC
