# Cell file generated by matador (Matthew Evans 2016)

%BLOCK LATTICE_CART
8.68104 0.0 0.0
0.0 4.48793 0.0
0.0 0.0 8.82361
%ENDBLOCK LATTICE_CART

%BLOCK POSITIONS_FRAC
P           0.000000000000000    0.014210000000000    0.414148000000000 
P           0.500000000000000    0.985790000000000    0.914148000000000 
K           0.000000000000000    0.268728000000000    0.100142000000000 
K           0.000000000000000    0.525668000000000    0.466858000000000 
K           0.000000000000000    0.829438000000000    0.837985000000000 
K           0.500000000000000    0.170562000000000    0.337985000000000 
K           0.500000000000000    0.474332000000000    0.966858000000000 
K           0.500000000000000    0.731272000000000    0.600142000000000 
%ENDBLOCK POSITIONS_FRAC
