# Cell file generated by matador (Matthew Evans 2016)

%BLOCK LATTICE_CART
7.08384 -0.0 0.0
-3.54192 6.13478 0.0
0.0 0.0 6.12335
%ENDBLOCK LATTICE_CART

%BLOCK POSITIONS_FRAC
P           0.067476000000000    0.748186000000000    0.326721000000000 
P           0.251814000000000    0.319290000000000    0.326721000000000 
P           0.680710000000000    0.932524000000000    0.326721000000000 
K           0.318810000000000    0.129251000000000    0.558366000000000 
K           0.333333000000000    0.666667000000000    0.109865000000000 
K           0.666667000000000    0.333333000000000    0.562905000000000 
K           0.810441000000000    0.681190000000000    0.558366000000000 
K           0.870749000000000    0.189559000000000    0.558366000000000 
%ENDBLOCK POSITIONS_FRAC
