# Cell file generated by matador (Matthew Evans 2016)

%BLOCK LATTICE_CART
8.98468 0.0 0.0
-4.49234 7.78096 0.0
0.0 0.0 4.86433
%ENDBLOCK LATTICE_CART

%BLOCK POSITIONS_FRAC
P          -0.000000000000000    0.000000000000000    0.756583000000000 
P           0.023836000000000    0.842753000000000    0.889184000000000 
P           0.157247000000000    0.181084000000000    0.889184000000000 
P           0.350793000000000    0.344052000000000    0.972396000000000 
P           0.655948000000000    0.006741000000000    0.972396000000000 
P           0.818916000000000    0.976164000000000    0.889184000000000 
P           0.993259000000000    0.649207000000000    0.972396000000000 
K           0.022288000000000    0.828474000000000    0.402999000000000 
K           0.171526000000000    0.193815000000000    0.402999000000000 
K           0.666666000000000    0.333334000000000    0.583809000000000 
K           0.806185000000000    0.977712000000000    0.402999000000000 
%ENDBLOCK POSITIONS_FRAC
