# Cell file generated by matador (Matthew Evans 2016)

%BLOCK LATTICE_CART
4.99616 0.0 0.0
0.0 4.99616 0.0
0.0 0.0 4.60451
%ENDBLOCK LATTICE_CART

%BLOCK POSITIONS_FRAC
P           0.000000000000000    0.000000000000000    0.162947000000000 
P           0.500000000000000    0.500000000000000    0.139576000000000 
P           0.500000000000000    0.500000000000000    0.864874000000000 
K           0.000000000000000    0.500000000000000    0.382517000000000 
K           0.500000000000000    0.000000000000000    0.382517000000000 
%ENDBLOCK POSITIONS_FRAC
