# Cell file generated by matador (Matthew Evans 2016)

%BLOCK LATTICE_CART
6.14499 0.0 0.0
-3.07249 5.32172 0.0
0.0 0.0 12.6457
%ENDBLOCK LATTICE_CART

%BLOCK POSITIONS_FRAC
P           0.000000000000000    0.000000000000000    0.526297000000000 
P           0.140060000000000    0.784457000000000    0.188127000000000 
P           0.215543000000000    0.355602000000000    0.188127000000000 
P           0.311064000000000    0.193274000000000    0.521460000000000 
P           0.333333000000000    0.666667000000000    0.192964000000000 
P           0.473393000000000    0.451124000000000    0.854794000000000 
P           0.548876000000000    0.022269000000000    0.854794000000000 
P           0.644398000000000    0.859940000000000    0.188127000000000 
P           0.666667000000000    0.333333000000000    0.859631000000000 
P           0.806726000000000    0.117791000000000    0.521460000000000 
P           0.882209000000000    0.688936000000000    0.521460000000000 
P           0.977731000000000    0.526607000000000    0.854794000000000 
K           0.000000000000000    0.000000000000000    0.827061000000000 
K           0.333333000000000    0.666667000000000    0.493728000000000 
K           0.666667000000000    0.333333000000000    0.160394000000000 
%ENDBLOCK POSITIONS_FRAC
