# Cell file generated by matador (Matthew Evans 2016)

%BLOCK LATTICE_CART
8.03498 0.0 0.0
1.51824 7.95905 0.0
2.58258 1.34227 5.5694
%ENDBLOCK LATTICE_CART

%BLOCK POSITIONS_FRAC
P           0.117583000000000    0.598388000000000    0.158054000000000 
P           0.261178000000000    0.878601000000000    0.179245000000000 
P           0.738822000000000    0.121399000000000    0.820755000000000 
P           0.882417000000000    0.401612000000000    0.841946000000000 
K           0.000000000000000    0.500000000000000    0.000000000000000 
K           0.000000000000000    0.500000000000000    0.500000000000000 
K           0.117876000000000    0.066480000000000    0.440460000000000 
K           0.351145000000000    0.726210000000000    0.719066000000000 
K           0.500000000000000    0.500000000000000    0.000000000000000 
K           0.648855000000000    0.273790000000000    0.280934000000000 
K           0.882124000000000    0.933520000000000    0.559540000000000 
%ENDBLOCK POSITIONS_FRAC
