# Cell file generated by matador (Matthew Evans 2016)

%BLOCK LATTICE_CART
6.62706 0.0 0.0
0.0 4.11407 0.0
-0.129191 0.0 7.21864
%ENDBLOCK LATTICE_CART

%BLOCK POSITIONS_FRAC
P           0.148420000000000    0.353400000000000    0.712458000000000 
P           0.211345000000000    0.702603000000000    0.872576000000000 
P           0.340901000000000    0.089283000000000    0.110556000000000 
P           0.500000000000000    0.010462000000000    0.500000000000000 
P           0.659099000000000    0.089283000000000    0.889444000000000 
P           0.788655000000000    0.702603000000000    0.127424000000000 
P           0.851580000000000    0.353400000000000    0.287542000000000 
K           0.000000000000000    0.004087000000000    0.000000000000000 
K           0.097530000000000    0.491135000000000    0.107557000000000 
K           0.902470000000000    0.491135000000000    0.892443000000000 
%ENDBLOCK POSITIONS_FRAC
