# Cell file generated by matador (Matthew Evans 2016)

%BLOCK LATTICE_CART
7.97959 0.0 0.0
-3.9898 6.91053 0.0
0.0 0.0 8.71224
%ENDBLOCK LATTICE_CART

%BLOCK POSITIONS_FRAC
P           0.000000000000000    0.000000000000000    0.278464000000000 
P           0.571140000000000    0.186787000000000    0.626963000000000 
P           0.615647000000000    0.428860000000000    0.626963000000000 
P           0.813213000000000    0.384353000000000    0.626963000000000 
K           0.024282000000000    0.610616000000000    0.973343000000000 
K           0.058528000000000    0.802045000000000    0.416858000000000 
K           0.197955000000000    0.256483000000000    0.416858000000000 
K           0.333333000000000    0.666667000000000    0.126126000000000 
K           0.333333000000000    0.666667000000000    0.747430000000000 
K           0.389384000000000    0.413665000000000    0.973343000000000 
K           0.586335000000000    0.975718000000000    0.973343000000000 
K           0.666667000000000    0.333333000000000    0.198962000000000 
K           0.666667000000000    0.333333000000000    0.939075000000000 
K           0.743517000000000    0.941472000000000    0.416858000000000 
%ENDBLOCK POSITIONS_FRAC
