# Cell file generated by matador (Matthew Evans 2016)

%BLOCK LATTICE_CART
8.25159 0.0 0.0
0.0 8.25159 0.0
0.0 0.0 5.25962
%ENDBLOCK LATTICE_CART

%BLOCK POSITIONS_FRAC
P           0.130431000000000    0.763496000000000    0.380268000000000 
P           0.236504000000000    0.869569000000000    0.619732000000000 
P           0.263496000000000    0.369569000000000    0.380268000000000 
P           0.369569000000000    0.263496000000000    0.619732000000000 
P           0.630431000000000    0.736504000000000    0.619732000000000 
P           0.736504000000000    0.630431000000000    0.380268000000000 
P           0.763496000000000    0.130431000000000    0.619732000000000 
P           0.869569000000000    0.236504000000000    0.380268000000000 
K           0.000000000000000    0.000000000000000    0.500000000000000 
K           0.210510000000000    0.789490000000000    0.000000000000000 
K           0.289490000000000    0.289490000000000    0.000000000000000 
K           0.500000000000000    0.500000000000000    0.500000000000000 
K           0.710510000000000    0.710510000000000    0.000000000000000 
K           0.789490000000000    0.210510000000000    0.000000000000000 
%ENDBLOCK POSITIONS_FRAC
