# Cell file generated by matador (Matthew Evans 2016)

%BLOCK LATTICE_CART
9.43411 0.0 0.0
-4.71705 8.17018 0.0
0.0 0.0 11.6888
%ENDBLOCK LATTICE_CART

%BLOCK POSITIONS_FRAC
P           0.000000000000000    0.000000000000000    0.200142000000000 
P           0.000000000000000    0.000000000000000    0.486863000000000 
P           0.333333000000000    0.666667000000000    0.153529000000000 
P           0.333333000000000    0.666667000000000    0.866808000000000 
P           0.666667000000000    0.333333000000000    0.533475000000000 
P           0.666667000000000    0.333333000000000    0.820196000000000 
K           0.040654000000000    0.520327000000000    0.213269000000000 
K           0.107101000000000    0.553551000000000    0.682600000000000 
K           0.113116000000000    0.226232000000000    0.015933000000000 
K           0.113116000000000    0.886884000000000    0.015933000000000 
K           0.146340000000000    0.292679000000000    0.546602000000000 
K           0.146340000000000    0.853660000000000    0.546602000000000 
K           0.373988000000000    0.186994000000000    0.879936000000000 
K           0.440435000000000    0.220217000000000    0.349267000000000 
K           0.446449000000000    0.553551000000000    0.682600000000000 
K           0.446449000000000    0.892899000000000    0.682600000000000 
K           0.479673000000000    0.520327000000000    0.213269000000000 
K           0.479673000000000    0.959346000000000    0.213269000000000 
K           0.707321000000000    0.853660000000000    0.546602000000000 
K           0.773768000000000    0.886884000000000    0.015933000000000 
K           0.779783000000000    0.220217000000000    0.349267000000000 
K           0.779783000000000    0.559565000000000    0.349267000000000 
K           0.813006000000000    0.186994000000000    0.879936000000000 
K           0.813006000000000    0.626012000000000    0.879936000000000 
%ENDBLOCK POSITIONS_FRAC
