# Cell file generated by matador (Matthew Evans 2016)

%BLOCK LATTICE_CART
5.31621 0.0 0.0
0.0 5.31621 0.0
0.0 0.0 8.19665
%ENDBLOCK LATTICE_CART

%BLOCK POSITIONS_FRAC
P           0.000000000000000    0.000000000000000    0.754891000000000 
P           0.140965000000000    0.291636000000000    0.240942000000000 
P           0.140965000000000    0.708364000000000    0.240942000000000 
P           0.291636000000000    0.140965000000000    0.240942000000000 
P           0.291636000000000    0.859035000000000    0.240942000000000 
P           0.500000000000000    0.500000000000000    0.118243000000000 
P           0.708364000000000    0.140965000000000    0.240942000000000 
P           0.708364000000000    0.859035000000000    0.240942000000000 
P           0.859035000000000    0.291636000000000    0.240942000000000 
P           0.859035000000000    0.708364000000000    0.240942000000000 
K           0.000000000000000    0.500000000000000    0.671858000000000 
K           0.500000000000000    0.000000000000000    0.671858000000000 
%ENDBLOCK POSITIONS_FRAC
