# Cell file generated by matador (Matthew Evans 2016)

%BLOCK LATTICE_CART
7.78148 0.0 0.0
-3.89074 6.73896 0.0
0.0 0.0 8.01729
%ENDBLOCK LATTICE_CART

%BLOCK POSITIONS_FRAC
P           0.000000000000000    0.000000000000000    0.330237000000000 
P           0.000000000000000    0.000000000000000    0.669763000000000 
P           0.333333000000000    0.666667000000000    0.000000000000000 
P           0.333333000000000    0.666667000000000    0.500000000000000 
P           0.666667000000000    0.333333000000000    0.000000000000000 
P           0.666667000000000    0.333333000000000    0.500000000000000 
K           0.000000000000000    0.000000000000000    0.000000000000000 
K           0.000000000000000    0.500000000000000    0.000000000000000 
K           0.000000000000000    0.500000000000000    0.500000000000000 
K           0.500000000000000    0.000000000000000    0.000000000000000 
K           0.500000000000000    0.000000000000000    0.500000000000000 
K           0.500000000000000    0.500000000000000    0.000000000000000 
K           0.500000000000000    0.500000000000000    0.500000000000000 
%ENDBLOCK POSITIONS_FRAC
