# Cell file generated by matador (Matthew Evans 2016)

%BLOCK LATTICE_CART
7.44531 0.0 0.0
0.0 7.44531 0.0
0.0 0.0 6.93034
%ENDBLOCK LATTICE_CART

%BLOCK POSITIONS_FRAC
P           0.000000000000000    0.000000000000000    0.000000000000000 
P           0.000000000000000    0.000000000000000    0.500000000000000 
P           0.000000000000000    0.500000000000000    0.500000000000000 
P           0.127064000000000    0.127064000000000    0.940840000000000 
P           0.127064000000000    0.872936000000000    0.059160000000000 
P           0.500000000000000    0.000000000000000    0.500000000000000 
P           0.500000000000000    0.500000000000000    0.000000000000000 
P           0.500000000000000    0.500000000000000    0.500000000000000 
P           0.872936000000000    0.127064000000000    0.059160000000000 
P           0.872936000000000    0.872936000000000    0.940840000000000 
K           0.000000000000000    0.500000000000000    0.000000000000000 
K           0.500000000000000    0.000000000000000    0.000000000000000 
%ENDBLOCK POSITIONS_FRAC
