# Cell file generated by matador (Matthew Evans 2016)

%BLOCK LATTICE_CART
6.39454 0.0 0.0
-3.19727 5.53783 0.0
0.0 0.0 4.67784
%ENDBLOCK LATTICE_CART

%BLOCK POSITIONS_FRAC
P           0.059327000000000    0.163847000000000    0.961167000000000 
P           0.104520000000000    0.940673000000000    0.961167000000000 
P           0.666667000000000    0.333333000000000    0.381613000000000 
P           0.666667000000000    0.333333000000000    0.935193000000000 
P           0.836153000000000    0.895480000000000    0.961167000000000 
K           0.000000000000000    0.000000000000000    0.421526000000000 
K           0.333333000000000    0.666667000000000    0.865043000000000 
%ENDBLOCK POSITIONS_FRAC
