# Cell file generated by matador (Matthew Evans 2016)

%BLOCK LATTICE_CART
8.0294 0.0 0.0
-4.0147 6.95366 0.0
0.0 0.0 7.68571
%ENDBLOCK LATTICE_CART

%BLOCK POSITIONS_FRAC
P           0.000000000000000    0.000000000000000    0.511885000000000 
P           0.333333000000000    0.666667000000000    0.178551000000000 
P           0.666667000000000    0.333333000000000    0.845218000000000 
K           0.181611000000000    0.363223000000000    0.789997000000000 
K           0.181611000000000    0.818389000000000    0.789997000000000 
K           0.303444000000000    0.151722000000000    0.123331000000000 
K           0.514945000000000    0.029889000000000    0.456664000000000 
K           0.514945000000000    0.485055000000000    0.456664000000000 
K           0.636777000000000    0.818389000000000    0.789997000000000 
K           0.848278000000000    0.151722000000000    0.123331000000000 
K           0.848278000000000    0.696556000000000    0.123331000000000 
K           0.970111000000000    0.485055000000000    0.456664000000000 
%ENDBLOCK POSITIONS_FRAC
