# Cell file generated by matador (Matthew Evans 2016)

%BLOCK LATTICE_CART
6.50731 0.0 0.0
0.0 6.50731 0.0
0.0 0.0 7.2542
%ENDBLOCK LATTICE_CART

%BLOCK POSITIONS_FRAC
P           0.000000000000000    0.500000000000000    0.202740000000000 
P           0.500000000000000    0.000000000000000    0.797260000000000 
K           0.000000000000000    0.000000000000000    0.500000000000000 
K           0.175889000000000    0.324111000000000    0.860076000000000 
K           0.324111000000000    0.824111000000000    0.139924000000000 
K           0.500000000000000    0.500000000000000    0.500000000000000 
K           0.675889000000000    0.175889000000000    0.139924000000000 
K           0.824111000000000    0.675889000000000    0.860076000000000 
%ENDBLOCK POSITIONS_FRAC
