# Cell file generated by matador (Matthew Evans 2016)

%BLOCK LATTICE_CART
6.21616 0.0 0.0
-3.10808 5.38335 0.0
0.0 0.0 5.90493
%ENDBLOCK LATTICE_CART

%BLOCK POSITIONS_FRAC
P          -0.000000000000000    0.000000000000000    0.000000000000000 
P          -0.000000000000000    0.000000000000000    0.391146000000000 
P          -0.000000000000000    0.000000000000000    0.608854000000000 
P           0.333333000000000    0.666667000000000    0.348671000000000 
P           0.333333000000000    0.666667000000000    0.972352000000000 
P           0.666667000000000    0.333333000000000    0.027648000000000 
P           0.666667000000000    0.333333000000000    0.651329000000000 
K          -0.000000000000000    0.500000000000000    0.500000000000000 
K           0.500000000000000    0.000000000000000    0.500000000000000 
K           0.500000000000000    0.500000000000000    0.500000000000000 
%ENDBLOCK POSITIONS_FRAC
