# Cell file generated by matador (Matthew Evans 2016)

%BLOCK LATTICE_CART
7.41052 0.0 0.0
-3.70526 6.4177 0.0
0.0 0.0 6.99039
%ENDBLOCK LATTICE_CART

%BLOCK POSITIONS_FRAC
P           0.358570000000000    0.315463000000000    0.895808000000000 
P           0.417290000000000    0.199344000000000    0.867274000000000 
P           0.428474000000000    0.402454000000000    0.650859000000000 
P           0.597546000000000    0.026020000000000    0.984193000000000 
P           0.684537000000000    0.043106000000000    0.229142000000000 
P           0.782053000000000    0.582710000000000    0.533941000000000 
P           0.800656000000000    0.217947000000000    0.200607000000000 
P           0.956894000000000    0.641430000000000    0.562475000000000 
P           0.973980000000000    0.571526000000000    0.317526000000000 
K           0.065055000000000    0.064955000000000    0.515932000000000 
K           0.935045000000000    0.000100000000000    0.849265000000000 
K           0.999900000000000    0.934945000000000    0.182598000000000 
%ENDBLOCK POSITIONS_FRAC
