# Cell file generated by matador (Matthew Evans 2016)

%BLOCK LATTICE_CART
6.93653 -0.0 0.0
-3.46826 6.00721 0.0
0.0 0.0 7.43347
%ENDBLOCK LATTICE_CART

%BLOCK POSITIONS_FRAC
P           0.014383000000000    0.094868000000000    0.138820000000000 
P           0.080485000000000    0.985617000000000    0.138820000000000 
P           0.666667000000000    0.333333000000000    0.809105000000000 
P           0.905132000000000    0.919515000000000    0.138820000000000 
K           0.137861000000000    0.706864000000000    0.572047000000000 
K           0.293136000000000    0.430997000000000    0.572047000000000 
K           0.333333000000000    0.666667000000000    0.224557000000000 
K           0.569003000000000    0.862139000000000    0.572047000000000 
K           0.666667000000000    0.333333000000000    0.117303000000000 
%ENDBLOCK POSITIONS_FRAC
