# Cell file generated by matador (Matthew Evans 2016)

%BLOCK LATTICE_CART
8.10107 0.0 0.0
-4.05053 7.01573 0.0
0.0 0.0 7.53713
%ENDBLOCK LATTICE_CART

%BLOCK POSITIONS_FRAC
P           0.234937000000000    0.617468000000000    0.750000000000000 
P           0.333332000000000    0.666666000000000    0.506451000000000 
P           0.333332000000000    0.666666000000000    0.993549000000000 
P           0.382530000000000    0.617468000000000    0.750000000000000 
P           0.382530000000000    0.765061000000000    0.750000000000000 
P           0.617468000000000    0.234937000000000    0.250000000000000 
P           0.617468000000000    0.382530000000000    0.250000000000000 
P           0.666666000000000    0.333332000000000    0.006451000000000 
P           0.666666000000000    0.333332000000000    0.493549000000000 
P           0.765061000000000    0.382530000000000    0.250000000000000 
K           0.333332000000000    0.666666000000000    0.250000000000000 
K           0.666666000000000    0.333332000000000    0.750000000000000 
%ENDBLOCK POSITIONS_FRAC
