# Cell file generated by matador (Matthew Evans 2016)

%BLOCK LATTICE_CART
7.36048 0.0 0.0
-3.68024 6.37436 0.0
0.0 0.0 10.0311
%ENDBLOCK LATTICE_CART

%BLOCK POSITIONS_FRAC
P           0.000000000000000    0.000000000000000    0.000000000000000 
P           0.000000000000000    0.000000000000000    0.500000000000000 
P           0.333333000000000    0.666667000000000    0.166667000000000 
P           0.333333000000000    0.666667000000000    0.666667000000000 
P           0.666667000000000    0.333333000000000    0.333333000000000 
P           0.666667000000000    0.333333000000000    0.833333000000000 
K           0.000000000000000    0.000000000000000    0.296415000000000 
K           0.000000000000000    0.000000000000000    0.703585000000000 
K           0.333333000000000    0.666667000000000    0.370252000000000 
K           0.333333000000000    0.666667000000000    0.963082000000000 
K           0.666667000000000    0.333333000000000    0.036919000000000 
K           0.666667000000000    0.333333000000000    0.629748000000000 
%ENDBLOCK POSITIONS_FRAC
