# Cell file generated by matador (Matthew Evans 2016)

%BLOCK LATTICE_CART
6.772 0.0 0.0
0.0 6.97164 0.0
1.44811 0.0 9.68041
%ENDBLOCK LATTICE_CART

%BLOCK POSITIONS_FRAC
P          -0.000000000000000   -0.000000000000000    0.000000000000000 
P          -0.000000000000000   -0.000000000000000    0.500000000000000 
P          -0.000000000000000    0.500000000000000    0.000000000000000 
P          -0.000000000000000    0.500000000000000    0.500000000000000 
P           0.500000000000000   -0.000000000000000    0.000000000000000 
P           0.500000000000000   -0.000000000000000    0.500000000000000 
P           0.500000000000000    0.500000000000000    0.000000000000000 
P           0.500000000000000    0.500000000000000    0.500000000000000 
K           0.086758000000000    0.106194000000000    0.743217000000000 
K           0.086758000000000    0.393806000000000    0.243217000000000 
K           0.913242000000000    0.606194000000000    0.756783000000000 
K           0.913242000000000    0.893806000000000    0.256783000000000 
%ENDBLOCK POSITIONS_FRAC
