# Cell file generated by matador (Matthew Evans 2016)

%BLOCK LATTICE_CART
6.7593 -0.0 0.0
-3.37965 5.85373 0.0
0.0 0.0 5.80509
%ENDBLOCK LATTICE_CART

%BLOCK POSITIONS_FRAC
P           0.027341000000000    0.286742000000000    0.105454000000000 
P           0.259401000000000    0.972659000000000    0.105454000000000 
P           0.286742000000000    0.259401000000000    0.894546000000000 
P           0.713258000000000    0.740599000000000    0.105454000000000 
P           0.740599000000000    0.027341000000000    0.894546000000000 
P           0.972659000000000    0.713258000000000    0.894546000000000 
K           0.333333000000000    0.666667000000000    0.794046000000000 
K           0.666666000000000    0.333334000000000    0.205954000000000 
%ENDBLOCK POSITIONS_FRAC
