# Cell file generated by matador (Matthew Evans 2016)

%BLOCK LATTICE_CART
6.05923 0.0 0.0
-3.02962 5.24745 0.0
0.0 0.0 13.5547
%ENDBLOCK LATTICE_CART

%BLOCK POSITIONS_FRAC
P           0.149257000000000    0.435600000000000    0.397723000000000 
P           0.149257000000000    0.435600000000000    0.602277000000000 
P           0.286342000000000    0.850743000000000    0.397723000000000 
P           0.286342000000000    0.850743000000000    0.602277000000000 
P           0.333333000000000    0.666667000000000    0.000000000000000 
P           0.500525000000000    0.415378000000000    0.165202000000000 
P           0.500525000000000    0.415378000000000    0.834798000000000 
P           0.564400000000000    0.713658000000000    0.397723000000000 
P           0.564400000000000    0.713658000000000    0.602277000000000 
P           0.584622000000000    0.085147000000000    0.165202000000000 
P           0.584622000000000    0.085147000000000    0.834798000000000 
P           0.666667000000000    0.333333000000000    0.500000000000000 
P           0.914853000000000    0.499475000000000    0.165202000000000 
P           0.914853000000000    0.499475000000000    0.834798000000000 
K           0.000000000000000    0.000000000000000    0.500000000000000 
K           0.666667000000000    0.333333000000000    0.000000000000000 
%ENDBLOCK POSITIONS_FRAC
