# Cell file generated by matador (Matthew Evans 2016)

%BLOCK LATTICE_CART
2.81214 0.0 0.0
0.0 5.81588 0.0
2.45084 0.0 5.06162
%ENDBLOCK LATTICE_CART

%BLOCK POSITIONS_FRAC
P           0.258582000000000    0.555545000000000    0.209283000000000 
P           0.500000000000000    0.751383000000000    0.000000000000000 
P           0.741418000000000    0.555545000000000    0.790717000000000 
K           0.500000000000000    0.401098000000000    0.500000000000000 
%ENDBLOCK POSITIONS_FRAC
