# Cell file generated by matador (Matthew Evans 2016)

%BLOCK LATTICE_CART
5.54082 0.0 0.0
-2.77041 4.79849 0.0
0.0 0.0 10.0877
%ENDBLOCK LATTICE_CART

%BLOCK POSITIONS_FRAC
P           0.000000000000000    0.000000000000000    0.309844000000000 
P           0.000000000000000    0.000000000000000    0.500000000000000 
P           0.000000000000000    0.000000000000000    0.690156000000000 
P           0.000000000000000    0.639042000000000    0.000000000000000 
P           0.360958000000000    0.360958000000000    0.000000000000000 
P           0.639042000000000    0.000000000000000    0.000000000000000 
K           0.000000000000000    0.000000000000000    0.000000000000000 
K           0.333333000000000    0.666667000000000    0.255489000000000 
K           0.333333000000000    0.666667000000000    0.503681000000000 
K           0.666667000000000    0.333333000000000    0.496319000000000 
K           0.666667000000000    0.333333000000000    0.744511000000000 
%ENDBLOCK POSITIONS_FRAC
