# Cell file generated by matador (Matthew Evans 2016)

%BLOCK LATTICE_CART
5.63153 0.0 0.0
-2.81577 4.87705 0.0
0.0 0.0 9.19926
%ENDBLOCK LATTICE_CART

%BLOCK POSITIONS_FRAC
P           0.333333000000000    0.666667000000000    0.370806000000000 
K           0.192356000000000    0.384714000000000    0.954419000000000 
K           0.192356000000000    0.807644000000000    0.954419000000000 
K           0.275848000000000    0.137925000000000    0.395741000000000 
K           0.615286000000000    0.807644000000000    0.954419000000000 
K           0.862075000000000    0.137925000000000    0.395741000000000 
K           0.862075000000000    0.724152000000000    0.395741000000000 
%ENDBLOCK POSITIONS_FRAC
