# Cell file generated by matador (Matthew Evans 2016)

%BLOCK LATTICE_CART
7.94638 0.0 0.0
-3.97319 6.88177 0.0
0.0 0.0 5.28214
%ENDBLOCK LATTICE_CART

%BLOCK POSITIONS_FRAC
P           0.666667000000000    0.333333000000000    0.500000000000000 
K           0.000000000000000   -0.000000000000000    0.000000000000000 
K           0.333334000000000    0.666666000000000    0.000000000000000 
K           0.517535000000000    0.035069000000000    0.500000000000000 
K           0.517535000000000    0.482465000000000    0.500000000000000 
K           0.666667000000000    0.333333000000000    0.000000000000000 
K           0.964931000000000    0.482465000000000    0.500000000000000 
%ENDBLOCK POSITIONS_FRAC
