# Cell file generated by matador (Matthew Evans 2016)

%BLOCK LATTICE_CART
9.22094 0.0 0.0
-4.61047 7.98557 0.0
0.0 0.0 6.18939
%ENDBLOCK LATTICE_CART

%BLOCK POSITIONS_FRAC
P           0.333334000000000    0.666668000000000    0.250000000000000 
P           0.333334000000000    0.666668000000000    0.750000000000000 
P           0.666668000000000    0.333334000000000    0.250000000000000 
P           0.666668000000000    0.333334000000000    0.750000000000000 
K           0.000001000000000    0.000001000000000    0.000000000000000 
K           0.000001000000000    0.000001000000000    0.500000000000000 
K           0.197678000000000    0.465632000000000    0.000000000000000 
K           0.197678000000000    0.732048000000000    0.500000000000000 
K           0.267954000000000    0.465632000000000    0.500000000000000 
K           0.267954000000000    0.802324000000000    0.000000000000000 
K           0.465632000000000    0.197678000000000    0.500000000000000 
K           0.465632000000000    0.267954000000000    0.000000000000000 
K           0.534370000000000    0.732048000000000    0.000000000000000 
K           0.534370000000000    0.802324000000000    0.500000000000000 
K           0.732048000000000    0.197678000000000    0.000000000000000 
K           0.732048000000000    0.534370000000000    0.500000000000000 
K           0.802324000000000    0.267954000000000    0.500000000000000 
K           0.802324000000000    0.534370000000000    0.000000000000000 
%ENDBLOCK POSITIONS_FRAC
