# Cell file generated by matador (Matthew Evans 2016)

%BLOCK LATTICE_CART
7.8533 0.0 0.0
-3.92665 6.80115 0.0
0.0 0.0 7.58464
%ENDBLOCK LATTICE_CART

%BLOCK POSITIONS_FRAC
P           0.297128000000000    0.148564000000000    0.000000000000000 
P           0.333333000000000    0.666667000000000    0.355305000000000 
P           0.333333000000000    0.666667000000000    0.644695000000000 
P           0.395552000000000    0.197776000000000    0.500000000000000 
P           0.666667000000000    0.333333000000000    0.263690000000000 
P           0.666667000000000    0.333333000000000    0.736310000000000 
P           0.802224000000000    0.197776000000000    0.500000000000000 
P           0.802224000000000    0.604448000000000    0.500000000000000 
P           0.851436000000000    0.148564000000000    0.000000000000000 
P           0.851436000000000    0.702872000000000    0.000000000000000 
K           0.000000000000000    0.000000000000000    0.000000000000000 
K           0.000000000000000    0.000000000000000    0.500000000000000 
K           0.333333000000000    0.666667000000000    0.000000000000000 
K           0.666667000000000    0.333333000000000    0.000000000000000 
%ENDBLOCK POSITIONS_FRAC
