# Cell file generated by matador (Matthew Evans 2016)

%BLOCK LATTICE_CART
7.73409 0.0 0.0
0.0 7.73409 0.0
0.0 0.0 14.4344
%ENDBLOCK LATTICE_CART

%BLOCK POSITIONS_FRAC
P           0.311329000000000    0.311329000000000    0.000000000000000 
P           0.311329000000000    0.688671000000000    0.000000000000000 
P           0.500000000000000    0.500000000000000    0.500000000000000 
P           0.688671000000000    0.311329000000000    0.000000000000000 
P           0.688671000000000    0.688671000000000    0.000000000000000 
K           0.000000000000000    0.000000000000000    0.000000000000000 
K           0.000000000000000    0.000000000000000    0.500000000000000 
K           0.000000000000000    0.302087000000000    0.131085000000000 
K           0.000000000000000    0.500000000000000    0.322022000000000 
K           0.000000000000000    0.500000000000000    0.591871000000000 
K           0.000000000000000    0.697913000000000    0.131085000000000 
K           0.294760000000000    0.500000000000000    0.752757000000000 
K           0.302087000000000    0.000000000000000    0.868915000000000 
K           0.500000000000000    0.000000000000000    0.408129000000000 
K           0.500000000000000    0.000000000000000    0.677978000000000 
K           0.500000000000000    0.294760000000000    0.247243000000000 
K           0.500000000000000    0.500000000000000    0.000000000000000 
K           0.500000000000000    0.705240000000000    0.247243000000000 
K           0.697913000000000    0.000000000000000    0.868915000000000 
K           0.705240000000000    0.500000000000000    0.752757000000000 
%ENDBLOCK POSITIONS_FRAC
