# Cell file generated by matador (Matthew Evans 2016)

%BLOCK LATTICE_CART
5.88089 0.0 0.0
0.0 6.15665 0.0
5.32934 0.0 9.79509
%ENDBLOCK LATTICE_CART

%BLOCK POSITIONS_FRAC
P           0.603964000000000    0.000000000000000    0.090158000000000 
P           0.687400000000000    0.000000000000000    0.216079000000000 
K           0.009839000000000    0.000000000000000    0.723765000000000 
K           0.252625000000000    0.330980000000000    0.525671000000000 
K           0.252625000000000    0.669020000000000    0.525671000000000 
K           0.340270000000000    0.500000000000000    0.718765000000000 
K           0.549907000000000    0.000000000000000    0.472424000000000 
K           0.973894000000000    0.310536000000000    0.284710000000000 
K           0.973894000000000    0.689464000000000    0.284710000000000 
%ENDBLOCK POSITIONS_FRAC
