# Cell file generated by matador (Matthew Evans 2016)

%BLOCK LATTICE_CART
5.16369 0.0 0.0
0.0 5.16369 0.0
0.0 0.0 5.42591
%ENDBLOCK LATTICE_CART

%BLOCK POSITIONS_FRAC
P           0.230221000000000    0.429761000000000    0.500000000000000 
P           0.429761000000000    0.769779000000000    0.500000000000000 
P           0.570239000000000    0.230221000000000    0.500000000000000 
P           0.769779000000000    0.570239000000000    0.500000000000000 
K           0.000000000000000    0.000000000000000    0.000000000000000 
K           0.500000000000000    0.500000000000000    0.000000000000000 
%ENDBLOCK POSITIONS_FRAC
