# Cell file generated by matador (Matthew Evans 2016)

%BLOCK LATTICE_CART
6.9196 0.0 0.0
-3.4598 5.99255 0.0
0.0 0.0 6.59585
%ENDBLOCK LATTICE_CART

%BLOCK POSITIONS_FRAC
P           0.079242000000000    0.832901000000000    0.443252000000000 
P           0.167099000000000    0.246340000000000    0.109918000000000 
P           0.246340000000000    0.079242000000000    0.776585000000000 
P           0.753660000000000    0.920758000000000    0.776585000000000 
P           0.832901000000000    0.753660000000000    0.109918000000000 
P           0.920758000000000    0.167099000000000    0.443252000000000 
K          -0.000000000000000    0.500000000000000    0.395406000000000 
K           0.500000000000000    0.000000000000000    0.728740000000000 
K           0.500000000000000    0.500000000000000    0.062073000000000 
%ENDBLOCK POSITIONS_FRAC
