# Cell file generated by matador (Matthew Evans 2016)

%BLOCK LATTICE_CART
11.3981 0.0 0.0
0.0 7.18816 0.0
0.0 0.0 8.766
%ENDBLOCK LATTICE_CART

%BLOCK POSITIONS_FRAC
P           0.000000000000000    0.000000000000000    0.000000000000000 
P           0.000000000000000    0.500000000000000    0.000000000000000 
P           0.500000000000000    0.000000000000000    0.000000000000000 
P           0.500000000000000    0.500000000000000    0.000000000000000 
K           0.000000000000000    0.226434000000000    0.176137000000000 
K           0.000000000000000    0.226434000000000    0.823863000000000 
K           0.000000000000000    0.500000000000000    0.500000000000000 
K           0.000000000000000    0.773566000000000    0.176137000000000 
K           0.000000000000000    0.773566000000000    0.823863000000000 
K           0.250000000000000    0.250000000000000    0.500000000000000 
K           0.250000000000000    0.750000000000000    0.500000000000000 
K           0.500000000000000    0.000000000000000    0.500000000000000 
K           0.500000000000000    0.273566000000000    0.176137000000000 
K           0.500000000000000    0.273566000000000    0.823863000000000 
K           0.500000000000000    0.726434000000000    0.176137000000000 
K           0.500000000000000    0.726434000000000    0.823863000000000 
K           0.750000000000000    0.250000000000000    0.500000000000000 
K           0.750000000000000    0.750000000000000    0.500000000000000 
%ENDBLOCK POSITIONS_FRAC
