# Cell file generated by matador (Matthew Evans 2016)

%BLOCK LATTICE_CART
8.19 0.0 0.0
0.0 8.19 0.0
0.0 0.0 8.19
%ENDBLOCK LATTICE_CART

%BLOCK POSITIONS_FRAC
P           0.140990000000000    0.140990000000000    0.859010000000000 
P           0.140990000000000    0.859010000000000    0.140990000000000 
P           0.859010000000000    0.140990000000000    0.140990000000000 
P           0.859010000000000    0.859010000000000    0.859010000000000 
K           0.000000000000000    0.000000000000000    0.000000000000000 
K           0.122962000000000    0.393349000000000    0.393349000000000 
K           0.122962000000000    0.606651000000000    0.606651000000000 
K           0.393349000000000    0.122962000000000    0.393349000000000 
K           0.393349000000000    0.393349000000000    0.122962000000000 
K           0.393349000000000    0.606651000000000    0.877038000000000 
K           0.393349000000000    0.877038000000000    0.606651000000000 
K           0.500000000000000    0.500000000000000    0.500000000000000 
K           0.606651000000000    0.122962000000000    0.606651000000000 
K           0.606651000000000    0.393349000000000    0.877038000000000 
K           0.606651000000000    0.606651000000000    0.122962000000000 
K           0.606651000000000    0.877038000000000    0.393349000000000 
K           0.877038000000000    0.393349000000000    0.606651000000000 
K           0.877038000000000    0.606651000000000    0.393349000000000 
%ENDBLOCK POSITIONS_FRAC
