# Cell file generated by matador (Matthew Evans 2016)

%BLOCK LATTICE_CART
14.2682 0.0 0.0
-7.1341 12.3566 0.0
0.0 0.0 5.98644
%ENDBLOCK LATTICE_CART

%BLOCK POSITIONS_FRAC
P           0.000000000000000    0.000000000000000    0.000000000000000 
P           0.000000000000000    0.000000000000000    0.500000000000000 
P           0.333333000000000    0.666667000000000    0.000000000000000 
P           0.333333000000000    0.666667000000000    0.500000000000000 
P           0.442868000000000    0.328643000000000    0.500000000000000 
P           0.671357000000000    0.114225000000000    0.500000000000000 
P           0.885775000000000    0.557132000000000    0.500000000000000 
K           0.029732000000000    0.454974000000000    0.000000000000000 
K           0.059177000000000    0.851436000000000    0.000000000000000 
K           0.070358000000000    0.558265000000000    0.500000000000000 
K           0.148564000000000    0.207741000000000    0.000000000000000 
K           0.150392000000000    0.322532000000000    0.500000000000000 
K           0.172140000000000    0.849608000000000    0.500000000000000 
K           0.205580000000000    0.686288000000000    0.000000000000000 
K           0.290114000000000    0.084334000000000    0.000000000000000 
K           0.313712000000000    0.519292000000000    0.000000000000000 
K           0.425242000000000    0.970268000000000    0.000000000000000 
K           0.441735000000000    0.512094000000000    0.500000000000000 
K           0.480708000000000    0.794420000000000    0.000000000000000 
K           0.487906000000000    0.929642000000000    0.500000000000000 
K           0.545026000000000    0.574758000000000    0.000000000000000 
K           0.592291000000000    0.197945000000000    0.000000000000000 
K           0.605654000000000    0.407709000000000    0.000000000000000 
K           0.677468000000000    0.827860000000000    0.500000000000000 
K           0.792259000000000    0.940823000000000    0.000000000000000 
K           0.794219000000000    0.709886000000000    0.000000000000000 
K           0.802055000000000    0.394346000000000    0.000000000000000 
K           0.915666000000000    0.205781000000000    0.000000000000000 
%ENDBLOCK POSITIONS_FRAC
