# Cell file generated by matador (Matthew Evans 2016)

%BLOCK LATTICE_CART
13.5742 0.0 0.0
0.0 11.9452 0.0
0.0 0.0 8.50767
%ENDBLOCK LATTICE_CART

%BLOCK POSITIONS_FRAC
P           0.000000000000000    0.011136000000000    0.750000000000000 
P           0.000000000000000    0.500000000000000    0.000000000000000 
P           0.000000000000000    0.500000000000000    0.500000000000000 
P           0.000000000000000    0.988864000000000    0.250000000000000 
P           0.500000000000000    0.000000000000000    0.000000000000000 
P           0.500000000000000    0.000000000000000    0.500000000000000 
P           0.500000000000000    0.488864000000000    0.250000000000000 
P           0.500000000000000    0.511136000000000    0.750000000000000 
K           0.000000000000000    0.121387000000000    0.074368000000000 
K           0.000000000000000    0.121387000000000    0.425632000000000 
K           0.000000000000000    0.343817000000000    0.575501000000000 
K           0.000000000000000    0.343817000000000    0.924499000000000 
K           0.000000000000000    0.656183000000000    0.075501000000000 
K           0.000000000000000    0.656183000000000    0.424499000000000 
K           0.000000000000000    0.878613000000000    0.574368000000000 
K           0.000000000000000    0.878613000000000    0.925632000000000 
K           0.250000000000000    0.250000000000000    0.000000000000000 
K           0.250000000000000    0.250000000000000    0.500000000000000 
K           0.250000000000000    0.750000000000000    0.000000000000000 
K           0.250000000000000    0.750000000000000    0.500000000000000 
K           0.500000000000000    0.156183000000000    0.075501000000000 
K           0.500000000000000    0.156183000000000    0.424499000000000 
K           0.500000000000000    0.378613000000000    0.574368000000000 
K           0.500000000000000    0.378613000000000    0.925632000000000 
K           0.500000000000000    0.621387000000000    0.074368000000000 
K           0.500000000000000    0.621387000000000    0.425632000000000 
K           0.500000000000000    0.843817000000000    0.575501000000000 
K           0.500000000000000    0.843817000000000    0.924499000000000 
K           0.750000000000000    0.250000000000000    0.000000000000000 
K           0.750000000000000    0.250000000000000    0.500000000000000 
K           0.750000000000000    0.750000000000000    0.000000000000000 
K           0.750000000000000    0.750000000000000    0.500000000000000 
%ENDBLOCK POSITIONS_FRAC
