# Cell file generated by matador (Matthew Evans 2016)

%BLOCK LATTICE_CART
7.26385 0.0 0.0
0.0 7.26385 0.0
0.0 0.0 12.5992
%ENDBLOCK LATTICE_CART

%BLOCK POSITIONS_FRAC
P          -0.000000000000000    0.000000000000000    0.000000000000000 
P          -0.000000000000000    0.000000000000000    0.226033000000000 
P          -0.000000000000000    0.000000000000000    0.773967000000000 
P          -0.000000000000000    0.224664000000000    0.000000000000000 
P          -0.000000000000000    0.775336000000000    0.000000000000000 
P           0.224664000000000    0.000000000000000    0.000000000000000 
P           0.275336000000000    0.500000000000000    0.500000000000000 
P           0.500000000000000    0.275336000000000    0.500000000000000 
P           0.500000000000000    0.500000000000000    0.273967000000000 
P           0.500000000000000    0.500000000000000    0.500000000000000 
P           0.500000000000000    0.500000000000000    0.726033000000000 
P           0.500000000000000    0.724664000000000    0.500000000000000 
P           0.724664000000000    0.500000000000000    0.500000000000000 
P           0.775336000000000    0.000000000000000    0.000000000000000 
K          -0.000000000000000    0.500000000000000    0.000000000000000 
K          -0.000000000000000    0.500000000000000    0.500000000000000 
K           0.500000000000000    0.000000000000000    0.000000000000000 
K           0.500000000000000    0.000000000000000    0.500000000000000 
%ENDBLOCK POSITIONS_FRAC
