# Cell file generated by matador (Matthew Evans 2016)

%BLOCK LATTICE_CART
8.05721 0.0 0.0
0.0 8.07291 0.0
-0.0128014 0.0 8.29482
%ENDBLOCK LATTICE_CART

%BLOCK POSITIONS_FRAC
P           0.087991000000000    0.500000000000000    0.001099000000000 
P           0.103718000000000    0.000000000000000    0.557395000000000 
P           0.224771000000000    0.000000000000000    0.095089000000000 
P           0.314053000000000    0.000000000000000    0.476722000000000 
P           0.359003000000000    0.500000000000000    0.147806000000000 
P           0.546160000000000    0.000000000000000    0.038653000000000 
P           0.716848000000000    0.000000000000000    0.966604000000000 
P           0.736526000000000    0.000000000000000    0.389242000000000 
P           0.753342000000000    0.000000000000000    0.554527000000000 
P           0.872550000000000    0.000000000000000    0.590923000000000 
P           0.874009000000000    0.500000000000000    0.094281000000000 
P           0.879226000000000    0.500000000000000    0.341914000000000 
P           0.918929000000000    0.000000000000000    0.468162000000000 
P           0.981336000000000    0.500000000000000    0.887454000000000 
K           0.135035000000000    0.315399000000000    0.409747000000000 
K           0.135035000000000    0.684601000000000    0.409747000000000 
K           0.536301000000000    0.238774000000000    0.464333000000000 
K           0.536301000000000    0.761226000000000    0.464333000000000 
K           0.794394000000000    0.223936000000000    0.804956000000000 
K           0.794394000000000    0.776064000000000    0.804956000000000 
%ENDBLOCK POSITIONS_FRAC
