# Cell file generated by matador (Matthew Evans 2016)

%BLOCK LATTICE_CART
6.26337 0.0 0.0
0.0 7.05777 0.0
0.0 0.0 8.5066
%ENDBLOCK LATTICE_CART

%BLOCK POSITIONS_FRAC
P           0.000000000000000    0.000000000000000    0.000000000000000 
P           0.397538000000000    0.189195000000000    0.471644000000000 
P           0.397538000000000    0.810805000000000    0.528356000000000 
P           0.500000000000000    0.000000000000000    0.000000000000000 
P           0.500000000000000    0.000000000000000    0.500000000000000 
P           0.602462000000000    0.189195000000000    0.528356000000000 
P           0.602462000000000    0.810805000000000    0.471644000000000 
K           0.199508000000000    0.292151000000000    0.700378000000000 
K           0.199508000000000    0.707849000000000    0.299622000000000 
K           0.500000000000000    0.500000000000000    0.000000000000000 
K           0.800492000000000    0.292151000000000    0.299622000000000 
K           0.800492000000000    0.707849000000000    0.700378000000000 
%ENDBLOCK POSITIONS_FRAC
