# Cell file generated by matador (Matthew Evans 2016)

%BLOCK LATTICE_CART
7.82895 0.0 0.0
-3.91448 6.78007 0.0
0.0 0.0 5.27998
%ENDBLOCK LATTICE_CART

%BLOCK POSITIONS_FRAC
P           0.042641000000000    0.290071000000000    0.573104000000000 
P           0.042641000000000    0.752570000000000    0.573104000000000 
P           0.247430000000000    0.290071000000000    0.573104000000000 
P           0.247430000000000    0.957359000000000    0.573104000000000 
P           0.709929000000000    0.752570000000000    0.573104000000000 
P           0.709929000000000    0.957359000000000    0.573104000000000 
K           0.000000000000000    0.000000000000000    0.596071000000000 
K           0.200014000000000    0.100007000000000    0.082744000000000 
K           0.333333000000000    0.666667000000000    0.148188000000000 
K           0.899993000000000    0.100007000000000    0.082744000000000 
K           0.899993000000000    0.799986000000000    0.082744000000000 
%ENDBLOCK POSITIONS_FRAC
