# Cell file generated by matador (Matthew Evans 2016)

%BLOCK LATTICE_CART
8.82318 0.0 0.0
0.0 7.06192 0.0
-1.67804 0.0 5.03103
%ENDBLOCK LATTICE_CART

%BLOCK POSITIONS_FRAC
P           0.000000000000000    0.500000000000000    0.000000000000000 
P           0.500000000000000    0.000000000000000    0.000000000000000 
K           0.000000000000000    0.000000000000000    0.500000000000000 
K           0.000000000000000    0.500000000000000    0.500000000000000 
K           0.187566000000000    0.000000000000000    0.112576000000000 
K           0.500000000000000    0.000000000000000    0.500000000000000 
K           0.500000000000000    0.500000000000000    0.000000000000000 
K           0.812434000000000    0.000000000000000    0.887424000000000 
%ENDBLOCK POSITIONS_FRAC
