# Cell file generated by matador (Matthew Evans 2016)

%BLOCK LATTICE_CART
8.29949 0.0 0.0
-4.14975 7.18757 0.0
0.0 0.0 5.84096
%ENDBLOCK LATTICE_CART

%BLOCK POSITIONS_FRAC
P           0.000000000000000   -0.000000000000000   -0.000000000000000 
P           0.000000000000000   -0.000000000000000    0.166322000000000 
P           0.000000000000000   -0.000000000000000    0.833678000000000 
P           0.333333000000000    0.666667000000000    0.500345000000000 
P           0.333333000000000    0.666667000000000    0.666667000000000 
P           0.333333000000000    0.666667000000000    0.832988000000000 
P           0.666667000000000    0.333333000000000    0.167012000000000 
P           0.666667000000000    0.333333000000000    0.333333000000000 
P           0.666667000000000    0.333333000000000    0.499655000000000 
K           0.000000000000000   -0.000000000000000    0.500000000000000 
K           0.333333000000000    0.666667000000000    0.166667000000000 
K           0.666667000000000    0.333333000000000    0.833333000000000 
%ENDBLOCK POSITIONS_FRAC
