# Cell file generated by matador (Matthew Evans 2016)

%BLOCK LATTICE_CART
11.8523 0.0 0.0
0.0 4.9527 0.0
0.0 0.0 8.66425
%ENDBLOCK LATTICE_CART

%BLOCK POSITIONS_FRAC
P           0.000000000000000    0.490749000000000    0.250000000000000 
P           0.000000000000000    0.509251000000000    0.750000000000000 
P           0.112835000000000    0.419211000000000    0.121577000000000 
P           0.112835000000000    0.580789000000000    0.878423000000000 
P           0.361610000000000    0.464354000000000    0.192650000000000 
P           0.361610000000000    0.535646000000000    0.807350000000000 
P           0.638390000000000    0.464354000000000    0.307350000000000 
P           0.638390000000000    0.535646000000000    0.692650000000000 
P           0.887165000000000    0.419211000000000    0.378423000000000 
P           0.887165000000000    0.580789000000000    0.621577000000000 
K           0.421967000000000    0.228631000000000    0.672889000000000 
K           0.421967000000000    0.771369000000000    0.327111000000000 
K           0.500000000000000    0.247660000000000    0.250000000000000 
K           0.500000000000000    0.752340000000000    0.750000000000000 
K           0.578033000000000    0.228631000000000    0.827111000000000 
K           0.578033000000000    0.771369000000000    0.172889000000000 
%ENDBLOCK POSITIONS_FRAC
