# Cell file generated by matador (Matthew Evans 2016)

%BLOCK LATTICE_CART
7.42413 0.0 0.0
-3.71207 6.42949 0.0
0.0 0.0 7.31579
%ENDBLOCK LATTICE_CART

%BLOCK POSITIONS_FRAC
P           0.000000000000000    0.000000000000000    0.000000000000000 
P           0.000000000000000    0.000000000000000    0.250000000000000 
P           0.000000000000000    0.000000000000000    0.500000000000000 
P           0.000000000000000    0.000000000000000    0.750000000000000 
P           0.333333000000000    0.666667000000000    0.250000000000000 
P           0.333333000000000    0.666667000000000    0.750000000000000 
P           0.666667000000000    0.333333000000000    0.250000000000000 
P           0.666667000000000    0.333333000000000    0.750000000000000 
K           0.073072000000000    0.343070000000000    0.250000000000000 
K           0.269998000000000    0.926928000000000    0.250000000000000 
K           0.343070000000000    0.269998000000000    0.750000000000000 
K           0.656930000000000    0.730002000000000    0.250000000000000 
K           0.730002000000000    0.073072000000000    0.750000000000000 
K           0.926928000000000    0.656930000000000    0.750000000000000 
%ENDBLOCK POSITIONS_FRAC
