# Cell file generated by matador (Matthew Evans 2016)

%BLOCK LATTICE_CART
9.54692 0.0 0.0
0.0 9.54692 0.0
0.0 0.0 11.406
%ENDBLOCK LATTICE_CART

%BLOCK POSITIONS_FRAC
P           0.000000000000000    0.000000000000000    0.000000000000000 
P           0.000000000000000    0.500000000000000    0.250000000000000 
P           0.000000000000000    0.500000000000000    0.750000000000000 
P           0.500000000000000    0.000000000000000    0.250000000000000 
P           0.500000000000000    0.000000000000000    0.750000000000000 
P           0.500000000000000    0.500000000000000    0.500000000000000 
K           0.000000000000000    0.000000000000000    0.500000000000000 
K           0.007203000000000    0.757182000000000    0.000000000000000 
K           0.242818000000000    0.007203000000000    0.000000000000000 
K           0.250000000000000    0.250000000000000    0.250000000000000 
K           0.250000000000000    0.250000000000000    0.750000000000000 
K           0.250000000000000    0.750000000000000    0.250000000000000 
K           0.250000000000000    0.750000000000000    0.750000000000000 
K           0.257182000000000    0.492797000000000    0.500000000000000 
K           0.492797000000000    0.742818000000000    0.500000000000000 
K           0.500000000000000    0.500000000000000    0.000000000000000 
K           0.507203000000000    0.257182000000000    0.500000000000000 
K           0.742818000000000    0.507203000000000    0.500000000000000 
K           0.750000000000000    0.250000000000000    0.250000000000000 
K           0.750000000000000    0.250000000000000    0.750000000000000 
K           0.750000000000000    0.750000000000000    0.250000000000000 
K           0.750000000000000    0.750000000000000    0.750000000000000 
K           0.757182000000000    0.992797000000000    0.000000000000000 
K           0.992797000000000    0.242818000000000    0.000000000000000 
%ENDBLOCK POSITIONS_FRAC
