# Cell file generated by matador (Matthew Evans 2016)

%BLOCK LATTICE_CART
7.8944 0.0 0.0
-0.445772 6.43645 0.0
3.66455 -4.97154 9.25589
%ENDBLOCK LATTICE_CART

%BLOCK POSITIONS_FRAC
P           0.436126000000000    0.913733000000000    0.356230000000000 
P           0.563874000000000    0.086267000000000    0.643770000000000 
K           0.000000000000000    0.000000000000000    0.000000000000000 
K           0.000000000000000    0.000000000000000    0.500000000000000 
K           0.000000000000000    0.500000000000000    0.000000000000000 
K           0.134221000000000    0.704562000000000    0.253259000000000 
K           0.211128000000000    0.082383000000000    0.115149000000000 
K           0.214724000000000    0.156312000000000    0.808950000000000 
K           0.500000000000000    0.000000000000000    0.000000000000000 
K           0.500000000000000    0.500000000000000    0.000000000000000 
K           0.500000000000000    0.500000000000000    0.500000000000000 
K           0.785276000000000    0.843688000000000    0.191050000000000 
K           0.788872000000000    0.917617000000000    0.884851000000000 
K           0.865779000000000    0.295438000000000    0.746741000000000 
%ENDBLOCK POSITIONS_FRAC
