# Cell file generated by matador (Matthew Evans 2016)

%BLOCK LATTICE_CART
6.6209 0.0 0.0
-3.31045 5.73387 0.0
0.0 0.0 7.43704
%ENDBLOCK LATTICE_CART

%BLOCK POSITIONS_FRAC
P           0.000000000000000    0.000000000000000    0.323560000000000 
P           0.000000000000000    0.000000000000000    0.485527000000000 
P           0.000000000000000    0.000000000000000    0.687708000000000 
P           0.000000000000000    0.000000000000000    0.903165000000000 
K           0.000000000000000    0.500000000000000    0.559067000000000 
K           0.333333000000000    0.666667000000000    0.177263000000000 
K           0.500000000000000    0.000000000000000    0.559067000000000 
K           0.500000000000000    0.500000000000000    0.559067000000000 
K           0.666667000000000    0.333333000000000    0.177263000000000 
%ENDBLOCK POSITIONS_FRAC
