# Cell file generated by matador (Matthew Evans 2016)

%BLOCK LATTICE_CART
11.3964 0.0 0.0
1.48076 5.29782 0.0
-1.84839 0.300868 6.98298
%ENDBLOCK LATTICE_CART

%BLOCK POSITIONS_FRAC
P           0.000000000000000    0.000000000000000    0.000000000000000 
P           0.000000000000000    0.000000000000000    0.500000000000000 
P           0.000000000000000    0.500000000000000    0.000000000000000 
P           0.000000000000000    0.500000000000000    0.500000000000000 
P           0.175187000000000    0.580532000000000    0.869652000000000 
P           0.194181000000000    0.556818000000000    0.207981000000000 
P           0.242178000000000    0.002818000000000    0.139094000000000 
P           0.287739000000000    0.234568000000000    0.615990000000000 
P           0.500000000000000    0.000000000000000    0.500000000000000 
P           0.500000000000000    0.500000000000000    0.500000000000000 
P           0.712261000000000    0.765432000000000    0.384010000000000 
P           0.757822000000000    0.997182000000000    0.860906000000000 
P           0.805819000000000    0.443182000000000    0.792019000000000 
P           0.824813000000000    0.419468000000000    0.130348000000000 
K           0.309295000000000    0.633444000000000    0.517071000000000 
K           0.396844000000000    0.047743000000000    0.010539000000000 
K           0.603156000000000    0.952257000000000    0.989461000000000 
K           0.690705000000000    0.366556000000000    0.482929000000000 
%ENDBLOCK POSITIONS_FRAC
