# Cell file generated by matador (Matthew Evans 2016)

%BLOCK LATTICE_CART
6.73142 0.0 0.0
-3.36571 5.82958 0.0
0.0 0.0 10.0331
%ENDBLOCK LATTICE_CART

%BLOCK POSITIONS_FRAC
P           0.333333000000000    0.666667000000000    0.000000000000000 
P           0.333333000000000    0.666667000000000    0.500000000000000 
P           0.666666000000000    0.333334000000000    0.000000000000000 
P           0.666666000000000    0.333334000000000    0.500000000000000 
K          -0.000000000000000    0.000000000000000    0.500000000000000 
K          -0.000000000000000    0.202256000000000    0.137264000000000 
K          -0.000000000000000    0.202256000000000    0.862736000000000 
K           0.202256000000000    0.000000000000000    0.137264000000000 
K           0.202256000000000    0.000000000000000    0.862736000000000 
K           0.797744000000000    0.797744000000000    0.137264000000000 
K           0.797744000000000    0.797744000000000    0.862736000000000 
%ENDBLOCK POSITIONS_FRAC
