# Cell file generated by matador (Matthew Evans 2016)

%BLOCK LATTICE_CART
8.82934 0.0 0.0
-4.41467 7.64643 0.0
0.0 0.0 5.96352
%ENDBLOCK LATTICE_CART

%BLOCK POSITIONS_FRAC
P           0.000000000000000    0.000000000000000    0.000000000000000 
P           0.000000000000000    0.000000000000000    0.164628000000000 
P           0.000000000000000    0.000000000000000    0.835372000000000 
P           0.333333000000000    0.666667000000000    0.302446000000000 
P           0.666667000000000    0.333333000000000    0.697554000000000 
K           0.000000000000000    0.000000000000000    0.500000000000000 
K           0.189324000000000    0.789083000000000    0.932049000000000 
K           0.210917000000000    0.400241000000000    0.932049000000000 
K           0.400241000000000    0.210917000000000    0.067951000000000 
K           0.599759000000000    0.810676000000000    0.932049000000000 
K           0.789083000000000    0.189324000000000    0.067951000000000 
K           0.810676000000000    0.599759000000000    0.067951000000000 
%ENDBLOCK POSITIONS_FRAC
