# Cell file generated by matador (Matthew Evans 2016)

%BLOCK LATTICE_CART
6.81362 0.0 0.0
0.0 6.81362 0.0
0.0 0.0 7.15096
%ENDBLOCK LATTICE_CART

%BLOCK POSITIONS_FRAC
P           0.000000000000000    0.197856000000000    0.500000000000000 
P           0.000000000000000    0.500000000000000    0.500000000000000 
P           0.000000000000000    0.802144000000000    0.500000000000000 
P           0.197856000000000    0.000000000000000    0.500000000000000 
P           0.385462000000000    0.500000000000000    0.000000000000000 
P           0.500000000000000    0.000000000000000    0.500000000000000 
P           0.500000000000000    0.385462000000000    0.000000000000000 
P           0.500000000000000    0.614538000000000    0.000000000000000 
P           0.614538000000000    0.500000000000000    0.000000000000000 
P           0.802144000000000    0.000000000000000    0.500000000000000 
K           0.000000000000000    0.000000000000000    0.000000000000000 
K           0.500000000000000    0.500000000000000    0.500000000000000 
%ENDBLOCK POSITIONS_FRAC
