# Cell file generated by matador (Matthew Evans 2016)

%BLOCK LATTICE_CART
7.77791 0.0 0.0
0.0 7.77791 0.0
0.0 0.0 10.316
%ENDBLOCK LATTICE_CART

%BLOCK POSITIONS_FRAC
P           0.000000000000000    0.000000000000000    0.000000000000000 
P           0.000000000000000    0.500000000000000    0.250000000000000 
P           0.500000000000000    0.000000000000000    0.750000000000000 
P           0.500000000000000    0.500000000000000    0.500000000000000 
K           0.000000000000000    0.000000000000000    0.500000000000000 
K           0.000000000000000    0.500000000000000    0.750000000000000 
K           0.238431000000000    0.250000000000000    0.125000000000000 
K           0.250000000000000    0.738431000000000    0.375000000000000 
K           0.250000000000000    0.761569000000000    0.875000000000000 
K           0.261569000000000    0.250000000000000    0.625000000000000 
K           0.500000000000000    0.000000000000000    0.250000000000000 
K           0.500000000000000    0.500000000000000    0.000000000000000 
K           0.738431000000000    0.750000000000000    0.625000000000000 
K           0.750000000000000    0.238431000000000    0.875000000000000 
K           0.750000000000000    0.261569000000000    0.375000000000000 
K           0.761569000000000    0.750000000000000    0.125000000000000 
%ENDBLOCK POSITIONS_FRAC
