# Cell file generated by matador (Matthew Evans 2016)

%BLOCK LATTICE_CART
8.99729 0.0 0.0
-4.49864 7.79188 0.0
0.0 0.0 10.3445
%ENDBLOCK LATTICE_CART

%BLOCK POSITIONS_FRAC
P           0.000000000000000    0.000000000000000    0.027967000000000 
P           0.291918000000000    0.145959000000000    0.241268000000000 
P           0.333333000000000    0.666667000000000    0.471882000000000 
P           0.854041000000000    0.145959000000000    0.241268000000000 
P           0.854041000000000    0.708082000000000    0.241268000000000 
K           0.128870000000000    0.257740000000000    0.360979000000000 
K           0.128870000000000    0.871130000000000    0.360979000000000 
K           0.168163000000000    0.336326000000000    0.987861000000000 
K           0.168163000000000    0.831837000000000    0.987861000000000 
K           0.268615000000000    0.134307000000000    0.588263000000000 
K           0.510226000000000    0.020453000000000    0.483005000000000 
K           0.510226000000000    0.489774000000000    0.483005000000000 
K           0.513931000000000    0.027863000000000    0.816636000000000 
K           0.513931000000000    0.486069000000000    0.816636000000000 
K           0.663674000000000    0.831837000000000    0.987861000000000 
K           0.742260000000000    0.871130000000000    0.360979000000000 
K           0.865693000000000    0.134307000000000    0.588263000000000 
K           0.865693000000000    0.731385000000000    0.588263000000000 
K           0.972137000000000    0.486069000000000    0.816636000000000 
K           0.979547000000000    0.489774000000000    0.483005000000000 
%ENDBLOCK POSITIONS_FRAC
