# Cell file generated by matador (Matthew Evans 2016)

%BLOCK LATTICE_CART
8.26999 0.0 0.0
0.0 5.86324 0.0
-0.0039595 0.0 10.5299
%ENDBLOCK LATTICE_CART

%BLOCK POSITIONS_FRAC
P           0.000000000000000    0.000000000000000    0.000000000000000 
P           0.000000000000000    0.000000000000000    0.500000000000000 
P           0.000000000000000    0.500000000000000    0.000000000000000 
P           0.386281000000000    0.178402000000000    0.595372000000000 
P           0.386281000000000    0.821598000000000    0.595372000000000 
P           0.486574000000000    0.194349000000000    0.745369000000000 
P           0.486574000000000    0.805651000000000    0.745369000000000 
P           0.500000000000000    0.000000000000000    0.000000000000000 
P           0.500000000000000    0.000000000000000    0.500000000000000 
P           0.500000000000000    0.500000000000000    0.000000000000000 
P           0.500000000000000    0.500000000000000    0.500000000000000 
P           0.513426000000000    0.194349000000000    0.254631000000000 
P           0.513426000000000    0.805651000000000    0.254631000000000 
P           0.613719000000000    0.178402000000000    0.404628000000000 
P           0.613719000000000    0.821598000000000    0.404628000000000 
K           0.000000000000000    0.500000000000000    0.500000000000000 
K           0.154612000000000    0.268514000000000    0.837010000000000 
K           0.154612000000000    0.731486000000000    0.837010000000000 
K           0.845388000000000    0.268514000000000    0.162990000000000 
K           0.845388000000000    0.731486000000000    0.162990000000000 
%ENDBLOCK POSITIONS_FRAC
