# Cell file generated by matador (Matthew Evans 2016)

%BLOCK LATTICE_CART
8.52391 0.0 0.0
-4.26196 7.38192 0.0
0.0 0.0 6.20124
%ENDBLOCK LATTICE_CART

%BLOCK POSITIONS_FRAC
P           0.085351000000000    0.232945000000000    0.250000000000000 
P           0.086426000000000    0.264413000000000    0.750000000000000 
P           0.147594000000000    0.914649000000000    0.250000000000000 
P           0.177986000000000    0.913574000000000    0.750000000000000 
P           0.232945000000000    0.085351000000000    0.750000000000000 
P           0.264413000000000    0.086426000000000    0.250000000000000 
P           0.333333000000000    0.666667000000000    0.750000000000000 
P           0.666667000000000    0.333333000000000    0.250000000000000 
P           0.735587000000000    0.822014000000000    0.750000000000000 
P           0.767055000000000    0.852406000000000    0.250000000000000 
P           0.822014000000000    0.735587000000000    0.250000000000000 
P           0.852406000000000    0.767055000000000    0.750000000000000 
P           0.913574000000000    0.177986000000000    0.250000000000000 
P           0.914649000000000    0.147594000000000    0.750000000000000 
K           0.022786000000000    0.500550000000000    0.750000000000000 
K           0.477764000000000    0.977214000000000    0.750000000000000 
K           0.499450000000000    0.522236000000000    0.750000000000000 
K           0.500550000000000    0.022786000000000    0.250000000000000 
K           0.522236000000000    0.499450000000000    0.250000000000000 
K           0.977214000000000    0.477764000000000    0.250000000000000 
%ENDBLOCK POSITIONS_FRAC
