# Cell file generated by matador (Matthew Evans 2016)

%BLOCK LATTICE_CART
7.4117 0.0 0.0
0.0 7.98236 0.0
0.0 0.0 6.26525
%ENDBLOCK LATTICE_CART

%BLOCK POSITIONS_FRAC
P           0.052775000000000    0.314842000000000    0.954949000000000 
P           0.052775000000000    0.685158000000000    0.454949000000000 
P           0.250000000000000    0.000000000000000    0.185014000000000 
P           0.250000000000000    0.000000000000000    0.685014000000000 
P           0.447225000000000    0.314842000000000    0.454949000000000 
P           0.447225000000000    0.685158000000000    0.954949000000000 
P           0.552775000000000    0.314842000000000    0.045051000000000 
P           0.552775000000000    0.685158000000000    0.545051000000000 
P           0.750000000000000    0.000000000000000    0.314986000000000 
P           0.750000000000000    0.000000000000000    0.814986000000000 
P           0.947225000000000    0.314842000000000    0.545051000000000 
P           0.947225000000000    0.685158000000000    0.045051000000000 
K           0.000000000000000    0.000000000000000    0.000000000000000 
K           0.000000000000000    0.000000000000000    0.500000000000000 
K           0.500000000000000    0.000000000000000    0.000000000000000 
K           0.500000000000000    0.000000000000000    0.500000000000000 
%ENDBLOCK POSITIONS_FRAC
