# Cell file generated by matador (Matthew Evans 2016)

%BLOCK LATTICE_CART
7.94053 0.0 0.0
-3.97026 6.8767 0.0
0.0 0.0 8.7751
%ENDBLOCK LATTICE_CART

%BLOCK POSITIONS_FRAC
P           0.000000000000000    0.000000000000000    0.763534000000000 
P           0.333333000000000    0.666667000000000    0.430200000000000 
P           0.666667000000000    0.333333000000000    0.096867000000000 
K           0.060702000000000    0.530351000000000    0.719720000000000 
K           0.136316000000000    0.272631000000000    0.053053000000000 
K           0.136316000000000    0.863684000000000    0.053053000000000 
K           0.394035000000000    0.197018000000000    0.386387000000000 
K           0.469649000000000    0.530351000000000    0.719720000000000 
K           0.469649000000000    0.939298000000000    0.719720000000000 
K           0.727369000000000    0.863684000000000    0.053053000000000 
K           0.802982000000000    0.197018000000000    0.386387000000000 
K           0.802982000000000    0.605965000000000    0.386387000000000 
%ENDBLOCK POSITIONS_FRAC
