# Cell file generated by matador (Matthew Evans 2016)

%BLOCK LATTICE_CART
6.05244 0.0 0.0
-3.02622 5.24157 0.0
0.0 0.0 6.71889
%ENDBLOCK LATTICE_CART

%BLOCK POSITIONS_FRAC
P          -0.000000000000000    0.000000000000000    0.000000000000000 
P          -0.000000000000000    0.000000000000000    0.500000000000000 
P          -0.000000000000000    0.438446000000000    0.500000000000000 
P           0.438446000000000    0.000000000000000    0.500000000000000 
P           0.561554000000000    0.561554000000000    0.500000000000000 
K           0.333333000000000    0.666667000000000    0.122918000000000 
K           0.666666000000000    0.333334000000000    0.877082000000000 
%ENDBLOCK POSITIONS_FRAC
