# Cell file generated by matador (Matthew Evans 2016)

%BLOCK LATTICE_CART
5.58481 0.0 0.0
-2.7924 4.83659 0.0
0.0 0.0 11.2958
%ENDBLOCK LATTICE_CART

%BLOCK POSITIONS_FRAC
P          -0.000000000000000    0.000000000000000    0.190967000000000 
P          -0.000000000000000    0.000000000000000    0.281663000000000 
P          -0.000000000000000    0.000000000000000    0.433126000000000 
P          -0.000000000000000    0.000000000000000    0.704953000000000 
P           0.333333000000000    0.666667000000000    0.130697000000000 
P           0.333333000000000    0.666667000000000    0.932923000000000 
P           0.376002000000000    0.111516000000000    0.959468000000000 
P           0.666666000000000    0.333334000000000    0.313492000000000 
P           0.666666000000000    0.333334000000000    0.511299000000000 
P           0.666666000000000    0.333334000000000    0.905178000000000 
P           0.735514000000000    0.623998000000000    0.959468000000000 
P           0.888484000000000    0.264486000000000    0.959468000000000 
K           0.333333000000000    0.666667000000000    0.321330000000000 
K           0.448787000000000    0.387882000000000    0.712729000000000 
K           0.612118000000000    0.060906000000000    0.712729000000000 
K           0.939094000000000    0.551213000000000    0.712729000000000 
%ENDBLOCK POSITIONS_FRAC
