# Cell file generated by matador (Matthew Evans 2016)

%BLOCK LATTICE_CART
8.10076 0.0 0.0
-4.05038 7.01547 0.0
0.0 0.0 11.1623
%ENDBLOCK LATTICE_CART

%BLOCK POSITIONS_FRAC
P           0.000000000000000    0.000000000000000    0.210269000000000 
P           0.000000000000000    0.000000000000000    0.744812000000000 
P           0.666667000000000    0.333333000000000    0.282770000000000 
P           0.666667000000000    0.333333000000000    0.575015000000000 
K           0.033444000000000    0.516722000000000    0.497460000000000 
K           0.269622000000000    0.134811000000000    0.655740000000000 
K           0.275823000000000    0.137912000000000    0.040106000000000 
K           0.378625000000000    0.189312000000000    0.305919000000000 
K           0.483278000000000    0.516722000000000    0.497460000000000 
K           0.483278000000000    0.966556000000000    0.497460000000000 
K           0.810688000000000    0.189312000000000    0.305919000000000 
K           0.810688000000000    0.621375000000000    0.305919000000000 
K           0.862088000000000    0.137912000000000    0.040106000000000 
K           0.862088000000000    0.724177000000000    0.040106000000000 
K           0.865189000000000    0.134811000000000    0.655740000000000 
K           0.865189000000000    0.730378000000000    0.655740000000000 
%ENDBLOCK POSITIONS_FRAC
