# Cell file generated by matador (Matthew Evans 2016)

%BLOCK LATTICE_CART
6.99541 0.0 0.0
-3.4977 6.0582 0.0
0.0 0.0 9.90114
%ENDBLOCK LATTICE_CART

%BLOCK POSITIONS_FRAC
P           0.333332000000000    0.666666000000000    0.298002000000000 
P           0.333332000000000    0.666666000000000    0.701998000000000 
P           0.666666000000000    0.333332000000000    0.298002000000000 
P           0.666666000000000    0.333332000000000    0.701998000000000 
K           0.999999000000000    0.499999000000000    0.000000000000000 
K           0.999999000000000    0.499999000000000    0.500000000000000 
K           0.333332000000000    0.666666000000000    0.500000000000000 
K           0.499999000000000    0.999999000000000    0.000000000000000 
K           0.499999000000000    0.999999000000000    0.500000000000000 
K           0.499999000000000    0.499999000000000    0.000000000000000 
K           0.499999000000000    0.499999000000000    0.500000000000000 
K           0.666666000000000    0.333332000000000    0.500000000000000 
%ENDBLOCK POSITIONS_FRAC
