# Cell file generated by matador (Matthew Evans 2016)

%BLOCK LATTICE_CART
7.94782 0.0 0.0
-3.97391 6.88301 0.0
0.0 0.0 6.49559
%ENDBLOCK LATTICE_CART

%BLOCK POSITIONS_FRAC
P           0.333333000000000    0.666667000000000    0.290282000000000 
P           0.333333000000000    0.666667000000000    0.709718000000000 
K          -0.000000000000000    0.000000000000000   -0.000000000000000 
K          -0.000000000000000    0.000000000000000    0.500000000000000 
K           0.147991000000000    0.295982000000000    0.500000000000000 
K           0.147991000000000    0.852009000000000    0.500000000000000 
K           0.333333000000000    0.666667000000000   -0.000000000000000 
K           0.666666000000000    0.333334000000000   -0.000000000000000 
K           0.704018000000000    0.852009000000000    0.500000000000000 
%ENDBLOCK POSITIONS_FRAC
