# Cell file generated by matador (Matthew Evans 2016)

%BLOCK LATTICE_CART
7.59212 0.0 0.0
-3.79606 6.57497 0.0
0.0 0.0 8.50518
%ENDBLOCK LATTICE_CART

%BLOCK POSITIONS_FRAC
P           0.113356000000000    0.226712000000000    0.473767000000000 
P           0.113356000000000    0.886644000000000    0.473767000000000 
P           0.600937000000000    0.201874000000000    0.913142000000000 
P           0.600937000000000    0.399063000000000    0.913142000000000 
P           0.773288000000000    0.886644000000000    0.473767000000000 
P           0.798126000000000    0.399063000000000    0.913142000000000 
K           0.000000000000000    0.000000000000000    0.831959000000000 
K           0.015786000000000    0.324709000000000    0.064669000000000 
K           0.015786000000000    0.691077000000000    0.064669000000000 
K           0.308923000000000    0.324709000000000    0.064669000000000 
K           0.308923000000000    0.984214000000000    0.064669000000000 
K           0.666667000000000    0.333333000000000    0.642575000000000 
K           0.675291000000000    0.691077000000000    0.064669000000000 
K           0.675291000000000    0.984214000000000    0.064669000000000 
%ENDBLOCK POSITIONS_FRAC
