# Cell file generated by matador (Matthew Evans 2016)

%BLOCK LATTICE_CART
11.7772 0.0 0.0
-5.88859 10.1993 0.0
0.0 0.0 4.78236
%ENDBLOCK LATTICE_CART

%BLOCK POSITIONS_FRAC
P           0.000000000000000    0.000000000000000    0.500000000000000 
P           0.196092000000000    0.098046000000000    0.000000000000000 
P           0.901954000000000    0.098046000000000    0.000000000000000 
P           0.901954000000000    0.803908000000000    0.000000000000000 
K           0.000000000000000    0.000000000000000    0.000000000000000 
K           0.333333000000000    0.666667000000000    0.000000000000000 
K           0.333333000000000    0.666667000000000    0.500000000000000 
K           0.395143000000000    0.044003000000000    0.000000000000000 
K           0.395143000000000    0.351141000000000    0.000000000000000 
K           0.470576000000000    0.235288000000000    0.500000000000000 
K           0.648859000000000    0.044003000000000    0.000000000000000 
K           0.648859000000000    0.604857000000000    0.000000000000000 
K           0.666667000000000    0.333333000000000    0.000000000000000 
K           0.666667000000000    0.333333000000000    0.500000000000000 
K           0.764712000000000    0.235288000000000    0.500000000000000 
K           0.764712000000000    0.529424000000000    0.500000000000000 
K           0.955997000000000    0.351141000000000    0.000000000000000 
K           0.955997000000000    0.604857000000000    0.000000000000000 
%ENDBLOCK POSITIONS_FRAC
