# Cell file generated by matador (Matthew Evans 2016)

%BLOCK LATTICE_CART
9.73706 0.0 0.0
0.0 5.72535 0.0
-1.32597 0.0 9.44024
%ENDBLOCK LATTICE_CART

%BLOCK POSITIONS_FRAC
P           0.050008000000000    0.130283000000000    0.507990000000000 
P           0.050008000000000    0.869717000000000    0.507990000000000 
P           0.242415000000000    0.368518000000000    0.004772000000000 
P           0.242415000000000    0.631482000000000    0.004772000000000 
P           0.247673000000000    0.344970000000000    0.473563000000000 
P           0.247673000000000    0.655030000000000    0.473563000000000 
P           0.679780000000000    0.000000000000000    0.276940000000000 
P           0.843618000000000    0.500000000000000    0.028930000000000 
K           0.015703000000000    0.314327000000000    0.832093000000000 
K           0.015703000000000    0.685673000000000    0.832093000000000 
K           0.481244000000000    0.318761000000000    0.110793000000000 
K           0.481244000000000    0.681239000000000    0.110793000000000 
K           0.508292000000000    0.500000000000000    0.890682000000000 
K           0.535893000000000    0.500000000000000    0.467571000000000 
K           0.768973000000000    0.500000000000000    0.643090000000000 
K           0.866668000000000    0.175819000000000    0.170585000000000 
K           0.866668000000000    0.824181000000000    0.170585000000000 
K           0.902523000000000    0.500000000000000    0.330807000000000 
%ENDBLOCK POSITIONS_FRAC
