# Cell file generated by matador (Matthew Evans 2016)

%BLOCK LATTICE_CART
6.76823 0.0 0.0
-1.27719 4.28716 0.0
0.31228 -2.10047 6.44445
%ENDBLOCK LATTICE_CART

%BLOCK POSITIONS_FRAC
P           0.000000000000000    0.000000000000000    0.000000000000000 
P           0.000000000000000    0.000000000000000    0.500000000000000 
P           0.490357000000000    0.696163000000000    0.729416000000000 
P           0.500000000000000    0.500000000000000    0.500000000000000 
P           0.509643000000000    0.303837000000000    0.270584000000000 
K           0.264768000000000    0.512784000000000    0.024996000000000 
K           0.735232000000000    0.487216000000000    0.975004000000000 
%ENDBLOCK POSITIONS_FRAC
