# Cell file generated by matador (Matthew Evans 2016)

%BLOCK LATTICE_CART
6.78579 -0.0 0.0
-3.39289 5.87666 0.0
0.0 0.0 6.77611
%ENDBLOCK LATTICE_CART

%BLOCK POSITIONS_FRAC
P           0.000000000000000    0.000000000000000    0.997002000000000 
P           0.114890000000000    0.709727000000000    0.033443000000000 
P           0.212059000000000    0.117140000000000    0.908579000000000 
P           0.290273000000000    0.405163000000000    0.033443000000000 
P           0.493362000000000    0.280804000000000    0.491312000000000 
P           0.594837000000000    0.885110000000000    0.033443000000000 
P           0.719196000000000    0.212558000000000    0.491312000000000 
P           0.787442000000000    0.506638000000000    0.491312000000000 
P           0.882860000000000    0.094919000000000    0.908579000000000 
P           0.905081000000000    0.787941000000000    0.908579000000000 
K           0.219267000000000    0.768120000000000    0.454496000000000 
K           0.231880000000000    0.451147000000000    0.454496000000000 
K           0.548853000000000    0.780733000000000    0.454496000000000 
K           0.666667000000000    0.333333000000000    0.755287000000000 
%ENDBLOCK POSITIONS_FRAC
