# Cell file generated by matador (Matthew Evans 2016)

%BLOCK LATTICE_CART
6.79872 0.0 0.0
-3.39936 5.88786 0.0
0.0 0.0 8.37211
%ENDBLOCK LATTICE_CART

%BLOCK POSITIONS_FRAC
P           0.282870000000000    0.565741000000000    0.754351000000000 
P           0.282870000000000    0.717130000000000    0.754351000000000 
P           0.333333000000000    0.666667000000000    0.976096000000000 
P           0.434259000000000    0.717130000000000    0.754351000000000 
P           0.480832000000000    0.240416000000000    0.292465000000000 
P           0.759584000000000    0.240416000000000    0.292465000000000 
P           0.759584000000000    0.519168000000000    0.292465000000000 
K           0.333333000000000    0.666667000000000    0.218588000000000 
K           0.556413000000000    0.112826000000000    0.495016000000000 
K           0.556413000000000    0.443587000000000    0.495016000000000 
K           0.887174000000000    0.443587000000000    0.495016000000000 
%ENDBLOCK POSITIONS_FRAC
