# Cell file generated by matador (Matthew Evans 2016)

%BLOCK LATTICE_CART
6.74868 0.0 0.0
-3.37434 5.84452 0.0
0.0 0.0 7.78976
%ENDBLOCK LATTICE_CART

%BLOCK POSITIONS_FRAC
P           0.000000000000000    0.500000000000000    0.343332000000000 
P           0.333333000000000    0.666667000000000    0.244938000000000 
P           0.500000000000000    0.000000000000000    0.343332000000000 
P           0.500000000000000    0.500000000000000    0.343332000000000 
P           0.666667000000000    0.333333000000000    0.244938000000000 
K           0.000000000000000    0.500000000000000    0.886376000000000 
K           0.333333000000000    0.666667000000000    0.639000000000000 
K           0.500000000000000    0.000000000000000    0.886376000000000 
K           0.500000000000000    0.500000000000000    0.886376000000000 
K           0.666667000000000    0.333333000000000    0.639000000000000 
%ENDBLOCK POSITIONS_FRAC
