# Cell file generated by matador (Matthew Evans 2016)

%BLOCK LATTICE_CART
6.11628 0.0 0.0
-3.05814 5.29686 0.0
0.0 0.0 7.90553
%ENDBLOCK LATTICE_CART

%BLOCK POSITIONS_FRAC
P           0.333333000000000    0.666667000000000    0.500000000000000 
K          -0.000000000000000    0.000000000000000    0.000000000000000 
K          -0.000000000000000    0.000000000000000    0.500000000000000 
K           0.333333000000000    0.666667000000000    0.000000000000000 
K           0.666666000000000    0.333334000000000    0.000000000000000 
K           0.666666000000000    0.333334000000000    0.500000000000000 
%ENDBLOCK POSITIONS_FRAC
