# Cell file generated by matador (Matthew Evans 2016)

%BLOCK LATTICE_CART
8.8083 0.0 0.0
-2.20901 7.38481 0.0
-0.463299 0.171876 4.51705
%ENDBLOCK LATTICE_CART

%BLOCK POSITIONS_FRAC
P           0.300319000000000    0.778264000000000    0.925339000000000 
P           0.473237000000000    0.831029000000000    0.867256000000000 
P           0.495026000000000    0.775603000000000    0.297043000000000 
P           0.500000000000000    0.500000000000000    0.500000000000000 
P           0.504974000000000    0.224397000000000    0.702957000000000 
P           0.526763000000000    0.168971000000000    0.132744000000000 
P           0.699681000000000    0.221736000000000    0.074661000000000 
K           0.222104000000000    0.867664000000000    0.374212000000000 
K           0.500000000000000    0.000000000000000    0.500000000000000 
K           0.777896000000000    0.132336000000000    0.625788000000000 
%ENDBLOCK POSITIONS_FRAC
