# Cell file generated by matador (Matthew Evans 2016)

%BLOCK LATTICE_CART
7.05601 0.0 0.0
0.0 7.05601 0.0
0.0 0.0 6.30108
%ENDBLOCK LATTICE_CART

%BLOCK POSITIONS_FRAC
P           0.000000000000000    0.000000000000000    0.500000000000000 
P           0.000000000000000    0.500000000000000    0.261667000000000 
P           0.172794000000000    0.316970000000000    0.092232000000000 
P           0.316970000000000    0.827206000000000    0.907768000000000 
P           0.500000000000000    0.000000000000000    0.738333000000000 
P           0.683030000000000    0.172794000000000    0.907768000000000 
P           0.827206000000000    0.683030000000000    0.092232000000000 
K           0.064539000000000    0.663792000000000    0.839613000000000 
K           0.336208000000000    0.064539000000000    0.160387000000000 
K           0.500000000000000    0.500000000000000    0.500000000000000 
K           0.663792000000000    0.935461000000000    0.160387000000000 
K           0.935461000000000    0.336208000000000    0.839613000000000 
%ENDBLOCK POSITIONS_FRAC
