# Cell file generated by matador (Matthew Evans 2016)

%BLOCK LATTICE_CART
15.875 0.0 0.0
0.0 8.53857 0.0
0.0 0.0 6.94039
%ENDBLOCK LATTICE_CART

%BLOCK POSITIONS_FRAC
P           0.000000000000000    0.202422000000000    0.340285000000000 
P           0.000000000000000    0.500000000000000    0.830757000000000 
P           0.000000000000000    0.797578000000000    0.340285000000000 
P           0.500000000000000    0.000000000000000    0.330757000000000 
P           0.500000000000000    0.297578000000000    0.840285000000000 
P           0.500000000000000    0.702422000000000    0.840285000000000 
K           0.000000000000000    0.000000000000000    0.140229000000000 
K           0.000000000000000    0.283221000000000    0.912415000000000 
K           0.000000000000000    0.716779000000000    0.912415000000000 
K           0.121243000000000    0.500000000000000    0.293161000000000 
K           0.135266000000000    0.000000000000000    0.720427000000000 
K           0.224260000000000    0.000000000000000    0.234187000000000 
K           0.275740000000000    0.500000000000000    0.734187000000000 
K           0.364734000000000    0.500000000000000    0.220427000000000 
K           0.378757000000000    0.000000000000000    0.793161000000000 
K           0.500000000000000    0.216779000000000    0.412415000000000 
K           0.500000000000000    0.500000000000000    0.640229000000000 
K           0.500000000000000    0.783221000000000    0.412415000000000 
K           0.621243000000000    0.000000000000000    0.793161000000000 
K           0.635266000000000    0.500000000000000    0.220427000000000 
K           0.724260000000000    0.500000000000000    0.734187000000000 
K           0.775740000000000    0.000000000000000    0.234187000000000 
K           0.864734000000000    0.000000000000000    0.720427000000000 
K           0.878757000000000    0.500000000000000    0.293161000000000 
%ENDBLOCK POSITIONS_FRAC
