# Cell file generated by matador (Matthew Evans 2016)

%BLOCK LATTICE_CART
7.22597 0.0 0.0
0.0 7.22597 0.0
0.0 0.0 7.03917
%ENDBLOCK LATTICE_CART

%BLOCK POSITIONS_FRAC
P           0.000000000000000    0.000000000000000    0.908868000000000 
P           0.000000000000000    0.500000000000000    0.374687000000000 
P           0.000000000000000    0.500000000000000    0.874687000000000 
P           0.057007000000000    0.942993000000000    0.666830000000000 
P           0.178726000000000    0.178726000000000    0.649775000000000 
P           0.321274000000000    0.678726000000000    0.149775000000000 
P           0.442993000000000    0.442993000000000    0.166830000000000 
P           0.500000000000000    0.000000000000000    0.374687000000000 
P           0.500000000000000    0.000000000000000    0.874687000000000 
P           0.500000000000000    0.500000000000000    0.408868000000000 
P           0.557007000000000    0.557007000000000    0.166830000000000 
P           0.678726000000000    0.321274000000000    0.149775000000000 
P           0.821274000000000    0.821274000000000    0.649775000000000 
P           0.942993000000000    0.057007000000000    0.666830000000000 
K           0.000000000000000    0.000000000000000    0.280429000000000 
K           0.500000000000000    0.500000000000000    0.780429000000000 
%ENDBLOCK POSITIONS_FRAC
