# Cell file generated by matador (Matthew Evans 2016)

%BLOCK LATTICE_CART
8.39503 0.0 0.0
0.0 8.39503 0.0
0.0 0.0 7.71483
%ENDBLOCK LATTICE_CART

%BLOCK POSITIONS_FRAC
P           0.000000000000000    0.000000000000000    0.105562000000000 
P           0.000000000000000    0.000000000000000    0.894438000000000 
P           0.500000000000000    0.500000000000000    0.394438000000000 
P           0.500000000000000    0.500000000000000    0.605562000000000 
K           0.000000000000000    0.000000000000000    0.500000000000000 
K           0.250000000000000    0.250000000000000    0.250000000000000 
K           0.250000000000000    0.250000000000000    0.750000000000000 
K           0.250000000000000    0.750000000000000    0.250000000000000 
K           0.250000000000000    0.750000000000000    0.750000000000000 
K           0.500000000000000    0.500000000000000    0.000000000000000 
K           0.750000000000000    0.250000000000000    0.250000000000000 
K           0.750000000000000    0.250000000000000    0.750000000000000 
K           0.750000000000000    0.750000000000000    0.250000000000000 
K           0.750000000000000    0.750000000000000    0.750000000000000 
%ENDBLOCK POSITIONS_FRAC
