# Cell file generated by matador (Matthew Evans 2016)

%BLOCK LATTICE_CART
6.2942 0.0 0.0
0.0 6.74904 0.0
0.0 0.0 6.73354
%ENDBLOCK LATTICE_CART

%BLOCK POSITIONS_FRAC
P           0.178389000000000    0.000000000000000    0.000000000000000 
P           0.821611000000000    0.000000000000000    0.500000000000000 
K           0.000000000000000    0.073720000000000    0.250000000000000 
K           0.000000000000000    0.926280000000000    0.750000000000000 
K           0.186123000000000    0.500000000000000    0.500000000000000 
K           0.500000000000000    0.088602000000000    0.750000000000000 
K           0.500000000000000    0.911398000000000    0.250000000000000 
K           0.813877000000000    0.500000000000000    0.000000000000000 
%ENDBLOCK POSITIONS_FRAC
