# Cell file generated by matador (Matthew Evans 2016)

%BLOCK LATTICE_CART
7.32051 0.0 0.0
-3.66025 6.33974 0.0
0.0 0.0 8.04329
%ENDBLOCK LATTICE_CART

%BLOCK POSITIONS_FRAC
P           0.000000000000000    0.273205000000000    0.500000000000000 
P           0.000000000000000    0.500000000000000    0.000000000000000 
P           0.000000000000000    0.500000000000000    0.500000000000000 
P           0.000000000000000    0.726795000000000    0.500000000000000 
P           0.273205000000000    0.000000000000000    0.500000000000000 
P           0.273205000000000    0.273205000000000    0.500000000000000 
P           0.500000000000000    0.000000000000000    0.000000000000000 
P           0.500000000000000    0.000000000000000    0.500000000000000 
P           0.500000000000000    0.500000000000000    0.000000000000000 
P           0.500000000000000    0.500000000000000    0.500000000000000 
P           0.726795000000000    0.000000000000000    0.500000000000000 
P           0.726795000000000    0.726795000000000    0.500000000000000 
K           0.000000000000000    0.000000000000000    0.000000000000000 
K           0.000000000000000    0.000000000000000    0.500000000000000 
%ENDBLOCK POSITIONS_FRAC
