# Cell file generated by matador (Matthew Evans 2016)

%BLOCK LATTICE_CART
10.2164 0.0 0.0
-5.10818 8.84763 0.0
0.0 0.0 5.37703
%ENDBLOCK LATTICE_CART

%BLOCK POSITIONS_FRAC
P           0.000000000000000    0.756494000000000    0.807217000000000 
P           0.243506000000000    0.243506000000000    0.807217000000000 
P           0.756494000000000    0.000000000000000    0.807217000000000 
K           0.000000000000000    0.201231000000000    0.834820000000000 
K           0.000000000000000    0.531818000000000    0.887276000000000 
K           0.000000000000000    0.802108000000000    0.384729000000000 
K           0.197892000000000    0.197892000000000    0.384729000000000 
K           0.201231000000000    0.000000000000000    0.834820000000000 
K           0.468182000000000    0.468182000000000    0.887276000000000 
K           0.531818000000000    0.000000000000000    0.887276000000000 
K           0.798769000000000    0.798769000000000    0.834820000000000 
K           0.802108000000000    0.000000000000000    0.384729000000000 
%ENDBLOCK POSITIONS_FRAC
