# Cell file generated by matador (Matthew Evans 2016)

%BLOCK LATTICE_CART
7.54658 0.0 0.0
-3.77329 6.53553 0.0
0.0 0.0 8.27067
%ENDBLOCK LATTICE_CART

%BLOCK POSITIONS_FRAC
P           0.000000000000000    0.000000000000000    0.500000000000000 
P           0.333333000000000    0.666667000000000    0.166667000000000 
P           0.666667000000000    0.333333000000000    0.833333000000000 
K           0.000000000000000    0.000000000000000   -0.000000000000000 
K           0.000000000000000    0.707871000000000    0.500000000000000 
K           0.041204000000000    0.666667000000000    0.166667000000000 
K           0.292129000000000    0.292129000000000    0.500000000000000 
K           0.333333000000000    0.374538000000000    0.166667000000000 
K           0.333333000000000    0.666667000000000    0.666667000000000 
K           0.374538000000000    0.333333000000000    0.833333000000000 
K           0.625462000000000    0.958796000000000    0.166667000000000 
K           0.666667000000000    0.041204000000000    0.833333000000000 
K           0.666667000000000    0.333333000000000    0.333333000000000 
K           0.707871000000000    0.000000000000000    0.500000000000000 
K           0.958796000000000    0.625462000000000    0.833333000000000 
%ENDBLOCK POSITIONS_FRAC
