# Cell file generated by matador (Matthew Evans 2016)

%BLOCK LATTICE_CART
5.92813 0.0 0.0
0.0 5.33525 0.0
1.16274 0.0 5.22002
%ENDBLOCK LATTICE_CART

%BLOCK POSITIONS_FRAC
P           0.481102000000000    0.126067000000000    0.069098000000000 
P           0.481102000000000    0.873933000000000    0.069098000000000 
P           0.933357000000000    0.342541000000000    0.814537000000000 
P           0.933357000000000    0.657459000000000    0.814537000000000 
K           0.205235000000000    0.000000000000000    0.575517000000000 
K           0.288444000000000    0.500000000000000    0.703218000000000 
K           0.857861000000000    0.000000000000000    0.423370000000000 
%ENDBLOCK POSITIONS_FRAC
