# Cell file generated by matador (Matthew Evans 2016)

%BLOCK LATTICE_CART
7.5391 0.0 0.0
-3.76955 6.52905 0.0
0.0 0.0 6.4609
%ENDBLOCK LATTICE_CART

%BLOCK POSITIONS_FRAC
P          -0.000000000000000   -0.000000000000000    0.500000000000000 
P           0.091972000000000    0.183944000000000    0.000000000000000 
P           0.091972000000000    0.908028000000000    0.000000000000000 
P           0.183944000000000    0.091972000000000    0.000000000000000 
P           0.816056000000000    0.908028000000000    0.000000000000000 
P           0.908028000000000    0.091972000000000    0.000000000000000 
P           0.908028000000000    0.816056000000000    0.000000000000000 
K          -0.000000000000000    0.500000000000000    0.000000000000000 
K           0.333333000000000    0.666667000000000    0.000000000000000 
K           0.500000000000000   -0.000000000000000    0.000000000000000 
K           0.500000000000000    0.500000000000000    0.000000000000000 
K           0.666667000000000    0.333333000000000    0.000000000000000 
%ENDBLOCK POSITIONS_FRAC
