# Cell file generated by matador (Matthew Evans 2016)

%BLOCK LATTICE_CART
7.81733 0.0 0.0
-3.90866 6.77 0.0
0.0 0.0 9.35609
%ENDBLOCK LATTICE_CART

%BLOCK POSITIONS_FRAC
P           0.000000000000000    0.000000000000000    0.015114000000000 
P           0.333333000000000    0.666667000000000    0.681781000000000 
P           0.666667000000000    0.333333000000000    0.348448000000000 
K           0.183690000000000    0.367379000000000    0.507694000000000 
K           0.183690000000000    0.816310000000000    0.507694000000000 
K           0.299287000000000    0.149644000000000    0.841027000000000 
K           0.517023000000000    0.034046000000000    0.174360000000000 
K           0.517023000000000    0.482977000000000    0.174360000000000 
K           0.632621000000000    0.816310000000000    0.507694000000000 
K           0.850356000000000    0.149644000000000    0.841027000000000 
K           0.850356000000000    0.700713000000000    0.841027000000000 
K           0.965954000000000    0.482977000000000    0.174360000000000 
%ENDBLOCK POSITIONS_FRAC
