# Cell file generated by matador (Matthew Evans 2016)

%BLOCK LATTICE_CART
10.0247 0.0 0.0
-5.01233 8.6816 0.0
0.0 0.0 5.98261
%ENDBLOCK LATTICE_CART

%BLOCK POSITIONS_FRAC
P           0.000000000000000   -0.000000000000000    0.332849000000000 
P           0.000000000000000   -0.000000000000000    0.500000000000000 
P           0.000000000000000   -0.000000000000000    0.667151000000000 
P           0.333333000000000    0.666667000000000    0.166667000000000 
P           0.333333000000000    0.666667000000000    0.333817000000000 
P           0.333333000000000    0.666667000000000    0.999516000000000 
P           0.666667000000000    0.333333000000000    0.000484000000000 
P           0.666667000000000    0.333333000000000    0.666183000000000 
P           0.666667000000000    0.333333000000000    0.833333000000000 
K           0.000000000000000    0.256205000000000    0.500000000000000 
K           0.077129000000000    0.410462000000000    0.166667000000000 
K           0.256205000000000   -0.000000000000000    0.500000000000000 
K           0.333333000000000    0.922871000000000    0.166667000000000 
K           0.410462000000000    0.077129000000000    0.833333000000000 
K           0.589538000000000    0.666667000000000    0.166667000000000 
K           0.666667000000000    0.589538000000000    0.833333000000000 
K           0.743795000000000    0.743795000000000    0.500000000000000 
K           0.922871000000000    0.333333000000000    0.833333000000000 
%ENDBLOCK POSITIONS_FRAC
