# Cell file generated by matador (Matthew Evans 2016)

%BLOCK LATTICE_CART
9.87191 0.0 0.0
-4.93595 8.54932 0.0
0.0 0.0 8.67063
%ENDBLOCK LATTICE_CART

%BLOCK POSITIONS_FRAC
P           0.000000000000000    0.500000000000000    0.500000000000000 
P           0.333333000000000    0.666667000000000    0.015431000000000 
P           0.500000000000000    0.000000000000000    0.500000000000000 
P           0.500000000000000    0.500000000000000    0.500000000000000 
P           0.666667000000000    0.333333000000000    0.984569000000000 
K           0.000000000000000    0.500000000000000    0.000000000000000 
K           0.138986000000000    0.277973000000000    0.779489000000000 
K           0.138986000000000    0.861014000000000    0.779489000000000 
K           0.217238000000000    0.434477000000000    0.413881000000000 
K           0.217238000000000    0.782762000000000    0.413881000000000 
K           0.277973000000000    0.138986000000000    0.220511000000000 
K           0.434477000000000    0.217238000000000    0.586119000000000 
K           0.500000000000000    0.000000000000000    0.000000000000000 
K           0.500000000000000    0.500000000000000    0.000000000000000 
K           0.565523000000000    0.782762000000000    0.413881000000000 
K           0.722027000000000    0.861014000000000    0.779489000000000 
K           0.782762000000000    0.217238000000000    0.586119000000000 
K           0.782762000000000    0.565523000000000    0.586119000000000 
K           0.861014000000000    0.138986000000000    0.220511000000000 
K           0.861014000000000    0.722027000000000    0.220511000000000 
%ENDBLOCK POSITIONS_FRAC
