# Cell file generated by matador (Matthew Evans 2016)

%BLOCK LATTICE_CART
8.24925 0.0 0.0
0.0 8.24925 0.0
0.0 0.0 4.66438
%ENDBLOCK LATTICE_CART

%BLOCK POSITIONS_FRAC
P           0.000000000000000    0.500000000000000    0.073770000000000 
P           0.067253000000000    0.851824000000000    0.036991000000000 
P           0.148176000000000    0.932747000000000    0.963009000000000 
P           0.351824000000000    0.432747000000000    0.036991000000000 
P           0.432747000000000    0.351824000000000    0.963009000000000 
P           0.500000000000000    0.000000000000000    0.926230000000000 
P           0.567253000000000    0.648176000000000    0.963009000000000 
P           0.648176000000000    0.567253000000000    0.036991000000000 
P           0.851824000000000    0.067253000000000    0.963009000000000 
P           0.932747000000000    0.148176000000000    0.036991000000000 
K           0.000000000000000    0.000000000000000    0.500000000000000 
K           0.500000000000000    0.500000000000000    0.500000000000000 
%ENDBLOCK POSITIONS_FRAC
