# Cell file generated by matador (Matthew Evans 2016)

%BLOCK LATTICE_CART
9.47911 -0.0 0.0
-4.73956 8.20915 0.0
0.0 0.0 8.9877
%ENDBLOCK LATTICE_CART

%BLOCK POSITIONS_FRAC
P           0.999999000000000    0.999999000000000    0.939183000000000 
P           0.999999000000000    0.499999000000000    0.291203000000000 
P           0.999999000000000    0.499999000000000    0.485048000000000 
P           0.999999000000000    0.499999000000000    0.818633000000000 
P           0.333332000000000    0.666666000000000    0.020111000000000 
P           0.333332000000000    0.666666000000000    0.586487000000000 
P           0.499999000000000    0.999999000000000    0.291203000000000 
P           0.499999000000000    0.999999000000000    0.485048000000000 
P           0.499999000000000    0.999999000000000    0.818633000000000 
P           0.499999000000000    0.499999000000000    0.291203000000000 
P           0.499999000000000    0.499999000000000    0.485048000000000 
P           0.499999000000000    0.499999000000000    0.818633000000000 
P           0.666666000000000    0.333332000000000    0.020111000000000 
P           0.666666000000000    0.333332000000000    0.586487000000000 
K           0.192842000000000    0.458266000000000    0.899364000000000 
K           0.265422000000000    0.807156000000000    0.899364000000000 
K           0.458266000000000    0.265422000000000    0.899364000000000 
K           0.541732000000000    0.734576000000000    0.899364000000000 
K           0.734576000000000    0.192842000000000    0.899364000000000 
K           0.807156000000000    0.541732000000000    0.899364000000000 
%ENDBLOCK POSITIONS_FRAC
