# Cell file generated by matador (Matthew Evans 2016)

%BLOCK LATTICE_CART
8.73797 0.0 0.0
-4.36899 7.5673 0.0
0.0 0.0 6.21437
%ENDBLOCK LATTICE_CART

%BLOCK POSITIONS_FRAC
P           0.000000000000000    0.073452000000000    0.500000000000000 
P           0.000000000000000    0.435457000000000    0.000000000000000 
P           0.073452000000000    0.000000000000000    0.500000000000000 
P           0.435457000000000    0.000000000000000    0.000000000000000 
P           0.564543000000000    0.564543000000000    0.000000000000000 
P           0.926548000000000    0.926548000000000    0.500000000000000 
K           0.000000000000000    0.000000000000000    0.000000000000000 
K           0.146257000000000    0.640680000000000    0.486476000000000 
K           0.333333000000000    0.666667000000000    0.192943000000000 
K           0.359320000000000    0.505576000000000    0.486476000000000 
K           0.494424000000000    0.853743000000000    0.486476000000000 
K           0.505576000000000    0.359320000000000    0.513524000000000 
K           0.640680000000000    0.146257000000000    0.513524000000000 
K           0.666667000000000    0.333333000000000    0.807057000000000 
K           0.853743000000000    0.494424000000000    0.513524000000000 
%ENDBLOCK POSITIONS_FRAC
