# Cell file generated by matador (Matthew Evans 2016)

%BLOCK LATTICE_CART
8.64061 0.0 0.0
-4.3203 7.48298 0.0
0.0 0.0 7.70759
%ENDBLOCK LATTICE_CART

%BLOCK POSITIONS_FRAC
P          -0.000000000000000    0.232549000000000    0.476476000000000 
P          -0.000000000000000    0.767451000000000    0.476476000000000 
P           0.232549000000000   -0.000000000000000    0.476476000000000 
P           0.232549000000000    0.232549000000000    0.476476000000000 
P           0.767451000000000   -0.000000000000000    0.476476000000000 
P           0.767451000000000    0.767451000000000    0.476476000000000 
K          -0.000000000000000   -0.000000000000000    0.883327000000000 
K          -0.000000000000000    0.500000000000000    0.251978000000000 
K          -0.000000000000000    0.500000000000000    0.755235000000000 
K           0.500000000000000   -0.000000000000000    0.251978000000000 
K           0.500000000000000   -0.000000000000000    0.755235000000000 
K           0.500000000000000    0.500000000000000    0.251978000000000 
K           0.500000000000000    0.500000000000000    0.755235000000000 
%ENDBLOCK POSITIONS_FRAC
