# Cell file generated by matador (Matthew Evans 2016)

%BLOCK LATTICE_CART
4.77595 0.0 0.0
-0.780129 7.8869 0.0
0.427907 3.67531 8.04017
%ENDBLOCK LATTICE_CART

%BLOCK POSITIONS_FRAC
P           0.000000000000000    0.500000000000000    0.000000000000000 
P           0.000000000000000    0.500000000000000    0.500000000000000 
P           0.257174000000000    0.304360000000000    0.905478000000000 
P           0.349979000000000    0.058761000000000    0.865344000000000 
P           0.500000000000000    0.500000000000000    0.000000000000000 
P           0.650021000000000    0.941239000000000    0.134656000000000 
P           0.742826000000000    0.695640000000000    0.094522000000000 
K           0.000000000000000    0.000000000000000    0.500000000000000 
K           0.138163000000000    0.153416000000000    0.629669000000000 
K           0.332866000000000    0.610955000000000    0.650123000000000 
K           0.500000000000000    0.500000000000000    0.500000000000000 
K           0.667134000000000    0.389045000000000    0.349877000000000 
K           0.861837000000000    0.846584000000000    0.370331000000000 
%ENDBLOCK POSITIONS_FRAC
