# Cell file generated by matador (Matthew Evans 2016)

%BLOCK LATTICE_CART
5.72295 0.0 0.0
0.0 8.01486 0.0
0.0 0.0 7.01665
%ENDBLOCK LATTICE_CART

%BLOCK POSITIONS_FRAC
P           0.000000000000000    0.500000000000000    0.500000000000000 
P           0.087790000000000    0.000000000000000    0.271371000000000 
P           0.087790000000000    0.000000000000000    0.728629000000000 
P           0.320104000000000    0.500000000000000    0.500000000000000 
P           0.679896000000000    0.500000000000000    0.500000000000000 
P           0.912210000000000    0.000000000000000    0.271371000000000 
P           0.912210000000000    0.000000000000000    0.728629000000000 
K           0.206074000000000    0.191145000000000    0.000000000000000 
K           0.206074000000000    0.808855000000000    0.000000000000000 
K           0.793926000000000    0.191145000000000    0.000000000000000 
K           0.793926000000000    0.808855000000000    0.000000000000000 
%ENDBLOCK POSITIONS_FRAC
