# Cell file generated by matador (Matthew Evans 2016)

%BLOCK LATTICE_CART
7.47521 0.0 0.0
-3.73761 6.47372 0.0
0.0 0.0 8.63342
%ENDBLOCK LATTICE_CART

%BLOCK POSITIONS_FRAC
P          -0.000000000000000    0.000000000000000    0.310612000000000 
P          -0.000000000000000    0.000000000000000    0.500000000000000 
P          -0.000000000000000    0.000000000000000    0.689388000000000 
P          -0.000000000000000    0.480196000000000    0.000000000000000 
P           0.223773000000000    0.640076000000000    0.862122000000000 
P           0.333333000000000    0.666667000000000    0.238826000000000 
P           0.359924000000000    0.583697000000000    0.862122000000000 
P           0.416303000000000    0.776227000000000    0.862122000000000 
P           0.480196000000000    0.000000000000000    0.000000000000000 
P           0.519804000000000    0.519804000000000    0.000000000000000 
P           0.583697000000000    0.359924000000000    0.137878000000000 
P           0.640076000000000    0.223773000000000    0.137878000000000 
P           0.666666000000000    0.333334000000000    0.761174000000000 
P           0.776227000000000    0.416303000000000    0.137878000000000 
K           0.333333000000000    0.666667000000000    0.560340000000000 
K           0.666666000000000    0.333334000000000    0.439660000000000 
%ENDBLOCK POSITIONS_FRAC
