# Cell file generated by matador (Matthew Evans 2016)

%BLOCK LATTICE_CART
8.74958 0.0 0.0
0.0 13.6022 0.0
-3.20717 0.0 11.2474
%ENDBLOCK LATTICE_CART

%BLOCK POSITIONS_FRAC
P           0.036307000000000    0.248357000000000    0.304015000000000 
P           0.036307000000000    0.751643000000000    0.304015000000000 
P           0.381316000000000    0.225609000000000    0.491130000000000 
P           0.381316000000000    0.774391000000000    0.491130000000000 
P           0.536307000000000    0.251643000000000    0.304015000000000 
P           0.536307000000000    0.748357000000000    0.304015000000000 
P           0.881316000000000    0.274391000000000    0.491130000000000 
P           0.881316000000000    0.725609000000000    0.491130000000000 
K           0.022239000000000    0.000000000000000    0.272357000000000 
K           0.105525000000000    0.500000000000000    0.045012000000000 
K           0.152748000000000    0.500000000000000    0.804042000000000 
K           0.173736000000000    0.500000000000000    0.556308000000000 
K           0.196980000000000    0.500000000000000    0.307921000000000 
K           0.254181000000000    0.000000000000000    0.966177000000000 
K           0.302038000000000    0.000000000000000    0.725216000000000 
K           0.318888000000000    0.000000000000000    0.475705000000000 
K           0.341972000000000    0.000000000000000    0.227657000000000 
K           0.436650000000000    0.500000000000000    0.010656000000000 
K           0.469493000000000    0.500000000000000    0.761695000000000 
K           0.496890000000000    0.500000000000000    0.516670000000000 
K           0.522239000000000    0.500000000000000    0.272357000000000 
K           0.605525000000000    0.000000000000000    0.045012000000000 
K           0.652748000000000    0.000000000000000    0.804042000000000 
K           0.673736000000000    0.000000000000000    0.556308000000000 
K           0.696980000000000    0.000000000000000    0.307921000000000 
K           0.754181000000000    0.500000000000000    0.966177000000000 
K           0.802038000000000    0.500000000000000    0.725216000000000 
K           0.818888000000000    0.500000000000000    0.475705000000000 
K           0.841972000000000    0.500000000000000    0.227657000000000 
K           0.936650000000000    0.000000000000000    0.010656000000000 
K           0.969493000000000    0.000000000000000    0.761695000000000 
K           0.996890000000000    0.000000000000000    0.516670000000000 
%ENDBLOCK POSITIONS_FRAC
