# Cell file generated by matador (Matthew Evans 2016)

%BLOCK LATTICE_CART
9.8415 0.0 0.0
0.0 5.24887 0.0
-3.63474 0.0 8.88661
%ENDBLOCK LATTICE_CART

%BLOCK POSITIONS_FRAC
P           0.004050000000000    0.908539000000000    0.914307000000000 
P           0.144260000000000    0.756186000000000    0.851682000000000 
P           0.355740000000000    0.256186000000000    0.148318000000000 
P           0.495950000000000    0.408539000000000    0.085693000000000 
P           0.504050000000000    0.408539000000000    0.914307000000000 
P           0.644260000000000    0.256186000000000    0.851682000000000 
P           0.855740000000000    0.756186000000000    0.148318000000000 
P           0.995950000000000    0.908539000000000    0.085693000000000 
K           0.000000000000000    0.529839000000000    0.000000000000000 
K           0.000000000000000    0.720593000000000    0.500000000000000 
K           0.500000000000000    0.029839000000000    0.000000000000000 
K           0.500000000000000    0.220593000000000    0.500000000000000 
%ENDBLOCK POSITIONS_FRAC
