# Cell file generated by matador (Matthew Evans 2016)

%BLOCK LATTICE_CART
8.90117 0.0 0.0
0.0 4.60374 0.0
0.0 0.0 7.46026
%ENDBLOCK LATTICE_CART

%BLOCK POSITIONS_FRAC
P           0.000000000000000    0.000000000000000    0.162187000000000 
P           0.000000000000000    0.000000000000000    0.748216000000000 
P           0.000000000000000    0.500000000000000    0.971622000000000 
P           0.225966000000000    0.000000000000000    0.584073000000000 
P           0.367502000000000    0.000000000000000    0.149196000000000 
P           0.500000000000000    0.000000000000000    0.673209000000000 
P           0.500000000000000    0.500000000000000    0.747798000000000 
P           0.632498000000000    0.000000000000000    0.149196000000000 
P           0.774034000000000    0.000000000000000    0.584073000000000 
K           0.240548000000000    0.000000000000000    0.937682000000000 
K           0.500000000000000    0.000000000000000    0.360621000000000 
K           0.759452000000000    0.000000000000000    0.937682000000000 
%ENDBLOCK POSITIONS_FRAC
