# Cell file generated by matador (Matthew Evans 2016)

%BLOCK LATTICE_CART
8.77473 0.0 0.0
0.0 4.94847 0.0
1.69036 0.0 4.29212
%ENDBLOCK LATTICE_CART

%BLOCK POSITIONS_FRAC
P           0.057307000000000    0.500000000000000    0.365852000000000 
P           0.186640000000000    0.500000000000000    0.220195000000000 
P           0.240831000000000    0.117265000000000    0.872158000000000 
P           0.240831000000000    0.882735000000000    0.872158000000000 
P           0.801705000000000    0.500000000000000    0.646077000000000 
K           0.180527000000000    0.500000000000000    0.730501000000000 
K           0.420153000000000    0.500000000000000    0.229842000000000 
K           0.600430000000000    0.500000000000000    0.496537000000000 
%ENDBLOCK POSITIONS_FRAC
