# Cell file generated by matador (Matthew Evans 2016)

%BLOCK LATTICE_CART
7.8563 0.0 0.0
0.0 6.66502 0.0
0.961369 0.0 7.73176
%ENDBLOCK LATTICE_CART

%BLOCK POSITIONS_FRAC
P           0.000000000000000    0.000000000000000    0.000000000000000 
P           0.000000000000000    0.500000000000000    0.000000000000000 
K           0.000000000000000    0.000000000000000    0.500000000000000 
K           0.000000000000000    0.500000000000000    0.500000000000000 
K           0.330934000000000    0.548343000000000    0.017102000000000 
K           0.330934000000000    0.951657000000000    0.017102000000000 
K           0.432886000000000    0.250000000000000    0.314581000000000 
K           0.567114000000000    0.750000000000000    0.685419000000000 
K           0.669066000000000    0.048343000000000    0.982897000000000 
K           0.669066000000000    0.451657000000000    0.982897000000000 
%ENDBLOCK POSITIONS_FRAC
