# Cell file generated by matador (Matthew Evans 2016)

%BLOCK LATTICE_CART
7.18087 0.0 0.0
-3.59043 6.21881 0.0
0.0 0.0 6.35113
%ENDBLOCK LATTICE_CART

%BLOCK POSITIONS_FRAC
P           0.346813000000000    0.173406000000000    0.500000000000000 
P           0.586140000000000    0.172280000000000    0.000000000000000 
P           0.586140000000000    0.413860000000000    0.000000000000000 
P           0.666667000000000    0.333333000000000    0.000000000000000 
P           0.826594000000000    0.173406000000000    0.500000000000000 
P           0.826594000000000    0.653187000000000    0.500000000000000 
P           0.827720000000000    0.413860000000000    0.000000000000000 
K           0.000000000000000    0.000000000000000    0.000000000000000 
K           0.000000000000000    0.000000000000000    0.500000000000000 
K           0.333333000000000    0.666667000000000    0.000000000000000 
K           0.666667000000000    0.333333000000000    0.500000000000000 
%ENDBLOCK POSITIONS_FRAC
