# Cell file generated by matador (Matthew Evans 2016)

%BLOCK LATTICE_CART
8.14452 0.0 0.0
-4.07226 7.05336 0.0
0.0 0.0 7.6121
%ENDBLOCK LATTICE_CART

%BLOCK POSITIONS_FRAC
P           0.000000000000000    0.000000000000000    0.462699000000000 
P           0.333333000000000    0.666667000000000    0.300295000000000 
P           0.666667000000000    0.333333000000000    0.228256000000000 
K           0.066760000000000    0.533380000000000    0.997705000000000 
K           0.184213000000000    0.368425000000000    0.362109000000000 
K           0.184213000000000    0.815787000000000    0.362109000000000 
K           0.367198000000000    0.183599000000000    0.784250000000000 
K           0.466620000000000    0.533380000000000    0.997705000000000 
K           0.466620000000000    0.933240000000000    0.997705000000000 
K           0.631575000000000    0.815787000000000    0.362109000000000 
K           0.816401000000000    0.183599000000000    0.784250000000000 
K           0.816401000000000    0.632802000000000    0.784250000000000 
%ENDBLOCK POSITIONS_FRAC
