# Cell file generated by matador (Matthew Evans 2016)

%BLOCK LATTICE_CART
5.63094 0.0 0.0
0.0 7.88623 0.0
1.44226 0.0 6.4936
%ENDBLOCK LATTICE_CART

%BLOCK POSITIONS_FRAC
P           0.161653000000000    0.323504000000000    0.656568000000000 
P           0.338347000000000    0.823504000000000    0.343432000000000 
P           0.661653000000000    0.823504000000000    0.656568000000000 
P           0.838347000000000    0.323504000000000    0.343432000000000 
K           0.194619000000000    0.052805000000000    0.998489000000000 
K           0.305381000000000    0.552805000000000    0.001511000000000 
K           0.694619000000000    0.552805000000000    0.998489000000000 
K           0.805381000000000    0.052805000000000    0.001511000000000 
%ENDBLOCK POSITIONS_FRAC
