# Cell file generated by matador (Matthew Evans 2016)

%BLOCK LATTICE_CART
8.2569 0.0 0.0
0.0 6.83061 0.0
0.0 0.0 8.05207
%ENDBLOCK LATTICE_CART

%BLOCK POSITIONS_FRAC
P           0.077006000000000    0.500000000000000    0.255374000000000 
P           0.077006000000000    0.500000000000000    0.744626000000000 
P           0.242171000000000    0.500000000000000    0.000000000000000 
P           0.757829000000000    0.500000000000000    0.000000000000000 
P           0.922994000000000    0.500000000000000    0.255374000000000 
P           0.922994000000000    0.500000000000000    0.744626000000000 
K           0.000000000000000    0.000000000000000    0.000000000000000 
K           0.000000000000000    0.000000000000000    0.500000000000000 
K           0.000000000000000    0.500000000000000    0.000000000000000 
K           0.000000000000000    0.500000000000000    0.500000000000000 
K           0.500000000000000    0.000000000000000    0.000000000000000 
K           0.500000000000000    0.000000000000000    0.500000000000000 
K           0.500000000000000    0.500000000000000    0.000000000000000 
K           0.500000000000000    0.500000000000000    0.500000000000000 
%ENDBLOCK POSITIONS_FRAC
