# Cell file generated by matador (Matthew Evans 2016)

%BLOCK LATTICE_CART
7.32583 0.0 0.0
0.0 8.31343 0.0
0.0 0.0 10.5268
%ENDBLOCK LATTICE_CART

%BLOCK POSITIONS_FRAC
P           0.078563000000000    0.000000000000000    0.000000000000000 
P           0.500000000000000    0.000000000000000    0.278017000000000 
P           0.500000000000000    0.000000000000000    0.721983000000000 
P           0.500000000000000    0.500000000000000    0.312185000000000 
P           0.500000000000000    0.500000000000000    0.687815000000000 
P           0.921437000000000    0.000000000000000    0.000000000000000 
K           0.000000000000000    0.000000000000000    0.500000000000000 
K           0.000000000000000    0.500000000000000    0.000000000000000 
K           0.000000000000000    0.500000000000000    0.500000000000000 
K           0.295550000000000    0.481892000000000    0.882088000000000 
K           0.295550000000000    0.518108000000000    0.117912000000000 
K           0.329249000000000    0.079176000000000    0.108597000000000 
K           0.329249000000000    0.920824000000000    0.891403000000000 
K           0.500000000000000    0.500000000000000    0.500000000000000 
K           0.670751000000000    0.079176000000000    0.891403000000000 
K           0.670751000000000    0.920824000000000    0.108597000000000 
K           0.704450000000000    0.481892000000000    0.117912000000000 
K           0.704450000000000    0.518108000000000    0.882088000000000 
%ENDBLOCK POSITIONS_FRAC
