# Cell file generated by matador (Matthew Evans 2016)

%BLOCK LATTICE_CART
3.70962 0.0 0.0
0.0 9.49677 0.0
4.09536 0.0 10.2636
%ENDBLOCK LATTICE_CART

%BLOCK POSITIONS_FRAC
P           0.313934000000000    0.000000000000000    0.567140000000000 
P           0.472743000000000    0.173091000000000    0.402070000000000 
P           0.472743000000000    0.826909000000000    0.402070000000000 
P           0.602519000000000    0.500000000000000    0.362208000000000 
P           0.808062000000000    0.233797000000000    0.614903000000000 
P           0.808062000000000    0.766203000000000    0.614903000000000 
P           0.835728000000000    0.417537000000000    0.323861000000000 
P           0.835728000000000    0.582463000000000    0.323861000000000 
P           0.889203000000000    0.223306000000000    0.769019000000000 
P           0.889203000000000    0.776694000000000    0.769019000000000 
P           0.959066000000000    0.000000000000000    0.582295000000000 
P           0.966845000000000    0.345808000000000    0.231160000000000 
P           0.966845000000000    0.654192000000000    0.231160000000000 
P           0.995452000000000    0.000000000000000    0.367137000000000 
K           0.491179000000000    0.000000000000000    0.153270000000000 
K           0.928721000000000    0.000000000000000    0.899620000000000 
%ENDBLOCK POSITIONS_FRAC
