# Cell file generated by matador (Matthew Evans 2016)

%BLOCK LATTICE_CART
4.68286 0.0 0.0
-2.34143 4.05548 0.0
0.0 0.0 8.5236
%ENDBLOCK LATTICE_CART

%BLOCK POSITIONS_FRAC
P          -0.000000000000000    0.228947000000000    0.500000000000000 
P           0.228947000000000    0.000000000000000    0.500000000000000 
P           0.771053000000000    0.771053000000000    0.500000000000000 
K           0.333333000000000    0.666667000000000    0.138325000000000 
K           0.666666000000000    0.333334000000000    0.861675000000000 
%ENDBLOCK POSITIONS_FRAC
