# Cell file generated by matador (Matthew Evans 2016)

%BLOCK LATTICE_CART
5.59336 0.0 0.0
0.0 6.37725 0.0
0.137046 0.0 3.70866
%ENDBLOCK LATTICE_CART

%BLOCK POSITIONS_FRAC
P           0.488124000000000    0.500000000000000    0.839262000000000 
P           0.491821000000000    0.000000000000000    0.602540000000000 
P           0.622906000000000    0.500000000000000    0.127492000000000 
K           0.057193000000000    0.000000000000000    0.135039000000000 
K           0.857659000000000    0.000000000000000    0.690436000000000 
%ENDBLOCK POSITIONS_FRAC
