# Cell file generated by matador (Matthew Evans 2016)

%BLOCK LATTICE_CART
7.07496 0.0 0.0
0.0 7.68851 0.0
0.78642 0.0 6.32691
%ENDBLOCK LATTICE_CART

%BLOCK POSITIONS_FRAC
P           0.330978000000000    0.500000000000000    0.650483000000000 
P           0.669022000000000    0.500000000000000    0.349517000000000 
K           0.000000000000000    0.000000000000000    0.000000000000000 
K           0.000000000000000    0.000000000000000    0.500000000000000 
K           0.180753000000000    0.500000000000000    0.325551000000000 
K           0.500000000000000    0.000000000000000    0.000000000000000 
K           0.500000000000000    0.000000000000000    0.500000000000000 
K           0.819247000000000    0.500000000000000    0.674449000000000 
%ENDBLOCK POSITIONS_FRAC
