# Cell file generated by matador (Matthew Evans 2016)

%BLOCK LATTICE_CART
4.72887 0.0 0.0
0.0 9.30391 0.0
2.25022 0.0 8.3236
%ENDBLOCK LATTICE_CART

%BLOCK POSITIONS_FRAC
P           0.241177000000000    0.647536000000000    0.934820000000000 
P           0.392634000000000    0.013687000000000    0.853343000000000 
P           0.607366000000000    0.013687000000000    0.146657000000000 
P           0.758823000000000    0.647536000000000    0.065180000000000 
K           0.000000000000000    0.327368000000000    0.000000000000000 
K           0.000000000000000    0.834025000000000    0.000000000000000 
K           0.229886000000000    0.815098000000000    0.298938000000000 
K           0.278295000000000    0.503691000000000    0.600759000000000 
K           0.500000000000000    0.059146000000000    0.500000000000000 
K           0.721705000000000    0.503691000000000    0.399241000000000 
K           0.770114000000000    0.815098000000000    0.701062000000000 
%ENDBLOCK POSITIONS_FRAC
