# Cell file generated by matador (Matthew Evans 2016)

%BLOCK LATTICE_CART
7.52463 0.0 0.0
0.0 7.52463 0.0
0.0 0.0 5.52153
%ENDBLOCK LATTICE_CART

%BLOCK POSITIONS_FRAC
P           0.000000000000000    0.000000000000000    0.500000000000000 
P           0.000000000000000    0.500000000000000    0.000000000000000 
P           0.000000000000000    0.500000000000000    0.500000000000000 
P           0.187944000000000    0.812056000000000    0.000000000000000 
P           0.312056000000000    0.312056000000000    0.500000000000000 
P           0.500000000000000    0.000000000000000    0.000000000000000 
P           0.500000000000000    0.000000000000000    0.500000000000000 
P           0.500000000000000    0.500000000000000    0.000000000000000 
P           0.687944000000000    0.687944000000000    0.500000000000000 
P           0.812056000000000    0.187944000000000    0.000000000000000 
K           0.000000000000000    0.000000000000000    0.000000000000000 
K           0.500000000000000    0.500000000000000    0.500000000000000 
%ENDBLOCK POSITIONS_FRAC
