# Cell file generated by matador (Matthew Evans 2016)

%BLOCK LATTICE_CART
8.61829 0.0 0.0
-4.30915 7.46366 0.0
0.0 0.0 5.34012
%ENDBLOCK LATTICE_CART

%BLOCK POSITIONS_FRAC
P           0.333333000000000    0.666667000000000    0.000000000000000 
P           0.666666000000000    0.333334000000000    0.500000000000000 
K           0.154898000000000    0.402469000000000    0.500000000000000 
K           0.247571000000000    0.845102000000000    0.500000000000000 
K           0.388827000000000    0.227655000000000    0.500000000000000 
K           0.597531000000000    0.752429000000000    0.500000000000000 
K           0.772345000000000    0.161172000000000    0.500000000000000 
K           0.838828000000000    0.611173000000000    0.500000000000000 
%ENDBLOCK POSITIONS_FRAC
