# Cell file generated by matador (Matthew Evans 2016)

%BLOCK LATTICE_CART
7.47876 0.0 0.0
0.0 7.47876 0.0
0.0 0.0 7.47876
%ENDBLOCK LATTICE_CART

%BLOCK POSITIONS_FRAC
P           0.000000000000000    0.000000000000000    0.000000000000000 
P           0.000000000000000    0.335768000000000    0.500000000000000 
P           0.000000000000000    0.664232000000000    0.500000000000000 
P           0.335768000000000    0.500000000000000    0.000000000000000 
P           0.500000000000000    0.000000000000000    0.335768000000000 
P           0.500000000000000    0.000000000000000    0.664232000000000 
P           0.664232000000000    0.500000000000000    0.000000000000000 
K           0.272435000000000    0.272435000000000    0.272435000000000 
K           0.272435000000000    0.727565000000000    0.727565000000000 
K           0.500000000000000    0.500000000000000    0.500000000000000 
K           0.727565000000000    0.272435000000000    0.727565000000000 
K           0.727565000000000    0.727565000000000    0.272435000000000 
%ENDBLOCK POSITIONS_FRAC
