# Cell file generated by matador (Matthew Evans 2016)

%BLOCK LATTICE_CART
5.41587 0.0 0.0
0.0 5.41587 0.0
0.0 0.0 6.48995
%ENDBLOCK LATTICE_CART

%BLOCK POSITIONS_FRAC
P           0.096767000000000    0.903233000000000    0.000000000000000 
P           0.116831000000000    0.116831000000000    0.000000000000000 
P           0.383169000000000    0.616831000000000    0.500000000000000 
P           0.403233000000000    0.403233000000000    0.500000000000000 
P           0.596767000000000    0.596767000000000    0.500000000000000 
P           0.616831000000000    0.383169000000000    0.500000000000000 
P           0.883169000000000    0.883169000000000    0.000000000000000 
P           0.903233000000000    0.096767000000000    0.000000000000000 
K           0.000000000000000    0.000000000000000    0.500000000000000 
K           0.500000000000000    0.500000000000000    0.000000000000000 
%ENDBLOCK POSITIONS_FRAC
