# Cell file generated by matador (Matthew Evans 2016)

%BLOCK LATTICE_CART
5.3036 0.0 0.0
0.0 10.1165 0.0
1.36457 0.0 6.57634
%ENDBLOCK LATTICE_CART

%BLOCK POSITIONS_FRAC
P           0.043776000000000    0.480990000000000    0.960456000000000 
P           0.043776000000000    0.519010000000000    0.460456000000000 
P           0.143131000000000    0.397221000000000    0.533084000000000 
P           0.143131000000000    0.602779000000000    0.033084000000000 
P           0.200091000000000    0.373047000000000    0.270599000000000 
P           0.200091000000000    0.626953000000000    0.770599000000000 
P           0.276220000000000    0.177469000000000    0.667006000000000 
P           0.276220000000000    0.822531000000000    0.167006000000000 
P           0.347154000000000    0.022844000000000    0.819747000000000 
P           0.347154000000000    0.977156000000000    0.319747000000000 
P           0.532096000000000    0.192304000000000    0.376737000000000 
P           0.532096000000000    0.807696000000000    0.876737000000000 
P           0.739460000000000    0.441403000000000    0.057277000000000 
P           0.739460000000000    0.558597000000000    0.557277000000000 
K           0.458424000000000    0.131882000000000    0.080767000000000 
K           0.458424000000000    0.868118000000000    0.580767000000000 
%ENDBLOCK POSITIONS_FRAC
