# Cell file generated by matador (Matthew Evans 2016)

%BLOCK LATTICE_CART
6.98317 0.0 0.0
-3.49158 6.0476 0.0
0.0 0.0 6.2363
%ENDBLOCK LATTICE_CART

%BLOCK POSITIONS_FRAC
P           0.330711000000000    0.165355000000000    0.500000000000000 
P           0.834645000000000    0.165355000000000    0.500000000000000 
P           0.834645000000000    0.669289000000000    0.500000000000000 
K           0.000000000000000   -0.000000000000000    0.000000000000000 
K           0.000000000000000   -0.000000000000000    0.500000000000000 
K           0.333334000000000    0.666666000000000    0.500000000000000 
K           0.666667000000000    0.333333000000000    0.000000000000000 
K           0.666667000000000    0.333333000000000    0.500000000000000 
%ENDBLOCK POSITIONS_FRAC
