# Cell file generated by matador (Matthew Evans 2016)

%BLOCK LATTICE_CART
7.89129 0.0 0.0
-3.94565 6.83406 0.0
0.0 0.0 6.66746
%ENDBLOCK LATTICE_CART

%BLOCK POSITIONS_FRAC
P           0.000000000000000   -0.000000000000000    0.500000000000000 
P           0.127946000000000    0.651936000000000    0.000000000000000 
P           0.333334000000000    0.666666000000000    0.000000000000000 
P           0.333334000000000    0.666666000000000    0.500000000000000 
P           0.348064000000000    0.476010000000000    0.000000000000000 
P           0.523990000000000    0.872054000000000    0.000000000000000 
P           0.666667000000000    0.333333000000000    0.000000000000000 
P           0.666667000000000    0.333333000000000    0.500000000000000 
K           0.077634000000000    0.792256000000000    0.500000000000000 
K           0.207744000000000    0.285377000000000    0.500000000000000 
K           0.299809000000000    0.188032000000000    0.000000000000000 
K           0.714623000000000    0.922366000000000    0.500000000000000 
K           0.811968000000000    0.111776000000000    0.000000000000000 
K           0.888224000000000    0.700191000000000    0.000000000000000 
%ENDBLOCK POSITIONS_FRAC
