# Cell file generated by matador (Matthew Evans 2016)

%BLOCK LATTICE_CART
8.4656 0.0 0.0
0.0 8.4656 0.0
0.0 0.0 5.45699
%ENDBLOCK LATTICE_CART

%BLOCK POSITIONS_FRAC
P           0.293143000000000    0.500000000000000    0.891617000000000 
P           0.500000000000000    0.293143000000000    0.391617000000000 
P           0.500000000000000    0.706857000000000    0.391617000000000 
P           0.706857000000000    0.500000000000000    0.891617000000000 
K           0.000000000000000    0.361000000000000    0.816242000000000 
K           0.000000000000000    0.639000000000000    0.816242000000000 
K           0.359145000000000    0.500000000000000    0.307940000000000 
K           0.361000000000000    0.000000000000000    0.316242000000000 
K           0.500000000000000    0.359145000000000    0.807940000000000 
K           0.500000000000000    0.640855000000000    0.807940000000000 
K           0.639000000000000    0.000000000000000    0.316242000000000 
K           0.640855000000000    0.500000000000000    0.307940000000000 
%ENDBLOCK POSITIONS_FRAC
