# Cell file generated by matador (Matthew Evans 2016)

%BLOCK LATTICE_CART
6.48761 0.0 0.0
-3.2438 5.61843 0.0
0.0 0.0 7.78961
%ENDBLOCK LATTICE_CART

%BLOCK POSITIONS_FRAC
P           0.050536000000000    0.451364000000000    0.069529000000000 
P           0.124636000000000    0.765434000000000    0.729757000000000 
P           0.140874000000000    0.738016000000000    0.432963000000000 
P           0.234566000000000    0.359202000000000    0.729757000000000 
P           0.261984000000000    0.402858000000000    0.432963000000000 
P           0.400828000000000    0.949464000000000    0.069529000000000 
P           0.548513000000000    0.431482000000000    0.727092000000000 
P           0.548636000000000    0.599172000000000    0.069529000000000 
P           0.568518000000000    0.117030000000000    0.727092000000000 
P           0.597142000000000    0.859126000000000    0.432963000000000 
P           0.640798000000000    0.875364000000000    0.729757000000000 
P           0.882970000000000    0.451487000000000    0.727092000000000 
K           0.000000000000000    0.000000000000000    0.394328000000000 
K           0.666667000000000    0.333333000000000    0.362082000000000 
%ENDBLOCK POSITIONS_FRAC
