# Cell file generated by matador (Matthew Evans 2016)

%BLOCK LATTICE_CART
7.69522 0.0 0.0
-3.84761 6.66426 0.0
0.0 0.0 8.14838
%ENDBLOCK LATTICE_CART

%BLOCK POSITIONS_FRAC
P           0.128704000000000    0.718621000000000    0.715613000000000 
P           0.256584000000000    0.204629000000000    0.048946000000000 
P           0.281379000000000    0.410083000000000    0.715613000000000 
P           0.462038000000000    0.385288000000000    0.382279000000000 
P           0.589917000000000    0.871296000000000    0.715613000000000 
P           0.614712000000000    0.076750000000000    0.382279000000000 
P           0.795371000000000    0.051955000000000    0.048946000000000 
P           0.923250000000000    0.537962000000000    0.382279000000000 
P           0.948045000000000    0.743416000000000    0.048946000000000 
K           0.000000000000000   -0.000000000000000    0.871685000000000 
K           0.333333000000000    0.666667000000000    0.538351000000000 
K           0.666667000000000    0.333333000000000    0.205018000000000 
%ENDBLOCK POSITIONS_FRAC
