# Cell file generated by matador (Matthew Evans 2016)

%BLOCK LATTICE_CART
7.24067 0.0 0.0
0.0 7.24067 0.0
0.0 0.0 7.07111
%ENDBLOCK LATTICE_CART

%BLOCK POSITIONS_FRAC
P           0.000000000000000    0.500000000000000    0.072411000000000 
P           0.000000000000000    0.500000000000000    0.572411000000000 
P           0.500000000000000    0.000000000000000    0.427589000000000 
P           0.500000000000000    0.000000000000000    0.927589000000000 
K           0.000000000000000    0.000000000000000    0.250000000000000 
K           0.000000000000000    0.000000000000000    0.750000000000000 
K           0.250000000000000    0.250000000000000    0.250000000000000 
K           0.250000000000000    0.750000000000000    0.750000000000000 
K           0.500000000000000    0.500000000000000    0.250000000000000 
K           0.500000000000000    0.500000000000000    0.750000000000000 
K           0.750000000000000    0.250000000000000    0.750000000000000 
K           0.750000000000000    0.750000000000000    0.250000000000000 
%ENDBLOCK POSITIONS_FRAC
