# Cell file generated by matador (Matthew Evans 2016)

%BLOCK LATTICE_CART
10.5021 0.0 0.0
0.0 10.5021 0.0
0.0 0.0 9.09869
%ENDBLOCK LATTICE_CART

%BLOCK POSITIONS_FRAC
P           0.000000000000000    0.000000000000000    0.829955000000000 
P           0.076988000000000    0.576988000000000    0.155133000000000 
P           0.423012000000000    0.076988000000000    0.155133000000000 
P           0.500000000000000    0.500000000000000    0.829955000000000 
P           0.576988000000000    0.923012000000000    0.155133000000000 
P           0.923012000000000    0.423012000000000    0.155133000000000 
K           0.000000000000000    0.500000000000000    0.951544000000000 
K           0.111448000000000    0.388552000000000    0.668001000000000 
K           0.120175000000000    0.379825000000000    0.238051000000000 
K           0.180619000000000    0.680619000000000    0.582480000000000 
K           0.242915000000000    0.257085000000000    0.932406000000000 
K           0.257085000000000    0.757085000000000    0.932406000000000 
K           0.319381000000000    0.180619000000000    0.582480000000000 
K           0.379825000000000    0.879825000000000    0.238051000000000 
K           0.388552000000000    0.888552000000000    0.668001000000000 
K           0.500000000000000    0.000000000000000    0.951544000000000 
K           0.611448000000000    0.111448000000000    0.668001000000000 
K           0.620175000000000    0.120175000000000    0.238051000000000 
K           0.680619000000000    0.819381000000000    0.582480000000000 
K           0.742915000000000    0.242915000000000    0.932406000000000 
K           0.757085000000000    0.742915000000000    0.932406000000000 
K           0.819381000000000    0.319381000000000    0.582480000000000 
K           0.879825000000000    0.620175000000000    0.238051000000000 
K           0.888552000000000    0.611448000000000    0.668001000000000 
%ENDBLOCK POSITIONS_FRAC
