# Cell file generated by matador (Matthew Evans 2016)

%BLOCK LATTICE_CART
7.20744 0.0 0.0
0.0 7.76963 0.0
-3.36754 0.0 7.56944
%ENDBLOCK LATTICE_CART

%BLOCK POSITIONS_FRAC
P           0.115205000000000    0.500000000000000    0.478830000000000 
P           0.141544000000000    0.237869000000000    0.249309000000000 
P           0.141544000000000    0.762131000000000    0.249309000000000 
P           0.351855000000000    0.500000000000000    0.476807000000000 
K           0.059196000000000    0.500000000000000    0.106538000000000 
K           0.178087000000000    0.000000000000000    0.484982000000000 
K           0.290304000000000    0.000000000000000    0.098772000000000 
K           0.382675000000000    0.271530000000000    0.849999000000000 
K           0.382675000000000    0.728470000000000    0.849999000000000 
K           0.477233000000000    0.000000000000000    0.425955000000000 
K           0.620608000000000    0.500000000000000    0.118264000000000 
K           0.669994000000000    0.500000000000000    0.441368000000000 
K           0.675612000000000    0.000000000000000    0.174643000000000 
K           0.713017000000000    0.000000000000000    0.850919000000000 
K           0.918544000000000    0.500000000000000    0.799411000000000 
K           0.965867000000000    0.000000000000000    0.688379000000000 
%ENDBLOCK POSITIONS_FRAC
