# Cell file generated by matador (Matthew Evans 2016)

%BLOCK LATTICE_CART
9.50495 0.0 0.0
0.0 6.25994 0.0
0.0 0.0 9.54005
%ENDBLOCK LATTICE_CART

%BLOCK POSITIONS_FRAC
P           0.104278000000000    0.000000000000000    0.000000000000000 
P           0.128914000000000    0.000000000000000    0.500000000000000 
P           0.325577000000000    0.000000000000000    0.500000000000000 
P           0.364019000000000    0.157942000000000    0.187834000000000 
P           0.364019000000000    0.842058000000000    0.812166000000000 
P           0.407535000000000    0.000000000000000    0.000000000000000 
P           0.500000000000000    0.063786000000000    0.750000000000000 
P           0.500000000000000    0.390315000000000    0.250000000000000 
P           0.500000000000000    0.609685000000000    0.750000000000000 
P           0.500000000000000    0.936214000000000    0.250000000000000 
P           0.592465000000000    0.000000000000000    0.500000000000000 
P           0.635981000000000    0.157942000000000    0.312166000000000 
P           0.635981000000000    0.842058000000000    0.687834000000000 
P           0.674423000000000    0.000000000000000    0.000000000000000 
P           0.871086000000000    0.000000000000000    0.000000000000000 
P           0.895722000000000    0.000000000000000    0.500000000000000 
K           0.075769000000000    0.500000000000000    0.000000000000000 
K           0.320827000000000    0.500000000000000    0.000000000000000 
K           0.679173000000000    0.500000000000000    0.500000000000000 
K           0.924231000000000    0.500000000000000    0.500000000000000 
%ENDBLOCK POSITIONS_FRAC
