# Cell file generated by matador (Matthew Evans 2016)

%BLOCK LATTICE_CART
9.93303 0.0 0.0
-4.96651 8.60225 0.0
0.0 0.0 12.1429
%ENDBLOCK LATTICE_CART

%BLOCK POSITIONS_FRAC
P           0.068852000000000    0.432822000000000    0.811085000000000 
P           0.068852000000000    0.636030000000000    0.811085000000000 
P           0.363970000000000    0.432822000000000    0.811085000000000 
P           0.363970000000000    0.931148000000000    0.811085000000000 
P           0.567178000000000    0.636030000000000    0.811085000000000 
P           0.567178000000000    0.931148000000000    0.811085000000000 
K           0.000000000000000    0.000000000000000    0.617304000000000 
K           0.017922000000000    0.508961000000000    0.301469000000000 
K           0.086838000000000    0.543419000000000    0.957188000000000 
K           0.110159000000000    0.220317000000000    0.354188000000000 
K           0.110159000000000    0.889841000000000    0.354188000000000 
K           0.304009000000000    0.152004000000000    0.942272000000000 
K           0.333333000000000    0.666667000000000    0.148094000000000 
K           0.333333000000000    0.666667000000000    0.436815000000000 
K           0.456581000000000    0.543419000000000    0.957188000000000 
K           0.456581000000000    0.913162000000000    0.957188000000000 
K           0.491039000000000    0.508961000000000    0.301469000000000 
K           0.491039000000000    0.982078000000000    0.301469000000000 
K           0.502315000000000    0.004629000000000    0.574913000000000 
K           0.502315000000000    0.497685000000000    0.574913000000000 
K           0.779683000000000    0.889841000000000    0.354188000000000 
K           0.847996000000000    0.152004000000000    0.942272000000000 
K           0.847996000000000    0.695991000000000    0.942272000000000 
K           0.995371000000000    0.497685000000000    0.574913000000000 
%ENDBLOCK POSITIONS_FRAC
