# Cell file generated by matador (Matthew Evans 2016)

%BLOCK LATTICE_CART
8.23179 0.0 0.0
-4.1159 7.12894 0.0
0.0 0.0 7.60145
%ENDBLOCK LATTICE_CART

%BLOCK POSITIONS_FRAC
P           0.000000000000000    0.000000000000000    0.194254000000000 
P           0.018345000000000    0.255660000000000    0.712498000000000 
P           0.086518000000000    0.350592000000000    0.500991000000000 
P           0.132515000000000    0.525367000000000    0.897761000000000 
P           0.237315000000000    0.981655000000000    0.712498000000000 
P           0.264074000000000    0.913482000000000    0.500991000000000 
P           0.392852000000000    0.867485000000000    0.897761000000000 
P           0.474633000000000    0.607148000000000    0.897761000000000 
P           0.490742000000000    0.024983000000000    0.169107000000000 
P           0.534242000000000    0.509258000000000    0.169107000000000 
P           0.649408000000000    0.735926000000000    0.500991000000000 
P           0.666667000000000    0.333333000000000    0.154615000000000 
P           0.744340000000000    0.762685000000000    0.712498000000000 
P           0.975017000000000    0.465758000000000    0.169107000000000 
K           0.000000000000000    0.000000000000000    0.466839000000000 
K           0.001595000000000    0.829039000000000    0.941153000000000 
K           0.170961000000000    0.172556000000000    0.941153000000000 
K           0.333333000000000    0.666667000000000    0.262913000000000 
K           0.666667000000000    0.333333000000000    0.630693000000000 
K           0.827444000000000    0.998405000000000    0.941153000000000 
%ENDBLOCK POSITIONS_FRAC
