# Cell file generated by matador (Matthew Evans 2016)

%BLOCK LATTICE_CART
7.27179 0.0 0.0
-3.6359 6.29756 0.0
0.0 0.0 5.84476
%ENDBLOCK LATTICE_CART

%BLOCK POSITIONS_FRAC
P           0.056701000000000    0.584523000000000    0.360497000000000 
P           0.415477000000000    0.472177000000000    0.360497000000000 
P           0.472177000000000    0.415477000000000    0.639503000000000 
P           0.527823000000000    0.943299000000000    0.360497000000000 
P           0.584523000000000    0.056701000000000    0.639503000000000 
P           0.943299000000000    0.527823000000000    0.639503000000000 
K           0.000000000000000    0.000000000000000    0.000000000000000 
K           0.000000000000000    0.000000000000000    0.500000000000000 
K           0.333333000000000    0.666667000000000    0.885142000000000 
K           0.666667000000000    0.333333000000000    0.114858000000000 
%ENDBLOCK POSITIONS_FRAC
