# Cell file generated by matador (Matthew Evans 2016)

%BLOCK LATTICE_CART
4.49366 0.0 0.0
0.0 5.70881 0.0
-1.78314 0.0 7.33561
%ENDBLOCK LATTICE_CART

%BLOCK POSITIONS_FRAC
P           0.121852000000000    0.379394000000000    0.190661000000000 
P           0.121852000000000    0.620606000000000    0.190661000000000 
P           0.621852000000000    0.120606000000000    0.190661000000000 
P           0.621852000000000    0.879394000000000    0.190661000000000 
K           0.137812000000000    0.000000000000000    0.327954000000000 
K           0.637812000000000    0.500000000000000    0.327954000000000 
%ENDBLOCK POSITIONS_FRAC
