# Cell file generated by matador (Matthew Evans 2016)

%BLOCK LATTICE_CART
8.10085 0.0 0.0
0.0 8.10085 0.0
0.0 0.0 8.10085
%ENDBLOCK LATTICE_CART

%BLOCK POSITIONS_FRAC
P           0.000000000000000    0.000000000000000    0.000000000000000 
P           0.000000000000000    0.000000000000000    0.132777000000000 
P           0.000000000000000    0.000000000000000    0.867223000000000 
P           0.000000000000000    0.132777000000000    0.000000000000000 
P           0.000000000000000    0.867223000000000    0.000000000000000 
P           0.132777000000000    0.000000000000000    0.000000000000000 
P           0.367223000000000    0.500000000000000    0.500000000000000 
P           0.500000000000000    0.367223000000000    0.500000000000000 
P           0.500000000000000    0.500000000000000    0.367223000000000 
P           0.500000000000000    0.500000000000000    0.500000000000000 
P           0.500000000000000    0.500000000000000    0.632777000000000 
P           0.500000000000000    0.632777000000000    0.500000000000000 
P           0.632777000000000    0.500000000000000    0.500000000000000 
P           0.867223000000000    0.000000000000000    0.000000000000000 
K           0.000000000000000    0.000000000000000    0.500000000000000 
K           0.000000000000000    0.500000000000000    0.000000000000000 
K           0.000000000000000    0.500000000000000    0.500000000000000 
K           0.500000000000000    0.000000000000000    0.000000000000000 
K           0.500000000000000    0.000000000000000    0.500000000000000 
K           0.500000000000000    0.500000000000000    0.000000000000000 
%ENDBLOCK POSITIONS_FRAC
