# Cell file generated by matador (Matthew Evans 2016)

%BLOCK LATTICE_CART
5.13015 0.0 0.0
-2.56508 4.44284 0.0
0.0 0.0 8.49853
%ENDBLOCK LATTICE_CART

%BLOCK POSITIONS_FRAC
P          -0.000000000000000    0.000000000000000    0.280345000000000 
P          -0.000000000000000    0.000000000000000    0.719655000000000 
P           0.333333000000000    0.666667000000000    0.309353000000000 
P           0.333333000000000    0.666667000000000    0.500000000000000 
P           0.333333000000000    0.666667000000000    0.690647000000000 
K           0.333333000000000    0.666667000000000    0.000000000000000 
K           0.666666000000000    0.333334000000000    0.000000000000000 
K           0.666666000000000    0.333334000000000    0.500000000000000 
%ENDBLOCK POSITIONS_FRAC
