# Cell file generated by matador (Matthew Evans 2016)

%BLOCK LATTICE_CART
8.2791 0.0 0.0
1.05301 7.38687 0.0
3.29715 0.859112 6.73076
%ENDBLOCK LATTICE_CART

%BLOCK POSITIONS_FRAC
P           0.000000000000000    0.000000000000000    0.000000000000000 
P           0.000000000000000    0.000000000000000    0.500000000000000 
P           0.000000000000000    0.500000000000000    0.000000000000000 
P           0.122024000000000    0.419779000000000    0.187536000000000 
P           0.500000000000000    0.500000000000000    0.000000000000000 
P           0.500000000000000    0.500000000000000    0.500000000000000 
P           0.877976000000000    0.580221000000000    0.812464000000000 
K           0.134135000000000    0.112407000000000    0.165324000000000 
K           0.479691000000000    0.145648000000000    0.157516000000000 
K           0.493033000000000    0.139786000000000    0.677784000000000 
K           0.506967000000000    0.860214000000000    0.322216000000000 
K           0.520309000000000    0.854352000000000    0.842484000000000 
K           0.865865000000000    0.887593000000000    0.834676000000000 
%ENDBLOCK POSITIONS_FRAC
