# Cell file generated by matador (Matthew Evans 2016)

%BLOCK LATTICE_CART
9.04567 0.0 0.0
-4.52283 7.83378 0.0
0.0 0.0 5.49546
%ENDBLOCK LATTICE_CART

%BLOCK POSITIONS_FRAC
P           0.000000000000000    0.000000000000000    0.876412000000000 
P           0.000000000000000    0.348859000000000    0.861530000000000 
P           0.333333000000000    0.666667000000000    0.430010000000000 
P           0.348859000000000    0.000000000000000    0.861530000000000 
P           0.651141000000000    0.651141000000000    0.861530000000000 
P           0.666667000000000    0.333333000000000    0.430010000000000 
K           0.175607000000000    0.676109000000000    0.088532000000000 
K           0.323891000000000    0.499497000000000    0.088532000000000 
K           0.499497000000000    0.323891000000000    0.088532000000000 
K           0.500503000000000    0.824393000000000    0.088532000000000 
K           0.676109000000000    0.175607000000000    0.088532000000000 
K           0.824393000000000    0.500503000000000    0.088532000000000 
%ENDBLOCK POSITIONS_FRAC
