# Cell file generated by matador (Matthew Evans 2016)

%BLOCK LATTICE_CART
5.87463 0.0 0.0
0.0 5.87463 0.0
0.0 0.0 12.4587
%ENDBLOCK LATTICE_CART

%BLOCK POSITIONS_FRAC
P           0.060603000000000    0.060603000000000    0.652097000000000 
P           0.060603000000000    0.939397000000000    0.347903000000000 
P           0.061349000000000    0.438651000000000    0.250000000000000 
P           0.061349000000000    0.561349000000000    0.750000000000000 
P           0.438651000000000    0.061349000000000    0.250000000000000 
P           0.438651000000000    0.938651000000000    0.750000000000000 
P           0.439397000000000    0.439397000000000    0.847903000000000 
P           0.439397000000000    0.560603000000000    0.152097000000000 
P           0.560603000000000    0.439397000000000    0.152097000000000 
P           0.560603000000000    0.560603000000000    0.847903000000000 
P           0.561349000000000    0.061349000000000    0.750000000000000 
P           0.561349000000000    0.938651000000000    0.250000000000000 
P           0.938651000000000    0.438651000000000    0.750000000000000 
P           0.938651000000000    0.561349000000000    0.250000000000000 
P           0.939397000000000    0.060603000000000    0.347903000000000 
P           0.939397000000000    0.939397000000000    0.652097000000000 
K           0.250000000000000    0.250000000000000    0.750000000000000 
K           0.250000000000000    0.750000000000000    0.250000000000000 
K           0.750000000000000    0.250000000000000    0.250000000000000 
K           0.750000000000000    0.750000000000000    0.750000000000000 
%ENDBLOCK POSITIONS_FRAC
