# Cell file generated by matador (Matthew Evans 2016)

%BLOCK LATTICE_CART
10.5913 0.0 0.0
-5.29565 9.17234 0.0
0.0 0.0 7.37106
%ENDBLOCK LATTICE_CART

%BLOCK POSITIONS_FRAC
P           0.000000000000000    0.000000000000000    0.000000000000000 
P           0.468186000000000    0.161425000000000    0.500000000000000 
P           0.666667000000000    0.333333000000000    0.500000000000000 
P           0.693239000000000    0.531814000000000    0.500000000000000 
P           0.838575000000000    0.306761000000000    0.500000000000000 
K           0.000000000000000    0.000000000000000    0.500000000000000 
K           0.012967000000000    0.495308000000000    0.500000000000000 
K           0.101521000000000    0.264280000000000    0.000000000000000 
K           0.127442000000000    0.812450000000000    0.500000000000000 
K           0.162759000000000    0.898479000000000    0.000000000000000 
K           0.187550000000000    0.314992000000000    0.500000000000000 
K           0.333333000000000    0.666667000000000    0.500000000000000 
K           0.482341000000000    0.987033000000000    0.500000000000000 
K           0.483981000000000    0.008209000000000    0.000000000000000 
K           0.504692000000000    0.517659000000000    0.500000000000000 
K           0.524228000000000    0.516019000000000    0.000000000000000 
K           0.666667000000000    0.333333000000000    0.000000000000000 
K           0.685008000000000    0.872558000000000    0.500000000000000 
K           0.735720000000000    0.837241000000000    0.000000000000000 
K           0.991791000000000    0.475772000000000    0.000000000000000 
%ENDBLOCK POSITIONS_FRAC
