# Cell file generated by matador (Matthew Evans 2016)

%BLOCK LATTICE_CART
9.77201 0.0 0.0
0.0 9.77201 0.0
0.0 0.0 13.6123
%ENDBLOCK LATTICE_CART

%BLOCK POSITIONS_FRAC
P           0.140877000000000    0.140877000000000    0.060420000000000 
P           0.140877000000000    0.859123000000000    0.060420000000000 
P           0.359123000000000    0.359123000000000    0.560420000000000 
P           0.359123000000000    0.640877000000000    0.560420000000000 
P           0.640877000000000    0.359123000000000    0.560420000000000 
P           0.640877000000000    0.640877000000000    0.560420000000000 
P           0.859123000000000    0.140877000000000    0.060420000000000 
P           0.859123000000000    0.859123000000000    0.060420000000000 
K           0.153172000000000    0.153172000000000    0.206579000000000 
K           0.153172000000000    0.846828000000000    0.206579000000000 
K           0.162742000000000    0.162742000000000    0.579366000000000 
K           0.162742000000000    0.837258000000000    0.579366000000000 
K           0.225937000000000    0.225937000000000    0.889318000000000 
K           0.225937000000000    0.774063000000000    0.889318000000000 
K           0.274063000000000    0.274063000000000    0.389318000000000 
K           0.274063000000000    0.725937000000000    0.389318000000000 
K           0.337258000000000    0.337258000000000    0.079366000000000 
K           0.337258000000000    0.662742000000000    0.079366000000000 
K           0.346828000000000    0.346828000000000    0.706579000000000 
K           0.346828000000000    0.653172000000000    0.706579000000000 
K           0.653172000000000    0.346828000000000    0.706579000000000 
K           0.653172000000000    0.653172000000000    0.706579000000000 
K           0.662742000000000    0.337258000000000    0.079366000000000 
K           0.662742000000000    0.662742000000000    0.079366000000000 
K           0.725937000000000    0.274063000000000    0.389318000000000 
K           0.725937000000000    0.725937000000000    0.389318000000000 
K           0.774063000000000    0.225937000000000    0.889318000000000 
K           0.774063000000000    0.774063000000000    0.889318000000000 
K           0.837258000000000    0.162742000000000    0.579366000000000 
K           0.837258000000000    0.837258000000000    0.579366000000000 
K           0.846828000000000    0.153172000000000    0.206579000000000 
K           0.846828000000000    0.846828000000000    0.206579000000000 
%ENDBLOCK POSITIONS_FRAC
