# Cell file generated by matador (Matthew Evans 2016)

%BLOCK LATTICE_CART
7.57084 0.0 0.0
0.0 7.57084 0.0
0.0 0.0 8.096
%ENDBLOCK LATTICE_CART

%BLOCK POSITIONS_FRAC
P           0.000000000000000    0.000000000000000    0.247036000000000 
P           0.000000000000000    0.000000000000000    0.752964000000000 
P           0.192029000000000    0.307971000000000    0.088162000000000 
P           0.192029000000000    0.692029000000000    0.911838000000000 
P           0.307971000000000    0.192029000000000    0.911838000000000 
P           0.307971000000000    0.807971000000000    0.088162000000000 
P           0.500000000000000    0.500000000000000    0.247036000000000 
P           0.500000000000000    0.500000000000000    0.752964000000000 
P           0.692029000000000    0.192029000000000    0.088162000000000 
P           0.692029000000000    0.807971000000000    0.911838000000000 
P           0.807971000000000    0.307971000000000    0.911838000000000 
P           0.807971000000000    0.692029000000000    0.088162000000000 
K           0.000000000000000    0.000000000000000    0.000000000000000 
K           0.000000000000000    0.500000000000000    0.000000000000000 
K           0.000000000000000    0.500000000000000    0.500000000000000 
K           0.500000000000000    0.000000000000000    0.000000000000000 
K           0.500000000000000    0.000000000000000    0.500000000000000 
K           0.500000000000000    0.500000000000000    0.000000000000000 
%ENDBLOCK POSITIONS_FRAC
