# Cell file generated by matador (Matthew Evans 2016)

%BLOCK LATTICE_CART
8.40014 0.0 0.0
0.0 8.40014 0.0
0.0 0.0 10.4822
%ENDBLOCK LATTICE_CART

%BLOCK POSITIONS_FRAC
P           0.000000000000000    0.000000000000000    0.190801000000000 
P           0.000000000000000    0.000000000000000    0.809199000000000 
P           0.500000000000000    0.500000000000000    0.309199000000000 
P           0.500000000000000    0.500000000000000    0.690801000000000 
K           0.000000000000000    0.000000000000000    0.000000000000000 
K           0.000000000000000    0.000000000000000    0.500000000000000 
K           0.000000000000000    0.500000000000000    0.250000000000000 
K           0.000000000000000    0.500000000000000    0.750000000000000 
K           0.219649000000000    0.219649000000000    0.500000000000000 
K           0.219649000000000    0.780351000000000    0.500000000000000 
K           0.280351000000000    0.280351000000000    0.000000000000000 
K           0.280351000000000    0.719649000000000    0.000000000000000 
K           0.500000000000000    0.000000000000000    0.250000000000000 
K           0.500000000000000    0.000000000000000    0.750000000000000 
K           0.500000000000000    0.500000000000000    0.000000000000000 
K           0.500000000000000    0.500000000000000    0.500000000000000 
K           0.719649000000000    0.280351000000000    0.000000000000000 
K           0.719649000000000    0.719649000000000    0.000000000000000 
K           0.780351000000000    0.219649000000000    0.500000000000000 
K           0.780351000000000    0.780351000000000    0.500000000000000 
%ENDBLOCK POSITIONS_FRAC
