# Cell file generated by matador (Matthew Evans 2016)

%BLOCK LATTICE_CART
10.263 0.0 0.0
-5.13149 8.88801 0.0
0.0 0.0 5.89873
%ENDBLOCK LATTICE_CART

%BLOCK POSITIONS_FRAC
P           0.000000000000000    0.000000000000000    0.331295000000000 
P           0.000000000000000    0.000000000000000    0.500000000000000 
P           0.000000000000000    0.000000000000000    0.668705000000000 
P           0.333333000000000    0.666667000000000    0.000000000000000 
K           0.000000000000000    0.000000000000000    0.000000000000000 
K           0.210857000000000    0.421714000000000    0.500000000000000 
K           0.210857000000000    0.789143000000000    0.500000000000000 
K           0.333333000000000    0.666667000000000    0.500000000000000 
K           0.390298000000000    0.195149000000000    0.000000000000000 
K           0.498789000000000    0.101230000000000    0.653834000000000 
K           0.498789000000000    0.397560000000000    0.346166000000000 
K           0.578286000000000    0.789143000000000    0.500000000000000 
K           0.602440000000000    0.101230000000000    0.346166000000000 
K           0.602440000000000    0.501211000000000    0.653834000000000 
K           0.804851000000000    0.195149000000000    0.000000000000000 
K           0.804851000000000    0.609702000000000    0.000000000000000 
K           0.898770000000000    0.397560000000000    0.653834000000000 
K           0.898770000000000    0.501211000000000    0.346166000000000 
%ENDBLOCK POSITIONS_FRAC
