# Cell file generated by matador (Matthew Evans 2016)

%BLOCK LATTICE_CART
5.38842 0.0 0.0
-2.69421 4.66651 0.0
0.0 0.0 4.90808
%ENDBLOCK LATTICE_CART

%BLOCK POSITIONS_FRAC
P           0.000000000000000   -0.000000000000000    0.607676000000000 
P           0.333334000000000    0.666666000000000    0.316091000000000 
P           0.333334000000000    0.666666000000000    0.554918000000000 
P           0.582202000000000    0.179720000000000    0.872559000000000 
P           0.597518000000000    0.417798000000000    0.872559000000000 
P           0.820280000000000    0.402482000000000    0.872559000000000 
K           0.666667000000000    0.333333000000000    0.472288000000000 
%ENDBLOCK POSITIONS_FRAC
