# Cell file generated by matador (Matthew Evans 2016)

%BLOCK LATTICE_CART
8.15051 -0.0 0.0
-4.07525 7.05855 0.0
0.0 0.0 8.90069
%ENDBLOCK LATTICE_CART

%BLOCK POSITIONS_FRAC
P           0.000000000000000   -0.000000000000000    0.344711000000000 
P           0.000000000000000   -0.000000000000000    0.654443000000000 
P           0.220798000000000    0.163990000000000    0.422379000000000 
P           0.333333000000000    0.666667000000000    0.629117000000000 
P           0.460406000000000    0.066940000000000    0.866648000000000 
P           0.606534000000000    0.539594000000000    0.866648000000000 
P           0.666667000000000    0.333333000000000    0.916326000000000 
P           0.836010000000000    0.056807000000000    0.422379000000000 
P           0.933060000000000    0.393466000000000    0.866648000000000 
P           0.943193000000000    0.779202000000000    0.422379000000000 
K           0.332448000000000    0.282593000000000    0.782359000000000 
K           0.498867000000000    0.217147000000000    0.563298000000000 
K           0.717407000000000    0.049855000000000    0.782359000000000 
K           0.718280000000000    0.501133000000000    0.563298000000000 
K           0.782853000000000    0.281720000000000    0.563298000000000 
K           0.950145000000000    0.667552000000000    0.782359000000000 
%ENDBLOCK POSITIONS_FRAC
