# Cell file generated by matador (Matthew Evans 2016)

%BLOCK LATTICE_CART
7.59799 0.0 0.0
-3.79899 6.58005 0.0
0.0 0.0 8.3767
%ENDBLOCK LATTICE_CART

%BLOCK POSITIONS_FRAC
P           0.147785000000000    0.496363000000000    0.724505000000000 
P           0.333333000000000    0.666667000000000    0.854837000000000 
P           0.346064000000000    0.120236000000000    0.790839000000000 
P           0.348578000000000    0.852215000000000    0.724505000000000 
P           0.503637000000000    0.651422000000000    0.724505000000000 
P           0.774172000000000    0.653936000000000    0.790839000000000 
P           0.879764000000000    0.225828000000000    0.790839000000000 
K           0.000000000000000    0.000000000000000    0.689116000000000 
K           0.072704000000000    0.676744000000000    0.010444000000000 
K           0.323256000000000    0.395959000000000    0.010444000000000 
K           0.333333000000000    0.666667000000000    0.364497000000000 
K           0.604041000000000    0.927296000000000    0.010444000000000 
%ENDBLOCK POSITIONS_FRAC
