# Cell file generated by matador (Matthew Evans 2016)

%BLOCK LATTICE_CART
4.31702 0.0 0.0
0.0 9.9269 0.0
0.0 0.0 13.1706
%ENDBLOCK LATTICE_CART

%BLOCK POSITIONS_FRAC
P           0.000000000000000   -0.000000000000000    0.000000000000000 
P           0.000000000000000    0.500000000000000    0.500000000000000 
P           0.500000000000000   -0.000000000000000    0.500000000000000 
P           0.500000000000000    0.500000000000000    0.000000000000000 
K           0.000000000000000   -0.000000000000000    0.500000000000000 
K           0.000000000000000    0.241582000000000    0.354975000000000 
K           0.000000000000000    0.258418000000000    0.854975000000000 
K           0.000000000000000    0.500000000000000    0.000000000000000 
K           0.000000000000000    0.741582000000000    0.145025000000000 
K           0.000000000000000    0.758418000000000    0.645025000000000 
K           0.500000000000000   -0.000000000000000    0.000000000000000 
K           0.500000000000000    0.241582000000000    0.145025000000000 
K           0.500000000000000    0.258418000000000    0.645025000000000 
K           0.500000000000000    0.500000000000000    0.500000000000000 
K           0.500000000000000    0.741582000000000    0.354975000000000 
K           0.500000000000000    0.758418000000000    0.854975000000000 
%ENDBLOCK POSITIONS_FRAC
