# Cell file generated by matador (Matthew Evans 2016)

%BLOCK LATTICE_CART
10.8953 0.0 0.0
0.0 9.96056 0.0
0.0 0.0 12.5946
%ENDBLOCK LATTICE_CART

%BLOCK POSITIONS_FRAC
P           0.250000000000000    0.102820000000000    0.750000000000000 
P           0.250000000000000    0.397180000000000    0.250000000000000 
P           0.250000000000000    0.602820000000000    0.750000000000000 
P           0.250000000000000    0.897180000000000    0.250000000000000 
P           0.750000000000000    0.102820000000000    0.750000000000000 
P           0.750000000000000    0.397180000000000    0.250000000000000 
P           0.750000000000000    0.602820000000000    0.750000000000000 
P           0.750000000000000    0.897180000000000    0.250000000000000 
K           0.000000000000000    0.000000000000000    0.000000000000000 
K           0.000000000000000    0.000000000000000    0.500000000000000 
K           0.000000000000000    0.240522000000000    0.137038000000000 
K           0.000000000000000    0.249798000000000    0.373365000000000 
K           0.000000000000000    0.250202000000000    0.873365000000000 
K           0.000000000000000    0.259478000000000    0.637038000000000 
K           0.000000000000000    0.500000000000000    0.000000000000000 
K           0.000000000000000    0.500000000000000    0.500000000000000 
K           0.000000000000000    0.740522000000000    0.362962000000000 
K           0.000000000000000    0.749798000000000    0.126635000000000 
K           0.000000000000000    0.750202000000000    0.626635000000000 
K           0.000000000000000    0.759478000000000    0.862962000000000 
K           0.500000000000000    0.000000000000000    0.000000000000000 
K           0.500000000000000    0.000000000000000    0.500000000000000 
K           0.500000000000000    0.240522000000000    0.362962000000000 
K           0.500000000000000    0.249798000000000    0.126635000000000 
K           0.500000000000000    0.250202000000000    0.626635000000000 
K           0.500000000000000    0.259478000000000    0.862962000000000 
K           0.500000000000000    0.500000000000000    0.000000000000000 
K           0.500000000000000    0.500000000000000    0.500000000000000 
K           0.500000000000000    0.740522000000000    0.137038000000000 
K           0.500000000000000    0.749798000000000    0.373365000000000 
K           0.500000000000000    0.750202000000000    0.873365000000000 
K           0.500000000000000    0.759478000000000    0.637038000000000 
%ENDBLOCK POSITIONS_FRAC
