# Cell file generated by matador (Matthew Evans 2016)

%BLOCK LATTICE_CART
9.46958 0.0 0.0
0.0 9.46958 0.0
0.0 0.0 15.0122
%ENDBLOCK LATTICE_CART

%BLOCK POSITIONS_FRAC
P          -0.000000000000000    0.152079000000000    0.130727000000000 
P          -0.000000000000000    0.847921000000000    0.130727000000000 
P           0.152079000000000    0.500000000000000    0.380727000000000 
P           0.347921000000000   -0.000000000000000    0.880727000000000 
P           0.500000000000000    0.347921000000000    0.630727000000000 
P           0.500000000000000    0.652079000000000    0.630727000000000 
P           0.652079000000000   -0.000000000000000    0.880727000000000 
P           0.847921000000000    0.500000000000000    0.380727000000000 
K          -0.000000000000000    0.218958000000000    0.872062000000000 
K          -0.000000000000000    0.229394000000000    0.603376000000000 
K          -0.000000000000000    0.334673000000000    0.236032000000000 
K          -0.000000000000000    0.665327000000000    0.236032000000000 
K          -0.000000000000000    0.770606000000000    0.603376000000000 
K          -0.000000000000000    0.781042000000000    0.872062000000000 
K           0.165327000000000   -0.000000000000000    0.986032000000000 
K           0.218958000000000    0.500000000000000    0.122062000000000 
K           0.229394000000000    0.500000000000000    0.853376000000000 
K           0.270606000000000   -0.000000000000000    0.353376000000000 
K           0.281042000000000   -0.000000000000000    0.622062000000000 
K           0.334673000000000    0.500000000000000    0.486032000000000 
K           0.500000000000000    0.165327000000000    0.736032000000000 
K           0.500000000000000    0.270606000000000    0.103376000000000 
K           0.500000000000000    0.281042000000000    0.372062000000000 
K           0.500000000000000    0.718958000000000    0.372062000000000 
K           0.500000000000000    0.729394000000000    0.103376000000000 
K           0.500000000000000    0.834673000000000    0.736032000000000 
K           0.665327000000000    0.500000000000000    0.486032000000000 
K           0.718958000000000   -0.000000000000000    0.622062000000000 
K           0.729394000000000   -0.000000000000000    0.353376000000000 
K           0.770606000000000    0.500000000000000    0.853376000000000 
K           0.781042000000000    0.500000000000000    0.122062000000000 
K           0.834673000000000   -0.000000000000000    0.986032000000000 
%ENDBLOCK POSITIONS_FRAC
