# Cell file generated by matador (Matthew Evans 2016)

%BLOCK LATTICE_CART
5.04587 0.0 0.0
0.0 7.57989 0.0
-2.51962 0.0 5.95581
%ENDBLOCK LATTICE_CART

%BLOCK POSITIONS_FRAC
P           0.087176000000000    0.500000000000000    0.251783000000000 
P           0.109773000000000   -0.000000000000000    0.772875000000000 
P           0.184806000000000   -0.000000000000000    0.615329000000000 
P           0.587176000000000   -0.000000000000000    0.251783000000000 
P           0.609773000000000    0.500000000000000    0.772875000000000 
P           0.684806000000000    0.500000000000000    0.615329000000000 
K           0.110220000000000   -0.000000000000000    0.130803000000000 
K           0.610220000000000    0.500000000000000    0.130803000000000 
%ENDBLOCK POSITIONS_FRAC
