# Cell file generated by matador (Matthew Evans 2016)

%BLOCK LATTICE_CART
7.25391 0.0 0.0
0.0 6.18329 0.0
0.0 0.0 7.02766
%ENDBLOCK LATTICE_CART

%BLOCK POSITIONS_FRAC
P           0.000000000000000    0.000000000000000    0.796695000000000 
P           0.262752000000000    0.374789000000000    0.306049000000000 
P           0.262752000000000    0.625211000000000    0.306049000000000 
P           0.737248000000000    0.374789000000000    0.306049000000000 
P           0.737248000000000    0.625211000000000    0.306049000000000 
K           0.187545000000000    0.291841000000000    0.020062000000000 
K           0.187545000000000    0.708159000000000    0.020062000000000 
K           0.233962000000000    0.500000000000000    0.573885000000000 
K           0.766038000000000    0.500000000000000    0.573885000000000 
K           0.812455000000000    0.291841000000000    0.020062000000000 
K           0.812455000000000    0.708159000000000    0.020062000000000 
%ENDBLOCK POSITIONS_FRAC
