# Cell file generated by matador (Matthew Evans 2016)

%BLOCK LATTICE_CART
8.74885 0.0 0.0
-4.37443 7.57673 0.0
0.0 0.0 10.2586
%ENDBLOCK LATTICE_CART

%BLOCK POSITIONS_FRAC
P           0.333334000000000    0.666668000000000    0.250000000000000 
P           0.333334000000000    0.666668000000000    0.750000000000000 
P           0.666668000000000    0.333334000000000    0.250000000000000 
P           0.666668000000000    0.333334000000000    0.750000000000000 
K           0.000001000000000    0.500001000000000    0.000000000000000 
K           0.000001000000000    0.500001000000000    0.500000000000000 
K           0.047055000000000    0.289406000000000    0.250000000000000 
K           0.242353000000000    0.952947000000000    0.250000000000000 
K           0.289406000000000    0.242353000000000    0.750000000000000 
K           0.500001000000000    0.000001000000000    0.000000000000000 
K           0.500001000000000    0.000001000000000    0.500000000000000 
K           0.500001000000000    0.500001000000000    0.000000000000000 
K           0.500001000000000    0.500001000000000    0.500000000000000 
K           0.710596000000000    0.757649000000000    0.250000000000000 
K           0.757649000000000    0.047055000000000    0.750000000000000 
K           0.952947000000000    0.710596000000000    0.750000000000000 
%ENDBLOCK POSITIONS_FRAC
