# Cell file generated by matador (Matthew Evans 2016)

%BLOCK LATTICE_CART
8.75756 0.0 0.0
0.0 8.75756 0.0
0.0 0.0 5.62692
%ENDBLOCK LATTICE_CART

%BLOCK POSITIONS_FRAC
P           0.000000000000000    0.000000000000000    0.500000000000000 
P           0.000000000000000    0.500000000000000    0.000000000000000 
P           0.016463000000000    0.407640000000000    0.898687000000000 
P           0.092360000000000    0.016463000000000    0.601313000000000 
P           0.250000000000000    0.250000000000000    0.250000000000000 
P           0.407640000000000    0.483537000000000    0.601313000000000 
P           0.483537000000000    0.092360000000000    0.898687000000000 
P           0.500000000000000    0.000000000000000    0.000000000000000 
P           0.500000000000000    0.500000000000000    0.500000000000000 
P           0.516463000000000    0.907640000000000    0.101313000000000 
P           0.592360000000000    0.516463000000000    0.398687000000000 
P           0.750000000000000    0.750000000000000    0.750000000000000 
P           0.907640000000000    0.983537000000000    0.398687000000000 
P           0.983537000000000    0.592360000000000    0.101313000000000 
K           0.250000000000000    0.250000000000000    0.750000000000000 
K           0.750000000000000    0.750000000000000    0.250000000000000 
%ENDBLOCK POSITIONS_FRAC
