# Cell file generated by matador (Matthew Evans 2016)

%BLOCK LATTICE_CART
7.34537 0.0 0.0
-3.67269 6.36128 0.0
0.0 0.0 6.48137
%ENDBLOCK LATTICE_CART

%BLOCK POSITIONS_FRAC
P           0.000000000000000    0.000000000000000    0.710937000000000 
P           0.363868000000000    0.223461000000000    0.488447000000000 
P           0.776539000000000    0.140407000000000    0.488447000000000 
P           0.859593000000000    0.636132000000000    0.488447000000000 
K           0.099861000000000    0.788268000000000    0.025444000000000 
K           0.211732000000000    0.311593000000000    0.025444000000000 
K           0.333333000000000    0.666667000000000    0.285589000000000 
K           0.666667000000000    0.333333000000000    0.923250000000000 
K           0.688407000000000    0.900139000000000    0.025444000000000 
%ENDBLOCK POSITIONS_FRAC
