# Cell file generated by matador (Matthew Evans 2016)

%BLOCK LATTICE_CART
8.51168 0.0 0.0
0.0 8.51168 0.0
0.0 0.0 8.63689
%ENDBLOCK LATTICE_CART

%BLOCK POSITIONS_FRAC
P           0.000000000000000    0.500000000000000    0.500000000000000 
P           0.222407000000000    0.312585000000000    0.707223000000000 
P           0.222407000000000    0.687415000000000    0.292777000000000 
P           0.312585000000000    0.222407000000000    0.792777000000000 
P           0.312585000000000    0.777593000000000    0.207223000000000 
P           0.500000000000000    0.000000000000000    0.000000000000000 
P           0.687415000000000    0.222407000000000    0.207223000000000 
P           0.687415000000000    0.777593000000000    0.792777000000000 
P           0.777593000000000    0.312585000000000    0.292777000000000 
P           0.777593000000000    0.687415000000000    0.707223000000000 
K           0.000000000000000    0.000000000000000    0.250000000000000 
K           0.000000000000000    0.000000000000000    0.750000000000000 
K           0.000000000000000    0.500000000000000    0.000000000000000 
K           0.500000000000000    0.000000000000000    0.500000000000000 
K           0.500000000000000    0.500000000000000    0.250000000000000 
K           0.500000000000000    0.500000000000000    0.750000000000000 
%ENDBLOCK POSITIONS_FRAC
