# Cell file generated by matador (Matthew Evans 2016)

%BLOCK LATTICE_CART
11.758 0.0 0.0
0.0 11.758 0.0
0.0 0.0 4.01814
%ENDBLOCK LATTICE_CART

%BLOCK POSITIONS_FRAC
P           0.250000000000000    0.250000000000000    0.250000000000000 
P           0.250000000000000    0.250000000000000    0.750000000000000 
P           0.250000000000000    0.750000000000000    0.250000000000000 
P           0.250000000000000    0.750000000000000    0.750000000000000 
P           0.750000000000000    0.250000000000000    0.250000000000000 
P           0.750000000000000    0.250000000000000    0.750000000000000 
P           0.750000000000000    0.750000000000000    0.250000000000000 
P           0.750000000000000    0.750000000000000    0.750000000000000 
K           0.000000000000000    0.000000000000000    0.000000000000000 
K           0.086978000000000    0.836700000000000    0.000000000000000 
K           0.163300000000000    0.086978000000000    0.000000000000000 
K           0.336700000000000    0.413022000000000    0.500000000000000 
K           0.413022000000000    0.663300000000000    0.500000000000000 
K           0.500000000000000    0.500000000000000    0.500000000000000 
K           0.586978000000000    0.336700000000000    0.500000000000000 
K           0.663300000000000    0.586978000000000    0.500000000000000 
K           0.836700000000000    0.913022000000000    0.000000000000000 
K           0.913022000000000    0.163300000000000    0.000000000000000 
%ENDBLOCK POSITIONS_FRAC
