# Cell file generated by matador (Matthew Evans 2016)

%BLOCK LATTICE_CART
7.4137 0.0 0.0
0.0 13.9518 0.0
0.0 0.0 9.87571
%ENDBLOCK LATTICE_CART

%BLOCK POSITIONS_FRAC
P           0.000000000000000    0.500000000000000    0.774360000000000 
P           0.196821000000000    0.000000000000000    0.683135000000000 
P           0.303179000000000    0.500000000000000    0.683135000000000 
P           0.500000000000000    0.000000000000000    0.774360000000000 
P           0.696821000000000    0.500000000000000    0.683135000000000 
P           0.803179000000000    0.000000000000000    0.683135000000000 
K           0.000000000000000    0.000000000000000    0.239973000000000 
K           0.000000000000000    0.122521000000000    0.591436000000000 
K           0.000000000000000    0.361795000000000    0.580271000000000 
K           0.000000000000000    0.638205000000000    0.580271000000000 
K           0.000000000000000    0.877479000000000    0.591436000000000 
K           0.233239000000000    0.000000000000000    0.926289000000000 
K           0.250000000000000    0.250000000000000    0.359711000000000 
K           0.250000000000000    0.750000000000000    0.359711000000000 
K           0.266761000000000    0.500000000000000    0.926289000000000 
K           0.500000000000000    0.138205000000000    0.580271000000000 
K           0.500000000000000    0.377479000000000    0.591436000000000 
K           0.500000000000000    0.500000000000000    0.239973000000000 
K           0.500000000000000    0.622521000000000    0.591436000000000 
K           0.500000000000000    0.861795000000000    0.580271000000000 
K           0.733239000000000    0.500000000000000    0.926289000000000 
K           0.750000000000000    0.250000000000000    0.359711000000000 
K           0.750000000000000    0.750000000000000    0.359711000000000 
K           0.766761000000000    0.000000000000000    0.926289000000000 
%ENDBLOCK POSITIONS_FRAC
