# Cell file generated by matador (Matthew Evans 2016)

%BLOCK LATTICE_CART
7.09033 0.0 0.0
-3.54516 6.1404 0.0
0.0 0.0 8.84933
%ENDBLOCK LATTICE_CART

%BLOCK POSITIONS_FRAC
P           0.000000000000000    0.000000000000000    0.000000000000000 
P           0.000000000000000    0.000000000000000    0.500000000000000 
K           0.195928000000000    0.391855000000000    0.520998000000000 
K           0.195928000000000    0.391855000000000    0.979002000000000 
K           0.195928000000000    0.804072000000000    0.520998000000000 
K           0.195928000000000    0.804072000000000    0.979002000000000 
K           0.391855000000000    0.195928000000000    0.020998000000000 
K           0.391855000000000    0.195928000000000    0.479002000000000 
K           0.608145000000000    0.804072000000000    0.520998000000000 
K           0.608145000000000    0.804072000000000    0.979002000000000 
K           0.804072000000000    0.195928000000000    0.020998000000000 
K           0.804072000000000    0.195928000000000    0.479002000000000 
K           0.804072000000000    0.608145000000000    0.020998000000000 
K           0.804072000000000    0.608145000000000    0.479002000000000 
%ENDBLOCK POSITIONS_FRAC
