# Cell file generated by matador (Matthew Evans 2016)

%BLOCK LATTICE_CART
8.86125 0.0 0.0
-4.43062 7.67406 0.0
0.0 0.0 9.67033
%ENDBLOCK LATTICE_CART

%BLOCK POSITIONS_FRAC
P           0.078272000000000    0.539136000000000    0.042722000000000 
P           0.460864000000000    0.539136000000000    0.042722000000000 
P           0.460864000000000    0.921728000000000    0.042722000000000 
P           0.666667000000000    0.333333000000000    0.649629000000000 
K           0.117533000000000    0.235067000000000    0.764100000000000 
K           0.117533000000000    0.882467000000000    0.764100000000000 
K           0.129912000000000    0.259823000000000    0.300205000000000 
K           0.129912000000000    0.870088000000000    0.300205000000000 
K           0.538978000000000    0.077957000000000    0.549588000000000 
K           0.538978000000000    0.461022000000000    0.549588000000000 
K           0.547324000000000    0.094647000000000    0.205094000000000 
K           0.547324000000000    0.452676000000000    0.205094000000000 
K           0.740177000000000    0.870088000000000    0.300205000000000 
K           0.764933000000000    0.882467000000000    0.764100000000000 
K           0.905353000000000    0.452676000000000    0.205094000000000 
K           0.922043000000000    0.461022000000000    0.549588000000000 
%ENDBLOCK POSITIONS_FRAC
