# Cell file generated by matador (Matthew Evans 2016)

%BLOCK LATTICE_CART
7.4868 0.0 0.0
0.0 5.74086 0.0
2.83922 0.0 5.77186
%ENDBLOCK LATTICE_CART

%BLOCK POSITIONS_FRAC
P           0.000000000000000    0.349280000000000    0.500000000000000 
P           0.000000000000000    0.967328000000000    0.000000000000000 
P           0.146323000000000    0.235182000000000    0.804014000000000 
P           0.500000000000000    0.104601000000000    0.500000000000000 
P           0.853677000000000    0.235182000000000    0.195986000000000 
K           0.000000000000000    0.539177000000000    0.000000000000000 
K           0.000000000000000    0.674095000000000    0.500000000000000 
K           0.183210000000000    0.024923000000000    0.467389000000000 
K           0.816790000000000    0.024923000000000    0.532611000000000 
%ENDBLOCK POSITIONS_FRAC
