# Cell file generated by matador (Matthew Evans 2016)

%BLOCK LATTICE_CART
6.38394 0.0 0.0
0.0 7.49793 0.0
0.0 0.0 7.2164
%ENDBLOCK LATTICE_CART

%BLOCK POSITIONS_FRAC
P           0.000000000000000    0.000000000000000    0.500000000000000 
P           0.000000000000000    0.500000000000000    0.500000000000000 
P           0.136786000000000    0.440417000000000    0.896828000000000 
P           0.136786000000000    0.559583000000000    0.103172000000000 
P           0.863214000000000    0.440417000000000    0.103172000000000 
P           0.863214000000000    0.559583000000000    0.896828000000000 
K           0.228043000000000    0.129534000000000    0.105603000000000 
K           0.228043000000000    0.870466000000000    0.894397000000000 
K           0.500000000000000    0.000000000000000    0.500000000000000 
K           0.771957000000000    0.129534000000000    0.894397000000000 
K           0.771957000000000    0.870466000000000    0.105603000000000 
%ENDBLOCK POSITIONS_FRAC
