# Cell file generated by matador (Matthew Evans 2016)

%BLOCK LATTICE_CART
8.73053 -0.0 0.0
-4.36526 7.56086 0.0
0.0 0.0 6.85287
%ENDBLOCK LATTICE_CART

%BLOCK POSITIONS_FRAC
P           0.000000000000000    0.000000000000000    0.000000000000000 
P           0.265775000000000    0.179373000000000    0.000000000000000 
P           0.365519000000000    0.112515000000000    0.138769000000000 
P           0.365519000000000    0.112515000000000    0.861231000000000 
P           0.746996000000000    0.634481000000000    0.138769000000000 
P           0.746996000000000    0.634481000000000    0.861231000000000 
P           0.820627000000000    0.086402000000000    0.000000000000000 
P           0.887485000000000    0.253004000000000    0.138769000000000 
P           0.887485000000000    0.253004000000000    0.861231000000000 
P           0.913598000000000    0.734225000000000    0.000000000000000 
K           0.000000000000000    0.000000000000000    0.500000000000000 
K           0.333333000000000    0.666667000000000    0.000000000000000 
%ENDBLOCK POSITIONS_FRAC
