# Cell file generated by matador (Matthew Evans 2016)

%BLOCK LATTICE_CART
6.9584 0.0 0.0
-3.4792 6.02615 0.0
0.0 0.0 5.1357
%ENDBLOCK LATTICE_CART

%BLOCK POSITIONS_FRAC
P           0.000001000000000    0.500001000000000    0.000000000000000 
P           0.333334000000000    0.666668000000000    0.389430000000000 
P           0.333334000000000    0.666668000000000    0.610570000000000 
P           0.500001000000000    0.000001000000000    0.000000000000000 
P           0.500001000000000    0.500001000000000    0.000000000000000 
P           0.666668000000000    0.333334000000000    0.389430000000000 
P           0.666668000000000    0.333334000000000    0.610570000000000 
K           0.333334000000000    0.666668000000000    0.000000000000000 
K           0.666668000000000    0.333334000000000    0.000000000000000 
%ENDBLOCK POSITIONS_FRAC
