# Cell file generated by matador (Matthew Evans 2016)

%BLOCK LATTICE_CART
7.15173 0.0 0.0
0.0 10.1511 0.0
-1.56029 0.0 5.73228
%ENDBLOCK LATTICE_CART

%BLOCK POSITIONS_FRAC
P           0.000000000000000    0.074766000000000    0.500000000000000 
P           0.000000000000000    0.374658000000000    0.000000000000000 
P           0.000000000000000    0.386262000000000    0.500000000000000 
P           0.000000000000000    0.491836000000000    0.000000000000000 
P           0.500000000000000    0.091097000000000    0.500000000000000 
P           0.500000000000000    0.194157000000000    0.500000000000000 
P           0.500000000000000    0.350984000000000    0.500000000000000 
P           0.500000000000000    0.558146000000000    0.000000000000000 
P           0.500000000000000    0.660028000000000    0.500000000000000 
P           0.500000000000000    0.805226000000000    0.500000000000000 
K           0.190036000000000    0.668340000000000    0.284594000000000 
K           0.358817000000000    0.521283000000000    0.666384000000000 
K           0.641183000000000    0.521283000000000    0.333616000000000 
K           0.809964000000000    0.668340000000000    0.715406000000000 
%ENDBLOCK POSITIONS_FRAC
