# Cell file generated by matador (Matthew Evans 2016)

%BLOCK LATTICE_CART
8.81097 0.0 0.0
0.0 8.81097 0.0
0.0 0.0 5.72031
%ENDBLOCK LATTICE_CART

%BLOCK POSITIONS_FRAC
P           0.295327000000000    0.500000000000000    0.000000000000000 
P           0.500000000000000    0.295327000000000    0.000000000000000 
P           0.500000000000000    0.500000000000000    0.187629000000000 
P           0.500000000000000    0.500000000000000    0.812371000000000 
P           0.500000000000000    0.704673000000000    0.000000000000000 
P           0.704673000000000    0.500000000000000    0.000000000000000 
K           0.000000000000000    0.000000000000000    0.000000000000000 
K           0.000000000000000    0.283763000000000    0.313142000000000 
K           0.000000000000000    0.283763000000000    0.686858000000000 
K           0.000000000000000    0.716237000000000    0.313142000000000 
K           0.000000000000000    0.716237000000000    0.686858000000000 
K           0.283763000000000    0.000000000000000    0.313142000000000 
K           0.283763000000000    0.000000000000000    0.686858000000000 
K           0.716237000000000    0.000000000000000    0.313142000000000 
K           0.716237000000000    0.000000000000000    0.686858000000000 
%ENDBLOCK POSITIONS_FRAC
