# Cell file generated by matador (Matthew Evans 2016)

%BLOCK LATTICE_CART
8.18004 0.0 0.0
0.0 8.18004 0.0
0.0 0.0 6.84872
%ENDBLOCK LATTICE_CART

%BLOCK POSITIONS_FRAC
P           0.146057000000000    0.398353000000000    0.060376000000000 
P           0.146057000000000    0.601647000000000    0.439624000000000 
P           0.245087000000000    0.245087000000000    0.875000000000000 
P           0.245087000000000    0.754913000000000    0.625000000000000 
P           0.398353000000000    0.146057000000000    0.689624000000000 
P           0.398353000000000    0.853943000000000    0.810376000000000 
P           0.601647000000000    0.146057000000000    0.310376000000000 
P           0.601647000000000    0.853943000000000    0.189624000000000 
P           0.754913000000000    0.245087000000000    0.125000000000000 
P           0.754913000000000    0.754913000000000    0.375000000000000 
P           0.853943000000000    0.398353000000000    0.939624000000000 
P           0.853943000000000    0.601647000000000    0.560376000000000 
K           0.170866000000000    0.170866000000000    0.375000000000000 
K           0.170866000000000    0.829134000000000    0.125000000000000 
K           0.829134000000000    0.170866000000000    0.625000000000000 
K           0.829134000000000    0.829134000000000    0.875000000000000 
%ENDBLOCK POSITIONS_FRAC
