# Cell file generated by matador (Matthew Evans 2016)

%BLOCK LATTICE_CART
8.60102 0.0 0.0
-4.30051 7.4487 0.0
0.0 0.0 7.57863
%ENDBLOCK LATTICE_CART

%BLOCK POSITIONS_FRAC
P           0.000000000000000    0.657426000000000    0.227729000000000 
P           0.342574000000000    0.342574000000000    0.227729000000000 
P           0.657426000000000    0.000000000000000    0.227729000000000 
K           0.000000000000000    0.000000000000000    0.379944000000000 
K           0.000000000000000    0.426651000000000    0.605778000000000 
K           0.000000000000000    0.751047000000000    0.971477000000000 
K           0.248953000000000    0.248953000000000    0.971477000000000 
K           0.333333000000000    0.666667000000000    0.918666000000000 
K           0.426651000000000    0.000000000000000    0.605778000000000 
K           0.573349000000000    0.573349000000000    0.605778000000000 
K           0.666667000000000    0.333333000000000    0.918666000000000 
K           0.751047000000000    0.000000000000000    0.971477000000000 
%ENDBLOCK POSITIONS_FRAC
