# Cell file generated by matador (Matthew Evans 2016)

%BLOCK LATTICE_CART
8.95225 0.0 0.0
-4.47612 7.75287 0.0
0.0 0.0 9.34308
%ENDBLOCK LATTICE_CART

%BLOCK POSITIONS_FRAC
P           0.000000000000000    0.000000000000000    0.000000000000000 
P           0.000000000000000    0.000000000000000    0.250000000000000 
P           0.000000000000000    0.000000000000000    0.500000000000000 
P           0.000000000000000    0.000000000000000    0.750000000000000 
K           0.000000000000000    0.500000000000000    0.000000000000000 
K           0.000000000000000    0.500000000000000    0.500000000000000 
K           0.068476000000000    0.271452000000000    0.750000000000000 
K           0.202976000000000    0.931524000000000    0.750000000000000 
K           0.271452000000000    0.202976000000000    0.250000000000000 
K           0.500000000000000    0.000000000000000    0.000000000000000 
K           0.500000000000000    0.000000000000000    0.500000000000000 
K           0.500000000000000    0.500000000000000    0.000000000000000 
K           0.500000000000000    0.500000000000000    0.500000000000000 
K           0.728548000000000    0.797024000000000    0.750000000000000 
K           0.797024000000000    0.068476000000000    0.250000000000000 
K           0.931524000000000    0.728548000000000    0.250000000000000 
%ENDBLOCK POSITIONS_FRAC
