# Cell file generated by matador (Matthew Evans 2016)

%BLOCK LATTICE_CART
6.80739 0.0 0.0
0.0 6.80739 0.0
0.0 0.0 7.2725
%ENDBLOCK LATTICE_CART

%BLOCK POSITIONS_FRAC
P           0.000000000000000    0.000000000000000    0.000000000000000 
P           0.500000000000000    0.500000000000000    0.500000000000000 
K           0.000000000000000    0.500000000000000    0.500000000000000 
K           0.304683000000000    0.304683000000000    0.887673000000000 
K           0.304683000000000    0.695317000000000    0.112327000000000 
K           0.500000000000000    0.000000000000000    0.500000000000000 
K           0.695317000000000    0.304683000000000    0.112327000000000 
K           0.695317000000000    0.695317000000000    0.887673000000000 
%ENDBLOCK POSITIONS_FRAC
