# Cell file generated by matador (Matthew Evans 2016)

%BLOCK LATTICE_CART
8.08795 0.0 0.0
-4.04397 7.00437 0.0
0.0 0.0 7.68952
%ENDBLOCK LATTICE_CART

%BLOCK POSITIONS_FRAC
P          -0.000000000000000   -0.000000000000000    0.278554000000000 
P           0.072810000000000    0.253592000000000    0.550930000000000 
P           0.079741000000000    0.485884000000000    0.217596000000000 
P           0.180782000000000    0.927190000000000    0.550930000000000 
P           0.333333000000000    0.666667000000000    0.945221000000000 
P           0.406143000000000    0.920259000000000    0.217596000000000 
P           0.413075000000000    0.152551000000000    0.884263000000000 
P           0.514116000000000    0.593857000000000    0.217596000000000 
P           0.666667000000000    0.333333000000000    0.611888000000000 
P           0.739476000000000    0.586925000000000    0.884263000000000 
P           0.746408000000000    0.819218000000000    0.550930000000000 
P           0.847449000000000    0.260524000000000    0.884263000000000 
K          -0.000000000000000   -0.000000000000000    0.832261000000000 
K           0.333333000000000    0.666667000000000    0.498928000000000 
K           0.666667000000000    0.333333000000000    0.165594000000000 
%ENDBLOCK POSITIONS_FRAC
