# Cell file generated by matador (Matthew Evans 2016)

%BLOCK LATTICE_CART
7.14116 0.0 0.0
0.0 8.04472 0.0
0.650072 0.0 7.40928
%ENDBLOCK LATTICE_CART

%BLOCK POSITIONS_FRAC
P          -0.000000000000000    0.000000000000000    0.000000000000000 
P          -0.000000000000000    0.000000000000000    0.500000000000000 
P          -0.000000000000000    0.500000000000000    0.000000000000000 
P          -0.000000000000000    0.500000000000000    0.500000000000000 
P           0.242739000000000    0.412848000000000    0.503138000000000 
P           0.242739000000000    0.587152000000000    0.003138000000000 
P           0.500000000000000    0.249373000000000    0.250000000000000 
P           0.500000000000000    0.750627000000000    0.750000000000000 
P           0.757261000000000    0.412848000000000    0.996862000000000 
P           0.757261000000000    0.587152000000000    0.496862000000000 
K           0.296934000000000    0.143105000000000    0.859127000000000 
K           0.296934000000000    0.856895000000000    0.359127000000000 
K           0.500000000000000    0.500000000000000    0.000000000000000 
K           0.500000000000000    0.500000000000000    0.500000000000000 
K           0.703066000000000    0.143105000000000    0.640873000000000 
K           0.703066000000000    0.856895000000000    0.140873000000000 
%ENDBLOCK POSITIONS_FRAC
