# Cell file generated by matador (Matthew Evans 2016)

%BLOCK LATTICE_CART
5.77063 0.0 0.0
0.0 6.5189 0.0
-1.49188 0.0 5.68587
%ENDBLOCK LATTICE_CART

%BLOCK POSITIONS_FRAC
P           0.237335000000000    0.390090000000000    0.937308000000000 
P           0.237335000000000    0.609910000000000    0.937308000000000 
P           0.283668000000000    0.500000000000000    0.077441000000000 
P           0.469663000000000    0.108703000000000    0.900891000000000 
P           0.469663000000000    0.891297000000000    0.900891000000000 
P           0.789916000000000    0.332542000000000    0.174454000000000 
P           0.789916000000000    0.667458000000000    0.174454000000000 
K           0.068107000000000    0.000000000000000    0.228717000000000 
K           0.589810000000000    0.000000000000000    0.522767000000000 
K           0.716600000000000    0.500000000000000    0.702811000000000 
%ENDBLOCK POSITIONS_FRAC
