# Cell file generated by matador (Matthew Evans 2016)

%BLOCK LATTICE_CART
6.32554 0.0 0.0
-3.16277 5.47808 0.0
0.0 0.0 14.6348
%ENDBLOCK LATTICE_CART

%BLOCK POSITIONS_FRAC
P           0.000000000000000    0.000000000000000    0.000000000000000 
P           0.333333000000000    0.666667000000000    0.000000000000000 
P           0.666667000000000    0.333333000000000    0.500000000000000 
K           0.000000000000000    0.000000000000000    0.500000000000000 
K           0.007418000000000    0.503709000000000    0.298696000000000 
K           0.007418000000000    0.503709000000000    0.701304000000000 
K           0.333333000000000    0.666667000000000    0.500000000000000 
K           0.496291000000000    0.503709000000000    0.298696000000000 
K           0.496291000000000    0.503709000000000    0.701304000000000 
K           0.496291000000000    0.992582000000000    0.298696000000000 
K           0.496291000000000    0.992582000000000    0.701304000000000 
K           0.666667000000000    0.333333000000000    0.000000000000000 
%ENDBLOCK POSITIONS_FRAC
