# Cell file generated by matador (Matthew Evans 2016)

%BLOCK LATTICE_CART
6.65832 0.0 0.0
-3.32916 5.76627 0.0
0.0 0.0 5.62722
%ENDBLOCK LATTICE_CART

%BLOCK POSITIONS_FRAC
P          -0.000000000000000    0.000000000000000    0.592357000000000 
P           0.228273000000000    0.548544000000000    0.587426000000000 
P           0.320271000000000    0.771727000000000    0.587426000000000 
P           0.451456000000000    0.679729000000000    0.587426000000000 
P           0.563705000000000    0.325044000000000    0.174652000000000 
P           0.674956000000000    0.238661000000000    0.174652000000000 
P           0.761339000000000    0.436295000000000    0.174652000000000 
K           0.333333000000000    0.666667000000000    0.135363000000000 
%ENDBLOCK POSITIONS_FRAC
