# Cell file generated by matador (Matthew Evans 2016)

%BLOCK LATTICE_CART
9.48327 0.0 0.0
0.0 12.974 0.0
0.0 0.0 10.1097
%ENDBLOCK LATTICE_CART

%BLOCK POSITIONS_FRAC
P           0.116715000000000    0.250000000000000    0.068522000000000 
P           0.116715000000000    0.750000000000000    0.931478000000000 
P           0.383285000000000    0.250000000000000    0.431478000000000 
P           0.383285000000000    0.750000000000000    0.568522000000000 
P           0.616715000000000    0.250000000000000    0.431478000000000 
P           0.616715000000000    0.750000000000000    0.568522000000000 
P           0.883285000000000    0.250000000000000    0.068522000000000 
P           0.883285000000000    0.750000000000000    0.931478000000000 
K           0.000000000000000    0.000000000000000    0.000000000000000 
K           0.000000000000000    0.000000000000000    0.500000000000000 
K           0.000000000000000    0.133341000000000    0.769461000000000 
K           0.000000000000000    0.250000000000000    0.513604000000000 
K           0.000000000000000    0.366659000000000    0.769461000000000 
K           0.000000000000000    0.500000000000000    0.000000000000000 
K           0.000000000000000    0.500000000000000    0.500000000000000 
K           0.000000000000000    0.633341000000000    0.230539000000000 
K           0.000000000000000    0.750000000000000    0.486396000000000 
K           0.000000000000000    0.866659000000000    0.230539000000000 
K           0.250000000000000    0.250000000000000    0.250000000000000 
K           0.250000000000000    0.750000000000000    0.750000000000000 
K           0.500000000000000    0.000000000000000    0.000000000000000 
K           0.500000000000000    0.000000000000000    0.500000000000000 
K           0.500000000000000    0.133341000000000    0.730539000000000 
K           0.500000000000000    0.250000000000000    0.986396000000000 
K           0.500000000000000    0.366659000000000    0.730539000000000 
K           0.500000000000000    0.500000000000000    0.000000000000000 
K           0.500000000000000    0.500000000000000    0.500000000000000 
K           0.500000000000000    0.633341000000000    0.269461000000000 
K           0.500000000000000    0.750000000000000    0.013604000000000 
K           0.500000000000000    0.866659000000000    0.269461000000000 
K           0.750000000000000    0.250000000000000    0.250000000000000 
K           0.750000000000000    0.750000000000000    0.750000000000000 
%ENDBLOCK POSITIONS_FRAC
