# Cell file generated by matador (Matthew Evans 2016)

%BLOCK LATTICE_CART
7.69208 0.0 0.0
0.0 9.05444 0.0
-1.18854 0.0 4.49737
%ENDBLOCK LATTICE_CART

%BLOCK POSITIONS_FRAC
P           0.066270000000000    0.650290000000000    0.464684000000000 
P           0.278748000000000    0.667693000000000    0.392130000000000 
P           0.343465000000000    0.286886000000000    0.293298000000000 
P           0.656535000000000    0.286886000000000    0.706702000000000 
P           0.721252000000000    0.667693000000000    0.607870000000000 
P           0.933730000000000    0.650290000000000    0.535316000000000 
K           0.000000000000000    0.417220000000000    0.500000000000000 
K           0.166259000000000    0.521897000000000    0.052122000000000 
K           0.210625000000000    0.929563000000000    0.730696000000000 
K           0.789375000000000    0.929563000000000    0.269304000000000 
K           0.833741000000000    0.521897000000000    0.947878000000000 
%ENDBLOCK POSITIONS_FRAC
