# Cell file generated by matador (Matthew Evans 2016)

%BLOCK LATTICE_CART
10.3948 0.0 0.0
-5.19739 9.00214 0.0
0.0 0.0 5.12581
%ENDBLOCK LATTICE_CART

%BLOCK POSITIONS_FRAC
P           0.000000000000000   -0.000000000000000    0.865596000000000 
P           0.333333000000000    0.666667000000000    0.532262000000000 
P           0.666667000000000    0.333333000000000    0.198929000000000 
K           0.168330000000000    0.336660000000000    0.977953000000000 
K           0.168330000000000    0.831670000000000    0.977953000000000 
K           0.330007000000000    0.165003000000000    0.311286000000000 
K           0.501663000000000    0.003326000000000    0.644620000000000 
K           0.501663000000000    0.498337000000000    0.644620000000000 
K           0.663340000000000    0.831670000000000    0.977953000000000 
K           0.834997000000000    0.165003000000000    0.311286000000000 
K           0.834997000000000    0.669993000000000    0.311286000000000 
K           0.996674000000000    0.498337000000000    0.644620000000000 
%ENDBLOCK POSITIONS_FRAC
