# Cell file generated by matador (Matthew Evans 2016)

%BLOCK LATTICE_CART
8.6212 0.0 0.0
0.0 8.6212 0.0
0.0 0.0 5.22697
%ENDBLOCK LATTICE_CART

%BLOCK POSITIONS_FRAC
P           0.000000000000000    0.500000000000000    0.148774000000000 
P           0.500000000000000    0.000000000000000    0.148774000000000 
K           0.000000000000000    0.000000000000000    0.788125000000000 
K           0.109169000000000    0.609169000000000    0.758613000000000 
K           0.156097000000000    0.343903000000000    0.579688000000000 
K           0.343903000000000    0.843903000000000    0.579688000000000 
K           0.390831000000000    0.109169000000000    0.758613000000000 
K           0.500000000000000    0.500000000000000    0.788125000000000 
K           0.609169000000000    0.890831000000000    0.758613000000000 
K           0.656097000000000    0.156097000000000    0.579688000000000 
K           0.843903000000000    0.656097000000000    0.579688000000000 
K           0.890831000000000    0.390831000000000    0.758613000000000 
%ENDBLOCK POSITIONS_FRAC
