# Cell file generated by matador (Matthew Evans 2016)

%BLOCK LATTICE_CART
9.25061 0.0 0.0
0.0 9.25061 0.0
0.0 0.0 9.85133
%ENDBLOCK LATTICE_CART

%BLOCK POSITIONS_FRAC
P           0.000000000000000    0.000000000000000    0.987428000000000 
P           0.000000000000000    0.500000000000000    0.034346000000000 
P           0.000000000000000    0.500000000000000    0.534346000000000 
P           0.500000000000000    0.000000000000000    0.034346000000000 
P           0.500000000000000    0.000000000000000    0.534346000000000 
P           0.500000000000000    0.500000000000000    0.487428000000000 
K           0.000000000000000    0.000000000000000    0.740802000000000 
K           0.000000000000000    0.280317000000000    0.979206000000000 
K           0.000000000000000    0.719683000000000    0.979206000000000 
K           0.187022000000000    0.187022000000000    0.333344000000000 
K           0.187022000000000    0.812978000000000    0.333344000000000 
K           0.219683000000000    0.500000000000000    0.479206000000000 
K           0.280317000000000    0.000000000000000    0.979206000000000 
K           0.312978000000000    0.312978000000000    0.833344000000000 
K           0.312978000000000    0.687022000000000    0.833344000000000 
K           0.500000000000000    0.219683000000000    0.479206000000000 
K           0.500000000000000    0.500000000000000    0.240802000000000 
K           0.500000000000000    0.780317000000000    0.479206000000000 
K           0.687022000000000    0.312978000000000    0.833344000000000 
K           0.687022000000000    0.687022000000000    0.833344000000000 
K           0.719683000000000    0.000000000000000    0.979206000000000 
K           0.780317000000000    0.500000000000000    0.479206000000000 
K           0.812978000000000    0.187022000000000    0.333344000000000 
K           0.812978000000000    0.812978000000000    0.333344000000000 
%ENDBLOCK POSITIONS_FRAC
