# Cell file generated by matador (Matthew Evans 2016)

%BLOCK LATTICE_CART
8.76708 0.0 0.0
0.0 8.76708 0.0
0.0 0.0 8.26019
%ENDBLOCK LATTICE_CART

%BLOCK POSITIONS_FRAC
P           0.000000000000000    0.000000000000000    0.000000000000000 
P           0.000000000000000    0.228127000000000    0.500000000000000 
P           0.000000000000000    0.771873000000000    0.500000000000000 
P           0.228127000000000    0.000000000000000    0.500000000000000 
P           0.250000000000000    0.250000000000000    0.000000000000000 
P           0.250000000000000    0.750000000000000    0.000000000000000 
P           0.271873000000000    0.500000000000000    0.500000000000000 
P           0.500000000000000    0.271873000000000    0.500000000000000 
P           0.500000000000000    0.500000000000000    0.000000000000000 
P           0.500000000000000    0.728127000000000    0.500000000000000 
P           0.728127000000000    0.500000000000000    0.500000000000000 
P           0.750000000000000    0.250000000000000    0.000000000000000 
P           0.750000000000000    0.750000000000000    0.000000000000000 
P           0.771873000000000    0.000000000000000    0.500000000000000 
K           0.000000000000000    0.000000000000000    0.500000000000000 
K           0.000000000000000    0.500000000000000    0.000000000000000 
K           0.000000000000000    0.500000000000000    0.500000000000000 
K           0.500000000000000    0.000000000000000    0.000000000000000 
K           0.500000000000000    0.000000000000000    0.500000000000000 
K           0.500000000000000    0.500000000000000    0.500000000000000 
%ENDBLOCK POSITIONS_FRAC
