# Cell file generated by matador (Matthew Evans 2016)

%BLOCK LATTICE_CART
8.67721 0.0 0.0
-4.3386 7.51468 0.0
0.0 0.0 7.86858
%ENDBLOCK LATTICE_CART

%BLOCK POSITIONS_FRAC
P           0.208253000000000    0.416507000000000    0.166667000000000 
P           0.208253000000000    0.791747000000000    0.833333000000000 
P           0.583493000000000    0.791747000000000    0.500000000000000 
K           0.096096000000000    0.548048000000000    0.500000000000000 
K           0.195724000000000    0.097862000000000    0.000000000000000 
K           0.451952000000000    0.548048000000000    0.833333000000000 
K           0.451952000000000    0.903904000000000    0.166667000000000 
K           0.520743000000000    0.041488000000000    0.666667000000000 
K           0.520743000000000    0.479257000000000    0.333333000000000 
K           0.902138000000000    0.097862000000000    0.333333000000000 
K           0.902138000000000    0.804276000000000    0.666667000000000 
K           0.958512000000000    0.479257000000000    0.000000000000000 
%ENDBLOCK POSITIONS_FRAC
