# Cell file generated by matador (Matthew Evans 2016)

%BLOCK LATTICE_CART
8.17091 0.0 0.0
0.0 8.17091 0.0
0.0 0.0 8.17091
%ENDBLOCK LATTICE_CART

%BLOCK POSITIONS_FRAC
P           0.155304000000000    0.155304000000000    0.155304000000000 
P           0.155304000000000    0.844696000000000    0.844696000000000 
P           0.379940000000000    0.379940000000000    0.379940000000000 
P           0.379940000000000    0.620060000000000    0.620060000000000 
P           0.620060000000000    0.379940000000000    0.620060000000000 
P           0.620060000000000    0.620060000000000    0.379940000000000 
P           0.844696000000000    0.155304000000000    0.844696000000000 
P           0.844696000000000    0.844696000000000    0.155304000000000 
K           0.000000000000000    0.000000000000000    0.500000000000000 
K           0.000000000000000    0.500000000000000    0.000000000000000 
K           0.000000000000000    0.500000000000000    0.500000000000000 
K           0.500000000000000    0.000000000000000    0.000000000000000 
K           0.500000000000000    0.000000000000000    0.500000000000000 
K           0.500000000000000    0.500000000000000    0.000000000000000 
%ENDBLOCK POSITIONS_FRAC
