# Cell file generated by matador (Matthew Evans 2016)

%BLOCK LATTICE_CART
6.38635 0.0 0.0
0.0 7.08907 0.0
-1.66452 0.0 8.18585
%ENDBLOCK LATTICE_CART

%BLOCK POSITIONS_FRAC
P           0.000000000000000    0.064741000000000    0.750000000000000 
P           0.000000000000000    0.935259000000000    0.250000000000000 
P           0.258398000000000    0.030710000000000    0.163000000000000 
P           0.258398000000000    0.969290000000000    0.663000000000000 
P           0.401396000000000    0.096541000000000    0.185821000000000 
P           0.401396000000000    0.903459000000000    0.685821000000000 
P           0.500000000000000    0.000000000000000    0.000000000000000 
P           0.500000000000000    0.000000000000000    0.500000000000000 
P           0.500000000000000    0.500000000000000    0.000000000000000 
P           0.500000000000000    0.500000000000000    0.500000000000000 
P           0.598604000000000    0.096541000000000    0.314179000000000 
P           0.598604000000000    0.903459000000000    0.814179000000000 
P           0.741602000000000    0.030710000000000    0.337000000000000 
P           0.741602000000000    0.969290000000000    0.837000000000000 
K           0.000000000000000    0.000000000000000    0.000000000000000 
K           0.000000000000000    0.000000000000000    0.500000000000000 
%ENDBLOCK POSITIONS_FRAC
