# Cell file generated by matador (Matthew Evans 2016)

%BLOCK LATTICE_CART
9.12683 0.0 0.0
0.0 9.12683 0.0
0.0 0.0 6.36968
%ENDBLOCK LATTICE_CART

%BLOCK POSITIONS_FRAC
P           0.000000000000000    0.000000000000000    0.317577000000000 
P           0.000000000000000    0.000000000000000    0.682423000000000 
P           0.000000000000000    0.084542000000000    0.500000000000000 
P           0.000000000000000    0.500000000000000    0.000000000000000 
P           0.000000000000000    0.915458000000000    0.500000000000000 
P           0.084542000000000    0.000000000000000    0.500000000000000 
P           0.500000000000000    0.000000000000000    0.000000000000000 
P           0.915458000000000    0.000000000000000    0.500000000000000 
K           0.233868000000000    0.233868000000000    0.236495000000000 
K           0.233868000000000    0.233868000000000    0.763505000000000 
K           0.233868000000000    0.766132000000000    0.236495000000000 
K           0.233868000000000    0.766132000000000    0.763505000000000 
K           0.500000000000000    0.500000000000000    0.000000000000000 
K           0.500000000000000    0.500000000000000    0.500000000000000 
K           0.766132000000000    0.233868000000000    0.236495000000000 
K           0.766132000000000    0.233868000000000    0.763505000000000 
K           0.766132000000000    0.766132000000000    0.236495000000000 
K           0.766132000000000    0.766132000000000    0.763505000000000 
%ENDBLOCK POSITIONS_FRAC
