# Cell file generated by matador (Matthew Evans 2016)

%BLOCK LATTICE_CART
8.6034 0.0 0.0
-4.3017 7.45076 0.0
0.0 0.0 9.38894
%ENDBLOCK LATTICE_CART

%BLOCK POSITIONS_FRAC
P           0.333334000000000    0.666668000000000    0.033003000000000 
P           0.333334000000000    0.666668000000000    0.538468000000000 
P           0.666668000000000    0.333334000000000    0.038468000000000 
P           0.666668000000000    0.333334000000000    0.533003000000000 
K           0.125222000000000    0.250443000000000    0.494239000000000 
K           0.125222000000000    0.874780000000000    0.494239000000000 
K           0.203656000000000    0.407311000000000    0.820059000000000 
K           0.203656000000000    0.796346000000000    0.820059000000000 
K           0.250443000000000    0.125222000000000    0.994239000000000 
K           0.407311000000000    0.203656000000000    0.320059000000000 
K           0.592691000000000    0.796346000000000    0.820059000000000 
K           0.749559000000000    0.874780000000000    0.494239000000000 
K           0.796346000000000    0.203656000000000    0.320059000000000 
K           0.796346000000000    0.592691000000000    0.320059000000000 
K           0.874780000000000    0.125222000000000    0.994239000000000 
K           0.874780000000000    0.749559000000000    0.994239000000000 
%ENDBLOCK POSITIONS_FRAC
