# Cell file generated by matador (Matthew Evans 2016)

%BLOCK LATTICE_CART
6.57285 0.0 0.0
0.0 9.50594 0.0
6.00348 0.0 11.3612
%ENDBLOCK LATTICE_CART

%BLOCK POSITIONS_FRAC
P           0.000141000000000    0.326878000000000    0.590011000000000 
P           0.000141000000000    0.673122000000000    0.590011000000000 
P           0.159796000000000    0.155973000000000    0.136215000000000 
P           0.159796000000000    0.844027000000000    0.136215000000000 
K           0.017153000000000    0.500000000000000    0.969320000000000 
K           0.165560000000000   -0.000000000000000    0.551643000000000 
K           0.176272000000000    0.500000000000000    0.337432000000000 
K           0.223024000000000    0.500000000000000    0.669708000000000 
K           0.372284000000000    0.230853000000000    0.339950000000000 
K           0.372284000000000    0.769147000000000    0.339950000000000 
K           0.404286000000000   -0.000000000000000    0.956891000000000 
K           0.483092000000000   -0.000000000000000    0.198256000000000 
K           0.619672000000000    0.367224000000000    0.652188000000000 
K           0.619672000000000    0.632776000000000    0.652188000000000 
K           0.626750000000000    0.500000000000000    0.014523000000000 
K           0.642392000000000    0.284387000000000    0.363781000000000 
K           0.642392000000000    0.715613000000000    0.363781000000000 
K           0.750271000000000   -0.000000000000000    0.551635000000000 
K           0.811227000000000    0.500000000000000    0.336205000000000 
K           0.846376000000000    0.500000000000000    0.839092000000000 
%ENDBLOCK POSITIONS_FRAC
