# Cell file generated by matador (Matthew Evans 2016)

%BLOCK LATTICE_CART
6.46179 0.0 0.0
-3.2309 5.59608 0.0
0.0 0.0 4.88303
%ENDBLOCK LATTICE_CART

%BLOCK POSITIONS_FRAC
P           0.333333000000000    0.666667000000000    0.000000000000000 
P           0.666666000000000    0.333334000000000    0.000000000000000 
K          -0.000000000000000    0.561737000000000    0.500000000000000 
K           0.438263000000000    0.438263000000000    0.500000000000000 
K           0.561737000000000    0.000000000000000    0.500000000000000 
%ENDBLOCK POSITIONS_FRAC
