# Cell file generated by matador (Matthew Evans 2016)

%BLOCK LATTICE_CART
4.47969 0.0 0.0
-2.23984 3.87952 0.0
0.0 0.0 7.86895
%ENDBLOCK LATTICE_CART

%BLOCK POSITIONS_FRAC
P           0.000000000000000   -0.000000000000000    0.000000000000000 
P           0.000000000000000   -0.000000000000000    0.372918000000000 
P           0.000000000000000   -0.000000000000000    0.500000000000000 
P           0.000000000000000   -0.000000000000000    0.627082000000000 
P           0.333334000000000    0.666666000000000    0.000000000000000 
P           0.333334000000000    0.666666000000000    0.500000000000000 
K           0.666667000000000    0.333333000000000    0.500000000000000 
%ENDBLOCK POSITIONS_FRAC
