# Cell file generated by matador (Matthew Evans 2016)

%BLOCK LATTICE_CART
7.01655 -0.0 0.0
-3.50827 6.07651 0.0
0.0 0.0 9.35544
%ENDBLOCK LATTICE_CART

%BLOCK POSITIONS_FRAC
P           0.025128000000000    0.386942000000000    0.634868000000000 
P           0.333334000000000    0.666666000000000    0.622401000000000 
P           0.361815000000000    0.974872000000000    0.634868000000000 
P           0.613058000000000    0.638185000000000    0.634868000000000 
P           0.666667000000000    0.333333000000000    0.150699000000000 
K           0.000000000000000   -0.000000000000000    0.929173000000000 
K           0.333334000000000    0.666666000000000    0.104181000000000 
K           0.333334000000000    0.666666000000000    0.400459000000000 
K           0.373639000000000    0.297440000000000    0.592348000000000 
K           0.666667000000000    0.333333000000000    0.775814000000000 
K           0.702560000000000    0.076197000000000    0.592348000000000 
K           0.923803000000000    0.626361000000000    0.592348000000000 
%ENDBLOCK POSITIONS_FRAC
