# Cell file generated by matador (Matthew Evans 2016)

%BLOCK LATTICE_CART
5.53019 0.0 0.0
-2.7651 4.78929 0.0
0.0 0.0 12.9519
%ENDBLOCK LATTICE_CART

%BLOCK POSITIONS_FRAC
P           0.000000000000000    0.000000000000000   -0.000000000000000 
P           0.000000000000000    0.000000000000000    0.500000000000000 
P           0.333333000000000    0.666667000000000    0.166667000000000 
P           0.333333000000000    0.666667000000000    0.666667000000000 
P           0.666667000000000    0.333333000000000    0.333333000000000 
P           0.666667000000000    0.333333000000000    0.833333000000000 
K           0.000000000000000    0.000000000000000    0.212680000000000 
K           0.000000000000000    0.000000000000000    0.787320000000000 
K           0.333333000000000    0.666667000000000    0.453987000000000 
K           0.333333000000000    0.666667000000000    0.879347000000000 
K           0.666667000000000    0.333333000000000    0.120653000000000 
K           0.666667000000000    0.333333000000000    0.546013000000000 
%ENDBLOCK POSITIONS_FRAC
