# Cell file generated by matador (Matthew Evans 2016)

%BLOCK LATTICE_CART
6.74739 0.0 0.0
0.0 6.31086 0.0
0.0 0.0 10.063
%ENDBLOCK LATTICE_CART

%BLOCK POSITIONS_FRAC
P           0.000000000000000    0.500000000000000    0.000000000000000 
P           0.209075000000000    0.240574000000000    0.500000000000000 
P           0.290925000000000    0.740574000000000    0.500000000000000 
P           0.500000000000000    0.000000000000000    0.000000000000000 
P           0.709075000000000    0.259426000000000    0.500000000000000 
P           0.790925000000000    0.759426000000000    0.500000000000000 
K           0.000000000000000    0.000000000000000    0.000000000000000 
K           0.000000000000000    0.000000000000000    0.500000000000000 
K           0.000000000000000    0.500000000000000    0.500000000000000 
K           0.500000000000000    0.000000000000000    0.500000000000000 
K           0.500000000000000    0.500000000000000    0.000000000000000 
K           0.500000000000000    0.500000000000000    0.500000000000000 
%ENDBLOCK POSITIONS_FRAC
