# Cell file generated by matador (Matthew Evans 2016)

%BLOCK LATTICE_CART
7.71938 0.0 0.0
-3.85969 6.68518 0.0
0.0 0.0 10.2847
%ENDBLOCK LATTICE_CART

%BLOCK POSITIONS_FRAC
P           0.000000000000000    0.000000000000000    0.001292000000000 
P           0.087224000000000    0.204433000000000    0.256888000000000 
P           0.117209000000000    0.912776000000000    0.256888000000000 
P           0.333333000000000    0.666667000000000    0.227819000000000 
P           0.406884000000000    0.026051000000000    0.487718000000000 
P           0.619167000000000    0.593116000000000    0.487718000000000 
P           0.666667000000000    0.333333000000000    0.514466000000000 
P           0.666667000000000    0.333333000000000    0.836809000000000 
P           0.795567000000000    0.882791000000000    0.256888000000000 
P           0.973949000000000    0.380833000000000    0.487718000000000 
K           0.001807000000000    0.827872000000000    0.497813000000000 
K           0.172128000000000    0.173935000000000    0.497813000000000 
K           0.202726000000000    0.491344000000000    0.945241000000000 
K           0.288618000000000    0.797274000000000    0.945241000000000 
K           0.333333000000000    0.666667000000000    0.784365000000000 
K           0.508656000000000    0.711382000000000    0.945241000000000 
K           0.666667000000000    0.333333000000000    0.268618000000000 
K           0.826065000000000    0.998193000000000    0.497813000000000 
%ENDBLOCK POSITIONS_FRAC
