# Cell file generated by matador (Matthew Evans 2016)

%BLOCK LATTICE_CART
9.1994 0.0 0.0
-4.5997 7.96692 0.0
0.0 0.0 6.64481
%ENDBLOCK LATTICE_CART

%BLOCK POSITIONS_FRAC
P           0.000000000000000    0.000000000000000    0.351301000000000 
P           0.000000000000000    0.000000000000000    0.648699000000000 
P           0.010676000000000    0.303193000000000    0.500000000000000 
P           0.292516000000000    0.989324000000000    0.500000000000000 
P           0.333333000000000    0.666667000000000    0.000000000000000 
P           0.666667000000000    0.333333000000000    0.196446000000000 
P           0.666667000000000    0.333333000000000    0.803554000000000 
P           0.696807000000000    0.707484000000000    0.500000000000000 
K           0.058637000000000    0.820887000000000    0.000000000000000 
K           0.111615000000000    0.637250000000000    0.000000000000000 
K           0.179113000000000    0.237750000000000    0.000000000000000 
K           0.235366000000000    0.056017000000000    0.000000000000000 
K           0.362750000000000    0.474365000000000    0.000000000000000 
K           0.477965000000000    0.123094000000000    0.000000000000000 
K           0.525635000000000    0.888385000000000    0.000000000000000 
K           0.645129000000000    0.522035000000000    0.000000000000000 
K           0.762250000000000    0.941363000000000    0.000000000000000 
K           0.820652000000000    0.764634000000000    0.000000000000000 
K           0.876906000000000    0.354871000000000    0.000000000000000 
K           0.943983000000000    0.179348000000000    0.000000000000000 
%ENDBLOCK POSITIONS_FRAC
