# Cell file generated by matador (Matthew Evans 2016)

%BLOCK LATTICE_CART
8.2302 -0.0 0.0
-4.1151 7.12756 0.0
0.0 0.0 9.48769
%ENDBLOCK LATTICE_CART

%BLOCK POSITIONS_FRAC
P           0.000001000000000    0.500001000000000    0.000000000000000 
P           0.000001000000000    0.500001000000000    0.500000000000000 
P           0.333334000000000    0.666668000000000    0.658627000000000 
P           0.333334000000000    0.666668000000000    0.841373000000000 
P           0.500001000000000    0.000001000000000    0.000000000000000 
P           0.500001000000000    0.000001000000000    0.500000000000000 
P           0.500001000000000    0.500001000000000    0.000000000000000 
P           0.500001000000000    0.500001000000000    0.500000000000000 
P           0.666668000000000    0.333334000000000    0.158627000000000 
P           0.666668000000000    0.333334000000000    0.341373000000000 
K           0.009908000000000    0.689180000000000    0.750000000000000 
K           0.310822000000000    0.320730000000000    0.750000000000000 
K           0.320730000000000    0.009908000000000    0.250000000000000 
K           0.679272000000000    0.990094000000000    0.750000000000000 
K           0.689180000000000    0.679272000000000    0.250000000000000 
K           0.990094000000000    0.310822000000000    0.250000000000000 
%ENDBLOCK POSITIONS_FRAC
