# Cell file generated by matador (Matthew Evans 2016)

%BLOCK LATTICE_CART
7.91693 0.0 0.0
0.0 7.16886 0.0
0.0 0.0 10.698
%ENDBLOCK LATTICE_CART

%BLOCK POSITIONS_FRAC
P           0.000000000000000    0.298510000000000    0.615774000000000 
P           0.000000000000000    0.701490000000000    0.115774000000000 
P           0.500000000000000    0.201490000000000    0.115774000000000 
P           0.500000000000000    0.798510000000000    0.615774000000000 
K           0.000000000000000    0.174173000000000    0.124147000000000 
K           0.000000000000000    0.220427000000000    0.434289000000000 
K           0.000000000000000    0.361903000000000    0.800428000000000 
K           0.000000000000000    0.638097000000000    0.300428000000000 
K           0.000000000000000    0.779573000000000    0.934289000000000 
K           0.000000000000000    0.825827000000000    0.624147000000000 
K           0.500000000000000    0.138097000000000    0.300428000000000 
K           0.500000000000000    0.279573000000000    0.934289000000000 
K           0.500000000000000    0.325827000000000    0.624147000000000 
K           0.500000000000000    0.674173000000000    0.124147000000000 
K           0.500000000000000    0.720427000000000    0.434289000000000 
K           0.500000000000000    0.861903000000000    0.800428000000000 
%ENDBLOCK POSITIONS_FRAC
