# Cell file generated by matador (Matthew Evans 2016)

%BLOCK LATTICE_CART
8.93866 0.0 0.0
0.0 8.93866 0.0
0.0 0.0 5.67182
%ENDBLOCK LATTICE_CART

%BLOCK POSITIONS_FRAC
P           0.000000000000000    0.000000000000000    0.000000000000000 
P           0.000000000000000    0.000000000000000    0.500000000000000 
P           0.400182000000000    0.400182000000000    0.250000000000000 
P           0.400182000000000    0.400182000000000    0.750000000000000 
P           0.400182000000000    0.599818000000000    0.250000000000000 
P           0.400182000000000    0.599818000000000    0.750000000000000 
P           0.500000000000000    0.500000000000000    0.000000000000000 
P           0.500000000000000    0.500000000000000    0.250000000000000 
P           0.500000000000000    0.500000000000000    0.500000000000000 
P           0.500000000000000    0.500000000000000    0.750000000000000 
P           0.599818000000000    0.400182000000000    0.250000000000000 
P           0.599818000000000    0.400182000000000    0.750000000000000 
P           0.599818000000000    0.599818000000000    0.250000000000000 
P           0.599818000000000    0.599818000000000    0.750000000000000 
K           0.000000000000000    0.500000000000000    0.000000000000000 
K           0.000000000000000    0.500000000000000    0.500000000000000 
K           0.500000000000000    0.000000000000000    0.000000000000000 
K           0.500000000000000    0.000000000000000    0.500000000000000 
%ENDBLOCK POSITIONS_FRAC
