# Cell file generated by matador (Matthew Evans 2016)

%BLOCK LATTICE_CART
6.31512 -0.0 0.0
-3.15756 5.46905 0.0
0.0 0.0 10.473
%ENDBLOCK LATTICE_CART

%BLOCK POSITIONS_FRAC
P           0.000000000000000    0.000000000000000    0.000000000000000 
P           0.024493000000000    0.358864000000000    0.500000000000000 
P           0.306870000000000    0.300851000000000    0.500000000000000 
P           0.334371000000000    0.975507000000000    0.500000000000000 
P           0.641136000000000    0.665629000000000    0.500000000000000 
P           0.699149000000000    0.006019000000000    0.500000000000000 
P           0.993981000000000    0.693130000000000    0.500000000000000 
K           0.000000000000000    0.000000000000000    0.500000000000000 
K           0.333333000000000    0.666667000000000    0.000000000000000 
K           0.333333000000000    0.666667000000000    0.500000000000000 
K           0.666667000000000    0.333333000000000    0.000000000000000 
K           0.666667000000000    0.333333000000000    0.500000000000000 
%ENDBLOCK POSITIONS_FRAC
