# Cell file generated by matador (Matthew Evans 2016)

%BLOCK LATTICE_CART
7.2335 0.0 0.0
0.0356661 5.75745 0.0
1.86197 1.32894 4.92145
%ENDBLOCK LATTICE_CART

%BLOCK POSITIONS_FRAC
P           0.000000000000000    0.000000000000000    0.500000000000000 
K           0.000000000000000    0.000000000000000    0.000000000000000 
K           0.360193000000000    0.171956000000000    0.101176000000000 
K           0.500000000000000    0.500000000000000    0.000000000000000 
K           0.500000000000000    0.500000000000000    0.500000000000000 
K           0.639807000000000    0.828044000000000    0.898824000000000 
%ENDBLOCK POSITIONS_FRAC
