# Cell file generated by matador (Matthew Evans 2016)

%BLOCK LATTICE_CART
8.77309 0.0 0.0
-4.38655 7.59772 0.0
0.0 0.0 5.71339
%ENDBLOCK LATTICE_CART

%BLOCK POSITIONS_FRAC
P           0.000000000000000    0.000000000000000    0.000000000000000 
P           0.163346000000000    0.326693000000000    0.000000000000000 
P           0.163346000000000    0.836654000000000    0.000000000000000 
P           0.401806000000000    0.200903000000000    0.500000000000000 
P           0.673307000000000    0.836654000000000    0.000000000000000 
P           0.799097000000000    0.200903000000000    0.500000000000000 
P           0.799097000000000    0.598194000000000    0.500000000000000 
K           0.000000000000000    0.000000000000000    0.500000000000000 
K           0.333333000000000    0.666667000000000    0.000000000000000 
K           0.333333000000000    0.666667000000000    0.500000000000000 
K           0.666667000000000    0.333333000000000    0.000000000000000 
K           0.666667000000000    0.333333000000000    0.500000000000000 
%ENDBLOCK POSITIONS_FRAC
