# Cell file generated by matador (Matthew Evans 2016)

%BLOCK LATTICE_CART
6.73024 0.0 0.0
-3.36512 5.82856 0.0
0.0 0.0 7.79428
%ENDBLOCK LATTICE_CART

%BLOCK POSITIONS_FRAC
P           0.333334000000000    0.666668000000000    0.441445000000000 
P           0.333334000000000    0.666668000000000    0.648958000000000 
P           0.333334000000000    0.666668000000000    0.930963000000000 
P           0.666668000000000    0.333334000000000    0.148958000000000 
P           0.666668000000000    0.333334000000000    0.430963000000000 
P           0.666668000000000    0.333334000000000    0.941445000000000 
K           0.161280000000000    0.322559000000000    0.548164000000000 
K           0.161280000000000    0.838722000000000    0.548164000000000 
K           0.322559000000000    0.161280000000000    0.048164000000000 
K           0.677443000000000    0.838722000000000    0.548164000000000 
K           0.838722000000000    0.161280000000000    0.048164000000000 
K           0.838722000000000    0.677443000000000    0.048164000000000 
%ENDBLOCK POSITIONS_FRAC
