# Cell file generated by matador (Matthew Evans 2016)

%BLOCK LATTICE_CART
9.09507 0.0 0.0
0.0 6.36798 0.0
-3.13833 0.0 6.40791
%ENDBLOCK LATTICE_CART

%BLOCK POSITIONS_FRAC
P           0.406884000000000    0.092073000000000    0.317810000000000 
P           0.406884000000000    0.907927000000000    0.317810000000000 
P           0.809685000000000    0.141116000000000    0.261286000000000 
P           0.809685000000000    0.858884000000000    0.261286000000000 
K           0.026606000000000    0.500000000000000    0.350445000000000 
K           0.046338000000000    0.000000000000000    0.212489000000000 
K           0.105177000000000    0.500000000000000    0.721218000000000 
K           0.156117000000000    0.000000000000000    0.939441000000000 
K           0.334607000000000    0.315856000000000    0.941692000000000 
K           0.334607000000000    0.684144000000000    0.941692000000000 
K           0.560750000000000    0.500000000000000    0.801277000000000 
K           0.640344000000000    0.000000000000000    0.818621000000000 
K           0.729629000000000    0.000000000000000    0.552110000000000 
K           0.770989000000000    0.500000000000000    0.353344000000000 
%ENDBLOCK POSITIONS_FRAC
