# Cell file generated by matador (Matthew Evans 2016)

%BLOCK LATTICE_CART
5.76772 0.0 0.0
0.0 6.90924 0.0
0.621519 0.0 3.60517
%ENDBLOCK LATTICE_CART

%BLOCK POSITIONS_FRAC
P           0.159428000000000    0.249701000000000    0.562090000000000 
P           0.159428000000000    0.750299000000000    0.562090000000000 
P           0.993246000000000    0.261230000000000    0.003273000000000 
P           0.993246000000000    0.738770000000000    0.003273000000000 
K           0.037570000000000    0.500000000000000    0.352349000000000 
K           0.664479000000000    0.500000000000000    0.133513000000000 
%ENDBLOCK POSITIONS_FRAC
