# Cell file generated by matador (Matthew Evans 2016)

%BLOCK LATTICE_CART
11.4575 0.0 0.0
0.0 11.4575 0.0
0.0 0.0 2.90627
%ENDBLOCK LATTICE_CART

%BLOCK POSITIONS_FRAC
P           0.000000000000000    0.500000000000000    0.000000000000000 
P           0.161967000000000    0.338033000000000    0.510502000000000 
P           0.161967000000000    0.661967000000000    0.489498000000000 
P           0.338033000000000    0.161967000000000    0.489498000000000 
P           0.338033000000000    0.838033000000000    0.510502000000000 
P           0.500000000000000    0.000000000000000    0.000000000000000 
P           0.661967000000000    0.161967000000000    0.510502000000000 
P           0.661967000000000    0.838033000000000    0.489498000000000 
P           0.838033000000000    0.338033000000000    0.489498000000000 
P           0.838033000000000    0.661967000000000    0.510502000000000 
K           0.250000000000000    0.250000000000000    0.000000000000000 
K           0.250000000000000    0.750000000000000    0.000000000000000 
K           0.750000000000000    0.250000000000000    0.000000000000000 
K           0.750000000000000    0.750000000000000    0.000000000000000 
%ENDBLOCK POSITIONS_FRAC
