# Cell file generated by matador (Matthew Evans 2016)

%BLOCK LATTICE_CART
10.143 0.0 0.0
-5.07149 8.78407 0.0
0.0 0.0 7.31478
%ENDBLOCK LATTICE_CART

%BLOCK POSITIONS_FRAC
P           0.000000000000000    0.000000000000000    0.500000000000000 
P           0.000000000000000    0.500000000000000    0.500000000000000 
P           0.500000000000000    0.000000000000000    0.500000000000000 
P           0.500000000000000    0.500000000000000    0.500000000000000 
K           0.000000000000000    0.000000000000000    0.000000000000000 
K           0.000000000000000    0.280820000000000    0.715373000000000 
K           0.000000000000000    0.500000000000000    0.000000000000000 
K           0.000000000000000    0.719180000000000    0.284627000000000 
K           0.280820000000000    0.000000000000000    0.715373000000000 
K           0.280820000000000    0.280820000000000    0.284627000000000 
K           0.333333000000000    0.666667000000000    0.500000000000000 
K           0.500000000000000    0.000000000000000    0.000000000000000 
K           0.500000000000000    0.500000000000000    0.000000000000000 
K           0.666667000000000    0.333333000000000    0.500000000000000 
K           0.719180000000000    0.000000000000000    0.284627000000000 
K           0.719180000000000    0.719180000000000    0.715373000000000 
%ENDBLOCK POSITIONS_FRAC
