# Cell file generated by matador (Matthew Evans 2016)

%BLOCK LATTICE_CART
8.64572 0.0 0.0
0.0 8.64572 0.0
0.0 0.0 8.64572
%ENDBLOCK LATTICE_CART

%BLOCK POSITIONS_FRAC
P           0.000000000000000    0.000000000000000    0.000000000000000 
P           0.231329000000000    0.500000000000000    0.500000000000000 
P           0.500000000000000    0.231329000000000    0.500000000000000 
P           0.500000000000000    0.500000000000000    0.231329000000000 
P           0.500000000000000    0.500000000000000    0.500000000000000 
P           0.500000000000000    0.500000000000000    0.768671000000000 
P           0.500000000000000    0.768671000000000    0.500000000000000 
P           0.768671000000000    0.500000000000000    0.500000000000000 
K           0.000000000000000    0.000000000000000    0.500000000000000 
K           0.000000000000000    0.500000000000000    0.000000000000000 
K           0.000000000000000    0.500000000000000    0.500000000000000 
K           0.343081000000000    0.343081000000000    0.343081000000000 
K           0.343081000000000    0.656919000000000    0.656919000000000 
K           0.500000000000000    0.000000000000000    0.000000000000000 
K           0.500000000000000    0.000000000000000    0.500000000000000 
K           0.500000000000000    0.500000000000000    0.000000000000000 
K           0.656919000000000    0.343081000000000    0.656919000000000 
K           0.656919000000000    0.656919000000000    0.343081000000000 
%ENDBLOCK POSITIONS_FRAC
