# Cell file generated by matador (Matthew Evans 2016)

%BLOCK LATTICE_CART
8.42638 0.0 0.0
0.0 6.03415 0.0
0.0 0.0 8.61395
%ENDBLOCK LATTICE_CART

%BLOCK POSITIONS_FRAC
P           0.000000000000000    0.500000000000000    0.000000000000000 
P           0.000000000000000    0.500000000000000    0.500000000000000 
P           0.500000000000000    0.500000000000000    0.000000000000000 
P           0.500000000000000    0.500000000000000    0.500000000000000 
K           0.000000000000000   -0.000000000000000    0.000000000000000 
K           0.000000000000000    0.212670000000000    0.214731000000000 
K           0.000000000000000    0.787330000000000    0.785269000000000 
K           0.250000000000000    0.411435000000000    0.750000000000000 
K           0.250000000000000    0.588565000000000    0.250000000000000 
K           0.500000000000000   -0.000000000000000    0.500000000000000 
K           0.500000000000000    0.212670000000000    0.285269000000000 
K           0.500000000000000    0.787330000000000    0.714731000000000 
K           0.750000000000000    0.411435000000000    0.750000000000000 
K           0.750000000000000    0.588565000000000    0.250000000000000 
%ENDBLOCK POSITIONS_FRAC
