# Cell file generated by matador (Matthew Evans 2016)

%BLOCK LATTICE_CART
7.79669 0.0 0.0
-3.89834 6.75213 0.0
0.0 0.0 9.7899
%ENDBLOCK LATTICE_CART

%BLOCK POSITIONS_FRAC
P           0.069255000000000    0.589787000000000    0.500000000000000 
P           0.086517000000000    0.830692000000000    0.500000000000000 
P           0.169308000000000    0.255825000000000    0.500000000000000 
P           0.410213000000000    0.479468000000000    0.500000000000000 
P           0.520532000000000    0.930745000000000    0.500000000000000 
P           0.744175000000000    0.913483000000000    0.500000000000000 
K           0.484664000000000    0.149321000000000    0.387364000000000 
K           0.484664000000000    0.149321000000000    0.612636000000000 
K           0.664657000000000    0.515336000000000    0.387364000000000 
K           0.664657000000000    0.515336000000000    0.612636000000000 
K           0.666667000000000    0.333333000000000    0.000000000000000 
K           0.850679000000000    0.335343000000000    0.387364000000000 
K           0.850679000000000    0.335343000000000    0.612636000000000 
%ENDBLOCK POSITIONS_FRAC
