# Cell file generated by matador (Matthew Evans 2016)

%BLOCK LATTICE_CART
9.26133 0.0 0.0
-2.95448 8.95719 0.0
2.96641 4.6214 7.84071
%ENDBLOCK LATTICE_CART

%BLOCK POSITIONS_FRAC
P           0.000000000000000    0.500000000000000    0.000000000000000 
P           0.000000000000000    0.500000000000000    0.500000000000000 
P           0.090751000000000    0.774623000000000    0.390421000000000 
P           0.500000000000000    0.000000000000000    0.500000000000000 
P           0.500000000000000    0.500000000000000    0.500000000000000 
P           0.909249000000000    0.225377000000000    0.609579000000000 
K           0.000000000000000    0.000000000000000    0.000000000000000 
K           0.000000000000000    0.000000000000000    0.500000000000000 
K           0.023032000000000    0.934820000000000    0.714305000000000 
K           0.037327000000000    0.743950000000000    0.974998000000000 
K           0.417818000000000    0.293641000000000    0.332436000000000 
K           0.453427000000000    0.882702000000000    0.255260000000000 
K           0.500000000000000    0.000000000000000    0.000000000000000 
K           0.500000000000000    0.500000000000000    0.000000000000000 
K           0.546573000000000    0.117298000000000    0.744740000000000 
K           0.582182000000000    0.706359000000000    0.667564000000000 
K           0.962673000000000    0.256050000000000    0.025002000000000 
K           0.976968000000000    0.065180000000000    0.285695000000000 
%ENDBLOCK POSITIONS_FRAC
