# Cell file generated by matador (Matthew Evans 2016)

%BLOCK LATTICE_CART
9.33526 0.0 0.0
-4.66763 8.08457 0.0
0.0 0.0 9.89315
%ENDBLOCK LATTICE_CART

%BLOCK POSITIONS_FRAC
P          -0.000000000000000   -0.000000000000000    0.090889000000000 
P          -0.000000000000000   -0.000000000000000    0.909111000000000 
P          -0.000000000000000    0.261759000000000    0.429614000000000 
P          -0.000000000000000    0.738241000000000    0.570386000000000 
P           0.247384000000000    0.623692000000000    0.000000000000000 
P           0.261759000000000   -0.000000000000000    0.429614000000000 
P           0.261759000000000    0.261759000000000    0.570386000000000 
P           0.376308000000000    0.623692000000000    0.000000000000000 
P           0.376308000000000    0.752616000000000    0.000000000000000 
P           0.623692000000000    0.247384000000000    0.000000000000000 
P           0.623692000000000    0.376308000000000    0.000000000000000 
P           0.738241000000000   -0.000000000000000    0.570386000000000 
P           0.738241000000000    0.738241000000000    0.429614000000000 
P           0.752616000000000    0.376308000000000    0.000000000000000 
K          -0.000000000000000    0.500000000000000    0.000000000000000 
K          -0.000000000000000    0.500000000000000    0.500000000000000 
K           0.500000000000000   -0.000000000000000    0.000000000000000 
K           0.500000000000000   -0.000000000000000    0.500000000000000 
K           0.500000000000000    0.500000000000000    0.000000000000000 
K           0.500000000000000    0.500000000000000    0.500000000000000 
%ENDBLOCK POSITIONS_FRAC
