# Cell file generated by matador (Matthew Evans 2016)

%BLOCK LATTICE_CART
7.55662 0.0 0.0
-3.77831 6.54423 0.0
0.0 0.0 12.7375
%ENDBLOCK LATTICE_CART

%BLOCK POSITIONS_FRAC
P           0.333334000000000    0.666668000000000    0.054044000000000 
P           0.333334000000000    0.666668000000000    0.554045000000000 
P           0.666668000000000    0.333334000000000    0.054044000000000 
P           0.666668000000000    0.333334000000000    0.554045000000000 
K           0.000001000000000    0.455812000000000    0.885363000000000 
K           0.000001000000000    0.482129000000000    0.135634000000000 
K           0.000001000000000    0.517873000000000    0.635634000000000 
K           0.000001000000000    0.544190000000000    0.385363000000000 
K           0.455812000000000    0.000001000000000    0.885363000000000 
K           0.455812000000000    0.455812000000000    0.385363000000000 
K           0.482129000000000    0.000001000000000    0.135634000000000 
K           0.482129000000000    0.482129000000000    0.635634000000000 
K           0.517873000000000    0.000001000000000    0.635634000000000 
K           0.517873000000000    0.517873000000000    0.135634000000000 
K           0.544190000000000    0.000001000000000    0.385363000000000 
K           0.544190000000000    0.544190000000000    0.885363000000000 
%ENDBLOCK POSITIONS_FRAC
