# Cell file generated by matador (Matthew Evans 2016)

%BLOCK LATTICE_CART
5.50546 0.0 0.0
-2.75273 4.76786 0.0
0.0 0.0 7.40213
%ENDBLOCK LATTICE_CART

%BLOCK POSITIONS_FRAC
P           0.333333000000000    0.666667000000000    0.380877000000000 
P           0.333333000000000    0.666667000000000    0.737560000000000 
P           0.333333000000000    0.666667000000000    0.913799000000000 
P           0.666667000000000    0.333333000000000    0.387780000000000 
P           0.666667000000000    0.333333000000000    0.836303000000000 
K           0.021745000000000    0.238656000000000    0.991126000000000 
K           0.216911000000000    0.978255000000000    0.991126000000000 
K           0.761344000000000    0.783089000000000    0.991126000000000 
%ENDBLOCK POSITIONS_FRAC
