# Cell file generated by matador (Matthew Evans 2016)

%BLOCK LATTICE_CART
6.21946 0.0 0.0
0.0 9.85023 0.0
0.0 0.0 9.20966
%ENDBLOCK LATTICE_CART

%BLOCK POSITIONS_FRAC
P           0.121764000000000    0.022944000000000    0.083672000000000 
P           0.250000000000000    0.308718000000000    0.986947000000000 
P           0.378236000000000    0.022944000000000    0.083672000000000 
P           0.621764000000000    0.977056000000000    0.083672000000000 
P           0.750000000000000    0.691282000000000    0.986947000000000 
P           0.878236000000000    0.977056000000000    0.083672000000000 
K           0.000000000000000    0.000000000000000    0.488646000000000 
K           0.000000000000000    0.500000000000000    0.783361000000000 
K           0.039841000000000    0.148967000000000    0.254001000000000 
K           0.076115000000000    0.324692000000000    0.671407000000000 
K           0.423885000000000    0.324692000000000    0.671407000000000 
K           0.460159000000000    0.148967000000000    0.254001000000000 
K           0.500000000000000    0.000000000000000    0.488646000000000 
K           0.500000000000000    0.500000000000000    0.783361000000000 
K           0.539841000000000    0.851033000000000    0.254001000000000 
K           0.576115000000000    0.675308000000000    0.671407000000000 
K           0.923885000000000    0.675308000000000    0.671407000000000 
K           0.960159000000000    0.851033000000000    0.254001000000000 
%ENDBLOCK POSITIONS_FRAC
