# Cell file generated by matador (Matthew Evans 2016)

%BLOCK LATTICE_CART
4.93248 0.0 0.0
0.0 8.78685 0.0
-2.04854 0.0 5.28389
%ENDBLOCK LATTICE_CART

%BLOCK POSITIONS_FRAC
P          -0.000000000000000    0.295538000000000    0.500000000000000 
P           0.231182000000000    0.089120000000000    0.207426000000000 
P           0.500000000000000    0.259289000000000    0.000000000000000 
P           0.500000000000000    0.976585000000000    0.000000000000000 
P           0.768818000000000    0.089120000000000    0.792574000000000 
K          -0.000000000000000    0.701810000000000    0.500000000000000 
K           0.290123000000000    0.626333000000000    0.183483000000000 
K           0.500000000000000    0.307532000000000    0.500000000000000 
K           0.709877000000000    0.626333000000000    0.816517000000000 
%ENDBLOCK POSITIONS_FRAC
