# Cell file generated by matador (Matthew Evans 2016)

%BLOCK LATTICE_CART
6.64406 0.0 0.0
0.0 6.64406 0.0
0.0 0.0 7.5975
%ENDBLOCK LATTICE_CART

%BLOCK POSITIONS_FRAC
P           0.000000000000000    0.000000000000000    0.000000000000000 
P           0.000000000000000    0.500000000000000    0.000000000000000 
P           0.000000000000000    0.500000000000000    0.172435000000000 
P           0.000000000000000    0.500000000000000    0.827565000000000 
P           0.445041000000000    0.445041000000000    0.683101000000000 
P           0.445041000000000    0.554959000000000    0.316899000000000 
P           0.500000000000000    0.000000000000000    0.000000000000000 
P           0.500000000000000    0.000000000000000    0.172435000000000 
P           0.500000000000000    0.000000000000000    0.827565000000000 
P           0.500000000000000    0.500000000000000    0.500000000000000 
P           0.554959000000000    0.445041000000000    0.316899000000000 
P           0.554959000000000    0.554959000000000    0.683101000000000 
K           0.000000000000000    0.000000000000000    0.500000000000000 
K           0.500000000000000    0.500000000000000    0.000000000000000 
%ENDBLOCK POSITIONS_FRAC
