# Cell file generated by matador (Matthew Evans 2016)

%BLOCK LATTICE_CART
10.5792 0.0 0.0
-5.28959 9.16184 0.0
0.0 0.0 8.87723
%ENDBLOCK LATTICE_CART

%BLOCK POSITIONS_FRAC
P           0.000000000000000    0.113633000000000    0.828927000000000 
P           0.000000000000000    0.886367000000000    0.328927000000000 
P           0.113633000000000    0.000000000000000    0.828927000000000 
P           0.113633000000000    0.113633000000000    0.328927000000000 
P           0.886367000000000    0.000000000000000    0.328927000000000 
P           0.886367000000000    0.886367000000000    0.828927000000000 
K           0.000000000000000    0.212272000000000    0.041100000000000 
K           0.000000000000000    0.263470000000000    0.368806000000000 
K           0.000000000000000    0.463262000000000    0.700078000000000 
K           0.000000000000000    0.536738000000000    0.200078000000000 
K           0.000000000000000    0.736530000000000    0.868806000000000 
K           0.000000000000000    0.787728000000000    0.541100000000000 
K           0.212272000000000    0.000000000000000    0.041100000000000 
K           0.212272000000000    0.212272000000000    0.541100000000000 
K           0.263470000000000    0.000000000000000    0.368806000000000 
K           0.263470000000000    0.263470000000000    0.868806000000000 
K           0.463262000000000    0.000000000000000    0.700078000000000 
K           0.463262000000000    0.463262000000000    0.200078000000000 
K           0.536738000000000    0.000000000000000    0.200078000000000 
K           0.536738000000000    0.536738000000000    0.700078000000000 
K           0.736530000000000    0.000000000000000    0.868806000000000 
K           0.736530000000000    0.736530000000000    0.368806000000000 
K           0.787728000000000    0.000000000000000    0.541100000000000 
K           0.787728000000000    0.787728000000000    0.041100000000000 
%ENDBLOCK POSITIONS_FRAC
