# Cell file generated by matador (Matthew Evans 2016)

%BLOCK LATTICE_CART
7.06085 0.0 0.0
-3.53042 6.11487 0.0
0.0 0.0 9.87518
%ENDBLOCK LATTICE_CART

%BLOCK POSITIONS_FRAC
P           0.000000000000000    0.000000000000000    0.721370000000000 
P           0.122768000000000    0.759254000000000    0.784624000000000 
P           0.240746000000000    0.363514000000000    0.784624000000000 
P           0.303153000000000    0.210566000000000    0.117958000000000 
P           0.333333000000000    0.666667000000000    0.388036000000000 
P           0.456101000000000    0.425921000000000    0.451291000000000 
P           0.574079000000000    0.030180000000000    0.451291000000000 
P           0.636486000000000    0.877232000000000    0.784624000000000 
P           0.666667000000000    0.333333000000000    0.054703000000000 
P           0.789434000000000    0.092588000000000    0.117958000000000 
P           0.907412000000000    0.696847000000000    0.117958000000000 
P           0.969820000000000    0.543899000000000    0.451291000000000 
K           0.000000000000000    0.000000000000000    0.490238000000000 
K           0.333333000000000    0.666667000000000    0.156905000000000 
K           0.666667000000000    0.333333000000000    0.823572000000000 
%ENDBLOCK POSITIONS_FRAC
