# Cell file generated by matador (Matthew Evans 2016)

%BLOCK LATTICE_CART
8.94192 0.0 0.0
0.0 5.50879 0.0
1.75058 0.0 7.48702
%ENDBLOCK LATTICE_CART

%BLOCK POSITIONS_FRAC
P           0.345422000000000    0.481568000000000    0.055834000000000 
P           0.345422000000000    0.518432000000000    0.555834000000000 
P           0.500000000000000    0.500000000000000    0.000000000000000 
P           0.500000000000000    0.500000000000000    0.500000000000000 
P           0.654578000000000    0.481568000000000    0.444167000000000 
P           0.654578000000000    0.518432000000000    0.944167000000000 
K           0.000000000000000    0.000000000000000    0.000000000000000 
K           0.000000000000000    0.000000000000000    0.500000000000000 
K           0.500000000000000    0.000000000000000    0.000000000000000 
K           0.500000000000000    0.000000000000000    0.500000000000000 
K           0.500000000000000    0.266994000000000    0.750000000000000 
K           0.500000000000000    0.733006000000000    0.250000000000000 
%ENDBLOCK POSITIONS_FRAC
