# Cell file generated by matador (Matthew Evans 2016)

%BLOCK LATTICE_CART
7.04593 0.0 0.0
-3.52297 6.10195 0.0
0.0 0.0 8.22824
%ENDBLOCK LATTICE_CART

%BLOCK POSITIONS_FRAC
P           0.000000000000000    0.000000000000000    0.000000000000000 
P           0.000000000000000    0.500000000000000    0.500000000000000 
P           0.500000000000000    0.000000000000000    0.500000000000000 
P           0.500000000000000    0.500000000000000    0.500000000000000 
K           0.000000000000000    0.500000000000000    0.000000000000000 
K           0.333333000000000    0.666667000000000    0.196233000000000 
K           0.333333000000000    0.666667000000000    0.689158000000000 
K           0.500000000000000    0.000000000000000    0.000000000000000 
K           0.500000000000000    0.500000000000000    0.000000000000000 
K           0.666667000000000    0.333333000000000    0.310842000000000 
K           0.666667000000000    0.333333000000000    0.803767000000000 
%ENDBLOCK POSITIONS_FRAC
