# Cell file generated by matador (Matthew Evans 2016)

%BLOCK LATTICE_CART
7.10577 0.0 0.0
-3.55288 6.15377 0.0
0.0 0.0 9.22331
%ENDBLOCK LATTICE_CART

%BLOCK POSITIONS_FRAC
P          -0.000000000000000    0.000000000000000    0.429882000000000 
P          -0.000000000000000    0.000000000000000    0.570118000000000 
P           0.069638000000000    0.360644000000000    0.325873000000000 
P           0.069638000000000    0.708994000000000    0.674127000000000 
P           0.291006000000000    0.360644000000000    0.674127000000000 
P           0.291006000000000    0.930362000000000    0.325873000000000 
P           0.333333000000000    0.666667000000000    0.000000000000000 
P           0.341664000000000    0.170832000000000    0.000000000000000 
P           0.639356000000000    0.708994000000000    0.325873000000000 
P           0.639356000000000    0.930362000000000    0.674127000000000 
P           0.829168000000000    0.170832000000000    0.000000000000000 
P           0.829168000000000    0.658336000000000    0.000000000000000 
K           0.333333000000000    0.666667000000000    0.500000000000000 
K           0.666666000000000    0.333334000000000    0.000000000000000 
K           0.666666000000000    0.333334000000000    0.500000000000000 
%ENDBLOCK POSITIONS_FRAC
