# Cell file generated by matador (Matthew Evans 2016)

%BLOCK LATTICE_CART
5.96897 0.0 0.0
-2.98449 5.16928 0.0
0.0 0.0 8.96863
%ENDBLOCK LATTICE_CART

%BLOCK POSITIONS_FRAC
P           0.000000000000000    0.000000000000000    0.720770000000000 
P           0.205868000000000    0.005703000000000    0.333862000000000 
P           0.666667000000000    0.333333000000000    0.014699000000000 
P           0.799834000000000    0.794132000000000    0.333862000000000 
P           0.994297000000000    0.200166000000000    0.333862000000000 
K           0.000000000000000    0.000000000000000    0.140523000000000 
K           0.082755000000000    0.475820000000000    0.847347000000000 
K           0.333333000000000    0.666667000000000    0.043402000000000 
K           0.393065000000000    0.917245000000000    0.847347000000000 
K           0.524180000000000    0.606935000000000    0.847347000000000 
K           0.666667000000000    0.333333000000000    0.342755000000000 
%ENDBLOCK POSITIONS_FRAC
