# Cell file generated by matador (Matthew Evans 2016)

%BLOCK LATTICE_CART
7.61649 0.0 0.0
0.0 7.61649 0.0
0.0 0.0 7.61649
%ENDBLOCK LATTICE_CART

%BLOCK POSITIONS_FRAC
P           0.000000000000000    0.000000000000000    0.237412000000000 
P           0.000000000000000    0.000000000000000    0.762588000000000 
P           0.000000000000000    0.237412000000000    0.000000000000000 
P           0.000000000000000    0.762588000000000    0.000000000000000 
P           0.237412000000000    0.000000000000000    0.000000000000000 
P           0.762588000000000    0.000000000000000    0.000000000000000 
K           0.000000000000000    0.000000000000000    0.500000000000000 
K           0.000000000000000    0.500000000000000    0.000000000000000 
K           0.000000000000000    0.500000000000000    0.500000000000000 
K           0.500000000000000    0.000000000000000    0.000000000000000 
K           0.500000000000000    0.000000000000000    0.500000000000000 
K           0.500000000000000    0.500000000000000    0.000000000000000 
K           0.500000000000000    0.500000000000000    0.500000000000000 
%ENDBLOCK POSITIONS_FRAC
