# Cell file generated by matador (Matthew Evans 2016)

%BLOCK LATTICE_CART
7.72327 0.0 0.0
0.0 4.79508 0.0
0.0 0.0 8.20799
%ENDBLOCK LATTICE_CART

%BLOCK POSITIONS_FRAC
P           0.103910000000000   -0.000000000000000    0.345927000000000 
P           0.103910000000000    0.500000000000000    0.845927000000000 
P           0.396090000000000   -0.000000000000000    0.845927000000000 
P           0.396090000000000    0.500000000000000    0.345927000000000 
P           0.603910000000000   -0.000000000000000    0.845927000000000 
P           0.603910000000000    0.500000000000000    0.345927000000000 
P           0.896090000000000   -0.000000000000000    0.345927000000000 
P           0.896090000000000    0.500000000000000    0.845927000000000 
K           0.000000000000000   -0.000000000000000    0.868076000000000 
K           0.000000000000000    0.500000000000000    0.368076000000000 
K           0.500000000000000   -0.000000000000000    0.368076000000000 
K           0.500000000000000    0.500000000000000    0.868076000000000 
%ENDBLOCK POSITIONS_FRAC
