# Cell file generated by matador (Matthew Evans 2016)

%BLOCK LATTICE_CART
4.91497 0.0 0.0
-2.45748 4.25649 0.0
0.0 0.0 9.52564
%ENDBLOCK LATTICE_CART

%BLOCK POSITIONS_FRAC
P           0.999999000000000    0.999999000000000    0.084359000000000 
P           0.999999000000000    0.999999000000000    0.298807000000000 
P           0.999999000000000    0.999999000000000    0.820433000000000 
P           0.333332000000000    0.666666000000000    0.018915000000000 
P           0.333332000000000    0.666666000000000    0.174308000000000 
P           0.666666000000000    0.333332000000000    0.018915000000000 
P           0.666666000000000    0.333332000000000    0.174308000000000 
K           0.333332000000000    0.666666000000000    0.744339000000000 
K           0.666666000000000    0.333332000000000    0.744339000000000 
%ENDBLOCK POSITIONS_FRAC
