# Cell file generated by matador (Matthew Evans 2016)

%BLOCK LATTICE_CART
7.43551 0.0 0.0
-3.71776 6.43934 0.0
0.0 0.0 8.01239
%ENDBLOCK LATTICE_CART

%BLOCK POSITIONS_FRAC
P           0.000000000000000    0.500000000000000    0.000000000000000 
P           0.000000000000000    0.500000000000000    0.500000000000000 
P           0.500000000000000    0.000000000000000    0.000000000000000 
P           0.500000000000000    0.000000000000000    0.500000000000000 
P           0.500000000000000    0.500000000000000    0.000000000000000 
P           0.500000000000000    0.500000000000000    0.500000000000000 
K           0.000000000000000    0.000000000000000    0.500000000000000 
K           0.000000000000000    0.245237000000000    0.667396000000000 
K           0.000000000000000    0.754763000000000    0.332604000000000 
K           0.245237000000000    0.000000000000000    0.667396000000000 
K           0.245237000000000    0.245237000000000    0.332604000000000 
K           0.754763000000000    0.000000000000000    0.332604000000000 
K           0.754763000000000    0.754763000000000    0.667396000000000 
%ENDBLOCK POSITIONS_FRAC
