# Cell file generated by matador (Matthew Evans 2016)

%BLOCK LATTICE_CART
4.86401 0.0 0.0
0.0 9.71691 0.0
2.29058 0.0 5.08427
%ENDBLOCK LATTICE_CART

%BLOCK POSITIONS_FRAC
P           0.500000000000000    0.927450000000000    0.000000000000000 
K           0.000000000000000    0.466093000000000    0.000000000000000 
K           0.224968000000000    0.590103000000000    0.205684000000000 
K           0.500000000000000    0.138116000000000    0.000000000000000 
K           0.500000000000000    0.435981000000000    0.500000000000000 
K           0.775032000000000    0.590103000000000    0.794316000000000 
%ENDBLOCK POSITIONS_FRAC
