# Cell file generated by matador (Matthew Evans 2016)

%BLOCK LATTICE_CART
6.691 0.0 0.0
-3.3455 5.79458 0.0
0.0 0.0 9.77031
%ENDBLOCK LATTICE_CART

%BLOCK POSITIONS_FRAC
P           0.333334000000000    0.666668000000000    0.750000000000000 
P           0.666668000000000    0.333334000000000    0.250000000000000 
K           0.000001000000000    0.000001000000000    0.000000000000000 
K           0.000001000000000    0.000001000000000    0.500000000000000 
K           0.000001000000000    0.298909000000000    0.000000000000000 
K           0.000001000000000    0.701093000000000    0.500000000000000 
K           0.298909000000000    0.000001000000000    0.000000000000000 
K           0.298909000000000    0.298909000000000    0.500000000000000 
K           0.333334000000000    0.666668000000000    0.250000000000000 
K           0.666668000000000    0.333334000000000    0.750000000000000 
K           0.701093000000000    0.000001000000000    0.500000000000000 
K           0.701093000000000    0.701093000000000    0.000000000000000 
%ENDBLOCK POSITIONS_FRAC
