# Cell file generated by matador (Matthew Evans 2016)

%BLOCK LATTICE_CART
8.82224 0.0 0.0
0.0 5.69174 0.0
0.0 0.0 5.21857
%ENDBLOCK LATTICE_CART

%BLOCK POSITIONS_FRAC
P           0.000000000000000    0.500000000000000    0.186898000000000 
P           0.169725000000000    0.500000000000000    0.516919000000000 
P           0.500000000000000    0.177012000000000    0.913950000000000 
P           0.500000000000000    0.822988000000000    0.913950000000000 
P           0.830275000000000    0.500000000000000    0.516919000000000 
K           0.316761000000000    0.000000000000000    0.561175000000000 
K           0.500000000000000    0.000000000000000    0.245784000000000 
K           0.683239000000000    0.000000000000000    0.561175000000000 
%ENDBLOCK POSITIONS_FRAC
