# Cell file generated by matador (Matthew Evans 2016)

%BLOCK LATTICE_CART
8.68055 0.0 0.0
-4.34028 7.51758 0.0
0.0 0.0 9.98528
%ENDBLOCK LATTICE_CART

%BLOCK POSITIONS_FRAC
P           0.000000000000000    0.000000000000000    0.000000000000000 
P           0.333333000000000    0.666667000000000    0.000000000000000 
P           0.333333000000000    0.666667000000000    0.500000000000000 
P           0.666667000000000    0.333333000000000    0.500000000000000 
K           0.005269000000000    0.476753000000000    0.500000000000000 
K           0.167556000000000    0.811355000000000    0.000000000000000 
K           0.188645000000000    0.356201000000000    0.000000000000000 
K           0.249966000000000    0.159534000000000    0.500000000000000 
K           0.436551000000000    0.209455000000000    0.000000000000000 
K           0.471484000000000    0.994731000000000    0.500000000000000 
K           0.523247000000000    0.528516000000000    0.500000000000000 
K           0.643799000000000    0.832444000000000    0.000000000000000 
K           0.772903000000000    0.563449000000000    0.000000000000000 
K           0.790545000000000    0.227097000000000    0.000000000000000 
K           0.840466000000000    0.090432000000000    0.500000000000000 
K           0.909568000000000    0.750034000000000    0.500000000000000 
%ENDBLOCK POSITIONS_FRAC
