# Cell file generated by matador (Matthew Evans 2016)

%BLOCK LATTICE_CART
6.13091 0.0 0.0
0.0 7.15409 0.0
0.0 0.0 7.01158
%ENDBLOCK LATTICE_CART

%BLOCK POSITIONS_FRAC
P           0.110505000000000    0.500000000000000    0.750000000000000 
P           0.250000000000000    0.481151000000000    0.500000000000000 
P           0.250000000000000    0.518849000000000    0.000000000000000 
P           0.389495000000000    0.500000000000000    0.250000000000000 
P           0.610505000000000    0.000000000000000    0.250000000000000 
P           0.750000000000000    0.018849000000000    0.500000000000000 
P           0.750000000000000    0.981151000000000    0.000000000000000 
P           0.889495000000000    0.000000000000000    0.750000000000000 
K           0.000000000000000    0.250000000000000    0.221046000000000 
K           0.000000000000000    0.750000000000000    0.278954000000000 
K           0.500000000000000    0.250000000000000    0.778954000000000 
K           0.500000000000000    0.750000000000000    0.721046000000000 
%ENDBLOCK POSITIONS_FRAC
