# Cell file generated by matador (Matthew Evans 2016)

%BLOCK LATTICE_CART
10.4048 -0.0 0.0
-5.2024 9.01082 0.0
0.0 0.0 6.17257
%ENDBLOCK LATTICE_CART

%BLOCK POSITIONS_FRAC
P           0.000000000000000    0.000000000000000    0.228100000000000 
P           0.333333000000000    0.666667000000000    0.894767000000000 
P           0.666667000000000    0.333333000000000    0.561433000000000 
K           0.000000000000000    0.000000000000000    0.656302000000000 
K           0.040376000000000    0.528280000000000    0.442452000000000 
K           0.138387000000000    0.845430000000000    0.775785000000000 
K           0.154570000000000    0.292958000000000    0.775785000000000 
K           0.333333000000000    0.666667000000000    0.322969000000000 
K           0.373709000000000    0.194946000000000    0.109119000000000 
K           0.471720000000000    0.512096000000000    0.442452000000000 
K           0.487904000000000    0.959624000000000    0.442452000000000 
K           0.666667000000000    0.333333000000000    0.989636000000000 
K           0.707042000000000    0.861613000000000    0.775785000000000 
K           0.805054000000000    0.178763000000000    0.109119000000000 
K           0.821237000000000    0.626291000000000    0.109119000000000 
%ENDBLOCK POSITIONS_FRAC
