# Cell file generated by matador (Matthew Evans 2016)

%BLOCK LATTICE_CART
5.69853 0.0 0.0
0.0 11.4105 0.0
0.0 0.0 8.02603
%ENDBLOCK LATTICE_CART

%BLOCK POSITIONS_FRAC
P           0.000000000000000    0.000000000000000    0.700881000000000 
P           0.000000000000000    0.500000000000000    0.376323000000000 
P           0.000000000000000    0.500000000000000    0.729807000000000 
P           0.500000000000000    0.000000000000000    0.229807000000000 
P           0.500000000000000    0.000000000000000    0.876323000000000 
P           0.500000000000000    0.500000000000000    0.200881000000000 
K           0.000000000000000    0.000000000000000    0.316257000000000 
K           0.039149000000000    0.751988000000000    0.788926000000000 
K           0.052974000000000    0.872640000000000    0.069337000000000 
K           0.447026000000000    0.372640000000000    0.569337000000000 
K           0.460851000000000    0.251988000000000    0.288926000000000 
K           0.500000000000000    0.500000000000000    0.816257000000000 
K           0.539149000000000    0.748012000000000    0.288926000000000 
K           0.552974000000000    0.627360000000000    0.569337000000000 
K           0.947026000000000    0.127360000000000    0.069337000000000 
K           0.960851000000000    0.248012000000000    0.788926000000000 
%ENDBLOCK POSITIONS_FRAC
