# Cell file generated by matador (Matthew Evans 2016)

%BLOCK LATTICE_CART
8.35887 0.0 0.0
-4.17943 7.23899 0.0
0.0 0.0 8.41863
%ENDBLOCK LATTICE_CART

%BLOCK POSITIONS_FRAC
P           0.000000000000000    0.000000000000000    0.772908000000000 
P           0.333333000000000    0.666667000000000    0.439575000000000 
P           0.666667000000000    0.333333000000000    0.106242000000000 
K           0.022684000000000    0.511342000000000    0.496782000000000 
K           0.155325000000000    0.310650000000000    0.830116000000000 
K           0.155325000000000    0.844675000000000    0.830116000000000 
K           0.356017000000000    0.178008000000000    0.163449000000000 
K           0.488658000000000    0.511342000000000    0.496782000000000 
K           0.488658000000000    0.977316000000000    0.496782000000000 
K           0.689350000000000    0.844675000000000    0.830116000000000 
K           0.821992000000000    0.178008000000000    0.163449000000000 
K           0.821992000000000    0.643983000000000    0.163449000000000 
%ENDBLOCK POSITIONS_FRAC
