# Cell file generated by matador (Matthew Evans 2016)

%BLOCK LATTICE_CART
9.34368 0.0 0.0
0.0 9.34368 0.0
0.0 0.0 11.6545
%ENDBLOCK LATTICE_CART

%BLOCK POSITIONS_FRAC
P           0.000000000000000    0.500000000000000    0.617084000000000 
P           0.141371000000000    0.500000000000000    0.140008000000000 
P           0.500000000000000    0.000000000000000    0.617084000000000 
P           0.500000000000000    0.141371000000000    0.140008000000000 
P           0.500000000000000    0.858629000000000    0.140008000000000 
P           0.858629000000000    0.500000000000000    0.140008000000000 
K           0.000000000000000    0.500000000000000    0.919096000000000 
K           0.158679000000000    0.158679000000000    0.456378000000000 
K           0.158679000000000    0.841321000000000    0.456378000000000 
K           0.213036000000000    0.213036000000000    0.209119000000000 
K           0.213036000000000    0.786964000000000    0.209119000000000 
K           0.311191000000000    0.311191000000000    0.898165000000000 
K           0.311191000000000    0.688809000000000    0.898165000000000 
K           0.341345000000000    0.341345000000000    0.591952000000000 
K           0.341345000000000    0.658655000000000    0.591952000000000 
K           0.500000000000000    0.000000000000000    0.919096000000000 
K           0.658655000000000    0.341345000000000    0.591952000000000 
K           0.658655000000000    0.658655000000000    0.591952000000000 
K           0.688809000000000    0.311191000000000    0.898165000000000 
K           0.688809000000000    0.688809000000000    0.898165000000000 
K           0.786964000000000    0.213036000000000    0.209119000000000 
K           0.786964000000000    0.786964000000000    0.209119000000000 
K           0.841321000000000    0.158679000000000    0.456378000000000 
K           0.841321000000000    0.841321000000000    0.456378000000000 
%ENDBLOCK POSITIONS_FRAC
