# Cell file generated by matador (Matthew Evans 2016)

%BLOCK LATTICE_CART
8.39025 0.0 0.0
-4.19513 7.26617 0.0
0.0 0.0 7.65827
%ENDBLOCK LATTICE_CART

%BLOCK POSITIONS_FRAC
P           0.121748000000000    0.243495000000000    0.666667000000000 
P           0.121748000000000    0.878252000000000    0.333333000000000 
P           0.756505000000000    0.878252000000000   -0.000000000000000 
K           0.175444000000000    0.350888000000000    0.166667000000000 
K           0.175444000000000    0.824556000000000    0.833333000000000 
K           0.269989000000000    0.539978000000000    0.666667000000000 
K           0.269989000000000    0.730011000000000    0.333333000000000 
K           0.460022000000000    0.730011000000000   -0.000000000000000 
K           0.579206000000000    0.158412000000000    0.166667000000000 
K           0.579206000000000    0.420794000000000    0.833333000000000 
K           0.649112000000000    0.824556000000000    0.500000000000000 
K           0.841588000000000    0.420794000000000    0.500000000000000 
%ENDBLOCK POSITIONS_FRAC
