# Cell file generated by matador (Matthew Evans 2016)

%BLOCK LATTICE_CART
7.12168 0.0 0.0
0.0 5.21931 0.0
-2.58189 0.0 6.12015
%ENDBLOCK LATTICE_CART

%BLOCK POSITIONS_FRAC
P           0.845177000000000    0.500000000000000    0.590201000000000 
K           0.099084000000000    0.000000000000000    0.266273000000000 
K           0.179551000000000    0.500000000000000    0.658228000000000 
K           0.366998000000000    0.000000000000000    0.841036000000000 
K           0.449983000000000    0.500000000000000    0.075879000000000 
K           0.614572000000000    0.000000000000000    0.199588000000000 
K           0.644624000000000    0.500000000000000    0.907893000000000 
K           0.868184000000000    0.500000000000000    0.254170000000000 
%ENDBLOCK POSITIONS_FRAC
