# Cell file generated by matador (Matthew Evans 2016)

%BLOCK LATTICE_CART
7.25835 0.0 0.0
2.10948 4.78615 0.0
-1.01698 -2.33889 5.27833
%ENDBLOCK LATTICE_CART

%BLOCK POSITIONS_FRAC
P           0.000000000000000    0.000000000000000    0.000000000000000 
P           0.000000000000000    0.500000000000000    0.500000000000000 
P           0.500000000000000    0.000000000000000    0.000000000000000 
P           0.500000000000000    0.000000000000000    0.500000000000000 
P           0.500000000000000    0.500000000000000    0.000000000000000 
P           0.500000000000000    0.500000000000000    0.500000000000000 
K           0.000000000000000    0.500000000000000    0.000000000000000 
%ENDBLOCK POSITIONS_FRAC
