# Cell file generated by matador (Matthew Evans 2016)

%BLOCK LATTICE_CART
10.3754 0.0 0.0
-5.18769 8.98534 0.0
0.0 0.0 4.58444
%ENDBLOCK LATTICE_CART

%BLOCK POSITIONS_FRAC
P           0.077341000000000    0.538671000000000    0.435705000000000 
P           0.461329000000000    0.538671000000000    0.435705000000000 
P           0.461329000000000    0.922659000000000    0.435705000000000 
K           0.191843000000000    0.383686000000000    0.929211000000000 
K           0.191843000000000    0.808157000000000    0.929211000000000 
K           0.266732000000000    0.133367000000000    0.757099000000000 
K           0.565868000000000    0.131738000000000    0.084634000000000 
K           0.565868000000000    0.434132000000000    0.084634000000000 
K           0.616314000000000    0.808157000000000    0.929211000000000 
K           0.866633000000000    0.133367000000000    0.757099000000000 
K           0.866633000000000    0.733268000000000    0.757099000000000 
K           0.868262000000000    0.434132000000000    0.084634000000000 
%ENDBLOCK POSITIONS_FRAC
