# Cell file generated by matador (Matthew Evans 2016)

%BLOCK LATTICE_CART
9.52189 0.0 0.0
-4.76095 8.2462 0.0
0.0 0.0 10.873
%ENDBLOCK LATTICE_CART

%BLOCK POSITIONS_FRAC
P           0.333333000000000    0.666667000000000    0.308695000000000 
P           0.333333000000000    0.666667000000000    0.691305000000000 
P           0.482367000000000    0.377717000000000    0.000000000000000 
P           0.622283000000000    0.104650000000000    0.000000000000000 
P           0.895350000000000    0.517633000000000    0.000000000000000 
K           0.071226000000000    0.868161000000000    0.000000000000000 
K           0.072945000000000    0.361679000000000    0.500000000000000 
K           0.131839000000000    0.203066000000000    0.000000000000000 
K           0.131840000000000    0.597565000000000    0.000000000000000 
K           0.288734000000000    0.927055000000000    0.500000000000000 
K           0.402435000000000    0.534275000000000    0.000000000000000 
K           0.411551000000000    0.143925000000000    0.000000000000000 
K           0.465725000000000    0.868160000000000    0.000000000000000 
K           0.486222000000000    0.337490000000000    0.500000000000000 
K           0.638321000000000    0.711266000000000    0.500000000000000 
K           0.662510000000000    0.148732000000000    0.500000000000000 
K           0.732372000000000    0.588449000000000    0.000000000000000 
K           0.796934000000000    0.928774000000000    0.000000000000000 
K           0.851268000000000    0.513778000000000    0.500000000000000 
K           0.856075000000000    0.267628000000000    0.000000000000000 
%ENDBLOCK POSITIONS_FRAC
