# Cell file generated by matador (Matthew Evans 2016)

%BLOCK LATTICE_CART
7.97537 0.0 0.0
-3.98768 6.90687 0.0
0.0 0.0 5.12606
%ENDBLOCK LATTICE_CART

%BLOCK POSITIONS_FRAC
P           0.000000000000000    0.188501000000000    0.000000000000000 
P           0.000000000000000    0.811499000000000    0.000000000000000 
P           0.188501000000000    0.000000000000000    0.000000000000000 
P           0.188501000000000    0.188501000000000    0.000000000000000 
P           0.811499000000000    0.000000000000000    0.000000000000000 
P           0.811499000000000    0.811499000000000    0.000000000000000 
K           0.000000000000000    0.000000000000000    0.500000000000000 
K           0.000000000000000    0.500000000000000    0.500000000000000 
K           0.500000000000000    0.000000000000000    0.500000000000000 
K           0.500000000000000    0.500000000000000    0.500000000000000 
%ENDBLOCK POSITIONS_FRAC
