# Cell file generated by matador (Matthew Evans 2016)

%BLOCK LATTICE_CART
13.0028 0.0 0.0
-6.5014 11.2608 0.0
0.0 0.0 6.59211
%ENDBLOCK LATTICE_CART

%BLOCK POSITIONS_FRAC
P           0.020979000000000    0.246044000000000    0.610334000000000 
P           0.020979000000000    0.774934000000000    0.389666000000000 
P           0.225066000000000    0.246044000000000    0.722999000000000 
P           0.225066000000000    0.979021000000000    0.277001000000000 
P           0.753956000000000    0.774934000000000    0.943668000000000 
P           0.753956000000000    0.979021000000000    0.056333000000000 
K           0.113140000000000    0.556570000000000    0.000000000000000 
K           0.157505000000000    0.315010000000000    0.166667000000000 
K           0.157505000000000    0.842495000000000    0.833333000000000 
K           0.193904000000000    0.596951000000000    0.500000000000000 
K           0.252230000000000    0.126115000000000    0.500000000000000 
K           0.278252000000000    0.139125000000000    0.000000000000000 
K           0.403049000000000    0.596951000000000    0.833333000000000 
K           0.403049000000000    0.806096000000000    0.166667000000000 
K           0.443430000000000    0.556570000000000    0.333333000000000 
K           0.443430000000000    0.886860000000000    0.666667000000000 
K           0.579775000000000    0.159548000000000    0.666667000000000 
K           0.579775000000000    0.420225000000000    0.333333000000000 
K           0.684990000000000    0.842495000000000    0.500000000000000 
K           0.840452000000000    0.420225000000000    0.000000000000000 
K           0.860875000000000    0.139125000000000    0.333333000000000 
K           0.860875000000000    0.721748000000000    0.666667000000000 
K           0.873885000000000    0.126115000000000    0.833333000000000 
K           0.873885000000000    0.747770000000000    0.166667000000000 
%ENDBLOCK POSITIONS_FRAC
