# Cell file generated by matador (Matthew Evans 2016)

%BLOCK LATTICE_CART
11.2901 0.0 0.0
0.0 6.48583 0.0
0.0 0.0 8.30069
%ENDBLOCK LATTICE_CART

%BLOCK POSITIONS_FRAC
P           0.045040000000000    0.250000000000000    0.203345000000000 
P           0.045040000000000    0.750000000000000    0.703345000000000 
P           0.954960000000000    0.250000000000000    0.703345000000000 
P           0.954960000000000    0.750000000000000    0.203345000000000 
K           0.111386000000000    0.250000000000000    0.911449000000000 
K           0.111386000000000    0.750000000000000    0.411449000000000 
K           0.332288000000000    0.250000000000000    0.487260000000000 
K           0.332288000000000    0.750000000000000    0.987260000000000 
K           0.359224000000000    0.250000000000000    0.054405000000000 
K           0.359224000000000    0.750000000000000    0.554405000000000 
K           0.640776000000000    0.250000000000000    0.554405000000000 
K           0.640776000000000    0.750000000000000    0.054405000000000 
K           0.667712000000000    0.250000000000000    0.987260000000000 
K           0.667712000000000    0.750000000000000    0.487260000000000 
K           0.888614000000000    0.250000000000000    0.411449000000000 
K           0.888614000000000    0.750000000000000    0.911449000000000 
%ENDBLOCK POSITIONS_FRAC
