# Cell file generated by matador (Matthew Evans 2016)

%BLOCK LATTICE_CART
6.26594 0.0 0.0
-3.13297 5.42646 0.0
0.0 0.0 17.0569
%ENDBLOCK LATTICE_CART

%BLOCK POSITIONS_FRAC
P           0.000000000000000    0.000000000000000    0.169820000000000 
P           0.000000000000000    0.000000000000000    0.830180000000000 
P           0.666667000000000    0.333333000000000    0.355243000000000 
P           0.666667000000000    0.333333000000000    0.644757000000000 
K           0.013900000000000    0.506950000000000    0.246460000000000 
K           0.013900000000000    0.506950000000000    0.753540000000000 
K           0.171363000000000    0.342726000000000    0.402731000000000 
K           0.171363000000000    0.342726000000000    0.597269000000000 
K           0.171363000000000    0.828637000000000    0.402731000000000 
K           0.171363000000000    0.828637000000000    0.597269000000000 
K           0.493050000000000    0.506950000000000    0.246460000000000 
K           0.493050000000000    0.506950000000000    0.753540000000000 
K           0.493050000000000    0.986100000000000    0.246460000000000 
K           0.493050000000000    0.986100000000000    0.753540000000000 
K           0.657274000000000    0.828637000000000    0.402731000000000 
K           0.657274000000000    0.828637000000000    0.597269000000000 
%ENDBLOCK POSITIONS_FRAC
