# Cell file generated by matador (Matthew Evans 2016)

%BLOCK LATTICE_CART
5.41529 0.0 0.0
-2.70765 4.68978 0.0
0.0 0.0 5.21901
%ENDBLOCK LATTICE_CART

%BLOCK POSITIONS_FRAC
P           0.478681000000000    0.297331000000000    0.197447000000000 
P           0.666667000000000    0.333333000000000    0.295314000000000 
P           0.666667000000000    0.333333000000000    0.879163000000000 
P           0.702669000000000    0.181350000000000    0.197447000000000 
P           0.818650000000000    0.521319000000000    0.197447000000000 
K           0.000000000000000    0.000000000000000    0.434589000000000 
%ENDBLOCK POSITIONS_FRAC
