# Cell file generated by matador (Matthew Evans 2016)

%BLOCK LATTICE_CART
7.92286 0.0 0.0
-3.96143 6.8614 0.0
0.0 0.0 8.27262
%ENDBLOCK LATTICE_CART

%BLOCK POSITIONS_FRAC
P           0.000000000000000   -0.000000000000000    0.473788000000000 
P           0.000000000000000   -0.000000000000000    0.881059000000000 
P           0.333334000000000    0.666666000000000    0.055400000000000 
P           0.333334000000000    0.666666000000000    0.191022000000000 
P           0.333334000000000    0.666666000000000    0.648264000000000 
P           0.362066000000000    0.075132000000000    0.242693000000000 
P           0.411155000000000    0.242118000000000    0.125257000000000 
P           0.666667000000000    0.333333000000000    0.157602000000000 
P           0.666667000000000    0.333333000000000    0.453380000000000 
P           0.666667000000000    0.333333000000000    0.900830000000000 
P           0.713066000000000    0.637934000000000    0.242693000000000 
P           0.757882000000000    0.169037000000000    0.125257000000000 
P           0.830963000000000    0.588845000000000    0.125257000000000 
P           0.924868000000000    0.286934000000000    0.242693000000000 
K           0.013688000000000    0.803990000000000    0.317802000000000 
K           0.196010000000000    0.209697000000000    0.317802000000000 
K           0.411684000000000    0.078863000000000    0.533269000000000 
K           0.667180000000000    0.588316000000000    0.533269000000000 
K           0.790303000000000    0.986312000000000    0.317802000000000 
K           0.921137000000000    0.332820000000000    0.533269000000000 
%ENDBLOCK POSITIONS_FRAC
