# Cell file generated by matador (Matthew Evans 2016)

%BLOCK LATTICE_CART
4.08683 0.0 0.0
0.0 10.5163 0.0
0.0 0.0 5.7049
%ENDBLOCK LATTICE_CART

%BLOCK POSITIONS_FRAC
P          -0.000000000000000    0.309819000000000    0.000000000000000 
P          -0.000000000000000    0.690181000000000    0.000000000000000 
P           0.500000000000000    0.190181000000000    0.500000000000000 
P           0.500000000000000    0.809819000000000    0.500000000000000 
K          -0.000000000000000    0.000000000000000    0.500000000000000 
K          -0.000000000000000    0.500000000000000    0.000000000000000 
K          -0.000000000000000    0.500000000000000    0.500000000000000 
K           0.500000000000000    0.000000000000000    0.000000000000000 
K           0.500000000000000    0.000000000000000    0.500000000000000 
K           0.500000000000000    0.500000000000000    0.000000000000000 
%ENDBLOCK POSITIONS_FRAC
