# Cell file generated by matador (Matthew Evans 2016)

%BLOCK LATTICE_CART
9.28561 0.0 0.0
0.0 9.28561 0.0
0.0 0.0 10.2395
%ENDBLOCK LATTICE_CART

%BLOCK POSITIONS_FRAC
P           0.000000000000000    0.000000000000000    0.250000000000000 
P           0.000000000000000    0.000000000000000    0.750000000000000 
P           0.500000000000000    0.500000000000000    0.000000000000000 
P           0.500000000000000    0.500000000000000    0.250000000000000 
P           0.500000000000000    0.500000000000000    0.500000000000000 
P           0.500000000000000    0.500000000000000    0.750000000000000 
K           0.000000000000000    0.000000000000000    0.000000000000000 
K           0.000000000000000    0.000000000000000    0.500000000000000 
K           0.010317000000000    0.322916000000000    0.500000000000000 
K           0.010317000000000    0.677084000000000    0.000000000000000 
K           0.322916000000000    0.010317000000000    0.500000000000000 
K           0.322916000000000    0.989683000000000    0.000000000000000 
K           0.334949000000000    0.334949000000000    0.258155000000000 
K           0.334949000000000    0.334949000000000    0.741845000000000 
K           0.334949000000000    0.665051000000000    0.241845000000000 
K           0.334949000000000    0.665051000000000    0.758155000000000 
K           0.665051000000000    0.334949000000000    0.241845000000000 
K           0.665051000000000    0.334949000000000    0.758155000000000 
K           0.665051000000000    0.665051000000000    0.258155000000000 
K           0.665051000000000    0.665051000000000    0.741845000000000 
K           0.677084000000000    0.010317000000000    0.000000000000000 
K           0.677084000000000    0.989683000000000    0.500000000000000 
K           0.989683000000000    0.322916000000000    0.000000000000000 
K           0.989683000000000    0.677084000000000    0.500000000000000 
%ENDBLOCK POSITIONS_FRAC
