# Cell file generated by matador (Matthew Evans 2016)

%BLOCK LATTICE_CART
9.95723 0.0 0.0
0.0 9.95723 0.0
0.0 0.0 5.8708
%ENDBLOCK LATTICE_CART

%BLOCK POSITIONS_FRAC
P           0.000000000000000    0.000000000000000   -0.000000000000000 
P           0.000000000000000    0.000000000000000    0.500000000000000 
P           0.500000000000000    0.500000000000000   -0.000000000000000 
P           0.500000000000000    0.500000000000000    0.500000000000000 
K           0.000000000000000    0.500000000000000   -0.000000000000000 
K           0.000000000000000    0.500000000000000    0.500000000000000 
K           0.138061000000000    0.861939000000000    0.244497000000000 
K           0.138061000000000    0.861939000000000    0.755503000000000 
K           0.361939000000000    0.361939000000000    0.255503000000000 
K           0.361939000000000    0.361939000000000    0.744497000000000 
K           0.500000000000000    0.000000000000000   -0.000000000000000 
K           0.500000000000000    0.000000000000000    0.500000000000000 
K           0.638061000000000    0.638061000000000    0.255503000000000 
K           0.638061000000000    0.638061000000000    0.744497000000000 
K           0.861939000000000    0.138061000000000    0.244497000000000 
K           0.861939000000000    0.138061000000000    0.755503000000000 
%ENDBLOCK POSITIONS_FRAC
