# Cell file generated by matador (Matthew Evans 2016)

%BLOCK LATTICE_CART
6.67721 0.0 0.0
0.0 6.67721 0.0
0.0 0.0 6.53065
%ENDBLOCK LATTICE_CART

%BLOCK POSITIONS_FRAC
P           0.000000000000000    0.000000000000000    0.000000000000000 
P           0.353516000000000    0.374302000000000    0.597310000000000 
P           0.374302000000000    0.646484000000000    0.402690000000000 
P           0.500000000000000    0.500000000000000    0.306248000000000 
P           0.500000000000000    0.500000000000000    0.693752000000000 
P           0.625698000000000    0.353516000000000    0.402690000000000 
P           0.646484000000000    0.625698000000000    0.597310000000000 
K           0.000000000000000    0.000000000000000    0.500000000000000 
K           0.105017000000000    0.355966000000000    0.096838000000000 
K           0.355966000000000    0.894983000000000    0.903162000000000 
K           0.500000000000000    0.500000000000000    0.000000000000000 
K           0.644034000000000    0.105017000000000    0.903162000000000 
K           0.894983000000000    0.644034000000000    0.096838000000000 
%ENDBLOCK POSITIONS_FRAC
