# Cell file generated by matador (Matthew Evans 2016)

%BLOCK LATTICE_CART
7.99101 0.0 0.0
-3.99551 6.92042 0.0
0.0 0.0 6.15246
%ENDBLOCK LATTICE_CART

%BLOCK POSITIONS_FRAC
P           0.093409000000000    0.457983000000000    0.927043000000000 
P           0.364574000000000    0.906591000000000    0.927043000000000 
P           0.466462000000000    0.333394000000000    0.310239000000000 
P           0.542017000000000    0.635426000000000    0.927043000000000 
P           0.666606000000000    0.133069000000000    0.310239000000000 
P           0.866931000000000    0.533538000000000    0.310239000000000 
K           0.000000000000000    0.000000000000000    0.267831000000000 
K           0.333333000000000    0.666667000000000    0.129786000000000 
K           0.405441000000000    0.207445000000000    0.959204000000000 
K           0.792555000000000    0.197996000000000    0.959204000000000 
K           0.802004000000000    0.594559000000000    0.959204000000000 
%ENDBLOCK POSITIONS_FRAC
