# Cell file generated by matador (Matthew Evans 2016)

%BLOCK LATTICE_CART
7.16013 0.0 0.0
-3.58007 6.20086 0.0
0.0 0.0 12.2088
%ENDBLOCK LATTICE_CART

%BLOCK POSITIONS_FRAC
P           0.000001000000000    0.000001000000000    0.000000000000000 
P           0.000001000000000    0.000001000000000    0.086664000000000 
P           0.000001000000000    0.000001000000000    0.250000000000000 
P           0.000001000000000    0.000001000000000    0.413336000000000 
P           0.000001000000000    0.000001000000000    0.500000000000000 
P           0.000001000000000    0.000001000000000    0.586664000000000 
P           0.000001000000000    0.000001000000000    0.750000000000000 
P           0.000001000000000    0.000001000000000    0.913336000000000 
P           0.000001000000000    0.268173000000000    0.250000000000000 
P           0.000001000000000    0.731829000000000    0.750000000000000 
P           0.268173000000000    0.000001000000000    0.250000000000000 
P           0.268173000000000    0.268173000000000    0.750000000000000 
P           0.731829000000000    0.000001000000000    0.750000000000000 
P           0.731829000000000    0.731829000000000    0.250000000000000 
K           0.333334000000000    0.666668000000000    0.000000000000000 
K           0.333334000000000    0.666668000000000    0.500000000000000 
K           0.666668000000000    0.333334000000000    0.000000000000000 
K           0.666668000000000    0.333334000000000    0.500000000000000 
%ENDBLOCK POSITIONS_FRAC
