# Cell file generated by matador (Matthew Evans 2016)

%BLOCK LATTICE_CART
5.29959 0.0 0.0
-2.64979 4.58958 0.0
0.0 0.0 6.28762
%ENDBLOCK LATTICE_CART

%BLOCK POSITIONS_FRAC
P           0.000000000000000    0.495321000000000    0.000000000000000 
P           0.333333000000000    0.666667000000000    0.117186000000000 
P           0.333333000000000    0.666667000000000    0.882814000000000 
P           0.495321000000000    0.000000000000000    0.000000000000000 
P           0.504679000000000    0.504679000000000    0.000000000000000 
P           0.666667000000000    0.333333000000000    0.117186000000000 
P           0.666667000000000    0.333333000000000    0.882814000000000 
K           0.000000000000000    0.000000000000000    0.000000000000000 
%ENDBLOCK POSITIONS_FRAC
