# Cell file generated by matador (Matthew Evans 2016)

%BLOCK LATTICE_CART
4.33765 0.0 0.0
0.0 6.03841 0.0
0.0 0.0 4.73725
%ENDBLOCK LATTICE_CART

%BLOCK POSITIONS_FRAC
P           0.000000000000000    0.000000000000000    0.531769000000000 
P           0.000000000000000    0.500000000000000    0.581493000000000 
P           0.187444000000000    0.500000000000000    0.334327000000000 
P           0.500000000000000    0.500000000000000    0.256829000000000 
P           0.500000000000000    0.500000000000000    0.859344000000000 
P           0.812556000000000    0.500000000000000    0.334327000000000 
K           0.500000000000000    0.000000000000000    0.110796000000000 
%ENDBLOCK POSITIONS_FRAC
