# Cell file generated by matador (Matthew Evans 2016)

%BLOCK LATTICE_CART
10.6813 0.0 0.0
0.0 10.2021 0.0
3.46037 0.0 9.25247
%ENDBLOCK LATTICE_CART

%BLOCK POSITIONS_FRAC
P           0.000000000000000    0.000000000000000    0.000000000000000 
P           0.000000000000000    0.500000000000000    0.000000000000000 
P           0.038550000000000    0.250000000000000    0.726738000000000 
P           0.500000000000000    0.000000000000000    0.000000000000000 
P           0.500000000000000    0.500000000000000    0.000000000000000 
P           0.961450000000000    0.750000000000000    0.273262000000000 
K           0.000000000000000    0.000000000000000    0.500000000000000 
K           0.000000000000000    0.500000000000000    0.500000000000000 
K           0.030040000000000    0.250000000000000    0.328173000000000 
K           0.182678000000000    0.250000000000000    0.823224000000000 
K           0.215416000000000    0.750000000000000    0.758807000000000 
K           0.242939000000000    0.750000000000000    0.243233000000000 
K           0.319487000000000    0.250000000000000    0.341725000000000 
K           0.393515000000000    0.750000000000000    0.445950000000000 
K           0.424029000000000    0.750000000000000    0.926048000000000 
K           0.500000000000000    0.000000000000000    0.500000000000000 
K           0.500000000000000    0.500000000000000    0.500000000000000 
K           0.575971000000000    0.250000000000000    0.073952000000000 
K           0.606485000000000    0.250000000000000    0.554050000000000 
K           0.680513000000000    0.750000000000000    0.658275000000000 
K           0.757061000000000    0.250000000000000    0.756767000000000 
K           0.784584000000000    0.250000000000000    0.241193000000000 
K           0.817322000000000    0.750000000000000    0.176776000000000 
K           0.969960000000000    0.750000000000000    0.671827000000000 
%ENDBLOCK POSITIONS_FRAC
