# Cell file generated by matador (Matthew Evans 2016)

%BLOCK LATTICE_CART
9.54922 0.0 0.0
-4.77461 8.26987 0.0
0.0 0.0 6.3862
%ENDBLOCK LATTICE_CART

%BLOCK POSITIONS_FRAC
P           0.000000000000000    0.000000000000000    0.675113000000000 
P           0.333333000000000    0.666667000000000    0.341779000000000 
P           0.666667000000000    0.333333000000000    0.008446000000000 
K           0.178793000000000    0.357587000000000    0.146228000000000 
K           0.178793000000000    0.821207000000000    0.146228000000000 
K           0.309080000000000    0.154540000000000    0.479561000000000 
K           0.512127000000000    0.024253000000000    0.812894000000000 
K           0.512127000000000    0.487873000000000    0.812894000000000 
K           0.642413000000000    0.821207000000000    0.146228000000000 
K           0.845460000000000    0.154540000000000    0.479561000000000 
K           0.845460000000000    0.690920000000000    0.479561000000000 
K           0.975747000000000    0.487873000000000    0.812894000000000 
%ENDBLOCK POSITIONS_FRAC
