# Cell file generated by matador (Matthew Evans 2016)

%BLOCK LATTICE_CART
6.95675 0.0 0.0
-3.47837 6.02472 0.0
0.0 0.0 5.80495
%ENDBLOCK LATTICE_CART

%BLOCK POSITIONS_FRAC
P          -0.000000000000000    0.000000000000000    0.000000000000000 
P          -0.000000000000000    0.000000000000000    0.500000000000000 
P           0.385574000000000    0.039518000000000    0.000000000000000 
P           0.385574000000000    0.346056000000000    0.000000000000000 
P           0.653944000000000    0.039518000000000    0.000000000000000 
P           0.653944000000000    0.614426000000000    0.000000000000000 
P           0.960482000000000    0.346056000000000    0.000000000000000 
P           0.960482000000000    0.614426000000000    0.000000000000000 
K           0.333333000000000    0.666667000000000    0.000000000000000 
K           0.333333000000000    0.666667000000000    0.500000000000000 
K           0.666666000000000    0.333334000000000    0.000000000000000 
K           0.666666000000000    0.333334000000000    0.500000000000000 
%ENDBLOCK POSITIONS_FRAC
