# Cell file generated by matador (Matthew Evans 2016)

%BLOCK LATTICE_CART
6.93386 0.0 0.0
0.0 6.93386 0.0
0.0 0.0 8.09419
%ENDBLOCK LATTICE_CART

%BLOCK POSITIONS_FRAC
P           0.237709000000000    0.258892000000000    0.000000000000000 
P           0.258892000000000    0.762291000000000    0.000000000000000 
P           0.500000000000000    0.500000000000000    0.247091000000000 
P           0.500000000000000    0.500000000000000    0.752909000000000 
P           0.741108000000000    0.237709000000000    0.000000000000000 
P           0.762291000000000    0.741108000000000    0.000000000000000 
K          -0.000000000000000   -0.000000000000000    0.000000000000000 
K          -0.000000000000000   -0.000000000000000    0.500000000000000 
K           0.108593000000000    0.321945000000000    0.500000000000000 
K           0.321945000000000    0.891407000000000    0.500000000000000 
K           0.500000000000000    0.500000000000000    0.000000000000000 
K           0.500000000000000    0.500000000000000    0.500000000000000 
K           0.678055000000000    0.108593000000000    0.500000000000000 
K           0.891407000000000    0.678055000000000    0.500000000000000 
%ENDBLOCK POSITIONS_FRAC
