# Cell file generated by matador (Matthew Evans 2016)

%BLOCK LATTICE_CART
9.30243 -0.0 0.0
-4.65122 8.05614 0.0
0.0 0.0 6.22001
%ENDBLOCK LATTICE_CART

%BLOCK POSITIONS_FRAC
P           0.000000000000000    0.000000000000000    0.016888000000000 
P           0.000000000000000    0.000000000000000    0.664210000000000 
P           0.000000000000000    0.000000000000000    0.839708000000000 
P           0.000000000000000    0.500000000000000    0.376091000000000 
P           0.265723000000000    0.563111000000000    0.052260000000000 
P           0.297388000000000    0.734277000000000    0.052260000000000 
P           0.436889000000000    0.702612000000000    0.052260000000000 
P           0.500000000000000    0.000000000000000    0.376091000000000 
P           0.500000000000000    0.500000000000000    0.376091000000000 
P           0.563111000000000    0.297388000000000    0.052260000000000 
P           0.702612000000000    0.265723000000000    0.052260000000000 
P           0.734277000000000    0.436889000000000    0.052260000000000 
K           0.000000000000000    0.500000000000000    0.714957000000000 
K           0.500000000000000    0.000000000000000    0.714957000000000 
K           0.500000000000000    0.500000000000000    0.714957000000000 
%ENDBLOCK POSITIONS_FRAC
