# Cell file generated by matador (Matthew Evans 2016)

%BLOCK LATTICE_CART
7.03604 0.0 0.0
0.0 7.03604 0.0
0.0 0.0 5.82784
%ENDBLOCK LATTICE_CART

%BLOCK POSITIONS_FRAC
P           0.500000000000000    0.500000000000000    0.000000000000000 
P           0.500000000000000    0.500000000000000    0.500000000000000 
K           0.000000000000000    0.000000000000000    0.000000000000000 
K           0.000000000000000    0.000000000000000    0.500000000000000 
K           0.220282000000000    0.500000000000000    0.218939000000000 
K           0.500000000000000    0.220282000000000    0.781061000000000 
K           0.500000000000000    0.779718000000000    0.781061000000000 
K           0.779718000000000    0.500000000000000    0.218939000000000 
%ENDBLOCK POSITIONS_FRAC
