# Cell file generated by matador (Matthew Evans 2016)

%BLOCK LATTICE_CART
10.9026 0.0 0.0
-5.4513 9.44193 0.0
0.0 0.0 4.36674
%ENDBLOCK LATTICE_CART

%BLOCK POSITIONS_FRAC
P           0.492731000000000    0.190403000000000    0.757772000000000 
P           0.492731000000000    0.302328000000000    0.242228000000000 
P           0.697672000000000    0.190403000000000    0.242228000000000 
P           0.697672000000000    0.507269000000000    0.757772000000000 
P           0.809597000000000    0.302328000000000    0.757772000000000 
P           0.809597000000000    0.507269000000000    0.242228000000000 
K           0.000000000000000    0.000000000000000    0.000000000000000 
K           0.020916000000000    0.266895000000000    0.229624000000000 
K           0.020916000000000    0.754022000000000    0.770376000000000 
K           0.245978000000000    0.266895000000000    0.770376000000000 
K           0.245978000000000    0.979084000000000    0.229624000000000 
K           0.733105000000000    0.754022000000000    0.229624000000000 
K           0.733105000000000    0.979084000000000    0.770376000000000 
%ENDBLOCK POSITIONS_FRAC
