# Cell file generated by matador (Matthew Evans 2016)

%BLOCK LATTICE_CART
9.41965 0.0 0.0
-4.70982 8.15765 0.0
0.0 0.0 4.41494
%ENDBLOCK LATTICE_CART

%BLOCK POSITIONS_FRAC
P          -0.000000000000000    0.000000000000000    0.000000000000000 
P           0.078677000000000    0.610584000000000    0.500000000000000 
P           0.389416000000000    0.468093000000000    0.500000000000000 
P           0.468093000000000    0.389416000000000    0.500000000000000 
P           0.531907000000000    0.921323000000000    0.500000000000000 
P           0.610584000000000    0.078677000000000    0.500000000000000 
P           0.921323000000000    0.531907000000000    0.500000000000000 
K           0.216585000000000    0.733092000000000    0.000000000000000 
K           0.266908000000000    0.483493000000000    0.000000000000000 
K           0.483493000000000    0.266908000000000    0.000000000000000 
K           0.516507000000000    0.783415000000000    0.000000000000000 
K           0.733092000000000    0.216585000000000    0.000000000000000 
K           0.783415000000000    0.516507000000000    0.000000000000000 
%ENDBLOCK POSITIONS_FRAC
