# Cell file generated by matador (Matthew Evans 2016)

%BLOCK LATTICE_CART
7.55194 0.0 0.0
0.0 7.55194 0.0
0.0 0.0 9.92168
%ENDBLOCK LATTICE_CART

%BLOCK POSITIONS_FRAC
P          -0.000000000000000   -0.000000000000000    0.000000000000000 
P          -0.000000000000000   -0.000000000000000    0.500000000000000 
P           0.500000000000000    0.500000000000000    0.000000000000000 
P           0.500000000000000    0.500000000000000    0.500000000000000 
K          -0.000000000000000    0.500000000000000    0.250000000000000 
K          -0.000000000000000    0.500000000000000    0.750000000000000 
K           0.218133000000000    0.260674000000000    0.500000000000000 
K           0.239326000000000    0.281867000000000    0.000000000000000 
K           0.260674000000000    0.781867000000000    0.500000000000000 
K           0.281867000000000    0.760674000000000    0.000000000000000 
K           0.500000000000000   -0.000000000000000    0.250000000000000 
K           0.500000000000000   -0.000000000000000    0.750000000000000 
K           0.718133000000000    0.239326000000000    0.000000000000000 
K           0.739326000000000    0.218133000000000    0.500000000000000 
K           0.760674000000000    0.718133000000000    0.000000000000000 
K           0.781867000000000    0.739326000000000    0.500000000000000 
%ENDBLOCK POSITIONS_FRAC
