# Cell file generated by matador (Matthew Evans 2016)

%BLOCK LATTICE_CART
7.7622 0.0 0.0
0.0 7.7622 0.0
0.0 0.0 7.14629
%ENDBLOCK LATTICE_CART

%BLOCK POSITIONS_FRAC
P           0.000000000000000    0.000000000000000    0.500000000000000 
P           0.000000000000000    0.500000000000000    0.500000000000000 
P           0.263702000000000    0.500000000000000    0.000000000000000 
P           0.500000000000000    0.000000000000000    0.500000000000000 
P           0.500000000000000    0.263702000000000    0.000000000000000 
P           0.500000000000000    0.736298000000000    0.000000000000000 
P           0.736298000000000    0.500000000000000    0.000000000000000 
K           0.000000000000000    0.000000000000000    0.000000000000000 
K           0.370727000000000    0.370727000000000    0.258242000000000 
K           0.370727000000000    0.629273000000000    0.741758000000000 
K           0.500000000000000    0.500000000000000    0.500000000000000 
K           0.629273000000000    0.370727000000000    0.741758000000000 
K           0.629273000000000    0.629273000000000    0.258242000000000 
%ENDBLOCK POSITIONS_FRAC
