# Cell file generated by matador (Matthew Evans 2016)

%BLOCK LATTICE_CART
8.08102 0.0 0.0
0.0 8.08102 0.0
0.0 0.0 6.89238
%ENDBLOCK LATTICE_CART

%BLOCK POSITIONS_FRAC
P           0.000000000000000    0.000000000000000    0.172850000000000 
P           0.000000000000000    0.000000000000000    0.327150000000000 
P           0.000000000000000    0.000000000000000    0.672850000000000 
P           0.000000000000000    0.000000000000000    0.827150000000000 
P           0.500000000000000    0.500000000000000    0.123803000000000 
P           0.500000000000000    0.500000000000000    0.376197000000000 
P           0.500000000000000    0.500000000000000    0.623803000000000 
P           0.500000000000000    0.500000000000000    0.876197000000000 
K           0.000000000000000    0.500000000000000    0.250000000000000 
K           0.000000000000000    0.500000000000000    0.750000000000000 
K           0.500000000000000    0.000000000000000    0.250000000000000 
K           0.500000000000000    0.000000000000000    0.750000000000000 
%ENDBLOCK POSITIONS_FRAC
