# Cell file generated by matador (Matthew Evans 2016)

%BLOCK LATTICE_CART
4.91434 0.0 0.0
0.0 4.78844 0.0
0.0 0.0 5.44462
%ENDBLOCK LATTICE_CART

%BLOCK POSITIONS_FRAC
P           0.250000000000000    0.250000000000000    0.503138000000000 
P           0.750000000000000    0.750000000000000    0.496862000000000 
K           0.250000000000000    0.750000000000000    0.234819000000000 
K           0.750000000000000    0.250000000000000    0.765181000000000 
%ENDBLOCK POSITIONS_FRAC
