# Cell file generated by matador (Matthew Evans 2016)

%BLOCK LATTICE_CART
8.64212 0.0 0.0
0.0 8.64212 0.0
0.0 0.0 9.30075
%ENDBLOCK LATTICE_CART

%BLOCK POSITIONS_FRAC
P           0.000000000000000    0.000000000000000   -0.000000000000000 
P           0.000000000000000    0.000000000000000    0.500000000000000 
P           0.500000000000000    0.500000000000000   -0.000000000000000 
P           0.500000000000000    0.500000000000000    0.500000000000000 
K           0.000000000000000    0.000000000000000    0.250000000000000 
K           0.000000000000000    0.000000000000000    0.750000000000000 
K           0.184907000000000    0.479969000000000   -0.000000000000000 
K           0.184907000000000    0.520031000000000    0.500000000000000 
K           0.479969000000000    0.184907000000000   -0.000000000000000 
K           0.479969000000000    0.815093000000000    0.500000000000000 
K           0.500000000000000    0.500000000000000    0.250000000000000 
K           0.500000000000000    0.500000000000000    0.750000000000000 
K           0.520031000000000    0.184907000000000    0.500000000000000 
K           0.520031000000000    0.815093000000000   -0.000000000000000 
K           0.815093000000000    0.479969000000000    0.500000000000000 
K           0.815093000000000    0.520031000000000   -0.000000000000000 
%ENDBLOCK POSITIONS_FRAC
