# Cell file generated by matador (Matthew Evans 2016)

%BLOCK LATTICE_CART
8.82236 0.0 0.0
0.0 10.0617 0.0
-1.95048 0.0 7.60004
%ENDBLOCK LATTICE_CART

%BLOCK POSITIONS_FRAC
P           0.677022000000000    0.129322000000000    0.829957000000000 
P           0.677022000000000    0.870678000000000    0.829957000000000 
P           0.767330000000000    0.252312000000000    0.566323000000000 
P           0.767330000000000    0.747688000000000    0.566323000000000 
K           0.039292000000000    0.500000000000000    0.040527000000000 
K           0.118785000000000    0.500000000000000    0.700413000000000 
K           0.204442000000000    0.000000000000000    0.133869000000000 
K           0.351682000000000    0.500000000000000    0.403007000000000 
K           0.415110000000000    0.000000000000000    0.495016000000000 
K           0.466121000000000    0.500000000000000    0.788581000000000 
K           0.572821000000000    0.500000000000000    0.174357000000000 
K           0.736393000000000    0.500000000000000    0.633321000000000 
K           0.738316000000000    0.000000000000000    0.463796000000000 
K           0.874019000000000    0.000000000000000    0.156732000000000 
K           0.907734000000000    0.500000000000000    0.348653000000000 
K           0.943378000000000    0.000000000000000    0.816149000000000 
%ENDBLOCK POSITIONS_FRAC
