# Cell file generated by matador (Matthew Evans 2016)

%BLOCK LATTICE_CART
6.59403 0.0 0.0
0.0 6.59403 0.0
0.0 0.0 7.68221
%ENDBLOCK LATTICE_CART

%BLOCK POSITIONS_FRAC
P           0.160367000000000    0.465098000000000    0.329387000000000 
P           0.291893000000000    0.634037000000000    0.809163000000000 
P           0.365963000000000    0.291893000000000    0.309163000000000 
P           0.465098000000000    0.839633000000000    0.829387000000000 
P           0.534902000000000    0.160367000000000    0.829387000000000 
P           0.634037000000000    0.708107000000000    0.309163000000000 
P           0.708107000000000    0.365963000000000    0.809163000000000 
P           0.839633000000000    0.534902000000000    0.329387000000000 
K           0.210481000000000    0.779074000000000    0.507412000000000 
K           0.220926000000000    0.210481000000000    0.007412000000000 
K           0.779074000000000    0.789519000000000    0.007412000000000 
K           0.789519000000000    0.220926000000000    0.507412000000000 
%ENDBLOCK POSITIONS_FRAC
