# Cell file generated by matador (Matthew Evans 2016)

%BLOCK LATTICE_CART
4.66213 0.0 0.0
0.0 7.91496 0.0
3.28512 0.0 6.08537
%ENDBLOCK LATTICE_CART

%BLOCK POSITIONS_FRAC
P           0.000000000000000    0.000000000000000    0.500000000000000 
P           0.000000000000000    0.500000000000000    0.500000000000000 
P           0.047300000000000    0.750000000000000    0.586905000000000 
P           0.952700000000000    0.250000000000000    0.413095000000000 
K           0.375427000000000    0.750000000000000    0.878951000000000 
K           0.405177000000000    0.250000000000000    0.826091000000000 
K           0.594823000000000    0.750000000000000    0.173909000000000 
K           0.624573000000000    0.250000000000000    0.121049000000000 
%ENDBLOCK POSITIONS_FRAC
