# Cell file generated by matador (Matthew Evans 2016)

%BLOCK LATTICE_CART
8.4241 0.0 0.0
0.0 8.78704 0.0
-3.12403 0.0 5.45485
%ENDBLOCK LATTICE_CART

%BLOCK POSITIONS_FRAC
P           0.069960000000000    0.437595000000000    0.790710000000000 
P           0.069960000000000    0.562405000000000    0.290710000000000 
P           0.179347000000000    0.100411000000000    0.924215000000000 
P           0.179347000000000    0.899589000000000    0.424215000000000 
P           0.500000000000000    0.393253000000000    0.250000000000000 
P           0.500000000000000    0.606747000000000    0.750000000000000 
P           0.820653000000000    0.100411000000000    0.575785000000000 
P           0.820653000000000    0.899589000000000    0.075785000000000 
P           0.930040000000000    0.437595000000000    0.709290000000000 
P           0.930040000000000    0.562405000000000    0.209290000000000 
K           0.000000000000000    0.000000000000000    0.000000000000000 
K           0.000000000000000    0.000000000000000    0.500000000000000 
K           0.354360000000000    0.362686000000000    0.657295000000000 
K           0.354360000000000    0.637314000000000    0.157295000000000 
K           0.645640000000000    0.362686000000000    0.842705000000000 
K           0.645640000000000    0.637314000000000    0.342705000000000 
%ENDBLOCK POSITIONS_FRAC
