# Cell file generated by matador (Matthew Evans 2016)

%BLOCK LATTICE_CART
10.1846 -0.0 0.0
-5.0923 8.82012 0.0
0.0 0.0 5.64505
%ENDBLOCK LATTICE_CART

%BLOCK POSITIONS_FRAC
P           0.005834000000000    0.794109000000000    0.784336000000000 
P           0.033876000000000    0.641557000000000    0.566262000000000 
P           0.205891000000000    0.211725000000000    0.784336000000000 
P           0.230466000000000    0.223130000000000    0.548733000000000 
P           0.333333000000000    0.666667000000000    0.550140000000000 
P           0.358443000000000    0.392319000000000    0.566262000000000 
P           0.495245000000000    0.336572000000000    0.259490000000000 
P           0.607681000000000    0.966124000000000    0.566262000000000 
P           0.663428000000000    0.158673000000000    0.259490000000000 
P           0.666667000000000    0.333333000000000    0.072479000000000 
P           0.776870000000000    0.007335000000000    0.548733000000000 
P           0.788275000000000    0.994166000000000    0.784336000000000 
P           0.841327000000000    0.504755000000000    0.259490000000000 
P           0.992665000000000    0.769534000000000    0.548733000000000 
K           0.102351000000000    0.440261000000000    0.918233000000000 
K           0.337910000000000    0.897649000000000    0.918233000000000 
K           0.559739000000000    0.662090000000000    0.918233000000000 
K           0.666667000000000    0.333333000000000    0.528873000000000 
%ENDBLOCK POSITIONS_FRAC
