# Cell file generated by matador (Matthew Evans 2016)

%BLOCK LATTICE_CART
7.41628 0.0 0.0
0.0 7.41628 0.0
0.0 0.0 9.40879
%ENDBLOCK LATTICE_CART

%BLOCK POSITIONS_FRAC
P           0.000000000000000    0.000000000000000    0.250000000000000 
P           0.000000000000000    0.000000000000000    0.750000000000000 
P           0.312767000000000    0.381334000000000    0.378736000000000 
P           0.312767000000000    0.618666000000000    0.878736000000000 
P           0.381334000000000    0.312767000000000    0.121264000000000 
P           0.381334000000000    0.687233000000000    0.621264000000000 
P           0.618666000000000    0.312767000000000    0.621264000000000 
P           0.618666000000000    0.687233000000000    0.121264000000000 
P           0.687233000000000    0.381334000000000    0.878736000000000 
P           0.687233000000000    0.618666000000000    0.378736000000000 
K           0.000000000000000    0.000000000000000    0.000000000000000 
K           0.000000000000000    0.000000000000000    0.500000000000000 
K           0.500000000000000    0.500000000000000    0.000000000000000 
K           0.500000000000000    0.500000000000000    0.250000000000000 
K           0.500000000000000    0.500000000000000    0.500000000000000 
K           0.500000000000000    0.500000000000000    0.750000000000000 
%ENDBLOCK POSITIONS_FRAC
