# Cell file generated by matador (Matthew Evans 2016)

%BLOCK LATTICE_CART
8.53286 0.0 0.0
-4.26643 7.38967 0.0
0.0 0.0 7.80895
%ENDBLOCK LATTICE_CART

%BLOCK POSITIONS_FRAC
P           0.000000000000000    0.000000000000000    0.140496000000000 
P           0.000000000000000    0.000000000000000    0.859504000000000 
K           0.205510000000000    0.411019000000000    0.293282000000000 
K           0.205510000000000    0.411019000000000    0.706718000000000 
K           0.205510000000000    0.794490000000000    0.293282000000000 
K           0.205510000000000    0.794490000000000    0.706718000000000 
K           0.333333000000000    0.666667000000000    0.500000000000000 
K           0.411019000000000    0.205510000000000    0.293282000000000 
K           0.411019000000000    0.205510000000000    0.706718000000000 
K           0.588981000000000    0.794490000000000    0.293282000000000 
K           0.588981000000000    0.794490000000000    0.706718000000000 
K           0.666667000000000    0.333333000000000    0.500000000000000 
K           0.794490000000000    0.205510000000000    0.293282000000000 
K           0.794490000000000    0.205510000000000    0.706718000000000 
K           0.794490000000000    0.588981000000000    0.293282000000000 
K           0.794490000000000    0.588981000000000    0.706718000000000 
%ENDBLOCK POSITIONS_FRAC
