# Cell file generated by matador (Matthew Evans 2016)

%BLOCK LATTICE_CART
7.11812 0.0 0.0
-3.55906 6.16447 0.0
0.0 0.0 9.78638
%ENDBLOCK LATTICE_CART

%BLOCK POSITIONS_FRAC
P          -0.000000000000000    0.000000000000000    0.266957000000000 
P          -0.000000000000000    0.000000000000000    0.447998000000000 
P          -0.000000000000000    0.000000000000000    0.555984000000000 
P           0.333333000000000    0.666667000000000    0.114664000000000 
P           0.333333000000000    0.666667000000000    0.222651000000000 
P           0.333333000000000    0.666667000000000    0.933624000000000 
P           0.666667000000000    0.333333000000000    0.600290000000000 
P           0.666667000000000    0.333333000000000    0.781331000000000 
P           0.666667000000000    0.333333000000000    0.889318000000000 
K          -0.000000000000000    0.000000000000000    0.033148000000000 
K           0.333333000000000    0.666667000000000    0.699815000000000 
K           0.666667000000000    0.333333000000000    0.366482000000000 
%ENDBLOCK POSITIONS_FRAC
