# Cell file generated by matador (Matthew Evans 2016)

%BLOCK LATTICE_CART
6.66775 0.0 0.0
0.0 6.66775 0.0
0.0 0.0 6.66775
%ENDBLOCK LATTICE_CART

%BLOCK POSITIONS_FRAC
P           0.000000000000000    0.500000000000000    0.500000000000000 
P           0.077692000000000    0.077692000000000    0.922308000000000 
P           0.077692000000000    0.922308000000000    0.077692000000000 
P           0.500000000000000    0.000000000000000    0.500000000000000 
P           0.500000000000000    0.500000000000000    0.000000000000000 
P           0.922308000000000    0.077692000000000    0.077692000000000 
P           0.922308000000000    0.922308000000000    0.922308000000000 
K           0.000000000000000    0.000000000000000    0.500000000000000 
K           0.000000000000000    0.500000000000000    0.000000000000000 
K           0.500000000000000    0.000000000000000    0.000000000000000 
K           0.500000000000000    0.500000000000000    0.500000000000000 
%ENDBLOCK POSITIONS_FRAC
