# Cell file generated by matador (Matthew Evans 2016)

%BLOCK LATTICE_CART
10.0481 0.0 0.0
0.0 9.8469 0.0
0.0 0.0 5.82867
%ENDBLOCK LATTICE_CART

%BLOCK POSITIONS_FRAC
P           0.372258000000000    0.250000000000000    0.679849000000000 
P           0.372258000000000    0.750000000000000    0.179849000000000 
P           0.627742000000000    0.250000000000000    0.179849000000000 
P           0.627742000000000    0.750000000000000    0.679849000000000 
K           0.098177000000000    0.250000000000000    0.611249000000000 
K           0.098177000000000    0.750000000000000    0.111249000000000 
K           0.195982000000000    0.250000000000000    0.132591000000000 
K           0.195982000000000    0.750000000000000    0.632591000000000 
K           0.461565000000000    0.250000000000000    0.356612000000000 
K           0.461565000000000    0.750000000000000    0.856612000000000 
K           0.538435000000000    0.250000000000000    0.856612000000000 
K           0.538435000000000    0.750000000000000    0.356612000000000 
K           0.804018000000000    0.250000000000000    0.632591000000000 
K           0.804018000000000    0.750000000000000    0.132591000000000 
K           0.901823000000000    0.250000000000000    0.111249000000000 
K           0.901823000000000    0.750000000000000    0.611249000000000 
%ENDBLOCK POSITIONS_FRAC
