# Cell file generated by matador (Matthew Evans 2016)

%BLOCK LATTICE_CART
3.80322 0.0 0.0
0.0 11.7067 0.0
1.61079 0.0 9.25184
%ENDBLOCK LATTICE_CART

%BLOCK POSITIONS_FRAC
P           0.000000000000000    0.000000000000000    0.500000000000000 
P           0.369224000000000    0.318793000000000    0.468304000000000 
P           0.369224000000000    0.681207000000000    0.468304000000000 
P           0.500000000000000    0.136140000000000    0.000000000000000 
P           0.500000000000000    0.863860000000000    0.000000000000000 
P           0.630776000000000    0.318793000000000    0.531696000000000 
P           0.630776000000000    0.681207000000000    0.531696000000000 
K           0.168672000000000    0.206902000000000    0.185887000000000 
K           0.168672000000000    0.793098000000000    0.185887000000000 
K           0.500000000000000    0.135391000000000    0.500000000000000 
K           0.500000000000000    0.864609000000000    0.500000000000000 
K           0.831328000000000    0.206902000000000    0.814113000000000 
K           0.831328000000000    0.793098000000000    0.814113000000000 
%ENDBLOCK POSITIONS_FRAC
