# Cell file generated by matador (Matthew Evans 2016)

%BLOCK LATTICE_CART
6.89987 0.0 0.0
-3.44994 5.97546 0.0
0.0 0.0 8.80113
%ENDBLOCK LATTICE_CART

%BLOCK POSITIONS_FRAC
P          -0.000000000000000    0.000000000000000    0.561281000000000 
P          -0.000000000000000    0.000000000000000    0.954959000000000 
P           0.083144000000000    0.166287000000000    0.047842000000000 
P           0.083144000000000    0.916856000000000    0.047842000000000 
P           0.167046000000000    0.583523000000000    0.714509000000000 
P           0.333333000000000    0.666667000000000    0.227948000000000 
P           0.333333000000000    0.666667000000000    0.621626000000000 
P           0.416477000000000    0.583523000000000    0.714509000000000 
P           0.416477000000000    0.832954000000000    0.714509000000000 
P           0.500380000000000    0.250190000000000    0.381176000000000 
P           0.666667000000000    0.333333000000000    0.288292000000000 
P           0.666667000000000    0.333333000000000    0.894615000000000 
P           0.749810000000000    0.250190000000000    0.381176000000000 
P           0.749810000000000    0.499620000000000    0.381176000000000 
P           0.833713000000000    0.916856000000000    0.047842000000000 
K          -0.000000000000000    0.000000000000000    0.304338000000000 
K           0.333333000000000    0.666667000000000    0.971004000000000 
K           0.666667000000000    0.333333000000000    0.637671000000000 
%ENDBLOCK POSITIONS_FRAC
