# Cell file generated by matador (Matthew Evans 2016)

%BLOCK LATTICE_CART
6.40924 0.0 0.0
-3.05933 7.32004 0.0
1.06702 -0.791691 4.90411
%ENDBLOCK LATTICE_CART

%BLOCK POSITIONS_FRAC
P           0.322233000000000    0.827659000000000    0.853017000000000 
P           0.500000000000000    0.500000000000000    0.500000000000000 
P           0.677767000000000    0.172341000000000    0.146983000000000 
K           0.000000000000000    0.000000000000000    0.000000000000000 
K           0.000000000000000    0.000000000000000    0.500000000000000 
K           0.000000000000000    0.500000000000000    0.000000000000000 
K           0.500000000000000    0.500000000000000    0.000000000000000 
%ENDBLOCK POSITIONS_FRAC
