# Cell file generated by matador (Matthew Evans 2016)

%BLOCK LATTICE_CART
8.31313 0.0 0.0
0.0 8.31313 0.0
0.0 0.0 6.45463
%ENDBLOCK LATTICE_CART

%BLOCK POSITIONS_FRAC
P           0.000000000000000    0.000000000000000    0.174529000000000 
P           0.000000000000000    0.000000000000000    0.674529000000000 
P           0.500000000000000    0.500000000000000    0.174529000000000 
P           0.500000000000000    0.500000000000000    0.674529000000000 
K           0.226893000000000    0.273107000000000    0.922602000000000 
K           0.226893000000000    0.726893000000000    0.422602000000000 
K           0.273107000000000    0.226893000000000    0.422602000000000 
K           0.273107000000000    0.773107000000000    0.922602000000000 
K           0.726893000000000    0.226893000000000    0.922602000000000 
K           0.726893000000000    0.773107000000000    0.422602000000000 
K           0.773107000000000    0.273107000000000    0.422602000000000 
K           0.773107000000000    0.726893000000000    0.922602000000000 
%ENDBLOCK POSITIONS_FRAC
