# Cell file generated by matador (Matthew Evans 2016)

%BLOCK LATTICE_CART
6.59726 0.0 0.0
-3.29863 5.71339 0.0
0.0 0.0 10.3508
%ENDBLOCK LATTICE_CART

%BLOCK POSITIONS_FRAC
P           0.000000000000000    0.000000000000000    0.500000000000000 
P           0.049151000000000    0.524575000000000    0.000000000000000 
P           0.333333000000000    0.666667000000000    0.000000000000000 
P           0.475425000000000    0.524575000000000    0.000000000000000 
P           0.475425000000000    0.950849000000000    0.000000000000000 
K           0.340121000000000    0.016941000000000    0.500000000000000 
K           0.340121000000000    0.323180000000000    0.500000000000000 
K           0.676820000000000    0.016941000000000    0.500000000000000 
K           0.676820000000000    0.659879000000000    0.500000000000000 
K           0.983059000000000    0.323180000000000    0.500000000000000 
K           0.983059000000000    0.659879000000000    0.500000000000000 
%ENDBLOCK POSITIONS_FRAC
