# Cell file generated by matador (Matthew Evans 2016)

%BLOCK LATTICE_CART
9.15679 0.0 0.0
-4.5784 7.93002 0.0
0.0 0.0 5.58269
%ENDBLOCK LATTICE_CART

%BLOCK POSITIONS_FRAC
P           0.114866000000000    0.344768000000000    0.073534000000000 
P           0.114866000000000    0.770099000000000    0.073534000000000 
P           0.229903000000000    0.344768000000000    0.073534000000000 
P           0.229903000000000    0.885136000000000    0.073534000000000 
P           0.344768000000000    0.114866000000000    0.073534000000000 
P           0.344768000000000    0.229903000000000    0.073534000000000 
P           0.655234000000000    0.770099000000000    0.073534000000000 
P           0.655234000000000    0.885136000000000    0.073534000000000 
P           0.770099000000000    0.114866000000000    0.073534000000000 
P           0.770099000000000    0.655234000000000    0.073534000000000 
P           0.885136000000000    0.229903000000000    0.073534000000000 
P           0.885136000000000    0.655234000000000    0.073534000000000 
K           0.333334000000000    0.666668000000000    0.911695000000000 
K           0.666668000000000    0.333334000000000    0.911695000000000 
%ENDBLOCK POSITIONS_FRAC
