# Cell file generated by matador (Matthew Evans 2016)

%BLOCK LATTICE_CART
7.52168 0.0 0.0
0.0 7.52168 0.0
0.0 0.0 7.52168
%ENDBLOCK LATTICE_CART

%BLOCK POSITIONS_FRAC
P           0.000000000000000    0.000000000000000    0.000000000000000 
P           0.500000000000000    0.500000000000000    0.500000000000000 
K           0.000000000000000    0.164895000000000    0.333598000000000 
K           0.000000000000000    0.164895000000000    0.666402000000000 
K           0.000000000000000    0.835105000000000    0.333598000000000 
K           0.000000000000000    0.835105000000000    0.666402000000000 
K           0.164895000000000    0.333598000000000    0.000000000000000 
K           0.164895000000000    0.666402000000000    0.000000000000000 
K           0.333598000000000    0.000000000000000    0.164895000000000 
K           0.333598000000000    0.000000000000000    0.835105000000000 
K           0.666402000000000    0.000000000000000    0.164895000000000 
K           0.666402000000000    0.000000000000000    0.835105000000000 
K           0.835105000000000    0.333598000000000    0.000000000000000 
K           0.835105000000000    0.666402000000000    0.000000000000000 
%ENDBLOCK POSITIONS_FRAC
