# Cell file generated by matador (Matthew Evans 2016)

%BLOCK LATTICE_CART
8.38987 0.0 0.0
-4.19494 7.26584 0.0
0.0 0.0 5.55234
%ENDBLOCK LATTICE_CART

%BLOCK POSITIONS_FRAC
P           0.000000000000000    0.000000000000000    0.624209000000000 
P           0.112224000000000    0.556112000000000    0.678683000000000 
P           0.443888000000000    0.556112000000000    0.678683000000000 
P           0.443888000000000    0.887776000000000    0.678683000000000 
P           0.556112000000000    0.112224000000000    0.678683000000000 
P           0.556112000000000    0.443888000000000    0.678683000000000 
P           0.887776000000000    0.443888000000000    0.678683000000000 
K           0.000000000000000    0.500000000000000    0.180604000000000 
K           0.333333000000000    0.666667000000000    0.114653000000000 
K           0.500000000000000    0.000000000000000    0.180604000000000 
K           0.500000000000000    0.500000000000000    0.180604000000000 
K           0.666667000000000    0.333333000000000    0.114653000000000 
%ENDBLOCK POSITIONS_FRAC
