# Cell file generated by matador (Matthew Evans 2016)

%BLOCK LATTICE_CART
6.57832 0.0 0.0
0.0 6.57832 0.0
0.0 0.0 10.521
%ENDBLOCK LATTICE_CART

%BLOCK POSITIONS_FRAC
P           0.000000000000000    0.000000000000000    0.000000000000000 
P           0.000000000000000    0.000000000000000    0.500000000000000 
P           0.500000000000000    0.500000000000000    0.000000000000000 
K           0.096614000000000    0.299865000000000    0.500000000000000 
K           0.182684000000000    0.669452000000000    0.000000000000000 
K           0.299865000000000    0.903386000000000    0.500000000000000 
K           0.330548000000000    0.182684000000000    0.000000000000000 
K           0.500000000000000    0.500000000000000    0.500000000000000 
K           0.669452000000000    0.817316000000000    0.000000000000000 
K           0.700135000000000    0.096614000000000    0.500000000000000 
K           0.817316000000000    0.330548000000000    0.000000000000000 
K           0.903386000000000    0.700135000000000    0.500000000000000 
%ENDBLOCK POSITIONS_FRAC
