# Cell file generated by matador (Matthew Evans 2016)

%BLOCK LATTICE_CART
8.35226 0.0 0.0
-4.17613 7.23327 0.0
0.0 0.0 6.92891
%ENDBLOCK LATTICE_CART

%BLOCK POSITIONS_FRAC
P          -0.000000000000000   -0.000000000000000    0.392578000000000 
P          -0.000000000000000   -0.000000000000000    0.607422000000000 
P           0.333333000000000    0.666667000000000    0.076375000000000 
P           0.333333000000000    0.666667000000000    0.923625000000000 
P           0.519453000000000    0.183633000000000    0.460434000000000 
P           0.519453000000000    0.335819000000000    0.539566000000000 
P           0.664181000000000    0.183633000000000    0.539566000000000 
P           0.664181000000000    0.480547000000000    0.460434000000000 
P           0.666667000000000    0.333333000000000    0.123862000000000 
P           0.666667000000000    0.333333000000000    0.876138000000000 
P           0.816367000000000    0.335819000000000    0.460434000000000 
P           0.816367000000000    0.480547000000000    0.539566000000000 
K           0.121164000000000    0.242328000000000    0.000000000000000 
K           0.121164000000000    0.878836000000000    0.000000000000000 
K           0.757672000000000    0.878836000000000    0.000000000000000 
%ENDBLOCK POSITIONS_FRAC
