# Cell file generated by matador (Matthew Evans 2016)

%BLOCK LATTICE_CART
6.11772 0.0 0.0
-3.05886 5.2981 0.0
0.0 0.0 9.13246
%ENDBLOCK LATTICE_CART

%BLOCK POSITIONS_FRAC
P           0.000000000000000    0.000000000000000    0.000000000000000 
P           0.000000000000000    0.000000000000000    0.500000000000000 
P           0.000000000000000    0.313152000000000    0.500000000000000 
P           0.313152000000000    0.000000000000000    0.500000000000000 
P           0.686848000000000    0.686848000000000    0.500000000000000 
K           0.000000000000000    0.654344000000000    0.000000000000000 
K           0.333333000000000    0.666667000000000    0.175545000000000 
K           0.333333000000000    0.666667000000000    0.735494000000000 
K           0.345656000000000    0.345656000000000    0.000000000000000 
K           0.654344000000000    0.000000000000000    0.000000000000000 
K           0.666667000000000    0.333333000000000    0.264506000000000 
K           0.666667000000000    0.333333000000000    0.824455000000000 
%ENDBLOCK POSITIONS_FRAC
