# Cell file generated by matador (Matthew Evans 2016)

%BLOCK LATTICE_CART
9.28141 0.0 0.0
0.0 11.1379 0.0
0.0 0.0 11.93
%ENDBLOCK LATTICE_CART

%BLOCK POSITIONS_FRAC
P           0.000000000000000    0.361149000000000    0.000000000000000 
P           0.000000000000000    0.377528000000000    0.500000000000000 
P           0.000000000000000    0.622472000000000    0.500000000000000 
P           0.000000000000000    0.638851000000000    0.000000000000000 
P           0.500000000000000    0.122472000000000    0.000000000000000 
P           0.500000000000000    0.138851000000000    0.500000000000000 
P           0.500000000000000    0.861149000000000    0.500000000000000 
P           0.500000000000000    0.877528000000000    0.000000000000000 
K           0.000000000000000    0.196531000000000    0.208483000000000 
K           0.000000000000000    0.196531000000000    0.791517000000000 
K           0.000000000000000    0.803469000000000    0.208483000000000 
K           0.000000000000000    0.803469000000000    0.791517000000000 
K           0.217420000000000    0.331039000000000    0.500000000000000 
K           0.217420000000000    0.668961000000000    0.500000000000000 
K           0.241227000000000    0.000000000000000    0.213243000000000 
K           0.241227000000000    0.000000000000000    0.786757000000000 
K           0.258773000000000    0.500000000000000    0.286757000000000 
K           0.258773000000000    0.500000000000000    0.713243000000000 
K           0.282580000000000    0.168961000000000    0.000000000000000 
K           0.282580000000000    0.831039000000000    0.000000000000000 
K           0.500000000000000    0.303469000000000    0.291517000000000 
K           0.500000000000000    0.303469000000000    0.708483000000000 
K           0.500000000000000    0.696531000000000    0.291517000000000 
K           0.500000000000000    0.696531000000000    0.708483000000000 
K           0.717420000000000    0.168961000000000    0.000000000000000 
K           0.717420000000000    0.831039000000000    0.000000000000000 
K           0.741227000000000    0.500000000000000    0.286757000000000 
K           0.741227000000000    0.500000000000000    0.713243000000000 
K           0.758773000000000    0.000000000000000    0.213243000000000 
K           0.758773000000000    0.000000000000000    0.786757000000000 
K           0.782580000000000    0.331039000000000    0.500000000000000 
K           0.782580000000000    0.668961000000000    0.500000000000000 
%ENDBLOCK POSITIONS_FRAC
