# Cell file generated by matador (Matthew Evans 2016)

%BLOCK LATTICE_CART
7.13944 0.0 0.0
0.0 7.13944 0.0
0.0 0.0 4.13113
%ENDBLOCK LATTICE_CART

%BLOCK POSITIONS_FRAC
P           0.000000000000000    0.000000000000000    0.500000000000000 
P           0.000000000000000    0.500000000000000    0.000000000000000 
P           0.220778000000000    0.500000000000000    0.500000000000000 
P           0.500000000000000    0.000000000000000    0.000000000000000 
P           0.500000000000000    0.220778000000000    0.500000000000000 
P           0.500000000000000    0.779222000000000    0.500000000000000 
P           0.779222000000000    0.500000000000000    0.500000000000000 
K           0.500000000000000    0.500000000000000    0.500000000000000 
%ENDBLOCK POSITIONS_FRAC
