# Cell file generated by matador (Matthew Evans 2016)

%BLOCK LATTICE_CART
9.84402 0.0 0.0
0.0 9.84402 0.0
0.0 0.0 10.2929
%ENDBLOCK LATTICE_CART

%BLOCK POSITIONS_FRAC
P           0.000000000000000    0.000000000000000    0.000000000000000 
P           0.000000000000000    0.000000000000000    0.304428000000000 
P           0.000000000000000    0.000000000000000    0.695572000000000 
P           0.500000000000000    0.500000000000000    0.195572000000000 
P           0.500000000000000    0.500000000000000    0.500000000000000 
P           0.500000000000000    0.500000000000000    0.804428000000000 
K           0.000000000000000    0.000000000000000    0.500000000000000 
K           0.018503000000000    0.302839000000000    0.500000000000000 
K           0.163809000000000    0.166254000000000    0.000000000000000 
K           0.166254000000000    0.836191000000000    0.000000000000000 
K           0.197161000000000    0.481497000000000    0.000000000000000 
K           0.302839000000000    0.981497000000000    0.500000000000000 
K           0.333746000000000    0.336191000000000    0.500000000000000 
K           0.336191000000000    0.666254000000000    0.500000000000000 
K           0.481497000000000    0.802839000000000    0.000000000000000 
K           0.500000000000000    0.500000000000000    0.000000000000000 
K           0.518503000000000    0.197161000000000    0.000000000000000 
K           0.663809000000000    0.333746000000000    0.500000000000000 
K           0.666254000000000    0.663809000000000    0.500000000000000 
K           0.697161000000000    0.018503000000000    0.500000000000000 
K           0.802839000000000    0.518503000000000    0.000000000000000 
K           0.833746000000000    0.163809000000000    0.000000000000000 
K           0.836191000000000    0.833746000000000    0.000000000000000 
K           0.981497000000000    0.697161000000000    0.500000000000000 
%ENDBLOCK POSITIONS_FRAC
