# Cell file generated by matador (Matthew Evans 2016)

%BLOCK LATTICE_CART
5.63885 0.0 0.0
0.0 8.56386 0.0
0.0 0.0 12.1751
%ENDBLOCK LATTICE_CART

%BLOCK POSITIONS_FRAC
P           0.000000000000000    0.279498000000000    0.817220000000000 
P           0.000000000000000    0.720502000000000    0.817220000000000 
P           0.500000000000000    0.220502000000000    0.817220000000000 
P           0.500000000000000    0.779498000000000    0.817220000000000 
K           0.000000000000000    0.000000000000000    0.727715000000000 
K           0.000000000000000    0.320707000000000    0.294738000000000 
K           0.000000000000000    0.322964000000000    0.016446000000000 
K           0.000000000000000    0.500000000000000    0.530207000000000 
K           0.000000000000000    0.677036000000000    0.016446000000000 
K           0.000000000000000    0.679293000000000    0.294738000000000 
K           0.500000000000000    0.000000000000000    0.530207000000000 
K           0.500000000000000    0.177036000000000    0.016446000000000 
K           0.500000000000000    0.179293000000000    0.294738000000000 
K           0.500000000000000    0.500000000000000    0.727715000000000 
K           0.500000000000000    0.820707000000000    0.294738000000000 
K           0.500000000000000    0.822964000000000    0.016446000000000 
%ENDBLOCK POSITIONS_FRAC
