# Cell file generated by matador (Matthew Evans 2016)

%BLOCK LATTICE_CART
10.8897 0.0 0.0
0.0 10.8897 0.0
0.0 0.0 5.69908
%ENDBLOCK LATTICE_CART

%BLOCK POSITIONS_FRAC
P           0.279374000000000    0.433273000000000    0.660923000000000 
P           0.279374000000000    0.566727000000000    0.660923000000000 
P           0.433273000000000    0.279374000000000    0.660923000000000 
P           0.433273000000000    0.720626000000000    0.660923000000000 
P           0.566727000000000    0.279374000000000    0.660923000000000 
P           0.566727000000000    0.720626000000000    0.660923000000000 
P           0.720626000000000    0.433273000000000    0.660923000000000 
P           0.720626000000000    0.566727000000000    0.660923000000000 
K           0.000000000000000    0.500000000000000    0.074125000000000 
K           0.165376000000000    0.342312000000000    0.931928000000000 
K           0.165376000000000    0.657688000000000    0.931928000000000 
K           0.342312000000000    0.165376000000000    0.931928000000000 
K           0.342312000000000    0.834624000000000    0.931928000000000 
K           0.500000000000000    0.000000000000000    0.074125000000000 
K           0.657688000000000    0.165376000000000    0.931928000000000 
K           0.657688000000000    0.834624000000000    0.931928000000000 
K           0.834624000000000    0.342312000000000    0.931928000000000 
K           0.834624000000000    0.657688000000000    0.931928000000000 
%ENDBLOCK POSITIONS_FRAC
