# Cell file generated by matador (Matthew Evans 2016)

%BLOCK LATTICE_CART
7.07738 0.0 0.0
-3.53869 6.12919 0.0
0.0 0.0 9.62388
%ENDBLOCK LATTICE_CART

%BLOCK POSITIONS_FRAC
P           0.004622000000000    0.246777000000000    0.947686000000000 
P           0.063862000000000    0.435184000000000    0.105470000000000 
P           0.227827000000000    0.623049000000000    0.910583000000000 
P           0.242155000000000    0.995378000000000    0.947686000000000 
P           0.333333000000000    0.666667000000000    0.063856000000000 
P           0.371322000000000    0.936138000000000    0.105470000000000 
P           0.376951000000000    0.604778000000000    0.910583000000000 
P           0.395222000000000    0.772173000000000    0.910583000000000 
P           0.564816000000000    0.628678000000000    0.105470000000000 
P           0.753223000000000    0.757845000000000    0.947686000000000 
K           0.000000000000000    0.000000000000000    0.223878000000000 
K           0.362127000000000    0.307790000000000    0.816312000000000 
K           0.666667000000000    0.333333000000000    0.358452000000000 
K           0.692210000000000    0.054336000000000    0.816312000000000 
K           0.945664000000000    0.637873000000000    0.816312000000000 
%ENDBLOCK POSITIONS_FRAC
