# Cell file generated by matador (Matthew Evans 2016)

%BLOCK LATTICE_CART
6.89444 0.0 0.0
0.0 6.89444 0.0
0.0 0.0 6.89444
%ENDBLOCK LATTICE_CART

%BLOCK POSITIONS_FRAC
P           0.500000000000000    0.500000000000000    0.500000000000000 
K           0.000000000000000    0.000000000000000    0.500000000000000 
K           0.000000000000000    0.500000000000000    0.000000000000000 
K           0.196668000000000    0.196668000000000    0.803332000000000 
K           0.196668000000000    0.803332000000000    0.196668000000000 
K           0.500000000000000    0.000000000000000    0.000000000000000 
K           0.803332000000000    0.196668000000000    0.196668000000000 
K           0.803332000000000    0.803332000000000    0.803332000000000 
%ENDBLOCK POSITIONS_FRAC
