# Cell file generated by matador (Matthew Evans 2016)

%BLOCK LATTICE_CART
6.60234 0.0 0.0
0.0 6.35106 0.0
-3.10772 0.0 9.06295
%ENDBLOCK LATTICE_CART

%BLOCK POSITIONS_FRAC
P           0.000000000000000    0.147287000000000    0.500000000000000 
P           0.000000000000000    0.698051000000000    0.500000000000000 
P           0.174331000000000    0.412425000000000    0.229858000000000 
P           0.500000000000000    0.441047000000000    0.500000000000000 
P           0.825669000000000    0.412425000000000    0.770142000000000 
K           0.000000000000000    0.680733000000000    0.000000000000000 
K           0.246622000000000    0.757310000000000    0.702055000000000 
K           0.368985000000000    0.218133000000000    0.888863000000000 
K           0.500000000000000    0.053164000000000    0.500000000000000 
K           0.500000000000000    0.740910000000000    0.000000000000000 
K           0.631015000000000    0.218133000000000    0.111137000000000 
K           0.753378000000000    0.757310000000000    0.297945000000000 
%ENDBLOCK POSITIONS_FRAC
