# Cell file generated by matador (Matthew Evans 2016)

%BLOCK LATTICE_CART
8.75455 0.0 0.0
0.0 8.66833 0.0
0.0 0.0 5.22425
%ENDBLOCK LATTICE_CART

%BLOCK POSITIONS_FRAC
P           0.000000000000000    0.000000000000000    0.500000000000000 
P           0.000000000000000    0.500000000000000   -0.000000000000000 
P           0.000000000000000    0.500000000000000    0.500000000000000 
P           0.234091000000000    0.128282000000000    0.211666000000000 
P           0.234091000000000    0.128282000000000    0.788334000000000 
P           0.265909000000000    0.628282000000000    0.288334000000000 
P           0.265909000000000    0.628282000000000    0.711666000000000 
P           0.500000000000000    0.000000000000000   -0.000000000000000 
P           0.500000000000000    0.000000000000000    0.500000000000000 
P           0.500000000000000    0.500000000000000   -0.000000000000000 
P           0.734091000000000    0.371718000000000    0.288334000000000 
P           0.734091000000000    0.371718000000000    0.711666000000000 
P           0.765909000000000    0.871718000000000    0.211666000000000 
P           0.765909000000000    0.871718000000000    0.788334000000000 
K           0.000000000000000    0.000000000000000   -0.000000000000000 
K           0.500000000000000    0.500000000000000    0.500000000000000 
%ENDBLOCK POSITIONS_FRAC
