# Cell file generated by matador (Matthew Evans 2016)

%BLOCK LATTICE_CART
9.71108 0.0 0.0
-4.85554 8.41004 0.0
0.0 0.0 5.41775
%ENDBLOCK LATTICE_CART

%BLOCK POSITIONS_FRAC
P           0.000000000000000    0.500000000000000    0.000000000000000 
P           0.333333000000000    0.666667000000000    0.237200000000000 
P           0.333333000000000    0.666667000000000    0.762800000000000 
P           0.500000000000000    0.000000000000000    0.000000000000000 
P           0.500000000000000    0.500000000000000    0.000000000000000 
P           0.666667000000000    0.333333000000000    0.237200000000000 
P           0.666667000000000    0.333333000000000    0.762800000000000 
K           0.000000000000000    0.000000000000000    0.000000000000000 
K           0.000000000000000    0.000000000000000    0.500000000000000 
K           0.000000000000000    0.500000000000000    0.500000000000000 
K           0.500000000000000    0.000000000000000    0.500000000000000 
K           0.500000000000000    0.500000000000000    0.500000000000000 
%ENDBLOCK POSITIONS_FRAC
