# Cell file generated by matador (Matthew Evans 2016)

%BLOCK LATTICE_CART
3.28405 0.0 0.0
0.0 4.23824 0.0
1.54557 0.0 5.65632
%ENDBLOCK LATTICE_CART

%BLOCK POSITIONS_FRAC
P           0.645099000000000    0.000000000000000    0.788489000000000 
P           0.713655000000000    0.000000000000000    0.524573000000000 
P           0.824796000000000    0.500000000000000    0.311613000000000 
K           0.263825000000000    0.500000000000000    0.729579000000000 
%ENDBLOCK POSITIONS_FRAC
