# Cell file generated by matador (Matthew Evans 2016)

%BLOCK LATTICE_CART
5.63561 0.0 0.0
0.0 8.61198 0.0
1.51762 0.0 5.66198
%ENDBLOCK LATTICE_CART

%BLOCK POSITIONS_FRAC
P           0.118104000000000    0.504259000000000    0.039439000000000 
P           0.881896000000000    0.504259000000000    0.960561000000000 
K           0.000000000000000    0.900297000000000    0.000000000000000 
K           0.253926000000000    0.130644000000000    0.412789000000000 
K           0.321482000000000    0.552206000000000    0.660902000000000 
K           0.500000000000000    0.321575000000000    0.500000000000000 
K           0.678518000000000    0.552206000000000    0.339098000000000 
K           0.746074000000000    0.130644000000000    0.587211000000000 
%ENDBLOCK POSITIONS_FRAC
