# Cell file generated by matador (Matthew Evans 2016)

%BLOCK LATTICE_CART
6.14577 0.0 0.0
-3.07289 5.3224 0.0
0.0 0.0 10.3919
%ENDBLOCK LATTICE_CART

%BLOCK POSITIONS_FRAC
P           0.000000000000000    0.000000000000000    0.019784000000000 
P           0.333333000000000    0.666667000000000    0.816026000000000 
P           0.333333000000000    0.666667000000000    0.962018000000000 
P           0.666667000000000    0.333333000000000    0.222221000000000 
K           0.000000000000000    0.000000000000000    0.420768000000000 
K           0.333333000000000    0.666667000000000    0.376262000000000 
K           0.469324000000000    0.329849000000000    0.794295000000000 
K           0.666667000000000    0.333333000000000    0.451684000000000 
K           0.670151000000000    0.139475000000000    0.794295000000000 
K           0.860525000000000    0.530676000000000    0.794295000000000 
%ENDBLOCK POSITIONS_FRAC
