# Cell file generated by matador (Matthew Evans 2016)

%BLOCK LATTICE_CART
8.72342 0.0 0.0
0.0 10.0527 0.0
-1.8157 0.0 10.5672
%ENDBLOCK LATTICE_CART

%BLOCK POSITIONS_FRAC
P           0.288540000000000    0.211278000000000    0.785545000000000 
P           0.288540000000000    0.788722000000000    0.785545000000000 
P           0.311149000000000    0.000000000000000    0.696394000000000 
P           0.788540000000000    0.288722000000000    0.785545000000000 
P           0.788540000000000    0.711278000000000    0.785545000000000 
P           0.811149000000000    0.500000000000000    0.696394000000000 
K           0.009776000000000    0.000000000000000    0.929131000000000 
K           0.086344000000000    0.000000000000000    0.658757000000000 
K           0.096727000000000    0.000000000000000    0.381253000000000 
K           0.167005000000000    0.500000000000000    0.905318000000000 
K           0.242181000000000    0.500000000000000    0.644046000000000 
K           0.319530000000000    0.500000000000000    0.173625000000000 
K           0.330179000000000    0.000000000000000    0.886232000000000 
K           0.360540000000000    0.000000000000000    0.198127000000000 
K           0.431081000000000    0.000000000000000    0.482472000000000 
K           0.509776000000000    0.500000000000000    0.929131000000000 
K           0.586344000000000    0.500000000000000    0.658757000000000 
K           0.596727000000000    0.500000000000000    0.381253000000000 
K           0.667005000000000    0.000000000000000    0.905318000000000 
K           0.742181000000000    0.000000000000000    0.644046000000000 
K           0.819530000000000    0.000000000000000    0.173625000000000 
K           0.830179000000000    0.500000000000000    0.886232000000000 
K           0.860540000000000    0.500000000000000    0.198127000000000 
K           0.931081000000000    0.500000000000000    0.482472000000000 
%ENDBLOCK POSITIONS_FRAC
