# Cell file generated by matador (Matthew Evans 2016)

%BLOCK LATTICE_CART
7.99929 -0.0 0.0
-3.99965 6.92759 0.0
0.0 0.0 10.3091
%ENDBLOCK LATTICE_CART

%BLOCK POSITIONS_FRAC
P           0.999999000000000    0.999999000000000    0.099307000000000 
P           0.999999000000000    0.999999000000000    0.900693000000000 
P           0.999999000000000    0.499999000000000    0.000000000000000 
P           0.333332000000000    0.666666000000000    0.088884000000000 
P           0.333332000000000    0.666666000000000    0.911116000000000 
P           0.499999000000000    0.999999000000000    0.000000000000000 
P           0.499999000000000    0.499999000000000    0.000000000000000 
P           0.666666000000000    0.333332000000000    0.088884000000000 
P           0.666666000000000    0.333332000000000    0.911116000000000 
K           0.122271000000000    0.476249000000000    0.500000000000000 
K           0.353976000000000    0.877727000000000    0.500000000000000 
K           0.476249000000000    0.353976000000000    0.500000000000000 
K           0.523749000000000    0.646022000000000    0.500000000000000 
K           0.646022000000000    0.122271000000000    0.500000000000000 
K           0.877727000000000    0.523749000000000    0.500000000000000 
%ENDBLOCK POSITIONS_FRAC
