# Cell file generated by matador (Matthew Evans 2016)

%BLOCK LATTICE_CART
6.21342 0.0 0.0
0.0 6.21342 0.0
0.0 0.0 7.58358
%ENDBLOCK LATTICE_CART

%BLOCK POSITIONS_FRAC
P           0.000000000000000    0.000000000000000    0.083756000000000 
P           0.104265000000000    0.658748000000000    0.872907000000000 
P           0.341252000000000    0.104265000000000    0.872907000000000 
P           0.658748000000000    0.895735000000000    0.872907000000000 
P           0.895735000000000    0.341252000000000    0.872907000000000 
K           0.000000000000000    0.500000000000000    0.475640000000000 
K           0.207091000000000    0.471290000000000    0.158007000000000 
K           0.471290000000000    0.792909000000000    0.158007000000000 
K           0.500000000000000    0.000000000000000    0.475640000000000 
K           0.528710000000000    0.207091000000000    0.158007000000000 
K           0.792909000000000    0.528710000000000    0.158007000000000 
%ENDBLOCK POSITIONS_FRAC
