# Cell file generated by matador (Matthew Evans 2016)

%BLOCK LATTICE_CART
8.51491 0.0 0.0
-4.25746 7.37413 0.0
0.0 0.0 10.1977
%ENDBLOCK LATTICE_CART

%BLOCK POSITIONS_FRAC
P          -0.000000000000000   -0.000000000000000    0.807318000000000 
P           0.333333000000000    0.666667000000000    0.473985000000000 
P           0.666667000000000    0.333333000000000    0.140651000000000 
K          -0.000000000000000   -0.000000000000000    0.201990000000000 
K          -0.000000000000000   -0.000000000000000    0.555695000000000 
K           0.072628000000000    0.547150000000000    0.406998000000000 
K           0.119517000000000    0.858812000000000    0.740331000000000 
K           0.141188000000000    0.260705000000000    0.740331000000000 
K           0.333333000000000    0.666667000000000    0.222362000000000 
K           0.333333000000000    0.666667000000000    0.868657000000000 
K           0.405962000000000    0.213816000000000    0.073664000000000 
K           0.452850000000000    0.525479000000000    0.406998000000000 
K           0.474521000000000    0.927372000000000    0.406998000000000 
K           0.666667000000000    0.333333000000000    0.535324000000000 
K           0.666667000000000    0.333333000000000    0.889028000000000 
K           0.739295000000000    0.880483000000000    0.740331000000000 
K           0.786184000000000    0.192145000000000    0.073664000000000 
K           0.807855000000000    0.594038000000000    0.073664000000000 
%ENDBLOCK POSITIONS_FRAC
