# Cell file generated by matador (Matthew Evans 2016)

%BLOCK LATTICE_CART
5.57342 0.0 0.0
-2.78671 4.82672 0.0
0.0 0.0 7.85783
%ENDBLOCK LATTICE_CART

%BLOCK POSITIONS_FRAC
P           0.328509000000000    0.251523000000000    0.033405000000000 
P           0.333333000000000    0.666667000000000    0.192860000000000 
P           0.333333000000000    0.666667000000000    0.484188000000000 
P           0.748477000000000    0.076986000000000    0.033405000000000 
P           0.923014000000000    0.671491000000000    0.033405000000000 
K           0.000000000000000    0.000000000000000    0.243993000000000 
K           0.666667000000000    0.333333000000000    0.201215000000000 
%ENDBLOCK POSITIONS_FRAC
