# Cell file generated by matador (Matthew Evans 2016)

%BLOCK LATTICE_CART
11.0857 0.0 0.0
-5.54287 9.60053 0.0
0.0 0.0 3.77893
%ENDBLOCK LATTICE_CART

%BLOCK POSITIONS_FRAC
P           0.124064000000000    0.824485000000000    0.227050000000000 
P           0.124064000000000    0.824485000000000    0.772950000000000 
P           0.175515000000000    0.299580000000000    0.227050000000000 
P           0.175515000000000    0.299580000000000    0.772950000000000 
P           0.299580000000000    0.175515000000000    0.227050000000000 
P           0.299580000000000    0.175515000000000    0.772950000000000 
P           0.333333000000000    0.666667000000000    0.000000000000000 
P           0.666667000000000    0.333333000000000    0.000000000000000 
P           0.700420000000000    0.875936000000000    0.227050000000000 
P           0.700420000000000    0.875936000000000    0.772950000000000 
P           0.824485000000000    0.124064000000000    0.227050000000000 
P           0.824485000000000    0.124064000000000    0.772950000000000 
P           0.875936000000000    0.700420000000000    0.227050000000000 
P           0.875936000000000    0.700420000000000    0.772950000000000 
K           0.000000000000000    0.000000000000000    0.000000000000000 
K           0.000000000000000    0.000000000000000    0.500000000000000 
K           0.333333000000000    0.666667000000000    0.500000000000000 
K           0.666667000000000    0.333333000000000    0.500000000000000 
%ENDBLOCK POSITIONS_FRAC
