# Cell file generated by matador (Matthew Evans 2016)

%BLOCK LATTICE_CART
6.66111 0.0 0.0
0.0 7.67751 0.0
-0.535393 0.0 5.64913
%ENDBLOCK LATTICE_CART

%BLOCK POSITIONS_FRAC
P           0.000000000000000    0.000000000000000    0.000000000000000 
P           0.000000000000000    0.000000000000000    0.500000000000000 
P           0.500000000000000    0.000000000000000    0.000000000000000 
P           0.500000000000000    0.500000000000000    0.000000000000000 
P           0.500000000000000    0.500000000000000    0.500000000000000 
K           0.000000000000000    0.500000000000000    0.000000000000000 
K           0.000000000000000    0.500000000000000    0.500000000000000 
K           0.382092000000000    0.215313000000000    0.730632000000000 
K           0.382092000000000    0.784687000000000    0.730632000000000 
K           0.500000000000000    0.000000000000000    0.500000000000000 
K           0.617908000000000    0.215313000000000    0.269368000000000 
K           0.617908000000000    0.784687000000000    0.269368000000000 
%ENDBLOCK POSITIONS_FRAC
