# Cell file generated by matador (Matthew Evans 2016)

%BLOCK LATTICE_CART
7.96207 0.0 0.0
-3.98104 6.89536 0.0
0.0 0.0 6.64725
%ENDBLOCK LATTICE_CART

%BLOCK POSITIONS_FRAC
P           0.115359000000000    0.406251000000000    0.283321000000000 
P           0.115359000000000    0.709108000000000    0.216679000000000 
P           0.290892000000000    0.406251000000000    0.216679000000000 
P           0.290892000000000    0.884641000000000    0.283321000000000 
P           0.406251000000000    0.115359000000000    0.783321000000000 
P           0.406251000000000    0.290892000000000    0.716679000000000 
P           0.593749000000000    0.709108000000000    0.283321000000000 
P           0.593749000000000    0.884641000000000    0.216679000000000 
P           0.709108000000000    0.115359000000000    0.716679000000000 
P           0.709108000000000    0.593749000000000    0.783321000000000 
P           0.884641000000000    0.290892000000000    0.783321000000000 
P           0.884641000000000    0.593749000000000    0.716679000000000 
K           0.000000000000000    0.000000000000000    0.000000000000000 
K           0.000000000000000    0.000000000000000    0.500000000000000 
%ENDBLOCK POSITIONS_FRAC
