# Cell file generated by matador (Matthew Evans 2016)

%BLOCK LATTICE_CART
9.5254 0.0 0.0
0.0 11.2075 0.0
0.0 0.0 9.29271
%ENDBLOCK LATTICE_CART

%BLOCK POSITIONS_FRAC
P           0.000000000000000    0.000000000000000    0.998111000000000 
P           0.000000000000000    0.118402000000000    0.469129000000000 
P           0.000000000000000    0.381598000000000    0.969129000000000 
P           0.000000000000000    0.500000000000000    0.498111000000000 
P           0.000000000000000    0.618402000000000    0.969129000000000 
P           0.000000000000000    0.881598000000000    0.469129000000000 
K           0.000000000000000    0.129042000000000    0.755474000000000 
K           0.000000000000000    0.129261000000000    0.143401000000000 
K           0.000000000000000    0.370739000000000    0.643401000000000 
K           0.000000000000000    0.370958000000000    0.255474000000000 
K           0.000000000000000    0.629042000000000    0.255474000000000 
K           0.000000000000000    0.629261000000000    0.643401000000000 
K           0.000000000000000    0.870739000000000    0.143401000000000 
K           0.000000000000000    0.870958000000000    0.755474000000000 
K           0.191179000000000    0.000000000000000    0.377014000000000 
K           0.191179000000000    0.500000000000000    0.877014000000000 
K           0.236317000000000    0.000000000000000    0.898883000000000 
K           0.236317000000000    0.500000000000000    0.398883000000000 
K           0.500000000000000    0.000000000000000    0.440385000000000 
K           0.500000000000000    0.500000000000000    0.940385000000000 
K           0.763683000000000    0.000000000000000    0.898883000000000 
K           0.763683000000000    0.500000000000000    0.398883000000000 
K           0.808821000000000    0.000000000000000    0.377014000000000 
K           0.808821000000000    0.500000000000000    0.877014000000000 
%ENDBLOCK POSITIONS_FRAC
