# Cell file generated by matador (Matthew Evans 2016)

%BLOCK LATTICE_CART
5.82822 0.0 0.0
0.0 5.94969 0.0
-2.34851 0.0 12.4336
%ENDBLOCK LATTICE_CART

%BLOCK POSITIONS_FRAC
P           0.000000000000000    0.078731000000000    0.500000000000000 
P           0.073732000000000    0.889712000000000    0.217653000000000 
P           0.183633000000000    0.882484000000000    0.009235000000000 
P           0.247194000000000    0.550963000000000    0.389687000000000 
P           0.252806000000000    0.050963000000000    0.610313000000000 
P           0.316367000000000    0.382484000000000    0.990765000000000 
P           0.426268000000000    0.389712000000000    0.782347000000000 
P           0.500000000000000    0.578731000000000    0.500000000000000 
P           0.573732000000000    0.389712000000000    0.217653000000000 
P           0.683633000000000    0.382484000000000    0.009235000000000 
P           0.747194000000000    0.050963000000000    0.389687000000000 
P           0.752806000000000    0.550963000000000    0.610313000000000 
P           0.816367000000000    0.882484000000000    0.990765000000000 
P           0.926268000000000    0.889712000000000    0.782347000000000 
K           0.000000000000000    0.275296000000000    0.000000000000000 
K           0.000000000000000    0.443350000000000    0.500000000000000 
K           0.500000000000000    0.775296000000000    0.000000000000000 
K           0.500000000000000    0.943350000000000    0.500000000000000 
%ENDBLOCK POSITIONS_FRAC
