# Cell file generated by matador (Matthew Evans 2016)

%BLOCK LATTICE_CART
10.246 0.0 0.0
-5.12301 8.87331 0.0
0.0 0.0 6.43948
%ENDBLOCK LATTICE_CART

%BLOCK POSITIONS_FRAC
P           0.000000000000000    0.000000000000000    0.319160000000000 
P           0.333333000000000    0.666667000000000    0.985827000000000 
P           0.666667000000000    0.333333000000000    0.652494000000000 
K           0.000000000000000    0.000000000000000    0.908955000000000 
K           0.054102000000000    0.519291000000000    0.852588000000000 
K           0.131856000000000    0.279232000000000    0.185921000000000 
K           0.147375000000000    0.868144000000000    0.185921000000000 
K           0.333333000000000    0.666667000000000    0.575621000000000 
K           0.387435000000000    0.185958000000000    0.519254000000000 
K           0.465190000000000    0.945898000000000    0.852588000000000 
K           0.480709000000000    0.534810000000000    0.852588000000000 
K           0.666667000000000    0.333333000000000    0.242288000000000 
K           0.720768000000000    0.852625000000000    0.185921000000000 
K           0.798523000000000    0.612565000000000    0.519254000000000 
K           0.814042000000000    0.201477000000000    0.519254000000000 
%ENDBLOCK POSITIONS_FRAC
