# Cell file generated by matador (Matthew Evans 2016)

%BLOCK LATTICE_CART
8.43112 0.0 0.0
-4.21556 7.30156 0.0
0.0 0.0 5.65921
%ENDBLOCK LATTICE_CART

%BLOCK POSITIONS_FRAC
P           0.333334000000000    0.666666000000000    0.110014000000000 
P           0.666668000000000    0.333332000000000    0.110014000000000 
K           0.000001000000000    0.231663000000000    0.969842000000000 
K           0.000001000000000    0.464858000000000    0.373240000000000 
K           0.231665000000000    0.999999000000000    0.969842000000000 
K           0.464860000000000    0.999999000000000    0.373240000000000 
K           0.535142000000000    0.535140000000000    0.373240000000000 
K           0.768337000000000    0.768335000000000    0.969842000000000 
%ENDBLOCK POSITIONS_FRAC
