# Cell file generated by matador (Matthew Evans 2016)

%BLOCK LATTICE_CART
6.05573 0.0 0.0
0.0 9.17505 0.0
0.0 0.0 5.70022
%ENDBLOCK LATTICE_CART

%BLOCK POSITIONS_FRAC
P           0.250000000000000    0.750000000000000    0.025240000000000 
P           0.750000000000000    0.250000000000000    0.974760000000000 
K           0.250000000000000    0.030184000000000    0.006384000000000 
K           0.250000000000000    0.250000000000000    0.482488000000000 
K           0.250000000000000    0.469816000000000    0.006384000000000 
K           0.750000000000000    0.530184000000000    0.993616000000000 
K           0.750000000000000    0.750000000000000    0.517512000000000 
K           0.750000000000000    0.969816000000000    0.993616000000000 
%ENDBLOCK POSITIONS_FRAC
