# Cell file generated by matador (Matthew Evans 2016)

%BLOCK LATTICE_CART
5.99105 0.0 0.0
0.0 5.99105 0.0
0.0 0.0 7.38157
%ENDBLOCK LATTICE_CART

%BLOCK POSITIONS_FRAC
P           0.092446000000000    0.320247000000000    0.467432000000000 
P           0.092446000000000    0.679753000000000    0.467432000000000 
P           0.320247000000000    0.092446000000000    0.967432000000000 
P           0.320247000000000    0.907554000000000    0.967432000000000 
P           0.679753000000000    0.092446000000000    0.967432000000000 
P           0.679753000000000    0.907554000000000    0.967432000000000 
P           0.907554000000000    0.320247000000000    0.467432000000000 
P           0.907554000000000    0.679753000000000    0.467432000000000 
K           0.000000000000000    0.500000000000000    0.077417000000000 
K           0.500000000000000    0.000000000000000    0.577417000000000 
%ENDBLOCK POSITIONS_FRAC
