# Cell file generated by matador (Matthew Evans 2016)

%BLOCK LATTICE_CART
4.52782 0.0 0.0
0.0 13.6889 0.0
-0.785765 0.0 7.21854
%ENDBLOCK LATTICE_CART

%BLOCK POSITIONS_FRAC
P           0.234818000000000    0.496123000000000    0.034730000000000 
P           0.252543000000000    0.367570000000000    0.323737000000000 
P           0.383931000000000    0.174274000000000    0.311854000000000 
P           0.384095000000000    0.608473000000000    0.941244000000000 
P           0.452192000000000    0.850021000000000    0.914817000000000 
P           0.547808000000000    0.850021000000000    0.085183000000000 
P           0.615905000000000    0.608473000000000    0.058756000000000 
P           0.616069000000000    0.174274000000000    0.688146000000000 
P           0.747457000000000    0.367570000000000    0.676263000000000 
P           0.765182000000000    0.496123000000000    0.965270000000000 
K           0.000000000000000    0.689884000000000    0.000000000000000 
K           0.000000000000000    0.845761000000000    0.500000000000000 
K           0.500000000000000    0.080036000000000    0.000000000000000 
K           0.500000000000000    0.751093000000000    0.500000000000000 
%ENDBLOCK POSITIONS_FRAC
