# Cell file generated by matador (Matthew Evans 2016)

%BLOCK LATTICE_CART
8.02544 0.0 0.0
0.0 7.77494 0.0
0.0 0.0 8.4407
%ENDBLOCK LATTICE_CART

%BLOCK POSITIONS_FRAC
P           0.085330000000000    0.263276000000000    0.227958000000000 
P           0.085330000000000    0.736724000000000    0.772042000000000 
P           0.337697000000000    0.168370000000000    0.722616000000000 
P           0.337697000000000    0.831630000000000    0.277384000000000 
P           0.662303000000000    0.168370000000000    0.277384000000000 
P           0.662303000000000    0.831630000000000    0.722616000000000 
P           0.914670000000000    0.263276000000000    0.772042000000000 
P           0.914670000000000    0.736724000000000    0.227958000000000 
K           0.000000000000000    0.000000000000000    0.500000000000000 
K           0.000000000000000    0.500000000000000    0.000000000000000 
K           0.000000000000000    0.500000000000000    0.500000000000000 
K           0.439651000000000    0.291185000000000    0.196388000000000 
K           0.439651000000000    0.708815000000000    0.803612000000000 
K           0.500000000000000    0.500000000000000    0.500000000000000 
K           0.560349000000000    0.291185000000000    0.803612000000000 
K           0.560349000000000    0.708815000000000    0.196388000000000 
%ENDBLOCK POSITIONS_FRAC
