# Cell file generated by matador (Matthew Evans 2016)

%BLOCK LATTICE_CART
6.98414 0.0 0.0
-3.49207 6.04845 0.0
0.0 0.0 7.80495
%ENDBLOCK LATTICE_CART

%BLOCK POSITIONS_FRAC
P           0.000000000000000    0.000000000000000    0.249207000000000 
P           0.000000000000000    0.000000000000000    0.750793000000000 
P           0.169691000000000    0.358227000000000    0.965107000000000 
P           0.188536000000000    0.830309000000000    0.965107000000000 
P           0.333333000000000    0.666667000000000    0.593144000000000 
P           0.358227000000000    0.169691000000000    0.034893000000000 
P           0.641773000000000    0.811464000000000    0.965107000000000 
P           0.666667000000000    0.333333000000000    0.406856000000000 
P           0.811464000000000    0.641773000000000    0.034893000000000 
P           0.830309000000000    0.188536000000000    0.034893000000000 
K           0.000000000000000    0.000000000000000    0.000000000000000 
K           0.000000000000000    0.509014000000000    0.000000000000000 
K           0.490986000000000    0.490986000000000    0.000000000000000 
K           0.509014000000000    0.000000000000000    0.000000000000000 
%ENDBLOCK POSITIONS_FRAC
