# Cell file generated by matador (Matthew Evans 2016)

%BLOCK LATTICE_CART
8.19307 0.0 0.0
0.0 8.19307 0.0
0.0 0.0 8.19307
%ENDBLOCK LATTICE_CART

%BLOCK POSITIONS_FRAC
P           0.157041000000000    0.500000000000000    0.500000000000000 
P           0.359063000000000    0.359063000000000    0.359063000000000 
P           0.359063000000000    0.359063000000000    0.640937000000000 
P           0.359063000000000    0.640937000000000    0.359063000000000 
P           0.359063000000000    0.640937000000000    0.640937000000000 
P           0.500000000000000    0.157041000000000    0.500000000000000 
P           0.500000000000000    0.500000000000000    0.157041000000000 
P           0.500000000000000    0.500000000000000    0.842959000000000 
P           0.500000000000000    0.842959000000000    0.500000000000000 
P           0.640937000000000    0.359063000000000    0.359063000000000 
P           0.640937000000000    0.359063000000000    0.640937000000000 
P           0.640937000000000    0.640937000000000    0.359063000000000 
P           0.640937000000000    0.640937000000000    0.640937000000000 
P           0.842959000000000    0.500000000000000    0.500000000000000 
K           0.000000000000000    0.000000000000000    0.000000000000000 
K           0.500000000000000    0.500000000000000    0.500000000000000 
%ENDBLOCK POSITIONS_FRAC
