# Cell file generated by matador (Matthew Evans 2016)

%BLOCK LATTICE_CART
6.80795 0.0 0.0
-3.18553 6.81658 0.0
2.05003 0.282244 6.78818
%ENDBLOCK LATTICE_CART

%BLOCK POSITIONS_FRAC
P           0.000000000000000    0.500000000000000    0.000000000000000 
P           0.334930000000000    0.169997000000000    0.419939000000000 
P           0.665070000000000    0.830003000000000    0.580061000000000 
K           0.000000000000000    0.000000000000000    0.000000000000000 
K           0.000000000000000    0.000000000000000    0.500000000000000 
K           0.000000000000000    0.500000000000000    0.500000000000000 
K           0.500000000000000    0.000000000000000    0.000000000000000 
K           0.500000000000000    0.500000000000000    0.000000000000000 
%ENDBLOCK POSITIONS_FRAC
