# Cell file generated by matador (Matthew Evans 2016)

%BLOCK LATTICE_CART
7.89934 0.0 0.0
-3.94967 6.84102 0.0
0.0 0.0 8.60935
%ENDBLOCK LATTICE_CART

%BLOCK POSITIONS_FRAC
P          -0.000000000000000   -0.000000000000000    0.000000000000000 
P          -0.000000000000000   -0.000000000000000    0.500000000000000 
P           0.200056000000000    0.400111000000000    0.250000000000000 
P           0.200056000000000    0.799944000000000    0.250000000000000 
P           0.400111000000000    0.200056000000000    0.750000000000000 
P           0.599889000000000    0.799944000000000    0.250000000000000 
P           0.799944000000000    0.200056000000000    0.750000000000000 
P           0.799944000000000    0.599889000000000    0.750000000000000 
K          -0.000000000000000    0.492421000000000    0.500000000000000 
K          -0.000000000000000    0.507579000000000    0.000000000000000 
K           0.492421000000000   -0.000000000000000    0.500000000000000 
K           0.492421000000000    0.492421000000000    0.000000000000000 
K           0.507579000000000   -0.000000000000000    0.000000000000000 
K           0.507579000000000    0.507579000000000    0.500000000000000 
%ENDBLOCK POSITIONS_FRAC
