# Cell file generated by matador (Matthew Evans 2016)

%BLOCK LATTICE_CART
7.4428 0.0 0.0
0.0 7.4428 0.0
0.0 0.0 7.4428
%ENDBLOCK LATTICE_CART

%BLOCK POSITIONS_FRAC
P           0.000000000000000    0.000000000000000    0.231284000000000 
P           0.000000000000000    0.000000000000000    0.768716000000000 
P           0.000000000000000    0.231284000000000    0.000000000000000 
P           0.000000000000000    0.768716000000000    0.000000000000000 
P           0.231284000000000    0.000000000000000    0.000000000000000 
P           0.247960000000000    0.500000000000000    0.500000000000000 
P           0.500000000000000    0.247960000000000    0.500000000000000 
P           0.500000000000000    0.500000000000000    0.247960000000000 
P           0.500000000000000    0.500000000000000    0.752040000000000 
P           0.500000000000000    0.752040000000000    0.500000000000000 
P           0.752040000000000    0.500000000000000    0.500000000000000 
P           0.768716000000000    0.000000000000000    0.000000000000000 
K           0.000000000000000    0.000000000000000    0.500000000000000 
K           0.000000000000000    0.500000000000000    0.000000000000000 
K           0.500000000000000    0.000000000000000    0.000000000000000 
%ENDBLOCK POSITIONS_FRAC
