# Cell file generated by matador (Matthew Evans 2016)

%BLOCK LATTICE_CART
5.85621 0.0 0.0
0.0 8.75608 0.0
2.57611 0.0 6.08085
%ENDBLOCK LATTICE_CART

%BLOCK POSITIONS_FRAC
P           0.000000000000000    0.336657000000000    0.500000000000000 
P           0.000000000000000    0.497210000000000    0.000000000000000 
P           0.265536000000000    0.234279000000000    0.227767000000000 
P           0.338394000000000    0.207329000000000    0.967749000000000 
P           0.492643000000000    0.329238000000000    0.894959000000000 
P           0.500000000000000    0.076486000000000    0.500000000000000 
P           0.500000000000000    0.379027000000000    0.500000000000000 
P           0.507357000000000    0.329238000000000    0.105041000000000 
P           0.661606000000000    0.207329000000000    0.032251000000000 
P           0.734464000000000    0.234279000000000    0.772233000000000 
K           0.000000000000000    0.793285000000000    0.000000000000000 
K           0.500000000000000    0.766768000000000    0.500000000000000 
%ENDBLOCK POSITIONS_FRAC
