# Cell file generated by matador (Matthew Evans 2016)

%BLOCK LATTICE_CART
8.54733 0.0 0.0
-4.27367 7.40221 0.0
0.0 0.0 4.96935
%ENDBLOCK LATTICE_CART

%BLOCK POSITIONS_FRAC
P           0.056415000000000    0.158376000000000    0.449450000000000 
P           0.061726000000000    0.567416000000000    0.595512000000000 
P           0.101962000000000    0.943585000000000    0.782783000000000 
P           0.163661000000000    0.626659000000000    0.092060000000000 
P           0.278976000000000    0.246589000000000    0.100868000000000 
P           0.373341000000000    0.537002000000000    0.758727000000000 
P           0.432584000000000    0.494311000000000    0.262179000000000 
P           0.462998000000000    0.836339000000000    0.425394000000000 
P           0.505689000000000    0.938274000000000    0.928845000000000 
P           0.753411000000000    0.032387000000000    0.767535000000000 
P           0.841624000000000    0.898038000000000    0.116117000000000 
P           0.967613000000000    0.721024000000000    0.434202000000000 
K           0.445071000000000    0.184759000000000    0.598242000000000 
K           0.739688000000000    0.554929000000000    0.931576000000000 
K           0.815241000000000    0.260312000000000    0.264909000000000 
%ENDBLOCK POSITIONS_FRAC
