# Cell file generated by matador (Matthew Evans 2016)

%BLOCK LATTICE_CART
7.53789 0.0 0.0
-3.76894 6.528 0.0
0.0 0.0 8.75609
%ENDBLOCK LATTICE_CART

%BLOCK POSITIONS_FRAC
P          -0.000000000000000   -0.000000000000000    0.500000000000000 
P           0.036441000000000    0.817720000000000    0.500000000000000 
P           0.182280000000000    0.218721000000000    0.500000000000000 
P           0.218721000000000    0.036441000000000    0.500000000000000 
P           0.781279000000000    0.963559000000000    0.500000000000000 
P           0.817720000000000    0.781279000000000    0.500000000000000 
P           0.963559000000000    0.182280000000000    0.500000000000000 
K          -0.000000000000000    0.500000000000000    0.000000000000000 
K          -0.000000000000000    0.500000000000000    0.500000000000000 
K           0.500000000000000   -0.000000000000000    0.000000000000000 
K           0.500000000000000   -0.000000000000000    0.500000000000000 
K           0.500000000000000    0.500000000000000    0.000000000000000 
K           0.500000000000000    0.500000000000000    0.500000000000000 
%ENDBLOCK POSITIONS_FRAC
