# Cell file generated by matador (Matthew Evans 2016)

%BLOCK LATTICE_CART
8.81702 0.0 0.0
-4.40851 7.63576 0.0
0.0 0.0 10.0086
%ENDBLOCK LATTICE_CART

%BLOCK POSITIONS_FRAC
P           0.000000000000000    0.000000000000000    0.166667000000000 
P           0.000000000000000    0.000000000000000    0.500000000000000 
P           0.000000000000000    0.000000000000000    0.833333000000000 
K           0.000000000000000    0.500000000000000    0.166667000000000 
K           0.170924000000000    0.585462000000000    0.666667000000000 
K           0.274948000000000    0.549897000000000    0.500000000000000 
K           0.274948000000000    0.725052000000000    0.833333000000000 
K           0.414538000000000    0.585462000000000    0.333333000000000 
K           0.414538000000000    0.829076000000000    0.000000000000000 
K           0.450103000000000    0.725052000000000    0.166667000000000 
K           0.500000000000000    0.000000000000000    0.500000000000000 
K           0.500000000000000    0.500000000000000    0.833333000000000 
K           0.549897000000000    0.274948000000000    0.166667000000000 
K           0.585462000000000    0.170924000000000    0.000000000000000 
K           0.585462000000000    0.414538000000000    0.333333000000000 
K           0.725052000000000    0.274948000000000    0.833333000000000 
K           0.725052000000000    0.450103000000000    0.500000000000000 
K           0.829076000000000    0.414538000000000    0.666667000000000 
%ENDBLOCK POSITIONS_FRAC
