# Cell file generated by matador (Matthew Evans 2016)

%BLOCK LATTICE_CART
5.54775 0.0 0.0
0.0 10.9457 0.0
0.0 0.0 10.7746
%ENDBLOCK LATTICE_CART

%BLOCK POSITIONS_FRAC
P           0.000000000000000    0.000000000000000    0.188456000000000 
P           0.000000000000000    0.000000000000000    0.688456000000000 
P           0.000000000000000    0.500000000000000    0.188456000000000 
P           0.000000000000000    0.500000000000000    0.688456000000000 
K           0.172150000000000    0.250000000000000    0.180848000000000 
K           0.172150000000000    0.750000000000000    0.680848000000000 
K           0.212537000000000    0.250000000000000    0.462566000000000 
K           0.212537000000000    0.750000000000000    0.962566000000000 
K           0.280874000000000    0.250000000000000    0.839766000000000 
K           0.280874000000000    0.750000000000000    0.339766000000000 
K           0.719126000000000    0.250000000000000    0.339766000000000 
K           0.719126000000000    0.750000000000000    0.839766000000000 
K           0.787463000000000    0.250000000000000    0.962566000000000 
K           0.787463000000000    0.750000000000000    0.462566000000000 
K           0.827850000000000    0.250000000000000    0.680848000000000 
K           0.827850000000000    0.750000000000000    0.180848000000000 
%ENDBLOCK POSITIONS_FRAC
