# Cell file generated by matador (Matthew Evans 2016)

%BLOCK LATTICE_CART
6.49233 0.0 0.0
-3.24617 5.62252 0.0
0.0 0.0 6.71813
%ENDBLOCK LATTICE_CART

%BLOCK POSITIONS_FRAC
P           0.333333000000000    0.666667000000000    0.136959000000000 
P           0.333333000000000    0.666667000000000    0.945489000000000 
P           0.666667000000000    0.333333000000000    0.136959000000000 
P           0.666667000000000    0.333333000000000    0.945489000000000 
K          -0.000000000000000    0.500000000000000    0.341165000000000 
K           0.500000000000000   -0.000000000000000    0.341165000000000 
K           0.500000000000000    0.500000000000000    0.341165000000000 
%ENDBLOCK POSITIONS_FRAC
