# Cell file generated by matador (Matthew Evans 2016)

%BLOCK LATTICE_CART
6.91692 0.0 0.0
0.0 5.40884 0.0
0.0 0.0 7.41129
%ENDBLOCK LATTICE_CART

%BLOCK POSITIONS_FRAC
P           0.000000000000000    0.000000000000000    0.500000000000000 
P           0.000000000000000    0.500000000000000    0.000000000000000 
P           0.500000000000000    0.000000000000000    0.000000000000000 
P           0.500000000000000    0.500000000000000    0.500000000000000 
K           0.000000000000000    0.025507000000000    0.862204000000000 
K           0.000000000000000    0.500000000000000    0.500000000000000 
K           0.000000000000000    0.974493000000000    0.137796000000000 
K           0.500000000000000    0.025507000000000    0.637796000000000 
K           0.500000000000000    0.500000000000000    0.000000000000000 
K           0.500000000000000    0.974493000000000    0.362204000000000 
%ENDBLOCK POSITIONS_FRAC
