# Cell file generated by matador (Matthew Evans 2016)

%BLOCK LATTICE_CART
7.01632 0.0 0.0
-3.50816 6.07631 0.0
0.0 0.0 8.11624
%ENDBLOCK LATTICE_CART

%BLOCK POSITIONS_FRAC
P           0.070999000000000    0.500802000000000    0.254165000000000 
P           0.096470000000000    0.262334000000000    0.587498000000000 
P           0.165864000000000    0.903530000000000    0.587498000000000 
P           0.404333000000000    0.167469000000000    0.920832000000000 
P           0.429803000000000    0.929001000000000    0.254165000000000 
P           0.499198000000000    0.570197000000000    0.254165000000000 
P           0.737666000000000    0.834136000000000    0.587498000000000 
P           0.763136000000000    0.595667000000000    0.920832000000000 
P           0.832531000000000    0.236864000000000    0.920832000000000 
K           0.000000000000000    0.000000000000000    0.832404000000000 
K           0.333333000000000    0.666667000000000    0.499070000000000 
K           0.666667000000000    0.333333000000000    0.165737000000000 
%ENDBLOCK POSITIONS_FRAC
