# Cell file generated by matador (Matthew Evans 2016)

%BLOCK LATTICE_CART
4.158 0.0 0.0
0.0 10.7525 0.0
0.0 0.0 9.64816
%ENDBLOCK LATTICE_CART

%BLOCK POSITIONS_FRAC
P           0.000000000000000    0.000000000000000    0.159425000000000 
P           0.000000000000000    0.000000000000000    0.340111000000000 
P           0.000000000000000    0.000000000000000    0.951365000000000 
P           0.029457000000000    0.835917000000000    0.497321000000000 
P           0.244619000000000    0.158674000000000    0.829094000000000 
P           0.255381000000000    0.658674000000000    0.170906000000000 
P           0.470543000000000    0.335917000000000    0.502679000000000 
P           0.500000000000000    0.500000000000000    0.048635000000000 
P           0.500000000000000    0.500000000000000    0.659889000000000 
P           0.500000000000000    0.500000000000000    0.840575000000000 
P           0.529457000000000    0.664083000000000    0.502679000000000 
P           0.744619000000000    0.341326000000000    0.170906000000000 
P           0.755381000000000    0.841326000000000    0.829094000000000 
P           0.970543000000000    0.164083000000000    0.497321000000000 
K           0.000000000000000    0.500000000000000    0.943637000000000 
K           0.500000000000000    0.000000000000000    0.056363000000000 
%ENDBLOCK POSITIONS_FRAC
