# Cell file generated by matador (Matthew Evans 2016)

%BLOCK LATTICE_CART
8.28898 0.0 0.0
-4.14449 7.17846 0.0
0.0 0.0 6.92091
%ENDBLOCK LATTICE_CART

%BLOCK POSITIONS_FRAC
P           0.000000000000000    0.000000000000000    0.294080000000000 
P           0.000000000000000    0.000000000000000    0.986271000000000 
P           0.000000000000000    0.500000000000000    0.270704000000000 
P           0.333333000000000    0.666667000000000    0.202302000000000 
P           0.500000000000000    0.000000000000000    0.270704000000000 
P           0.500000000000000    0.500000000000000    0.270704000000000 
P           0.666667000000000    0.333333000000000    0.202302000000000 
K           0.000000000000000    0.500000000000000    0.862517000000000 
K           0.333333000000000    0.666667000000000    0.677251000000000 
K           0.500000000000000    0.000000000000000    0.862517000000000 
K           0.500000000000000    0.500000000000000    0.862517000000000 
K           0.666667000000000    0.333333000000000    0.677251000000000 
%ENDBLOCK POSITIONS_FRAC
