# Cell file generated by matador (Matthew Evans 2016)

%BLOCK LATTICE_CART
10.487 0.0 0.0
-5.2435 9.08201 0.0
0.0 0.0 4.85064
%ENDBLOCK LATTICE_CART

%BLOCK POSITIONS_FRAC
P           0.000000000000000    0.000000000000000    0.389889000000000 
P           0.000000000000000    0.000000000000000    0.610111000000000 
K           0.000000000000000    0.594290000000000    0.500000000000000 
K           0.000000000000000    0.851726000000000    0.000000000000000 
K           0.070686000000000    0.282586000000000    0.175184000000000 
K           0.148274000000000    0.148274000000000    0.000000000000000 
K           0.211900000000000    0.929314000000000    0.175184000000000 
K           0.282586000000000    0.070686000000000    0.824816000000000 
K           0.405710000000000    0.405710000000000    0.500000000000000 
K           0.594290000000000    0.000000000000000    0.500000000000000 
K           0.717414000000000    0.788100000000000    0.175184000000000 
K           0.788100000000000    0.717414000000000    0.824816000000000 
K           0.851726000000000    0.000000000000000    0.000000000000000 
K           0.929314000000000    0.211900000000000    0.824816000000000 
%ENDBLOCK POSITIONS_FRAC
