# Cell file generated by matador (Matthew Evans 2016)

%BLOCK LATTICE_CART
6.05436 0.0 0.0
-3.02718 5.24323 0.0
0.0 0.0 8.04004
%ENDBLOCK LATTICE_CART

%BLOCK POSITIONS_FRAC
P           0.000000000000000    0.500000000000000    0.465705000000000 
P           0.333333000000000    0.666667000000000    0.220918000000000 
P           0.500000000000000    0.000000000000000    0.465705000000000 
P           0.500000000000000    0.500000000000000    0.465705000000000 
P           0.666667000000000    0.333333000000000    0.220918000000000 
K           0.000000000000000    0.500000000000000    0.027758000000000 
K           0.500000000000000    0.000000000000000    0.027758000000000 
K           0.500000000000000    0.500000000000000    0.027758000000000 
%ENDBLOCK POSITIONS_FRAC
