# Cell file generated by matador (Matthew Evans 2016)

%BLOCK LATTICE_CART
8.29118 0.0 0.0
-4.14559 7.18038 0.0
0.0 0.0 8.1369
%ENDBLOCK LATTICE_CART

%BLOCK POSITIONS_FRAC
P          -0.000000000000000   -0.000000000000000    0.068204000000000 
P          -0.000000000000000   -0.000000000000000    0.931796000000000 
P           0.048319000000000    0.096638000000000    0.582198000000000 
P           0.048319000000000    0.951681000000000    0.582198000000000 
P           0.096638000000000    0.048319000000000    0.417802000000000 
P           0.333333000000000    0.666667000000000    0.465576000000000 
P           0.666667000000000    0.333333000000000    0.534424000000000 
P           0.903362000000000    0.951681000000000    0.582198000000000 
P           0.951681000000000    0.048319000000000    0.417802000000000 
P           0.951681000000000    0.903362000000000    0.417802000000000 
K          -0.000000000000000    0.500000000000000    0.000000000000000 
K          -0.000000000000000    0.500000000000000    0.500000000000000 
K           0.500000000000000   -0.000000000000000    0.000000000000000 
K           0.500000000000000   -0.000000000000000    0.500000000000000 
K           0.500000000000000    0.500000000000000    0.000000000000000 
K           0.500000000000000    0.500000000000000    0.500000000000000 
%ENDBLOCK POSITIONS_FRAC
