# Cell file generated by matador (Matthew Evans 2016)

%BLOCK LATTICE_CART
7.13615 0.0 0.0
-3.56807 6.18008 0.0
0.0 0.0 10.4319
%ENDBLOCK LATTICE_CART

%BLOCK POSITIONS_FRAC
P           0.032056000000000    0.138311000000000    0.843015000000000 
P           0.032056000000000    0.893744000000000    0.656985000000000 
P           0.106254000000000    0.138311000000000    0.656985000000000 
P           0.106254000000000    0.967942000000000    0.843015000000000 
P           0.138311000000000    0.032056000000000    0.156985000000000 
P           0.138311000000000    0.106254000000000    0.343015000000000 
P           0.861687000000000    0.893744000000000    0.843015000000000 
P           0.861687000000000    0.967942000000000    0.656985000000000 
P           0.893744000000000    0.032056000000000    0.343015000000000 
P           0.893744000000000    0.861687000000000    0.156985000000000 
P           0.967942000000000    0.106254000000000    0.156985000000000 
P           0.967942000000000    0.861687000000000    0.343015000000000 
K           0.333332000000000    0.666666000000000    0.250000000000000 
K           0.666666000000000    0.333332000000000    0.750000000000000 
%ENDBLOCK POSITIONS_FRAC
