# Cell file generated by matador (Matthew Evans 2016)

%BLOCK LATTICE_CART
6.10281 0.0 0.0
-3.0514 5.28519 0.0
0.0 0.0 11.1424
%ENDBLOCK LATTICE_CART

%BLOCK POSITIONS_FRAC
P           0.000000000000000    0.000000000000000    0.409454000000000 
P           0.000000000000000    0.000000000000000    0.500000000000000 
P           0.000000000000000    0.000000000000000    0.590546000000000 
P           0.333333000000000    0.666667000000000    0.171854000000000 
P           0.333333000000000    0.666667000000000    0.828146000000000 
P           0.666667000000000    0.333333000000000    0.242337000000000 
P           0.666667000000000    0.333333000000000    0.757663000000000 
K           0.000000000000000    0.000000000000000    0.000000000000000 
K           0.333333000000000    0.666667000000000    0.000000000000000 
K           0.333333000000000    0.666667000000000    0.500000000000000 
K           0.666667000000000    0.333333000000000    0.000000000000000 
K           0.666667000000000    0.333333000000000    0.500000000000000 
%ENDBLOCK POSITIONS_FRAC
