# Cell file generated by matador (Matthew Evans 2016)

%BLOCK LATTICE_CART
5.23594 0.0 0.0
0.0 6.60266 0.0
-1.03372 0.0 5.26407
%ENDBLOCK LATTICE_CART

%BLOCK POSITIONS_FRAC
P           0.000000000000000    0.368830000000000    0.500000000000000 
P           0.010276000000000    0.379348000000000    0.733805000000000 
P           0.042555000000000    0.094817000000000    0.707286000000000 
P           0.500000000000000    0.418191000000000    0.000000000000000 
P           0.957445000000000    0.094817000000000    0.292714000000000 
P           0.989724000000000    0.379348000000000    0.266195000000000 
K           0.000000000000000    0.705925000000000    0.000000000000000 
%ENDBLOCK POSITIONS_FRAC
