# Cell file generated by matador (Matthew Evans 2016)

%BLOCK LATTICE_CART
6.66145 0.0 0.0
-3.33073 5.76899 0.0
0.0 0.0 12.9582
%ENDBLOCK LATTICE_CART

%BLOCK POSITIONS_FRAC
P           0.169106000000000    0.107275000000000    0.184703000000000 
P           0.226058000000000    0.728497000000000    0.851370000000000 
P           0.271503000000000    0.497561000000000    0.851370000000000 
P           0.502439000000000    0.773942000000000    0.851370000000000 
P           0.559392000000000    0.395164000000000    0.518037000000000 
P           0.604836000000000    0.164227000000000    0.518037000000000 
P           0.835773000000000    0.440608000000000    0.518037000000000 
P           0.892725000000000    0.061831000000000    0.184703000000000 
P           0.938169000000000    0.830894000000000    0.184703000000000 
K           0.000000000000000   -0.000000000000000    0.416351000000000 
K           0.000000000000000   -0.000000000000000    0.627128000000000 
K           0.000000000000000   -0.000000000000000    0.842359000000000 
K           0.333333000000000    0.666667000000000    0.083017000000000 
K           0.333333000000000    0.666667000000000    0.293795000000000 
K           0.333333000000000    0.666667000000000    0.509026000000000 
K           0.666667000000000    0.333333000000000    0.175692000000000 
K           0.666667000000000    0.333333000000000    0.749684000000000 
K           0.666667000000000    0.333333000000000    0.960462000000000 
%ENDBLOCK POSITIONS_FRAC
