# Cell file generated by matador (Matthew Evans 2016)

%BLOCK LATTICE_CART
11.4513 0.0 0.0
-5.72563 9.91709 0.0
0.0 0.0 8.73959
%ENDBLOCK LATTICE_CART

%BLOCK POSITIONS_FRAC
P           0.173653000000000    0.347307000000000    0.363109000000000 
P           0.173653000000000    0.826347000000000    0.363109000000000 
P           0.379478000000000    0.189740000000000    0.433401000000000 
P           0.652693000000000    0.826347000000000    0.363109000000000 
P           0.810260000000000    0.189740000000000    0.433401000000000 
P           0.810260000000000    0.620522000000000    0.433401000000000 
K           0.054732000000000    0.527366000000000    0.561222000000000 
K           0.105943000000000    0.552972000000000    0.035793000000000 
K           0.119811000000000    0.239622000000000    0.108518000000000 
K           0.119811000000000    0.880189000000000    0.108518000000000 
K           0.238199000000000    0.476399000000000    0.788736000000000 
K           0.238199000000000    0.761801000000000    0.788736000000000 
K           0.398168000000000    0.199084000000000    0.834988000000000 
K           0.447028000000000    0.552972000000000    0.035793000000000 
K           0.447028000000000    0.894057000000000    0.035793000000000 
K           0.461196000000000    0.230598000000000    0.192742000000000 
K           0.472634000000000    0.527366000000000    0.561222000000000 
K           0.472634000000000    0.945268000000000    0.561222000000000 
K           0.523601000000000    0.761801000000000    0.788736000000000 
K           0.760378000000000    0.880189000000000    0.108518000000000 
K           0.769402000000000    0.230598000000000    0.192742000000000 
K           0.769402000000000    0.538804000000000    0.192742000000000 
K           0.800916000000000    0.199084000000000    0.834988000000000 
K           0.800916000000000    0.601832000000000    0.834988000000000 
%ENDBLOCK POSITIONS_FRAC
