# Cell file generated by matador (Matthew Evans 2016)

%BLOCK LATTICE_CART
10.8353 -0.0 0.0
-5.41765 9.38365 0.0
0.0 0.0 9.66126
%ENDBLOCK LATTICE_CART

%BLOCK POSITIONS_FRAC
P           0.000000000000000    0.000000000000000    0.500000000000000 
P           0.126812000000000    0.686956000000000    0.500000000000000 
P           0.313044000000000    0.439856000000000    0.500000000000000 
P           0.560144000000000    0.873188000000000    0.500000000000000 
P           0.666667000000000    0.333333000000000    0.000000000000000 
P           0.666667000000000    0.333333000000000    0.500000000000000 
K           0.000000000000000    0.000000000000000    0.000000000000000 
K           0.023759000000000    0.556051000000000    0.000000000000000 
K           0.069097000000000    0.388815000000000    0.500000000000000 
K           0.133555000000000    0.310449000000000    0.000000000000000 
K           0.176894000000000    0.866445000000000    0.000000000000000 
K           0.319718000000000    0.930903000000000    0.500000000000000 
K           0.333333000000000    0.666667000000000    0.000000000000000 
K           0.333333000000000    0.666667000000000    0.500000000000000 
K           0.361004000000000    0.222313000000000    0.500000000000000 
K           0.403615000000000    0.177902000000000    0.000000000000000 
K           0.443949000000000    0.467708000000000    0.000000000000000 
K           0.532292000000000    0.976241000000000    0.000000000000000 
K           0.611185000000000    0.680282000000000    0.500000000000000 
K           0.689551000000000    0.823106000000000    0.000000000000000 
K           0.774287000000000    0.596385000000000    0.000000000000000 
K           0.777687000000000    0.138690000000000    0.500000000000000 
K           0.822098000000000    0.225713000000000    0.000000000000000 
K           0.861310000000000    0.638996000000000    0.500000000000000 
%ENDBLOCK POSITIONS_FRAC
