# Cell file generated by matador (Matthew Evans 2016)

%BLOCK LATTICE_CART
7.06804 0.0 0.0
-3.53402 6.12111 0.0
0.0 0.0 8.23706
%ENDBLOCK LATTICE_CART

%BLOCK POSITIONS_FRAC
P           0.000000000000000    0.000000000000000    0.141249000000000 
P           0.000000000000000    0.000000000000000    0.966737000000000 
P           0.040723000000000    0.909722000000000    0.725526000000000 
P           0.090278000000000    0.131001000000000    0.725526000000000 
P           0.868999000000000    0.959277000000000    0.725526000000000 
K           0.000000000000000    0.000000000000000    0.485164000000000 
K           0.190854000000000    0.441398000000000    0.276087000000000 
K           0.250544000000000    0.809146000000000    0.276087000000000 
K           0.333333000000000    0.666667000000000    0.568283000000000 
K           0.558602000000000    0.749456000000000    0.276087000000000 
K           0.666667000000000    0.333333000000000    0.283389000000000 
%ENDBLOCK POSITIONS_FRAC
