# Cell file generated by matador (Matthew Evans 2016)

%BLOCK LATTICE_CART
9.96589 0.0 0.0
-4.98294 8.63071 0.0
0.0 0.0 6.35854
%ENDBLOCK LATTICE_CART

%BLOCK POSITIONS_FRAC
P           0.181150000000000    0.603739000000000    0.764849000000000 
P           0.396263000000000    0.577413000000000    0.431515000000000 
P           0.422589000000000    0.818852000000000    0.098182000000000 
P           0.577413000000000    0.396263000000000    0.568484000000000 
P           0.603739000000000    0.181150000000000    0.235151000000000 
P           0.818852000000000    0.422589000000000    0.901818000000000 
K           0.000001000000000    0.651338000000000    0.833333000000000 
K           0.068399000000000    0.331725000000000    0.093007000000000 
K           0.263327000000000    0.931603000000000    0.426340000000000 
K           0.331725000000000    0.068399000000000    0.906992000000000 
K           0.348664000000000    0.348664000000000    0.500000000000000 
K           0.651338000000000    0.000001000000000    0.166667000000000 
K           0.668277000000000    0.736675000000000    0.759674000000000 
K           0.736675000000000    0.668277000000000    0.240326000000000 
K           0.931603000000000    0.263327000000000    0.573659000000000 
%ENDBLOCK POSITIONS_FRAC
