# Cell file generated by matador (Matthew Evans 2016)

%BLOCK LATTICE_CART
9.94485 0.0 0.0
0.0 9.94485 0.0
0.0 0.0 13.11
%ENDBLOCK LATTICE_CART

%BLOCK POSITIONS_FRAC
P          -0.000000000000000    0.203180000000000    0.000000000000000 
P          -0.000000000000000    0.796820000000000    0.000000000000000 
P           0.203180000000000   -0.000000000000000    0.000000000000000 
P           0.296820000000000    0.500000000000000    0.000000000000000 
P           0.500000000000000    0.296820000000000    0.000000000000000 
P           0.500000000000000    0.703180000000000    0.000000000000000 
P           0.703180000000000    0.500000000000000    0.000000000000000 
P           0.796820000000000   -0.000000000000000    0.000000000000000 
K          -0.000000000000000   -0.000000000000000    0.000000000000000 
K          -0.000000000000000   -0.000000000000000    0.500000000000000 
K           0.118424000000000    0.381576000000000    0.819870000000000 
K           0.118424000000000    0.618424000000000    0.180130000000000 
K           0.169917000000000    0.330083000000000    0.423995000000000 
K           0.169917000000000    0.669917000000000    0.576005000000000 
K           0.250000000000000    0.250000000000000    0.000000000000000 
K           0.250000000000000    0.750000000000000    0.000000000000000 
K           0.330083000000000    0.169917000000000    0.576005000000000 
K           0.330083000000000    0.830083000000000    0.423995000000000 
K           0.381576000000000    0.118424000000000    0.180130000000000 
K           0.381576000000000    0.881576000000000    0.819870000000000 
K           0.500000000000000    0.500000000000000    0.000000000000000 
K           0.500000000000000    0.500000000000000    0.500000000000000 
K           0.618424000000000    0.118424000000000    0.819870000000000 
K           0.618424000000000    0.881576000000000    0.180130000000000 
K           0.669917000000000    0.169917000000000    0.423995000000000 
K           0.669917000000000    0.830083000000000    0.576005000000000 
K           0.750000000000000    0.250000000000000    0.000000000000000 
K           0.750000000000000    0.750000000000000    0.000000000000000 
K           0.830083000000000    0.330083000000000    0.576005000000000 
K           0.830083000000000    0.669917000000000    0.423995000000000 
K           0.881576000000000    0.381576000000000    0.180130000000000 
K           0.881576000000000    0.618424000000000    0.819870000000000 
%ENDBLOCK POSITIONS_FRAC
