# Cell file generated by matador (Matthew Evans 2016)

%BLOCK LATTICE_CART
7.16496 0.0 0.0
-3.58248 6.20503 0.0
0.0 0.0 9.09258
%ENDBLOCK LATTICE_CART

%BLOCK POSITIONS_FRAC
P          -0.000000000000000    0.000000000000000    0.112774000000000 
P          -0.000000000000000    0.000000000000000    0.433187000000000 
P          -0.000000000000000    0.000000000000000    0.612774000000000 
P          -0.000000000000000    0.000000000000000    0.933187000000000 
P           0.154835000000000    0.407625000000000    0.838966000000000 
P           0.252789000000000    0.845165000000000    0.838966000000000 
P           0.407624000000000    0.154836000000000    0.338966000000000 
P           0.592375000000000    0.747211000000000    0.838966000000000 
P           0.747210000000000    0.592376000000000    0.338966000000000 
P           0.845164000000000    0.252790000000000    0.338966000000000 
K           0.333333000000000    0.666667000000000    0.164464000000000 
K           0.666666000000000    0.333334000000000    0.664464000000000 
%ENDBLOCK POSITIONS_FRAC
