# Cell file generated by matador (Matthew Evans 2016)

%BLOCK LATTICE_CART
7.43947 0.0 0.0
0.0 7.43947 0.0
0.0 0.0 7.43947
%ENDBLOCK LATTICE_CART

%BLOCK POSITIONS_FRAC
P           0.268836000000000    0.500000000000000    0.500000000000000 
P           0.500000000000000    0.268836000000000    0.500000000000000 
P           0.500000000000000    0.500000000000000    0.268836000000000 
P           0.500000000000000    0.500000000000000    0.500000000000000 
P           0.500000000000000    0.500000000000000    0.731164000000000 
P           0.500000000000000    0.731164000000000    0.500000000000000 
P           0.731164000000000    0.500000000000000    0.500000000000000 
K           0.000000000000000    0.000000000000000    0.500000000000000 
K           0.000000000000000    0.500000000000000    0.000000000000000 
K           0.000000000000000    0.500000000000000    0.500000000000000 
K           0.500000000000000    0.000000000000000    0.000000000000000 
K           0.500000000000000    0.000000000000000    0.500000000000000 
K           0.500000000000000    0.500000000000000    0.000000000000000 
%ENDBLOCK POSITIONS_FRAC
