# Cell file generated by matador (Matthew Evans 2016)

%BLOCK LATTICE_CART
7.04298 0.0 0.0
0.0 10.3533 0.0
0.482733 0.0 7.52931
%ENDBLOCK LATTICE_CART

%BLOCK POSITIONS_FRAC
P           0.386047000000000    0.625252000000000    0.846492000000000 
P           0.613953000000000    0.625252000000000    0.153508000000000 
K           0.000000000000000    0.219663000000000    0.500000000000000 
K           0.000000000000000    0.535979000000000    0.500000000000000 
K           0.000000000000000    0.799907000000000    0.000000000000000 
K           0.168487000000000    0.144472000000000    0.710964000000000 
K           0.185350000000000    0.932793000000000    0.150936000000000 
K           0.190221000000000    0.495966000000000    0.995837000000000 
K           0.500000000000000    0.019066000000000    0.500000000000000 
K           0.500000000000000    0.467091000000000    0.000000000000000 
K           0.500000000000000    0.496489000000000    0.500000000000000 
K           0.809779000000000    0.495966000000000    0.004163000000000 
K           0.814650000000000    0.932793000000000    0.849064000000000 
K           0.831513000000000    0.144472000000000    0.289036000000000 
%ENDBLOCK POSITIONS_FRAC
