# Cell file generated by matador (Matthew Evans 2016)

%BLOCK LATTICE_CART
6.08416 0.0 0.0
-3.04208 5.26904 0.0
0.0 0.0 4.67907
%ENDBLOCK LATTICE_CART

%BLOCK POSITIONS_FRAC
P           0.000000000000000    0.000000000000000    0.500000000000000 
P           0.333333000000000    0.666667000000000    0.188906000000000 
P           0.333333000000000    0.666667000000000    0.840915000000000 
P           0.666667000000000    0.333333000000000    0.159085000000000 
P           0.666667000000000    0.333333000000000    0.811094000000000 
K           0.000000000000000    0.000000000000000    0.000000000000000 
%ENDBLOCK POSITIONS_FRAC
