# Cell file generated by matador (Matthew Evans 2016)

%BLOCK LATTICE_CART
5.30773 0.0 0.0
0.0 7.56196 0.0
0.0 0.0 4.81309
%ENDBLOCK LATTICE_CART

%BLOCK POSITIONS_FRAC
P           0.000000000000000    0.000000000000000    0.178870000000000 
P           0.000000000000000    0.500000000000000    0.719535000000000 
P           0.250000000000000    0.287517000000000    0.402205000000000 
P           0.500000000000000    0.000000000000000    0.178870000000000 
P           0.500000000000000    0.500000000000000    0.719535000000000 
P           0.750000000000000    0.712483000000000    0.402205000000000 
K           0.250000000000000    0.685941000000000    0.594598000000000 
K           0.750000000000000    0.314059000000000    0.594598000000000 
%ENDBLOCK POSITIONS_FRAC
