# Cell file generated by matador (Matthew Evans 2016)

%BLOCK LATTICE_CART
5.79403 0.0 0.0
0.0 5.79403 0.0
0.0 0.0 9.55384
%ENDBLOCK LATTICE_CART

%BLOCK POSITIONS_FRAC
P           0.000000000000000    0.500000000000000    0.104768000000000 
P           0.000000000000000    0.500000000000000    0.895232000000000 
P           0.154817000000000    0.500000000000000    0.000000000000000 
P           0.242227000000000    0.500000000000000    0.500000000000000 
P           0.500000000000000    0.000000000000000    0.104768000000000 
P           0.500000000000000    0.000000000000000    0.895232000000000 
P           0.500000000000000    0.154817000000000    0.000000000000000 
P           0.500000000000000    0.242227000000000    0.500000000000000 
P           0.500000000000000    0.757773000000000    0.500000000000000 
P           0.500000000000000    0.845183000000000    0.000000000000000 
P           0.757773000000000    0.500000000000000    0.500000000000000 
P           0.845183000000000    0.500000000000000    0.000000000000000 
K           0.000000000000000    0.000000000000000    0.000000000000000 
K           0.000000000000000    0.000000000000000    0.500000000000000 
K           0.500000000000000    0.500000000000000    0.000000000000000 
%ENDBLOCK POSITIONS_FRAC
