# Cell file generated by matador (Matthew Evans 2016)

%BLOCK LATTICE_CART
4.58985 0.0 0.0
0.0 7.50307 0.0
2.0762 0.0 8.44296
%ENDBLOCK LATTICE_CART

%BLOCK POSITIONS_FRAC
P           0.025204000000000    0.000000000000000    0.304651000000000 
P           0.358061000000000    0.154739000000000    0.662215000000000 
P           0.358061000000000    0.845261000000000    0.662215000000000 
P           0.502164000000000    0.313259000000000    0.692059000000000 
P           0.502164000000000    0.686741000000000    0.692059000000000 
P           0.570684000000000    0.500000000000000    0.514807000000000 
P           0.729008000000000    0.000000000000000    0.483280000000000 
K           0.058577000000000    0.500000000000000    0.299648000000000 
K           0.442606000000000    0.186448000000000    0.384705000000000 
K           0.442606000000000    0.813552000000000    0.384705000000000 
K           0.827612000000000    0.500000000000000    0.720391000000000 
%ENDBLOCK POSITIONS_FRAC
