# Cell file generated by matador (Matthew Evans 2016)

%BLOCK LATTICE_CART
5.75642 0.0 0.0
0.0 5.75642 0.0
0.0 0.0 7.05303
%ENDBLOCK LATTICE_CART

%BLOCK POSITIONS_FRAC
P           0.000000000000000    0.000000000000000    0.925989000000000 
P           0.161110000000000    0.673888000000000    0.753841000000000 
P           0.326112000000000    0.161110000000000    0.753841000000000 
P           0.500000000000000    0.500000000000000    0.585801000000000 
P           0.500000000000000    0.500000000000000    0.963000000000000 
P           0.673888000000000    0.838890000000000    0.753841000000000 
P           0.838890000000000    0.326112000000000    0.753841000000000 
K           0.000000000000000    0.500000000000000    0.964637000000000 
K           0.500000000000000    0.000000000000000    0.964637000000000 
%ENDBLOCK POSITIONS_FRAC
