# Cell file generated by matador (Matthew Evans 2016)

%BLOCK LATTICE_CART
8.32075 0.0 0.0
0.0 8.32075 0.0
0.0 0.0 8.32075
%ENDBLOCK LATTICE_CART

%BLOCK POSITIONS_FRAC
P           0.175901000000000    0.175901000000000    0.175901000000000 
P           0.175901000000000    0.175901000000000    0.824099000000000 
P           0.175901000000000    0.824099000000000    0.175901000000000 
P           0.175901000000000    0.824099000000000    0.824099000000000 
P           0.500000000000000    0.500000000000000    0.500000000000000 
P           0.824099000000000    0.175901000000000    0.175901000000000 
P           0.824099000000000    0.175901000000000    0.824099000000000 
P           0.824099000000000    0.824099000000000    0.175901000000000 
P           0.824099000000000    0.824099000000000    0.824099000000000 
K           0.000000000000000    0.000000000000000    0.500000000000000 
K           0.000000000000000    0.500000000000000    0.000000000000000 
K           0.000000000000000    0.500000000000000    0.500000000000000 
K           0.500000000000000    0.000000000000000    0.000000000000000 
K           0.500000000000000    0.000000000000000    0.500000000000000 
K           0.500000000000000    0.500000000000000    0.000000000000000 
%ENDBLOCK POSITIONS_FRAC
