# Cell file generated by matador (Matthew Evans 2016)

%BLOCK LATTICE_CART
7.76776 0.0 0.0
-3.88388 6.72708 0.0
0.0 0.0 5.87175
%ENDBLOCK LATTICE_CART

%BLOCK POSITIONS_FRAC
P           0.000000000000000    0.000000000000000    0.159515000000000 
P           0.000000000000000    0.000000000000000    0.340485000000000 
P           0.000000000000000    0.000000000000000    0.659515000000000 
P           0.000000000000000    0.000000000000000    0.840485000000000 
K           0.044658000000000    0.583926000000000    0.250000000000000 
K           0.333333000000000    0.666667000000000    0.250000000000000 
K           0.416074000000000    0.460732000000000    0.250000000000000 
K           0.460732000000000    0.416074000000000    0.750000000000000 
K           0.539268000000000    0.955342000000000    0.250000000000000 
K           0.583926000000000    0.044658000000000    0.750000000000000 
K           0.666667000000000    0.333333000000000    0.750000000000000 
K           0.955342000000000    0.539268000000000    0.750000000000000 
%ENDBLOCK POSITIONS_FRAC
