# Cell file generated by matador (Matthew Evans 2016)

%BLOCK LATTICE_CART
5.85209 0.0 0.0
0.0 12.0194 0.0
4.50181 0.0 8.44806
%ENDBLOCK LATTICE_CART

%BLOCK POSITIONS_FRAC
P           0.000000000000000    0.000000000000000    0.500000000000000 
P           0.000000000000000    0.500000000000000    0.000000000000000 
P           0.031617000000000    0.039792000000000    0.588532000000000 
P           0.031617000000000    0.460208000000000    0.088532000000000 
P           0.454477000000000    0.195623000000000    0.186674000000000 
P           0.454477000000000    0.304377000000000    0.686674000000000 
P           0.500000000000000    0.000000000000000    0.000000000000000 
P           0.500000000000000    0.000000000000000    0.500000000000000 
P           0.500000000000000    0.500000000000000    0.000000000000000 
P           0.500000000000000    0.500000000000000    0.500000000000000 
P           0.545523000000000    0.695623000000000    0.313326000000000 
P           0.545523000000000    0.804377000000000    0.813326000000000 
P           0.968383000000000    0.539792000000000    0.911468000000000 
P           0.968383000000000    0.960208000000000    0.411468000000000 
K           0.312476000000000    0.711538000000000    0.997257000000000 
K           0.312476000000000    0.788462000000000    0.497257000000000 
K           0.687524000000000    0.211538000000000    0.502743000000000 
K           0.687524000000000    0.288462000000000    0.002743000000000 
%ENDBLOCK POSITIONS_FRAC
