# Cell file generated by matador (Matthew Evans 2016)

%BLOCK LATTICE_CART
9.16081 -0.0 0.0
-4.58041 7.9335 0.0
0.0 0.0 5.38838
%ENDBLOCK LATTICE_CART

%BLOCK POSITIONS_FRAC
P           0.000000000000000    0.000000000000000    0.023219000000000 
P           0.000000000000000    0.000000000000000    0.523219000000000 
K           0.067431000000000    0.445247000000000    0.105736000000000 
K           0.333333000000000    0.666667000000000    0.074498000000000 
K           0.377816000000000    0.932569000000000    0.105736000000000 
K           0.445247000000000    0.377816000000000    0.605736000000000 
K           0.554753000000000    0.622184000000000    0.105736000000000 
K           0.622184000000000    0.067431000000000    0.605736000000000 
K           0.666667000000000    0.333333000000000    0.574498000000000 
K           0.932569000000000    0.554753000000000    0.605736000000000 
%ENDBLOCK POSITIONS_FRAC
