# Cell file generated by matador (Matthew Evans 2016)

%BLOCK LATTICE_CART
7.56351 0.0 0.0
0.0 7.23904 0.0
0.0 0.0 14.3581
%ENDBLOCK LATTICE_CART

%BLOCK POSITIONS_FRAC
P           0.002451000000000    0.250000000000000    0.000000000000000 
P           0.250000000000000    0.109442000000000    0.000000000000000 
P           0.250000000000000    0.250000000000000    0.000000000000000 
P           0.250000000000000    0.390558000000000    0.000000000000000 
P           0.250000000000000    0.750000000000000    0.344634000000000 
P           0.250000000000000    0.750000000000000    0.655366000000000 
P           0.497549000000000    0.250000000000000    0.000000000000000 
P           0.502451000000000    0.750000000000000    0.000000000000000 
P           0.750000000000000    0.250000000000000    0.344634000000000 
P           0.750000000000000    0.250000000000000    0.655366000000000 
P           0.750000000000000    0.609442000000000    0.000000000000000 
P           0.750000000000000    0.750000000000000    0.000000000000000 
P           0.750000000000000    0.890558000000000    0.000000000000000 
P           0.997549000000000    0.750000000000000    0.000000000000000 
K           0.250000000000000    0.250000000000000    0.500000000000000 
K           0.250000000000000    0.750000000000000    0.000000000000000 
K           0.250000000000000    0.750000000000000    0.500000000000000 
K           0.750000000000000    0.250000000000000    0.000000000000000 
K           0.750000000000000    0.250000000000000    0.500000000000000 
K           0.750000000000000    0.750000000000000    0.500000000000000 
%ENDBLOCK POSITIONS_FRAC
