# Cell file generated by matador (Matthew Evans 2016)

%BLOCK LATTICE_CART
8.64107 0.0 0.0
-4.32053 7.48339 0.0
0.0 0.0 8.77409
%ENDBLOCK LATTICE_CART

%BLOCK POSITIONS_FRAC
P           0.000000000000000    0.000000000000000    0.292694000000000 
P           0.278550000000000    0.139275000000000    0.473849000000000 
P           0.860725000000000    0.139275000000000    0.473849000000000 
P           0.860725000000000    0.721450000000000    0.473849000000000 
K           0.077988000000000    0.538994000000000    0.125832000000000 
K           0.130842000000000    0.261685000000000    0.666320000000000 
K           0.130842000000000    0.869158000000000    0.666320000000000 
K           0.281409000000000    0.140704000000000    0.938627000000000 
K           0.461006000000000    0.538994000000000    0.125832000000000 
K           0.461006000000000    0.922012000000000    0.125832000000000 
K           0.512413000000000    0.024827000000000    0.467272000000000 
K           0.512413000000000    0.487587000000000    0.467272000000000 
K           0.738315000000000    0.869158000000000    0.666320000000000 
K           0.859296000000000    0.140704000000000    0.938627000000000 
K           0.859296000000000    0.718591000000000    0.938627000000000 
K           0.975173000000000    0.487587000000000    0.467272000000000 
%ENDBLOCK POSITIONS_FRAC
