# Cell file generated by matador (Matthew Evans 2016)

%BLOCK LATTICE_CART
8.06046 0.0 0.0
-4.03023 6.98056 0.0
0.0 0.0 4.33289
%ENDBLOCK LATTICE_CART

%BLOCK POSITIONS_FRAC
P           0.000000000000000    0.000000000000000    0.608512000000000 
K           0.333333000000000    0.666667000000000    0.976198000000000 
K           0.396604000000000    0.147177000000000    0.485753000000000 
K           0.666667000000000    0.333333000000000    0.913726000000000 
K           0.750572000000000    0.603396000000000    0.485753000000000 
K           0.852823000000000    0.249428000000000    0.485753000000000 
%ENDBLOCK POSITIONS_FRAC
