# Cell file generated by matador (Matthew Evans 2016)

%BLOCK LATTICE_CART
7.16249 0.0 0.0
0.0 6.48165 0.0
-1.92161 0.0 3.63038
%ENDBLOCK LATTICE_CART

%BLOCK POSITIONS_FRAC
P           0.000000000000000    0.235854000000000    0.500000000000000 
P           0.000000000000000    0.704864000000000    0.500000000000000 
P           0.345381000000000    0.253878000000000    0.607852000000000 
P           0.500000000000000    0.434312000000000   -0.000000000000000 
P           0.654619000000000    0.253878000000000    0.392148000000000 
K           0.335198000000000    0.792312000000000    0.607082000000000 
K           0.664802000000000    0.792312000000000    0.392918000000000 
%ENDBLOCK POSITIONS_FRAC
