# Cell file generated by matador (Matthew Evans 2016)

%BLOCK LATTICE_CART
10.7192 0.0 0.0
0.0 3.15988 0.0
-4.14264 0.0 10.0541
%ENDBLOCK LATTICE_CART

%BLOCK POSITIONS_FRAC
P           0.039199000000000    0.000000000000000    0.775755000000000 
P           0.289507000000000    0.000000000000000    0.177156000000000 
K           0.137326000000000    0.500000000000000    0.361901000000000 
K           0.266609000000000    0.500000000000000    0.782624000000000 
K           0.463265000000000    0.000000000000000    0.604481000000000 
K           0.478404000000000    0.500000000000000    0.343347000000000 
K           0.775049000000000    0.500000000000000    0.816374000000000 
K           0.821491000000000    0.500000000000000    0.236629000000000 
%ENDBLOCK POSITIONS_FRAC
