# Cell file generated by matador (Matthew Evans 2016)

%BLOCK LATTICE_CART
6.2599 0.0 0.0
0.0 8.70245 0.0
0.0 0.0 6.60059
%ENDBLOCK LATTICE_CART

%BLOCK POSITIONS_FRAC
P          -0.000000000000000    0.000000000000000    0.257585000000000 
P          -0.000000000000000    0.000000000000000    0.564369000000000 
P          -0.000000000000000    0.000000000000000    0.987028000000000 
P          -0.000000000000000    0.500000000000000    0.002800000000000 
P           0.166207000000000    0.423426000000000    0.484747000000000 
P           0.333793000000000    0.923426000000000    0.484747000000000 
P           0.500000000000000    0.000000000000000    0.002800000000000 
P           0.500000000000000    0.500000000000000    0.257585000000000 
P           0.500000000000000    0.500000000000000    0.564369000000000 
P           0.500000000000000    0.500000000000000    0.987028000000000 
P           0.666207000000000    0.076574000000000    0.484747000000000 
P           0.833793000000000    0.576574000000000    0.484747000000000 
K          -0.000000000000000    0.500000000000000    0.718423000000000 
K           0.500000000000000    0.000000000000000    0.718423000000000 
%ENDBLOCK POSITIONS_FRAC
