# Cell file generated by matador (Matthew Evans 2016)

%BLOCK LATTICE_CART
6.92626 0.0 0.0
-3.46313 5.99832 0.0
0.0 0.0 8.70005
%ENDBLOCK LATTICE_CART

%BLOCK POSITIONS_FRAC
P           0.000000000000000    0.000000000000000    0.257712000000000 
P           0.000000000000000    0.000000000000000    0.619058000000000 
P           0.000000000000000    0.000000000000000    0.845333000000000 
P           0.333333000000000    0.666667000000000    0.839891000000000 
P           0.666667000000000    0.333333000000000    0.839891000000000 
K           0.000000000000000    0.500000000000000    0.095658000000000 
K           0.000000000000000    0.500000000000000    0.458498000000000 
K           0.500000000000000    0.000000000000000    0.095658000000000 
K           0.500000000000000    0.000000000000000    0.458498000000000 
K           0.500000000000000    0.500000000000000    0.095658000000000 
K           0.500000000000000    0.500000000000000    0.458498000000000 
%ENDBLOCK POSITIONS_FRAC
