# Cell file generated by matador (Matthew Evans 2016)

%BLOCK LATTICE_CART
6.43474 0.0 0.0
-3.21737 5.57265 0.0
0.0 0.0 7.82966
%ENDBLOCK LATTICE_CART

%BLOCK POSITIONS_FRAC
P           0.083777000000000    0.411901000000000    0.057127000000000 
P           0.123693000000000    0.528166000000000    0.558729000000000 
P           0.328124000000000    0.916223000000000    0.057127000000000 
P           0.404472000000000    0.876307000000000    0.558729000000000 
P           0.471834000000000    0.595528000000000    0.558729000000000 
P           0.588099000000000    0.671876000000000    0.057127000000000 
P           0.666667000000000    0.333333000000000    0.316404000000000 
K           0.000000000000000    0.000000000000000    0.101475000000000 
K           0.000000000000000    0.000000000000000    0.587493000000000 
K           0.333333000000000    0.666667000000000    0.314432000000000 
K           0.333333000000000    0.666667000000000    0.884933000000000 
%ENDBLOCK POSITIONS_FRAC
