# Cell file generated by matador (Matthew Evans 2016)

%BLOCK LATTICE_CART
7.8857 0.0 0.0
0.0 7.90124 0.0
0.443715 0.0 5.45445
%ENDBLOCK LATTICE_CART

%BLOCK POSITIONS_FRAC
P           0.039204000000000    0.305660000000000    0.873982000000000 
P           0.039204000000000    0.694340000000000    0.873982000000000 
K           0.180663000000000    0.500000000000000    0.988254000000000 
K           0.249242000000000    0.000000000000000    0.541987000000000 
K           0.343062000000000    0.000000000000000    0.041777000000000 
K           0.517613000000000    0.500000000000000    0.493813000000000 
K           0.671617000000000    0.000000000000000    0.749521000000000 
K           0.911552000000000    0.000000000000000    0.334926000000000 
%ENDBLOCK POSITIONS_FRAC
