# Cell file generated by matador (Matthew Evans 2016)

%BLOCK LATTICE_CART
7.17634 0.0 0.0
0.0 7.17634 0.0
0.0 0.0 7.17634
%ENDBLOCK LATTICE_CART

%BLOCK POSITIONS_FRAC
P           0.089096000000000    0.089096000000000    0.910904000000000 
P           0.089096000000000    0.910904000000000    0.089096000000000 
P           0.410904000000000    0.410904000000000    0.589096000000000 
P           0.410904000000000    0.589096000000000    0.410904000000000 
P           0.589096000000000    0.410904000000000    0.410904000000000 
P           0.589096000000000    0.589096000000000    0.589096000000000 
P           0.910904000000000    0.089096000000000    0.089096000000000 
P           0.910904000000000    0.910904000000000    0.910904000000000 
K           0.250000000000000    0.250000000000000    0.750000000000000 
K           0.250000000000000    0.750000000000000    0.250000000000000 
K           0.750000000000000    0.250000000000000    0.250000000000000 
K           0.750000000000000    0.750000000000000    0.750000000000000 
%ENDBLOCK POSITIONS_FRAC
