# Cell file generated by matador (Matthew Evans 2016)

%BLOCK LATTICE_CART
8.797 0.0 0.0
0.0 8.797 0.0
0.0 0.0 5.21127
%ENDBLOCK LATTICE_CART

%BLOCK POSITIONS_FRAC
P           0.000000000000000    0.353142000000000    0.500000000000000 
P           0.000000000000000    0.646858000000000    0.500000000000000 
P           0.353142000000000    0.000000000000000    0.500000000000000 
P           0.646858000000000    0.000000000000000    0.500000000000000 
K           0.000000000000000    0.000000000000000    0.000000000000000 
K           0.000000000000000    0.000000000000000    0.500000000000000 
K           0.162750000000000    0.162750000000000    0.134846000000000 
K           0.162750000000000    0.837250000000000    0.865154000000000 
K           0.500000000000000    0.500000000000000    0.000000000000000 
K           0.837250000000000    0.162750000000000    0.865154000000000 
K           0.837250000000000    0.837250000000000    0.134846000000000 
%ENDBLOCK POSITIONS_FRAC
