# Cell file generated by matador (Matthew Evans 2016)

%BLOCK LATTICE_CART
7.29625 -0.0 0.0
-3.64812 6.31874 0.0
0.0 0.0 8.28254
%ENDBLOCK LATTICE_CART

%BLOCK POSITIONS_FRAC
P           0.000000000000000    0.000000000000000    0.822423000000000 
P           0.237440000000000    0.088163000000000    0.517975000000000 
P           0.850723000000000    0.762560000000000    0.517975000000000 
P           0.911837000000000    0.149277000000000    0.517975000000000 
K           0.000000000000000    0.000000000000000    0.309289000000000 
K           0.023338000000000    0.395529000000000    0.222810000000000 
K           0.333333000000000    0.666667000000000    0.867044000000000 
K           0.372191000000000    0.976662000000000    0.222810000000000 
K           0.604471000000000    0.627809000000000    0.222810000000000 
K           0.666667000000000    0.333333000000000    0.492400000000000 
K           0.666667000000000    0.333333000000000    0.767110000000000 
%ENDBLOCK POSITIONS_FRAC
