# Cell file generated by matador (Matthew Evans 2016)

%BLOCK LATTICE_CART
8.17608 0.0 0.0
0.0 7.38395 0.0
0.0 0.0 6.00734
%ENDBLOCK LATTICE_CART

%BLOCK POSITIONS_FRAC
P           0.120088000000000    0.155478000000000    0.730340000000000 
P           0.120088000000000    0.844522000000000    0.230340000000000 
P           0.298264000000000    0.158800000000000    0.173556000000000 
P           0.298264000000000    0.841200000000000    0.673556000000000 
P           0.701736000000000    0.158800000000000    0.173556000000000 
P           0.701736000000000    0.841200000000000    0.673556000000000 
P           0.879912000000000    0.155478000000000    0.730340000000000 
P           0.879912000000000    0.844522000000000    0.230340000000000 
K           0.000000000000000    0.493102000000000    0.254804000000000 
K           0.000000000000000    0.506898000000000    0.754804000000000 
K           0.359658000000000    0.461950000000000    0.597438000000000 
K           0.359658000000000    0.538050000000000    0.097438000000000 
K           0.640342000000000    0.461950000000000    0.597438000000000 
K           0.640342000000000    0.538050000000000    0.097438000000000 
%ENDBLOCK POSITIONS_FRAC
