# Cell file generated by matador (Matthew Evans 2016)

%BLOCK LATTICE_CART
7.94877 0.0 0.0
-3.97438 6.88384 0.0
0.0 0.0 7.80816
%ENDBLOCK LATTICE_CART

%BLOCK POSITIONS_FRAC
P           0.000000000000000    0.000000000000000    0.068252000000000 
P           0.333333000000000    0.666667000000000    0.869289000000000 
P           0.666667000000000    0.333333000000000    0.869289000000000 
K           0.000000000000000    0.760009000000000    0.639644000000000 
K           0.191422000000000    0.458435000000000    0.243984000000000 
K           0.239991000000000    0.239991000000000    0.639644000000000 
K           0.267013000000000    0.808578000000000    0.243984000000000 
K           0.458435000000000    0.191422000000000    0.243984000000000 
K           0.541565000000000    0.732987000000000    0.243984000000000 
K           0.732987000000000    0.541565000000000    0.243984000000000 
K           0.760009000000000    0.000000000000000    0.639644000000000 
K           0.808578000000000    0.267013000000000    0.243984000000000 
%ENDBLOCK POSITIONS_FRAC
