# Cell file generated by matador (Matthew Evans 2016)

%BLOCK LATTICE_CART
8.48774 0.0 0.0
0.0 7.88686 0.0
0.15392 0.0 4.61989
%ENDBLOCK LATTICE_CART

%BLOCK POSITIONS_FRAC
P           0.700146000000000    0.205034000000000    0.650554000000000 
P           0.700146000000000    0.794966000000000    0.650554000000000 
K           0.066392000000000    0.500000000000000    0.958178000000000 
K           0.224095000000000    0.000000000000000    0.895926000000000 
K           0.428867000000000    0.500000000000000    0.314514000000000 
K           0.526851000000000    0.000000000000000    0.513687000000000 
K           0.708088000000000    0.500000000000000    0.863603000000000 
K           0.939487000000000    0.000000000000000    0.420214000000000 
%ENDBLOCK POSITIONS_FRAC
