# Cell file generated by matador (Matthew Evans 2016)

%BLOCK LATTICE_CART
6.9403 0.0 0.0
-3.47015 6.01048 0.0
0.0 0.0 7.03632
%ENDBLOCK LATTICE_CART

%BLOCK POSITIONS_FRAC
P           0.000582000000000    0.500291000000000    0.000000000000000 
P           0.333333000000000    0.666667000000000    0.362947000000000 
P           0.333333000000000    0.666667000000000    0.637053000000000 
P           0.499709000000000    0.500291000000000    0.000000000000000 
P           0.499709000000000    0.999418000000000    0.000000000000000 
K           0.000000000000000    0.000000000000000    0.500000000000000 
K           0.333333000000000    0.666667000000000    0.000000000000000 
K           0.666667000000000    0.333333000000000    0.000000000000000 
K           0.666667000000000    0.333333000000000    0.500000000000000 
%ENDBLOCK POSITIONS_FRAC
