# Cell file generated by matador (Matthew Evans 2016)

%BLOCK LATTICE_CART
8.08085 0.0 0.0
-4.04042 6.99822 0.0
0.0 0.0 8.16277
%ENDBLOCK LATTICE_CART

%BLOCK POSITIONS_FRAC
P           0.000000000000000    0.807367000000000    0.500000000000000 
P           0.192633000000000    0.192633000000000    0.500000000000000 
P           0.807367000000000    0.000000000000000    0.500000000000000 
K           0.000000000000000    0.000000000000000    0.000000000000000 
K           0.000000000000000    0.727834000000000    0.249956000000000 
K           0.000000000000000    0.727834000000000    0.750044000000000 
K           0.272166000000000    0.272166000000000    0.249956000000000 
K           0.272166000000000    0.272166000000000    0.750044000000000 
K           0.333333000000000    0.666667000000000    0.000000000000000 
K           0.666667000000000    0.333333000000000    0.000000000000000 
K           0.727834000000000    0.000000000000000    0.249956000000000 
K           0.727834000000000    0.000000000000000    0.750044000000000 
%ENDBLOCK POSITIONS_FRAC
