# Cell file generated by matador (Matthew Evans 2016)

%BLOCK LATTICE_CART
5.74084 0.0 0.0
-2.87042 4.97171 0.0
0.0 0.0 6.18439
%ENDBLOCK LATTICE_CART

%BLOCK POSITIONS_FRAC
P           0.000000000000000   -0.000000000000000    0.174511000000000 
P           0.000000000000000   -0.000000000000000    0.794173000000000 
P           0.218704000000000    0.109352000000000    0.910843000000000 
P           0.333334000000000    0.666666000000000    0.750239000000000 
P           0.890648000000000    0.109352000000000    0.910843000000000 
P           0.890648000000000    0.781296000000000    0.910843000000000 
K           0.666667000000000    0.333333000000000    0.927718000000000 
%ENDBLOCK POSITIONS_FRAC
