# Cell file generated by matador (Matthew Evans 2016)

%BLOCK LATTICE_CART
10.0312 0.0 0.0
-5.01562 8.68731 0.0
0.0 0.0 5.13128
%ENDBLOCK LATTICE_CART

%BLOCK POSITIONS_FRAC
P           0.000000000000000    0.000000000000000    0.242218000000000 
P           0.000000000000000    0.000000000000000    0.500000000000000 
P           0.000000000000000    0.000000000000000    0.757782000000000 
P           0.000000000000000    0.500000000000000    0.500000000000000 
P           0.500000000000000    0.000000000000000    0.500000000000000 
P           0.500000000000000    0.500000000000000    0.500000000000000 
K           0.000000000000000    0.500000000000000    0.000000000000000 
K           0.040396000000000    0.308204000000000    0.000000000000000 
K           0.267809000000000    0.959604000000000    0.000000000000000 
K           0.308204000000000    0.267809000000000    0.000000000000000 
K           0.500000000000000    0.000000000000000    0.000000000000000 
K           0.500000000000000    0.500000000000000    0.000000000000000 
K           0.691796000000000    0.732191000000000    0.000000000000000 
K           0.732191000000000    0.040396000000000    0.000000000000000 
K           0.959604000000000    0.691796000000000    0.000000000000000 
%ENDBLOCK POSITIONS_FRAC
