# Cell file generated by matador (Matthew Evans 2016)

%BLOCK LATTICE_CART
7.44943 0.0 0.0
0.0 7.44943 0.0
0.0 0.0 10.1159
%ENDBLOCK LATTICE_CART

%BLOCK POSITIONS_FRAC
P           0.093639000000000    0.093639000000000    0.000000000000000 
P           0.406361000000000    0.593639000000000    0.500000000000000 
P           0.593639000000000    0.406361000000000    0.500000000000000 
P           0.906361000000000    0.906361000000000    0.000000000000000 
K           0.000000000000000    0.000000000000000    0.500000000000000 
K           0.000000000000000    0.500000000000000    0.250000000000000 
K           0.000000000000000    0.500000000000000    0.750000000000000 
K           0.125833000000000    0.678319000000000    0.000000000000000 
K           0.178319000000000    0.374167000000000    0.500000000000000 
K           0.321681000000000    0.874167000000000    0.000000000000000 
K           0.374167000000000    0.178319000000000    0.500000000000000 
K           0.500000000000000    0.000000000000000    0.250000000000000 
K           0.500000000000000    0.000000000000000    0.750000000000000 
K           0.500000000000000    0.500000000000000    0.000000000000000 
K           0.625833000000000    0.821681000000000    0.500000000000000 
K           0.678319000000000    0.125833000000000    0.000000000000000 
K           0.821681000000000    0.625833000000000    0.500000000000000 
K           0.874167000000000    0.321681000000000    0.000000000000000 
%ENDBLOCK POSITIONS_FRAC
