# Cell file generated by matador (Matthew Evans 2016)

%BLOCK LATTICE_CART
9.62659 0.0 0.0
-4.8133 8.33687 0.0
0.0 0.0 8.8115
%ENDBLOCK LATTICE_CART

%BLOCK POSITIONS_FRAC
P           0.000000000000000    0.000000000000000    0.250000000000000 
P           0.000000000000000    0.000000000000000    0.750000000000000 
P           0.000000000000000    0.500000000000000    0.000000000000000 
P           0.000000000000000    0.500000000000000    0.500000000000000 
P           0.500000000000000    0.000000000000000    0.000000000000000 
P           0.500000000000000    0.000000000000000    0.500000000000000 
P           0.500000000000000    0.500000000000000    0.000000000000000 
P           0.500000000000000    0.500000000000000    0.500000000000000 
K           0.000000000000000    0.000000000000000    0.000000000000000 
K           0.000000000000000    0.000000000000000    0.500000000000000 
K           0.022066000000000    0.550742000000000    0.250000000000000 
K           0.333333000000000    0.666667000000000    0.750000000000000 
K           0.449258000000000    0.471324000000000    0.250000000000000 
K           0.471324000000000    0.022066000000000    0.750000000000000 
K           0.528676000000000    0.977934000000000    0.250000000000000 
K           0.550742000000000    0.528676000000000    0.750000000000000 
K           0.666667000000000    0.333333000000000    0.250000000000000 
K           0.977934000000000    0.449258000000000    0.750000000000000 
%ENDBLOCK POSITIONS_FRAC
