# Cell file generated by matador (Matthew Evans 2016)

%BLOCK LATTICE_CART
9.27282 0.0 0.0
-4.63641 8.0305 0.0
0.0 0.0 4.06123
%ENDBLOCK LATTICE_CART

%BLOCK POSITIONS_FRAC
P           0.333333000000000    0.666667000000000    0.250000000000000 
P           0.333333000000000    0.666667000000000    0.750000000000000 
K           0.028603000000000    0.337871000000000    0.250000000000000 
K           0.028603000000000    0.690732000000000    0.750000000000000 
K           0.309268000000000    0.337871000000000    0.750000000000000 
K           0.309268000000000    0.971397000000000    0.250000000000000 
K           0.662129000000000    0.690732000000000    0.250000000000000 
K           0.662129000000000    0.971397000000000    0.750000000000000 
%ENDBLOCK POSITIONS_FRAC
