# Cell file generated by matador (Matthew Evans 2016)

%BLOCK LATTICE_CART
9.40893 0.0 0.0
-4.70446 8.14837 0.0
0.0 0.0 13.5113
%ENDBLOCK LATTICE_CART

%BLOCK POSITIONS_FRAC
P           0.000000000000000    0.000000000000000    0.567095000000000 
P           0.000000000000000    0.645667000000000    0.616794000000000 
P           0.333333000000000    0.666667000000000    0.041466000000000 
P           0.354333000000000    0.354333000000000    0.616794000000000 
P           0.645667000000000    0.000000000000000    0.616794000000000 
P           0.666667000000000    0.333333000000000    0.041466000000000 
K           0.000000000000000    0.279465000000000    0.494375000000000 
K           0.000000000000000    0.387240000000000    0.281609000000000 
K           0.000000000000000    0.425151000000000    0.940917000000000 
K           0.000000000000000    0.740816000000000    0.371084000000000 
K           0.000000000000000    0.753921000000000    0.143499000000000 
K           0.000000000000000    0.803191000000000    0.914315000000000 
K           0.196809000000000    0.196809000000000    0.914315000000000 
K           0.246079000000000    0.246079000000000    0.143499000000000 
K           0.259184000000000    0.259184000000000    0.371084000000000 
K           0.279465000000000    0.000000000000000    0.494375000000000 
K           0.387240000000000    0.000000000000000    0.281609000000000 
K           0.425151000000000    0.000000000000000    0.940917000000000 
K           0.574849000000000    0.574849000000000    0.940917000000000 
K           0.612760000000000    0.612760000000000    0.281609000000000 
K           0.720535000000000    0.720535000000000    0.494375000000000 
K           0.740816000000000    0.000000000000000    0.371084000000000 
K           0.753921000000000    0.000000000000000    0.143499000000000 
K           0.803191000000000    0.000000000000000    0.914315000000000 
%ENDBLOCK POSITIONS_FRAC
