# Cell file generated by matador (Matthew Evans 2016)

%BLOCK LATTICE_CART
9.69341 0.0 0.0
-4.84671 8.39474 0.0
0.0 0.0 12.3747
%ENDBLOCK LATTICE_CART

%BLOCK POSITIONS_FRAC
P           0.000000000000000    0.000000000000000    0.196203000000000 
P           0.000000000000000    0.000000000000000    0.935038000000000 
P           0.333333000000000    0.666667000000000    0.601705000000000 
P           0.333333000000000    0.666667000000000    0.862869000000000 
P           0.666667000000000    0.333333000000000    0.268372000000000 
P           0.666667000000000    0.333333000000000    0.529536000000000 
K           0.034757000000000    0.517378000000000    0.508821000000000 
K           0.075697000000000    0.537848000000000    0.981604000000000 
K           0.128818000000000    0.257636000000000    0.314938000000000 
K           0.128818000000000    0.871182000000000    0.314938000000000 
K           0.149288000000000    0.298577000000000    0.842155000000000 
K           0.149288000000000    0.850712000000000    0.842155000000000 
K           0.368090000000000    0.184045000000000    0.175488000000000 
K           0.409030000000000    0.204515000000000    0.648271000000000 
K           0.462152000000000    0.537848000000000    0.981604000000000 
K           0.462152000000000    0.924303000000000    0.981604000000000 
K           0.482622000000000    0.517378000000000    0.508821000000000 
K           0.482622000000000    0.965243000000000    0.508821000000000 
K           0.701423000000000    0.850712000000000    0.842155000000000 
K           0.742364000000000    0.871182000000000    0.314938000000000 
K           0.795485000000000    0.204515000000000    0.648271000000000 
K           0.795485000000000    0.590970000000000    0.648271000000000 
K           0.815955000000000    0.184045000000000    0.175488000000000 
K           0.815955000000000    0.631910000000000    0.175488000000000 
%ENDBLOCK POSITIONS_FRAC
