# Cell file generated by matador (Matthew Evans 2016)

%BLOCK LATTICE_CART
7.09809 0.0 0.0
-3.54904 6.14712 0.0
0.0 0.0 7.10786
%ENDBLOCK LATTICE_CART

%BLOCK POSITIONS_FRAC
P           0.000000000000000    0.000000000000000    0.000000000000000 
P           0.000000000000000    0.000000000000000    0.500000000000000 
K           0.000000000000000    0.623706000000000    0.267157000000000 
K           0.000000000000000    0.623706000000000    0.732843000000000 
K           0.376294000000000    0.376294000000000    0.267157000000000 
K           0.376294000000000    0.376294000000000    0.732843000000000 
K           0.623706000000000    0.000000000000000    0.267157000000000 
K           0.623706000000000    0.000000000000000    0.732843000000000 
%ENDBLOCK POSITIONS_FRAC
