# Cell file generated by matador (Matthew Evans 2016)

%BLOCK LATTICE_CART
7.08743 -0.0 0.0
-3.54371 6.13789 0.0
0.0 0.0 9.26027
%ENDBLOCK LATTICE_CART

%BLOCK POSITIONS_FRAC
P           0.000001000000000    0.000000000000000    0.276576000000000 
P           0.000001000000000    0.000000000000000    0.866563000000000 
P           0.000001000000000    0.000000000000000    0.991631000000000 
P           0.333334000000000    0.666667000000000    0.158399000000000 
P           0.333334000000000    0.666667000000000    0.916756000000000 
P           0.666667000000000    0.333334000000000    0.185535000000000 
P           0.666667000000000    0.333334000000000    0.368578000000000 
P           0.666667000000000    0.333334000000000    0.531701000000000 
P           0.666667000000000    0.333334000000000    0.699354000000000 
K           0.022256000000000    0.677879000000000    0.049489000000000 
K           0.322122000000000    0.344377000000000    0.049489000000000 
K           0.655624000000000    0.977745000000000    0.049489000000000 
%ENDBLOCK POSITIONS_FRAC
