# Cell file generated by matador (Matthew Evans 2016)

%BLOCK LATTICE_CART
6.90058 0.0 0.0
-0.235735 6.37516 0.0
0.0812429 -0.848891 7.29992
%ENDBLOCK LATTICE_CART

%BLOCK POSITIONS_FRAC
P           0.248366000000000    0.877421000000000    0.567197000000000 
P           0.751634000000000    0.122579000000000    0.432803000000000 
K           0.000000000000000    0.000000000000000    0.000000000000000 
K           0.000000000000000    0.000000000000000    0.500000000000000 
K           0.000000000000000    0.500000000000000    0.500000000000000 
K           0.184809000000000    0.679018000000000    0.000515000000000 
K           0.314344000000000    0.037972000000000    0.275763000000000 
K           0.500000000000000    0.000000000000000    0.000000000000000 
K           0.500000000000000    0.500000000000000    0.000000000000000 
K           0.500000000000000    0.500000000000000    0.500000000000000 
K           0.685656000000000    0.962028000000000    0.724237000000000 
K           0.815191000000000    0.320982000000000    0.999485000000000 
%ENDBLOCK POSITIONS_FRAC
