# Cell file generated by matador (Matthew Evans 2016)

%BLOCK LATTICE_CART
7.41593 0.0 0.0
0.0 7.41593 0.0
0.0 0.0 7.02078
%ENDBLOCK LATTICE_CART

%BLOCK POSITIONS_FRAC
P           0.000000000000000    0.000000000000000    0.500000000000000 
P           0.000000000000000    0.500000000000000    0.250000000000000 
P           0.000000000000000    0.500000000000000    0.750000000000000 
P           0.500000000000000    0.000000000000000    0.250000000000000 
P           0.500000000000000    0.000000000000000    0.750000000000000 
P           0.500000000000000    0.500000000000000    0.000000000000000 
K           0.211832000000000    0.211832000000000    0.400887000000000 
K           0.211832000000000    0.788168000000000    0.599113000000000 
K           0.288168000000000    0.288168000000000    0.900887000000000 
K           0.288168000000000    0.711832000000000    0.099113000000000 
K           0.711832000000000    0.288168000000000    0.099113000000000 
K           0.711832000000000    0.711832000000000    0.900887000000000 
K           0.788168000000000    0.211832000000000    0.599113000000000 
K           0.788168000000000    0.788168000000000    0.400887000000000 
%ENDBLOCK POSITIONS_FRAC
