# Cell file generated by matador (Matthew Evans 2016)

%BLOCK LATTICE_CART
6.60515 0.0 0.0
-3.30257 5.72023 0.0
0.0 0.0 6.46208
%ENDBLOCK LATTICE_CART

%BLOCK POSITIONS_FRAC
P           0.666667000000000    0.333333000000000    0.000000000000000 
K           0.182823000000000    0.712419000000000    0.500000000000000 
K           0.198760000000000    0.052064000000000    0.500000000000000 
K           0.287581000000000    0.470404000000000    0.500000000000000 
K           0.333334000000000    0.666666000000000    0.000000000000000 
K           0.529596000000000    0.817177000000000    0.500000000000000 
K           0.853305000000000    0.801240000000000    0.500000000000000 
K           0.947936000000000    0.146695000000000    0.500000000000000 
%ENDBLOCK POSITIONS_FRAC
