# Cell file generated by matador (Matthew Evans 2016)

%BLOCK LATTICE_CART
6.93297 0.0 0.0
-3.46649 6.00413 0.0
0.0 0.0 7.11548
%ENDBLOCK LATTICE_CART

%BLOCK POSITIONS_FRAC
P           0.333333000000000    0.666667000000000    0.502935000000000 
K          -0.000000000000000    0.000000000000000    0.623264000000000 
K           0.059715000000000    0.541007000000000    0.234104000000000 
K           0.333333000000000    0.666667000000000    0.893215000000000 
K           0.458993000000000    0.518710000000000    0.234104000000000 
K           0.481290000000000    0.940285000000000    0.234104000000000 
K           0.666666000000000    0.333334000000000    0.499039000000000 
%ENDBLOCK POSITIONS_FRAC
