# Cell file generated by matador (Matthew Evans 2016)

%BLOCK LATTICE_CART
9.86425 0.0 0.0
0.0 5.00734 0.0
2.12801 0.0 7.38643
%ENDBLOCK LATTICE_CART

%BLOCK POSITIONS_FRAC
P           0.011315000000000    0.000000000000000    0.938820000000000 
P           0.281365000000000    0.000000000000000    0.487196000000000 
P           0.395377000000000    0.500000000000000    0.360925000000000 
P           0.452083000000000    0.154973000000000    0.204738000000000 
P           0.452083000000000    0.845027000000000    0.204738000000000 
P           0.501674000000000    0.500000000000000    0.712860000000000 
P           0.848730000000000    0.500000000000000    0.891588000000000 
K           0.017828000000000    0.000000000000000    0.295594000000000 
K           0.577130000000000    0.000000000000000    0.949605000000000 
K           0.637290000000000    0.500000000000000    0.167870000000000 
K           0.725518000000000    0.000000000000000    0.645709000000000 
K           0.825522000000000    0.500000000000000    0.557547000000000 
%ENDBLOCK POSITIONS_FRAC
