# Cell file generated by matador (Matthew Evans 2016)

%BLOCK LATTICE_CART
8.37801 0.0 0.0
-4.18901 7.25557 0.0
0.0 0.0 9.50084
%ENDBLOCK LATTICE_CART

%BLOCK POSITIONS_FRAC
P           0.333332000000000    0.666666000000000    0.539493000000000 
P           0.333332000000000    0.666666000000000    0.960507000000000 
P           0.666666000000000    0.333332000000000    0.039493000000000 
P           0.666666000000000    0.333332000000000    0.460507000000000 
K           0.999999000000000    0.999999000000000    0.000000000000000 
K           0.999999000000000    0.999999000000000    0.250000000000000 
K           0.999999000000000    0.999999000000000    0.500000000000000 
K           0.999999000000000    0.999999000000000    0.750000000000000 
K           0.183773000000000    0.367548000000000    0.250000000000000 
K           0.183773000000000    0.816225000000000    0.250000000000000 
K           0.333332000000000    0.666666000000000    0.250000000000000 
K           0.333332000000000    0.666666000000000    0.750000000000000 
K           0.367548000000000    0.183773000000000    0.750000000000000 
K           0.632450000000000    0.816225000000000    0.250000000000000 
K           0.666666000000000    0.333332000000000    0.250000000000000 
K           0.666666000000000    0.333332000000000    0.750000000000000 
K           0.816225000000000    0.183773000000000    0.750000000000000 
K           0.816225000000000    0.632450000000000    0.750000000000000 
%ENDBLOCK POSITIONS_FRAC
