# Cell file generated by matador (Matthew Evans 2016)

%BLOCK LATTICE_CART
5.56088 -0.0 0.0
-2.78044 4.81587 0.0
0.0 0.0 8.71901
%ENDBLOCK LATTICE_CART

%BLOCK POSITIONS_FRAC
P           0.034254000000000    0.199302000000000    0.052324000000000 
P           0.165048000000000    0.965746000000000    0.052324000000000 
P           0.199302000000000    0.165048000000000    0.947676000000000 
P           0.800698000000000    0.834952000000000    0.052324000000000 
P           0.834952000000000    0.034254000000000    0.947676000000000 
P           0.965746000000000    0.800698000000000    0.947676000000000 
K           0.333333000000000    0.666667000000000    0.366158000000000 
K           0.333333000000000    0.666667000000000    0.714700000000000 
K           0.666666000000000    0.333334000000000    0.285300000000000 
K           0.666666000000000    0.333334000000000    0.633842000000000 
%ENDBLOCK POSITIONS_FRAC
