# Cell file generated by matador (Matthew Evans 2016)

%BLOCK LATTICE_CART
10.5007 0.0 0.0
0.0 10.5007 0.0
0.0 0.0 8.06575
%ENDBLOCK LATTICE_CART

%BLOCK POSITIONS_FRAC
P           0.000000000000000   -0.000000000000000    0.000000000000000 
P           0.250000000000000    0.250000000000000    0.750000000000000 
P           0.250000000000000    0.750000000000000    0.250000000000000 
P           0.500000000000000    0.500000000000000    0.500000000000000 
P           0.750000000000000    0.250000000000000    0.250000000000000 
P           0.750000000000000    0.750000000000000    0.750000000000000 
K           0.000000000000000   -0.000000000000000    0.500000000000000 
K           0.000000000000000    0.500000000000000    0.000000000000000 
K           0.000000000000000    0.500000000000000    0.500000000000000 
K           0.128056000000000    0.128056000000000    0.919753000000000 
K           0.128056000000000    0.871944000000000    0.080247000000000 
K           0.250000000000000    0.250000000000000    0.250000000000000 
K           0.250000000000000    0.750000000000000    0.750000000000000 
K           0.371944000000000    0.371944000000000    0.580247000000000 
K           0.371944000000000    0.628056000000000    0.419753000000000 
K           0.500000000000000   -0.000000000000000    0.000000000000000 
K           0.500000000000000   -0.000000000000000    0.500000000000000 
K           0.500000000000000    0.500000000000000    0.000000000000000 
K           0.628056000000000    0.371944000000000    0.419753000000000 
K           0.628056000000000    0.628056000000000    0.580247000000000 
K           0.750000000000000    0.250000000000000    0.750000000000000 
K           0.750000000000000    0.750000000000000    0.250000000000000 
K           0.871944000000000    0.128056000000000    0.080247000000000 
K           0.871944000000000    0.871944000000000    0.919753000000000 
%ENDBLOCK POSITIONS_FRAC
