# Cell file generated by matador (Matthew Evans 2016)

%BLOCK LATTICE_CART
9.26512 0.0 0.0
0.0 7.20571 0.0
-2.99918 0.0 5.60292
%ENDBLOCK LATTICE_CART

%BLOCK POSITIONS_FRAC
P           0.000000000000000    0.509128000000000    0.500000000000000 
P           0.490455000000000    0.113704000000000    0.392256000000000 
P           0.509545000000000    0.113704000000000    0.607744000000000 
K           0.000000000000000    0.022208000000000    0.500000000000000 
K           0.006929000000000    0.897661000000000    0.788128000000000 
K           0.139658000000000    0.662896000000000    0.210830000000000 
K           0.500000000000000    0.695260000000000    0.500000000000000 
K           0.860342000000000    0.662896000000000    0.789170000000000 
K           0.993071000000000    0.897661000000000    0.211872000000000 
%ENDBLOCK POSITIONS_FRAC
