# Cell file generated by matador (Matthew Evans 2016)

%BLOCK LATTICE_CART
7.70186 0.0 0.0
0.0 7.70186 0.0
0.0 0.0 7.70186
%ENDBLOCK LATTICE_CART

%BLOCK POSITIONS_FRAC
P           0.176334000000000    0.176334000000000    0.823666000000000 
P           0.176334000000000    0.823666000000000    0.176334000000000 
P           0.323666000000000    0.323666000000000    0.676334000000000 
P           0.323666000000000    0.676334000000000    0.323666000000000 
P           0.676334000000000    0.323666000000000    0.323666000000000 
P           0.676334000000000    0.676334000000000    0.676334000000000 
P           0.823666000000000    0.176334000000000    0.176334000000000 
P           0.823666000000000    0.823666000000000    0.823666000000000 
K           0.250000000000000    0.250000000000000    0.250000000000000 
K           0.250000000000000    0.750000000000000    0.750000000000000 
K           0.750000000000000    0.250000000000000    0.750000000000000 
K           0.750000000000000    0.750000000000000    0.250000000000000 
%ENDBLOCK POSITIONS_FRAC
