# Cell file generated by matador (Matthew Evans 2016)

%BLOCK LATTICE_CART
6.6784 0.0 0.0
-3.63165 7.54032 0.0
1.62231 -1.65694 6.61473
%ENDBLOCK LATTICE_CART

%BLOCK POSITIONS_FRAC
P           0.000000000000000    0.000000000000000    0.000000000000000 
P           0.000000000000000    0.000000000000000    0.500000000000000 
P           0.000000000000000    0.500000000000000    0.000000000000000 
P           0.000000000000000    0.500000000000000    0.500000000000000 
P           0.294946000000000    0.913912000000000    0.658643000000000 
P           0.339183000000000    0.549256000000000    0.201141000000000 
P           0.420052000000000    0.013103000000000    0.135775000000000 
P           0.500000000000000    0.000000000000000    0.000000000000000 
P           0.500000000000000    0.000000000000000    0.500000000000000 
P           0.500000000000000    0.500000000000000    0.000000000000000 
P           0.500000000000000    0.500000000000000    0.500000000000000 
P           0.579948000000000    0.986897000000000    0.864225000000000 
P           0.660817000000000    0.450744000000000    0.798859000000000 
P           0.705054000000000    0.086088000000000    0.341357000000000 
K           0.202104000000000    0.131628000000000    0.232682000000000 
K           0.797896000000000    0.868372000000000    0.767318000000000 
%ENDBLOCK POSITIONS_FRAC
