# Cell file generated by matador (Matthew Evans 2016)

%BLOCK LATTICE_CART
7.91794 0.0 0.0
-3.95897 6.85714 0.0
0.0 0.0 6.75188
%ENDBLOCK LATTICE_CART

%BLOCK POSITIONS_FRAC
P           0.214802000000000    0.693822000000000    0.564590000000000 
P           0.296959000000000    0.043296000000000    0.823795000000000 
P           0.306178000000000    0.520980000000000    0.564590000000000 
P           0.479020000000000    0.785198000000000    0.564590000000000 
P           0.666667000000000    0.333333000000000    0.070219000000000 
P           0.666667000000000    0.333333000000000    0.266302000000000 
P           0.666667000000000    0.333333000000000    0.600200000000000 
P           0.746337000000000    0.703041000000000    0.823795000000000 
P           0.956704000000000    0.253663000000000    0.823795000000000 
K           0.020872000000000    0.387484000000000    0.101299000000000 
K           0.366612000000000    0.979128000000000    0.101299000000000 
K           0.612516000000000    0.633388000000000    0.101299000000000 
%ENDBLOCK POSITIONS_FRAC
