# Cell file generated by matador (Matthew Evans 2016)

%BLOCK LATTICE_CART
9.88838 0.0 0.0
0.0 7.62747 0.0
-0.17081 0.0 5.03229
%ENDBLOCK LATTICE_CART

%BLOCK POSITIONS_FRAC
P           0.043336000000000    0.057044000000000    0.870712000000000 
P           0.043336000000000    0.442956000000000    0.370712000000000 
P           0.153250000000000    0.080053000000000    0.980116000000000 
P           0.153250000000000    0.419947000000000    0.480116000000000 
P           0.164529000000000    0.154307000000000    0.513263000000000 
P           0.164529000000000    0.345693000000000    0.013263000000000 
P           0.835471000000000    0.654307000000000    0.986737000000000 
P           0.835471000000000    0.845693000000000    0.486737000000000 
P           0.846750000000000    0.580053000000000    0.519884000000000 
P           0.846750000000000    0.919947000000000    0.019884000000000 
P           0.956664000000000    0.557044000000000    0.629288000000000 
P           0.956664000000000    0.942956000000000    0.129288000000000 
K           0.000000000000000    0.000000000000000    0.500000000000000 
K           0.000000000000000    0.500000000000000    0.000000000000000 
%ENDBLOCK POSITIONS_FRAC
