# Cell file generated by matador (Matthew Evans 2016)

%BLOCK LATTICE_CART
6.25432 0.0 0.0
-3.12716 5.4164 0.0
0.0 0.0 6.69888
%ENDBLOCK LATTICE_CART

%BLOCK POSITIONS_FRAC
P           0.169576000000000    0.584788000000000    0.500000000000000 
P           0.333333000000000    0.666667000000000    0.298558000000000 
P           0.333333000000000    0.666667000000000    0.701442000000000 
P           0.415212000000000    0.584788000000000    0.500000000000000 
P           0.415212000000000    0.830424000000000    0.500000000000000 
K           0.000000000000000    0.000000000000000    0.000000000000000 
K           0.333333000000000    0.666667000000000    0.000000000000000 
K           0.666667000000000    0.333333000000000    0.500000000000000 
%ENDBLOCK POSITIONS_FRAC
