# Cell file generated by matador (Matthew Evans 2016)

%BLOCK LATTICE_CART
9.00731 0.0 0.0
-4.50366 7.80056 0.0
0.0 0.0 9.78286
%ENDBLOCK LATTICE_CART

%BLOCK POSITIONS_FRAC
P           0.000000000000000    0.000000000000000    0.295560000000000 
P           0.000000000000000    0.000000000000000    0.704440000000000 
P           0.333333000000000    0.666667000000000    0.500000000000000 
P           0.666667000000000    0.333333000000000    0.500000000000000 
K           0.000000000000000    0.000000000000000    0.000000000000000 
K           0.000000000000000    0.000000000000000    0.500000000000000 
K           0.000000000000000    0.366750000000000    0.166780000000000 
K           0.000000000000000    0.500000000000000    0.000000000000000 
K           0.000000000000000    0.500000000000000    0.500000000000000 
K           0.000000000000000    0.633250000000000    0.833220000000000 
K           0.366750000000000    0.000000000000000    0.166780000000000 
K           0.366750000000000    0.366750000000000    0.833220000000000 
K           0.500000000000000    0.000000000000000    0.000000000000000 
K           0.500000000000000    0.000000000000000    0.500000000000000 
K           0.500000000000000    0.500000000000000    0.000000000000000 
K           0.500000000000000    0.500000000000000    0.500000000000000 
K           0.633250000000000    0.000000000000000    0.833220000000000 
K           0.633250000000000    0.633250000000000    0.166780000000000 
%ENDBLOCK POSITIONS_FRAC
