# Cell file generated by matador (Matthew Evans 2016)

%BLOCK LATTICE_CART
8.04545 0.0 0.0
0.0 8.04545 0.0
0.0 0.0 9.79772
%ENDBLOCK LATTICE_CART

%BLOCK POSITIONS_FRAC
P           0.000000000000000    0.000000000000000    0.000000000000000 
P           0.000000000000000    0.000000000000000    0.500000000000000 
P           0.500000000000000    0.500000000000000    0.000000000000000 
P           0.500000000000000    0.500000000000000    0.500000000000000 
K           0.000000000000000    0.500000000000000    0.000000000000000 
K           0.000000000000000    0.500000000000000    0.500000000000000 
K           0.190605000000000    0.309395000000000    0.211661000000000 
K           0.190605000000000    0.690605000000000    0.788339000000000 
K           0.309395000000000    0.190605000000000    0.788339000000000 
K           0.309395000000000    0.809395000000000    0.211661000000000 
K           0.500000000000000    0.000000000000000    0.000000000000000 
K           0.500000000000000    0.000000000000000    0.500000000000000 
K           0.690605000000000    0.190605000000000    0.211661000000000 
K           0.690605000000000    0.809395000000000    0.788339000000000 
K           0.809395000000000    0.309395000000000    0.788339000000000 
K           0.809395000000000    0.690605000000000    0.211661000000000 
%ENDBLOCK POSITIONS_FRAC
