# Cell file generated by matador (Matthew Evans 2016)

%BLOCK LATTICE_CART
5.35337 0.0 0.0
-2.67669 4.63616 0.0
0.0 0.0 5.95133
%ENDBLOCK LATTICE_CART

%BLOCK POSITIONS_FRAC
P           0.000000000000000    0.000000000000000    0.463422000000000 
P           0.333333000000000    0.666667000000000    0.389090000000000 
P           0.333333000000000    0.666667000000000    0.560954000000000 
P           0.666667000000000    0.333333000000000    0.389090000000000 
P           0.666667000000000    0.333333000000000    0.560954000000000 
K           0.000000000000000    0.000000000000000    0.826783000000000 
%ENDBLOCK POSITIONS_FRAC
