# Cell file generated by matador (Matthew Evans 2016)

%BLOCK LATTICE_CART
8.32809 0.0 0.0
-4.16404 7.21233 0.0
0.0 0.0 7.07155
%ENDBLOCK LATTICE_CART

%BLOCK POSITIONS_FRAC
P           0.000000000000000    0.000000000000000    0.290817000000000 
P           0.000000000000000    0.500000000000000    0.025871000000000 
P           0.333333000000000    0.666667000000000    0.006105000000000 
P           0.500000000000000    0.000000000000000    0.025871000000000 
P           0.500000000000000    0.500000000000000    0.025871000000000 
P           0.666667000000000    0.333333000000000    0.006105000000000 
K           0.000000000000000    0.000000000000000    0.676891000000000 
K           0.000000000000000    0.308474000000000    0.376966000000000 
K           0.000000000000000    0.691526000000000    0.376966000000000 
K           0.308474000000000    0.000000000000000    0.376966000000000 
K           0.308474000000000    0.308474000000000    0.376966000000000 
K           0.691526000000000    0.000000000000000    0.376966000000000 
K           0.691526000000000    0.691526000000000    0.376966000000000 
%ENDBLOCK POSITIONS_FRAC
