# Cell file generated by matador (Matthew Evans 2016)

%BLOCK LATTICE_CART
8.23087 0.0 0.0
-4.11543 7.12814 0.0
0.0 0.0 6.99527
%ENDBLOCK LATTICE_CART

%BLOCK POSITIONS_FRAC
P           0.000000000000000    0.000000000000000    0.500000000000000 
P           0.333333000000000    0.666667000000000    0.357047000000000 
P           0.333333000000000    0.666667000000000    0.500000000000000 
P           0.333333000000000    0.666667000000000    0.642953000000000 
K           0.000000000000000    0.000000000000000    0.000000000000000 
K           0.311774000000000    0.155887000000000    0.500000000000000 
K           0.333333000000000    0.666667000000000    0.000000000000000 
K           0.666667000000000    0.333333000000000    0.000000000000000 
K           0.666667000000000    0.333333000000000    0.500000000000000 
K           0.844113000000000    0.155887000000000    0.500000000000000 
K           0.844113000000000    0.688226000000000    0.500000000000000 
%ENDBLOCK POSITIONS_FRAC
