# Cell file generated by matador (Matthew Evans 2016)

%BLOCK LATTICE_CART
8.47614 0.0 0.0
-4.23807 7.34055 0.0
0.0 0.0 7.13891
%ENDBLOCK LATTICE_CART

%BLOCK POSITIONS_FRAC
P           0.000000000000000    0.000000000000000    0.444318000000000 
P           0.000000000000000    0.000000000000000    0.944318000000000 
K           0.076904000000000    0.538452000000000    0.993995000000000 
K           0.155505000000000    0.311009000000000    0.646495000000000 
K           0.155505000000000    0.844495000000000    0.646495000000000 
K           0.311009000000000    0.155505000000000    0.146495000000000 
K           0.333333000000000    0.666667000000000    0.559401000000000 
K           0.461548000000000    0.538452000000000    0.993995000000000 
K           0.461548000000000    0.923096000000000    0.993995000000000 
K           0.538452000000000    0.076904000000000    0.493995000000000 
K           0.538452000000000    0.461548000000000    0.493995000000000 
K           0.666667000000000    0.333333000000000    0.059401000000000 
K           0.688991000000000    0.844495000000000    0.646495000000000 
K           0.844495000000000    0.155505000000000    0.146495000000000 
K           0.844495000000000    0.688991000000000    0.146495000000000 
K           0.923096000000000    0.461548000000000    0.493995000000000 
%ENDBLOCK POSITIONS_FRAC
