# Cell file generated by matador (Matthew Evans 2016)

%BLOCK LATTICE_CART
9.42637 -0.0 0.0
-4.71319 8.16348 0.0
0.0 0.0 6.82885
%ENDBLOCK LATTICE_CART

%BLOCK POSITIONS_FRAC
P           0.000000000000000    0.000000000000000    0.250000000000000 
P           0.000000000000000    0.000000000000000    0.750000000000000 
K           0.000000000000000    0.500000000000000    0.000000000000000 
K           0.000000000000000    0.500000000000000    0.500000000000000 
K           0.118204000000000    0.628373000000000    0.750000000000000 
K           0.371627000000000    0.489832000000000    0.750000000000000 
K           0.489832000000000    0.118204000000000    0.250000000000000 
K           0.500000000000000    0.000000000000000    0.000000000000000 
K           0.500000000000000    0.000000000000000    0.500000000000000 
K           0.500000000000000    0.500000000000000    0.000000000000000 
K           0.500000000000000    0.500000000000000    0.500000000000000 
K           0.510168000000000    0.881796000000000    0.750000000000000 
K           0.628373000000000    0.510168000000000    0.250000000000000 
K           0.881796000000000    0.371627000000000    0.250000000000000 
%ENDBLOCK POSITIONS_FRAC
