# Cell file generated by matador (Matthew Evans 2016)

%BLOCK LATTICE_CART
7.83768 0.0 0.0
-3.91884 6.78763 0.0
0.0 0.0 5.13929
%ENDBLOCK LATTICE_CART

%BLOCK POSITIONS_FRAC
P           0.207969000000000    0.103985000000000    0.203534000000000 
P           0.666667000000000    0.333333000000000    0.322244000000000 
P           0.666667000000000    0.333333000000000    0.786468000000000 
P           0.896015000000000    0.103985000000000    0.203534000000000 
P           0.896015000000000    0.792031000000000    0.203534000000000 
K           0.187962000000000    0.375924000000000    0.820432000000000 
K           0.187962000000000    0.812038000000000    0.820432000000000 
K           0.624076000000000    0.812038000000000    0.820432000000000 
%ENDBLOCK POSITIONS_FRAC
