# Cell file generated by matador (Matthew Evans 2016)

%BLOCK LATTICE_CART
4.29448 0.0 0.0
0.0 6.91107 0.0
2.43281 0.0 7.05181
%ENDBLOCK LATTICE_CART

%BLOCK POSITIONS_FRAC
P           0.000000000000000    0.609287000000000    0.000000000000000 
P           0.166430000000000    0.010013000000000    0.924050000000000 
P           0.166465000000000    0.590585000000000    0.726646000000000 
P           0.340821000000000    0.889217000000000    0.864077000000000 
P           0.659179000000000    0.889217000000000    0.135923000000000 
P           0.833535000000000    0.590585000000000    0.273354000000000 
P           0.833570000000000    0.010013000000000    0.075950000000000 
K           0.500000000000000    0.931820000000000    0.500000000000000 
%ENDBLOCK POSITIONS_FRAC
