# Cell file generated by matador (Matthew Evans 2016)

%BLOCK LATTICE_CART
8.72347 0.0 0.0
-4.36173 7.55475 0.0
0.0 0.0 6.08421
%ENDBLOCK LATTICE_CART

%BLOCK POSITIONS_FRAC
P           0.009571000000000    0.144387000000000    0.483084000000000 
P           0.009571000000000    0.865184000000000    0.483084000000000 
P           0.134816000000000    0.144387000000000    0.483084000000000 
P           0.134816000000000    0.990429000000000    0.483084000000000 
P           0.855613000000000    0.865184000000000    0.483084000000000 
P           0.855613000000000    0.990429000000000    0.483084000000000 
K           0.000000000000000    0.000000000000000    0.215961000000000 
K           0.206628000000000    0.103314000000000    0.939591000000000 
K           0.230537000000000    0.461073000000000    0.779339000000000 
K           0.230537000000000    0.769463000000000    0.779339000000000 
K           0.538927000000000    0.769463000000000    0.779339000000000 
K           0.896686000000000    0.103314000000000    0.939591000000000 
K           0.896686000000000    0.793372000000000    0.939591000000000 
%ENDBLOCK POSITIONS_FRAC
