# Cell file generated by matador (Matthew Evans 2016)

%BLOCK LATTICE_CART
7.06515 0.0 0.0
-3.53257 6.1186 0.0
0.0 0.0 9.37925
%ENDBLOCK LATTICE_CART

%BLOCK POSITIONS_FRAC
P           0.579268000000000    0.371530000000000    0.978996000000000 
P           0.628470000000000    0.207739000000000    0.978996000000000 
P           0.666666000000000    0.333334000000000    0.312565000000000 
P           0.666666000000000    0.333334000000000    0.567010000000000 
P           0.792261000000000    0.420732000000000    0.978996000000000 
K          -0.000000000000000    0.000000000000000    0.629238000000000 
K          -0.000000000000000    0.000000000000000    0.862706000000000 
K           0.012847000000000    0.559632000000000    0.528635000000000 
K           0.333333000000000    0.666667000000000    0.734464000000000 
K           0.440368000000000    0.453215000000000    0.528635000000000 
K           0.546785000000000    0.987153000000000    0.528635000000000 
K           0.666666000000000    0.333334000000000    0.779327000000000 
%ENDBLOCK POSITIONS_FRAC
