# Cell file generated by matador (Matthew Evans 2016)

%BLOCK LATTICE_CART
8.51992 0.0 0.0
0.0 6.67201 0.0
0.0 0.0 7.20737
%ENDBLOCK LATTICE_CART

%BLOCK POSITIONS_FRAC
P           0.000000000000000    0.000000000000000    0.151349000000000 
P           0.043301000000000    0.919292000000000    0.866022000000000 
P           0.191373000000000    0.685917000000000    0.539405000000000 
P           0.308627000000000    0.185917000000000    0.039405000000000 
P           0.456699000000000    0.419292000000000    0.366022000000000 
P           0.500000000000000    0.500000000000000    0.651349000000000 
P           0.543301000000000    0.580708000000000    0.366022000000000 
P           0.691373000000000    0.814083000000000    0.039405000000000 
P           0.808627000000000    0.314083000000000    0.539405000000000 
P           0.956699000000000    0.080708000000000    0.866022000000000 
K           0.172007000000000    0.575753000000000    0.219628000000000 
K           0.327993000000000    0.075753000000000    0.719628000000000 
K           0.672007000000000    0.924247000000000    0.719628000000000 
K           0.827993000000000    0.424247000000000    0.219628000000000 
%ENDBLOCK POSITIONS_FRAC
