# Cell file generated by matador (Matthew Evans 2016)

%BLOCK LATTICE_CART
8.59082 0.0 0.0
-4.29541 7.43987 0.0
0.0 0.0 14.7073
%ENDBLOCK LATTICE_CART

%BLOCK POSITIONS_FRAC
P           0.000000000000000    0.457570000000000    0.979513000000000 
P           0.000000000000000    0.542430000000000    0.479513000000000 
P           0.457570000000000    0.000000000000000    0.979513000000000 
P           0.457570000000000    0.457570000000000    0.479513000000000 
P           0.542430000000000    0.000000000000000    0.479513000000000 
P           0.542430000000000    0.542430000000000    0.979513000000000 
K           0.000000000000000    0.199674000000000    0.433708000000000 
K           0.000000000000000    0.308470000000000    0.629494000000000 
K           0.000000000000000    0.475763000000000    0.313627000000000 
K           0.000000000000000    0.524237000000000    0.813627000000000 
K           0.000000000000000    0.691530000000000    0.129494000000000 
K           0.000000000000000    0.800326000000000    0.933708000000000 
K           0.199674000000000    0.000000000000000    0.433708000000000 
K           0.199674000000000    0.199674000000000    0.933708000000000 
K           0.308470000000000    0.000000000000000    0.629494000000000 
K           0.308470000000000    0.308470000000000    0.129494000000000 
K           0.475763000000000    0.000000000000000    0.313627000000000 
K           0.475763000000000    0.475763000000000    0.813627000000000 
K           0.524237000000000    0.000000000000000    0.813627000000000 
K           0.524237000000000    0.524237000000000    0.313627000000000 
K           0.691530000000000    0.000000000000000    0.129494000000000 
K           0.691530000000000    0.691530000000000    0.629494000000000 
K           0.800326000000000    0.000000000000000    0.933708000000000 
K           0.800326000000000    0.800326000000000    0.433708000000000 
%ENDBLOCK POSITIONS_FRAC
