# Cell file generated by matador (Matthew Evans 2016)

%BLOCK LATTICE_CART
8.01295 0.0 0.0
0.0 8.01295 0.0
0.0 0.0 8.01295
%ENDBLOCK LATTICE_CART

%BLOCK POSITIONS_FRAC
P           0.004698000000000    0.995302000000000    0.495302000000000 
P           0.156086000000000    0.656086000000000    0.843914000000000 
P           0.343914000000000    0.343914000000000    0.343914000000000 
P           0.495302000000000    0.004698000000000    0.995302000000000 
P           0.504698000000000    0.504698000000000    0.504698000000000 
P           0.656086000000000    0.843914000000000    0.156086000000000 
P           0.843914000000000    0.156086000000000    0.656086000000000 
P           0.995302000000000    0.495302000000000    0.004698000000000 
K           0.101425000000000    0.398575000000000    0.601425000000000 
K           0.130048000000000    0.130048000000000    0.130048000000000 
K           0.369952000000000    0.869952000000000    0.630048000000000 
K           0.398575000000000    0.601425000000000    0.101425000000000 
K           0.601425000000000    0.101425000000000    0.398575000000000 
K           0.630048000000000    0.369952000000000    0.869952000000000 
K           0.869952000000000    0.630048000000000    0.369952000000000 
K           0.898575000000000    0.898575000000000    0.898575000000000 
%ENDBLOCK POSITIONS_FRAC
