# Cell file generated by matador (Matthew Evans 2016)

%BLOCK LATTICE_CART
7.16761 0.0 0.0
0.0 8.19158 0.0
0.0 0.0 6.95909
%ENDBLOCK LATTICE_CART

%BLOCK POSITIONS_FRAC
P           0.053567000000000    0.716263000000000    0.835963000000000 
P           0.133497000000000    0.303397000000000    0.156853000000000 
P           0.366503000000000    0.803397000000000    0.156853000000000 
P           0.446433000000000    0.216263000000000    0.835963000000000 
P           0.553567000000000    0.783737000000000    0.835963000000000 
P           0.633497000000000    0.196603000000000    0.156853000000000 
P           0.866503000000000    0.696603000000000    0.156853000000000 
P           0.946433000000000    0.283737000000000    0.835963000000000 
K           0.000000000000000    0.000000000000000    0.946884000000000 
K           0.061028000000000    0.669109000000000    0.508565000000000 
K           0.438972000000000    0.169109000000000    0.508565000000000 
K           0.500000000000000    0.500000000000000    0.946884000000000 
K           0.561028000000000    0.830891000000000    0.508565000000000 
K           0.938972000000000    0.330891000000000    0.508565000000000 
%ENDBLOCK POSITIONS_FRAC
