# Cell file generated by matador (Matthew Evans 2016)

%BLOCK LATTICE_CART
6.31168 0.0 0.0
0.0 6.31168 0.0
0.0 0.0 12.0321
%ENDBLOCK LATTICE_CART

%BLOCK POSITIONS_FRAC
P           0.000000000000000    0.000000000000000    0.000000000000000 
P           0.000000000000000    0.000000000000000    0.500000000000000 
P           0.183729000000000    0.798565000000000    0.097308000000000 
P           0.183729000000000    0.798565000000000    0.902692000000000 
P           0.201435000000000    0.183729000000000    0.097308000000000 
P           0.201435000000000    0.183729000000000    0.902692000000000 
P           0.500000000000000    0.500000000000000    0.150456000000000 
P           0.500000000000000    0.500000000000000    0.849544000000000 
P           0.798565000000000    0.816271000000000    0.097308000000000 
P           0.798565000000000    0.816271000000000    0.902692000000000 
P           0.816271000000000    0.201435000000000    0.097308000000000 
P           0.816271000000000    0.201435000000000    0.902692000000000 
K           0.000000000000000    0.500000000000000    0.000000000000000 
K           0.000000000000000    0.500000000000000    0.500000000000000 
K           0.296519000000000    0.422311000000000    0.000000000000000 
K           0.422311000000000    0.703481000000000    0.000000000000000 
K           0.500000000000000    0.000000000000000    0.000000000000000 
K           0.500000000000000    0.000000000000000    0.500000000000000 
K           0.577689000000000    0.296519000000000    0.000000000000000 
K           0.703481000000000    0.577689000000000    0.000000000000000 
%ENDBLOCK POSITIONS_FRAC
