# Cell file generated by matador (Matthew Evans 2016)

%BLOCK LATTICE_CART
6.71657 0.0 0.0
0.512146 7.6688 0.0
0.827225 -1.1105 6.07206
%ENDBLOCK LATTICE_CART

%BLOCK POSITIONS_FRAC
P           0.000000000000000    0.000000000000000    0.000000000000000 
P           0.259702000000000    0.117827000000000    0.863037000000000 
P           0.500000000000000    0.000000000000000    0.000000000000000 
P           0.500000000000000    0.000000000000000    0.500000000000000 
P           0.500000000000000    0.500000000000000    0.500000000000000 
P           0.740298000000000    0.882173000000000    0.136963000000000 
K           0.000000000000000    0.500000000000000    0.000000000000000 
K           0.007594000000000    0.534521000000000    0.687901000000000 
K           0.350643000000000    0.607906000000000    0.883918000000000 
K           0.649357000000000    0.392094000000000    0.116082000000000 
K           0.992406000000000    0.465479000000000    0.312099000000000 
%ENDBLOCK POSITIONS_FRAC
