# Cell file generated by matador (Matthew Evans 2016)

%BLOCK LATTICE_CART
6.18644 0.0 0.0
-3.09322 5.35761 0.0
0.0 0.0 16.4511
%ENDBLOCK LATTICE_CART

%BLOCK POSITIONS_FRAC
P          -0.000000000000000   -0.000000000000000    0.324851000000000 
P          -0.000000000000000   -0.000000000000000    0.883718000000000 
P           0.333333000000000    0.666667000000000    0.550385000000000 
P           0.333333000000000    0.666667000000000    0.991517000000000 
P           0.666667000000000    0.333333000000000    0.217052000000000 
P           0.666667000000000    0.333333000000000    0.658184000000000 
K          -0.000000000000000   -0.000000000000000    0.155309000000000 
K          -0.000000000000000   -0.000000000000000    0.518899000000000 
K          -0.000000000000000   -0.000000000000000    0.660670000000000 
K           0.333333000000000    0.666667000000000    0.185566000000000 
K           0.333333000000000    0.666667000000000    0.327337000000000 
K           0.333333000000000    0.666667000000000    0.821976000000000 
K           0.666667000000000    0.333333000000000    0.488642000000000 
K           0.666667000000000    0.333333000000000    0.852233000000000 
K           0.666667000000000    0.333333000000000    0.994004000000000 
%ENDBLOCK POSITIONS_FRAC
