# Cell file generated by matador (Matthew Evans 2016)

%BLOCK LATTICE_CART
7.48326 0.0 0.0
-3.74163 6.48069 0.0
0.0 0.0 9.91896
%ENDBLOCK LATTICE_CART

%BLOCK POSITIONS_FRAC
P           0.000000000000000    0.232907000000000    0.783684000000000 
P           0.232907000000000    0.000000000000000    0.783684000000000 
P           0.333333000000000    0.666667000000000    0.035338000000000 
P           0.333333000000000    0.666667000000000    0.716805000000000 
P           0.666667000000000    0.333333000000000    0.035338000000000 
P           0.666667000000000    0.333333000000000    0.716805000000000 
P           0.767093000000000    0.767093000000000    0.783684000000000 
K           0.000000000000000    0.000000000000000    0.664206000000000 
K           0.000000000000000    0.580191000000000    0.468960000000000 
K           0.333333000000000    0.666667000000000    0.368737000000000 
K           0.419809000000000    0.419809000000000    0.468960000000000 
K           0.580191000000000    0.000000000000000    0.468960000000000 
K           0.666667000000000    0.333333000000000    0.368737000000000 
%ENDBLOCK POSITIONS_FRAC
