# Cell file generated by matador (Matthew Evans 2016)

%BLOCK LATTICE_CART
7.79987 0.0 0.0
-3.89993 6.75488 0.0
0.0 0.0 4.99586
%ENDBLOCK LATTICE_CART

%BLOCK POSITIONS_FRAC
P           0.054972000000000    0.793494000000000    0.490267000000000 
P           0.206506000000000    0.261478000000000    0.490267000000000 
P           0.325456000000000    0.264971000000000    0.303325000000000 
P           0.666667000000000    0.333333000000000    0.005017000000000 
P           0.735029000000000    0.060485000000000    0.303325000000000 
P           0.738522000000000    0.945028000000000    0.490267000000000 
P           0.939515000000000    0.674544000000000    0.303325000000000 
K           0.000000000000000    0.000000000000000    0.710420000000000 
K           0.156650000000000    0.356660000000000    0.022078000000000 
K           0.200010000000000    0.843350000000000    0.022078000000000 
K           0.333333000000000    0.666667000000000    0.010302000000000 
K           0.643340000000000    0.799990000000000    0.022078000000000 
%ENDBLOCK POSITIONS_FRAC
