# Cell file generated by matador (Matthew Evans 2016)

%BLOCK LATTICE_CART
7.31843 0.0 0.0
0.0 6.23161 0.0
3.53014 0.0 6.63748
%ENDBLOCK LATTICE_CART

%BLOCK POSITIONS_FRAC
P           0.260125000000000   -0.000000000000000    0.773041000000000 
P           0.760125000000000    0.500000000000000    0.773041000000000 
K           0.054888000000000    0.500000000000000    0.508833000000000 
K           0.081217000000000   -0.000000000000000    0.209650000000000 
K           0.279781000000000    0.500000000000000    0.934242000000000 
K           0.554888000000000   -0.000000000000000    0.508833000000000 
K           0.581217000000000    0.500000000000000    0.209650000000000 
K           0.779781000000000   -0.000000000000000    0.934242000000000 
%ENDBLOCK POSITIONS_FRAC
