# Cell file generated by matador (Matthew Evans 2016)

%BLOCK LATTICE_CART
5.13614 0.0 0.0
0.0 12.66 0.0
-1.52256 0.0 5.6333
%ENDBLOCK LATTICE_CART

%BLOCK POSITIONS_FRAC
P           0.056731000000000    0.620964000000000    0.809145000000000 
P           0.129183000000000    0.302357000000000    0.903870000000000 
P           0.370817000000000    0.802357000000000    0.096130000000000 
P           0.443269000000000    0.120964000000000    0.190855000000000 
P           0.556731000000000    0.120964000000000    0.809145000000000 
P           0.629183000000000    0.802357000000000    0.903870000000000 
P           0.870817000000000    0.302357000000000    0.096130000000000 
P           0.943269000000000    0.620964000000000    0.190855000000000 
K           0.000000000000000    0.789894000000000    0.500000000000000 
K           0.000000000000000    0.957739000000000    0.500000000000000 
K           0.500000000000000    0.289894000000000    0.500000000000000 
K           0.500000000000000    0.457739000000000    0.500000000000000 
%ENDBLOCK POSITIONS_FRAC
