# Cell file generated by matador (Matthew Evans 2016)

%BLOCK LATTICE_CART
14.7119 0.0 0.0
0.0 4.91497 0.0
-2.30773 0.0 11.0185
%ENDBLOCK LATTICE_CART

%BLOCK POSITIONS_FRAC
P           0.048688000000000    0.143085000000000    0.520681000000000 
P           0.048688000000000    0.356915000000000    0.520681000000000 
P           0.351929000000000    0.519536000000000    0.167215000000000 
P           0.351929000000000    0.980464000000000    0.167215000000000 
P           0.435594000000000    0.041407000000000    0.235359000000000 
P           0.435594000000000    0.458593000000000    0.235359000000000 
P           0.500000000000000   -0.000000000000000    0.000000000000000 
P           0.500000000000000    0.500000000000000    0.000000000000000 
P           0.564406000000000    0.541407000000000    0.764641000000000 
P           0.564406000000000    0.958593000000000    0.764641000000000 
P           0.648071000000000    0.019536000000000    0.832785000000000 
P           0.648071000000000    0.480464000000000    0.832785000000000 
P           0.951312000000000    0.643085000000000    0.479319000000000 
P           0.951312000000000    0.856915000000000    0.479319000000000 
K           0.000000000000000   -0.000000000000000    0.000000000000000 
K           0.000000000000000    0.500000000000000    0.000000000000000 
K           0.076472000000000    0.250000000000000    0.753274000000000 
K           0.500000000000000   -0.000000000000000    0.500000000000000 
K           0.500000000000000    0.500000000000000    0.500000000000000 
K           0.923528000000000    0.750000000000000    0.246726000000000 
%ENDBLOCK POSITIONS_FRAC
