# Cell file generated by matador (Matthew Evans 2016)

%BLOCK LATTICE_CART
7.27179 0.0 0.0
0.0 6.37465 0.0
0.0 0.0 9.75544
%ENDBLOCK LATTICE_CART

%BLOCK POSITIONS_FRAC
P           0.000000000000000    0.000000000000000    0.985549000000000 
P           0.000000000000000    0.234382000000000    0.521496000000000 
P           0.000000000000000    0.500000000000000    0.030537000000000 
P           0.000000000000000    0.765618000000000    0.521496000000000 
P           0.145315000000000    0.000000000000000    0.232845000000000 
P           0.178648000000000    0.100513000000000    0.954020000000000 
P           0.178648000000000    0.899487000000000    0.954020000000000 
P           0.500000000000000    0.000000000000000    0.184300000000000 
P           0.500000000000000    0.000000000000000    0.609075000000000 
P           0.821352000000000    0.100513000000000    0.954020000000000 
P           0.821352000000000    0.899487000000000    0.954020000000000 
P           0.854685000000000    0.000000000000000    0.232845000000000 
K           0.203643000000000    0.000000000000000    0.440255000000000 
K           0.251819000000000    0.500000000000000    0.127700000000000 
K           0.500000000000000    0.301573000000000    0.414769000000000 
K           0.500000000000000    0.698427000000000    0.414769000000000 
K           0.748181000000000    0.500000000000000    0.127700000000000 
K           0.796357000000000    0.000000000000000    0.440255000000000 
%ENDBLOCK POSITIONS_FRAC
