# Cell file generated by matador (Matthew Evans 2016)

%BLOCK LATTICE_CART
7.69351 0.0 0.0
0.0 6.59793 0.0
0.0 0.0 13.6925
%ENDBLOCK LATTICE_CART

%BLOCK POSITIONS_FRAC
P           0.250000000000000    0.000000000000000    0.349890000000000 
P           0.250000000000000    0.500000000000000    0.150110000000000 
P           0.750000000000000    0.000000000000000    0.650110000000000 
P           0.750000000000000    0.500000000000000    0.849890000000000 
K           0.000000000000000    0.000000000000000    0.000000000000000 
K           0.000000000000000    0.000000000000000    0.500000000000000 
K           0.000000000000000    0.500000000000000    0.000000000000000 
K           0.000000000000000    0.500000000000000    0.500000000000000 
K           0.039521000000000    0.750000000000000    0.250000000000000 
K           0.460479000000000    0.250000000000000    0.250000000000000 
K           0.500000000000000    0.000000000000000    0.000000000000000 
K           0.500000000000000    0.000000000000000    0.500000000000000 
K           0.500000000000000    0.500000000000000    0.000000000000000 
K           0.500000000000000    0.500000000000000    0.500000000000000 
K           0.539521000000000    0.750000000000000    0.750000000000000 
K           0.960479000000000    0.250000000000000    0.750000000000000 
%ENDBLOCK POSITIONS_FRAC
