# Cell file generated by matador (Matthew Evans 2016)

%BLOCK LATTICE_CART
6.32154 -0.0 0.0
-3.16077 5.47462 0.0
0.0 0.0 6.81778
%ENDBLOCK LATTICE_CART

%BLOCK POSITIONS_FRAC
P           0.061145000000000    0.538749000000000    0.255064000000000 
P           0.247428000000000    0.716958000000000    0.237595000000000 
P           0.283042000000000    0.530470000000000    0.237595000000000 
P           0.461251000000000    0.522396000000000    0.255064000000000 
P           0.469530000000000    0.752572000000000    0.237595000000000 
P           0.477604000000000    0.938855000000000    0.255064000000000 
P           0.666667000000000    0.333333000000000    0.321407000000000 
K           0.000000000000000    0.000000000000000    0.892523000000000 
K           0.333333000000000    0.666667000000000    0.531136000000000 
%ENDBLOCK POSITIONS_FRAC
