# Cell file generated by matador (Matthew Evans 2016)

%BLOCK LATTICE_CART
8.13719 0.0 0.0
0.0 10.3443 0.0
2.43835 0.0 4.9756
%ENDBLOCK LATTICE_CART

%BLOCK POSITIONS_FRAC
P           0.000000000000000    0.029208000000000    0.500000000000000 
P           0.000000000000000    0.678594000000000    0.000000000000000 
P           0.500000000000000    0.140443000000000    0.000000000000000 
P           0.500000000000000    0.600542000000000    0.000000000000000 
P           0.500000000000000    0.771427000000000    0.000000000000000 
P           0.500000000000000    0.791994000000000    0.500000000000000 
P           0.500000000000000    0.928298000000000    0.000000000000000 
K           0.184417000000000    0.932596000000000    0.084516000000000 
K           0.237159000000000    0.409341000000000    0.863671000000000 
K           0.335609000000000    0.627784000000000    0.604689000000000 
K           0.664391000000000    0.627784000000000    0.395311000000000 
K           0.762841000000000    0.409341000000000    0.136329000000000 
K           0.815583000000000    0.932596000000000    0.915484000000000 
%ENDBLOCK POSITIONS_FRAC
