# Cell file generated by matador (Matthew Evans 2016)

%BLOCK LATTICE_CART
9.67298 0.0 0.0
-1.85824 5.31713 0.0
2.02999 -0.46555 4.73282
%ENDBLOCK LATTICE_CART

%BLOCK POSITIONS_FRAC
P           0.000000000000000    0.000000000000000    0.000000000000000 
P           0.500000000000000    0.000000000000000    0.000000000000000 
K           0.000000000000000    0.000000000000000    0.500000000000000 
K           0.000000000000000    0.500000000000000    0.000000000000000 
K           0.000000000000000    0.500000000000000    0.500000000000000 
K           0.172326000000000    0.486687000000000    0.142404000000000 
K           0.500000000000000    0.000000000000000    0.500000000000000 
K           0.500000000000000    0.500000000000000    0.000000000000000 
K           0.827674000000000    0.513313000000000    0.857596000000000 
%ENDBLOCK POSITIONS_FRAC
