# Cell file generated by matador (Matthew Evans 2016)

%BLOCK LATTICE_CART
7.3269 0.0 0.0
-3.66345 6.34528 0.0
0.0 0.0 6.55511
%ENDBLOCK LATTICE_CART

%BLOCK POSITIONS_FRAC
P          -0.000000000000000   -0.000000000000000    0.222828000000000 
P          -0.000000000000000   -0.000000000000000    0.777172000000000 
P          -0.000000000000000    0.500000000000000    0.500000000000000 
P           0.333333000000000    0.666667000000000    0.735182000000000 
P           0.500000000000000   -0.000000000000000    0.500000000000000 
P           0.500000000000000    0.500000000000000    0.500000000000000 
P           0.666667000000000    0.333333000000000    0.264818000000000 
K          -0.000000000000000    0.500000000000000    0.000000000000000 
K           0.333333000000000    0.666667000000000    0.263454000000000 
K           0.500000000000000   -0.000000000000000    0.000000000000000 
K           0.500000000000000    0.500000000000000    0.000000000000000 
K           0.666667000000000    0.333333000000000    0.736546000000000 
%ENDBLOCK POSITIONS_FRAC
