# Cell file generated by matador (Matthew Evans 2016)

%BLOCK LATTICE_CART
8.23604 0.0 0.0
0.0 5.12667 0.0
0.0 0.0 8.17769
%ENDBLOCK LATTICE_CART

%BLOCK POSITIONS_FRAC
P           0.144217000000000    0.500000000000000    0.729723000000000 
P           0.855783000000000    0.500000000000000    0.729723000000000 
K           0.221960000000000    0.500000000000000    0.386022000000000 
K           0.222929000000000    0.500000000000000    0.978214000000000 
K           0.291896000000000    0.000000000000000    0.721081000000000 
K           0.708104000000000    0.000000000000000    0.721081000000000 
K           0.777071000000000    0.500000000000000    0.978214000000000 
K           0.778040000000000    0.500000000000000    0.386022000000000 
%ENDBLOCK POSITIONS_FRAC
