# Cell file generated by matador (Matthew Evans 2016)

%BLOCK LATTICE_CART
9.28713 0.0 0.0
1.34 5.19269 0.0
-3.05408 3.13462 5.61452
%ENDBLOCK LATTICE_CART

%BLOCK POSITIONS_FRAC
P           0.000000000000000    0.500000000000000    0.000000000000000 
P           0.002902000000000    0.363567000000000    0.798671000000000 
P           0.028047000000000    0.344498000000000    0.233784000000000 
P           0.452586000000000    0.597054000000000    0.826815000000000 
P           0.547414000000000    0.402946000000000    0.173185000000000 
P           0.971953000000000    0.655502000000000    0.766216000000000 
P           0.997098000000000    0.636433000000000    0.201329000000000 
K           0.000000000000000    0.000000000000000    0.000000000000000 
K           0.000000000000000    0.500000000000000    0.500000000000000 
K           0.500000000000000    0.000000000000000    0.000000000000000 
K           0.500000000000000    0.500000000000000    0.500000000000000 
%ENDBLOCK POSITIONS_FRAC
