# Cell file generated by matador (Matthew Evans 2016)

%BLOCK LATTICE_CART
9.12527 0.0 0.0
-4.56264 7.90272 0.0
0.0 0.0 8.04412
%ENDBLOCK LATTICE_CART

%BLOCK POSITIONS_FRAC
P           0.000000000000000   -0.000000000000000    0.000000000000000 
P           0.000000000000000   -0.000000000000000    0.500000000000000 
P           0.111706000000000    0.428497000000000    0.690074000000000 
P           0.111706000000000    0.683209000000000    0.309926000000000 
P           0.316791000000000    0.428497000000000    0.309926000000000 
P           0.316791000000000    0.888294000000000    0.690074000000000 
P           0.333334000000000    0.666666000000000    0.000000000000000 
P           0.333334000000000    0.666666000000000    0.500000000000000 
P           0.571503000000000    0.683209000000000    0.690074000000000 
P           0.571503000000000    0.888294000000000    0.309926000000000 
P           0.666667000000000    0.333333000000000    0.000000000000000 
P           0.666667000000000    0.333333000000000    0.500000000000000 
K           0.374193000000000    0.187096000000000    0.000000000000000 
K           0.812904000000000    0.187096000000000    0.000000000000000 
K           0.812904000000000    0.625807000000000    0.000000000000000 
%ENDBLOCK POSITIONS_FRAC
