# Cell file generated by matador (Matthew Evans 2016)

%BLOCK LATTICE_CART
6.42889 0.0 0.0
0.0 6.42889 0.0
0.0 0.0 6.42889
%ENDBLOCK LATTICE_CART

%BLOCK POSITIONS_FRAC
P           0.000000000000000    0.000000000000000    0.500000000000000 
P           0.000000000000000    0.500000000000000    0.000000000000000 
P           0.000000000000000    0.500000000000000    0.500000000000000 
P           0.500000000000000    0.000000000000000    0.000000000000000 
P           0.500000000000000    0.000000000000000    0.500000000000000 
P           0.500000000000000    0.500000000000000    0.000000000000000 
P           0.500000000000000    0.500000000000000    0.500000000000000 
K           0.291227000000000    0.291227000000000    0.291227000000000 
K           0.291227000000000    0.708773000000000    0.708773000000000 
K           0.708773000000000    0.291227000000000    0.708773000000000 
K           0.708773000000000    0.708773000000000    0.291227000000000 
%ENDBLOCK POSITIONS_FRAC
