# Cell file generated by matador (Matthew Evans 2016)

%BLOCK LATTICE_CART
6.43996 0.0 0.0
-3.21998 5.57717 0.0
0.0 0.0 12.7596
%ENDBLOCK LATTICE_CART

%BLOCK POSITIONS_FRAC
P           0.154834000000000    0.577417000000000    0.632848000000000 
P           0.163706000000000    0.081853000000000    0.552052000000000 
P           0.333333000000000    0.666667000000000    0.660720000000000 
P           0.422583000000000    0.577417000000000    0.632848000000000 
P           0.422583000000000    0.845166000000000    0.632848000000000 
P           0.666667000000000    0.333333000000000    0.279189000000000 
P           0.918147000000000    0.081853000000000    0.552052000000000 
P           0.918147000000000    0.836294000000000    0.552052000000000 
K           0.000000000000000    0.000000000000000    0.383795000000000 
K           0.332236000000000    0.008726000000000    0.778461000000000 
K           0.332236000000000    0.323510000000000    0.778461000000000 
K           0.666667000000000    0.333333000000000    0.825359000000000 
K           0.676490000000000    0.008726000000000    0.778461000000000 
K           0.676490000000000    0.667764000000000    0.778461000000000 
K           0.991274000000000    0.323510000000000    0.778461000000000 
K           0.991274000000000    0.667764000000000    0.778461000000000 
%ENDBLOCK POSITIONS_FRAC
