# Cell file generated by matador (Matthew Evans 2016)

%BLOCK LATTICE_CART
5.62293 0.0 0.0
-2.81146 4.8696 0.0
0.0 0.0 5.34507
%ENDBLOCK LATTICE_CART

%BLOCK POSITIONS_FRAC
P           0.171624000000000    0.670043000000000    0.844485000000000 
P           0.329957000000000    0.501581000000000    0.844485000000000 
P           0.333333000000000    0.666667000000000    0.580960000000000 
P           0.498419000000000    0.828376000000000    0.844485000000000 
P           0.666667000000000    0.333333000000000    0.009620000000000 
K           0.000000000000000    0.000000000000000    0.821280000000000 
%ENDBLOCK POSITIONS_FRAC
