# Cell file generated by matador (Matthew Evans 2016)

%BLOCK LATTICE_CART
5.49959 0.0 0.0
0.0 9.69547 0.0
-0.372628 0.0 8.27572
%ENDBLOCK LATTICE_CART

%BLOCK POSITIONS_FRAC
P           0.000000000000000    0.623826000000000    0.000000000000000 
P           0.074305000000000    0.073949000000000    0.703797000000000 
P           0.153385000000000    0.324217000000000    0.752445000000000 
P           0.434805000000000    0.818079000000000    0.873937000000000 
P           0.500000000000000    0.661135000000000    0.000000000000000 
P           0.500000000000000    0.887179000000000    0.000000000000000 
P           0.500000000000000    0.925461000000000    0.500000000000000 
P           0.565195000000000    0.818079000000000    0.126063000000000 
P           0.846615000000000    0.324217000000000    0.247555000000000 
P           0.925695000000000    0.073949000000000    0.296203000000000 
K           0.000000000000000    0.436786000000000    0.500000000000000 
K           0.000000000000000    0.821967000000000    0.500000000000000 
K           0.169836000000000    0.702507000000000    0.285940000000000 
K           0.268769000000000    0.474456000000000    0.937173000000000 
K           0.473715000000000    0.160708000000000    0.234546000000000 
K           0.526285000000000    0.160708000000000    0.765454000000000 
K           0.731231000000000    0.474456000000000    0.062827000000000 
K           0.830164000000000    0.702507000000000    0.714060000000000 
%ENDBLOCK POSITIONS_FRAC
