# Cell file generated by matador (Matthew Evans 2016)

%BLOCK LATTICE_CART
12.3768 0.0 0.0
-6.1884 10.7186 0.0
0.0 0.0 8.04189
%ENDBLOCK LATTICE_CART

%BLOCK POSITIONS_FRAC
P           0.000000000000000    0.000000000000000    0.000000000000000 
P           0.047301000000000    0.409745000000000    0.500000000000000 
P           0.047301000000000    0.637557000000000    0.500000000000000 
P           0.362443000000000    0.409745000000000    0.500000000000000 
P           0.362443000000000    0.952699000000000    0.500000000000000 
P           0.590255000000000    0.637557000000000    0.500000000000000 
P           0.590255000000000    0.952699000000000    0.500000000000000 
K           0.000000000000000    0.000000000000000    0.500000000000000 
K           0.016029000000000    0.314321000000000    0.000000000000000 
K           0.016029000000000    0.701708000000000    0.000000000000000 
K           0.211430000000000    0.105715000000000    0.252972000000000 
K           0.211430000000000    0.105715000000000    0.747028000000000 
K           0.298292000000000    0.314321000000000    0.000000000000000 
K           0.298292000000000    0.983971000000000    0.000000000000000 
K           0.333333000000000    0.666667000000000    0.000000000000000 
K           0.526625000000000    0.053251000000000    0.247498000000000 
K           0.526625000000000    0.053251000000000    0.752502000000000 
K           0.526625000000000    0.473375000000000    0.247498000000000 
K           0.526625000000000    0.473375000000000    0.752502000000000 
K           0.666667000000000    0.333333000000000    0.500000000000000 
K           0.685679000000000    0.701708000000000    0.000000000000000 
K           0.685679000000000    0.983971000000000    0.000000000000000 
K           0.894285000000000    0.105715000000000    0.252972000000000 
K           0.894285000000000    0.105715000000000    0.747028000000000 
K           0.894285000000000    0.788570000000000    0.252972000000000 
K           0.894285000000000    0.788570000000000    0.747028000000000 
K           0.946749000000000    0.473375000000000    0.247498000000000 
K           0.946749000000000    0.473375000000000    0.752502000000000 
%ENDBLOCK POSITIONS_FRAC
