# Cell file generated by matador (Matthew Evans 2016)

%BLOCK LATTICE_CART
8.07793 0.0 0.0
0.0 8.07793 0.0
0.0 0.0 7.71302
%ENDBLOCK LATTICE_CART

%BLOCK POSITIONS_FRAC
P           0.000000000000000    0.000000000000000    0.000000000000000 
P           0.139287000000000    0.727626000000000    0.000000000000000 
P           0.227626000000000    0.360713000000000    0.500000000000000 
P           0.272374000000000    0.139287000000000    0.000000000000000 
P           0.360713000000000    0.772374000000000    0.500000000000000 
P           0.500000000000000    0.500000000000000    0.500000000000000 
P           0.639287000000000    0.227626000000000    0.500000000000000 
P           0.727626000000000    0.860713000000000    0.000000000000000 
P           0.772374000000000    0.639287000000000    0.500000000000000 
P           0.860713000000000    0.272374000000000    0.000000000000000 
K           0.000000000000000    0.000000000000000    0.500000000000000 
K           0.000000000000000    0.500000000000000    0.000000000000000 
K           0.000000000000000    0.500000000000000    0.500000000000000 
K           0.500000000000000    0.000000000000000    0.000000000000000 
K           0.500000000000000    0.000000000000000    0.500000000000000 
K           0.500000000000000    0.500000000000000    0.000000000000000 
%ENDBLOCK POSITIONS_FRAC
