# Cell file generated by matador (Matthew Evans 2016)

%BLOCK LATTICE_CART
9.4077 0.0 0.0
-4.70385 8.1473 0.0
0.0 0.0 8.63301
%ENDBLOCK LATTICE_CART

%BLOCK POSITIONS_FRAC
P           0.000000000000000    0.000000000000000    0.000000000000000 
P           0.000000000000000    0.000000000000000    0.500000000000000 
P           0.000000000000000    0.500000000000000    0.000000000000000 
P           0.000000000000000    0.500000000000000    0.500000000000000 
P           0.500000000000000    0.000000000000000    0.000000000000000 
P           0.500000000000000    0.000000000000000    0.500000000000000 
P           0.500000000000000    0.500000000000000    0.000000000000000 
P           0.500000000000000    0.500000000000000    0.500000000000000 
K           0.183324000000000    0.366648000000000    0.660432000000000 
K           0.183324000000000    0.816676000000000    0.660432000000000 
K           0.212010000000000    0.424019000000000    0.076395000000000 
K           0.212010000000000    0.787990000000000    0.076395000000000 
K           0.366648000000000    0.183324000000000    0.339568000000000 
K           0.424019000000000    0.212010000000000    0.923605000000000 
K           0.575981000000000    0.787990000000000    0.076395000000000 
K           0.633352000000000    0.816676000000000    0.660432000000000 
K           0.787990000000000    0.212010000000000    0.923605000000000 
K           0.787990000000000    0.575981000000000    0.923605000000000 
K           0.816676000000000    0.183324000000000    0.339568000000000 
K           0.816676000000000    0.633352000000000    0.339568000000000 
%ENDBLOCK POSITIONS_FRAC
