# Cell file generated by matador (Matthew Evans 2016)

%BLOCK LATTICE_CART
6.73175 0.0 0.0
-3.36587 5.82986 0.0
0.0 0.0 9.06529
%ENDBLOCK LATTICE_CART

%BLOCK POSITIONS_FRAC
P           0.188108000000000    0.457689000000000    0.850583000000000 
P           0.208977000000000    0.063752000000000    0.183916000000000 
P           0.269581000000000    0.811892000000000    0.850583000000000 
P           0.521442000000000    0.124356000000000    0.517250000000000 
P           0.542311000000000    0.730419000000000    0.850583000000000 
P           0.602915000000000    0.478558000000000    0.517250000000000 
P           0.854775000000000    0.791023000000000    0.183916000000000 
P           0.875644000000000    0.397085000000000    0.517250000000000 
P           0.936248000000000    0.145225000000000    0.183916000000000 
K           0.000000000000000    0.000000000000000    0.567569000000000 
K           0.333333000000000    0.666667000000000    0.234236000000000 
K           0.666667000000000    0.333333000000000    0.900903000000000 
%ENDBLOCK POSITIONS_FRAC
