# Cell file generated by matador (Matthew Evans 2016)

%BLOCK LATTICE_CART
5.47082 0.0 0.0
0.0 7.98668 0.0
2.35122 0.0 4.86818
%ENDBLOCK LATTICE_CART

%BLOCK POSITIONS_FRAC
P           0.114016000000000    0.112178000000000    0.219841000000000 
P           0.114016000000000    0.887822000000000    0.219841000000000 
P           0.590243000000000    0.302162000000000    0.368753000000000 
P           0.590243000000000    0.697838000000000    0.368753000000000 
K           0.124725000000000    0.370480000000000    0.499016000000000 
K           0.124725000000000    0.629520000000000    0.499016000000000 
K           0.550678000000000    0.500000000000000    0.089023000000000 
%ENDBLOCK POSITIONS_FRAC
