# Cell file generated by matador (Matthew Evans 2016)

%BLOCK LATTICE_CART
9.90238 0.0 0.0
0.0 8.00321 0.0
1.68542 0.0 7.1086
%ENDBLOCK LATTICE_CART

%BLOCK POSITIONS_FRAC
P           0.041299000000000    0.296753000000000    0.515806000000000 
P           0.041299000000000    0.703247000000000    0.515806000000000 
P           0.139529000000000    0.137836000000000    0.183097000000000 
P           0.139529000000000    0.862164000000000    0.183097000000000 
P           0.541299000000000    0.203247000000000    0.515806000000000 
P           0.541299000000000    0.796753000000000    0.515806000000000 
P           0.639529000000000    0.362164000000000    0.183097000000000 
P           0.639529000000000    0.637836000000000    0.183097000000000 
K           0.009948000000000    0.500000000000000    0.069824000000000 
K           0.145176000000000    0.500000000000000    0.254372000000000 
K           0.313899000000000   -0.000000000000000    0.832106000000000 
K           0.350516000000000    0.316441000000000    0.062565000000000 
K           0.350516000000000    0.683559000000000    0.062565000000000 
K           0.471233000000000    0.500000000000000    0.757444000000000 
K           0.509948000000000   -0.000000000000000    0.069824000000000 
K           0.645176000000000   -0.000000000000000    0.254372000000000 
K           0.813899000000000    0.500000000000000    0.832106000000000 
K           0.850516000000000    0.183559000000000    0.062565000000000 
K           0.850516000000000    0.816441000000000    0.062565000000000 
K           0.971233000000000   -0.000000000000000    0.757444000000000 
%ENDBLOCK POSITIONS_FRAC
