# Cell file generated by matador (Matthew Evans 2016)

%BLOCK LATTICE_CART
13.6725 0.0 0.0
-6.83623 11.8407 0.0
0.0 0.0 6.0299
%ENDBLOCK LATTICE_CART

%BLOCK POSITIONS_FRAC
P           0.326789000000000    0.027073000000000    0.574315000000000 
P           0.326789000000000    0.299716000000000    0.425685000000000 
P           0.700284000000000    0.027073000000000    0.092352000000000 
P           0.700284000000000    0.673211000000000    0.907648000000000 
P           0.972927000000000    0.299716000000000    0.240982000000000 
P           0.972927000000000    0.673211000000000    0.759018000000000 
K           0.052640000000000    0.526320000000000    0.500000000000000 
K           0.212614000000000    0.425229000000000    0.833333000000000 
K           0.212614000000000    0.787386000000000    0.166667000000000 
K           0.249238000000000    0.124619000000000   -0.000000000000000 
K           0.250849000000000    0.501698000000000    0.333333000000000 
K           0.250849000000000    0.749151000000000    0.666667000000000 
K           0.416484000000000    0.208242000000000    0.500000000000000 
K           0.473680000000000    0.526320000000000    0.166667000000000 
K           0.473680000000000    0.947360000000000    0.833333000000000 
K           0.498302000000000    0.749151000000000   -0.000000000000000 
K           0.515991000000000    0.257995000000000   -0.000000000000000 
K           0.574771000000000    0.787386000000000    0.500000000000000 
K           0.742005000000000    0.257995000000000    0.666667000000000 
K           0.742005000000000    0.484009000000000    0.333333000000000 
K           0.791758000000000    0.208242000000000    0.166667000000000 
K           0.791758000000000    0.583516000000000    0.833333000000000 
K           0.875381000000000    0.124619000000000    0.666667000000000 
K           0.875381000000000    0.750762000000000    0.333333000000000 
%ENDBLOCK POSITIONS_FRAC
