# Cell file generated by matador (Matthew Evans 2016)

%BLOCK LATTICE_CART
8.12013 0.0 0.0
-4.06006 7.03224 0.0
0.0 0.0 8.18083
%ENDBLOCK LATTICE_CART

%BLOCK POSITIONS_FRAC
P           0.000000000000000   -0.000000000000000    0.241123000000000 
P           0.333333000000000    0.666667000000000    0.907790000000000 
P           0.666667000000000    0.333333000000000    0.574456000000000 
K           0.196966000000000    0.393933000000000    0.246363000000000 
K           0.196966000000000    0.803034000000000    0.246363000000000 
K           0.272734000000000    0.136367000000000    0.579696000000000 
K           0.530300000000000    0.060599000000000    0.913029000000000 
K           0.530300000000000    0.469700000000000    0.913029000000000 
K           0.606067000000000    0.803034000000000    0.246363000000000 
K           0.863633000000000    0.136367000000000    0.579696000000000 
K           0.863633000000000    0.727266000000000    0.579696000000000 
K           0.939401000000000    0.469700000000000    0.913029000000000 
%ENDBLOCK POSITIONS_FRAC
