# Cell file generated by matador (Matthew Evans 2016)

%BLOCK LATTICE_CART
6.06093 0.0 0.0
0.0 10.4744 0.0
-1.3711 0.0 5.1865
%ENDBLOCK LATTICE_CART

%BLOCK POSITIONS_FRAC
P           0.041936000000000    0.184970000000000    0.935834000000000 
P           0.041936000000000    0.815030000000000    0.935834000000000 
K           0.077352000000000    0.000000000000000    0.285591000000000 
K           0.150334000000000    0.500000000000000    0.129601000000000 
K           0.473614000000000    0.500000000000000    0.779808000000000 
K           0.534598000000000    0.000000000000000    0.268181000000000 
K           0.673982000000000    0.500000000000000    0.320211000000000 
K           0.694032000000000    0.000000000000000    0.777239000000000 
%ENDBLOCK POSITIONS_FRAC
