# Cell file generated by matador (Matthew Evans 2016)

%BLOCK LATTICE_CART
8.48358 0.0 0.0
-4.24179 7.34699 0.0
0.0 0.0 8.68257
%ENDBLOCK LATTICE_CART

%BLOCK POSITIONS_FRAC
P           0.183400000000000    0.366801000000000    0.507997000000000 
P           0.183400000000000    0.816600000000000    0.507997000000000 
P           0.299866000000000    0.149933000000000    0.841330000000000 
P           0.516734000000000    0.033467000000000    0.174663000000000 
P           0.516734000000000    0.483266000000000    0.174663000000000 
P           0.633199000000000    0.816600000000000    0.507997000000000 
P           0.850067000000000    0.149933000000000    0.841330000000000 
P           0.850067000000000    0.700134000000000    0.841330000000000 
P           0.966533000000000    0.483266000000000    0.174663000000000 
K           0.000000000000000    0.000000000000000    0.431366000000000 
K           0.000000000000000    0.000000000000000    0.879207000000000 
K           0.333333000000000    0.666667000000000    0.098032000000000 
K           0.333333000000000    0.666667000000000    0.545874000000000 
K           0.666667000000000    0.333333000000000    0.212541000000000 
K           0.666667000000000    0.333333000000000    0.764699000000000 
%ENDBLOCK POSITIONS_FRAC
