# Cell file generated by matador (Matthew Evans 2016)

%BLOCK LATTICE_CART
4.28745 0.0 0.0
0.0 5.90286 0.0
2.94712 0.0 6.67944
%ENDBLOCK LATTICE_CART

%BLOCK POSITIONS_FRAC
P           0.000000000000000    0.489179000000000    0.500000000000000 
K           0.311330000000000    0.518098000000000    0.830264000000000 
K           0.500000000000000    0.413207000000000    0.500000000000000 
K           0.500000000000000    0.968645000000000    0.000000000000000 
K           0.688670000000000    0.518098000000000    0.169736000000000 
%ENDBLOCK POSITIONS_FRAC
