# Cell file generated by matador (Matthew Evans 2016)

%BLOCK LATTICE_CART
5.19861 0.0 0.0
-2.5993 4.50213 0.0
0.0 0.0 6.36157
%ENDBLOCK LATTICE_CART

%BLOCK POSITIONS_FRAC
P           0.999999000000000    0.999999000000000    0.336101000000000 
P           0.333332000000000    0.666666000000000    0.231256000000000 
P           0.666666000000000    0.333332000000000    0.231256000000000 
K           0.333332000000000    0.666666000000000    0.871287000000000 
K           0.666666000000000    0.333332000000000    0.871287000000000 
%ENDBLOCK POSITIONS_FRAC
