# Cell file generated by matador (Matthew Evans 2016)

%BLOCK LATTICE_CART
7.0184 0.0 0.0
0.0 7.0184 0.0
0.0 0.0 4.96633
%ENDBLOCK LATTICE_CART

%BLOCK POSITIONS_FRAC
P           0.240336000000000    0.500000000000000    0.000000000000000 
P           0.500000000000000    0.240336000000000    0.000000000000000 
P           0.500000000000000    0.500000000000000    0.101280000000000 
P           0.500000000000000    0.500000000000000    0.898720000000000 
P           0.500000000000000    0.759664000000000    0.000000000000000 
P           0.759664000000000    0.500000000000000    0.000000000000000 
K           0.000000000000000    0.000000000000000    0.000000000000000 
K           0.000000000000000    0.000000000000000    0.500000000000000 
K           0.000000000000000    0.500000000000000    0.500000000000000 
K           0.500000000000000    0.000000000000000    0.500000000000000 
K           0.500000000000000    0.500000000000000    0.500000000000000 
%ENDBLOCK POSITIONS_FRAC
