# Cell file generated by matador (Matthew Evans 2016)

%BLOCK LATTICE_CART
8.90902 0.0 0.0
0.0 8.90902 0.0
0.0 0.0 7.97098
%ENDBLOCK LATTICE_CART

%BLOCK POSITIONS_FRAC
P           0.000000000000000    0.000000000000000    0.000000000000000 
P           0.000000000000000    0.000000000000000    0.500000000000000 
P           0.500000000000000    0.500000000000000    0.000000000000000 
P           0.500000000000000    0.500000000000000    0.500000000000000 
K           0.000000000000000    0.500000000000000    0.250000000000000 
K           0.000000000000000    0.500000000000000    0.750000000000000 
K           0.161245000000000    0.161245000000000    0.322656000000000 
K           0.161245000000000    0.838755000000000    0.677344000000000 
K           0.338755000000000    0.338755000000000    0.822656000000000 
K           0.338755000000000    0.661245000000000    0.177344000000000 
K           0.500000000000000    0.000000000000000    0.250000000000000 
K           0.500000000000000    0.000000000000000    0.750000000000000 
K           0.661245000000000    0.338755000000000    0.177344000000000 
K           0.661245000000000    0.661245000000000    0.822656000000000 
K           0.838755000000000    0.161245000000000    0.677344000000000 
K           0.838755000000000    0.838755000000000    0.322656000000000 
%ENDBLOCK POSITIONS_FRAC
