# Cell file generated by matador (Matthew Evans 2016)

%BLOCK LATTICE_CART
9.65979 0.0 0.0
0.0 9.65979 0.0
0.0 0.0 9.01215
%ENDBLOCK LATTICE_CART

%BLOCK POSITIONS_FRAC
P           0.000000000000000    0.500000000000000    0.489947000000000 
P           0.139479000000000    0.639479000000000    0.259411000000000 
P           0.360521000000000    0.139479000000000    0.259411000000000 
P           0.500000000000000    0.000000000000000    0.489947000000000 
P           0.639479000000000    0.860521000000000    0.259411000000000 
P           0.860521000000000    0.360521000000000    0.259411000000000 
K           0.000000000000000    0.000000000000000    0.781725000000000 
K           0.128489000000000    0.371511000000000    0.878566000000000 
K           0.142656000000000    0.642656000000000    0.630477000000000 
K           0.168797000000000    0.668797000000000    0.023040000000000 
K           0.198558000000000    0.301442000000000    0.336199000000000 
K           0.301442000000000    0.801442000000000    0.336199000000000 
K           0.331203000000000    0.168797000000000    0.023040000000000 
K           0.357344000000000    0.142656000000000    0.630477000000000 
K           0.371511000000000    0.871511000000000    0.878566000000000 
K           0.500000000000000    0.500000000000000    0.781725000000000 
K           0.628489000000000    0.128489000000000    0.878566000000000 
K           0.642656000000000    0.857344000000000    0.630477000000000 
K           0.668797000000000    0.831203000000000    0.023040000000000 
K           0.698558000000000    0.198558000000000    0.336199000000000 
K           0.801442000000000    0.698558000000000    0.336199000000000 
K           0.831203000000000    0.331203000000000    0.023040000000000 
K           0.857344000000000    0.357344000000000    0.630477000000000 
K           0.871511000000000    0.628489000000000    0.878566000000000 
%ENDBLOCK POSITIONS_FRAC
