# Cell file generated by matador (Matthew Evans 2016)

%BLOCK LATTICE_CART
10.4791 0.0 0.0
-5.23956 9.07518 0.0
0.0 0.0 8.88578
%ENDBLOCK LATTICE_CART

%BLOCK POSITIONS_FRAC
P           0.114916000000000    0.263420000000000    0.374226000000000 
P           0.148502000000000    0.885082000000000    0.374226000000000 
P           0.263420000000000    0.114916000000000    0.374226000000000 
P           0.736578000000000    0.851496000000000    0.374226000000000 
P           0.851496000000000    0.736578000000000    0.374226000000000 
P           0.885082000000000    0.148502000000000    0.374226000000000 
K           0.999999000000000    0.191038000000000    0.622476000000000 
K           0.999999000000000    0.229305000000000    0.951294000000000 
K           0.999999000000000    0.369552000000000    0.337006000000000 
K           0.999999000000000    0.469285000000000    0.673305000000000 
K           0.999999000000000    0.651181000000000    0.174180000000000 
K           0.999999000000000    0.703536000000000    0.497955000000000 
K           0.191038000000000    0.999999000000000    0.622476000000000 
K           0.229305000000000    0.999999000000000    0.951294000000000 
K           0.296462000000000    0.296462000000000    0.497955000000000 
K           0.348817000000000    0.348817000000000    0.174180000000000 
K           0.369552000000000    0.999999000000000    0.337006000000000 
K           0.469285000000000    0.999999000000000    0.673305000000000 
K           0.530713000000000    0.530713000000000    0.673305000000000 
K           0.630446000000000    0.630446000000000    0.337006000000000 
K           0.651181000000000    0.999999000000000    0.174180000000000 
K           0.703536000000000    0.999999000000000    0.497955000000000 
K           0.770693000000000    0.770693000000000    0.951294000000000 
K           0.808960000000000    0.808960000000000    0.622476000000000 
%ENDBLOCK POSITIONS_FRAC
