# Cell file generated by matador (Matthew Evans 2016)

%BLOCK LATTICE_CART
5.11241 0.0 0.0
0.0 4.74157 0.0
0.0 0.0 5.88485
%ENDBLOCK LATTICE_CART

%BLOCK POSITIONS_FRAC
P           0.140493000000000    0.500000000000000    0.000000000000000 
P           0.483316000000000    0.249211000000000    0.223659000000000 
P           0.483316000000000    0.750789000000000    0.776341000000000 
P           0.516684000000000    0.249211000000000    0.776341000000000 
P           0.516684000000000    0.750789000000000    0.223659000000000 
P           0.859507000000000    0.500000000000000    0.000000000000000 
K           0.500000000000000    0.000000000000000    0.500000000000000 
%ENDBLOCK POSITIONS_FRAC
