# Cell file generated by matador (Matthew Evans 2016)

%BLOCK LATTICE_CART
7.33597 0.0 0.0
-3.66798 6.35314 0.0
0.0 0.0 9.28011
%ENDBLOCK LATTICE_CART

%BLOCK POSITIONS_FRAC
P           0.000000000000000    0.272286000000000    0.000000000000000 
P           0.000000000000000    0.272286000000000    0.500000000000000 
P           0.272286000000000    0.000000000000000    0.000000000000000 
P           0.272286000000000    0.000000000000000    0.500000000000000 
P           0.333333000000000    0.666667000000000    0.034470000000000 
P           0.333333000000000    0.666667000000000    0.465530000000000 
P           0.666667000000000    0.333333000000000    0.534470000000000 
P           0.666667000000000    0.333333000000000    0.965530000000000 
P           0.727714000000000    0.727714000000000    0.000000000000000 
P           0.727714000000000    0.727714000000000    0.500000000000000 
K           0.000000000000000    0.000000000000000    0.000000000000000 
K           0.000000000000000    0.000000000000000    0.250000000000000 
K           0.000000000000000    0.000000000000000    0.500000000000000 
K           0.000000000000000    0.000000000000000    0.750000000000000 
K           0.333333000000000    0.666667000000000    0.250000000000000 
K           0.333333000000000    0.666667000000000    0.750000000000000 
K           0.666667000000000    0.333333000000000    0.250000000000000 
K           0.666667000000000    0.333333000000000    0.750000000000000 
%ENDBLOCK POSITIONS_FRAC
