# Cell file generated by matador (Matthew Evans 2016)

%BLOCK LATTICE_CART
6.59378 0.0 0.0
0.0 6.59378 0.0
0.0 0.0 7.08697
%ENDBLOCK LATTICE_CART

%BLOCK POSITIONS_FRAC
P           0.000000000000000    0.000000000000000    0.000000000000000 
P           0.000000000000000    0.000000000000000    0.500000000000000 
P           0.027866000000000    0.181223000000000    0.685887000000000 
P           0.027866000000000    0.818777000000000    0.314113000000000 
P           0.181223000000000    0.027866000000000    0.685887000000000 
P           0.181223000000000    0.972134000000000    0.314113000000000 
P           0.345240000000000    0.500000000000000    0.000000000000000 
P           0.500000000000000    0.345240000000000    0.000000000000000 
P           0.500000000000000    0.654760000000000    0.000000000000000 
P           0.654760000000000    0.500000000000000    0.000000000000000 
P           0.818777000000000    0.027866000000000    0.314113000000000 
P           0.818777000000000    0.972134000000000    0.685887000000000 
P           0.972134000000000    0.181223000000000    0.314113000000000 
P           0.972134000000000    0.818777000000000    0.685887000000000 
K           0.000000000000000    0.500000000000000    0.000000000000000 
K           0.500000000000000    0.000000000000000    0.000000000000000 
%ENDBLOCK POSITIONS_FRAC
