# Cell file generated by matador (Matthew Evans 2016)

%BLOCK LATTICE_CART
11.038 0.0 0.0
-5.51899 9.55918 0.0
0.0 0.0 11.5542
%ENDBLOCK LATTICE_CART

%BLOCK POSITIONS_FRAC
P           0.000000000000000    0.000000000000000    0.500000000000000 
P           0.000000000000000    0.314664000000000    0.000000000000000 
P           0.000000000000000    0.685336000000000    0.000000000000000 
P           0.314664000000000    0.000000000000000    0.000000000000000 
P           0.314664000000000    0.314664000000000    0.000000000000000 
P           0.685336000000000    0.000000000000000    0.000000000000000 
P           0.685336000000000    0.685336000000000    0.000000000000000 
K           0.000000000000000    0.000000000000000    0.000000000000000 
K           0.000000000000000    0.500000000000000    0.000000000000000 
K           0.000000000000000    0.500000000000000    0.500000000000000 
K           0.161912000000000    0.323823000000000    0.888322000000000 
K           0.161912000000000    0.838088000000000    0.888322000000000 
K           0.209672000000000    0.419344000000000    0.580027000000000 
K           0.209672000000000    0.790328000000000    0.580027000000000 
K           0.323823000000000    0.161912000000000    0.111678000000000 
K           0.333333000000000    0.666667000000000    0.764384000000000 
K           0.419344000000000    0.209672000000000    0.419973000000000 
K           0.500000000000000    0.000000000000000    0.000000000000000 
K           0.500000000000000    0.000000000000000    0.500000000000000 
K           0.500000000000000    0.500000000000000    0.000000000000000 
K           0.500000000000000    0.500000000000000    0.500000000000000 
K           0.580656000000000    0.790328000000000    0.580027000000000 
K           0.666667000000000    0.333333000000000    0.235616000000000 
K           0.676177000000000    0.838088000000000    0.888322000000000 
K           0.790328000000000    0.209672000000000    0.419973000000000 
K           0.790328000000000    0.580656000000000    0.419973000000000 
K           0.838088000000000    0.161912000000000    0.111678000000000 
K           0.838088000000000    0.676177000000000    0.111678000000000 
%ENDBLOCK POSITIONS_FRAC
