# Cell file generated by matador (Matthew Evans 2016)

%BLOCK LATTICE_CART
6.02051 0.0 0.0
-3.01025 5.21391 0.0
0.0 0.0 9.89043
%ENDBLOCK LATTICE_CART

%BLOCK POSITIONS_FRAC
P           0.333334000000000    0.666668000000000    0.941359000000000 
P           0.666668000000000    0.333334000000000    0.941359000000000 
K           0.000001000000000    0.400993000000000    0.144772000000000 
K           0.000001000000000    0.657066000000000    0.600285000000000 
K           0.342936000000000    0.342936000000000    0.600285000000000 
K           0.400993000000000    0.000001000000000    0.144772000000000 
K           0.599009000000000    0.599009000000000    0.144772000000000 
K           0.657066000000000    0.000001000000000    0.600285000000000 
%ENDBLOCK POSITIONS_FRAC
