# Cell file generated by matador (Matthew Evans 2016)

%BLOCK LATTICE_CART
5.91104 0.0 0.0
-2.95552 5.11911 0.0
0.0 0.0 13.8692
%ENDBLOCK LATTICE_CART

%BLOCK POSITIONS_FRAC
P           0.000000000000000    0.000000000000000    0.500000000000000 
P           0.000000000000000    0.661649000000000    0.000000000000000 
P           0.338351000000000    0.338351000000000    0.000000000000000 
P           0.661649000000000    0.000000000000000    0.000000000000000 
K           0.000000000000000    0.000000000000000    0.000000000000000 
K           0.000000000000000    0.266101000000000    0.201224000000000 
K           0.000000000000000    0.266101000000000    0.798776000000000 
K           0.266101000000000    0.000000000000000    0.201224000000000 
K           0.266101000000000    0.000000000000000    0.798776000000000 
K           0.733899000000000    0.733899000000000    0.201224000000000 
K           0.733899000000000    0.733899000000000    0.798776000000000 
%ENDBLOCK POSITIONS_FRAC
