# Cell file generated by matador (Matthew Evans 2016)

%BLOCK LATTICE_CART
7.99829 0.0 0.0
-3.99914 6.92672 0.0
0.0 0.0 7.88505
%ENDBLOCK LATTICE_CART

%BLOCK POSITIONS_FRAC
P           0.000000000000000    0.000000000000000    0.246355000000000 
P           0.000000000000000    0.000000000000000    0.753645000000000 
P           0.333333000000000    0.666667000000000    0.420312000000000 
P           0.333333000000000    0.666667000000000    0.913022000000000 
P           0.666667000000000    0.333333000000000    0.086978000000000 
P           0.666667000000000    0.333333000000000    0.579688000000000 
K           0.000000000000000    0.000000000000000    0.000000000000000 
K           0.000000000000000    0.000000000000000    0.500000000000000 
K           0.333333000000000    0.666667000000000    0.166667000000000 
K           0.333333000000000    0.666667000000000    0.666667000000000 
K           0.666667000000000    0.333333000000000    0.333333000000000 
K           0.666667000000000    0.333333000000000    0.833333000000000 
%ENDBLOCK POSITIONS_FRAC
