# Cell file generated by matador (Matthew Evans 2016)

%BLOCK LATTICE_CART
10.9911 0.0 0.0
-5.49556 9.51859 0.0
0.0 0.0 6.60869
%ENDBLOCK LATTICE_CART

%BLOCK POSITIONS_FRAC
P           0.245019000000000    0.122509000000000    0.317695000000000 
P           0.666667000000000    0.333333000000000    0.570436000000000 
P           0.877491000000000    0.122509000000000    0.317695000000000 
P           0.877491000000000    0.754981000000000    0.317695000000000 
K           0.093479000000000    0.186958000000000    0.561735000000000 
K           0.093479000000000    0.906521000000000    0.561735000000000 
K           0.231982000000000    0.115991000000000    0.931135000000000 
K           0.512755000000000    0.025510000000000    0.696720000000000 
K           0.512755000000000    0.487245000000000    0.696720000000000 
K           0.540735000000000    0.081469000000000    0.179975000000000 
K           0.540735000000000    0.459265000000000    0.179975000000000 
K           0.813042000000000    0.906521000000000    0.561735000000000 
K           0.884009000000000    0.115991000000000    0.931135000000000 
K           0.884009000000000    0.768018000000000    0.931135000000000 
K           0.918531000000000    0.459265000000000    0.179975000000000 
K           0.974490000000000    0.487245000000000    0.696720000000000 
%ENDBLOCK POSITIONS_FRAC
