# Cell file generated by matador (Matthew Evans 2016)

%BLOCK LATTICE_CART
7.86591 0.0 0.0
-3.93296 6.81208 0.0
0.0 0.0 9.56024
%ENDBLOCK LATTICE_CART

%BLOCK POSITIONS_FRAC
P           0.000000000000000    0.000000000000000    0.089326000000000 
P           0.000000000000000    0.000000000000000    0.331313000000000 
P           0.333333000000000    0.666667000000000    0.575920000000000 
P           0.333333000000000    0.666667000000000    0.968041000000000 
P           0.666667000000000    0.333333000000000    0.575920000000000 
P           0.666667000000000    0.333333000000000    0.968041000000000 
K           0.000000000000000    0.000000000000000    0.703249000000000 
K           0.000000000000000    0.357287000000000    0.044284000000000 
K           0.000000000000000    0.642713000000000    0.044284000000000 
K           0.333333000000000    0.666667000000000    0.296556000000000 
K           0.357287000000000    0.000000000000000    0.044284000000000 
K           0.357287000000000    0.357287000000000    0.044284000000000 
K           0.642713000000000    0.000000000000000    0.044284000000000 
K           0.642713000000000    0.642713000000000    0.044284000000000 
K           0.666667000000000    0.333333000000000    0.296556000000000 
%ENDBLOCK POSITIONS_FRAC
