# Cell file generated by matador (Matthew Evans 2016)

%BLOCK LATTICE_CART
9.54634 0.0 0.0
0.0 7.72336 0.0
2.24505 0.0 11.9556
%ENDBLOCK LATTICE_CART

%BLOCK POSITIONS_FRAC
P           0.088687000000000    0.500000000000000    0.029871000000000 
P           0.125508000000000    0.000000000000000    0.572527000000000 
P           0.469482000000000    0.500000000000000    0.224769000000000 
P           0.588687000000000    0.000000000000000    0.029871000000000 
P           0.625508000000000    0.500000000000000    0.572527000000000 
P           0.969482000000000    0.000000000000000    0.224769000000000 
K           0.201939000000000    0.188240000000000    0.774031000000000 
K           0.201939000000000    0.811760000000000    0.774031000000000 
K           0.309413000000000    0.500000000000000    0.867140000000000 
K           0.320858000000000    0.000000000000000    0.036191000000000 
K           0.325941000000000    0.500000000000000    0.394081000000000 
K           0.409198000000000    0.500000000000000    0.619212000000000 
K           0.410773000000000    0.000000000000000    0.344018000000000 
K           0.431479000000000    0.500000000000000    0.068378000000000 
K           0.470916000000000    0.000000000000000    0.626998000000000 
K           0.701939000000000    0.311760000000000    0.774031000000000 
K           0.701939000000000    0.688240000000000    0.774031000000000 
K           0.809413000000000    0.000000000000000    0.867140000000000 
K           0.820858000000000    0.500000000000000    0.036191000000000 
K           0.825941000000000    0.000000000000000    0.394081000000000 
K           0.909198000000000    0.000000000000000    0.619212000000000 
K           0.910773000000000    0.500000000000000    0.344018000000000 
K           0.931479000000000    0.000000000000000    0.068378000000000 
K           0.970916000000000    0.500000000000000    0.626998000000000 
%ENDBLOCK POSITIONS_FRAC
