# Cell file generated by matador (Matthew Evans 2016)

%BLOCK LATTICE_CART
7.74829 0.0 0.0
-3.87415 6.71022 0.0
0.0 0.0 6.08105
%ENDBLOCK LATTICE_CART

%BLOCK POSITIONS_FRAC
P           0.002436000000000    0.296805000000000    0.324172000000000 
P           0.036529000000000    0.372298000000000    0.990838000000000 
P           0.294369000000000    0.997564000000000    0.324172000000000 
P           0.335769000000000    0.963471000000000    0.990838000000000 
P           0.369862000000000    0.038964000000000    0.657505000000000 
P           0.627702000000000    0.664231000000000    0.990838000000000 
P           0.669102000000000    0.630138000000000    0.657505000000000 
P           0.703195000000000    0.705631000000000    0.324172000000000 
P           0.961036000000000    0.330898000000000    0.657505000000000 
K           0.000000000000000    0.000000000000000    0.609796000000000 
K           0.333333000000000    0.666667000000000    0.276463000000000 
K           0.666667000000000    0.333333000000000    0.943130000000000 
%ENDBLOCK POSITIONS_FRAC
