# Cell file generated by matador (Matthew Evans 2016)

%BLOCK LATTICE_CART
6.01313 0.0 0.0
0.0056397 8.32612 0.0
-2.13114 0.241133 4.62978
%ENDBLOCK LATTICE_CART

%BLOCK POSITIONS_FRAC
P           0.000000000000000    0.500000000000000    0.000000000000000 
P           0.000000000000000    0.500000000000000    0.500000000000000 
P           0.500000000000000    0.000000000000000    0.000000000000000 
K           0.000000000000000    0.000000000000000    0.000000000000000 
K           0.275546000000000    0.656169000000000    0.030733000000000 
K           0.500000000000000    0.500000000000000    0.000000000000000 
K           0.724454000000000    0.343831000000000    0.969267000000000 
%ENDBLOCK POSITIONS_FRAC
