# Cell file generated by matador (Matthew Evans 2016)

%BLOCK LATTICE_CART
7.58097 0.0 0.0
0.0 6.30351 0.0
0.0 0.0 6.00485
%ENDBLOCK LATTICE_CART

%BLOCK POSITIONS_FRAC
P           0.000000000000000    0.000000000000000    0.477945000000000 
P           0.000000000000000    0.500000000000000    0.390261000000000 
P           0.500000000000000    0.500000000000000    0.763237000000000 
K           0.000000000000000    0.000000000000000    0.922673000000000 
K           0.292312000000000    0.300525000000000    0.765435000000000 
K           0.292312000000000    0.699475000000000    0.765435000000000 
K           0.707688000000000    0.300525000000000    0.765435000000000 
K           0.707688000000000    0.699475000000000    0.765435000000000 
%ENDBLOCK POSITIONS_FRAC
