# Cell file generated by matador (Matthew Evans 2016)

%BLOCK LATTICE_CART
6.40069 0.0 0.0
-3.20035 5.54316 0.0
0.0 0.0 7.92843
%ENDBLOCK LATTICE_CART

%BLOCK POSITIONS_FRAC
P           0.333334000000000    0.666666000000000    0.021610000000000 
P           0.666668000000000    0.333332000000000    0.021610000000000 
K           0.000001000000000    0.707697000000000    0.653869000000000 
K           0.000001000000000    0.724261000000000    0.159329000000000 
K           0.275739000000000    0.275737000000000    0.159329000000000 
K           0.292303000000000    0.292301000000000    0.653869000000000 
K           0.707699000000000    0.999999000000000    0.653869000000000 
K           0.724263000000000    0.999999000000000    0.159329000000000 
%ENDBLOCK POSITIONS_FRAC
