# Cell file generated by matador (Matthew Evans 2016)

%BLOCK LATTICE_CART
7.37442 0.0 0.0
0.0 7.37442 0.0
0.0 0.0 7.4056
%ENDBLOCK LATTICE_CART

%BLOCK POSITIONS_FRAC
P           0.000000000000000    0.000000000000000    0.225964000000000 
P           0.000000000000000    0.000000000000000    0.725964000000000 
P           0.500000000000000    0.500000000000000    0.225964000000000 
P           0.500000000000000    0.500000000000000    0.725964000000000 
K           0.239722000000000    0.260278000000000    0.605857000000000 
K           0.239722000000000    0.739722000000000    0.105857000000000 
K           0.260278000000000    0.239722000000000    0.105857000000000 
K           0.260278000000000    0.760278000000000    0.605857000000000 
K           0.739722000000000    0.239722000000000    0.605857000000000 
K           0.739722000000000    0.760278000000000    0.105857000000000 
K           0.760278000000000    0.260278000000000    0.105857000000000 
K           0.760278000000000    0.739722000000000    0.605857000000000 
%ENDBLOCK POSITIONS_FRAC
