# Cell file generated by matador (Matthew Evans 2016)

%BLOCK LATTICE_CART
5.05652 0.0 0.0
0.0 5.75622 0.0
-2.01693 0.0 4.96098
%ENDBLOCK LATTICE_CART

%BLOCK POSITIONS_FRAC
P           0.500000000000000    0.711025000000000    0.500000000000000 
K           0.000000000000000    0.747124000000000    0.500000000000000 
K           0.500000000000000    0.064343000000000    0.000000000000000 
K           0.500000000000000    0.236267000000000    0.500000000000000 
%ENDBLOCK POSITIONS_FRAC
