# Cell file generated by matador (Matthew Evans 2016)

%BLOCK LATTICE_CART
7.76636 0.0 0.0
0.0 7.76636 0.0
0.0 0.0 10.7667
%ENDBLOCK LATTICE_CART

%BLOCK POSITIONS_FRAC
P           0.000000000000000    0.000000000000000    0.196327000000000 
P           0.000000000000000    0.000000000000000    0.570469000000000 
P           0.500000000000000    0.500000000000000    0.070469000000000 
P           0.500000000000000    0.500000000000000    0.696327000000000 
K           0.166671000000000    0.833329000000000    0.116764000000000 
K           0.177732000000000    0.822268000000000    0.421507000000000 
K           0.202032000000000    0.202032000000000    0.272451000000000 
K           0.297968000000000    0.702032000000000    0.772451000000000 
K           0.322268000000000    0.322268000000000    0.921507000000000 
K           0.333329000000000    0.333329000000000    0.616764000000000 
K           0.666671000000000    0.666671000000000    0.616764000000000 
K           0.677732000000000    0.677732000000000    0.921507000000000 
K           0.702032000000000    0.297968000000000    0.772451000000000 
K           0.797968000000000    0.797968000000000    0.272451000000000 
K           0.822268000000000    0.177732000000000    0.421507000000000 
K           0.833329000000000    0.166671000000000    0.116764000000000 
%ENDBLOCK POSITIONS_FRAC
