# Cell file generated by matador (Matthew Evans 2016)

%BLOCK LATTICE_CART
6.76361 0.0 0.0
-3.3818 5.85745 0.0
0.0 0.0 9.31648
%ENDBLOCK LATTICE_CART

%BLOCK POSITIONS_FRAC
P           0.000000000000000    0.000000000000000    0.081848000000000 
P           0.068647000000000    0.380546000000000    0.289575000000000 
P           0.311899000000000    0.931353000000000    0.289575000000000 
P           0.380546000000000    0.311899000000000    0.289575000000000 
P           0.619454000000000    0.688101000000000    0.289575000000000 
P           0.688101000000000    0.068647000000000    0.289575000000000 
P           0.931353000000000    0.619454000000000    0.289575000000000 
K           0.000000000000000    0.000000000000000    0.518606000000000 
K           0.000000000000000    0.000000000000000    0.764385000000000 
K           0.333333000000000    0.666667000000000    0.494883000000000 
K           0.333333000000000    0.666667000000000    0.837349000000000 
K           0.666667000000000    0.333333000000000    0.494883000000000 
K           0.666667000000000    0.333333000000000    0.837349000000000 
%ENDBLOCK POSITIONS_FRAC
