# Cell file generated by matador (Matthew Evans 2016)

%BLOCK LATTICE_CART
6.08361 0.0 0.0
0.0 9.4087 0.0
0.0 0.0 10.8086
%ENDBLOCK LATTICE_CART

%BLOCK POSITIONS_FRAC
P           0.215184000000000    0.632332000000000    0.182637000000000 
P           0.284816000000000    0.367668000000000    0.682637000000000 
P           0.715184000000000    0.367668000000000    0.682637000000000 
P           0.784816000000000    0.632332000000000    0.182637000000000 
K           0.000000000000000    0.119738000000000    0.166424000000000 
K           0.000000000000000    0.317724000000000    0.480607000000000 
K           0.000000000000000    0.451843000000000    0.196881000000000 
K           0.000000000000000    0.536629000000000    0.902543000000000 
K           0.000000000000000    0.730743000000000    0.407195000000000 
K           0.000000000000000    0.793259000000000    0.679384000000000 
K           0.500000000000000    0.206741000000000    0.179384000000000 
K           0.500000000000000    0.269257000000000    0.907195000000000 
K           0.500000000000000    0.463371000000000    0.402543000000000 
K           0.500000000000000    0.548157000000000    0.696881000000000 
K           0.500000000000000    0.682276000000000    0.980607000000000 
K           0.500000000000000    0.880262000000000    0.666424000000000 
%ENDBLOCK POSITIONS_FRAC
