# Cell file generated by matador (Matthew Evans 2016)

%BLOCK LATTICE_CART
8.68187 0.0 0.0
0.0 5.80614 0.0
-0.686629 0.0 7.1425
%ENDBLOCK LATTICE_CART

%BLOCK POSITIONS_FRAC
P           0.294465000000000    0.000000000000000    0.865831000000000 
K           0.197163000000000    0.000000000000000    0.435758000000000 
K           0.425328000000000    0.500000000000000    0.046128000000000 
K           0.435058000000000    0.000000000000000    0.565504000000000 
K           0.548970000000000    0.000000000000000    0.198787000000000 
K           0.590563000000000    0.500000000000000    0.755197000000000 
K           0.746052000000000    0.500000000000000    0.443625000000000 
K           0.809030000000000    0.000000000000000    0.312044000000000 
%ENDBLOCK POSITIONS_FRAC
