# Cell file generated by matador (Matthew Evans 2016)

%BLOCK LATTICE_CART
6.78338 0.0 0.0
0.0 5.66297 0.0
-1.13822 0.0 4.24701
%ENDBLOCK LATTICE_CART

%BLOCK POSITIONS_FRAC
P           0.532359000000000    0.500000000000000    0.517255000000000 
P           0.694073000000000    0.500000000000000    0.345921000000000 
P           0.846787000000000    0.500000000000000    0.003077000000000 
P           0.995659000000000    0.198414000000000    0.985638000000000 
P           0.995659000000000    0.801586000000000    0.985638000000000 
K           0.225265000000000    0.500000000000000    0.677327000000000 
%ENDBLOCK POSITIONS_FRAC
