# Cell file generated by matador (Matthew Evans 2016)

%BLOCK LATTICE_CART
9.90809 0.0 0.0
-4.95405 8.58066 0.0
0.0 0.0 5.80948
%ENDBLOCK LATTICE_CART

%BLOCK POSITIONS_FRAC
P           0.000000000000000    0.500000000000000    0.500000000000000 
P           0.500000000000000    0.000000000000000    0.500000000000000 
P           0.500000000000000    0.500000000000000    0.500000000000000 
K           0.000000000000000    0.000000000000000    0.000000000000000 
K           0.103603000000000    0.768891000000000    0.000000000000000 
K           0.231109000000000    0.334712000000000    0.000000000000000 
K           0.333333000000000    0.666667000000000    0.000000000000000 
K           0.334712000000000    0.103603000000000    0.000000000000000 
K           0.665288000000000    0.896397000000000    0.000000000000000 
K           0.666667000000000    0.333333000000000    0.000000000000000 
K           0.768891000000000    0.665288000000000    0.000000000000000 
K           0.896397000000000    0.231109000000000    0.000000000000000 
%ENDBLOCK POSITIONS_FRAC
