# Cell file generated by matador (Matthew Evans 2016)

%BLOCK LATTICE_CART
7.69819 0.0 0.0
-3.8491 6.66683 0.0
0.0 0.0 7.73897
%ENDBLOCK LATTICE_CART

%BLOCK POSITIONS_FRAC
P           0.000000000000000    0.000000000000000    0.000000000000000 
P           0.000000000000000    0.000000000000000    0.314131000000000 
P           0.000000000000000    0.000000000000000    0.685869000000000 
P           0.000000000000000    0.500000000000000    0.500000000000000 
P           0.500000000000000    0.000000000000000    0.500000000000000 
P           0.500000000000000    0.500000000000000    0.500000000000000 
K           0.045585000000000    0.736689000000000    0.342442000000000 
K           0.263311000000000    0.308896000000000    0.342442000000000 
K           0.308896000000000    0.045585000000000    0.657558000000000 
K           0.333333000000000    0.666667000000000    0.274854000000000 
K           0.333333000000000    0.666667000000000    0.612118000000000 
K           0.666667000000000    0.333333000000000    0.387882000000000 
K           0.666667000000000    0.333333000000000    0.725146000000000 
K           0.691104000000000    0.954415000000000    0.342442000000000 
K           0.736689000000000    0.691104000000000    0.657558000000000 
K           0.954415000000000    0.263311000000000    0.657558000000000 
%ENDBLOCK POSITIONS_FRAC
