# Cell file generated by matador (Matthew Evans 2016)

%BLOCK LATTICE_CART
5.56926 -0.0 0.0
-2.78463 4.82312 0.0
0.0 0.0 22.4479
%ENDBLOCK LATTICE_CART

%BLOCK POSITIONS_FRAC
P           0.042508000000000    0.588793000000000    0.586436000000000 
P           0.073020000000000    0.698563000000000    0.875536000000000 
P           0.301437000000000    0.374456000000000    0.875536000000000 
P           0.333333000000000    0.666667000000000    0.079548000000000 
P           0.333333000000000    0.666667000000000    0.287549000000000 
P           0.411207000000000    0.453715000000000    0.586436000000000 
P           0.546285000000000    0.957492000000000    0.586436000000000 
P           0.625544000000000    0.926980000000000    0.875536000000000 
P           0.666667000000000    0.333333000000000    0.906721000000000 
P           0.666667000000000    0.333333000000000    0.998054000000000 
K           0.000000000000000    0.000000000000000    0.047112000000000 
K           0.000000000000000    0.000000000000000    0.287189000000000 
K           0.000000000000000    0.000000000000000    0.428775000000000 
K           0.333333000000000    0.666667000000000    0.753843000000000 
K           0.439500000000000    0.119576000000000    0.812424000000000 
K           0.666667000000000    0.333333000000000    0.660119000000000 
K           0.680077000000000    0.560500000000000    0.812424000000000 
K           0.880424000000000    0.319923000000000    0.812424000000000 
%ENDBLOCK POSITIONS_FRAC
