# Cell file generated by matador (Matthew Evans 2016)

%BLOCK LATTICE_CART
10.8453 0.0 0.0
-5.42267 9.39234 0.0
0.0 0.0 11.3272
%ENDBLOCK LATTICE_CART

%BLOCK POSITIONS_FRAC
P           0.030015000000000    0.338361000000000    0.288297000000000 
P           0.030015000000000    0.691653000000000    0.288297000000000 
P           0.308347000000000    0.338361000000000    0.288297000000000 
P           0.308347000000000    0.969985000000000    0.288297000000000 
P           0.661639000000000    0.691653000000000    0.288297000000000 
P           0.661639000000000    0.969985000000000    0.288297000000000 
P           0.666667000000000    0.333333000000000    0.366922000000000 
K           0.004008000000000    0.502004000000000    0.447153000000000 
K           0.179681000000000    0.359360000000000    0.489242000000000 
K           0.179681000000000    0.820319000000000    0.489242000000000 
K           0.180233000000000    0.360465000000000    0.767232000000000 
K           0.180233000000000    0.819767000000000    0.767232000000000 
K           0.191171000000000    0.382342000000000    0.107225000000000 
K           0.191171000000000    0.808829000000000    0.107225000000000 
K           0.263815000000000    0.131907000000000    0.946414000000000 
K           0.418600000000000    0.209299000000000    0.335983000000000 
K           0.497996000000000    0.502004000000000    0.447153000000000 
K           0.497996000000000    0.995992000000000    0.447153000000000 
K           0.515659000000000    0.031317000000000    0.143598000000000 
K           0.515659000000000    0.484341000000000    0.143598000000000 
K           0.617658000000000    0.808829000000000    0.107225000000000 
K           0.639535000000000    0.819767000000000    0.767232000000000 
K           0.640640000000000    0.820319000000000    0.489242000000000 
K           0.790701000000000    0.209299000000000    0.335983000000000 
K           0.790701000000000    0.581400000000000    0.335983000000000 
K           0.868093000000000    0.131907000000000    0.946414000000000 
K           0.868093000000000    0.736185000000000    0.946414000000000 
K           0.968683000000000    0.484341000000000    0.143598000000000 
%ENDBLOCK POSITIONS_FRAC
