# Cell file generated by matador (Matthew Evans 2016)

%BLOCK LATTICE_CART
8.66788 -0.0 0.0
-4.33394 7.5066 0.0
0.0 0.0 6.7753
%ENDBLOCK LATTICE_CART

%BLOCK POSITIONS_FRAC
P           0.000000000000000    0.500000000000000    0.389006000000000 
P           0.000000000000000    0.500000000000000    0.610994000000000 
P           0.127886000000000    0.861524000000000    0.000000000000000 
P           0.138476000000000    0.266362000000000    0.000000000000000 
P           0.266362000000000    0.127886000000000    0.000000000000000 
P           0.333333000000000    0.666667000000000    0.274243000000000 
P           0.333333000000000    0.666667000000000    0.725757000000000 
P           0.500000000000000    0.000000000000000    0.389006000000000 
P           0.500000000000000    0.000000000000000    0.610994000000000 
P           0.500000000000000    0.500000000000000    0.389006000000000 
P           0.500000000000000    0.500000000000000    0.610994000000000 
P           0.666667000000000    0.333333000000000    0.274243000000000 
P           0.666667000000000    0.333333000000000    0.725757000000000 
P           0.733638000000000    0.872114000000000    0.000000000000000 
P           0.861524000000000    0.733638000000000    0.000000000000000 
P           0.872114000000000    0.138476000000000    0.000000000000000 
K           0.000000000000000    0.000000000000000    0.000000000000000 
K           0.000000000000000    0.500000000000000    0.000000000000000 
K           0.500000000000000    0.000000000000000    0.000000000000000 
K           0.500000000000000    0.500000000000000    0.000000000000000 
%ENDBLOCK POSITIONS_FRAC
