# Cell file generated by matador (Matthew Evans 2016)

%BLOCK LATTICE_CART
3.25289 0.0 0.0
0.0 11.6711 0.0
0.0 0.0 8.35313
%ENDBLOCK LATTICE_CART

%BLOCK POSITIONS_FRAC
P           0.172949000000000    0.216451000000000    0.000000000000000 
P           0.172949000000000    0.783549000000000    0.000000000000000 
P           0.500000000000000    0.000000000000000    0.000000000000000 
P           0.500000000000000    0.500000000000000    0.395997000000000 
P           0.500000000000000    0.500000000000000    0.604003000000000 
P           0.827051000000000    0.216451000000000    0.000000000000000 
P           0.827051000000000    0.783549000000000    0.000000000000000 
K           0.500000000000000    0.197807000000000    0.219363000000000 
K           0.500000000000000    0.197807000000000    0.780637000000000 
K           0.500000000000000    0.802193000000000    0.219363000000000 
K           0.500000000000000    0.802193000000000    0.780637000000000 
%ENDBLOCK POSITIONS_FRAC
