# Cell file generated by matador (Matthew Evans 2016)

%BLOCK LATTICE_CART
8.80288 0.0 0.0
-4.40144 7.62352 0.0
0.0 0.0 4.19449
%ENDBLOCK LATTICE_CART

%BLOCK POSITIONS_FRAC
P           0.333334000000000    0.666668000000000    0.750000000000000 
P           0.666668000000000    0.333334000000000    0.250000000000000 
K           0.000001000000000    0.000001000000000    0.250000000000000 
K           0.000001000000000    0.000001000000000    0.750000000000000 
K           0.090391000000000    0.313192000000000    0.250000000000000 
K           0.222802000000000    0.909611000000000    0.250000000000000 
K           0.313192000000000    0.222802000000000    0.750000000000000 
K           0.686810000000000    0.777200000000000    0.250000000000000 
K           0.777200000000000    0.090391000000000    0.750000000000000 
K           0.909611000000000    0.686810000000000    0.750000000000000 
%ENDBLOCK POSITIONS_FRAC
