# Cell file generated by matador (Matthew Evans 2016)

%BLOCK LATTICE_CART
8.9766 0.0 0.0
-4.4883 7.77396 0.0
0.0 0.0 6.39962
%ENDBLOCK LATTICE_CART

%BLOCK POSITIONS_FRAC
P           0.000000000000000    0.277199000000000    0.500000000000000 
P           0.000000000000000    0.722801000000000    0.500000000000000 
P           0.277199000000000    0.000000000000000    0.500000000000000 
P           0.277199000000000    0.277199000000000    0.500000000000000 
P           0.722801000000000    0.000000000000000    0.500000000000000 
P           0.722801000000000    0.722801000000000    0.500000000000000 
K           0.000000000000000    0.500000000000000    0.500000000000000 
K           0.236268000000000    0.472535000000000    0.047533000000000 
K           0.236268000000000    0.763732000000000    0.047533000000000 
K           0.472535000000000    0.236268000000000    0.952467000000000 
K           0.500000000000000    0.000000000000000    0.500000000000000 
K           0.500000000000000    0.500000000000000    0.500000000000000 
K           0.527465000000000    0.763732000000000    0.047533000000000 
K           0.763732000000000    0.236268000000000    0.952467000000000 
K           0.763732000000000    0.527465000000000    0.952467000000000 
%ENDBLOCK POSITIONS_FRAC
