# Cell file generated by matador (Matthew Evans 2016)

%BLOCK LATTICE_CART
6.03726 0.0 0.0
-3.01863 5.22842 0.0
0.0 0.0 5.77594
%ENDBLOCK LATTICE_CART

%BLOCK POSITIONS_FRAC
P           0.333333000000000    0.666667000000000    0.000000000000000 
P           0.529954000000000    0.059907000000000    0.500000000000000 
P           0.529954000000000    0.470046000000000    0.500000000000000 
P           0.666667000000000    0.333333000000000    0.000000000000000 
P           0.940093000000000    0.470046000000000    0.500000000000000 
K           0.000000000000000    0.000000000000000    0.000000000000000 
K           0.333333000000000    0.666667000000000    0.500000000000000 
%ENDBLOCK POSITIONS_FRAC
