# Cell file generated by matador (Matthew Evans 2016)

%BLOCK LATTICE_CART
17.9253 0.0 0.0
2.49399 5.75221 0.0
0.764088 2.09522 6.14701
%ENDBLOCK LATTICE_CART

%BLOCK POSITIONS_FRAC
P           0.047832000000000    0.862555000000000    0.314434000000000 
P           0.952168000000000    0.137445000000000    0.685566000000000 
K           0.000000000000000    0.000000000000000    0.000000000000000 
K           0.000000000000000    0.500000000000000    0.500000000000000 
K           0.105220000000000    0.911806000000000    0.811762000000000 
K           0.170242000000000    0.212525000000000    0.814267000000000 
K           0.322926000000000    0.680013000000000    0.175199000000000 
K           0.377310000000000    0.154259000000000    0.477234000000000 
K           0.500000000000000    0.000000000000000    0.000000000000000 
K           0.500000000000000    0.000000000000000    0.500000000000000 
K           0.500000000000000    0.500000000000000    0.000000000000000 
K           0.500000000000000    0.500000000000000    0.500000000000000 
K           0.622690000000000    0.845741000000000    0.522766000000000 
K           0.677074000000000    0.319987000000000    0.824801000000000 
K           0.829758000000000    0.787475000000000    0.185733000000000 
K           0.894780000000000    0.088194000000000    0.188238000000000 
%ENDBLOCK POSITIONS_FRAC
