# Cell file generated by matador (Matthew Evans 2016)

%BLOCK LATTICE_CART
8.67321 0.0 0.0
0.0 6.38908 0.0
0.0 0.0 9.4166
%ENDBLOCK LATTICE_CART

%BLOCK POSITIONS_FRAC
P           0.000000000000000    0.387734000000000    0.632778000000000 
P           0.000000000000000    0.387734000000000    0.867222000000000 
P           0.000000000000000    0.612266000000000    0.132778000000000 
P           0.000000000000000    0.612266000000000    0.367222000000000 
P           0.500000000000000    0.112266000000000    0.132778000000000 
P           0.500000000000000    0.112266000000000    0.367222000000000 
P           0.500000000000000    0.887734000000000    0.632778000000000 
P           0.500000000000000    0.887734000000000    0.867222000000000 
K           0.000000000000000    0.000000000000000   -0.000000000000000 
K           0.000000000000000    0.000000000000000    0.500000000000000 
K           0.131711000000000    0.333782000000000    0.250000000000000 
K           0.131711000000000    0.666218000000000    0.750000000000000 
K           0.368289000000000    0.166218000000000    0.750000000000000 
K           0.368289000000000    0.833782000000000    0.250000000000000 
K           0.500000000000000    0.500000000000000   -0.000000000000000 
K           0.500000000000000    0.500000000000000    0.500000000000000 
K           0.631711000000000    0.166218000000000    0.750000000000000 
K           0.631711000000000    0.833782000000000    0.250000000000000 
K           0.868289000000000    0.333782000000000    0.250000000000000 
K           0.868289000000000    0.666218000000000    0.750000000000000 
%ENDBLOCK POSITIONS_FRAC
