# Cell file generated by matador (Matthew Evans 2016)

%BLOCK LATTICE_CART
5.47918 0.0 0.0
-2.73959 4.74511 0.0
0.0 0.0 7.72836
%ENDBLOCK LATTICE_CART

%BLOCK POSITIONS_FRAC
P           0.000000000000000   -0.000000000000000    0.122441000000000 
P           0.000000000000000   -0.000000000000000    0.257782000000000 
P           0.333334000000000    0.666666000000000    0.449674000000000 
P           0.666667000000000    0.333333000000000    0.133457000000000 
K           0.374991000000000    0.097022000000000    0.818119000000000 
K           0.722032000000000    0.625009000000000    0.818119000000000 
K           0.902978000000000    0.277968000000000    0.818119000000000 
%ENDBLOCK POSITIONS_FRAC
