# Cell file generated by matador (Matthew Evans 2016)

%BLOCK LATTICE_CART
7.14051 -0.0 0.0
-3.57026 6.18386 0.0
0.0 0.0 8.61194
%ENDBLOCK LATTICE_CART

%BLOCK POSITIONS_FRAC
P           0.146003000000000    0.637416000000000    0.144061000000000 
P           0.362584000000000    0.508587000000000    0.144061000000000 
P           0.491413000000000    0.853997000000000    0.144061000000000 
P           0.508587000000000    0.146003000000000    0.644061000000000 
P           0.637416000000000    0.491413000000000    0.644061000000000 
P           0.853997000000000    0.362584000000000    0.644061000000000 
K           0.000000000000000    0.000000000000000    0.061225000000000 
K           0.000000000000000    0.000000000000000    0.561225000000000 
K           0.333333000000000    0.666667000000000    0.354727000000000 
K           0.333333000000000    0.666667000000000    0.706923000000000 
K           0.666667000000000    0.333333000000000    0.206923000000000 
K           0.666667000000000    0.333333000000000    0.854727000000000 
%ENDBLOCK POSITIONS_FRAC
