# Cell file generated by matador (Matthew Evans 2016)

%BLOCK LATTICE_CART
6.07337 0.0 0.0
0.0 5.24541 0.0
0.0 0.0 6.8677
%ENDBLOCK LATTICE_CART

%BLOCK POSITIONS_FRAC
P           0.250000000000000    0.119316000000000    0.617257000000000 
P           0.250000000000000    0.380684000000000    0.617257000000000 
P           0.250000000000000    0.750000000000000    0.275000000000000 
P           0.750000000000000    0.250000000000000    0.725000000000000 
P           0.750000000000000    0.619316000000000    0.382743000000000 
P           0.750000000000000    0.880684000000000    0.382743000000000 
K           0.250000000000000    0.532783000000000    0.976655000000000 
K           0.250000000000000    0.967217000000000    0.976655000000000 
K           0.750000000000000    0.032783000000000    0.023345000000000 
K           0.750000000000000    0.467217000000000    0.023345000000000 
%ENDBLOCK POSITIONS_FRAC
