# Cell file generated by matador (Matthew Evans 2016)

%BLOCK LATTICE_CART
8.95853 0.0 0.0
-4.47926 7.75831 0.0
0.0 0.0 4.97622
%ENDBLOCK LATTICE_CART

%BLOCK POSITIONS_FRAC
P           0.000000000000000    0.000000000000000    0.000000000000000 
P           0.000000000000000    0.000000000000000    0.500000000000000 
P           0.333333000000000    0.666667000000000    0.500000000000000 
P           0.666667000000000    0.333333000000000    0.500000000000000 
K           0.000000000000000    0.500000000000000    0.000000000000000 
K           0.000000000000000    0.500000000000000    0.500000000000000 
K           0.333333000000000    0.666667000000000    0.000000000000000 
K           0.500000000000000    0.000000000000000    0.000000000000000 
K           0.500000000000000    0.000000000000000    0.500000000000000 
K           0.500000000000000    0.500000000000000    0.000000000000000 
K           0.500000000000000    0.500000000000000    0.500000000000000 
K           0.666667000000000    0.333333000000000    0.000000000000000 
%ENDBLOCK POSITIONS_FRAC
