# Cell file generated by matador (Matthew Evans 2016)

%BLOCK LATTICE_CART
5.56138 0.0 0.0
-2.78069 4.8163 0.0
0.0 0.0 10.6467
%ENDBLOCK LATTICE_CART

%BLOCK POSITIONS_FRAC
P           0.000000000000000    0.000000000000000    0.191055000000000 
P           0.000000000000000    0.000000000000000    0.801861000000000 
K           0.000000000000000    0.380853000000000    0.669876000000000 
K           0.000000000000000    0.624573000000000    0.221296000000000 
K           0.375427000000000    0.375427000000000    0.221296000000000 
K           0.380853000000000    0.000000000000000    0.669876000000000 
K           0.619147000000000    0.619147000000000    0.669876000000000 
K           0.624573000000000    0.000000000000000    0.221296000000000 
%ENDBLOCK POSITIONS_FRAC
