# Cell file generated by matador (Matthew Evans 2016)

%BLOCK LATTICE_CART
6.96107 0.0 0.0
-3.48054 6.02847 0.0
0.0 0.0 5.91671
%ENDBLOCK LATTICE_CART

%BLOCK POSITIONS_FRAC
P           0.000000000000000    0.000000000000000    0.125487000000000 
P           0.000000000000000    0.000000000000000    0.318906000000000 
P           0.666667000000000    0.333333000000000    0.161269000000000 
K           0.321325000000000    0.301136000000000    0.551668000000000 
K           0.333333000000000    0.666667000000000    0.753386000000000 
K           0.698864000000000    0.020189000000000    0.551668000000000 
K           0.979811000000000    0.678675000000000    0.551668000000000 
%ENDBLOCK POSITIONS_FRAC
