# Cell file generated by matador (Matthew Evans 2016)

%BLOCK LATTICE_CART
7.67148 0.0 0.0
-3.83574 6.64369 0.0
0.0 0.0 9.38343
%ENDBLOCK LATTICE_CART

%BLOCK POSITIONS_FRAC
P           0.000000000000000    0.000000000000000    0.286859000000000 
P           0.000000000000000    0.000000000000000    0.713141000000000 
P           0.666667000000000    0.333333000000000    0.213141000000000 
P           0.666667000000000    0.333333000000000    0.786859000000000 
K           0.000000000000000    0.000000000000000    0.500000000000000 
K           0.333333000000000    0.666667000000000    0.000000000000000 
K           0.333333000000000    0.666667000000000    0.500000000000000 
K           0.353418000000000    0.001829000000000    0.500000000000000 
K           0.353418000000000    0.351589000000000    0.500000000000000 
K           0.648411000000000    0.001829000000000    0.500000000000000 
K           0.648411000000000    0.646582000000000    0.500000000000000 
K           0.666667000000000    0.333333000000000    0.000000000000000 
K           0.998171000000000    0.351589000000000    0.500000000000000 
K           0.998171000000000    0.646582000000000    0.500000000000000 
%ENDBLOCK POSITIONS_FRAC
