# Cell file generated by matador (Matthew Evans 2016)

%BLOCK LATTICE_CART
8.4039 -0.0 0.0
-4.20195 7.27799 0.0
0.0 0.0 10.0672
%ENDBLOCK LATTICE_CART

%BLOCK POSITIONS_FRAC
P           0.333334000000000    0.666668000000000    0.250000000000000 
P           0.333334000000000    0.666668000000000    0.750000000000000 
P           0.666668000000000    0.333334000000000    0.250000000000000 
P           0.666668000000000    0.333334000000000    0.750000000000000 
K           0.000001000000000    0.500001000000000    0.000000000000000 
K           0.000001000000000    0.500001000000000    0.500000000000000 
K           0.088322000000000    0.840374000000000    0.250000000000000 
K           0.159628000000000    0.247949000000000    0.250000000000000 
K           0.247949000000000    0.088322000000000    0.750000000000000 
K           0.500001000000000    0.000001000000000    0.000000000000000 
K           0.500001000000000    0.000001000000000    0.500000000000000 
K           0.500001000000000    0.500001000000000    0.000000000000000 
K           0.500001000000000    0.500001000000000    0.500000000000000 
K           0.752053000000000    0.911680000000000    0.250000000000000 
K           0.840374000000000    0.752053000000000    0.750000000000000 
K           0.911680000000000    0.159628000000000    0.750000000000000 
%ENDBLOCK POSITIONS_FRAC
