# Cell file generated by matador (Matthew Evans 2016)

%BLOCK LATTICE_CART
4.87238 0.0 0.0
0.0 4.87238 0.0
0.0 0.0 6.0603
%ENDBLOCK LATTICE_CART

%BLOCK POSITIONS_FRAC
P           0.000000000000000    0.000000000000000    0.172942000000000 
P           0.000000000000000    0.000000000000000    0.827058000000000 
P           0.500000000000000    0.500000000000000    0.500000000000000 
K           0.000000000000000    0.500000000000000    0.000000000000000 
K           0.500000000000000    0.000000000000000    0.000000000000000 
%ENDBLOCK POSITIONS_FRAC
