# Cell file generated by matador (Matthew Evans 2016)

%BLOCK LATTICE_CART
8.30594 0.0 0.0
-4.15297 7.19315 0.0
0.0 0.0 8.72514
%ENDBLOCK LATTICE_CART

%BLOCK POSITIONS_FRAC
P           0.000000000000000    0.000000000000000    0.500000000000000 
P           0.333333000000000    0.666667000000000    0.000000000000000 
P           0.666667000000000    0.333333000000000    0.000000000000000 
K           0.000000000000000    0.500000000000000    0.000000000000000 
K           0.000000000000000    0.500000000000000    0.500000000000000 
K           0.093976000000000    0.773702000000000    0.000000000000000 
K           0.226298000000000    0.320274000000000    0.000000000000000 
K           0.320274000000000    0.093976000000000    0.000000000000000 
K           0.500000000000000    0.000000000000000    0.000000000000000 
K           0.500000000000000    0.000000000000000    0.500000000000000 
K           0.500000000000000    0.500000000000000    0.000000000000000 
K           0.500000000000000    0.500000000000000    0.500000000000000 
K           0.679726000000000    0.906024000000000    0.000000000000000 
K           0.773702000000000    0.679726000000000    0.000000000000000 
K           0.906024000000000    0.226298000000000    0.000000000000000 
%ENDBLOCK POSITIONS_FRAC
