# Cell file generated by matador (Matthew Evans 2016)

%BLOCK LATTICE_CART
7.99954 0.0 0.0
-3.99977 6.9278 0.0
0.0 0.0 10.1344
%ENDBLOCK LATTICE_CART

%BLOCK POSITIONS_FRAC
P           0.000000000000000    0.000000000000000    0.194488000000000 
P           0.000000000000000    0.000000000000000    0.805512000000000 
K           0.000000000000000    0.000000000000000    0.000000000000000 
K           0.000000000000000    0.500000000000000    0.500000000000000 
K           0.040189000000000    0.540188000000000    0.710737000000000 
K           0.333333000000000    0.666667000000000    0.755418000000000 
K           0.459812000000000    0.500001000000000    0.710737000000000 
K           0.499999000000000    0.959811000000000    0.710737000000000 
K           0.500000000000000    0.000000000000000    0.500000000000000 
K           0.500000000000000    0.500000000000000    0.500000000000000 
K           0.500001000000000    0.040189000000000    0.289263000000000 
K           0.540188000000000    0.499999000000000    0.289263000000000 
K           0.666667000000000    0.333333000000000    0.244582000000000 
K           0.959811000000000    0.459812000000000    0.289263000000000 
%ENDBLOCK POSITIONS_FRAC
