# Cell file generated by matador (Matthew Evans 2016)

%BLOCK LATTICE_CART
6.12301 0.0 0.0
-3.06151 5.30268 0.0
0.0 0.0 10.3479
%ENDBLOCK LATTICE_CART

%BLOCK POSITIONS_FRAC
P           0.000000000000000    0.000000000000000    0.310241000000000 
P           0.000000000000000    0.000000000000000    0.689759000000000 
P           0.220873000000000    0.685373000000000    0.388677000000000 
P           0.314627000000000    0.535500000000000    0.388677000000000 
P           0.333333000000000    0.666667000000000    0.507619000000000 
P           0.464500000000000    0.779127000000000    0.388677000000000 
P           0.535500000000000    0.220873000000000    0.611323000000000 
P           0.666667000000000    0.333333000000000    0.492381000000000 
P           0.685373000000000    0.464500000000000    0.611323000000000 
P           0.779127000000000    0.314627000000000    0.611323000000000 
K           0.000000000000000    0.000000000000000    0.000000000000000 
K           0.000000000000000    0.000000000000000    0.500000000000000 
%ENDBLOCK POSITIONS_FRAC
