# Cell file generated by matador (Matthew Evans 2016)

%BLOCK LATTICE_CART
7.26448 0.0 0.0
0.0 7.26448 0.0
0.0 0.0 7.26448
%ENDBLOCK LATTICE_CART

%BLOCK POSITIONS_FRAC
P           0.260150000000000    0.440139000000000    0.567345000000000 
P           0.260150000000000    0.559861000000000    0.432655000000000 
P           0.432655000000000    0.260150000000000    0.559861000000000 
P           0.432655000000000    0.739850000000000    0.440139000000000 
P           0.440139000000000    0.432655000000000    0.739850000000000 
P           0.440139000000000    0.567345000000000    0.260150000000000 
P           0.559861000000000    0.432655000000000    0.260150000000000 
P           0.559861000000000    0.567345000000000    0.739850000000000 
P           0.567345000000000    0.260150000000000    0.440139000000000 
P           0.567345000000000    0.739850000000000    0.559861000000000 
P           0.739850000000000    0.440139000000000    0.432655000000000 
P           0.739850000000000    0.559861000000000    0.567345000000000 
K           0.000000000000000    0.500000000000000    0.500000000000000 
K           0.500000000000000    0.000000000000000    0.500000000000000 
K           0.500000000000000    0.500000000000000    0.000000000000000 
%ENDBLOCK POSITIONS_FRAC
