# Cell file generated by matador (Matthew Evans 2016)

%BLOCK LATTICE_CART
5.85131 0.0 0.0
0.0 8.67872 0.0
-1.46115 0.0 7.60526
%ENDBLOCK LATTICE_CART

%BLOCK POSITIONS_FRAC
P           0.027662000000000    0.297978000000000    0.989229000000000 
P           0.027662000000000    0.702022000000000    0.489229000000000 
P           0.216454000000000    0.300097000000000    0.705565000000000 
P           0.216454000000000    0.699903000000000    0.205565000000000 
P           0.273175000000000    0.115515000000000    0.849846000000000 
P           0.273175000000000    0.884485000000000    0.349846000000000 
P           0.591906000000000    0.113149000000000    0.822895000000000 
P           0.591906000000000    0.886851000000000    0.322895000000000 
P           0.824319000000000    0.061086000000000    0.854545000000000 
P           0.824319000000000    0.938914000000000    0.354545000000000 
K           0.146404000000000    0.468046000000000    0.325622000000000 
K           0.146404000000000    0.531954000000000    0.825622000000000 
K           0.650544000000000    0.136128000000000    0.106045000000000 
K           0.650544000000000    0.863872000000000    0.606045000000000 
%ENDBLOCK POSITIONS_FRAC
