# Cell file generated by matador (Matthew Evans 2016)

%BLOCK LATTICE_CART
8.08066 0.0 0.0
-4.04033 6.99805 0.0
0.0 0.0 5.07129
%ENDBLOCK LATTICE_CART

%BLOCK POSITIONS_FRAC
P           0.000000000000000    0.373004000000000    0.500000000000000 
P           0.373004000000000    0.000000000000000    0.500000000000000 
P           0.626996000000000    0.626996000000000    0.500000000000000 
K           0.000000000000000    0.000000000000000    0.000000000000000 
K           0.333333000000000    0.666667000000000    0.000000000000000 
K           0.333333000000000    0.666667000000000    0.500000000000000 
K           0.666667000000000    0.333333000000000    0.000000000000000 
K           0.666667000000000    0.333333000000000    0.500000000000000 
%ENDBLOCK POSITIONS_FRAC
