# Cell file generated by matador (Matthew Evans 2016)

%BLOCK LATTICE_CART
7.92797 0.0 0.0
0.0 7.92797 0.0
0.0 0.0 7.92797
%ENDBLOCK LATTICE_CART

%BLOCK POSITIONS_FRAC
P           0.000000000000000    0.000000000000000    0.500000000000000 
P           0.000000000000000    0.500000000000000    0.000000000000000 
P           0.000000000000000    0.500000000000000    0.500000000000000 
P           0.145649000000000    0.145649000000000    0.854351000000000 
P           0.145649000000000    0.854351000000000    0.145649000000000 
P           0.354351000000000    0.354351000000000    0.645649000000000 
P           0.354351000000000    0.645649000000000    0.354351000000000 
P           0.500000000000000    0.000000000000000    0.000000000000000 
P           0.500000000000000    0.000000000000000    0.500000000000000 
P           0.500000000000000    0.500000000000000    0.000000000000000 
P           0.645649000000000    0.354351000000000    0.354351000000000 
P           0.645649000000000    0.645649000000000    0.645649000000000 
P           0.854351000000000    0.145649000000000    0.145649000000000 
P           0.854351000000000    0.854351000000000    0.854351000000000 
K           0.000000000000000    0.000000000000000    0.000000000000000 
K           0.500000000000000    0.500000000000000    0.500000000000000 
%ENDBLOCK POSITIONS_FRAC
