# Cell file generated by matador (Matthew Evans 2016)

%BLOCK LATTICE_CART
6.39949 0.0 0.0
-1.05291 4.08231 0.0
1.10822 0.269883 6.79767
%ENDBLOCK LATTICE_CART

%BLOCK POSITIONS_FRAC
P           0.118559000000000    0.129144000000000    0.351363000000000 
P           0.881441000000000    0.870856000000000    0.648637000000000 
K           0.000000000000000    0.500000000000000    0.000000000000000 
K           0.000000000000000    0.500000000000000    0.500000000000000 
K           0.500000000000000    0.500000000000000    0.000000000000000 
%ENDBLOCK POSITIONS_FRAC
