# Cell file generated by matador (Matthew Evans 2016)

%BLOCK LATTICE_CART
6.176 0.0 0.0
-3.088 5.34858 0.0
0.0 0.0 8.26247
%ENDBLOCK LATTICE_CART

%BLOCK POSITIONS_FRAC
P           0.000000000000000    0.500000000000000    0.101095000000000 
P           0.500000000000000    0.000000000000000    0.101095000000000 
P           0.500000000000000    0.500000000000000    0.101095000000000 
K           0.000000000000000    0.500000000000000    0.449308000000000 
K           0.333333000000000    0.666667000000000    0.706253000000000 
K           0.500000000000000    0.000000000000000    0.449308000000000 
K           0.500000000000000    0.500000000000000    0.449308000000000 
K           0.666667000000000    0.333333000000000    0.706253000000000 
%ENDBLOCK POSITIONS_FRAC
