# Cell file generated by matador (Matthew Evans 2016)

%BLOCK LATTICE_CART
10.0741 0.0 0.0
0.0 10.0741 0.0
0.0 0.0 9.09612
%ENDBLOCK LATTICE_CART

%BLOCK POSITIONS_FRAC
P           0.000000000000000    0.000000000000000    0.000000000000000 
P           0.000000000000000    0.500000000000000    0.250000000000000 
P           0.000000000000000    0.500000000000000    0.750000000000000 
P           0.500000000000000    0.000000000000000    0.250000000000000 
P           0.500000000000000    0.000000000000000    0.750000000000000 
P           0.500000000000000    0.500000000000000    0.500000000000000 
K           0.000000000000000    0.000000000000000    0.500000000000000 
K           0.061881000000000    0.636525000000000    0.500000000000000 
K           0.136525000000000    0.438119000000000    0.000000000000000 
K           0.203643000000000    0.203643000000000    0.214818000000000 
K           0.203643000000000    0.203643000000000    0.785182000000000 
K           0.296357000000000    0.703643000000000    0.285182000000000 
K           0.296357000000000    0.703643000000000    0.714818000000000 
K           0.363475000000000    0.938119000000000    0.500000000000000 
K           0.438119000000000    0.136525000000000    0.000000000000000 
K           0.500000000000000    0.500000000000000    0.000000000000000 
K           0.561881000000000    0.863475000000000    0.000000000000000 
K           0.636525000000000    0.061881000000000    0.500000000000000 
K           0.703643000000000    0.296357000000000    0.285182000000000 
K           0.703643000000000    0.296357000000000    0.714818000000000 
K           0.796357000000000    0.796357000000000    0.214818000000000 
K           0.796357000000000    0.796357000000000    0.785182000000000 
K           0.863475000000000    0.561881000000000    0.000000000000000 
K           0.938119000000000    0.363475000000000    0.500000000000000 
%ENDBLOCK POSITIONS_FRAC
