# Cell file generated by matador (Matthew Evans 2016)

%BLOCK LATTICE_CART
7.10243 0.0 0.0
-3.55121 6.15088 0.0
0.0 0.0 9.00561
%ENDBLOCK LATTICE_CART

%BLOCK POSITIONS_FRAC
P           0.245369000000000    0.522623000000000    0.255833000000000 
P           0.245369000000000    0.722746000000000    0.077501000000000 
P           0.277254000000000    0.522623000000000    0.744167000000000 
P           0.277254000000000    0.754631000000000    0.589166000000000 
P           0.477377000000000    0.722746000000000    0.922499000000000 
P           0.477377000000000    0.754631000000000    0.410834000000000 
P           0.522623000000000    0.245369000000000    0.410834000000000 
P           0.522623000000000    0.277254000000000    0.922499000000000 
P           0.722746000000000    0.245369000000000    0.589166000000000 
P           0.722746000000000    0.477377000000000    0.744167000000000 
P           0.754631000000000    0.277254000000000    0.077501000000000 
P           0.754631000000000    0.477377000000000    0.255833000000000 
K           0.000000000000000    0.000000000000000    0.166667000000000 
K           0.000000000000000    0.000000000000000    0.500000000000000 
K           0.000000000000000    0.000000000000000    0.833333000000000 
K           0.000000000000000    0.500000000000000    0.666667000000000 
K           0.500000000000000    0.000000000000000    0.000000000000000 
K           0.500000000000000    0.500000000000000    0.333333000000000 
%ENDBLOCK POSITIONS_FRAC
