# Cell file generated by matador (Matthew Evans 2016)

%BLOCK LATTICE_CART
10.8776 0.0 0.0
0.0 6.22359 0.0
0.0 0.0 6.94022
%ENDBLOCK LATTICE_CART

%BLOCK POSITIONS_FRAC
P           0.000000000000000    0.000000000000000    0.000000000000000 
P           0.000000000000000    0.000000000000000    0.500000000000000 
P           0.374319000000000    0.019978000000000    0.000000000000000 
P           0.374319000000000    0.980022000000000    0.500000000000000 
P           0.625681000000000    0.019978000000000    0.500000000000000 
P           0.625681000000000    0.980022000000000    0.000000000000000 
K           0.000000000000000    0.500000000000000    0.000000000000000 
K           0.000000000000000    0.500000000000000    0.500000000000000 
K           0.155672000000000    0.500000000000000    0.250000000000000 
K           0.155672000000000    0.500000000000000    0.750000000000000 
K           0.500000000000000    0.000000000000000    0.250000000000000 
K           0.500000000000000    0.000000000000000    0.750000000000000 
K           0.500000000000000    0.500000000000000    0.250000000000000 
K           0.500000000000000    0.500000000000000    0.750000000000000 
K           0.844328000000000    0.500000000000000    0.250000000000000 
K           0.844328000000000    0.500000000000000    0.750000000000000 
%ENDBLOCK POSITIONS_FRAC
