# Cell file generated by matador (Matthew Evans 2016)

%BLOCK LATTICE_CART
11.7352 0.0 0.0
0.0 11.7352 0.0
0.0 0.0 9.20904
%ENDBLOCK LATTICE_CART

%BLOCK POSITIONS_FRAC
P           0.000000000000000    0.500000000000000    0.471091000000000 
P           0.000000000000000    0.500000000000000    0.971091000000000 
P           0.250000000000000    0.250000000000000    0.750000000000000 
P           0.250000000000000    0.750000000000000    0.250000000000000 
P           0.500000000000000    0.000000000000000    0.028909000000000 
P           0.500000000000000    0.000000000000000    0.528909000000000 
P           0.750000000000000    0.250000000000000    0.250000000000000 
P           0.750000000000000    0.750000000000000    0.750000000000000 
K           0.000000000000000    0.000000000000000    0.000000000000000 
K           0.000000000000000    0.000000000000000    0.500000000000000 
K           0.100607000000000    0.399393000000000    0.086017000000000 
K           0.100607000000000    0.600607000000000    0.586017000000000 
K           0.130830000000000    0.369170000000000    0.715011000000000 
K           0.130830000000000    0.630830000000000    0.215011000000000 
K           0.250000000000000    0.250000000000000    0.250000000000000 
K           0.250000000000000    0.750000000000000    0.750000000000000 
K           0.369170000000000    0.130830000000000    0.784989000000000 
K           0.369170000000000    0.869170000000000    0.284989000000000 
K           0.399393000000000    0.100607000000000    0.413983000000000 
K           0.399393000000000    0.899393000000000    0.913983000000000 
K           0.500000000000000    0.500000000000000    0.000000000000000 
K           0.500000000000000    0.500000000000000    0.500000000000000 
K           0.600607000000000    0.100607000000000    0.913983000000000 
K           0.600607000000000    0.899393000000000    0.413983000000000 
K           0.630830000000000    0.130830000000000    0.284989000000000 
K           0.630830000000000    0.869170000000000    0.784989000000000 
K           0.750000000000000    0.250000000000000    0.750000000000000 
K           0.750000000000000    0.750000000000000    0.250000000000000 
K           0.869170000000000    0.369170000000000    0.215011000000000 
K           0.869170000000000    0.630830000000000    0.715011000000000 
K           0.899393000000000    0.399393000000000    0.586017000000000 
K           0.899393000000000    0.600607000000000    0.086017000000000 
%ENDBLOCK POSITIONS_FRAC
