# Cell file generated by matador (Matthew Evans 2016)

%BLOCK LATTICE_CART
9.2636 0.0 0.0
-4.6318 8.02251 0.0
0.0 0.0 11.3262
%ENDBLOCK LATTICE_CART

%BLOCK POSITIONS_FRAC
P           0.000000000000000    0.000000000000000    0.277121000000000 
P           0.000000000000000    0.000000000000000    0.573606000000000 
P           0.000000000000000    0.000000000000000    0.789076000000000 
P           0.333333000000000    0.666667000000000    0.548347000000000 
P           0.333333000000000    0.666667000000000    0.983781000000000 
K           0.009543000000000    0.504771000000000    0.780831000000000 
K           0.206408000000000    0.412816000000000    0.943584000000000 
K           0.206408000000000    0.793592000000000    0.943584000000000 
K           0.336670000000000    0.168335000000000    0.659548000000000 
K           0.346336000000000    0.173168000000000    0.321941000000000 
K           0.409354000000000    0.204677000000000    0.045628000000000 
K           0.495229000000000    0.504771000000000    0.780831000000000 
K           0.495229000000000    0.990457000000000    0.780831000000000 
K           0.587184000000000    0.793592000000000    0.943584000000000 
K           0.795323000000000    0.204677000000000    0.045628000000000 
K           0.795323000000000    0.590646000000000    0.045628000000000 
K           0.826832000000000    0.173168000000000    0.321941000000000 
K           0.826832000000000    0.653664000000000    0.321941000000000 
K           0.831665000000000    0.168335000000000    0.659548000000000 
K           0.831665000000000    0.663330000000000    0.659548000000000 
%ENDBLOCK POSITIONS_FRAC
