# Cell file generated by matador (Matthew Evans 2016)

%BLOCK LATTICE_CART
7.34371 0.0 0.0
-3.67186 6.35984 0.0
0.0 0.0 9.7511
%ENDBLOCK LATTICE_CART

%BLOCK POSITIONS_FRAC
P           0.094598000000000    0.837161000000000    0.789879000000000 
P           0.162839000000000    0.257436000000000    0.789879000000000 
P           0.245069000000000    0.500579000000000    0.277975000000000 
P           0.255510000000000    0.754931000000000    0.277975000000000 
P           0.257436000000000    0.094598000000000    0.210121000000000 
P           0.499421000000000    0.744490000000000    0.277975000000000 
P           0.500579000000000    0.255510000000000    0.722025000000000 
P           0.742564000000000    0.905402000000000    0.789879000000000 
P           0.744490000000000    0.245069000000000    0.722025000000000 
P           0.754931000000000    0.499421000000000    0.722025000000000 
P           0.837161000000000    0.742564000000000    0.210121000000000 
P           0.905402000000000    0.162839000000000    0.210121000000000 
K          -0.000000000000000    0.500000000000000    0.000000000000000 
K          -0.000000000000000    0.500000000000000    0.500000000000000 
K           0.333333000000000    0.666667000000000    0.466349000000000 
K           0.500000000000000   -0.000000000000000    0.000000000000000 
K           0.500000000000000   -0.000000000000000    0.500000000000000 
K           0.500000000000000    0.500000000000000    0.000000000000000 
K           0.500000000000000    0.500000000000000    0.500000000000000 
K           0.666667000000000    0.333333000000000    0.533651000000000 
%ENDBLOCK POSITIONS_FRAC
