# Cell file generated by matador (Matthew Evans 2016)

%BLOCK LATTICE_CART
9.87512 0.0 0.0
-4.93756 8.5521 0.0
0.0 0.0 7.68356
%ENDBLOCK LATTICE_CART

%BLOCK POSITIONS_FRAC
P          -0.000000000000000    0.000000000000000    0.002228000000000 
P          -0.000000000000000    0.000000000000000    0.226608000000000 
P          -0.000000000000000    0.000000000000000    0.463758000000000 
P          -0.000000000000000    0.000000000000000    0.751930000000000 
P           0.186100000000000    0.736422000000000    0.032813000000000 
P           0.263578000000000    0.449678000000000    0.032813000000000 
P           0.333333000000000    0.666667000000000    0.357350000000000 
P           0.333333000000000    0.666667000000000    0.759935000000000 
P           0.449678000000000    0.186100000000000    0.032813000000000 
P           0.550322000000000    0.813900000000000    0.032813000000000 
P           0.666667000000000    0.333333000000000    0.357350000000000 
P           0.666667000000000    0.333333000000000    0.759935000000000 
P           0.736422000000000    0.550322000000000    0.032813000000000 
P           0.813900000000000    0.263578000000000    0.032813000000000 
K           0.149872000000000    0.413201000000000    0.301103000000000 
K           0.263329000000000    0.850128000000000    0.301103000000000 
K           0.413201000000000    0.263329000000000    0.301103000000000 
K           0.586799000000000    0.736671000000000    0.301103000000000 
K           0.736671000000000    0.149872000000000    0.301103000000000 
K           0.850128000000000    0.586799000000000    0.301103000000000 
%ENDBLOCK POSITIONS_FRAC
