# Cell file generated by matador (Matthew Evans 2016)

%BLOCK LATTICE_CART
4.56977 0.0 0.0
0.0 7.52501 0.0
0.0 0.0 8.44533
%ENDBLOCK LATTICE_CART

%BLOCK POSITIONS_FRAC
P           0.000000000000000    0.500000000000000    0.684450000000000 
P           0.120412000000000    0.000000000000000    0.913330000000000 
P           0.158260000000000    0.000000000000000    0.424273000000000 
P           0.285816000000000    0.500000000000000    0.257498000000000 
P           0.500000000000000    0.000000000000000    0.146559000000000 
P           0.500000000000000    0.119760000000000    0.254984000000000 
P           0.500000000000000    0.393792000000000    0.001650000000000 
P           0.500000000000000    0.606208000000000    0.001650000000000 
P           0.500000000000000    0.880240000000000    0.254984000000000 
P           0.714184000000000    0.500000000000000    0.257498000000000 
P           0.841740000000000    0.000000000000000    0.424273000000000 
P           0.879588000000000    0.000000000000000    0.913330000000000 
K           0.274199000000000    0.000000000000000    0.671545000000000 
K           0.725801000000000    0.000000000000000    0.671545000000000 
%ENDBLOCK POSITIONS_FRAC
