# Cell file generated by matador (Matthew Evans 2016)

%BLOCK LATTICE_CART
7.78529 0.0 0.0
0.0 8.90046 0.0
0.0 0.0 9.66216
%ENDBLOCK LATTICE_CART

%BLOCK POSITIONS_FRAC
P           0.000000000000000    0.000000000000000    0.461902000000000 
P           0.000000000000000    0.000000000000000    0.735445000000000 
P           0.500000000000000    0.500000000000000    0.461902000000000 
P           0.500000000000000    0.500000000000000    0.735445000000000 
K           0.204631000000000    0.500000000000000    0.361255000000000 
K           0.207225000000000    0.000000000000000    0.054917000000000 
K           0.235854000000000    0.500000000000000    0.744965000000000 
K           0.264146000000000    0.000000000000000    0.744965000000000 
K           0.292775000000000    0.500000000000000    0.054917000000000 
K           0.295369000000000    0.000000000000000    0.361255000000000 
K           0.704631000000000    0.000000000000000    0.361255000000000 
K           0.707225000000000    0.500000000000000    0.054917000000000 
K           0.735854000000000    0.000000000000000    0.744965000000000 
K           0.764146000000000    0.500000000000000    0.744965000000000 
K           0.792775000000000    0.000000000000000    0.054917000000000 
K           0.795369000000000    0.500000000000000    0.361255000000000 
%ENDBLOCK POSITIONS_FRAC
