# Cell file generated by matador (Matthew Evans 2016)

%BLOCK LATTICE_CART
7.30747 0.0 0.0
-3.65374 6.32846 0.0
0.0 0.0 8.18726
%ENDBLOCK LATTICE_CART

%BLOCK POSITIONS_FRAC
P           0.019600000000000    0.315279000000000    0.596259000000000 
P           0.095043000000000    0.686959000000000    0.420624000000000 
P           0.295679000000000    0.980400000000000    0.596259000000000 
P           0.313041000000000    0.408084000000000    0.420624000000000 
P           0.591916000000000    0.904957000000000    0.420624000000000 
P           0.666667000000000    0.333333000000000    0.553853000000000 
P           0.684721000000000    0.704321000000000    0.596259000000000 
K           0.000000000000000    0.000000000000000    0.710552000000000 
K           0.147967000000000    0.652472000000000    0.930514000000000 
K           0.333333000000000    0.666667000000000    0.312315000000000 
K           0.347528000000000    0.495495000000000    0.930514000000000 
K           0.504505000000000    0.852033000000000    0.930514000000000 
%ENDBLOCK POSITIONS_FRAC
