# Cell file generated by matador (Matthew Evans 2016)

%BLOCK LATTICE_CART
6.76053 0.0 0.0
0.0 11.1124 0.0
3.51567 0.0 7.09218
%ENDBLOCK LATTICE_CART

%BLOCK POSITIONS_FRAC
P           0.086937000000000    0.587962000000000    0.714000000000000 
P           0.086937000000000    0.912038000000000    0.714000000000000 
P           0.274911000000000    0.092235000000000    0.444729000000000 
P           0.274911000000000    0.407765000000000    0.444729000000000 
P           0.725089000000000    0.592235000000000    0.555271000000000 
P           0.725089000000000    0.907765000000000    0.555271000000000 
P           0.913063000000000    0.087962000000000    0.286000000000000 
P           0.913063000000000    0.412038000000000    0.286000000000000 
K           0.000000000000000    0.000000000000000    0.000000000000000 
K           0.000000000000000    0.500000000000000    0.000000000000000 
K           0.500000000000000    0.000000000000000    0.000000000000000 
K           0.500000000000000    0.000000000000000    0.500000000000000 
K           0.500000000000000    0.500000000000000    0.000000000000000 
K           0.500000000000000    0.500000000000000    0.500000000000000 
%ENDBLOCK POSITIONS_FRAC
