# Cell file generated by matador (Matthew Evans 2016)

%BLOCK LATTICE_CART
7.61112 -0.0 0.0
-3.80556 6.59142 0.0
0.0 0.0 5.9883
%ENDBLOCK LATTICE_CART

%BLOCK POSITIONS_FRAC
P           0.025208000000000    0.402529000000000    0.995319000000000 
P           0.043988000000000    0.308125000000000    0.328653000000000 
P           0.264137000000000    0.956012000000000    0.328653000000000 
P           0.358542000000000    0.069196000000000    0.661986000000000 
P           0.377321000000000    0.974792000000000    0.995319000000000 
P           0.597471000000000    0.622679000000000    0.995319000000000 
P           0.691875000000000    0.735863000000000    0.328653000000000 
P           0.710655000000000    0.641458000000000    0.661986000000000 
P           0.930804000000000    0.289345000000000    0.661986000000000 
K          -0.000000000000000   -0.000000000000000    0.681552000000000 
K           0.333333000000000    0.666667000000000    0.348219000000000 
K           0.666667000000000    0.333333000000000    0.014885000000000 
%ENDBLOCK POSITIONS_FRAC
