# Cell file generated by matador (Matthew Evans 2016)

%BLOCK LATTICE_CART
7.32207 0.0 0.0
0.0 7.93248 0.0
0.0 0.0 5.81381
%ENDBLOCK LATTICE_CART

%BLOCK POSITIONS_FRAC
P           0.500000000000000    0.315732000000000    0.655952000000000 
P           0.500000000000000    0.684268000000000    0.155952000000000 
K           0.000000000000000    0.113596000000000    0.425016000000000 
K           0.000000000000000    0.294419000000000    0.938157000000000 
K           0.000000000000000    0.705581000000000    0.438157000000000 
K           0.000000000000000    0.886404000000000    0.925016000000000 
K           0.500000000000000    0.159627000000000    0.045365000000000 
K           0.500000000000000    0.840373000000000    0.545365000000000 
%ENDBLOCK POSITIONS_FRAC
