# Cell file generated by matador (Matthew Evans 2016)

%BLOCK LATTICE_CART
4.52707 0.0 0.0
0.0 7.88946 0.0
0.0 0.0 9.34923
%ENDBLOCK LATTICE_CART

%BLOCK POSITIONS_FRAC
P           0.000000000000000    0.500000000000000    0.000000000000000 
P           0.130468000000000    0.000000000000000    0.185054000000000 
P           0.130468000000000    0.000000000000000    0.814946000000000 
P           0.369532000000000    0.500000000000000    0.185054000000000 
P           0.369532000000000    0.500000000000000    0.814946000000000 
P           0.500000000000000    0.000000000000000    0.000000000000000 
P           0.630468000000000    0.500000000000000    0.185054000000000 
P           0.630468000000000    0.500000000000000    0.814946000000000 
P           0.869532000000000    0.000000000000000    0.185054000000000 
P           0.869532000000000    0.000000000000000    0.814946000000000 
K           0.000000000000000    0.000000000000000    0.500000000000000 
K           0.000000000000000    0.500000000000000    0.500000000000000 
K           0.500000000000000    0.000000000000000    0.500000000000000 
K           0.500000000000000    0.500000000000000    0.500000000000000 
%ENDBLOCK POSITIONS_FRAC
