# Cell file generated by matador (Matthew Evans 2016)

%BLOCK LATTICE_CART
6.63728 0.0 0.0
0.0 6.63728 0.0
0.0 0.0 6.63728
%ENDBLOCK LATTICE_CART

%BLOCK POSITIONS_FRAC
P           0.361778000000000    0.361778000000000    0.638222000000000 
P           0.361778000000000    0.638222000000000    0.361778000000000 
P           0.638222000000000    0.361778000000000    0.361778000000000 
P           0.638222000000000    0.638222000000000    0.638222000000000 
K          -0.000000000000000   -0.000000000000000   -0.000000000000000 
K          -0.000000000000000   -0.000000000000000    0.500000000000000 
K          -0.000000000000000    0.500000000000000   -0.000000000000000 
K          -0.000000000000000    0.500000000000000    0.500000000000000 
K           0.500000000000000   -0.000000000000000   -0.000000000000000 
K           0.500000000000000   -0.000000000000000    0.500000000000000 
K           0.500000000000000    0.500000000000000   -0.000000000000000 
%ENDBLOCK POSITIONS_FRAC
