# Cell file generated by matador (Matthew Evans 2016)

%BLOCK LATTICE_CART
9.62107 0.0 0.0
0.0 9.71821 0.0
0.0 0.0 5.69301
%ENDBLOCK LATTICE_CART

%BLOCK POSITIONS_FRAC
P           0.000000000000000    0.500000000000000    0.500000000000000 
P           0.288255000000000    0.246529000000000    0.351146000000000 
P           0.288255000000000    0.246529000000000    0.648854000000000 
P           0.288255000000000    0.753471000000000    0.351146000000000 
P           0.288255000000000    0.753471000000000    0.648854000000000 
P           0.500000000000000    0.500000000000000    0.500000000000000 
P           0.711745000000000    0.246529000000000    0.351146000000000 
P           0.711745000000000    0.246529000000000    0.648854000000000 
P           0.711745000000000    0.753471000000000    0.351146000000000 
P           0.711745000000000    0.753471000000000    0.648854000000000 
K           0.000000000000000    0.000000000000000    0.000000000000000 
K           0.000000000000000    0.000000000000000    0.500000000000000 
K           0.345218000000000    0.236689000000000    0.000000000000000 
K           0.345218000000000    0.763311000000000    0.000000000000000 
K           0.654782000000000    0.236689000000000    0.000000000000000 
K           0.654782000000000    0.763311000000000    0.000000000000000 
%ENDBLOCK POSITIONS_FRAC
