# Cell file generated by matador (Matthew Evans 2016)

%BLOCK LATTICE_CART
8.14696 0.0 0.0
0.0 10.3782 0.0
0.0 0.0 3.4524
%ENDBLOCK LATTICE_CART

%BLOCK POSITIONS_FRAC
P          -0.000000000000000    0.973580000000000    0.641256000000000 
P           0.500000000000000    0.026420000000000    0.141256000000000 
K          -0.000000000000000    0.129974000000000    0.186151000000000 
K          -0.000000000000000    0.375959000000000    0.664185000000000 
K          -0.000000000000000    0.704249000000000    0.922056000000000 
K           0.500000000000000    0.295751000000000    0.422056000000000 
K           0.500000000000000    0.624041000000000    0.164185000000000 
K           0.500000000000000    0.870026000000000    0.686151000000000 
%ENDBLOCK POSITIONS_FRAC
