# Cell file generated by matador (Matthew Evans 2016)

%BLOCK LATTICE_CART
11.5225 0.0 0.0
0.0 7.80088 0.0
0.0 0.0 7.85758
%ENDBLOCK LATTICE_CART

%BLOCK POSITIONS_FRAC
P           0.000000000000000    0.000000000000000    0.000000000000000 
P           0.000000000000000    0.000000000000000    0.500000000000000 
P           0.000000000000000    0.500000000000000    0.000000000000000 
P           0.000000000000000    0.500000000000000    0.500000000000000 
P           0.500000000000000    0.000000000000000    0.000000000000000 
P           0.500000000000000    0.000000000000000    0.500000000000000 
P           0.500000000000000    0.500000000000000    0.000000000000000 
P           0.500000000000000    0.500000000000000    0.500000000000000 
K           0.000000000000000    0.000000000000000    0.250000000000000 
K           0.000000000000000    0.000000000000000    0.750000000000000 
K           0.213983000000000    0.187504000000000    0.500000000000000 
K           0.213983000000000    0.812496000000000    0.000000000000000 
K           0.286017000000000    0.312496000000000    0.000000000000000 
K           0.286017000000000    0.687504000000000    0.500000000000000 
K           0.500000000000000    0.500000000000000    0.250000000000000 
K           0.500000000000000    0.500000000000000    0.750000000000000 
K           0.713983000000000    0.312496000000000    0.500000000000000 
K           0.713983000000000    0.687504000000000    0.000000000000000 
K           0.786017000000000    0.187504000000000    0.000000000000000 
K           0.786017000000000    0.812496000000000    0.500000000000000 
%ENDBLOCK POSITIONS_FRAC
