# Cell file generated by matador (Matthew Evans 2016)

%BLOCK LATTICE_CART
9.60062 0.0 0.0
-4.80031 8.31438 0.0
0.0 0.0 11.8043
%ENDBLOCK LATTICE_CART

%BLOCK POSITIONS_FRAC
P           0.000000000000000    0.000000000000000    0.593987000000000 
P           0.000000000000000    0.000000000000000    0.960804000000000 
P           0.333333000000000    0.666667000000000    0.260654000000000 
P           0.333333000000000    0.666667000000000    0.627470000000000 
P           0.666667000000000    0.333333000000000    0.294137000000000 
P           0.666667000000000    0.333333000000000    0.927321000000000 
K           0.099700000000000    0.549850000000000    0.872940000000000 
K           0.116817000000000    0.233633000000000    0.206273000000000 
K           0.116817000000000    0.883183000000000    0.206273000000000 
K           0.217078000000000    0.434157000000000    0.476987000000000 
K           0.217078000000000    0.782922000000000    0.476987000000000 
K           0.232510000000000    0.116255000000000    0.810320000000000 
K           0.433033000000000    0.216517000000000    0.539606000000000 
K           0.450150000000000    0.549850000000000    0.872940000000000 
K           0.450150000000000    0.900300000000000    0.872940000000000 
K           0.550412000000000    0.100823000000000    0.143653000000000 
K           0.550412000000000    0.449588000000000    0.143653000000000 
K           0.565843000000000    0.782922000000000    0.476987000000000 
K           0.766367000000000    0.883183000000000    0.206273000000000 
K           0.783483000000000    0.216517000000000    0.539606000000000 
K           0.783483000000000    0.566967000000000    0.539606000000000 
K           0.883745000000000    0.116255000000000    0.810320000000000 
K           0.883745000000000    0.767490000000000    0.810320000000000 
K           0.899177000000000    0.449588000000000    0.143653000000000 
%ENDBLOCK POSITIONS_FRAC
