# Cell file generated by matador (Matthew Evans 2016)

%BLOCK LATTICE_CART
7.45627 0.0 0.0
0.0 7.45627 0.0
0.0 0.0 7.45627
%ENDBLOCK LATTICE_CART

%BLOCK POSITIONS_FRAC
P           0.073498000000000    0.500000000000000    0.500000000000000 
P           0.500000000000000    0.073498000000000    0.500000000000000 
P           0.500000000000000    0.500000000000000    0.073498000000000 
P           0.500000000000000    0.500000000000000    0.926502000000000 
P           0.500000000000000    0.926502000000000    0.500000000000000 
P           0.926502000000000    0.500000000000000    0.500000000000000 
K           0.000000000000000    0.000000000000000    0.000000000000000 
K           0.000000000000000    0.000000000000000    0.500000000000000 
K           0.000000000000000    0.500000000000000    0.000000000000000 
K           0.170576000000000    0.170576000000000    0.170576000000000 
K           0.170576000000000    0.829424000000000    0.829424000000000 
K           0.500000000000000    0.000000000000000    0.000000000000000 
K           0.500000000000000    0.500000000000000    0.500000000000000 
K           0.829424000000000    0.170576000000000    0.829424000000000 
K           0.829424000000000    0.829424000000000    0.170576000000000 
%ENDBLOCK POSITIONS_FRAC
