# Cell file generated by matador (Matthew Evans 2016)

%BLOCK LATTICE_CART
8.78986 0.0 0.0
0.0632673 3.93813 0.0
1.31778 -1.56171 5.43722
%ENDBLOCK LATTICE_CART

%BLOCK POSITIONS_FRAC
P           0.000000000000000    0.000000000000000    0.000000000000000 
P           0.000000000000000    0.500000000000000    0.000000000000000 
P           0.500000000000000    0.000000000000000    0.000000000000000 
P           0.500000000000000    0.500000000000000    0.000000000000000 
K           0.258407000000000    0.696556000000000    0.620198000000000 
K           0.500000000000000    0.500000000000000    0.500000000000000 
K           0.741593000000000    0.303444000000000    0.379802000000000 
%ENDBLOCK POSITIONS_FRAC
