# Cell file generated by matador (Matthew Evans 2016)

%BLOCK LATTICE_CART
6.83741 0.0 0.0
0.0 6.12423 0.0
-1.00975 0.0 7.72834
%ENDBLOCK LATTICE_CART

%BLOCK POSITIONS_FRAC
P           0.876448000000000    0.300665000000000    0.716084000000000 
P           0.876448000000000    0.699335000000000    0.716084000000000 
K           0.206569000000000    0.000000000000000    0.544867000000000 
K           0.254933000000000    0.000000000000000    0.193445000000000 
K           0.296870000000000    0.500000000000000    0.062388000000000 
K           0.444826000000000    0.000000000000000    0.878695000000000 
K           0.791819000000000    0.000000000000000    0.632358000000000 
K           0.837038000000000    0.000000000000000    0.055237000000000 
%ENDBLOCK POSITIONS_FRAC
