# Cell file generated by matador (Matthew Evans 2016)

%BLOCK LATTICE_CART
5.58436 0.0 0.0
-2.79218 4.8362 0.0
0.0 0.0 13.995
%ENDBLOCK LATTICE_CART

%BLOCK POSITIONS_FRAC
P           0.000000000000000    0.000000000000000    0.000000000000000 
P           0.000000000000000    0.000000000000000    0.500000000000000 
P           0.333333000000000    0.666667000000000    0.731031000000000 
P           0.333333000000000    0.666667000000000    0.909145000000000 
P           0.666667000000000    0.333333000000000    0.090855000000000 
P           0.666667000000000    0.333333000000000    0.268969000000000 
K           0.000000000000000    0.500000000000000    0.000000000000000 
K           0.333333000000000    0.666667000000000    0.342658000000000 
K           0.500000000000000    0.000000000000000    0.000000000000000 
K           0.500000000000000    0.500000000000000    0.000000000000000 
K           0.666667000000000    0.333333000000000    0.657342000000000 
%ENDBLOCK POSITIONS_FRAC
