# Cell file generated by matador (Matthew Evans 2016)

%BLOCK LATTICE_CART
6.11058 0.0 0.0
0.0 6.11058 0.0
0.0 0.0 23.01
%ENDBLOCK LATTICE_CART

%BLOCK POSITIONS_FRAC
P           0.000000000000000    0.000000000000000    0.084672000000000 
P           0.000000000000000    0.000000000000000    0.360075000000000 
P           0.000000000000000    0.000000000000000    0.891742000000000 
P           0.500000000000000    0.500000000000000    0.391742000000000 
P           0.500000000000000    0.500000000000000    0.584672000000000 
P           0.500000000000000    0.500000000000000    0.860075000000000 
K           0.000000000000000    0.000000000000000    0.669834000000000 
K           0.246661000000000    0.246661000000000    0.802967000000000 
K           0.246661000000000    0.753339000000000    0.802967000000000 
K           0.248950000000000    0.248950000000000    0.995698000000000 
K           0.248950000000000    0.751050000000000    0.995698000000000 
K           0.251050000000000    0.251050000000000    0.495698000000000 
K           0.251050000000000    0.748950000000000    0.495698000000000 
K           0.253339000000000    0.253339000000000    0.302967000000000 
K           0.253339000000000    0.746661000000000    0.302967000000000 
K           0.500000000000000    0.500000000000000    0.169834000000000 
K           0.746661000000000    0.253339000000000    0.302967000000000 
K           0.746661000000000    0.746661000000000    0.302967000000000 
K           0.748950000000000    0.251050000000000    0.495698000000000 
K           0.748950000000000    0.748950000000000    0.495698000000000 
K           0.751050000000000    0.248950000000000    0.995698000000000 
K           0.751050000000000    0.751050000000000    0.995698000000000 
K           0.753339000000000    0.246661000000000    0.802967000000000 
K           0.753339000000000    0.753339000000000    0.802967000000000 
%ENDBLOCK POSITIONS_FRAC
