# Cell file generated by matador (Matthew Evans 2016)

%BLOCK LATTICE_CART
8.18355 0.0 0.0
0.0 4.64017 0.0
4.69196 0.0 8.23763
%ENDBLOCK LATTICE_CART

%BLOCK POSITIONS_FRAC
P           0.114204000000000    0.759558000000000    0.814703000000000 
P           0.151514000000000    0.954725000000000    0.913909000000000 
P           0.848486000000000    0.954725000000000    0.086091000000000 
P           0.885796000000000    0.759558000000000    0.185297000000000 
K           0.000000000000000    0.422959000000000    0.000000000000000 
K           0.240450000000000    0.561732000000000    0.097154000000000 
K           0.463403000000000    0.581931000000000    0.236129000000000 
K           0.536597000000000    0.581931000000000    0.763871000000000 
K           0.759550000000000    0.561732000000000    0.902846000000000 
%ENDBLOCK POSITIONS_FRAC
