# Cell file generated by matador (Matthew Evans 2016)

%BLOCK LATTICE_CART
8.84615 0.0 0.0
-4.42307 7.66099 0.0
0.0 0.0 6.18425
%ENDBLOCK LATTICE_CART

%BLOCK POSITIONS_FRAC
P           0.124128000000000    0.853489000000000    0.270304000000000 
P           0.146511000000000    0.270639000000000    0.270304000000000 
P           0.270639000000000    0.124128000000000    0.270304000000000 
P           0.729361000000000    0.875872000000000    0.270304000000000 
P           0.853489000000000    0.729361000000000    0.270304000000000 
P           0.875872000000000    0.146511000000000    0.270304000000000 
K          -0.000000000000000    0.500000000000000    0.043474000000000 
K           0.333333000000000    0.666667000000000    0.679819000000000 
K           0.500000000000000   -0.000000000000000    0.043474000000000 
K           0.500000000000000    0.500000000000000    0.043474000000000 
K           0.666667000000000    0.333333000000000    0.679819000000000 
%ENDBLOCK POSITIONS_FRAC
