# Cell file generated by matador (Matthew Evans 2016)

%BLOCK LATTICE_CART
8.07362 0.0 0.0
-4.03681 6.99196 0.0
0.0 0.0 7.77454
%ENDBLOCK LATTICE_CART

%BLOCK POSITIONS_FRAC
P           0.122781000000000    0.061391000000000    0.784540000000000 
P           0.174640000000000    0.087320000000000    0.237960000000000 
P           0.605190000000000    0.210380000000000    0.226464000000000 
P           0.605190000000000    0.394810000000000    0.226464000000000 
P           0.789620000000000    0.394810000000000    0.226464000000000 
P           0.912680000000000    0.087320000000000    0.237960000000000 
P           0.912680000000000    0.825360000000000    0.237960000000000 
P           0.938609000000000    0.061391000000000    0.784540000000000 
P           0.938609000000000    0.877219000000000    0.784540000000000 
K          -0.000000000000000    0.000000000000000    0.032062000000000 
K          -0.000000000000000    0.000000000000000    0.482838000000000 
K           0.164639000000000    0.329278000000000    0.692530000000000 
K           0.164639000000000    0.835361000000000    0.692530000000000 
K           0.167025000000000    0.334050000000000    0.019123000000000 
K           0.167025000000000    0.832975000000000    0.019123000000000 
K           0.665950000000000    0.832975000000000    0.019123000000000 
K           0.666666000000000    0.333334000000000    0.910614000000000 
K           0.670722000000000    0.835361000000000    0.692530000000000 
%ENDBLOCK POSITIONS_FRAC
