# Cell file generated by matador (Matthew Evans 2016)

%BLOCK LATTICE_CART
7.54213 0.0 0.0
-3.77107 6.53168 0.0
0.0 0.0 9.49476
%ENDBLOCK LATTICE_CART

%BLOCK POSITIONS_FRAC
P           0.333333000000000    0.666667000000000    0.000000000000000 
P           0.666666000000000    0.333334000000000    0.500000000000000 
K          -0.000000000000000    0.000000000000000    0.000000000000000 
K          -0.000000000000000    0.000000000000000    0.500000000000000 
K           0.207730000000000    0.415460000000000    0.379521000000000 
K           0.207730000000000    0.415460000000000    0.620479000000000 
K           0.207730000000000    0.792270000000000    0.379521000000000 
K           0.207730000000000    0.792270000000000    0.620479000000000 
K           0.333333000000000    0.666667000000000    0.500000000000000 
K           0.584540000000000    0.792270000000000    0.379521000000000 
K           0.584540000000000    0.792270000000000    0.620479000000000 
K           0.666666000000000    0.333334000000000    0.000000000000000 
%ENDBLOCK POSITIONS_FRAC
