# Cell file generated by matador (Matthew Evans 2016)

%BLOCK LATTICE_CART
8.89716 0.0 0.0
0.0 5.88456 0.0
2.14171 0.0 6.01245
%ENDBLOCK LATTICE_CART

%BLOCK POSITIONS_FRAC
P           0.062251000000000    0.282302000000000    0.336137000000000 
P           0.062251000000000    0.717698000000000    0.336137000000000 
P           0.223915000000000    0.190716000000000    0.615134000000000 
P           0.223915000000000    0.809284000000000    0.615134000000000 
K           0.019745000000000   -0.000000000000000    0.710093000000000 
K           0.227268000000000   -0.000000000000000    0.247357000000000 
K           0.239150000000000    0.500000000000000    0.407084000000000 
K           0.356493000000000    0.500000000000000    0.012982000000000 
K           0.571465000000000    0.500000000000000    0.678947000000000 
K           0.590435000000000   -0.000000000000000    0.561404000000000 
K           0.688257000000000   -0.000000000000000    0.137550000000000 
%ENDBLOCK POSITIONS_FRAC
