# Cell file generated by matador (Matthew Evans 2016)

%BLOCK LATTICE_CART
7.62094 0.0 0.0
-3.81047 6.59993 0.0
0.0 0.0 6.55853
%ENDBLOCK LATTICE_CART

%BLOCK POSITIONS_FRAC
P           0.333334000000000    0.666668000000000    0.277901000000000 
P           0.666668000000000    0.333334000000000    0.777901000000000 
K           0.142123000000000    0.284244000000000    0.554945000000000 
K           0.142123000000000    0.857879000000000    0.554945000000000 
K           0.284244000000000    0.142123000000000    0.054945000000000 
K           0.715758000000000    0.857879000000000    0.554945000000000 
K           0.857879000000000    0.142123000000000    0.054945000000000 
K           0.857879000000000    0.715758000000000    0.054945000000000 
%ENDBLOCK POSITIONS_FRAC
