# Cell file generated by matador (Matthew Evans 2016)

%BLOCK LATTICE_CART
5.04568 0.0 0.0
0.0 8.79116 0.0
0.0 0.0 9.26773
%ENDBLOCK LATTICE_CART

%BLOCK POSITIONS_FRAC
P           0.359296000000000    0.148167000000000    0.583658000000000 
P           0.359296000000000    0.851833000000000    0.416342000000000 
P           0.640704000000000    0.148167000000000    0.916342000000000 
P           0.640704000000000    0.851833000000000    0.083658000000000 
K           0.000000000000000    0.276326000000000    0.750000000000000 
K           0.000000000000000    0.723674000000000    0.250000000000000 
K           0.223415000000000    0.500000000000000    0.000000000000000 
K           0.227558000000000    0.107486000000000    0.165604000000000 
K           0.227558000000000    0.892514000000000    0.834396000000000 
K           0.772442000000000    0.107486000000000    0.334396000000000 
K           0.772442000000000    0.892514000000000    0.665604000000000 
K           0.776585000000000    0.500000000000000    0.500000000000000 
%ENDBLOCK POSITIONS_FRAC
