# Cell file generated by matador (Matthew Evans 2016)

%BLOCK LATTICE_CART
7.81367 0.0 0.0
0.0 5.44068 0.0
0.0 0.0 7.73043
%ENDBLOCK LATTICE_CART

%BLOCK POSITIONS_FRAC
P           0.000000000000000    0.000000000000000    0.153428000000000 
P           0.000000000000000    0.000000000000000    0.477567000000000 
P           0.000000000000000    0.500000000000000    0.479578000000000 
P           0.000000000000000    0.500000000000000    0.634053000000000 
P           0.250000000000000    0.738368000000000    0.112899000000000 
P           0.500000000000000    0.000000000000000    0.153428000000000 
P           0.500000000000000    0.000000000000000    0.477567000000000 
P           0.500000000000000    0.500000000000000    0.479578000000000 
P           0.500000000000000    0.500000000000000    0.634053000000000 
P           0.750000000000000    0.261632000000000    0.112899000000000 
K           0.000000000000000    0.000000000000000    0.891520000000000 
K           0.250000000000000    0.257383000000000    0.820000000000000 
K           0.500000000000000    0.000000000000000    0.891520000000000 
K           0.750000000000000    0.742617000000000    0.820000000000000 
%ENDBLOCK POSITIONS_FRAC
