# Cell file generated by matador (Matthew Evans 2016)

%BLOCK LATTICE_CART
8.57741 0.0 0.0
-4.2887 7.42825 0.0
0.0 0.0 7.53516
%ENDBLOCK LATTICE_CART

%BLOCK POSITIONS_FRAC
P          -0.000000000000000   -0.000000000000000    0.316410000000000 
P          -0.000000000000000   -0.000000000000000    0.916857000000000 
P           0.333333000000000    0.666667000000000    0.583524000000000 
P           0.333333000000000    0.666667000000000    0.983077000000000 
P           0.666667000000000    0.333333000000000    0.250190000000000 
P           0.666667000000000    0.333333000000000    0.649743000000000 
K           0.214363000000000    0.428726000000000    0.364720000000000 
K           0.214363000000000    0.785637000000000    0.364720000000000 
K           0.237941000000000    0.118970000000000    0.698053000000000 
K           0.547696000000000    0.095393000000000    0.031387000000000 
K           0.547696000000000    0.452304000000000    0.031387000000000 
K           0.571274000000000    0.785637000000000    0.364720000000000 
K           0.881030000000000    0.118970000000000    0.698053000000000 
K           0.881030000000000    0.762059000000000    0.698053000000000 
K           0.904607000000000    0.452304000000000    0.031387000000000 
%ENDBLOCK POSITIONS_FRAC
