# Cell file generated by matador (Matthew Evans 2016)

%BLOCK LATTICE_CART
6.26908 0.0 0.0
-3.13454 5.42918 0.0
0.0 0.0 8.83884
%ENDBLOCK LATTICE_CART

%BLOCK POSITIONS_FRAC
P           0.333333000000000    0.666667000000000    0.803160000000000 
P           0.515804000000000    0.257902000000000    0.290267000000000 
P           0.666666000000000    0.333334000000000    0.661693000000000 
P           0.742098000000000    0.257902000000000    0.290267000000000 
P           0.742098000000000    0.484196000000000    0.290267000000000 
K          -0.000000000000000    0.000000000000000    0.412080000000000 
K           0.308320000000000    0.154160000000000    0.949921000000000 
K           0.333333000000000    0.666667000000000    0.073915000000000 
K           0.666666000000000    0.333334000000000    0.010336000000000 
K           0.845840000000000    0.154160000000000    0.949921000000000 
K           0.845840000000000    0.691680000000000    0.949921000000000 
%ENDBLOCK POSITIONS_FRAC
