# Cell file generated by matador (Matthew Evans 2016)

%BLOCK LATTICE_CART
7.02305 0.0 0.0
0.0 7.02305 0.0
0.0 0.0 9.40589
%ENDBLOCK LATTICE_CART

%BLOCK POSITIONS_FRAC
P           0.000000000000000    0.500000000000000    0.250000000000000 
P           0.000000000000000    0.500000000000000    0.750000000000000 
P           0.500000000000000    0.000000000000000    0.250000000000000 
P           0.500000000000000    0.000000000000000    0.750000000000000 
K           0.165417000000000    0.251543000000000    0.000000000000000 
K           0.248457000000000    0.665417000000000    0.500000000000000 
K           0.251543000000000    0.834583000000000    0.000000000000000 
K           0.334583000000000    0.248457000000000    0.500000000000000 
K           0.665417000000000    0.751543000000000    0.500000000000000 
K           0.748457000000000    0.165417000000000    0.000000000000000 
K           0.751543000000000    0.334583000000000    0.500000000000000 
K           0.834583000000000    0.748457000000000    0.000000000000000 
%ENDBLOCK POSITIONS_FRAC
