# Cell file generated by matador (Matthew Evans 2016)

%BLOCK LATTICE_CART
7.88397 0.0 0.0
0.0 7.88397 0.0
0.0 0.0 7.88397
%ENDBLOCK LATTICE_CART

%BLOCK POSITIONS_FRAC
P           0.000000000000000   -0.000000000000000    0.500000000000000 
P           0.000000000000000    0.500000000000000    0.000000000000000 
P           0.000000000000000    0.500000000000000    0.500000000000000 
P           0.500000000000000   -0.000000000000000    0.000000000000000 
P           0.500000000000000   -0.000000000000000    0.500000000000000 
P           0.500000000000000    0.500000000000000    0.000000000000000 
K           0.167200000000000    0.167200000000000    0.832800000000000 
K           0.167200000000000    0.832800000000000    0.167200000000000 
K           0.332800000000000    0.332800000000000    0.332800000000000 
K           0.332800000000000    0.667200000000000    0.667200000000000 
K           0.667200000000000    0.332800000000000    0.667200000000000 
K           0.667200000000000    0.667200000000000    0.332800000000000 
K           0.832800000000000    0.167200000000000    0.167200000000000 
K           0.832800000000000    0.832800000000000    0.832800000000000 
%ENDBLOCK POSITIONS_FRAC
