# Cell file generated by matador (Matthew Evans 2016)

%BLOCK LATTICE_CART
10.9112 0.0 0.0
-5.45558 9.44934 0.0
0.0 0.0 9.16103
%ENDBLOCK LATTICE_CART

%BLOCK POSITIONS_FRAC
P           0.000000000000000    0.000000000000000    0.145895000000000 
P           0.000000000000000    0.000000000000000    0.474372000000000 
P           0.333333000000000    0.666667000000000    0.141039000000000 
P           0.333333000000000    0.666667000000000    0.812562000000000 
P           0.666667000000000    0.333333000000000    0.479228000000000 
P           0.666667000000000    0.333333000000000    0.807705000000000 
K           0.067978000000000    0.533989000000000    0.317672000000000 
K           0.072610000000000    0.536305000000000    0.796675000000000 
K           0.130362000000000    0.260723000000000    0.130009000000000 
K           0.130362000000000    0.869638000000000    0.130009000000000 
K           0.132677000000000    0.265355000000000    0.651005000000000 
K           0.132677000000000    0.867323000000000    0.651005000000000 
K           0.401312000000000    0.200656000000000    0.984338000000000 
K           0.405943000000000    0.202972000000000    0.463342000000000 
K           0.463695000000000    0.536305000000000    0.796675000000000 
K           0.463695000000000    0.927390000000000    0.796675000000000 
K           0.466011000000000    0.533989000000000    0.317672000000000 
K           0.466011000000000    0.932022000000000    0.317672000000000 
K           0.734645000000000    0.867323000000000    0.651005000000000 
K           0.739277000000000    0.869638000000000    0.130009000000000 
K           0.797028000000000    0.202972000000000    0.463342000000000 
K           0.797028000000000    0.594057000000000    0.463342000000000 
K           0.799344000000000    0.200656000000000    0.984338000000000 
K           0.799344000000000    0.598688000000000    0.984338000000000 
%ENDBLOCK POSITIONS_FRAC
