# Cell file generated by matador (Matthew Evans 2016)

%BLOCK LATTICE_CART
8.95575 0.0 0.0
0.0 6.90197 0.0
-0.626551 0.0 6.13751
%ENDBLOCK LATTICE_CART

%BLOCK POSITIONS_FRAC
P           0.075880000000000    0.282326000000000    0.814021000000000 
P           0.075880000000000    0.717674000000000    0.814021000000000 
P           0.150207000000000    0.090194000000000    0.840236000000000 
P           0.150207000000000    0.909806000000000    0.840236000000000 
P           0.532450000000000    0.000000000000000    0.934386000000000 
K           0.189652000000000    0.500000000000000    0.998340000000000 
K           0.421891000000000    0.306491000000000    0.258846000000000 
K           0.421891000000000    0.693509000000000    0.258846000000000 
K           0.562580000000000    0.308202000000000    0.600656000000000 
K           0.562580000000000    0.691798000000000    0.600656000000000 
K           0.625130000000000    0.500000000000000    0.858226000000000 
K           0.947601000000000    0.500000000000000    0.298520000000000 
%ENDBLOCK POSITIONS_FRAC
