# Cell file generated by matador (Matthew Evans 2016)

%BLOCK LATTICE_CART
8.12115 0.0 0.0
-0.470917 6.74184 0.0
3.30421 0.818719 6.7975
%ENDBLOCK LATTICE_CART

%BLOCK POSITIONS_FRAC
P           0.000000000000000    0.000000000000000    0.500000000000000 
P           0.000000000000000    0.500000000000000    0.000000000000000 
P           0.127917000000000    0.868203000000000    0.480202000000000 
P           0.425182000000000    0.638549000000000    0.801791000000000 
P           0.574818000000000    0.361451000000000    0.198209000000000 
P           0.872083000000000    0.131797000000000    0.519798000000000 
K           0.000000000000000    0.000000000000000    0.000000000000000 
K           0.000000000000000    0.500000000000000    0.500000000000000 
K           0.263912000000000    0.459816000000000    0.350005000000000 
K           0.500000000000000    0.000000000000000    0.000000000000000 
K           0.500000000000000    0.000000000000000    0.500000000000000 
K           0.500000000000000    0.500000000000000    0.000000000000000 
K           0.500000000000000    0.500000000000000    0.500000000000000 
K           0.736088000000000    0.540184000000000    0.649995000000000 
%ENDBLOCK POSITIONS_FRAC
