# Cell file generated by matador (Matthew Evans 2016)

%BLOCK LATTICE_CART
11.743 0.0 0.0
-5.87149 10.1697 0.0
0.0 0.0 8.60742
%ENDBLOCK LATTICE_CART

%BLOCK POSITIONS_FRAC
P           0.000000000000000    0.295804000000000    0.756377000000000 
P           0.000000000000000    0.616699000000000    0.253463000000000 
P           0.295804000000000    0.000000000000000    0.756377000000000 
P           0.383301000000000    0.383301000000000    0.253463000000000 
P           0.616699000000000    0.000000000000000    0.253463000000000 
P           0.704196000000000    0.704196000000000    0.756377000000000 
K           0.000000000000000    0.000000000000000    0.806512000000000 
K           0.000000000000000    0.255167000000000    0.138899000000000 
K           0.000000000000000    0.377590000000000    0.458568000000000 
K           0.000000000000000    0.498314000000000    0.760673000000000 
K           0.000000000000000    0.656745000000000    0.019184000000000 
K           0.000000000000000    0.794869000000000    0.578137000000000 
K           0.205131000000000    0.205131000000000    0.578137000000000 
K           0.255167000000000    0.000000000000000    0.138899000000000 
K           0.333333000000000    0.666667000000000    0.871582000000000 
K           0.343255000000000    0.343255000000000    0.019184000000000 
K           0.377590000000000    0.000000000000000    0.458568000000000 
K           0.498314000000000    0.000000000000000    0.760673000000000 
K           0.501686000000000    0.501686000000000    0.760673000000000 
K           0.622410000000000    0.622410000000000    0.458568000000000 
K           0.656745000000000    0.000000000000000    0.019184000000000 
K           0.666667000000000    0.333333000000000    0.871582000000000 
K           0.744833000000000    0.744833000000000    0.138899000000000 
K           0.794869000000000    0.000000000000000    0.578137000000000 
%ENDBLOCK POSITIONS_FRAC
