# Cell file generated by matador (Matthew Evans 2016)

%BLOCK LATTICE_CART
8.07753 0.0 0.0
-4.03876 6.99534 0.0
0.0 0.0 5.92936
%ENDBLOCK LATTICE_CART

%BLOCK POSITIONS_FRAC
P           0.132649000000000    0.769715000000000    0.754535000000000 
P           0.230285000000000    0.362934000000000    0.754535000000000 
P           0.469837000000000    0.254591000000000    0.878172000000000 
P           0.637066000000000    0.867351000000000    0.754535000000000 
P           0.666667000000000    0.333333000000000    0.537696000000000 
P           0.745409000000000    0.215246000000000    0.878172000000000 
P           0.784754000000000    0.530163000000000    0.878172000000000 
K           0.234352000000000    0.485856000000000    0.333143000000000 
K           0.251504000000000    0.765648000000000    0.333143000000000 
K           0.333333000000000    0.666667000000000    0.709446000000000 
K           0.514144000000000    0.748496000000000    0.333143000000000 
K           0.666667000000000    0.333333000000000    0.145472000000000 
%ENDBLOCK POSITIONS_FRAC
