# Cell file generated by matador (Matthew Evans 2016)

%BLOCK LATTICE_CART
6.63763 0.0 0.0
0.0 6.63763 0.0
0.0 0.0 5.43432
%ENDBLOCK LATTICE_CART

%BLOCK POSITIONS_FRAC
P           0.000000000000000    0.000000000000000    0.295522000000000 
P           0.000000000000000    0.000000000000000    0.891490000000000 
P           0.500000000000000    0.500000000000000    0.639397000000000 
K           0.000000000000000    0.301214000000000    0.140397000000000 
K           0.000000000000000    0.698786000000000    0.140397000000000 
K           0.301214000000000    0.000000000000000    0.140397000000000 
K           0.698786000000000    0.000000000000000    0.140397000000000 
%ENDBLOCK POSITIONS_FRAC
