# Cell file generated by matador (Matthew Evans 2016)

%BLOCK LATTICE_CART
6.00238 0.0 0.0
0.0 6.05949 0.0
-0.094174 0.0 5.50212
%ENDBLOCK LATTICE_CART

%BLOCK POSITIONS_FRAC
P           0.214626000000000    0.000000000000000    0.072077000000000 
P           0.341877000000000    0.404965000000000    0.742071000000000 
P           0.341877000000000    0.595035000000000    0.742071000000000 
P           0.627991000000000    0.285256000000000    0.614207000000000 
P           0.627991000000000    0.714744000000000    0.614207000000000 
K           0.224341000000000    0.328760000000000    0.223605000000000 
K           0.224341000000000    0.671240000000000    0.223605000000000 
K           0.663311000000000    0.500000000000000    0.283189000000000 
K           0.746897000000000    0.000000000000000    0.090026000000000 
%ENDBLOCK POSITIONS_FRAC
