# Cell file generated by matador (Matthew Evans 2016)

%BLOCK LATTICE_CART
6.44861 0.0 0.0
0.0 6.44861 0.0
0.0 0.0 12.1783
%ENDBLOCK LATTICE_CART

%BLOCK POSITIONS_FRAC
P           0.000000000000000    0.500000000000000    0.250000000000000 
P           0.000000000000000    0.500000000000000    0.750000000000000 
P           0.417398000000000    0.417398000000000    0.308490000000000 
P           0.417398000000000    0.417398000000000    0.691510000000000 
P           0.417398000000000    0.582602000000000    0.191510000000000 
P           0.417398000000000    0.582602000000000    0.808490000000000 
P           0.500000000000000    0.000000000000000    0.250000000000000 
P           0.500000000000000    0.000000000000000    0.750000000000000 
P           0.500000000000000    0.500000000000000    0.250000000000000 
P           0.500000000000000    0.500000000000000    0.750000000000000 
P           0.582602000000000    0.417398000000000    0.191510000000000 
P           0.582602000000000    0.417398000000000    0.808490000000000 
P           0.582602000000000    0.582602000000000    0.308490000000000 
P           0.582602000000000    0.582602000000000    0.691510000000000 
K           0.000000000000000    0.000000000000000    0.000000000000000 
K           0.000000000000000    0.000000000000000    0.250000000000000 
K           0.000000000000000    0.000000000000000    0.500000000000000 
K           0.000000000000000    0.000000000000000    0.750000000000000 
K           0.500000000000000    0.500000000000000    0.000000000000000 
K           0.500000000000000    0.500000000000000    0.500000000000000 
%ENDBLOCK POSITIONS_FRAC
