# Cell file generated by matador (Matthew Evans 2016)

%BLOCK LATTICE_CART
7.50713 0.0 0.0
0.0 7.50713 0.0
0.0 0.0 6.41153
%ENDBLOCK LATTICE_CART

%BLOCK POSITIONS_FRAC
P          -0.000000000000000    0.205837000000000   -0.000000000000000 
P          -0.000000000000000    0.794163000000000   -0.000000000000000 
P           0.205837000000000   -0.000000000000000   -0.000000000000000 
P           0.294163000000000    0.500000000000000    0.500000000000000 
P           0.500000000000000    0.294163000000000    0.500000000000000 
P           0.500000000000000    0.705837000000000    0.500000000000000 
P           0.705837000000000    0.500000000000000    0.500000000000000 
P           0.794163000000000   -0.000000000000000   -0.000000000000000 
K          -0.000000000000000   -0.000000000000000    0.500000000000000 
K          -0.000000000000000    0.500000000000000   -0.000000000000000 
K          -0.000000000000000    0.500000000000000    0.500000000000000 
K           0.500000000000000   -0.000000000000000   -0.000000000000000 
K           0.500000000000000   -0.000000000000000    0.500000000000000 
K           0.500000000000000    0.500000000000000   -0.000000000000000 
%ENDBLOCK POSITIONS_FRAC
