# Cell file generated by matador (Matthew Evans 2016)

%BLOCK LATTICE_CART
7.05429 0.0 0.0
0.0 8.41902 0.0
1.84136 0.0 6.17035
%ENDBLOCK LATTICE_CART

%BLOCK POSITIONS_FRAC
P           0.000000000000000    0.094861000000000    0.000000000000000 
P           0.000000000000000    0.805607000000000    0.000000000000000 
P           0.059814000000000    0.245636000000000    0.431921000000000 
P           0.374040000000000    0.745255000000000    0.710799000000000 
P           0.500000000000000    0.047669000000000    0.500000000000000 
P           0.625960000000000    0.745255000000000    0.289201000000000 
P           0.940186000000000    0.245636000000000    0.568079000000000 
K           0.284859000000000    0.318760000000000    0.666975000000000 
K           0.289573000000000    0.941945000000000    0.155457000000000 
K           0.710427000000000    0.941945000000000    0.844543000000000 
K           0.715141000000000    0.318760000000000    0.333025000000000 
%ENDBLOCK POSITIONS_FRAC
