# Cell file generated by matador (Matthew Evans 2016)

%BLOCK LATTICE_CART
5.23051 0.0 0.0
0.0 4.67249 0.0
1.68168 0.0 5.74709
%ENDBLOCK LATTICE_CART

%BLOCK POSITIONS_FRAC
P           0.119991000000000    0.165150000000000    0.901453000000000 
P           0.154331000000000    0.714937000000000    0.679358000000000 
P           0.845669000000000    0.714937000000000    0.320642000000000 
P           0.880009000000000    0.165150000000000    0.098547000000000 
K           0.500000000000000    0.696689000000000    0.000000000000000 
%ENDBLOCK POSITIONS_FRAC
