# Cell file generated by matador (Matthew Evans 2016)

%BLOCK LATTICE_CART
7.71309 0.0 0.0
0.0 10.9561 0.0
2.6118 0.0 8.46953
%ENDBLOCK LATTICE_CART

%BLOCK POSITIONS_FRAC
P           0.000000000000000    0.317939000000000    0.500000000000000 
P           0.251348000000000    0.896881000000000    0.110383000000000 
P           0.748652000000000    0.896881000000000    0.889617000000000 
K           0.000000000000000    0.227101000000000    0.000000000000000 
K           0.000000000000000    0.698049000000000    0.500000000000000 
K           0.000000000000000    0.949739000000000    0.000000000000000 
K           0.227685000000000    0.928259000000000    0.347197000000000 
K           0.323522000000000    0.257708000000000    0.038101000000000 
K           0.377503000000000    0.445301000000000    0.088898000000000 
K           0.416742000000000    0.489464000000000    0.776019000000000 
K           0.442717000000000    0.188464000000000    0.262815000000000 
K           0.500000000000000    0.323765000000000    0.500000000000000 
K           0.500000000000000    0.963767000000000    0.000000000000000 
K           0.557283000000000    0.188464000000000    0.737185000000000 
K           0.583258000000000    0.489464000000000    0.223981000000000 
K           0.622497000000000    0.445301000000000    0.911102000000000 
K           0.676478000000000    0.257708000000000    0.961899000000000 
K           0.772315000000000    0.928259000000000    0.652803000000000 
%ENDBLOCK POSITIONS_FRAC
