# Cell file generated by matador (Matthew Evans 2016)

%BLOCK LATTICE_CART
7.91649 0.0 0.0
-3.95825 6.85588 0.0
0.0 0.0 5.11557
%ENDBLOCK LATTICE_CART

%BLOCK POSITIONS_FRAC
P           0.000000000000000    0.000000000000000    0.260472000000000 
P           0.457189000000000    0.159072000000000    0.687207000000000 
P           0.701883000000000    0.542811000000000    0.687207000000000 
P           0.840928000000000    0.298117000000000    0.687207000000000 
K           0.123168000000000    0.678706000000000    0.589805000000000 
K           0.321294000000000    0.444462000000000    0.589805000000000 
K           0.333333000000000    0.666667000000000    0.009037000000000 
K           0.555538000000000    0.876832000000000    0.589805000000000 
%ENDBLOCK POSITIONS_FRAC
