# Cell file generated by matador (Matthew Evans 2016)

%BLOCK LATTICE_CART
9.00734 0.0 0.0
-4.50367 7.80058 0.0
0.0 0.0 6.69184
%ENDBLOCK LATTICE_CART

%BLOCK POSITIONS_FRAC
P          -0.000000000000000    0.000000000000000    0.570304000000000 
P           0.011544000000000    0.937379000000000    0.840124000000000 
P           0.062621000000000    0.074165000000000    0.840124000000000 
P           0.240434000000000    0.721642000000000    0.380841000000000 
P           0.278358000000000    0.518792000000000    0.380841000000000 
P           0.333333000000000    0.666667000000000    0.688699000000000 
P           0.376455000000000    0.338983000000000    0.866385000000000 
P           0.481208000000000    0.759566000000000    0.380841000000000 
P           0.661017000000000    0.037472000000000    0.866385000000000 
P           0.666666000000000    0.333334000000000    0.660304000000000 
P           0.925835000000000    0.988456000000000    0.840124000000000 
P           0.962528000000000    0.623545000000000    0.866385000000000 
K           0.333333000000000    0.666667000000000    0.034067000000000 
K           0.403024000000000    0.113550000000000    0.805323000000000 
K           0.428795000000000    0.144346000000000    0.314533000000000 
K           0.666666000000000    0.333334000000000    0.100288000000000 
K           0.710526000000000    0.596976000000000    0.805323000000000 
K           0.715551000000000    0.571205000000000    0.314533000000000 
K           0.855654000000000    0.284449000000000    0.314533000000000 
K           0.886450000000000    0.289474000000000    0.805323000000000 
%ENDBLOCK POSITIONS_FRAC
