# Cell file generated by matador (Matthew Evans 2016)

%BLOCK LATTICE_CART
6.98834 -0.0 0.0
-3.49417 6.05208 0.0
0.0 0.0 5.87302
%ENDBLOCK LATTICE_CART

%BLOCK POSITIONS_FRAC
P           0.000000000000000    0.000000000000000    0.380848000000000 
P           0.000000000000000    0.000000000000000    0.580874000000000 
K           0.333333000000000    0.666667000000000    0.061101000000000 
K           0.421668000000000    0.169958000000000    0.064657000000000 
K           0.666667000000000    0.333333000000000    0.387929000000000 
K           0.748290000000000    0.578332000000000    0.064657000000000 
K           0.830042000000000    0.251710000000000    0.064657000000000 
%ENDBLOCK POSITIONS_FRAC
