# Cell file generated by matador (Matthew Evans 2016)

%BLOCK LATTICE_CART
8.64931 0.0 0.0
0.0 8.64931 0.0
0.0 0.0 6.82561
%ENDBLOCK LATTICE_CART

%BLOCK POSITIONS_FRAC
P           0.000000000000000    0.000000000000000    0.000000000000000 
P           0.000000000000000    0.500000000000000    0.500000000000000 
P           0.500000000000000    0.000000000000000    0.500000000000000 
K           0.000000000000000    0.000000000000000    0.500000000000000 
K           0.000000000000000    0.500000000000000    0.000000000000000 
K           0.204290000000000    0.204290000000000    0.757432000000000 
K           0.204290000000000    0.795710000000000    0.242568000000000 
K           0.500000000000000    0.000000000000000    0.000000000000000 
K           0.500000000000000    0.500000000000000    0.000000000000000 
K           0.500000000000000    0.500000000000000    0.500000000000000 
K           0.795710000000000    0.204290000000000    0.242568000000000 
K           0.795710000000000    0.795710000000000    0.757432000000000 
%ENDBLOCK POSITIONS_FRAC
