# Cell file generated by matador (Matthew Evans 2016)

%BLOCK LATTICE_CART
4.43848 0.0 0.0
0.0 10.629 0.0
0.0 0.0 7.26368
%ENDBLOCK LATTICE_CART

%BLOCK POSITIONS_FRAC
P           0.000000000000000    0.000000000000000    0.564299000000000 
P           0.000000000000000    0.500000000000000    0.097428000000000 
P           0.043553000000000    0.741592000000000    0.827117000000000 
P           0.060383000000000    0.791149000000000    0.382940000000000 
P           0.439617000000000    0.291149000000000    0.882940000000000 
P           0.456447000000000    0.241592000000000    0.327117000000000 
P           0.500000000000000    0.000000000000000    0.597428000000000 
P           0.500000000000000    0.500000000000000    0.064299000000000 
P           0.543553000000000    0.758408000000000    0.327117000000000 
P           0.560383000000000    0.708851000000000    0.882940000000000 
P           0.939617000000000    0.208851000000000    0.382940000000000 
P           0.956447000000000    0.258408000000000    0.827117000000000 
K           0.156048000000000    0.077507000000000    0.066899000000000 
K           0.343952000000000    0.577507000000000    0.566899000000000 
K           0.656048000000000    0.422493000000000    0.566899000000000 
K           0.843952000000000    0.922493000000000    0.066899000000000 
%ENDBLOCK POSITIONS_FRAC
