# Cell file generated by matador (Matthew Evans 2016)

%BLOCK LATTICE_CART
9.00274 0.0 0.0
0.0 9.00274 0.0
0.0 0.0 5.75828
%ENDBLOCK LATTICE_CART

%BLOCK POSITIONS_FRAC
P           0.000000000000000    0.000000000000000    0.796388000000000 
P           0.169833000000000    0.169833000000000    0.637744000000000 
P           0.169833000000000    0.830167000000000    0.637744000000000 
P           0.330167000000000    0.330167000000000    0.137744000000000 
P           0.330167000000000    0.669833000000000    0.137744000000000 
P           0.500000000000000    0.500000000000000    0.296388000000000 
P           0.669833000000000    0.330167000000000    0.137744000000000 
P           0.669833000000000    0.669833000000000    0.137744000000000 
P           0.830167000000000    0.169833000000000    0.637744000000000 
P           0.830167000000000    0.830167000000000    0.637744000000000 
K           0.000000000000000    0.316615000000000    0.200723000000000 
K           0.000000000000000    0.683385000000000    0.200723000000000 
K           0.183385000000000    0.500000000000000    0.700723000000000 
K           0.316615000000000    0.000000000000000    0.200723000000000 
K           0.500000000000000    0.183385000000000    0.700723000000000 
K           0.500000000000000    0.816615000000000    0.700723000000000 
K           0.683385000000000    0.000000000000000    0.200723000000000 
K           0.816615000000000    0.500000000000000    0.700723000000000 
%ENDBLOCK POSITIONS_FRAC
