# Cell file generated by matador (Matthew Evans 2016)

%BLOCK LATTICE_CART
8.47211 0.0 0.0
0.0 6.15876 0.0
-1.68414 0.0 5.56052
%ENDBLOCK LATTICE_CART

%BLOCK POSITIONS_FRAC
P           0.426978000000000    0.500000000000000    0.100269000000000 
P           0.723500000000000    0.500000000000000    0.203394000000000 
K           0.064015000000000    0.500000000000000    0.713531000000000 
K           0.180601000000000    0.000000000000000    0.636956000000000 
K           0.430747000000000    0.000000000000000    0.235274000000000 
K           0.476102000000000    0.500000000000000    0.462755000000000 
K           0.811602000000000    0.000000000000000    0.724478000000000 
K           0.959497000000000    0.500000000000000    0.174439000000000 
%ENDBLOCK POSITIONS_FRAC
