# Cell file generated by matador (Matthew Evans 2016)

%BLOCK LATTICE_CART
8.58776 0.0 0.0
-4.29388 7.43722 0.0
0.0 0.0 7.82186
%ENDBLOCK LATTICE_CART

%BLOCK POSITIONS_FRAC
P          -0.000000000000000   -0.000000000000000    0.948352000000000 
P           0.333333000000000    0.666667000000000    0.615019000000000 
P           0.666667000000000    0.333333000000000    0.281686000000000 
K           0.096924000000000    0.548462000000000    0.310247000000000 
K           0.118204000000000    0.236409000000000    0.643580000000000 
K           0.118204000000000    0.881796000000000    0.643580000000000 
K           0.430258000000000    0.215129000000000    0.976913000000000 
K           0.451538000000000    0.548462000000000    0.310247000000000 
K           0.451538000000000    0.903076000000000    0.310247000000000 
K           0.763591000000000    0.881796000000000    0.643580000000000 
K           0.784871000000000    0.215129000000000    0.976913000000000 
K           0.784871000000000    0.569742000000000    0.976913000000000 
%ENDBLOCK POSITIONS_FRAC
