# Cell file generated by matador (Matthew Evans 2016)

%BLOCK LATTICE_CART
10.6478 0.0 0.0
0.0 9.74602 0.0
3.69474 0.0 6.49983
%ENDBLOCK LATTICE_CART

%BLOCK POSITIONS_FRAC
P           0.000000000000000    0.000000000000000    0.500000000000000 
P           0.000000000000000    0.500000000000000    0.000000000000000 
P           0.270679000000000    0.056773000000000    0.869712000000000 
P           0.270679000000000    0.443227000000000    0.369712000000000 
P           0.500000000000000    0.000000000000000    0.000000000000000 
P           0.500000000000000    0.500000000000000    0.500000000000000 
P           0.729321000000000    0.556773000000000    0.630288000000000 
P           0.729321000000000    0.943227000000000    0.130288000000000 
K           0.000000000000000    0.000000000000000    0.000000000000000 
K           0.000000000000000    0.500000000000000    0.500000000000000 
K           0.193812000000000    0.151743000000000    0.242717000000000 
K           0.193812000000000    0.348257000000000    0.742717000000000 
K           0.198957000000000    0.637101000000000    0.064280000000000 
K           0.198957000000000    0.862899000000000    0.564280000000000 
K           0.500000000000000    0.000000000000000    0.500000000000000 
K           0.500000000000000    0.500000000000000    0.000000000000000 
K           0.801043000000000    0.137101000000000    0.435720000000000 
K           0.801043000000000    0.362899000000000    0.935720000000000 
K           0.806188000000000    0.651743000000000    0.257283000000000 
K           0.806188000000000    0.848257000000000    0.757283000000000 
%ENDBLOCK POSITIONS_FRAC
