# Cell file generated by matador (Matthew Evans 2016)

%BLOCK LATTICE_CART
9.49499 0.0 0.0
-4.7475 8.2229 0.0
0.0 0.0 8.11974
%ENDBLOCK LATTICE_CART

%BLOCK POSITIONS_FRAC
P           0.000000000000000    0.000000000000000    0.000000000000000 
P           0.333333000000000    0.666667000000000    0.500000000000000 
P           0.666667000000000    0.333333000000000    0.000000000000000 
P           0.666667000000000    0.333333000000000    0.500000000000000 
K           0.019789000000000    0.350858000000000    0.500000000000000 
K           0.019789000000000    0.668931000000000    0.500000000000000 
K           0.133100000000000    0.266201000000000    0.191634000000000 
K           0.133100000000000    0.266201000000000    0.808366000000000 
K           0.133100000000000    0.866900000000000    0.191634000000000 
K           0.133100000000000    0.866900000000000    0.808366000000000 
K           0.331069000000000    0.350858000000000    0.500000000000000 
K           0.331069000000000    0.980211000000000    0.500000000000000 
K           0.649142000000000    0.668931000000000    0.500000000000000 
K           0.649142000000000    0.980211000000000    0.500000000000000 
K           0.733799000000000    0.866900000000000    0.191634000000000 
K           0.733799000000000    0.866900000000000    0.808366000000000 
%ENDBLOCK POSITIONS_FRAC
