# Cell file generated by matador (Matthew Evans 2016)

%BLOCK LATTICE_CART
6.75193 0.0 0.0
-3.37596 5.84734 0.0
0.0 0.0 10.8442
%ENDBLOCK LATTICE_CART

%BLOCK POSITIONS_FRAC
P           0.000000000000000    0.000000000000000    0.500000000000000 
P           0.000000000000000    0.296212000000000    0.000000000000000 
P           0.000000000000000    0.703788000000000    0.000000000000000 
P           0.296212000000000    0.000000000000000    0.000000000000000 
P           0.296212000000000    0.296212000000000    0.000000000000000 
P           0.703788000000000    0.000000000000000    0.000000000000000 
P           0.703788000000000    0.703788000000000    0.000000000000000 
K           0.000000000000000    0.000000000000000    0.000000000000000 
K           0.333333000000000    0.666667000000000    0.574423000000000 
K           0.333333000000000    0.666667000000000    0.943451000000000 
K           0.666667000000000    0.333333000000000    0.056549000000000 
K           0.666667000000000    0.333333000000000    0.425577000000000 
%ENDBLOCK POSITIONS_FRAC
