# Cell file generated by matador (Matthew Evans 2016)

%BLOCK LATTICE_CART
7.27951 0.0 0.0
0.0 7.27951 0.0
0.0 0.0 11.2944
%ENDBLOCK LATTICE_CART

%BLOCK POSITIONS_FRAC
P           0.109757000000000    0.348720000000000    0.659160000000000 
P           0.109757000000000    0.651280000000000    0.659160000000000 
P           0.348720000000000    0.109757000000000    0.340840000000000 
P           0.348720000000000    0.890243000000000    0.340840000000000 
P           0.500000000000000    0.500000000000000    0.240755000000000 
P           0.500000000000000    0.500000000000000    0.759245000000000 
P           0.651280000000000    0.109757000000000    0.340840000000000 
P           0.651280000000000    0.890243000000000    0.340840000000000 
P           0.890243000000000    0.348720000000000    0.659160000000000 
P           0.890243000000000    0.651280000000000    0.659160000000000 
K           0.000000000000000    0.500000000000000    0.205037000000000 
K           0.000000000000000    0.500000000000000    0.491315000000000 
K           0.000000000000000    0.500000000000000    0.933761000000000 
K           0.500000000000000    0.000000000000000    0.066239000000000 
K           0.500000000000000    0.000000000000000    0.508685000000000 
K           0.500000000000000    0.000000000000000    0.794963000000000 
%ENDBLOCK POSITIONS_FRAC
