# Cell file generated by matador (Matthew Evans 2016)

%BLOCK LATTICE_CART
7.47813 0.0 0.0
0.0 5.88765 0.0
0.0 0.0 5.49401
%ENDBLOCK LATTICE_CART

%BLOCK POSITIONS_FRAC
P           0.000000000000000    0.000000000000000    0.000000000000000 
P           0.000000000000000    0.000000000000000    0.500000000000000 
P           0.000000000000000    0.291310000000000    0.787247000000000 
P           0.000000000000000    0.500000000000000    0.000000000000000 
P           0.000000000000000    0.708690000000000    0.212753000000000 
P           0.500000000000000    0.000000000000000    0.000000000000000 
P           0.500000000000000    0.000000000000000    0.500000000000000 
P           0.500000000000000    0.291310000000000    0.712753000000000 
P           0.500000000000000    0.500000000000000    0.500000000000000 
P           0.500000000000000    0.708690000000000    0.287247000000000 
K           0.000000000000000    0.500000000000000    0.500000000000000 
K           0.500000000000000    0.500000000000000    0.000000000000000 
%ENDBLOCK POSITIONS_FRAC
