# Cell file generated by matador (Matthew Evans 2016)

%BLOCK LATTICE_CART
8.86022 0.0 0.0
-4.43011 7.67317 0.0
0.0 0.0 5.31146
%ENDBLOCK LATTICE_CART

%BLOCK POSITIONS_FRAC
P           0.000000000000000    0.473883000000000    0.253051000000000 
P           0.333333000000000    0.666667000000000    0.301722000000000 
P           0.333333000000000    0.666667000000000    0.676783000000000 
P           0.473883000000000    0.000000000000000    0.253051000000000 
P           0.526117000000000    0.526117000000000    0.253051000000000 
P           0.666667000000000    0.333333000000000    0.301722000000000 
P           0.666667000000000    0.333333000000000    0.676783000000000 
K           0.000000000000000    0.203842000000000    0.542412000000000 
K           0.000000000000000    0.531140000000000    0.617926000000000 
K           0.203842000000000    0.000000000000000    0.542412000000000 
K           0.468860000000000    0.468860000000000    0.617926000000000 
K           0.531140000000000    0.000000000000000    0.617926000000000 
K           0.796158000000000    0.796158000000000    0.542412000000000 
%ENDBLOCK POSITIONS_FRAC
