# Cell file generated by matador (Matthew Evans 2016)

%BLOCK LATTICE_CART
7.16519 0.0 0.0
0.0 7.16519 0.0
0.0 0.0 7.16519
%ENDBLOCK LATTICE_CART

%BLOCK POSITIONS_FRAC
P           0.198997000000000    0.198997000000000    0.801003000000000 
P           0.198997000000000    0.801003000000000    0.198997000000000 
P           0.367462000000000    0.367462000000000    0.632538000000000 
P           0.367462000000000    0.632538000000000    0.367462000000000 
P           0.632538000000000    0.367462000000000    0.367462000000000 
P           0.632538000000000    0.632538000000000    0.632538000000000 
P           0.801003000000000    0.198997000000000    0.198997000000000 
P           0.801003000000000    0.801003000000000    0.801003000000000 
K           0.000000000000000    0.000000000000000    0.500000000000000 
K           0.000000000000000    0.500000000000000    0.000000000000000 
K           0.000000000000000    0.500000000000000    0.500000000000000 
K           0.500000000000000    0.000000000000000    0.000000000000000 
K           0.500000000000000    0.000000000000000    0.500000000000000 
K           0.500000000000000    0.500000000000000    0.000000000000000 
%ENDBLOCK POSITIONS_FRAC
