# Cell file generated by matador (Matthew Evans 2016)

%BLOCK LATTICE_CART
9.02692 0.0 0.0
0.0 9.02692 0.0
0.0 0.0 7.50166
%ENDBLOCK LATTICE_CART

%BLOCK POSITIONS_FRAC
P           0.000000000000000    0.000000000000000    0.240835000000000 
P           0.000000000000000    0.000000000000000    0.759165000000000 
P           0.500000000000000    0.500000000000000    0.259165000000000 
P           0.500000000000000    0.500000000000000    0.740835000000000 
K           0.000000000000000    0.000000000000000    0.500000000000000 
K           0.000000000000000    0.500000000000000    0.000000000000000 
K           0.000000000000000    0.500000000000000    0.500000000000000 
K           0.184777000000000    0.184777000000000    0.000000000000000 
K           0.184777000000000    0.815223000000000    0.000000000000000 
K           0.315223000000000    0.315223000000000    0.500000000000000 
K           0.315223000000000    0.684777000000000    0.500000000000000 
K           0.500000000000000    0.000000000000000    0.000000000000000 
K           0.500000000000000    0.000000000000000    0.500000000000000 
K           0.500000000000000    0.500000000000000    0.000000000000000 
K           0.684777000000000    0.315223000000000    0.500000000000000 
K           0.684777000000000    0.684777000000000    0.500000000000000 
K           0.815223000000000    0.184777000000000    0.000000000000000 
K           0.815223000000000    0.815223000000000    0.000000000000000 
%ENDBLOCK POSITIONS_FRAC
