# Cell file generated by matador (Matthew Evans 2016)

%BLOCK LATTICE_CART
6.04998 0.0 0.0
0.0 6.04998 0.0
0.0 0.0 9.94359
%ENDBLOCK LATTICE_CART

%BLOCK POSITIONS_FRAC
P           0.000000000000000    0.500000000000000    0.192335000000000 
P           0.000000000000000    0.500000000000000    0.444180000000000 
P           0.500000000000000    0.000000000000000    0.192335000000000 
P           0.500000000000000    0.000000000000000    0.444180000000000 
K           0.000000000000000    0.000000000000000    0.282403000000000 
K           0.000000000000000    0.298433000000000    0.909979000000000 
K           0.000000000000000    0.701567000000000    0.909979000000000 
K           0.298433000000000    0.000000000000000    0.909979000000000 
K           0.500000000000000    0.500000000000000    0.236250000000000 
K           0.500000000000000    0.500000000000000    0.571907000000000 
K           0.701567000000000    0.000000000000000    0.909979000000000 
%ENDBLOCK POSITIONS_FRAC
