# Cell file generated by matador (Matthew Evans 2016)

%BLOCK LATTICE_CART
8.58528 0.0 0.0
-4.29264 7.43507 0.0
0.0 0.0 5.17697
%ENDBLOCK LATTICE_CART

%BLOCK POSITIONS_FRAC
P           0.333333000000000    0.666667000000000    0.500000000000000 
P           0.417842000000000    0.045526000000000    0.000000000000000 
P           0.627684000000000    0.582158000000000    0.000000000000000 
P           0.954474000000000    0.372316000000000    0.000000000000000 
K           0.119385000000000    0.811894000000000    0.000000000000000 
K           0.188106000000000    0.307493000000000    0.000000000000000 
K           0.333333000000000    0.666667000000000    0.000000000000000 
K           0.377119000000000    0.142741000000000    0.500000000000000 
K           0.666666000000000    0.333334000000000    0.500000000000000 
K           0.692507000000000    0.880615000000000    0.000000000000000 
K           0.765620000000000    0.622881000000000    0.500000000000000 
K           0.857259000000000    0.234380000000000    0.500000000000000 
%ENDBLOCK POSITIONS_FRAC
