# Cell file generated by matador (Matthew Evans 2016)

%BLOCK LATTICE_CART
7.50432 0.0 0.0
-3.75216 6.49893 0.0
0.0 0.0 10.7423
%ENDBLOCK LATTICE_CART

%BLOCK POSITIONS_FRAC
P           0.000000000000000    0.000000000000000    0.500726000000000 
P           0.000000000000000    0.500000000000000    0.985891000000000 
P           0.071584000000000    0.166849000000000    0.310104000000000 
P           0.095265000000000    0.928416000000000    0.310104000000000 
P           0.166849000000000    0.095265000000000    0.310104000000000 
P           0.333333000000000    0.666667000000000    0.742571000000000 
P           0.500000000000000    0.000000000000000    0.985891000000000 
P           0.500000000000000    0.500000000000000    0.985891000000000 
P           0.666667000000000    0.333333000000000    0.742571000000000 
P           0.833151000000000    0.904735000000000    0.310104000000000 
P           0.904735000000000    0.071584000000000    0.310104000000000 
P           0.928416000000000    0.833151000000000    0.310104000000000 
K           0.000000000000000    0.000000000000000    0.077201000000000 
K           0.000000000000000    0.000000000000000    0.769451000000000 
%ENDBLOCK POSITIONS_FRAC
