# Cell file generated by matador (Matthew Evans 2016)

%BLOCK LATTICE_CART
10.51 0.0 0.0
0.0 5.84355 0.0
-1.84536 0.0 5.97611
%ENDBLOCK LATTICE_CART

%BLOCK POSITIONS_FRAC
P           0.288919000000000    0.094220000000000    0.204456000000000 
P           0.288919000000000    0.905780000000000    0.204456000000000 
K           0.030288000000000    0.000000000000000    0.284976000000000 
K           0.084481000000000    0.000000000000000    0.776426000000000 
K           0.207135000000000    0.500000000000000    0.928281000000000 
K           0.216314000000000    0.500000000000000    0.281578000000000 
K           0.483426000000000    0.500000000000000    0.341305000000000 
K           0.566539000000000    0.000000000000000    0.638556000000000 
K           0.640519000000000    0.176358000000000    0.410128000000000 
K           0.640519000000000    0.823642000000000    0.410128000000000 
K           0.646362000000000    0.260263000000000    0.059885000000000 
K           0.646362000000000    0.739737000000000    0.059885000000000 
%ENDBLOCK POSITIONS_FRAC
