# Cell file generated by matador (Matthew Evans 2016)

%BLOCK LATTICE_CART
6.50916 0.0 0.0
-3.25458 5.6371 0.0
0.0 0.0 9.50912
%ENDBLOCK LATTICE_CART

%BLOCK POSITIONS_FRAC
P           0.000000000000000    0.000000000000000    0.278552000000000 
P           0.099441000000000    0.726088000000000    0.397707000000000 
P           0.273912000000000    0.373353000000000    0.397707000000000 
P           0.333333000000000    0.666667000000000    0.346964000000000 
P           0.373353000000000    0.273912000000000    0.397707000000000 
P           0.626647000000000    0.900559000000000    0.397707000000000 
P           0.666667000000000    0.333333000000000    0.346964000000000 
P           0.726088000000000    0.099441000000000    0.397707000000000 
P           0.900559000000000    0.626647000000000    0.397707000000000 
K           0.000000000000000    0.000000000000000    0.007518000000000 
K           0.000000000000000    0.451915000000000    0.074555000000000 
K           0.333333000000000    0.666667000000000    0.752799000000000 
K           0.451915000000000    0.000000000000000    0.074555000000000 
K           0.548085000000000    0.548085000000000    0.074555000000000 
K           0.666667000000000    0.333333000000000    0.752799000000000 
%ENDBLOCK POSITIONS_FRAC
