# Cell file generated by matador (Matthew Evans 2016)

%BLOCK LATTICE_CART
6.3066 0.0 0.0
-3.1533 5.46168 0.0
0.0 0.0 10.626
%ENDBLOCK LATTICE_CART

%BLOCK POSITIONS_FRAC
P           0.000001000000000    0.000001000000000    0.132183000000000 
P           0.000001000000000    0.000001000000000    0.367817000000000 
P           0.000001000000000    0.000001000000000    0.632183000000000 
P           0.000001000000000    0.000001000000000    0.867817000000000 
P           0.032857000000000    0.516429000000000    0.250000000000000 
P           0.483573000000000    0.516429000000000    0.250000000000000 
P           0.483573000000000    0.967145000000000    0.250000000000000 
P           0.516429000000000    0.032857000000000    0.750000000000000 
P           0.516429000000000    0.483573000000000    0.750000000000000 
P           0.967145000000000    0.483573000000000    0.750000000000000 
K           0.333334000000000    0.666668000000000    0.750000000000000 
K           0.666668000000000    0.333334000000000    0.250000000000000 
%ENDBLOCK POSITIONS_FRAC
