# Cell file generated by matador (Matthew Evans 2016)

%BLOCK LATTICE_CART
8.44889 0.0 0.0
0.0 13.6558 0.0
0.0 0.0 6.01213
%ENDBLOCK LATTICE_CART

%BLOCK POSITIONS_FRAC
P           0.000000000000000    0.000000000000000    0.500000000000000 
P           0.000000000000000    0.500000000000000    0.000000000000000 
P           0.000000000000000    0.500000000000000    0.500000000000000 
P           0.055204000000000    0.212962000000000    0.156361000000000 
P           0.055204000000000    0.212962000000000    0.843639000000000 
P           0.444796000000000    0.712962000000000    0.156361000000000 
P           0.444796000000000    0.712962000000000    0.843639000000000 
P           0.500000000000000    0.000000000000000    0.000000000000000 
P           0.500000000000000    0.000000000000000    0.500000000000000 
P           0.500000000000000    0.500000000000000    0.500000000000000 
P           0.555204000000000    0.287038000000000    0.156361000000000 
P           0.555204000000000    0.287038000000000    0.843639000000000 
P           0.944796000000000    0.787038000000000    0.156361000000000 
P           0.944796000000000    0.787038000000000    0.843639000000000 
K           0.000000000000000    0.000000000000000    0.000000000000000 
K           0.011965000000000    0.663677000000000    0.500000000000000 
K           0.488035000000000    0.163677000000000    0.500000000000000 
K           0.500000000000000    0.500000000000000    0.000000000000000 
K           0.511965000000000    0.836323000000000    0.500000000000000 
K           0.988035000000000    0.336323000000000    0.500000000000000 
%ENDBLOCK POSITIONS_FRAC
