# Cell file generated by matador (Matthew Evans 2016)

%BLOCK LATTICE_CART
6.99163 0.0 0.0
-3.49582 6.05493 0.0
0.0 0.0 8.50461
%ENDBLOCK LATTICE_CART

%BLOCK POSITIONS_FRAC
P           0.000000000000000    0.000000000000000    0.763870000000000 
P           0.034033000000000    0.934421000000000    0.377886000000000 
P           0.065579000000000    0.099612000000000    0.377886000000000 
P           0.097694000000000    0.801297000000000    0.382950000000000 
P           0.109794000000000    0.785811000000000    0.153484000000000 
P           0.198703000000000    0.296397000000000    0.382950000000000 
P           0.214189000000000    0.323983000000000    0.153484000000000 
P           0.367583000000000    0.125025000000000    0.121930000000000 
P           0.666667000000000    0.333333000000000    0.824883000000000 
P           0.676017000000000    0.890206000000000    0.153484000000000 
P           0.703603000000000    0.902306000000000    0.382950000000000 
P           0.757442000000000    0.632417000000000    0.121930000000000 
P           0.874975000000000    0.242558000000000    0.121930000000000 
P           0.900388000000000    0.965967000000000    0.377886000000000 
K           0.000000000000000    0.000000000000000    0.136111000000000 
K           0.666667000000000    0.333333000000000    0.217893000000000 
%ENDBLOCK POSITIONS_FRAC
