# Cell file generated by matador (Matthew Evans 2016)

%BLOCK LATTICE_CART
10.0241 0.0 0.0
0.0 10.0241 0.0
0.0 0.0 11.8892
%ENDBLOCK LATTICE_CART

%BLOCK POSITIONS_FRAC
P           0.000000000000000    0.000000000000000    0.250000000000000 
P           0.000000000000000    0.000000000000000    0.750000000000000 
P           0.000000000000000    0.300480000000000    0.500000000000000 
P           0.000000000000000    0.500000000000000    0.000000000000000 
P           0.000000000000000    0.699520000000000    0.500000000000000 
P           0.300480000000000    0.000000000000000    0.000000000000000 
P           0.500000000000000    0.000000000000000    0.500000000000000 
P           0.699520000000000    0.000000000000000    0.000000000000000 
K           0.000000000000000    0.000000000000000    0.000000000000000 
K           0.000000000000000    0.000000000000000    0.500000000000000 
K           0.000000000000000    0.245209000000000    0.178898000000000 
K           0.000000000000000    0.245209000000000    0.821102000000000 
K           0.000000000000000    0.500000000000000    0.500000000000000 
K           0.000000000000000    0.754791000000000    0.178898000000000 
K           0.000000000000000    0.754791000000000    0.821102000000000 
K           0.167905000000000    0.500000000000000    0.240139000000000 
K           0.167905000000000    0.500000000000000    0.759861000000000 
K           0.245209000000000    0.000000000000000    0.321102000000000 
K           0.245209000000000    0.000000000000000    0.678898000000000 
K           0.500000000000000    0.000000000000000    0.000000000000000 
K           0.500000000000000    0.167905000000000    0.259861000000000 
K           0.500000000000000    0.167905000000000    0.740139000000000 
K           0.500000000000000    0.500000000000000    0.000000000000000 
K           0.500000000000000    0.500000000000000    0.250000000000000 
K           0.500000000000000    0.500000000000000    0.500000000000000 
K           0.500000000000000    0.500000000000000    0.750000000000000 
K           0.500000000000000    0.832095000000000    0.259861000000000 
K           0.500000000000000    0.832095000000000    0.740139000000000 
K           0.754791000000000    0.000000000000000    0.321102000000000 
K           0.754791000000000    0.000000000000000    0.678898000000000 
K           0.832095000000000    0.500000000000000    0.240139000000000 
K           0.832095000000000    0.500000000000000    0.759861000000000 
%ENDBLOCK POSITIONS_FRAC
