# Cell file generated by matador (Matthew Evans 2016)

%BLOCK LATTICE_CART
9.27029 0.0 0.0
0.0 9.27029 0.0
0.0 0.0 7.36164
%ENDBLOCK LATTICE_CART

%BLOCK POSITIONS_FRAC
P           0.184469000000000    0.815531000000000    0.000000000000000 
P           0.315531000000000    0.315531000000000    0.500000000000000 
P           0.684469000000000    0.684469000000000    0.500000000000000 
P           0.815531000000000    0.184469000000000    0.000000000000000 
K          -0.000000000000000   -0.000000000000000    0.500000000000000 
K          -0.000000000000000    0.500000000000000    0.000000000000000 
K          -0.000000000000000    0.500000000000000    0.500000000000000 
K           0.206876000000000    0.793124000000000    0.323269000000000 
K           0.206876000000000    0.793124000000000    0.676731000000000 
K           0.293124000000000    0.293124000000000    0.176731000000000 
K           0.293124000000000    0.293124000000000    0.823269000000000 
K           0.500000000000000   -0.000000000000000    0.000000000000000 
K           0.500000000000000   -0.000000000000000    0.500000000000000 
K           0.500000000000000    0.500000000000000    0.000000000000000 
K           0.706876000000000    0.706876000000000    0.176731000000000 
K           0.706876000000000    0.706876000000000    0.823269000000000 
K           0.793124000000000    0.206876000000000    0.323269000000000 
K           0.793124000000000    0.206876000000000    0.676731000000000 
%ENDBLOCK POSITIONS_FRAC
