# Cell file generated by matador (Matthew Evans 2016)

%BLOCK LATTICE_CART
6.97105 0.0 0.0
-3.48553 6.03711 0.0
0.0 0.0 10.2458
%ENDBLOCK LATTICE_CART

%BLOCK POSITIONS_FRAC
P           0.000000000000000    0.500000000000000    0.000000000000000 
P           0.500000000000000    0.000000000000000    0.000000000000000 
P           0.500000000000000    0.500000000000000    0.000000000000000 
K           0.000000000000000    0.370013000000000    0.780078000000000 
K           0.000000000000000    0.500000000000000    0.500000000000000 
K           0.000000000000000    0.629987000000000    0.219922000000000 
K           0.370013000000000    0.000000000000000    0.780078000000000 
K           0.370013000000000    0.370013000000000    0.219922000000000 
K           0.500000000000000    0.000000000000000    0.500000000000000 
K           0.500000000000000    0.500000000000000    0.500000000000000 
K           0.629987000000000    0.000000000000000    0.219922000000000 
K           0.629987000000000    0.629987000000000    0.780078000000000 
%ENDBLOCK POSITIONS_FRAC
