# Cell file generated by matador (Matthew Evans 2016)

%BLOCK LATTICE_CART
6.70244 0.0 0.0
-3.35122 5.80448 0.0
0.0 0.0 5.54536
%ENDBLOCK LATTICE_CART

%BLOCK POSITIONS_FRAC
P           0.000000000000000    0.000000000000000    0.683980000000000 
P           0.333333000000000    0.666667000000000    0.224348000000000 
P           0.333333000000000    0.666667000000000    0.459164000000000 
P           0.666667000000000    0.333333000000000    0.224348000000000 
P           0.666667000000000    0.333333000000000    0.459164000000000 
K           0.000000000000000    0.500000000000000    0.868882000000000 
K           0.500000000000000    0.000000000000000    0.868882000000000 
K           0.500000000000000    0.500000000000000    0.868882000000000 
%ENDBLOCK POSITIONS_FRAC
