# Cell file generated by matador (Matthew Evans 2016)

%BLOCK LATTICE_CART
8.24012 0.0 0.0
-4.12006 7.13616 0.0
0.0 0.0 6.10158
%ENDBLOCK LATTICE_CART

%BLOCK POSITIONS_FRAC
P           0.000000000000000    0.500000000000000    0.303608000000000 
P           0.000000000000000    0.500000000000000    0.798756000000000 
P           0.152643000000000    0.576321000000000    0.264690000000000 
P           0.423679000000000    0.576321000000000    0.264690000000000 
P           0.423679000000000    0.847357000000000    0.264690000000000 
P           0.500000000000000    0.000000000000000    0.303608000000000 
P           0.500000000000000    0.000000000000000    0.798756000000000 
P           0.500000000000000    0.500000000000000    0.303608000000000 
P           0.500000000000000    0.500000000000000    0.798756000000000 
P           0.576321000000000    0.152643000000000    0.264690000000000 
P           0.576321000000000    0.423679000000000    0.264690000000000 
P           0.847357000000000    0.423679000000000    0.264690000000000 
K           0.000000000000000    0.000000000000000    0.446622000000000 
K           0.333333000000000    0.666667000000000    0.799435000000000 
K           0.666667000000000    0.333333000000000    0.799435000000000 
%ENDBLOCK POSITIONS_FRAC
