# Cell file generated by matador (Matthew Evans 2016)

%BLOCK LATTICE_CART
5.50577 0.0 0.0
0.0 7.81102 0.0
0.0 0.0 6.32376
%ENDBLOCK LATTICE_CART

%BLOCK POSITIONS_FRAC
P           0.000000000000000    0.000000000000000    0.315090000000000 
P           0.000000000000000    0.000000000000000    0.815090000000000 
P           0.000000000000000    0.500000000000000    0.007784000000000 
P           0.000000000000000    0.500000000000000    0.507784000000000 
K           0.478929000000000    0.368738000000000    0.417784000000000 
K           0.478929000000000    0.631262000000000    0.917784000000000 
K           0.521071000000000    0.368738000000000    0.917784000000000 
K           0.521071000000000    0.631262000000000    0.417784000000000 
%ENDBLOCK POSITIONS_FRAC
