# Cell file generated by matador (Matthew Evans 2016)

%BLOCK LATTICE_CART
7.43769 0.0 0.0
0.0 7.43769 0.0
0.0 0.0 7.43769
%ENDBLOCK LATTICE_CART

%BLOCK POSITIONS_FRAC
P           0.067096000000000    0.067096000000000    0.067096000000000 
P           0.067096000000000    0.932904000000000    0.932904000000000 
P           0.263481000000000    0.263481000000000    0.736519000000000 
P           0.263481000000000    0.736519000000000    0.263481000000000 
P           0.500000000000000    0.500000000000000    0.500000000000000 
P           0.736519000000000    0.263481000000000    0.263481000000000 
P           0.736519000000000    0.736519000000000    0.736519000000000 
P           0.932904000000000    0.067096000000000    0.932904000000000 
P           0.932904000000000    0.932904000000000    0.067096000000000 
K           0.000000000000000    0.000000000000000    0.500000000000000 
K           0.000000000000000    0.500000000000000    0.000000000000000 
K           0.000000000000000    0.500000000000000    0.500000000000000 
K           0.500000000000000    0.000000000000000    0.000000000000000 
K           0.500000000000000    0.000000000000000    0.500000000000000 
K           0.500000000000000    0.500000000000000    0.000000000000000 
%ENDBLOCK POSITIONS_FRAC
