# Cell file generated by matador (Matthew Evans 2016)

%BLOCK LATTICE_CART
9.2121 0.0 0.0
-4.60605 7.97791 0.0
0.0 0.0 7.01346
%ENDBLOCK LATTICE_CART

%BLOCK POSITIONS_FRAC
P           0.000000000000000    0.000000000000000    0.060417000000000 
P           0.000000000000000    0.000000000000000    0.393751000000000 
P           0.000000000000000    0.000000000000000    0.727084000000000 
P           0.000000000000000    0.500000000000000    0.846540000000000 
P           0.500000000000000    0.000000000000000    0.179874000000000 
P           0.500000000000000    0.500000000000000    0.513207000000000 
K           0.000000000000000    0.500000000000000    0.496342000000000 
K           0.116777000000000    0.398090000000000    0.244083000000000 
K           0.281314000000000    0.883223000000000    0.577416000000000 
K           0.398090000000000    0.281314000000000    0.910750000000000 
K           0.500000000000000    0.000000000000000    0.829675000000000 
K           0.500000000000000    0.500000000000000    0.163008000000000 
K           0.601910000000000    0.718686000000000    0.910750000000000 
K           0.718686000000000    0.116777000000000    0.577416000000000 
K           0.883223000000000    0.601910000000000    0.244083000000000 
%ENDBLOCK POSITIONS_FRAC
