# Cell file generated by matador (Matthew Evans 2016)

%BLOCK LATTICE_CART
10.1253 0.0 0.0
-5.06267 8.7688 0.0
0.0 0.0 15.2505
%ENDBLOCK LATTICE_CART

%BLOCK POSITIONS_FRAC
P           0.333334000000000    0.666668000000000    0.134299000000000 
P           0.333334000000000    0.666668000000000    0.351223000000000 
P           0.333334000000000    0.666668000000000    0.634299000000000 
P           0.333334000000000    0.666668000000000    0.851223000000000 
P           0.666668000000000    0.333334000000000    0.134299000000000 
P           0.666668000000000    0.333334000000000    0.351223000000000 
P           0.666668000000000    0.333334000000000    0.634299000000000 
P           0.666668000000000    0.333334000000000    0.851223000000000 
K           0.000001000000000    0.246497000000000    0.298075000000000 
K           0.000001000000000    0.252120000000000    0.523178000000000 
K           0.000001000000000    0.365176000000000    0.816980000000000 
K           0.000001000000000    0.379795000000000    0.047926000000000 
K           0.000001000000000    0.620207000000000    0.547926000000000 
K           0.000001000000000    0.634826000000000    0.316980000000000 
K           0.000001000000000    0.747882000000000    0.023179000000000 
K           0.000001000000000    0.753505000000000    0.798075000000000 
K           0.246497000000000    0.000001000000000    0.298075000000000 
K           0.246497000000000    0.246497000000000    0.798075000000000 
K           0.252120000000000    0.000001000000000    0.523178000000000 
K           0.252120000000000    0.252120000000000    0.023179000000000 
K           0.365176000000000    0.000001000000000    0.816980000000000 
K           0.365176000000000    0.365176000000000    0.316980000000000 
K           0.379795000000000    0.000001000000000    0.047926000000000 
K           0.379795000000000    0.379795000000000    0.547926000000000 
K           0.620207000000000    0.000001000000000    0.547926000000000 
K           0.620207000000000    0.620207000000000    0.047926000000000 
K           0.634826000000000    0.000001000000000    0.316980000000000 
K           0.634826000000000    0.634826000000000    0.816980000000000 
K           0.747882000000000    0.000001000000000    0.023179000000000 
K           0.747882000000000    0.747882000000000    0.523178000000000 
K           0.753505000000000    0.000001000000000    0.798075000000000 
K           0.753505000000000    0.753505000000000    0.298075000000000 
%ENDBLOCK POSITIONS_FRAC
