# Cell file generated by matador (Matthew Evans 2016)

%BLOCK LATTICE_CART
6.41485 -0.0 0.0
-3.20743 5.55543 0.0
0.0 0.0 10.9433
%ENDBLOCK LATTICE_CART

%BLOCK POSITIONS_FRAC
P          -0.000000000000000    0.000000000000000    0.000000000000000 
P          -0.000000000000000    0.000000000000000    0.175588000000000 
P          -0.000000000000000    0.000000000000000    0.824412000000000 
P           0.333333000000000    0.666667000000000    0.000000000000000 
P           0.333333000000000    0.666667000000000    0.317240000000000 
P           0.333333000000000    0.666667000000000    0.682760000000000 
K           0.333333000000000    0.666667000000000    0.500000000000000 
K           0.525931000000000    0.072375000000000    0.000000000000000 
K           0.546444000000000    0.474069000000000    0.000000000000000 
K           0.666666000000000    0.333334000000000    0.500000000000000 
K           0.927625000000000    0.453556000000000    0.000000000000000 
%ENDBLOCK POSITIONS_FRAC
