# Cell file generated by matador (Matthew Evans 2016)

%BLOCK LATTICE_CART
6.04202 0.0 0.0
1.73628 8.82861 0.0
-2.21881 4.37981 7.01783
%ENDBLOCK LATTICE_CART

%BLOCK POSITIONS_FRAC
P           0.000000000000000    0.000000000000000    0.500000000000000 
P           0.170901000000000    0.741270000000000    0.532174000000000 
P           0.219506000000000    0.217935000000000    0.642223000000000 
P           0.400191000000000    0.320569000000000    0.437887000000000 
P           0.599809000000000    0.679431000000000    0.562113000000000 
P           0.780494000000000    0.782065000000000    0.357777000000000 
P           0.829099000000000    0.258730000000000    0.467826000000000 
K           0.000000000000000    0.500000000000000    0.500000000000000 
K           0.142448000000000    0.022176000000000    0.959864000000000 
K           0.167148000000000    0.777495000000000    0.800493000000000 
K           0.500000000000000    0.500000000000000    0.500000000000000 
K           0.832852000000000    0.222505000000000    0.199507000000000 
K           0.857552000000000    0.977824000000000    0.040136000000000 
%ENDBLOCK POSITIONS_FRAC
