# Cell file generated by matador (Matthew Evans 2016)

%BLOCK LATTICE_CART
6.49539 0.0 0.0
-3.24769 5.62517 0.0
0.0 0.0 10.2416
%ENDBLOCK LATTICE_CART

%BLOCK POSITIONS_FRAC
P           0.000000000000000    0.000000000000000    0.307560000000000 
P           0.000000000000000    0.000000000000000    0.692440000000000 
P           0.333333000000000    0.666667000000000    0.362087000000000 
P           0.333333000000000    0.666667000000000    0.637913000000000 
P           0.666667000000000    0.333333000000000    0.362087000000000 
P           0.666667000000000    0.333333000000000    0.637913000000000 
K           0.000000000000000    0.000000000000000    0.500000000000000 
K           0.000000000000000    0.500000000000000    0.000000000000000 
K           0.000000000000000    0.500000000000000    0.500000000000000 
K           0.500000000000000    0.000000000000000    0.000000000000000 
K           0.500000000000000    0.000000000000000    0.500000000000000 
K           0.500000000000000    0.500000000000000    0.000000000000000 
K           0.500000000000000    0.500000000000000    0.500000000000000 
%ENDBLOCK POSITIONS_FRAC
