# Cell file generated by matador (Matthew Evans 2016)

%BLOCK LATTICE_CART
8.08607 0.0 0.0
-4.04303 7.00274 0.0
0.0 0.0 9.62692
%ENDBLOCK LATTICE_CART

%BLOCK POSITIONS_FRAC
P           0.000000000000000    0.000000000000000    0.108693000000000 
P           0.000000000000000    0.000000000000000    0.891307000000000 
P           0.333333000000000    0.666667000000000    0.557974000000000 
P           0.333333000000000    0.666667000000000    0.775359000000000 
P           0.666667000000000    0.333333000000000    0.224641000000000 
P           0.666667000000000    0.333333000000000    0.442026000000000 
K          -0.000000000000000    0.500000000000000    0.500000000000000 
K           0.166667000000000    0.333333000000000    0.833333000000000 
K           0.166667000000000    0.833333000000000    0.833333000000000 
K           0.333333000000000    0.166667000000000    0.166667000000000 
K           0.500000000000000    0.000000000000000    0.500000000000000 
K           0.500000000000000    0.500000000000000    0.500000000000000 
K           0.666667000000000    0.833333000000000    0.833333000000000 
K           0.833333000000000    0.166667000000000    0.166667000000000 
K           0.833333000000000    0.666667000000000    0.166667000000000 
%ENDBLOCK POSITIONS_FRAC
