# Cell file generated by matador (Matthew Evans 2016)

%BLOCK LATTICE_CART
10.4219 0.0 0.0
0.0 10.4219 0.0
0.0 0.0 11.0668
%ENDBLOCK LATTICE_CART

%BLOCK POSITIONS_FRAC
P           0.000000000000000    0.249820000000000    0.365155000000000 
P           0.000000000000000    0.249820000000000    0.634845000000000 
P           0.000000000000000    0.750180000000000    0.365155000000000 
P           0.000000000000000    0.750180000000000    0.634845000000000 
P           0.249820000000000    0.000000000000000    0.134845000000000 
P           0.249820000000000    0.000000000000000    0.865155000000000 
P           0.750180000000000    0.000000000000000    0.134845000000000 
P           0.750180000000000    0.000000000000000    0.865155000000000 
K           0.000000000000000    0.000000000000000    0.000000000000000 
K           0.000000000000000    0.000000000000000    0.500000000000000 
K           0.000000000000000    0.303563000000000    0.198189000000000 
K           0.000000000000000    0.303563000000000    0.801811000000000 
K           0.000000000000000    0.500000000000000    0.000000000000000 
K           0.000000000000000    0.500000000000000    0.500000000000000 
K           0.000000000000000    0.696437000000000    0.198189000000000 
K           0.000000000000000    0.696437000000000    0.801811000000000 
K           0.221573000000000    0.276391000000000    0.500000000000000 
K           0.221573000000000    0.723609000000000    0.500000000000000 
K           0.276391000000000    0.221573000000000    0.000000000000000 
K           0.276391000000000    0.778427000000000    0.000000000000000 
K           0.303563000000000    0.000000000000000    0.301811000000000 
K           0.303563000000000    0.000000000000000    0.698189000000000 
K           0.500000000000000    0.000000000000000    0.000000000000000 
K           0.500000000000000    0.000000000000000    0.500000000000000 
K           0.500000000000000    0.500000000000000    0.250000000000000 
K           0.500000000000000    0.500000000000000    0.750000000000000 
K           0.696437000000000    0.000000000000000    0.301811000000000 
K           0.696437000000000    0.000000000000000    0.698189000000000 
K           0.723609000000000    0.221573000000000    0.000000000000000 
K           0.723609000000000    0.778427000000000    0.000000000000000 
K           0.778427000000000    0.276391000000000    0.500000000000000 
K           0.778427000000000    0.723609000000000    0.500000000000000 
%ENDBLOCK POSITIONS_FRAC
