# Cell file generated by matador (Matthew Evans 2016)

%BLOCK LATTICE_CART
7.76843 0.0 0.0
0.0 7.76843 0.0
0.0 0.0 6.99247
%ENDBLOCK LATTICE_CART

%BLOCK POSITIONS_FRAC
P           0.231845000000000    0.388063000000000    0.000000000000000 
P           0.231845000000000    0.611937000000000    0.000000000000000 
P           0.388063000000000    0.231845000000000    0.000000000000000 
P           0.388063000000000    0.768155000000000    0.000000000000000 
P           0.500000000000000    0.500000000000000    0.344010000000000 
P           0.500000000000000    0.500000000000000    0.655990000000000 
P           0.611937000000000    0.231845000000000    0.000000000000000 
P           0.611937000000000    0.768155000000000    0.000000000000000 
P           0.768155000000000    0.388063000000000    0.000000000000000 
P           0.768155000000000    0.611937000000000    0.000000000000000 
K           0.000000000000000    0.500000000000000    0.000000000000000 
K           0.500000000000000    0.000000000000000    0.000000000000000 
%ENDBLOCK POSITIONS_FRAC
