# Cell file generated by matador (Matthew Evans 2016)

%BLOCK LATTICE_CART
5.97689 0.0 0.0
-2.98845 5.17614 0.0
0.0 0.0 7.02559
%ENDBLOCK LATTICE_CART

%BLOCK POSITIONS_FRAC
P           0.000000000000000   -0.000000000000000    0.356995000000000 
P           0.000000000000000   -0.000000000000000    0.647708000000000 
P           0.000000000000000   -0.000000000000000    0.830729000000000 
P           0.207576000000000    0.776583000000000    0.852483000000000 
P           0.223417000000000    0.430993000000000    0.852483000000000 
P           0.333334000000000    0.666666000000000    0.617736000000000 
P           0.569007000000000    0.792424000000000    0.852483000000000 
K           0.666667000000000    0.333333000000000    0.023813000000000 
%ENDBLOCK POSITIONS_FRAC
