# Cell file generated by matador (Matthew Evans 2016)

%BLOCK LATTICE_CART
5.68225 0.0 0.0
-2.84113 4.92098 0.0
0.0 0.0 10.7659
%ENDBLOCK LATTICE_CART

%BLOCK POSITIONS_FRAC
P           0.105910000000000    0.211821000000000    0.000000000000000 
P           0.105910000000000    0.894090000000000    0.000000000000000 
P           0.211821000000000    0.105910000000000    0.000000000000000 
P           0.788179000000000    0.894090000000000    0.000000000000000 
P           0.894090000000000    0.105910000000000    0.000000000000000 
P           0.894090000000000    0.788179000000000    0.000000000000000 
K           0.000000000000000    0.500000000000000    0.000000000000000 
K           0.333333000000000    0.666667000000000    0.500000000000000 
K           0.500000000000000    0.000000000000000    0.000000000000000 
K           0.500000000000000    0.500000000000000    0.000000000000000 
K           0.666667000000000    0.333333000000000    0.500000000000000 
%ENDBLOCK POSITIONS_FRAC
