# Cell file generated by matador (Matthew Evans 2016)

%BLOCK LATTICE_CART
6.76274 0.0 0.0
-3.38137 5.8567 0.0
0.0 0.0 18.0281
%ENDBLOCK LATTICE_CART

%BLOCK POSITIONS_FRAC
P           0.000000000000000    0.000000000000000    0.082851000000000 
P           0.000000000000000    0.000000000000000    0.917149000000000 
P           0.022537000000000    0.467084000000000    0.346565000000000 
P           0.080338000000000    0.813153000000000    0.280058000000000 
P           0.186847000000000    0.267185000000000    0.280058000000000 
P           0.267185000000000    0.186847000000000    0.719942000000000 
P           0.444547000000000    0.977463000000000    0.346565000000000 
P           0.467084000000000    0.022537000000000    0.653435000000000 
P           0.532916000000000    0.555453000000000    0.346565000000000 
P           0.555453000000000    0.532916000000000    0.653435000000000 
P           0.732815000000000    0.919662000000000    0.280058000000000 
P           0.813153000000000    0.080338000000000    0.719942000000000 
P           0.919662000000000    0.732815000000000    0.719942000000000 
P           0.977463000000000    0.444547000000000    0.653435000000000 
K           0.057452000000000    0.485745000000000    0.096925000000000 
K           0.428293000000000    0.942548000000000    0.096925000000000 
K           0.485745000000000    0.057452000000000    0.903075000000000 
K           0.514255000000000    0.571707000000000    0.096925000000000 
K           0.571707000000000    0.514255000000000    0.903075000000000 
K           0.942548000000000    0.428293000000000    0.903075000000000 
%ENDBLOCK POSITIONS_FRAC
