# Cell file generated by matador (Matthew Evans 2016)

%BLOCK LATTICE_CART
7.30286 0.0 0.0
-3.65143 6.32446 0.0
0.0 0.0 10.2284
%ENDBLOCK LATTICE_CART

%BLOCK POSITIONS_FRAC
P           0.026995000000000    0.198553000000000    0.010960000000000 
P           0.026995000000000    0.828443000000000    0.510960000000000 
P           0.171557000000000    0.198553000000000    0.510960000000000 
P           0.171557000000000    0.973005000000000    0.010960000000000 
P           0.801447000000000    0.828443000000000    0.010960000000000 
P           0.801447000000000    0.973005000000000    0.510960000000000 
K          -0.000000000000000    0.000000000000000    0.308270000000000 
K          -0.000000000000000    0.000000000000000    0.808270000000000 
K           0.468375000000000    0.214773000000000    0.773381000000000 
K           0.468375000000000    0.253603000000000    0.273381000000000 
K           0.746397000000000    0.214773000000000    0.273381000000000 
K           0.746397000000000    0.531625000000000    0.773381000000000 
K           0.785227000000000    0.253603000000000    0.773381000000000 
K           0.785227000000000    0.531625000000000    0.273381000000000 
%ENDBLOCK POSITIONS_FRAC
