# Cell file generated by matador (Matthew Evans 2016)

%BLOCK LATTICE_CART
8.87853 0.0 0.0
-4.43927 7.68904 0.0
0.0 0.0 4.50161
%ENDBLOCK LATTICE_CART

%BLOCK POSITIONS_FRAC
P           0.039010000000000    0.333993000000000    0.401033000000000 
P           0.294984000000000    0.960990000000000    0.401033000000000 
P           0.332673000000000    0.038350000000000    0.734366000000000 
P           0.372343000000000    0.000660000000000    0.067699000000000 
P           0.628317000000000    0.627657000000000    0.067699000000000 
P           0.666007000000000    0.705016000000000    0.401033000000000 
P           0.705676000000000    0.667327000000000    0.734366000000000 
P           0.961650000000000    0.294324000000000    0.734366000000000 
P           0.999340000000000    0.371683000000000    0.067699000000000 
K           0.000000000000000    0.000000000000000    0.552694000000000 
K           0.333333000000000    0.666667000000000    0.219360000000000 
K           0.666667000000000    0.333333000000000    0.886027000000000 
%ENDBLOCK POSITIONS_FRAC
