# Cell file generated by matador (Matthew Evans 2016)

%BLOCK LATTICE_CART
7.30125 0.0 0.0
-3.65063 6.32307 0.0
0.0 0.0 5.61752
%ENDBLOCK LATTICE_CART

%BLOCK POSITIONS_FRAC
P           0.000000000000000    0.000000000000000    0.000000000000000 
P           0.148660000000000    0.711232000000000    0.105053000000000 
P           0.288768000000000    0.437428000000000    0.105053000000000 
P           0.437428000000000    0.288768000000000    0.894947000000000 
P           0.562572000000000    0.851340000000000    0.105053000000000 
P           0.711232000000000    0.148660000000000    0.894947000000000 
P           0.851340000000000    0.562572000000000    0.894947000000000 
K           0.000000000000000    0.572765000000000    0.500000000000000 
K           0.333333000000000    0.666667000000000    0.638329000000000 
K           0.427235000000000    0.427235000000000    0.500000000000000 
K           0.572765000000000    0.000000000000000    0.500000000000000 
K           0.666667000000000    0.333333000000000    0.361671000000000 
%ENDBLOCK POSITIONS_FRAC
