# Cell file generated by matador (Matthew Evans 2016)

%BLOCK LATTICE_CART
8.73743 0.0 0.0
-4.36872 7.56684 0.0
0.0 0.0 9.23262
%ENDBLOCK LATTICE_CART

%BLOCK POSITIONS_FRAC
P           0.144137000000000    0.463952000000000    0.423357000000000 
P           0.319815000000000    0.855863000000000    0.423357000000000 
P           0.333333000000000    0.666667000000000    0.830709000000000 
P           0.463952000000000    0.144137000000000    0.423357000000000 
P           0.536048000000000    0.680185000000000    0.423357000000000 
P           0.666667000000000    0.333333000000000    0.830709000000000 
P           0.680185000000000    0.536048000000000    0.423357000000000 
P           0.855863000000000    0.319815000000000    0.423357000000000 
K           0.000000000000000    0.000000000000000    0.487874000000000 
K           0.000000000000000    0.000000000000000    0.859788000000000 
K           0.210131000000000    0.719725000000000    0.226364000000000 
K           0.280275000000000    0.490406000000000    0.226364000000000 
K           0.333333000000000    0.666667000000000    0.535385000000000 
K           0.490406000000000    0.280275000000000    0.226364000000000 
K           0.509594000000000    0.789869000000000    0.226364000000000 
K           0.666667000000000    0.333333000000000    0.535385000000000 
K           0.719725000000000    0.210131000000000    0.226364000000000 
K           0.789869000000000    0.509594000000000    0.226364000000000 
%ENDBLOCK POSITIONS_FRAC
