# Cell file generated by matador (Matthew Evans 2016)

%BLOCK LATTICE_CART
5.24088 0.0 0.0
0.0 6.05999 0.0
0.0 0.0 7.32095
%ENDBLOCK LATTICE_CART

%BLOCK POSITIONS_FRAC
P           0.000000000000000    0.194491000000000    0.943477000000000 
P           0.000000000000000    0.500000000000000    0.094351000000000 
P           0.000000000000000    0.805509000000000    0.943477000000000 
P           0.500000000000000    0.129688000000000    0.293615000000000 
P           0.500000000000000    0.870312000000000    0.293615000000000 
K           0.247654000000000    0.500000000000000    0.504596000000000 
K           0.295024000000000    0.500000000000000    0.799229000000000 
K           0.704976000000000    0.500000000000000    0.799229000000000 
K           0.752346000000000    0.500000000000000    0.504596000000000 
%ENDBLOCK POSITIONS_FRAC
