# Cell file generated by matador (Matthew Evans 2016)

%BLOCK LATTICE_CART
8.21928 0.0 0.0
-4.10964 7.1181 0.0
0.0 0.0 8.24422
%ENDBLOCK LATTICE_CART

%BLOCK POSITIONS_FRAC
P          -0.000000000000000    0.176786000000000    0.765177000000000 
P          -0.000000000000000    0.823214000000000    0.234823000000000 
P           0.176786000000000    0.000000000000000    0.765177000000000 
P           0.176786000000000    0.176786000000000    0.234823000000000 
P           0.333333000000000    0.666667000000000    0.366006000000000 
P           0.333333000000000    0.666667000000000    0.500000000000000 
P           0.333333000000000    0.666667000000000    0.633994000000000 
P           0.666666000000000    0.333334000000000    0.366006000000000 
P           0.666666000000000    0.333334000000000    0.500000000000000 
P           0.666666000000000    0.333334000000000    0.633994000000000 
P           0.823214000000000    0.000000000000000    0.234823000000000 
P           0.823214000000000    0.823214000000000    0.765177000000000 
K           0.333333000000000    0.666667000000000    0.000000000000000 
K           0.666666000000000    0.333334000000000    0.000000000000000 
%ENDBLOCK POSITIONS_FRAC
