# Cell file generated by matador (Matthew Evans 2016)

%BLOCK LATTICE_CART
6.61038 0.0 0.0
-3.30519 5.72476 0.0
0.0 0.0 16.1523
%ENDBLOCK LATTICE_CART

%BLOCK POSITIONS_FRAC
P           0.333334000000000    0.666668000000000    0.541931000000000 
P           0.333334000000000    0.666668000000000    0.958069000000000 
P           0.666668000000000    0.333334000000000    0.041931000000000 
P           0.666668000000000    0.333334000000000    0.458069000000000 
K           0.000001000000000    0.000001000000000    0.250000000000000 
K           0.000001000000000    0.000001000000000    0.750000000000000 
K           0.000001000000000    0.500001000000000    0.000000000000000 
K           0.000001000000000    0.500001000000000    0.500000000000000 
K           0.333334000000000    0.666668000000000    0.250000000000000 
K           0.333334000000000    0.666668000000000    0.750000000000000 
K           0.500001000000000    0.000001000000000    0.000000000000000 
K           0.500001000000000    0.000001000000000    0.500000000000000 
K           0.500001000000000    0.500001000000000    0.000000000000000 
K           0.500001000000000    0.500001000000000    0.500000000000000 
K           0.666668000000000    0.333334000000000    0.250000000000000 
K           0.666668000000000    0.333334000000000    0.750000000000000 
%ENDBLOCK POSITIONS_FRAC
