# Cell file generated by matador (Matthew Evans 2016)

%BLOCK LATTICE_CART
7.00557 0.0 0.0
-3.50279 6.067 0.0
0.0 0.0 8.5901
%ENDBLOCK LATTICE_CART

%BLOCK POSITIONS_FRAC
P           0.032754000000000    0.357416000000000    0.726998000000000 
P           0.252975000000000    0.518178000000000    0.062467000000000 
P           0.265203000000000    0.747025000000000    0.062467000000000 
P           0.324662000000000    0.967246000000000    0.726998000000000 
P           0.481822000000000    0.734797000000000    0.062467000000000 
P           0.500280000000000    0.276714000000000    0.572701000000000 
P           0.642584000000000    0.675338000000000    0.726998000000000 
P           0.666667000000000    0.333333000000000    0.847555000000000 
P           0.723286000000000    0.223567000000000    0.572701000000000 
P           0.776433000000000    0.499720000000000    0.572701000000000 
K           0.000000000000000    0.000000000000000    0.358463000000000 
K           0.089922000000000    0.547951000000000    0.275004000000000 
K           0.452049000000000    0.541971000000000    0.275004000000000 
K           0.458029000000000    0.910078000000000    0.275004000000000 
%ENDBLOCK POSITIONS_FRAC
