# Cell file generated by matador (Matthew Evans 2016)

%BLOCK LATTICE_CART
11.2806 -0.0 0.0
-5.64029 9.76927 0.0
0.0 0.0 10.5274
%ENDBLOCK LATTICE_CART

%BLOCK POSITIONS_FRAC
P           0.000000000000000    0.000000000000000    0.500000000000000 
P           0.005366000000000    0.186022000000000    0.500000000000000 
P           0.180657000000000    0.994634000000000    0.500000000000000 
P           0.186022000000000    0.180657000000000    0.500000000000000 
P           0.813978000000000    0.819343000000000    0.500000000000000 
P           0.819343000000000    0.005366000000000    0.500000000000000 
P           0.994634000000000    0.813978000000000    0.500000000000000 
K           0.000000000000000    0.000000000000000    0.000000000000000 
K           0.000000000000000    0.500000000000000    0.000000000000000 
K           0.000000000000000    0.500000000000000    0.500000000000000 
K           0.171817000000000    0.811255000000000    0.500000000000000 
K           0.188745000000000    0.360562000000000    0.500000000000000 
K           0.208710000000000    0.422047000000000    0.000000000000000 
K           0.213337000000000    0.791290000000000    0.000000000000000 
K           0.333333000000000    0.666667000000000    0.500000000000000 
K           0.360562000000000    0.171817000000000    0.500000000000000 
K           0.422047000000000    0.213337000000000    0.000000000000000 
K           0.500000000000000    0.000000000000000    0.000000000000000 
K           0.500000000000000    0.000000000000000    0.500000000000000 
K           0.500000000000000    0.500000000000000    0.000000000000000 
K           0.500000000000000    0.500000000000000    0.500000000000000 
K           0.577953000000000    0.786663000000000    0.000000000000000 
K           0.639438000000000    0.828183000000000    0.500000000000000 
K           0.666667000000000    0.333333000000000    0.500000000000000 
K           0.786663000000000    0.208710000000000    0.000000000000000 
K           0.791290000000000    0.577953000000000    0.000000000000000 
K           0.811255000000000    0.639438000000000    0.500000000000000 
K           0.828183000000000    0.188745000000000    0.500000000000000 
%ENDBLOCK POSITIONS_FRAC
