# Cell file generated by matador (Matthew Evans 2016)

%BLOCK LATTICE_CART
10.5952 0.0 0.0
0.0 8.0582 0.0
-2.11506 0.0 4.4999
%ENDBLOCK LATTICE_CART

%BLOCK POSITIONS_FRAC
P           0.060216000000000    0.500000000000000    0.295617000000000 
P           0.095980000000000    0.500000000000000    0.913129000000000 
P           0.296026000000000    0.500000000000000    0.614138000000000 
P           0.504164000000000    0.500000000000000    0.144804000000000 
P           0.600947000000000    0.500000000000000    0.638820000000000 
P           0.719436000000000    0.000000000000000    0.697600000000000 
P           0.794650000000000    0.500000000000000    0.894927000000000 
K           0.037983000000000    0.000000000000000    0.844583000000000 
K           0.330943000000000    0.211792000000000    0.474351000000000 
K           0.330943000000000    0.788208000000000    0.474351000000000 
K           0.699862000000000    0.000000000000000    0.217896000000000 
K           0.715567000000000    0.232996000000000    0.889601000000000 
K           0.715567000000000    0.767004000000000    0.889601000000000 
%ENDBLOCK POSITIONS_FRAC
