# Cell file generated by matador (Matthew Evans 2016)

%BLOCK LATTICE_CART
7.91087 0.0 0.0
-3.95543 6.85101 0.0
0.0 0.0 5.22093
%ENDBLOCK LATTICE_CART

%BLOCK POSITIONS_FRAC
P           0.135924000000000    0.275593000000000    0.391881000000000 
P           0.139670000000000    0.864076000000000    0.391881000000000 
P           0.724407000000000    0.860330000000000    0.391881000000000 
K           0.085148000000000    0.742896000000000    0.800202000000000 
K           0.257104000000000    0.342252000000000    0.800202000000000 
K           0.333334000000000    0.666666000000000    0.191005000000000 
K           0.657748000000000    0.914852000000000    0.800202000000000 
K           0.666667000000000    0.333333000000000    0.426773000000000 
%ENDBLOCK POSITIONS_FRAC
