# Cell file generated by matador (Matthew Evans 2016)

%BLOCK LATTICE_CART
7.34127 0.0 0.0
-3.67064 6.35773 0.0
0.0 0.0 8.63841
%ENDBLOCK LATTICE_CART

%BLOCK POSITIONS_FRAC
P          -0.000000000000000    0.000000000000000    0.000000000000000 
P          -0.000000000000000    0.000000000000000    0.500000000000000 
P          -0.000000000000000    0.500000000000000    0.000000000000000 
P          -0.000000000000000    0.500000000000000    0.500000000000000 
P           0.156823000000000    0.313647000000000    0.879375000000000 
P           0.156823000000000    0.843177000000000    0.879375000000000 
P           0.313646000000000    0.156824000000000    0.120625000000000 
P           0.500000000000000    0.000000000000000    0.000000000000000 
P           0.500000000000000    0.000000000000000    0.500000000000000 
P           0.500000000000000    0.500000000000000    0.000000000000000 
P           0.500000000000000    0.500000000000000    0.500000000000000 
P           0.686353000000000    0.843177000000000    0.879375000000000 
P           0.843176000000000    0.156824000000000    0.120625000000000 
P           0.843176000000000    0.686354000000000    0.120625000000000 
K           0.333333000000000    0.666667000000000    0.635862000000000 
K           0.666666000000000    0.333334000000000    0.364138000000000 
%ENDBLOCK POSITIONS_FRAC
