# Cell file generated by matador (Matthew Evans 2016)

%BLOCK LATTICE_CART
8.8189 0.0 0.0
-4.40945 7.63739 0.0
0.0 0.0 7.79139
%ENDBLOCK LATTICE_CART

%BLOCK POSITIONS_FRAC
P           0.000000000000000    0.000000000000000    0.255274000000000 
P           0.000000000000000    0.000000000000000    0.744726000000000 
P           0.333333000000000    0.666667000000000    0.000000000000000 
P           0.333333000000000    0.666667000000000    0.500000000000000 
P           0.666667000000000    0.333333000000000    0.000000000000000 
P           0.666667000000000    0.333333000000000    0.500000000000000 
K           0.000000000000000    0.000000000000000    0.000000000000000 
K           0.000000000000000    0.000000000000000    0.500000000000000 
K           0.000000000000000    0.263597000000000    0.324160000000000 
K           0.000000000000000    0.263597000000000    0.675840000000000 
K           0.263597000000000    0.000000000000000    0.324160000000000 
K           0.263597000000000    0.000000000000000    0.675840000000000 
K           0.736403000000000    0.736403000000000    0.324160000000000 
K           0.736403000000000    0.736403000000000    0.675840000000000 
%ENDBLOCK POSITIONS_FRAC
