# Cell file generated by matador (Matthew Evans 2016)

%BLOCK LATTICE_CART
5.73723 0.0 0.0
0.0 5.73723 0.0
0.0 0.0 6.88953
%ENDBLOCK LATTICE_CART

%BLOCK POSITIONS_FRAC
P           0.000000000000000    0.000000000000000    0.000000000000000 
P           0.000000000000000    0.000000000000000    0.162762000000000 
P           0.000000000000000    0.000000000000000    0.837238000000000 
P           0.500000000000000    0.500000000000000    0.337238000000000 
P           0.500000000000000    0.500000000000000    0.500000000000000 
P           0.500000000000000    0.500000000000000    0.662762000000000 
K           0.000000000000000    0.500000000000000    0.250000000000000 
K           0.000000000000000    0.500000000000000    0.750000000000000 
K           0.500000000000000    0.000000000000000    0.250000000000000 
K           0.500000000000000    0.000000000000000    0.750000000000000 
%ENDBLOCK POSITIONS_FRAC
