# Cell file generated by matador (Matthew Evans 2016)

%BLOCK LATTICE_CART
7.76539 0.0 0.0
-3.8827 6.72503 0.0
0.0 0.0 6.5618
%ENDBLOCK LATTICE_CART

%BLOCK POSITIONS_FRAC
P           0.000000000000000    0.000000000000000    0.231866000000000 
P           0.333333000000000    0.666667000000000    0.790142000000000 
K           0.336484000000000    0.168242000000000    0.865422000000000 
K           0.383034000000000    0.191517000000000    0.362044000000000 
K           0.808483000000000    0.191517000000000    0.362044000000000 
K           0.808483000000000    0.616966000000000    0.362044000000000 
K           0.831758000000000    0.168242000000000    0.865422000000000 
K           0.831758000000000    0.663516000000000    0.865422000000000 
%ENDBLOCK POSITIONS_FRAC
