# Cell file generated by matador (Matthew Evans 2016)

%BLOCK LATTICE_CART
9.09235 0.0 0.0
0.0 7.36823 0.0
-2.52664 0.0 6.63913
%ENDBLOCK LATTICE_CART

%BLOCK POSITIONS_FRAC
P           0.003829000000000    0.500000000000000    0.763145000000000 
P           0.220844000000000    0.217430000000000    0.298216000000000 
P           0.220844000000000    0.782570000000000    0.298216000000000 
P           0.241671000000000    0.500000000000000    0.830525000000000 
P           0.411613000000000    0.500000000000000    0.595640000000000 
P           0.717628000000000    0.500000000000000    0.237321000000000 
P           0.742032000000000   -0.000000000000000    0.516177000000000 
K           0.093766000000000    0.264024000000000    0.993664000000000 
K           0.093766000000000    0.735976000000000    0.993664000000000 
K           0.532908000000000    0.267966000000000    0.879776000000000 
K           0.532908000000000    0.732034000000000    0.879776000000000 
K           0.549906000000000    0.350480000000000    0.469232000000000 
K           0.549906000000000    0.649520000000000    0.469232000000000 
%ENDBLOCK POSITIONS_FRAC
