# Cell file generated by matador (Matthew Evans 2016)

%BLOCK LATTICE_CART
6.93639 0.0 0.0
-3.4682 6.00709 0.0
0.0 0.0 4.66374
%ENDBLOCK LATTICE_CART

%BLOCK POSITIONS_FRAC
P          -0.000000000000000    0.000000000000000    0.407659000000000 
P          -0.000000000000000    0.000000000000000    0.986852000000000 
P           0.030856000000000    0.515429000000000    0.008270000000000 
P           0.273611000000000    0.136806000000000    0.609804000000000 
P           0.484571000000000    0.515429000000000    0.008270000000000 
P           0.484571000000000    0.969144000000000    0.008270000000000 
P           0.863194000000000    0.136806000000000    0.609804000000000 
P           0.863194000000000    0.726389000000000    0.609804000000000 
K           0.333333000000000    0.666667000000000    0.687686000000000 
K           0.666666000000000    0.333334000000000    0.696522000000000 
%ENDBLOCK POSITIONS_FRAC
