# Cell file generated by matador (Matthew Evans 2016)

%BLOCK LATTICE_CART
6.74342 0.0 0.0
-3.37171 5.83997 0.0
0.0 0.0 7.37203
%ENDBLOCK LATTICE_CART

%BLOCK POSITIONS_FRAC
P           0.183401000000000    0.118247000000000    0.735982000000000 
P           0.389526000000000    0.080875000000000    0.227359000000000 
P           0.520106000000000    0.281351000000000    0.822241000000000 
P           0.666667000000000    0.333333000000000    0.549459000000000 
P           0.691348000000000    0.610474000000000    0.227359000000000 
P           0.718649000000000    0.238755000000000    0.822241000000000 
P           0.761245000000000    0.479894000000000    0.822241000000000 
P           0.881753000000000    0.065155000000000    0.735982000000000 
P           0.919125000000000    0.308652000000000    0.227359000000000 
P           0.934845000000000    0.816599000000000    0.735982000000000 
K           0.000000000000000    0.000000000000000    0.970015000000000 
K           0.333333000000000    0.666667000000000    0.609881000000000 
%ENDBLOCK POSITIONS_FRAC
