# Cell file generated by matador (Matthew Evans 2016)

%BLOCK LATTICE_CART
6.01058 0.0 0.0
-3.00529 5.20531 0.0
0.0 0.0 8.8169
%ENDBLOCK LATTICE_CART

%BLOCK POSITIONS_FRAC
P           0.000000000000000    0.000000000000000    0.331703000000000 
P           0.041101000000000    0.576021000000000    0.572821000000000 
P           0.423979000000000    0.465080000000000    0.572821000000000 
P           0.534920000000000    0.958899000000000    0.572821000000000 
K           0.337358000000000    0.100876000000000    0.791695000000000 
K           0.666667000000000    0.333333000000000    0.476079000000000 
K           0.763518000000000    0.662642000000000    0.791695000000000 
K           0.899124000000000    0.236482000000000    0.791695000000000 
%ENDBLOCK POSITIONS_FRAC
