# Cell file generated by matador (Matthew Evans 2016)

%BLOCK LATTICE_CART
9.16983 0.0 0.0
-4.58492 7.94131 0.0
0.0 0.0 7.97377
%ENDBLOCK LATTICE_CART

%BLOCK POSITIONS_FRAC
P           0.000000000000000    0.136718000000000    0.987014000000000 
P           0.000000000000000    0.863282000000000    0.487014000000000 
P           0.136718000000000    0.000000000000000    0.987014000000000 
P           0.136718000000000    0.136718000000000    0.487014000000000 
P           0.333333000000000    0.666667000000000    0.012991000000000 
P           0.333333000000000    0.666667000000000    0.512991000000000 
P           0.666667000000000    0.333333000000000    0.012991000000000 
P           0.666667000000000    0.333333000000000    0.512991000000000 
P           0.863282000000000    0.000000000000000    0.487014000000000 
P           0.863282000000000    0.863282000000000    0.987014000000000 
K           0.000000000000000    0.376598000000000    0.691612000000000 
K           0.000000000000000    0.623402000000000    0.191612000000000 
K           0.376598000000000    0.000000000000000    0.691612000000000 
K           0.376598000000000    0.376598000000000    0.191612000000000 
K           0.623402000000000    0.000000000000000    0.191612000000000 
K           0.623402000000000    0.623402000000000    0.691612000000000 
%ENDBLOCK POSITIONS_FRAC
