# Cell file generated by matador (Matthew Evans 2016)

%BLOCK LATTICE_CART
6.43514 0.0 0.0
-3.21757 5.57299 0.0
0.0 0.0 11.982
%ENDBLOCK LATTICE_CART

%BLOCK POSITIONS_FRAC
P           0.333333000000000    0.666667000000000    0.110377000000000 
P           0.333333000000000    0.666667000000000    0.389623000000000 
P           0.333333000000000    0.666667000000000    0.610377000000000 
P           0.333333000000000    0.666667000000000    0.889623000000000 
P           0.476337000000000    0.238169000000000   -0.000000000000000 
P           0.476337000000000    0.238169000000000    0.500000000000000 
P           0.666667000000000    0.333333000000000   -0.000000000000000 
P           0.666667000000000    0.333333000000000    0.500000000000000 
P           0.761831000000000    0.238169000000000   -0.000000000000000 
P           0.761831000000000    0.238169000000000    0.500000000000000 
P           0.761831000000000    0.523663000000000   -0.000000000000000 
P           0.761831000000000    0.523663000000000    0.500000000000000 
K           0.048855000000000    0.402993000000000    0.750000000000000 
K           0.048855000000000    0.645862000000000    0.250000000000000 
K           0.354138000000000    0.402993000000000    0.250000000000000 
K           0.354138000000000    0.951145000000000    0.750000000000000 
K           0.597007000000000    0.645862000000000    0.750000000000000 
K           0.597007000000000    0.951145000000000    0.250000000000000 
%ENDBLOCK POSITIONS_FRAC
