# Cell file generated by matador (Matthew Evans 2016)

%BLOCK LATTICE_CART
8.52476 0.0 0.0
0.0 8.52476 0.0
0.0 0.0 6.41235
%ENDBLOCK LATTICE_CART

%BLOCK POSITIONS_FRAC
P          -0.000000000000000   -0.000000000000000    0.645697000000000 
P          -0.000000000000000    0.500000000000000    0.178056000000000 
P          -0.000000000000000    0.500000000000000    0.678056000000000 
P           0.500000000000000   -0.000000000000000    0.178056000000000 
P           0.500000000000000   -0.000000000000000    0.678056000000000 
P           0.500000000000000    0.500000000000000    0.145697000000000 
K           0.223770000000000    0.223770000000000    0.165384000000000 
K           0.223770000000000    0.776230000000000    0.165384000000000 
K           0.276230000000000    0.276230000000000    0.665384000000000 
K           0.276230000000000    0.723770000000000    0.665384000000000 
K           0.723770000000000    0.276230000000000    0.665384000000000 
K           0.723770000000000    0.723770000000000    0.665384000000000 
K           0.776230000000000    0.223770000000000    0.165384000000000 
K           0.776230000000000    0.776230000000000    0.165384000000000 
%ENDBLOCK POSITIONS_FRAC
