# Cell file generated by matador (Matthew Evans 2016)

%BLOCK LATTICE_CART
9.75423 0.0 0.0
0.0 8.6069 0.0
-2.22237 0.0 8.20544
%ENDBLOCK LATTICE_CART

%BLOCK POSITIONS_FRAC
P           0.335127000000000    0.500000000000000    0.074547000000000 
P           0.367486000000000    0.500000000000000    0.578257000000000 
P           0.835127000000000    0.000000000000000    0.074547000000000 
P           0.867486000000000    0.000000000000000    0.578257000000000 
K           0.110362000000000    0.500000000000000    0.111374000000000 
K           0.110556000000000    0.000000000000000    0.862817000000000 
K           0.226932000000000    0.500000000000000    0.715351000000000 
K           0.267018000000000    0.000000000000000    0.422340000000000 
K           0.427759000000000    0.500000000000000    0.361293000000000 
K           0.434070000000000    0.000000000000000    0.755181000000000 
K           0.610362000000000    0.000000000000000    0.111374000000000 
K           0.610556000000000    0.500000000000000    0.862817000000000 
K           0.726932000000000    0.000000000000000    0.715351000000000 
K           0.767018000000000    0.500000000000000    0.422340000000000 
K           0.927759000000000    0.000000000000000    0.361293000000000 
K           0.934070000000000    0.500000000000000    0.755181000000000 
%ENDBLOCK POSITIONS_FRAC
