# Cell file generated by matador (Matthew Evans 2016)

%BLOCK LATTICE_CART
5.04794 0.0 0.0
0.0 8.30906 0.0
-2.11221 0.0 8.37861
%ENDBLOCK LATTICE_CART

%BLOCK POSITIONS_FRAC
P           0.271484000000000    0.016000000000000    0.866622000000000 
P           0.271484000000000    0.484000000000000    0.866622000000000 
P           0.403681000000000    0.007666000000000    0.387173000000000 
P           0.403681000000000    0.492334000000000    0.387173000000000 
P           0.596319000000000    0.507666000000000    0.612827000000000 
P           0.596319000000000    0.992334000000000    0.612827000000000 
P           0.728516000000000    0.516000000000000    0.133378000000000 
P           0.728516000000000    0.984000000000000    0.133378000000000 
K           0.000000000000000    0.000000000000000    0.000000000000000 
K           0.000000000000000    0.500000000000000    0.000000000000000 
K           0.017796000000000    0.250000000000000    0.207676000000000 
K           0.352797000000000    0.250000000000000    0.462569000000000 
K           0.647203000000000    0.750000000000000    0.537431000000000 
K           0.982204000000000    0.750000000000000    0.792324000000000 
%ENDBLOCK POSITIONS_FRAC
