# Cell file generated by matador (Matthew Evans 2016)

%BLOCK LATTICE_CART
12.5762 0.0 0.0
0.0 5.08327 0.0
-0.475237 0.0 9.49122
%ENDBLOCK LATTICE_CART

%BLOCK POSITIONS_FRAC
P           0.036219000000000    0.005772000000000    0.432630000000000 
P           0.036219000000000    0.994228000000000    0.932630000000000 
P           0.113429000000000    0.303709000000000    0.452798000000000 
P           0.113429000000000    0.696291000000000    0.952798000000000 
P           0.266814000000000    0.229625000000000    0.812021000000000 
P           0.266814000000000    0.770375000000000    0.312021000000000 
P           0.484779000000000    0.260640000000000    0.582464000000000 
P           0.484779000000000    0.739360000000000    0.082464000000000 
P           0.491075000000000    0.060512000000000    0.183892000000000 
P           0.491075000000000    0.939488000000000    0.683892000000000 
P           0.708305000000000    0.387603000000000    0.824850000000000 
P           0.708305000000000    0.612397000000000    0.324850000000000 
P           0.779494000000000    0.031866000000000    0.628880000000000 
P           0.779494000000000    0.968134000000000    0.128880000000000 
K           0.072777000000000    0.312676000000000    0.109301000000000 
K           0.072777000000000    0.687324000000000    0.609301000000000 
K           0.621059000000000    0.196035000000000    0.036666000000000 
K           0.621059000000000    0.803965000000000    0.536666000000000 
K           0.797212000000000    0.131742000000000    0.340796000000000 
K           0.797212000000000    0.868258000000000    0.840796000000000 
%ENDBLOCK POSITIONS_FRAC
