# Cell file generated by matador (Matthew Evans 2016)

%BLOCK LATTICE_CART
7.69054 0.0 0.0
-3.84527 6.6602 0.0
0.0 0.0 5.13283
%ENDBLOCK LATTICE_CART

%BLOCK POSITIONS_FRAC
P           0.000000000000000    0.519378000000000    0.000000000000000 
P           0.333333000000000    0.666667000000000    0.000000000000000 
P           0.480622000000000    0.480622000000000    0.000000000000000 
P           0.519378000000000    0.000000000000000    0.000000000000000 
P           0.666667000000000    0.333333000000000    0.000000000000000 
K           0.000000000000000    0.000000000000000    0.000000000000000 
K           0.000000000000000    0.000000000000000    0.500000000000000 
K           0.333333000000000    0.666667000000000    0.500000000000000 
K           0.666667000000000    0.333333000000000    0.500000000000000 
%ENDBLOCK POSITIONS_FRAC
