# Cell file generated by matador (Matthew Evans 2016)

%BLOCK LATTICE_CART
7.59253 0.0 0.0
-3.79626 6.57532 0.0
0.0 0.0 14.0831
%ENDBLOCK LATTICE_CART

%BLOCK POSITIONS_FRAC
P           0.000000000000000    0.000000000000000    0.000000000000000 
P           0.333333000000000    0.666667000000000    0.167970000000000 
P           0.333333000000000    0.666667000000000    0.832030000000000 
P           0.666667000000000    0.333333000000000    0.167970000000000 
P           0.666667000000000    0.333333000000000    0.832030000000000 
K           0.000000000000000    0.000000000000000    0.500000000000000 
K           0.000000000000000    0.308227000000000    0.365934000000000 
K           0.000000000000000    0.331090000000000    0.137764000000000 
K           0.000000000000000    0.668910000000000    0.862236000000000 
K           0.000000000000000    0.691773000000000    0.634066000000000 
K           0.308227000000000    0.000000000000000    0.365934000000000 
K           0.308227000000000    0.308227000000000    0.634066000000000 
K           0.331090000000000    0.000000000000000    0.137764000000000 
K           0.331090000000000    0.331090000000000    0.862236000000000 
K           0.333333000000000    0.666667000000000    0.500000000000000 
K           0.666667000000000    0.333333000000000    0.500000000000000 
K           0.668910000000000    0.000000000000000    0.862236000000000 
K           0.668910000000000    0.668910000000000    0.137764000000000 
K           0.691773000000000    0.000000000000000    0.634066000000000 
K           0.691773000000000    0.691773000000000    0.365934000000000 
%ENDBLOCK POSITIONS_FRAC
