# Cell file generated by matador (Matthew Evans 2016)

%BLOCK LATTICE_CART
6.47401 0.0 0.0
0.0 7.18448 0.0
0.551167 0.0 9.63824
%ENDBLOCK LATTICE_CART

%BLOCK POSITIONS_FRAC
P           0.355825000000000    0.340663000000000    0.085225000000000 
P           0.397616000000000    0.006315000000000    0.807248000000000 
P           0.426795000000000    0.317057000000000    0.869246000000000 
P           0.456544000000000    0.315140000000000    0.620342000000000 
P           0.493472000000000    0.931494000000000    0.215688000000000 
P           0.495221000000000    0.947154000000000    0.513150000000000 
P           0.504779000000000    0.447154000000000    0.486850000000000 
P           0.506528000000000    0.431494000000000    0.784312000000000 
P           0.543456000000000    0.815140000000000    0.379658000000000 
P           0.573205000000000    0.817057000000000    0.130754000000000 
P           0.602384000000000    0.506315000000000    0.192752000000000 
P           0.644175000000000    0.840663000000000    0.914775000000000 
K           0.212598000000000    0.045059000000000    0.439729000000000 
K           0.787402000000000    0.545059000000000    0.560271000000000 
%ENDBLOCK POSITIONS_FRAC
