# Cell file generated by matador (Matthew Evans 2016)

%BLOCK LATTICE_CART
7.06458 0.0 0.0
-3.53229 6.11811 0.0
0.0 0.0 6.11537
%ENDBLOCK LATTICE_CART

%BLOCK POSITIONS_FRAC
P          -0.000000000000000    0.000000000000000    0.533568000000000 
P           0.169925000000000    0.341316000000000    0.957264000000000 
P           0.171391000000000    0.830075000000000    0.957264000000000 
P           0.341316000000000    0.169925000000000    0.957264000000000 
P           0.658684000000000    0.828609000000000    0.957264000000000 
P           0.828609000000000    0.658684000000000    0.957264000000000 
P           0.830075000000000    0.171391000000000    0.957264000000000 
K           0.333333000000000    0.666667000000000    0.469860000000000 
K           0.666666000000000    0.333334000000000    0.469860000000000 
%ENDBLOCK POSITIONS_FRAC
