# Cell file generated by matador (Matthew Evans 2016)

%BLOCK LATTICE_CART
8.06895 0.0 0.0
-4.03448 6.98792 0.0
0.0 0.0 8.72812
%ENDBLOCK LATTICE_CART

%BLOCK POSITIONS_FRAC
P           0.000000000000000    0.500000000000000    0.000000000000000 
P           0.500000000000000    0.000000000000000    0.000000000000000 
P           0.500000000000000    0.500000000000000    0.000000000000000 
K           0.000000000000000    0.000000000000000    0.000000000000000 
K           0.000000000000000    0.414306000000000    0.705682000000000 
K           0.000000000000000    0.585694000000000    0.294318000000000 
K           0.333333000000000    0.666667000000000    0.500000000000000 
K           0.414306000000000    0.000000000000000    0.705682000000000 
K           0.414306000000000    0.414306000000000    0.294318000000000 
K           0.585694000000000    0.000000000000000    0.294318000000000 
K           0.585694000000000    0.585694000000000    0.705682000000000 
K           0.666667000000000    0.333333000000000    0.500000000000000 
%ENDBLOCK POSITIONS_FRAC
