# Cell file generated by matador (Matthew Evans 2016)

%BLOCK LATTICE_CART
5.97858 0.0 0.0
-2.98929 5.1776 0.0
0.0 0.0 8.01808
%ENDBLOCK LATTICE_CART

%BLOCK POSITIONS_FRAC
P           0.333333000000000    0.666667000000000    0.250564000000000 
P           0.333333000000000    0.666667000000000    0.749436000000000 
K          -0.000000000000000    0.000000000000000   -0.000000000000000 
K           0.333333000000000    0.666667000000000   -0.000000000000000 
K           0.333333000000000    0.666667000000000    0.500000000000000 
K           0.666666000000000    0.333334000000000   -0.000000000000000 
K           0.666666000000000    0.333334000000000    0.500000000000000 
%ENDBLOCK POSITIONS_FRAC
