# Cell file generated by matador (Matthew Evans 2016)

%BLOCK LATTICE_CART
8.13375 -0.0 0.0
-4.06687 7.04403 0.0
0.0 0.0 7.98654
%ENDBLOCK LATTICE_CART

%BLOCK POSITIONS_FRAC
P           0.042330000000000    0.893106000000000    0.514429000000000 
P           0.106894000000000    0.149225000000000    0.514429000000000 
P           0.184109000000000    0.624336000000000    0.181095000000000 
P           0.375664000000000    0.559772000000000    0.181095000000000 
P           0.440228000000000    0.815891000000000    0.181095000000000 
P           0.517442000000000    0.291003000000000    0.847762000000000 
P           0.708997000000000    0.226439000000000    0.847762000000000 
P           0.773561000000000    0.482558000000000    0.847762000000000 
P           0.850775000000000    0.957670000000000    0.514429000000000 
K          -0.000000000000000    0.000000000000000    0.925356000000000 
K           0.333333000000000    0.666667000000000    0.592023000000000 
K           0.666667000000000    0.333333000000000    0.258690000000000 
%ENDBLOCK POSITIONS_FRAC
