# Cell file generated by matador (Matthew Evans 2016)

%BLOCK LATTICE_CART
8.24034 0.0 0.0
-4.12017 7.13634 0.0
0.0 0.0 6.64759
%ENDBLOCK LATTICE_CART

%BLOCK POSITIONS_FRAC
P           0.000000000000000    0.000000000000000    0.500000000000000 
P           0.000000000000000    0.494930000000000    0.000000000000000 
P           0.494930000000000    0.000000000000000    0.000000000000000 
P           0.505070000000000    0.505070000000000    0.000000000000000 
K           0.000000000000000    0.000000000000000    0.000000000000000 
K           0.044353000000000    0.755313000000000    0.672520000000000 
K           0.244687000000000    0.289040000000000    0.672520000000000 
K           0.289040000000000    0.244687000000000    0.327480000000000 
K           0.710960000000000    0.955647000000000    0.672520000000000 
K           0.755313000000000    0.044353000000000    0.327480000000000 
K           0.955647000000000    0.710960000000000    0.327480000000000 
%ENDBLOCK POSITIONS_FRAC
