# Cell file generated by matador (Matthew Evans 2016)

%BLOCK LATTICE_CART
7.20266 0.0 0.0
0.0 7.20266 0.0
0.0 0.0 5.2816
%ENDBLOCK LATTICE_CART

%BLOCK POSITIONS_FRAC
P           0.000000000000000    0.000000000000000    0.310730000000000 
P           0.000000000000000    0.000000000000000    0.689270000000000 
P           0.000000000000000    0.500000000000000    0.231155000000000 
P           0.500000000000000    0.000000000000000    0.768845000000000 
P           0.500000000000000    0.500000000000000    0.500000000000000 
K           0.259161000000000    0.643974000000000    0.526301000000000 
K           0.356026000000000    0.259161000000000    0.473699000000000 
K           0.643974000000000    0.740839000000000    0.473699000000000 
K           0.740839000000000    0.356026000000000    0.526301000000000 
%ENDBLOCK POSITIONS_FRAC
