# Cell file generated by matador (Matthew Evans 2016)

%BLOCK LATTICE_CART
4.78921 0.0 0.0
-3.17452 9.16145 0.0
4.58621 3.17928 7.74547
%ENDBLOCK LATTICE_CART

%BLOCK POSITIONS_FRAC
P           0.129604000000000    0.675251000000000    0.596685000000000 
P           0.498507000000000    0.187216000000000    0.332156000000000 
P           0.500000000000000    0.000000000000000    0.000000000000000 
P           0.500000000000000    0.500000000000000    0.500000000000000 
P           0.501493000000000    0.812784000000000    0.667844000000000 
P           0.870396000000000    0.324749000000000    0.403315000000000 
K           0.000000000000000    0.000000000000000    0.000000000000000 
K           0.000000000000000    0.000000000000000    0.500000000000000 
K           0.000000000000000    0.500000000000000    0.500000000000000 
K           0.500000000000000    0.000000000000000    0.500000000000000 
K           0.500000000000000    0.500000000000000    0.000000000000000 
%ENDBLOCK POSITIONS_FRAC
