# Cell file generated by matador (Matthew Evans 2016)

%BLOCK LATTICE_CART
4.56763 0.0 0.0
-2.28381 3.95568 0.0
0.0 0.0 17.9539
%ENDBLOCK LATTICE_CART

%BLOCK POSITIONS_FRAC
P           0.000000000000000    0.000000000000000    0.131563000000000 
P           0.000000000000000    0.000000000000000    0.821832000000000 
P           0.000000000000000    0.000000000000000    0.942405000000000 
P           0.666667000000000    0.333333000000000    0.082774000000000 
P           0.666667000000000    0.333333000000000    0.253049000000000 
P           0.666667000000000    0.333333000000000    0.320489000000000 
K           0.000000000000000    0.000000000000000    0.546563000000000 
K           0.000000000000000    0.000000000000000    0.702681000000000 
K           0.333333000000000    0.666667000000000    0.116533000000000 
K           0.333333000000000    0.666667000000000    0.531075000000000 
K           0.666667000000000    0.333333000000000    0.508482000000000 
%ENDBLOCK POSITIONS_FRAC
