# Cell file generated by matador (Matthew Evans 2016)

%BLOCK LATTICE_CART
8.1426 0.0 0.0
0.0 8.1426 0.0
0.0 0.0 6.71079
%ENDBLOCK LATTICE_CART

%BLOCK POSITIONS_FRAC
P           0.000000000000000    0.500000000000000    0.000000000000000 
P           0.000000000000000    0.500000000000000    0.500000000000000 
P           0.500000000000000    0.000000000000000    0.000000000000000 
P           0.500000000000000    0.000000000000000    0.500000000000000 
K           0.000000000000000    0.000000000000000    0.000000000000000 
K           0.134314000000000    0.760056000000000    0.500000000000000 
K           0.239944000000000    0.134314000000000    0.500000000000000 
K           0.260056000000000    0.634314000000000    0.000000000000000 
K           0.365686000000000    0.260056000000000    0.000000000000000 
K           0.500000000000000    0.500000000000000    0.500000000000000 
K           0.634314000000000    0.739944000000000    0.000000000000000 
K           0.739944000000000    0.365686000000000    0.000000000000000 
K           0.760056000000000    0.865686000000000    0.500000000000000 
K           0.865686000000000    0.239944000000000    0.500000000000000 
%ENDBLOCK POSITIONS_FRAC
