# Cell file generated by matador (Matthew Evans 2016)

%BLOCK LATTICE_CART
4.73419 0.0 0.0
0.0 8.10068 0.0
0.0 0.0 5.14783
%ENDBLOCK LATTICE_CART

%BLOCK POSITIONS_FRAC
P           0.000000000000000    0.500000000000000    0.023018000000000 
K           0.000000000000000    0.174804000000000    0.075262000000000 
K           0.000000000000000    0.825196000000000    0.075262000000000 
K           0.284931000000000    0.000000000000000    0.445063000000000 
K           0.715069000000000    0.000000000000000    0.445063000000000 
%ENDBLOCK POSITIONS_FRAC
