# Cell file generated by matador (Matthew Evans 2016)

%BLOCK LATTICE_CART
7.25938 0.0 0.0
0.0 7.25938 0.0
0.0 0.0 4.28367
%ENDBLOCK LATTICE_CART

%BLOCK POSITIONS_FRAC
P           0.234422000000000    0.246427000000000    0.784501000000000 
P           0.234422000000000    0.753573000000000    0.784501000000000 
P           0.246427000000000    0.234422000000000    0.284501000000000 
P           0.246427000000000    0.765578000000000    0.284501000000000 
P           0.500000000000000    0.500000000000000    0.026374000000000 
P           0.500000000000000    0.500000000000000    0.526374000000000 
P           0.753573000000000    0.234422000000000    0.284501000000000 
P           0.753573000000000    0.765578000000000    0.284501000000000 
P           0.765578000000000    0.246427000000000    0.784501000000000 
P           0.765578000000000    0.753573000000000    0.784501000000000 
K           0.000000000000000    0.500000000000000    0.327313000000000 
K           0.500000000000000    0.000000000000000    0.827313000000000 
%ENDBLOCK POSITIONS_FRAC
