# Cell file generated by matador (Matthew Evans 2016)

%BLOCK LATTICE_CART
5.22719 0.0 0.0
0.0 7.50706 0.0
0.0 0.0 7.8952
%ENDBLOCK LATTICE_CART

%BLOCK POSITIONS_FRAC
P           0.277223000000000    0.250000000000000    0.492254000000000 
P           0.277223000000000    0.750000000000000    0.992254000000000 
P           0.722777000000000    0.250000000000000    0.992254000000000 
P           0.722777000000000    0.750000000000000    0.492254000000000 
K          -0.000000000000000   -0.000000000000000    0.417763000000000 
K          -0.000000000000000   -0.000000000000000    0.917763000000000 
K          -0.000000000000000    0.500000000000000    0.417763000000000 
K          -0.000000000000000    0.500000000000000    0.917763000000000 
K           0.500000000000000   -0.000000000000000    0.048871000000000 
K           0.500000000000000   -0.000000000000000    0.548871000000000 
K           0.500000000000000    0.500000000000000    0.048871000000000 
K           0.500000000000000    0.500000000000000    0.548871000000000 
%ENDBLOCK POSITIONS_FRAC
