# Cell file generated by matador (Matthew Evans 2016)

%BLOCK LATTICE_CART
7.56783 0.0 0.0
0.0 8.42669 0.0
0.0 0.0 4.81369
%ENDBLOCK LATTICE_CART

%BLOCK POSITIONS_FRAC
P           0.230067000000000    0.198680000000000    0.615074000000000 
P           0.230067000000000    0.801320000000000    0.384926000000000 
P           0.500000000000000    0.048444000000000    0.250000000000000 
P           0.500000000000000    0.204498000000000    0.250000000000000 
P           0.500000000000000    0.795502000000000    0.750000000000000 
P           0.500000000000000    0.951556000000000    0.750000000000000 
P           0.769933000000000    0.198680000000000    0.884926000000000 
P           0.769933000000000    0.801320000000000    0.115074000000000 
K           0.296815000000000    0.305551000000000    0.040029000000000 
K           0.296815000000000    0.694449000000000    0.959971000000000 
K           0.703185000000000    0.305551000000000    0.459971000000000 
K           0.703185000000000    0.694449000000000    0.540029000000000 
%ENDBLOCK POSITIONS_FRAC
