# Cell file generated by matador (Matthew Evans 2016)

%BLOCK LATTICE_CART
5.40913 0.0 0.0
0.0 6.4536 0.0
0.0 0.0 5.23577
%ENDBLOCK LATTICE_CART

%BLOCK POSITIONS_FRAC
P           0.229831000000000    0.500000000000000    0.098503000000000 
P           0.380852000000000    0.252449000000000    0.249805000000000 
P           0.380852000000000    0.747551000000000    0.249805000000000 
P           0.619148000000000    0.252449000000000    0.249805000000000 
P           0.619148000000000    0.747551000000000    0.249805000000000 
P           0.770169000000000    0.500000000000000    0.098503000000000 
K           0.000000000000000    0.000000000000000    0.569046000000000 
%ENDBLOCK POSITIONS_FRAC
