# Cell file generated by matador (Matthew Evans 2016)

%BLOCK LATTICE_CART
9.31318 0.0 0.0
0.0 9.31318 0.0
0.0 0.0 7.00418
%ENDBLOCK LATTICE_CART

%BLOCK POSITIONS_FRAC
P          -0.000000000000000    0.000000000000000    0.000000000000000 
P          -0.000000000000000    0.000000000000000    0.500000000000000 
P           0.500000000000000    0.500000000000000    0.000000000000000 
P           0.500000000000000    0.500000000000000    0.500000000000000 
K          -0.000000000000000    0.500000000000000    0.000000000000000 
K          -0.000000000000000    0.500000000000000    0.500000000000000 
K           0.192128000000000    0.758555000000000    0.000000000000000 
K           0.241445000000000    0.192128000000000    0.000000000000000 
K           0.258555000000000    0.307872000000000    0.500000000000000 
K           0.307872000000000    0.741445000000000    0.500000000000000 
K           0.500000000000000    0.000000000000000    0.000000000000000 
K           0.500000000000000    0.000000000000000    0.500000000000000 
K           0.692128000000000    0.258555000000000    0.500000000000000 
K           0.741445000000000    0.692128000000000    0.500000000000000 
K           0.758555000000000    0.807872000000000    0.000000000000000 
K           0.807872000000000    0.241445000000000    0.000000000000000 
%ENDBLOCK POSITIONS_FRAC
