# Cell file generated by matador (Matthew Evans 2016)

%BLOCK LATTICE_CART
8.05913 0.0 0.0
0.0 7.5721 0.0
0.0 0.0 6.78284
%ENDBLOCK LATTICE_CART

%BLOCK POSITIONS_FRAC
P           0.000000000000000    0.340356000000000    0.500000000000000 
P           0.000000000000000    0.500000000000000    0.500000000000000 
P           0.000000000000000    0.659644000000000    0.500000000000000 
P           0.144277000000000    0.500000000000000    0.000000000000000 
P           0.265096000000000    0.000000000000000    0.500000000000000 
P           0.500000000000000    0.000000000000000    0.500000000000000 
P           0.500000000000000    0.197780000000000    0.500000000000000 
P           0.500000000000000    0.802220000000000    0.500000000000000 
P           0.734904000000000    0.000000000000000    0.500000000000000 
P           0.855723000000000    0.500000000000000    0.000000000000000 
K           0.341412000000000    0.287322000000000    0.142961000000000 
K           0.341412000000000    0.712678000000000    0.857039000000000 
K           0.658588000000000    0.287322000000000    0.857039000000000 
K           0.658588000000000    0.712678000000000    0.142961000000000 
%ENDBLOCK POSITIONS_FRAC
