# Cell file generated by matador (Matthew Evans 2016)

%BLOCK LATTICE_CART
9.18279 0.0 0.0
-4.5914 7.95253 0.0
0.0 0.0 8.81408
%ENDBLOCK LATTICE_CART

%BLOCK POSITIONS_FRAC
P           0.000000000000000    0.000000000000000    0.581707000000000 
P           0.000000000000000    0.000000000000000    0.951673000000000 
P           0.333333000000000    0.666667000000000    0.902064000000000 
P           0.666667000000000    0.333333000000000    0.902064000000000 
K           0.189383000000000    0.378766000000000    0.173826000000000 
K           0.189383000000000    0.810617000000000    0.173826000000000 
K           0.223290000000000    0.446580000000000    0.619712000000000 
K           0.223290000000000    0.776710000000000    0.619712000000000 
K           0.378766000000000    0.189383000000000    0.173826000000000 
K           0.446580000000000    0.223290000000000    0.619712000000000 
K           0.553420000000000    0.776710000000000    0.619712000000000 
K           0.621234000000000    0.810617000000000    0.173826000000000 
K           0.776710000000000    0.223290000000000    0.619712000000000 
K           0.776710000000000    0.553420000000000    0.619712000000000 
K           0.810617000000000    0.189383000000000    0.173826000000000 
K           0.810617000000000    0.621234000000000    0.173826000000000 
%ENDBLOCK POSITIONS_FRAC
