# Cell file generated by matador (Matthew Evans 2016)

%BLOCK LATTICE_CART
7.20358 0.0 0.0
0.0 7.70776 0.0
-0.652001 0.0 6.75189
%ENDBLOCK LATTICE_CART

%BLOCK POSITIONS_FRAC
P           0.007541000000000    0.322818000000000    0.236881000000000 
P           0.007541000000000    0.677182000000000    0.236881000000000 
P           0.055195000000000    0.500000000000000    0.667183000000000 
P           0.094599000000000    0.301786000000000    0.533880000000000 
P           0.094599000000000    0.698214000000000    0.533880000000000 
P           0.322147000000000    0.282665000000000    0.067580000000000 
P           0.322147000000000    0.717335000000000    0.067580000000000 
P           0.401490000000000    0.500000000000000    0.802832000000000 
P           0.441369000000000    0.500000000000000    0.637609000000000 
P           0.453202000000000    0.101824000000000    0.416931000000000 
P           0.453202000000000    0.898176000000000    0.416931000000000 
P           0.790883000000000    0.000000000000000    0.782252000000000 
K           0.676113000000000    0.357573000000000    0.399371000000000 
K           0.676113000000000    0.642427000000000    0.399371000000000 
%ENDBLOCK POSITIONS_FRAC
