# Cell file generated by matador (Matthew Evans 2016)

%BLOCK LATTICE_CART
6.4998 0.0 0.0
-3.2499 5.62899 0.0
0.0 0.0 10.0676
%ENDBLOCK LATTICE_CART

%BLOCK POSITIONS_FRAC
P           0.000000000000000    0.500000000000000    0.500000000000000 
P           0.333333000000000    0.666667000000000    0.116408000000000 
P           0.333333000000000    0.666667000000000    0.837389000000000 
P           0.500000000000000    0.000000000000000    0.500000000000000 
P           0.500000000000000    0.500000000000000    0.500000000000000 
P           0.666667000000000    0.333333000000000    0.162611000000000 
P           0.666667000000000    0.333333000000000    0.883592000000000 
K           0.000000000000000    0.000000000000000    0.500000000000000 
K           0.000000000000000    0.500000000000000    0.000000000000000 
K           0.333333000000000    0.666667000000000    0.406184000000000 
K           0.500000000000000    0.000000000000000    0.000000000000000 
K           0.500000000000000    0.500000000000000    0.000000000000000 
K           0.666667000000000    0.333333000000000    0.593816000000000 
%ENDBLOCK POSITIONS_FRAC
