# Cell file generated by matador (Matthew Evans 2016)

%BLOCK LATTICE_CART
11.2246 0.0 0.0
-5.61232 9.72082 0.0
0.0 0.0 9.50659
%ENDBLOCK LATTICE_CART

%BLOCK POSITIONS_FRAC
P           0.000000000000000    0.000000000000000    0.625227000000000 
P           0.000000000000000    0.000000000000000    0.927782000000000 
P           0.333333000000000    0.666667000000000    0.291893000000000 
P           0.333333000000000    0.666667000000000    0.594449000000000 
P           0.666667000000000    0.333333000000000    0.261115000000000 
P           0.666667000000000    0.333333000000000    0.958560000000000 
K           0.041990000000000    0.520995000000000    0.569898000000000 
K           0.061915000000000    0.530957000000000    0.040155000000000 
K           0.135709000000000    0.271419000000000    0.373488000000000 
K           0.135709000000000    0.864291000000000    0.373488000000000 
K           0.145672000000000    0.291343000000000    0.903232000000000 
K           0.145672000000000    0.854328000000000    0.903232000000000 
K           0.375323000000000    0.187662000000000    0.236565000000000 
K           0.395248000000000    0.197624000000000    0.706821000000000 
K           0.469043000000000    0.530957000000000    0.040155000000000 
K           0.469043000000000    0.938085000000000    0.040155000000000 
K           0.479005000000000    0.520995000000000    0.569898000000000 
K           0.479005000000000    0.958010000000000    0.569898000000000 
K           0.708657000000000    0.854328000000000    0.903232000000000 
K           0.728581000000000    0.864291000000000    0.373488000000000 
K           0.802376000000000    0.197624000000000    0.706821000000000 
K           0.802376000000000    0.604752000000000    0.706821000000000 
K           0.812338000000000    0.187662000000000    0.236565000000000 
K           0.812338000000000    0.624677000000000    0.236565000000000 
%ENDBLOCK POSITIONS_FRAC
