# Cell file generated by matador (Matthew Evans 2016)

%BLOCK LATTICE_CART
9.34555 0.0 0.0
-4.67278 8.09349 0.0
0.0 0.0 4.76193
%ENDBLOCK LATTICE_CART

%BLOCK POSITIONS_FRAC
P           0.000000000000000    0.500000000000000    0.065923000000000 
P           0.333333000000000    0.666667000000000    0.889173000000000 
P           0.500000000000000    0.000000000000000    0.065923000000000 
P           0.500000000000000    0.500000000000000    0.065923000000000 
P           0.666667000000000    0.333333000000000    0.889173000000000 
K           0.131457000000000    0.262914000000000    0.935088000000000 
K           0.131457000000000    0.868543000000000    0.935088000000000 
K           0.262914000000000    0.131457000000000    0.935088000000000 
K           0.737086000000000    0.868543000000000    0.935088000000000 
K           0.868543000000000    0.131457000000000    0.935088000000000 
K           0.868543000000000    0.737086000000000    0.935088000000000 
%ENDBLOCK POSITIONS_FRAC
