# Cell file generated by matador (Matthew Evans 2016)

%BLOCK LATTICE_CART
8.29155 0.0 0.0
-4.14578 7.1807 0.0
0.0 0.0 5.20372
%ENDBLOCK LATTICE_CART

%BLOCK POSITIONS_FRAC
P           0.333334000000000    0.666668000000000    0.500000000000000 
P           0.666668000000000    0.333334000000000    0.500000000000000 
K           0.131610000000000    0.802371000000000    0.000000000000000 
K           0.197631000000000    0.329239000000000    0.000000000000000 
K           0.329239000000000    0.131610000000000    0.000000000000000 
K           0.670763000000000    0.868392000000000    0.000000000000000 
K           0.802371000000000    0.670763000000000    0.000000000000000 
K           0.868392000000000    0.197631000000000    0.000000000000000 
%ENDBLOCK POSITIONS_FRAC
