# Cell file generated by matador (Matthew Evans 2016)

%BLOCK LATTICE_CART
13.7719 0.0 0.0
1.25581 8.73307 0.0
-2.64059 1.62101 5.01207
%ENDBLOCK LATTICE_CART

%BLOCK POSITIONS_FRAC
P           0.000000000000000    0.500000000000000    0.000000000000000 
P           0.044221000000000    0.684246000000000    0.760907000000000 
P           0.401789000000000    0.433108000000000    0.868472000000000 
P           0.500000000000000    0.500000000000000    0.000000000000000 
P           0.598211000000000    0.566892000000000    0.131528000000000 
P           0.955779000000000    0.315754000000000    0.239093000000000 
K           0.000000000000000    0.000000000000000    0.000000000000000 
K           0.000000000000000    0.000000000000000    0.500000000000000 
K           0.000000000000000    0.500000000000000    0.500000000000000 
K           0.219157000000000    0.503795000000000    0.124539000000000 
K           0.345237000000000    0.684491000000000    0.358436000000000 
K           0.500000000000000    0.000000000000000    0.000000000000000 
K           0.500000000000000    0.000000000000000    0.500000000000000 
K           0.500000000000000    0.500000000000000    0.500000000000000 
K           0.654763000000000    0.315509000000000    0.641564000000000 
K           0.780843000000000    0.496205000000000    0.875461000000000 
%ENDBLOCK POSITIONS_FRAC
