# Cell file generated by matador (Matthew Evans 2016)

%BLOCK LATTICE_CART
8.0649 0.0 0.0
-4.03245 6.9844 0.0
0.0 0.0 5.76817
%ENDBLOCK LATTICE_CART

%BLOCK POSITIONS_FRAC
P           0.000000000000000    0.500000000000000    0.309054000000000 
P           0.000000000000000    0.500000000000000    0.690946000000000 
P           0.333333000000000    0.666667000000000    0.249355000000000 
P           0.333333000000000    0.666667000000000    0.750645000000000 
P           0.500000000000000    0.000000000000000    0.309054000000000 
P           0.500000000000000    0.000000000000000    0.690946000000000 
P           0.500000000000000    0.500000000000000    0.309054000000000 
P           0.500000000000000    0.500000000000000    0.690946000000000 
P           0.666667000000000    0.333333000000000    0.249355000000000 
P           0.666667000000000    0.333333000000000    0.750645000000000 
K           0.000000000000000    0.000000000000000    0.000000000000000 
K           0.000000000000000    0.000000000000000    0.500000000000000 
%ENDBLOCK POSITIONS_FRAC
