# Cell file generated by matador (Matthew Evans 2016)

%BLOCK LATTICE_CART
9.75097 0.0 0.0
0.0 4.33149 0.0
0.0 0.0 9.00878
%ENDBLOCK LATTICE_CART

%BLOCK POSITIONS_FRAC
P           0.232472000000000    0.250000000000000    0.750000000000000 
P           0.250000000000000    0.000000000000000    0.881880000000000 
P           0.250000000000000    0.500000000000000    0.618120000000000 
P           0.267528000000000    0.750000000000000    0.750000000000000 
P           0.732472000000000    0.250000000000000    0.250000000000000 
P           0.750000000000000    0.000000000000000    0.118120000000000 
P           0.750000000000000    0.500000000000000    0.381880000000000 
P           0.767528000000000    0.750000000000000    0.250000000000000 
K           0.172119000000000    0.750000000000000    0.250000000000000 
K           0.327881000000000    0.250000000000000    0.250000000000000 
K           0.672119000000000    0.750000000000000    0.750000000000000 
K           0.827881000000000    0.250000000000000    0.750000000000000 
%ENDBLOCK POSITIONS_FRAC
