# Cell file generated by matador (Matthew Evans 2016)

%BLOCK LATTICE_CART
6.61239 0.0 0.0
-3.30619 5.7265 0.0
0.0 0.0 13.0901
%ENDBLOCK LATTICE_CART

%BLOCK POSITIONS_FRAC
P           0.000000000000000    0.500000000000000    0.000000000000000 
P           0.500000000000000    0.000000000000000    0.000000000000000 
P           0.500000000000000    0.500000000000000    0.000000000000000 
K           0.000000000000000    0.000000000000000    0.000000000000000 
K           0.000000000000000    0.000000000000000    0.500000000000000 
K           0.000000000000000    0.500000000000000    0.500000000000000 
K           0.333333000000000    0.666667000000000    0.072267000000000 
K           0.333333000000000    0.666667000000000    0.303691000000000 
K           0.500000000000000    0.000000000000000    0.500000000000000 
K           0.500000000000000    0.500000000000000    0.500000000000000 
K           0.666667000000000    0.333333000000000    0.696309000000000 
K           0.666667000000000    0.333333000000000    0.927733000000000 
%ENDBLOCK POSITIONS_FRAC
