# Cell file generated by matador (Matthew Evans 2016)

%BLOCK LATTICE_CART
7.50285 0.0 0.0
-3.75142 6.49766 0.0
0.0 0.0 6.92527
%ENDBLOCK LATTICE_CART

%BLOCK POSITIONS_FRAC
P           0.000000000000000    0.000000000000000    0.362500000000000 
P           0.000000000000000    0.000000000000000    0.637500000000000 
P           0.333333000000000    0.666667000000000    0.620345000000000 
P           0.666667000000000    0.333333000000000    0.379655000000000 
K           0.217387000000000    0.434774000000000    0.878472000000000 
K           0.217387000000000    0.782613000000000    0.878472000000000 
K           0.333333000000000    0.666667000000000    0.248203000000000 
K           0.434774000000000    0.217387000000000    0.121528000000000 
K           0.565226000000000    0.782613000000000    0.878472000000000 
K           0.666667000000000    0.333333000000000    0.751797000000000 
K           0.782613000000000    0.217387000000000    0.121528000000000 
K           0.782613000000000    0.565226000000000    0.121528000000000 
%ENDBLOCK POSITIONS_FRAC
