# Cell file generated by matador (Matthew Evans 2016)

%BLOCK LATTICE_CART
7.35962 0.0 0.0
-3.67981 6.37362 0.0
0.0 0.0 10.4854
%ENDBLOCK LATTICE_CART

%BLOCK POSITIONS_FRAC
P           0.333334000000000    0.666668000000000    0.000000000000000 
P           0.333334000000000    0.666668000000000    0.500000000000000 
P           0.666668000000000    0.333334000000000    0.000000000000000 
P           0.666668000000000    0.333334000000000    0.500000000000000 
K           0.000001000000000    0.000001000000000    0.250000000000000 
K           0.000001000000000    0.000001000000000    0.750000000000000 
K           0.000001000000000    0.266408000000000    0.146800000000000 
K           0.000001000000000    0.266408000000000    0.353200000000000 
K           0.000001000000000    0.733594000000000    0.646800000000000 
K           0.000001000000000    0.733594000000000    0.853200000000000 
K           0.266408000000000    0.000001000000000    0.146800000000000 
K           0.266408000000000    0.000001000000000    0.353200000000000 
K           0.266408000000000    0.266408000000000    0.646800000000000 
K           0.266408000000000    0.266408000000000    0.853200000000000 
K           0.733594000000000    0.000001000000000    0.646800000000000 
K           0.733594000000000    0.000001000000000    0.853200000000000 
K           0.733594000000000    0.733594000000000    0.146800000000000 
K           0.733594000000000    0.733594000000000    0.353200000000000 
%ENDBLOCK POSITIONS_FRAC
