# Cell file generated by matador (Matthew Evans 2016)

%BLOCK LATTICE_CART
6.02484 0.0 0.0
0.0 8.16369 0.0
1.42243 0.0 5.48888
%ENDBLOCK LATTICE_CART

%BLOCK POSITIONS_FRAC
P           0.182515000000000    0.000000000000000    0.778379000000000 
P           0.468265000000000    0.000000000000000    0.489331000000000 
K           0.229072000000000    0.000000000000000    0.284777000000000 
K           0.259451000000000    0.206062000000000    0.064235000000000 
K           0.259451000000000    0.793938000000000    0.064235000000000 
K           0.456731000000000    0.000000000000000    0.926179000000000 
K           0.757206000000000    0.500000000000000    0.869764000000000 
K           0.787059000000000    0.000000000000000    0.555697000000000 
K           0.949439000000000    0.000000000000000    0.129273000000000 
%ENDBLOCK POSITIONS_FRAC
