# Cell file generated by matador (Matthew Evans 2016)

%BLOCK LATTICE_CART
8.02652 0.0 0.0
0.0 5.72379 0.0
0.0 0.0 8.10935
%ENDBLOCK LATTICE_CART

%BLOCK POSITIONS_FRAC
P          -0.000000000000000    0.500000000000000    0.280196000000000 
P           0.500000000000000    0.000000000000000    0.780196000000000 
K          -0.000000000000000    0.000000000000000    0.203133000000000 
K          -0.000000000000000    0.000000000000000    0.535744000000000 
K           0.211061000000000    0.261482000000000    0.369069000000000 
K           0.288939000000000    0.761482000000000    0.869069000000000 
K           0.500000000000000    0.500000000000000    0.035744000000000 
K           0.500000000000000    0.500000000000000    0.703133000000000 
K           0.711061000000000    0.238518000000000    0.869069000000000 
K           0.788939000000000    0.738518000000000    0.369069000000000 
%ENDBLOCK POSITIONS_FRAC
