# Cell file generated by matador (Matthew Evans 2016)

%BLOCK LATTICE_CART
8.81397 0.0 0.0
0.0 8.81397 0.0
0.0 0.0 7.35428
%ENDBLOCK LATTICE_CART

%BLOCK POSITIONS_FRAC
P           0.000000000000000    0.000000000000000    0.000000000000000 
P           0.000000000000000    0.000000000000000    0.500000000000000 
P           0.297938000000000    0.500000000000000    0.512637000000000 
P           0.500000000000000    0.297938000000000    0.487363000000000 
P           0.500000000000000    0.500000000000000    0.000000000000000 
P           0.500000000000000    0.500000000000000    0.500000000000000 
P           0.500000000000000    0.702062000000000    0.487363000000000 
P           0.702062000000000    0.500000000000000    0.512637000000000 
K           0.224006000000000    0.500000000000000    0.242761000000000 
K           0.258795000000000    0.305741000000000    0.645551000000000 
K           0.258795000000000    0.694259000000000    0.645551000000000 
K           0.305741000000000    0.258795000000000    0.354449000000000 
K           0.305741000000000    0.741205000000000    0.354449000000000 
K           0.500000000000000    0.224006000000000    0.757239000000000 
K           0.500000000000000    0.775994000000000    0.757239000000000 
K           0.694259000000000    0.258795000000000    0.354449000000000 
K           0.694259000000000    0.741205000000000    0.354449000000000 
K           0.741205000000000    0.305741000000000    0.645551000000000 
K           0.741205000000000    0.694259000000000    0.645551000000000 
K           0.775994000000000    0.500000000000000    0.242761000000000 
%ENDBLOCK POSITIONS_FRAC
