# Cell file generated by matador (Matthew Evans 2016)

%BLOCK LATTICE_CART
8.78432 0.0 0.0
0.0 5.5047 0.0
1.1017 0.0 3.50588
%ENDBLOCK LATTICE_CART

%BLOCK POSITIONS_FRAC
P           0.098837000000000    0.500000000000000    0.484792000000000 
P           0.148052000000000    0.227943000000000    0.268605000000000 
P           0.148052000000000    0.772057000000000    0.268605000000000 
P           0.205373000000000    0.315672000000000    0.500755000000000 
P           0.205373000000000    0.684328000000000    0.500755000000000 
P           0.644395000000000    0.500000000000000    0.734228000000000 
K           0.906401000000000    0.500000000000000    0.055054000000000 
%ENDBLOCK POSITIONS_FRAC
