# Cell file generated by matador (Matthew Evans 2016)

%BLOCK LATTICE_CART
7.28705 0.0 0.0
0.0 7.28705 0.0
0.0 0.0 6.39253
%ENDBLOCK LATTICE_CART

%BLOCK POSITIONS_FRAC
P           0.000000000000000    0.139789000000000    0.500000000000000 
P           0.000000000000000    0.860211000000000    0.500000000000000 
P           0.139789000000000    0.000000000000000    0.500000000000000 
P           0.500000000000000    0.500000000000000    0.000000000000000 
P           0.500000000000000    0.500000000000000    0.156432000000000 
P           0.500000000000000    0.500000000000000    0.500000000000000 
P           0.500000000000000    0.500000000000000    0.843568000000000 
P           0.860211000000000    0.000000000000000    0.500000000000000 
K           0.000000000000000    0.500000000000000    0.000000000000000 
K           0.000000000000000    0.500000000000000    0.500000000000000 
K           0.500000000000000    0.000000000000000    0.000000000000000 
K           0.500000000000000    0.000000000000000    0.500000000000000 
%ENDBLOCK POSITIONS_FRAC
