# Cell file generated by matador (Matthew Evans 2016)

%BLOCK LATTICE_CART
6.46493 0.0 0.0
-3.81241 7.22731 0.0
0.424476 2.09099 5.87594
%ENDBLOCK LATTICE_CART

%BLOCK POSITIONS_FRAC
P           0.320686000000000    0.505069000000000    0.978612000000000 
P           0.679314000000000    0.494931000000000    0.021388000000000 
K           0.000000000000000    0.000000000000000    0.000000000000000 
K           0.304263000000000    0.977988000000000    0.276439000000000 
K           0.500000000000000    0.000000000000000    0.000000000000000 
K           0.500000000000000    0.000000000000000    0.500000000000000 
K           0.695737000000000    0.022012000000000    0.723561000000000 
%ENDBLOCK POSITIONS_FRAC
