# Cell file generated by matador (Matthew Evans 2016)

%BLOCK LATTICE_CART
6.80509 0.0 0.0
-3.40255 5.89338 0.0
0.0 0.0 7.72779
%ENDBLOCK LATTICE_CART

%BLOCK POSITIONS_FRAC
P           0.198918000000000    0.474705000000000    0.180129000000000 
P           0.217756000000000    0.172844000000000    0.566567000000000 
P           0.275788000000000    0.801082000000000    0.180129000000000 
P           0.439377000000000    0.173785000000000    0.882710000000000 
P           0.525295000000000    0.724212000000000    0.180129000000000 
P           0.666667000000000    0.333333000000000    0.950987000000000 
P           0.734408000000000    0.560623000000000    0.882710000000000 
P           0.826215000000000    0.265592000000000    0.882710000000000 
P           0.827156000000000    0.044912000000000    0.566567000000000 
P           0.955088000000000    0.782244000000000    0.566567000000000 
K           0.047087000000000    0.349472000000000    0.449925000000000 
K           0.302386000000000    0.952913000000000    0.449925000000000 
K           0.650528000000000    0.697614000000000    0.449925000000000 
K           0.666667000000000    0.333333000000000    0.247541000000000 
%ENDBLOCK POSITIONS_FRAC
