# Cell file generated by matador (Matthew Evans 2016)

%BLOCK LATTICE_CART
8.48389 0.0 0.0
0.0 8.18782 0.0
0.0 0.0 8.87552
%ENDBLOCK LATTICE_CART

%BLOCK POSITIONS_FRAC
P           0.000000000000000    0.500000000000000    0.500000000000000 
P           0.500000000000000    0.000000000000000    0.000000000000000 
K           0.000000000000000    0.000000000000000    0.000000000000000 
K           0.000000000000000    0.000000000000000    0.500000000000000 
K           0.000000000000000    0.500000000000000    0.000000000000000 
K           0.220116000000000    0.347462000000000    0.500000000000000 
K           0.220116000000000    0.652538000000000    0.500000000000000 
K           0.279884000000000    0.152538000000000    0.000000000000000 
K           0.279884000000000    0.847462000000000    0.000000000000000 
K           0.500000000000000    0.000000000000000    0.500000000000000 
K           0.500000000000000    0.500000000000000    0.000000000000000 
K           0.500000000000000    0.500000000000000    0.500000000000000 
K           0.720116000000000    0.152538000000000    0.000000000000000 
K           0.720116000000000    0.847462000000000    0.000000000000000 
K           0.779884000000000    0.347462000000000    0.500000000000000 
K           0.779884000000000    0.652538000000000    0.500000000000000 
%ENDBLOCK POSITIONS_FRAC
