# Cell file generated by matador (Matthew Evans 2016)

%BLOCK LATTICE_CART
5.65432 0.0 0.0
-2.82716 4.89678 0.0
0.0 0.0 5.34432
%ENDBLOCK LATTICE_CART

%BLOCK POSITIONS_FRAC
P           0.333333000000000    0.666667000000000    0.382823000000000 
P           0.333333000000000    0.666667000000000    0.617177000000000 
P           0.666667000000000    0.333333000000000    0.382823000000000 
P           0.666667000000000    0.333333000000000    0.617177000000000 
K           0.000000000000000    0.000000000000000    0.000000000000000 
%ENDBLOCK POSITIONS_FRAC
