# Cell file generated by matador (Matthew Evans 2016)

%BLOCK LATTICE_CART
9.14577 0.0 0.0
-4.57289 7.92047 0.0
0.0 0.0 13.6505
%ENDBLOCK LATTICE_CART

%BLOCK POSITIONS_FRAC
P           0.000000000000000   -0.000000000000000    0.244035000000000 
P           0.000000000000000   -0.000000000000000    0.683397000000000 
P           0.333333000000000    0.666667000000000    0.350064000000000 
P           0.333333000000000    0.666667000000000    0.910701000000000 
P           0.666667000000000    0.333333000000000    0.016731000000000 
P           0.666667000000000    0.333333000000000    0.577368000000000 
K           0.011490000000000    0.505745000000000    0.564896000000000 
K           0.160922000000000    0.321843000000000    0.898229000000000 
K           0.160922000000000    0.839078000000000    0.898229000000000 
K           0.186699000000000    0.373398000000000    0.329642000000000 
K           0.186699000000000    0.813301000000000    0.329642000000000 
K           0.293269000000000    0.146634000000000    0.662975000000000 
K           0.344823000000000    0.172412000000000    0.231562000000000 
K           0.494255000000000    0.505745000000000    0.564896000000000 
K           0.494255000000000    0.988510000000000    0.564896000000000 
K           0.520032000000000    0.040064000000000    0.996309000000000 
K           0.520032000000000    0.479968000000000    0.996309000000000 
K           0.626602000000000    0.813301000000000    0.329642000000000 
K           0.678157000000000    0.839078000000000    0.898229000000000 
K           0.827588000000000    0.172412000000000    0.231562000000000 
K           0.827588000000000    0.655177000000000    0.231562000000000 
K           0.853366000000000    0.146634000000000    0.662975000000000 
K           0.853366000000000    0.706731000000000    0.662975000000000 
K           0.959936000000000    0.479968000000000    0.996309000000000 
%ENDBLOCK POSITIONS_FRAC
