# Cell file generated by matador (Matthew Evans 2016)

%BLOCK LATTICE_CART
7.22823 0.0 0.0
-3.61411 6.25983 0.0
0.0 0.0 8.47098
%ENDBLOCK LATTICE_CART

%BLOCK POSITIONS_FRAC
P           0.000000000000000   -0.000000000000000    0.464874000000000 
P           0.000000000000000   -0.000000000000000    0.658673000000000 
P           0.333333000000000    0.666667000000000    0.131541000000000 
P           0.333333000000000    0.666667000000000    0.325340000000000 
P           0.666667000000000    0.333333000000000    0.798207000000000 
P           0.666667000000000    0.333333000000000    0.992007000000000 
K           0.029590000000000    0.514795000000000    0.470796000000000 
K           0.151872000000000    0.303744000000000    0.804130000000000 
K           0.151872000000000    0.848128000000000    0.804130000000000 
K           0.362923000000000    0.181461000000000    0.137463000000000 
K           0.485205000000000    0.514795000000000    0.470796000000000 
K           0.485205000000000    0.970410000000000    0.470796000000000 
K           0.696256000000000    0.848128000000000    0.804130000000000 
K           0.818539000000000    0.181461000000000    0.137463000000000 
K           0.818539000000000    0.637077000000000    0.137463000000000 
%ENDBLOCK POSITIONS_FRAC
