# Cell file generated by matador (Matthew Evans 2016)

%BLOCK LATTICE_CART
7.28301 0.0 0.0
-3.6415 6.30727 0.0
0.0 0.0 9.96789
%ENDBLOCK LATTICE_CART

%BLOCK POSITIONS_FRAC
P           0.333333000000000    0.666667000000000    0.691083000000000 
P           0.666666000000000    0.333334000000000    0.308917000000000 
K           0.017096000000000    0.275856000000000    0.629500000000000 
K           0.258760000000000    0.982904000000000    0.629500000000000 
K           0.275856000000000    0.017096000000000    0.370500000000000 
K           0.333333000000000    0.666667000000000    0.052219000000000 
K           0.333333000000000    0.666667000000000    0.369838000000000 
K           0.666666000000000    0.333334000000000    0.630162000000000 
K           0.666666000000000    0.333334000000000    0.947781000000000 
K           0.724144000000000    0.741240000000000    0.629500000000000 
K           0.741240000000000    0.724144000000000    0.370500000000000 
K           0.982904000000000    0.258760000000000    0.370500000000000 
%ENDBLOCK POSITIONS_FRAC
