# Cell file generated by matador (Matthew Evans 2016)

%BLOCK LATTICE_CART
7.29391 0.0 0.0
-0.93418 6.18603 0.0
4.44738 -2.77492 7.64416
%ENDBLOCK LATTICE_CART

%BLOCK POSITIONS_FRAC
P           0.000000000000000    0.500000000000000    0.000000000000000 
P           0.000000000000000    0.500000000000000    0.500000000000000 
P           0.346187000000000    0.122827000000000    0.875033000000000 
P           0.500000000000000    0.500000000000000    0.000000000000000 
P           0.500000000000000    0.500000000000000    0.500000000000000 
P           0.653813000000000    0.877173000000000    0.124967000000000 
K           0.000000000000000    0.000000000000000    0.000000000000000 
K           0.197168000000000    0.094986000000000    0.166459000000000 
K           0.326834000000000    0.737468000000000    0.887518000000000 
K           0.500000000000000    0.000000000000000    0.000000000000000 
K           0.673166000000000    0.262532000000000    0.112482000000000 
K           0.802832000000000    0.905014000000000    0.833541000000000 
%ENDBLOCK POSITIONS_FRAC
