# Cell file generated by matador (Matthew Evans 2016)

%BLOCK LATTICE_CART
7.75486 0.0 0.0
-0.463317 5.54198 0.0
1.41578 1.69361 4.24684
%ENDBLOCK LATTICE_CART

%BLOCK POSITIONS_FRAC
P           0.000000000000000    0.000000000000000    0.000000000000000 
P           0.000000000000000    0.000000000000000    0.500000000000000 
P           0.000000000000000    0.500000000000000    0.000000000000000 
P           0.063947000000000    0.194545000000000    0.534242000000000 
P           0.500000000000000    0.000000000000000    0.000000000000000 
P           0.936052000000000    0.805455000000000    0.465758000000000 
K           0.500000000000000    0.000000000000000    0.500000000000000 
%ENDBLOCK POSITIONS_FRAC
