# Cell file generated by matador (Matthew Evans 2016)

%BLOCK LATTICE_CART
8.27512 0.0 0.0
0.0 9.75353 0.0
-2.58875 0.0 6.40474
%ENDBLOCK LATTICE_CART

%BLOCK POSITIONS_FRAC
P           0.032325000000000    0.698067000000000    0.870303000000000 
P           0.072649000000000    0.628409000000000    0.757800000000000 
P           0.167015000000000    0.283007000000000    0.495847000000000 
P           0.230011000000000    0.193605000000000    0.590902000000000 
P           0.270802000000000    0.049528000000000    0.932349000000000 
P           0.382703000000000    0.714765000000000    0.168414000000000 
P           0.395453000000000    0.278026000000000    0.047425000000000 
P           0.604547000000000    0.778026000000000    0.952575000000000 
P           0.617297000000000    0.214765000000000    0.831586000000000 
P           0.729198000000000    0.549528000000000    0.067651000000000 
P           0.769989000000000    0.693605000000000    0.409098000000000 
P           0.832985000000000    0.783007000000000    0.504153000000000 
P           0.927351000000000    0.128409000000000    0.242200000000000 
P           0.967675000000000    0.198067000000000    0.129697000000000 
K           0.113546000000000    0.905720000000000    0.590682000000000 
K           0.291411000000000    0.763832000000000    0.751285000000000 
K           0.462641000000000    0.831363000000000    0.584521000000000 
K           0.537359000000000    0.331363000000000    0.415479000000000 
K           0.708589000000000    0.263832000000000    0.248715000000000 
K           0.886454000000000    0.405720000000000    0.409318000000000 
%ENDBLOCK POSITIONS_FRAC
