# Cell file generated by matador (Matthew Evans 2016)

%BLOCK LATTICE_CART
7.43055 0.0 0.0
0.0 5.3152 0.0
-2.04644 0.0 6.26563
%ENDBLOCK LATTICE_CART

%BLOCK POSITIONS_FRAC
P           0.000000000000000    0.176374000000000    0.500000000000000 
P           0.000000000000000    0.271944000000000    0.000000000000000 
P           0.016464000000000    0.442864000000000    0.093037000000000 
P           0.500000000000000    0.861140000000000    0.000000000000000 
P           0.983536000000000    0.442864000000000    0.906963000000000 
K           0.000000000000000    0.643619000000000    0.500000000000000 
K           0.188252000000000    0.228404000000000    0.811808000000000 
K           0.811748000000000    0.228404000000000    0.188192000000000 
%ENDBLOCK POSITIONS_FRAC
