# Cell file generated by matador (Matthew Evans 2016)

%BLOCK LATTICE_CART
7.16805 0.0 0.0
0.0 6.60761 0.0
0.0 0.0 6.97639
%ENDBLOCK LATTICE_CART

%BLOCK POSITIONS_FRAC
P           0.000000000000000    0.000000000000000    0.387414000000000 
P           0.500000000000000    0.500000000000000    0.887414000000000 
K           0.000000000000000    0.250906000000000    0.879242000000000 
K           0.000000000000000    0.500000000000000    0.384116000000000 
K           0.000000000000000    0.749094000000000    0.879242000000000 
K           0.500000000000000    0.000000000000000    0.884116000000000 
K           0.500000000000000    0.249094000000000    0.379242000000000 
K           0.500000000000000    0.750906000000000    0.379242000000000 
%ENDBLOCK POSITIONS_FRAC
