# Cell file generated by matador (Matthew Evans 2016)

%BLOCK LATTICE_CART
7.55125 -0.0 0.0
-3.77563 6.53958 0.0
0.0 0.0 8.68547
%ENDBLOCK LATTICE_CART

%BLOCK POSITIONS_FRAC
P           0.035572000000000    0.728805000000000    0.001846000000000 
P           0.271195000000000    0.306767000000000    0.001846000000000 
P           0.333333000000000    0.666667000000000    0.340541000000000 
P           0.666667000000000    0.333333000000000    0.318418000000000 
P           0.666667000000000    0.333333000000000    0.538118000000000 
P           0.666667000000000    0.333333000000000    0.657498000000000 
P           0.693233000000000    0.964428000000000    0.001846000000000 
K           0.293114000000000    0.105434000000000    0.746508000000000 
K           0.296424000000000    0.052822000000000    0.208950000000000 
K           0.756398000000000    0.703576000000000    0.208950000000000 
K           0.812320000000000    0.706886000000000    0.746508000000000 
K           0.894566000000000    0.187680000000000    0.746508000000000 
K           0.947178000000000    0.243602000000000    0.208950000000000 
%ENDBLOCK POSITIONS_FRAC
