# Cell file generated by matador (Matthew Evans 2016)

%BLOCK LATTICE_CART
12.7008 0.0 0.0
0.0 6.98024 0.0
0.0 0.0 11.6902
%ENDBLOCK LATTICE_CART

%BLOCK POSITIONS_FRAC
P           0.000000000000000    0.000000000000000    0.000000000000000 
P           0.000000000000000    0.000000000000000    0.500000000000000 
P           0.000000000000000    0.500000000000000    0.500000000000000 
P           0.500000000000000    0.000000000000000    0.000000000000000 
P           0.500000000000000    0.000000000000000    0.500000000000000 
P           0.500000000000000    0.500000000000000    0.500000000000000 
K           0.083303000000000    0.500000000000000    0.115660000000000 
K           0.085177000000000    0.000000000000000    0.751433000000000 
K           0.134445000000000    0.000000000000000    0.172590000000000 
K           0.250000000000000    0.291017000000000    0.726227000000000 
K           0.250000000000000    0.500000000000000    0.384420000000000 
K           0.250000000000000    0.708983000000000    0.726227000000000 
K           0.365555000000000    0.000000000000000    0.172590000000000 
K           0.414823000000000    0.000000000000000    0.751433000000000 
K           0.416697000000000    0.500000000000000    0.115660000000000 
K           0.583303000000000    0.500000000000000    0.884340000000000 
K           0.585177000000000    0.000000000000000    0.248567000000000 
K           0.634445000000000    0.000000000000000    0.827410000000000 
K           0.750000000000000    0.291017000000000    0.273773000000000 
K           0.750000000000000    0.500000000000000    0.615580000000000 
K           0.750000000000000    0.708983000000000    0.273773000000000 
K           0.865555000000000    0.000000000000000    0.827410000000000 
K           0.914823000000000    0.000000000000000    0.248567000000000 
K           0.916697000000000    0.500000000000000    0.884340000000000 
%ENDBLOCK POSITIONS_FRAC
