# Cell file generated by matador (Matthew Evans 2016)

%BLOCK LATTICE_CART
6.89463 0.0 0.0
-3.44732 5.97093 0.0
0.0 0.0 7.33184
%ENDBLOCK LATTICE_CART

%BLOCK POSITIONS_FRAC
P           0.295203000000000    0.147602000000000    0.000000000000000 
P           0.852398000000000    0.147602000000000    0.666667000000000 
P           0.852398000000000    0.704797000000000    0.333333000000000 
K           0.184774000000000    0.369549000000000    0.333333000000000 
K           0.184774000000000    0.815226000000000    0.666667000000000 
K           0.630451000000000    0.815226000000000    0.000000000000000 
K           0.636645000000000    0.273291000000000    0.333333000000000 
K           0.636645000000000    0.363355000000000    0.666667000000000 
K           0.726709000000000    0.363355000000000    0.000000000000000 
%ENDBLOCK POSITIONS_FRAC
