# Cell file generated by matador (Matthew Evans 2016)

%BLOCK LATTICE_CART
6.70704 0.0 0.0
0.0 6.70704 0.0
0.0 0.0 8.04142
%ENDBLOCK LATTICE_CART

%BLOCK POSITIONS_FRAC
P           0.000000000000000    0.000000000000000    0.000000000000000 
P           0.000000000000000    0.500000000000000    0.796785000000000 
P           0.500000000000000    0.000000000000000    0.203215000000000 
P           0.500000000000000    0.500000000000000    0.000000000000000 
P           0.500000000000000    0.500000000000000    0.500000000000000 
K           0.000000000000000    0.500000000000000    0.503873000000000 
K           0.212465000000000    0.383910000000000    0.049066000000000 
K           0.383910000000000    0.787535000000000    0.950934000000000 
K           0.500000000000000    0.000000000000000    0.496127000000000 
K           0.616090000000000    0.212465000000000    0.950934000000000 
K           0.787535000000000    0.616090000000000    0.049066000000000 
%ENDBLOCK POSITIONS_FRAC
