# Cell file generated by matador (Matthew Evans 2016)

%BLOCK LATTICE_CART
7.35689 0.0 0.0
-3.67844 6.37125 0.0
0.0 0.0 7.58272
%ENDBLOCK LATTICE_CART

%BLOCK POSITIONS_FRAC
P           0.242777000000000    0.487571000000000    0.600546000000000 
P           0.244794000000000    0.757223000000000    0.600546000000000 
P           0.487571000000000    0.244794000000000    0.399454000000000 
P           0.512429000000000    0.755206000000000    0.600546000000000 
P           0.755206000000000    0.242777000000000    0.399454000000000 
P           0.757223000000000    0.512429000000000    0.399454000000000 
K           0.000000000000000    0.000000000000000    0.000000000000000 
K           0.000000000000000    0.500000000000000    0.000000000000000 
K           0.000000000000000    0.500000000000000    0.500000000000000 
K           0.500000000000000    0.000000000000000    0.000000000000000 
K           0.500000000000000    0.000000000000000    0.500000000000000 
K           0.500000000000000    0.500000000000000    0.000000000000000 
K           0.500000000000000    0.500000000000000    0.500000000000000 
%ENDBLOCK POSITIONS_FRAC
