# Cell file generated by matador (Matthew Evans 2016)

%BLOCK LATTICE_CART
7.04225 -0.0 0.0
-3.52112 6.09876 0.0
0.0 0.0 8.39042
%ENDBLOCK LATTICE_CART

%BLOCK POSITIONS_FRAC
P           0.000000000000000    0.000000000000000    0.957159000000000 
P           0.468836000000000    0.054920000000000    0.867812000000000 
P           0.586083000000000    0.531164000000000    0.867812000000000 
P           0.666667000000000    0.333333000000000    0.818098000000000 
P           0.945080000000000    0.413917000000000    0.867812000000000 
K           0.000000000000000    0.000000000000000    0.355556000000000 
K           0.333333000000000    0.666667000000000    0.694451000000000 
K           0.400047000000000    0.202380000000000    0.559693000000000 
K           0.666667000000000    0.333333000000000    0.399849000000000 
K           0.797620000000000    0.197667000000000    0.559693000000000 
K           0.802333000000000    0.599953000000000    0.559693000000000 
%ENDBLOCK POSITIONS_FRAC
