# Cell file generated by matador (Matthew Evans 2016)

%BLOCK LATTICE_CART
8.62345 0.0 0.0
0.0 8.62345 0.0
0.0 0.0 6.24056
%ENDBLOCK LATTICE_CART

%BLOCK POSITIONS_FRAC
P           0.000000000000000    0.000000000000000    0.000000000000000 
P           0.000000000000000    0.000000000000000    0.500000000000000 
P           0.000000000000000    0.312480000000000    0.500000000000000 
P           0.000000000000000    0.500000000000000    0.000000000000000 
P           0.000000000000000    0.687520000000000    0.500000000000000 
P           0.115122000000000    0.500000000000000    0.500000000000000 
P           0.312480000000000    0.000000000000000    0.000000000000000 
P           0.500000000000000    0.000000000000000    0.500000000000000 
P           0.500000000000000    0.115122000000000    0.000000000000000 
P           0.500000000000000    0.884878000000000    0.000000000000000 
P           0.687520000000000    0.000000000000000    0.000000000000000 
P           0.884878000000000    0.500000000000000    0.500000000000000 
K           0.226212000000000    0.242739000000000    0.000000000000000 
K           0.226212000000000    0.757261000000000    0.000000000000000 
K           0.242739000000000    0.226212000000000    0.500000000000000 
K           0.242739000000000    0.773788000000000    0.500000000000000 
K           0.757261000000000    0.226212000000000    0.500000000000000 
K           0.757261000000000    0.773788000000000    0.500000000000000 
K           0.773788000000000    0.242739000000000    0.000000000000000 
K           0.773788000000000    0.757261000000000    0.000000000000000 
%ENDBLOCK POSITIONS_FRAC
