# Cell file generated by matador (Matthew Evans 2016)

%BLOCK LATTICE_CART
8.26848 0.0 0.0
-4.13424 7.16072 0.0
0.0 0.0 6.61186
%ENDBLOCK LATTICE_CART

%BLOCK POSITIONS_FRAC
P           0.000000000000000    0.231256000000000    0.500000000000000 
P           0.231256000000000    0.000000000000000    0.500000000000000 
P           0.333333000000000    0.666667000000000    0.192787000000000 
P           0.333333000000000    0.666667000000000    0.807213000000000 
P           0.666667000000000    0.333333000000000    0.192787000000000 
P           0.666667000000000    0.333333000000000    0.807213000000000 
P           0.768744000000000    0.768744000000000    0.500000000000000 
K           0.000000000000000    0.000000000000000    0.000000000000000 
K           0.000000000000000    0.000000000000000    0.500000000000000 
K           0.000000000000000    0.471624000000000    0.000000000000000 
K           0.471624000000000    0.000000000000000    0.000000000000000 
K           0.528376000000000    0.528376000000000    0.000000000000000 
%ENDBLOCK POSITIONS_FRAC
