# Cell file generated by matador (Matthew Evans 2016)

%BLOCK LATTICE_CART
9.26295 0.0 0.0
-4.63147 8.02195 0.0
0.0 0.0 8.73515
%ENDBLOCK LATTICE_CART

%BLOCK POSITIONS_FRAC
P           0.333332000000000    0.666666000000000    0.250000000000000 
P           0.333332000000000    0.666666000000000    0.750000000000000 
P           0.666666000000000    0.333332000000000    0.250000000000000 
P           0.666666000000000    0.333332000000000    0.750000000000000 
K           0.999999000000000    0.499999000000000    0.000000000000000 
K           0.999999000000000    0.499999000000000    0.500000000000000 
K           0.150736000000000    0.394970000000000    0.750000000000000 
K           0.244233000000000    0.849262000000000    0.750000000000000 
K           0.394970000000000    0.244233000000000    0.250000000000000 
K           0.499999000000000    0.999999000000000    0.000000000000000 
K           0.499999000000000    0.999999000000000    0.500000000000000 
K           0.499999000000000    0.499999000000000    0.000000000000000 
K           0.499999000000000    0.499999000000000    0.500000000000000 
K           0.605028000000000    0.755765000000000    0.750000000000000 
K           0.755765000000000    0.150736000000000    0.250000000000000 
K           0.849262000000000    0.605028000000000    0.250000000000000 
%ENDBLOCK POSITIONS_FRAC
