# Cell file generated by matador (Matthew Evans 2016)

%BLOCK LATTICE_CART
5.06397 0.0 0.0
-2.53198 4.38552 0.0
0.0 0.0 12.5279
%ENDBLOCK LATTICE_CART

%BLOCK POSITIONS_FRAC
P           0.000000000000000    0.610607000000000   -0.000000000000000 
P           0.056060000000000    0.722727000000000    0.333333000000000 
P           0.277273000000000    0.333333000000000    0.333333000000000 
P           0.333333000000000    0.277273000000000    0.666667000000000 
P           0.389393000000000    0.389393000000000   -0.000000000000000 
P           0.610607000000000   -0.000000000000000   -0.000000000000000 
P           0.666667000000000    0.943940000000000    0.333333000000000 
P           0.722727000000000    0.056060000000000    0.666667000000000 
P           0.943940000000000    0.666667000000000    0.666667000000000 
K           0.000000000000000   -0.000000000000000   -0.000000000000000 
K           0.333333000000000    0.666667000000000    0.666667000000000 
K           0.666667000000000    0.333333000000000    0.333333000000000 
%ENDBLOCK POSITIONS_FRAC
