# Cell file generated by matador (Matthew Evans 2016)

%BLOCK LATTICE_CART
5.19232 0.0 0.0
0.0 9.89213 0.0
0.0 0.0 5.81055
%ENDBLOCK LATTICE_CART

%BLOCK POSITIONS_FRAC
P           0.000000000000000    0.000000000000000    0.661607000000000 
P           0.000000000000000    0.500000000000000    0.690055000000000 
P           0.000000000000000    0.500000000000000    0.989265000000000 
P           0.175677000000000    0.740112000000000    0.520574000000000 
P           0.324323000000000    0.240112000000000    0.479426000000000 
P           0.500000000000000    0.000000000000000    0.010735000000000 
P           0.500000000000000    0.000000000000000    0.309945000000000 
P           0.500000000000000    0.500000000000000    0.338393000000000 
P           0.675677000000000    0.759888000000000    0.479426000000000 
P           0.824323000000000    0.259888000000000    0.520574000000000 
K           0.137661000000000    0.196660000000000    0.938638000000000 
K           0.362339000000000    0.696660000000000    0.061362000000000 
K           0.637661000000000    0.303340000000000    0.061362000000000 
K           0.862339000000000    0.803340000000000    0.938638000000000 
%ENDBLOCK POSITIONS_FRAC
