# Cell file generated by matador (Matthew Evans 2016)

%BLOCK LATTICE_CART
10.8807 0.0 0.0
-5.44036 9.42298 0.0
0.0 0.0 10.8999
%ENDBLOCK LATTICE_CART

%BLOCK POSITIONS_FRAC
P           0.050876000000000    0.320376000000000    0.005784000000000 
P           0.050876000000000    0.730499000000000    0.005784000000000 
P           0.269501000000000    0.320376000000000    0.005784000000000 
P           0.269501000000000    0.949124000000000    0.005784000000000 
P           0.333334000000000    0.666666000000000    0.394080000000000 
P           0.679624000000000    0.730499000000000    0.005784000000000 
P           0.679624000000000    0.949124000000000    0.005784000000000 
K           0.109628000000000    0.219255000000000    0.125212000000000 
K           0.109628000000000    0.890372000000000    0.125212000000000 
K           0.113832000000000    0.556916000000000    0.345131000000000 
K           0.153824000000000    0.307648000000000    0.411356000000000 
K           0.153824000000000    0.846176000000000    0.411356000000000 
K           0.245112000000000    0.122556000000000    0.818700000000000 
K           0.388408000000000    0.194204000000000    0.349802000000000 
K           0.443084000000000    0.556916000000000    0.345131000000000 
K           0.443084000000000    0.886168000000000    0.345131000000000 
K           0.561709000000000    0.123418000000000    0.852772000000000 
K           0.561709000000000    0.438291000000000    0.852772000000000 
K           0.570725000000000    0.141450000000000    0.533815000000000 
K           0.570725000000000    0.429275000000000    0.533815000000000 
K           0.692352000000000    0.846176000000000    0.411356000000000 
K           0.780745000000000    0.890372000000000    0.125212000000000 
K           0.805796000000000    0.194204000000000    0.349802000000000 
K           0.805796000000000    0.611592000000000    0.349802000000000 
K           0.858550000000000    0.429275000000000    0.533815000000000 
K           0.876582000000000    0.438291000000000    0.852772000000000 
K           0.877444000000000    0.122556000000000    0.818700000000000 
K           0.877444000000000    0.754888000000000    0.818700000000000 
%ENDBLOCK POSITIONS_FRAC
