# Cell file generated by matador (Matthew Evans 2016)

%BLOCK LATTICE_CART
6.83831 0.0 0.0
0.0 9.61829 0.0
0.0 0.0 6.12941
%ENDBLOCK LATTICE_CART

%BLOCK POSITIONS_FRAC
P          -0.000000000000000    0.322805000000000    0.780632000000000 
P          -0.000000000000000    0.677195000000000    0.280632000000000 
P           0.500000000000000    0.177195000000000    0.280632000000000 
P           0.500000000000000    0.822805000000000    0.780632000000000 
K          -0.000000000000000    0.003442000000000    0.085978000000000 
K          -0.000000000000000    0.370321000000000    0.135099000000000 
K          -0.000000000000000    0.629679000000000    0.635099000000000 
K          -0.000000000000000    0.996558000000000    0.585978000000000 
K           0.500000000000000    0.129679000000000    0.635099000000000 
K           0.500000000000000    0.496558000000000    0.585978000000000 
K           0.500000000000000    0.503442000000000    0.085978000000000 
K           0.500000000000000    0.870321000000000    0.135099000000000 
%ENDBLOCK POSITIONS_FRAC
