# Cell file generated by matador (Matthew Evans 2016)

%BLOCK LATTICE_CART
4.74818 0.0 0.0
1.85514 8.40396 0.0
-0.0454455 3.79034 6.753
%ENDBLOCK LATTICE_CART

%BLOCK POSITIONS_FRAC
P           0.191131000000000    0.677307000000000    0.535833000000000 
P           0.808869000000000    0.322693000000000    0.464167000000000 
K           0.000000000000000    0.000000000000000    0.000000000000000 
K           0.000000000000000    0.500000000000000    0.000000000000000 
K           0.500000000000000    0.000000000000000    0.000000000000000 
K           0.500000000000000    0.500000000000000    0.000000000000000 
K           0.500000000000000    0.500000000000000    0.500000000000000 
%ENDBLOCK POSITIONS_FRAC
