# Cell file generated by matador (Matthew Evans 2016)

%BLOCK LATTICE_CART
5.78879 0.0 0.0
1.61707 8.82329 0.0
0.841014 -1.16705 6.83601
%ENDBLOCK LATTICE_CART

%BLOCK POSITIONS_FRAC
P           0.318249000000000    0.533316000000000    0.493405000000000 
P           0.681751000000000    0.466684000000000    0.506595000000000 
K           0.000000000000000    0.500000000000000    0.000000000000000 
K           0.000000000000000    0.500000000000000    0.500000000000000 
K           0.053603000000000    0.277453000000000    0.377723000000000 
K           0.473607000000000    0.287353000000000    0.852688000000000 
K           0.500000000000000    0.500000000000000    0.000000000000000 
K           0.526393000000000    0.712647000000000    0.147312000000000 
K           0.946397000000000    0.722547000000000    0.622277000000000 
%ENDBLOCK POSITIONS_FRAC
