# Cell file generated by matador (Matthew Evans 2016)

%BLOCK LATTICE_CART
8.97775 0.0 0.0
-1.93015 4.80807 0.0
1.01334 2.02729 5.4832
%ENDBLOCK LATTICE_CART

%BLOCK POSITIONS_FRAC
P           0.000000000000000    0.000000000000000    0.500000000000000 
P           0.000000000000000    0.500000000000000    0.000000000000000 
P           0.000000000000000    0.500000000000000    0.500000000000000 
P           0.174270000000000    0.727181000000000    0.616532000000000 
P           0.500000000000000    0.500000000000000    0.000000000000000 
P           0.825730000000000    0.272819000000000    0.383468000000000 
K           0.325158000000000    0.789319000000000    0.126916000000000 
K           0.674842000000000    0.210681000000000    0.873084000000000 
%ENDBLOCK POSITIONS_FRAC
