# Cell file generated by matador (Matthew Evans 2016)

%BLOCK LATTICE_CART
13.6803 0.0 0.0
0.0 7.45399 0.0
2.25766 0.0 6.04813
%ENDBLOCK LATTICE_CART

%BLOCK POSITIONS_FRAC
P           0.124950000000000    0.250049000000000    0.402198000000000 
P           0.198582000000000    0.091175000000000    0.073712000000000 
P           0.301418000000000    0.591175000000000    0.926288000000000 
P           0.375050000000000    0.750049000000000    0.597802000000000 
P           0.624950000000000    0.750049000000000    0.402198000000000 
P           0.698582000000000    0.591175000000000    0.073712000000000 
P           0.801418000000000    0.091175000000000    0.926288000000000 
P           0.875050000000000    0.250049000000000    0.597802000000000 
K           0.000000000000000    0.959093000000000    0.500000000000000 
K           0.093945000000000    0.820203000000000    0.996314000000000 
K           0.164631000000000    0.767403000000000    0.394163000000000 
K           0.335369000000000    0.267403000000000    0.605837000000000 
K           0.406055000000000    0.320203000000000    0.003686000000000 
K           0.500000000000000    0.459093000000000    0.500000000000000 
K           0.593945000000000    0.320203000000000    0.996314000000000 
K           0.664631000000000    0.267403000000000    0.394163000000000 
K           0.835369000000000    0.767403000000000    0.605837000000000 
K           0.906055000000000    0.820203000000000    0.003686000000000 
%ENDBLOCK POSITIONS_FRAC
