# Cell file generated by matador (Matthew Evans 2016)

%BLOCK LATTICE_CART
8.64718 0.0 0.0
-4.32359 7.48868 0.0
0.0 0.0 6.81355
%ENDBLOCK LATTICE_CART

%BLOCK POSITIONS_FRAC
P          -0.000000000000000    0.500000000000000    0.000000000000000 
P          -0.000000000000000    0.500000000000000    0.500000000000000 
P           0.333333000000000    0.666667000000000    0.373847000000000 
P           0.333333000000000    0.666667000000000    0.626153000000000 
P           0.500000000000000   -0.000000000000000    0.000000000000000 
P           0.500000000000000   -0.000000000000000    0.500000000000000 
P           0.500000000000000    0.500000000000000    0.000000000000000 
P           0.500000000000000    0.500000000000000    0.500000000000000 
P           0.666667000000000    0.333333000000000    0.373847000000000 
P           0.666667000000000    0.333333000000000    0.626153000000000 
K           0.186403000000000    0.410258000000000    0.500000000000000 
K           0.223855000000000    0.813597000000000    0.500000000000000 
K           0.410258000000000    0.223855000000000    0.500000000000000 
K           0.589742000000000    0.776145000000000    0.500000000000000 
K           0.776145000000000    0.186403000000000    0.500000000000000 
K           0.813597000000000    0.589742000000000    0.500000000000000 
%ENDBLOCK POSITIONS_FRAC
