# Cell file generated by matador (Matthew Evans 2016)

%BLOCK LATTICE_CART
5.82751 0.0 0.0
-2.91376 5.04677 0.0
0.0 0.0 6.17391
%ENDBLOCK LATTICE_CART

%BLOCK POSITIONS_FRAC
P           0.000000000000000    0.000000000000000    0.167085000000000 
P           0.000000000000000    0.000000000000000    0.832915000000000 
K           0.000000000000000    0.000000000000000    0.500000000000000 
K           0.333333000000000    0.666667000000000    0.000000000000000 
K           0.333333000000000    0.666667000000000    0.500000000000000 
K           0.666667000000000    0.333333000000000    0.000000000000000 
K           0.666667000000000    0.333333000000000    0.500000000000000 
%ENDBLOCK POSITIONS_FRAC
