# Cell file generated by matador (Matthew Evans 2016)

%BLOCK LATTICE_CART
6.69013 0.0 0.0
-3.34507 5.79383 0.0
0.0 0.0 9.04761
%ENDBLOCK LATTICE_CART

%BLOCK POSITIONS_FRAC
P           0.000000000000000    0.000000000000000    0.114535000000000 
P           0.000000000000000    0.000000000000000    0.274064000000000 
P           0.000000000000000    0.000000000000000    0.932635000000000 
P           0.333333000000000    0.666667000000000    0.077530000000000 
P           0.333333000000000    0.666667000000000    0.476899000000000 
P           0.333333000000000    0.666667000000000    0.611995000000000 
P           0.666667000000000    0.333333000000000    0.077530000000000 
P           0.666667000000000    0.333333000000000    0.476899000000000 
P           0.666667000000000    0.333333000000000    0.611995000000000 
K           0.000000000000000    0.500000000000000    0.371124000000000 
K           0.500000000000000    0.000000000000000    0.371124000000000 
K           0.500000000000000    0.500000000000000    0.371124000000000 
%ENDBLOCK POSITIONS_FRAC
