# Cell file generated by matador (Matthew Evans 2016)

%BLOCK LATTICE_CART
7.75816 0.0 0.0
-3.87908 6.71876 0.0
0.0 0.0 8.581
%ENDBLOCK LATTICE_CART

%BLOCK POSITIONS_FRAC
P           0.000000000000000    0.000000000000000    0.646515000000000 
P           0.333333000000000    0.666667000000000    0.313182000000000 
P           0.666667000000000    0.333333000000000    0.979849000000000 
K           0.168000000000000    0.335999000000000    0.741124000000000 
K           0.168000000000000    0.832000000000000    0.741124000000000 
K           0.330668000000000    0.165334000000000    0.074457000000000 
K           0.501333000000000    0.002666000000000    0.407791000000000 
K           0.501333000000000    0.498667000000000    0.407791000000000 
K           0.664001000000000    0.832000000000000    0.741124000000000 
K           0.834666000000000    0.165334000000000    0.074457000000000 
K           0.834666000000000    0.669332000000000    0.074457000000000 
K           0.997334000000000    0.498667000000000    0.407791000000000 
%ENDBLOCK POSITIONS_FRAC
