# Cell file generated by matador (Matthew Evans 2016)

%BLOCK LATTICE_CART
9.22509 0.0 0.0
0.0 6.95585 0.0
1.8963 0.0 11.2563
%ENDBLOCK LATTICE_CART

%BLOCK POSITIONS_FRAC
P           0.095041000000000    0.746102000000000    0.304496000000000 
P           0.095041000000000    0.753898000000000    0.804496000000000 
P           0.904959000000000    0.246102000000000    0.195504000000000 
P           0.904959000000000    0.253898000000000    0.695504000000000 
K           0.000000000000000    0.000000000000000    0.000000000000000 
K           0.000000000000000    0.000000000000000    0.500000000000000 
K           0.000000000000000    0.500000000000000    0.000000000000000 
K           0.000000000000000    0.500000000000000    0.500000000000000 
K           0.269657000000000    0.249387000000000    0.182856000000000 
K           0.269657000000000    0.250613000000000    0.682856000000000 
K           0.361440000000000    0.125391000000000    0.934969000000000 
K           0.361440000000000    0.374609000000000    0.434969000000000 
K           0.500000000000000    0.000000000000000    0.500000000000000 
K           0.500000000000000    0.500000000000000    0.000000000000000 
K           0.638560000000000    0.625391000000000    0.565031000000000 
K           0.638560000000000    0.874609000000000    0.065031000000000 
K           0.730343000000000    0.749387000000000    0.317144000000000 
K           0.730343000000000    0.750613000000000    0.817144000000000 
%ENDBLOCK POSITIONS_FRAC
