# Cell file generated by matador (Matthew Evans 2016)

%BLOCK LATTICE_CART
6.35955 0.0 0.0
0.0 8.95935 0.0
0.0 0.0 7.86079
%ENDBLOCK LATTICE_CART

%BLOCK POSITIONS_FRAC
P          -0.000000000000000    0.000000000000000    0.228177000000000 
P          -0.000000000000000    0.000000000000000    0.771823000000000 
P          -0.000000000000000    0.500000000000000    0.500000000000000 
P           0.500000000000000    0.000000000000000    0.000000000000000 
P           0.500000000000000    0.500000000000000    0.271823000000000 
P           0.500000000000000    0.500000000000000    0.728177000000000 
K           0.177874000000000    0.500000000000000    0.190303000000000 
K           0.177874000000000    0.500000000000000    0.809697000000000 
K           0.322126000000000    0.000000000000000    0.309697000000000 
K           0.322126000000000    0.000000000000000    0.690303000000000 
K           0.677874000000000    0.000000000000000    0.309697000000000 
K           0.677874000000000    0.000000000000000    0.690303000000000 
K           0.822126000000000    0.500000000000000    0.190303000000000 
K           0.822126000000000    0.500000000000000    0.809697000000000 
%ENDBLOCK POSITIONS_FRAC
