# Cell file generated by matador (Matthew Evans 2016)

%BLOCK LATTICE_CART
6.05224 0.0 0.0
0.0 6.05224 0.0
0.0 0.0 7.42648
%ENDBLOCK LATTICE_CART

%BLOCK POSITIONS_FRAC
P           0.000000000000000    0.500000000000000    0.337628000000000 
P           0.130909000000000    0.314121000000000    0.976878000000000 
P           0.314121000000000    0.869091000000000    0.023122000000000 
P           0.500000000000000    0.000000000000000    0.662372000000000 
P           0.500000000000000    0.500000000000000    0.000000000000000 
P           0.685879000000000    0.130909000000000    0.023122000000000 
P           0.869091000000000    0.685879000000000    0.976878000000000 
K           0.000000000000000    0.000000000000000    0.000000000000000 
K           0.000000000000000    0.000000000000000    0.500000000000000 
K           0.500000000000000    0.500000000000000    0.500000000000000 
%ENDBLOCK POSITIONS_FRAC
