# Cell file generated by matador (Matthew Evans 2016)

%BLOCK LATTICE_CART
6.20368 0.0 0.0
-3.10184 5.37254 0.0
0.0 0.0 15.995
%ENDBLOCK LATTICE_CART

%BLOCK POSITIONS_FRAC
P           0.333332000000000    0.666666000000000    0.275741000000000 
P           0.333332000000000    0.666666000000000    0.698374000000000 
P           0.666666000000000    0.333332000000000    0.198374000000000 
P           0.666666000000000    0.333332000000000    0.775741000000000 
K           0.053473000000000    0.526736000000000    0.474159000000000 
K           0.333332000000000    0.666666000000000    0.053542000000000 
K           0.333332000000000    0.666666000000000    0.860311000000000 
K           0.473262000000000    0.526736000000000    0.474159000000000 
K           0.473262000000000    0.946525000000000    0.474159000000000 
K           0.526736000000000    0.053473000000000    0.974159000000000 
K           0.526736000000000    0.473262000000000    0.974159000000000 
K           0.666666000000000    0.333332000000000    0.360311000000000 
K           0.666666000000000    0.333332000000000    0.553542000000000 
K           0.946525000000000    0.473262000000000    0.974159000000000 
%ENDBLOCK POSITIONS_FRAC
