# Cell file generated by matador (Matthew Evans 2016)

%BLOCK LATTICE_CART
8.12751 0.0 0.0
-4.06376 7.03863 0.0
0.0 0.0 7.13721
%ENDBLOCK LATTICE_CART

%BLOCK POSITIONS_FRAC
P           0.333333000000000    0.666667000000000    0.860083000000000 
P           0.666666000000000    0.333334000000000    0.969287000000000 
K           0.006423000000000    0.308034000000000    0.428175000000000 
K           0.006423000000000    0.698391000000000    0.428175000000000 
K           0.301609000000000    0.308034000000000    0.428175000000000 
K           0.301609000000000    0.993577000000000    0.428175000000000 
K           0.333333000000000    0.666667000000000    0.417882000000000 
K           0.666666000000000    0.333334000000000    0.360927000000000 
K           0.691966000000000    0.698391000000000    0.428175000000000 
K           0.691966000000000    0.993577000000000    0.428175000000000 
%ENDBLOCK POSITIONS_FRAC
