# Cell file generated by matador (Matthew Evans 2016)

%BLOCK LATTICE_CART
8.10165 0.0 0.0
0.0 8.10165 0.0
0.0 0.0 4.76402
%ENDBLOCK LATTICE_CART

%BLOCK POSITIONS_FRAC
P           0.000000000000000    0.000000000000000    0.000000000000000 
P           0.000000000000000    0.000000000000000    0.500000000000000 
P           0.000000000000000    0.283558000000000    0.028860000000000 
P           0.000000000000000    0.716442000000000    0.028860000000000 
P           0.216442000000000    0.500000000000000    0.471140000000000 
P           0.283558000000000    0.000000000000000    0.971140000000000 
P           0.500000000000000    0.216442000000000    0.528860000000000 
P           0.500000000000000    0.500000000000000    0.000000000000000 
P           0.500000000000000    0.500000000000000    0.500000000000000 
P           0.500000000000000    0.783558000000000    0.528860000000000 
P           0.716442000000000    0.000000000000000    0.971140000000000 
P           0.783558000000000    0.500000000000000    0.471140000000000 
K           0.000000000000000    0.500000000000000    0.750000000000000 
K           0.500000000000000    0.000000000000000    0.250000000000000 
%ENDBLOCK POSITIONS_FRAC
