# Cell file generated by matador (Matthew Evans 2016)

%BLOCK LATTICE_CART
8.17439 0.0 0.0
-4.0872 7.07923 0.0
0.0 0.0 6.29226
%ENDBLOCK LATTICE_CART

%BLOCK POSITIONS_FRAC
P           0.000000000000000    0.000000000000000    0.588182000000000 
P           0.576577000000000    0.421565000000000    0.421275000000000 
P           0.578435000000000    0.155012000000000    0.421275000000000 
P           0.844988000000000    0.423423000000000    0.421275000000000 
K           0.000000000000000    0.000000000000000    0.238219000000000 
K           0.107292000000000    0.784715000000000    0.744899000000000 
K           0.215285000000000    0.322577000000000    0.744899000000000 
K           0.333333000000000    0.666667000000000    0.539907000000000 
K           0.666667000000000    0.333333000000000    0.961120000000000 
K           0.677423000000000    0.892708000000000    0.744899000000000 
%ENDBLOCK POSITIONS_FRAC
