# Cell file generated by matador (Matthew Evans 2016)

%BLOCK LATTICE_CART
6.9765 0.0 0.0
0.0 6.9765 0.0
0.0 0.0 9.98857
%ENDBLOCK LATTICE_CART

%BLOCK POSITIONS_FRAC
P           0.000000000000000    0.000000000000000    0.000000000000000 
P           0.500000000000000    0.500000000000000    0.000000000000000 
P           0.500000000000000    0.500000000000000    0.500000000000000 
K           0.000000000000000    0.000000000000000    0.500000000000000 
K           0.000000000000000    0.228038000000000    0.175832000000000 
K           0.000000000000000    0.771962000000000    0.175832000000000 
K           0.228038000000000    0.000000000000000    0.824168000000000 
K           0.243811000000000    0.500000000000000    0.750190000000000 
K           0.500000000000000    0.243811000000000    0.249810000000000 
K           0.500000000000000    0.756189000000000    0.249810000000000 
K           0.756189000000000    0.500000000000000    0.750190000000000 
K           0.771962000000000    0.000000000000000    0.824168000000000 
%ENDBLOCK POSITIONS_FRAC
