# Cell file generated by matador (Matthew Evans 2016)

%BLOCK LATTICE_CART
9.77154 0.0 0.0
-4.88577 8.4624 0.0
0.0 0.0 8.46215
%ENDBLOCK LATTICE_CART

%BLOCK POSITIONS_FRAC
P           0.333334000000000    0.666668000000000    0.250000000000000 
P           0.333334000000000    0.666668000000000    0.750000000000000 
P           0.666668000000000    0.333334000000000    0.250000000000000 
P           0.666668000000000    0.333334000000000    0.750000000000000 
K           0.000001000000000    0.500001000000000   -0.000000000000000 
K           0.000001000000000    0.500001000000000    0.500000000000000 
K           0.187718000000000    0.432494000000000    0.750000000000000 
K           0.244776000000000    0.812284000000000    0.750000000000000 
K           0.432494000000000    0.244776000000000    0.250000000000000 
K           0.500001000000000    0.000001000000000   -0.000000000000000 
K           0.500001000000000    0.000001000000000    0.500000000000000 
K           0.500001000000000    0.500001000000000   -0.000000000000000 
K           0.500001000000000    0.500001000000000    0.500000000000000 
K           0.567508000000000    0.755226000000000    0.750000000000000 
K           0.755226000000000    0.187718000000000    0.250000000000000 
K           0.812284000000000    0.567508000000000    0.250000000000000 
%ENDBLOCK POSITIONS_FRAC
