# Cell file generated by matador (Matthew Evans 2016)

%BLOCK LATTICE_CART
6.59772 0.0 0.0
0.0 6.59772 0.0
0.0 0.0 6.48601
%ENDBLOCK LATTICE_CART

%BLOCK POSITIONS_FRAC
P           0.000000000000000    0.000000000000000    0.153635000000000 
P           0.000000000000000    0.000000000000000    0.346365000000000 
P           0.000000000000000    0.000000000000000    0.653635000000000 
P           0.000000000000000    0.000000000000000    0.846365000000000 
P           0.000000000000000    0.500000000000000    0.000000000000000 
P           0.500000000000000    0.000000000000000    0.500000000000000 
K           0.000000000000000    0.500000000000000    0.500000000000000 
K           0.500000000000000    0.000000000000000    0.000000000000000 
K           0.500000000000000    0.500000000000000    0.250000000000000 
K           0.500000000000000    0.500000000000000    0.750000000000000 
%ENDBLOCK POSITIONS_FRAC
