# Cell file generated by matador (Matthew Evans 2016)

%BLOCK LATTICE_CART
7.55258 0.0 0.0
-3.77629 6.54073 0.0
0.0 0.0 8.68458
%ENDBLOCK LATTICE_CART

%BLOCK POSITIONS_FRAC
P           0.000000000000000    0.000000000000000    0.000000000000000 
P           0.000000000000000    0.000000000000000    0.500000000000000 
P           0.333333000000000    0.666667000000000    0.019707000000000 
P           0.333333000000000    0.666667000000000    0.480293000000000 
P           0.666667000000000    0.333333000000000    0.519707000000000 
P           0.666667000000000    0.333333000000000    0.980293000000000 
K           0.000117000000000    0.299371000000000    0.250000000000000 
K           0.299254000000000    0.999883000000000    0.250000000000000 
K           0.299371000000000    0.000117000000000    0.750000000000000 
K           0.333333000000000    0.666667000000000    0.250000000000000 
K           0.333333000000000    0.666667000000000    0.750000000000000 
K           0.666667000000000    0.333333000000000    0.250000000000000 
K           0.666667000000000    0.333333000000000    0.750000000000000 
K           0.700629000000000    0.700746000000000    0.250000000000000 
K           0.700746000000000    0.700629000000000    0.750000000000000 
K           0.999883000000000    0.299254000000000    0.750000000000000 
%ENDBLOCK POSITIONS_FRAC
