# Cell file generated by matador (Matthew Evans 2016)

%BLOCK LATTICE_CART
7.464 0.0 0.0
-3.732 6.46402 0.0
0.0 0.0 5.33492
%ENDBLOCK LATTICE_CART

%BLOCK POSITIONS_FRAC
P          -0.000000000000000    0.000000000000000    0.898552000000000 
P           0.143139000000000    0.793710000000000    0.695992000000000 
P           0.206290000000000    0.349429000000000    0.695992000000000 
P           0.274783000000000    0.265509000000000    0.454346000000000 
P           0.650571000000000    0.856861000000000    0.695992000000000 
P           0.734491000000000    0.009274000000000    0.454346000000000 
P           0.990726000000000    0.725217000000000    0.454346000000000 
K           0.333333000000000    0.666667000000000    0.914890000000000 
K           0.666666000000000    0.333334000000000    0.501734000000000 
%ENDBLOCK POSITIONS_FRAC
