# Cell file generated by matador (Matthew Evans 2016)

%BLOCK LATTICE_CART
8.01476 0.0 0.0
0.0 8.01476 0.0
0.0 0.0 7.97545
%ENDBLOCK LATTICE_CART

%BLOCK POSITIONS_FRAC
P           0.000000000000000    0.500000000000000    0.500000000000000 
P           0.101841000000000    0.101841000000000    0.750000000000000 
P           0.101841000000000    0.898159000000000    0.250000000000000 
P           0.500000000000000    0.000000000000000    0.000000000000000 
P           0.500000000000000    0.500000000000000    0.000000000000000 
P           0.500000000000000    0.500000000000000    0.176546000000000 
P           0.500000000000000    0.500000000000000    0.323454000000000 
P           0.500000000000000    0.500000000000000    0.500000000000000 
P           0.500000000000000    0.500000000000000    0.676546000000000 
P           0.500000000000000    0.500000000000000    0.823454000000000 
P           0.898159000000000    0.101841000000000    0.250000000000000 
P           0.898159000000000    0.898159000000000    0.750000000000000 
K           0.000000000000000    0.500000000000000    0.000000000000000 
K           0.500000000000000    0.000000000000000    0.500000000000000 
%ENDBLOCK POSITIONS_FRAC
