# Cell file generated by matador (Matthew Evans 2016)

%BLOCK LATTICE_CART
8.70134 0.0 0.0
-4.35067 7.53558 0.0
0.0 0.0 8.98156
%ENDBLOCK LATTICE_CART

%BLOCK POSITIONS_FRAC
P           0.000000000000000    0.000000000000000    0.000000000000000 
P           0.000000000000000    0.000000000000000    0.500000000000000 
P           0.000000000000000    0.301502000000000    0.000000000000000 
P           0.000000000000000    0.698498000000000    0.000000000000000 
P           0.301502000000000    0.000000000000000    0.000000000000000 
P           0.301502000000000    0.301502000000000    0.000000000000000 
P           0.698498000000000    0.000000000000000    0.000000000000000 
P           0.698498000000000    0.698498000000000    0.000000000000000 
K           0.116086000000000    0.232173000000000    0.345607000000000 
K           0.116086000000000    0.883914000000000    0.345607000000000 
K           0.232173000000000    0.116086000000000    0.654393000000000 
K           0.333333000000000    0.666667000000000    0.578813000000000 
K           0.333333000000000    0.666667000000000    0.944763000000000 
K           0.666667000000000    0.333333000000000    0.055237000000000 
K           0.666667000000000    0.333333000000000    0.421187000000000 
K           0.767827000000000    0.883914000000000    0.345607000000000 
K           0.883914000000000    0.116086000000000    0.654393000000000 
K           0.883914000000000    0.767827000000000    0.654393000000000 
%ENDBLOCK POSITIONS_FRAC
