# Cell file generated by matador (Matthew Evans 2016)

%BLOCK LATTICE_CART
5.96048 0.0 0.0
-2.98024 5.16192 0.0
0.0 0.0 10.6324
%ENDBLOCK LATTICE_CART

%BLOCK POSITIONS_FRAC
P           0.000000000000000    0.000000000000000    0.471879000000000 
P           0.333333000000000    0.666667000000000    0.630764000000000 
P           0.333333000000000    0.666667000000000    0.742183000000000 
P           0.666667000000000    0.333333000000000    0.630764000000000 
P           0.666667000000000    0.333333000000000    0.742183000000000 
K           0.000000000000000    0.000000000000000    0.902676000000000 
K           0.000000000000000    0.500000000000000    0.304316000000000 
K           0.000000000000000    0.500000000000000    0.499674000000000 
K           0.500000000000000    0.000000000000000    0.304316000000000 
K           0.500000000000000    0.000000000000000    0.499674000000000 
K           0.500000000000000    0.500000000000000    0.304316000000000 
K           0.500000000000000    0.500000000000000    0.499674000000000 
%ENDBLOCK POSITIONS_FRAC
