# Cell file generated by matador (Matthew Evans 2016)

%BLOCK LATTICE_CART
14.2033 0.0 0.0
0.0 14.2033 0.0
0.0 0.0 6.38581
%ENDBLOCK LATTICE_CART

%BLOCK POSITIONS_FRAC
P           0.000000000000000    0.236668000000000    0.240262000000000 
P           0.000000000000000    0.763332000000000    0.240262000000000 
P           0.236668000000000    0.500000000000000    0.490262000000000 
P           0.263332000000000    0.000000000000000    0.990262000000000 
P           0.500000000000000    0.263332000000000    0.740262000000000 
P           0.500000000000000    0.736668000000000    0.740262000000000 
P           0.736668000000000    0.000000000000000    0.990262000000000 
P           0.763332000000000    0.500000000000000    0.490262000000000 
K           0.000000000000000    0.120818000000000    0.014907000000000 
K           0.000000000000000    0.154674000000000    0.526997000000000 
K           0.000000000000000    0.351553000000000    0.882734000000000 
K           0.000000000000000    0.648447000000000    0.882734000000000 
K           0.000000000000000    0.845326000000000    0.526997000000000 
K           0.000000000000000    0.879182000000000    0.014907000000000 
K           0.120818000000000    0.500000000000000    0.264907000000000 
K           0.148447000000000    0.000000000000000    0.632734000000000 
K           0.154674000000000    0.500000000000000    0.776997000000000 
K           0.345326000000000    0.000000000000000    0.276997000000000 
K           0.351553000000000    0.500000000000000    0.132734000000000 
K           0.379182000000000    0.000000000000000    0.764907000000000 
K           0.500000000000000    0.148447000000000    0.382734000000000 
K           0.500000000000000    0.345326000000000    0.026997000000000 
K           0.500000000000000    0.379182000000000    0.514907000000000 
K           0.500000000000000    0.620818000000000    0.514907000000000 
K           0.500000000000000    0.654674000000000    0.026997000000000 
K           0.500000000000000    0.851553000000000    0.382734000000000 
K           0.620818000000000    0.000000000000000    0.764907000000000 
K           0.648447000000000    0.500000000000000    0.132734000000000 
K           0.654674000000000    0.000000000000000    0.276997000000000 
K           0.845326000000000    0.500000000000000    0.776997000000000 
K           0.851553000000000    0.000000000000000    0.632734000000000 
K           0.879182000000000    0.500000000000000    0.264907000000000 
%ENDBLOCK POSITIONS_FRAC
