# Cell file generated by matador (Matthew Evans 2016)

%BLOCK LATTICE_CART
14.3012 0.0 0.0
0.0 6.28149 0.0
0.0 0.0 6.96786
%ENDBLOCK LATTICE_CART

%BLOCK POSITIONS_FRAC
P           0.250000000000000   -0.000000000000000    0.438093000000000 
P           0.250000000000000    0.500000000000000    0.061907000000000 
P           0.750000000000000   -0.000000000000000    0.561907000000000 
P           0.750000000000000    0.500000000000000    0.938093000000000 
K          -0.000000000000000   -0.000000000000000    0.000000000000000 
K          -0.000000000000000   -0.000000000000000    0.500000000000000 
K          -0.000000000000000    0.500000000000000    0.000000000000000 
K          -0.000000000000000    0.500000000000000    0.500000000000000 
K           0.245792000000000    0.250000000000000    0.250000000000000 
K           0.254208000000000    0.750000000000000    0.250000000000000 
K           0.500000000000000   -0.000000000000000    0.000000000000000 
K           0.500000000000000   -0.000000000000000    0.500000000000000 
K           0.500000000000000    0.500000000000000    0.000000000000000 
K           0.500000000000000    0.500000000000000    0.500000000000000 
K           0.745792000000000    0.250000000000000    0.750000000000000 
K           0.754208000000000    0.750000000000000    0.750000000000000 
%ENDBLOCK POSITIONS_FRAC
