# Cell file generated by matador (Matthew Evans 2016)

%BLOCK LATTICE_CART
6.11906 0.0 0.0
0.0 7.39561 0.0
0.0 0.0 15.2413
%ENDBLOCK LATTICE_CART

%BLOCK POSITIONS_FRAC
P           0.000000000000000   -0.000000000000000    0.000000000000000 
P           0.000000000000000    0.500000000000000    0.500000000000000 
P           0.500000000000000   -0.000000000000000    0.000000000000000 
P           0.500000000000000    0.500000000000000    0.500000000000000 
K           0.000000000000000   -0.000000000000000    0.500000000000000 
K           0.000000000000000    0.256484000000000    0.291151000000000 
K           0.000000000000000    0.256484000000000    0.708849000000000 
K           0.000000000000000    0.500000000000000    0.000000000000000 
K           0.000000000000000    0.743516000000000    0.291151000000000 
K           0.000000000000000    0.743516000000000    0.708849000000000 
K           0.500000000000000   -0.000000000000000    0.500000000000000 
K           0.500000000000000    0.243516000000000    0.208849000000000 
K           0.500000000000000    0.243516000000000    0.791151000000000 
K           0.500000000000000    0.500000000000000    0.000000000000000 
K           0.500000000000000    0.756484000000000    0.208849000000000 
K           0.500000000000000    0.756484000000000    0.791151000000000 
%ENDBLOCK POSITIONS_FRAC
