# Cell file generated by matador (Matthew Evans 2016)

%BLOCK LATTICE_CART
11.2421 0.0 0.0
-2.03751 5.88174 0.0
1.13328 3.53441 5.88751
%ENDBLOCK LATTICE_CART

%BLOCK POSITIONS_FRAC
P           0.000000000000000    0.000000000000000    0.500000000000000 
P           0.500000000000000    0.500000000000000    0.000000000000000 
K           0.000000000000000    0.000000000000000    0.000000000000000 
K           0.000000000000000    0.500000000000000    0.000000000000000 
K           0.000000000000000    0.500000000000000    0.500000000000000 
K           0.224552000000000    0.001935000000000    0.796633000000000 
K           0.500000000000000    0.000000000000000    0.000000000000000 
K           0.500000000000000    0.000000000000000    0.500000000000000 
K           0.500000000000000    0.500000000000000    0.500000000000000 
K           0.775448000000000    0.998065000000000    0.203367000000000 
%ENDBLOCK POSITIONS_FRAC
