# Cell file generated by matador (Matthew Evans 2016)

%BLOCK LATTICE_CART
6.61272 0.0 0.0
0.202712 4.47086 0.0
-0.284576 0.0216905 5.9763
%ENDBLOCK LATTICE_CART

%BLOCK POSITIONS_FRAC
P           0.000000000000000    0.000000000000000    0.000000000000000 
P           0.000000000000000    0.000000000000000    0.500000000000000 
P           0.022384000000000    0.950883000000000    0.668826000000000 
P           0.500000000000000    0.000000000000000    0.000000000000000 
P           0.500000000000000    0.500000000000000    0.500000000000000 
P           0.977616000000000    0.049117000000000    0.331174000000000 
K           0.026511000000000    0.436816000000000    0.667581000000000 
K           0.973489000000000    0.563184000000000    0.332419000000000 
%ENDBLOCK POSITIONS_FRAC
