# Cell file generated by matador (Matthew Evans 2016)

%BLOCK LATTICE_CART
7.68187 0.0 0.0
-3.84094 6.6527 0.0
0.0 0.0 9.99659
%ENDBLOCK LATTICE_CART

%BLOCK POSITIONS_FRAC
P           0.000000000000000    0.000000000000000   -0.000000000000000 
P           0.000000000000000    0.000000000000000    0.166666000000000 
P           0.000000000000000    0.000000000000000    0.333333000000000 
P           0.000000000000000    0.000000000000000    0.500000000000000 
P           0.000000000000000    0.000000000000000    0.666667000000000 
P           0.000000000000000    0.000000000000000    0.833333000000000 
K           0.000000000000000    0.500000000000000    0.166666000000000 
K           0.000000000000000    0.500000000000000    0.666667000000000 
K           0.300631000000000    0.650315000000000    0.666667000000000 
K           0.349685000000000    0.650315000000000    0.333333000000000 
K           0.349685000000000    0.699369000000000   -0.000000000000000 
K           0.500000000000000    0.000000000000000   -0.000000000000000 
K           0.500000000000000    0.000000000000000    0.500000000000000 
K           0.500000000000000    0.500000000000000    0.333333000000000 
K           0.500000000000000    0.500000000000000    0.833333000000000 
K           0.650315000000000    0.300631000000000   -0.000000000000000 
K           0.650315000000000    0.349685000000000    0.333333000000000 
K           0.699369000000000    0.349685000000000    0.666667000000000 
%ENDBLOCK POSITIONS_FRAC
