# Cell file generated by matador (Matthew Evans 2016)

%BLOCK LATTICE_CART
7.89504 0.0 0.0
0.0 7.1792 0.0
0.294566 0.0 3.07044
%ENDBLOCK LATTICE_CART

%BLOCK POSITIONS_FRAC
P           0.049924000000000    0.000000000000000    0.829598000000000 
P           0.057204000000000    0.500000000000000    0.123586000000000 
P           0.248467000000000    0.000000000000000    0.053245000000000 
P           0.395391000000000    0.373985000000000    0.761063000000000 
P           0.395391000000000    0.626015000000000    0.761063000000000 
P           0.720549000000000    0.500000000000000    0.209356000000000 
K           0.878291000000000    0.000000000000000    0.357376000000000 
%ENDBLOCK POSITIONS_FRAC
