# Cell file generated by matador (Matthew Evans 2016)

%BLOCK LATTICE_CART
7.37171 0.0 0.0
-3.68586 6.38409 0.0
0.0 0.0 8.95541
%ENDBLOCK LATTICE_CART

%BLOCK POSITIONS_FRAC
P           0.000000000000000    0.000000000000000    0.687816000000000 
P           0.171116000000000    0.023806000000000    0.730185000000000 
P           0.186023000000000    0.495551000000000    0.396851000000000 
P           0.309528000000000    0.813977000000000    0.396851000000000 
P           0.333333000000000    0.666667000000000    0.354483000000000 
P           0.504449000000000    0.690472000000000    0.396851000000000 
P           0.519356000000000    0.162217000000000    0.063518000000000 
P           0.642861000000000    0.480644000000000    0.063518000000000 
P           0.666667000000000    0.333333000000000    0.021149000000000 
P           0.837783000000000    0.357139000000000    0.063518000000000 
P           0.852690000000000    0.828884000000000    0.730185000000000 
P           0.976194000000000    0.147310000000000    0.730185000000000 
K           0.000000000000000    0.000000000000000    0.234921000000000 
K           0.333333000000000    0.666667000000000    0.901588000000000 
K           0.666667000000000    0.333333000000000    0.568254000000000 
%ENDBLOCK POSITIONS_FRAC
