# Cell file generated by matador (Matthew Evans 2016)

%BLOCK LATTICE_CART
8.10869 0.0 0.0
-4.05434 7.02233 0.0
0.0 0.0 7.53304
%ENDBLOCK LATTICE_CART

%BLOCK POSITIONS_FRAC
P           0.000000000000000    0.253351000000000    0.500000000000000 
P           0.000000000000000    0.746649000000000    0.500000000000000 
P           0.253351000000000    0.000000000000000    0.500000000000000 
P           0.253351000000000    0.253351000000000    0.500000000000000 
P           0.746649000000000    0.000000000000000    0.500000000000000 
P           0.746649000000000    0.746649000000000    0.500000000000000 
K           0.000000000000000    0.000000000000000    0.000000000000000 
K           0.000000000000000    0.000000000000000    0.500000000000000 
K           0.000000000000000    0.500000000000000    0.000000000000000 
K           0.000000000000000    0.500000000000000    0.500000000000000 
K           0.500000000000000    0.000000000000000    0.000000000000000 
K           0.500000000000000    0.000000000000000    0.500000000000000 
K           0.500000000000000    0.500000000000000    0.000000000000000 
K           0.500000000000000    0.500000000000000    0.500000000000000 
%ENDBLOCK POSITIONS_FRAC
