# Cell file generated by matador (Matthew Evans 2016)

%BLOCK LATTICE_CART
6.23899 0.0 0.0
0.0 7.45312 0.0
-3.45472 0.0 8.07189
%ENDBLOCK LATTICE_CART

%BLOCK POSITIONS_FRAC
P           0.059943000000000    0.500000000000000    0.921208000000000 
P           0.257733000000000    0.000000000000000    0.233758000000000 
P           0.654474000000000    0.203715000000000    0.113026000000000 
P           0.654474000000000    0.796285000000000    0.113026000000000 
K           0.154159000000000    0.317068000000000    0.118706000000000 
K           0.154159000000000    0.682932000000000    0.118706000000000 
K           0.293774000000000    0.225568000000000    0.934469000000000 
K           0.293774000000000    0.774432000000000    0.934469000000000 
K           0.384810000000000    0.000000000000000    0.563387000000000 
K           0.844572000000000    0.000000000000000    0.837723000000000 
K           0.920340000000000    0.000000000000000    0.397260000000000 
%ENDBLOCK POSITIONS_FRAC
