# Cell file generated by matador (Matthew Evans 2016)

%BLOCK LATTICE_CART
6.21501 0.0 0.0
-3.1075 5.38235 0.0
0.0 0.0 9.40459
%ENDBLOCK LATTICE_CART

%BLOCK POSITIONS_FRAC
P           0.000000000000000    0.000000000000000    0.000000000000000 
P           0.000000000000000    0.500000000000000    0.404472000000000 
P           0.000000000000000    0.500000000000000    0.595528000000000 
P           0.500000000000000    0.000000000000000    0.404472000000000 
P           0.500000000000000    0.000000000000000    0.595528000000000 
P           0.500000000000000    0.500000000000000    0.404472000000000 
P           0.500000000000000    0.500000000000000    0.595528000000000 
K           0.000000000000000    0.000000000000000    0.500000000000000 
K           0.333333000000000    0.666667000000000    0.000000000000000 
K           0.666667000000000    0.333333000000000    0.000000000000000 
%ENDBLOCK POSITIONS_FRAC
