# Cell file generated by matador (Matthew Evans 2016)

%BLOCK LATTICE_CART
6.47263 0.0 0.0
-3.23631 5.60546 0.0
0.0 0.0 14.8125
%ENDBLOCK LATTICE_CART

%BLOCK POSITIONS_FRAC
P           0.027690000000000    0.513845000000000    0.825927000000000 
P           0.152821000000000    0.305643000000000    0.159260000000000 
P           0.152821000000000    0.847179000000000    0.159260000000000 
P           0.361024000000000    0.180512000000000    0.492593000000000 
P           0.486155000000000    0.513845000000000    0.825927000000000 
P           0.486155000000000    0.972310000000000    0.825927000000000 
P           0.694357000000000    0.847179000000000    0.159260000000000 
P           0.819488000000000    0.180512000000000    0.492593000000000 
P           0.819488000000000    0.638976000000000    0.492593000000000 
K           0.000000000000000    0.000000000000000    0.373786000000000 
K           0.000000000000000    0.000000000000000    0.729794000000000 
K           0.333333000000000    0.666667000000000    0.040452000000000 
K           0.333333000000000    0.666667000000000    0.396461000000000 
K           0.666667000000000    0.333333000000000    0.063127000000000 
K           0.666667000000000    0.333333000000000    0.707119000000000 
%ENDBLOCK POSITIONS_FRAC
