# Cell file generated by matador (Matthew Evans 2016)

%BLOCK LATTICE_CART
10.6215 -0.0 0.0
-5.31077 9.19852 0.0
0.0 0.0 6.6455
%ENDBLOCK LATTICE_CART

%BLOCK POSITIONS_FRAC
P           0.000000000000000    0.000000000000000    0.000000000000000 
P           0.000000000000000    0.000000000000000    0.500000000000000 
P           0.333333000000000    0.666667000000000    0.000000000000000 
P           0.666667000000000    0.333333000000000    0.000000000000000 
K           0.000000000000000    0.500000000000000    0.000000000000000 
K           0.000000000000000    0.500000000000000    0.500000000000000 
K           0.174739000000000    0.818749000000000    0.500000000000000 
K           0.181251000000000    0.355990000000000    0.500000000000000 
K           0.355990000000000    0.174739000000000    0.500000000000000 
K           0.500000000000000    0.000000000000000    0.000000000000000 
K           0.500000000000000    0.000000000000000    0.500000000000000 
K           0.500000000000000    0.500000000000000    0.000000000000000 
K           0.500000000000000    0.500000000000000    0.500000000000000 
K           0.644010000000000    0.825261000000000    0.500000000000000 
K           0.818749000000000    0.644010000000000    0.500000000000000 
K           0.825261000000000    0.181251000000000    0.500000000000000 
%ENDBLOCK POSITIONS_FRAC
