# Cell file generated by matador (Matthew Evans 2016)

%BLOCK LATTICE_CART
8.61666 0.0 0.0
-4.30833 7.46225 0.0
0.0 0.0 8.87708
%ENDBLOCK LATTICE_CART

%BLOCK POSITIONS_FRAC
P          -0.000000000000000   -0.000000000000000    0.000000000000000 
P           0.333333000000000    0.666667000000000    0.666667000000000 
P           0.666667000000000    0.333333000000000    0.333333000000000 
K          -0.000000000000000   -0.000000000000000    0.500000000000000 
K          -0.000000000000000    0.639370000000000    0.500000000000000 
K           0.027296000000000    0.693963000000000    0.833333000000000 
K           0.306037000000000    0.333333000000000    0.833333000000000 
K           0.333333000000000    0.306037000000000    0.166667000000000 
K           0.333333000000000    0.666667000000000    0.166667000000000 
K           0.360630000000000    0.360630000000000    0.500000000000000 
K           0.639370000000000   -0.000000000000000    0.500000000000000 
K           0.666667000000000    0.333333000000000    0.833333000000000 
K           0.666667000000000    0.972704000000000    0.833333000000000 
K           0.693963000000000    0.027296000000000    0.166667000000000 
K           0.972704000000000    0.666667000000000    0.166667000000000 
%ENDBLOCK POSITIONS_FRAC
