# Cell file generated by matador (Matthew Evans 2016)

%BLOCK LATTICE_CART
7.25206 0.0 0.0
0.0 7.06322 0.0
-3.26765 0.0 6.70611
%ENDBLOCK LATTICE_CART

%BLOCK POSITIONS_FRAC
P           0.187050000000000    0.696809000000000    0.276098000000000 
P           0.187050000000000    0.803191000000000    0.776098000000000 
P           0.812950000000000    0.196809000000000    0.223902000000000 
P           0.812950000000000    0.303191000000000    0.723902000000000 
K           0.000000000000000    0.000000000000000    0.000000000000000 
K           0.000000000000000    0.000000000000000    0.500000000000000 
K           0.000000000000000    0.500000000000000    0.000000000000000 
K           0.000000000000000    0.500000000000000    0.500000000000000 
K           0.500000000000000    0.000000000000000    0.000000000000000 
K           0.500000000000000    0.500000000000000    0.500000000000000 
%ENDBLOCK POSITIONS_FRAC
