# Cell file generated by matador (Matthew Evans 2016)

%BLOCK LATTICE_CART
7.97072 0.0 0.0
-3.98536 6.90285 0.0
0.0 0.0 6.47169
%ENDBLOCK LATTICE_CART

%BLOCK POSITIONS_FRAC
P           0.000000000000000    0.500000000000000    0.494170000000000 
P           0.333333000000000    0.666667000000000    0.087217000000000 
P           0.333333000000000    0.666667000000000    0.483798000000000 
P           0.500000000000000    0.000000000000000    0.494170000000000 
P           0.500000000000000    0.500000000000000    0.494170000000000 
P           0.666667000000000    0.333333000000000    0.087217000000000 
P           0.666667000000000    0.333333000000000    0.483798000000000 
K           0.000000000000000    0.000000000000000    0.075126000000000 
K           0.000000000000000    0.500000000000000    0.083464000000000 
K           0.500000000000000    0.000000000000000    0.083464000000000 
K           0.500000000000000    0.500000000000000    0.083464000000000 
%ENDBLOCK POSITIONS_FRAC
