# Cell file generated by matador (Matthew Evans 2016)

%BLOCK LATTICE_CART
8.86338 0.0 0.0
-4.43169 7.67591 0.0
0.0 0.0 11.4848
%ENDBLOCK LATTICE_CART

%BLOCK POSITIONS_FRAC
P           0.561733000000000    0.280866000000000    0.490789000000000 
P           0.666667000000000    0.333333000000000    0.378302000000000 
P           0.719134000000000    0.280866000000000    0.490789000000000 
P           0.719134000000000    0.438267000000000    0.490789000000000 
K           0.000000000000000   -0.000000000000000    0.449747000000000 
K           0.018459000000000    0.337347000000000    0.677952000000000 
K           0.018459000000000    0.681112000000000    0.677952000000000 
K           0.059890000000000    0.403400000000000    0.983765000000000 
K           0.059890000000000    0.656490000000000    0.983765000000000 
K           0.318888000000000    0.337347000000000    0.677952000000000 
K           0.318888000000000    0.981541000000000    0.677952000000000 
K           0.333334000000000    0.666666000000000    0.128814000000000 
K           0.333334000000000    0.666666000000000    0.842915000000000 
K           0.343510000000000    0.403400000000000    0.983765000000000 
K           0.343510000000000    0.940110000000000    0.983765000000000 
K           0.596600000000000    0.656490000000000    0.983765000000000 
K           0.596600000000000    0.940110000000000    0.983765000000000 
K           0.662653000000000    0.681112000000000    0.677952000000000 
K           0.662653000000000    0.981541000000000    0.677952000000000 
K           0.666667000000000    0.333333000000000    0.126347000000000 
%ENDBLOCK POSITIONS_FRAC
