# Cell file generated by matador (Matthew Evans 2016)

%BLOCK LATTICE_CART
10.9607 0.0 0.0
0.0 7.53872 0.0
2.14325 0.0 4.61921
%ENDBLOCK LATTICE_CART

%BLOCK POSITIONS_FRAC
P           0.000000000000000    0.500000000000000   -0.000000000000000 
P           0.000000000000000    0.500000000000000    0.500000000000000 
P           0.500000000000000    0.315764000000000    0.250000000000000 
P           0.500000000000000    0.500000000000000   -0.000000000000000 
P           0.500000000000000    0.500000000000000    0.500000000000000 
P           0.500000000000000    0.684236000000000    0.750000000000000 
K           0.205933000000000    0.223913000000000    0.523003000000000 
K           0.205933000000000    0.776087000000000    0.023003000000000 
K           0.500000000000000    0.085184000000000    0.750000000000000 
K           0.500000000000000    0.914816000000000    0.250000000000000 
K           0.794067000000000    0.223913000000000    0.976997000000000 
K           0.794067000000000    0.776087000000000    0.476997000000000 
%ENDBLOCK POSITIONS_FRAC
