# Cell file generated by matador (Matthew Evans 2016)

%BLOCK LATTICE_CART
8.73732 0.0 0.0
-4.36866 7.56675 0.0
0.0 0.0 3.95421
%ENDBLOCK LATTICE_CART

%BLOCK POSITIONS_FRAC
P           0.000000000000000    0.359001000000000    0.450538000000000 
P           0.359001000000000   -0.000000000000000    0.450538000000000 
P           0.640999000000000    0.640999000000000    0.450538000000000 
K           0.000000000000000    0.264497000000000    0.971320000000000 
K           0.264497000000000   -0.000000000000000    0.971320000000000 
K           0.333333000000000    0.666667000000000    0.687984000000000 
K           0.666667000000000    0.333333000000000    0.687984000000000 
K           0.735503000000000    0.735503000000000    0.971320000000000 
%ENDBLOCK POSITIONS_FRAC
