# Cell file generated by matador (Matthew Evans 2016)

%BLOCK LATTICE_CART
6.82832 0.0 0.0
0.0 10.054 0.0
0.0 0.0 8.40776
%ENDBLOCK LATTICE_CART

%BLOCK POSITIONS_FRAC
P           0.000000000000000   -0.000000000000000    0.500000000000000 
P           0.000000000000000    0.500000000000000   -0.000000000000000 
P           0.500000000000000   -0.000000000000000    0.500000000000000 
P           0.500000000000000    0.500000000000000   -0.000000000000000 
K           0.000000000000000   -0.000000000000000   -0.000000000000000 
K           0.000000000000000    0.500000000000000    0.500000000000000 
K           0.005011000000000    0.750000000000000    0.750000000000000 
K           0.250000000000000   -0.000000000000000    0.706526000000000 
K           0.250000000000000    0.500000000000000    0.793474000000000 
K           0.494989000000000    0.250000000000000    0.750000000000000 
K           0.500000000000000   -0.000000000000000   -0.000000000000000 
K           0.500000000000000    0.500000000000000    0.500000000000000 
K           0.505011000000000    0.750000000000000    0.250000000000000 
K           0.750000000000000   -0.000000000000000    0.293474000000000 
K           0.750000000000000    0.500000000000000    0.206526000000000 
K           0.994989000000000    0.250000000000000    0.250000000000000 
%ENDBLOCK POSITIONS_FRAC
