# Cell file generated by matador (Matthew Evans 2016)

%BLOCK LATTICE_CART
9.47299 0.0 0.0
-4.73649 8.20385 0.0
0.0 0.0 5.6679
%ENDBLOCK LATTICE_CART

%BLOCK POSITIONS_FRAC
P           0.000000000000000    0.000000000000000    0.703689000000000 
P           0.333333000000000    0.666667000000000    0.250320000000000 
P           0.666667000000000    0.333333000000000    0.618353000000000 
K           0.080624000000000    0.540312000000000    0.426766000000000 
K           0.165060000000000    0.330121000000000    0.955418000000000 
K           0.165060000000000    0.834940000000000    0.955418000000000 
K           0.374789000000000    0.187395000000000    0.574814000000000 
K           0.459688000000000    0.540312000000000    0.426766000000000 
K           0.459688000000000    0.919376000000000    0.426766000000000 
K           0.669879000000000    0.834940000000000    0.955418000000000 
K           0.812605000000000    0.187395000000000    0.574814000000000 
K           0.812605000000000    0.625211000000000    0.574814000000000 
%ENDBLOCK POSITIONS_FRAC
