# Cell file generated by matador (Matthew Evans 2016)

%BLOCK LATTICE_CART
5.81452 -0.0 0.0
-2.90726 5.03552 0.0
0.0 0.0 9.93449
%ENDBLOCK LATTICE_CART

%BLOCK POSITIONS_FRAC
P           0.160584000000000    0.479114000000000    0.643217000000000 
P           0.318530000000000    0.839416000000000    0.643217000000000 
P           0.333333000000000    0.666667000000000    0.203706000000000 
P           0.333333000000000    0.666667000000000    0.697577000000000 
P           0.479114000000000    0.318530000000000    0.643217000000000 
P           0.520886000000000    0.681470000000000    0.643217000000000 
P           0.666667000000000    0.333333000000000    0.203706000000000 
P           0.666667000000000    0.333333000000000    0.697577000000000 
P           0.681470000000000    0.160584000000000    0.643217000000000 
P           0.839416000000000    0.520886000000000    0.643217000000000 
K           0.000000000000000    0.000000000000000    0.413410000000000 
K           0.000000000000000    0.000000000000000    0.614999000000000 
K           0.333333000000000    0.666667000000000    0.947577000000000 
K           0.666667000000000    0.333333000000000    0.947577000000000 
%ENDBLOCK POSITIONS_FRAC
