# Cell file generated by matador (Matthew Evans 2016)

%BLOCK LATTICE_CART
8.80569 0.0 0.0
0.0 7.31541 0.0
0.0 0.0 4.24564
%ENDBLOCK LATTICE_CART

%BLOCK POSITIONS_FRAC
P           0.000000000000000    0.000000000000000    0.500000000000000 
P           0.000000000000000    0.500000000000000    0.000000000000000 
P           0.000000000000000    0.500000000000000    0.500000000000000 
P           0.244339000000000    0.361893000000000    0.127300000000000 
P           0.244339000000000    0.638107000000000    0.872700000000000 
P           0.294199000000000    0.228077000000000    0.953666000000000 
P           0.294199000000000    0.771923000000000    0.046334000000000 
P           0.500000000000000    0.000000000000000    0.500000000000000 
P           0.705801000000000    0.228077000000000    0.046334000000000 
P           0.705801000000000    0.771923000000000    0.953666000000000 
P           0.755661000000000    0.361893000000000    0.872700000000000 
P           0.755661000000000    0.638107000000000    0.127300000000000 
K           0.000000000000000    0.000000000000000    0.000000000000000 
K           0.500000000000000    0.000000000000000    0.000000000000000 
%ENDBLOCK POSITIONS_FRAC
