# Cell file generated by matador (Matthew Evans 2016)

%BLOCK LATTICE_CART
5.4931 0.0 0.0
-2.74655 4.75717 0.0
0.0 0.0 9.70925
%ENDBLOCK LATTICE_CART

%BLOCK POSITIONS_FRAC
P           0.000000000000000    0.000000000000000    0.996892000000000 
P           0.666667000000000    0.333333000000000    0.161543000000000 
K           0.000000000000000    0.000000000000000    0.410822000000000 
K           0.020806000000000    0.612803000000000    0.964273000000000 
K           0.333333000000000    0.666667000000000    0.398898000000000 
K           0.387197000000000    0.408002000000000    0.964273000000000 
K           0.591998000000000    0.979194000000000    0.964273000000000 
%ENDBLOCK POSITIONS_FRAC
