# Cell file generated by matador (Matthew Evans 2016)

%BLOCK LATTICE_CART
5.2274 0.0 0.0
-2.6137 4.52706 0.0
0.0 0.0 12.1348
%ENDBLOCK LATTICE_CART

%BLOCK POSITIONS_FRAC
P           0.000000000000000    0.000000000000000    0.325961000000000 
P           0.000000000000000    0.000000000000000    0.674039000000000 
K           0.000000000000000    0.000000000000000    0.000000000000000 
K           0.000000000000000    0.000000000000000    0.500000000000000 
K           0.333333000000000    0.666667000000000    0.000000000000000 
K           0.333333000000000    0.666667000000000    0.500000000000000 
K           0.666667000000000    0.333333000000000    0.000000000000000 
K           0.666667000000000    0.333333000000000    0.500000000000000 
%ENDBLOCK POSITIONS_FRAC
