# Cell file generated by matador (Matthew Evans 2016)

%BLOCK LATTICE_CART
8.11572 0.0 0.0
0.0 11.6808 0.0
0.0 0.0 5.95947
%ENDBLOCK LATTICE_CART

%BLOCK POSITIONS_FRAC
P          -0.000000000000000    0.000000000000000   -0.000000000000000 
P          -0.000000000000000    0.000000000000000    0.500000000000000 
P           0.500000000000000    0.000000000000000   -0.000000000000000 
P           0.500000000000000    0.000000000000000    0.500000000000000 
K          -0.000000000000000    0.170978000000000    0.360276000000000 
K          -0.000000000000000    0.266425000000000    0.837301000000000 
K          -0.000000000000000    0.733575000000000    0.162699000000000 
K          -0.000000000000000    0.829022000000000    0.639724000000000 
K           0.250000000000000    0.433348000000000    0.250000000000000 
K           0.250000000000000    0.566652000000000    0.750000000000000 
K           0.500000000000000    0.170978000000000    0.139724000000000 
K           0.500000000000000    0.266425000000000    0.662699000000000 
K           0.500000000000000    0.733575000000000    0.337301000000000 
K           0.500000000000000    0.829022000000000    0.860276000000000 
K           0.750000000000000    0.433348000000000    0.250000000000000 
K           0.750000000000000    0.566652000000000    0.750000000000000 
%ENDBLOCK POSITIONS_FRAC
