# Cell file generated by matador (Matthew Evans 2016)

%BLOCK LATTICE_CART
6.48665 0.0 0.0
0.0 6.48665 0.0
0.0 0.0 6.31668
%ENDBLOCK LATTICE_CART

%BLOCK POSITIONS_FRAC
P           0.000000000000000    0.000000000000000    0.446548000000000 
K           0.000000000000000    0.297577000000000    0.811230000000000 
K           0.000000000000000    0.702423000000000    0.811230000000000 
K           0.297577000000000    0.000000000000000    0.811230000000000 
K           0.500000000000000    0.500000000000000    0.318367000000000 
K           0.702423000000000    0.000000000000000    0.811230000000000 
%ENDBLOCK POSITIONS_FRAC
