# Cell file generated by matador (Matthew Evans 2016)

%BLOCK LATTICE_CART
7.43618 -0.0 0.0
-3.71809 6.43992 0.0
0.0 0.0 9.24812
%ENDBLOCK LATTICE_CART

%BLOCK POSITIONS_FRAC
P           0.023096000000000    0.586657000000000    0.734271000000000 
P           0.177229000000000    0.713932000000000    0.133830000000000 
P           0.211482000000000    0.457022000000000    0.964923000000000 
P           0.218832000000000    0.632070000000000    0.937582000000000 
P           0.245540000000000    0.788518000000000    0.964923000000000 
P           0.286068000000000    0.463299000000000    0.133830000000000 
P           0.367930000000000    0.586762000000000    0.937582000000000 
P           0.413238000000000    0.781168000000000    0.937582000000000 
P           0.413343000000000    0.436439000000000    0.734271000000000 
P           0.536701000000000    0.822771000000000    0.133830000000000 
P           0.542978000000000    0.754460000000000    0.964923000000000 
P           0.563561000000000    0.976904000000000    0.734271000000000 
K           0.333333000000000    0.666667000000000    0.533744000000000 
K           0.666666000000000    0.333334000000000    0.752596000000000 
%ENDBLOCK POSITIONS_FRAC
