# Cell file generated by matador (Matthew Evans 2016)

%BLOCK LATTICE_CART
9.14277 0.0 0.0
4.93247 8.79035 0.0
-1.62087 1.22393 3.54892
%ENDBLOCK LATTICE_CART

%BLOCK POSITIONS_FRAC
P           0.047028000000000    0.154279000000000    0.818153000000000 
P           0.103704000000000    0.637923000000000    0.061476000000000 
P           0.236481000000000    0.821166000000000    0.105778000000000 
P           0.310802000000000    0.178608000000000    0.907126000000000 
P           0.434442000000000    0.732445000000000    0.556934000000000 
P           0.500000000000000    0.000000000000000    0.000000000000000 
P           0.500000000000000    0.000000000000000    0.500000000000000 
P           0.565558000000000    0.267555000000000    0.443066000000000 
P           0.689198000000000    0.821392000000000    0.092874000000000 
P           0.763519000000000    0.178834000000000    0.894222000000000 
P           0.896296000000000    0.362077000000000    0.938524000000000 
P           0.952972000000000    0.845721000000000    0.181847000000000 
K           0.000000000000000    0.500000000000000    0.000000000000000 
K           0.000000000000000    0.500000000000000    0.500000000000000 
%ENDBLOCK POSITIONS_FRAC
