# Cell file generated by matador (Matthew Evans 2016)

%BLOCK LATTICE_CART
10.9043 0.0 0.0
0.0 7.26516 0.0
0.0 0.0 6.87849
%ENDBLOCK LATTICE_CART

%BLOCK POSITIONS_FRAC
P           0.082902000000000    0.303165000000000    0.267964000000000 
P           0.110258000000000    0.755896000000000    0.198190000000000 
P           0.225983000000000    0.105097000000000    0.906526000000000 
P           0.274017000000000    0.605097000000000    0.906526000000000 
P           0.389742000000000    0.255896000000000    0.198190000000000 
P           0.417098000000000    0.803165000000000    0.267964000000000 
P           0.582902000000000    0.196835000000000    0.267964000000000 
P           0.610258000000000    0.744104000000000    0.198190000000000 
P           0.725983000000000    0.394903000000000    0.906526000000000 
P           0.774017000000000    0.894903000000000    0.906526000000000 
P           0.889742000000000    0.244104000000000    0.198190000000000 
P           0.917098000000000    0.696835000000000    0.267964000000000 
K           0.000000000000000    0.500000000000000    0.674098000000000 
K           0.500000000000000    0.000000000000000    0.674098000000000 
%ENDBLOCK POSITIONS_FRAC
