# Cell file generated by matador (Matthew Evans 2016)

%BLOCK LATTICE_CART
6.80495 0.0 0.0
0.0 7.00551 0.0
2.95775 0.0 6.32235
%ENDBLOCK LATTICE_CART

%BLOCK POSITIONS_FRAC
P           0.427101000000000    0.500000000000000    0.510840000000000 
P           0.927101000000000    0.000000000000000    0.510840000000000 
K           0.240782000000000    0.000000000000000    0.063166000000000 
K           0.296790000000000    0.500000000000000    0.952673000000000 
K           0.423995000000000    0.000000000000000    0.405956000000000 
K           0.740782000000000    0.500000000000000    0.063166000000000 
K           0.796790000000000    0.000000000000000    0.952673000000000 
K           0.923995000000000    0.500000000000000    0.405956000000000 
%ENDBLOCK POSITIONS_FRAC
