# Cell file generated by matador (Matthew Evans 2016)

%BLOCK LATTICE_CART
5.70675 0.0 0.0
0.0 7.57124 0.0
0.0 0.0 10.084
%ENDBLOCK LATTICE_CART

%BLOCK POSITIONS_FRAC
P           0.000000000000000    0.500000000000000    0.272084000000000 
P           0.000000000000000    0.500000000000000    0.727916000000000 
P           0.076798000000000    0.414804000000000    0.000000000000000 
P           0.423202000000000    0.914804000000000    0.500000000000000 
P           0.500000000000000    0.000000000000000    0.227916000000000 
P           0.500000000000000    0.000000000000000    0.772084000000000 
P           0.576798000000000    0.085196000000000    0.500000000000000 
P           0.923202000000000    0.585196000000000    0.000000000000000 
K           0.000000000000000    0.500000000000000    0.500000000000000 
K           0.043800000000000    0.759859000000000    0.500000000000000 
K           0.456200000000000    0.259859000000000    0.000000000000000 
K           0.500000000000000    0.000000000000000    0.000000000000000 
K           0.543800000000000    0.740141000000000    0.000000000000000 
K           0.956200000000000    0.240141000000000    0.500000000000000 
%ENDBLOCK POSITIONS_FRAC
