# Cell file generated by matador (Matthew Evans 2016)

%BLOCK LATTICE_CART
8.29286 0.0 0.0
-4.14643 7.18183 0.0
0.0 0.0 8.65162
%ENDBLOCK LATTICE_CART

%BLOCK POSITIONS_FRAC
P           0.000000000000000    0.000000000000000    0.329643000000000 
P           0.000000000000000    0.000000000000000    0.670357000000000 
P           0.000000000000000    0.258828000000000    0.500000000000000 
P           0.000000000000000    0.741172000000000    0.500000000000000 
P           0.258828000000000    0.000000000000000    0.500000000000000 
P           0.258828000000000    0.258828000000000    0.500000000000000 
P           0.741172000000000    0.000000000000000    0.500000000000000 
P           0.741172000000000    0.741172000000000    0.500000000000000 
K           0.000000000000000    0.500000000000000    0.000000000000000 
K           0.000000000000000    0.500000000000000    0.500000000000000 
K           0.333333000000000    0.666667000000000    0.000000000000000 
K           0.333333000000000    0.666667000000000    0.500000000000000 
K           0.500000000000000    0.000000000000000    0.000000000000000 
K           0.500000000000000    0.000000000000000    0.500000000000000 
K           0.500000000000000    0.500000000000000    0.000000000000000 
K           0.500000000000000    0.500000000000000    0.500000000000000 
K           0.666667000000000    0.333333000000000    0.000000000000000 
K           0.666667000000000    0.333333000000000    0.500000000000000 
%ENDBLOCK POSITIONS_FRAC
