# Cell file generated by matador (Matthew Evans 2016)

%BLOCK LATTICE_CART
5.05582 0.0 0.0
-2.52791 4.37847 0.0
0.0 0.0 8.04084
%ENDBLOCK LATTICE_CART

%BLOCK POSITIONS_FRAC
P           0.000000000000000    0.000000000000000    0.307706000000000 
P           0.000000000000000    0.000000000000000    0.655429000000000 
K           0.000000000000000    0.500000000000000    0.390551000000000 
K           0.500000000000000    0.000000000000000    0.390551000000000 
K           0.500000000000000    0.500000000000000    0.390551000000000 
%ENDBLOCK POSITIONS_FRAC
