# Cell file generated by matador (Matthew Evans 2016)

%BLOCK LATTICE_CART
4.60086 0.0 0.0
0.0 5.01449 0.0
-1.35165 0.0 5.18519
%ENDBLOCK LATTICE_CART

%BLOCK POSITIONS_FRAC
P           0.130361000000000    0.170873000000000    0.909002000000000 
P           0.130361000000000    0.829127000000000    0.909002000000000 
P           0.225184000000000    0.500000000000000    0.812509000000000 
K           0.752052000000000    0.500000000000000    0.594493000000000 
K           0.816528000000000    0.500000000000000    0.146777000000000 
%ENDBLOCK POSITIONS_FRAC
