# Cell file generated by matador (Matthew Evans 2016)

%BLOCK LATTICE_CART
6.73582 0.0 0.0
0.0 6.73582 0.0
0.0 0.0 8.32088
%ENDBLOCK LATTICE_CART

%BLOCK POSITIONS_FRAC
P           0.000000000000000    0.120026000000000    0.857989000000000 
P           0.000000000000000    0.317200000000000    0.949487000000000 
P           0.000000000000000    0.682800000000000    0.949487000000000 
P           0.000000000000000    0.879974000000000    0.857989000000000 
P           0.120026000000000    0.000000000000000    0.357989000000000 
P           0.317200000000000    0.000000000000000    0.449487000000000 
P           0.327179000000000    0.500000000000000    0.514579000000000 
P           0.500000000000000    0.327179000000000    0.014579000000000 
P           0.500000000000000    0.672821000000000    0.014579000000000 
P           0.672821000000000    0.500000000000000    0.514579000000000 
P           0.682800000000000    0.000000000000000    0.449487000000000 
P           0.879974000000000    0.000000000000000    0.357989000000000 
K           0.000000000000000    0.500000000000000    0.553223000000000 
K           0.232201000000000    0.500000000000000    0.745770000000000 
K           0.500000000000000    0.000000000000000    0.053223000000000 
K           0.500000000000000    0.232201000000000    0.245770000000000 
K           0.500000000000000    0.767799000000000    0.245770000000000 
K           0.767799000000000    0.500000000000000    0.745770000000000 
%ENDBLOCK POSITIONS_FRAC
