# Cell file generated by matador (Matthew Evans 2016)

%BLOCK LATTICE_CART
5.45334 0.0 0.0
0.0 7.67446 0.0
-1.43793 0.0 7.78317
%ENDBLOCK LATTICE_CART

%BLOCK POSITIONS_FRAC
P           0.000000000000000    0.257496000000000    0.500000000000000 
P           0.000000000000000    0.398497000000000    0.000000000000000 
P           0.500000000000000    0.593550000000000    0.000000000000000 
P           0.500000000000000    0.616661000000000    0.500000000000000 
P           0.500000000000000    0.947984000000000    0.000000000000000 
K           0.000000000000000    0.954062000000000    0.000000000000000 
K           0.074147000000000    0.654165000000000    0.326500000000000 
K           0.082316000000000    0.004677000000000    0.664811000000000 
K           0.500000000000000    0.248604000000000    0.000000000000000 
K           0.917684000000000    0.004677000000000    0.335189000000000 
K           0.925853000000000    0.654165000000000    0.673500000000000 
%ENDBLOCK POSITIONS_FRAC
