# Cell file generated by matador (Matthew Evans 2016)

%BLOCK LATTICE_CART
9.17956 0.0 0.0
-4.58978 7.94973 0.0
0.0 0.0 7.46887
%ENDBLOCK LATTICE_CART

%BLOCK POSITIONS_FRAC
P          -0.000000000000000   -0.000000000000000    0.082715000000000 
P           0.333333000000000    0.666667000000000    0.749381000000000 
P           0.666667000000000    0.333333000000000    0.416048000000000 
K          -0.000000000000000   -0.000000000000000    0.798038000000000 
K           0.180300000000000    0.360601000000000    0.479886000000000 
K           0.180300000000000    0.819700000000000    0.479886000000000 
K           0.306066000000000    0.153033000000000    0.813219000000000 
K           0.333333000000000    0.666667000000000    0.464705000000000 
K           0.513634000000000    0.027268000000000    0.146552000000000 
K           0.513634000000000    0.486366000000000    0.146552000000000 
K           0.639399000000000    0.819700000000000    0.479886000000000 
K           0.666667000000000    0.333333000000000    0.131372000000000 
K           0.846967000000000    0.153033000000000    0.813219000000000 
K           0.846967000000000    0.693934000000000    0.813219000000000 
K           0.972732000000000    0.486366000000000    0.146552000000000 
%ENDBLOCK POSITIONS_FRAC
