# Cell file generated by matador (Matthew Evans 2016)

%BLOCK LATTICE_CART
9.15987 0.0 0.0
-4.57994 7.93268 0.0
0.0 0.0 6.11935
%ENDBLOCK LATTICE_CART

%BLOCK POSITIONS_FRAC
P           0.000000000000000    0.234323000000000    0.380603000000000 
P           0.234323000000000    0.000000000000000    0.380603000000000 
P           0.765677000000000    0.765677000000000    0.380603000000000 
K           0.000000000000000    0.000000000000000    0.021973000000000 
K           0.000000000000000    0.425743000000000    0.686989000000000 
K           0.000000000000000    0.661099000000000    0.291104000000000 
K           0.333333000000000    0.666667000000000    0.469747000000000 
K           0.338901000000000    0.338901000000000    0.291104000000000 
K           0.425743000000000    0.000000000000000    0.686989000000000 
K           0.574257000000000    0.574257000000000    0.686989000000000 
K           0.661099000000000    0.000000000000000    0.291104000000000 
K           0.666667000000000    0.333333000000000    0.469747000000000 
%ENDBLOCK POSITIONS_FRAC
