# Cell file generated by matador (Matthew Evans 2016)

%BLOCK LATTICE_CART
7.97988 0.0 0.0
0.0 7.97988 0.0
0.0 0.0 9.20076
%ENDBLOCK LATTICE_CART

%BLOCK POSITIONS_FRAC
P           0.500000000000000    0.500000000000000    0.184013000000000 
P           0.500000000000000    0.500000000000000    0.295692000000000 
K           0.000000000000000    0.000000000000000    0.421462000000000 
K           0.000000000000000    0.000000000000000    0.646832000000000 
K           0.000000000000000    0.500000000000000    0.029707000000000 
K           0.000000000000000    0.500000000000000    0.298869000000000 
K           0.263771000000000    0.275176000000000    0.511354000000000 
K           0.275176000000000    0.736229000000000    0.511354000000000 
K           0.300055000000000    0.537005000000000    0.802205000000000 
K           0.462995000000000    0.300055000000000    0.802205000000000 
K           0.500000000000000    0.000000000000000    0.029707000000000 
K           0.500000000000000    0.000000000000000    0.298869000000000 
K           0.537005000000000    0.699945000000000    0.802205000000000 
K           0.699945000000000    0.462995000000000    0.802205000000000 
K           0.724824000000000    0.263771000000000    0.511354000000000 
K           0.736229000000000    0.724824000000000    0.511354000000000 
%ENDBLOCK POSITIONS_FRAC
