# Cell file generated by matador (Matthew Evans 2016)

%BLOCK LATTICE_CART
6.43069 0.0 0.0
0.0 10.5774 0.0
3.85747 0.0 10.0887
%ENDBLOCK LATTICE_CART

%BLOCK POSITIONS_FRAC
P           0.232602000000000    0.000000000000000    0.261215000000000 
P           0.247156000000000    0.500000000000000    0.465657000000000 
P           0.732602000000000    0.500000000000000    0.261215000000000 
P           0.747156000000000    0.000000000000000    0.465657000000000 
K           0.055683000000000    0.000000000000000    0.450044000000000 
K           0.170188000000000    0.500000000000000    0.729293000000000 
K           0.189485000000000    0.000000000000000    0.899152000000000 
K           0.195026000000000    0.500000000000000    0.000529000000000 
K           0.423549000000000    0.000000000000000    0.549254000000000 
K           0.449961000000000    0.500000000000000    0.193370000000000 
K           0.555683000000000    0.500000000000000    0.450044000000000 
K           0.670188000000000    0.000000000000000    0.729293000000000 
K           0.689485000000000    0.500000000000000    0.899152000000000 
K           0.695026000000000    0.000000000000000    0.000529000000000 
K           0.923549000000000    0.500000000000000    0.549254000000000 
K           0.949961000000000    0.000000000000000    0.193370000000000 
%ENDBLOCK POSITIONS_FRAC
