# Cell file generated by matador (Matthew Evans 2016)

%BLOCK LATTICE_CART
5.45355 0.0 0.0
0.0 5.45355 0.0
0.0 0.0 6.39953
%ENDBLOCK LATTICE_CART

%BLOCK POSITIONS_FRAC
P           0.000000000000000    0.000000000000000    0.408764000000000 
P           0.000000000000000    0.000000000000000    0.591236000000000 
P           0.144816000000000    0.744180000000000    0.311910000000000 
P           0.255820000000000    0.144816000000000    0.688090000000000 
P           0.744180000000000    0.855184000000000    0.688090000000000 
P           0.855184000000000    0.255820000000000    0.311910000000000 
K           0.500000000000000    0.500000000000000    0.500000000000000 
%ENDBLOCK POSITIONS_FRAC
