# Cell file generated by matador (Matthew Evans 2016)

%BLOCK LATTICE_CART
6.759 0.0 0.0
-3.3795 5.85347 0.0
0.0 0.0 9.60054
%ENDBLOCK LATTICE_CART

%BLOCK POSITIONS_FRAC
P           0.051330000000000    0.851374000000000    0.869064000000000 
P           0.148626000000000    0.199956000000000    0.869064000000000 
P           0.199956000000000    0.051330000000000    0.869064000000000 
P           0.800044000000000    0.948670000000000    0.869064000000000 
P           0.851374000000000    0.800044000000000    0.869064000000000 
P           0.948670000000000    0.148626000000000    0.869064000000000 
K          -0.000000000000000   -0.000000000000000    0.064894000000000 
K          -0.000000000000000   -0.000000000000000    0.533582000000000 
K          -0.000000000000000    0.500000000000000    0.587469000000000 
K           0.333333000000000    0.666667000000000    0.121138000000000 
K           0.500000000000000   -0.000000000000000    0.587469000000000 
K           0.500000000000000    0.500000000000000    0.587469000000000 
K           0.666667000000000    0.333333000000000    0.121138000000000 
%ENDBLOCK POSITIONS_FRAC
