# Cell file generated by matador (Matthew Evans 2016)

%BLOCK LATTICE_CART
7.42487 0.0 0.0
-3.71243 6.43013 0.0
0.0 0.0 10.3304
%ENDBLOCK LATTICE_CART

%BLOCK POSITIONS_FRAC
P           0.000000000000000    0.000000000000000    0.471368000000000 
P           0.000000000000000    0.000000000000000    0.791602000000000 
P           0.180389000000000    0.813915000000000    0.239360000000000 
P           0.186085000000000    0.366474000000000    0.239360000000000 
P           0.258013000000000    0.257378000000000    0.812674000000000 
P           0.333333000000000    0.666667000000000    0.307724000000000 
P           0.633526000000000    0.819611000000000    0.239360000000000 
P           0.666667000000000    0.333333000000000    0.074636000000000 
P           0.666667000000000    0.333333000000000    0.402942000000000 
P           0.666667000000000    0.333333000000000    0.682384000000000 
P           0.742622000000000    0.000635000000000    0.812674000000000 
P           0.999365000000000    0.741987000000000    0.812674000000000 
K           0.082708000000000    0.461073000000000    0.661865000000000 
K           0.378365000000000    0.917292000000000    0.661865000000000 
K           0.420728000000000    0.101575000000000    0.951720000000000 
K           0.538927000000000    0.621635000000000    0.661865000000000 
K           0.680846000000000    0.579272000000000    0.951720000000000 
K           0.898425000000000    0.319154000000000    0.951720000000000 
%ENDBLOCK POSITIONS_FRAC
