# Cell file generated by matador (Matthew Evans 2016)

%BLOCK LATTICE_CART
6.62964 0.0 0.0
-3.31482 5.74144 0.0
0.0 0.0 5.88085
%ENDBLOCK LATTICE_CART

%BLOCK POSITIONS_FRAC
P          -0.000000000000000   -0.000000000000000    0.213850000000000 
P          -0.000000000000000   -0.000000000000000    0.453608000000000 
P           0.333333000000000    0.666667000000000    0.897777000000000 
P           0.666667000000000    0.333333000000000    0.897777000000000 
K          -0.000000000000000    0.821916000000000    0.827189000000000 
K           0.178084000000000    0.178084000000000    0.827189000000000 
K           0.821916000000000   -0.000000000000000    0.827189000000000 
%ENDBLOCK POSITIONS_FRAC
