# Cell file generated by matador (Matthew Evans 2016)

%BLOCK LATTICE_CART
5.89124 0.0 0.0
-2.94562 5.10196 0.0
0.0 0.0 13.0621
%ENDBLOCK LATTICE_CART

%BLOCK POSITIONS_FRAC
P           0.000000000000000    0.000000000000000    0.096886000000000 
P           0.000000000000000    0.000000000000000    0.403114000000000 
P           0.000000000000000    0.000000000000000    0.596886000000000 
P           0.000000000000000    0.000000000000000    0.903114000000000 
P           0.240895000000000    0.688251000000000    0.250000000000000 
P           0.311749000000000    0.552644000000000    0.250000000000000 
P           0.447356000000000    0.759105000000000    0.250000000000000 
P           0.552644000000000    0.240895000000000    0.750000000000000 
P           0.688251000000000    0.447356000000000    0.750000000000000 
P           0.759105000000000    0.311749000000000    0.750000000000000 
K           0.000000000000000    0.000000000000000    0.250000000000000 
K           0.000000000000000    0.000000000000000    0.750000000000000 
%ENDBLOCK POSITIONS_FRAC
