# Cell file generated by matador (Matthew Evans 2016)

%BLOCK LATTICE_CART
9.96309 0.0 0.0
0.0 9.8068 0.0
0.0 0.0 6.94073
%ENDBLOCK LATTICE_CART

%BLOCK POSITIONS_FRAC
P           0.000000000000000    0.000000000000000    0.000000000000000 
P           0.000000000000000    0.500000000000000    0.000000000000000 
P           0.500000000000000    0.000000000000000    0.500000000000000 
P           0.500000000000000    0.500000000000000    0.500000000000000 
K           0.000000000000000    0.000000000000000    0.500000000000000 
K           0.000000000000000    0.269669000000000    0.212878000000000 
K           0.000000000000000    0.269669000000000    0.787122000000000 
K           0.000000000000000    0.500000000000000    0.500000000000000 
K           0.000000000000000    0.730331000000000    0.212878000000000 
K           0.000000000000000    0.730331000000000    0.787122000000000 
K           0.500000000000000    0.000000000000000    0.000000000000000 
K           0.500000000000000    0.230331000000000    0.287122000000000 
K           0.500000000000000    0.230331000000000    0.712878000000000 
K           0.500000000000000    0.500000000000000    0.000000000000000 
K           0.500000000000000    0.769669000000000    0.287122000000000 
K           0.500000000000000    0.769669000000000    0.712878000000000 
%ENDBLOCK POSITIONS_FRAC
