# Cell file generated by matador (Matthew Evans 2016)

%BLOCK LATTICE_CART
7.45069 0.0 0.0
-3.72534 6.45249 0.0
0.0 0.0 20.8074
%ENDBLOCK LATTICE_CART

%BLOCK POSITIONS_FRAC
P           0.000000000000000    0.000000000000000    0.250000000000000 
P           0.000000000000000    0.000000000000000    0.750000000000000 
P           0.333333000000000    0.666667000000000    0.250000000000000 
P           0.333333000000000    0.666667000000000    0.750000000000000 
P           0.666667000000000    0.333333000000000    0.250000000000000 
P           0.666667000000000    0.333333000000000    0.750000000000000 
K           0.000000000000000    0.000000000000000    0.000000000000000 
K           0.000000000000000    0.000000000000000    0.500000000000000 
K           0.000000000000000    0.500000000000000    0.000000000000000 
K           0.000000000000000    0.500000000000000    0.500000000000000 
K           0.156309000000000    0.337285000000000    0.250000000000000 
K           0.180976000000000    0.843691000000000    0.250000000000000 
K           0.333333000000000    0.666667000000000    0.132644000000000 
K           0.333333000000000    0.666667000000000    0.367356000000000 
K           0.337285000000000    0.180976000000000    0.750000000000000 
K           0.500000000000000    0.000000000000000    0.000000000000000 
K           0.500000000000000    0.000000000000000    0.500000000000000 
K           0.500000000000000    0.500000000000000    0.000000000000000 
K           0.500000000000000    0.500000000000000    0.500000000000000 
K           0.662715000000000    0.819024000000000    0.250000000000000 
K           0.666667000000000    0.333333000000000    0.632644000000000 
K           0.666667000000000    0.333333000000000    0.867356000000000 
K           0.819024000000000    0.156309000000000    0.750000000000000 
K           0.843691000000000    0.662715000000000    0.750000000000000 
%ENDBLOCK POSITIONS_FRAC
