# Cell file generated by matador (Matthew Evans 2016)

%BLOCK LATTICE_CART
7.57585 0.0 0.0
0.0 7.02971 0.0
1.71868 0.0 5.96033
%ENDBLOCK LATTICE_CART

%BLOCK POSITIONS_FRAC
P           0.076980000000000    0.000000000000000    0.616386000000000 
P           0.558468000000000    0.354574000000000    0.964510000000000 
P           0.558468000000000    0.645426000000000    0.964510000000000 
P           0.813301000000000    0.399036000000000    0.395280000000000 
P           0.813301000000000    0.600964000000000    0.395280000000000 
K           0.133374000000000    0.500000000000000    0.145689000000000 
K           0.310332000000000    0.158288000000000    0.276117000000000 
K           0.310332000000000    0.841712000000000    0.276117000000000 
K           0.709804000000000    0.000000000000000    0.029798000000000 
K           0.900561000000000    0.259382000000000    0.968368000000000 
K           0.900561000000000    0.740618000000000    0.968368000000000 
K           0.936619000000000    0.500000000000000    0.644930000000000 
%ENDBLOCK POSITIONS_FRAC
