# Cell file generated by matador (Matthew Evans 2016)

%BLOCK LATTICE_CART
6.46577 0.0 0.0
-3.23288 5.59952 0.0
0.0 0.0 7.15438
%ENDBLOCK LATTICE_CART

%BLOCK POSITIONS_FRAC
P           0.000000000000000    0.000000000000000    0.303940000000000 
P           0.333333000000000    0.666667000000000    0.025807000000000 
P           0.333333000000000    0.666667000000000    0.762540000000000 
P           0.666667000000000    0.333333000000000    0.025807000000000 
P           0.666667000000000    0.333333000000000    0.762540000000000 
K           0.215098000000000    0.430196000000000    0.513722000000000 
K           0.215098000000000    0.784902000000000    0.513722000000000 
K           0.430196000000000    0.215098000000000    0.513722000000000 
K           0.569804000000000    0.784902000000000    0.513722000000000 
K           0.784902000000000    0.215098000000000    0.513722000000000 
K           0.784902000000000    0.569804000000000    0.513722000000000 
%ENDBLOCK POSITIONS_FRAC
