# Cell file generated by matador (Matthew Evans 2016)

%BLOCK LATTICE_CART
6.36731 0.0 0.0
0.0 6.36731 0.0
0.0 0.0 10.9325
%ENDBLOCK LATTICE_CART

%BLOCK POSITIONS_FRAC
P           0.000000000000000    0.500000000000000    0.031429000000000 
P           0.000000000000000    0.500000000000000    0.531429000000000 
P           0.176332000000000    0.483501000000000    0.255189000000000 
P           0.176332000000000    0.516499000000000    0.755189000000000 
P           0.483501000000000    0.176332000000000    0.255189000000000 
P           0.483501000000000    0.823668000000000    0.755189000000000 
P           0.500000000000000    0.000000000000000    0.031429000000000 
P           0.500000000000000    0.000000000000000    0.531429000000000 
P           0.500000000000000    0.500000000000000    0.286736000000000 
P           0.500000000000000    0.500000000000000    0.786736000000000 
P           0.516499000000000    0.176332000000000    0.755189000000000 
P           0.516499000000000    0.823668000000000    0.255189000000000 
P           0.823668000000000    0.483501000000000    0.755189000000000 
P           0.823668000000000    0.516499000000000    0.255189000000000 
K           0.138077000000000    0.138077000000000    0.242038000000000 
K           0.138077000000000    0.861923000000000    0.742038000000000 
K           0.861923000000000    0.138077000000000    0.742038000000000 
K           0.861923000000000    0.861923000000000    0.242038000000000 
%ENDBLOCK POSITIONS_FRAC
