# Cell file generated by matador (Matthew Evans 2016)

%BLOCK LATTICE_CART
8.19843 0.0 0.0
-4.09921 7.10004 0.0
0.0 0.0 6.06591
%ENDBLOCK LATTICE_CART

%BLOCK POSITIONS_FRAC
P           0.000000000000000    0.000000000000000    0.000000000000000 
P           0.333333000000000    0.666667000000000    0.000000000000000 
P           0.333333000000000    0.666667000000000    0.164856000000000 
P           0.333333000000000    0.666667000000000    0.835144000000000 
P           0.666667000000000    0.333333000000000    0.000000000000000 
P           0.666667000000000    0.333333000000000    0.164856000000000 
P           0.666667000000000    0.333333000000000    0.835144000000000 
K           0.000000000000000    0.411420000000000    0.725339000000000 
K           0.000000000000000    0.588580000000000    0.274661000000000 
K           0.411420000000000    0.000000000000000    0.725339000000000 
K           0.411420000000000    0.411420000000000    0.274661000000000 
K           0.588580000000000    0.000000000000000    0.274661000000000 
K           0.588580000000000    0.588580000000000    0.725339000000000 
%ENDBLOCK POSITIONS_FRAC
