# Cell file generated by matador (Matthew Evans 2016)

%BLOCK LATTICE_CART
6.76421 0.0 0.0
-3.38211 5.85798 0.0
0.0 0.0 10.2349
%ENDBLOCK LATTICE_CART

%BLOCK POSITIONS_FRAC
P           0.000000000000000    0.571959000000000    0.500000000000000 
P           0.333333000000000    0.666667000000000    0.201021000000000 
P           0.428041000000000    0.428041000000000    0.500000000000000 
P           0.571959000000000    0.000000000000000    0.500000000000000 
P           0.666667000000000    0.333333000000000    0.798979000000000 
K           0.000000000000000    0.553720000000000    0.000000000000000 
K           0.333333000000000    0.666667000000000    0.445314000000000 
K           0.333333000000000    0.666667000000000    0.909799000000000 
K           0.446280000000000    0.446280000000000    0.000000000000000 
K           0.553720000000000    0.000000000000000    0.000000000000000 
K           0.666667000000000    0.333333000000000    0.090201000000000 
K           0.666667000000000    0.333333000000000    0.554686000000000 
%ENDBLOCK POSITIONS_FRAC
