# Cell file generated by matador (Matthew Evans 2016)

%BLOCK LATTICE_CART
8.31283 0.0 0.0
-4.15642 7.19912 0.0
0.0 0.0 8.43569
%ENDBLOCK LATTICE_CART

%BLOCK POSITIONS_FRAC
P           0.317984000000000    0.158992000000000    0.450882000000000 
P           0.841008000000000    0.158992000000000    0.450882000000000 
P           0.841008000000000    0.682016000000000    0.450882000000000 
K           0.163736000000000    0.327473000000000    0.996544000000000 
K           0.163736000000000    0.836264000000000    0.996544000000000 
K           0.542799000000000    0.085598000000000    0.306966000000000 
K           0.542799000000000    0.457201000000000    0.306966000000000 
K           0.543077000000000    0.086153000000000    0.824870000000000 
K           0.543077000000000    0.456923000000000    0.824870000000000 
K           0.672527000000000    0.836264000000000    0.996544000000000 
K           0.913847000000000    0.456923000000000    0.824870000000000 
K           0.914402000000000    0.457201000000000    0.306966000000000 
%ENDBLOCK POSITIONS_FRAC
