# Cell file generated by matador (Matthew Evans 2016)

%BLOCK LATTICE_CART
6.7223 0.0 0.0
-3.36115 5.82168 0.0
0.0 0.0 5.55776
%ENDBLOCK LATTICE_CART

%BLOCK POSITIONS_FRAC
P           0.333333000000000    0.666667000000000    0.256552000000000 
K           0.004958000000000    0.628870000000000    0.109743000000000 
K           0.333333000000000    0.666667000000000    0.797979000000000 
K           0.371130000000000    0.376088000000000    0.109743000000000 
K           0.623912000000000    0.995042000000000    0.109743000000000 
K           0.666666000000000    0.333334000000000    0.527212000000000 
%ENDBLOCK POSITIONS_FRAC
