# Cell file generated by matador (Matthew Evans 2016)

%BLOCK LATTICE_CART
6.03895 0.0 0.0
-3.01947 5.22988 0.0
0.0 0.0 6.39248
%ENDBLOCK LATTICE_CART

%BLOCK POSITIONS_FRAC
P           0.000000000000000    0.500000000000000    0.000000000000000 
P           0.333333000000000    0.666667000000000    0.758429000000000 
P           0.500000000000000   -0.000000000000000    0.000000000000000 
P           0.500000000000000    0.500000000000000    0.000000000000000 
P           0.666667000000000    0.333333000000000    0.241571000000000 
K           0.000000000000000    0.500000000000000    0.500000000000000 
K           0.500000000000000   -0.000000000000000    0.500000000000000 
K           0.500000000000000    0.500000000000000    0.500000000000000 
%ENDBLOCK POSITIONS_FRAC
