# Cell file generated by matador (Matthew Evans 2016)

%BLOCK LATTICE_CART
6.59223 0.0 0.0
-3.29612 5.70904 0.0
0.0 0.0 12.9658
%ENDBLOCK LATTICE_CART

%BLOCK POSITIONS_FRAC
P           0.000000000000000    0.000000000000000    0.025456000000000 
P           0.333333000000000    0.666667000000000    0.692123000000000 
P           0.666667000000000    0.333333000000000    0.358789000000000 
K           0.176438000000000    0.352876000000000    0.538700000000000 
K           0.176438000000000    0.823562000000000    0.538700000000000 
K           0.313791000000000    0.156896000000000    0.872034000000000 
K           0.509771000000000    0.019542000000000    0.205367000000000 
K           0.509771000000000    0.490229000000000    0.205367000000000 
K           0.647124000000000    0.823562000000000    0.538700000000000 
K           0.843104000000000    0.156896000000000    0.872034000000000 
K           0.843104000000000    0.686209000000000    0.872034000000000 
K           0.980458000000000    0.490229000000000    0.205367000000000 
%ENDBLOCK POSITIONS_FRAC
