# Cell file generated by matador (Matthew Evans 2016)

%BLOCK LATTICE_CART
9.22355 0.0 0.0
-4.61177 7.98782 0.0
0.0 0.0 8.75247
%ENDBLOCK LATTICE_CART

%BLOCK POSITIONS_FRAC
P           0.000000000000000    0.000000000000000    0.000000000000000 
P           0.000000000000000    0.000000000000000    0.250000000000000 
P           0.000000000000000    0.000000000000000    0.500000000000000 
P           0.000000000000000    0.000000000000000    0.750000000000000 
K           0.060201000000000    0.801020000000000    0.250000000000000 
K           0.100927000000000    0.526230000000000    0.750000000000000 
K           0.198980000000000    0.259181000000000    0.250000000000000 
K           0.259181000000000    0.198980000000000    0.750000000000000 
K           0.425304000000000    0.899073000000000    0.750000000000000 
K           0.473770000000000    0.574696000000000    0.750000000000000 
K           0.526230000000000    0.100927000000000    0.250000000000000 
K           0.574696000000000    0.473770000000000    0.250000000000000 
K           0.740819000000000    0.939799000000000    0.250000000000000 
K           0.801020000000000    0.060201000000000    0.750000000000000 
K           0.899073000000000    0.425304000000000    0.250000000000000 
K           0.939799000000000    0.740819000000000    0.750000000000000 
%ENDBLOCK POSITIONS_FRAC
