# Cell file generated by matador (Matthew Evans 2016)

%BLOCK LATTICE_CART
7.30098 0.0 0.0
0.0 9.24704 0.0
-3.19966 0.0 7.56142
%ENDBLOCK LATTICE_CART

%BLOCK POSITIONS_FRAC
P           0.095196000000000    0.000000000000000    0.720374000000000 
P           0.326432000000000    0.000000000000000    0.201533000000000 
P           0.337356000000000    0.500000000000000    0.293162000000000 
P           0.470074000000000    0.000000000000000    0.951697000000000 
P           0.595196000000000    0.500000000000000    0.720374000000000 
P           0.826432000000000    0.500000000000000    0.201533000000000 
P           0.837356000000000    0.000000000000000    0.293162000000000 
P           0.970074000000000    0.500000000000000    0.951697000000000 
K           0.168314000000000    0.195265000000000    0.951070000000000 
K           0.168314000000000    0.804735000000000    0.951070000000000 
K           0.205008000000000    0.000000000000000    0.408213000000000 
K           0.668314000000000    0.304735000000000    0.951070000000000 
K           0.668314000000000    0.695265000000000    0.951070000000000 
K           0.705008000000000    0.500000000000000    0.408213000000000 
%ENDBLOCK POSITIONS_FRAC
