# Cell file generated by matador (Matthew Evans 2016)

%BLOCK LATTICE_CART
9.82172 0.0 0.0
-4.91086 8.50585 0.0
0.0 0.0 4.64938
%ENDBLOCK LATTICE_CART

%BLOCK POSITIONS_FRAC
P           0.000000000000000    0.000000000000000    0.000000000000000 
P           0.000000000000000    0.500000000000000    0.000000000000000 
P           0.500000000000000    0.000000000000000    0.000000000000000 
P           0.500000000000000    0.500000000000000    0.000000000000000 
K           0.000000000000000    0.000000000000000    0.500000000000000 
K           0.000000000000000    0.500000000000000    0.500000000000000 
K           0.082846000000000    0.834777000000000    0.132172000000000 
K           0.165223000000000    0.248069000000000    0.132172000000000 
K           0.248069000000000    0.082846000000000    0.867828000000000 
K           0.500000000000000    0.000000000000000    0.500000000000000 
K           0.500000000000000    0.500000000000000    0.500000000000000 
K           0.751931000000000    0.917154000000000    0.132172000000000 
K           0.834777000000000    0.751931000000000    0.867828000000000 
K           0.917154000000000    0.165223000000000    0.867828000000000 
%ENDBLOCK POSITIONS_FRAC
