# Cell file generated by matador (Matthew Evans 2016)

%BLOCK LATTICE_CART
7.71992 0.0 0.0
0.0 5.27919 0.0
0.30512 0.0 9.44962
%ENDBLOCK LATTICE_CART

%BLOCK POSITIONS_FRAC
P           0.049222000000000    0.275268000000000    0.856793000000000 
P           0.049222000000000    0.724732000000000    0.856793000000000 
P           0.229579000000000    0.000000000000000    0.739008000000000 
P           0.409922000000000    0.500000000000000    0.113727000000000 
P           0.481796000000000    0.311884000000000    0.663793000000000 
P           0.481796000000000    0.688116000000000    0.663793000000000 
P           0.549222000000000    0.224732000000000    0.856793000000000 
P           0.549222000000000    0.775268000000000    0.856793000000000 
P           0.729579000000000    0.500000000000000    0.739008000000000 
P           0.909922000000000    0.000000000000000    0.113727000000000 
P           0.981796000000000    0.188116000000000    0.663793000000000 
P           0.981796000000000    0.811884000000000    0.663793000000000 
K           0.188107000000000    0.000000000000000    0.068019000000000 
K           0.293704000000000    0.000000000000000    0.350082000000000 
K           0.688107000000000    0.500000000000000    0.068019000000000 
K           0.793704000000000    0.500000000000000    0.350082000000000 
%ENDBLOCK POSITIONS_FRAC
