# Cell file generated by matador (Matthew Evans 2016)

%BLOCK LATTICE_CART
7.78275 0.0 0.0
0.0 7.78275 0.0
0.0 0.0 6.31458
%ENDBLOCK LATTICE_CART

%BLOCK POSITIONS_FRAC
P           0.000000000000000    0.500000000000000    0.316727000000000 
P           0.000000000000000    0.500000000000000    0.683273000000000 
P           0.294967000000000    0.557118000000000    0.000000000000000 
P           0.442882000000000    0.294967000000000    0.500000000000000 
P           0.500000000000000    0.000000000000000    0.183273000000000 
P           0.500000000000000    0.000000000000000    0.816727000000000 
P           0.500000000000000    0.500000000000000    0.164273000000000 
P           0.500000000000000    0.500000000000000    0.335727000000000 
P           0.500000000000000    0.500000000000000    0.664273000000000 
P           0.500000000000000    0.500000000000000    0.835727000000000 
P           0.557118000000000    0.705033000000000    0.500000000000000 
P           0.705033000000000    0.442882000000000    0.000000000000000 
K           0.000000000000000    0.000000000000000    0.250000000000000 
K           0.000000000000000    0.000000000000000    0.750000000000000 
K           0.000000000000000    0.500000000000000    0.000000000000000 
K           0.500000000000000    0.000000000000000    0.500000000000000 
%ENDBLOCK POSITIONS_FRAC
