# Cell file generated by matador (Matthew Evans 2016)

%BLOCK LATTICE_CART
7.48797 0.0 0.0
0.0 7.48797 0.0
0.0 0.0 7.49384
%ENDBLOCK LATTICE_CART

%BLOCK POSITIONS_FRAC
P           0.000000000000000    0.500000000000000    0.980557000000000 
P           0.027720000000000    0.353288000000000    0.648758000000000 
P           0.099870000000000    0.649461000000000    0.391455000000000 
P           0.350539000000000    0.099870000000000    0.891455000000000 
P           0.353288000000000    0.972280000000000    0.148758000000000 
P           0.500000000000000    0.000000000000000    0.480557000000000 
P           0.646712000000000    0.027720000000000    0.148758000000000 
P           0.649461000000000    0.900130000000000    0.891455000000000 
P           0.900130000000000    0.350539000000000    0.391455000000000 
P           0.972280000000000    0.646712000000000    0.648758000000000 
K           0.500000000000000    0.500000000000000    0.087352000000000 
K           0.500000000000000    0.500000000000000    0.587352000000000 
%ENDBLOCK POSITIONS_FRAC
