# Cell file generated by matador (Matthew Evans 2016)

%BLOCK LATTICE_CART
7.38499 0.0 0.0
-3.69249 6.39559 0.0
0.0 0.0 6.67587
%ENDBLOCK LATTICE_CART

%BLOCK POSITIONS_FRAC
P           0.241733000000000    0.620866000000000    0.742827000000000 
P           0.379134000000000    0.620866000000000    0.742827000000000 
P           0.379134000000000    0.758267000000000    0.742827000000000 
P           0.577949000000000    0.155896000000000    0.766308000000000 
P           0.577949000000000    0.422051000000000    0.766308000000000 
P           0.666667000000000    0.333333000000000    0.054145000000000 
P           0.844104000000000    0.422051000000000    0.766308000000000 
K           0.234070000000000    0.468139000000000    0.048712000000000 
K           0.234070000000000    0.765930000000000    0.048712000000000 
K           0.531861000000000    0.765930000000000    0.048712000000000 
K           0.666667000000000    0.333333000000000    0.453144000000000 
%ENDBLOCK POSITIONS_FRAC
