# Cell file generated by matador (Matthew Evans 2016)

%BLOCK LATTICE_CART
8.65434 0.0 0.0
-4.32717 7.49488 0.0
0.0 0.0 7.14677
%ENDBLOCK LATTICE_CART

%BLOCK POSITIONS_FRAC
P           0.999999000000000    0.999999000000000    0.264425000000000 
P           0.999999000000000    0.999999000000000    0.963396000000000 
P           0.999999000000000    0.499999000000000    0.093287000000000 
P           0.999999000000000    0.499999000000000    0.624058000000000 
P           0.499999000000000    0.999999000000000    0.093287000000000 
P           0.499999000000000    0.999999000000000    0.624058000000000 
P           0.499999000000000    0.499999000000000    0.093287000000000 
P           0.499999000000000    0.499999000000000    0.624058000000000 
K           0.058523000000000    0.747477000000000    0.285451000000000 
K           0.252521000000000    0.311045000000000    0.285451000000000 
K           0.311045000000000    0.058523000000000    0.285451000000000 
K           0.688953000000000    0.941475000000000    0.285451000000000 
K           0.747477000000000    0.688953000000000    0.285451000000000 
K           0.941475000000000    0.252521000000000    0.285451000000000 
%ENDBLOCK POSITIONS_FRAC
