# Cell file generated by matador (Matthew Evans 2016)

%BLOCK LATTICE_CART
7.60568 0.0 0.0
0.0 7.60568 0.0
0.0 0.0 7.60568
%ENDBLOCK LATTICE_CART

%BLOCK POSITIONS_FRAC
P           0.264351000000000    0.500000000000000    0.500000000000000 
P           0.500000000000000    0.264351000000000    0.500000000000000 
P           0.500000000000000    0.500000000000000    0.264351000000000 
P           0.500000000000000    0.500000000000000    0.735649000000000 
P           0.500000000000000    0.735649000000000    0.500000000000000 
P           0.735649000000000    0.500000000000000    0.500000000000000 
K           0.000000000000000    0.000000000000000    0.000000000000000 
K           0.211357000000000    0.211357000000000    0.788643000000000 
K           0.211357000000000    0.788643000000000    0.211357000000000 
K           0.788643000000000    0.211357000000000    0.211357000000000 
K           0.788643000000000    0.788643000000000    0.788643000000000 
%ENDBLOCK POSITIONS_FRAC
