# Cell file generated by matador (Matthew Evans 2016)

%BLOCK LATTICE_CART
10.3235 0.0 0.0
-5.16177 8.94044 0.0
0.0 0.0 5.19818
%ENDBLOCK LATTICE_CART

%BLOCK POSITIONS_FRAC
P           0.051147000000000    0.588830000000000    0.445550000000000 
P           0.109692000000000    0.710403000000000    0.219485000000000 
P           0.289597000000000    0.399289000000000    0.886151000000000 
P           0.302261000000000    0.639960000000000    0.643178000000000 
P           0.337700000000000    0.697739000000000    0.976511000000000 
P           0.342895000000000    0.215689000000000    0.220245000000000 
P           0.360040000000000    0.662300000000000    0.309844000000000 
P           0.411170000000000    0.462317000000000    0.112217000000000 
P           0.537683000000000    0.948853000000000    0.778884000000000 
P           0.600711000000000    0.890308000000000    0.552818000000000 
P           0.784311000000000    0.127206000000000    0.886911000000000 
P           0.872794000000000    0.657105000000000    0.553578000000000 
K           0.385448000000000    0.164653000000000    0.730104000000000 
K           0.779205000000000    0.614552000000000    0.063437000000000 
K           0.835347000000000    0.220795000000000    0.396770000000000 
%ENDBLOCK POSITIONS_FRAC
