# Cell file generated by matador (Matthew Evans 2016)

%BLOCK LATTICE_CART
7.15911 0.0 0.0
0.0 7.15911 0.0
0.0 0.0 7.15911
%ENDBLOCK LATTICE_CART

%BLOCK POSITIONS_FRAC
P           0.058850000000000    0.366711000000000    0.634771000000000 
P           0.058850000000000    0.633289000000000    0.365229000000000 
P           0.365229000000000    0.058850000000000    0.633289000000000 
P           0.365229000000000    0.941150000000000    0.366711000000000 
P           0.366711000000000    0.365229000000000    0.941150000000000 
P           0.366711000000000    0.634771000000000    0.058850000000000 
P           0.633289000000000    0.365229000000000    0.058850000000000 
P           0.633289000000000    0.634771000000000    0.941150000000000 
P           0.634771000000000    0.058850000000000    0.366711000000000 
P           0.634771000000000    0.941150000000000    0.633289000000000 
P           0.941150000000000    0.366711000000000    0.365229000000000 
P           0.941150000000000    0.633289000000000    0.634771000000000 
K           0.000000000000000    0.000000000000000    0.000000000000000 
K           0.500000000000000    0.500000000000000    0.500000000000000 
%ENDBLOCK POSITIONS_FRAC
