# Cell file generated by matador (Matthew Evans 2016)

%BLOCK LATTICE_CART
7.49455 0.0 0.0
-3.74727 6.49047 0.0
0.0 0.0 10.1209
%ENDBLOCK LATTICE_CART

%BLOCK POSITIONS_FRAC
P           0.000000000000000    0.000000000000000    0.062251000000000 
P           0.000000000000000    0.000000000000000    0.714150000000000 
P           0.333333000000000    0.666667000000000    0.971171000000000 
K           0.154781000000000    0.309562000000000    0.371087000000000 
K           0.154781000000000    0.845219000000000    0.371087000000000 
K           0.353358000000000    0.176679000000000    0.609660000000000 
K           0.513525000000000    0.027050000000000    0.118552000000000 
K           0.513525000000000    0.486475000000000    0.118552000000000 
K           0.690438000000000    0.845219000000000    0.371087000000000 
K           0.823321000000000    0.176679000000000    0.609660000000000 
K           0.823321000000000    0.646642000000000    0.609660000000000 
K           0.972950000000000    0.486475000000000    0.118552000000000 
%ENDBLOCK POSITIONS_FRAC
