# Cell file generated by matador (Matthew Evans 2016)

%BLOCK LATTICE_CART
6.56408 0.0 0.0
0.0 5.15582 0.0
-6.97342 0.0 12.9059
%ENDBLOCK LATTICE_CART

%BLOCK POSITIONS_FRAC
P           0.260090000000000    0.500000000000000    0.178974000000000 
P           0.816366000000000    0.273538000000000    0.805873000000000 
P           0.816366000000000    0.726462000000000    0.805873000000000 
K           0.051575000000000    0.000000000000000    0.440830000000000 
K           0.106248000000000    0.000000000000000    0.242009000000000 
K           0.373237000000000    0.000000000000000    0.673109000000000 
K           0.429043000000000    0.500000000000000    0.788373000000000 
K           0.457058000000000    0.000000000000000    0.986592000000000 
K           0.494822000000000    0.000000000000000    0.190158000000000 
K           0.567674000000000    0.000000000000000    0.411367000000000 
K           0.751756000000000    0.000000000000000    0.881423000000000 
K           0.843918000000000    0.000000000000000    0.635132000000000 
%ENDBLOCK POSITIONS_FRAC
