# Cell file generated by matador (Matthew Evans 2016)

%BLOCK LATTICE_CART
8.73293 0.0 0.0
0.0 7.54929 0.0
0.0 0.0 8.56184
%ENDBLOCK LATTICE_CART

%BLOCK POSITIONS_FRAC
P           0.141302000000000    0.193855000000000    0.144215000000000 
P           0.141302000000000    0.306145000000000    0.644215000000000 
P           0.150080000000000    0.600756000000000    0.262482000000000 
P           0.150080000000000    0.899244000000000    0.762482000000000 
P           0.349920000000000    0.600756000000000    0.262482000000000 
P           0.349920000000000    0.899244000000000    0.762482000000000 
P           0.358698000000000    0.193855000000000    0.144215000000000 
P           0.358698000000000    0.306145000000000    0.644215000000000 
P           0.641302000000000    0.693855000000000    0.644215000000000 
P           0.641302000000000    0.806145000000000    0.144215000000000 
P           0.650080000000000    0.100756000000000    0.762482000000000 
P           0.650080000000000    0.399244000000000    0.262482000000000 
P           0.849920000000000    0.100756000000000    0.762482000000000 
P           0.849920000000000    0.399244000000000    0.262482000000000 
P           0.858698000000000    0.693855000000000    0.644215000000000 
P           0.858698000000000    0.806145000000000    0.144215000000000 
K           0.000000000000000    0.000000000000000    0.504044000000000 
K           0.000000000000000    0.500000000000000    0.004044000000000 
K           0.500000000000000    0.000000000000000    0.504044000000000 
K           0.500000000000000    0.500000000000000    0.004044000000000 
%ENDBLOCK POSITIONS_FRAC
