# Cell file generated by matador (Matthew Evans 2016)

%BLOCK LATTICE_CART
7.6239 0.0 0.0
-3.81195 6.6025 0.0
0.0 0.0 8.97223
%ENDBLOCK LATTICE_CART

%BLOCK POSITIONS_FRAC
P          -0.000000000000000   -0.000000000000000    0.219737000000000 
P          -0.000000000000000   -0.000000000000000    0.780263000000000 
P           0.333333000000000    0.666667000000000    0.446930000000000 
P           0.333333000000000    0.666667000000000    0.886404000000000 
P           0.666667000000000    0.333333000000000    0.113596000000000 
P           0.666667000000000    0.333333000000000    0.553070000000000 
K          -0.000000000000000    0.500000000000000    0.500000000000000 
K           0.166667000000000    0.333333000000000    0.833333000000000 
K           0.166667000000000    0.833333000000000    0.833333000000000 
K           0.333333000000000    0.166667000000000    0.166667000000000 
K           0.500000000000000   -0.000000000000000    0.500000000000000 
K           0.500000000000000    0.500000000000000    0.500000000000000 
K           0.666667000000000    0.833333000000000    0.833333000000000 
K           0.833333000000000    0.166667000000000    0.166667000000000 
K           0.833333000000000    0.666667000000000    0.166667000000000 
%ENDBLOCK POSITIONS_FRAC
