# Cell file generated by matador (Matthew Evans 2016)

%BLOCK LATTICE_CART
7.53733 0.0 0.0
0.0 7.53733 0.0
0.0 0.0 7.53733
%ENDBLOCK LATTICE_CART

%BLOCK POSITIONS_FRAC
P           0.000000000000000    0.000000000000000    0.000000000000000 
P           0.146083000000000    0.146083000000000    0.146083000000000 
P           0.146083000000000    0.146083000000000    0.853917000000000 
P           0.146083000000000    0.853917000000000    0.146083000000000 
P           0.146083000000000    0.853917000000000    0.853917000000000 
P           0.500000000000000    0.500000000000000    0.500000000000000 
P           0.853917000000000    0.146083000000000    0.146083000000000 
P           0.853917000000000    0.146083000000000    0.853917000000000 
P           0.853917000000000    0.853917000000000    0.146083000000000 
P           0.853917000000000    0.853917000000000    0.853917000000000 
K           0.000000000000000    0.000000000000000    0.500000000000000 
K           0.000000000000000    0.500000000000000    0.000000000000000 
K           0.000000000000000    0.500000000000000    0.500000000000000 
K           0.500000000000000    0.000000000000000    0.000000000000000 
K           0.500000000000000    0.000000000000000    0.500000000000000 
K           0.500000000000000    0.500000000000000    0.000000000000000 
%ENDBLOCK POSITIONS_FRAC
