# Cell file generated by matador (Matthew Evans 2016)

%BLOCK LATTICE_CART
6.83969 0.0 0.0
0.0 7.16035 0.0
2.00945 0.0 6.01543
%ENDBLOCK LATTICE_CART

%BLOCK POSITIONS_FRAC
P           0.136406000000000    0.423943000000000    0.072277000000000 
P           0.136406000000000    0.576057000000000    0.072277000000000 
K           0.034181000000000    0.000000000000000    0.742148000000000 
K           0.055379000000000    0.000000000000000    0.195614000000000 
K           0.699131000000000    0.500000000000000    0.481932000000000 
K           0.846983000000000    0.238897000000000    0.731057000000000 
K           0.846983000000000    0.761103000000000    0.731057000000000 
%ENDBLOCK POSITIONS_FRAC
