# Cell file generated by matador (Matthew Evans 2016)

%BLOCK LATTICE_CART
7.51592 0.0 0.0
0.0 8.56252 0.0
0.0 0.0 7.29604
%ENDBLOCK LATTICE_CART

%BLOCK POSITIONS_FRAC
P           0.395977000000000    0.174731000000000    0.397025000000000 
P           0.395977000000000    0.174731000000000    0.602975000000000 
P           0.395977000000000    0.825269000000000    0.102975000000000 
P           0.395977000000000    0.825269000000000    0.897025000000000 
P           0.604023000000000    0.174731000000000    0.102975000000000 
P           0.604023000000000    0.174731000000000    0.897025000000000 
P           0.604023000000000    0.825269000000000    0.397025000000000 
P           0.604023000000000    0.825269000000000    0.602975000000000 
K           0.000000000000000    0.000000000000000    0.250000000000000 
K           0.000000000000000    0.000000000000000    0.750000000000000 
K           0.000000000000000    0.500000000000000    0.000000000000000 
K           0.000000000000000    0.500000000000000    0.500000000000000 
K           0.500000000000000    0.000000000000000    0.250000000000000 
K           0.500000000000000    0.000000000000000    0.750000000000000 
%ENDBLOCK POSITIONS_FRAC
