# Cell file generated by matador (Matthew Evans 2016)

%BLOCK LATTICE_CART
9.19117 -0.0 0.0
-4.59559 7.95979 0.0
0.0 0.0 5.95866
%ENDBLOCK LATTICE_CART

%BLOCK POSITIONS_FRAC
P           0.028185000000000    0.823717000000000    0.751713000000000 
P           0.132057000000000    0.312022000000000    0.567311000000000 
P           0.176283000000000    0.204468000000000    0.751713000000000 
P           0.179965000000000    0.867943000000000    0.567311000000000 
P           0.252691000000000    0.665571000000000    0.685306000000000 
P           0.334429000000000    0.587120000000000    0.685306000000000 
P           0.412880000000000    0.747309000000000    0.685306000000000 
P           0.666667000000000    0.333333000000000    0.948460000000000 
P           0.687978000000000    0.820035000000000    0.567311000000000 
P           0.795532000000000    0.971815000000000    0.751713000000000 
K           0.000000000000000    0.000000000000000    0.557096000000000 
K           0.333333000000000    0.666667000000000    0.065197000000000 
K           0.506860000000000    0.031048000000000    0.263573000000000 
K           0.524189000000000    0.493140000000000    0.263573000000000 
K           0.666667000000000    0.333333000000000    0.531810000000000 
K           0.968952000000000    0.475811000000000    0.263573000000000 
%ENDBLOCK POSITIONS_FRAC
