# Cell file generated by matador (Matthew Evans 2016)

%BLOCK LATTICE_CART
9.42194 0.0 0.0
0.0 7.58879 0.0
0.0 0.0 6.00254
%ENDBLOCK LATTICE_CART

%BLOCK POSITIONS_FRAC
P           0.000000000000000    0.000000000000000    0.000000000000000 
P           0.447421000000000    0.000000000000000    0.099048000000000 
P           0.447421000000000    0.000000000000000    0.900952000000000 
P           0.500000000000000    0.121031000000000    0.148514000000000 
P           0.500000000000000    0.121031000000000    0.851486000000000 
P           0.500000000000000    0.500000000000000    0.500000000000000 
P           0.500000000000000    0.878969000000000    0.148514000000000 
P           0.500000000000000    0.878969000000000    0.851486000000000 
P           0.552579000000000    0.000000000000000    0.099048000000000 
P           0.552579000000000    0.000000000000000    0.900952000000000 
K           0.102626000000000    0.000000000000000    0.289066000000000 
K           0.102626000000000    0.000000000000000    0.710934000000000 
K           0.309123000000000    0.000000000000000    0.338100000000000 
K           0.309123000000000    0.000000000000000    0.661900000000000 
K           0.690877000000000    0.000000000000000    0.338100000000000 
K           0.690877000000000    0.000000000000000    0.661900000000000 
K           0.897374000000000    0.000000000000000    0.289066000000000 
K           0.897374000000000    0.000000000000000    0.710934000000000 
%ENDBLOCK POSITIONS_FRAC
