# Cell file generated by matador (Matthew Evans 2016)

%BLOCK LATTICE_CART
8.32916 0.0 0.0
0.0 8.32916 0.0
0.0 0.0 9.72016
%ENDBLOCK LATTICE_CART

%BLOCK POSITIONS_FRAC
P           0.000000000000000    0.000000000000000    0.000000000000000 
P           0.000000000000000    0.000000000000000    0.500000000000000 
P           0.500000000000000    0.500000000000000    0.000000000000000 
P           0.500000000000000    0.500000000000000    0.500000000000000 
K           0.000000000000000    0.178167000000000    0.368483000000000 
K           0.000000000000000    0.500000000000000    0.250000000000000 
K           0.000000000000000    0.500000000000000    0.750000000000000 
K           0.000000000000000    0.821833000000000    0.368483000000000 
K           0.178167000000000    0.000000000000000    0.631517000000000 
K           0.321833000000000    0.500000000000000    0.131517000000000 
K           0.500000000000000    0.000000000000000    0.250000000000000 
K           0.500000000000000    0.000000000000000    0.750000000000000 
K           0.500000000000000    0.321833000000000    0.868483000000000 
K           0.500000000000000    0.678167000000000    0.868483000000000 
K           0.678167000000000    0.500000000000000    0.131517000000000 
K           0.821833000000000    0.000000000000000    0.631517000000000 
%ENDBLOCK POSITIONS_FRAC
