# Cell file generated by matador (Matthew Evans 2016)

%BLOCK LATTICE_CART
11.9413 0.0 0.0
0.0 6.6433 0.0
0.0 0.0 14.5736
%ENDBLOCK LATTICE_CART

%BLOCK POSITIONS_FRAC
P           0.000000000000000    0.000000000000000    0.830901000000000 
P           0.110670000000000    0.278709000000000    0.293746000000000 
P           0.110670000000000    0.721291000000000    0.293746000000000 
P           0.500000000000000    0.000000000000000    0.563034000000000 
P           0.500000000000000    0.000000000000000    0.824547000000000 
P           0.889330000000000    0.278709000000000    0.293746000000000 
P           0.889330000000000    0.721291000000000    0.293746000000000 
K           0.000000000000000    0.000000000000000    0.121845000000000 
K           0.000000000000000    0.229293000000000    0.712010000000000 
K           0.000000000000000    0.243566000000000    0.945466000000000 
K           0.000000000000000    0.252387000000000    0.446614000000000 
K           0.000000000000000    0.500000000000000    0.257188000000000 
K           0.000000000000000    0.747613000000000    0.446614000000000 
K           0.000000000000000    0.756434000000000    0.945466000000000 
K           0.000000000000000    0.770707000000000    0.712010000000000 
K           0.168496000000000    0.500000000000000    0.098042000000000 
K           0.227153000000000    0.500000000000000    0.876710000000000 
K           0.235583000000000    0.000000000000000    0.884007000000000 
K           0.294532000000000    0.000000000000000    0.434093000000000 
K           0.500000000000000    0.000000000000000    0.219077000000000 
K           0.500000000000000    0.246664000000000    0.676548000000000 
K           0.500000000000000    0.269509000000000    0.024035000000000 
K           0.500000000000000    0.730491000000000    0.024035000000000 
K           0.500000000000000    0.753336000000000    0.676548000000000 
K           0.705468000000000    0.000000000000000    0.434093000000000 
K           0.764417000000000    0.000000000000000    0.884007000000000 
K           0.772847000000000    0.500000000000000    0.876710000000000 
K           0.831504000000000    0.500000000000000    0.098042000000000 
%ENDBLOCK POSITIONS_FRAC
