# Cell file generated by matador (Matthew Evans 2016)

%BLOCK LATTICE_CART
9.30927 0.0 0.0
0.0 8.04681 0.0
0.0 0.0 6.78487
%ENDBLOCK LATTICE_CART

%BLOCK POSITIONS_FRAC
P           0.000000000000000    0.000000000000000    0.500000000000000 
P           0.000000000000000    0.500000000000000    0.000000000000000 
P           0.000000000000000    0.500000000000000    0.500000000000000 
P           0.500000000000000    0.000000000000000    0.000000000000000 
P           0.500000000000000    0.000000000000000    0.500000000000000 
P           0.500000000000000    0.500000000000000    0.500000000000000 
K           0.000000000000000    0.000000000000000    0.000000000000000 
K           0.000000000000000    0.199368000000000    0.285104000000000 
K           0.000000000000000    0.199368000000000    0.714896000000000 
K           0.000000000000000    0.800632000000000    0.285104000000000 
K           0.000000000000000    0.800632000000000    0.714896000000000 
K           0.253188000000000    0.000000000000000    0.172438000000000 
K           0.253188000000000    0.000000000000000    0.827562000000000 
K           0.746812000000000    0.000000000000000    0.172438000000000 
K           0.746812000000000    0.000000000000000    0.827562000000000 
%ENDBLOCK POSITIONS_FRAC
