# Cell file generated by matador (Matthew Evans 2016)

%BLOCK LATTICE_CART
7.01645 0.0 0.0
-3.50822 6.07642 0.0
0.0 0.0 8.69607
%ENDBLOCK LATTICE_CART

%BLOCK POSITIONS_FRAC
P          -0.000000000000000    0.000000000000000    0.000000000000000 
P          -0.000000000000000    0.000000000000000    0.500000000000000 
P           0.021279000000000    0.391995000000000    0.250000000000000 
P           0.333333000000000    0.666667000000000    0.750000000000000 
P           0.370716000000000    0.978721000000000    0.250000000000000 
P           0.391995000000000    0.021279000000000    0.750000000000000 
P           0.608005000000000    0.629284000000000    0.250000000000000 
P           0.629284000000000    0.608005000000000    0.750000000000000 
P           0.666666000000000    0.333334000000000    0.250000000000000 
P           0.978721000000000    0.370716000000000    0.750000000000000 
K           0.333333000000000    0.666667000000000    0.250000000000000 
K           0.666666000000000    0.333334000000000    0.750000000000000 
%ENDBLOCK POSITIONS_FRAC
