# Cell file generated by matador (Matthew Evans 2016)

%BLOCK LATTICE_CART
8.49452 0.0 0.0
-0.900219 8.90326 0.0
1.96465 -1.74927 6.13882
%ENDBLOCK LATTICE_CART

%BLOCK POSITIONS_FRAC
P           0.000000000000000    0.500000000000000    0.500000000000000 
P           0.500000000000000    0.000000000000000    0.500000000000000 
K           0.000000000000000    0.000000000000000    0.000000000000000 
K           0.000000000000000    0.000000000000000    0.500000000000000 
K           0.000000000000000    0.500000000000000    0.000000000000000 
K           0.141555000000000    0.107820000000000    0.200082000000000 
K           0.303438000000000    0.580633000000000    0.758268000000000 
K           0.500000000000000    0.000000000000000    0.000000000000000 
K           0.500000000000000    0.500000000000000    0.000000000000000 
K           0.500000000000000    0.500000000000000    0.500000000000000 
K           0.696562000000000    0.419367000000000    0.241732000000000 
K           0.858445000000000    0.892180000000000    0.799918000000000 
%ENDBLOCK POSITIONS_FRAC
