# Cell file generated by matador (Matthew Evans 2016)

%BLOCK LATTICE_CART
4.99554 0.0 0.0
3.51215 8.61688 0.0
2.48468 1.17716 5.93932
%ENDBLOCK LATTICE_CART

%BLOCK POSITIONS_FRAC
P           0.015219000000000    0.843134000000000    0.332930000000000 
P           0.273231000000000    0.696743000000000    0.609588000000000 
P           0.726769000000000    0.303257000000000    0.390412000000000 
P           0.984781000000000    0.156866000000000    0.667070000000000 
K           0.000000000000000    0.000000000000000    0.000000000000000 
K           0.000000000000000    0.000000000000000    0.500000000000000 
K           0.000000000000000    0.500000000000000    0.000000000000000 
K           0.000000000000000    0.500000000000000    0.500000000000000 
K           0.500000000000000    0.000000000000000    0.000000000000000 
K           0.500000000000000    0.500000000000000    0.000000000000000 
%ENDBLOCK POSITIONS_FRAC
