# Cell file generated by matador (Matthew Evans 2016)

%BLOCK LATTICE_CART
5.84979 0.0 0.0
-2.9249 5.06607 0.0
0.0 0.0 9.59177
%ENDBLOCK LATTICE_CART

%BLOCK POSITIONS_FRAC
P           0.269744000000000    0.539488000000000    0.500000000000000 
P           0.269744000000000    0.730256000000000    0.500000000000000 
P           0.333333000000000    0.666667000000000    0.143457000000000 
P           0.333333000000000    0.666667000000000    0.856543000000000 
P           0.460512000000000    0.730256000000000    0.500000000000000 
K           0.000034000000000    0.333063000000000    0.000000000000000 
K           0.000034000000000    0.666971000000000    0.000000000000000 
K           0.333029000000000    0.333063000000000    0.000000000000000 
K           0.333029000000000    0.999966000000000    0.000000000000000 
K           0.666937000000000    0.666971000000000    0.000000000000000 
K           0.666937000000000    0.999966000000000    0.000000000000000 
%ENDBLOCK POSITIONS_FRAC
