# Cell file generated by matador (Matthew Evans 2016)

%BLOCK LATTICE_CART
6.51912 0.0 0.0
-3.25956 5.64572 0.0
0.0 0.0 5.39564
%ENDBLOCK LATTICE_CART

%BLOCK POSITIONS_FRAC
P          -0.000000000000000    0.000000000000000    0.000000000000000 
P          -0.000000000000000    0.000000000000000    0.500000000000000 
P           0.182579000000000    0.365158000000000    0.215412000000000 
P           0.182579000000000    0.817421000000000    0.215412000000000 
P           0.365158000000000    0.182579000000000    0.784588000000000 
P           0.634842000000000    0.817421000000000    0.215412000000000 
P           0.817421000000000    0.182579000000000    0.784588000000000 
P           0.817421000000000    0.634842000000000    0.784588000000000 
K           0.333333000000000    0.666667000000000    0.603691000000000 
K           0.666666000000000    0.333334000000000    0.396309000000000 
%ENDBLOCK POSITIONS_FRAC
