# Cell file generated by matador (Matthew Evans 2016)

%BLOCK LATTICE_CART
8.99549 0.0 0.0
-4.49774 7.79032 0.0
0.0 0.0 6.56091
%ENDBLOCK LATTICE_CART

%BLOCK POSITIONS_FRAC
P           0.258746000000000    0.517492000000000    0.666667000000000 
P           0.258746000000000    0.741254000000000    0.333334000000000 
P           0.301582000000000    0.150791000000000    0.000000000000000 
P           0.482508000000000    0.741254000000000    0.000000000000000 
P           0.849209000000000    0.150791000000000    0.333334000000000 
P           0.849209000000000    0.698418000000000    0.666667000000000 
K           0.026953000000000    0.243468000000000    0.756564000000000 
K           0.026953000000000    0.783484000000000    0.243437000000000 
K           0.216516000000000    0.243468000000000    0.576770000000000 
K           0.216516000000000    0.973047000000000    0.423231000000000 
K           0.756532000000000    0.783484000000000    0.089897000000000 
K           0.756532000000000    0.973047000000000    0.910103000000000 
%ENDBLOCK POSITIONS_FRAC
