# Cell file generated by matador (Matthew Evans 2016)

%BLOCK LATTICE_CART
8.85515 0.0 0.0
-4.42758 7.66879 0.0
0.0 0.0 5.45093
%ENDBLOCK LATTICE_CART

%BLOCK POSITIONS_FRAC
P           0.000000000000000    0.500000000000000    0.000000000000000 
P           0.000000000000000    0.500000000000000    0.500000000000000 
P           0.035047000000000    0.743204000000000    0.750000000000000 
P           0.256796000000000    0.291844000000000    0.750000000000000 
P           0.291844000000000    0.035047000000000    0.250000000000000 
P           0.333333000000000    0.666667000000000    0.750000000000000 
P           0.500000000000000    0.000000000000000    0.000000000000000 
P           0.500000000000000    0.000000000000000    0.500000000000000 
P           0.500000000000000    0.500000000000000    0.000000000000000 
P           0.500000000000000    0.500000000000000    0.500000000000000 
P           0.666667000000000    0.333333000000000    0.250000000000000 
P           0.708156000000000    0.964953000000000    0.750000000000000 
P           0.743204000000000    0.708156000000000    0.250000000000000 
P           0.964953000000000    0.256796000000000    0.250000000000000 
K           0.000000000000000    0.000000000000000    0.250000000000000 
K           0.000000000000000    0.000000000000000    0.750000000000000 
%ENDBLOCK POSITIONS_FRAC
