# Cell file generated by matador (Matthew Evans 2016)

%BLOCK LATTICE_CART
8.40582 0.0 0.0
-4.20291 7.27965 0.0
0.0 0.0 10.9955
%ENDBLOCK LATTICE_CART

%BLOCK POSITIONS_FRAC
P           0.333332000000000    0.666666000000000    0.190758000000000 
P           0.333332000000000    0.666666000000000    0.639946000000000 
P           0.666666000000000    0.333332000000000    0.190758000000000 
P           0.666666000000000    0.333332000000000    0.639946000000000 
K           0.208411000000000    0.416822000000000    0.437371000000000 
K           0.208411000000000    0.791587000000000    0.437371000000000 
K           0.212758000000000    0.425516000000000    0.830349000000000 
K           0.212758000000000    0.787240000000000    0.830349000000000 
K           0.416822000000000    0.208411000000000    0.437371000000000 
K           0.425516000000000    0.212758000000000    0.830349000000000 
K           0.574482000000000    0.787240000000000    0.830349000000000 
K           0.583176000000000    0.791587000000000    0.437371000000000 
K           0.787240000000000    0.212758000000000    0.830349000000000 
K           0.787240000000000    0.574482000000000    0.830349000000000 
K           0.791587000000000    0.208411000000000    0.437371000000000 
K           0.791587000000000    0.583176000000000    0.437371000000000 
%ENDBLOCK POSITIONS_FRAC
