# Cell file generated by matador (Matthew Evans 2016)

%BLOCK LATTICE_CART
7.33041 0.0 0.0
0.0 7.33041 0.0
0.0 0.0 10.1978
%ENDBLOCK LATTICE_CART

%BLOCK POSITIONS_FRAC
P           0.000000000000000   -0.000000000000000    0.278442000000000 
P           0.000000000000000   -0.000000000000000    0.721558000000000 
P           0.500000000000000    0.500000000000000    0.221558000000000 
P           0.500000000000000    0.500000000000000    0.778442000000000 
K           0.000000000000000   -0.000000000000000   -0.000000000000000 
K           0.000000000000000    0.500000000000000   -0.000000000000000 
K           0.000000000000000    0.500000000000000    0.250000000000000 
K           0.000000000000000    0.500000000000000    0.500000000000000 
K           0.000000000000000    0.500000000000000    0.750000000000000 
K           0.500000000000000   -0.000000000000000   -0.000000000000000 
K           0.500000000000000   -0.000000000000000    0.250000000000000 
K           0.500000000000000   -0.000000000000000    0.500000000000000 
K           0.500000000000000   -0.000000000000000    0.750000000000000 
K           0.500000000000000    0.500000000000000    0.500000000000000 
%ENDBLOCK POSITIONS_FRAC
