# Cell file generated by matador (Matthew Evans 2016)

%BLOCK LATTICE_CART
9.63042 0.0 0.0
-4.81521 8.34019 0.0
0.0 0.0 8.00801
%ENDBLOCK LATTICE_CART

%BLOCK POSITIONS_FRAC
P           0.000000000000000    0.000000000000000    0.000000000000000 
P           0.000000000000000    0.000000000000000    0.500000000000000 
P           0.333333000000000    0.666667000000000    0.000000000000000 
P           0.666667000000000    0.333333000000000    0.000000000000000 
K           0.000000000000000    0.414294000000000    0.215684000000000 
K           0.000000000000000    0.414294000000000    0.784316000000000 
K           0.195761000000000    0.794619000000000    0.500000000000000 
K           0.205381000000000    0.401143000000000    0.500000000000000 
K           0.401143000000000    0.205381000000000    0.500000000000000 
K           0.414294000000000    0.000000000000000    0.215684000000000 
K           0.414294000000000    0.000000000000000    0.784316000000000 
K           0.585706000000000    0.585706000000000    0.215684000000000 
K           0.585706000000000    0.585706000000000    0.784316000000000 
K           0.598857000000000    0.804239000000000    0.500000000000000 
K           0.794619000000000    0.195761000000000    0.500000000000000 
K           0.804239000000000    0.598857000000000    0.500000000000000 
%ENDBLOCK POSITIONS_FRAC
