# Cell file generated by matador (Matthew Evans 2016)

%BLOCK LATTICE_CART
6.03383 0.0 0.0
0.0 6.03383 0.0
0.0 0.0 7.12536
%ENDBLOCK LATTICE_CART

%BLOCK POSITIONS_FRAC
P           0.146474000000000    0.360872000000000    0.500000000000000 
P           0.146474000000000    0.639128000000000   -0.000000000000000 
P           0.360872000000000    0.146474000000000   -0.000000000000000 
P           0.360872000000000    0.853526000000000    0.500000000000000 
P           0.639128000000000    0.146474000000000    0.500000000000000 
P           0.639128000000000    0.853526000000000   -0.000000000000000 
P           0.853526000000000    0.360872000000000   -0.000000000000000 
P           0.853526000000000    0.639128000000000    0.500000000000000 
K           0.000000000000000    0.000000000000000    0.250000000000000 
K           0.000000000000000    0.000000000000000    0.750000000000000 
%ENDBLOCK POSITIONS_FRAC
