# Cell file generated by matador (Matthew Evans 2016)

%BLOCK LATTICE_CART
7.8661 -0.0 0.0
-3.93305 6.81224 0.0
0.0 0.0 9.02517
%ENDBLOCK LATTICE_CART

%BLOCK POSITIONS_FRAC
P          -0.000000000000000    0.500000000000000    0.000000000000000 
P          -0.000000000000000    0.500000000000000    0.500000000000000 
P           0.081704000000000    0.454351000000000    0.359416000000000 
P           0.372647000000000    0.918296000000000    0.359416000000000 
P           0.454351000000000    0.372647000000000    0.640584000000000 
P           0.500000000000000    0.000000000000000    0.000000000000000 
P           0.500000000000000    0.000000000000000    0.500000000000000 
P           0.500000000000000    0.500000000000000    0.000000000000000 
P           0.500000000000000    0.500000000000000    0.500000000000000 
P           0.545649000000000    0.627353000000000    0.359416000000000 
P           0.627353000000000    0.081704000000000    0.640584000000000 
P           0.918296000000000    0.545649000000000    0.640584000000000 
K           0.333333000000000    0.666667000000000    0.773980000000000 
K           0.666666000000000    0.333334000000000    0.226020000000000 
%ENDBLOCK POSITIONS_FRAC
