# Cell file generated by matador (Matthew Evans 2016)

%BLOCK LATTICE_CART
7.48838 0.0 0.0
-3.74419 6.48512 0.0
0.0 0.0 9.45291
%ENDBLOCK LATTICE_CART

%BLOCK POSITIONS_FRAC
P           0.000000000000000    0.000000000000000    0.500000000000000 
P           0.000000000000000    0.500000000000000    0.000000000000000 
P           0.333333000000000    0.666667000000000    0.151072000000000 
P           0.500000000000000    0.000000000000000    0.000000000000000 
P           0.500000000000000    0.500000000000000    0.000000000000000 
P           0.666667000000000    0.333333000000000    0.848928000000000 
K           0.000000000000000    0.000000000000000    0.000000000000000 
K           0.150743000000000    0.301486000000000    0.744357000000000 
K           0.150743000000000    0.849257000000000    0.744357000000000 
K           0.301486000000000    0.150743000000000    0.255643000000000 
K           0.698514000000000    0.849257000000000    0.744357000000000 
K           0.849257000000000    0.150743000000000    0.255643000000000 
K           0.849257000000000    0.698514000000000    0.255643000000000 
%ENDBLOCK POSITIONS_FRAC
