# Cell file generated by matador (Matthew Evans 2016)

%BLOCK LATTICE_CART
9.94866 0.0 0.0
-4.97433 8.61579 0.0
0.0 0.0 5.0381
%ENDBLOCK LATTICE_CART

%BLOCK POSITIONS_FRAC
P           0.000000000000000    0.000000000000000    0.923191000000000 
P           0.000000000000000    0.500000000000000    0.318963000000000 
P           0.500000000000000    0.000000000000000    0.318963000000000 
P           0.500000000000000    0.500000000000000    0.318963000000000 
K           0.188653000000000    0.377305000000000    0.696016000000000 
K           0.188653000000000    0.811347000000000    0.696016000000000 
K           0.333333000000000    0.666667000000000    0.712557000000000 
K           0.377305000000000    0.188653000000000    0.696016000000000 
K           0.622695000000000    0.811347000000000    0.696016000000000 
K           0.666667000000000    0.333333000000000    0.712557000000000 
K           0.811347000000000    0.188653000000000    0.696016000000000 
K           0.811347000000000    0.622695000000000    0.696016000000000 
%ENDBLOCK POSITIONS_FRAC
