# Cell file generated by matador (Matthew Evans 2016)

%BLOCK LATTICE_CART
5.21944 0.0 0.0
-2.60972 4.52017 0.0
0.0 0.0 5.39712
%ENDBLOCK LATTICE_CART

%BLOCK POSITIONS_FRAC
P           0.000000000000000    0.000000000000000    0.000000000000000 
P           0.000000000000000    0.000000000000000    0.500000000000000 
K           0.333333000000000    0.666667000000000    0.500000000000000 
K           0.666667000000000    0.333333000000000    0.500000000000000 
%ENDBLOCK POSITIONS_FRAC
