# Cell file generated by matador (Matthew Evans 2016)

%BLOCK LATTICE_CART
7.8628 0.0 0.0
-3.9314 6.80939 0.0
0.0 0.0 8.58526
%ENDBLOCK LATTICE_CART

%BLOCK POSITIONS_FRAC
P           0.000000000000000    0.000000000000000    0.731553000000000 
P           0.333333000000000    0.666667000000000    0.398220000000000 
P           0.666667000000000    0.333333000000000    0.064887000000000 
K           0.071688000000000    0.535844000000000    0.671510000000000 
K           0.130823000000000    0.261645000000000    0.004843000000000 
K           0.130823000000000    0.869177000000000    0.004843000000000 
K           0.405021000000000    0.202511000000000    0.338176000000000 
K           0.464156000000000    0.535844000000000    0.671510000000000 
K           0.464156000000000    0.928312000000000    0.671510000000000 
K           0.738355000000000    0.869177000000000    0.004843000000000 
K           0.797489000000000    0.202511000000000    0.338176000000000 
K           0.797489000000000    0.594979000000000    0.338176000000000 
%ENDBLOCK POSITIONS_FRAC
