# Cell file generated by matador (Matthew Evans 2016)

%BLOCK LATTICE_CART
6.34166 0.0 0.0
0.0 6.34166 0.0
0.0 0.0 6.58413
%ENDBLOCK LATTICE_CART

%BLOCK POSITIONS_FRAC
P           0.000000000000000    0.000000000000000    0.000000000000000 
P           0.000000000000000    0.000000000000000    0.196240000000000 
P           0.000000000000000    0.000000000000000    0.803760000000000 
P           0.500000000000000    0.500000000000000    0.300618000000000 
P           0.500000000000000    0.500000000000000    0.500000000000000 
P           0.500000000000000    0.500000000000000    0.699382000000000 
K           0.000000000000000    0.000000000000000    0.500000000000000 
K           0.197827000000000    0.372900000000000    0.432271000000000 
K           0.372900000000000    0.802173000000000    0.567729000000000 
K           0.627100000000000    0.197827000000000    0.567729000000000 
K           0.802173000000000    0.627100000000000    0.432271000000000 
%ENDBLOCK POSITIONS_FRAC
