# Cell file generated by matador (Matthew Evans 2016)

%BLOCK LATTICE_CART
8.09894 0.0 0.0
0.0 7.35476 0.0
0.0 0.0 8.49948
%ENDBLOCK LATTICE_CART

%BLOCK POSITIONS_FRAC
P          -0.000000000000000    0.000000000000000    0.197748000000000 
P          -0.000000000000000    0.000000000000000    0.645007000000000 
P          -0.000000000000000    0.000000000000000    0.949857000000000 
P           0.138256000000000    0.527501000000000    0.452252000000000 
P           0.361744000000000    0.027501000000000    0.952252000000000 
P           0.500000000000000    0.500000000000000    0.145007000000000 
P           0.500000000000000    0.500000000000000    0.449857000000000 
P           0.500000000000000    0.500000000000000    0.697748000000000 
P           0.638256000000000    0.972499000000000    0.952252000000000 
P           0.861744000000000    0.472499000000000    0.452252000000000 
K          -0.000000000000000    0.500000000000000    0.174461000000000 
K          -0.000000000000000    0.500000000000000    0.860174000000000 
K           0.500000000000000    0.000000000000000    0.360174000000000 
K           0.500000000000000    0.000000000000000    0.674461000000000 
%ENDBLOCK POSITIONS_FRAC
