# Cell file generated by matador (Matthew Evans 2016)

%BLOCK LATTICE_CART
5.60564 0.0 0.0
0.0 5.09297 0.0
1.79871 0.0 5.15464
%ENDBLOCK LATTICE_CART

%BLOCK POSITIONS_FRAC
P           0.061766000000000    0.500000000000000    0.243344000000000 
P           0.390442000000000    0.000000000000000    0.666511000000000 
P           0.830365000000000    0.000000000000000    0.503176000000000 
P           0.884924000000000    0.500000000000000    0.927570000000000 
P           0.885825000000000    0.357687000000000    0.728463000000000 
P           0.885825000000000    0.642313000000000    0.728463000000000 
P           0.937548000000000    0.000000000000000    0.933385000000000 
K           0.380434000000000    0.500000000000000    0.471605000000000 
%ENDBLOCK POSITIONS_FRAC
