# Cell file generated by matador (Matthew Evans 2016)

%BLOCK LATTICE_CART
10.7895 0.0 0.0
-5.39473 9.34394 0.0
0.0 0.0 5.1622
%ENDBLOCK LATTICE_CART

%BLOCK POSITIONS_FRAC
P           0.135225000000000    0.600393000000000    0.112139000000000 
P           0.135225000000000    0.600393000000000    0.387861000000000 
P           0.333333000000000    0.666667000000000    0.750000000000000 
P           0.399607000000000    0.534832000000000    0.112139000000000 
P           0.399607000000000    0.534832000000000    0.387861000000000 
P           0.465168000000000    0.864775000000000    0.112139000000000 
P           0.465168000000000    0.864775000000000    0.387861000000000 
P           0.534832000000000    0.399607000000000    0.612139000000000 
P           0.534832000000000    0.399607000000000    0.887861000000000 
P           0.600393000000000    0.135225000000000    0.612139000000000 
P           0.600393000000000    0.135225000000000    0.887861000000000 
P           0.666667000000000    0.333333000000000    0.250000000000000 
P           0.864775000000000    0.465168000000000    0.612139000000000 
P           0.864775000000000    0.465168000000000    0.887861000000000 
K           0.000000000000000    0.000000000000000    0.250000000000000 
K           0.000000000000000    0.000000000000000    0.750000000000000 
K           0.333333000000000    0.666667000000000    0.250000000000000 
K           0.666667000000000    0.333333000000000    0.750000000000000 
%ENDBLOCK POSITIONS_FRAC
