# Cell file generated by matador (Matthew Evans 2016)

%BLOCK LATTICE_CART
11.5961 0.0 0.0
-5.79807 10.0426 0.0
0.0 0.0 8.04173
%ENDBLOCK LATTICE_CART

%BLOCK POSITIONS_FRAC
P           0.000000000000000    0.000000000000000   -0.000000000000000 
P           0.000000000000000    0.000000000000000    0.500000000000000 
P           0.333333000000000    0.666667000000000    0.166667000000000 
P           0.333333000000000    0.666667000000000    0.666667000000000 
P           0.666667000000000    0.333333000000000    0.333333000000000 
P           0.666667000000000    0.333333000000000    0.833333000000000 
K           0.000000000000000    0.477845000000000    0.500000000000000 
K           0.000000000000000    0.540660000000000   -0.000000000000000 
K           0.126007000000000    0.792673000000000    0.333333000000000 
K           0.144511000000000    0.333333000000000    0.833333000000000 
K           0.188822000000000    0.855489000000000    0.833333000000000 
K           0.207327000000000    0.333333000000000    0.333333000000000 
K           0.333333000000000    0.144511000000000    0.166667000000000 
K           0.333333000000000    0.207327000000000    0.666667000000000 
K           0.459340000000000    0.459340000000000   -0.000000000000000 
K           0.477845000000000    0.000000000000000    0.500000000000000 
K           0.522155000000000    0.522155000000000    0.500000000000000 
K           0.540660000000000    0.000000000000000   -0.000000000000000 
K           0.666667000000000    0.811178000000000    0.833333000000000 
K           0.666667000000000    0.873993000000000    0.333333000000000 
K           0.792673000000000    0.126007000000000    0.666667000000000 
K           0.811178000000000    0.666667000000000    0.166667000000000 
K           0.855489000000000    0.188822000000000    0.166667000000000 
K           0.873993000000000    0.666667000000000    0.666667000000000 
%ENDBLOCK POSITIONS_FRAC
