# Cell file generated by matador (Matthew Evans 2016)

%BLOCK LATTICE_CART
6.81873 0.0 0.0
-3.40936 5.90519 0.0
0.0 0.0 8.07051
%ENDBLOCK LATTICE_CART

%BLOCK POSITIONS_FRAC
P           0.032306000000000    0.881744000000000    0.324799000000000 
P           0.118256000000000    0.150562000000000    0.324799000000000 
P           0.182771000000000    0.634361000000000    0.991465000000000 
P           0.365639000000000    0.548410000000000    0.991465000000000 
P           0.451590000000000    0.817229000000000    0.991465000000000 
P           0.516104000000000    0.301027000000000    0.658132000000000 
P           0.698973000000000    0.215077000000000    0.658132000000000 
P           0.784923000000000    0.483896000000000    0.658132000000000 
P           0.849438000000000    0.967694000000000    0.324799000000000 
K           0.000000000000000   -0.000000000000000    0.987411000000000 
K           0.333333000000000    0.666667000000000    0.654078000000000 
K           0.666667000000000    0.333333000000000    0.320744000000000 
%ENDBLOCK POSITIONS_FRAC
