# Cell file generated by matador (Matthew Evans 2016)

%BLOCK LATTICE_CART
5.37226 0.0 0.0
-2.68613 4.65251 0.0
0.0 0.0 10.3317
%ENDBLOCK LATTICE_CART

%BLOCK POSITIONS_FRAC
P           0.155495000000000    0.577747000000000    0.138156000000000 
P           0.422253000000000    0.577747000000000    0.138156000000000 
P           0.422253000000000    0.844505000000000    0.138156000000000 
P           0.507641000000000    0.015280000000000    0.300457000000000 
P           0.507641000000000    0.492359000000000    0.300457000000000 
P           0.984720000000000    0.492359000000000    0.300457000000000 
K           0.317143000000000    0.158571000000000    0.043538000000000 
K           0.333334000000000    0.666666000000000    0.537709000000000 
K           0.666667000000000    0.333333000000000    0.741406000000000 
K           0.841429000000000    0.158571000000000    0.043538000000000 
K           0.841429000000000    0.682857000000000    0.043538000000000 
%ENDBLOCK POSITIONS_FRAC
