# Cell file generated by matador (Matthew Evans 2016)

%BLOCK LATTICE_CART
11.1909 0.0 0.0
0.0 11.1909 0.0
0.0 0.0 4.13967
%ENDBLOCK LATTICE_CART

%BLOCK POSITIONS_FRAC
P           0.085445000000000    0.156968000000000    0.000000000000000 
P           0.156968000000000    0.914555000000000    0.000000000000000 
P           0.256544000000000    0.567240000000000    0.000000000000000 
P           0.432760000000000    0.256544000000000    0.000000000000000 
P           0.567240000000000    0.743456000000000    0.000000000000000 
P           0.743456000000000    0.432760000000000    0.000000000000000 
P           0.843032000000000    0.085445000000000    0.000000000000000 
P           0.914555000000000    0.843032000000000    0.000000000000000 
K           0.000000000000000    0.000000000000000    0.000000000000000 
K           0.000000000000000    0.000000000000000    0.500000000000000 
K           0.000000000000000    0.500000000000000    0.500000000000000 
K           0.500000000000000    0.000000000000000    0.500000000000000 
K           0.500000000000000    0.500000000000000    0.000000000000000 
K           0.500000000000000    0.500000000000000    0.500000000000000 
%ENDBLOCK POSITIONS_FRAC
