# Cell file generated by matador (Matthew Evans 2016)

%BLOCK LATTICE_CART
9.27007 0.0 0.0
-4.63504 8.02812 0.0
0.0 0.0 13.0742
%ENDBLOCK LATTICE_CART

%BLOCK POSITIONS_FRAC
P           0.092470000000000    0.849036000000000    0.250000000000000 
P           0.150964000000000    0.243434000000000    0.250000000000000 
P           0.243434000000000    0.092470000000000    0.750000000000000 
P           0.756566000000000    0.907530000000000    0.250000000000000 
P           0.849036000000000    0.756566000000000    0.750000000000000 
P           0.907530000000000    0.150964000000000    0.750000000000000 
K           0.000000000000000    0.500000000000000   -0.000000000000000 
K           0.000000000000000    0.500000000000000    0.500000000000000 
K           0.151365000000000    0.665341000000000    0.250000000000000 
K           0.153720000000000    0.707499000000000    0.750000000000000 
K           0.292501000000000    0.446222000000000    0.750000000000000 
K           0.334659000000000    0.486024000000000    0.250000000000000 
K           0.446222000000000    0.153720000000000    0.250000000000000 
K           0.486024000000000    0.151365000000000    0.750000000000000 
K           0.500000000000000    0.000000000000000   -0.000000000000000 
K           0.500000000000000    0.000000000000000    0.500000000000000 
K           0.500000000000000    0.500000000000000   -0.000000000000000 
K           0.500000000000000    0.500000000000000    0.500000000000000 
K           0.513976000000000    0.848635000000000    0.250000000000000 
K           0.553778000000000    0.846280000000000    0.750000000000000 
K           0.665341000000000    0.513976000000000    0.750000000000000 
K           0.707499000000000    0.553778000000000    0.250000000000000 
K           0.846280000000000    0.292501000000000    0.250000000000000 
K           0.848635000000000    0.334659000000000    0.750000000000000 
%ENDBLOCK POSITIONS_FRAC
