# Cell file generated by matador (Matthew Evans 2016)

%BLOCK LATTICE_CART
10.6001 0.0 0.0
-5.30006 9.17998 0.0
0.0 0.0 8.95738
%ENDBLOCK LATTICE_CART

%BLOCK POSITIONS_FRAC
P           0.000000000000000    0.000000000000000    0.000000000000000 
P           0.189145000000000    0.739737000000000    0.000000000000000 
P           0.260263000000000    0.449408000000000    0.000000000000000 
P           0.550592000000000    0.810855000000000    0.000000000000000 
P           0.666667000000000    0.333333000000000    0.000000000000000 
K           0.007477000000000    0.363707000000000    0.000000000000000 
K           0.037241000000000    0.836089000000000    0.000000000000000 
K           0.055681000000000    0.494152000000000    0.500000000000000 
K           0.163911000000000    0.201152000000000    0.000000000000000 
K           0.231683000000000    0.157182000000000    0.500000000000000 
K           0.356230000000000    0.992523000000000    0.000000000000000 
K           0.438470000000000    0.944319000000000    0.500000000000000 
K           0.478431000000000    0.322697000000000    0.000000000000000 
K           0.505848000000000    0.561530000000000    0.500000000000000 
K           0.636293000000000    0.643770000000000    0.000000000000000 
K           0.677303000000000    0.155734000000000    0.000000000000000 
K           0.798848000000000    0.962759000000000    0.000000000000000 
K           0.842818000000000    0.074500000000000    0.500000000000000 
K           0.844266000000000    0.521569000000000    0.000000000000000 
K           0.925500000000000    0.768317000000000    0.500000000000000 
%ENDBLOCK POSITIONS_FRAC
