# Cell file generated by matador (Matthew Evans 2016)

%BLOCK LATTICE_CART
7.53876 0.0 0.0
-3.76938 6.52876 0.0
0.0 0.0 9.26921
%ENDBLOCK LATTICE_CART

%BLOCK POSITIONS_FRAC
P           0.000000000000000   -0.000000000000000    0.072155000000000 
P           0.000000000000000   -0.000000000000000    0.427845000000000 
P           0.000000000000000   -0.000000000000000    0.572155000000000 
P           0.000000000000000   -0.000000000000000    0.927845000000000 
P           0.333334000000000    0.666666000000000    0.687161000000000 
P           0.333334000000000    0.666666000000000    0.812839000000000 
P           0.666667000000000    0.333333000000000    0.187161000000000 
P           0.666667000000000    0.333333000000000    0.312839000000000 
K           0.118200000000000    0.490882000000000    0.250000000000000 
K           0.372683000000000    0.881800000000000    0.250000000000000 
K           0.490883000000000    0.118199000000000    0.750000000000000 
K           0.509118000000000    0.627317000000000    0.250000000000000 
K           0.627318000000000    0.509117000000000    0.750000000000000 
K           0.881801000000000    0.372682000000000    0.750000000000000 
%ENDBLOCK POSITIONS_FRAC
