# Cell file generated by matador (Matthew Evans 2016)

%BLOCK LATTICE_CART
14.1226 0.0 0.0
-7.0613 12.2305 0.0
0.0 0.0 7.15829
%ENDBLOCK LATTICE_CART

%BLOCK POSITIONS_FRAC
P           0.484513000000000    0.103507000000000    0.250000000000000 
P           0.484513000000000    0.381006000000000    0.750000000000000 
P           0.618994000000000    0.103507000000000    0.750000000000000 
P           0.618994000000000    0.515487000000000    0.250000000000000 
P           0.666667000000000    0.333333000000000    0.000000000000000 
P           0.666667000000000    0.333333000000000    0.500000000000000 
P           0.896493000000000    0.381006000000000    0.250000000000000 
P           0.896493000000000    0.515487000000000    0.750000000000000 
K           0.076952000000000    0.153903000000000    0.000000000000000 
K           0.076952000000000    0.153903000000000    0.500000000000000 
K           0.076952000000000    0.923048000000000    0.000000000000000 
K           0.076952000000000    0.923048000000000    0.500000000000000 
K           0.143942000000000    0.395740000000000    0.750000000000000 
K           0.143942000000000    0.748202000000000    0.250000000000000 
K           0.251798000000000    0.395740000000000    0.250000000000000 
K           0.251798000000000    0.856058000000000    0.750000000000000 
K           0.318483000000000    0.061023000000000    0.250000000000000 
K           0.318483000000000    0.257460000000000    0.750000000000000 
K           0.459251000000000    0.137164000000000    0.750000000000000 
K           0.459251000000000    0.322087000000000    0.250000000000000 
K           0.604260000000000    0.748202000000000    0.750000000000000 
K           0.604260000000000    0.856058000000000    0.250000000000000 
K           0.677913000000000    0.137164000000000    0.250000000000000 
K           0.677913000000000    0.540749000000000    0.750000000000000 
K           0.742540000000000    0.061023000000000    0.750000000000000 
K           0.742540000000000    0.681517000000000    0.250000000000000 
K           0.846097000000000    0.923048000000000    0.000000000000000 
K           0.846097000000000    0.923048000000000    0.500000000000000 
K           0.862836000000000    0.322087000000000    0.750000000000000 
K           0.862836000000000    0.540749000000000    0.250000000000000 
K           0.938977000000000    0.257460000000000    0.250000000000000 
K           0.938977000000000    0.681517000000000    0.750000000000000 
%ENDBLOCK POSITIONS_FRAC
