# Cell file generated by matador (Matthew Evans 2016)

%BLOCK LATTICE_CART
5.51846 0.0 0.0
-2.75923 4.77912 0.0
0.0 0.0 5.29966
%ENDBLOCK LATTICE_CART

%BLOCK POSITIONS_FRAC
P           0.000000000000000   -0.000000000000000    0.536035000000000 
P           0.539583000000000    0.412651000000000    0.736719000000000 
P           0.587349000000000    0.126932000000000    0.736719000000000 
P           0.873068000000000    0.460417000000000    0.736719000000000 
K           0.666667000000000    0.333333000000000    0.167009000000000 
%ENDBLOCK POSITIONS_FRAC
