# Cell file generated by matador (Matthew Evans 2016)

%BLOCK LATTICE_CART
9.17109 0.0 0.0
-4.58554 7.94239 0.0
0.0 0.0 6.78473
%ENDBLOCK LATTICE_CART

%BLOCK POSITIONS_FRAC
P           0.000000000000000    0.000000000000000    0.007705000000000 
P           0.333333000000000    0.666667000000000    0.674372000000000 
P           0.666667000000000    0.333333000000000    0.341038000000000 
K           0.000000000000000    0.000000000000000    0.610603000000000 
K           0.073892000000000    0.147783000000000    0.283757000000000 
K           0.073892000000000    0.926108000000000    0.283757000000000 
K           0.185550000000000    0.592775000000000    0.950424000000000 
K           0.333333000000000    0.666667000000000    0.277270000000000 
K           0.407225000000000    0.592775000000000    0.950424000000000 
K           0.407225000000000    0.814450000000000    0.950424000000000 
K           0.518883000000000    0.259442000000000    0.617091000000000 
K           0.666667000000000    0.333333000000000    0.943936000000000 
K           0.740558000000000    0.259442000000000    0.617091000000000 
K           0.740558000000000    0.481117000000000    0.617091000000000 
K           0.852217000000000    0.926108000000000    0.283757000000000 
%ENDBLOCK POSITIONS_FRAC
