# Cell file generated by matador (Matthew Evans 2016)

%BLOCK LATTICE_CART
9.18067 0.0 0.0
-4.59033 7.95069 0.0
0.0 0.0 5.59389
%ENDBLOCK LATTICE_CART

%BLOCK POSITIONS_FRAC
P           0.000000000000000   -0.000000000000000    0.166667000000000 
P           0.000000000000000   -0.000000000000000    0.500000000000000 
P           0.000000000000000   -0.000000000000000    0.833333000000000 
P           0.000000000000000    0.500000000000000    0.166667000000000 
P           0.000000000000000    0.500000000000000    0.666667000000000 
P           0.500000000000000   -0.000000000000000    0.000000000000000 
P           0.500000000000000   -0.000000000000000    0.500000000000000 
P           0.500000000000000    0.500000000000000    0.333333000000000 
P           0.500000000000000    0.500000000000000    0.833333000000000 
K           0.125350000000000    0.250700000000000    0.000000000000000 
K           0.125350000000000    0.874650000000000    0.333333000000000 
K           0.250700000000000    0.125350000000000    0.666667000000000 
K           0.749300000000000    0.874650000000000    0.666667000000000 
K           0.874650000000000    0.125350000000000    0.333333000000000 
K           0.874650000000000    0.749300000000000    0.000000000000000 
%ENDBLOCK POSITIONS_FRAC
