# Cell file generated by matador (Matthew Evans 2016)

%BLOCK LATTICE_CART
9.38122 0.0 0.0
0.0 6.29509 0.0
-3.50779 0.0 8.89954
%ENDBLOCK LATTICE_CART

%BLOCK POSITIONS_FRAC
P           0.000000000000000    0.000000000000000    0.000000000000000 
P           0.000000000000000    0.500000000000000    0.500000000000000 
P           0.374442000000000    0.168136000000000    0.217351000000000 
P           0.374442000000000    0.331864000000000    0.717351000000000 
P           0.500000000000000    0.000000000000000    0.000000000000000 
P           0.500000000000000    0.000000000000000    0.500000000000000 
P           0.500000000000000    0.500000000000000    0.000000000000000 
P           0.500000000000000    0.500000000000000    0.500000000000000 
P           0.625558000000000    0.668136000000000    0.282649000000000 
P           0.625558000000000    0.831864000000000    0.782649000000000 
K           0.364485000000000    0.607113000000000    0.182812000000000 
K           0.364485000000000    0.892887000000000    0.682812000000000 
K           0.635515000000000    0.107113000000000    0.317188000000000 
K           0.635515000000000    0.392887000000000    0.817188000000000 
%ENDBLOCK POSITIONS_FRAC
