# Cell file generated by matador (Matthew Evans 2016)

%BLOCK LATTICE_CART
7.28897 -0.0 0.0
-3.64449 6.31243 0.0
0.0 0.0 8.51765
%ENDBLOCK LATTICE_CART

%BLOCK POSITIONS_FRAC
P           0.015673000000000    0.913482000000000    0.022888000000000 
P           0.066854000000000    0.621595000000000    0.396124000000000 
P           0.086518000000000    0.102191000000000    0.022888000000000 
P           0.333333000000000    0.666667000000000    0.796780000000000 
P           0.378405000000000    0.445259000000000    0.396124000000000 
P           0.554741000000000    0.933146000000000    0.396124000000000 
P           0.897809000000000    0.984327000000000    0.022888000000000 
K           0.333333000000000    0.666667000000000    0.134726000000000 
K           0.389664000000000    0.148680000000000    0.787661000000000 
K           0.666666000000000    0.333334000000000    0.660412000000000 
K           0.759016000000000    0.610336000000000    0.787661000000000 
K           0.851320000000000    0.240984000000000    0.787661000000000 
%ENDBLOCK POSITIONS_FRAC
