# Cell file generated by matador (Matthew Evans 2016)

%BLOCK LATTICE_CART
5.72828 0.0 0.0
0.0 5.72828 0.0
0.0 0.0 6.04894
%ENDBLOCK LATTICE_CART

%BLOCK POSITIONS_FRAC
P           0.000000000000000    0.000000000000000    0.085062000000000 
P           0.000000000000000    0.000000000000000    0.585062000000000 
P           0.000000000000000    0.500000000000000    0.033680000000000 
P           0.500000000000000    0.000000000000000    0.533680000000000 
K           0.000000000000000    0.500000000000000    0.577741000000000 
K           0.500000000000000    0.000000000000000    0.077741000000000 
%ENDBLOCK POSITIONS_FRAC
