# Cell file generated by matador (Matthew Evans 2016)

%BLOCK LATTICE_CART
6.54268 0.0 0.0
-3.27134 5.66612 0.0
0.0 0.0 5.38044
%ENDBLOCK LATTICE_CART

%BLOCK POSITIONS_FRAC
P          -0.000000000000000    0.000000000000000    0.163268000000000 
P          -0.000000000000000    0.000000000000000    0.836732000000000 
P           0.245089000000000    0.490178000000000    0.500000000000000 
P           0.245089000000000    0.754911000000000    0.500000000000000 
P           0.333333000000000    0.666667000000000    0.500000000000000 
P           0.509822000000000    0.754911000000000    0.500000000000000 
P           0.666666000000000    0.333334000000000    0.500000000000000 
K           0.333333000000000    0.666667000000000    0.000000000000000 
%ENDBLOCK POSITIONS_FRAC
