# Cell file generated by matador (Matthew Evans 2016)

%BLOCK LATTICE_CART
8.83808 0.0 0.0
0.0 7.45698 0.0
-1.32645 0.0 6.13699
%ENDBLOCK LATTICE_CART

%BLOCK POSITIONS_FRAC
P           0.100636000000000    0.727869000000000    0.330301000000000 
P           0.399364000000000    0.227869000000000    0.669699000000000 
P           0.600636000000000    0.227869000000000    0.330301000000000 
P           0.899364000000000    0.727869000000000    0.669699000000000 
K           0.000000000000000    0.144310000000000   -0.000000000000000 
K           0.000000000000000    0.287641000000000    0.500000000000000 
K           0.000000000000000    0.431447000000000   -0.000000000000000 
K           0.195646000000000    0.880966000000000    0.623652000000000 
K           0.304354000000000    0.380966000000000    0.376348000000000 
K           0.500000000000000    0.644310000000000   -0.000000000000000 
K           0.500000000000000    0.787641000000000    0.500000000000000 
K           0.500000000000000    0.931447000000000   -0.000000000000000 
K           0.695646000000000    0.380966000000000    0.623652000000000 
K           0.804354000000000    0.880966000000000    0.376348000000000 
%ENDBLOCK POSITIONS_FRAC
