# Cell file generated by matador (Matthew Evans 2016)

%BLOCK LATTICE_CART
9.41261 0.0 0.0
0.0 9.41261 0.0
0.0 0.0 13.7464
%ENDBLOCK LATTICE_CART

%BLOCK POSITIONS_FRAC
P           0.073768000000000    0.426232000000000    0.075499000000000 
P           0.073768000000000    0.573768000000000    0.575499000000000 
P           0.426232000000000    0.073768000000000    0.575499000000000 
P           0.426232000000000    0.926232000000000    0.075499000000000 
P           0.573768000000000    0.073768000000000    0.075499000000000 
P           0.573768000000000    0.926232000000000    0.575499000000000 
P           0.926232000000000    0.426232000000000    0.575499000000000 
P           0.926232000000000    0.573768000000000    0.075499000000000 
K           0.110765000000000    0.389235000000000    0.681811000000000 
K           0.110765000000000    0.610765000000000    0.181811000000000 
K           0.202883000000000    0.297117000000000    0.342477000000000 
K           0.202883000000000    0.702883000000000    0.842477000000000 
K           0.218634000000000    0.281366000000000    0.044756000000000 
K           0.218634000000000    0.718634000000000    0.544756000000000 
K           0.281366000000000    0.218634000000000    0.544756000000000 
K           0.281366000000000    0.781366000000000    0.044756000000000 
K           0.297117000000000    0.202883000000000    0.842477000000000 
K           0.297117000000000    0.797117000000000    0.342477000000000 
K           0.389235000000000    0.110765000000000    0.181811000000000 
K           0.389235000000000    0.889235000000000    0.681811000000000 
K           0.610765000000000    0.110765000000000    0.681811000000000 
K           0.610765000000000    0.889235000000000    0.181811000000000 
K           0.702883000000000    0.202883000000000    0.342477000000000 
K           0.702883000000000    0.797117000000000    0.842477000000000 
K           0.718634000000000    0.218634000000000    0.044756000000000 
K           0.718634000000000    0.781366000000000    0.544756000000000 
K           0.781366000000000    0.281366000000000    0.544756000000000 
K           0.781366000000000    0.718634000000000    0.044756000000000 
K           0.797117000000000    0.297117000000000    0.842477000000000 
K           0.797117000000000    0.702883000000000    0.342477000000000 
K           0.889235000000000    0.389235000000000    0.181811000000000 
K           0.889235000000000    0.610765000000000    0.681811000000000 
%ENDBLOCK POSITIONS_FRAC
