# Cell file generated by matador (Matthew Evans 2016)

%BLOCK LATTICE_CART
6.63995 0.0 0.0
-3.31998 5.75037 0.0
0.0 0.0 11.4832
%ENDBLOCK LATTICE_CART

%BLOCK POSITIONS_FRAC
P           0.333334000000000    0.666668000000000    0.325832000000000 
P           0.333334000000000    0.666668000000000    0.674168000000000 
P           0.666668000000000    0.333334000000000    0.325832000000000 
P           0.666668000000000    0.333334000000000    0.674168000000000 
K           0.000001000000000    0.000001000000000    0.000000000000000 
K           0.000001000000000    0.000001000000000    0.500000000000000 
K           0.000001000000000    0.500001000000000    0.000000000000000 
K           0.333334000000000    0.666668000000000    0.500000000000000 
K           0.500001000000000    0.000001000000000    0.000000000000000 
K           0.500001000000000    0.500001000000000    0.000000000000000 
K           0.666668000000000    0.333334000000000    0.500000000000000 
%ENDBLOCK POSITIONS_FRAC
