# Cell file generated by matador (Matthew Evans 2016)

%BLOCK LATTICE_CART
6.8417 -0.0 0.0
-3.42085 5.92509 0.0
0.0 0.0 5.51484
%ENDBLOCK LATTICE_CART

%BLOCK POSITIONS_FRAC
P           0.041247000000000    0.304456000000000    0.145241000000000 
P           0.263209000000000    0.958753000000000    0.145241000000000 
P           0.695544000000000    0.736791000000000    0.145241000000000 
K           0.333333000000000    0.666667000000000    0.899479000000000 
K           0.397203000000000    0.222369000000000    0.575287000000000 
K           0.777631000000000    0.174833000000000    0.575287000000000 
K           0.825167000000000    0.602797000000000    0.575287000000000 
%ENDBLOCK POSITIONS_FRAC
