# Cell file generated by matador (Matthew Evans 2016)

%BLOCK LATTICE_CART
10.2716 -0.0 0.0
-5.13581 8.89549 0.0
0.0 0.0 5.81951
%ENDBLOCK LATTICE_CART

%BLOCK POSITIONS_FRAC
P           0.031278000000000    0.482697000000000    0.561134000000000 
P           0.031278000000000    0.482697000000000    0.938866000000000 
P           0.333333000000000    0.666667000000000    0.250000000000000 
P           0.451419000000000    0.968722000000000    0.561134000000000 
P           0.451419000000000    0.968722000000000    0.938866000000000 
P           0.482697000000000    0.451419000000000    0.061134000000000 
P           0.482697000000000    0.451419000000000    0.438866000000000 
P           0.517303000000000    0.548581000000000    0.561134000000000 
P           0.517303000000000    0.548581000000000    0.938866000000000 
P           0.548581000000000    0.031278000000000    0.061134000000000 
P           0.548581000000000    0.031278000000000    0.438866000000000 
P           0.666667000000000    0.333333000000000    0.750000000000000 
P           0.968722000000000    0.517303000000000    0.061134000000000 
P           0.968722000000000    0.517303000000000    0.438866000000000 
K           0.000000000000000    0.000000000000000    0.000000000000000 
K           0.000000000000000    0.000000000000000    0.500000000000000 
K           0.333333000000000    0.666667000000000    0.750000000000000 
K           0.666667000000000    0.333333000000000    0.250000000000000 
%ENDBLOCK POSITIONS_FRAC
