# Cell file generated by matador (Matthew Evans 2016)

%BLOCK LATTICE_CART
6.36033 0.0 0.0
0.0 6.36033 0.0
0.0 0.0 8.37037
%ENDBLOCK LATTICE_CART

%BLOCK POSITIONS_FRAC
P           0.000000000000000    0.000000000000000    0.000000000000000 
P           0.000000000000000    0.500000000000000    0.116594000000000 
P           0.000000000000000    0.500000000000000    0.580978000000000 
P           0.141526000000000    0.682405000000000    0.415677000000000 
P           0.182405000000000    0.358474000000000    0.415677000000000 
P           0.317595000000000    0.858474000000000    0.584323000000000 
P           0.358474000000000    0.182405000000000    0.584323000000000 
P           0.500000000000000    0.000000000000000    0.419022000000000 
P           0.500000000000000    0.000000000000000    0.883406000000000 
P           0.500000000000000    0.500000000000000    0.000000000000000 
P           0.641526000000000    0.817595000000000    0.584323000000000 
P           0.682405000000000    0.141526000000000    0.584323000000000 
P           0.817595000000000    0.641526000000000    0.415677000000000 
P           0.858474000000000    0.317595000000000    0.415677000000000 
K           0.000000000000000    0.500000000000000    0.828078000000000 
K           0.500000000000000    0.000000000000000    0.171922000000000 
%ENDBLOCK POSITIONS_FRAC
