# Cell file generated by matador (Matthew Evans 2016)

%BLOCK LATTICE_CART
6.48447 0.0 0.0
-3.24223 5.61571 0.0
0.0 0.0 8.44306
%ENDBLOCK LATTICE_CART

%BLOCK POSITIONS_FRAC
P           0.000000000000000    0.000000000000000    0.000000000000000 
K           0.000000000000000    0.000000000000000    0.500000000000000 
K           0.000000000000000    0.337940000000000    0.239225000000000 
K           0.000000000000000    0.662060000000000    0.760775000000000 
K           0.337940000000000    0.000000000000000    0.239225000000000 
K           0.337940000000000    0.337940000000000    0.760775000000000 
K           0.662060000000000    0.000000000000000    0.760775000000000 
K           0.662060000000000    0.662060000000000    0.239225000000000 
%ENDBLOCK POSITIONS_FRAC
