# Cell file generated by matador (Matthew Evans 2016)

%BLOCK LATTICE_CART
7.30765 0.0 0.0
-3.65382 6.32861 0.0
0.0 0.0 10.279
%ENDBLOCK LATTICE_CART

%BLOCK POSITIONS_FRAC
P           0.130443000000000    0.438216000000000    0.491408000000000 
P           0.307773000000000    0.869557000000000    0.491408000000000 
P           0.464985000000000    0.143657000000000    0.883827000000000 
P           0.561784000000000    0.692227000000000    0.491408000000000 
P           0.678672000000000    0.535015000000000    0.883827000000000 
P           0.856343000000000    0.321328000000000    0.883827000000000 
K           0.000000000000000    0.000000000000000    0.887555000000000 
K           0.062797000000000    0.759715000000000    0.994625000000000 
K           0.222230000000000    0.102743000000000    0.304738000000000 
K           0.240285000000000    0.303082000000000    0.994625000000000 
K           0.666667000000000    0.333333000000000    0.523093000000000 
K           0.666667000000000    0.333333000000000    0.721666000000000 
K           0.696918000000000    0.937203000000000    0.994625000000000 
K           0.880514000000000    0.777770000000000    0.304738000000000 
K           0.897257000000000    0.119486000000000    0.304738000000000 
%ENDBLOCK POSITIONS_FRAC
