# Cell file generated by matador (Matthew Evans 2016)

%BLOCK LATTICE_CART
4.79648 0.0 0.0
0.0 8.80609 0.0
3.87214 0.0 6.78792
%ENDBLOCK LATTICE_CART

%BLOCK POSITIONS_FRAC
P           0.011853000000000    0.487644000000000    0.054349000000000 
P           0.011853000000000    0.512356000000000    0.554349000000000 
P           0.263421000000000    0.012688000000000    0.990913000000000 
P           0.263421000000000    0.987312000000000    0.490913000000000 
P           0.455440000000000    0.223849000000000    0.701112000000000 
P           0.455440000000000    0.776151000000000    0.201112000000000 
P           0.935663000000000    0.435328000000000    0.851394000000000 
P           0.935663000000000    0.564672000000000    0.351394000000000 
K           0.656900000000000    0.137009000000000    0.281018000000000 
K           0.656900000000000    0.862991000000000    0.781018000000000 
%ENDBLOCK POSITIONS_FRAC
