# Cell file generated by matador (Matthew Evans 2016)

%BLOCK LATTICE_CART
7.87934 0.0 0.0
0.0 5.6961 0.0
-2.77054 0.0 11.1652
%ENDBLOCK LATTICE_CART

%BLOCK POSITIONS_FRAC
P           0.129685000000000    0.471979000000000    0.024822000000000 
P           0.129685000000000    0.528021000000000    0.524822000000000 
P           0.176576000000000    0.382582000000000    0.316752000000000 
P           0.176576000000000    0.617418000000000    0.816752000000000 
P           0.232889000000000    0.446886000000000    0.985162000000000 
P           0.232889000000000    0.553114000000000    0.485162000000000 
P           0.243593000000000    0.041845000000000    0.546938000000000 
P           0.243593000000000    0.958155000000000    0.046938000000000 
P           0.384055000000000    0.252837000000000    0.261051000000000 
P           0.384055000000000    0.747163000000000    0.761051000000000 
P           0.476662000000000    0.137126000000000    0.618369000000000 
P           0.476662000000000    0.862874000000000    0.118369000000000 
P           0.696668000000000    0.206523000000000    0.523599000000000 
P           0.696668000000000    0.793477000000000    0.023599000000000 
K           0.035333000000000    0.091269000000000    0.647681000000000 
K           0.035333000000000    0.908731000000000    0.147681000000000 
K           0.507838000000000    0.385300000000000    0.967906000000000 
K           0.507838000000000    0.614700000000000    0.467906000000000 
K           0.829309000000000    0.356505000000000    0.041108000000000 
K           0.829309000000000    0.643495000000000    0.541108000000000 
%ENDBLOCK POSITIONS_FRAC
