# Cell file generated by matador (Matthew Evans 2016)

%BLOCK LATTICE_CART
5.10855 0.0 0.0
0.0 6.74584 0.0
1.48251 0.0 2.90097
%ENDBLOCK LATTICE_CART

%BLOCK POSITIONS_FRAC
P           0.205203000000000    0.173135000000000    0.837072000000000 
P           0.205203000000000    0.826865000000000    0.837072000000000 
P           0.866257000000000    0.000000000000000    0.545579000000000 
K           0.582234000000000    0.000000000000000    0.182544000000000 
%ENDBLOCK POSITIONS_FRAC
