# Cell file generated by matador (Matthew Evans 2016)

%BLOCK LATTICE_CART
11.2826 0.0 0.0
-5.64128 9.77098 0.0
0.0 0.0 8.48299
%ENDBLOCK LATTICE_CART

%BLOCK POSITIONS_FRAC
P           0.108114000000000    0.554057000000000    0.107696000000000 
P           0.216172000000000    0.432344000000000    0.158276000000000 
P           0.216172000000000    0.783828000000000    0.158276000000000 
P           0.445943000000000    0.554057000000000    0.107696000000000 
P           0.445943000000000    0.891886000000000    0.107696000000000 
P           0.567656000000000    0.783828000000000    0.158276000000000 
K           0.000000000000000    0.000000000000000    0.408517000000000 
K           0.144520000000000    0.572260000000000    0.540908000000000 
K           0.201657000000000    0.403313000000000    0.912311000000000 
K           0.201657000000000    0.798343000000000    0.912311000000000 
K           0.214612000000000    0.107306000000000    0.022703000000000 
K           0.328285000000000    0.164142000000000    0.365561000000000 
K           0.333333000000000    0.666667000000000    0.197286000000000 
K           0.427740000000000    0.572260000000000    0.540908000000000 
K           0.427740000000000    0.855480000000000    0.540908000000000 
K           0.568037000000000    0.136074000000000    0.011752000000000 
K           0.568037000000000    0.431963000000000    0.011752000000000 
K           0.596687000000000    0.798343000000000    0.912311000000000 
K           0.666667000000000    0.333333000000000    0.402447000000000 
K           0.835858000000000    0.164142000000000    0.365561000000000 
K           0.835858000000000    0.671715000000000    0.365561000000000 
K           0.863926000000000    0.431963000000000    0.011752000000000 
K           0.892694000000000    0.107306000000000    0.022703000000000 
K           0.892694000000000    0.785388000000000    0.022703000000000 
%ENDBLOCK POSITIONS_FRAC
