# Cell file generated by matador (Matthew Evans 2016)

%BLOCK LATTICE_CART
5.58836 0.0 0.0
0.0 5.58836 0.0
0.0 0.0 10.9537
%ENDBLOCK LATTICE_CART

%BLOCK POSITIONS_FRAC
P           0.000000000000000    0.000000000000000    0.060692000000000 
P           0.000000000000000    0.000000000000000    0.297929000000000 
P           0.000000000000000    0.000000000000000    0.924621000000000 
P           0.000000000000000    0.500000000000000    0.352875000000000 
P           0.500000000000000    0.000000000000000    0.352875000000000 
P           0.500000000000000    0.500000000000000    0.013614000000000 
P           0.500000000000000    0.500000000000000    0.455458000000000 
P           0.500000000000000    0.500000000000000    0.566954000000000 
P           0.500000000000000    0.500000000000000    0.671640000000000 
P           0.500000000000000    0.500000000000000    0.860222000000000 
K           0.000000000000000    0.500000000000000    0.164212000000000 
K           0.500000000000000    0.000000000000000    0.164212000000000 
%ENDBLOCK POSITIONS_FRAC
