# Cell file generated by matador (Matthew Evans 2016)

%BLOCK LATTICE_CART
8.65342 0.0 0.0
-4.32671 7.49409 0.0
0.0 0.0 12.0506
%ENDBLOCK LATTICE_CART

%BLOCK POSITIONS_FRAC
P           0.000000000000000    0.000000000000000    0.013480000000000 
P           0.333333000000000    0.666667000000000    0.063436000000000 
P           0.333333000000000    0.666667000000000    0.552390000000000 
P           0.666667000000000    0.333333000000000    0.063436000000000 
P           0.666667000000000    0.333333000000000    0.552390000000000 
K           0.000000000000000    0.207803000000000    0.685124000000000 
K           0.000000000000000    0.422542000000000    0.321589000000000 
K           0.000000000000000    0.556621000000000    0.824730000000000 
K           0.000000000000000    0.698534000000000    0.518260000000000 
K           0.000000000000000    0.712155000000000    0.151449000000000 
K           0.207803000000000    0.000000000000000    0.685124000000000 
K           0.287845000000000    0.287845000000000    0.151449000000000 
K           0.301466000000000    0.301466000000000    0.518260000000000 
K           0.422542000000000    0.000000000000000    0.321589000000000 
K           0.443379000000000    0.443379000000000    0.824730000000000 
K           0.556621000000000    0.000000000000000    0.824730000000000 
K           0.577458000000000    0.577458000000000    0.321589000000000 
K           0.698534000000000    0.000000000000000    0.518260000000000 
K           0.712155000000000    0.000000000000000    0.151449000000000 
K           0.792197000000000    0.792197000000000    0.685124000000000 
%ENDBLOCK POSITIONS_FRAC
