# Cell file generated by matador (Matthew Evans 2016)

%BLOCK LATTICE_CART
9.5673 0.0 0.0
0.0 9.5673 0.0
0.0 0.0 5.66956
%ENDBLOCK LATTICE_CART

%BLOCK POSITIONS_FRAC
P           0.000000000000000    0.000000000000000    0.000000000000000 
P           0.250000000000000    0.250000000000000    0.500000000000000 
P           0.250000000000000    0.750000000000000    0.500000000000000 
P           0.500000000000000    0.500000000000000    0.000000000000000 
P           0.750000000000000    0.250000000000000    0.500000000000000 
P           0.750000000000000    0.750000000000000    0.500000000000000 
K           0.000000000000000    0.500000000000000    0.310049000000000 
K           0.149821000000000    0.350179000000000    0.957382000000000 
K           0.149821000000000    0.649821000000000    0.957382000000000 
K           0.350179000000000    0.149821000000000    0.042618000000000 
K           0.350179000000000    0.850179000000000    0.042618000000000 
K           0.500000000000000    0.000000000000000    0.689951000000000 
K           0.649821000000000    0.149821000000000    0.042618000000000 
K           0.649821000000000    0.850179000000000    0.042618000000000 
K           0.850179000000000    0.350179000000000    0.957382000000000 
K           0.850179000000000    0.649821000000000    0.957382000000000 
%ENDBLOCK POSITIONS_FRAC
