# Cell file generated by matador (Matthew Evans 2016)

%BLOCK LATTICE_CART
8.58703 0.0 0.0
-4.29351 7.43658 0.0
0.0 0.0 6.9354
%ENDBLOCK LATTICE_CART

%BLOCK POSITIONS_FRAC
P           0.115848000000000    0.002217000000000    0.995246000000000 
P           0.404525000000000    0.332490000000000    0.080981000000000 
P           0.667510000000000    0.072035000000000    0.080981000000000 
P           0.886369000000000    0.884152000000000    0.995246000000000 
P           0.927965000000000    0.595475000000000    0.080981000000000 
P           0.997783000000000    0.113631000000000    0.995246000000000 
K           0.040360000000000    0.413762000000000    0.104278000000000 
K           0.070298000000000    0.661227000000000    0.408574000000000 
K           0.338773000000000    0.409071000000000    0.408574000000000 
K           0.373401000000000    0.959640000000000    0.104278000000000 
K           0.586238000000000    0.626599000000000    0.104278000000000 
K           0.590929000000000    0.929702000000000    0.408574000000000 
K           0.666667000000000    0.333333000000000    0.128170000000000 
%ENDBLOCK POSITIONS_FRAC
