# Cell file generated by matador (Matthew Evans 2016)

%BLOCK LATTICE_CART
7.86839 0.0 0.0
0.0 7.86839 0.0
0.0 0.0 7.86839
%ENDBLOCK LATTICE_CART

%BLOCK POSITIONS_FRAC
P           0.254182000000000    0.500000000000000    0.500000000000000 
P           0.500000000000000    0.254182000000000    0.500000000000000 
P           0.500000000000000    0.500000000000000    0.254182000000000 
P           0.500000000000000    0.500000000000000    0.745818000000000 
P           0.500000000000000    0.745818000000000    0.500000000000000 
P           0.745818000000000    0.500000000000000    0.500000000000000 
K           0.000000000000000    0.000000000000000    0.000000000000000 
K           0.000000000000000    0.000000000000000    0.500000000000000 
K           0.000000000000000    0.500000000000000    0.000000000000000 
K           0.000000000000000    0.500000000000000    0.500000000000000 
K           0.500000000000000    0.000000000000000    0.000000000000000 
K           0.500000000000000    0.000000000000000    0.500000000000000 
K           0.500000000000000    0.500000000000000    0.000000000000000 
%ENDBLOCK POSITIONS_FRAC
