# Cell file generated by matador (Matthew Evans 2016)

%BLOCK LATTICE_CART
8.09824 0.0 0.0
0.0 6.26263 0.0
0.0 0.0 7.45633
%ENDBLOCK LATTICE_CART

%BLOCK POSITIONS_FRAC
P           0.179995000000000    0.467781000000000    0.181653000000000 
P           0.179995000000000    0.467781000000000    0.318347000000000 
P           0.179995000000000    0.532219000000000    0.681653000000000 
P           0.179995000000000    0.532219000000000    0.818347000000000 
P           0.320005000000000    0.032219000000000    0.681653000000000 
P           0.320005000000000    0.032219000000000    0.818347000000000 
P           0.320005000000000    0.967781000000000    0.181653000000000 
P           0.320005000000000    0.967781000000000    0.318347000000000 
P           0.679995000000000    0.032219000000000    0.681653000000000 
P           0.679995000000000    0.032219000000000    0.818347000000000 
P           0.679995000000000    0.967781000000000    0.181653000000000 
P           0.679995000000000    0.967781000000000    0.318347000000000 
P           0.820005000000000    0.467781000000000    0.181653000000000 
P           0.820005000000000    0.467781000000000    0.318347000000000 
P           0.820005000000000    0.532219000000000    0.681653000000000 
P           0.820005000000000    0.532219000000000    0.818347000000000 
K           0.000000000000000    0.500000000000000   -0.000000000000000 
K           0.000000000000000    0.500000000000000    0.500000000000000 
K           0.500000000000000    0.000000000000000   -0.000000000000000 
K           0.500000000000000    0.000000000000000    0.500000000000000 
%ENDBLOCK POSITIONS_FRAC
