# Cell file generated by matador (Matthew Evans 2016)

%BLOCK LATTICE_CART
8.00561 0.0 0.0
0.0 8.00561 0.0
0.0 0.0 6.20464
%ENDBLOCK LATTICE_CART

%BLOCK POSITIONS_FRAC
P           0.181818000000000    0.318182000000000    0.747845000000000 
P           0.181818000000000    0.681818000000000    0.252155000000000 
P           0.318182000000000    0.181818000000000    0.252155000000000 
P           0.318182000000000    0.818182000000000    0.747845000000000 
P           0.681818000000000    0.181818000000000    0.747845000000000 
P           0.681818000000000    0.818182000000000    0.252155000000000 
P           0.818182000000000    0.318182000000000    0.252155000000000 
P           0.818182000000000    0.681818000000000    0.747845000000000 
K           0.000000000000000    0.000000000000000    0.000000000000000 
K           0.000000000000000    0.500000000000000    0.000000000000000 
K           0.000000000000000    0.500000000000000    0.500000000000000 
K           0.500000000000000    0.000000000000000    0.000000000000000 
K           0.500000000000000    0.000000000000000    0.500000000000000 
K           0.500000000000000    0.500000000000000    0.000000000000000 
%ENDBLOCK POSITIONS_FRAC
