# Cell file generated by matador (Matthew Evans 2016)

%BLOCK LATTICE_CART
10.3891 0.0 0.0
-5.19455 8.99722 0.0
0.0 0.0 10.2635
%ENDBLOCK LATTICE_CART

%BLOCK POSITIONS_FRAC
P           0.000000000000000    0.000000000000000    0.229259000000000 
P           0.000000000000000    0.000000000000000    0.500598000000000 
P           0.333333000000000    0.666667000000000    0.167265000000000 
P           0.333333000000000    0.666667000000000    0.895925000000000 
P           0.666667000000000    0.333333000000000    0.562592000000000 
P           0.666667000000000    0.333333000000000    0.833932000000000 
K           0.205408000000000    0.410817000000000    0.957672000000000 
K           0.205408000000000    0.794592000000000    0.957672000000000 
K           0.216854000000000    0.433708000000000    0.598645000000000 
K           0.216854000000000    0.783146000000000    0.598645000000000 
K           0.232959000000000    0.116479000000000    0.931978000000000 
K           0.255850000000000    0.127925000000000    0.291005000000000 
K           0.538742000000000    0.077483000000000    0.624339000000000 
K           0.538742000000000    0.461258000000000    0.624339000000000 
K           0.550187000000000    0.100374000000000    0.265312000000000 
K           0.550187000000000    0.449813000000000    0.265312000000000 
K           0.566292000000000    0.783146000000000    0.598645000000000 
K           0.589183000000000    0.794592000000000    0.957672000000000 
K           0.872075000000000    0.127925000000000    0.291005000000000 
K           0.872075000000000    0.744150000000000    0.291005000000000 
K           0.883521000000000    0.116479000000000    0.931978000000000 
K           0.883521000000000    0.767041000000000    0.931978000000000 
K           0.899626000000000    0.449813000000000    0.265312000000000 
K           0.922517000000000    0.461258000000000    0.624339000000000 
%ENDBLOCK POSITIONS_FRAC
