# Cell file generated by matador (Matthew Evans 2016)

%BLOCK LATTICE_CART
8.02427 0.0 0.0
-4.01213 6.94922 0.0
0.0 0.0 8.29632
%ENDBLOCK LATTICE_CART

%BLOCK POSITIONS_FRAC
P           0.219991000000000    0.015156000000000    0.322779000000000 
P           0.219991000000000    0.015156000000000    0.677221000000000 
P           0.219991000000000    0.204835000000000    0.322779000000000 
P           0.219991000000000    0.204835000000000    0.677221000000000 
P           0.333333000000000    0.666667000000000    0.000000000000000 
P           0.666666000000000    0.333334000000000    0.500000000000000 
P           0.795165000000000    0.015156000000000    0.322779000000000 
P           0.795165000000000    0.015156000000000    0.677221000000000 
P           0.795165000000000    0.780009000000000    0.322779000000000 
P           0.795165000000000    0.780009000000000    0.677221000000000 
P           0.984844000000000    0.204835000000000    0.322779000000000 
P           0.984844000000000    0.204835000000000    0.677221000000000 
P           0.984844000000000    0.780009000000000    0.322779000000000 
P           0.984844000000000    0.780009000000000    0.677221000000000 
K           0.502011000000000    0.004023000000000    0.374426000000000 
K           0.502011000000000    0.004023000000000    0.625574000000000 
K           0.502011000000000    0.497989000000000    0.374426000000000 
K           0.502011000000000    0.497989000000000    0.625574000000000 
K           0.995977000000000    0.497989000000000    0.374426000000000 
K           0.995977000000000    0.497989000000000    0.625574000000000 
%ENDBLOCK POSITIONS_FRAC
