# Cell file generated by matador (Matthew Evans 2016)

%BLOCK LATTICE_CART
7.11294 -0.0 0.0
-3.55647 6.15999 0.0
0.0 0.0 8.987
%ENDBLOCK LATTICE_CART

%BLOCK POSITIONS_FRAC
P           0.196687000000000    0.547362000000000    0.834382000000000 
P           0.299960000000000    0.231052000000000    0.103598000000000 
P           0.333333000000000    0.666667000000000    0.933993000000000 
P           0.350676000000000    0.803313000000000    0.834382000000000 
P           0.452638000000000    0.649324000000000    0.834382000000000 
P           0.485098000000000    0.014706000000000    0.002856000000000 
P           0.529609000000000    0.514902000000000    0.002856000000000 
P           0.534416000000000    0.273632000000000    0.358426000000000 
P           0.666667000000000    0.333333000000000    0.660864000000000 
P           0.726368000000000    0.260784000000000    0.358426000000000 
P           0.739216000000000    0.465584000000000    0.358426000000000 
P           0.768948000000000    0.068908000000000    0.103598000000000 
P           0.931092000000000    0.700040000000000    0.103598000000000 
P           0.985294000000000    0.470391000000000    0.002856000000000 
K           0.000000000000000    0.000000000000000    0.474903000000000 
K           0.082940000000000    0.839453000000000    0.766066000000000 
K           0.160547000000000    0.243487000000000    0.766066000000000 
K           0.333333000000000    0.666667000000000    0.478008000000000 
K           0.666667000000000    0.333333000000000    0.052581000000000 
K           0.756513000000000    0.917060000000000    0.766066000000000 
%ENDBLOCK POSITIONS_FRAC
