# Cell file generated by matador (Matthew Evans 2016)

%BLOCK LATTICE_CART
7.00874 0.0 0.0
-3.50437 6.06975 0.0
0.0 0.0 8.85785
%ENDBLOCK LATTICE_CART

%BLOCK POSITIONS_FRAC
P           0.000000000000000   -0.000000000000000    0.315315000000000 
P           0.000000000000000   -0.000000000000000    0.923121000000000 
P           0.000000000000000    0.520749000000000    0.689576000000000 
P           0.333333000000000    0.666667000000000    0.164872000000000 
P           0.479251000000000    0.479251000000000    0.689576000000000 
P           0.520749000000000   -0.000000000000000    0.689576000000000 
P           0.666667000000000    0.333333000000000    0.164872000000000 
K           0.000000000000000    0.482639000000000    0.343303000000000 
K           0.000000000000000    0.595431000000000    0.952152000000000 
K           0.404569000000000    0.404569000000000    0.952152000000000 
K           0.482639000000000   -0.000000000000000    0.343303000000000 
K           0.517361000000000    0.517361000000000    0.343303000000000 
K           0.595431000000000   -0.000000000000000    0.952152000000000 
%ENDBLOCK POSITIONS_FRAC
