# Cell file generated by matador (Matthew Evans 2016)

%BLOCK LATTICE_CART
9.06546 0.0 0.0
0.0 9.06546 0.0
0.0 0.0 7.25477
%ENDBLOCK LATTICE_CART

%BLOCK POSITIONS_FRAC
P           0.250000000000000    0.250000000000000    0.000000000000000 
P           0.250000000000000    0.750000000000000    0.000000000000000 
P           0.750000000000000    0.250000000000000    0.000000000000000 
P           0.750000000000000    0.750000000000000    0.000000000000000 
K           0.000000000000000    0.191621000000000    0.234025000000000 
K           0.000000000000000    0.808379000000000    0.234025000000000 
K           0.191621000000000    0.000000000000000    0.765975000000000 
K           0.250000000000000    0.250000000000000    0.500000000000000 
K           0.250000000000000    0.750000000000000    0.500000000000000 
K           0.308379000000000    0.500000000000000    0.234025000000000 
K           0.500000000000000    0.308379000000000    0.765975000000000 
K           0.500000000000000    0.691621000000000    0.765975000000000 
K           0.691621000000000    0.500000000000000    0.234025000000000 
K           0.750000000000000    0.250000000000000    0.500000000000000 
K           0.750000000000000    0.750000000000000    0.500000000000000 
K           0.808379000000000    0.000000000000000    0.765975000000000 
%ENDBLOCK POSITIONS_FRAC
