# Cell file generated by matador (Matthew Evans 2016)

%BLOCK LATTICE_CART
5.26429 0.0 0.0
-2.63214 4.55901 0.0
0.0 0.0 6.61907
%ENDBLOCK LATTICE_CART

%BLOCK POSITIONS_FRAC
P           0.135636000000000    0.567818000000000    0.934968000000000 
P           0.432182000000000    0.567818000000000    0.934968000000000 
P           0.432182000000000    0.864364000000000    0.934968000000000 
P           0.567818000000000    0.135636000000000    0.065032000000000 
P           0.567818000000000    0.432182000000000    0.065032000000000 
P           0.864364000000000    0.432182000000000    0.065032000000000 
K           0.000000000000000    0.000000000000000    0.000000000000000 
K           0.000000000000000    0.000000000000000    0.500000000000000 
%ENDBLOCK POSITIONS_FRAC
