# Cell file generated by matador (Matthew Evans 2016)

%BLOCK LATTICE_CART
7.03006 0.0 0.0
-3.51503 6.08821 0.0
0.0 0.0 7.40662
%ENDBLOCK LATTICE_CART

%BLOCK POSITIONS_FRAC
P           0.000000000000000    0.000000000000000    0.000000000000000 
P           0.000000000000000    0.000000000000000    0.500000000000000 
K           0.025665000000000    0.512833000000000    0.730079000000000 
K           0.487167000000000    0.512833000000000    0.730079000000000 
K           0.487167000000000    0.974335000000000    0.730079000000000 
K           0.512833000000000    0.025665000000000    0.269921000000000 
K           0.512833000000000    0.487167000000000    0.269921000000000 
K           0.974335000000000    0.487167000000000    0.269921000000000 
%ENDBLOCK POSITIONS_FRAC
