# Cell file generated by matador (Matthew Evans 2016)

%BLOCK LATTICE_CART
4.87663 0.0 0.0
0.0 7.45357 0.0
-2.05735 0.0 9.60915
%ENDBLOCK LATTICE_CART

%BLOCK POSITIONS_FRAC
P           0.257690000000000    0.888653000000000    0.626500000000000 
P           0.357431000000000    0.161919000000000    0.063702000000000 
P           0.642569000000000    0.161919000000000    0.936298000000000 
P           0.742310000000000    0.888653000000000    0.373500000000000 
K           0.000000000000000    0.383272000000000    0.500000000000000 
K           0.000000000000000    0.909509000000000    0.000000000000000 
K           0.215618000000000    0.509414000000000    0.025024000000000 
K           0.267337000000000    0.820290000000000    0.279016000000000 
K           0.500000000000000    0.210215000000000    0.500000000000000 
K           0.732663000000000    0.820290000000000    0.720984000000000 
K           0.784382000000000    0.509414000000000    0.974976000000000 
%ENDBLOCK POSITIONS_FRAC
