# Cell file generated by matador (Matthew Evans 2016)

%BLOCK LATTICE_CART
5.20539 0.0 0.0
-2.60269 4.508 0.0
0.0 0.0 6.30624
%ENDBLOCK LATTICE_CART

%BLOCK POSITIONS_FRAC
P           0.000000000000000    0.000000000000000    0.000000000000000 
P           0.000000000000000    0.000000000000000    0.500000000000000 
K           0.333333000000000    0.666667000000000    0.000000000000000 
K           0.666667000000000    0.333333000000000    0.000000000000000 
%ENDBLOCK POSITIONS_FRAC
