# Cell file generated by matador (Matthew Evans 2016)

%BLOCK LATTICE_CART
9.60136 0.0 0.0
0.0 9.94189 0.0
0.0 0.0 6.31736
%ENDBLOCK LATTICE_CART

%BLOCK POSITIONS_FRAC
P           0.001564000000000    0.000000000000000    0.000000000000000 
P           0.143824000000000    0.000000000000000    0.500000000000000 
P           0.356176000000000    0.500000000000000    0.000000000000000 
P           0.498436000000000    0.500000000000000    0.500000000000000 
P           0.501564000000000    0.500000000000000    0.000000000000000 
P           0.643824000000000    0.500000000000000    0.500000000000000 
P           0.856176000000000    0.000000000000000    0.000000000000000 
P           0.998436000000000    0.000000000000000    0.500000000000000 
K           0.000000000000000    0.396465000000000    0.750000000000000 
K           0.000000000000000    0.603535000000000    0.250000000000000 
K           0.241472000000000    0.172126000000000    0.814543000000000 
K           0.241472000000000    0.827874000000000    0.185457000000000 
K           0.258528000000000    0.327874000000000    0.314543000000000 
K           0.258528000000000    0.672126000000000    0.685457000000000 
K           0.500000000000000    0.103535000000000    0.250000000000000 
K           0.500000000000000    0.896465000000000    0.750000000000000 
K           0.741472000000000    0.327874000000000    0.185457000000000 
K           0.741472000000000    0.672126000000000    0.814543000000000 
K           0.758528000000000    0.172126000000000    0.685457000000000 
K           0.758528000000000    0.827874000000000    0.314543000000000 
%ENDBLOCK POSITIONS_FRAC
