# Cell file generated by matador (Matthew Evans 2016)

%BLOCK LATTICE_CART
9.70371 0.0 0.0
2.09981 4.81613 0.0
-1.30596 -3.14105 7.37818
%ENDBLOCK LATTICE_CART

%BLOCK POSITIONS_FRAC
P           0.316910000000000    0.184891000000000    0.162123000000000 
P           0.683090000000000    0.815109000000000    0.837877000000000 
K           0.000000000000000    0.000000000000000    0.000000000000000 
K           0.000000000000000    0.000000000000000    0.500000000000000 
K           0.000000000000000    0.500000000000000    0.000000000000000 
K           0.000000000000000    0.500000000000000    0.500000000000000 
K           0.500000000000000    0.000000000000000    0.000000000000000 
K           0.500000000000000    0.000000000000000    0.500000000000000 
K           0.500000000000000    0.500000000000000    0.000000000000000 
K           0.500000000000000    0.500000000000000    0.500000000000000 
%ENDBLOCK POSITIONS_FRAC
