# Cell file generated by matador (Matthew Evans 2016)

%BLOCK LATTICE_CART
7.94386 0.0 0.0
-3.97193 6.87958 0.0
0.0 0.0 7.52687
%ENDBLOCK LATTICE_CART

%BLOCK POSITIONS_FRAC
P           0.014989000000000    0.862237000000000    0.270487000000000 
P           0.137763000000000    0.152752000000000    0.270487000000000 
P           0.152752000000000    0.014989000000000    0.729513000000000 
P           0.285875000000000    0.707628000000000    0.024386000000000 
P           0.292372000000000    0.578246000000000    0.024386000000000 
P           0.421754000000000    0.714125000000000    0.024386000000000 
P           0.578246000000000    0.285875000000000    0.975614000000000 
P           0.707628000000000    0.421754000000000    0.975614000000000 
P           0.714125000000000    0.292372000000000    0.975614000000000 
P           0.847248000000000    0.985011000000000    0.270487000000000 
P           0.862237000000000    0.847248000000000    0.729513000000000 
P           0.985011000000000    0.137763000000000    0.729513000000000 
K           0.000000000000000    0.500000000000000    0.000000000000000 
K           0.500000000000000    0.000000000000000    0.000000000000000 
K           0.500000000000000    0.500000000000000    0.000000000000000 
%ENDBLOCK POSITIONS_FRAC
