# Cell file generated by matador (Matthew Evans 2016)

%BLOCK LATTICE_CART
8.49738 0.0 0.0
-4.24869 7.35894 0.0
0.0 0.0 7.17243
%ENDBLOCK LATTICE_CART

%BLOCK POSITIONS_FRAC
P           0.999999000000000    0.999999000000000    0.399923000000000 
P           0.999999000000000    0.999999000000000    0.600077000000000 
P           0.999999000000000    0.499999000000000    0.000000000000000 
P           0.999999000000000    0.499999000000000    0.500000000000000 
P           0.333332000000000    0.666666000000000    0.136493000000000 
P           0.333332000000000    0.666666000000000    0.863507000000000 
P           0.499999000000000    0.999999000000000    0.000000000000000 
P           0.499999000000000    0.999999000000000    0.500000000000000 
P           0.499999000000000    0.499999000000000    0.000000000000000 
P           0.499999000000000    0.499999000000000    0.500000000000000 
P           0.666666000000000    0.333332000000000    0.136493000000000 
P           0.666666000000000    0.333332000000000    0.863507000000000 
K           0.333332000000000    0.666666000000000    0.500000000000000 
K           0.666666000000000    0.333332000000000    0.500000000000000 
%ENDBLOCK POSITIONS_FRAC
