# Cell file generated by matador (Matthew Evans 2016)

%BLOCK LATTICE_CART
8.86081 0.0 0.0
0.0 9.1683 0.0
0.0 0.0 7.7235
%ENDBLOCK LATTICE_CART

%BLOCK POSITIONS_FRAC
P           0.209312000000000    0.479756000000000    0.093911000000000 
P           0.209312000000000    0.520244000000000    0.593911000000000 
P           0.290688000000000    0.020244000000000    0.593911000000000 
P           0.290688000000000    0.979756000000000    0.093911000000000 
P           0.709312000000000    0.020244000000000    0.906089000000000 
P           0.709312000000000    0.979756000000000    0.406089000000000 
P           0.790688000000000    0.479756000000000    0.406089000000000 
P           0.790688000000000    0.520244000000000    0.906089000000000 
K           0.000000000000000    0.000000000000000    0.000000000000000 
K           0.000000000000000    0.000000000000000    0.500000000000000 
K           0.000000000000000    0.360215000000000    0.750000000000000 
K           0.000000000000000    0.500000000000000    0.000000000000000 
K           0.000000000000000    0.500000000000000    0.500000000000000 
K           0.000000000000000    0.639785000000000    0.250000000000000 
K           0.500000000000000    0.000000000000000    0.000000000000000 
K           0.500000000000000    0.000000000000000    0.500000000000000 
K           0.500000000000000    0.139785000000000    0.250000000000000 
K           0.500000000000000    0.500000000000000    0.000000000000000 
K           0.500000000000000    0.500000000000000    0.500000000000000 
K           0.500000000000000    0.860215000000000    0.750000000000000 
%ENDBLOCK POSITIONS_FRAC
