# Cell file generated by matador (Matthew Evans 2016)

%BLOCK LATTICE_CART
8.61351 0.0 0.0
0.0 7.54758 0.0
0.0 0.0 5.23624
%ENDBLOCK LATTICE_CART

%BLOCK POSITIONS_FRAC
P           0.000000000000000    0.000000000000000    0.500000000000000 
P           0.500000000000000    0.000000000000000    0.000000000000000 
K           0.000000000000000    0.500000000000000    0.500000000000000 
K           0.250000000000000    0.188141000000000    0.750000000000000 
K           0.250000000000000    0.811859000000000    0.250000000000000 
K           0.500000000000000    0.500000000000000    0.000000000000000 
K           0.750000000000000    0.188141000000000    0.750000000000000 
K           0.750000000000000    0.811859000000000    0.250000000000000 
%ENDBLOCK POSITIONS_FRAC
