# Cell file generated by matador (Matthew Evans 2016)

%BLOCK LATTICE_CART
12.5334 0.0 0.0
0.0 7.42286 0.0
0.0 0.0 13.9676
%ENDBLOCK LATTICE_CART

%BLOCK POSITIONS_FRAC
P           0.250000000000000    0.250000000000000    0.250000000000000 
P           0.250000000000000    0.250000000000000    0.750000000000000 
P           0.250000000000000    0.750000000000000    0.250000000000000 
P           0.250000000000000    0.750000000000000    0.750000000000000 
P           0.750000000000000    0.250000000000000    0.250000000000000 
P           0.750000000000000    0.250000000000000    0.750000000000000 
P           0.750000000000000    0.750000000000000    0.250000000000000 
P           0.750000000000000    0.750000000000000    0.750000000000000 
K          -0.000000000000000    0.000000000000000   -0.000000000000000 
K          -0.000000000000000    0.000000000000000    0.500000000000000 
K          -0.000000000000000    0.250000000000000    0.228142000000000 
K          -0.000000000000000    0.250000000000000    0.728142000000000 
K          -0.000000000000000    0.500000000000000   -0.000000000000000 
K          -0.000000000000000    0.500000000000000    0.500000000000000 
K          -0.000000000000000    0.750000000000000    0.271858000000000 
K          -0.000000000000000    0.750000000000000    0.771858000000000 
K           0.189050000000000    0.000000000000000    0.750000000000000 
K           0.189050000000000    0.500000000000000    0.250000000000000 
K           0.310950000000000    0.000000000000000    0.250000000000000 
K           0.310950000000000    0.500000000000000    0.750000000000000 
K           0.500000000000000    0.000000000000000   -0.000000000000000 
K           0.500000000000000    0.000000000000000    0.500000000000000 
K           0.500000000000000    0.250000000000000    0.271858000000000 
K           0.500000000000000    0.250000000000000    0.771858000000000 
K           0.500000000000000    0.500000000000000   -0.000000000000000 
K           0.500000000000000    0.500000000000000    0.500000000000000 
K           0.500000000000000    0.750000000000000    0.228142000000000 
K           0.500000000000000    0.750000000000000    0.728142000000000 
K           0.689050000000000    0.000000000000000    0.750000000000000 
K           0.689050000000000    0.500000000000000    0.250000000000000 
K           0.810950000000000    0.000000000000000    0.250000000000000 
K           0.810950000000000    0.500000000000000    0.750000000000000 
%ENDBLOCK POSITIONS_FRAC
