# Cell file generated by matador (Matthew Evans 2016)

%BLOCK LATTICE_CART
7.25919 0.0 0.0
-3.6296 6.28664 0.0
0.0 0.0 9.80917
%ENDBLOCK LATTICE_CART

%BLOCK POSITIONS_FRAC
P          -0.000000000000000    0.000000000000000    0.000000000000000 
P          -0.000000000000000    0.000000000000000    0.500000000000000 
P          -0.000000000000000    0.169344000000000    0.337113000000000 
P          -0.000000000000000    0.830656000000000    0.662887000000000 
P           0.169344000000000    0.000000000000000    0.337113000000000 
P           0.169344000000000    0.169344000000000    0.662887000000000 
P           0.333333000000000    0.666667000000000    0.203890000000000 
P           0.333333000000000    0.666667000000000    0.796110000000000 
P           0.666666000000000    0.333334000000000    0.203890000000000 
P           0.666666000000000    0.333334000000000    0.796110000000000 
P           0.830656000000000    0.000000000000000    0.662887000000000 
P           0.830656000000000    0.830656000000000    0.337113000000000 
K           0.333333000000000    0.666667000000000    0.000000000000000 
K           0.333333000000000    0.666667000000000    0.500000000000000 
K           0.666666000000000    0.333334000000000    0.000000000000000 
K           0.666666000000000    0.333334000000000    0.500000000000000 
%ENDBLOCK POSITIONS_FRAC
