# Cell file generated by matador (Matthew Evans 2016)

%BLOCK LATTICE_CART
4.57348 0.0 0.0
0.0 6.8756 0.0
2.54574 0.0 5.87315
%ENDBLOCK LATTICE_CART

%BLOCK POSITIONS_FRAC
P           0.135703000000000    0.245172000000000    0.604910000000000 
P           0.135703000000000    0.754828000000000    0.604910000000000 
P           0.864297000000000    0.245172000000000    0.395090000000000 
P           0.864297000000000    0.754828000000000    0.395090000000000 
K           0.000000000000000    0.000000000000000    0.500000000000000 
K           0.000000000000000    0.500000000000000    0.500000000000000 
K           0.500000000000000    0.000000000000000    0.500000000000000 
K           0.500000000000000    0.500000000000000    0.500000000000000 
%ENDBLOCK POSITIONS_FRAC
