# Cell file generated by matador (Matthew Evans 2016)

%BLOCK LATTICE_CART
8.34052 0.0 0.0
0.0 8.34052 0.0
0.0 0.0 8.30572
%ENDBLOCK LATTICE_CART

%BLOCK POSITIONS_FRAC
P           0.250000000000000    0.250000000000000    0.000000000000000 
P           0.250000000000000    0.750000000000000    0.000000000000000 
P           0.750000000000000    0.250000000000000    0.000000000000000 
P           0.750000000000000    0.750000000000000    0.000000000000000 
K          -0.000000000000000   -0.000000000000000    0.000000000000000 
K          -0.000000000000000   -0.000000000000000    0.500000000000000 
K           0.184225000000000    0.315775000000000    0.673412000000000 
K           0.184225000000000    0.684225000000000    0.673412000000000 
K           0.315775000000000    0.184225000000000    0.326588000000000 
K           0.315775000000000    0.815775000000000    0.326588000000000 
K           0.500000000000000    0.500000000000000    0.000000000000000 
K           0.500000000000000    0.500000000000000    0.500000000000000 
K           0.684225000000000    0.184225000000000    0.326588000000000 
K           0.684225000000000    0.815775000000000    0.326588000000000 
K           0.815775000000000    0.315775000000000    0.673412000000000 
K           0.815775000000000    0.684225000000000    0.673412000000000 
%ENDBLOCK POSITIONS_FRAC
