# Cell file generated by matador (Matthew Evans 2016)

%BLOCK LATTICE_CART
6.48793 0.0 0.0
-3.24397 5.61871 0.0
0.0 0.0 7.85459
%ENDBLOCK LATTICE_CART

%BLOCK POSITIONS_FRAC
P           0.214341000000000    0.479216000000000    0.175307000000000 
P           0.264876000000000    0.785659000000000    0.175307000000000 
P           0.333333000000000    0.666667000000000    0.283055000000000 
P           0.424404000000000    0.225533000000000    0.120235000000000 
P           0.520784000000000    0.735124000000000    0.175307000000000 
P           0.774467000000000    0.198871000000000    0.120235000000000 
P           0.801129000000000    0.575596000000000    0.120235000000000 
K           0.000000000000000    0.000000000000000    0.645266000000000 
K           0.333333000000000    0.666667000000000    0.690474000000000 
K           0.666667000000000    0.333333000000000    0.343398000000000 
K           0.666667000000000    0.333333000000000    0.823183000000000 
%ENDBLOCK POSITIONS_FRAC
