# Cell file generated by matador (Matthew Evans 2016)

%BLOCK LATTICE_CART
5.81878 0.0 0.0
1.44015 3.5433 0.0
4.4612 -2.65382 7.42664
%ENDBLOCK LATTICE_CART

%BLOCK POSITIONS_FRAC
P           0.000000000000000    0.500000000000000    0.500000000000000 
K           0.128122000000000    0.331418000000000    0.800335000000000 
K           0.500000000000000    0.500000000000000    0.500000000000000 
K           0.871878000000000    0.668582000000000    0.199665000000000 
%ENDBLOCK POSITIONS_FRAC
