# Cell file generated by matador (Matthew Evans 2016)

%BLOCK LATTICE_CART
7.85837 0.0 0.0
0.0 7.50534 0.0
-2.58105 0.0 4.64575
%ENDBLOCK LATTICE_CART

%BLOCK POSITIONS_FRAC
P           0.000000000000000    0.379008000000000    0.000000000000000 
P           0.000000000000000    0.996028000000000    0.500000000000000 
P           0.500000000000000    0.025611000000000    0.500000000000000 
P           0.500000000000000    0.103938000000000    0.000000000000000 
P           0.500000000000000    0.336409000000000    0.000000000000000 
P           0.500000000000000    0.618900000000000    0.000000000000000 
K           0.000000000000000    0.701126000000000    0.500000000000000 
K           0.225069000000000    0.464361000000000    0.479083000000000 
K           0.269936000000000    0.889164000000000    0.861836000000000 
K           0.730064000000000    0.889164000000000    0.138164000000000 
K           0.774931000000000    0.464361000000000    0.520917000000000 
%ENDBLOCK POSITIONS_FRAC
