# Cell file generated by matador (Matthew Evans 2016)

%BLOCK LATTICE_CART
6.4315 0.0 0.0
0.0 4.88228 0.0
1.34248 0.0 5.97329
%ENDBLOCK LATTICE_CART

%BLOCK POSITIONS_FRAC
P           0.500000000000000    0.601463000000000    0.500000000000000 
P           0.500000000000000    0.824311000000000    0.500000000000000 
K           0.000000000000000    0.208313000000000    0.000000000000000 
K           0.302191000000000    0.441552000000000    0.304942000000000 
K           0.697809000000000    0.441552000000000    0.695058000000000 
%ENDBLOCK POSITIONS_FRAC
