# Cell file generated by matador (Matthew Evans 2016)

%BLOCK LATTICE_CART
6.96395 0.0 0.0
-3.48197 6.03095 0.0
0.0 0.0 5.51081
%ENDBLOCK LATTICE_CART

%BLOCK POSITIONS_FRAC
P           0.194173000000000    0.388345000000000    0.250000000000000 
P           0.194173000000000    0.805827000000000    0.250000000000000 
P           0.388345000000000    0.194173000000000    0.750000000000000 
P           0.611655000000000    0.805827000000000    0.250000000000000 
P           0.805827000000000    0.194173000000000    0.750000000000000 
P           0.805827000000000    0.611655000000000    0.750000000000000 
K           0.000000000000000    0.000000000000000    0.000000000000000 
K           0.000000000000000    0.000000000000000    0.500000000000000 
%ENDBLOCK POSITIONS_FRAC
