# Cell file generated by matador (Matthew Evans 2016)

%BLOCK LATTICE_CART
8.34803 0.0 0.0
0.0 8.34803 0.0
0.0 0.0 8.34803
%ENDBLOCK LATTICE_CART

%BLOCK POSITIONS_FRAC
P           0.146391000000000    0.146391000000000    0.146391000000000 
P           0.146391000000000    0.146391000000000    0.853609000000000 
P           0.146391000000000    0.853609000000000    0.146391000000000 
P           0.146391000000000    0.853609000000000    0.853609000000000 
P           0.260423000000000    0.500000000000000    0.500000000000000 
P           0.500000000000000    0.260423000000000    0.500000000000000 
P           0.500000000000000    0.500000000000000    0.260423000000000 
P           0.500000000000000    0.500000000000000    0.739577000000000 
P           0.500000000000000    0.739577000000000    0.500000000000000 
P           0.739577000000000    0.500000000000000    0.500000000000000 
P           0.853609000000000    0.146391000000000    0.146391000000000 
P           0.853609000000000    0.146391000000000    0.853609000000000 
P           0.853609000000000    0.853609000000000    0.146391000000000 
P           0.853609000000000    0.853609000000000    0.853609000000000 
K           0.000000000000000    0.500000000000000    0.500000000000000 
K           0.500000000000000    0.000000000000000    0.500000000000000 
K           0.500000000000000    0.500000000000000    0.000000000000000 
K           0.500000000000000    0.500000000000000    0.500000000000000 
%ENDBLOCK POSITIONS_FRAC
