# Cell file generated by matador (Matthew Evans 2016)

%BLOCK LATTICE_CART
6.16989 0.0 0.0
-3.08494 5.34328 0.0
0.0 0.0 11.3212
%ENDBLOCK LATTICE_CART

%BLOCK POSITIONS_FRAC
P           0.125749000000000    0.010806000000000    0.033389000000000 
P           0.223186000000000    0.467196000000000    0.365086000000000 
P           0.244010000000000    0.776814000000000    0.698419000000000 
P           0.433997000000000    0.416824000000000    0.515217000000000 
P           0.532804000000000    0.755990000000000    0.031752000000000 
P           0.583176000000000    0.017173000000000    0.181884000000000 
P           0.885057000000000    0.874251000000000    0.366723000000000 
P           0.982827000000000    0.566003000000000    0.848551000000000 
P           0.989194000000000    0.114943000000000    0.700056000000000 
K           0.026249000000000    0.296300000000000    0.053036000000000 
K           0.270051000000000    0.973751000000000    0.386369000000000 
K           0.703700000000000    0.729949000000000    0.719702000000000 
%ENDBLOCK POSITIONS_FRAC
