# Cell file generated by matador (Matthew Evans 2016)

%BLOCK LATTICE_CART
8.42807 0.0 0.0
-4.21403 7.29892 0.0
0.0 0.0 7.80837
%ENDBLOCK LATTICE_CART

%BLOCK POSITIONS_FRAC
P           0.000000000000000    0.500000000000000    0.666667000000000 
P           0.500000000000000    0.000000000000000    0.000000000000000 
P           0.500000000000000    0.500000000000000    0.333334000000000 
K           0.000000000000000    0.000000000000000    0.000000000000000 
K           0.000000000000000    0.000000000000000    0.333334000000000 
K           0.000000000000000    0.000000000000000    0.666667000000000 
K           0.000000000000000    0.500000000000000    0.166667000000000 
K           0.304626000000000    0.609253000000000    0.000000000000000 
K           0.304626000000000    0.695374000000000    0.333334000000000 
K           0.390747000000000    0.695374000000000    0.666667000000000 
K           0.500000000000000    0.000000000000000    0.500000000000000 
K           0.500000000000000    0.500000000000000    0.833334000000000 
K           0.609253000000000    0.304626000000000    0.666667000000000 
K           0.695374000000000    0.304626000000000    0.333334000000000 
K           0.695374000000000    0.390747000000000    0.000000000000000 
%ENDBLOCK POSITIONS_FRAC
