# Cell file generated by matador (Matthew Evans 2016)

%BLOCK LATTICE_CART
10.1858 0.0 0.0
-5.09291 8.82118 0.0
0.0 0.0 10.3124
%ENDBLOCK LATTICE_CART

%BLOCK POSITIONS_FRAC
P           0.000000000000000    0.000000000000000    0.039932000000000 
P           0.000000000000000    0.000000000000000    0.707276000000000 
P           0.333333000000000    0.666667000000000    0.373943000000000 
P           0.333333000000000    0.666667000000000    0.706598000000000 
P           0.666667000000000    0.333333000000000    0.040609000000000 
P           0.666667000000000    0.333333000000000    0.373265000000000 
K           0.178546000000000    0.357093000000000    0.538200000000000 
K           0.178546000000000    0.821454000000000    0.538200000000000 
K           0.197856000000000    0.098928000000000    0.372762000000000 
K           0.234405000000000    0.468811000000000    0.039429000000000 
K           0.234405000000000    0.765595000000000    0.039429000000000 
K           0.309574000000000    0.154787000000000    0.871533000000000 
K           0.511880000000000    0.023759000000000    0.204867000000000 
K           0.511880000000000    0.488120000000000    0.204867000000000 
K           0.531189000000000    0.765595000000000    0.039429000000000 
K           0.567739000000000    0.135478000000000    0.706096000000000 
K           0.567739000000000    0.432261000000000    0.706096000000000 
K           0.642907000000000    0.821454000000000    0.538200000000000 
K           0.845213000000000    0.154787000000000    0.871533000000000 
K           0.845213000000000    0.690426000000000    0.871533000000000 
K           0.864522000000000    0.432261000000000    0.706096000000000 
K           0.901072000000000    0.098928000000000    0.372762000000000 
K           0.901072000000000    0.802144000000000    0.372762000000000 
K           0.976241000000000    0.488120000000000    0.204867000000000 
%ENDBLOCK POSITIONS_FRAC
