# Cell file generated by matador (Matthew Evans 2016)

%BLOCK LATTICE_CART
8.02677 0.0 0.0
0.0 10.8595 0.0
0.0 0.0 9.85339
%ENDBLOCK LATTICE_CART

%BLOCK POSITIONS_FRAC
P           0.000000000000000    0.000000000000000    0.660298000000000 
P           0.237910000000000    0.000000000000000    0.351967000000000 
P           0.262090000000000    0.500000000000000    0.851967000000000 
P           0.500000000000000    0.500000000000000    0.160298000000000 
P           0.737910000000000    0.500000000000000    0.851967000000000 
P           0.762090000000000    0.000000000000000    0.351967000000000 
K           0.000000000000000    0.134977000000000    0.077045000000000 
K           0.000000000000000    0.256419000000000    0.689016000000000 
K           0.000000000000000    0.365092000000000    0.227007000000000 
K           0.000000000000000    0.500000000000000    0.542198000000000 
K           0.000000000000000    0.634908000000000    0.227007000000000 
K           0.000000000000000    0.743581000000000    0.689016000000000 
K           0.000000000000000    0.865023000000000    0.077045000000000 
K           0.186902000000000    0.000000000000000    0.850891000000000 
K           0.313098000000000    0.500000000000000    0.350891000000000 
K           0.500000000000000    0.000000000000000    0.042198000000000 
K           0.500000000000000    0.134908000000000    0.727007000000000 
K           0.500000000000000    0.243581000000000    0.189016000000000 
K           0.500000000000000    0.365023000000000    0.577045000000000 
K           0.500000000000000    0.634977000000000    0.577045000000000 
K           0.500000000000000    0.756419000000000    0.189016000000000 
K           0.500000000000000    0.865092000000000    0.727007000000000 
K           0.686902000000000    0.500000000000000    0.350891000000000 
K           0.813098000000000    0.000000000000000    0.850891000000000 
%ENDBLOCK POSITIONS_FRAC
