# Cell file generated by matador (Matthew Evans 2016)

%BLOCK LATTICE_CART
10.4507 0.0 0.0
-5.22535 9.05057 0.0
0.0 0.0 5.74514
%ENDBLOCK LATTICE_CART

%BLOCK POSITIONS_FRAC
P           0.000000000000000    0.000000000000000    0.250000000000000 
P           0.000000000000000    0.000000000000000    0.750000000000000 
P           0.000000000000000    0.072000000000000    0.000000000000000 
P           0.000000000000000    0.072000000000000    0.500000000000000 
P           0.072000000000000    0.000000000000000    0.000000000000000 
P           0.072000000000000    0.000000000000000    0.500000000000000 
P           0.256628000000000    0.725472000000000    0.750000000000000 
P           0.274528000000000    0.531156000000000    0.750000000000000 
P           0.468844000000000    0.743372000000000    0.750000000000000 
P           0.531156000000000    0.274528000000000    0.250000000000000 
P           0.725472000000000    0.256628000000000    0.250000000000000 
P           0.743372000000000    0.468844000000000    0.250000000000000 
P           0.928000000000000    0.928000000000000    0.000000000000000 
P           0.928000000000000    0.928000000000000    0.500000000000000 
K           0.000000000000000    0.434139000000000    0.000000000000000 
K           0.000000000000000    0.434139000000000    0.500000000000000 
K           0.434139000000000    0.000000000000000    0.000000000000000 
K           0.434139000000000    0.000000000000000    0.500000000000000 
K           0.565861000000000    0.565861000000000    0.000000000000000 
K           0.565861000000000    0.565861000000000    0.500000000000000 
%ENDBLOCK POSITIONS_FRAC
