# Cell file generated by matador (Matthew Evans 2016)

%BLOCK LATTICE_CART
8.48965 0.0 0.0
-4.24482 7.35225 0.0
0.0 0.0 3.88083
%ENDBLOCK LATTICE_CART

%BLOCK POSITIONS_FRAC
P          -0.000000000000000    0.000000000000000    0.500000000000000 
P           0.095108000000000    0.654007000000000    0.801222000000000 
P           0.345993000000000    0.441101000000000    0.801222000000000 
P           0.441101000000000    0.095108000000000    0.198778000000000 
P           0.558899000000000    0.904892000000000    0.801222000000000 
P           0.654007000000000    0.558899000000000    0.198778000000000 
P           0.904892000000000    0.345993000000000    0.198778000000000 
K           0.333333000000000    0.666667000000000    0.352740000000000 
K           0.666666000000000    0.333334000000000    0.647260000000000 
%ENDBLOCK POSITIONS_FRAC
