# Cell file generated by matador (Matthew Evans 2016)

%BLOCK LATTICE_CART
6.75288 0.0 0.0
0.0 6.75288 0.0
0.0 0.0 7.64835
%ENDBLOCK LATTICE_CART

%BLOCK POSITIONS_FRAC
P          -0.000000000000000   -0.000000000000000    0.255436000000000 
P          -0.000000000000000   -0.000000000000000    0.500000000000000 
P          -0.000000000000000   -0.000000000000000    0.744564000000000 
P           0.500000000000000    0.500000000000000   -0.000000000000000 
P           0.500000000000000    0.500000000000000    0.244564000000000 
P           0.500000000000000    0.500000000000000    0.755436000000000 
K          -0.000000000000000    0.500000000000000    0.250000000000000 
K          -0.000000000000000    0.500000000000000    0.750000000000000 
K           0.500000000000000   -0.000000000000000    0.250000000000000 
K           0.500000000000000   -0.000000000000000    0.750000000000000 
%ENDBLOCK POSITIONS_FRAC
