# Cell file generated by matador (Matthew Evans 2016)

%BLOCK LATTICE_CART
6.9975 0.0 0.0
-3.49875 6.06001 0.0
0.0 0.0 10.1045
%ENDBLOCK LATTICE_CART

%BLOCK POSITIONS_FRAC
P           0.000000000000000    0.500000000000000    0.433467000000000 
P           0.333333000000000    0.666667000000000    0.506640000000000 
P           0.333333000000000    0.666667000000000    0.768322000000000 
P           0.500000000000000    0.000000000000000    0.433467000000000 
P           0.500000000000000    0.500000000000000    0.433467000000000 
P           0.666667000000000    0.333333000000000    0.506640000000000 
P           0.666667000000000    0.333333000000000    0.768322000000000 
K           0.000000000000000    0.000000000000000    0.248960000000000 
K           0.000000000000000    0.000000000000000    0.535901000000000 
K           0.333333000000000    0.666667000000000    0.020295000000000 
K           0.666667000000000    0.333333000000000    0.020295000000000 
%ENDBLOCK POSITIONS_FRAC
