# Cell file generated by matador (Matthew Evans 2016)

%BLOCK LATTICE_CART
8.61558 0.0 0.0
-4.30779 7.46132 0.0
0.0 0.0 8.04564
%ENDBLOCK LATTICE_CART

%BLOCK POSITIONS_FRAC
P           0.000000000000000    0.000000000000000    0.243353000000000 
P           0.333333000000000    0.666667000000000    0.910020000000000 
P           0.666667000000000    0.333333000000000    0.576686000000000 
K           0.036226000000000    0.518113000000000    0.820072000000000 
K           0.148554000000000    0.297107000000000    0.153406000000000 
K           0.148554000000000    0.851446000000000    0.153406000000000 
K           0.369559000000000    0.184780000000000    0.486739000000000 
K           0.481887000000000    0.518113000000000    0.820072000000000 
K           0.481887000000000    0.963774000000000    0.820072000000000 
K           0.702893000000000    0.851446000000000    0.153406000000000 
K           0.815220000000000    0.184780000000000    0.486739000000000 
K           0.815220000000000    0.630441000000000    0.486739000000000 
%ENDBLOCK POSITIONS_FRAC
