# Cell file generated by matador (Matthew Evans 2016)

%BLOCK LATTICE_CART
5.03872 0.0 0.0
-2.51936 4.36366 0.0
0.0 0.0 10.2604
%ENDBLOCK LATTICE_CART

%BLOCK POSITIONS_FRAC
P           0.000000000000000    0.000000000000000    0.092011000000000 
P           0.067723000000000    0.252340000000000    0.697449000000000 
P           0.184617000000000    0.932277000000000    0.697449000000000 
P           0.333333000000000    0.666667000000000    0.281593000000000 
P           0.666667000000000    0.333333000000000    0.485501000000000 
P           0.666667000000000    0.333333000000000    0.738616000000000 
P           0.747660000000000    0.815383000000000    0.697449000000000 
K           0.000000000000000    0.000000000000000    0.338926000000000 
K           0.000000000000000    0.000000000000000    0.888588000000000 
K           0.333333000000000    0.666667000000000    0.552940000000000 
K           0.333333000000000    0.666667000000000    0.831818000000000 
%ENDBLOCK POSITIONS_FRAC
