# Cell file generated by matador (Matthew Evans 2016)

%BLOCK LATTICE_CART
5.48062 0.0 0.0
-2.74031 4.74635 0.0
0.0 0.0 6.98669
%ENDBLOCK LATTICE_CART

%BLOCK POSITIONS_FRAC
P           0.000000000000000    0.000000000000000    0.786371000000000 
P           0.666667000000000    0.333333000000000    0.735291000000000 
K           0.000000000000000    0.000000000000000    0.157784000000000 
K           0.333333000000000    0.666667000000000    0.676828000000000 
K           0.666667000000000    0.333333000000000    0.325281000000000 
%ENDBLOCK POSITIONS_FRAC
