# Cell file generated by matador (Matthew Evans 2016)

%BLOCK LATTICE_CART
5.76584 0.0 0.0
0.0 8.58441 0.0
0.0 0.0 11.201
%ENDBLOCK LATTICE_CART

%BLOCK POSITIONS_FRAC
P           0.000000000000000    0.062382000000000    0.557613000000000 
P           0.000000000000000    0.062382000000000    0.942387000000000 
P           0.000000000000000    0.937618000000000    0.057613000000000 
P           0.000000000000000    0.937618000000000    0.442387000000000 
P           0.500000000000000    0.437618000000000    0.057613000000000 
P           0.500000000000000    0.437618000000000    0.442387000000000 
P           0.500000000000000    0.562382000000000    0.557613000000000 
P           0.500000000000000    0.562382000000000    0.942387000000000 
K           0.000000000000000    0.409099000000000    0.162042000000000 
K           0.000000000000000    0.409099000000000    0.337958000000000 
K           0.000000000000000    0.500000000000000    0.000000000000000 
K           0.000000000000000    0.500000000000000    0.500000000000000 
K           0.000000000000000    0.590901000000000    0.662042000000000 
K           0.000000000000000    0.590901000000000    0.837958000000000 
K           0.500000000000000    0.000000000000000    0.000000000000000 
K           0.500000000000000    0.000000000000000    0.500000000000000 
K           0.500000000000000    0.090901000000000    0.662042000000000 
K           0.500000000000000    0.090901000000000    0.837958000000000 
K           0.500000000000000    0.909099000000000    0.162042000000000 
K           0.500000000000000    0.909099000000000    0.337958000000000 
%ENDBLOCK POSITIONS_FRAC
