# Cell file generated by matador (Matthew Evans 2016)

%BLOCK LATTICE_CART
8.97202 0.0 0.0
0.0 5.72727 0.0
0.0 0.0 11.1663
%ENDBLOCK LATTICE_CART

%BLOCK POSITIONS_FRAC
P          -0.000000000000000   -0.000000000000000    0.496202000000000 
P          -0.000000000000000    0.500000000000000    0.166307000000000 
P           0.500000000000000   -0.000000000000000    0.666307000000000 
P           0.500000000000000    0.500000000000000    0.996202000000000 
K          -0.000000000000000    0.190683000000000    0.273370000000000 
K          -0.000000000000000    0.298901000000000    0.780186000000000 
K          -0.000000000000000    0.500000000000000    0.437096000000000 
K          -0.000000000000000    0.701099000000000    0.780186000000000 
K          -0.000000000000000    0.809317000000000    0.273370000000000 
K           0.211026000000000   -0.000000000000000    0.326964000000000 
K           0.288974000000000    0.500000000000000    0.826964000000000 
K           0.500000000000000   -0.000000000000000    0.937096000000000 
K           0.500000000000000    0.201099000000000    0.280186000000000 
K           0.500000000000000    0.309317000000000    0.773370000000000 
K           0.500000000000000    0.690683000000000    0.773370000000000 
K           0.500000000000000    0.798901000000000    0.280186000000000 
K           0.711026000000000    0.500000000000000    0.826964000000000 
K           0.788974000000000   -0.000000000000000    0.326964000000000 
%ENDBLOCK POSITIONS_FRAC
