# Cell file generated by matador (Matthew Evans 2016)

%BLOCK LATTICE_CART
8.3737 0.0 0.0
0.0 7.19635 0.0
0.0 0.0 7.46082
%ENDBLOCK LATTICE_CART

%BLOCK POSITIONS_FRAC
P           0.233689000000000    0.251070000000000    0.705019000000000 
P           0.233689000000000    0.748930000000000    0.705019000000000 
P           0.347799000000000    0.198297000000000    0.170083000000000 
P           0.347799000000000    0.801703000000000    0.170083000000000 
P           0.652201000000000    0.198297000000000    0.170083000000000 
P           0.652201000000000    0.801703000000000    0.170083000000000 
P           0.766311000000000    0.251070000000000    0.705019000000000 
P           0.766311000000000    0.748930000000000    0.705019000000000 
K           0.143867000000000    0.285974000000000    0.308504000000000 
K           0.143867000000000    0.714026000000000    0.308504000000000 
K           0.856133000000000    0.285974000000000    0.308504000000000 
K           0.856133000000000    0.714026000000000    0.308504000000000 
%ENDBLOCK POSITIONS_FRAC
