# Cell file generated by matador (Matthew Evans 2016)

%BLOCK LATTICE_CART
7.79121 0.0 0.0
-3.89561 6.74739 0.0
0.0 0.0 9.62276
%ENDBLOCK LATTICE_CART

%BLOCK POSITIONS_FRAC
P           0.000001000000000    0.500001000000000    0.080541000000000 
P           0.000001000000000    0.500001000000000    0.273728000000000 
P           0.000001000000000    0.500001000000000    0.512561000000000 
P           0.500001000000000    0.000001000000000    0.413874000000000 
P           0.500001000000000    0.000001000000000    0.607062000000000 
P           0.500001000000000    0.000001000000000    0.845894000000000 
P           0.500001000000000    0.500001000000000    0.179228000000000 
P           0.500001000000000    0.500001000000000    0.747208000000000 
P           0.500001000000000    0.500001000000000    0.940395000000000 
K           0.078804000000000    0.703077000000000    0.903261000000000 
K           0.296925000000000    0.375729000000000    0.569928000000000 
K           0.375729000000000    0.078804000000000    0.236595000000000 
K           0.624273000000000    0.921198000000000    0.236595000000000 
K           0.703077000000000    0.624273000000000    0.569928000000000 
K           0.921198000000000    0.296925000000000    0.903261000000000 
%ENDBLOCK POSITIONS_FRAC
