# Cell file generated by matador (Matthew Evans 2016)

%BLOCK LATTICE_CART
5.85921 0.0 0.0
-2.9296 5.07422 0.0
0.0 0.0 13.1474
%ENDBLOCK LATTICE_CART

%BLOCK POSITIONS_FRAC
P           0.333332000000000    0.666666000000000    0.588277000000000 
P           0.333332000000000    0.666666000000000    0.731556000000000 
P           0.333332000000000    0.666666000000000    0.825072000000000 
P           0.666666000000000    0.333332000000000    0.088277000000000 
P           0.666666000000000    0.333332000000000    0.231556000000000 
P           0.666666000000000    0.333332000000000    0.325072000000000 
K           0.209637000000000    0.419276000000000    0.404791000000000 
K           0.209637000000000    0.790361000000000    0.404791000000000 
K           0.333332000000000    0.666666000000000    0.112274000000000 
K           0.419276000000000    0.209637000000000    0.904791000000000 
K           0.580722000000000    0.790361000000000    0.404791000000000 
K           0.666666000000000    0.333332000000000    0.612274000000000 
K           0.790361000000000    0.209637000000000    0.904791000000000 
K           0.790361000000000    0.580722000000000    0.904791000000000 
%ENDBLOCK POSITIONS_FRAC
