# Cell file generated by matador (Matthew Evans 2016)

%BLOCK LATTICE_CART
7.02585 0.0 0.0
0.0 11.2879 0.0
-2.4139 0.0 8.60238
%ENDBLOCK LATTICE_CART

%BLOCK POSITIONS_FRAC
P           0.000000000000000    0.500000000000000    0.000000000000000 
P           0.000000000000000    0.500000000000000    0.500000000000000 
P           0.500000000000000    0.000000000000000    0.000000000000000 
P           0.500000000000000    0.000000000000000    0.500000000000000 
K           0.000000000000000    0.000000000000000    0.000000000000000 
K           0.000000000000000    0.000000000000000    0.500000000000000 
K           0.000000000000000    0.406832000000000    0.750000000000000 
K           0.000000000000000    0.593168000000000    0.250000000000000 
K           0.250000000000000    0.250000000000000    0.000000000000000 
K           0.250000000000000    0.750000000000000    0.500000000000000 
K           0.500000000000000    0.093168000000000    0.250000000000000 
K           0.500000000000000    0.500000000000000    0.000000000000000 
K           0.500000000000000    0.500000000000000    0.500000000000000 
K           0.500000000000000    0.906832000000000    0.750000000000000 
K           0.750000000000000    0.250000000000000    0.500000000000000 
K           0.750000000000000    0.750000000000000    0.000000000000000 
%ENDBLOCK POSITIONS_FRAC
