# Cell file generated by matador (Matthew Evans 2016)

%BLOCK LATTICE_CART
6.34097 0.0 0.0
-3.17049 5.49144 0.0
0.0 0.0 8.5871
%ENDBLOCK LATTICE_CART

%BLOCK POSITIONS_FRAC
P           0.333333000000000    0.666667000000000    0.500000000000000 
P           0.666666000000000    0.333334000000000    0.000000000000000 
K           0.339196000000000    0.169598000000000    0.319450000000000 
K           0.339196000000000    0.169598000000000    0.680550000000000 
K           0.830402000000000    0.169598000000000    0.319450000000000 
K           0.830402000000000    0.169598000000000    0.680550000000000 
K           0.830402000000000    0.660804000000000    0.319450000000000 
K           0.830402000000000    0.660804000000000    0.680550000000000 
%ENDBLOCK POSITIONS_FRAC
