# Cell file generated by matador (Matthew Evans 2016)

%BLOCK LATTICE_CART
5.55507 0.0 0.0
-2.77753 4.81083 0.0
0.0 0.0 8.12779
%ENDBLOCK LATTICE_CART

%BLOCK POSITIONS_FRAC
P           0.333332000000000    0.666666000000000    0.793534000000000 
P           0.666666000000000    0.333332000000000    0.293534000000000 
K           0.150882000000000    0.301765000000000    0.607411000000000 
K           0.150882000000000    0.849116000000000    0.607411000000000 
K           0.301765000000000    0.150882000000000    0.107411000000000 
K           0.698233000000000    0.849116000000000    0.607411000000000 
K           0.849116000000000    0.150882000000000    0.107411000000000 
K           0.849116000000000    0.698233000000000    0.107411000000000 
%ENDBLOCK POSITIONS_FRAC
