# Cell file generated by matador (Matthew Evans 2016)

%BLOCK LATTICE_CART
10.2216 0.0 0.0
0.0 6.51344 0.0
0.0 0.0 9.57708
%ENDBLOCK LATTICE_CART

%BLOCK POSITIONS_FRAC
P           0.000000000000000    0.250000000000000    0.858899000000000 
P           0.000000000000000    0.750000000000000    0.141101000000000 
P           0.500000000000000    0.250000000000000    0.641101000000000 
P           0.500000000000000    0.750000000000000    0.358899000000000 
K           0.000000000000000    0.016646000000000    0.699150000000000 
K           0.000000000000000    0.483354000000000    0.699150000000000 
K           0.000000000000000    0.516646000000000    0.300850000000000 
K           0.000000000000000    0.983354000000000    0.300850000000000 
K           0.250000000000000    0.250000000000000    0.250000000000000 
K           0.250000000000000    0.750000000000000    0.750000000000000 
K           0.500000000000000    0.016646000000000    0.800850000000000 
K           0.500000000000000    0.483354000000000    0.800850000000000 
K           0.500000000000000    0.516646000000000    0.199150000000000 
K           0.500000000000000    0.983354000000000    0.199150000000000 
K           0.750000000000000    0.250000000000000    0.250000000000000 
K           0.750000000000000    0.750000000000000    0.750000000000000 
%ENDBLOCK POSITIONS_FRAC
