# Cell file generated by matador (Matthew Evans 2016)

%BLOCK LATTICE_CART
8.47358 0.0 0.0
-4.23679 7.33833 0.0
0.0 0.0 8.33544
%ENDBLOCK LATTICE_CART

%BLOCK POSITIONS_FRAC
P           0.515020000000000    0.057734000000000    0.619544000000000 
P           0.515020000000000    0.457286000000000    0.119544000000000 
P           0.542714000000000    0.057734000000000    0.119544000000000 
P           0.542714000000000    0.484980000000000    0.619544000000000 
P           0.666667000000000    0.333333000000000    0.311522000000000 
P           0.666667000000000    0.333333000000000    0.811522000000000 
P           0.942266000000000    0.457286000000000    0.619544000000000 
P           0.942266000000000    0.484980000000000    0.119544000000000 
K           0.137293000000000    0.375721000000000    0.392108000000000 
K           0.137293000000000    0.761572000000000    0.892108000000000 
K           0.238428000000000    0.375721000000000    0.892108000000000 
K           0.238428000000000    0.862707000000000    0.392108000000000 
K           0.624279000000000    0.761572000000000    0.392108000000000 
K           0.624279000000000    0.862707000000000    0.892108000000000 
%ENDBLOCK POSITIONS_FRAC
