# Cell file generated by matador (Matthew Evans 2016)

%BLOCK LATTICE_CART
6.81151 0.0 0.0
0.0 7.86265 0.0
0.0 0.0 11.2831
%ENDBLOCK LATTICE_CART

%BLOCK POSITIONS_FRAC
P           0.000000000000000    0.250000000000000    0.162293000000000 
P           0.000000000000000    0.750000000000000    0.337707000000000 
P           0.500000000000000    0.250000000000000    0.837707000000000 
P           0.500000000000000    0.750000000000000    0.662293000000000 
K           0.000000000000000    0.250000000000000    0.877219000000000 
K           0.000000000000000    0.750000000000000    0.622781000000000 
K           0.158439000000000    0.500000000000000    0.250000000000000 
K           0.250000000000000    0.306613000000000    0.500000000000000 
K           0.250000000000000    0.693387000000000    0.000000000000000 
K           0.341561000000000    0.500000000000000    0.750000000000000 
K           0.500000000000000    0.250000000000000    0.122781000000000 
K           0.500000000000000    0.750000000000000    0.377219000000000 
K           0.658439000000000    0.000000000000000    0.750000000000000 
K           0.750000000000000    0.193387000000000    0.500000000000000 
K           0.750000000000000    0.806613000000000    0.000000000000000 
K           0.841561000000000    0.000000000000000    0.250000000000000 
%ENDBLOCK POSITIONS_FRAC
