# Cell file generated by matador (Matthew Evans 2016)

%BLOCK LATTICE_CART
12.4877 0.0 0.0
-6.24387 10.8147 0.0
0.0 0.0 7.5476
%ENDBLOCK LATTICE_CART

%BLOCK POSITIONS_FRAC
P           0.162725000000000    0.325451000000000    0.166667000000000 
P           0.162725000000000    0.837275000000000    0.833333000000000 
P           0.555171000000000    0.110342000000000    0.666667000000000 
P           0.555171000000000    0.444829000000000    0.333333000000000 
P           0.674549000000000    0.837275000000000    0.500000000000000 
P           0.889658000000000    0.444829000000000    0.000000000000000 
K           0.120002000000000    0.560001000000000    0.500000000000000 
K           0.163567000000000    0.327134000000000    0.666667000000000 
K           0.163567000000000    0.836433000000000    0.333333000000000 
K           0.167484000000000    0.083742000000000    0.000000000000000 
K           0.285041000000000    0.570082000000000    0.166667000000000 
K           0.285041000000000    0.714959000000000    0.833333000000000 
K           0.372479000000000    0.186240000000000    0.500000000000000 
K           0.429918000000000    0.714959000000000    0.500000000000000 
K           0.439999000000000    0.560001000000000    0.833333000000000 
K           0.439999000000000    0.879998000000000    0.166667000000000 
K           0.467420000000000    0.233711000000000    0.000000000000000 
K           0.672866000000000    0.836433000000000    0.000000000000000 
K           0.766289000000000    0.233711000000000    0.333333000000000 
K           0.766289000000000    0.532580000000000    0.666667000000000 
K           0.813760000000000    0.186240000000000    0.833333000000000 
K           0.813760000000000    0.627521000000000    0.166667000000000 
K           0.916258000000000    0.083742000000000    0.333333000000000 
K           0.916258000000000    0.832516000000000    0.666667000000000 
%ENDBLOCK POSITIONS_FRAC
