# Cell file generated by matador (Matthew Evans 2016)

%BLOCK LATTICE_CART
13.7013 0.0 0.0
1.98061 4.65917 0.0
0.949397 -2.1428 6.75138
%ENDBLOCK LATTICE_CART

%BLOCK POSITIONS_FRAC
P           0.000000000000000    0.000000000000000    0.000000000000000 
P           0.000000000000000    0.000000000000000    0.500000000000000 
P           0.000000000000000    0.500000000000000    0.000000000000000 
P           0.120952000000000    0.151518000000000    0.924915000000000 
P           0.343688000000000    0.974336000000000    0.100702000000000 
P           0.500000000000000    0.000000000000000    0.000000000000000 
P           0.500000000000000    0.000000000000000    0.500000000000000 
P           0.500000000000000    0.500000000000000    0.000000000000000 
P           0.656312000000000    0.025664000000000    0.899298000000000 
P           0.879048000000000    0.848482000000000    0.075085000000000 
K           0.000000000000000    0.500000000000000    0.500000000000000 
K           0.500000000000000    0.500000000000000    0.500000000000000 
%ENDBLOCK POSITIONS_FRAC
