# Cell file generated by matador (Matthew Evans 2016)

%BLOCK LATTICE_CART
6.71446 -0.0 0.0
-3.35723 5.81489 0.0
0.0 0.0 6.18619
%ENDBLOCK LATTICE_CART

%BLOCK POSITIONS_FRAC
P           0.027465000000000    0.730647000000000    0.210677000000000 
P           0.049047000000000    0.699627000000000    0.674275000000000 
P           0.105272000000000    0.275351000000000    0.801300000000000 
P           0.170079000000000    0.894728000000000    0.801300000000000 
P           0.269353000000000    0.296818000000000    0.210677000000000 
P           0.300373000000000    0.349420000000000    0.674275000000000 
P           0.300897000000000    0.193163000000000    0.386299000000000 
P           0.650580000000000    0.950953000000000    0.674275000000000 
P           0.703182000000000    0.972535000000000    0.210677000000000 
P           0.724649000000000    0.829921000000000    0.801300000000000 
P           0.806837000000000    0.107733000000000    0.386299000000000 
P           0.892267000000000    0.699103000000000    0.386299000000000 
K           0.000000000000000    0.000000000000000    0.057493000000000 
K           0.333333000000000    0.666667000000000    0.874921000000000 
%ENDBLOCK POSITIONS_FRAC
