# Cell file generated by matador (Matthew Evans 2016)

%BLOCK LATTICE_CART
7.82857 0.0 0.0
0.0 7.82857 0.0
0.0 0.0 9.85927
%ENDBLOCK LATTICE_CART

%BLOCK POSITIONS_FRAC
P           0.000000000000000    0.255474000000000    0.250000000000000 
P           0.000000000000000    0.255474000000000    0.750000000000000 
P           0.000000000000000    0.744526000000000    0.250000000000000 
P           0.000000000000000    0.744526000000000    0.750000000000000 
P           0.255474000000000    0.000000000000000    0.250000000000000 
P           0.255474000000000    0.000000000000000    0.750000000000000 
P           0.744526000000000    0.000000000000000    0.250000000000000 
P           0.744526000000000    0.000000000000000    0.750000000000000 
K           0.000000000000000    0.000000000000000    0.250000000000000 
K           0.000000000000000    0.000000000000000    0.750000000000000 
K           0.103632000000000    0.297323000000000    0.000000000000000 
K           0.103632000000000    0.702677000000000    0.500000000000000 
K           0.297323000000000    0.103632000000000    0.000000000000000 
K           0.297323000000000    0.896368000000000    0.500000000000000 
K           0.500000000000000    0.500000000000000    0.250000000000000 
K           0.500000000000000    0.500000000000000    0.750000000000000 
K           0.702677000000000    0.103632000000000    0.500000000000000 
K           0.702677000000000    0.896368000000000    0.000000000000000 
K           0.896368000000000    0.297323000000000    0.500000000000000 
K           0.896368000000000    0.702677000000000    0.000000000000000 
%ENDBLOCK POSITIONS_FRAC
