# Cell file generated by matador (Matthew Evans 2016)

%BLOCK LATTICE_CART
9.59408 0.0 0.0
0.0 9.59408 0.0
0.0 0.0 8.3027
%ENDBLOCK LATTICE_CART

%BLOCK POSITIONS_FRAC
P           0.000000000000000    0.000000000000000    0.000000000000000 
P           0.000000000000000    0.000000000000000    0.259115000000000 
P           0.000000000000000    0.000000000000000    0.740885000000000 
P           0.000000000000000    0.500000000000000    0.000000000000000 
P           0.000000000000000    0.500000000000000    0.500000000000000 
P           0.250000000000000    0.250000000000000    0.000000000000000 
P           0.250000000000000    0.750000000000000    0.000000000000000 
P           0.500000000000000    0.000000000000000    0.000000000000000 
P           0.500000000000000    0.000000000000000    0.500000000000000 
P           0.500000000000000    0.500000000000000    0.000000000000000 
P           0.500000000000000    0.500000000000000    0.259115000000000 
P           0.500000000000000    0.500000000000000    0.740885000000000 
P           0.750000000000000    0.250000000000000    0.000000000000000 
P           0.750000000000000    0.750000000000000    0.000000000000000 
K           0.000000000000000    0.000000000000000    0.500000000000000 
K           0.250000000000000    0.250000000000000    0.500000000000000 
K           0.250000000000000    0.750000000000000    0.500000000000000 
K           0.500000000000000    0.500000000000000    0.500000000000000 
K           0.750000000000000    0.250000000000000    0.500000000000000 
K           0.750000000000000    0.750000000000000    0.500000000000000 
%ENDBLOCK POSITIONS_FRAC
