# Cell file generated by matador (Matthew Evans 2016)

%BLOCK LATTICE_CART
10.1677 0.0 0.0
0.0 10.1677 0.0
0.0 0.0 6.96503
%ENDBLOCK LATTICE_CART

%BLOCK POSITIONS_FRAC
P           0.077486000000000    0.328524000000000    0.409715000000000 
P           0.171476000000000    0.077486000000000    0.090285000000000 
P           0.250000000000000    0.250000000000000    0.037149000000000 
P           0.250000000000000    0.250000000000000    0.250000000000000 
P           0.250000000000000    0.250000000000000    0.462851000000000 
P           0.328524000000000    0.422514000000000    0.090285000000000 
P           0.422514000000000    0.171476000000000    0.409715000000000 
P           0.577486000000000    0.828524000000000    0.590285000000000 
P           0.671476000000000    0.577486000000000    0.909715000000000 
P           0.750000000000000    0.750000000000000    0.537149000000000 
P           0.750000000000000    0.750000000000000    0.750000000000000 
P           0.750000000000000    0.750000000000000    0.962851000000000 
P           0.828524000000000    0.922514000000000    0.909715000000000 
P           0.922514000000000    0.671476000000000    0.590285000000000 
K           0.000000000000000    0.000000000000000    0.500000000000000 
K           0.000000000000000    0.500000000000000    0.000000000000000 
K           0.250000000000000    0.250000000000000    0.750000000000000 
K           0.500000000000000    0.000000000000000    0.000000000000000 
K           0.500000000000000    0.500000000000000    0.500000000000000 
K           0.750000000000000    0.750000000000000    0.250000000000000 
%ENDBLOCK POSITIONS_FRAC
