# Cell file generated by matador (Matthew Evans 2016)

%BLOCK LATTICE_CART
9.78549 0.0 0.0
0.0 7.67355 0.0
-2.69759 0.0 6.23504
%ENDBLOCK LATTICE_CART

%BLOCK POSITIONS_FRAC
P           0.500000000000000    0.256879000000000    0.500000000000000 
P           0.500000000000000    0.743121000000000    0.500000000000000 
K           0.000000000000000    0.000000000000000    0.000000000000000 
K           0.000000000000000    0.000000000000000    0.500000000000000 
K           0.000000000000000    0.500000000000000    0.000000000000000 
K           0.000000000000000    0.500000000000000    0.500000000000000 
K           0.080284000000000    0.244728000000000    0.755829000000000 
K           0.080284000000000    0.755272000000000    0.755829000000000 
K           0.500000000000000    0.000000000000000    0.000000000000000 
K           0.500000000000000    0.000000000000000    0.500000000000000 
K           0.500000000000000    0.500000000000000    0.000000000000000 
K           0.500000000000000    0.500000000000000    0.500000000000000 
K           0.919716000000000    0.244728000000000    0.244171000000000 
K           0.919716000000000    0.755272000000000    0.244171000000000 
%ENDBLOCK POSITIONS_FRAC
