# Cell file generated by matador (Matthew Evans 2016)

%BLOCK LATTICE_CART
8.87917 0.0 0.0
-4.43959 7.68959 0.0
0.0 0.0 5.95825
%ENDBLOCK LATTICE_CART

%BLOCK POSITIONS_FRAC
P           0.161772000000000    0.374978000000000    0.000000000000000 
P           0.203858000000000    0.556102000000000    0.500000000000000 
P           0.213206000000000    0.838228000000000    0.000000000000000 
P           0.352245000000000    0.796142000000000    0.500000000000000 
P           0.374978000000000    0.161772000000000    0.000000000000000 
P           0.443898000000000    0.647755000000000    0.500000000000000 
P           0.556102000000000    0.203858000000000    0.500000000000000 
P           0.625022000000000    0.786794000000000    0.000000000000000 
P           0.647755000000000    0.443898000000000    0.500000000000000 
P           0.786794000000000    0.625022000000000    0.000000000000000 
P           0.796142000000000    0.352245000000000    0.500000000000000 
P           0.838228000000000    0.213206000000000    0.000000000000000 
K           0.000000000000000    0.000000000000000    0.000000000000000 
K           0.000000000000000    0.000000000000000    0.500000000000000 
%ENDBLOCK POSITIONS_FRAC
