# Cell file generated by matador (Matthew Evans 2016)

%BLOCK LATTICE_CART
9.02333 -0.0 0.0
-4.51167 7.81443 0.0
0.0 0.0 7.62802
%ENDBLOCK LATTICE_CART

%BLOCK POSITIONS_FRAC
P           0.000000000000000    0.000000000000000    0.245890000000000 
P           0.000000000000000    0.000000000000000    0.754110000000000 
P           0.078196000000000    0.301018000000000    0.806318000000000 
P           0.222821000000000    0.921804000000000    0.806318000000000 
P           0.301018000000000    0.222821000000000    0.193682000000000 
P           0.333333000000000    0.666667000000000    0.802197000000000 
P           0.666667000000000    0.333333000000000    0.197803000000000 
P           0.698982000000000    0.777179000000000    0.806318000000000 
P           0.777179000000000    0.078196000000000    0.193682000000000 
P           0.921804000000000    0.698982000000000    0.193682000000000 
K           0.000000000000000    0.000000000000000    0.000000000000000 
K           0.000000000000000    0.000000000000000    0.500000000000000 
K           0.000000000000000    0.500000000000000    0.000000000000000 
K           0.000000000000000    0.500000000000000    0.500000000000000 
K           0.500000000000000    0.000000000000000    0.000000000000000 
K           0.500000000000000    0.000000000000000    0.500000000000000 
K           0.500000000000000    0.500000000000000    0.000000000000000 
K           0.500000000000000    0.500000000000000    0.500000000000000 
%ENDBLOCK POSITIONS_FRAC
