# Cell file generated by matador (Matthew Evans 2016)

%BLOCK LATTICE_CART
8.7844 0.0 0.0
0.0 8.7844 0.0
0.0 0.0 6.42134
%ENDBLOCK LATTICE_CART

%BLOCK POSITIONS_FRAC
P           0.000000000000000    0.000000000000000    0.000000000000000 
P           0.000000000000000    0.000000000000000    0.500000000000000 
P           0.500000000000000    0.500000000000000    0.000000000000000 
K           0.072551000000000    0.225614000000000    0.500000000000000 
K           0.169870000000000    0.549896000000000    0.500000000000000 
K           0.225614000000000    0.927449000000000    0.500000000000000 
K           0.450104000000000    0.169870000000000    0.500000000000000 
K           0.500000000000000    0.500000000000000    0.500000000000000 
K           0.549896000000000    0.830130000000000    0.500000000000000 
K           0.774386000000000    0.072551000000000    0.500000000000000 
K           0.830130000000000    0.450104000000000    0.500000000000000 
K           0.927449000000000    0.774386000000000    0.500000000000000 
%ENDBLOCK POSITIONS_FRAC
