# Cell file generated by matador (Matthew Evans 2016)

%BLOCK LATTICE_CART
6.88068 0.0 0.0
0.0 6.88068 0.0
0.0 0.0 28.4777
%ENDBLOCK LATTICE_CART

%BLOCK POSITIONS_FRAC
P           0.000000000000000    0.000000000000000    0.370498000000000 
P           0.000000000000000    0.000000000000000    0.629502000000000 
P           0.000000000000000    0.500000000000000    0.220446000000000 
P           0.000000000000000    0.500000000000000    0.720446000000000 
P           0.500000000000000    0.000000000000000    0.279554000000000 
P           0.500000000000000    0.000000000000000    0.779554000000000 
P           0.500000000000000    0.500000000000000    0.129502000000000 
P           0.500000000000000    0.500000000000000    0.870498000000000 
K           0.000000000000000    0.000000000000000    0.000000000000000 
K           0.000000000000000    0.000000000000000    0.500000000000000 
K           0.000000000000000    0.231150000000000    0.912193000000000 
K           0.000000000000000    0.500000000000000    0.329750000000000 
K           0.000000000000000    0.500000000000000    0.829750000000000 
K           0.000000000000000    0.768850000000000    0.912193000000000 
K           0.231150000000000    0.000000000000000    0.087807000000000 
K           0.250000000000000    0.250000000000000    0.250000000000000 
K           0.250000000000000    0.250000000000000    0.750000000000000 
K           0.250000000000000    0.750000000000000    0.250000000000000 
K           0.250000000000000    0.750000000000000    0.750000000000000 
K           0.268850000000000    0.500000000000000    0.412193000000000 
K           0.500000000000000    0.000000000000000    0.170250000000000 
K           0.500000000000000    0.000000000000000    0.670250000000000 
K           0.500000000000000    0.268850000000000    0.587807000000000 
K           0.500000000000000    0.500000000000000    0.000000000000000 
K           0.500000000000000    0.500000000000000    0.500000000000000 
K           0.500000000000000    0.731150000000000    0.587807000000000 
K           0.731150000000000    0.500000000000000    0.412193000000000 
K           0.750000000000000    0.250000000000000    0.250000000000000 
K           0.750000000000000    0.250000000000000    0.750000000000000 
K           0.750000000000000    0.750000000000000    0.250000000000000 
K           0.750000000000000    0.750000000000000    0.750000000000000 
K           0.768850000000000    0.000000000000000    0.087807000000000 
%ENDBLOCK POSITIONS_FRAC
