# Cell file generated by matador (Matthew Evans 2016)

%BLOCK LATTICE_CART
8.79146 0.0 0.0
-4.39573 7.61363 0.0
0.0 0.0 5.96777
%ENDBLOCK LATTICE_CART

%BLOCK POSITIONS_FRAC
P           0.333334000000000    0.666668000000000    0.127525000000000 
P           0.333334000000000    0.666668000000000    0.716171000000000 
P           0.666668000000000    0.333334000000000    0.127525000000000 
P           0.666668000000000    0.333334000000000    0.716171000000000 
K           0.000001000000000    0.000001000000000    0.352863000000000 
K           0.000001000000000    0.249093000000000    0.054698000000000 
K           0.000001000000000    0.750909000000000    0.054698000000000 
K           0.249093000000000    0.000001000000000    0.054698000000000 
K           0.249093000000000    0.249093000000000    0.054698000000000 
K           0.750909000000000    0.000001000000000    0.054698000000000 
K           0.750909000000000    0.750909000000000    0.054698000000000 
%ENDBLOCK POSITIONS_FRAC
