# Cell file generated by matador (Matthew Evans 2016)

%BLOCK LATTICE_CART
8.72369 0.0 0.0
0.0 8.72369 0.0
0.0 0.0 6.14775
%ENDBLOCK LATTICE_CART

%BLOCK POSITIONS_FRAC
P           0.000000000000000    0.000000000000000    0.000000000000000 
P           0.000000000000000    0.000000000000000    0.334232000000000 
P           0.000000000000000    0.000000000000000    0.665768000000000 
P           0.500000000000000    0.500000000000000    0.165768000000000 
P           0.500000000000000    0.500000000000000    0.500000000000000 
P           0.500000000000000    0.500000000000000    0.834232000000000 
K           0.000000000000000    0.355836000000000    0.910614000000000 
K           0.000000000000000    0.644164000000000    0.910614000000000 
K           0.144164000000000    0.500000000000000    0.410614000000000 
K           0.355836000000000    0.000000000000000    0.089386000000000 
K           0.500000000000000    0.144164000000000    0.589386000000000 
K           0.500000000000000    0.855836000000000    0.589386000000000 
K           0.644164000000000    0.000000000000000    0.089386000000000 
K           0.855836000000000    0.500000000000000    0.410614000000000 
%ENDBLOCK POSITIONS_FRAC
