# Cell file generated by matador (Matthew Evans 2016)

%BLOCK LATTICE_CART
7.53989 0.0 0.0
-3.76995 6.52974 0.0
0.0 0.0 6.45839
%ENDBLOCK LATTICE_CART

%BLOCK POSITIONS_FRAC
P           0.124955000000000    0.068598000000000    0.938143000000000 
P           0.264735000000000    0.723024000000000    0.604810000000000 
P           0.276976000000000    0.541712000000000    0.604810000000000 
P           0.458288000000000    0.735265000000000    0.604810000000000 
P           0.598069000000000    0.389690000000000    0.271477000000000 
P           0.610310000000000    0.208378000000000    0.271477000000000 
P           0.791622000000000    0.401931000000000    0.271477000000000 
P           0.931402000000000    0.056357000000000    0.938143000000000 
P           0.943643000000000    0.875045000000000    0.938143000000000 
K           0.000000000000000    0.000000000000000    0.441599000000000 
K           0.333333000000000    0.666667000000000    0.108265000000000 
K           0.666667000000000    0.333333000000000    0.774932000000000 
%ENDBLOCK POSITIONS_FRAC
