# Cell file generated by matador (Matthew Evans 2016)

%BLOCK LATTICE_CART
6.48504 0.0 0.0
-3.24252 5.61621 0.0
0.0 0.0 6.87281
%ENDBLOCK LATTICE_CART

%BLOCK POSITIONS_FRAC
P           0.000000000000000    0.000000000000000    0.059957000000000 
K           0.000000000000000    0.000000000000000    0.678373000000000 
K           0.077318000000000    0.687458000000000    0.201553000000000 
K           0.312542000000000    0.389860000000000    0.201553000000000 
K           0.333333000000000    0.666667000000000    0.920605000000000 
K           0.610140000000000    0.922682000000000    0.201553000000000 
K           0.666667000000000    0.333333000000000    0.365152000000000 
%ENDBLOCK POSITIONS_FRAC
