# Cell file generated by matador (Matthew Evans 2016)

%BLOCK LATTICE_CART
8.36773 -0.0 0.0
-4.18387 7.24667 0.0
0.0 0.0 4.84455
%ENDBLOCK LATTICE_CART

%BLOCK POSITIONS_FRAC
P           0.157680000000000    0.826206000000000    0.071161000000000 
P           0.173794000000000    0.331473000000000    0.071161000000000 
P           0.333334000000000    0.666666000000000    0.846868000000000 
P           0.668527000000000    0.842320000000000    0.071161000000000 
K           0.000000000000000   -0.000000000000000    0.149634000000000 
K           0.449986000000000    0.051155000000000    0.954570000000000 
K           0.601171000000000    0.550014000000000    0.954570000000000 
K           0.666667000000000    0.333333000000000    0.435794000000000 
K           0.948845000000000    0.398829000000000    0.954570000000000 
%ENDBLOCK POSITIONS_FRAC
