# Cell file generated by matador (Matthew Evans 2016)

%BLOCK LATTICE_CART
4.47962 0.0 0.0
0.0 5.70435 0.0
0.862359 0.0 4.071
%ENDBLOCK LATTICE_CART

%BLOCK POSITIONS_FRAC
P           0.070931000000000    0.000000000000000    0.746555000000000 
P           0.997104000000000    0.153953000000000    0.484912000000000 
P           0.997104000000000    0.846047000000000    0.484912000000000 
K           0.937055000000000    0.500000000000000    0.183545000000000 
%ENDBLOCK POSITIONS_FRAC
