# Cell file generated by matador (Matthew Evans 2016)

%BLOCK LATTICE_CART
6.20475 0.0 0.0
0.0 7.2223 0.0
0.0 0.0 9.01645
%ENDBLOCK LATTICE_CART

%BLOCK POSITIONS_FRAC
P           0.000000000000000    0.000000000000000   -0.000000000000000 
P           0.000000000000000    0.189830000000000   -0.000000000000000 
P           0.000000000000000    0.810170000000000   -0.000000000000000 
P           0.060935000000000    0.178473000000000    0.747391000000000 
P           0.060935000000000    0.821527000000000    0.747391000000000 
P           0.439065000000000    0.178473000000000    0.747391000000000 
P           0.439065000000000    0.821527000000000    0.747391000000000 
P           0.500000000000000    0.000000000000000   -0.000000000000000 
P           0.500000000000000    0.189830000000000   -0.000000000000000 
P           0.500000000000000    0.810170000000000   -0.000000000000000 
P           0.560935000000000    0.178473000000000    0.252609000000000 
P           0.560935000000000    0.821527000000000    0.252609000000000 
P           0.939065000000000    0.178473000000000    0.252609000000000 
P           0.939065000000000    0.821527000000000    0.252609000000000 
K           0.000000000000000    0.500000000000000    0.500000000000000 
K           0.500000000000000    0.500000000000000    0.500000000000000 
%ENDBLOCK POSITIONS_FRAC
