# Cell file generated by matador (Matthew Evans 2016)

%BLOCK LATTICE_CART
10.3996 0.0 0.0
-5.19982 9.00635 0.0
0.0 0.0 5.37961
%ENDBLOCK LATTICE_CART

%BLOCK POSITIONS_FRAC
P           0.000000000000000    0.000000000000000    0.000000000000000 
P           0.000000000000000    0.000000000000000    0.185888000000000 
P           0.000000000000000    0.000000000000000    0.814112000000000 
P           0.333333000000000    0.666667000000000    0.480779000000000 
P           0.333333000000000    0.666667000000000    0.666667000000000 
P           0.333333000000000    0.666667000000000    0.852554000000000 
P           0.666667000000000    0.333333000000000    0.147446000000000 
P           0.666667000000000    0.333333000000000    0.333333000000000 
P           0.666667000000000    0.333333000000000    0.519221000000000 
K          -0.000000000000000    0.486868000000000    0.000000000000000 
K           0.153534000000000    0.333333000000000    0.333333000000000 
K           0.179799000000000    0.846466000000000    0.333333000000000 
K           0.333333000000000    0.153534000000000    0.666667000000000 
K           0.486868000000000    0.000000000000000    0.000000000000000 
K           0.513132000000000    0.513132000000000    0.000000000000000 
K           0.666667000000000    0.820201000000000    0.333333000000000 
K           0.820201000000000    0.666667000000000    0.666667000000000 
K           0.846466000000000    0.179799000000000    0.666667000000000 
%ENDBLOCK POSITIONS_FRAC
