# Cell file generated by matador (Matthew Evans 2016)

%BLOCK LATTICE_CART
6.88028 0.0 0.0
0.0 6.88028 0.0
0.0 0.0 10.9628
%ENDBLOCK LATTICE_CART

%BLOCK POSITIONS_FRAC
P          -0.000000000000000    0.000000000000000   -0.000000000000000 
P          -0.000000000000000    0.500000000000000    0.250000000000000 
P          -0.000000000000000    0.500000000000000    0.750000000000000 
P           0.500000000000000    0.000000000000000    0.250000000000000 
P           0.500000000000000    0.000000000000000    0.750000000000000 
P           0.500000000000000    0.500000000000000    0.500000000000000 
K          -0.000000000000000    0.000000000000000    0.271070000000000 
K          -0.000000000000000    0.000000000000000    0.500000000000000 
K          -0.000000000000000    0.000000000000000    0.728930000000000 
K          -0.000000000000000    0.500000000000000   -0.000000000000000 
K          -0.000000000000000    0.500000000000000    0.500000000000000 
K           0.500000000000000    0.000000000000000   -0.000000000000000 
K           0.500000000000000    0.000000000000000    0.500000000000000 
K           0.500000000000000    0.500000000000000   -0.000000000000000 
K           0.500000000000000    0.500000000000000    0.228930000000000 
K           0.500000000000000    0.500000000000000    0.771070000000000 
%ENDBLOCK POSITIONS_FRAC
