# Cell file generated by matador (Matthew Evans 2016)

%BLOCK LATTICE_CART
10.2705 0.0 0.0
0.0 10.7039 0.0
-1.85193 0.0 6.07053
%ENDBLOCK LATTICE_CART

%BLOCK POSITIONS_FRAC
P           0.000000000000000    0.000000000000000    0.000000000000000 
P           0.000000000000000    0.000000000000000    0.500000000000000 
P           0.000000000000000    0.500000000000000    0.000000000000000 
P           0.000000000000000    0.500000000000000    0.500000000000000 
K           0.141742000000000    0.750000000000000    0.700615000000000 
K           0.161403000000000    0.250000000000000    0.537502000000000 
K           0.232857000000000    0.750000000000000    0.241651000000000 
K           0.303846000000000    0.250000000000000    0.122431000000000 
K           0.500000000000000    0.000000000000000    0.000000000000000 
K           0.500000000000000    0.000000000000000    0.500000000000000 
K           0.500000000000000    0.500000000000000    0.000000000000000 
K           0.500000000000000    0.500000000000000    0.500000000000000 
K           0.696154000000000    0.750000000000000    0.877569000000000 
K           0.767143000000000    0.250000000000000    0.758349000000000 
K           0.838597000000000    0.750000000000000    0.462498000000000 
K           0.858258000000000    0.250000000000000    0.299385000000000 
%ENDBLOCK POSITIONS_FRAC
