# Cell file generated by matador (Matthew Evans 2016)

%BLOCK LATTICE_CART
7.18916 0.0 0.0
0.0 7.18916 0.0
0.0 0.0 11.108
%ENDBLOCK LATTICE_CART

%BLOCK POSITIONS_FRAC
P           0.500000000000000    0.500000000000000    0.499057000000000 
P           0.500000000000000    0.500000000000000    0.999057000000000 
K           0.000000000000000    0.000000000000000    0.383366000000000 
K           0.000000000000000    0.000000000000000    0.883366000000000 
K           0.111076000000000    0.385433000000000    0.624856000000000 
K           0.111076000000000    0.614567000000000    0.124856000000000 
K           0.385433000000000    0.111076000000000    0.624856000000000 
K           0.385433000000000    0.888924000000000    0.124856000000000 
K           0.500000000000000    0.500000000000000    0.234345000000000 
K           0.500000000000000    0.500000000000000    0.734345000000000 
K           0.614567000000000    0.111076000000000    0.124856000000000 
K           0.614567000000000    0.888924000000000    0.624856000000000 
K           0.888924000000000    0.385433000000000    0.124856000000000 
K           0.888924000000000    0.614567000000000    0.624856000000000 
%ENDBLOCK POSITIONS_FRAC
