# Cell file generated by matador (Matthew Evans 2016)

%BLOCK LATTICE_CART
6.01211 0.0 0.0
-3.00605 5.20664 0.0
0.0 0.0 6.27788
%ENDBLOCK LATTICE_CART

%BLOCK POSITIONS_FRAC
P           0.000000000000000    0.000000000000000    0.592518000000000 
P           0.000000000000000    0.000000000000000    0.791858000000000 
P           0.333333000000000    0.666667000000000    0.300615000000000 
P           0.333333000000000    0.666667000000000    0.567042000000000 
K           0.525895000000000    0.422777000000000    0.212656000000000 
K           0.577223000000000    0.103117000000000    0.212656000000000 
K           0.666667000000000    0.333333000000000    0.566542000000000 
K           0.896883000000000    0.474105000000000    0.212656000000000 
%ENDBLOCK POSITIONS_FRAC
