# Cell file generated by matador (Matthew Evans 2016)

%BLOCK LATTICE_CART
5.45045 0.0 0.0
-2.72523 4.72023 0.0
0.0 0.0 5.72907
%ENDBLOCK LATTICE_CART

%BLOCK POSITIONS_FRAC
P           0.436612000000000    0.249138000000000    0.990783000000000 
P           0.666666000000000    0.333334000000000    0.197958000000000 
P           0.666666000000000    0.333334000000000    0.372507000000000 
P           0.750862000000000    0.187474000000000    0.990783000000000 
P           0.812526000000000    0.563388000000000    0.990783000000000 
K           0.333333000000000    0.666667000000000    0.712516000000000 
%ENDBLOCK POSITIONS_FRAC
