# Cell file generated by matador (Matthew Evans 2016)

%BLOCK LATTICE_CART
7.39682 0.0 0.0
1.16715 6.18258 0.0
4.02283 -4.54919 5.35506
%ENDBLOCK LATTICE_CART

%BLOCK POSITIONS_FRAC
P           0.206448000000000    0.002996000000000    0.081181000000000 
P           0.435340000000000    0.755187000000000    0.407162000000000 
P           0.500000000000000    0.000000000000000    0.500000000000000 
P           0.500000000000000    0.500000000000000    0.000000000000000 
P           0.500000000000000    0.500000000000000    0.500000000000000 
P           0.564660000000000    0.244813000000000    0.592838000000000 
P           0.793552000000000    0.997004000000000    0.918819000000000 
K           0.000000000000000    0.000000000000000    0.000000000000000 
K           0.061046000000000    0.429727000000000    0.756230000000000 
K           0.500000000000000    0.000000000000000    0.000000000000000 
K           0.938954000000000    0.570273000000000    0.243770000000000 
%ENDBLOCK POSITIONS_FRAC
