# Cell file generated by matador (Matthew Evans 2016)

%BLOCK LATTICE_CART
8.18756 0.0 0.0
0.0 8.18756 0.0
0.0 0.0 8.18756
%ENDBLOCK LATTICE_CART

%BLOCK POSITIONS_FRAC
P           0.000000000000000    0.318227000000000    0.500000000000000 
P           0.000000000000000    0.500000000000000    0.181773000000000 
P           0.000000000000000    0.500000000000000    0.818227000000000 
P           0.000000000000000    0.681773000000000    0.500000000000000 
P           0.181773000000000    0.000000000000000    0.500000000000000 
P           0.318227000000000    0.500000000000000    0.000000000000000 
P           0.500000000000000    0.000000000000000    0.318227000000000 
P           0.500000000000000    0.000000000000000    0.681773000000000 
P           0.500000000000000    0.181773000000000    0.000000000000000 
P           0.500000000000000    0.818227000000000    0.000000000000000 
P           0.681773000000000    0.500000000000000    0.000000000000000 
P           0.818227000000000    0.000000000000000    0.500000000000000 
K           0.000000000000000    0.000000000000000    0.000000000000000 
K           0.500000000000000    0.500000000000000    0.500000000000000 
%ENDBLOCK POSITIONS_FRAC
