# Cell file generated by matador (Matthew Evans 2016)

%BLOCK LATTICE_CART
13.9085 0.0 0.0
0.0 4.16237 0.0
0.0 0.0 8.13724
%ENDBLOCK LATTICE_CART

%BLOCK POSITIONS_FRAC
P           0.000000000000000    0.250000000000000    0.935895000000000 
P           0.000000000000000    0.750000000000000    0.564105000000000 
P           0.079979000000000   -0.000000000000000    0.250000000000000 
P           0.250000000000000    0.138740000000000    0.000000000000000 
P           0.250000000000000    0.861260000000000    0.500000000000000 
P           0.420021000000000   -0.000000000000000    0.750000000000000 
P           0.500000000000000    0.250000000000000    0.064105000000000 
P           0.500000000000000    0.750000000000000    0.435895000000000 
P           0.579979000000000    0.500000000000000    0.750000000000000 
P           0.750000000000000    0.361260000000000    0.000000000000000 
P           0.750000000000000    0.638740000000000    0.500000000000000 
P           0.920021000000000    0.500000000000000    0.250000000000000 
K           0.000000000000000    0.250000000000000    0.676751000000000 
K           0.000000000000000    0.750000000000000    0.823249000000000 
K           0.500000000000000    0.250000000000000    0.323249000000000 
K           0.500000000000000    0.750000000000000    0.176751000000000 
%ENDBLOCK POSITIONS_FRAC
