# Cell file generated by matador (Matthew Evans 2016)

%BLOCK LATTICE_CART
8.66211 0.0 0.0
-4.33105 7.5016 0.0
0.0 0.0 5.2344
%ENDBLOCK LATTICE_CART

%BLOCK POSITIONS_FRAC
P           0.666667000000000    0.333333000000000    0.250000000000000 
P           0.666667000000000    0.333333000000000    0.750000000000000 
K           0.106525000000000    0.384038000000000    0.750000000000000 
K           0.106525000000000    0.722487000000000    0.250000000000000 
K           0.277513000000000    0.384038000000000    0.250000000000000 
K           0.277513000000000    0.893475000000000    0.750000000000000 
K           0.615962000000000    0.722487000000000    0.750000000000000 
K           0.615962000000000    0.893475000000000    0.250000000000000 
%ENDBLOCK POSITIONS_FRAC
