# Cell file generated by matador (Matthew Evans 2016)

%BLOCK LATTICE_CART
7.67316 0.0 0.0
0.0 7.66627 0.0
1.45835 0.0 6.82486
%ENDBLOCK LATTICE_CART

%BLOCK POSITIONS_FRAC
P           0.000000000000000    0.000000000000000    0.000000000000000 
P           0.000000000000000    0.000000000000000    0.500000000000000 
P           0.000000000000000    0.130442000000000    0.000000000000000 
P           0.000000000000000    0.500000000000000    0.000000000000000 
P           0.000000000000000    0.500000000000000    0.500000000000000 
P           0.000000000000000    0.869558000000000    0.000000000000000 
P           0.260277000000000    0.140304000000000    0.038564000000000 
P           0.260277000000000    0.859696000000000    0.038564000000000 
P           0.500000000000000    0.000000000000000    0.000000000000000 
P           0.500000000000000    0.000000000000000    0.500000000000000 
P           0.739723000000000    0.140304000000000    0.961436000000000 
P           0.739723000000000    0.859696000000000    0.961436000000000 
K           0.500000000000000    0.500000000000000    0.000000000000000 
K           0.500000000000000    0.500000000000000    0.500000000000000 
%ENDBLOCK POSITIONS_FRAC
