# Cell file generated by matador (Matthew Evans 2016)

%BLOCK LATTICE_CART
8.38165 0.0 0.0
-4.19082 7.25872 0.0
0.0 0.0 7.41078
%ENDBLOCK LATTICE_CART

%BLOCK POSITIONS_FRAC
P           0.000000000000000    0.517460000000000    0.450237000000000 
P           0.482540000000000    0.482540000000000    0.450237000000000 
P           0.517460000000000    0.000000000000000    0.450237000000000 
K           0.000000000000000    0.000000000000000    0.603472000000000 
K           0.000000000000000    0.287818000000000    0.184435000000000 
K           0.000000000000000    0.534525000000000    0.752147000000000 
K           0.287818000000000    0.000000000000000    0.184435000000000 
K           0.333333000000000    0.666667000000000    0.393400000000000 
K           0.465475000000000    0.465475000000000    0.752147000000000 
K           0.534525000000000    0.000000000000000    0.752147000000000 
K           0.666667000000000    0.333333000000000    0.393400000000000 
K           0.712182000000000    0.712182000000000    0.184435000000000 
%ENDBLOCK POSITIONS_FRAC
