# Cell file generated by matador (Matthew Evans 2016)

%BLOCK LATTICE_CART
6.17468 0.0 0.0
0.0 6.17468 0.0
0.0 0.0 9.86388
%ENDBLOCK LATTICE_CART

%BLOCK POSITIONS_FRAC
P           0.340711000000000    0.390657000000000    0.386727000000000 
P           0.390657000000000    0.659289000000000    0.886727000000000 
P           0.500000000000000    0.500000000000000    0.392616000000000 
P           0.500000000000000    0.500000000000000    0.892616000000000 
P           0.609343000000000    0.340711000000000    0.886727000000000 
P           0.659289000000000    0.609343000000000    0.386727000000000 
K           0.000000000000000    0.500000000000000    0.021112000000000 
K           0.061656000000000    0.238190000000000    0.548823000000000 
K           0.238190000000000    0.938344000000000    0.048823000000000 
K           0.500000000000000    0.000000000000000    0.521112000000000 
K           0.761810000000000    0.061656000000000    0.048823000000000 
K           0.938344000000000    0.761810000000000    0.548823000000000 
%ENDBLOCK POSITIONS_FRAC
