# Cell file generated by matador (Matthew Evans 2016)

%BLOCK LATTICE_CART
4.74313 0.0 0.0
0.0 7.44374 0.0
0.0 0.0 13.2372
%ENDBLOCK LATTICE_CART

%BLOCK POSITIONS_FRAC
P           0.000000000000000    0.000000000000000    0.000000000000000 
P           0.248419000000000    0.340705000000000    0.267107000000000 
P           0.248419000000000    0.659295000000000    0.732893000000000 
P           0.251581000000000    0.159295000000000    0.267107000000000 
P           0.251581000000000    0.840705000000000    0.732893000000000 
P           0.500000000000000    0.500000000000000    0.000000000000000 
P           0.748419000000000    0.159295000000000    0.732893000000000 
P           0.748419000000000    0.840705000000000    0.267107000000000 
P           0.751581000000000    0.340705000000000    0.732893000000000 
P           0.751581000000000    0.659295000000000    0.267107000000000 
K           0.000000000000000    0.000000000000000    0.500000000000000 
K           0.250000000000000    0.250000000000000    0.757769000000000 
K           0.250000000000000    0.750000000000000    0.242231000000000 
K           0.500000000000000    0.500000000000000    0.500000000000000 
K           0.750000000000000    0.250000000000000    0.242231000000000 
K           0.750000000000000    0.750000000000000    0.757769000000000 
%ENDBLOCK POSITIONS_FRAC
