# Cell file generated by matador (Matthew Evans 2016)

%BLOCK LATTICE_CART
6.38447 0.0 0.0
0.0 5.16153 0.0
0.0 0.0 5.32614
%ENDBLOCK LATTICE_CART

%BLOCK POSITIONS_FRAC
P           0.000000000000000    0.000000000000000    0.224356000000000 
P           0.204999000000000    0.500000000000000    0.815590000000000 
P           0.795001000000000    0.500000000000000    0.815590000000000 
K           0.500000000000000    0.000000000000000    0.993118000000000 
K           0.500000000000000    0.229234000000000    0.393302000000000 
K           0.500000000000000    0.500000000000000    0.023158000000000 
K           0.500000000000000    0.770766000000000    0.393302000000000 
%ENDBLOCK POSITIONS_FRAC
