# Cell file generated by matador (Matthew Evans 2016)

%BLOCK LATTICE_CART
8.25896 0.0 0.0
2.98235 9.26025 0.0
2.65939 2.17197 6.59975
%ENDBLOCK LATTICE_CART

%BLOCK POSITIONS_FRAC
P           0.104373000000000    0.414938000000000    0.236095000000000 
P           0.268059000000000    0.604533000000000    0.639940000000000 
P           0.326922000000000    0.684940000000000    0.895351000000000 
P           0.328199000000000    0.920133000000000    0.410411000000000 
P           0.671801000000000    0.079867000000000    0.589589000000000 
P           0.673078000000000    0.315060000000000    0.104649000000000 
P           0.731941000000000    0.395467000000000    0.360060000000000 
P           0.895627000000000    0.585062000000000    0.763905000000000 
K           0.000000000000000    0.000000000000000    0.000000000000000 
K           0.000000000000000    0.000000000000000    0.500000000000000 
K           0.000000000000000    0.500000000000000    0.000000000000000 
K           0.000000000000000    0.500000000000000    0.500000000000000 
K           0.025769000000000    0.809195000000000    0.847464000000000 
K           0.500000000000000    0.000000000000000    0.000000000000000 
K           0.500000000000000    0.000000000000000    0.500000000000000 
K           0.500000000000000    0.500000000000000    0.000000000000000 
K           0.500000000000000    0.500000000000000    0.500000000000000 
K           0.974231000000000    0.190805000000000    0.152536000000000 
%ENDBLOCK POSITIONS_FRAC
