# Cell file generated by matador (Matthew Evans 2016)

%BLOCK LATTICE_CART
10.1301 0.0 0.0
0.0 6.50617 0.0
0.957154 0.0 6.8143
%ENDBLOCK LATTICE_CART

%BLOCK POSITIONS_FRAC
P           0.267020000000000    0.343648000000000    0.419468000000000 
P           0.267020000000000    0.656352000000000    0.419468000000000 
P           0.576346000000000    0.154361000000000    0.888084000000000 
P           0.576346000000000    0.845639000000000    0.888084000000000 
P           0.804549000000000    0.150776000000000    0.831829000000000 
P           0.804549000000000    0.849224000000000    0.831829000000000 
P           0.871730000000000    0.300627000000000    0.216536000000000 
P           0.871730000000000    0.699373000000000    0.216536000000000 
K           0.035395000000000    0.260887000000000    0.899708000000000 
K           0.035395000000000    0.739113000000000    0.899708000000000 
K           0.258607000000000    0.242901000000000    0.893315000000000 
K           0.258607000000000    0.757099000000000    0.893315000000000 
K           0.549823000000000    0.289459000000000    0.621659000000000 
K           0.549823000000000    0.710541000000000    0.621659000000000 
%ENDBLOCK POSITIONS_FRAC
