# Cell file generated by matador (Matthew Evans 2016)

%BLOCK LATTICE_CART
9.97043 0.0 0.0
0.0 9.97043 0.0
0.0 0.0 6.48412
%ENDBLOCK LATTICE_CART

%BLOCK POSITIONS_FRAC
P           0.000000000000000    0.129432000000000    0.594291000000000 
P           0.000000000000000    0.870568000000000    0.594291000000000 
P           0.129432000000000    0.000000000000000    0.594291000000000 
P           0.370568000000000    0.500000000000000    0.094291000000000 
P           0.500000000000000    0.370568000000000    0.094291000000000 
P           0.500000000000000    0.629432000000000    0.094291000000000 
P           0.629432000000000    0.500000000000000    0.094291000000000 
P           0.870568000000000    0.000000000000000    0.594291000000000 
K           0.000000000000000    0.000000000000000    0.139036000000000 
K           0.000000000000000    0.360611000000000    0.002209000000000 
K           0.000000000000000    0.639389000000000    0.002209000000000 
K           0.139389000000000    0.500000000000000    0.502209000000000 
K           0.360611000000000    0.000000000000000    0.002209000000000 
K           0.500000000000000    0.139389000000000    0.502209000000000 
K           0.500000000000000    0.500000000000000    0.639036000000000 
K           0.500000000000000    0.860611000000000    0.502209000000000 
K           0.639389000000000    0.000000000000000    0.002209000000000 
K           0.860611000000000    0.500000000000000    0.502209000000000 
%ENDBLOCK POSITIONS_FRAC
