# Cell file generated by matador (Matthew Evans 2016)

%BLOCK LATTICE_CART
6.91181 0.0 0.0
0.0 6.91181 0.0
0.0 0.0 7.25088
%ENDBLOCK LATTICE_CART

%BLOCK POSITIONS_FRAC
P           0.106791000000000    0.890193000000000    0.728880000000000 
P           0.109807000000000    0.106791000000000    0.478880000000000 
P           0.291404000000000    0.435926000000000    0.749032000000000 
P           0.435926000000000    0.708596000000000    0.999032000000000 
P           0.564074000000000    0.291404000000000    0.499032000000000 
P           0.708596000000000    0.564074000000000    0.249032000000000 
P           0.890193000000000    0.893209000000000    0.978880000000000 
P           0.893209000000000    0.109807000000000    0.228880000000000 
K           0.186265000000000    0.460086000000000    0.200938000000000 
K           0.460086000000000    0.813735000000000    0.450938000000000 
K           0.539914000000000    0.186265000000000    0.950938000000000 
K           0.813735000000000    0.539914000000000    0.700938000000000 
%ENDBLOCK POSITIONS_FRAC
