# Cell file generated by matador (Matthew Evans 2016)

%BLOCK LATTICE_CART
7.54784 0.0 0.0
0.0 6.35634 0.0
0.0 0.0 6.31322
%ENDBLOCK LATTICE_CART

%BLOCK POSITIONS_FRAC
P           0.000000000000000    0.000000000000000    0.573031000000000 
P           0.500000000000000    0.500000000000000    0.573031000000000 
K           0.000000000000000    0.500000000000000    0.740974000000000 
K           0.217228000000000    0.500000000000000    0.242820000000000 
K           0.282772000000000    0.000000000000000    0.242820000000000 
K           0.500000000000000    0.000000000000000    0.740974000000000 
K           0.717228000000000    0.000000000000000    0.242820000000000 
K           0.782772000000000    0.500000000000000    0.242820000000000 
%ENDBLOCK POSITIONS_FRAC
