# Cell file generated by matador (Matthew Evans 2016)

%BLOCK LATTICE_CART
4.91583 0.0 0.0
0.0713886 10.0335 0.0
-0.292208 -2.27541 9.45274
%ENDBLOCK LATTICE_CART

%BLOCK POSITIONS_FRAC
P           0.000000000000000    0.000000000000000    0.000000000000000 
P           0.000000000000000    0.000000000000000    0.500000000000000 
P           0.000000000000000    0.500000000000000    0.000000000000000 
P           0.000000000000000    0.500000000000000    0.500000000000000 
P           0.485707000000000    0.081046000000000    0.333875000000000 
P           0.500000000000000    0.000000000000000    0.000000000000000 
P           0.500000000000000    0.000000000000000    0.500000000000000 
P           0.500000000000000    0.500000000000000    0.000000000000000 
P           0.500000000000000    0.500000000000000    0.500000000000000 
P           0.514293000000000    0.918954000000000    0.666125000000000 
K           0.153985000000000    0.249994000000000    0.831099000000000 
K           0.846015000000000    0.750006000000000    0.168901000000000 
%ENDBLOCK POSITIONS_FRAC
