# Cell file generated by matador (Matthew Evans 2016)

%BLOCK LATTICE_CART
6.01365 0.0 0.0
-3.00682 5.20797 0.0
0.0 0.0 11.5464
%ENDBLOCK LATTICE_CART

%BLOCK POSITIONS_FRAC
P           0.276979000000000    0.001936000000000    0.500000000000000 
P           0.333333000000000    0.666667000000000    0.212987000000000 
P           0.333333000000000    0.666667000000000    0.787013000000000 
P           0.724957000000000    0.723021000000000    0.500000000000000 
P           0.998064000000000    0.275043000000000    0.500000000000000 
K          -0.000000000000000    0.000000000000000    0.000000000000000 
K           0.333333000000000    0.666667000000000    0.500000000000000 
K           0.360484000000000    0.359683000000000    0.500000000000000 
K           0.640317000000000    0.000802000000000    0.500000000000000 
K           0.666667000000000    0.333333000000000    0.500000000000000 
K           0.999198000000000    0.639516000000000    0.500000000000000 
%ENDBLOCK POSITIONS_FRAC
