# Cell file generated by matador (Matthew Evans 2016)

%BLOCK LATTICE_CART
11.678 0.0 0.0
0.0 11.678 0.0
0.0 0.0 9.8849
%ENDBLOCK LATTICE_CART

%BLOCK POSITIONS_FRAC
P           0.000000000000000    0.132487000000000    0.896482000000000 
P           0.000000000000000    0.867513000000000    0.896482000000000 
P           0.132487000000000    0.500000000000000    0.146482000000000 
P           0.367513000000000    0.000000000000000    0.646482000000000 
P           0.500000000000000    0.367513000000000    0.396482000000000 
P           0.500000000000000    0.632487000000000    0.396482000000000 
P           0.632487000000000    0.000000000000000    0.646482000000000 
P           0.867513000000000    0.500000000000000    0.146482000000000 
K           0.000000000000000    0.217741000000000    0.284604000000000 
K           0.000000000000000    0.293490000000000    0.973494000000000 
K           0.000000000000000    0.358622000000000    0.661838000000000 
K           0.000000000000000    0.641378000000000    0.661838000000000 
K           0.000000000000000    0.706510000000000    0.973494000000000 
K           0.000000000000000    0.782259000000000    0.284604000000000 
K           0.141378000000000    0.000000000000000    0.411838000000000 
K           0.206510000000000    0.000000000000000    0.723494000000000 
K           0.217741000000000    0.500000000000000    0.534604000000000 
K           0.282259000000000    0.000000000000000    0.034604000000000 
K           0.293490000000000    0.500000000000000    0.223494000000000 
K           0.358622000000000    0.500000000000000    0.911838000000000 
K           0.500000000000000    0.141378000000000    0.161838000000000 
K           0.500000000000000    0.206510000000000    0.473494000000000 
K           0.500000000000000    0.282259000000000    0.784604000000000 
K           0.500000000000000    0.717741000000000    0.784604000000000 
K           0.500000000000000    0.793490000000000    0.473494000000000 
K           0.500000000000000    0.858622000000000    0.161838000000000 
K           0.641378000000000    0.500000000000000    0.911838000000000 
K           0.706510000000000    0.500000000000000    0.223494000000000 
K           0.717741000000000    0.000000000000000    0.034604000000000 
K           0.782259000000000    0.500000000000000    0.534604000000000 
K           0.793490000000000    0.000000000000000    0.723494000000000 
K           0.858622000000000    0.000000000000000    0.411838000000000 
%ENDBLOCK POSITIONS_FRAC
