# Cell file generated by matador (Matthew Evans 2016)

%BLOCK LATTICE_CART
6.87085 0.0 0.0
-0.145763 6.42182 0.0
-0.982804 2.94299 8.42117
%ENDBLOCK LATTICE_CART

%BLOCK POSITIONS_FRAC
P           0.170921000000000    0.214261000000000    0.101667000000000 
P           0.389357000000000    0.732311000000000    0.885066000000000 
P           0.500000000000000    0.000000000000000    0.000000000000000 
P           0.500000000000000    0.500000000000000    0.000000000000000 
P           0.610643000000000    0.267689000000000    0.114934000000000 
P           0.829079000000000    0.785739000000000    0.898333000000000 
K           0.000000000000000    0.000000000000000    0.500000000000000 
K           0.000000000000000    0.500000000000000    0.500000000000000 
K           0.267894000000000    0.593035000000000    0.581489000000000 
K           0.500000000000000    0.500000000000000    0.500000000000000 
K           0.732106000000000    0.406965000000000    0.418511000000000 
%ENDBLOCK POSITIONS_FRAC
