# Cell file generated by matador (Matthew Evans 2016)

%BLOCK LATTICE_CART
7.04039 0.0 0.0
-3.52019 6.09715 0.0
0.0 0.0 7.09178
%ENDBLOCK LATTICE_CART

%BLOCK POSITIONS_FRAC
P           0.000000000000000    0.000000000000000    0.271099000000000 
K           0.000000000000000    0.000000000000000    0.844731000000000 
K           0.000000000000000    0.316412000000000    0.161801000000000 
K           0.000000000000000    0.683588000000000    0.161801000000000 
K           0.316412000000000    0.000000000000000    0.161801000000000 
K           0.316412000000000    0.316412000000000    0.161801000000000 
K           0.683588000000000    0.000000000000000    0.161801000000000 
K           0.683588000000000    0.683588000000000    0.161801000000000 
%ENDBLOCK POSITIONS_FRAC
