# Cell file generated by matador (Matthew Evans 2016)

%BLOCK LATTICE_CART
12.8852 0.0 0.0
-6.44262 11.1589 0.0
0.0 0.0 6.66313
%ENDBLOCK LATTICE_CART

%BLOCK POSITIONS_FRAC
P           0.000000000000000    0.000000000000000   -0.000000000000000 
P           0.000000000000000    0.000000000000000    0.500000000000000 
P           0.333333000000000    0.666667000000000    0.166667000000000 
P           0.333333000000000    0.666667000000000    0.666667000000000 
P           0.666667000000000    0.333333000000000    0.333333000000000 
P           0.666667000000000    0.333333000000000    0.833333000000000 
K           0.000000000000000    0.488185000000000    0.500000000000000 
K           0.000000000000000    0.559015000000000   -0.000000000000000 
K           0.107652000000000    0.774318000000000    0.333333000000000 
K           0.154852000000000    0.333333000000000    0.833333000000000 
K           0.178482000000000    0.845148000000000    0.833333000000000 
K           0.225682000000000    0.333333000000000    0.333333000000000 
K           0.333333000000000    0.154852000000000    0.166667000000000 
K           0.333333000000000    0.225682000000000    0.666667000000000 
K           0.440985000000000    0.440985000000000   -0.000000000000000 
K           0.488185000000000    0.000000000000000    0.500000000000000 
K           0.511815000000000    0.511815000000000    0.500000000000000 
K           0.559015000000000    0.000000000000000   -0.000000000000000 
K           0.666667000000000    0.821518000000000    0.833333000000000 
K           0.666667000000000    0.892348000000000    0.333333000000000 
K           0.774318000000000    0.107652000000000    0.666667000000000 
K           0.821518000000000    0.666667000000000    0.166667000000000 
K           0.845148000000000    0.178482000000000    0.166667000000000 
K           0.892348000000000    0.666667000000000    0.666667000000000 
%ENDBLOCK POSITIONS_FRAC
