# Cell file generated by matador (Matthew Evans 2016)

%BLOCK LATTICE_CART
6.45783 0.0 0.0
0.0 6.45783 0.0
0.0 0.0 8.0904
%ENDBLOCK LATTICE_CART

%BLOCK POSITIONS_FRAC
P           0.000000000000000   -0.000000000000000    0.000000000000000 
P           0.000000000000000    0.500000000000000    0.177594000000000 
P           0.000000000000000    0.500000000000000    0.322406000000000 
P           0.000000000000000    0.500000000000000    0.677594000000000 
P           0.000000000000000    0.500000000000000    0.822406000000000 
P           0.500000000000000   -0.000000000000000    0.177594000000000 
P           0.500000000000000   -0.000000000000000    0.322406000000000 
P           0.500000000000000   -0.000000000000000    0.677594000000000 
P           0.500000000000000   -0.000000000000000    0.822406000000000 
P           0.500000000000000    0.500000000000000    0.500000000000000 
K           0.000000000000000   -0.000000000000000    0.500000000000000 
K           0.500000000000000    0.500000000000000    0.000000000000000 
%ENDBLOCK POSITIONS_FRAC
