# Cell file generated by matador (Matthew Evans 2016)

%BLOCK LATTICE_CART
6.34712 0.0 0.0
-3.17356 5.49677 0.0
0.0 0.0 10.94
%ENDBLOCK LATTICE_CART

%BLOCK POSITIONS_FRAC
P           0.000000000000000    0.000000000000000    0.080789000000000 
P           0.000000000000000    0.000000000000000    0.919211000000000 
P           0.333333000000000    0.666667000000000    0.811100000000000 
P           0.666667000000000    0.333333000000000    0.188900000000000 
K           0.000000000000000    0.626529000000000    0.500000000000000 
K           0.333333000000000    0.666667000000000    0.077943000000000 
K           0.333333000000000    0.666667000000000    0.286735000000000 
K           0.373471000000000    0.373471000000000    0.500000000000000 
K           0.626529000000000    0.000000000000000    0.500000000000000 
K           0.666667000000000    0.333333000000000    0.713265000000000 
K           0.666667000000000    0.333333000000000    0.922057000000000 
%ENDBLOCK POSITIONS_FRAC
