# Cell file generated by matador (Matthew Evans 2016)

%BLOCK LATTICE_CART
7.60326 0.0 0.0
0.0 7.09799 0.0
2.66696 0.0 6.46581
%ENDBLOCK LATTICE_CART

%BLOCK POSITIONS_FRAC
P           0.025589000000000    0.500000000000000    0.714294000000000 
P           0.622483000000000    0.500000000000000    0.438708000000000 
K           0.267735000000000    0.000000000000000    0.142017000000000 
K           0.308088000000000    0.000000000000000    0.761757000000000 
K           0.341947000000000    0.500000000000000    0.969528000000000 
K           0.550417000000000    0.000000000000000    0.853264000000000 
K           0.581528000000000    0.000000000000000    0.161977000000000 
K           0.842958000000000    0.000000000000000    0.471526000000000 
K           0.997789000000000    0.000000000000000    0.805365000000000 
%ENDBLOCK POSITIONS_FRAC
