# Cell file generated by matador (Matthew Evans 2016)

%BLOCK LATTICE_CART
8.30753 0.0 0.0
-4.15377 7.19454 0.0
0.0 0.0 11.4243
%ENDBLOCK LATTICE_CART

%BLOCK POSITIONS_FRAC
P           0.000000000000000    0.000000000000000    0.000000000000000 
P           0.000000000000000    0.500000000000000    0.500000000000000 
P           0.500000000000000    0.000000000000000    0.500000000000000 
P           0.500000000000000    0.500000000000000    0.500000000000000 
K           0.000000000000000    0.000000000000000    0.176875000000000 
K           0.000000000000000    0.000000000000000    0.500000000000000 
K           0.000000000000000    0.000000000000000    0.823125000000000 
K           0.000000000000000    0.500000000000000    0.000000000000000 
K           0.220134000000000    0.440268000000000    0.549946000000000 
K           0.220134000000000    0.779866000000000    0.549946000000000 
K           0.333333000000000    0.666667000000000    0.038867000000000 
K           0.440268000000000    0.220134000000000    0.450054000000000 
K           0.500000000000000    0.000000000000000    0.000000000000000 
K           0.500000000000000    0.500000000000000    0.000000000000000 
K           0.559732000000000    0.779866000000000    0.549946000000000 
K           0.666667000000000    0.333333000000000    0.961133000000000 
K           0.779866000000000    0.220134000000000    0.450054000000000 
K           0.779866000000000    0.559732000000000    0.450054000000000 
%ENDBLOCK POSITIONS_FRAC
