# Cell file generated by matador (Matthew Evans 2016)

%BLOCK LATTICE_CART
10.3238 0.0 0.0
0.0 14.1064 0.0
0.0 0.0 8.38911
%ENDBLOCK LATTICE_CART

%BLOCK POSITIONS_FRAC
P           0.203638000000000    0.120039000000000    0.975874000000000 
P           0.203638000000000    0.879961000000000    0.975874000000000 
P           0.296362000000000    0.379961000000000    0.475874000000000 
P           0.296362000000000    0.620039000000000    0.475874000000000 
P           0.703638000000000    0.379961000000000    0.475874000000000 
P           0.703638000000000    0.620039000000000    0.475874000000000 
P           0.796362000000000    0.120039000000000    0.975874000000000 
P           0.796362000000000    0.879961000000000    0.975874000000000 
K           0.000000000000000    0.000000000000000    0.742018000000000 
K           0.000000000000000    0.220219000000000    0.827898000000000 
K           0.000000000000000    0.303306000000000    0.229444000000000 
K           0.000000000000000    0.500000000000000    0.708141000000000 
K           0.000000000000000    0.696694000000000    0.229444000000000 
K           0.000000000000000    0.779781000000000    0.827898000000000 
K           0.146667000000000    0.000000000000000    0.101337000000000 
K           0.152837000000000    0.500000000000000    0.321660000000000 
K           0.203270000000000    0.500000000000000    0.964968000000000 
K           0.296730000000000    0.000000000000000    0.464968000000000 
K           0.347163000000000    0.000000000000000    0.821660000000000 
K           0.353333000000000    0.500000000000000    0.601337000000000 
K           0.500000000000000    0.000000000000000    0.208141000000000 
K           0.500000000000000    0.196694000000000    0.729444000000000 
K           0.500000000000000    0.279781000000000    0.327898000000000 
K           0.500000000000000    0.500000000000000    0.242018000000000 
K           0.500000000000000    0.720219000000000    0.327898000000000 
K           0.500000000000000    0.803306000000000    0.729444000000000 
K           0.646667000000000    0.500000000000000    0.601337000000000 
K           0.652837000000000    0.000000000000000    0.821660000000000 
K           0.703270000000000    0.000000000000000    0.464968000000000 
K           0.796730000000000    0.500000000000000    0.964968000000000 
K           0.847163000000000    0.500000000000000    0.321660000000000 
K           0.853333000000000    0.000000000000000    0.101337000000000 
%ENDBLOCK POSITIONS_FRAC
