# Cell file generated by matador (Matthew Evans 2016)

%BLOCK LATTICE_CART
8.41253 -0.0 0.0
-4.20627 7.28547 0.0
0.0 0.0 6.80827
%ENDBLOCK LATTICE_CART

%BLOCK POSITIONS_FRAC
P           0.333333000000000    0.666667000000000    0.657309000000000 
P           0.378787000000000    0.341212000000000    0.560784000000000 
P           0.613544000000000    0.249833000000000    0.734786000000000 
P           0.636289000000000    0.386456000000000    0.734786000000000 
P           0.658788000000000    0.037575000000000    0.560784000000000 
P           0.750167000000000    0.363711000000000    0.734786000000000 
P           0.962425000000000    0.621213000000000    0.560784000000000 
K           0.000000000000000    0.000000000000000    0.323239000000000 
K           0.092179000000000    0.479418000000000    0.416154000000000 
K           0.333333000000000    0.666667000000000    0.121526000000000 
K           0.387238000000000    0.907821000000000    0.416154000000000 
K           0.520582000000000    0.612762000000000    0.416154000000000 
%ENDBLOCK POSITIONS_FRAC
