# Cell file generated by matador (Matthew Evans 2016)

%BLOCK LATTICE_CART
9.01658 0.0 0.0
-4.50829 7.80859 0.0
0.0 0.0 6.32442
%ENDBLOCK LATTICE_CART

%BLOCK POSITIONS_FRAC
P           0.000000000000000    0.000000000000000    0.500000000000000 
P           0.333333000000000    0.666667000000000    0.166667000000000 
P           0.666667000000000    0.333333000000000    0.833333000000000 
K           0.000000000000000    0.500000000000000    0.500000000000000 
K           0.166667000000000    0.333333000000000    0.833333000000000 
K           0.166667000000000    0.833333000000000    0.833333000000000 
K           0.333333000000000    0.166667000000000    0.166667000000000 
K           0.500000000000000    0.000000000000000    0.500000000000000 
K           0.500000000000000    0.500000000000000    0.500000000000000 
K           0.666667000000000    0.833333000000000    0.833333000000000 
K           0.833333000000000    0.166667000000000    0.166667000000000 
K           0.833333000000000    0.666667000000000    0.166667000000000 
%ENDBLOCK POSITIONS_FRAC
