# Cell file generated by matador (Matthew Evans 2016)

%BLOCK LATTICE_CART
6.39847 0.0 0.0
-3.19923 5.54123 0.0
0.0 0.0 10.5047
%ENDBLOCK LATTICE_CART

%BLOCK POSITIONS_FRAC
P           0.132305000000000    0.466166000000000    0.804654000000000 
P           0.195087000000000    0.412712000000000    0.497093000000000 
P           0.217625000000000    0.804913000000000    0.497093000000000 
P           0.333861000000000    0.867695000000000    0.804654000000000 
P           0.412712000000000    0.217625000000000    0.502907000000000 
P           0.466166000000000    0.333861000000000    0.195346000000000 
P           0.533834000000000    0.666139000000000    0.804654000000000 
P           0.587288000000000    0.782375000000000    0.497093000000000 
P           0.666139000000000    0.132305000000000    0.195346000000000 
P           0.782375000000000    0.195087000000000    0.502907000000000 
P           0.804913000000000    0.587288000000000    0.502907000000000 
P           0.867695000000000    0.533834000000000    0.195346000000000 
K           0.000000000000000    0.000000000000000    0.000000000000000 
K           0.000000000000000    0.000000000000000    0.500000000000000 
%ENDBLOCK POSITIONS_FRAC
