# Cell file generated by matador (Matthew Evans 2016)

%BLOCK LATTICE_CART
6.76504 0.0 0.0
-3.38252 5.8587 0.0
0.0 0.0 8.60234
%ENDBLOCK LATTICE_CART

%BLOCK POSITIONS_FRAC
P          -0.000000000000000    0.000000000000000    0.000000000000000 
P          -0.000000000000000    0.000000000000000    0.500000000000000 
P          -0.000000000000000    0.441382000000000    0.500000000000000 
P          -0.000000000000000    0.852181000000000    0.000000000000000 
P           0.040697000000000    0.366652000000000    0.094110000000000 
P           0.147819000000000    0.147819000000000    0.000000000000000 
P           0.325955000000000    0.959303000000000    0.094110000000000 
P           0.366652000000000    0.040697000000000    0.905890000000000 
P           0.441382000000000    0.000000000000000    0.500000000000000 
P           0.558618000000000    0.558618000000000    0.500000000000000 
P           0.633348000000000    0.674045000000000    0.094110000000000 
P           0.674045000000000    0.633348000000000    0.905890000000000 
P           0.852181000000000    0.000000000000000    0.000000000000000 
P           0.959303000000000    0.325955000000000    0.905890000000000 
K           0.333333000000000    0.666667000000000    0.309866000000000 
K           0.333333000000000    0.666667000000000    0.587892000000000 
K           0.666666000000000    0.333334000000000    0.412108000000000 
K           0.666666000000000    0.333334000000000    0.690134000000000 
%ENDBLOCK POSITIONS_FRAC
