# Cell file generated by matador (Matthew Evans 2016)

%BLOCK LATTICE_CART
6.52166 0.0 0.0
-1.32193 5.90785 0.0
1.47341 2.80524 11.7875
%ENDBLOCK LATTICE_CART

%BLOCK POSITIONS_FRAC
P           0.000000000000000    0.000000000000000    0.000000000000000 
P           0.000000000000000    0.500000000000000    0.000000000000000 
P           0.000000000000000    0.500000000000000    0.500000000000000 
P           0.500000000000000    0.000000000000000    0.000000000000000 
P           0.500000000000000    0.500000000000000    0.000000000000000 
P           0.500000000000000    0.500000000000000    0.500000000000000 
K           0.000000000000000    0.000000000000000    0.500000000000000 
K           0.247668000000000    0.907559000000000    0.909692000000000 
K           0.336196000000000    0.852714000000000    0.341055000000000 
K           0.377723000000000    0.321445000000000    0.695330000000000 
K           0.622277000000000    0.678555000000000    0.304670000000000 
K           0.663804000000000    0.147286000000000    0.658945000000000 
K           0.752332000000000    0.092441000000000    0.090308000000000 
%ENDBLOCK POSITIONS_FRAC
