# Cell file generated by matador (Matthew Evans 2016)

%BLOCK LATTICE_CART
7.5175 0.0 0.0
0.0 7.5175 0.0
0.0 0.0 7.5175
%ENDBLOCK LATTICE_CART

%BLOCK POSITIONS_FRAC
P           0.000000000000000    0.000000000000000    0.000000000000000 
P           0.083642000000000    0.083642000000000    0.083642000000000 
P           0.083642000000000    0.916358000000000    0.916358000000000 
P           0.916358000000000    0.083642000000000    0.916358000000000 
P           0.916358000000000    0.916358000000000    0.083642000000000 
K           0.000000000000000    0.000000000000000    0.500000000000000 
K           0.000000000000000    0.500000000000000    0.000000000000000 
K           0.000000000000000    0.500000000000000    0.500000000000000 
K           0.500000000000000    0.000000000000000    0.000000000000000 
K           0.500000000000000    0.000000000000000    0.500000000000000 
K           0.500000000000000    0.500000000000000    0.000000000000000 
K           0.500000000000000    0.500000000000000    0.500000000000000 
%ENDBLOCK POSITIONS_FRAC
