# Cell file generated by matador (Matthew Evans 2016)

%BLOCK LATTICE_CART
6.51208 0.0 0.0
-3.25604 5.63963 0.0
0.0 0.0 9.22383
%ENDBLOCK LATTICE_CART

%BLOCK POSITIONS_FRAC
P          -0.000000000000000   -0.000000000000000    0.000000000000000 
P          -0.000000000000000   -0.000000000000000    0.500000000000000 
P          -0.000000000000000    0.500000000000000    0.000000000000000 
P          -0.000000000000000    0.500000000000000    0.500000000000000 
P           0.500000000000000   -0.000000000000000    0.000000000000000 
P           0.500000000000000   -0.000000000000000    0.500000000000000 
P           0.500000000000000    0.500000000000000    0.000000000000000 
P           0.500000000000000    0.500000000000000    0.500000000000000 
K          -0.000000000000000    0.362915000000000    0.726361000000000 
K          -0.000000000000000    0.637085000000000    0.273639000000000 
K           0.362915000000000   -0.000000000000000    0.726361000000000 
K           0.362915000000000    0.362915000000000    0.273639000000000 
K           0.637085000000000   -0.000000000000000    0.273639000000000 
K           0.637085000000000    0.637085000000000    0.726361000000000 
%ENDBLOCK POSITIONS_FRAC
