# Cell file generated by matador (Matthew Evans 2016)

%BLOCK LATTICE_CART
7.59437 0.0 0.0
-3.79719 6.57692 0.0
0.0 0.0 7.63392
%ENDBLOCK LATTICE_CART

%BLOCK POSITIONS_FRAC
P           0.000000000000000    0.000000000000000    0.000000000000000 
P           0.000000000000000    0.000000000000000    0.500000000000000 
K           0.000000000000000    0.231334000000000    0.250000000000000 
K           0.000000000000000    0.768666000000000    0.750000000000000 
K           0.231334000000000    0.000000000000000    0.250000000000000 
K           0.231334000000000    0.231334000000000    0.750000000000000 
K           0.333333000000000    0.666667000000000    0.000000000000000 
K           0.333333000000000    0.666667000000000    0.500000000000000 
K           0.666667000000000    0.333333000000000    0.000000000000000 
K           0.666667000000000    0.333333000000000    0.500000000000000 
K           0.768666000000000    0.000000000000000    0.750000000000000 
K           0.768666000000000    0.768666000000000    0.250000000000000 
%ENDBLOCK POSITIONS_FRAC
