# Cell file generated by matador (Matthew Evans 2016)

%BLOCK LATTICE_CART
7.16503 0.0 0.0
-3.58251 6.2051 0.0
0.0 0.0 7.94756
%ENDBLOCK LATTICE_CART

%BLOCK POSITIONS_FRAC
P           0.000000000000000    0.000000000000000    0.674956000000000 
P           0.000000000000000    0.445767000000000    0.161285000000000 
P           0.445767000000000    0.000000000000000    0.161285000000000 
P           0.554233000000000    0.554233000000000    0.161285000000000 
K           0.000000000000000    0.620733000000000    0.781446000000000 
K           0.333333000000000    0.666667000000000    0.070603000000000 
K           0.333333000000000    0.666667000000000    0.656553000000000 
K           0.379267000000000    0.379267000000000    0.781446000000000 
K           0.620733000000000    0.000000000000000    0.781446000000000 
K           0.666667000000000    0.333333000000000    0.070603000000000 
K           0.666667000000000    0.333333000000000    0.656553000000000 
%ENDBLOCK POSITIONS_FRAC
