# Cell file generated by matador (Matthew Evans 2016)

%BLOCK LATTICE_CART
5.63919 0.0 0.0
2.9753 6.39113 0.0
-4.10699 2.0738 8.20177
%ENDBLOCK LATTICE_CART

%BLOCK POSITIONS_FRAC
P           0.086007000000000    0.823621000000000    0.063274000000000 
P           0.913993000000000    0.176379000000000    0.936726000000000 
K           0.000000000000000    0.500000000000000    0.000000000000000 
K           0.000000000000000    0.500000000000000    0.500000000000000 
K           0.500000000000000    0.000000000000000    0.000000000000000 
K           0.500000000000000    0.000000000000000    0.500000000000000 
K           0.500000000000000    0.500000000000000    0.000000000000000 
K           0.500000000000000    0.500000000000000    0.500000000000000 
%ENDBLOCK POSITIONS_FRAC
