# Cell file generated by matador (Matthew Evans 2016)

%BLOCK LATTICE_CART
9.8363 0.0 0.0
-4.91815 8.51848 0.0
0.0 0.0 11.5665
%ENDBLOCK LATTICE_CART

%BLOCK POSITIONS_FRAC
P           0.000000000000000    0.373319000000000    0.927088000000000 
P           0.000000000000000    0.626681000000000    0.427088000000000 
P           0.373319000000000    0.000000000000000    0.927088000000000 
P           0.373319000000000    0.373319000000000    0.427088000000000 
P           0.626681000000000    0.000000000000000    0.427088000000000 
P           0.626681000000000    0.626681000000000    0.927088000000000 
K           0.000000000000000    0.176102000000000    0.180282000000000 
K           0.000000000000000    0.362889000000000    0.462821000000000 
K           0.000000000000000    0.479049000000000    0.728569000000000 
K           0.000000000000000    0.520951000000000    0.228569000000000 
K           0.000000000000000    0.637111000000000    0.962821000000000 
K           0.000000000000000    0.823898000000000    0.680282000000000 
K           0.176102000000000    0.000000000000000    0.180282000000000 
K           0.176102000000000    0.176102000000000    0.680282000000000 
K           0.362889000000000    0.000000000000000    0.462821000000000 
K           0.362889000000000    0.362889000000000    0.962821000000000 
K           0.479049000000000    0.000000000000000    0.728569000000000 
K           0.479049000000000    0.479049000000000    0.228569000000000 
K           0.520951000000000    0.000000000000000    0.228569000000000 
K           0.520951000000000    0.520951000000000    0.728569000000000 
K           0.637111000000000    0.000000000000000    0.962821000000000 
K           0.637111000000000    0.637111000000000    0.462821000000000 
K           0.823898000000000    0.000000000000000    0.680282000000000 
K           0.823898000000000    0.823898000000000    0.180282000000000 
%ENDBLOCK POSITIONS_FRAC
