# Cell file generated by matador (Matthew Evans 2016)

%BLOCK LATTICE_CART
6.85683 0.0 0.0
0.0 6.85683 0.0
0.0 0.0 13.1704
%ENDBLOCK LATTICE_CART

%BLOCK POSITIONS_FRAC
P           0.192865000000000    0.192865000000000    0.000000000000000 
P           0.192865000000000    0.807135000000000    0.000000000000000 
P           0.307135000000000    0.307135000000000    0.000000000000000 
P           0.307135000000000    0.692865000000000    0.000000000000000 
P           0.692865000000000    0.307135000000000    0.000000000000000 
P           0.692865000000000    0.692865000000000    0.000000000000000 
P           0.807135000000000    0.192865000000000    0.000000000000000 
P           0.807135000000000    0.807135000000000    0.000000000000000 
K           0.000000000000000    0.000000000000000    0.500000000000000 
K           0.000000000000000    0.500000000000000    0.000000000000000 
K           0.000000000000000    0.500000000000000    0.500000000000000 
K           0.250000000000000    0.250000000000000    0.500000000000000 
K           0.250000000000000    0.750000000000000    0.500000000000000 
K           0.500000000000000    0.000000000000000    0.000000000000000 
K           0.500000000000000    0.000000000000000    0.500000000000000 
K           0.500000000000000    0.500000000000000    0.500000000000000 
K           0.750000000000000    0.250000000000000    0.500000000000000 
K           0.750000000000000    0.750000000000000    0.500000000000000 
%ENDBLOCK POSITIONS_FRAC
