# Cell file generated by matador (Matthew Evans 2016)

%BLOCK LATTICE_CART
6.60605 0.0 0.0
-3.30303 5.72101 0.0
0.0 0.0 9.12624
%ENDBLOCK LATTICE_CART

%BLOCK POSITIONS_FRAC
P           0.000000000000000   -0.000000000000000    0.106128000000000 
P           0.000000000000000   -0.000000000000000    0.986853000000000 
P           0.127793000000000    0.050109000000000    0.528462000000000 
P           0.255649000000000    0.538874000000000    0.195129000000000 
P           0.283225000000000    0.744351000000000    0.195129000000000 
P           0.333333000000000    0.666667000000000    0.653520000000000 
P           0.333333000000000    0.666667000000000    0.772795000000000 
P           0.461126000000000    0.716775000000000    0.195129000000000 
P           0.588983000000000    0.205540000000000    0.861795000000000 
P           0.616558000000000    0.411017000000000    0.861795000000000 
P           0.666667000000000    0.333333000000000    0.320186000000000 
P           0.666667000000000    0.333333000000000    0.439461000000000 
P           0.794460000000000    0.383442000000000    0.861795000000000 
P           0.922316000000000    0.872207000000000    0.528462000000000 
P           0.949891000000000    0.077684000000000    0.528462000000000 
K           0.000000000000000   -0.000000000000000    0.767705000000000 
K           0.333333000000000    0.666667000000000    0.434371000000000 
K           0.666667000000000    0.333333000000000    0.101038000000000 
%ENDBLOCK POSITIONS_FRAC
