# Cell file generated by matador (Matthew Evans 2016)

%BLOCK LATTICE_CART
8.00754 -0.0 0.0
-4.00377 6.93473 0.0
0.0 0.0 6.60919
%ENDBLOCK LATTICE_CART

%BLOCK POSITIONS_FRAC
P           0.165199000000000    0.043430000000000    0.118335000000000 
P           0.211564000000000    0.501467000000000    0.785001000000000 
P           0.289903000000000    0.788436000000000    0.785001000000000 
P           0.498533000000000    0.710097000000000    0.785001000000000 
P           0.544898000000000    0.168134000000000    0.451668000000000 
P           0.623236000000000    0.455102000000000    0.451668000000000 
P           0.831866000000000    0.376764000000000    0.451668000000000 
P           0.878231000000000    0.834801000000000    0.118335000000000 
P           0.956570000000000    0.121769000000000    0.118335000000000 
K          -0.000000000000000    0.000000000000000    0.476686000000000 
K           0.333333000000000    0.666667000000000    0.143353000000000 
K           0.666667000000000    0.333333000000000    0.810020000000000 
%ENDBLOCK POSITIONS_FRAC
