# Cell file generated by matador (Matthew Evans 2016)

%BLOCK LATTICE_CART
10.2136 0.0 0.0
-5.1068 8.84524 0.0
0.0 0.0 10.0288
%ENDBLOCK LATTICE_CART

%BLOCK POSITIONS_FRAC
P           0.333333000000000    0.666667000000000   -0.000000000000000 
P           0.333333000000000    0.666667000000000    0.250000000000000 
P           0.333333000000000    0.666667000000000    0.500000000000000 
P           0.333333000000000    0.666667000000000    0.750000000000000 
P           0.666666000000000    0.333334000000000   -0.000000000000000 
P           0.666666000000000    0.333334000000000    0.500000000000000 
K           0.016637000000000    0.223829000000000    0.750000000000000 
K           0.016637000000000    0.792808000000000    0.250000000000000 
K           0.111716000000000    0.553276000000000    0.750000000000000 
K           0.111716000000000    0.558440000000000    0.250000000000000 
K           0.207192000000000    0.223829000000000    0.250000000000000 
K           0.207192000000000    0.983363000000000    0.750000000000000 
K           0.441560000000000    0.553276000000000    0.250000000000000 
K           0.441560000000000    0.888284000000000    0.750000000000000 
K           0.446724000000000    0.558440000000000    0.750000000000000 
K           0.446724000000000    0.888284000000000    0.250000000000000 
K           0.479024000000000    0.190513000000000    0.250000000000000 
K           0.479024000000000    0.288511000000000    0.750000000000000 
K           0.711489000000000    0.190513000000000    0.750000000000000 
K           0.711489000000000    0.520976000000000    0.250000000000000 
K           0.776171000000000    0.792808000000000    0.750000000000000 
K           0.776171000000000    0.983363000000000    0.250000000000000 
K           0.809487000000000    0.288511000000000    0.250000000000000 
K           0.809487000000000    0.520976000000000    0.750000000000000 
%ENDBLOCK POSITIONS_FRAC
