# Cell file generated by matador (Matthew Evans 2016)

%BLOCK LATTICE_CART
6.53011 0.0 0.0
-3.26506 5.65524 0.0
0.0 0.0 10.2049
%ENDBLOCK LATTICE_CART

%BLOCK POSITIONS_FRAC
P           0.000000000000000    0.000000000000000    0.305107000000000 
P           0.038681000000000    0.326692000000000    0.949111000000000 
P           0.038681000000000    0.711989000000000    0.949111000000000 
P           0.091312000000000    0.182623000000000    0.636544000000000 
P           0.091312000000000    0.908688000000000    0.636544000000000 
P           0.288011000000000    0.326692000000000    0.949111000000000 
P           0.288011000000000    0.961319000000000    0.949111000000000 
P           0.673308000000000    0.711989000000000    0.949111000000000 
P           0.673308000000000    0.961319000000000    0.949111000000000 
P           0.817377000000000    0.908688000000000    0.636544000000000 
K           0.000000000000000    0.000000000000000    0.837901000000000 
K           0.333333000000000    0.666667000000000    0.688128000000000 
%ENDBLOCK POSITIONS_FRAC
