# Cell file generated by matador (Matthew Evans 2016)

%BLOCK LATTICE_CART
9.46394 0.0 0.0
0.0 6.43186 0.0
0.0 0.0 10.3441
%ENDBLOCK LATTICE_CART

%BLOCK POSITIONS_FRAC
P           0.000000000000000    0.000000000000000    0.000000000000000 
P           0.000000000000000    0.000000000000000    0.500000000000000 
P           0.500000000000000    0.500000000000000    0.000000000000000 
P           0.500000000000000    0.500000000000000    0.500000000000000 
K           0.000000000000000    0.150236000000000    0.750000000000000 
K           0.000000000000000    0.327371000000000    0.104250000000000 
K           0.000000000000000    0.327371000000000    0.395750000000000 
K           0.000000000000000    0.672629000000000    0.604250000000000 
K           0.000000000000000    0.672629000000000    0.895750000000000 
K           0.000000000000000    0.849764000000000    0.250000000000000 
K           0.500000000000000    0.172629000000000    0.604250000000000 
K           0.500000000000000    0.172629000000000    0.895750000000000 
K           0.500000000000000    0.349764000000000    0.250000000000000 
K           0.500000000000000    0.650236000000000    0.750000000000000 
K           0.500000000000000    0.827371000000000    0.104250000000000 
K           0.500000000000000    0.827371000000000    0.395750000000000 
%ENDBLOCK POSITIONS_FRAC
