# Cell file generated by matador (Matthew Evans 2016)

%BLOCK LATTICE_CART
5.04698 0.0 0.0
0.0 5.04698 0.0
0.0 0.0 9.5286
%ENDBLOCK LATTICE_CART

%BLOCK POSITIONS_FRAC
P           0.000000000000000    0.000000000000000    0.885529000000000 
P           0.000000000000000    0.500000000000000    0.370252000000000 
P           0.000000000000000    0.500000000000000    0.784588000000000 
P           0.500000000000000    0.000000000000000    0.370252000000000 
P           0.500000000000000    0.000000000000000    0.784588000000000 
P           0.500000000000000    0.500000000000000    0.378447000000000 
K           0.000000000000000    0.500000000000000    0.035772000000000 
K           0.500000000000000    0.000000000000000    0.035772000000000 
%ENDBLOCK POSITIONS_FRAC
