# Cell file generated by matador (Matthew Evans 2016)

%BLOCK LATTICE_CART
6.18526 0.0 0.0
-3.09263 5.35659 0.0
0.0 0.0 9.62201
%ENDBLOCK LATTICE_CART

%BLOCK POSITIONS_FRAC
P           0.000000000000000    0.000000000000000    0.500000000000000 
P           0.333333000000000    0.666667000000000    0.500000000000000 
P           0.577517000000000    0.411698000000000    0.267021000000000 
P           0.577517000000000    0.411698000000000    0.732979000000000 
P           0.588302000000000    0.165820000000000    0.267021000000000 
P           0.588302000000000    0.165820000000000    0.732979000000000 
P           0.666667000000000    0.333333000000000    0.000000000000000 
P           0.666667000000000    0.333333000000000    0.500000000000000 
P           0.834180000000000    0.422483000000000    0.267021000000000 
P           0.834180000000000    0.422483000000000    0.732979000000000 
K           0.000000000000000    0.000000000000000    0.000000000000000 
K           0.333333000000000    0.666667000000000    0.000000000000000 
%ENDBLOCK POSITIONS_FRAC
