# Cell file generated by matador (Matthew Evans 2016)

%BLOCK LATTICE_CART
9.30051 0.0 0.0
0.0 9.30051 0.0
0.0 0.0 6.31995
%ENDBLOCK LATTICE_CART

%BLOCK POSITIONS_FRAC
P           0.000000000000000    0.500000000000000   -0.000000000000000 
P           0.000000000000000    0.500000000000000    0.500000000000000 
P           0.500000000000000    0.000000000000000   -0.000000000000000 
P           0.500000000000000    0.000000000000000    0.500000000000000 
P           0.500000000000000    0.500000000000000    0.250000000000000 
P           0.500000000000000    0.500000000000000    0.750000000000000 
K           0.197119000000000    0.287135000000000    0.047771000000000 
K           0.197119000000000    0.712865000000000    0.952229000000000 
K           0.287135000000000    0.197119000000000    0.452229000000000 
K           0.287135000000000    0.802881000000000    0.547771000000000 
K           0.712865000000000    0.197119000000000    0.547771000000000 
K           0.712865000000000    0.802881000000000    0.452229000000000 
K           0.802881000000000    0.287135000000000    0.952229000000000 
K           0.802881000000000    0.712865000000000    0.047771000000000 
%ENDBLOCK POSITIONS_FRAC
