# Cell file generated by matador (Matthew Evans 2016)

%BLOCK LATTICE_CART
10.1867 0.0 0.0
0.0 10.1867 0.0
0.0 0.0 5.53234
%ENDBLOCK LATTICE_CART

%BLOCK POSITIONS_FRAC
P          -0.000000000000000   -0.000000000000000    0.198832000000000 
P          -0.000000000000000    0.500000000000000    0.877519000000000 
P           0.500000000000000   -0.000000000000000    0.877519000000000 
P           0.500000000000000    0.500000000000000    0.198832000000000 
K           0.117538000000000    0.382462000000000    0.549904000000000 
K           0.121145000000000    0.621145000000000    0.043033000000000 
K           0.171330000000000    0.671330000000000    0.542643000000000 
K           0.328670000000000    0.171330000000000    0.542643000000000 
K           0.378855000000000    0.121145000000000    0.043033000000000 
K           0.382462000000000    0.882462000000000    0.549904000000000 
K           0.617538000000000    0.117538000000000    0.549904000000000 
K           0.621145000000000    0.878855000000000    0.043033000000000 
K           0.671330000000000    0.828670000000000    0.542643000000000 
K           0.828670000000000    0.328670000000000    0.542643000000000 
K           0.878855000000000    0.378855000000000    0.043033000000000 
K           0.882462000000000    0.617538000000000    0.549904000000000 
%ENDBLOCK POSITIONS_FRAC
