# Cell file generated by matador (Matthew Evans 2016)

%BLOCK LATTICE_CART
9.14118 0.0 0.0
0.0 9.14118 0.0
0.0 0.0 7.12205
%ENDBLOCK LATTICE_CART

%BLOCK POSITIONS_FRAC
P           0.000000000000000    0.000000000000000    0.509595000000000 
P           0.000000000000000    0.500000000000000    0.131882000000000 
P           0.500000000000000    0.000000000000000    0.131882000000000 
P           0.500000000000000    0.500000000000000    0.440593000000000 
K           0.000000000000000    0.270075000000000    0.573439000000000 
K           0.000000000000000    0.270774000000000    0.147360000000000 
K           0.000000000000000    0.729226000000000    0.147360000000000 
K           0.000000000000000    0.729925000000000    0.573439000000000 
K           0.252537000000000    0.500000000000000    0.232001000000000 
K           0.270075000000000    0.000000000000000    0.573439000000000 
K           0.270774000000000    0.000000000000000    0.147360000000000 
K           0.500000000000000    0.252537000000000    0.232001000000000 
K           0.500000000000000    0.747463000000000    0.232001000000000 
K           0.729226000000000    0.000000000000000    0.147360000000000 
K           0.729925000000000    0.000000000000000    0.573439000000000 
K           0.747463000000000    0.500000000000000    0.232001000000000 
%ENDBLOCK POSITIONS_FRAC
