# Cell file generated by matador (Matthew Evans 2016)

%BLOCK LATTICE_CART
6.72631 0.0 0.0
0.0 10.4734 0.0
0.0 0.0 7.10273
%ENDBLOCK LATTICE_CART

%BLOCK POSITIONS_FRAC
P           0.000000000000000    0.500000000000000    0.027560000000000 
P           0.108695000000000    0.282018000000000    0.458800000000000 
P           0.391305000000000    0.782018000000000    0.958800000000000 
P           0.500000000000000    0.000000000000000    0.527560000000000 
P           0.608695000000000    0.217982000000000    0.958800000000000 
P           0.891305000000000    0.717982000000000    0.458800000000000 
K           0.000000000000000    0.000000000000000    0.246841000000000 
K           0.000000000000000    0.500000000000000    0.413142000000000 
K           0.045701000000000    0.808361000000000    0.685195000000000 
K           0.454299000000000    0.308361000000000    0.185195000000000 
K           0.500000000000000    0.000000000000000    0.913142000000000 
K           0.500000000000000    0.500000000000000    0.746841000000000 
K           0.545701000000000    0.691639000000000    0.185195000000000 
K           0.954299000000000    0.191639000000000    0.685195000000000 
%ENDBLOCK POSITIONS_FRAC
