# Cell file generated by matador (Matthew Evans 2016)

%BLOCK LATTICE_CART
5.00684 0.0 0.0
-2.50342 4.33605 0.0
0.0 0.0 8.83524
%ENDBLOCK LATTICE_CART

%BLOCK POSITIONS_FRAC
P           0.000000000000000    0.000000000000000    0.433471000000000 
P           0.000000000000000    0.500000000000000    0.733191000000000 
P           0.500000000000000    0.000000000000000    0.733191000000000 
P           0.500000000000000    0.500000000000000    0.733191000000000 
K           0.000000000000000    0.000000000000000    0.147769000000000 
K           0.333333000000000    0.666667000000000    0.216383000000000 
K           0.666667000000000    0.333333000000000    0.216383000000000 
%ENDBLOCK POSITIONS_FRAC
