# Cell file generated by matador (Matthew Evans 2016)

%BLOCK LATTICE_CART
5.89239 0.0 0.0
0.0 4.59694 0.0
0.0 0.0 8.60813
%ENDBLOCK LATTICE_CART

%BLOCK POSITIONS_FRAC
P           0.000000000000000    0.000000000000000    0.983921000000000 
P           0.000000000000000    0.500000000000000    0.659560000000000 
P           0.000000000000000    0.500000000000000    0.807282000000000 
P           0.500000000000000    0.000000000000000    0.659560000000000 
P           0.500000000000000    0.000000000000000    0.807282000000000 
P           0.500000000000000    0.500000000000000    0.983921000000000 
K           0.000000000000000    0.500000000000000    0.109826000000000 
K           0.500000000000000    0.000000000000000    0.109826000000000 
%ENDBLOCK POSITIONS_FRAC
