# Cell file generated by matador (Matthew Evans 2016)

%BLOCK LATTICE_CART
7.52151 0.0 0.0
-3.76076 6.51382 0.0
0.0 0.0 8.29003
%ENDBLOCK LATTICE_CART

%BLOCK POSITIONS_FRAC
P          -0.000000000000000    0.000000000000000    0.464501000000000 
P           0.333333000000000    0.666667000000000    0.414842000000000 
P           0.333333000000000    0.666667000000000    0.587287000000000 
P           0.666666000000000    0.333334000000000    0.226960000000000 
P           0.666666000000000    0.333334000000000    0.360584000000000 
P           0.666666000000000    0.333334000000000    0.523052000000000 
P           0.666666000000000    0.333334000000000    0.933706000000000 
K           0.177979000000000    0.172785000000000    0.083399000000000 
K           0.518580000000000    0.127886000000000    0.703360000000000 
K           0.609306000000000    0.481420000000000    0.703360000000000 
K           0.827215000000000    0.005195000000000    0.083399000000000 
K           0.872114000000000    0.390694000000000    0.703360000000000 
K           0.994805000000000    0.822021000000000    0.083399000000000 
%ENDBLOCK POSITIONS_FRAC
