# Cell file generated by matador (Matthew Evans 2016)

%BLOCK LATTICE_CART
6.3699 0.0 0.0
-3.18495 5.51649 0.0
0.0 0.0 6.27452
%ENDBLOCK LATTICE_CART

%BLOCK POSITIONS_FRAC
P           0.000000000000000    0.000000000000000    0.774086000000000 
P           0.402257000000000    0.298323000000000    0.313603000000000 
P           0.463799000000000    0.019547000000000    0.387650000000000 
P           0.555748000000000    0.536201000000000    0.387650000000000 
P           0.701677000000000    0.103935000000000    0.313603000000000 
P           0.896065000000000    0.597743000000000    0.313603000000000 
P           0.980453000000000    0.444252000000000    0.387650000000000 
K           0.000000000000000    0.000000000000000    0.278921000000000 
%ENDBLOCK POSITIONS_FRAC
