# Cell file generated by matador (Matthew Evans 2016)

%BLOCK LATTICE_CART
7.69153 0.0 0.0
-3.84576 6.66106 0.0
0.0 0.0 10.0244
%ENDBLOCK LATTICE_CART

%BLOCK POSITIONS_FRAC
P           0.000000000000000    0.000000000000000    0.304692000000000 
P           0.000000000000000    0.000000000000000    0.695308000000000 
P           0.073952000000000    0.443509000000000    0.482537000000000 
P           0.369557000000000    0.926048000000000    0.482537000000000 
P           0.443509000000000    0.073952000000000    0.517463000000000 
P           0.556491000000000    0.630443000000000    0.482537000000000 
P           0.630443000000000    0.556491000000000    0.517463000000000 
P           0.926048000000000    0.369557000000000    0.517463000000000 
K           0.000000000000000    0.000000000000000    0.000000000000000 
K           0.000000000000000    0.000000000000000    0.500000000000000 
K           0.122108000000000    0.760911000000000    0.196996000000000 
K           0.239089000000000    0.361197000000000    0.196996000000000 
K           0.333333000000000    0.666667000000000    0.135142000000000 
K           0.361197000000000    0.239089000000000    0.803004000000000 
K           0.638803000000000    0.877892000000000    0.196996000000000 
K           0.666667000000000    0.333333000000000    0.864858000000000 
K           0.760911000000000    0.122108000000000    0.803004000000000 
K           0.877892000000000    0.638803000000000    0.803004000000000 
%ENDBLOCK POSITIONS_FRAC
