# Cell file generated by matador (Matthew Evans 2016)

%BLOCK LATTICE_CART
8.22475 0.0 0.0
0.0 8.51632 0.0
-1.02551 0.0 6.44593
%ENDBLOCK LATTICE_CART

%BLOCK POSITIONS_FRAC
P           0.004490000000000    0.500000000000000    0.435421000000000 
P           0.046808000000000    0.000000000000000    0.911885000000000 
P           0.206137000000000    0.000000000000000    0.827782000000000 
P           0.499646000000000    0.000000000000000    0.262687000000000 
P           0.523714000000000    0.500000000000000    0.121559000000000 
P           0.607773000000000    0.000000000000000    0.650054000000000 
K           0.240345000000000    0.500000000000000    0.836775000000000 
K           0.279637000000000    0.500000000000000    0.305512000000000 
K           0.344189000000000    0.000000000000000    0.506150000000000 
K           0.437638000000000    0.254040000000000    0.789535000000000 
K           0.437638000000000    0.745960000000000    0.789535000000000 
K           0.855930000000000    0.000000000000000    0.640059000000000 
K           0.932300000000000    0.341336000000000    0.832034000000000 
K           0.932300000000000    0.658664000000000    0.832034000000000 
K           0.959053000000000    0.156941000000000    0.134540000000000 
K           0.959053000000000    0.843059000000000    0.134540000000000 
%ENDBLOCK POSITIONS_FRAC
