# Cell file generated by matador (Matthew Evans 2016)

%BLOCK LATTICE_CART
11.1996 -0.0 0.0
-5.5998 9.69913 0.0
0.0 0.0 5.20961
%ENDBLOCK LATTICE_CART

%BLOCK POSITIONS_FRAC
P           0.000000000000000    0.000000000000000    0.130365000000000 
P           0.124731000000000    0.545993000000000    0.761968000000000 
P           0.170420000000000    0.507002000000000    0.032538000000000 
P           0.336582000000000    0.829580000000000    0.032538000000000 
P           0.421261000000000    0.875269000000000    0.761968000000000 
P           0.454007000000000    0.578739000000000    0.761968000000000 
P           0.492998000000000    0.663418000000000    0.032538000000000 
P           0.524274000000000    0.401095000000000    0.093593000000000 
P           0.598905000000000    0.123179000000000    0.093593000000000 
P           0.876821000000000    0.475726000000000    0.093593000000000 
K           0.253032000000000    0.160332000000000    0.750832000000000 
K           0.521637000000000    0.190024000000000    0.503693000000000 
K           0.668387000000000    0.478363000000000    0.503693000000000 
K           0.809976000000000    0.331613000000000    0.503693000000000 
K           0.839668000000000    0.092700000000000    0.750832000000000 
K           0.907300000000000    0.746968000000000    0.750832000000000 
%ENDBLOCK POSITIONS_FRAC
