# Cell file generated by matador (Matthew Evans 2016)

%BLOCK LATTICE_CART
7.13194 0.0 0.0
-3.56597 6.17644 0.0
0.0 0.0 6.75016
%ENDBLOCK LATTICE_CART

%BLOCK POSITIONS_FRAC
P           0.086917000000000    0.173834000000000    0.250000000000000 
P           0.086917000000000    0.913083000000000    0.250000000000000 
P           0.173834000000000    0.086917000000000    0.750000000000000 
P           0.333333000000000    0.666667000000000    0.250000000000000 
P           0.666667000000000    0.333333000000000    0.750000000000000 
P           0.826166000000000    0.913083000000000    0.250000000000000 
P           0.913083000000000    0.086917000000000    0.750000000000000 
P           0.913083000000000    0.826166000000000    0.750000000000000 
K           0.000000000000000    0.000000000000000   -0.000000000000000 
K           0.000000000000000    0.000000000000000    0.500000000000000 
K           0.333333000000000    0.666667000000000    0.750000000000000 
K           0.666667000000000    0.333333000000000    0.250000000000000 
%ENDBLOCK POSITIONS_FRAC
