# Cell file generated by matador (Matthew Evans 2016)

%BLOCK LATTICE_CART
7.39958 0.0 0.0
-3.69979 6.40822 0.0
0.0 0.0 8.50045
%ENDBLOCK LATTICE_CART

%BLOCK POSITIONS_FRAC
P          -0.000000000000000   -0.000000000000000    0.271117000000000 
P          -0.000000000000000   -0.000000000000000    0.864943000000000 
P           0.182226000000000    0.366544000000000    0.224136000000000 
P           0.184318000000000    0.817774000000000    0.224136000000000 
P           0.300123000000000    0.149016000000000    0.557469000000000 
P           0.333333000000000    0.666667000000000    0.531609000000000 
P           0.333333000000000    0.666667000000000    0.937784000000000 
P           0.515560000000000    0.033211000000000    0.890803000000000 
P           0.517651000000000    0.484440000000000    0.890803000000000 
P           0.633456000000000    0.815682000000000    0.224136000000000 
P           0.666667000000000    0.333333000000000    0.198276000000000 
P           0.666667000000000    0.333333000000000    0.604451000000000 
P           0.848893000000000    0.699877000000000    0.557469000000000 
P           0.850984000000000    0.151107000000000    0.557469000000000 
P           0.966789000000000    0.482349000000000    0.890803000000000 
K          -0.000000000000000   -0.000000000000000    0.623325000000000 
K           0.333333000000000    0.666667000000000    0.289991000000000 
K           0.666667000000000    0.333333000000000    0.956658000000000 
%ENDBLOCK POSITIONS_FRAC
