# Cell file generated by matador (Matthew Evans 2016)

%BLOCK LATTICE_CART
9.31245 0.0 0.0
-4.65622 8.06482 0.0
0.0 0.0 15.5557
%ENDBLOCK LATTICE_CART

%BLOCK POSITIONS_FRAC
P           0.000000000000000    0.000000000000000    0.141886000000000 
P           0.000000000000000    0.000000000000000    0.747122000000000 
P           0.333333000000000    0.666667000000000    0.426015000000000 
P           0.333333000000000    0.666667000000000    0.613851000000000 
P           0.333333000000000    0.666667000000000    0.829643000000000 
P           0.666667000000000    0.333333000000000    0.426015000000000 
P           0.666667000000000    0.333333000000000    0.613851000000000 
P           0.666667000000000    0.333333000000000    0.829643000000000 
K           0.000000000000000    0.196784000000000    0.194272000000000 
K           0.000000000000000    0.198963000000000    0.885343000000000 
K           0.000000000000000    0.331629000000000    0.409015000000000 
K           0.000000000000000    0.415214000000000    0.649506000000000 
K           0.000000000000000    0.563073000000000    0.102608000000000 
K           0.000000000000000    0.605595000000000    0.862000000000000 
K           0.000000000000000    0.696562000000000    0.363889000000000 
K           0.000000000000000    0.790067000000000    0.601701000000000 
K           0.196784000000000    0.000000000000000    0.194272000000000 
K           0.198963000000000    0.000000000000000    0.885343000000000 
K           0.209933000000000    0.209933000000000    0.601701000000000 
K           0.303438000000000    0.303438000000000    0.363889000000000 
K           0.331629000000000    0.000000000000000    0.409015000000000 
K           0.394405000000000    0.394405000000000    0.862000000000000 
K           0.415214000000000    0.000000000000000    0.649506000000000 
K           0.436927000000000    0.436927000000000    0.102608000000000 
K           0.563073000000000    0.000000000000000    0.102608000000000 
K           0.584786000000000    0.584786000000000    0.649506000000000 
K           0.605595000000000    0.000000000000000    0.862000000000000 
K           0.668371000000000    0.668371000000000    0.409015000000000 
K           0.696562000000000    0.000000000000000    0.363889000000000 
K           0.790067000000000    0.000000000000000    0.601701000000000 
K           0.801037000000000    0.801037000000000    0.885343000000000 
K           0.803216000000000    0.803216000000000    0.194272000000000 
%ENDBLOCK POSITIONS_FRAC
