# Cell file generated by matador (Matthew Evans 2016)

%BLOCK LATTICE_CART
7.18295 -0.0 0.0
-3.59147 6.22061 0.0
0.0 0.0 5.30039
%ENDBLOCK LATTICE_CART

%BLOCK POSITIONS_FRAC
P           0.053523000000000    0.108217000000000    0.698951000000000 
P           0.054694000000000    0.946477000000000    0.698951000000000 
P           0.333333000000000    0.666667000000000    0.271821000000000 
P           0.333333000000000    0.666667000000000    0.477984000000000 
P           0.333333000000000    0.666667000000000    0.898151000000000 
P           0.891783000000000    0.945306000000000    0.698951000000000 
K           0.476401000000000    0.232104000000000    0.288192000000000 
K           0.666667000000000    0.333333000000000    0.664546000000000 
K           0.755703000000000    0.523599000000000    0.288192000000000 
K           0.767896000000000    0.244297000000000    0.288192000000000 
%ENDBLOCK POSITIONS_FRAC
