# Cell file generated by matador (Matthew Evans 2016)

%BLOCK LATTICE_CART
6.28227 -0.0 0.0
-3.14114 5.44061 0.0
0.0 0.0 8.24715
%ENDBLOCK LATTICE_CART

%BLOCK POSITIONS_FRAC
P           0.093150000000000    0.231604000000000    0.818209000000000 
P           0.138454000000000    0.906850000000000    0.151542000000000 
P           0.559364000000000    0.334592000000000    0.205666000000000 
P           0.665408000000000    0.224772000000000    0.872333000000000 
P           0.768396000000000    0.861546000000000    0.484876000000000 
P           0.775228000000000    0.440636000000000    0.538999000000000 
K           0.207559000000000    0.602880000000000    0.596509000000000 
K           0.395321000000000    0.792441000000000    0.929842000000000 
K           0.397120000000000    0.604679000000000    0.263175000000000 
%ENDBLOCK POSITIONS_FRAC
