# Cell file generated by matador (Matthew Evans 2016)

%BLOCK LATTICE_CART
7.16641 0.0 0.0
0.0 8.49739 0.0
0.0 0.0 6.38194
%ENDBLOCK LATTICE_CART

%BLOCK POSITIONS_FRAC
P           0.000000000000000    0.000000000000000    0.343307000000000 
P           0.000000000000000    0.000000000000000    0.500000000000000 
P           0.000000000000000    0.000000000000000    0.656693000000000 
P           0.000000000000000    0.135373000000000    0.000000000000000 
P           0.000000000000000    0.864627000000000    0.000000000000000 
P           0.288369000000000    0.344357000000000    0.931734000000000 
P           0.288369000000000    0.655643000000000    0.068266000000000 
P           0.500000000000000    0.000000000000000    0.000000000000000 
P           0.500000000000000    0.000000000000000    0.160766000000000 
P           0.500000000000000    0.000000000000000    0.839234000000000 
P           0.711631000000000    0.344357000000000    0.068266000000000 
P           0.711631000000000    0.655643000000000    0.931734000000000 
K           0.000000000000000    0.500000000000000    0.500000000000000 
K           0.500000000000000    0.000000000000000    0.500000000000000 
%ENDBLOCK POSITIONS_FRAC
