# Cell file generated by matador (Matthew Evans 2016)

%BLOCK LATTICE_CART
6.05623 0.0 0.0
-3.02811 5.24485 0.0
0.0 0.0 16.3286
%ENDBLOCK LATTICE_CART

%BLOCK POSITIONS_FRAC
P           0.158588000000000    0.579294000000000    0.759835000000000 
P           0.420704000000000    0.579294000000000    0.759835000000000 
P           0.420704000000000    0.841410000000000    0.759835000000000 
P           0.579294000000000    0.158588000000000    0.259835000000000 
P           0.579294000000000    0.420704000000000    0.259835000000000 
P           0.841410000000000    0.420704000000000    0.259835000000000 
K           0.999999000000000    0.999999000000000    0.154549000000000 
K           0.999999000000000    0.999999000000000    0.654549000000000 
K           0.148341000000000    0.296682000000000    0.961300000000000 
K           0.148341000000000    0.851657000000000    0.961300000000000 
K           0.296682000000000    0.148341000000000    0.461300000000000 
K           0.703316000000000    0.851657000000000    0.961300000000000 
K           0.851657000000000    0.148341000000000    0.461300000000000 
K           0.851657000000000    0.703316000000000    0.461300000000000 
%ENDBLOCK POSITIONS_FRAC
