# Cell file generated by matador (Matthew Evans 2016)

%BLOCK LATTICE_CART
9.87263 0.0 0.0
-4.93631 8.54995 0.0
0.0 0.0 8.32178
%ENDBLOCK LATTICE_CART

%BLOCK POSITIONS_FRAC
P           0.000000000000000    0.000000000000000    0.131323000000000 
P           0.000000000000000    0.000000000000000    0.631323000000000 
P           0.095063000000000    0.190125000000000    0.554926000000000 
P           0.095063000000000    0.904937000000000    0.554926000000000 
P           0.190125000000000    0.095063000000000    0.054926000000000 
P           0.809875000000000    0.904937000000000    0.554926000000000 
P           0.904937000000000    0.095063000000000    0.054926000000000 
P           0.904937000000000    0.809875000000000    0.054926000000000 
K           0.149354000000000    0.574677000000000    0.252820000000000 
K           0.333333000000000    0.666667000000000    0.565186000000000 
K           0.333333000000000    0.666667000000000    0.990573000000000 
K           0.425323000000000    0.574677000000000    0.252820000000000 
K           0.425323000000000    0.850646000000000    0.252820000000000 
K           0.574677000000000    0.149354000000000    0.752820000000000 
K           0.574677000000000    0.425323000000000    0.752820000000000 
K           0.666667000000000    0.333333000000000    0.065186000000000 
K           0.666667000000000    0.333333000000000    0.490573000000000 
K           0.850646000000000    0.425323000000000    0.752820000000000 
%ENDBLOCK POSITIONS_FRAC
