# Cell file generated by matador (Matthew Evans 2016)

%BLOCK LATTICE_CART
6.71466 0.0 0.0
-3.35733 5.81507 0.0
0.0 0.0 15.0906
%ENDBLOCK LATTICE_CART

%BLOCK POSITIONS_FRAC
P           0.333333000000000    0.666667000000000    0.132532000000000 
P           0.333333000000000    0.666667000000000    0.250000000000000 
P           0.333333000000000    0.666667000000000    0.367468000000000 
P           0.333333000000000    0.666667000000000    0.632532000000000 
P           0.333333000000000    0.666667000000000    0.750000000000000 
P           0.333333000000000    0.666667000000000    0.867468000000000 
P           0.666667000000000    0.333333000000000    0.073834000000000 
P           0.666667000000000    0.333333000000000    0.426166000000000 
P           0.666667000000000    0.333333000000000    0.573834000000000 
P           0.666667000000000    0.333333000000000    0.926166000000000 
K           0.000000000000000    0.000000000000000    0.250000000000000 
K           0.000000000000000    0.000000000000000    0.750000000000000 
K           0.333333000000000    0.666667000000000    0.000000000000000 
K           0.333333000000000    0.666667000000000    0.500000000000000 
K           0.666667000000000    0.333333000000000    0.250000000000000 
K           0.666667000000000    0.333333000000000    0.750000000000000 
%ENDBLOCK POSITIONS_FRAC
