# Cell file generated by matador (Matthew Evans 2016)

%BLOCK LATTICE_CART
5.39847 0.0 0.0
0.0 6.57036 0.0
-4.27399 0.0 9.59241
%ENDBLOCK LATTICE_CART

%BLOCK POSITIONS_FRAC
P           0.259130000000000    0.302234000000000    0.509110000000000 
P           0.322422000000000    0.123871000000000    0.182776000000000 
P           0.425070000000000    0.885632000000000    0.653488000000000 
P           0.574930000000000    0.385632000000000    0.346512000000000 
P           0.677578000000000    0.623871000000000    0.817224000000000 
P           0.740870000000000    0.802234000000000    0.490890000000000 
K           0.062476000000000    0.032302000000000    0.450098000000000 
K           0.152642000000000    0.758416000000000    0.029930000000000 
K           0.847358000000000    0.258416000000000    0.970070000000000 
K           0.937524000000000    0.532302000000000    0.549902000000000 
%ENDBLOCK POSITIONS_FRAC
