# Cell file generated by matador (Matthew Evans 2016)

%BLOCK LATTICE_CART
7.88063 0.0 0.0
-3.94032 6.82483 0.0
0.0 0.0 9.32699
%ENDBLOCK LATTICE_CART

%BLOCK POSITIONS_FRAC
P           0.000000000000000    0.000000000000000    0.000000000000000 
P           0.333333000000000    0.666667000000000    0.000000000000000 
P           0.666667000000000    0.333333000000000    0.000000000000000 
K           0.000000000000000    0.000000000000000    0.500000000000000 
K           0.000000000000000    0.673391000000000    0.325497000000000 
K           0.000000000000000    0.673391000000000    0.674503000000000 
K           0.326609000000000    0.326609000000000    0.325497000000000 
K           0.326609000000000    0.326609000000000    0.674503000000000 
K           0.333333000000000    0.666667000000000    0.500000000000000 
K           0.666667000000000    0.333333000000000    0.500000000000000 
K           0.673391000000000    0.000000000000000    0.325497000000000 
K           0.673391000000000    0.000000000000000    0.674503000000000 
%ENDBLOCK POSITIONS_FRAC
