# Cell file generated by matador (Matthew Evans 2016)

%BLOCK LATTICE_CART
6.27924 0.0 0.0
0.0 5.4355 0.0
2.12144 0.0 7.3744
%ENDBLOCK LATTICE_CART

%BLOCK POSITIONS_FRAC
P           0.026510000000000    0.500000000000000    0.969242000000000 
P           0.154605000000000    0.500000000000000    0.760557000000000 
P           0.402035000000000    0.000000000000000    0.652750000000000 
K           0.601070000000000    0.500000000000000    0.602641000000000 
K           0.855673000000000    0.000000000000000    0.431939000000000 
K           0.856587000000000    0.000000000000000    0.823290000000000 
K           0.977425000000000    0.287858000000000    0.199864000000000 
K           0.977425000000000    0.712142000000000    0.199864000000000 
%ENDBLOCK POSITIONS_FRAC
