# Cell file generated by matador (Matthew Evans 2016)

%BLOCK LATTICE_CART
8.72522 0.0 0.0
-4.36261 7.55626 0.0
0.0 0.0 8.83392
%ENDBLOCK LATTICE_CART

%BLOCK POSITIONS_FRAC
P           0.333334000000000    0.666668000000000    0.393983000000000 
P           0.333334000000000    0.666668000000000    0.918673000000000 
P           0.666668000000000    0.333334000000000    0.418673000000000 
P           0.666668000000000    0.333334000000000    0.893983000000000 
K           0.016142000000000    0.508072000000000    0.834306000000000 
K           0.124373000000000    0.248745000000000    0.659010000000000 
K           0.124373000000000    0.875629000000000    0.659010000000000 
K           0.248745000000000    0.124373000000000    0.159010000000000 
K           0.491930000000000    0.508072000000000    0.834306000000000 
K           0.491930000000000    0.983860000000000    0.834306000000000 
K           0.508072000000000    0.016142000000000    0.334306000000000 
K           0.508072000000000    0.491930000000000    0.334306000000000 
K           0.751257000000000    0.875629000000000    0.659010000000000 
K           0.875629000000000    0.124373000000000    0.159010000000000 
K           0.875629000000000    0.751257000000000    0.159010000000000 
K           0.983860000000000    0.491930000000000    0.334306000000000 
%ENDBLOCK POSITIONS_FRAC
