# Cell file generated by matador (Matthew Evans 2016)

%BLOCK LATTICE_CART
5.4553 0.0 0.0
0.0 5.4553 0.0
0.0 0.0 8.8024
%ENDBLOCK LATTICE_CART

%BLOCK POSITIONS_FRAC
P           0.000000000000000    0.000000000000000    0.000000000000000 
P           0.000000000000000    0.000000000000000    0.500000000000000 
P           0.000000000000000    0.302284000000000    0.250000000000000 
P           0.000000000000000    0.302284000000000    0.750000000000000 
P           0.000000000000000    0.697716000000000    0.250000000000000 
P           0.000000000000000    0.697716000000000    0.750000000000000 
P           0.302284000000000    0.000000000000000    0.250000000000000 
P           0.302284000000000    0.000000000000000    0.750000000000000 
P           0.500000000000000    0.500000000000000    0.250000000000000 
P           0.500000000000000    0.500000000000000    0.750000000000000 
P           0.697716000000000    0.000000000000000    0.250000000000000 
P           0.697716000000000    0.000000000000000    0.750000000000000 
K           0.500000000000000    0.500000000000000    0.000000000000000 
K           0.500000000000000    0.500000000000000    0.500000000000000 
%ENDBLOCK POSITIONS_FRAC
