# Cell file generated by matador (Matthew Evans 2016)

%BLOCK LATTICE_CART
7.27158 0.0 0.0
-3.63579 6.29737 0.0
0.0 0.0 4.67532
%ENDBLOCK LATTICE_CART

%BLOCK POSITIONS_FRAC
P           0.000000000000000   -0.000000000000000    0.965295000000000 
P           0.049054000000000    0.545170000000000    0.672133000000000 
P           0.181808000000000    0.687209000000000    0.871585000000000 
P           0.312791000000000    0.494599000000000    0.871585000000000 
P           0.454830000000000    0.503884000000000    0.672133000000000 
P           0.496116000000000    0.950946000000000    0.672133000000000 
P           0.505401000000000    0.818192000000000    0.871585000000000 
K           0.666667000000000    0.333333000000000    0.687852000000000 
%ENDBLOCK POSITIONS_FRAC
