# Cell file generated by matador (Matthew Evans 2016)

%BLOCK LATTICE_CART
7.56587 0.0 0.0
-3.78294 6.55224 0.0
0.0 0.0 8.77372
%ENDBLOCK LATTICE_CART

%BLOCK POSITIONS_FRAC
P           0.000000000000000    0.500000000000000    0.000000000000000 
P           0.500000000000000    0.000000000000000    0.000000000000000 
P           0.500000000000000    0.500000000000000    0.000000000000000 
K           0.000000000000000    0.500000000000000    0.500000000000000 
K           0.188969000000000    0.377937000000000    0.110909000000000 
K           0.188969000000000    0.811031000000000    0.110909000000000 
K           0.377937000000000    0.188969000000000    0.889091000000000 
K           0.500000000000000    0.000000000000000    0.500000000000000 
K           0.500000000000000    0.500000000000000    0.500000000000000 
K           0.622063000000000    0.811031000000000    0.110909000000000 
K           0.811031000000000    0.188969000000000    0.889091000000000 
K           0.811031000000000    0.622063000000000    0.889091000000000 
%ENDBLOCK POSITIONS_FRAC
