# Cell file generated by matador (Matthew Evans 2016)

%BLOCK LATTICE_CART
11.707 0.0 0.0
0.0 7.79473 0.0
0.0 0.0 5.1999
%ENDBLOCK LATTICE_CART

%BLOCK POSITIONS_FRAC
P           0.000000000000000    0.000000000000000    0.459000000000000 
P           0.500000000000000    0.000000000000000    0.459000000000000 
K           0.000000000000000    0.500000000000000    0.470407000000000 
K           0.096210000000000    0.611272000000000    0.931429000000000 
K           0.250000000000000    0.109125000000000    0.833025000000000 
K           0.250000000000000    0.396246000000000    0.419643000000000 
K           0.250000000000000    0.780515000000000    0.361356000000000 
K           0.403790000000000    0.611272000000000    0.931429000000000 
K           0.500000000000000    0.500000000000000    0.470407000000000 
K           0.596210000000000    0.388728000000000    0.931429000000000 
K           0.750000000000000    0.219485000000000    0.361356000000000 
K           0.750000000000000    0.603754000000000    0.419643000000000 
K           0.750000000000000    0.890875000000000    0.833025000000000 
K           0.903790000000000    0.388728000000000    0.931429000000000 
%ENDBLOCK POSITIONS_FRAC
