# Cell file generated by matador (Matthew Evans 2016)

%BLOCK LATTICE_CART
4.88372 0.0 0.0
0.0 6.55588 0.0
2.05461 0.0 7.69896
%ENDBLOCK LATTICE_CART

%BLOCK POSITIONS_FRAC
P           0.140599000000000    0.113420000000000    0.215811000000000 
P           0.267439000000000    0.997152000000000    0.718875000000000 
P           0.392766000000000    0.708343000000000    0.778764000000000 
P           0.607234000000000    0.708343000000000    0.221236000000000 
P           0.732561000000000    0.997152000000000    0.281125000000000 
P           0.859401000000000    0.113420000000000    0.784189000000000 
K           0.000000000000000    0.191350000000000    0.000000000000000 
K           0.107946000000000    0.628793000000000    0.092538000000000 
K           0.500000000000000    0.147636000000000    0.000000000000000 
K           0.500000000000000    0.590504000000000    0.500000000000000 
K           0.892054000000000    0.628793000000000    0.907462000000000 
%ENDBLOCK POSITIONS_FRAC
