# Cell file generated by matador (Matthew Evans 2016)

%BLOCK LATTICE_CART
8.03926 -0.0 0.0
-4.01963 6.9622 0.0
0.0 0.0 7.82759
%ENDBLOCK LATTICE_CART

%BLOCK POSITIONS_FRAC
P           0.046364000000000    0.685936000000000    0.673884000000000 
P           0.067912000000000    0.794172000000000    0.500856000000000 
P           0.205828000000000    0.273740000000000    0.500856000000000 
P           0.314064000000000    0.360428000000000    0.673884000000000 
P           0.333333000000000    0.666667000000000    0.184706000000000 
P           0.511747000000000    0.400482000000000    0.334278000000000 
P           0.599518000000000    0.111265000000000    0.334278000000000 
P           0.639572000000000    0.953636000000000    0.673884000000000 
P           0.726260000000000    0.932088000000000    0.500856000000000 
P           0.888735000000000    0.488253000000000    0.334278000000000 
K           0.000000000000000    0.000000000000000    0.228868000000000 
K           0.666667000000000    0.333333000000000    0.751618000000000 
%ENDBLOCK POSITIONS_FRAC
