# Cell file generated by matador (Matthew Evans 2016)

%BLOCK LATTICE_CART
7.85752 0.0 0.0
0.0 5.16396 0.0
2.64756 0.0 8.57594
%ENDBLOCK LATTICE_CART

%BLOCK POSITIONS_FRAC
P           0.157819000000000    0.207855000000000    0.418178000000000 
P           0.157819000000000    0.792145000000000    0.918178000000000 
P           0.213744000000000    0.469959000000000    0.539109000000000 
P           0.213744000000000    0.530041000000000    0.039109000000000 
P           0.697505000000000    0.038713000000000    0.714429000000000 
P           0.697505000000000    0.961287000000000    0.214429000000000 
P           0.742547000000000    0.183531000000000    0.164943000000000 
P           0.742547000000000    0.816469000000000    0.664943000000000 
P           0.949995000000000    0.236039000000000    0.625935000000000 
P           0.949995000000000    0.763961000000000    0.125935000000000 
K           0.615111000000000    0.436735000000000    0.986112000000000 
K           0.615111000000000    0.563265000000000    0.486112000000000 
%ENDBLOCK POSITIONS_FRAC
