# Cell file generated by matador (Matthew Evans 2016)

%BLOCK LATTICE_CART
9.03346 0.0 0.0
0.0 4.61466 0.0
0.0 0.0 9.62182
%ENDBLOCK LATTICE_CART

%BLOCK POSITIONS_FRAC
P           0.000000000000000    0.500000000000000    0.500000000000000 
P           0.500000000000000    0.000000000000000    0.500000000000000 
P           0.500000000000000    0.287988000000000    0.000000000000000 
P           0.500000000000000    0.500000000000000    0.000000000000000 
P           0.500000000000000    0.500000000000000    0.500000000000000 
P           0.500000000000000    0.712012000000000    0.000000000000000 
K           0.000000000000000    0.000000000000000    0.000000000000000 
K           0.500000000000000    0.228428000000000    0.206486000000000 
K           0.500000000000000    0.228428000000000    0.793514000000000 
K           0.500000000000000    0.771572000000000    0.206486000000000 
K           0.500000000000000    0.771572000000000    0.793514000000000 
%ENDBLOCK POSITIONS_FRAC
