# Cell file generated by matador (Matthew Evans 2016)

%BLOCK LATTICE_CART
6.63684 0.0 0.0
0.0 6.63684 0.0
0.0 0.0 6.94196
%ENDBLOCK LATTICE_CART

%BLOCK POSITIONS_FRAC
P           0.000000000000000    0.000000000000000    0.259795000000000 
P           0.500000000000000    0.500000000000000    0.259795000000000 
K           0.000000000000000    0.500000000000000    0.429084000000000 
K           0.206946000000000    0.706946000000000    0.008643000000000 
K           0.293054000000000    0.206946000000000    0.008643000000000 
K           0.500000000000000    0.000000000000000    0.429084000000000 
K           0.706946000000000    0.793054000000000    0.008643000000000 
K           0.793054000000000    0.293054000000000    0.008643000000000 
%ENDBLOCK POSITIONS_FRAC
