# Cell file generated by matador (Matthew Evans 2016)

%BLOCK LATTICE_CART
10.6949 0.0 0.0
0.0 8.65727 0.0
-2.12356 0.0 5.51648
%ENDBLOCK LATTICE_CART

%BLOCK POSITIONS_FRAC
P           0.086288000000000    0.289359000000000    0.891406000000000 
P           0.086288000000000    0.710641000000000    0.891406000000000 
P           0.092969000000000    0.152956000000000    0.379559000000000 
P           0.092969000000000    0.847044000000000    0.379559000000000 
P           0.264231000000000    0.168843000000000    0.572681000000000 
P           0.264231000000000    0.831157000000000    0.572681000000000 
P           0.326066000000000    0.000000000000000    0.512281000000000 
P           0.483871000000000    0.096690000000000    0.832962000000000 
P           0.483871000000000    0.903310000000000    0.832962000000000 
P           0.568068000000000    0.196537000000000    0.198972000000000 
P           0.568068000000000    0.803463000000000    0.198972000000000 
P           0.726471000000000    0.000000000000000    0.429536000000000 
P           0.962137000000000    0.389404000000000    0.111167000000000 
P           0.962137000000000    0.610596000000000    0.111167000000000 
K           0.017587000000000    0.000000000000000    0.807950000000000 
K           0.026006000000000    0.500000000000000    0.692195000000000 
K           0.277523000000000    0.000000000000000    0.062183000000000 
K           0.415453000000000    0.500000000000000    0.636528000000000 
K           0.667595000000000    0.000000000000000    0.903071000000000 
K           0.824647000000000    0.500000000000000    0.222401000000000 
%ENDBLOCK POSITIONS_FRAC
