# Cell file generated by matador (Matthew Evans 2016)

%BLOCK LATTICE_CART
7.90917 0.0 0.0
0.0 5.58143 0.0
0.0 0.0 7.4065
%ENDBLOCK LATTICE_CART

%BLOCK POSITIONS_FRAC
P           0.000000000000000    0.500000000000000    0.500000000000000 
P           0.500000000000000    0.500000000000000    0.000000000000000 
K           0.000000000000000    0.176542000000000    0.324302000000000 
K           0.000000000000000    0.500000000000000    0.000000000000000 
K           0.000000000000000    0.823458000000000    0.675698000000000 
K           0.500000000000000    0.176542000000000    0.175698000000000 
K           0.500000000000000    0.500000000000000    0.500000000000000 
K           0.500000000000000    0.823458000000000    0.824302000000000 
%ENDBLOCK POSITIONS_FRAC
