# Cell file generated by matador (Matthew Evans 2016)

%BLOCK LATTICE_CART
8.20254 0.0 0.0
-4.10127 7.10361 0.0
0.0 0.0 15.3481
%ENDBLOCK LATTICE_CART

%BLOCK POSITIONS_FRAC
P           0.000000000000000    0.000000000000000    0.624558000000000 
P           0.000000000000000    0.000000000000000    0.978809000000000 
P           0.333333000000000    0.666667000000000    0.291225000000000 
P           0.333333000000000    0.666667000000000    0.645476000000000 
P           0.666667000000000    0.333333000000000    0.312143000000000 
P           0.666667000000000    0.333333000000000    0.957891000000000 
K           0.168257000000000    0.336513000000000    0.350720000000000 
K           0.168257000000000    0.831743000000000    0.350720000000000 
K           0.201438000000000    0.402876000000000    0.857307000000000 
K           0.201438000000000    0.798562000000000    0.857307000000000 
K           0.263791000000000    0.131895000000000    0.190640000000000 
K           0.330154000000000    0.165077000000000    0.684053000000000 
K           0.501590000000000    0.003180000000000    0.017386000000000 
K           0.501590000000000    0.498410000000000    0.017386000000000 
K           0.534771000000000    0.069543000000000    0.523973000000000 
K           0.534771000000000    0.465229000000000    0.523973000000000 
K           0.597124000000000    0.798562000000000    0.857307000000000 
K           0.663487000000000    0.831743000000000    0.350720000000000 
K           0.834923000000000    0.165077000000000    0.684053000000000 
K           0.834923000000000    0.669846000000000    0.684053000000000 
K           0.868105000000000    0.131895000000000    0.190640000000000 
K           0.868105000000000    0.736209000000000    0.190640000000000 
K           0.930457000000000    0.465229000000000    0.523973000000000 
K           0.996820000000000    0.498410000000000    0.017386000000000 
%ENDBLOCK POSITIONS_FRAC
