# Cell file generated by matador (Matthew Evans 2016)

%BLOCK LATTICE_CART
7.87329 0.0 0.0
0.0 7.87329 0.0
0.0 0.0 7.87329
%ENDBLOCK LATTICE_CART

%BLOCK POSITIONS_FRAC
P           0.047610000000000    0.047610000000000    0.047610000000000 
P           0.047610000000000    0.952390000000000    0.952390000000000 
P           0.452390000000000    0.452390000000000    0.452390000000000 
P           0.452390000000000    0.547610000000000    0.547610000000000 
P           0.547610000000000    0.452390000000000    0.547610000000000 
P           0.547610000000000    0.547610000000000    0.452390000000000 
P           0.952390000000000    0.047610000000000    0.952390000000000 
P           0.952390000000000    0.952390000000000    0.047610000000000 
K           0.000000000000000    0.000000000000000    0.500000000000000 
K           0.000000000000000    0.500000000000000    0.000000000000000 
K           0.000000000000000    0.500000000000000    0.500000000000000 
K           0.250000000000000    0.250000000000000    0.250000000000000 
K           0.250000000000000    0.750000000000000    0.750000000000000 
K           0.500000000000000    0.000000000000000    0.000000000000000 
K           0.500000000000000    0.000000000000000    0.500000000000000 
K           0.500000000000000    0.500000000000000    0.000000000000000 
K           0.750000000000000    0.250000000000000    0.750000000000000 
K           0.750000000000000    0.750000000000000    0.250000000000000 
%ENDBLOCK POSITIONS_FRAC
