# Cell file generated by matador (Matthew Evans 2016)

%BLOCK LATTICE_CART
9.6815 0.0 0.0
-4.84075 8.38442 0.0
0.0 0.0 8.35231
%ENDBLOCK LATTICE_CART

%BLOCK POSITIONS_FRAC
P           0.000000000000000    0.000000000000000    0.000000000000000 
P           0.124548000000000    0.359266000000000    0.500000000000000 
P           0.234719000000000    0.875452000000000    0.500000000000000 
P           0.640734000000000    0.765281000000000    0.500000000000000 
K           0.000000000000000    0.000000000000000    0.500000000000000 
K           0.036177000000000    0.509039000000000    0.500000000000000 
K           0.262760000000000    0.128035000000000    0.000000000000000 
K           0.333333000000000    0.666667000000000    0.000000000000000 
K           0.343563000000000    0.183529000000000    0.500000000000000 
K           0.472862000000000    0.963823000000000    0.500000000000000 
K           0.490961000000000    0.527138000000000    0.500000000000000 
K           0.666667000000000    0.333333000000000    0.000000000000000 
K           0.816471000000000    0.160035000000000    0.500000000000000 
K           0.839965000000000    0.656437000000000    0.500000000000000 
K           0.865274000000000    0.737240000000000    0.000000000000000 
K           0.871965000000000    0.134726000000000    0.000000000000000 
%ENDBLOCK POSITIONS_FRAC
