# Cell file generated by matador (Matthew Evans 2016)

%BLOCK LATTICE_CART
10.676 0.0 0.0
-5.33801 9.2457 0.0
0.0 0.0 9.77362
%ENDBLOCK LATTICE_CART

%BLOCK POSITIONS_FRAC
P           0.000000000000000    0.345333000000000    0.680973000000000 
P           0.000000000000000    0.654667000000000    0.180973000000000 
P           0.345333000000000    0.000000000000000    0.680973000000000 
P           0.345333000000000    0.345333000000000    0.180973000000000 
P           0.654667000000000    0.000000000000000    0.180973000000000 
P           0.654667000000000    0.654667000000000    0.680973000000000 
K           0.000000000000000    0.160847000000000    0.661957000000000 
K           0.000000000000000    0.251396000000000    0.373382000000000 
K           0.000000000000000    0.430645000000000    0.034973000000000 
K           0.000000000000000    0.569355000000000    0.534973000000000 
K           0.000000000000000    0.748604000000000    0.873382000000000 
K           0.000000000000000    0.839153000000000    0.161957000000000 
K           0.160847000000000    0.000000000000000    0.661957000000000 
K           0.160847000000000    0.160847000000000    0.161957000000000 
K           0.251396000000000    0.000000000000000    0.373382000000000 
K           0.251396000000000    0.251396000000000    0.873382000000000 
K           0.430645000000000    0.000000000000000    0.034973000000000 
K           0.430645000000000    0.430645000000000    0.534973000000000 
K           0.569355000000000    0.000000000000000    0.534973000000000 
K           0.569355000000000    0.569355000000000    0.034973000000000 
K           0.748604000000000    0.000000000000000    0.873382000000000 
K           0.748604000000000    0.748604000000000    0.373382000000000 
K           0.839153000000000    0.000000000000000    0.161957000000000 
K           0.839153000000000    0.839153000000000    0.661957000000000 
%ENDBLOCK POSITIONS_FRAC
