# Cell file generated by matador (Matthew Evans 2016)

%BLOCK LATTICE_CART
8.40936 -0.0 0.0
-4.20468 7.28272 0.0
0.0 0.0 10.5992
%ENDBLOCK LATTICE_CART

%BLOCK POSITIONS_FRAC
P           0.000000000000000    0.000000000000000    0.250000000000000 
P           0.000000000000000    0.000000000000000    0.750000000000000 
P           0.333333000000000    0.666667000000000    0.750000000000000 
P           0.666667000000000    0.333333000000000    0.250000000000000 
K           0.000000000000000    0.500000000000000    0.000000000000000 
K           0.000000000000000    0.500000000000000    0.500000000000000 
K           0.140392000000000    0.299667000000000    0.250000000000000 
K           0.159275000000000    0.859608000000000    0.250000000000000 
K           0.299667000000000    0.159275000000000    0.750000000000000 
K           0.500000000000000    0.000000000000000    0.000000000000000 
K           0.500000000000000    0.000000000000000    0.500000000000000 
K           0.500000000000000    0.500000000000000    0.000000000000000 
K           0.500000000000000    0.500000000000000    0.500000000000000 
K           0.700333000000000    0.840725000000000    0.250000000000000 
K           0.840725000000000    0.140392000000000    0.750000000000000 
K           0.859608000000000    0.700333000000000    0.750000000000000 
%ENDBLOCK POSITIONS_FRAC
