# Cell file generated by matador (Matthew Evans 2016)

%BLOCK LATTICE_CART
5.79926 0.0 0.0
0.0 8.28134 0.0
-3.67613 0.0 8.8355
%ENDBLOCK LATTICE_CART

%BLOCK POSITIONS_FRAC
P           0.067403000000000   -0.000000000000000    0.394709000000000 
P           0.080193000000000    0.500000000000000    0.522326000000000 
P           0.279827000000000   -0.000000000000000    0.678471000000000 
P           0.567403000000000    0.500000000000000    0.394709000000000 
P           0.580193000000000   -0.000000000000000    0.522326000000000 
P           0.779827000000000    0.500000000000000    0.678471000000000 
K           0.006329000000000   -0.000000000000000    0.961881000000000 
K           0.372539000000000    0.500000000000000    0.158391000000000 
K           0.475485000000000   -0.000000000000000    0.038646000000000 
K           0.495752000000000   -0.000000000000000    0.269661000000000 
K           0.506329000000000    0.500000000000000    0.961881000000000 
K           0.872539000000000   -0.000000000000000    0.158391000000000 
K           0.975485000000000    0.500000000000000    0.038646000000000 
K           0.995752000000000    0.500000000000000    0.269661000000000 
%ENDBLOCK POSITIONS_FRAC
