# Cell file generated by matador (Matthew Evans 2016)

%BLOCK LATTICE_CART
8.86718 0.0 0.0
0.0 7.57995 0.0
0.0 0.0 8.28502
%ENDBLOCK LATTICE_CART

%BLOCK POSITIONS_FRAC
P           0.274295000000000    0.500000000000000    0.500000000000000 
P           0.500000000000000    0.500000000000000    0.263297000000000 
P           0.500000000000000    0.500000000000000    0.736703000000000 
P           0.725705000000000    0.500000000000000    0.500000000000000 
K           0.000000000000000    0.000000000000000    0.000000000000000 
K           0.000000000000000    0.000000000000000    0.500000000000000 
K           0.000000000000000    0.500000000000000    0.000000000000000 
K           0.000000000000000    0.500000000000000    0.500000000000000 
K           0.110757000000000    0.231218000000000    0.874673000000000 
K           0.110757000000000    0.768782000000000    0.125327000000000 
K           0.172710000000000    0.054587000000000    0.174547000000000 
K           0.172710000000000    0.945413000000000    0.825453000000000 
K           0.500000000000000    0.500000000000000    0.000000000000000 
K           0.500000000000000    0.500000000000000    0.500000000000000 
K           0.827290000000000    0.054587000000000    0.825453000000000 
K           0.827290000000000    0.945413000000000    0.174547000000000 
K           0.889243000000000    0.231218000000000    0.125327000000000 
K           0.889243000000000    0.768782000000000    0.874673000000000 
%ENDBLOCK POSITIONS_FRAC
