# Cell file generated by matador (Matthew Evans 2016)

%BLOCK LATTICE_CART
13.3068 0.0 0.0
-6.65338 11.524 0.0
0.0 0.0 6.10479
%ENDBLOCK LATTICE_CART

%BLOCK POSITIONS_FRAC
P           0.000000000000000    0.000000000000000    0.500000000000000 
P           0.000000000000000    0.500000000000000    0.000000000000000 
P           0.333333000000000    0.666667000000000    0.000000000000000 
P           0.500000000000000    0.000000000000000    0.000000000000000 
P           0.500000000000000    0.500000000000000    0.000000000000000 
P           0.666667000000000    0.333333000000000    0.000000000000000 
K           0.000000000000000    0.000000000000000    0.000000000000000 
K           0.000000000000000    0.500000000000000    0.500000000000000 
K           0.011104000000000    0.713854000000000    0.000000000000000 
K           0.187684000000000    0.403065000000000    0.500000000000000 
K           0.215381000000000    0.812316000000000    0.500000000000000 
K           0.286146000000000    0.297250000000000    0.000000000000000 
K           0.297250000000000    0.011104000000000    0.000000000000000 
K           0.333333000000000    0.666667000000000    0.500000000000000 
K           0.403065000000000    0.215381000000000    0.500000000000000 
K           0.500000000000000    0.000000000000000    0.500000000000000 
K           0.500000000000000    0.500000000000000    0.500000000000000 
K           0.596935000000000    0.784619000000000    0.500000000000000 
K           0.666667000000000    0.333333000000000    0.500000000000000 
K           0.702750000000000    0.988896000000000    0.000000000000000 
K           0.713854000000000    0.702750000000000    0.000000000000000 
K           0.784619000000000    0.187684000000000    0.500000000000000 
K           0.812316000000000    0.596935000000000    0.500000000000000 
K           0.988896000000000    0.286146000000000    0.000000000000000 
%ENDBLOCK POSITIONS_FRAC
