# Cell file generated by matador (Matthew Evans 2016)

%BLOCK LATTICE_CART
5.35922 0.0 0.0
0.0 5.35922 0.0
0.0 0.0 9.04018
%ENDBLOCK LATTICE_CART

%BLOCK POSITIONS_FRAC
P           0.000000000000000    0.500000000000000    0.811236000000000 
P           0.500000000000000    0.000000000000000    0.811236000000000 
K           0.000000000000000    0.000000000000000    0.374900000000000 
K           0.000000000000000    0.000000000000000    0.974976000000000 
K           0.000000000000000    0.500000000000000    0.290687000000000 
K           0.500000000000000    0.000000000000000    0.290687000000000 
K           0.500000000000000    0.500000000000000    0.762669000000000 
%ENDBLOCK POSITIONS_FRAC
