# Cell file generated by matador (Matthew Evans 2016)

%BLOCK LATTICE_CART
7.25901 0.0 0.0
-3.62951 6.28649 0.0
0.0 0.0 7.28764
%ENDBLOCK LATTICE_CART

%BLOCK POSITIONS_FRAC
P           0.000000000000000    0.000000000000000    0.603120000000000 
P           0.000000000000000    0.500000000000000    0.751928000000000 
P           0.500000000000000    0.000000000000000    0.751928000000000 
P           0.500000000000000    0.500000000000000    0.751928000000000 
K           0.000000000000000    0.500000000000000    0.087511000000000 
K           0.333333000000000    0.666667000000000    0.038962000000000 
K           0.500000000000000    0.000000000000000    0.087511000000000 
K           0.500000000000000    0.500000000000000    0.087511000000000 
K           0.666667000000000    0.333333000000000    0.038962000000000 
%ENDBLOCK POSITIONS_FRAC
