# Cell file generated by matador (Matthew Evans 2016)

%BLOCK LATTICE_CART
8.67573 0.0 0.0
0.0 8.67573 0.0
0.0 0.0 7.23072
%ENDBLOCK LATTICE_CART

%BLOCK POSITIONS_FRAC
P           0.075940000000000    0.687651000000000    0.868896000000000 
P           0.163592000000000    0.663592000000000    0.000000000000000 
P           0.187651000000000    0.575940000000000    0.131104000000000 
P           0.312349000000000    0.075940000000000    0.131104000000000 
P           0.336408000000000    0.163592000000000    0.000000000000000 
P           0.424060000000000    0.187651000000000    0.868896000000000 
P           0.575940000000000    0.812349000000000    0.868896000000000 
P           0.663592000000000    0.836408000000000    0.000000000000000 
P           0.687651000000000    0.924060000000000    0.131104000000000 
P           0.812349000000000    0.424060000000000    0.131104000000000 
P           0.836408000000000    0.336408000000000    0.000000000000000 
P           0.924060000000000    0.312349000000000    0.868896000000000 
K           0.000000000000000    0.000000000000000    0.000000000000000 
K           0.000000000000000    0.000000000000000    0.500000000000000 
K           0.000000000000000    0.500000000000000    0.000000000000000 
K           0.000000000000000    0.500000000000000    0.500000000000000 
K           0.500000000000000    0.000000000000000    0.000000000000000 
K           0.500000000000000    0.000000000000000    0.500000000000000 
K           0.500000000000000    0.500000000000000    0.000000000000000 
K           0.500000000000000    0.500000000000000    0.500000000000000 
%ENDBLOCK POSITIONS_FRAC
