# Cell file generated by matador (Matthew Evans 2016)

%BLOCK LATTICE_CART
12.2088 0.0 0.0
-6.10438 10.5731 0.0
0.0 0.0 8.86957
%ENDBLOCK LATTICE_CART

%BLOCK POSITIONS_FRAC
P           0.000000000000000    0.000000000000000    0.248542000000000 
P           0.000000000000000    0.904218000000000    0.909342000000000 
P           0.095782000000000    0.095782000000000    0.909342000000000 
P           0.333333000000000    0.666667000000000    0.115626000000000 
P           0.333333000000000    0.666667000000000    0.519859000000000 
P           0.666667000000000    0.333333000000000    0.115626000000000 
P           0.666667000000000    0.333333000000000    0.519859000000000 
P           0.904218000000000    0.000000000000000    0.909342000000000 
K           0.000000000000000    0.226661000000000    0.065853000000000 
K           0.000000000000000    0.279101000000000    0.393582000000000 
K           0.000000000000000    0.331728000000000    0.763197000000000 
K           0.000000000000000    0.514048000000000    0.479967000000000 
K           0.000000000000000    0.561995000000000    0.867354000000000 
K           0.000000000000000    0.726932000000000    0.118321000000000 
K           0.000000000000000    0.789841000000000    0.755273000000000 
K           0.000000000000000    0.858654000000000    0.437186000000000 
K           0.141346000000000    0.141346000000000    0.437186000000000 
K           0.210159000000000    0.210159000000000    0.755273000000000 
K           0.226661000000000    0.000000000000000    0.065853000000000 
K           0.273068000000000    0.273068000000000    0.118321000000000 
K           0.279101000000000    0.000000000000000    0.393582000000000 
K           0.331728000000000    0.000000000000000    0.763197000000000 
K           0.438005000000000    0.438005000000000    0.867354000000000 
K           0.485952000000000    0.485952000000000    0.479967000000000 
K           0.514048000000000    0.000000000000000    0.479967000000000 
K           0.561995000000000    0.000000000000000    0.867354000000000 
K           0.668272000000000    0.668272000000000    0.763197000000000 
K           0.720899000000000    0.720899000000000    0.393582000000000 
K           0.726932000000000    0.000000000000000    0.118321000000000 
K           0.773339000000000    0.773339000000000    0.065853000000000 
K           0.789841000000000    0.000000000000000    0.755273000000000 
K           0.858654000000000    0.000000000000000    0.437186000000000 
%ENDBLOCK POSITIONS_FRAC
