# Cell file generated by matador (Matthew Evans 2016)

%BLOCK LATTICE_CART
9.37611 0.0 0.0
-4.68806 8.11995 0.0
0.0 0.0 5.51261
%ENDBLOCK LATTICE_CART

%BLOCK POSITIONS_FRAC
P           0.024943000000000    0.299350000000000    0.000000000000000 
P           0.053286000000000    0.406166000000000    0.500000000000000 
P           0.274406000000000    0.975057000000000    0.000000000000000 
P           0.333333000000000    0.666667000000000    0.500000000000000 
P           0.352880000000000    0.946714000000000    0.500000000000000 
P           0.593834000000000    0.647120000000000    0.500000000000000 
P           0.700650000000000    0.725594000000000    0.000000000000000 
K           0.163227000000000    0.675528000000000    0.000000000000000 
K           0.324472000000000    0.487699000000000    0.000000000000000 
K           0.455060000000000    0.314294000000000    0.000000000000000 
K           0.512301000000000    0.836773000000000    0.000000000000000 
K           0.685706000000000    0.140765000000000    0.000000000000000 
K           0.859235000000000    0.544940000000000    0.000000000000000 
%ENDBLOCK POSITIONS_FRAC
