# Cell file generated by matador (Matthew Evans 2016)

%BLOCK LATTICE_CART
5.88703 0.0 0.0
-2.94351 5.09832 0.0
0.0 0.0 10.527
%ENDBLOCK LATTICE_CART

%BLOCK POSITIONS_FRAC
P           0.494061000000000    0.139665000000000    0.837597000000000 
P           0.494061000000000    0.354395000000000    0.162403000000000 
P           0.645605000000000    0.139665000000000    0.162403000000000 
P           0.645605000000000    0.505939000000000    0.837597000000000 
P           0.860335000000000    0.354395000000000    0.837597000000000 
P           0.860335000000000    0.505939000000000    0.162403000000000 
K           0.000000000000000    0.000000000000000    0.000000000000000 
K           0.333333000000000    0.666667000000000    0.000000000000000 
K           0.666667000000000    0.333333000000000    0.000000000000000 
K           0.666667000000000    0.333333000000000    0.500000000000000 
%ENDBLOCK POSITIONS_FRAC
