# Cell file generated by matador (Matthew Evans 2016)

%BLOCK LATTICE_CART
7.44613 0.0 0.0
0.0 7.5195 0.0
0.0 0.0 9.03501
%ENDBLOCK LATTICE_CART

%BLOCK POSITIONS_FRAC
P           0.162580000000000    0.092094000000000    0.415720000000000 
P           0.162580000000000    0.907906000000000    0.415720000000000 
P           0.226819000000000    0.118039000000000    0.987023000000000 
P           0.226819000000000    0.881961000000000    0.987023000000000 
P           0.273181000000000    0.381961000000000    0.487023000000000 
P           0.273181000000000    0.618039000000000    0.487023000000000 
P           0.337420000000000    0.407906000000000    0.915720000000000 
P           0.337420000000000    0.592094000000000    0.915720000000000 
P           0.662580000000000    0.407906000000000    0.915720000000000 
P           0.662580000000000    0.592094000000000    0.915720000000000 
P           0.726819000000000    0.381961000000000    0.487023000000000 
P           0.726819000000000    0.618039000000000    0.487023000000000 
P           0.773181000000000    0.118039000000000    0.987023000000000 
P           0.773181000000000    0.881961000000000    0.987023000000000 
P           0.837420000000000    0.092094000000000    0.415720000000000 
P           0.837420000000000    0.907906000000000    0.415720000000000 
K           0.176146000000000    0.500000000000000    0.695680000000000 
K           0.323854000000000    0.000000000000000    0.195680000000000 
K           0.676146000000000    0.000000000000000    0.195680000000000 
K           0.823854000000000    0.500000000000000    0.695680000000000 
%ENDBLOCK POSITIONS_FRAC
