# Cell file generated by matador (Matthew Evans 2016)

%BLOCK LATTICE_CART
7.44083 0.0 0.0
-3.72042 6.44395 0.0
0.0 0.0 13.7164
%ENDBLOCK LATTICE_CART

%BLOCK POSITIONS_FRAC
P           0.007685000000000    0.224768000000000    0.073401000000000 
P           0.007685000000000    0.782917000000000    0.073401000000000 
P           0.217083000000000    0.224768000000000    0.073401000000000 
P           0.217083000000000    0.992315000000000    0.073401000000000 
P           0.375518000000000    0.115838000000000    0.954556000000000 
P           0.375518000000000    0.259680000000000    0.954556000000000 
P           0.740320000000000    0.115838000000000    0.954556000000000 
P           0.740320000000000    0.624482000000000    0.954556000000000 
P           0.775232000000000    0.782917000000000    0.073401000000000 
P           0.775232000000000    0.992315000000000    0.073401000000000 
P           0.884162000000000    0.259680000000000    0.954556000000000 
P           0.884162000000000    0.624482000000000    0.954556000000000 
K           0.333333000000000    0.666667000000000    0.016450000000000 
K           0.548374000000000    0.096749000000000    0.602370000000000 
K           0.548374000000000    0.451626000000000    0.602370000000000 
K           0.550886000000000    0.101772000000000    0.306002000000000 
K           0.550886000000000    0.449114000000000    0.306002000000000 
K           0.666666000000000    0.333334000000000    0.459754000000000 
K           0.898228000000000    0.449114000000000    0.306002000000000 
K           0.903251000000000    0.451626000000000    0.602370000000000 
%ENDBLOCK POSITIONS_FRAC
