# Cell file generated by matador (Matthew Evans 2016)

%BLOCK LATTICE_CART
8.0924 0.0 0.0
0.0 6.88027 0.0
0.0 0.0 8.20831
%ENDBLOCK LATTICE_CART

%BLOCK POSITIONS_FRAC
P           0.000000000000000    0.500000000000000    0.000000000000000 
P           0.000000000000000    0.500000000000000    0.500000000000000 
P           0.500000000000000    0.500000000000000    0.000000000000000 
P           0.500000000000000    0.500000000000000    0.500000000000000 
K           0.000000000000000    0.095774000000000    0.395326000000000 
K           0.000000000000000    0.202027000000000    0.875408000000000 
K           0.000000000000000    0.797973000000000    0.124592000000000 
K           0.000000000000000    0.904226000000000    0.604674000000000 
K           0.250000000000000    0.396673000000000    0.250000000000000 
K           0.250000000000000    0.603327000000000    0.750000000000000 
K           0.500000000000000    0.095774000000000    0.104674000000000 
K           0.500000000000000    0.202027000000000    0.624592000000000 
K           0.500000000000000    0.797973000000000    0.375408000000000 
K           0.500000000000000    0.904226000000000    0.895326000000000 
K           0.750000000000000    0.396673000000000    0.250000000000000 
K           0.750000000000000    0.603327000000000    0.750000000000000 
%ENDBLOCK POSITIONS_FRAC
