# Cell file generated by matador (Matthew Evans 2016)

%BLOCK LATTICE_CART
7.71061 0.0 0.0
0.0 6.30134 0.0
0.0 0.0 6.18028
%ENDBLOCK LATTICE_CART

%BLOCK POSITIONS_FRAC
P           0.000000000000000    0.500000000000000    0.012190000000000 
P           0.500000000000000    0.000000000000000    0.976289000000000 
K           0.000000000000000    0.253651000000000    0.416393000000000 
K           0.000000000000000    0.746349000000000    0.416393000000000 
K           0.275322000000000    0.500000000000000    0.664766000000000 
K           0.301515000000000    0.000000000000000    0.223863000000000 
K           0.698485000000000    0.000000000000000    0.223863000000000 
K           0.724678000000000    0.500000000000000    0.664766000000000 
%ENDBLOCK POSITIONS_FRAC
