# Cell file generated by matador (Matthew Evans 2016)

%BLOCK LATTICE_CART
7.58762 0.0 0.0
-3.79381 6.57107 0.0
0.0 0.0 8.67455
%ENDBLOCK LATTICE_CART

%BLOCK POSITIONS_FRAC
P          -0.000000000000000    0.000000000000000    0.000000000000000 
P          -0.000000000000000    0.000000000000000    0.134721000000000 
P          -0.000000000000000    0.000000000000000    0.250000000000000 
P          -0.000000000000000    0.000000000000000    0.365279000000000 
P          -0.000000000000000    0.000000000000000    0.500000000000000 
P          -0.000000000000000    0.000000000000000    0.634721000000000 
P          -0.000000000000000    0.000000000000000    0.750000000000000 
P          -0.000000000000000    0.000000000000000    0.865279000000000 
P           0.333333000000000    0.666667000000000    0.750000000000000 
P           0.666667000000000    0.333333000000000    0.250000000000000 
K          -0.000000000000000    0.282706000000000    0.500000000000000 
K          -0.000000000000000    0.717294000000000    0.000000000000000 
K           0.282706000000000    0.000000000000000    0.500000000000000 
K           0.282706000000000    0.282706000000000    0.000000000000000 
K           0.333333000000000    0.666667000000000    0.250000000000000 
K           0.666667000000000    0.333333000000000    0.750000000000000 
K           0.717294000000000    0.000000000000000    0.000000000000000 
K           0.717294000000000    0.717294000000000    0.500000000000000 
%ENDBLOCK POSITIONS_FRAC
