# Cell file generated by matador (Matthew Evans 2016)

%BLOCK LATTICE_CART
6.38118 0.0 0.0
0.0 6.88879 0.0
0.0 0.0 8.1766
%ENDBLOCK LATTICE_CART

%BLOCK POSITIONS_FRAC
P           0.239403000000000    0.000000000000000    0.500000000000000 
P           0.260597000000000    0.500000000000000    0.000000000000000 
P           0.739403000000000    0.500000000000000    0.000000000000000 
P           0.760597000000000    0.000000000000000    0.500000000000000 
K           0.000000000000000    0.000000000000000    0.000000000000000 
K           0.250000000000000    0.250000000000000    0.250000000000000 
K           0.250000000000000    0.250000000000000    0.750000000000000 
K           0.250000000000000    0.750000000000000    0.250000000000000 
K           0.250000000000000    0.750000000000000    0.750000000000000 
K           0.500000000000000    0.500000000000000    0.500000000000000 
K           0.750000000000000    0.250000000000000    0.250000000000000 
K           0.750000000000000    0.250000000000000    0.750000000000000 
K           0.750000000000000    0.750000000000000    0.250000000000000 
K           0.750000000000000    0.750000000000000    0.750000000000000 
%ENDBLOCK POSITIONS_FRAC
