# Cell file generated by matador (Matthew Evans 2016)

%BLOCK LATTICE_CART
7.89158 -0.0 0.0
-3.94579 6.83431 0.0
0.0 0.0 7.84968
%ENDBLOCK LATTICE_CART

%BLOCK POSITIONS_FRAC
P           0.333333000000000    0.666667000000000    0.769327000000000 
P           0.666666000000000    0.333334000000000    0.947845000000000 
K          -0.000000000000000    0.000000000000000    0.452210000000000 
K           0.012838000000000    0.587850000000000    0.138899000000000 
K           0.333333000000000    0.666667000000000    0.196236000000000 
K           0.403041000000000    0.364978000000000    0.831331000000000 
K           0.412150000000000    0.424989000000000    0.138899000000000 
K           0.575011000000000    0.987162000000000    0.138899000000000 
K           0.635022000000000    0.038063000000000    0.831331000000000 
K           0.961937000000000    0.596959000000000    0.831331000000000 
%ENDBLOCK POSITIONS_FRAC
