# Cell file generated by matador (Matthew Evans 2016)

%BLOCK LATTICE_CART
7.28258 0.0 0.0
0.0 7.28258 0.0
0.0 0.0 8.33385
%ENDBLOCK LATTICE_CART

%BLOCK POSITIONS_FRAC
P           0.000000000000000    0.000000000000000    0.030322000000000 
P           0.000000000000000    0.000000000000000    0.320534000000000 
P           0.000000000000000    0.000000000000000    0.530322000000000 
P           0.000000000000000    0.000000000000000    0.820534000000000 
P           0.000000000000000    0.240448000000000    0.394563000000000 
P           0.000000000000000    0.759552000000000    0.394563000000000 
P           0.231072000000000    0.500000000000000    0.384115000000000 
P           0.240448000000000    0.000000000000000    0.894563000000000 
P           0.500000000000000    0.231072000000000    0.884115000000000 
P           0.500000000000000    0.500000000000000    0.001455000000000 
P           0.500000000000000    0.500000000000000    0.501455000000000 
P           0.500000000000000    0.768928000000000    0.884115000000000 
P           0.759552000000000    0.000000000000000    0.894563000000000 
P           0.768928000000000    0.500000000000000    0.384115000000000 
K           0.000000000000000    0.283306000000000    0.766839000000000 
K           0.000000000000000    0.716694000000000    0.766839000000000 
K           0.283306000000000    0.000000000000000    0.266839000000000 
K           0.716694000000000    0.000000000000000    0.266839000000000 
%ENDBLOCK POSITIONS_FRAC
