# Cell file generated by matador (Matthew Evans 2016)

%BLOCK LATTICE_CART
6.57742 0.0 0.0
0.0 10.1174 0.0
0.241266 0.0 5.69268
%ENDBLOCK LATTICE_CART

%BLOCK POSITIONS_FRAC
P           0.000000000000000    0.237136000000000    0.500000000000000 
P           0.000000000000000    0.240555000000000    0.000000000000000 
P           0.000000000000000    0.448379000000000    0.500000000000000 
P           0.000000000000000    0.518220000000000    0.000000000000000 
P           0.000000000000000    0.924196000000000    0.000000000000000 
P           0.006867000000000    0.107632000000000    0.774460000000000 
P           0.341292000000000    0.190747000000000    0.654558000000000 
P           0.500000000000000    0.784520000000000    0.000000000000000 
P           0.658708000000000    0.190747000000000    0.345442000000000 
P           0.993133000000000    0.107632000000000    0.225540000000000 
K           0.000000000000000    0.817801000000000    0.500000000000000 
K           0.413188000000000    0.470842000000000    0.360057000000000 
K           0.500000000000000    0.292895000000000    0.000000000000000 
K           0.586812000000000    0.470842000000000    0.639943000000000 
%ENDBLOCK POSITIONS_FRAC
