# Cell file generated by matador (Matthew Evans 2016)

%BLOCK LATTICE_CART
8.19406 0.0 0.0
-4.09703 7.09627 0.0
0.0 0.0 15.5744
%ENDBLOCK LATTICE_CART

%BLOCK POSITIONS_FRAC
P           0.000000000000000    0.000000000000000    0.283477000000000 
P           0.000000000000000    0.000000000000000    0.526543000000000 
P           0.333333000000000    0.666667000000000    0.193210000000000 
P           0.333333000000000    0.666667000000000    0.950144000000000 
P           0.666667000000000    0.333333000000000    0.616810000000000 
P           0.666667000000000    0.333333000000000    0.859876000000000 
K           0.065855000000000    0.532927000000000    0.514526000000000 
K           0.133739000000000    0.267479000000000    0.847859000000000 
K           0.133739000000000    0.866261000000000    0.847859000000000 
K           0.189554000000000    0.379108000000000    0.064146000000000 
K           0.189554000000000    0.810446000000000    0.064146000000000 
K           0.287559000000000    0.143780000000000    0.397480000000000 
K           0.399188000000000    0.199594000000000    0.181192000000000 
K           0.467073000000000    0.532927000000000    0.514526000000000 
K           0.467073000000000    0.934145000000000    0.514526000000000 
K           0.522887000000000    0.045774000000000    0.730813000000000 
K           0.522887000000000    0.477113000000000    0.730813000000000 
K           0.620892000000000    0.810446000000000    0.064146000000000 
K           0.732521000000000    0.866261000000000    0.847859000000000 
K           0.800406000000000    0.199594000000000    0.181192000000000 
K           0.800406000000000    0.600812000000000    0.181192000000000 
K           0.856220000000000    0.143780000000000    0.397480000000000 
K           0.856220000000000    0.712441000000000    0.397480000000000 
K           0.954226000000000    0.477113000000000    0.730813000000000 
%ENDBLOCK POSITIONS_FRAC
