# Cell file generated by matador (Matthew Evans 2016)

%BLOCK LATTICE_CART
8.79087 0.0 0.0
-4.39543 7.61311 0.0
0.0 0.0 7.34747
%ENDBLOCK LATTICE_CART

%BLOCK POSITIONS_FRAC
P          -0.000000000000000   -0.000000000000000    0.840542000000000 
P           0.333333000000000    0.666667000000000    0.507209000000000 
P           0.666667000000000    0.333333000000000    0.173875000000000 
K           0.083404000000000    0.541702000000000    0.338720000000000 
K           0.124965000000000    0.249930000000000    0.672054000000000 
K           0.124965000000000    0.875035000000000    0.672054000000000 
K           0.416737000000000    0.208368000000000    0.005387000000000 
K           0.458298000000000    0.541702000000000    0.338720000000000 
K           0.458298000000000    0.916596000000000    0.338720000000000 
K           0.750070000000000    0.875035000000000    0.672054000000000 
K           0.791632000000000    0.208368000000000    0.005387000000000 
K           0.791632000000000    0.583263000000000    0.005387000000000 
%ENDBLOCK POSITIONS_FRAC
