# Cell file generated by matador (Matthew Evans 2016)

%BLOCK LATTICE_CART
7.77774 0.0 0.0
-3.88887 6.73572 0.0
0.0 0.0 7.36148
%ENDBLOCK LATTICE_CART

%BLOCK POSITIONS_FRAC
P           0.000000000000000    0.000000000000000    0.000000000000000 
P           0.091535000000000    0.715577000000000    0.500000000000000 
P           0.131844000000000    0.605087000000000    0.000000000000000 
P           0.284423000000000    0.375958000000000    0.500000000000000 
P           0.333333000000000    0.666667000000000    0.000000000000000 
P           0.375958000000000    0.284423000000000    0.500000000000000 
P           0.394913000000000    0.526756000000000    0.000000000000000 
P           0.473244000000000    0.868156000000000    0.000000000000000 
P           0.526756000000000    0.394913000000000    0.000000000000000 
P           0.605087000000000    0.131844000000000    0.000000000000000 
P           0.624042000000000    0.908465000000000    0.500000000000000 
P           0.666667000000000    0.333333000000000    0.000000000000000 
P           0.715577000000000    0.091535000000000    0.500000000000000 
P           0.868156000000000    0.473244000000000    0.000000000000000 
P           0.908465000000000    0.624042000000000    0.500000000000000 
K           0.000000000000000    0.000000000000000    0.500000000000000 
K           0.333333000000000    0.666667000000000    0.500000000000000 
K           0.666667000000000    0.333333000000000    0.500000000000000 
%ENDBLOCK POSITIONS_FRAC
