# Cell file generated by matador (Matthew Evans 2016)

%BLOCK LATTICE_CART
8.18571 0.0 0.0
-3.41177 9.80935 0.0
-2.29873 -0.0566078 4.3062
%ENDBLOCK LATTICE_CART

%BLOCK POSITIONS_FRAC
P           0.126285000000000    0.966327000000000    0.949393000000000 
P           0.341296000000000    0.114470000000000    0.480532000000000 
P           0.368765000000000    0.638354000000000    0.962719000000000 
P           0.631235000000000    0.361646000000000    0.037281000000000 
P           0.658704000000000    0.885530000000000    0.519468000000000 
P           0.873715000000000    0.033673000000000    0.050607000000000 
K           0.000000000000000    0.500000000000000    0.000000000000000 
K           0.000000000000000    0.500000000000000    0.500000000000000 
K           0.500000000000000    0.000000000000000    0.000000000000000 
K           0.500000000000000    0.000000000000000    0.500000000000000 
K           0.500000000000000    0.500000000000000    0.000000000000000 
%ENDBLOCK POSITIONS_FRAC
