# Cell file generated by matador (Matthew Evans 2016)

%BLOCK LATTICE_CART
5.75284 0.0 0.0
-2.87642 4.9821 0.0
0.0 0.0 6.92196
%ENDBLOCK LATTICE_CART

%BLOCK POSITIONS_FRAC
P           0.149083000000000    0.733524000000000    0.491033000000000 
P           0.266476000000000    0.415559000000000    0.491033000000000 
P           0.333333000000000    0.666667000000000    0.881220000000000 
P           0.584441000000000    0.850917000000000    0.491033000000000 
P           0.666667000000000    0.333333000000000    0.263730000000000 
K           0.000000000000000    0.000000000000000    0.797574000000000 
K           0.333333000000000    0.666667000000000    0.173162000000000 
%ENDBLOCK POSITIONS_FRAC
