# Cell file generated by matador (Matthew Evans 2016)

%BLOCK LATTICE_CART
7.11247 0.0 0.0
-0.668354 7.15913 0.0
-3.43454 -1.10647 8.55064
%ENDBLOCK LATTICE_CART

%BLOCK POSITIONS_FRAC
P           0.000000000000000    0.000000000000000    0.500000000000000 
P           0.000000000000000    0.500000000000000    0.000000000000000 
P           0.427923000000000    0.685355000000000    0.348114000000000 
P           0.500000000000000    0.000000000000000    0.000000000000000 
P           0.500000000000000    0.000000000000000    0.500000000000000 
P           0.572077000000000    0.314645000000000    0.651886000000000 
K           0.000000000000000    0.500000000000000    0.500000000000000 
K           0.153836000000000    0.235184000000000    0.034516000000000 
K           0.160624000000000    0.766691000000000    0.738406000000000 
K           0.264888000000000    0.231764000000000    0.599778000000000 
K           0.735112000000000    0.768236000000000    0.400222000000000 
K           0.839376000000000    0.233309000000000    0.261594000000000 
K           0.846164000000000    0.764816000000000    0.965484000000000 
%ENDBLOCK POSITIONS_FRAC
