# Cell file generated by matador (Matthew Evans 2016)

%BLOCK LATTICE_CART
5.58433 0.0 0.0
0.0 7.36332 0.0
0.0 0.0 5.99601
%ENDBLOCK LATTICE_CART

%BLOCK POSITIONS_FRAC
P           0.000000000000000    0.000000000000000    0.000000000000000 
P           0.500000000000000    0.000000000000000    0.166445000000000 
P           0.500000000000000    0.000000000000000    0.833555000000000 
K           0.000000000000000    0.000000000000000    0.500000000000000 
K           0.500000000000000    0.000000000000000    0.500000000000000 
K           0.500000000000000    0.500000000000000    0.000000000000000 
K           0.500000000000000    0.500000000000000    0.500000000000000 
%ENDBLOCK POSITIONS_FRAC
