# Cell file generated by matador (Matthew Evans 2016)

%BLOCK LATTICE_CART
6.94242 0.0 0.0
-3.47121 6.01231 0.0
0.0 0.0 8.16464
%ENDBLOCK LATTICE_CART

%BLOCK POSITIONS_FRAC
P           0.000000000000000    0.000000000000000    0.500000000000000 
P           0.666667000000000    0.333333000000000    0.500000000000000 
K           0.157370000000000    0.314740000000000    0.226232000000000 
K           0.157370000000000    0.314740000000000    0.773768000000000 
K           0.157370000000000    0.842630000000000    0.226232000000000 
K           0.157370000000000    0.842630000000000    0.773768000000000 
K           0.685260000000000    0.842630000000000    0.226232000000000 
K           0.685260000000000    0.842630000000000    0.773768000000000 
%ENDBLOCK POSITIONS_FRAC
