# Cell file generated by matador (Matthew Evans 2016)

%BLOCK LATTICE_CART
9.69688 0.0 0.0
-4.84844 8.39774 0.0
0.0 0.0 10.7011
%ENDBLOCK LATTICE_CART

%BLOCK POSITIONS_FRAC
P           0.000000000000000    0.000000000000000    0.578818000000000 
P           0.000000000000000    0.000000000000000    0.874038000000000 
P           0.333333000000000    0.666667000000000    0.245485000000000 
P           0.333333000000000    0.666667000000000    0.540704000000000 
P           0.666667000000000    0.333333000000000    0.207371000000000 
P           0.666667000000000    0.333333000000000    0.912152000000000 
K           0.209366000000000    0.104683000000000    0.251771000000000 
K           0.210019000000000    0.420039000000000    0.283814000000000 
K           0.210019000000000    0.789981000000000    0.283814000000000 
K           0.228651000000000    0.457301000000000    0.918437000000000 
K           0.228651000000000    0.771349000000000    0.918437000000000 
K           0.246628000000000    0.123314000000000    0.617147000000000 
K           0.542699000000000    0.771349000000000    0.918437000000000 
K           0.543353000000000    0.086706000000000    0.950480000000000 
K           0.543353000000000    0.456647000000000    0.950480000000000 
K           0.561984000000000    0.123968000000000    0.585104000000000 
K           0.561984000000000    0.438016000000000    0.585104000000000 
K           0.579961000000000    0.789981000000000    0.283814000000000 
K           0.876032000000000    0.438016000000000    0.585104000000000 
K           0.876686000000000    0.123314000000000    0.617147000000000 
K           0.876686000000000    0.753372000000000    0.617147000000000 
K           0.895317000000000    0.104683000000000    0.251771000000000 
K           0.895317000000000    0.790634000000000    0.251771000000000 
K           0.913294000000000    0.456647000000000    0.950480000000000 
%ENDBLOCK POSITIONS_FRAC
