# Cell file generated by matador (Matthew Evans 2016)

%BLOCK LATTICE_CART
8.39961 0.0 0.0
-4.1998 7.27427 0.0
0.0 0.0 7.50287
%ENDBLOCK LATTICE_CART

%BLOCK POSITIONS_FRAC
P          -0.000000000000000    0.000000000000000    0.000000000000000 
P           0.180004000000000    0.360007000000000    0.291291000000000 
P           0.180004000000000    0.360007000000000    0.708709000000000 
P           0.180004000000000    0.819996000000000    0.291291000000000 
P           0.180004000000000    0.819996000000000    0.708709000000000 
P           0.333333000000000    0.666667000000000    0.000000000000000 
P           0.333333000000000    0.666667000000000    0.500000000000000 
P           0.639993000000000    0.819996000000000    0.291291000000000 
P           0.639993000000000    0.819996000000000    0.708709000000000 
K           0.003242000000000    0.306807000000000    0.500000000000000 
K           0.003242000000000    0.696435000000000    0.500000000000000 
K           0.303565000000000    0.306807000000000    0.500000000000000 
K           0.303565000000000    0.996758000000000    0.500000000000000 
K           0.693193000000000    0.696435000000000    0.500000000000000 
K           0.693193000000000    0.996758000000000    0.500000000000000 
%ENDBLOCK POSITIONS_FRAC
