# Cell file generated by matador (Matthew Evans 2016)

%BLOCK LATTICE_CART
7.26736 0.0 0.0
0.0 6.35773 0.0
0.0 0.0 9.42055
%ENDBLOCK LATTICE_CART

%BLOCK POSITIONS_FRAC
P           0.000000000000000    0.500000000000000    0.021705000000000 
P           0.000000000000000    0.500000000000000    0.521705000000000 
P           0.289035000000000    0.316021000000000    0.662977000000000 
P           0.289035000000000    0.683979000000000    0.162977000000000 
P           0.710965000000000    0.316021000000000    0.162977000000000 
P           0.710965000000000    0.683979000000000    0.662977000000000 
K           0.000000000000000    0.000000000000000    0.318573000000000 
K           0.000000000000000    0.000000000000000    0.818573000000000 
K           0.476294000000000    0.240321000000000    0.865726000000000 
K           0.476294000000000    0.759679000000000    0.365726000000000 
K           0.500000000000000    0.000000000000000    0.133775000000000 
K           0.500000000000000    0.000000000000000    0.633775000000000 
K           0.500000000000000    0.500000000000000    0.082243000000000 
K           0.500000000000000    0.500000000000000    0.582243000000000 
K           0.523706000000000    0.240321000000000    0.365726000000000 
K           0.523706000000000    0.759679000000000    0.865726000000000 
%ENDBLOCK POSITIONS_FRAC
