# Cell file generated by matador (Matthew Evans 2016)

%BLOCK LATTICE_CART
5.90669 0.0 0.0
-0.477491 5.12694 0.0
1.91646 -0.361298 4.99023
%ENDBLOCK LATTICE_CART

%BLOCK POSITIONS_FRAC
P           0.000000000000000    0.000000000000000    0.000000000000000 
P           0.000000000000000    0.000000000000000    0.500000000000000 
P           0.000000000000000    0.500000000000000    0.500000000000000 
P           0.347563000000000    0.111370000000000    0.882538000000000 
P           0.500000000000000    0.000000000000000    0.000000000000000 
P           0.652437000000000    0.888630000000000    0.117462000000000 
K           0.500000000000000    0.500000000000000    0.000000000000000 
%ENDBLOCK POSITIONS_FRAC
