# Cell file generated by matador (Matthew Evans 2016)

%BLOCK LATTICE_CART
6.08419 0.0 0.0
0.0 6.08419 0.0
0.0 0.0 9.34447
%ENDBLOCK LATTICE_CART

%BLOCK POSITIONS_FRAC
P           0.371263000000000    0.583205000000000    0.367226000000000 
P           0.416795000000000    0.371263000000000    0.367226000000000 
P           0.583205000000000    0.628737000000000    0.367226000000000 
P           0.628737000000000    0.416795000000000    0.367226000000000 
K           0.000000000000000    0.500000000000000    0.109872000000000 
K           0.280726000000000    0.343597000000000    0.041001000000000 
K           0.343597000000000    0.719274000000000    0.041001000000000 
K           0.500000000000000    0.000000000000000    0.109872000000000 
K           0.500000000000000    0.500000000000000    0.761940000000000 
K           0.656403000000000    0.280726000000000    0.041001000000000 
K           0.719274000000000    0.656403000000000    0.041001000000000 
%ENDBLOCK POSITIONS_FRAC
