# Cell file generated by matador (Matthew Evans 2016)

%BLOCK LATTICE_CART
5.9154 0.0 0.0
-2.9577 5.12288 0.0
0.0 0.0 11.5352
%ENDBLOCK LATTICE_CART

%BLOCK POSITIONS_FRAC
P           0.000000000000000    0.000000000000000    0.500000000000000 
P           0.269567000000000    0.134784000000000    0.000000000000000 
P           0.865216000000000    0.134784000000000    0.000000000000000 
P           0.865216000000000    0.730433000000000    0.000000000000000 
K           0.333333000000000    0.666667000000000    0.000000000000000 
K           0.333333000000000    0.666667000000000    0.500000000000000 
K           0.666667000000000    0.333333000000000    0.000000000000000 
K           0.666667000000000    0.333333000000000    0.329242000000000 
K           0.666667000000000    0.333333000000000    0.500000000000000 
K           0.666667000000000    0.333333000000000    0.670758000000000 
%ENDBLOCK POSITIONS_FRAC
