# Cell file generated by matador (Matthew Evans 2016)

%BLOCK LATTICE_CART
8.64539 0.0 0.0
0.0 8.64539 0.0
0.0 0.0 6.64796
%ENDBLOCK LATTICE_CART

%BLOCK POSITIONS_FRAC
P           0.000000000000000    0.000000000000000    0.000000000000000 
P           0.164265000000000    0.679452000000000    0.213293000000000 
P           0.194200000000000    0.516205000000000    0.464821000000000 
P           0.320548000000000    0.164265000000000    0.786707000000000 
P           0.483795000000000    0.194200000000000    0.535179000000000 
P           0.500000000000000    0.500000000000000    0.000000000000000 
P           0.516205000000000    0.805800000000000    0.535179000000000 
P           0.679452000000000    0.835735000000000    0.786707000000000 
P           0.805800000000000    0.483795000000000    0.464821000000000 
P           0.835735000000000    0.320548000000000    0.213293000000000 
K           0.000000000000000    0.000000000000000    0.500000000000000 
K           0.165138000000000    0.668415000000000    0.837191000000000 
K           0.331585000000000    0.165138000000000    0.162809000000000 
K           0.500000000000000    0.500000000000000    0.500000000000000 
K           0.668415000000000    0.834862000000000    0.162809000000000 
K           0.834862000000000    0.331585000000000    0.837191000000000 
%ENDBLOCK POSITIONS_FRAC
