# Cell file generated by matador (Matthew Evans 2016)

%BLOCK LATTICE_CART
7.62116 0.0 0.0
-3.81058 6.60012 0.0
0.0 0.0 4.32565
%ENDBLOCK LATTICE_CART

%BLOCK POSITIONS_FRAC
P           0.140654000000000    0.281309000000000    0.825838000000000 
P           0.140654000000000    0.859346000000000    0.825838000000000 
P           0.281309000000000    0.140654000000000    0.174162000000000 
P           0.718691000000000    0.859346000000000    0.825838000000000 
P           0.859346000000000    0.140654000000000    0.174162000000000 
P           0.859346000000000    0.718691000000000    0.174162000000000 
K           0.000000000000000    0.000000000000000    0.000000000000000 
K           0.000000000000000    0.000000000000000    0.500000000000000 
%ENDBLOCK POSITIONS_FRAC
