# Cell file generated by matador (Matthew Evans 2016)

%BLOCK LATTICE_CART
6.22377 0.0 0.0
0.0 6.22377 0.0
0.0 0.0 8.60708
%ENDBLOCK LATTICE_CART

%BLOCK POSITIONS_FRAC
P           0.000000000000000    0.227571000000000    0.824525000000000 
P           0.000000000000000    0.500000000000000    0.236122000000000 
P           0.000000000000000    0.500000000000000    0.660977000000000 
P           0.000000000000000    0.500000000000000    0.916040000000000 
P           0.000000000000000    0.772429000000000    0.824525000000000 
P           0.227571000000000    0.000000000000000    0.824525000000000 
P           0.500000000000000    0.000000000000000    0.236122000000000 
P           0.500000000000000    0.000000000000000    0.660977000000000 
P           0.500000000000000    0.000000000000000    0.916040000000000 
P           0.500000000000000    0.500000000000000    0.499680000000000 
P           0.500000000000000    0.500000000000000    0.641849000000000 
P           0.772429000000000    0.000000000000000    0.824525000000000 
K           0.000000000000000    0.000000000000000    0.242184000000000 
K           0.000000000000000    0.000000000000000    0.548202000000000 
%ENDBLOCK POSITIONS_FRAC
