# Cell file generated by matador (Matthew Evans 2016)

%BLOCK LATTICE_CART
7.62449 0.0 0.0
0.0 7.62449 0.0
0.0 0.0 6.50201
%ENDBLOCK LATTICE_CART

%BLOCK POSITIONS_FRAC
P           0.000000000000000    0.000000000000000    0.000000000000000 
P           0.500000000000000    0.500000000000000    0.500000000000000 
K           0.000000000000000    0.000000000000000    0.500000000000000 
K           0.135548000000000    0.646299000000000    0.000000000000000 
K           0.146299000000000    0.635548000000000    0.500000000000000 
K           0.353701000000000    0.135548000000000    0.000000000000000 
K           0.364452000000000    0.146299000000000    0.500000000000000 
K           0.500000000000000    0.500000000000000    0.000000000000000 
K           0.635548000000000    0.853701000000000    0.500000000000000 
K           0.646299000000000    0.864452000000000    0.000000000000000 
K           0.853701000000000    0.364452000000000    0.500000000000000 
K           0.864452000000000    0.353701000000000    0.000000000000000 
%ENDBLOCK POSITIONS_FRAC
