# Cell file generated by matador (Matthew Evans 2016)

%BLOCK LATTICE_CART
8.74174 0.0 0.0
0.0 8.74174 0.0
0.0 0.0 14.6704
%ENDBLOCK LATTICE_CART

%BLOCK POSITIONS_FRAC
P           0.164575000000000    0.164575000000000    0.254174000000000 
P           0.164575000000000    0.835425000000000    0.254174000000000 
P           0.335425000000000    0.335425000000000    0.754174000000000 
P           0.335425000000000    0.664575000000000    0.754174000000000 
P           0.664575000000000    0.335425000000000    0.754174000000000 
P           0.664575000000000    0.664575000000000    0.754174000000000 
P           0.835425000000000    0.164575000000000    0.254174000000000 
P           0.835425000000000    0.835425000000000    0.254174000000000 
K           0.000000000000000    0.252310000000000    0.545765000000000 
K           0.000000000000000    0.747690000000000    0.545765000000000 
K           0.170381000000000    0.170381000000000    0.039967000000000 
K           0.170381000000000    0.829619000000000    0.039967000000000 
K           0.215795000000000    0.215795000000000    0.843590000000000 
K           0.215795000000000    0.784205000000000    0.843590000000000 
K           0.247690000000000    0.500000000000000    0.045765000000000 
K           0.252310000000000    0.000000000000000    0.545765000000000 
K           0.284205000000000    0.284205000000000    0.343590000000000 
K           0.284205000000000    0.715795000000000    0.343590000000000 
K           0.329619000000000    0.329619000000000    0.539968000000000 
K           0.329619000000000    0.670381000000000    0.539968000000000 
K           0.500000000000000    0.247690000000000    0.045765000000000 
K           0.500000000000000    0.752310000000000    0.045765000000000 
K           0.670381000000000    0.329619000000000    0.539968000000000 
K           0.670381000000000    0.670381000000000    0.539968000000000 
K           0.715795000000000    0.284205000000000    0.343590000000000 
K           0.715795000000000    0.715795000000000    0.343590000000000 
K           0.747690000000000    0.000000000000000    0.545765000000000 
K           0.752310000000000    0.500000000000000    0.045765000000000 
K           0.784205000000000    0.215795000000000    0.843590000000000 
K           0.784205000000000    0.784205000000000    0.843590000000000 
K           0.829619000000000    0.170381000000000    0.039967000000000 
K           0.829619000000000    0.829619000000000    0.039967000000000 
%ENDBLOCK POSITIONS_FRAC
