# Cell file generated by matador (Matthew Evans 2016)

%BLOCK LATTICE_CART
11.6686 0.0 0.0
0.0 11.6686 0.0
0.0 0.0 8.81286
%ENDBLOCK LATTICE_CART

%BLOCK POSITIONS_FRAC
P           0.122084000000000    0.877916000000000    0.239794000000000 
P           0.122084000000000    0.877916000000000    0.760206000000000 
P           0.377916000000000    0.377916000000000    0.260206000000000 
P           0.377916000000000    0.377916000000000    0.739794000000000 
P           0.622084000000000    0.622084000000000    0.260206000000000 
P           0.622084000000000    0.622084000000000    0.739794000000000 
P           0.877916000000000    0.122084000000000    0.239794000000000 
P           0.877916000000000    0.122084000000000    0.760206000000000 
K           0.086428000000000    0.399147000000000    0.000000000000000 
K           0.092654000000000    0.092654000000000    0.321448000000000 
K           0.092654000000000    0.092654000000000    0.678552000000000 
K           0.100853000000000    0.586428000000000    0.500000000000000 
K           0.234617000000000    0.765383000000000    0.332706000000000 
K           0.234617000000000    0.765383000000000    0.667294000000000 
K           0.265383000000000    0.265383000000000    0.167294000000000 
K           0.265383000000000    0.265383000000000    0.832706000000000 
K           0.399147000000000    0.086428000000000    0.000000000000000 
K           0.407346000000000    0.592654000000000    0.178552000000000 
K           0.407346000000000    0.592654000000000    0.821448000000000 
K           0.413572000000000    0.899147000000000    0.500000000000000 
K           0.586428000000000    0.100853000000000    0.500000000000000 
K           0.592654000000000    0.407346000000000    0.178552000000000 
K           0.592654000000000    0.407346000000000    0.821448000000000 
K           0.600853000000000    0.913572000000000    0.000000000000000 
K           0.734617000000000    0.734617000000000    0.167294000000000 
K           0.734617000000000    0.734617000000000    0.832706000000000 
K           0.765383000000000    0.234617000000000    0.332706000000000 
K           0.765383000000000    0.234617000000000    0.667294000000000 
K           0.899147000000000    0.413572000000000    0.500000000000000 
K           0.907346000000000    0.907346000000000    0.321448000000000 
K           0.907346000000000    0.907346000000000    0.678552000000000 
K           0.913572000000000    0.600853000000000    0.000000000000000 
%ENDBLOCK POSITIONS_FRAC
