# Cell file generated by matador (Matthew Evans 2016)

%BLOCK LATTICE_CART
8.50003 0.0 0.0
-4.25001 7.36124 0.0
0.0 0.0 10.1655
%ENDBLOCK LATTICE_CART

%BLOCK POSITIONS_FRAC
P           0.000000000000000    0.000000000000000    0.250000000000000 
P           0.000000000000000    0.000000000000000    0.750000000000000 
P           0.333333000000000    0.666667000000000    0.250000000000000 
P           0.666667000000000    0.333333000000000    0.750000000000000 
K           0.064468000000000    0.548470000000000    0.250000000000000 
K           0.111073000000000    0.267370000000000    0.750000000000000 
K           0.156297000000000    0.888927000000000    0.750000000000000 
K           0.267370000000000    0.111073000000000    0.250000000000000 
K           0.451530000000000    0.515998000000000    0.250000000000000 
K           0.484002000000000    0.935532000000000    0.250000000000000 
K           0.515998000000000    0.451530000000000    0.750000000000000 
K           0.548470000000000    0.064468000000000    0.750000000000000 
K           0.732630000000000    0.843703000000000    0.750000000000000 
K           0.843703000000000    0.732630000000000    0.250000000000000 
K           0.888927000000000    0.156297000000000    0.250000000000000 
K           0.935532000000000    0.484002000000000    0.750000000000000 
%ENDBLOCK POSITIONS_FRAC
