# Cell file generated by matador (Matthew Evans 2016)

%BLOCK LATTICE_CART
11.1652 0.0 0.0
-5.58258 9.66931 0.0
0.0 0.0 5.33367
%ENDBLOCK LATTICE_CART

%BLOCK POSITIONS_FRAC
P           0.000000000000000    0.000000000000000    0.500000000000000 
P           0.000000000000000    0.500000000000000    0.000000000000000 
P           0.500000000000000    0.000000000000000    0.000000000000000 
P           0.500000000000000    0.500000000000000    0.000000000000000 
K           0.000000000000000    0.000000000000000    0.000000000000000 
K           0.000000000000000    0.245560000000000    0.610393000000000 
K           0.000000000000000    0.500000000000000    0.500000000000000 
K           0.000000000000000    0.754440000000000    0.389607000000000 
K           0.245560000000000    0.000000000000000    0.610393000000000 
K           0.245560000000000    0.245560000000000    0.389607000000000 
K           0.333333000000000    0.666667000000000    0.500000000000000 
K           0.500000000000000    0.000000000000000    0.500000000000000 
K           0.500000000000000    0.500000000000000    0.500000000000000 
K           0.666667000000000    0.333333000000000    0.500000000000000 
K           0.754440000000000    0.000000000000000    0.389607000000000 
K           0.754440000000000    0.754440000000000    0.610393000000000 
%ENDBLOCK POSITIONS_FRAC
