# Cell file generated by matador (Matthew Evans 2016)

%BLOCK LATTICE_CART
8.43039 0.0 0.0
-4.21519 7.30093 0.0
0.0 0.0 10.675
%ENDBLOCK LATTICE_CART

%BLOCK POSITIONS_FRAC
P           0.333334000000000    0.666668000000000    0.250000000000000 
P           0.333334000000000    0.666668000000000    0.750000000000000 
P           0.666668000000000    0.333334000000000    0.250000000000000 
P           0.666668000000000    0.333334000000000    0.750000000000000 
K           0.161121000000000    0.402659000000000    0.250000000000000 
K           0.161178000000000    0.761436000000000    0.750000000000000 
K           0.238566000000000    0.399743000000000    0.750000000000000 
K           0.241539000000000    0.838881000000000    0.250000000000000 
K           0.399743000000000    0.238566000000000    0.250000000000000 
K           0.402659000000000    0.161121000000000    0.750000000000000 
K           0.597343000000000    0.758463000000000    0.250000000000000 
K           0.600259000000000    0.838824000000000    0.750000000000000 
K           0.758463000000000    0.597343000000000    0.750000000000000 
K           0.761436000000000    0.161178000000000    0.250000000000000 
K           0.838824000000000    0.600259000000000    0.250000000000000 
K           0.838881000000000    0.241539000000000    0.750000000000000 
%ENDBLOCK POSITIONS_FRAC
