# Cell file generated by matador (Matthew Evans 2016)

%BLOCK LATTICE_CART
7.40942 0.0 0.0
0.0 8.74955 0.0
0.0 0.0 4.65228
%ENDBLOCK LATTICE_CART

%BLOCK POSITIONS_FRAC
P           0.000000000000000    0.000000000000000    0.500000000000000 
P           0.500000000000000    0.500000000000000    0.500000000000000 
K           0.000000000000000    0.500000000000000    0.000000000000000 
K           0.052600000000000    0.253092000000000    0.500000000000000 
K           0.447400000000000    0.753092000000000    0.500000000000000 
K           0.500000000000000    0.000000000000000    0.000000000000000 
K           0.552600000000000    0.246908000000000    0.500000000000000 
K           0.947400000000000    0.746908000000000    0.500000000000000 
%ENDBLOCK POSITIONS_FRAC
