# Cell file generated by matador (Matthew Evans 2016)

%BLOCK LATTICE_CART
6.55158 0.0 0.0
0.0 6.55158 0.0
0.0 0.0 9.18633
%ENDBLOCK LATTICE_CART

%BLOCK POSITIONS_FRAC
P           0.131498000000000    0.507682000000000    0.259362000000000 
P           0.492318000000000    0.131498000000000    0.740638000000000 
P           0.500000000000000    0.500000000000000    0.000000000000000 
P           0.507682000000000    0.868502000000000    0.740638000000000 
P           0.868502000000000    0.492318000000000    0.259362000000000 
K           0.000000000000000    0.000000000000000    0.000000000000000 
K           0.000000000000000    0.000000000000000    0.500000000000000 
K           0.142023000000000    0.830430000000000    0.258689000000000 
K           0.169570000000000    0.142023000000000    0.741311000000000 
K           0.830430000000000    0.857977000000000    0.741311000000000 
K           0.857977000000000    0.169570000000000    0.258689000000000 
%ENDBLOCK POSITIONS_FRAC
