# Cell file generated by matador (Matthew Evans 2016)

%BLOCK LATTICE_CART
8.65202 0.0 0.0
0.0 8.65202 0.0
0.0 0.0 13.1769
%ENDBLOCK LATTICE_CART

%BLOCK POSITIONS_FRAC
P           0.000000000000000    0.000000000000000    0.000000000000000 
P           0.000000000000000    0.500000000000000    0.250000000000000 
P           0.000000000000000    0.500000000000000    0.750000000000000 
P           0.500000000000000    0.000000000000000    0.250000000000000 
P           0.500000000000000    0.000000000000000    0.750000000000000 
P           0.500000000000000    0.500000000000000    0.500000000000000 
K           0.000000000000000    0.000000000000000    0.500000000000000 
K           0.158718000000000    0.158718000000000    0.249813000000000 
K           0.158718000000000    0.841282000000000    0.750187000000000 
K           0.234604000000000    0.234604000000000    0.550924000000000 
K           0.234604000000000    0.765396000000000    0.449076000000000 
K           0.265396000000000    0.265396000000000    0.050924000000000 
K           0.265396000000000    0.734604000000000    0.949076000000000 
K           0.341282000000000    0.341282000000000    0.749813000000000 
K           0.341282000000000    0.658718000000000    0.250187000000000 
K           0.500000000000000    0.500000000000000    0.000000000000000 
K           0.658718000000000    0.341282000000000    0.250187000000000 
K           0.658718000000000    0.658718000000000    0.749813000000000 
K           0.734604000000000    0.265396000000000    0.949076000000000 
K           0.734604000000000    0.734604000000000    0.050924000000000 
K           0.765396000000000    0.234604000000000    0.449076000000000 
K           0.765396000000000    0.765396000000000    0.550924000000000 
K           0.841282000000000    0.158718000000000    0.750187000000000 
K           0.841282000000000    0.841282000000000    0.249813000000000 
%ENDBLOCK POSITIONS_FRAC
