# Cell file generated by matador (Matthew Evans 2016)

%BLOCK LATTICE_CART
11.1454 0.0 0.0
0.0 4.19643 0.0
0.0 0.0 11.6055
%ENDBLOCK LATTICE_CART

%BLOCK POSITIONS_FRAC
P           0.250341000000000    0.000000000000000    0.000000000000000 
P           0.346960000000000    0.090071000000000    0.790484000000000 
P           0.346960000000000    0.909929000000000    0.209516000000000 
P           0.500000000000000    0.000000000000000    0.090998000000000 
P           0.500000000000000    0.000000000000000    0.909002000000000 
P           0.653040000000000    0.090071000000000    0.209516000000000 
P           0.653040000000000    0.909929000000000    0.790484000000000 
P           0.749659000000000    0.000000000000000    0.000000000000000 
K           0.000000000000000    0.000000000000000    0.000000000000000 
K           0.000000000000000    0.000000000000000    0.500000000000000 
K           0.000000000000000    0.500000000000000    0.500000000000000 
K           0.330833000000000    0.302418000000000    0.399281000000000 
K           0.330833000000000    0.697582000000000    0.600719000000000 
K           0.500000000000000    0.000000000000000    0.500000000000000 
K           0.500000000000000    0.500000000000000    0.000000000000000 
K           0.500000000000000    0.500000000000000    0.500000000000000 
K           0.669167000000000    0.302418000000000    0.600719000000000 
K           0.669167000000000    0.697582000000000    0.399281000000000 
%ENDBLOCK POSITIONS_FRAC
