# Cell file generated by matador (Matthew Evans 2016)

%BLOCK LATTICE_CART
7.89402 0.0 0.0
0.0 7.89402 0.0
0.0 0.0 7.16418
%ENDBLOCK LATTICE_CART

%BLOCK POSITIONS_FRAC
P          -0.000000000000000   -0.000000000000000    0.000000000000000 
P           0.041771000000000    0.924951000000000    0.102602000000000 
P           0.075049000000000    0.041771000000000    0.897398000000000 
P           0.424951000000000    0.458229000000000    0.397398000000000 
P           0.458229000000000    0.575049000000000    0.602602000000000 
P           0.500000000000000    0.500000000000000    0.500000000000000 
P           0.541771000000000    0.424951000000000    0.602602000000000 
P           0.575049000000000    0.541771000000000    0.397398000000000 
P           0.924951000000000    0.958229000000000    0.897398000000000 
P           0.958229000000000    0.075049000000000    0.102602000000000 
K          -0.000000000000000   -0.000000000000000    0.500000000000000 
K           0.500000000000000    0.500000000000000    0.000000000000000 
%ENDBLOCK POSITIONS_FRAC
