# Cell file generated by matador (Matthew Evans 2016)

%BLOCK LATTICE_CART
4.53249 0.0 0.0
0.0 8.83459 0.0
0.0 0.0 6.28224
%ENDBLOCK LATTICE_CART

%BLOCK POSITIONS_FRAC
P           0.000000000000000    0.000000000000000    0.023349000000000 
P           0.000000000000000    0.000000000000000    0.334847000000000 
P           0.107001000000000    0.000000000000000    0.845964000000000 
P           0.276052000000000    0.140216000000000    0.252954000000000 
P           0.276052000000000    0.859784000000000    0.252954000000000 
P           0.500000000000000    0.000000000000000    0.141633000000000 
P           0.500000000000000    0.000000000000000    0.295852000000000 
P           0.500000000000000    0.431310000000000    0.332571000000000 
P           0.500000000000000    0.568690000000000    0.332571000000000 
P           0.723948000000000    0.140216000000000    0.252954000000000 
P           0.723948000000000    0.859784000000000    0.252954000000000 
P           0.892999000000000    0.000000000000000    0.845964000000000 
K           0.287749000000000    0.000000000000000    0.560501000000000 
K           0.712251000000000    0.000000000000000    0.560501000000000 
%ENDBLOCK POSITIONS_FRAC
