# Cell file generated by matador (Matthew Evans 2016)

%BLOCK LATTICE_CART
7.32315 0.0 0.0
0.0 8.23192 0.0
0.0 0.0 6.91518
%ENDBLOCK LATTICE_CART

%BLOCK POSITIONS_FRAC
P           0.000000000000000    0.500000000000000    0.703370000000000 
P           0.250000000000000    0.126108000000000    0.617176000000000 
P           0.500000000000000    0.500000000000000    0.703370000000000 
P           0.750000000000000    0.873892000000000    0.617176000000000 
K           0.000000000000000    0.000000000000000    0.010530000000000 
K           0.039390000000000    0.374720000000000    0.096090000000000 
K           0.250000000000000    0.948414000000000    0.370063000000000 
K           0.460610000000000    0.374720000000000    0.096090000000000 
K           0.500000000000000    0.000000000000000    0.010530000000000 
K           0.539390000000000    0.625280000000000    0.096090000000000 
K           0.750000000000000    0.051586000000000    0.370063000000000 
K           0.960610000000000    0.625280000000000    0.096090000000000 
%ENDBLOCK POSITIONS_FRAC
