# Cell file generated by matador (Matthew Evans 2016)

%BLOCK LATTICE_CART
6.34695 0.0 0.0
0.0 10.034 0.0
3.02831 0.0 7.0749
%ENDBLOCK LATTICE_CART

%BLOCK POSITIONS_FRAC
P           0.500000000000000    0.306697000000000    0.000000000000000 
P           0.500000000000000    0.693303000000000    0.000000000000000 
K           0.000000000000000    0.000000000000000    0.000000000000000 
K           0.000000000000000    0.500000000000000    0.000000000000000 
K           0.000000000000000    0.500000000000000    0.500000000000000 
K           0.014547000000000    0.278775000000000    0.353911000000000 
K           0.014547000000000    0.721225000000000    0.353911000000000 
K           0.500000000000000    0.000000000000000    0.000000000000000 
K           0.500000000000000    0.500000000000000    0.000000000000000 
K           0.500000000000000    0.500000000000000    0.500000000000000 
K           0.985453000000000    0.278775000000000    0.646089000000000 
K           0.985453000000000    0.721225000000000    0.646089000000000 
%ENDBLOCK POSITIONS_FRAC
