# Cell file generated by matador (Matthew Evans 2016)

%BLOCK LATTICE_CART
10.333 0.0 0.0
-5.16649 8.94862 0.0
0.0 0.0 6.09831
%ENDBLOCK LATTICE_CART

%BLOCK POSITIONS_FRAC
P           0.999999000000000    0.999999000000000   -0.000000000000000 
P           0.999999000000000    0.999999000000000    0.250000000000000 
P           0.999999000000000    0.999999000000000    0.500000000000000 
P           0.999999000000000    0.999999000000000    0.750000000000000 
P           0.999999000000000    0.499999000000000   -0.000000000000000 
P           0.999999000000000    0.499999000000000    0.500000000000000 
P           0.333332000000000    0.666666000000000    0.250000000000000 
P           0.333332000000000    0.666666000000000    0.750000000000000 
P           0.499999000000000    0.999999000000000   -0.000000000000000 
P           0.499999000000000    0.999999000000000    0.500000000000000 
P           0.499999000000000    0.499999000000000   -0.000000000000000 
P           0.499999000000000    0.499999000000000    0.500000000000000 
P           0.666666000000000    0.333332000000000    0.250000000000000 
P           0.666666000000000    0.333332000000000    0.750000000000000 
K           0.127418000000000    0.254838000000000    0.250000000000000 
K           0.127418000000000    0.872580000000000    0.250000000000000 
K           0.254838000000000    0.127418000000000    0.750000000000000 
K           0.745160000000000    0.872580000000000    0.250000000000000 
K           0.872580000000000    0.127418000000000    0.750000000000000 
K           0.872580000000000    0.745160000000000    0.750000000000000 
%ENDBLOCK POSITIONS_FRAC
