# Cell file generated by matador (Matthew Evans 2016)

%BLOCK LATTICE_CART
6.71374 0.0 0.0
-3.35687 5.81427 0.0
0.0 0.0 9.25503
%ENDBLOCK LATTICE_CART

%BLOCK POSITIONS_FRAC
P           0.666667000000000    0.333333000000000    0.278696000000000 
P           0.666667000000000    0.333333000000000    0.721304000000000 
K           0.262660000000000    0.131330000000000    0.261350000000000 
K           0.262660000000000    0.131330000000000    0.738650000000000 
K           0.317727000000000    0.001284000000000    0.000000000000000 
K           0.317727000000000    0.316443000000000    0.000000000000000 
K           0.683557000000000    0.001284000000000    0.000000000000000 
K           0.683557000000000    0.682273000000000    0.000000000000000 
K           0.868670000000000    0.131330000000000    0.261350000000000 
K           0.868670000000000    0.131330000000000    0.738650000000000 
K           0.868670000000000    0.737340000000000    0.261350000000000 
K           0.868670000000000    0.737340000000000    0.738650000000000 
K           0.998716000000000    0.316443000000000    0.000000000000000 
K           0.998716000000000    0.682273000000000    0.000000000000000 
%ENDBLOCK POSITIONS_FRAC
