# Cell file generated by matador (Matthew Evans 2016)

%BLOCK LATTICE_CART
6.94025 0.0 0.0
-3.47012 6.01043 0.0
0.0 0.0 7.89719
%ENDBLOCK LATTICE_CART

%BLOCK POSITIONS_FRAC
P           0.000000000000000    0.795071000000000    0.166667000000000 
P           0.086964000000000    0.474867000000000    0.726563000000000 
P           0.204929000000000    0.204929000000000    0.500000000000000 
P           0.387903000000000    0.913036000000000    0.393230000000000 
P           0.474867000000000    0.086964000000000    0.273437000000000 
P           0.525133000000000    0.612097000000000    0.059896000000000 
P           0.612097000000000    0.525133000000000    0.940104000000000 
P           0.795071000000000   -0.000000000000000    0.833333000000000 
P           0.913036000000000    0.387903000000000    0.606770000000000 
K           0.000000000000000    0.400198000000000    0.166667000000000 
K           0.000000000000000    0.863113000000000    0.666667000000000 
K           0.136887000000000    0.136887000000000   -0.000000000000000 
K           0.400198000000000   -0.000000000000000    0.833333000000000 
K           0.599802000000000    0.599802000000000    0.500000000000000 
K           0.863113000000000   -0.000000000000000    0.333333000000000 
%ENDBLOCK POSITIONS_FRAC
