# Cell file generated by matador (Matthew Evans 2016)

%BLOCK LATTICE_CART
10.6009 0.0 0.0
-5.30044 9.18063 0.0
0.0 0.0 6.50195
%ENDBLOCK LATTICE_CART

%BLOCK POSITIONS_FRAC
P           0.000000000000000    0.000000000000000    0.000000000000000 
P           0.000000000000000    0.144166000000000    0.000000000000000 
P           0.144166000000000    0.000000000000000    0.000000000000000 
P           0.855834000000000    0.855834000000000    0.000000000000000 
K           0.000000000000000    0.000000000000000    0.500000000000000 
K           0.000000000000000    0.711339000000000    0.000000000000000 
K           0.178802000000000    0.695972000000000    0.694120000000000 
K           0.288661000000000    0.288661000000000    0.000000000000000 
K           0.304028000000000    0.482830000000000    0.694120000000000 
K           0.333333000000000    0.666667000000000    0.456747000000000 
K           0.482830000000000    0.304028000000000    0.305880000000000 
K           0.517170000000000    0.821198000000000    0.694120000000000 
K           0.666667000000000    0.333333000000000    0.543253000000000 
K           0.695972000000000    0.178802000000000    0.305880000000000 
K           0.711339000000000    0.000000000000000    0.000000000000000 
K           0.821198000000000    0.517170000000000    0.305880000000000 
%ENDBLOCK POSITIONS_FRAC
