# Cell file generated by matador (Matthew Evans 2016)

%BLOCK LATTICE_CART
7.5736 0.0 0.0
-3.7868 6.55893 0.0
0.0 0.0 9.01892
%ENDBLOCK LATTICE_CART

%BLOCK POSITIONS_FRAC
P           0.562714000000000    0.125428000000000    0.868176000000000 
P           0.562714000000000    0.437286000000000    0.868176000000000 
P           0.874572000000000    0.437286000000000    0.868176000000000 
K           0.134450000000000    0.268899000000000    0.143831000000000 
K           0.134450000000000    0.865550000000000    0.143831000000000 
K           0.343736000000000    0.171868000000000    0.716149000000000 
K           0.506175000000000    0.012350000000000    0.419068000000000 
K           0.506175000000000    0.493825000000000    0.419068000000000 
K           0.731101000000000    0.865550000000000    0.143831000000000 
K           0.828132000000000    0.171868000000000    0.716149000000000 
K           0.828132000000000    0.656264000000000    0.716149000000000 
K           0.987650000000000    0.493825000000000    0.419068000000000 
%ENDBLOCK POSITIONS_FRAC
