# Cell file generated by matador (Matthew Evans 2016)

%BLOCK LATTICE_CART
8.24131 0.0 0.0
-4.12066 7.13719 0.0
0.0 0.0 6.84804
%ENDBLOCK LATTICE_CART

%BLOCK POSITIONS_FRAC
P           0.000000000000000    0.000000000000000    0.500000000000000 
P           0.333333000000000    0.666667000000000    0.267166000000000 
P           0.333333000000000    0.666667000000000    0.732834000000000 
P           0.666667000000000    0.333333000000000    0.000000000000000 
P           0.666667000000000    0.333333000000000    0.500000000000000 
K           0.000000000000000    0.000000000000000    0.000000000000000 
K           0.341011000000000    0.266443000000000    0.318175000000000 
K           0.341011000000000    0.266443000000000    0.681825000000000 
K           0.733557000000000    0.074567000000000    0.318175000000000 
K           0.733557000000000    0.074567000000000    0.681825000000000 
K           0.925433000000000    0.658989000000000    0.318175000000000 
K           0.925433000000000    0.658989000000000    0.681825000000000 
%ENDBLOCK POSITIONS_FRAC
