# Cell file generated by matador (Matthew Evans 2016)

%BLOCK LATTICE_CART
7.74198 0.0 0.0
-3.87099 6.70475 0.0
0.0 0.0 8.83785
%ENDBLOCK LATTICE_CART

%BLOCK POSITIONS_FRAC
P           0.000000000000000    0.000000000000000    0.000000000000000 
P           0.000000000000000    0.000000000000000    0.250000000000000 
P           0.000000000000000    0.000000000000000    0.500000000000000 
P           0.000000000000000    0.000000000000000    0.750000000000000 
P           0.000000000000000    0.300139000000000    0.000000000000000 
P           0.000000000000000    0.300139000000000    0.500000000000000 
P           0.300139000000000    0.000000000000000    0.000000000000000 
P           0.300139000000000    0.000000000000000    0.500000000000000 
P           0.699861000000000    0.699861000000000    0.000000000000000 
P           0.699861000000000    0.699861000000000    0.500000000000000 
K           0.063110000000000    0.712003000000000    0.750000000000000 
K           0.287997000000000    0.351107000000000    0.750000000000000 
K           0.351107000000000    0.287997000000000    0.250000000000000 
K           0.648893000000000    0.936890000000000    0.750000000000000 
K           0.712003000000000    0.063110000000000    0.250000000000000 
K           0.936890000000000    0.648893000000000    0.250000000000000 
%ENDBLOCK POSITIONS_FRAC
