# Cell file generated by matador (Matthew Evans 2016)

%BLOCK LATTICE_CART
8.93728 0.0 0.0
-4.46864 7.73992 0.0
0.0 0.0 7.94601
%ENDBLOCK LATTICE_CART

%BLOCK POSITIONS_FRAC
P           0.000000000000000    0.000000000000000    0.026988000000000 
P           0.000000000000000    0.000000000000000    0.780482000000000 
P           0.000000000000000    0.500000000000000    0.996970000000000 
P           0.333333000000000    0.666667000000000    0.183276000000000 
P           0.333333000000000    0.666667000000000    0.950165000000000 
P           0.500000000000000    0.000000000000000    0.996970000000000 
P           0.500000000000000    0.500000000000000    0.996970000000000 
P           0.666667000000000    0.333333000000000    0.183276000000000 
P           0.666667000000000    0.333333000000000    0.950165000000000 
K           0.000000000000000    0.293769000000000    0.497064000000000 
K           0.000000000000000    0.706231000000000    0.497064000000000 
K           0.293769000000000    0.000000000000000    0.497064000000000 
K           0.293769000000000    0.293769000000000    0.497064000000000 
K           0.706231000000000    0.000000000000000    0.497064000000000 
K           0.706231000000000    0.706231000000000    0.497064000000000 
%ENDBLOCK POSITIONS_FRAC
