# Cell file generated by matador (Matthew Evans 2016)

%BLOCK LATTICE_CART
5.86286 0.0 0.0
-2.93143 5.07739 0.0
0.0 0.0 6.13691
%ENDBLOCK LATTICE_CART

%BLOCK POSITIONS_FRAC
P           0.000000000000000    0.000000000000000    0.166958000000000 
P           0.333333000000000    0.666667000000000    0.038080000000000 
K           0.439184000000000    0.219592000000000    0.076982000000000 
K           0.666667000000000    0.333333000000000    0.360419000000000 
K           0.780408000000000    0.219592000000000    0.076982000000000 
K           0.780408000000000    0.560816000000000    0.076982000000000 
%ENDBLOCK POSITIONS_FRAC
