# Cell file generated by matador (Matthew Evans 2016)

%BLOCK LATTICE_CART
7.82192 0.0 0.0
1.01553 7.39498 0.0
2.32642 -2.84137 6.77542
%ENDBLOCK LATTICE_CART

%BLOCK POSITIONS_FRAC
P           0.000000000000000    0.500000000000000    0.000000000000000 
P           0.000000000000000    0.500000000000000    0.500000000000000 
P           0.023727000000000    0.276578000000000    0.083014000000000 
P           0.066889000000000    0.656548000000000    0.204244000000000 
P           0.110727000000000    0.387275000000000    0.643018000000000 
P           0.193518000000000    0.749713000000000    0.832655000000000 
P           0.228485000000000    0.883733000000000    0.670706000000000 
P           0.243433000000000    0.537544000000000    0.577815000000000 
P           0.257878000000000    0.210341000000000    0.613482000000000 
P           0.742122000000000    0.789659000000000    0.386518000000000 
P           0.756567000000000    0.462456000000000    0.422185000000000 
P           0.771515000000000    0.116267000000000    0.329294000000000 
P           0.806482000000000    0.250287000000000    0.167345000000000 
P           0.889273000000000    0.612725000000000    0.356982000000000 
P           0.933111000000000    0.343452000000000    0.795756000000000 
P           0.976273000000000    0.723422000000000    0.916986000000000 
K           0.000000000000000    0.000000000000000    0.000000000000000 
K           0.000000000000000    0.000000000000000    0.500000000000000 
K           0.500000000000000    0.000000000000000    0.500000000000000 
K           0.500000000000000    0.500000000000000    0.000000000000000 
%ENDBLOCK POSITIONS_FRAC
