# Cell file generated by matador (Matthew Evans 2016)

%BLOCK LATTICE_CART
7.08782 0.0 0.0
0.0 5.41079 0.0
0.0 0.0 4.41366
%ENDBLOCK LATTICE_CART

%BLOCK POSITIONS_FRAC
P           0.000000000000000    0.252848000000000    0.500000000000000 
P           0.000000000000000    0.500000000000000    0.193669000000000 
P           0.000000000000000    0.500000000000000    0.806331000000000 
P           0.000000000000000    0.747152000000000    0.500000000000000 
P           0.500000000000000    0.000000000000000    0.000000000000000 
K           0.000000000000000    0.000000000000000    0.000000000000000 
K           0.500000000000000    0.000000000000000    0.500000000000000 
%ENDBLOCK POSITIONS_FRAC
