# Cell file generated by matador (Matthew Evans 2016)

%BLOCK LATTICE_CART
6.7905 0.0 0.0
0.0 6.42493 0.0
0.0 0.0 5.54762
%ENDBLOCK LATTICE_CART

%BLOCK POSITIONS_FRAC
P           0.006745000000000    0.193779000000000    0.628963000000000 
P           0.493255000000000    0.193779000000000    0.628963000000000 
P           0.506745000000000    0.806221000000000    0.628963000000000 
P           0.993255000000000    0.806221000000000    0.628963000000000 
K           0.000000000000000   -0.000000000000000    0.989227000000000 
K           0.250000000000000    0.677977000000000    0.724910000000000 
K           0.500000000000000   -0.000000000000000    0.989227000000000 
K           0.750000000000000    0.322023000000000    0.724910000000000 
%ENDBLOCK POSITIONS_FRAC
