# Cell file generated by matador (Matthew Evans 2016)

%BLOCK LATTICE_CART
5.68666 0.0 0.0
0.0 5.68666 0.0
0.0 0.0 5.63788
%ENDBLOCK LATTICE_CART

%BLOCK POSITIONS_FRAC
P           0.000000000000000    0.000000000000000    0.000000000000000 
P           0.000000000000000    0.000000000000000    0.500000000000000 
P           0.251311000000000    0.251311000000000    0.000000000000000 
P           0.251311000000000    0.748689000000000    0.000000000000000 
P           0.500000000000000    0.500000000000000    0.500000000000000 
P           0.748689000000000    0.251311000000000    0.000000000000000 
P           0.748689000000000    0.748689000000000    0.000000000000000 
K           0.500000000000000    0.500000000000000    0.000000000000000 
%ENDBLOCK POSITIONS_FRAC
