# Cell file generated by matador (Matthew Evans 2016)

%BLOCK LATTICE_CART
12.4715 0.0 0.0
-6.23575 10.8006 0.0
0.0 0.0 7.79061
%ENDBLOCK LATTICE_CART

%BLOCK POSITIONS_FRAC
P           0.184777000000000    0.519098000000000    0.000000000000000 
P           0.334322000000000    0.815223000000000    0.000000000000000 
P           0.480902000000000    0.665678000000000    0.000000000000000 
P           0.519099000000000    0.184776000000000    0.000000000000000 
P           0.665679000000000    0.480901000000000    0.000000000000000 
P           0.815224000000000    0.334321000000000    0.000000000000000 
K           0.000000000000000    0.777643000000000    0.287282000000000 
K           0.000000000000000    0.777643000000000    0.712718000000000 
K           0.133810000000000    0.358951000000000    0.500000000000000 
K           0.137648000000000    0.598186000000000    0.500000000000000 
K           0.222357000000000    0.222357000000000    0.287282000000000 
K           0.222357000000000    0.222357000000000    0.712718000000000 
K           0.225141000000000    0.866190000000000    0.500000000000000 
K           0.358951000000000    0.133810000000000    0.500000000000000 
K           0.401814000000000    0.539462000000000    0.500000000000000 
K           0.460538000000000    0.862352000000000    0.500000000000000 
K           0.539462000000000    0.401814000000000    0.500000000000000 
K           0.598186000000000    0.137648000000000    0.500000000000000 
K           0.641049000000000    0.774859000000000    0.500000000000000 
K           0.774859000000000    0.641049000000000    0.500000000000000 
K           0.777643000000000   -0.000000000000000    0.287282000000000 
K           0.777643000000000   -0.000000000000000    0.712718000000000 
K           0.862352000000000    0.460538000000000    0.500000000000000 
K           0.866190000000000    0.225141000000000    0.500000000000000 
%ENDBLOCK POSITIONS_FRAC
