# Cell file generated by matador (Matthew Evans 2016)

%BLOCK LATTICE_CART
8.32102 0.0 0.0
0.0 8.32102 0.0
0.0 0.0 14.3761
%ENDBLOCK LATTICE_CART

%BLOCK POSITIONS_FRAC
P           0.000000000000000    0.000000000000000    0.191464000000000 
P           0.000000000000000    0.000000000000000    0.500000000000000 
P           0.000000000000000    0.000000000000000    0.808536000000000 
P           0.500000000000000    0.500000000000000    0.000000000000000 
P           0.500000000000000    0.500000000000000    0.308536000000000 
P           0.500000000000000    0.500000000000000    0.691464000000000 
K           0.000000000000000    0.000000000000000    0.000000000000000 
K           0.000000000000000    0.500000000000000    0.000000000000000 
K           0.000000000000000    0.500000000000000    0.250000000000000 
K           0.000000000000000    0.500000000000000    0.500000000000000 
K           0.000000000000000    0.500000000000000    0.750000000000000 
K           0.166420000000000    0.815213000000000    0.500000000000000 
K           0.184787000000000    0.166420000000000    0.500000000000000 
K           0.315213000000000    0.333580000000000    0.000000000000000 
K           0.333580000000000    0.684787000000000    0.000000000000000 
K           0.500000000000000    0.000000000000000    0.000000000000000 
K           0.500000000000000    0.000000000000000    0.250000000000000 
K           0.500000000000000    0.000000000000000    0.500000000000000 
K           0.500000000000000    0.000000000000000    0.750000000000000 
K           0.500000000000000    0.500000000000000    0.500000000000000 
K           0.666420000000000    0.315213000000000    0.000000000000000 
K           0.684787000000000    0.666420000000000    0.000000000000000 
K           0.815213000000000    0.833580000000000    0.500000000000000 
K           0.833580000000000    0.184787000000000    0.500000000000000 
%ENDBLOCK POSITIONS_FRAC
