# Cell file generated by matador (Matthew Evans 2016)

%BLOCK LATTICE_CART
9.13697 0.0 0.0
-4.56848 7.91285 0.0
0.0 0.0 8.6212
%ENDBLOCK LATTICE_CART

%BLOCK POSITIONS_FRAC
P           0.266531000000000    0.133265000000000    0.147033000000000 
P           0.666667000000000    0.333333000000000    0.117955000000000 
P           0.866735000000000    0.133265000000000    0.147033000000000 
P           0.866735000000000    0.733469000000000    0.147033000000000 
K           0.018073000000000    0.509036000000000    0.176182000000000 
K           0.205631000000000    0.411262000000000    0.752933000000000 
K           0.205631000000000    0.794369000000000    0.752933000000000 
K           0.269904000000000    0.134951000000000    0.885423000000000 
K           0.490964000000000    0.509036000000000    0.176182000000000 
K           0.490964000000000    0.981927000000000    0.176182000000000 
K           0.540414000000000    0.080828000000000    0.637835000000000 
K           0.540414000000000    0.459586000000000    0.637835000000000 
K           0.588738000000000    0.794369000000000    0.752933000000000 
K           0.865049000000000    0.134951000000000    0.885423000000000 
K           0.865049000000000    0.730096000000000    0.885423000000000 
K           0.919172000000000    0.459586000000000    0.637835000000000 
%ENDBLOCK POSITIONS_FRAC
