# Cell file generated by matador (Matthew Evans 2016)

%BLOCK LATTICE_CART
8.62981 0.0 0.0
0.0 8.62981 0.0
0.0 0.0 7.90753
%ENDBLOCK LATTICE_CART

%BLOCK POSITIONS_FRAC
P           0.000000000000000    0.000000000000000    0.247723000000000 
P           0.000000000000000    0.000000000000000    0.752277000000000 
P           0.000000000000000    0.133327000000000    0.709006000000000 
P           0.000000000000000    0.277890000000000    0.896783000000000 
P           0.000000000000000    0.722110000000000    0.896783000000000 
P           0.000000000000000    0.866673000000000    0.709006000000000 
P           0.133327000000000    0.000000000000000    0.290994000000000 
P           0.152479000000000    0.500000000000000    0.568856000000000 
P           0.277890000000000    0.000000000000000    0.103217000000000 
P           0.500000000000000    0.152479000000000    0.431144000000000 
P           0.500000000000000    0.847521000000000    0.431144000000000 
P           0.722110000000000    0.000000000000000    0.103217000000000 
P           0.847521000000000    0.500000000000000    0.568856000000000 
P           0.866673000000000    0.000000000000000    0.290994000000000 
K           0.000000000000000    0.000000000000000    0.000000000000000 
K           0.000000000000000    0.000000000000000    0.500000000000000 
K           0.500000000000000    0.500000000000000    0.000000000000000 
K           0.500000000000000    0.500000000000000    0.500000000000000 
%ENDBLOCK POSITIONS_FRAC
