# Cell file generated by matador (Matthew Evans 2016)

%BLOCK LATTICE_CART
7.27377 0.0 0.0
-3.63689 6.29927 0.0
0.0 0.0 8.67752
%ENDBLOCK LATTICE_CART

%BLOCK POSITIONS_FRAC
P           0.022127000000000    0.511064000000000    0.500000000000000 
P           0.277067000000000    0.638534000000000    0.000000000000000 
P           0.361466000000000    0.638534000000000    0.333333000000000 
P           0.361466000000000    0.722933000000000    0.666667000000000 
P           0.390676000000000    0.195338000000000    0.500000000000000 
P           0.488936000000000    0.511064000000000    0.833333000000000 
P           0.488936000000000    0.977873000000000    0.166667000000000 
P           0.804662000000000    0.195338000000000    0.833333000000000 
P           0.804662000000000    0.609324000000000    0.166667000000000 
K           0.009626000000000    0.019252000000000    0.666667000000000 
K           0.009626000000000    0.990374000000000    0.333333000000000 
K           0.152708000000000    0.305416000000000    0.166667000000000 
K           0.152708000000000    0.847292000000000    0.833333000000000 
K           0.694584000000000    0.847292000000000    0.500000000000000 
K           0.980748000000000    0.990374000000000    0.000000000000000 
%ENDBLOCK POSITIONS_FRAC
