# Cell file generated by matador (Matthew Evans 2016)

%BLOCK LATTICE_CART
5.39476 0.0 0.0
-2.69738 4.672 0.0
0.0 0.0 7.3802
%ENDBLOCK LATTICE_CART

%BLOCK POSITIONS_FRAC
P           0.000000000000000    0.500000000000000    0.000000000000000 
P           0.333333000000000    0.666667000000000    0.419326000000000 
P           0.333333000000000    0.666667000000000    0.580674000000000 
P           0.500000000000000    0.000000000000000    0.000000000000000 
P           0.500000000000000    0.500000000000000    0.000000000000000 
P           0.666667000000000    0.333333000000000    0.419326000000000 
P           0.666667000000000    0.333333000000000    0.580674000000000 
K           0.000000000000000    0.000000000000000    0.500000000000000 
%ENDBLOCK POSITIONS_FRAC
