# Cell file generated by matador (Matthew Evans 2016)

%BLOCK LATTICE_CART
4.51008 0.0 0.0
0.0 6.23778 0.0
0.0 0.0 7.30243
%ENDBLOCK LATTICE_CART

%BLOCK POSITIONS_FRAC
P           0.192995000000000    0.143534000000000    0.417358000000000 
P           0.192995000000000    0.856466000000000    0.417358000000000 
P           0.500000000000000    0.500000000000000    0.865535000000000 
P           0.807005000000000    0.143534000000000    0.417358000000000 
P           0.807005000000000    0.856466000000000    0.417358000000000 
K           0.000000000000000    0.000000000000000    0.683500000000000 
K           0.000000000000000    0.500000000000000    0.258596000000000 
%ENDBLOCK POSITIONS_FRAC
