# Cell file generated by matador (Matthew Evans 2016)

%BLOCK LATTICE_CART
6.28058 -0.0 0.0
-3.14029 5.43914 0.0
0.0 0.0 7.55848
%ENDBLOCK LATTICE_CART

%BLOCK POSITIONS_FRAC
P           0.079322000000000    0.864022000000000    0.448920000000000 
P           0.135978000000000    0.215300000000000    0.448920000000000 
P           0.453819000000000    0.064959000000000    0.651103000000000 
P           0.455074000000000    0.269705000000000    0.578498000000000 
P           0.584025000000000    0.195696000000000    0.495811000000000 
P           0.611140000000000    0.546181000000000    0.651103000000000 
P           0.611671000000000    0.415975000000000    0.495811000000000 
P           0.730295000000000    0.185368000000000    0.578498000000000 
P           0.784700000000000    0.920678000000000    0.448920000000000 
P           0.804304000000000    0.388329000000000    0.495811000000000 
P           0.814632000000000    0.544926000000000    0.578498000000000 
P           0.935041000000000    0.388860000000000    0.651103000000000 
K           0.000000000000000    0.000000000000000    0.091085000000000 
K           0.666667000000000    0.333333000000000    0.967519000000000 
%ENDBLOCK POSITIONS_FRAC
