# Cell file generated by matador (Matthew Evans 2016)

%BLOCK LATTICE_CART
6.35203 0.0 0.0
0.0 6.35203 0.0
0.0 0.0 10.2214
%ENDBLOCK LATTICE_CART

%BLOCK POSITIONS_FRAC
P           0.500000000000000    0.500000000000000    0.054332000000000 
P           0.500000000000000    0.500000000000000    0.445668000000000 
P           0.500000000000000    0.500000000000000    0.554332000000000 
P           0.500000000000000    0.500000000000000    0.945668000000000 
K           0.192195000000000    0.500000000000000    0.190357000000000 
K           0.192195000000000    0.500000000000000    0.809643000000000 
K           0.500000000000000    0.192195000000000    0.309643000000000 
K           0.500000000000000    0.192195000000000    0.690357000000000 
K           0.500000000000000    0.500000000000000    0.250000000000000 
K           0.500000000000000    0.500000000000000    0.750000000000000 
K           0.500000000000000    0.807805000000000    0.309643000000000 
K           0.500000000000000    0.807805000000000    0.690357000000000 
K           0.807805000000000    0.500000000000000    0.190357000000000 
K           0.807805000000000    0.500000000000000    0.809643000000000 
%ENDBLOCK POSITIONS_FRAC
