# Cell file generated by matador (Matthew Evans 2016)

%BLOCK LATTICE_CART
8.28016 0.0 0.0
0.0 5.41911 0.0
-3.58438 0.0 6.60295
%ENDBLOCK LATTICE_CART

%BLOCK POSITIONS_FRAC
P           0.000000000000000    0.187557000000000    0.000000000000000 
P           0.000000000000000    0.653264000000000    0.500000000000000 
P           0.500000000000000    0.344144000000000    0.500000000000000 
K           0.015037000000000    0.944497000000000    0.338908000000000 
K           0.166875000000000    0.566859000000000    0.383786000000000 
K           0.500000000000000    0.289304000000000    0.000000000000000 
K           0.833125000000000    0.566859000000000    0.616214000000000 
K           0.984963000000000    0.944497000000000    0.661092000000000 
%ENDBLOCK POSITIONS_FRAC
