# Cell file generated by matador (Matthew Evans 2016)

%BLOCK LATTICE_CART
6.79665 0.0 0.0
-3.39833 5.88607 0.0
0.0 0.0 7.60171
%ENDBLOCK LATTICE_CART

%BLOCK POSITIONS_FRAC
P           0.000000000000000    0.000000000000000    0.143022000000000 
P           0.000000000000000    0.000000000000000    0.643022000000000 
K           0.000000000000000    0.300977000000000    0.535902000000000 
K           0.000000000000000    0.699023000000000    0.035902000000000 
K           0.300977000000000    0.000000000000000    0.535902000000000 
K           0.300977000000000    0.300977000000000    0.035902000000000 
K           0.699023000000000    0.000000000000000    0.035902000000000 
K           0.699023000000000    0.699023000000000    0.535902000000000 
%ENDBLOCK POSITIONS_FRAC
