# Cell file generated by matador (Matthew Evans 2016)

%BLOCK LATTICE_CART
9.17494 0.0 0.0
-4.58747 7.94573 0.0
0.0 0.0 8.34941
%ENDBLOCK LATTICE_CART

%BLOCK POSITIONS_FRAC
P           0.000000000000000    0.000000000000000    0.346042000000000 
P           0.000000000000000    0.000000000000000    0.602291000000000 
P           0.333333000000000    0.666667000000000    0.721241000000000 
P           0.333333000000000    0.666667000000000    0.978393000000000 
P           0.666667000000000    0.333333000000000    0.721241000000000 
P           0.666667000000000    0.333333000000000    0.978393000000000 
K           0.000000000000000    0.000000000000000    0.070567000000000 
K           0.000000000000000    0.500000000000000    0.126307000000000 
K           0.145658000000000    0.721598000000000    0.871996000000000 
K           0.278402000000000    0.424060000000000    0.871996000000000 
K           0.424060000000000    0.145658000000000    0.871996000000000 
K           0.500000000000000    0.000000000000000    0.126307000000000 
K           0.500000000000000    0.500000000000000    0.126307000000000 
K           0.575940000000000    0.854342000000000    0.871996000000000 
K           0.721598000000000    0.575940000000000    0.871996000000000 
K           0.854342000000000    0.278402000000000    0.871996000000000 
%ENDBLOCK POSITIONS_FRAC
