# Cell file generated by matador (Matthew Evans 2016)

%BLOCK LATTICE_CART
7.57096 0.0 0.0
0.0 7.06776 0.0
0.0 0.0 8.95589
%ENDBLOCK LATTICE_CART

%BLOCK POSITIONS_FRAC
P           0.000000000000000    0.500000000000000    0.500000000000000 
P           0.124701000000000    0.245378000000000    0.113529000000000 
P           0.124701000000000    0.754622000000000    0.886471000000000 
P           0.375299000000000    0.254622000000000    0.113529000000000 
P           0.375299000000000    0.745378000000000    0.886471000000000 
P           0.500000000000000    0.000000000000000    0.500000000000000 
P           0.624701000000000    0.254622000000000    0.886471000000000 
P           0.624701000000000    0.745378000000000    0.113529000000000 
P           0.875299000000000    0.245378000000000    0.886471000000000 
P           0.875299000000000    0.754622000000000    0.113529000000000 
K           0.000000000000000    0.000000000000000    0.500000000000000 
K           0.000000000000000    0.500000000000000    0.000000000000000 
K           0.500000000000000    0.000000000000000    0.000000000000000 
K           0.500000000000000    0.500000000000000    0.500000000000000 
%ENDBLOCK POSITIONS_FRAC
