# Cell file generated by matador (Matthew Evans 2016)

%BLOCK LATTICE_CART
7.63079 0.0 0.0
-3.8154 6.60846 0.0
0.0 0.0 11.6996
%ENDBLOCK LATTICE_CART

%BLOCK POSITIONS_FRAC
P           0.000000000000000    0.500000000000000    0.000000000000000 
P           0.077140000000000    0.590624000000000    0.500000000000000 
P           0.409376000000000    0.486516000000000    0.500000000000000 
P           0.486516000000000    0.077140000000000    0.500000000000000 
P           0.500000000000000    0.000000000000000    0.000000000000000 
P           0.500000000000000    0.500000000000000    0.000000000000000 
P           0.513484000000000    0.922860000000000    0.500000000000000 
P           0.590624000000000    0.513484000000000    0.500000000000000 
P           0.922860000000000    0.409376000000000    0.500000000000000 
K           0.000000000000000    0.000000000000000    0.000000000000000 
K           0.000000000000000    0.000000000000000    0.500000000000000 
K           0.333333000000000    0.666667000000000    0.206026000000000 
K           0.333333000000000    0.666667000000000    0.793974000000000 
K           0.666667000000000    0.333333000000000    0.206026000000000 
K           0.666667000000000    0.333333000000000    0.793974000000000 
%ENDBLOCK POSITIONS_FRAC
