# Cell file generated by matador (Matthew Evans 2016)

%BLOCK LATTICE_CART
6.93791 0.0 0.0
0.0 6.93791 0.0
0.0 0.0 12.1845
%ENDBLOCK LATTICE_CART

%BLOCK POSITIONS_FRAC
P          -0.000000000000000   -0.000000000000000    0.000000000000000 
P          -0.000000000000000    0.500000000000000    0.000000000000000 
P          -0.000000000000000    0.500000000000000    0.500000000000000 
P           0.179731000000000    0.179731000000000    0.422044000000000 
P           0.179731000000000    0.820269000000000    0.577956000000000 
P           0.320269000000000    0.320269000000000    0.922044000000000 
P           0.320269000000000    0.679731000000000    0.077956000000000 
P           0.500000000000000   -0.000000000000000    0.000000000000000 
P           0.500000000000000   -0.000000000000000    0.500000000000000 
P           0.500000000000000    0.500000000000000    0.500000000000000 
P           0.679731000000000    0.320269000000000    0.077956000000000 
P           0.679731000000000    0.679731000000000    0.922044000000000 
P           0.820269000000000    0.179731000000000    0.577956000000000 
P           0.820269000000000    0.820269000000000    0.422044000000000 
K          -0.000000000000000   -0.000000000000000    0.500000000000000 
K          -0.000000000000000    0.500000000000000    0.250000000000000 
K          -0.000000000000000    0.500000000000000    0.750000000000000 
K           0.500000000000000   -0.000000000000000    0.250000000000000 
K           0.500000000000000   -0.000000000000000    0.750000000000000 
K           0.500000000000000    0.500000000000000    0.000000000000000 
%ENDBLOCK POSITIONS_FRAC
