# Cell file generated by matador (Matthew Evans 2016)

%BLOCK LATTICE_CART
5.9329 0.0 0.0
0.0 4.04618 0.0
0.0 0.0 5.09304
%ENDBLOCK LATTICE_CART

%BLOCK POSITIONS_FRAC
P           0.000000000000000    0.332868000000000    0.836226000000000 
P           0.000000000000000    0.667132000000000    0.836226000000000 
P           0.096779000000000    0.333138000000000    0.044090000000000 
P           0.096779000000000    0.666862000000000    0.044090000000000 
P           0.903221000000000    0.333138000000000    0.044090000000000 
P           0.903221000000000    0.666862000000000    0.044090000000000 
K           0.000000000000000    0.000000000000000    0.338846000000000 
%ENDBLOCK POSITIONS_FRAC
