# Cell file generated by matador (Matthew Evans 2016)

%BLOCK LATTICE_CART
5.37361 0.0 0.0
0.0 9.05365 0.0
-0.464363 0.0 5.30988
%ENDBLOCK LATTICE_CART

%BLOCK POSITIONS_FRAC
P           0.089431000000000    0.500000000000000    0.576093000000000 
P           0.352417000000000    0.500000000000000    0.766264000000000 
P           0.430134000000000    0.000000000000000    0.239360000000000 
P           0.547705000000000    0.500000000000000    0.198660000000000 
P           0.583184000000000    0.204377000000000    0.020593000000000 
P           0.583184000000000    0.795623000000000    0.020593000000000 
P           0.640687000000000    0.000000000000000    0.128822000000000 
K           0.441827000000000    0.300607000000000    0.445093000000000 
K           0.441827000000000    0.699393000000000    0.445093000000000 
K           0.714617000000000    0.500000000000000    0.560113000000000 
K           0.915467000000000    0.500000000000000    0.937925000000000 
%ENDBLOCK POSITIONS_FRAC
