# Cell file generated by matador (Matthew Evans 2016)

%BLOCK LATTICE_CART
6.7432 0.0 0.0
-3.3716 5.83978 0.0
0.0 0.0 9.75291
%ENDBLOCK LATTICE_CART

%BLOCK POSITIONS_FRAC
P           0.167878000000000    0.774188000000000    0.705130000000000 
P           0.225812000000000    0.393689000000000    0.705130000000000 
P           0.239082000000000    0.681504000000000    0.901729000000000 
P           0.318496000000000    0.557578000000000    0.901729000000000 
P           0.393689000000000    0.167878000000000    0.705130000000000 
P           0.442422000000000    0.760918000000000    0.901729000000000 
P           0.557578000000000    0.239082000000000    0.901729000000000 
P           0.606311000000000    0.832122000000000    0.705130000000000 
P           0.681504000000000    0.442422000000000    0.901729000000000 
P           0.760918000000000    0.318496000000000    0.901729000000000 
P           0.774188000000000    0.606311000000000    0.705130000000000 
P           0.832122000000000    0.225812000000000    0.705130000000000 
K           0.000000000000000    0.000000000000000    0.041238000000000 
K           0.000000000000000    0.000000000000000    0.412544000000000 
K           0.333333000000000    0.666667000000000    0.493592000000000 
K           0.666667000000000    0.333333000000000    0.493592000000000 
%ENDBLOCK POSITIONS_FRAC
