# Cell file generated by matador (Matthew Evans 2016)

%BLOCK LATTICE_CART
7.16208 0.0 0.0
-3.58104 6.20254 0.0
0.0 0.0 9.76963
%ENDBLOCK LATTICE_CART

%BLOCK POSITIONS_FRAC
P           0.000000000000000    0.000000000000000    0.250000000000000 
P           0.000000000000000    0.000000000000000    0.750000000000000 
P           0.135548000000000    0.271095000000000    0.250000000000000 
P           0.135548000000000    0.864452000000000    0.250000000000000 
P           0.271095000000000    0.135548000000000    0.750000000000000 
P           0.333333000000000    0.666667000000000    0.250000000000000 
P           0.666667000000000    0.333333000000000    0.750000000000000 
P           0.728905000000000    0.864452000000000    0.250000000000000 
P           0.864452000000000    0.135548000000000    0.750000000000000 
P           0.864452000000000    0.728905000000000    0.750000000000000 
K           0.000000000000000    0.465715000000000    0.500000000000000 
K           0.000000000000000    0.534285000000000    0.000000000000000 
K           0.465715000000000    0.000000000000000    0.500000000000000 
K           0.465715000000000    0.465715000000000    0.000000000000000 
K           0.534285000000000    0.000000000000000    0.000000000000000 
K           0.534285000000000    0.534285000000000    0.500000000000000 
%ENDBLOCK POSITIONS_FRAC
