# Cell file generated by matador (Matthew Evans 2016)

%BLOCK LATTICE_CART
7.47552 0.0 0.0
0.0 7.47552 0.0
0.0 0.0 7.88072
%ENDBLOCK LATTICE_CART

%BLOCK POSITIONS_FRAC
P           0.000000000000000    0.232459000000000    0.500000000000000 
P           0.000000000000000    0.767541000000000    0.500000000000000 
P           0.232459000000000    0.000000000000000    0.500000000000000 
P           0.267541000000000    0.500000000000000    0.000000000000000 
P           0.500000000000000    0.267541000000000    0.000000000000000 
P           0.500000000000000    0.732459000000000    0.000000000000000 
P           0.732459000000000    0.500000000000000    0.000000000000000 
P           0.767541000000000    0.000000000000000    0.500000000000000 
K           0.000000000000000    0.000000000000000    0.000000000000000 
K           0.000000000000000    0.500000000000000    0.000000000000000 
K           0.000000000000000    0.500000000000000    0.500000000000000 
K           0.500000000000000    0.000000000000000    0.000000000000000 
K           0.500000000000000    0.000000000000000    0.500000000000000 
K           0.500000000000000    0.500000000000000    0.500000000000000 
%ENDBLOCK POSITIONS_FRAC
