# Cell file generated by matador (Matthew Evans 2016)

%BLOCK LATTICE_CART
8.06851 0.0 0.0
1.74407 9.19807 0.0
0.518947 -3.11346 7.22912
%ENDBLOCK LATTICE_CART

%BLOCK POSITIONS_FRAC
P           0.012105000000000    0.244589000000000    0.122058000000000 
P           0.193173000000000    0.561663000000000    0.321885000000000 
P           0.221406000000000    0.885927000000000    0.832765000000000 
P           0.361921000000000    0.586266000000000    0.314968000000000 
P           0.468052000000000    0.312312000000000    0.783691000000000 
P           0.531948000000000    0.687688000000000    0.216309000000000 
P           0.638079000000000    0.413734000000000    0.685032000000000 
P           0.778594000000000    0.114073000000000    0.167235000000000 
P           0.806827000000000    0.438337000000000    0.678115000000000 
P           0.987895000000000    0.755411000000000    0.877942000000000 
K           0.000000000000000    0.000000000000000    0.000000000000000 
K           0.000000000000000    0.000000000000000    0.500000000000000 
K           0.000000000000000    0.500000000000000    0.000000000000000 
K           0.000000000000000    0.500000000000000    0.500000000000000 
K           0.500000000000000    0.000000000000000    0.000000000000000 
K           0.500000000000000    0.000000000000000    0.500000000000000 
K           0.500000000000000    0.500000000000000    0.000000000000000 
K           0.500000000000000    0.500000000000000    0.500000000000000 
%ENDBLOCK POSITIONS_FRAC
