# Cell file generated by matador (Matthew Evans 2016)

%BLOCK LATTICE_CART
5.86441 0.0 0.0
0.0 12.3484 0.0
0.0 0.0 5.8022
%ENDBLOCK LATTICE_CART

%BLOCK POSITIONS_FRAC
P           0.000000000000000    0.168313000000000    0.000000000000000 
P           0.000000000000000    0.831687000000000    0.000000000000000 
P           0.197747000000000    0.364982000000000    0.000000000000000 
P           0.197747000000000    0.635018000000000    0.000000000000000 
P           0.302253000000000    0.135018000000000    0.500000000000000 
P           0.302253000000000    0.864982000000000    0.500000000000000 
P           0.500000000000000    0.331687000000000    0.500000000000000 
P           0.500000000000000    0.668313000000000    0.500000000000000 
P           0.697747000000000    0.135018000000000    0.500000000000000 
P           0.697747000000000    0.864982000000000    0.500000000000000 
P           0.802253000000000    0.364982000000000    0.000000000000000 
P           0.802253000000000    0.635018000000000    0.000000000000000 
K           0.000000000000000    0.000000000000000    0.000000000000000 
K           0.000000000000000    0.000000000000000    0.500000000000000 
K           0.000000000000000    0.500000000000000    0.000000000000000 
K           0.500000000000000    0.000000000000000    0.500000000000000 
K           0.500000000000000    0.500000000000000    0.000000000000000 
K           0.500000000000000    0.500000000000000    0.500000000000000 
%ENDBLOCK POSITIONS_FRAC
