# Cell file generated by matador (Matthew Evans 2016)

%BLOCK LATTICE_CART
9.38321 0.0 0.0
0.0 4.59572 0.0
-1.54467 0.0 8.70871
%ENDBLOCK LATTICE_CART

%BLOCK POSITIONS_FRAC
P           0.000000000000000    0.335117000000000    0.000000000000000 
P           0.000000000000000    0.837035000000000    0.000000000000000 
P           0.079973000000000    0.396236000000000    0.420015000000000 
P           0.403108000000000    0.346101000000000    0.472733000000000 
P           0.500000000000000    0.772182000000000    0.000000000000000 
P           0.596892000000000    0.346101000000000    0.527267000000000 
P           0.920027000000000    0.396236000000000    0.579985000000000 
K           0.000000000000000    0.777097000000000    0.500000000000000 
K           0.126406000000000    0.903554000000000    0.705297000000000 
K           0.441328000000000    0.315008000000000    0.861070000000000 
K           0.500000000000000    0.938008000000000    0.500000000000000 
K           0.558672000000000    0.315008000000000    0.138930000000000 
K           0.873594000000000    0.903554000000000    0.294703000000000 
%ENDBLOCK POSITIONS_FRAC
