# Cell file generated by matador (Matthew Evans 2016)

%BLOCK LATTICE_CART
8.40261 0.0 0.0
-4.20131 7.27687 0.0
0.0 0.0 6.89113
%ENDBLOCK LATTICE_CART

%BLOCK POSITIONS_FRAC
P          -0.000000000000000   -0.000000000000000    0.000000000000000 
P          -0.000000000000000   -0.000000000000000    0.235596000000000 
P          -0.000000000000000   -0.000000000000000    0.500000000000000 
P          -0.000000000000000   -0.000000000000000    0.764404000000000 
P          -0.000000000000000    0.500000000000000    0.500000000000000 
P           0.031115000000000    0.656670000000000    0.466740000000000 
P           0.333333000000000    0.666667000000000    0.370868000000000 
P           0.343330000000000    0.374445000000000    0.466740000000000 
P           0.374445000000000    0.031115000000000    0.533260000000000 
P           0.500000000000000   -0.000000000000000    0.500000000000000 
P           0.500000000000000    0.500000000000000    0.500000000000000 
P           0.625555000000000    0.968885000000000    0.466740000000000 
P           0.656670000000000    0.625555000000000    0.533260000000000 
P           0.666667000000000    0.333333000000000    0.629132000000000 
P           0.968885000000000    0.343330000000000    0.533260000000000 
K          -0.000000000000000    0.500000000000000    0.000000000000000 
K           0.500000000000000   -0.000000000000000    0.000000000000000 
K           0.500000000000000    0.500000000000000    0.000000000000000 
%ENDBLOCK POSITIONS_FRAC
