# Cell file generated by matador (Matthew Evans 2016)

%BLOCK LATTICE_CART
8.48635 0.0 0.0
0.0 8.48635 0.0
0.0 0.0 7.83962
%ENDBLOCK LATTICE_CART

%BLOCK POSITIONS_FRAC
P           0.171791000000000    0.328209000000000    0.151051000000000 
P           0.328209000000000    0.828209000000000    0.848949000000000 
P           0.671791000000000    0.171791000000000    0.848949000000000 
P           0.828209000000000    0.671791000000000    0.151051000000000 
K           0.000000000000000    0.000000000000000    0.500000000000000 
K           0.000000000000000    0.500000000000000    0.187048000000000 
K           0.126601000000000    0.626601000000000    0.548895000000000 
K           0.166776000000000    0.666776000000000    0.920767000000000 
K           0.333224000000000    0.166776000000000    0.079233000000000 
K           0.373399000000000    0.126601000000000    0.451105000000000 
K           0.500000000000000    0.000000000000000    0.812952000000000 
K           0.500000000000000    0.500000000000000    0.500000000000000 
K           0.626601000000000    0.873399000000000    0.451105000000000 
K           0.666776000000000    0.833224000000000    0.079233000000000 
K           0.833224000000000    0.333224000000000    0.920767000000000 
K           0.873399000000000    0.373399000000000    0.548895000000000 
%ENDBLOCK POSITIONS_FRAC
