# Cell file generated by matador (Matthew Evans 2016)

%BLOCK LATTICE_CART
8.39298 0.0 0.0
-4.19649 7.26853 0.0
0.0 0.0 9.18478
%ENDBLOCK LATTICE_CART

%BLOCK POSITIONS_FRAC
P           0.137579000000000    0.275158000000000    0.000000000000000 
P           0.137579000000000    0.862421000000000    0.000000000000000 
P           0.275158000000000    0.137579000000000    0.000000000000000 
P           0.333333000000000    0.666667000000000    0.500000000000000 
P           0.666667000000000    0.333333000000000    0.500000000000000 
P           0.724842000000000    0.862421000000000    0.000000000000000 
P           0.862421000000000    0.137579000000000    0.000000000000000 
P           0.862421000000000    0.724842000000000    0.000000000000000 
K           0.000000000000000    0.000000000000000    0.000000000000000 
K           0.000000000000000    0.000000000000000    0.500000000000000 
K           0.000000000000000    0.500000000000000    0.000000000000000 
K           0.000000000000000    0.500000000000000    0.500000000000000 
K           0.333333000000000    0.666667000000000    0.000000000000000 
K           0.500000000000000    0.000000000000000    0.000000000000000 
K           0.500000000000000    0.000000000000000    0.500000000000000 
K           0.500000000000000    0.500000000000000    0.000000000000000 
K           0.500000000000000    0.500000000000000    0.500000000000000 
K           0.666667000000000    0.333333000000000    0.000000000000000 
%ENDBLOCK POSITIONS_FRAC
