# Cell file generated by matador (Matthew Evans 2016)

%BLOCK LATTICE_CART
7.92361 0.0 0.0
-3.96181 6.86205 0.0
0.0 0.0 10.0779
%ENDBLOCK LATTICE_CART

%BLOCK POSITIONS_FRAC
P           0.999999000000000    0.999999000000000    0.500000000000000 
P           0.999999000000000    0.360638000000000    0.500000000000000 
P           0.999999000000000    0.499999000000000    0.000000000000000 
P           0.999999000000000    0.639360000000000    0.500000000000000 
P           0.333332000000000    0.666666000000000    0.198453000000000 
P           0.333332000000000    0.666666000000000    0.801547000000000 
P           0.360638000000000    0.999999000000000    0.500000000000000 
P           0.360638000000000    0.360638000000000    0.500000000000000 
P           0.499999000000000    0.999999000000000    0.000000000000000 
P           0.499999000000000    0.499999000000000    0.000000000000000 
P           0.639360000000000    0.999999000000000    0.500000000000000 
P           0.639360000000000    0.639360000000000    0.500000000000000 
P           0.666666000000000    0.333332000000000    0.198453000000000 
P           0.666666000000000    0.333332000000000    0.801547000000000 
K           0.333332000000000    0.666666000000000    0.000000000000000 
K           0.666666000000000    0.333332000000000    0.000000000000000 
%ENDBLOCK POSITIONS_FRAC
