# Cell file generated by matador (Matthew Evans 2016)

%BLOCK LATTICE_CART
9.97432 0.0 0.0
0.0 9.97432 0.0
0.0 0.0 9.94821
%ENDBLOCK LATTICE_CART

%BLOCK POSITIONS_FRAC
P           0.000000000000000    0.000000000000000    0.262943000000000 
P           0.000000000000000    0.500000000000000    0.408953000000000 
P           0.000000000000000    0.500000000000000    0.908953000000000 
P           0.500000000000000    0.000000000000000    0.408953000000000 
P           0.500000000000000    0.000000000000000    0.908953000000000 
P           0.500000000000000    0.500000000000000    0.762943000000000 
K           0.000000000000000    0.000000000000000    0.014035000000000 
K           0.150580000000000    0.150580000000000    0.786032000000000 
K           0.150580000000000    0.849420000000000    0.786032000000000 
K           0.171733000000000    0.171733000000000    0.450411000000000 
K           0.171733000000000    0.828267000000000    0.450411000000000 
K           0.328267000000000    0.328267000000000    0.950411000000000 
K           0.328267000000000    0.671733000000000    0.950411000000000 
K           0.349420000000000    0.349420000000000    0.286032000000000 
K           0.349420000000000    0.650580000000000    0.286032000000000 
K           0.500000000000000    0.500000000000000    0.514035000000000 
K           0.650580000000000    0.349420000000000    0.286032000000000 
K           0.650580000000000    0.650580000000000    0.286032000000000 
K           0.671733000000000    0.328267000000000    0.950411000000000 
K           0.671733000000000    0.671733000000000    0.950411000000000 
K           0.828267000000000    0.171733000000000    0.450411000000000 
K           0.828267000000000    0.828267000000000    0.450411000000000 
K           0.849420000000000    0.150580000000000    0.786032000000000 
K           0.849420000000000    0.849420000000000    0.786032000000000 
%ENDBLOCK POSITIONS_FRAC
