# Cell file generated by matador (Matthew Evans 2016)

%BLOCK LATTICE_CART
9.83359 0.0 0.0
-4.9168 8.51614 0.0
0.0 0.0 4.38802
%ENDBLOCK LATTICE_CART

%BLOCK POSITIONS_FRAC
P           0.008640000000000    0.602563000000000    0.860044000000000 
P           0.126440000000000    0.808271000000000    0.536220000000000 
P           0.191729000000000    0.318168000000000    0.202886000000000 
P           0.194705000000000    0.675945000000000    0.423233000000000 
P           0.204678000000000    0.768861000000000    0.906512000000000 
P           0.231139000000000    0.435815000000000    0.573179000000000 
P           0.324055000000000    0.518758000000000    0.089899000000000 
P           0.397437000000000    0.406075000000000    0.526711000000000 
P           0.481242000000000    0.805295000000000    0.756566000000000 
P           0.520788000000000    0.055482000000000    0.437818000000000 
P           0.534696000000000    0.479212000000000    0.771152000000000 
P           0.564185000000000    0.795322000000000    0.239845000000000 
P           0.593925000000000    0.991360000000000    0.193378000000000 
P           0.681832000000000    0.873560000000000    0.869553000000000 
P           0.944518000000000    0.465304000000000    0.104485000000000 
K           0.393069000000000    0.229863000000000    0.012831000000000 
K           0.770137000000000    0.163205000000000    0.679498000000000 
K           0.836795000000000    0.606931000000000    0.346164000000000 
%ENDBLOCK POSITIONS_FRAC
