# Cell file generated by matador (Matthew Evans 2016)

%BLOCK LATTICE_CART
10.4284 0.0 0.0
0.0 10.4284 0.0
0.0 0.0 12.3601
%ENDBLOCK LATTICE_CART

%BLOCK POSITIONS_FRAC
P           0.000000000000000   -0.000000000000000    0.314977000000000 
P           0.000000000000000   -0.000000000000000    0.685023000000000 
P           0.000000000000000    0.500000000000000    0.571078000000000 
P           0.000000000000000    0.500000000000000    0.928922000000000 
P           0.500000000000000   -0.000000000000000    0.071078000000000 
P           0.500000000000000   -0.000000000000000    0.428922000000000 
P           0.500000000000000    0.500000000000000    0.185023000000000 
P           0.500000000000000    0.500000000000000    0.814977000000000 
K           0.000000000000000   -0.000000000000000   -0.000000000000000 
K           0.000000000000000   -0.000000000000000    0.500000000000000 
K           0.000000000000000    0.245323000000000    0.873156000000000 
K           0.000000000000000    0.280470000000000    0.445896000000000 
K           0.000000000000000    0.500000000000000    0.250000000000000 
K           0.000000000000000    0.500000000000000    0.750000000000000 
K           0.000000000000000    0.719530000000000    0.445896000000000 
K           0.000000000000000    0.754677000000000    0.873156000000000 
K           0.219530000000000    0.500000000000000    0.054104000000000 
K           0.245323000000000   -0.000000000000000    0.126844000000000 
K           0.254677000000000    0.500000000000000    0.626844000000000 
K           0.280470000000000   -0.000000000000000    0.554104000000000 
K           0.500000000000000   -0.000000000000000    0.250000000000000 
K           0.500000000000000   -0.000000000000000    0.750000000000000 
K           0.500000000000000    0.219530000000000    0.945896000000000 
K           0.500000000000000    0.254677000000000    0.373156000000000 
K           0.500000000000000    0.500000000000000   -0.000000000000000 
K           0.500000000000000    0.500000000000000    0.500000000000000 
K           0.500000000000000    0.745323000000000    0.373156000000000 
K           0.500000000000000    0.780470000000000    0.945896000000000 
K           0.719530000000000   -0.000000000000000    0.554104000000000 
K           0.745323000000000    0.500000000000000    0.626844000000000 
K           0.754677000000000   -0.000000000000000    0.126844000000000 
K           0.780470000000000    0.500000000000000    0.054104000000000 
%ENDBLOCK POSITIONS_FRAC
