# Cell file generated by matador (Matthew Evans 2016)

%BLOCK LATTICE_CART
5.8775 0.0 0.0
-2.93875 5.09007 0.0
0.0 0.0 11.1002
%ENDBLOCK LATTICE_CART

%BLOCK POSITIONS_FRAC
P           0.000000000000000    0.000000000000000    0.057191000000000 
P           0.000000000000000    0.000000000000000    0.531345000000000 
P           0.000000000000000    0.000000000000000    0.965785000000000 
P           0.333333000000000    0.666667000000000    0.198011000000000 
P           0.333333000000000    0.666667000000000    0.632451000000000 
P           0.333333000000000    0.666667000000000    0.723858000000000 
P           0.666667000000000    0.333333000000000    0.299118000000000 
P           0.666667000000000    0.333333000000000    0.390525000000000 
P           0.666667000000000    0.333333000000000    0.864678000000000 
K           0.000000000000000    0.000000000000000    0.344603000000000 
K           0.333333000000000    0.666667000000000    0.011270000000000 
K           0.666667000000000    0.333333000000000    0.677936000000000 
%ENDBLOCK POSITIONS_FRAC
