# Cell file generated by matador (Matthew Evans 2016)

%BLOCK LATTICE_CART
6.3923 0.0 0.0
-3.19615 5.53589 0.0
0.0 0.0 6.2743
%ENDBLOCK LATTICE_CART

%BLOCK POSITIONS_FRAC
P           0.333333000000000    0.666667000000000    0.167385000000000 
P           0.666666000000000    0.333334000000000    0.984921000000000 
K          -0.000000000000000    0.000000000000000    0.148593000000000 
K           0.057140000000000    0.330713000000000    0.903638000000000 
K           0.273573000000000    0.942860000000000    0.903638000000000 
K           0.669287000000000    0.726427000000000    0.903638000000000 
%ENDBLOCK POSITIONS_FRAC
