# Cell file generated by matador (Matthew Evans 2016)

%BLOCK LATTICE_CART
7.30622 0.0 0.0
0.0 9.50942 0.0
0.0 0.0 7.52918
%ENDBLOCK LATTICE_CART

%BLOCK POSITIONS_FRAC
P           0.081803000000000    0.121255000000000    0.590440000000000 
P           0.081803000000000    0.878745000000000    0.590440000000000 
P           0.111782000000000    0.398976000000000    0.806504000000000 
P           0.111782000000000    0.601024000000000    0.806504000000000 
P           0.378092000000000    0.168947000000000    0.909826000000000 
P           0.378092000000000    0.831053000000000    0.909826000000000 
P           0.500000000000000    0.258783000000000    0.495977000000000 
P           0.500000000000000    0.741217000000000    0.495977000000000 
P           0.621908000000000    0.168947000000000    0.909826000000000 
P           0.621908000000000    0.831053000000000    0.909826000000000 
P           0.888218000000000    0.398976000000000    0.806504000000000 
P           0.888218000000000    0.601024000000000    0.806504000000000 
P           0.918197000000000    0.121255000000000    0.590440000000000 
P           0.918197000000000    0.878745000000000    0.590440000000000 
K           0.194253000000000    0.384584000000000    0.068068000000000 
K           0.194253000000000    0.615416000000000    0.068068000000000 
K           0.805747000000000    0.384584000000000    0.068068000000000 
K           0.805747000000000    0.615416000000000    0.068068000000000 
%ENDBLOCK POSITIONS_FRAC
