# Cell file generated by matador (Matthew Evans 2016)

%BLOCK LATTICE_CART
6.82702 0.0 0.0
-3.41351 5.91237 0.0
0.0 0.0 17.2309
%ENDBLOCK LATTICE_CART

%BLOCK POSITIONS_FRAC
P           0.333334000000000    0.666668000000000    0.633930000000000 
P           0.333334000000000    0.666668000000000    0.866070000000000 
P           0.666668000000000    0.333334000000000    0.133930000000000 
P           0.666668000000000    0.333334000000000    0.366070000000000 
K           0.000001000000000    0.000001000000000    0.000000000000000 
K           0.000001000000000    0.000001000000000    0.500000000000000 
K           0.000001000000000    0.500001000000000    0.000000000000000 
K           0.000001000000000    0.500001000000000    0.500000000000000 
K           0.333334000000000    0.666668000000000    0.250000000000000 
K           0.333334000000000    0.666668000000000    0.750000000000000 
K           0.500001000000000    0.000001000000000    0.000000000000000 
K           0.500001000000000    0.000001000000000    0.500000000000000 
K           0.500001000000000    0.500001000000000    0.000000000000000 
K           0.500001000000000    0.500001000000000    0.500000000000000 
K           0.666668000000000    0.333334000000000    0.250000000000000 
K           0.666668000000000    0.333334000000000    0.750000000000000 
%ENDBLOCK POSITIONS_FRAC
