# Cell file generated by matador (Matthew Evans 2016)

%BLOCK LATTICE_CART
7.32069 0.0 0.0
-3.66035 6.3399 0.0
0.0 0.0 7.06573
%ENDBLOCK LATTICE_CART

%BLOCK POSITIONS_FRAC
P          -0.000000000000000    0.000000000000000    0.000000000000000 
P          -0.000000000000000    0.000000000000000    0.500000000000000 
P          -0.000000000000000    0.500000000000000    0.000000000000000 
P          -0.000000000000000    0.500000000000000    0.500000000000000 
P           0.333333000000000    0.666667000000000    0.415412000000000 
P           0.500000000000000    0.000000000000000    0.000000000000000 
P           0.500000000000000    0.000000000000000    0.500000000000000 
P           0.500000000000000    0.500000000000000    0.000000000000000 
P           0.500000000000000    0.500000000000000    0.500000000000000 
P           0.666666000000000    0.333334000000000    0.584588000000000 
K           0.333333000000000    0.666667000000000    0.861771000000000 
K           0.666666000000000    0.333334000000000    0.138229000000000 
%ENDBLOCK POSITIONS_FRAC
