# Cell file generated by matador (Matthew Evans 2016)

%BLOCK LATTICE_CART
10.1025 0.0 0.0
-5.05127 8.74906 0.0
0.0 0.0 10.1942
%ENDBLOCK LATTICE_CART

%BLOCK POSITIONS_FRAC
P          -0.000000000000000   -0.000000000000000    0.660111000000000 
P          -0.000000000000000   -0.000000000000000    0.912129000000000 
P           0.333333000000000    0.666667000000000    0.326777000000000 
P           0.333333000000000    0.666667000000000    0.578796000000000 
P           0.666667000000000    0.333333000000000    0.245463000000000 
P           0.666667000000000    0.333333000000000    0.993444000000000 
K           0.056403000000000    0.528202000000000    0.156658000000000 
K           0.138465000000000    0.276930000000000    0.489992000000000 
K           0.138465000000000    0.861535000000000    0.489992000000000 
K           0.218227000000000    0.436453000000000    0.945018000000000 
K           0.218227000000000    0.781773000000000    0.945018000000000 
K           0.230214000000000    0.115107000000000    0.278351000000000 
K           0.389736000000000    0.194868000000000    0.823325000000000 
K           0.471798000000000    0.528202000000000    0.156658000000000 
K           0.471798000000000    0.943597000000000    0.156658000000000 
K           0.551560000000000    0.103120000000000    0.611685000000000 
K           0.551560000000000    0.448440000000000    0.611685000000000 
K           0.563547000000000    0.781773000000000    0.945018000000000 
K           0.723070000000000    0.861535000000000    0.489992000000000 
K           0.805132000000000    0.194868000000000    0.823325000000000 
K           0.805132000000000    0.610264000000000    0.823325000000000 
K           0.884893000000000    0.115107000000000    0.278351000000000 
K           0.884893000000000    0.769786000000000    0.278351000000000 
K           0.896880000000000    0.448440000000000    0.611685000000000 
%ENDBLOCK POSITIONS_FRAC
