# Cell file generated by matador (Matthew Evans 2016)

%BLOCK LATTICE_CART
8.52523 -0.0 0.0
-4.26261 7.38307 0.0
0.0 0.0 8.25462
%ENDBLOCK LATTICE_CART

%BLOCK POSITIONS_FRAC
P           0.000000000000000   -0.000000000000000    0.102172000000000 
P           0.164616000000000    0.382092000000000    0.343542000000000 
P           0.217475000000000    0.835384000000000    0.343542000000000 
P           0.284575000000000    0.115858000000000    0.676875000000000 
P           0.333333000000000    0.666667000000000    0.768839000000000 
P           0.497950000000000    0.048758000000000    0.010209000000000 
P           0.550809000000000    0.502050000000000    0.010209000000000 
P           0.617908000000000    0.782525000000000    0.343542000000000 
P           0.666667000000000    0.333333000000000    0.435506000000000 
P           0.831283000000000    0.715425000000000    0.676875000000000 
P           0.884142000000000    0.168717000000000    0.676875000000000 
P           0.951242000000000    0.449191000000000    0.010209000000000 
K           0.000000000000000   -0.000000000000000    0.740735000000000 
K           0.333333000000000    0.666667000000000    0.407401000000000 
K           0.666667000000000    0.333333000000000    0.074068000000000 
%ENDBLOCK POSITIONS_FRAC
