# Cell file generated by matador (Matthew Evans 2016)

%BLOCK LATTICE_CART
7.11764 -0.0 0.0
-3.55882 6.16406 0.0
0.0 0.0 5.83195
%ENDBLOCK LATTICE_CART

%BLOCK POSITIONS_FRAC
P           0.102060000000000    0.879121000000000    0.250581000000000 
P           0.110395000000000    0.564607000000000    0.917248000000000 
P           0.120879000000000    0.222939000000000    0.250581000000000 
P           0.435393000000000    0.545788000000000    0.917248000000000 
P           0.443728000000000    0.231274000000000    0.583915000000000 
P           0.454212000000000    0.889605000000000    0.917248000000000 
P           0.768726000000000    0.212454000000000    0.583915000000000 
P           0.777061000000000    0.897940000000000    0.250581000000000 
P           0.787546000000000    0.556272000000000    0.583915000000000 
K           0.000000000000000    0.000000000000000    0.661392000000000 
K           0.333333000000000    0.666667000000000    0.328059000000000 
K           0.666667000000000    0.333333000000000    0.994725000000000 
%ENDBLOCK POSITIONS_FRAC
