# Cell file generated by matador (Matthew Evans 2016)

%BLOCK LATTICE_CART
7.6748 0.0 0.0
1.53299 7.08173 0.0
0.574585 -0.0657167 6.91969
%ENDBLOCK LATTICE_CART

%BLOCK POSITIONS_FRAC
P           0.000000000000000    0.500000000000000    0.500000000000000 
P           0.106589000000000    0.726723000000000    0.030535000000000 
P           0.205495000000000    0.476256000000000    0.954949000000000 
P           0.236131000000000    0.985457000000000    0.845717000000000 
P           0.418743000000000    0.039843000000000    0.890464000000000 
P           0.500000000000000    0.000000000000000    0.000000000000000 
P           0.500000000000000    0.500000000000000    0.000000000000000 
P           0.500000000000000    0.500000000000000    0.500000000000000 
P           0.581257000000000    0.960157000000000    0.109536000000000 
P           0.763869000000000    0.014542000000000    0.154283000000000 
P           0.794505000000000    0.523744000000000    0.045051000000000 
P           0.893411000000000    0.273277000000000    0.969465000000000 
K           0.000000000000000    0.000000000000000    0.000000000000000 
K           0.000000000000000    0.000000000000000    0.500000000000000 
K           0.500000000000000    0.000000000000000    0.500000000000000 
%ENDBLOCK POSITIONS_FRAC
