# Cell file generated by matador (Matthew Evans 2016)

%BLOCK LATTICE_CART
8.31146 0.0 0.0
-4.15573 7.19794 0.0
0.0 0.0 9.88166
%ENDBLOCK LATTICE_CART

%BLOCK POSITIONS_FRAC
P          -0.000000000000000    0.500000000000000    0.000000000000000 
P          -0.000000000000000    0.500000000000000    0.500000000000000 
P           0.500000000000000    0.000000000000000    0.000000000000000 
P           0.500000000000000    0.000000000000000    0.500000000000000 
P           0.500000000000000    0.500000000000000    0.000000000000000 
P           0.500000000000000    0.500000000000000    0.500000000000000 
K          -0.000000000000000    0.000000000000000    0.250000000000000 
K          -0.000000000000000    0.000000000000000    0.750000000000000 
K           0.032576000000000    0.516288000000000    0.250000000000000 
K           0.333333000000000    0.666667000000000    0.750000000000000 
K           0.483712000000000    0.516288000000000    0.250000000000000 
K           0.483712000000000    0.967424000000000    0.250000000000000 
K           0.516288000000000    0.032576000000000    0.750000000000000 
K           0.516288000000000    0.483712000000000    0.750000000000000 
K           0.666667000000000    0.333333000000000    0.250000000000000 
K           0.967424000000000    0.483712000000000    0.750000000000000 
%ENDBLOCK POSITIONS_FRAC
