# Cell file generated by matador (Matthew Evans 2016)

%BLOCK LATTICE_CART
5.07543 0.0 0.0
0.0 5.60429 0.0
1.65574 0.0 4.95847
%ENDBLOCK LATTICE_CART

%BLOCK POSITIONS_FRAC
P           0.592919000000000    0.267144000000000    0.095900000000000 
P           0.592919000000000    0.732856000000000    0.095900000000000 
P           0.626805000000000    0.179806000000000    0.560955000000000 
P           0.626805000000000    0.820194000000000    0.560955000000000 
K           0.791861000000000    0.500000000000000    0.630769000000000 
K           0.852599000000000   -0.000000000000000    0.777676000000000 
%ENDBLOCK POSITIONS_FRAC
