# Cell file generated by matador (Matthew Evans 2016)

%BLOCK LATTICE_CART
6.02553 0.0 0.0
-3.01276 5.21826 0.0
0.0 0.0 6.53926
%ENDBLOCK LATTICE_CART

%BLOCK POSITIONS_FRAC
P           0.255954000000000    0.709834000000000    0.100271000000000 
P           0.290166000000000    0.546120000000000    0.100271000000000 
P           0.422299000000000    0.204625000000000    0.683674000000000 
P           0.453880000000000    0.744046000000000    0.100271000000000 
P           0.782326000000000    0.577701000000000    0.683674000000000 
P           0.795375000000000    0.217674000000000    0.683674000000000 
K           0.000000000000000    0.000000000000000    0.532736000000000 
K           0.333333000000000    0.666667000000000    0.628194000000000 
%ENDBLOCK POSITIONS_FRAC
