# Cell file generated by matador (Matthew Evans 2016)

%BLOCK LATTICE_CART
7.02688 -0.0 0.0
-3.51344 6.08546 0.0
0.0 0.0 4.75901
%ENDBLOCK LATTICE_CART

%BLOCK POSITIONS_FRAC
P           0.000000000000000    0.000000000000000    0.162614000000000 
P           0.333333000000000    0.666667000000000    0.161068000000000 
P           0.333333000000000    0.666667000000000    0.914216000000000 
P           0.666667000000000    0.333333000000000    0.529915000000000 
K           0.045090000000000    0.521049000000000    0.411832000000000 
K           0.475959000000000    0.954910000000000    0.411832000000000 
K           0.478951000000000    0.524041000000000    0.411832000000000 
%ENDBLOCK POSITIONS_FRAC
