# Cell file generated by matador (Matthew Evans 2016)

%BLOCK LATTICE_CART
7.88236 0.0 0.0
-3.94118 6.82633 0.0
0.0 0.0 7.74399
%ENDBLOCK LATTICE_CART

%BLOCK POSITIONS_FRAC
P           0.000000000000000    0.000000000000000    0.854928000000000 
P           0.000000000000000    0.500000000000000    0.730202000000000 
P           0.333333000000000    0.666667000000000    0.106861000000000 
P           0.500000000000000    0.000000000000000    0.730202000000000 
P           0.500000000000000    0.500000000000000    0.730202000000000 
P           0.666667000000000    0.333333000000000    0.106861000000000 
K           0.000000000000000    0.000000000000000    0.492441000000000 
K           0.000000000000000    0.500000000000000    0.330035000000000 
K           0.333333000000000    0.666667000000000    0.528631000000000 
K           0.500000000000000    0.000000000000000    0.330035000000000 
K           0.500000000000000    0.500000000000000    0.330035000000000 
K           0.666667000000000    0.333333000000000    0.528631000000000 
%ENDBLOCK POSITIONS_FRAC
