# Cell file generated by matador (Matthew Evans 2016)

%BLOCK LATTICE_CART
8.5714 0.0 0.0
0.0 8.5714 0.0
0.0 0.0 4.19859
%ENDBLOCK LATTICE_CART

%BLOCK POSITIONS_FRAC
P           0.149085000000000    0.177258000000000    0.942130000000000 
P           0.177258000000000    0.850915000000000    0.057870000000000 
P           0.500000000000000    0.500000000000000    0.500000000000000 
P           0.822742000000000    0.149085000000000    0.057870000000000 
P           0.850915000000000    0.822742000000000    0.942130000000000 
K          -0.000000000000000   -0.000000000000000    0.000000000000000 
K           0.176652000000000    0.636719000000000    0.589087000000000 
K           0.363281000000000    0.176652000000000    0.410913000000000 
K           0.500000000000000    0.500000000000000    0.000000000000000 
K           0.636719000000000    0.823348000000000    0.410913000000000 
K           0.823348000000000    0.363281000000000    0.589087000000000 
%ENDBLOCK POSITIONS_FRAC
