# Cell file generated by matador (Matthew Evans 2016)

%BLOCK LATTICE_CART
6.24736 0.0 0.0
-3.12368 5.41038 0.0
0.0 0.0 6.22921
%ENDBLOCK LATTICE_CART

%BLOCK POSITIONS_FRAC
P           0.333333000000000    0.666667000000000    0.234423000000000 
P           0.666666000000000    0.333334000000000    0.271972000000000 
P           0.666666000000000    0.333334000000000    0.923210000000000 
K          -0.000000000000000    0.000000000000000    0.795801000000000 
K           0.328465000000000    0.046063000000000    0.028778000000000 
K           0.717598000000000    0.671535000000000    0.028778000000000 
K           0.953937000000000    0.282402000000000    0.028778000000000 
%ENDBLOCK POSITIONS_FRAC
