# Cell file generated by matador (Matthew Evans 2016)

%BLOCK LATTICE_CART
8.23041 0.0 0.0
-4.1152 7.12774 0.0
0.0 0.0 11.619
%ENDBLOCK LATTICE_CART

%BLOCK POSITIONS_FRAC
P           0.000000000000000    0.000000000000000    0.500000000000000 
P           0.000000000000000    0.500000000000000    0.500000000000000 
P           0.500000000000000    0.000000000000000    0.500000000000000 
P           0.500000000000000    0.500000000000000    0.500000000000000 
K           0.000000000000000    0.000000000000000    0.000000000000000 
K           0.000000000000000    0.405383000000000    0.720246000000000 
K           0.000000000000000    0.500000000000000    0.000000000000000 
K           0.000000000000000    0.594617000000000    0.279754000000000 
K           0.333333000000000    0.666667000000000    0.500000000000000 
K           0.405383000000000    0.000000000000000    0.720246000000000 
K           0.405383000000000    0.405383000000000    0.279754000000000 
K           0.500000000000000    0.000000000000000    0.000000000000000 
K           0.500000000000000    0.500000000000000    0.000000000000000 
K           0.594617000000000    0.000000000000000    0.279754000000000 
K           0.594617000000000    0.594617000000000    0.720246000000000 
K           0.666667000000000    0.333333000000000    0.500000000000000 
%ENDBLOCK POSITIONS_FRAC
