# Cell file generated by matador (Matthew Evans 2016)

%BLOCK LATTICE_CART
8.93961 0.0 0.0
-4.46981 7.74193 0.0
0.0 0.0 8.25476
%ENDBLOCK LATTICE_CART

%BLOCK POSITIONS_FRAC
P           0.115996000000000    0.557998000000000    0.044974000000000 
P           0.442000000000000    0.557998000000000    0.044974000000000 
P           0.442000000000000    0.884002000000000    0.044974000000000 
P           0.557998000000000    0.115996000000000    0.544974000000000 
P           0.557998000000000    0.442000000000000    0.544974000000000 
P           0.884002000000000    0.442000000000000    0.544974000000000 
K           0.123940000000000    0.247881000000000    0.364970000000000 
K           0.123940000000000    0.876058000000000    0.364970000000000 
K           0.247881000000000    0.123940000000000    0.864970000000000 
K           0.333332000000000    0.666666000000000    0.195835000000000 
K           0.333332000000000    0.666666000000000    0.905037000000000 
K           0.666666000000000    0.333332000000000    0.405037000000000 
K           0.666666000000000    0.333332000000000    0.695835000000000 
K           0.752117000000000    0.876058000000000    0.364970000000000 
K           0.876058000000000    0.123940000000000    0.864970000000000 
K           0.876058000000000    0.752117000000000    0.864970000000000 
%ENDBLOCK POSITIONS_FRAC
