# Cell file generated by matador (Matthew Evans 2016)

%BLOCK LATTICE_CART
8.18811 0.0 0.0
-4.09405 7.09111 0.0
0.0 0.0 5.8551
%ENDBLOCK LATTICE_CART

%BLOCK POSITIONS_FRAC
P           0.000000000000000    0.000000000000000    0.000000000000000 
P           0.333333000000000    0.666667000000000    0.500000000000000 
P           0.382431000000000    0.237824000000000    0.000000000000000 
P           0.762176000000000    0.144607000000000    0.000000000000000 
P           0.855393000000000    0.617569000000000    0.000000000000000 
K           0.000000000000000    0.000000000000000    0.500000000000000 
K           0.333333000000000    0.666667000000000    0.000000000000000 
K           0.360427000000000    0.241100000000000    0.500000000000000 
K           0.666667000000000    0.333333000000000    0.000000000000000 
K           0.666667000000000    0.333333000000000    0.500000000000000 
K           0.758900000000000    0.119327000000000    0.500000000000000 
K           0.880673000000000    0.639573000000000    0.500000000000000 
%ENDBLOCK POSITIONS_FRAC
