# Cell file generated by matador (Matthew Evans 2016)

%BLOCK LATTICE_CART
6.10729 0.0 0.0
0.0 6.10729 0.0
0.0 0.0 6.65504
%ENDBLOCK LATTICE_CART

%BLOCK POSITIONS_FRAC
P           0.178922000000000    0.384779000000000    0.498652000000000 
P           0.178922000000000    0.615221000000000    0.498652000000000 
P           0.384779000000000    0.178922000000000    0.498652000000000 
P           0.384779000000000    0.821078000000000    0.498652000000000 
P           0.615221000000000    0.178922000000000    0.498652000000000 
P           0.615221000000000    0.821078000000000    0.498652000000000 
P           0.821078000000000    0.384779000000000    0.498652000000000 
P           0.821078000000000    0.615221000000000    0.498652000000000 
K           0.000000000000000    0.000000000000000    0.706062000000000 
K           0.500000000000000    0.500000000000000    0.841348000000000 
%ENDBLOCK POSITIONS_FRAC
