# Cell file generated by matador (Matthew Evans 2016)

%BLOCK LATTICE_CART
7.69094 0.0 0.0
0.0 7.69094 0.0
0.0 0.0 7.69094
%ENDBLOCK LATTICE_CART

%BLOCK POSITIONS_FRAC
P           0.099863000000000    0.099863000000000    0.900137000000000 
P           0.099863000000000    0.900137000000000    0.099863000000000 
P           0.400137000000000    0.400137000000000    0.599863000000000 
P           0.400137000000000    0.599863000000000    0.400137000000000 
P           0.599863000000000    0.400137000000000    0.400137000000000 
P           0.599863000000000    0.599863000000000    0.599863000000000 
P           0.900137000000000    0.099863000000000    0.099863000000000 
P           0.900137000000000    0.900137000000000    0.900137000000000 
K           0.250000000000000    0.250000000000000    0.750000000000000 
K           0.250000000000000    0.750000000000000    0.250000000000000 
K           0.750000000000000    0.250000000000000    0.250000000000000 
K           0.750000000000000    0.750000000000000    0.750000000000000 
%ENDBLOCK POSITIONS_FRAC
