# Cell file generated by matador (Matthew Evans 2016)

%BLOCK LATTICE_CART
5.70362 0.0 0.0
0.0 10.0259 0.0
0.0 0.0 6.0743
%ENDBLOCK LATTICE_CART

%BLOCK POSITIONS_FRAC
P           0.500000000000000    0.291850000000000    0.860960000000000 
P           0.500000000000000    0.708150000000000    0.360960000000000 
K           0.000000000000000    0.178280000000000    0.314544000000000 
K           0.000000000000000    0.451771000000000    0.564496000000000 
K           0.000000000000000    0.548229000000000    0.064496000000000 
K           0.000000000000000    0.821720000000000    0.814544000000000 
K           0.500000000000000    0.104857000000000    0.522502000000000 
K           0.500000000000000    0.895143000000000    0.022502000000000 
%ENDBLOCK POSITIONS_FRAC
