# Cell file generated by matador (Matthew Evans 2016)

%BLOCK LATTICE_CART
8.62698 0.0 0.0
-4.31349 7.47119 0.0
0.0 0.0 7.9717
%ENDBLOCK LATTICE_CART

%BLOCK POSITIONS_FRAC
P           0.000000000000000    0.000000000000000    0.488769000000000 
P           0.190393000000000    0.380786000000000    0.700697000000000 
P           0.190393000000000    0.809607000000000    0.700697000000000 
P           0.290403000000000    0.050583000000000    0.002772000000000 
P           0.290403000000000    0.239820000000000    0.002772000000000 
P           0.333333000000000    0.666667000000000    0.242218000000000 
P           0.333333000000000    0.666667000000000    0.931072000000000 
P           0.619214000000000    0.809607000000000    0.700697000000000 
P           0.760180000000000    0.050583000000000    0.002772000000000 
P           0.760180000000000    0.709597000000000    0.002772000000000 
P           0.949417000000000    0.239820000000000    0.002772000000000 
P           0.949417000000000    0.709597000000000    0.002772000000000 
K           0.000000000000000    0.000000000000000    0.211279000000000 
K           0.333333000000000    0.666667000000000    0.527819000000000 
%ENDBLOCK POSITIONS_FRAC
