# Cell file generated by matador (Matthew Evans 2016)

%BLOCK LATTICE_CART
7.4414 0.0 0.0
0.0 7.4414 0.0
0.0 0.0 7.4414
%ENDBLOCK LATTICE_CART

%BLOCK POSITIONS_FRAC
P           0.000000000000000    0.000000000000000    0.500000000000000 
P           0.000000000000000    0.500000000000000    0.000000000000000 
P           0.500000000000000    0.000000000000000    0.000000000000000 
K           0.049871000000000    0.287886000000000    0.287886000000000 
K           0.049871000000000    0.712114000000000    0.712114000000000 
K           0.287886000000000    0.049871000000000    0.287886000000000 
K           0.287886000000000    0.287886000000000    0.049871000000000 
K           0.287886000000000    0.712114000000000    0.950129000000000 
K           0.287886000000000    0.950129000000000    0.712114000000000 
K           0.712114000000000    0.049871000000000    0.712114000000000 
K           0.712114000000000    0.287886000000000    0.950129000000000 
K           0.712114000000000    0.712114000000000    0.049871000000000 
K           0.712114000000000    0.950129000000000    0.287886000000000 
K           0.950129000000000    0.287886000000000    0.712114000000000 
K           0.950129000000000    0.712114000000000    0.287886000000000 
%ENDBLOCK POSITIONS_FRAC
