# Cell file generated by matador (Matthew Evans 2016)

%BLOCK LATTICE_CART
8.33348 0.0 0.0
-4.16674 7.217 0.0
0.0 0.0 8.38866
%ENDBLOCK LATTICE_CART

%BLOCK POSITIONS_FRAC
P           0.042970000000000    0.021485000000000   -0.000000000000000 
P           0.978515000000000    0.021485000000000    0.333333000000000 
P           0.978515000000000    0.957030000000000    0.666666000000000 
K           0.283796000000000    0.567592000000000    0.166666000000000 
K           0.283796000000000    0.716204000000000    0.833333000000000 
K           0.309026000000000    0.154513000000000    0.500000000000000 
K           0.432408000000000    0.716204000000000    0.500000000000000 
K           0.494978000000000    0.247489000000000   -0.000000000000000 
K           0.752511000000000    0.247489000000000    0.333333000000000 
K           0.752511000000000    0.505022000000000    0.666666000000000 
K           0.845487000000000    0.154513000000000    0.833333000000000 
K           0.845487000000000    0.690974000000000    0.166666000000000 
%ENDBLOCK POSITIONS_FRAC
