# Cell file generated by matador (Matthew Evans 2016)

%BLOCK LATTICE_CART
3.64084 0.0 0.0
0.0 10.5734 0.0
1.17711 0.0 6.50535
%ENDBLOCK LATTICE_CART

%BLOCK POSITIONS_FRAC
P           0.259515000000000    0.066060000000000    0.666317000000000 
P           0.259515000000000    0.933940000000000    0.666317000000000 
P           0.456263000000000    0.117869000000000    0.268131000000000 
P           0.456263000000000    0.882131000000000    0.268131000000000 
P           0.688039000000000    0.180682000000000    0.332934000000000 
P           0.688039000000000    0.819318000000000    0.332934000000000 
P           0.996423000000000    0.118468000000000    0.588246000000000 
P           0.996423000000000    0.881532000000000    0.588246000000000 
K           0.628885000000000    0.208510000000000    0.917837000000000 
K           0.628885000000000    0.791490000000000    0.917837000000000 
%ENDBLOCK POSITIONS_FRAC
