# Cell file generated by matador (Matthew Evans 2016)

%BLOCK LATTICE_CART
9.45242 0.0 0.0
0.0 13.551 0.0
0.0 0.0 8.95283
%ENDBLOCK LATTICE_CART

%BLOCK POSITIONS_FRAC
P           0.000000000000000    0.248987000000000    0.126988000000000 
P           0.000000000000000    0.251013000000000    0.626988000000000 
P           0.000000000000000    0.748987000000000    0.626988000000000 
P           0.000000000000000    0.751013000000000    0.126988000000000 
P           0.500000000000000    0.248987000000000    0.626988000000000 
P           0.500000000000000    0.251013000000000    0.126988000000000 
P           0.500000000000000    0.748987000000000    0.126988000000000 
P           0.500000000000000    0.751013000000000    0.626988000000000 
K           0.000000000000000    0.110869000000000    0.262375000000000 
K           0.000000000000000    0.190890000000000    0.910376000000000 
K           0.000000000000000    0.309110000000000    0.410376000000000 
K           0.000000000000000    0.389131000000000    0.762375000000000 
K           0.000000000000000    0.610869000000000    0.762375000000000 
K           0.000000000000000    0.690890000000000    0.410376000000000 
K           0.000000000000000    0.809110000000000    0.910376000000000 
K           0.000000000000000    0.889131000000000    0.262375000000000 
K           0.225262000000000    0.000000000000000    0.647611000000000 
K           0.225262000000000    0.500000000000000    0.147611000000000 
K           0.274738000000000    0.000000000000000    0.147611000000000 
K           0.274738000000000    0.500000000000000    0.647611000000000 
K           0.500000000000000    0.110869000000000    0.762375000000000 
K           0.500000000000000    0.190890000000000    0.410376000000000 
K           0.500000000000000    0.309110000000000    0.910376000000000 
K           0.500000000000000    0.389131000000000    0.262375000000000 
K           0.500000000000000    0.610869000000000    0.262375000000000 
K           0.500000000000000    0.690890000000000    0.910376000000000 
K           0.500000000000000    0.809110000000000    0.410376000000000 
K           0.500000000000000    0.889131000000000    0.762375000000000 
K           0.725262000000000    0.000000000000000    0.147611000000000 
K           0.725262000000000    0.500000000000000    0.647611000000000 
K           0.774738000000000    0.000000000000000    0.647611000000000 
K           0.774738000000000    0.500000000000000    0.147611000000000 
%ENDBLOCK POSITIONS_FRAC
