# Cell file generated by matador (Matthew Evans 2016)

%BLOCK LATTICE_CART
8.52328 0.0 0.0
-4.26164 7.38137 0.0
0.0 0.0 7.43897
%ENDBLOCK LATTICE_CART

%BLOCK POSITIONS_FRAC
P           0.000000000000000    0.000000000000000    0.115572000000000 
P           0.000000000000000    0.000000000000000    0.250000000000000 
P           0.000000000000000    0.000000000000000    0.384428000000000 
P           0.000000000000000    0.000000000000000    0.615572000000000 
P           0.000000000000000    0.000000000000000    0.750000000000000 
P           0.000000000000000    0.000000000000000    0.884428000000000 
P           0.333333000000000    0.666667000000000    0.250000000000000 
P           0.333333000000000    0.666667000000000    0.750000000000000 
P           0.666667000000000    0.333333000000000    0.250000000000000 
P           0.666667000000000    0.333333000000000    0.750000000000000 
K           0.000000000000000    0.500000000000000    0.000000000000000 
K           0.000000000000000    0.500000000000000    0.500000000000000 
K           0.500000000000000    0.000000000000000    0.000000000000000 
K           0.500000000000000    0.000000000000000    0.500000000000000 
K           0.500000000000000    0.500000000000000    0.000000000000000 
K           0.500000000000000    0.500000000000000    0.500000000000000 
%ENDBLOCK POSITIONS_FRAC
