# Cell file generated by matador (Matthew Evans 2016)

%BLOCK LATTICE_CART
6.2305 0.0 0.0
0.0 6.2305 0.0
0.0 0.0 8.51149
%ENDBLOCK LATTICE_CART

%BLOCK POSITIONS_FRAC
P           0.000000000000000    0.000000000000000    0.500000000000000 
P           0.500000000000000    0.500000000000000    0.500000000000000 
K           0.000000000000000    0.500000000000000    0.820842000000000 
K           0.172961000000000    0.672961000000000    0.406089000000000 
K           0.327039000000000    0.172961000000000    0.593911000000000 
K           0.500000000000000    0.000000000000000    0.179158000000000 
K           0.672961000000000    0.827039000000000    0.593911000000000 
K           0.827039000000000    0.327039000000000    0.406089000000000 
%ENDBLOCK POSITIONS_FRAC
