# Cell file generated by matador (Matthew Evans 2016)

%BLOCK LATTICE_CART
6.62106 0.0 0.0
-3.31053 5.73401 0.0
0.0 0.0 10.6151
%ENDBLOCK LATTICE_CART

%BLOCK POSITIONS_FRAC
P           0.000000000000000    0.000000000000000    0.000000000000000 
P           0.000000000000000    0.000000000000000    0.500000000000000 
P           0.000000000000000    0.712116000000000    0.000000000000000 
P           0.287884000000000    0.287884000000000    0.000000000000000 
P           0.712116000000000    0.000000000000000    0.000000000000000 
K           0.000000000000000    0.790889000000000    0.182208000000000 
K           0.000000000000000    0.790889000000000    0.817792000000000 
K           0.209111000000000    0.209111000000000    0.182208000000000 
K           0.209111000000000    0.209111000000000    0.817792000000000 
K           0.790889000000000    0.000000000000000    0.182208000000000 
K           0.790889000000000    0.000000000000000    0.817792000000000 
%ENDBLOCK POSITIONS_FRAC
