# Cell file generated by matador (Matthew Evans 2016)

%BLOCK LATTICE_CART
7.83025 0.0 0.0
-3.91513 6.7812 0.0
0.0 0.0 8.1656
%ENDBLOCK LATTICE_CART

%BLOCK POSITIONS_FRAC
P           0.000000000000000    0.194356000000000    0.166667000000000 
P           0.000000000000000    0.241015000000000    0.666667000000000 
P           0.194356000000000    0.000000000000000    0.833334000000000 
P           0.241015000000000    0.000000000000000    0.333334000000000 
P           0.758985000000000    0.758985000000000    0.000000000000000 
P           0.805644000000000    0.805644000000000    0.500000000000000 
K           0.142695000000000    0.705513000000000    0.132903000000000 
K           0.294487000000000    0.437181000000000    0.466237000000000 
K           0.437181000000000    0.294487000000000    0.533764000000000 
K           0.562819000000000    0.857305000000000    0.799570000000000 
K           0.705513000000000    0.142695000000000    0.867097000000000 
K           0.857305000000000    0.562819000000000    0.200431000000000 
%ENDBLOCK POSITIONS_FRAC
