# Cell file generated by matador (Matthew Evans 2016)

%BLOCK LATTICE_CART
6.10018 0.0 0.0
-3.05009 5.28291 0.0
0.0 0.0 9.49227
%ENDBLOCK LATTICE_CART

%BLOCK POSITIONS_FRAC
P           0.000001000000000    0.000001000000000    0.215683000000000 
P           0.000001000000000    0.500001000000000    0.888602000000000 
P           0.252935000000000    0.508704000000000    0.296647000000000 
P           0.255770000000000    0.747067000000000    0.296647000000000 
P           0.491298000000000    0.744232000000000    0.296647000000000 
P           0.500001000000000    0.000001000000000    0.888602000000000 
P           0.500001000000000    0.500001000000000    0.888602000000000 
P           0.508704000000000    0.255770000000000    0.296647000000000 
P           0.744232000000000    0.252935000000000    0.296647000000000 
P           0.747067000000000    0.491298000000000    0.296647000000000 
K           0.333334000000000    0.666668000000000    0.529963000000000 
K           0.666668000000000    0.333334000000000    0.529963000000000 
%ENDBLOCK POSITIONS_FRAC
