# Cell file generated by matador (Matthew Evans 2016)

%BLOCK LATTICE_CART
5.84663 0.0 0.0
0.0 8.526 0.0
-0.423331 0.0 5.90306
%ENDBLOCK LATTICE_CART

%BLOCK POSITIONS_FRAC
P           0.026577000000000    0.748980000000000    0.198937000000000 
P           0.092065000000000    0.152719000000000    0.840778000000000 
P           0.108667000000000    0.911664000000000    0.542228000000000 
P           0.347414000000000    0.346688000000000    0.824431000000000 
P           0.362635000000000    0.629766000000000    0.843763000000000 
P           0.414990000000000    0.406595000000000    0.629029000000000 
P           0.585010000000000    0.406595000000000    0.370971000000000 
P           0.637365000000000    0.629766000000000    0.156237000000000 
P           0.652586000000000    0.346688000000000    0.175569000000000 
P           0.891333000000000    0.911664000000000    0.457772000000000 
P           0.907935000000000    0.152719000000000    0.159222000000000 
P           0.973423000000000    0.748980000000000    0.801063000000000 
K           0.500000000000000    0.085477000000000    0.500000000000000 
K           0.500000000000000    0.640435000000000    0.500000000000000 
%ENDBLOCK POSITIONS_FRAC
