# Cell file generated by matador (Matthew Evans 2016)

%BLOCK LATTICE_CART
8.19851 0.0 0.0
-4.09926 7.10012 0.0
0.0 0.0 8.17113
%ENDBLOCK LATTICE_CART

%BLOCK POSITIONS_FRAC
P          -0.000000000000000   -0.000000000000000    0.577019000000000 
P           0.039380000000000    0.523568000000000    0.217887000000000 
P           0.143099000000000    0.849146000000000    0.551220000000000 
P           0.150854000000000    0.293953000000000    0.551220000000000 
P           0.333333000000000    0.666667000000000    0.243685000000000 
P           0.372714000000000    0.190235000000000    0.884553000000000 
P           0.476432000000000    0.515812000000000    0.217887000000000 
P           0.484188000000000    0.960620000000000    0.217887000000000 
P           0.666667000000000    0.333333000000000    0.910352000000000 
P           0.706047000000000    0.856901000000000    0.551220000000000 
P           0.809765000000000    0.182479000000000    0.884553000000000 
P           0.817521000000000    0.627286000000000    0.884553000000000 
K          -0.000000000000000   -0.000000000000000    0.034816000000000 
K           0.333333000000000    0.666667000000000    0.701482000000000 
K           0.666667000000000    0.333333000000000    0.368149000000000 
%ENDBLOCK POSITIONS_FRAC
