# Cell file generated by matador (Matthew Evans 2016)

%BLOCK LATTICE_CART
7.80699 0.0 0.0
0.0 8.67325 0.0
2.95339 0.0 5.6118
%ENDBLOCK LATTICE_CART

%BLOCK POSITIONS_FRAC
P           0.434123000000000    0.421832000000000    0.093469000000000 
P           0.565877000000000    0.421832000000000    0.906531000000000 
K           0.000000000000000    0.143658000000000    0.000000000000000 
K           0.000000000000000    0.146712000000000    0.500000000000000 
K           0.052927000000000    0.842401000000000    0.234736000000000 
K           0.332264000000000    0.010482000000000    0.655284000000000 
K           0.500000000000000    0.156456000000000    0.000000000000000 
K           0.500000000000000    0.371645000000000    0.500000000000000 
K           0.500000000000000    0.668161000000000    0.500000000000000 
K           0.500000000000000    0.868982000000000    0.000000000000000 
K           0.667736000000000    0.010482000000000    0.344716000000000 
K           0.947073000000000    0.842401000000000    0.765264000000000 
%ENDBLOCK POSITIONS_FRAC
