# Cell file generated by matador (Matthew Evans 2016)

%BLOCK LATTICE_CART
6.84535 -0.0 0.0
-3.42268 5.92825 0.0
0.0 0.0 8.27212
%ENDBLOCK LATTICE_CART

%BLOCK POSITIONS_FRAC
P          -0.000000000000000    0.000000000000000    0.036852000000000 
P           0.325584000000000    0.104236000000000    0.676091000000000 
P           0.333333000000000    0.666667000000000    0.029491000000000 
P           0.333333000000000    0.666667000000000    0.835315000000000 
P           0.335287000000000    0.146339000000000    0.464620000000000 
P           0.778652000000000    0.674416000000000    0.676091000000000 
P           0.811052000000000    0.664713000000000    0.464620000000000 
P           0.853661000000000    0.188948000000000    0.464620000000000 
P           0.895764000000000    0.221348000000000    0.676091000000000 
K           0.278318000000000    0.270022000000000    0.160229000000000 
K           0.729978000000000    0.008297000000000    0.160229000000000 
K           0.991703000000000    0.721682000000000    0.160229000000000 
%ENDBLOCK POSITIONS_FRAC
