# Cell file generated by matador (Matthew Evans 2016)

%BLOCK LATTICE_CART
6.33612 0.0 0.0
0.0 6.33612 0.0
0.0 0.0 6.33612
%ENDBLOCK LATTICE_CART

%BLOCK POSITIONS_FRAC
P           0.500000000000000    0.500000000000000    0.500000000000000 
K           0.000000000000000    0.000000000000000    0.000000000000000 
K           0.266450000000000    0.266450000000000    0.733550000000000 
K           0.266450000000000    0.733550000000000    0.266450000000000 
K           0.733550000000000    0.266450000000000    0.266450000000000 
K           0.733550000000000    0.733550000000000    0.733550000000000 
%ENDBLOCK POSITIONS_FRAC
