# Cell file generated by matador (Matthew Evans 2016)

%BLOCK LATTICE_CART
8.69912 0.0 0.0
0.0 8.69912 0.0
0.0 0.0 7.83864
%ENDBLOCK LATTICE_CART

%BLOCK POSITIONS_FRAC
P           0.326882000000000    0.500000000000000    0.478666000000000 
P           0.500000000000000    0.326882000000000    0.978666000000000 
P           0.500000000000000    0.673118000000000    0.978666000000000 
P           0.673118000000000    0.500000000000000    0.478666000000000 
K           0.000000000000000    0.175632000000000    0.320046000000000 
K           0.000000000000000    0.824368000000000    0.320046000000000 
K           0.175632000000000    0.000000000000000    0.820046000000000 
K           0.227904000000000    0.500000000000000    0.709649000000000 
K           0.259259000000000    0.500000000000000    0.080993000000000 
K           0.500000000000000    0.227904000000000    0.209649000000000 
K           0.500000000000000    0.259259000000000    0.580993000000000 
K           0.500000000000000    0.740741000000000    0.580993000000000 
K           0.500000000000000    0.772096000000000    0.209649000000000 
K           0.740741000000000    0.500000000000000    0.080993000000000 
K           0.772096000000000    0.500000000000000    0.709649000000000 
K           0.824368000000000    0.000000000000000    0.820046000000000 
%ENDBLOCK POSITIONS_FRAC
