# Cell file generated by matador (Matthew Evans 2016)

%BLOCK LATTICE_CART
5.23377 0.0 0.0
0.0 5.23377 0.0
0.0 0.0 5.23377
%ENDBLOCK LATTICE_CART

%BLOCK POSITIONS_FRAC
P           0.354362000000000    0.500000000000000    0.500000000000000 
P           0.500000000000000    0.354362000000000    0.500000000000000 
P           0.500000000000000    0.500000000000000    0.354362000000000 
P           0.500000000000000    0.500000000000000    0.645638000000000 
P           0.500000000000000    0.645638000000000    0.500000000000000 
P           0.645638000000000    0.500000000000000    0.500000000000000 
K           0.000000000000000    0.000000000000000    0.000000000000000 
%ENDBLOCK POSITIONS_FRAC
