# Cell file generated by matador (Matthew Evans 2016)

%BLOCK LATTICE_CART
7.2966 0.0 0.0
-3.6483 6.31904 0.0
0.0 0.0 8.45965
%ENDBLOCK LATTICE_CART

%BLOCK POSITIONS_FRAC
P           0.000000000000000    0.000000000000000    0.000000000000000 
P           0.333333000000000    0.666667000000000    0.000000000000000 
P           0.333333000000000    0.666667000000000    0.500000000000000 
P           0.586197000000000    0.172393000000000    0.500000000000000 
P           0.586197000000000    0.413803000000000    0.500000000000000 
P           0.666667000000000    0.333333000000000    0.500000000000000 
P           0.827607000000000    0.413803000000000    0.500000000000000 
K           0.271182000000000    0.002532000000000    0.500000000000000 
K           0.271182000000000    0.268650000000000    0.500000000000000 
K           0.731350000000000    0.002532000000000    0.500000000000000 
K           0.731350000000000    0.728818000000000    0.500000000000000 
K           0.997468000000000    0.268650000000000    0.500000000000000 
K           0.997468000000000    0.728818000000000    0.500000000000000 
%ENDBLOCK POSITIONS_FRAC
