# Cell file generated by matador (Matthew Evans 2016)

%BLOCK LATTICE_CART
7.63117 0.0 0.0
0.0 7.63117 0.0
0.0 0.0 9.84597
%ENDBLOCK LATTICE_CART

%BLOCK POSITIONS_FRAC
P           0.077408000000000    0.779914000000000    0.099813000000000 
P           0.077408000000000    0.779914000000000    0.900187000000000 
P           0.220086000000000    0.922592000000000    0.099813000000000 
P           0.220086000000000    0.922592000000000    0.900187000000000 
P           0.279914000000000    0.422592000000000    0.400187000000000 
P           0.279914000000000    0.422592000000000    0.599813000000000 
P           0.422592000000000    0.279914000000000    0.400187000000000 
P           0.422592000000000    0.279914000000000    0.599813000000000 
P           0.577408000000000    0.720086000000000    0.400187000000000 
P           0.577408000000000    0.720086000000000    0.599813000000000 
P           0.720086000000000    0.577408000000000    0.400187000000000 
P           0.720086000000000    0.577408000000000    0.599813000000000 
P           0.779914000000000    0.077408000000000    0.099813000000000 
P           0.779914000000000    0.077408000000000    0.900187000000000 
P           0.922592000000000    0.220086000000000    0.099813000000000 
P           0.922592000000000    0.220086000000000    0.900187000000000 
K           0.000000000000000    0.000000000000000    0.000000000000000 
K           0.000000000000000    0.000000000000000    0.500000000000000 
K           0.500000000000000    0.500000000000000    0.000000000000000 
K           0.500000000000000    0.500000000000000    0.500000000000000 
%ENDBLOCK POSITIONS_FRAC
