# Cell file generated by matador (Matthew Evans 2016)

%BLOCK LATTICE_CART
8.8637 0.0 0.0
0.0 8.8637 0.0
0.0 0.0 7.8647
%ENDBLOCK LATTICE_CART

%BLOCK POSITIONS_FRAC
P           0.000000000000000    0.000000000000000    0.228691000000000 
P           0.000000000000000    0.000000000000000    0.377504000000000 
P           0.051297000000000    0.908088000000000    0.937567000000000 
P           0.091912000000000    0.051297000000000    0.937567000000000 
P           0.908088000000000    0.948704000000000    0.937567000000000 
P           0.948703000000000    0.091912000000000    0.937567000000000 
K           0.000000000000000    0.500000000000000    0.308761000000000 
K           0.000000000000000    0.500000000000000    0.941910000000000 
K           0.038325000000000    0.745302000000000    0.308394000000000 
K           0.254698000000000    0.038325000000000    0.308394000000000 
K           0.318790000000000    0.674397000000000    0.391732000000000 
K           0.325603000000000    0.318790000000000    0.391732000000000 
K           0.500000000000000    0.000000000000000    0.308761000000000 
K           0.500000000000000    0.000000000000000    0.941910000000000 
K           0.674397000000000    0.681210000000000    0.391732000000000 
K           0.681210000000000    0.325603000000000    0.391732000000000 
K           0.745302000000000    0.961675000000000    0.308394000000000 
K           0.961675000000000    0.254698000000000    0.308394000000000 
%ENDBLOCK POSITIONS_FRAC
