# Cell file generated by matador (Matthew Evans 2016)

%BLOCK LATTICE_CART
6.96001 0.0 0.0
-3.48 6.02754 0.0
0.0 0.0 8.22334
%ENDBLOCK LATTICE_CART

%BLOCK POSITIONS_FRAC
P           0.000000000000000    0.000000000000000    0.973300000000000 
P           0.286420000000000    0.167519000000000    0.738582000000000 
P           0.333333000000000    0.666667000000000    0.153971000000000 
P           0.333333000000000    0.666667000000000    0.813761000000000 
P           0.524473000000000    0.385903000000000    0.269385000000000 
P           0.614097000000000    0.138570000000000    0.269385000000000 
P           0.832481000000000    0.118901000000000    0.738582000000000 
P           0.861430000000000    0.475527000000000    0.269385000000000 
P           0.881099000000000    0.713580000000000    0.738582000000000 
K           0.000000000000000    0.000000000000000    0.322903000000000 
K           0.333333000000000    0.666667000000000    0.501811000000000 
K           0.666667000000000    0.333333000000000    0.021842000000000 
%ENDBLOCK POSITIONS_FRAC
