# Cell file generated by matador (Matthew Evans 2016)

%BLOCK LATTICE_CART
6.4547 -0.0 0.0
-3.22735 5.58994 0.0
0.0 0.0 16.409
%ENDBLOCK LATTICE_CART

%BLOCK POSITIONS_FRAC
P           0.000000000000000    0.000000000000000    0.129154000000000 
P           0.000000000000000    0.000000000000000    0.370846000000000 
P           0.000000000000000    0.000000000000000    0.629154000000000 
P           0.000000000000000    0.000000000000000    0.870846000000000 
K           0.000000000000000    0.500000000000000    0.000000000000000 
K           0.000000000000000    0.500000000000000    0.500000000000000 
K           0.012813000000000    0.679744000000000    0.750000000000000 
K           0.320256000000000    0.333069000000000    0.750000000000000 
K           0.333069000000000    0.012813000000000    0.250000000000000 
K           0.333333000000000    0.666667000000000    0.250000000000000 
K           0.500000000000000    0.000000000000000    0.000000000000000 
K           0.500000000000000    0.000000000000000    0.500000000000000 
K           0.500000000000000    0.500000000000000    0.000000000000000 
K           0.500000000000000    0.500000000000000    0.500000000000000 
K           0.666667000000000    0.333333000000000    0.750000000000000 
K           0.666931000000000    0.987187000000000    0.750000000000000 
K           0.679744000000000    0.666931000000000    0.250000000000000 
K           0.987187000000000    0.320256000000000    0.250000000000000 
%ENDBLOCK POSITIONS_FRAC
