# Cell file generated by matador (Matthew Evans 2016)

%BLOCK LATTICE_CART
5.66409 0.0 0.0
0.0 5.66409 0.0
0.0 0.0 8.23468
%ENDBLOCK LATTICE_CART

%BLOCK POSITIONS_FRAC
P           0.082357000000000    0.151963000000000    0.218114000000000 
P           0.151963000000000    0.917643000000000    0.218114000000000 
P           0.348037000000000    0.582357000000000    0.718114000000000 
P           0.417643000000000    0.348037000000000    0.718114000000000 
P           0.582357000000000    0.651963000000000    0.718114000000000 
P           0.651963000000000    0.417643000000000    0.718114000000000 
P           0.848037000000000    0.082357000000000    0.218114000000000 
P           0.917643000000000    0.848037000000000    0.218114000000000 
K           0.000000000000000    0.000000000000000    0.804323000000000 
K           0.500000000000000    0.500000000000000    0.304323000000000 
%ENDBLOCK POSITIONS_FRAC
