# Cell file generated by matador (Matthew Evans 2016)

%BLOCK LATTICE_CART
7.50923 0.0 0.0
-2.95536 7.48142 0.0
-0.0787932 -2.73901 5.83416
%ENDBLOCK LATTICE_CART

%BLOCK POSITIONS_FRAC
P           0.000000000000000    0.000000000000000    0.000000000000000 
P           0.000000000000000    0.500000000000000    0.000000000000000 
P           0.000000000000000    0.500000000000000    0.500000000000000 
P           0.425316000000000    0.588040000000000    0.791722000000000 
P           0.500000000000000    0.000000000000000    0.000000000000000 
P           0.500000000000000    0.000000000000000    0.500000000000000 
P           0.574684000000000    0.411960000000000    0.208278000000000 
K           0.198967000000000    0.891124000000000    0.461583000000000 
K           0.500000000000000    0.500000000000000    0.000000000000000 
K           0.500000000000000    0.500000000000000    0.500000000000000 
K           0.801033000000000    0.108876000000000    0.538417000000000 
%ENDBLOCK POSITIONS_FRAC
