# Cell file generated by matador (Matthew Evans 2016)

%BLOCK LATTICE_CART
7.66748 -0.0 0.0
-3.83374 6.64023 0.0
0.0 0.0 6.39576
%ENDBLOCK LATTICE_CART

%BLOCK POSITIONS_FRAC
P           0.037495000000000    0.464810000000000    0.265240000000000 
P           0.093982000000000    0.295838000000000    0.598573000000000 
P           0.201856000000000    0.906018000000000    0.598573000000000 
P           0.370828000000000    0.131477000000000    0.931906000000000 
P           0.427315000000000    0.962505000000000    0.265240000000000 
P           0.535190000000000    0.572685000000000    0.265240000000000 
P           0.704162000000000    0.798144000000000    0.598573000000000 
P           0.760649000000000    0.629172000000000    0.931906000000000 
P           0.868523000000000    0.239351000000000    0.931906000000000 
K          -0.000000000000000    0.000000000000000    0.084413000000000 
K           0.333333000000000    0.666667000000000    0.751080000000000 
K           0.666667000000000    0.333333000000000    0.417747000000000 
%ENDBLOCK POSITIONS_FRAC
