# Cell file generated by matador (Matthew Evans 2016)

%BLOCK LATTICE_CART
6.46261 0.0 0.0
-3.23131 5.59679 0.0
0.0 0.0 11.7389
%ENDBLOCK LATTICE_CART

%BLOCK POSITIONS_FRAC
P          -0.000000000000000   -0.000000000000000    0.000000000000000 
P          -0.000000000000000   -0.000000000000000    0.333334000000000 
P          -0.000000000000000   -0.000000000000000    0.666667000000000 
P           0.275646000000000    0.551292000000000    0.500000000000000 
P           0.275646000000000    0.724354000000000    0.833334000000000 
P           0.448708000000000    0.724354000000000    0.166667000000000 
P           0.551292000000000    0.275646000000000    0.166667000000000 
P           0.724354000000000    0.275646000000000    0.833334000000000 
P           0.724354000000000    0.448708000000000    0.500000000000000 
K          -0.000000000000000    0.500000000000000    0.166667000000000 
K           0.500000000000000   -0.000000000000000    0.500000000000000 
K           0.500000000000000    0.500000000000000    0.833334000000000 
%ENDBLOCK POSITIONS_FRAC
