# Cell file generated by matador (Matthew Evans 2016)

%BLOCK LATTICE_CART
7.93672 0.0 0.0
-3.96836 6.87341 0.0
0.0 0.0 9.16593
%ENDBLOCK LATTICE_CART

%BLOCK POSITIONS_FRAC
P           0.000000000000000    0.000000000000000    0.684313000000000 
P           0.093468000000000    0.046734000000000    0.311593000000000 
P           0.286599000000000    0.573198000000000    0.978260000000000 
P           0.286599000000000    0.713401000000000    0.978260000000000 
P           0.333333000000000    0.666667000000000    0.350980000000000 
P           0.426802000000000    0.713401000000000    0.978260000000000 
P           0.619932000000000    0.239865000000000    0.644927000000000 
P           0.619932000000000    0.380068000000000    0.644927000000000 
P           0.666667000000000    0.333333000000000    0.017646000000000 
P           0.760135000000000    0.380068000000000    0.644927000000000 
P           0.953266000000000    0.046734000000000    0.311593000000000 
P           0.953266000000000    0.906532000000000    0.311593000000000 
K           0.000000000000000    0.000000000000000    0.030208000000000 
K           0.333333000000000    0.666667000000000    0.696874000000000 
K           0.666667000000000    0.333333000000000    0.363541000000000 
%ENDBLOCK POSITIONS_FRAC
