# Cell file generated by matador (Matthew Evans 2016)

%BLOCK LATTICE_CART
7.8396 -0.0 0.0
-3.9198 6.78929 0.0
0.0 0.0 4.2991
%ENDBLOCK LATTICE_CART

%BLOCK POSITIONS_FRAC
P           0.000000000000000    0.000000000000000    0.118956000000000 
P           0.212413000000000    0.209949000000000    0.201788000000000 
P           0.333333000000000    0.666667000000000    0.584416000000000 
P           0.790051000000000    0.002464000000000    0.201788000000000 
P           0.997536000000000    0.787587000000000    0.201788000000000 
K           0.112889000000000    0.256972000000000    0.750233000000000 
K           0.144083000000000    0.887111000000000    0.750233000000000 
K           0.743028000000000    0.855917000000000    0.750233000000000 
%ENDBLOCK POSITIONS_FRAC
