# Cell file generated by matador (Matthew Evans 2016)

%BLOCK LATTICE_CART
6.64585 0.0 0.0
-3.32292 5.75547 0.0
0.0 0.0 8.80354
%ENDBLOCK LATTICE_CART

%BLOCK POSITIONS_FRAC
P           0.000000000000000    0.000000000000000    0.072463000000000 
P           0.000000000000000    0.000000000000000    0.927537000000000 
P           0.666667000000000    0.333333000000000    0.244993000000000 
P           0.666667000000000    0.333333000000000    0.755007000000000 
K           0.000000000000000    0.000000000000000    0.500000000000000 
K           0.201586000000000    0.403171000000000    0.000000000000000 
K           0.201586000000000    0.798414000000000    0.000000000000000 
K           0.596829000000000    0.798414000000000    0.000000000000000 
K           0.666667000000000    0.333333000000000    0.500000000000000 
%ENDBLOCK POSITIONS_FRAC
