# Cell file generated by matador (Matthew Evans 2016)

%BLOCK LATTICE_CART
8.91205 0.0 0.0
0.0 6.29438 0.0
0.0 0.0 7.27886
%ENDBLOCK LATTICE_CART

%BLOCK POSITIONS_FRAC
P           0.000000000000000    0.000000000000000    0.500000000000000 
P           0.000000000000000    0.500000000000000    0.000000000000000 
P           0.000000000000000    0.500000000000000    0.500000000000000 
P           0.127397000000000    0.000000000000000    0.500000000000000 
P           0.372603000000000    0.500000000000000    0.500000000000000 
P           0.500000000000000    0.000000000000000    0.000000000000000 
P           0.500000000000000    0.000000000000000    0.500000000000000 
P           0.500000000000000    0.500000000000000    0.500000000000000 
P           0.627397000000000    0.500000000000000    0.500000000000000 
P           0.872603000000000    0.000000000000000    0.500000000000000 
K           0.125295000000000    0.159236000000000    0.000000000000000 
K           0.125295000000000    0.840764000000000    0.000000000000000 
K           0.374705000000000    0.340764000000000    0.000000000000000 
K           0.374705000000000    0.659236000000000    0.000000000000000 
K           0.625295000000000    0.340764000000000    0.000000000000000 
K           0.625295000000000    0.659236000000000    0.000000000000000 
K           0.874705000000000    0.159236000000000    0.000000000000000 
K           0.874705000000000    0.840764000000000    0.000000000000000 
%ENDBLOCK POSITIONS_FRAC
