# Cell file generated by matador (Matthew Evans 2016)

%BLOCK LATTICE_CART
5.41217 0.0 0.0
0.0 5.41217 0.0
0.0 0.0 12.714
%ENDBLOCK LATTICE_CART

%BLOCK POSITIONS_FRAC
P           0.000000000000000    0.000000000000000    0.368333000000000 
P           0.000000000000000    0.000000000000000    0.631667000000000 
P           0.500000000000000    0.500000000000000    0.000000000000000 
P           0.500000000000000    0.500000000000000    0.354623000000000 
P           0.500000000000000    0.500000000000000    0.500000000000000 
P           0.500000000000000    0.500000000000000    0.645377000000000 
K           0.000000000000000    0.000000000000000    0.000000000000000 
K           0.000000000000000    0.500000000000000    0.305354000000000 
K           0.000000000000000    0.500000000000000    0.694646000000000 
K           0.500000000000000    0.000000000000000    0.305354000000000 
K           0.500000000000000    0.000000000000000    0.694646000000000 
%ENDBLOCK POSITIONS_FRAC
