# Cell file generated by matador (Matthew Evans 2016)

%BLOCK LATTICE_CART
5.79032 0.0 0.0
0.0 5.79032 0.0
0.0 0.0 7.11556
%ENDBLOCK LATTICE_CART

%BLOCK POSITIONS_FRAC
P           0.000000000000000    0.000000000000000    0.500000000000000 
P           0.199657000000000    0.199657000000000    0.500000000000000 
P           0.199657000000000    0.800343000000000    0.500000000000000 
P           0.500000000000000    0.500000000000000    0.500000000000000 
P           0.800343000000000    0.199657000000000    0.500000000000000 
P           0.800343000000000    0.800343000000000    0.500000000000000 
K           0.000000000000000    0.000000000000000    0.000000000000000 
K           0.500000000000000    0.500000000000000    0.000000000000000 
%ENDBLOCK POSITIONS_FRAC
