# Cell file generated by matador (Matthew Evans 2016)

%BLOCK LATTICE_CART
7.40232 0.0 0.0
0.0 7.40232 0.0
0.0 0.0 10.0449
%ENDBLOCK LATTICE_CART

%BLOCK POSITIONS_FRAC
P           0.000000000000000    0.000000000000000    0.454943000000000 
P           0.000000000000000    0.000000000000000    0.954943000000000 
P           0.000000000000000    0.500000000000000    0.660398000000000 
P           0.000000000000000    0.500000000000000    0.797517000000000 
P           0.072401000000000    0.389437000000000    0.830020000000000 
P           0.205047000000000    0.323113000000000    0.655203000000000 
P           0.323113000000000    0.794953000000000    0.155203000000000 
P           0.389437000000000    0.927599000000000    0.330020000000000 
P           0.500000000000000    0.000000000000000    0.160398000000000 
P           0.500000000000000    0.000000000000000    0.297517000000000 
P           0.610563000000000    0.072401000000000    0.330020000000000 
P           0.676887000000000    0.205047000000000    0.155203000000000 
P           0.794953000000000    0.676887000000000    0.655203000000000 
P           0.927599000000000    0.610563000000000    0.830020000000000 
K           0.000000000000000    0.500000000000000    0.254303000000000 
K           0.500000000000000    0.000000000000000    0.754303000000000 
%ENDBLOCK POSITIONS_FRAC
