# Cell file generated by matador (Matthew Evans 2016)

%BLOCK LATTICE_CART
6.77816 0.0 0.0
-3.38908 5.87006 0.0
0.0 0.0 8.6242
%ENDBLOCK LATTICE_CART

%BLOCK POSITIONS_FRAC
P           0.090164000000000    0.192119000000000    0.726230000000000 
P           0.101955000000000    0.909836000000000    0.726230000000000 
P           0.105630000000000    0.403104000000000    0.878918000000000 
P           0.297473000000000    0.894370000000000    0.878918000000000 
P           0.596896000000000    0.702527000000000    0.878918000000000 
P           0.807881000000000    0.898045000000000    0.726230000000000 
K           0.000000000000000    0.000000000000000    0.003631000000000 
K           0.011348000000000    0.530945000000000    0.466318000000000 
K           0.333333000000000    0.666667000000000    0.210375000000000 
K           0.469055000000000    0.480403000000000    0.466318000000000 
K           0.519597000000000    0.988652000000000    0.466318000000000 
%ENDBLOCK POSITIONS_FRAC
