# Cell file generated by matador (Matthew Evans 2016)

%BLOCK LATTICE_CART
7.76746 0.0 0.0
0.0 6.14234 0.0
-4.71165 0.0 8.34771
%ENDBLOCK LATTICE_CART

%BLOCK POSITIONS_FRAC
P           0.000000000000000    0.000000000000000    0.000000000000000 
P           0.000000000000000    0.000000000000000    0.500000000000000 
P           0.000000000000000    0.500000000000000    0.000000000000000 
P           0.219219000000000    0.000000000000000    0.099219000000000 
P           0.265446000000000    0.500000000000000    0.538190000000000 
P           0.500000000000000    0.000000000000000    0.000000000000000 
P           0.500000000000000    0.000000000000000    0.500000000000000 
P           0.500000000000000    0.268344000000000    0.500000000000000 
P           0.500000000000000    0.500000000000000    0.000000000000000 
P           0.500000000000000    0.731656000000000    0.500000000000000 
P           0.734554000000000    0.500000000000000    0.461810000000000 
P           0.780781000000000    0.000000000000000    0.900781000000000 
K           0.000000000000000    0.500000000000000    0.500000000000000 
K           0.263271000000000    0.500000000000000    0.335277000000000 
K           0.736729000000000    0.500000000000000    0.664723000000000 
%ENDBLOCK POSITIONS_FRAC
