# Cell file generated by matador (Matthew Evans 2016)

%BLOCK LATTICE_CART
7.58253 0.0 0.0
0.0 7.58253 0.0
0.0 0.0 8.27878
%ENDBLOCK LATTICE_CART

%BLOCK POSITIONS_FRAC
P           0.000000000000000    0.000000000000000    0.000000000000000 
P           0.500000000000000    0.500000000000000    0.500000000000000 
K           0.000000000000000    0.000000000000000    0.500000000000000 
K           0.235126000000000    0.764874000000000    0.245489000000000 
K           0.235126000000000    0.764874000000000    0.754511000000000 
K           0.264874000000000    0.264874000000000    0.254511000000000 
K           0.264874000000000    0.264874000000000    0.745489000000000 
K           0.500000000000000    0.500000000000000    0.000000000000000 
K           0.735126000000000    0.735126000000000    0.254511000000000 
K           0.735126000000000    0.735126000000000    0.745489000000000 
K           0.764874000000000    0.235126000000000    0.245489000000000 
K           0.764874000000000    0.235126000000000    0.754511000000000 
%ENDBLOCK POSITIONS_FRAC
