# Cell file generated by matador (Matthew Evans 2016)

%BLOCK LATTICE_CART
7.87736 0.0 0.0
-3.93868 6.82199 0.0
0.0 0.0 5.8578
%ENDBLOCK LATTICE_CART

%BLOCK POSITIONS_FRAC
P           0.333334000000000    0.666668000000000    0.663413000000000 
P           0.666668000000000    0.333334000000000    0.663413000000000 
K           0.000001000000000    0.311774000000000    0.867654000000000 
K           0.000001000000000    0.660816000000000    0.332089000000000 
K           0.311774000000000    0.000001000000000    0.867654000000000 
K           0.339186000000000    0.339186000000000    0.332089000000000 
K           0.660816000000000    0.000001000000000    0.332089000000000 
K           0.688228000000000    0.688228000000000    0.867654000000000 
%ENDBLOCK POSITIONS_FRAC
