# Cell file generated by matador (Matthew Evans 2016)

%BLOCK LATTICE_CART
7.70521 0.0 0.0
0.0 9.95548 0.0
4.73485 0.0 10.4978
%ENDBLOCK LATTICE_CART

%BLOCK POSITIONS_FRAC
P           0.055788000000000    0.500000000000000    0.504412000000000 
P           0.076409000000000    0.500000000000000    0.823594000000000 
P           0.745139000000000    0.178779000000000    0.441827000000000 
P           0.745139000000000    0.821221000000000    0.441827000000000 
P           0.751916000000000   -0.000000000000000    0.137812000000000 
K           0.011378000000000   -0.000000000000000    0.408481000000000 
K           0.035609000000000   -0.000000000000000    0.144385000000000 
K           0.255885000000000   -0.000000000000000    0.540532000000000 
K           0.333754000000000    0.500000000000000    0.620594000000000 
K           0.339444000000000   -0.000000000000000    0.761453000000000 
K           0.351030000000000    0.500000000000000    0.928920000000000 
K           0.452059000000000   -0.000000000000000    0.215327000000000 
K           0.493210000000000   -0.000000000000000    0.953043000000000 
K           0.559235000000000    0.500000000000000    0.322111000000000 
K           0.662615000000000   -0.000000000000000    0.375940000000000 
K           0.697816000000000    0.500000000000000    0.987508000000000 
K           0.713141000000000    0.500000000000000    0.636279000000000 
K           0.834433000000000   -0.000000000000000    0.698294000000000 
K           0.921865000000000   -0.000000000000000    0.926805000000000 
K           0.989898000000000    0.500000000000000    0.256250000000000 
%ENDBLOCK POSITIONS_FRAC
