# Cell file generated by matador (Matthew Evans 2016)

%BLOCK LATTICE_CART
7.75069 0.0 0.0
-3.87535 6.7123 0.0
0.0 0.0 6.66034
%ENDBLOCK LATTICE_CART

%BLOCK POSITIONS_FRAC
P           0.333332000000000    0.666668000000000    0.000000000000000 
P           0.666666000000000    0.333334000000000    0.000000000000000 
K           0.999999000000000    0.393317000000000    0.259646000000000 
K           0.999999000000000    0.393317000000000    0.740354000000000 
K           0.393315000000000    0.000001000000000    0.259646000000000 
K           0.393315000000000    0.000001000000000    0.740354000000000 
K           0.606683000000000    0.606685000000000    0.259646000000000 
K           0.606683000000000    0.606685000000000    0.740354000000000 
%ENDBLOCK POSITIONS_FRAC
