# Cell file generated by matador (Matthew Evans 2016)

%BLOCK LATTICE_CART
7.34219 0.0 0.0
0.0 7.34219 0.0
0.0 0.0 9.77242
%ENDBLOCK LATTICE_CART

%BLOCK POSITIONS_FRAC
P           0.000000000000000    0.000000000000000    0.000000000000000 
P           0.000000000000000    0.000000000000000    0.300662000000000 
P           0.000000000000000    0.000000000000000    0.699338000000000 
P           0.000000000000000    0.500000000000000    0.000000000000000 
P           0.000000000000000    0.500000000000000    0.500000000000000 
P           0.096308000000000    0.096308000000000    0.000000000000000 
P           0.403692000000000    0.596308000000000    0.500000000000000 
P           0.500000000000000    0.000000000000000    0.000000000000000 
P           0.500000000000000    0.000000000000000    0.500000000000000 
P           0.500000000000000    0.500000000000000    0.199338000000000 
P           0.500000000000000    0.500000000000000    0.500000000000000 
P           0.500000000000000    0.500000000000000    0.800662000000000 
P           0.596308000000000    0.403692000000000    0.500000000000000 
P           0.903692000000000    0.903692000000000    0.000000000000000 
K           0.000000000000000    0.500000000000000    0.250000000000000 
K           0.000000000000000    0.500000000000000    0.750000000000000 
K           0.500000000000000    0.000000000000000    0.250000000000000 
K           0.500000000000000    0.000000000000000    0.750000000000000 
%ENDBLOCK POSITIONS_FRAC
