# Cell file generated by matador (Matthew Evans 2016)

%BLOCK LATTICE_CART
7.38197 0.0 0.0
0.0 7.38197 0.0
0.0 0.0 8.95177
%ENDBLOCK LATTICE_CART

%BLOCK POSITIONS_FRAC
P           0.198459000000000    0.301541000000000    0.970473000000000 
P           0.301541000000000    0.801541000000000    0.970473000000000 
P           0.698459000000000    0.198459000000000    0.970473000000000 
P           0.801541000000000    0.698459000000000    0.970473000000000 
K           0.000000000000000    0.000000000000000    0.420553000000000 
K           0.000000000000000    0.500000000000000    0.583300000000000 
K           0.000000000000000    0.500000000000000    0.829912000000000 
K           0.110063000000000    0.389937000000000    0.299425000000000 
K           0.389937000000000    0.889937000000000    0.299425000000000 
K           0.500000000000000    0.000000000000000    0.583300000000000 
K           0.500000000000000    0.000000000000000    0.829912000000000 
K           0.500000000000000    0.500000000000000    0.420553000000000 
K           0.610063000000000    0.110063000000000    0.299425000000000 
K           0.889937000000000    0.610063000000000    0.299425000000000 
%ENDBLOCK POSITIONS_FRAC
