# Cell file generated by matador (Matthew Evans 2016)

%BLOCK LATTICE_CART
5.142 0.0 0.0
0.0 5.1775 0.0
0.679366 0.0 8.08914
%ENDBLOCK LATTICE_CART

%BLOCK POSITIONS_FRAC
P           0.325046000000000    0.762308000000000    0.003416000000000 
P           0.674954000000000    0.762308000000000    0.996584000000000 
K           0.000000000000000    0.409324000000000    0.000000000000000 
K           0.000000000000000    0.642753000000000    0.500000000000000 
K           0.002787000000000    0.897368000000000    0.796675000000000 
K           0.997213000000000    0.897368000000000    0.203325000000000 
%ENDBLOCK POSITIONS_FRAC
