# Cell file generated by matador (Matthew Evans 2016)

%BLOCK LATTICE_CART
9.82197 0.0 0.0
0.0 6.61886 0.0
1.90346 0.0 9.54616
%ENDBLOCK LATTICE_CART

%BLOCK POSITIONS_FRAC
P           0.000000000000000    0.353408000000000    0.000000000000000 
P           0.164887000000000    0.959434000000000    0.501349000000000 
P           0.298986000000000    0.392646000000000    0.296647000000000 
P           0.500000000000000    0.260917000000000    0.500000000000000 
P           0.701014000000000    0.392646000000000    0.703353000000000 
P           0.835113000000000    0.959434000000000    0.498651000000000 
K           0.000000000000000    0.043364000000000    0.000000000000000 
K           0.000000000000000    0.415804000000000    0.500000000000000 
K           0.221988000000000    0.671197000000000    0.146036000000000 
K           0.308984000000000    0.987269000000000    0.269519000000000 
K           0.364639000000000    0.207884000000000    0.028789000000000 
K           0.492200000000000    0.679686000000000    0.331503000000000 
K           0.500000000000000    0.791664000000000    0.000000000000000 
K           0.500000000000000    0.935727000000000    0.500000000000000 
K           0.507800000000000    0.679686000000000    0.668497000000000 
K           0.635361000000000    0.207884000000000    0.971211000000000 
K           0.691016000000000    0.987269000000000    0.730481000000000 
K           0.778012000000000    0.671197000000000    0.853964000000000 
%ENDBLOCK POSITIONS_FRAC
