# Cell file generated by matador (Matthew Evans 2016)

%BLOCK LATTICE_CART
7.48261 0.0 0.0
0.0 8.2665 0.0
1.77723 0.0 6.89103
%ENDBLOCK LATTICE_CART

%BLOCK POSITIONS_FRAC
P           0.305522000000000    0.267165000000000    0.820175000000000 
P           0.305522000000000    0.732835000000000    0.820175000000000 
P           0.427099000000000   -0.000000000000000    0.026743000000000 
P           0.805522000000000    0.232835000000000    0.820175000000000 
P           0.805522000000000    0.767165000000000    0.820175000000000 
P           0.927099000000000    0.500000000000000    0.026743000000000 
K           0.057918000000000    0.217096000000000    0.019093000000000 
K           0.057918000000000    0.782904000000000    0.019093000000000 
K           0.250291000000000    0.500000000000000    0.451169000000000 
K           0.353818000000000   -0.000000000000000    0.431822000000000 
K           0.557918000000000    0.282904000000000    0.019093000000000 
K           0.557918000000000    0.717096000000000    0.019093000000000 
K           0.750291000000000   -0.000000000000000    0.451169000000000 
K           0.853818000000000    0.500000000000000    0.431822000000000 
%ENDBLOCK POSITIONS_FRAC
