# Cell file generated by matador (Matthew Evans 2016)

%BLOCK LATTICE_CART
8.04145 -0.0 0.0
-4.02073 6.9641 0.0
0.0 0.0 6.17299
%ENDBLOCK LATTICE_CART

%BLOCK POSITIONS_FRAC
P           0.036074000000000    0.681267000000000    0.406104000000000 
P           0.311860000000000    0.297260000000000    0.739437000000000 
P           0.318733000000000    0.354807000000000    0.406104000000000 
P           0.369407000000000    0.347934000000000    0.072771000000000 
P           0.645193000000000    0.963926000000000    0.406104000000000 
P           0.652066000000000    0.021473000000000    0.072771000000000 
P           0.702740000000000    0.014600000000000    0.739437000000000 
P           0.978527000000000    0.630593000000000    0.072771000000000 
P           0.985400000000000    0.688140000000000    0.739437000000000 
K          -0.000000000000000   -0.000000000000000    0.285804000000000 
K           0.333333000000000    0.666667000000000    0.952471000000000 
K           0.666667000000000    0.333333000000000    0.619137000000000 
%ENDBLOCK POSITIONS_FRAC
