# Cell file generated by matador (Matthew Evans 2016)

%BLOCK LATTICE_CART
6.65758 -0.0 0.0
-3.32879 5.76563 0.0
0.0 0.0 11.9122
%ENDBLOCK LATTICE_CART

%BLOCK POSITIONS_FRAC
P          -0.000000000000000   -0.000000000000000    0.094754000000000 
P          -0.000000000000000   -0.000000000000000    0.897965000000000 
P           0.021913000000000    0.919603000000000    0.658956000000000 
P           0.080397000000000    0.102310000000000    0.658956000000000 
P           0.231023000000000    0.644754000000000    0.325623000000000 
P           0.333333000000000    0.666667000000000    0.564632000000000 
P           0.333333000000000    0.666667000000000    0.761421000000000 
P           0.355246000000000    0.586270000000000    0.325623000000000 
P           0.413730000000000    0.768977000000000    0.325623000000000 
P           0.564357000000000    0.311420000000000    0.992290000000000 
P           0.666667000000000    0.333333000000000    0.231299000000000 
P           0.666667000000000    0.333333000000000    0.428087000000000 
P           0.688580000000000    0.252936000000000    0.992290000000000 
P           0.747064000000000    0.435643000000000    0.992290000000000 
P           0.897690000000000    0.978087000000000    0.658956000000000 
K          -0.000000000000000   -0.000000000000000    0.318769000000000 
K           0.333333000000000    0.666667000000000    0.985436000000000 
K           0.666667000000000    0.333333000000000    0.652103000000000 
%ENDBLOCK POSITIONS_FRAC
