# Cell file generated by matador (Matthew Evans 2016)

%BLOCK LATTICE_CART
10.5065 0.0 0.0
0.0 10.5065 0.0
0.0 0.0 7.24946
%ENDBLOCK LATTICE_CART

%BLOCK POSITIONS_FRAC
P           0.119300000000000    0.119300000000000    0.341392000000000 
P           0.119300000000000    0.880700000000000    0.341392000000000 
P           0.500000000000000    0.500000000000000    0.680892000000000 
P           0.880700000000000    0.119300000000000    0.341392000000000 
P           0.880700000000000    0.880700000000000    0.341392000000000 
K           0.000000000000000    0.000000000000000    0.197296000000000 
K           0.000000000000000    0.500000000000000    0.241748000000000 
K           0.167747000000000    0.167747000000000    0.660542000000000 
K           0.167747000000000    0.832253000000000    0.660542000000000 
K           0.192292000000000    0.500000000000000    0.643819000000000 
K           0.315426000000000    0.315426000000000    0.957075000000000 
K           0.315426000000000    0.684574000000000    0.957075000000000 
K           0.500000000000000    0.000000000000000    0.241748000000000 
K           0.500000000000000    0.192292000000000    0.643819000000000 
K           0.500000000000000    0.807708000000000    0.643819000000000 
K           0.684574000000000    0.315426000000000    0.957075000000000 
K           0.684574000000000    0.684574000000000    0.957075000000000 
K           0.807708000000000    0.500000000000000    0.643819000000000 
K           0.832253000000000    0.167747000000000    0.660542000000000 
K           0.832253000000000    0.832253000000000    0.660542000000000 
%ENDBLOCK POSITIONS_FRAC
