# Cell file generated by matador (Matthew Evans 2016)

%BLOCK LATTICE_CART
6.2418 0.0 0.0
0.0 10.0055 0.0
0.187516 0.0 9.3913
%ENDBLOCK LATTICE_CART

%BLOCK POSITIONS_FRAC
P           0.000000000000000    0.749703000000000    0.000000000000000 
P           0.090741000000000    0.966935000000000    0.287680000000000 
P           0.190898000000000    0.858272000000000    0.975704000000000 
P           0.500000000000000    0.009718000000000    0.500000000000000 
P           0.500000000000000    0.271801000000000    0.500000000000000 
P           0.500000000000000    0.734898000000000    0.500000000000000 
P           0.809102000000000    0.858272000000000    0.024296000000000 
P           0.909259000000000    0.966935000000000    0.712320000000000 
K           0.000000000000000    0.036279000000000    0.000000000000000 
K           0.000000000000000    0.428972000000000    0.000000000000000 
K           0.107236000000000    0.191813000000000    0.285000000000000 
K           0.293397000000000    0.632723000000000    0.904741000000000 
K           0.329382000000000    0.380082000000000    0.655173000000000 
K           0.353185000000000    0.570967000000000    0.118858000000000 
K           0.500000000000000    0.315908000000000    0.000000000000000 
K           0.500000000000000    0.532608000000000    0.500000000000000 
K           0.646815000000000    0.570967000000000    0.881142000000000 
K           0.670618000000000    0.380082000000000    0.344827000000000 
K           0.706603000000000    0.632723000000000    0.095259000000000 
K           0.892764000000000    0.191813000000000    0.715000000000000 
%ENDBLOCK POSITIONS_FRAC
