# Cell file generated by matador (Matthew Evans 2016)

%BLOCK LATTICE_CART
8.74858 -0.0 0.0
-4.37429 7.57649 0.0
0.0 0.0 9.2543
%ENDBLOCK LATTICE_CART

%BLOCK POSITIONS_FRAC
P          -0.000000000000000   -0.000000000000000    0.001132000000000 
P          -0.000000000000000   -0.000000000000000    0.412606000000000 
P           0.333333000000000    0.666667000000000    0.079273000000000 
P           0.333333000000000    0.666667000000000    0.667799000000000 
P           0.666667000000000    0.333333000000000    0.334465000000000 
P           0.666667000000000    0.333333000000000    0.745939000000000 
K          -0.000000000000000   -0.000000000000000    0.686843000000000 
K           0.169348000000000    0.807064000000000    0.606238000000000 
K           0.192936000000000    0.362284000000000    0.606238000000000 
K           0.304383000000000    0.163985000000000    0.939572000000000 
K           0.333333000000000    0.666667000000000    0.353510000000000 
K           0.502681000000000    0.473731000000000    0.272905000000000 
K           0.526269000000000    0.028950000000000    0.272905000000000 
K           0.637716000000000    0.830652000000000    0.606238000000000 
K           0.666667000000000    0.333333000000000    0.020176000000000 
K           0.836015000000000    0.140398000000000    0.939572000000000 
K           0.859602000000000    0.695617000000000    0.939572000000000 
K           0.971050000000000    0.497319000000000    0.272905000000000 
%ENDBLOCK POSITIONS_FRAC
