# Cell file generated by matador (Matthew Evans 2016)

%BLOCK LATTICE_CART
8.32466 -0.0 0.0
-4.16233 7.20936 0.0
0.0 0.0 9.29725
%ENDBLOCK LATTICE_CART

%BLOCK POSITIONS_FRAC
P           0.049507000000000    0.948849000000000    0.261103000000000 
P           0.051151000000000    0.100658000000000    0.261103000000000 
P           0.232675000000000    0.617160000000000    0.927770000000000 
P           0.382840000000000    0.615516000000000    0.927770000000000 
P           0.384484000000000    0.767325000000000    0.927770000000000 
P           0.566009000000000    0.283826000000000    0.594436000000000 
P           0.716174000000000    0.282182000000000    0.594436000000000 
P           0.717818000000000    0.433991000000000    0.594436000000000 
P           0.899342000000000    0.950493000000000    0.261103000000000 
K           0.000000000000000    0.000000000000000    0.461584000000000 
K           0.000000000000000    0.000000000000000    0.730729000000000 
K           0.333333000000000    0.666667000000000    0.128250000000000 
K           0.333333000000000    0.666667000000000    0.397396000000000 
K           0.666667000000000    0.333333000000000    0.064063000000000 
K           0.666667000000000    0.333333000000000    0.794917000000000 
%ENDBLOCK POSITIONS_FRAC
