# Cell file generated by matador (Matthew Evans 2016)

%BLOCK LATTICE_CART
4.96338 0.0 0.0
-2.48169 4.29841 0.0
0.0 0.0 6.84511
%ENDBLOCK LATTICE_CART

%BLOCK POSITIONS_FRAC
P          -0.000000000000000    0.000000000000000    0.062580000000000 
P          -0.000000000000000    0.000000000000000    0.484528000000000 
P          -0.000000000000000    0.000000000000000    0.896920000000000 
P           0.333333000000000    0.666667000000000    0.315870000000000 
K           0.333333000000000    0.666667000000000    0.849699000000000 
%ENDBLOCK POSITIONS_FRAC
