# Cell file generated by matador (Matthew Evans 2016)

%BLOCK LATTICE_CART
6.9138 0.0 0.0
-3.4569 5.98752 0.0
0.0 0.0 8.74671
%ENDBLOCK LATTICE_CART

%BLOCK POSITIONS_FRAC
P           0.183244000000000    0.118943000000000    0.369972000000000 
P           0.183244000000000    0.118943000000000    0.630028000000000 
P           0.881057000000000    0.064301000000000    0.369972000000000 
P           0.881057000000000    0.064301000000000    0.630028000000000 
P           0.935699000000000    0.816756000000000    0.369972000000000 
P           0.935699000000000    0.816756000000000    0.630028000000000 
K           0.000000000000000    0.000000000000000    0.000000000000000 
K           0.004583000000000    0.291542000000000    0.000000000000000 
K           0.286959000000000    0.995417000000000    0.000000000000000 
K           0.666667000000000    0.333333000000000    0.000000000000000 
K           0.708458000000000    0.713041000000000    0.000000000000000 
%ENDBLOCK POSITIONS_FRAC
