# Cell file generated by matador (Matthew Evans 2016)

%BLOCK LATTICE_CART
5.75185 0.0 0.0
-2.87593 4.98125 0.0
0.0 0.0 7.72622
%ENDBLOCK LATTICE_CART

%BLOCK POSITIONS_FRAC
P           0.333333000000000    0.666667000000000    0.033367000000000 
P           0.333333000000000    0.666667000000000    0.364797000000000 
P           0.333333000000000    0.666667000000000    0.760696000000000 
P           0.666667000000000    0.333333000000000    0.033367000000000 
P           0.666667000000000    0.333333000000000    0.364797000000000 
P           0.666667000000000    0.333333000000000    0.760696000000000 
K           0.000000000000000    0.684806000000000    0.874368000000000 
K           0.315194000000000    0.315194000000000    0.874368000000000 
K           0.684806000000000    0.000000000000000    0.874368000000000 
%ENDBLOCK POSITIONS_FRAC
