# Cell file generated by matador (Matthew Evans 2016)

%BLOCK LATTICE_CART
7.78045 0.0 0.0
0.0 7.78045 0.0
0.0 0.0 11.1195
%ENDBLOCK LATTICE_CART

%BLOCK POSITIONS_FRAC
P          -0.000000000000000    0.000000000000000   -0.000000000000000 
P          -0.000000000000000    0.128528000000000   -0.000000000000000 
P          -0.000000000000000    0.871472000000000   -0.000000000000000 
P           0.128528000000000    0.000000000000000   -0.000000000000000 
P           0.371472000000000    0.500000000000000    0.500000000000000 
P           0.500000000000000    0.371472000000000    0.500000000000000 
P           0.500000000000000    0.500000000000000    0.500000000000000 
P           0.500000000000000    0.628528000000000    0.500000000000000 
P           0.628528000000000    0.500000000000000    0.500000000000000 
P           0.871472000000000    0.000000000000000   -0.000000000000000 
K          -0.000000000000000    0.000000000000000    0.404411000000000 
K          -0.000000000000000    0.000000000000000    0.595589000000000 
K          -0.000000000000000    0.500000000000000   -0.000000000000000 
K          -0.000000000000000    0.500000000000000    0.500000000000000 
K           0.500000000000000    0.000000000000000   -0.000000000000000 
K           0.500000000000000    0.000000000000000    0.500000000000000 
K           0.500000000000000    0.500000000000000    0.095589000000000 
K           0.500000000000000    0.500000000000000    0.904411000000000 
%ENDBLOCK POSITIONS_FRAC
