# Cell file generated by matador (Matthew Evans 2016)

%BLOCK LATTICE_CART
6.62986 0.0 0.0
0.0 6.01111 0.0
0.0 0.0 6.39286
%ENDBLOCK LATTICE_CART

%BLOCK POSITIONS_FRAC
P           0.151244000000000    0.000000000000000   -0.000000000000000 
P           0.151244000000000    0.500000000000000   -0.000000000000000 
P           0.348756000000000    0.000000000000000   -0.000000000000000 
P           0.348756000000000    0.500000000000000   -0.000000000000000 
P           0.651244000000000    0.000000000000000   -0.000000000000000 
P           0.651244000000000    0.500000000000000   -0.000000000000000 
P           0.848756000000000    0.000000000000000   -0.000000000000000 
P           0.848756000000000    0.500000000000000   -0.000000000000000 
K           0.000000000000000    0.250000000000000    0.408222000000000 
K           0.000000000000000    0.750000000000000    0.591778000000000 
K           0.500000000000000    0.250000000000000    0.591778000000000 
K           0.500000000000000    0.750000000000000    0.408222000000000 
%ENDBLOCK POSITIONS_FRAC
