# Cell file generated by matador (Matthew Evans 2016)

%BLOCK LATTICE_CART
7.80467 0.0 0.0
-3.90234 6.75905 0.0
0.0 0.0 9.22863
%ENDBLOCK LATTICE_CART

%BLOCK POSITIONS_FRAC
P           0.000000000000000    0.490866000000000    0.500000000000000 
P           0.000000000000000    0.509134000000000    0.000000000000000 
P           0.333333000000000    0.666667000000000    0.528759000000000 
P           0.333333000000000    0.666667000000000    0.971241000000000 
P           0.490866000000000    0.000000000000000    0.500000000000000 
P           0.490866000000000    0.490866000000000    0.000000000000000 
P           0.509134000000000    0.000000000000000    0.000000000000000 
P           0.509134000000000    0.509134000000000    0.500000000000000 
P           0.666667000000000    0.333333000000000    0.028759000000000 
P           0.666667000000000    0.333333000000000    0.471241000000000 
K           0.000000000000000    0.000000000000000    0.000000000000000 
K           0.000000000000000    0.000000000000000    0.250000000000000 
K           0.000000000000000    0.000000000000000    0.500000000000000 
K           0.000000000000000    0.000000000000000    0.750000000000000 
K           0.333333000000000    0.666667000000000    0.750000000000000 
K           0.666667000000000    0.333333000000000    0.250000000000000 
%ENDBLOCK POSITIONS_FRAC
