# Cell file generated by matador (Matthew Evans 2016)

%BLOCK LATTICE_CART
6.63252 0.0 0.0
-3.31626 5.74393 0.0
0.0 0.0 7.68109
%ENDBLOCK LATTICE_CART

%BLOCK POSITIONS_FRAC
P           0.000000000000000    0.000000000000000    0.000000000000000 
K           0.000000000000000    0.000000000000000    0.500000000000000 
K           0.333333000000000    0.666667000000000    0.000000000000000 
K           0.333333000000000    0.666667000000000    0.500000000000000 
K           0.365138000000000    0.024406000000000    0.000000000000000 
K           0.659268000000000    0.634862000000000    0.000000000000000 
K           0.975594000000000    0.340732000000000    0.000000000000000 
%ENDBLOCK POSITIONS_FRAC
