# Cell file generated by matador (Matthew Evans 2016)

%BLOCK LATTICE_CART
5.55086 0.0 0.0
0.0 7.43246 0.0
3.55097 0.0 9.16389
%ENDBLOCK LATTICE_CART

%BLOCK POSITIONS_FRAC
P           0.118339000000000    0.844693000000000    0.849529000000000 
P           0.138848000000000    0.231016000000000    0.691612000000000 
P           0.229494000000000    0.156795000000000    0.754815000000000 
P           0.430829000000000    0.909136000000000    0.945601000000000 
P           0.445776000000000    0.341649000000000    0.604690000000000 
P           0.478572000000000    0.116077000000000    0.238349000000000 
P           0.521428000000000    0.116077000000000    0.761651000000000 
P           0.554224000000000    0.341649000000000    0.395310000000000 
P           0.569171000000000    0.909136000000000    0.054399000000000 
P           0.770506000000000    0.156795000000000    0.245185000000000 
P           0.861152000000000    0.231016000000000    0.308388000000000 
P           0.881661000000000    0.844693000000000    0.150471000000000 
K           0.000000000000000    0.187535000000000    0.000000000000000 
K           0.500000000000000    0.551320000000000    0.000000000000000 
%ENDBLOCK POSITIONS_FRAC
