# Cell file generated by matador (Matthew Evans 2016)

%BLOCK LATTICE_CART
15.444 0.0 0.0
0.0 7.37053 0.0
0.0 0.0 9.21614
%ENDBLOCK LATTICE_CART

%BLOCK POSITIONS_FRAC
P           0.000000000000000    0.000000000000000    0.217011000000000 
P           0.000000000000000    0.000000000000000    0.782989000000000 
P           0.393214000000000    0.160220000000000    0.500000000000000 
P           0.393214000000000    0.839780000000000    0.500000000000000 
P           0.606786000000000    0.160220000000000    0.500000000000000 
P           0.606786000000000    0.839780000000000    0.500000000000000 
K           0.000000000000000    0.000000000000000    0.000000000000000 
K           0.000000000000000    0.000000000000000    0.500000000000000 
K           0.000000000000000    0.500000000000000    0.000000000000000 
K           0.000000000000000    0.500000000000000    0.500000000000000 
K           0.148525000000000    0.000000000000000    0.282160000000000 
K           0.148525000000000    0.000000000000000    0.717840000000000 
K           0.285459000000000    0.500000000000000    0.244406000000000 
K           0.285459000000000    0.500000000000000    0.755594000000000 
K           0.312513000000000    0.229747000000000    0.000000000000000 
K           0.312513000000000    0.770253000000000    0.000000000000000 
K           0.500000000000000    0.000000000000000    0.000000000000000 
K           0.500000000000000    0.000000000000000    0.500000000000000 
K           0.687487000000000    0.229747000000000    0.000000000000000 
K           0.687487000000000    0.770253000000000    0.000000000000000 
K           0.714541000000000    0.500000000000000    0.244406000000000 
K           0.714541000000000    0.500000000000000    0.755594000000000 
K           0.851475000000000    0.000000000000000    0.282160000000000 
K           0.851475000000000    0.000000000000000    0.717840000000000 
%ENDBLOCK POSITIONS_FRAC
