# Cell file generated by matador (Matthew Evans 2016)

%BLOCK LATTICE_CART
9.27152 0.0 0.0
0.0 7.79398 0.0
-2.8493 0.0 5.73653
%ENDBLOCK LATTICE_CART

%BLOCK POSITIONS_FRAC
P           0.268934000000000    0.000000000000000    0.523907000000000 
P           0.269896000000000    0.330816000000000    0.681140000000000 
P           0.269896000000000    0.669184000000000    0.681140000000000 
P           0.941751000000000    0.000000000000000    0.127725000000000 
K           0.290576000000000    0.500000000000000    0.990947000000000 
K           0.381418000000000    0.000000000000000    0.037341000000000 
K           0.475572000000000    0.000000000000000    0.460146000000000 
K           0.537797000000000    0.314174000000000    0.247429000000000 
K           0.537797000000000    0.685826000000000    0.247429000000000 
K           0.736060000000000    0.000000000000000    0.765665000000000 
K           0.903920000000000    0.276847000000000    0.587682000000000 
K           0.903920000000000    0.723153000000000    0.587682000000000 
K           0.920921000000000    0.500000000000000    0.194043000000000 
K           0.968949000000000    0.500000000000000    0.820009000000000 
%ENDBLOCK POSITIONS_FRAC
