# Cell file generated by matador (Matthew Evans 2016)

%BLOCK LATTICE_CART
6.73875 0.0 0.0
0.0 8.08392 0.0
0.0 0.0 7.50585
%ENDBLOCK LATTICE_CART

%BLOCK POSITIONS_FRAC
P           0.000000000000000    0.000000000000000    0.764142000000000 
P           0.000000000000000    0.500000000000000    0.264142000000000 
P           0.147261000000000    0.728518000000000    0.867038000000000 
P           0.147261000000000    0.771482000000000    0.367038000000000 
P           0.500000000000000    0.000000000000000    0.155837000000000 
P           0.500000000000000    0.000000000000000    0.973033000000000 
P           0.500000000000000    0.500000000000000    0.473033000000000 
P           0.500000000000000    0.500000000000000    0.655837000000000 
P           0.852739000000000    0.228518000000000    0.367038000000000 
P           0.852739000000000    0.271482000000000    0.867038000000000 
K           0.500000000000000    0.000000000000000    0.669704000000000 
K           0.500000000000000    0.500000000000000    0.169704000000000 
%ENDBLOCK POSITIONS_FRAC
