# Cell file generated by matador (Matthew Evans 2016)

%BLOCK LATTICE_CART
6.65981 0.0 0.0
0.0 6.65981 0.0
0.0 0.0 7.50761
%ENDBLOCK LATTICE_CART

%BLOCK POSITIONS_FRAC
P           0.000000000000000    0.500000000000000    0.569693000000000 
P           0.000000000000000    0.500000000000000    0.707166000000000 
P           0.000000000000000    0.500000000000000    0.999454000000000 
P           0.500000000000000    0.000000000000000    0.569693000000000 
P           0.500000000000000    0.000000000000000    0.707166000000000 
P           0.500000000000000    0.000000000000000    0.999454000000000 
P           0.500000000000000    0.500000000000000    0.320373000000000 
P           0.500000000000000    0.500000000000000    0.752470000000000 
K           0.122737000000000    0.783812000000000    0.648871000000000 
K           0.216188000000000    0.122737000000000    0.648871000000000 
K           0.783812000000000    0.877263000000000    0.648871000000000 
K           0.877263000000000    0.216188000000000    0.648871000000000 
%ENDBLOCK POSITIONS_FRAC
