# Cell file generated by matador (Matthew Evans 2016)

%BLOCK LATTICE_CART
6.38222 0.0 0.0
3.28788 7.64744 0.0
1.12849 2.52077 8.81057
%ENDBLOCK LATTICE_CART

%BLOCK POSITIONS_FRAC
P           0.000000000000000    0.500000000000000    0.500000000000000 
P           0.259014000000000    0.204843000000000    0.016221000000000 
P           0.740986000000000    0.795157000000000    0.983779000000000 
K           0.000000000000000    0.000000000000000    0.000000000000000 
K           0.000000000000000    0.000000000000000    0.500000000000000 
K           0.000000000000000    0.500000000000000    0.000000000000000 
K           0.131654000000000    0.751756000000000    0.471388000000000 
K           0.168385000000000    0.529621000000000    0.245705000000000 
K           0.479253000000000    0.708721000000000    0.075019000000000 
K           0.500000000000000    0.000000000000000    0.500000000000000 
K           0.500000000000000    0.500000000000000    0.000000000000000 
K           0.500000000000000    0.500000000000000    0.500000000000000 
K           0.520747000000000    0.291279000000000    0.924981000000000 
K           0.831615000000000    0.470379000000000    0.754295000000000 
K           0.868346000000000    0.248244000000000    0.528612000000000 
%ENDBLOCK POSITIONS_FRAC
