# Cell file generated by matador (Matthew Evans 2016)

%BLOCK LATTICE_CART
5.13672 0.0 0.0
0.0 8.78453 0.0
0.0 0.0 6.5304
%ENDBLOCK LATTICE_CART

%BLOCK POSITIONS_FRAC
P           0.000000000000000    0.000000000000000    0.599954000000000 
P           0.000000000000000    0.500000000000000    0.164149000000000 
P           0.000000000000000    0.500000000000000    0.565599000000000 
P           0.225802000000000    0.900250000000000    0.932808000000000 
P           0.274198000000000    0.400250000000000    0.067192000000000 
P           0.500000000000000    0.000000000000000    0.434401000000000 
P           0.500000000000000    0.000000000000000    0.835851000000000 
P           0.500000000000000    0.500000000000000    0.400046000000000 
P           0.725802000000000    0.599750000000000    0.067192000000000 
P           0.774198000000000    0.099750000000000    0.932808000000000 
K           0.034434000000000    0.140171000000000    0.347866000000000 
K           0.465566000000000    0.640171000000000    0.652134000000000 
K           0.534434000000000    0.359829000000000    0.652134000000000 
K           0.965566000000000    0.859829000000000    0.347866000000000 
%ENDBLOCK POSITIONS_FRAC
