# Cell file generated by matador (Matthew Evans 2016)

%BLOCK LATTICE_CART
6.08211 0.0 0.0
0.0 9.03623 0.0
0.0 0.0 6.81894
%ENDBLOCK LATTICE_CART

%BLOCK POSITIONS_FRAC
P           0.123258000000000    0.898050000000000    0.200411000000000 
P           0.166653000000000    0.426018000000000    0.196220000000000 
P           0.193289000000000    0.583055000000000    0.935594000000000 
P           0.306711000000000    0.416945000000000    0.435594000000000 
P           0.333347000000000    0.573982000000000    0.696220000000000 
P           0.376742000000000    0.101950000000000    0.700411000000000 
P           0.623258000000000    0.101950000000000    0.700411000000000 
P           0.666653000000000    0.573982000000000    0.696220000000000 
P           0.693289000000000    0.416945000000000    0.435594000000000 
P           0.806711000000000    0.583055000000000    0.935594000000000 
P           0.833347000000000    0.426018000000000    0.196220000000000 
P           0.876742000000000    0.898050000000000    0.200411000000000 
K           0.000000000000000    0.587205000000000    0.568630000000000 
K           0.500000000000000    0.412795000000000    0.068630000000000 
%ENDBLOCK POSITIONS_FRAC
