# Cell file generated by matador (Matthew Evans 2016)

%BLOCK LATTICE_CART
7.1832 0.0 0.0
-3.5916 6.22083 0.0
0.0 0.0 8.87376
%ENDBLOCK LATTICE_CART

%BLOCK POSITIONS_FRAC
P          -0.000000000000000    0.000000000000000    0.000000000000000 
P          -0.000000000000000    0.000000000000000    0.250000000000000 
P          -0.000000000000000    0.000000000000000    0.500000000000000 
P          -0.000000000000000    0.000000000000000    0.750000000000000 
P          -0.000000000000000    0.500000000000000    0.000000000000000 
P          -0.000000000000000    0.500000000000000    0.500000000000000 
P           0.500000000000000    0.000000000000000    0.000000000000000 
P           0.500000000000000    0.000000000000000    0.500000000000000 
P           0.500000000000000    0.500000000000000    0.000000000000000 
P           0.500000000000000    0.500000000000000    0.500000000000000 
K           0.333333000000000    0.666667000000000    0.290674000000000 
K           0.333333000000000    0.666667000000000    0.790674000000000 
K           0.666666000000000    0.333334000000000    0.209326000000000 
K           0.666666000000000    0.333334000000000    0.709326000000000 
%ENDBLOCK POSITIONS_FRAC
