# Cell file generated by matador (Matthew Evans 2016)

%BLOCK LATTICE_CART
6.38731 0.0 0.0
-3.19366 5.53157 0.0
0.0 0.0 5.47006
%ENDBLOCK LATTICE_CART

%BLOCK POSITIONS_FRAC
P           0.108248000000000    0.705936000000000    0.500000000000000 
P           0.294064000000000    0.402312000000000    0.500000000000000 
P           0.333333000000000    0.666667000000000    0.365626000000000 
P           0.333333000000000    0.666667000000000    0.634374000000000 
P           0.597688000000000    0.891752000000000    0.500000000000000 
P           0.666666000000000    0.333334000000000    0.167263000000000 
P           0.666666000000000    0.333334000000000    0.832737000000000 
K           0.333333000000000    0.666667000000000    0.000000000000000 
%ENDBLOCK POSITIONS_FRAC
