# Cell file generated by matador (Matthew Evans 2016)

%BLOCK LATTICE_CART
7.91445 0.0 0.0
0.0 7.91445 0.0
0.0 0.0 4.81729
%ENDBLOCK LATTICE_CART

%BLOCK POSITIONS_FRAC
P           0.000000000000000    0.500000000000000    0.184600000000000 
P           0.500000000000000    0.000000000000000    0.184600000000000 
P           0.500000000000000    0.500000000000000    0.716076000000000 
K           0.000000000000000    0.000000000000000    0.852630000000000 
K           0.125063000000000    0.656954000000000    0.908598000000000 
K           0.343046000000000    0.125063000000000    0.908598000000000 
K           0.656954000000000    0.874937000000000    0.908598000000000 
K           0.874937000000000    0.343046000000000    0.908598000000000 
%ENDBLOCK POSITIONS_FRAC
