# Cell file generated by matador (Matthew Evans 2016)

%BLOCK LATTICE_CART
5.07742 0.0 0.0
-2.53871 4.39718 0.0
0.0 0.0 6.4089
%ENDBLOCK LATTICE_CART

%BLOCK POSITIONS_FRAC
P           0.333334000000000    0.666668000000000    0.013072000000000 
P           0.666668000000000    0.333334000000000    0.013072000000000 
K           0.333334000000000    0.666668000000000    0.697722000000000 
K           0.666668000000000    0.333334000000000    0.697722000000000 
%ENDBLOCK POSITIONS_FRAC
