# Cell file generated by matador (Matthew Evans 2016)

%BLOCK LATTICE_CART
7.8699 0.0 0.0
0.0 7.8699 0.0
0.0 0.0 6.72653
%ENDBLOCK LATTICE_CART

%BLOCK POSITIONS_FRAC
P           0.000000000000000    0.225681000000000    0.136962000000000 
P           0.000000000000000    0.225681000000000    0.863038000000000 
P           0.000000000000000    0.774319000000000    0.136962000000000 
P           0.000000000000000    0.774319000000000    0.863038000000000 
P           0.225681000000000    0.000000000000000    0.136962000000000 
P           0.225681000000000    0.000000000000000    0.863038000000000 
P           0.774319000000000    0.000000000000000    0.136962000000000 
P           0.774319000000000    0.000000000000000    0.863038000000000 
K           0.000000000000000    0.000000000000000    0.000000000000000 
K           0.000000000000000    0.000000000000000    0.500000000000000 
K           0.500000000000000    0.500000000000000    0.000000000000000 
K           0.500000000000000    0.500000000000000    0.500000000000000 
%ENDBLOCK POSITIONS_FRAC
