# Cell file generated by matador (Matthew Evans 2016)

%BLOCK LATTICE_CART
6.33887 0.0 0.0
-3.16943 5.48962 0.0
0.0 0.0 6.96289
%ENDBLOCK LATTICE_CART

%BLOCK POSITIONS_FRAC
P          -0.000000000000000   -0.000000000000000    0.048131000000000 
P          -0.000000000000000   -0.000000000000000    0.849515000000000 
P          -0.000000000000000    0.500000000000000    0.450689000000000 
P           0.500000000000000   -0.000000000000000    0.450689000000000 
P           0.500000000000000    0.500000000000000    0.450689000000000 
K          -0.000000000000000    0.500000000000000    0.884975000000000 
K           0.500000000000000   -0.000000000000000    0.884975000000000 
K           0.500000000000000    0.500000000000000    0.884975000000000 
%ENDBLOCK POSITIONS_FRAC
