# Cell file generated by matador (Matthew Evans 2016)

%BLOCK LATTICE_CART
7.70679 0.0 0.0
0.0 7.70679 0.0
0.0 0.0 6.84222
%ENDBLOCK LATTICE_CART

%BLOCK POSITIONS_FRAC
P           0.000000000000000    0.500000000000000    0.000000000000000 
P           0.254160000000000    0.500000000000000    0.156261000000000 
P           0.254160000000000    0.500000000000000    0.843739000000000 
P           0.500000000000000    0.000000000000000    0.500000000000000 
P           0.500000000000000    0.254160000000000    0.343739000000000 
P           0.500000000000000    0.254160000000000    0.656261000000000 
P           0.500000000000000    0.745840000000000    0.343739000000000 
P           0.500000000000000    0.745840000000000    0.656261000000000 
P           0.745840000000000    0.500000000000000    0.156261000000000 
P           0.745840000000000    0.500000000000000    0.843739000000000 
K           0.000000000000000    0.000000000000000    0.250000000000000 
K           0.000000000000000    0.000000000000000    0.750000000000000 
K           0.000000000000000    0.500000000000000    0.500000000000000 
K           0.500000000000000    0.000000000000000    0.000000000000000 
K           0.500000000000000    0.500000000000000    0.250000000000000 
K           0.500000000000000    0.500000000000000    0.750000000000000 
%ENDBLOCK POSITIONS_FRAC
