# Cell file generated by matador (Matthew Evans 2016)

%BLOCK LATTICE_CART
5.71101 0.0 0.0
-2.8555 4.94588 0.0
0.0 0.0 7.37447
%ENDBLOCK LATTICE_CART

%BLOCK POSITIONS_FRAC
P           0.000000000000000    0.000000000000000    0.706356000000000 
P           0.333333000000000    0.666667000000000    0.373022000000000 
P           0.666667000000000    0.333333000000000    0.039689000000000 
K           0.000000000000000    0.000000000000000    0.233702000000000 
K           0.333333000000000    0.666667000000000    0.900369000000000 
K           0.666667000000000    0.333333000000000    0.567036000000000 
%ENDBLOCK POSITIONS_FRAC
