# Cell file generated by matador (Matthew Evans 2016)

%BLOCK LATTICE_CART
4.88637 0.0 0.0
0.0 6.95245 0.0
-2.05667 0.0 9.4973
%ENDBLOCK LATTICE_CART

%BLOCK POSITIONS_FRAC
P           0.479687000000000    0.500000000000000    0.967415000000000 
P           0.979687000000000    0.000000000000000    0.967415000000000 
K           0.347097000000000    0.000000000000000    0.205771000000000 
K           0.420367000000000    0.500000000000000    0.439608000000000 
K           0.454846000000000    0.000000000000000    0.662577000000000 
K           0.847097000000000    0.500000000000000    0.205771000000000 
K           0.920367000000000    0.000000000000000    0.439608000000000 
K           0.954846000000000    0.500000000000000    0.662577000000000 
%ENDBLOCK POSITIONS_FRAC
