# Cell file generated by matador (Matthew Evans 2016)

%BLOCK LATTICE_CART
4.70092 0.0 0.0
-2.35046 4.07112 0.0
0.0 0.0 7.08446
%ENDBLOCK LATTICE_CART

%BLOCK POSITIONS_FRAC
P           0.000000000000000    0.000000000000000    0.291723000000000 
P           0.000000000000000    0.500000000000000    0.063054000000000 
P           0.333333000000000    0.666667000000000    0.945866000000000 
P           0.500000000000000    0.000000000000000    0.063054000000000 
P           0.500000000000000    0.500000000000000    0.063054000000000 
P           0.666667000000000    0.333333000000000    0.945866000000000 
K           0.000000000000000    0.000000000000000    0.926889000000000 
%ENDBLOCK POSITIONS_FRAC
