# Cell file generated by matador (Matthew Evans 2016)

%BLOCK LATTICE_CART
7.4124 0.0 0.0
-3.7062 6.41932 0.0
0.0 0.0 6.99304
%ENDBLOCK LATTICE_CART

%BLOCK POSITIONS_FRAC
P           0.000000000000000    0.000000000000000    0.674181000000000 
P           0.333333000000000    0.666667000000000    0.888472000000000 
P           0.666667000000000    0.333333000000000    0.937757000000000 
K           0.000000000000000    0.000000000000000    0.332327000000000 
K           0.333333000000000    0.666667000000000    0.402454000000000 
K           0.378044000000000    0.002716000000000    0.592445000000000 
K           0.624672000000000    0.621956000000000    0.592445000000000 
K           0.666667000000000    0.333333000000000    0.301402000000000 
K           0.997284000000000    0.375328000000000    0.592445000000000 
%ENDBLOCK POSITIONS_FRAC
