# Cell file generated by matador (Matthew Evans 2016)

%BLOCK LATTICE_CART
7.47269 0.0 0.0
0.0 5.19338 0.0
0.0 0.0 7.3528
%ENDBLOCK LATTICE_CART

%BLOCK POSITIONS_FRAC
P           0.000000000000000    0.500000000000000    0.334437000000000 
P           0.500000000000000    0.500000000000000    0.334437000000000 
K           0.250000000000000    0.098741000000000    0.537566000000000 
K           0.250000000000000    0.174259000000000    0.095202000000000 
K           0.250000000000000    0.692598000000000    0.832413000000000 
K           0.750000000000000    0.307402000000000    0.832413000000000 
K           0.750000000000000    0.825741000000000    0.095202000000000 
K           0.750000000000000    0.901259000000000    0.537566000000000 
%ENDBLOCK POSITIONS_FRAC
