# Cell file generated by matador (Matthew Evans 2016)

%BLOCK LATTICE_CART
7.4312 0.0 0.0
0.0 7.4312 0.0
0.0 0.0 6.01963
%ENDBLOCK LATTICE_CART

%BLOCK POSITIONS_FRAC
P           0.070187000000000    0.795775000000000    0.081735000000000 
P           0.204225000000000    0.570187000000000    0.581735000000000 
P           0.250000000000000    0.250000000000000    0.750000000000000 
P           0.295775000000000    0.929813000000000    0.581735000000000 
P           0.429813000000000    0.704225000000000    0.081735000000000 
P           0.570187000000000    0.295775000000000    0.918265000000000 
P           0.704225000000000    0.070187000000000    0.418265000000000 
P           0.750000000000000    0.750000000000000    0.250000000000000 
P           0.795775000000000    0.429813000000000    0.418265000000000 
P           0.929813000000000    0.204225000000000    0.918265000000000 
K          -0.000000000000000   -0.000000000000000    0.500000000000000 
K          -0.000000000000000    0.500000000000000    0.000000000000000 
K           0.500000000000000   -0.000000000000000    0.000000000000000 
K           0.500000000000000    0.500000000000000    0.500000000000000 
%ENDBLOCK POSITIONS_FRAC
