# Cell file generated by matador (Matthew Evans 2016)

%BLOCK LATTICE_CART
10.5467 0.0 0.0
-5.27336 9.13372 0.0
0.0 0.0 6.31193
%ENDBLOCK LATTICE_CART

%BLOCK POSITIONS_FRAC
P           0.000000000000000    0.000000000000000    0.000000000000000 
P           0.000000000000000    0.000000000000000    0.346122000000000 
P           0.000000000000000    0.000000000000000    0.500000000000000 
P           0.000000000000000    0.000000000000000    0.653878000000000 
P           0.223738000000000    0.585309000000000    0.500000000000000 
P           0.361572000000000    0.776262000000000    0.500000000000000 
P           0.414691000000000    0.638428000000000    0.500000000000000 
P           0.585309000000000    0.361572000000000    0.500000000000000 
P           0.638428000000000    0.223738000000000    0.500000000000000 
P           0.776262000000000    0.414691000000000    0.500000000000000 
K           0.000000000000000    0.500000000000000    0.000000000000000 
K           0.000000000000000    0.500000000000000    0.500000000000000 
K           0.333333000000000    0.666667000000000    0.000000000000000 
K           0.500000000000000    0.000000000000000    0.000000000000000 
K           0.500000000000000    0.000000000000000    0.500000000000000 
K           0.500000000000000    0.500000000000000    0.000000000000000 
K           0.500000000000000    0.500000000000000    0.500000000000000 
K           0.666667000000000    0.333333000000000    0.000000000000000 
%ENDBLOCK POSITIONS_FRAC
