# Cell file generated by matador (Matthew Evans 2016)

%BLOCK LATTICE_CART
6.46772 0.0 0.0
0.0 6.46772 0.0
0.0 0.0 11.1403
%ENDBLOCK LATTICE_CART

%BLOCK POSITIONS_FRAC
P           0.000000000000000    0.000000000000000    0.500000000000000 
P           0.036655000000000    0.192952000000000    0.500000000000000 
P           0.192952000000000    0.963345000000000    0.500000000000000 
P           0.307048000000000    0.463345000000000    0.500000000000000 
P           0.463345000000000    0.692952000000000    0.500000000000000 
P           0.500000000000000    0.500000000000000    0.500000000000000 
P           0.536655000000000    0.307048000000000    0.500000000000000 
P           0.692952000000000    0.536655000000000    0.500000000000000 
P           0.807048000000000    0.036655000000000    0.500000000000000 
P           0.963345000000000    0.807048000000000    0.500000000000000 
K           0.000000000000000    0.000000000000000    0.000000000000000 
K           0.000000000000000    0.500000000000000    0.000000000000000 
K           0.000000000000000    0.500000000000000    0.500000000000000 
K           0.500000000000000    0.000000000000000    0.000000000000000 
K           0.500000000000000    0.000000000000000    0.500000000000000 
K           0.500000000000000    0.500000000000000    0.000000000000000 
%ENDBLOCK POSITIONS_FRAC
