# Cell file generated by matador (Matthew Evans 2016)

%BLOCK LATTICE_CART
4.76722 0.0 0.0
-2.38361 4.12853 0.0
0.0 0.0 8.26044
%ENDBLOCK LATTICE_CART

%BLOCK POSITIONS_FRAC
P           0.142430000000000    0.571215000000000    0.500000000000000 
P           0.428785000000000    0.571215000000000    0.500000000000000 
P           0.428785000000000    0.857570000000000    0.500000000000000 
K           0.333333000000000    0.666667000000000    0.000000000000000 
K           0.666666000000000    0.333334000000000    0.500000000000000 
%ENDBLOCK POSITIONS_FRAC
