# Cell file generated by matador (Matthew Evans 2016)

%BLOCK LATTICE_CART
7.5255 0.0 0.0
-3.76275 6.51727 0.0
0.0 0.0 7.68661
%ENDBLOCK LATTICE_CART

%BLOCK POSITIONS_FRAC
P           0.000000000000000   -0.000000000000000    0.000000000000000 
P           0.000000000000000   -0.000000000000000    0.136032000000000 
P           0.000000000000000   -0.000000000000000    0.500000000000000 
P           0.000000000000000   -0.000000000000000    0.863968000000000 
P           0.333333000000000    0.666667000000000    0.259619000000000 
P           0.666667000000000    0.333333000000000    0.740381000000000 
K           0.000000000000000    0.500000000000000    0.000000000000000 
K           0.333333000000000    0.666667000000000    0.580171000000000 
K           0.500000000000000   -0.000000000000000    0.000000000000000 
K           0.500000000000000    0.500000000000000    0.000000000000000 
K           0.666667000000000    0.333333000000000    0.419829000000000 
%ENDBLOCK POSITIONS_FRAC
