# Cell file generated by matador (Matthew Evans 2016)

%BLOCK LATTICE_CART
6.22981 0.0 0.0
0.0 9.59975 0.0
0.0 0.0 7.35578
%ENDBLOCK LATTICE_CART

%BLOCK POSITIONS_FRAC
P           0.000000000000000    0.000000000000000    0.500000000000000 
P           0.000000000000000    0.500000000000000   -0.000000000000000 
P           0.000000000000000    0.500000000000000    0.500000000000000 
P           0.500000000000000    0.000000000000000   -0.000000000000000 
P           0.500000000000000    0.000000000000000    0.500000000000000 
P           0.500000000000000    0.500000000000000   -0.000000000000000 
K           0.000000000000000    0.000000000000000   -0.000000000000000 
K           0.000000000000000    0.269202000000000    0.298108000000000 
K           0.000000000000000    0.269202000000000    0.701892000000000 
K           0.000000000000000    0.730798000000000    0.298108000000000 
K           0.000000000000000    0.730798000000000    0.701892000000000 
K           0.500000000000000    0.230798000000000    0.201892000000000 
K           0.500000000000000    0.230798000000000    0.798108000000000 
K           0.500000000000000    0.500000000000000    0.500000000000000 
K           0.500000000000000    0.769202000000000    0.201892000000000 
K           0.500000000000000    0.769202000000000    0.798108000000000 
%ENDBLOCK POSITIONS_FRAC
