# Cell file generated by matador (Matthew Evans 2016)

%BLOCK LATTICE_CART
9.20556 0.0 0.0
-4.60278 7.97225 0.0
0.0 0.0 3.42769
%ENDBLOCK LATTICE_CART

%BLOCK POSITIONS_FRAC
P           0.000000000000000   -0.000000000000000    0.211371000000000 
P           0.000000000000000   -0.000000000000000    0.500000000000000 
P           0.000000000000000   -0.000000000000000    0.788629000000000 
P           0.333334000000000    0.666666000000000    0.500000000000000 
P           0.666667000000000    0.333333000000000    0.000000000000000 
P           0.666667000000000    0.333333000000000    0.305841000000000 
P           0.666667000000000    0.333333000000000    0.694159000000000 
K           0.114788000000000    0.229575000000000    0.000000000000000 
K           0.114788000000000    0.885212000000000    0.000000000000000 
K           0.770425000000000    0.885212000000000    0.000000000000000 
%ENDBLOCK POSITIONS_FRAC
