# Cell file generated by matador (Matthew Evans 2016)

%BLOCK LATTICE_CART
9.93582 0.0 0.0
0.0 9.93582 0.0
0.0 0.0 14.0787
%ENDBLOCK LATTICE_CART

%BLOCK POSITIONS_FRAC
P           0.070231000000000    0.429769000000000    0.322115000000000 
P           0.070231000000000    0.570231000000000    0.822115000000000 
P           0.429769000000000    0.070231000000000    0.822115000000000 
P           0.429769000000000    0.929769000000000    0.322115000000000 
P           0.570231000000000    0.070231000000000    0.322115000000000 
P           0.570231000000000    0.929769000000000    0.822115000000000 
P           0.929769000000000    0.429769000000000    0.822115000000000 
P           0.929769000000000    0.570231000000000    0.322115000000000 
K           0.104927000000000    0.395073000000000    0.754447000000000 
K           0.104927000000000    0.604927000000000    0.254447000000000 
K           0.204248000000000    0.295752000000000    0.040399000000000 
K           0.204248000000000    0.704248000000000    0.540399000000000 
K           0.207787000000000    0.292213000000000    0.347402000000000 
K           0.207787000000000    0.707787000000000    0.847402000000000 
K           0.292213000000000    0.207787000000000    0.847402000000000 
K           0.292213000000000    0.792213000000000    0.347402000000000 
K           0.295752000000000    0.204248000000000    0.540399000000000 
K           0.295752000000000    0.795752000000000    0.040399000000000 
K           0.395073000000000    0.104927000000000    0.254447000000000 
K           0.395073000000000    0.895073000000000    0.754447000000000 
K           0.604927000000000    0.104927000000000    0.754447000000000 
K           0.604927000000000    0.895073000000000    0.254447000000000 
K           0.704248000000000    0.204248000000000    0.040399000000000 
K           0.704248000000000    0.795752000000000    0.540399000000000 
K           0.707787000000000    0.207787000000000    0.347402000000000 
K           0.707787000000000    0.792213000000000    0.847402000000000 
K           0.792213000000000    0.292213000000000    0.847402000000000 
K           0.792213000000000    0.707787000000000    0.347402000000000 
K           0.795752000000000    0.295752000000000    0.540399000000000 
K           0.795752000000000    0.704248000000000    0.040399000000000 
K           0.895073000000000    0.395073000000000    0.254447000000000 
K           0.895073000000000    0.604927000000000    0.754447000000000 
%ENDBLOCK POSITIONS_FRAC
