# Cell file generated by matador (Matthew Evans 2016)

%BLOCK LATTICE_CART
6.52118 0.0 0.0
-3.26059 5.6475 0.0
0.0 0.0 14.6657
%ENDBLOCK LATTICE_CART

%BLOCK POSITIONS_FRAC
P           0.027236000000000    0.190627000000000    0.273176000000000 
P           0.163391000000000    0.972764000000000    0.273176000000000 
P           0.190627000000000    0.163391000000000    0.273176000000000 
P           0.333333000000000    0.666667000000000    0.346241000000000 
P           0.333333000000000    0.666667000000000    0.719006000000000 
P           0.333333000000000    0.666667000000000    0.979999000000000 
P           0.666667000000000    0.333333000000000    0.346241000000000 
P           0.666667000000000    0.333333000000000    0.719006000000000 
P           0.666667000000000    0.333333000000000    0.979999000000000 
P           0.809373000000000    0.836609000000000    0.273176000000000 
P           0.836609000000000    0.027236000000000    0.273176000000000 
P           0.972764000000000    0.809373000000000    0.273176000000000 
K           0.000000000000000    0.500000000000000    0.076300000000000 
K           0.500000000000000    0.000000000000000    0.076300000000000 
K           0.500000000000000    0.500000000000000    0.076300000000000 
%ENDBLOCK POSITIONS_FRAC
