# Cell file generated by matador (Matthew Evans 2016)

%BLOCK LATTICE_CART
7.69489 0.0 0.0
4.9214 8.92094 0.0
2.99483 -6.66726 5.37409
%ENDBLOCK LATTICE_CART

%BLOCK POSITIONS_FRAC
P           0.000000000000000    0.000000000000000    0.500000000000000 
P           0.379432000000000    0.634226000000000    0.884093000000000 
P           0.384968000000000    0.791419000000000    0.429912000000000 
P           0.391559000000000    0.235048000000000    0.296398000000000 
P           0.608441000000000    0.764952000000000    0.703602000000000 
P           0.615032000000000    0.208581000000000    0.570088000000000 
P           0.620568000000000    0.365774000000000    0.115907000000000 
K           0.000000000000000    0.000000000000000    0.000000000000000 
K           0.000000000000000    0.500000000000000    0.000000000000000 
K           0.500000000000000    0.000000000000000    0.000000000000000 
K           0.500000000000000    0.500000000000000    0.000000000000000 
K           0.500000000000000    0.500000000000000    0.500000000000000 
%ENDBLOCK POSITIONS_FRAC
