# Cell file generated by matador (Matthew Evans 2016)

%BLOCK LATTICE_CART
7.73314 0.0 0.0
-0.0264993 7.09585 0.0
-4.31737 4.19045 6.50103
%ENDBLOCK LATTICE_CART

%BLOCK POSITIONS_FRAC
P           0.036764000000000    0.293392000000000    0.414672000000000 
P           0.381009000000000    0.777706000000000    0.463757000000000 
P           0.618991000000000    0.222294000000000    0.536243000000000 
P           0.963236000000000    0.706608000000000    0.585328000000000 
K           0.000000000000000    0.000000000000000    0.000000000000000 
K           0.000000000000000    0.000000000000000    0.500000000000000 
K           0.000000000000000    0.500000000000000    0.000000000000000 
K           0.000000000000000    0.500000000000000    0.500000000000000 
K           0.500000000000000    0.000000000000000    0.000000000000000 
K           0.500000000000000    0.000000000000000    0.500000000000000 
K           0.500000000000000    0.500000000000000    0.000000000000000 
K           0.500000000000000    0.500000000000000    0.500000000000000 
%ENDBLOCK POSITIONS_FRAC
