# Cell file generated by matador (Matthew Evans 2016)

%BLOCK LATTICE_CART
7.08591 0.0 0.0
0.0 5.86431 0.0
2.94067 0.0 5.27868
%ENDBLOCK LATTICE_CART

%BLOCK POSITIONS_FRAC
P           0.212743000000000    0.101660000000000    0.658060000000000 
P           0.212743000000000    0.898340000000000    0.658060000000000 
P           0.475644000000000    0.086270000000000    0.383239000000000 
P           0.475644000000000    0.913730000000000    0.383239000000000 
P           0.756430000000000    0.340329000000000    0.248956000000000 
P           0.756430000000000    0.659671000000000    0.248956000000000 
K           0.360701000000000    0.500000000000000    0.491518000000000 
K           0.778905000000000    0.500000000000000    0.563924000000000 
%ENDBLOCK POSITIONS_FRAC
