# Cell file generated by matador (Matthew Evans 2016)

%BLOCK LATTICE_CART
8.11737 0.0 0.0
0.0 8.11737 0.0
0.0 0.0 8.11737
%ENDBLOCK LATTICE_CART

%BLOCK POSITIONS_FRAC
P           0.114100000000000    0.290270000000000    0.364799000000000 
P           0.114100000000000    0.709730000000000    0.635201000000000 
P           0.290270000000000    0.364799000000000    0.114100000000000 
P           0.290270000000000    0.635201000000000    0.885900000000000 
P           0.364799000000000    0.114100000000000    0.290270000000000 
P           0.364799000000000    0.885900000000000    0.709730000000000 
P           0.635201000000000    0.114100000000000    0.709730000000000 
P           0.635201000000000    0.885900000000000    0.290270000000000 
P           0.709730000000000    0.364799000000000    0.885900000000000 
P           0.709730000000000    0.635201000000000    0.114100000000000 
P           0.885900000000000    0.290270000000000    0.635201000000000 
P           0.885900000000000    0.709730000000000    0.364799000000000 
K           0.000000000000000    0.000000000000000    0.000000000000000 
K           0.500000000000000    0.500000000000000    0.500000000000000 
%ENDBLOCK POSITIONS_FRAC
