# Cell file generated by matador (Matthew Evans 2016)

%BLOCK LATTICE_CART
5.44544 0.0 0.0
0.0 9.05667 0.0
2.19506 0.0 5.95106
%ENDBLOCK LATTICE_CART

%BLOCK POSITIONS_FRAC
P           0.000000000000000    0.220832000000000    0.500000000000000 
P           0.000000000000000    0.230271000000000    0.000000000000000 
P           0.000000000000000    0.769729000000000    0.000000000000000 
P           0.000000000000000    0.779168000000000    0.500000000000000 
P           0.500000000000000    0.220832000000000    0.500000000000000 
P           0.500000000000000    0.779168000000000    0.500000000000000 
K           0.000000000000000    0.000000000000000    0.000000000000000 
K           0.000000000000000    0.000000000000000    0.500000000000000 
K           0.000000000000000    0.500000000000000    0.500000000000000 
K           0.500000000000000    0.000000000000000    0.500000000000000 
K           0.500000000000000    0.500000000000000    0.500000000000000 
%ENDBLOCK POSITIONS_FRAC
