# Cell file generated by matador (Matthew Evans 2016)

%BLOCK LATTICE_CART
10.3335 0.0 0.0
-5.16677 8.94911 0.0
0.0 0.0 10.0824
%ENDBLOCK LATTICE_CART

%BLOCK POSITIONS_FRAC
P           0.000000000000000    0.000000000000000    0.000000000000000 
P           0.000000000000000    0.000000000000000    0.250000000000000 
P           0.000000000000000    0.000000000000000    0.500000000000000 
P           0.000000000000000    0.000000000000000    0.750000000000000 
P           0.333333000000000    0.666667000000000    0.750000000000000 
P           0.666667000000000    0.333333000000000    0.250000000000000 
K           0.000000000000000    0.500000000000000    0.000000000000000 
K           0.000000000000000    0.500000000000000    0.500000000000000 
K           0.086243000000000    0.809846000000000    0.750000000000000 
K           0.160386000000000    0.513916000000000    0.250000000000000 
K           0.190154000000000    0.276397000000000    0.750000000000000 
K           0.276397000000000    0.086243000000000    0.250000000000000 
K           0.353529000000000    0.839614000000000    0.250000000000000 
K           0.486084000000000    0.646471000000000    0.250000000000000 
K           0.500000000000000    0.000000000000000    0.000000000000000 
K           0.500000000000000    0.000000000000000    0.500000000000000 
K           0.500000000000000    0.500000000000000    0.000000000000000 
K           0.500000000000000    0.500000000000000    0.500000000000000 
K           0.513916000000000    0.353529000000000    0.750000000000000 
K           0.646471000000000    0.160386000000000    0.750000000000000 
K           0.723603000000000    0.913757000000000    0.750000000000000 
K           0.809846000000000    0.723603000000000    0.250000000000000 
K           0.839614000000000    0.486084000000000    0.750000000000000 
K           0.913757000000000    0.190154000000000    0.250000000000000 
%ENDBLOCK POSITIONS_FRAC
