# Cell file generated by matador (Matthew Evans 2016)

%BLOCK LATTICE_CART
12.3562 0.0 0.0
0.0 12.3562 0.0
0.0 0.0 3.56216
%ENDBLOCK LATTICE_CART

%BLOCK POSITIONS_FRAC
P           0.000000000000000    0.500000000000000    0.598990000000000 
P           0.288758000000000    0.500000000000000    0.978511000000000 
P           0.500000000000000    0.000000000000000    0.401010000000000 
P           0.500000000000000    0.288758000000000    0.021489000000000 
P           0.500000000000000    0.711242000000000    0.021489000000000 
P           0.711242000000000    0.500000000000000    0.978511000000000 
K           0.000000000000000    0.000000000000000    0.000000000000000 
K           0.257702000000000    0.381208000000000    0.369335000000000 
K           0.257702000000000    0.618792000000000    0.369335000000000 
K           0.381208000000000    0.257702000000000    0.630665000000000 
K           0.381208000000000    0.742298000000000    0.630665000000000 
K           0.500000000000000    0.500000000000000    0.500000000000000 
K           0.618792000000000    0.257702000000000    0.630665000000000 
K           0.618792000000000    0.742298000000000    0.630665000000000 
K           0.742298000000000    0.381208000000000    0.369335000000000 
K           0.742298000000000    0.618792000000000    0.369335000000000 
%ENDBLOCK POSITIONS_FRAC
