# Cell file generated by matador (Matthew Evans 2016)

%BLOCK LATTICE_CART
5.48525 0.0 0.0
-2.74263 4.75037 0.0
0.0 0.0 8.43719
%ENDBLOCK LATTICE_CART

%BLOCK POSITIONS_FRAC
P           0.000000000000000    0.000000000000000    0.000000000000000 
K           0.000000000000000    0.317556000000000    0.659958000000000 
K           0.000000000000000    0.682444000000000    0.340042000000000 
K           0.317556000000000    0.000000000000000    0.659958000000000 
K           0.317556000000000    0.317556000000000    0.340042000000000 
K           0.682444000000000    0.000000000000000    0.340042000000000 
K           0.682444000000000    0.682444000000000    0.659958000000000 
%ENDBLOCK POSITIONS_FRAC
