# Cell file generated by matador (Matthew Evans 2016)

%BLOCK LATTICE_CART
8.6457 0.0 0.0
-4.32285 7.48739 0.0
0.0 0.0 5.67759
%ENDBLOCK LATTICE_CART

%BLOCK POSITIONS_FRAC
P           0.333334000000000    0.666668000000000    0.039594000000000 
P           0.333334000000000    0.666668000000000    0.539594000000000 
P           0.666668000000000    0.333334000000000    0.039594000000000 
P           0.666668000000000    0.333334000000000    0.539594000000000 
K           0.000001000000000    0.225576000000000    0.427122000000000 
K           0.000001000000000    0.774426000000000    0.927122000000000 
K           0.225576000000000    0.000001000000000    0.427122000000000 
K           0.225576000000000    0.225576000000000    0.927122000000000 
K           0.774426000000000    0.000001000000000    0.927122000000000 
K           0.774426000000000    0.774426000000000    0.427122000000000 
%ENDBLOCK POSITIONS_FRAC
