# Cell file generated by matador (Matthew Evans 2016)

%BLOCK LATTICE_CART
8.73505 0.0 0.0
-4.36753 7.56478 0.0
0.0 0.0 6.19659
%ENDBLOCK LATTICE_CART

%BLOCK POSITIONS_FRAC
P           0.000000000000000    0.000000000000000    0.000000000000000 
P           0.000000000000000    0.500000000000000    0.000000000000000 
P           0.500000000000000    0.000000000000000    0.000000000000000 
P           0.500000000000000    0.500000000000000    0.000000000000000 
K           0.000000000000000    0.000000000000000    0.500000000000000 
K           0.150671000000000    0.403835000000000    0.527269000000000 
K           0.253164000000000    0.849329000000000    0.527269000000000 
K           0.403835000000000    0.253164000000000    0.472731000000000 
K           0.596165000000000    0.746836000000000    0.527269000000000 
K           0.746836000000000    0.150671000000000    0.472731000000000 
K           0.849329000000000    0.596165000000000    0.472731000000000 
%ENDBLOCK POSITIONS_FRAC
