# Cell file generated by matador (Matthew Evans 2016)

%BLOCK LATTICE_CART
8.82304 0.0 0.0
-4.41152 7.64098 0.0
0.0 0.0 9.01772
%ENDBLOCK LATTICE_CART

%BLOCK POSITIONS_FRAC
P           0.046603000000000    0.106491000000000    0.416899000000000 
P           0.059888000000000    0.953397000000000    0.416899000000000 
P           0.106491000000000    0.059888000000000    0.583101000000000 
P           0.133350000000000    0.309056000000000    0.378677000000000 
P           0.175706000000000    0.866650000000000    0.378677000000000 
P           0.309056000000000    0.175706000000000    0.621323000000000 
P           0.333333000000000    0.666667000000000    0.266061000000000 
P           0.666667000000000    0.333333000000000    0.733939000000000 
P           0.690944000000000    0.824294000000000    0.378677000000000 
P           0.824294000000000    0.133350000000000    0.621323000000000 
P           0.866650000000000    0.690944000000000    0.621323000000000 
P           0.893509000000000    0.940112000000000    0.416899000000000 
P           0.940112000000000    0.046603000000000    0.583101000000000 
P           0.953397000000000    0.893509000000000    0.583101000000000 
K           0.000000000000000    0.000000000000000    0.000000000000000 
K           0.000000000000000    0.500000000000000    0.000000000000000 
K           0.500000000000000    0.000000000000000    0.000000000000000 
K           0.500000000000000    0.500000000000000    0.000000000000000 
%ENDBLOCK POSITIONS_FRAC
