# Cell file generated by matador (Matthew Evans 2016)

%BLOCK LATTICE_CART
6.3542 0.0 0.0
-3.1771 5.5029 0.0
0.0 0.0 8.7975
%ENDBLOCK LATTICE_CART

%BLOCK POSITIONS_FRAC
P           0.000000000000000    0.500000000000000    0.500000000000000 
P           0.333333000000000    0.666667000000000    0.500000000000000 
P           0.500000000000000    0.000000000000000    0.500000000000000 
P           0.500000000000000    0.500000000000000    0.500000000000000 
P           0.666667000000000    0.333333000000000    0.500000000000000 
K           0.000000000000000    0.000000000000000    0.000000000000000 
K           0.123695000000000    0.394742000000000    0.000000000000000 
K           0.271047000000000    0.876305000000000    0.000000000000000 
K           0.394742000000000    0.271047000000000    0.000000000000000 
K           0.605258000000000    0.728953000000000    0.000000000000000 
K           0.728953000000000    0.123695000000000    0.000000000000000 
K           0.876305000000000    0.605258000000000    0.000000000000000 
%ENDBLOCK POSITIONS_FRAC
