# Cell file generated by matador (Matthew Evans 2016)

%BLOCK LATTICE_CART
7.81609 0.0 0.0
-3.90805 6.76893 0.0
0.0 0.0 11.2155
%ENDBLOCK LATTICE_CART

%BLOCK POSITIONS_FRAC
P           0.020217000000000    0.428644000000000    0.500000000000000 
P           0.020217000000000    0.591572000000000    0.500000000000000 
P           0.185599000000000    0.371198000000000    0.500000000000000 
P           0.185599000000000    0.814401000000000    0.500000000000000 
P           0.408428000000000    0.428644000000000    0.500000000000000 
P           0.408428000000000    0.979783000000000    0.500000000000000 
P           0.571356000000000    0.591572000000000    0.500000000000000 
P           0.571356000000000    0.979783000000000    0.500000000000000 
P           0.628802000000000    0.814401000000000    0.500000000000000 
K           0.000000000000000    0.000000000000000    0.000000000000000 
K           0.000000000000000    0.000000000000000    0.500000000000000 
K           0.333333000000000    0.666667000000000    0.000000000000000 
K           0.333333000000000    0.666667000000000    0.500000000000000 
K           0.666667000000000    0.333333000000000    0.000000000000000 
K           0.666667000000000    0.333333000000000    0.500000000000000 
%ENDBLOCK POSITIONS_FRAC
