# Cell file generated by matador (Matthew Evans 2016)

%BLOCK LATTICE_CART
5.82175 -0.0 0.0
-2.91087 5.04178 0.0
0.0 0.0 8.4947
%ENDBLOCK LATTICE_CART

%BLOCK POSITIONS_FRAC
P           0.030843000000000    0.589695000000000    0.736337000000000 
P           0.410304000000000    0.441147000000000    0.736337000000000 
P           0.558852000000000    0.969156000000000    0.736337000000000 
K          -0.000000000000000    0.999999000000000    0.643629000000000 
K           0.333333000000000    0.666666000000000    0.157715000000000 
K           0.333333000000000    0.666666000000000    0.393378000000000 
K           0.666666000000000    0.333333000000000    0.183459000000000 
%ENDBLOCK POSITIONS_FRAC
