# Cell file generated by matador (Matthew Evans 2016)

%BLOCK LATTICE_CART
9.6341 0.0 0.0
-4.81705 8.34338 0.0
0.0 0.0 7.86286
%ENDBLOCK LATTICE_CART

%BLOCK POSITIONS_FRAC
P           0.000000000000000    0.000000000000000    0.253574000000000 
P           0.000000000000000    0.000000000000000    0.746426000000000 
P           0.333333000000000    0.666667000000000    0.000000000000000 
P           0.333333000000000    0.666667000000000    0.264940000000000 
P           0.333333000000000    0.666667000000000    0.500000000000000 
P           0.333333000000000    0.666667000000000    0.735060000000000 
P           0.666667000000000    0.333333000000000    0.000000000000000 
P           0.666667000000000    0.333333000000000    0.264940000000000 
P           0.666667000000000    0.333333000000000    0.500000000000000 
P           0.666667000000000    0.333333000000000    0.735060000000000 
K           0.000000000000000    0.000000000000000    0.000000000000000 
K           0.000000000000000    0.000000000000000    0.500000000000000 
K           0.000000000000000    0.500000000000000    0.000000000000000 
K           0.000000000000000    0.500000000000000    0.500000000000000 
K           0.500000000000000    0.000000000000000    0.000000000000000 
K           0.500000000000000    0.000000000000000    0.500000000000000 
K           0.500000000000000    0.500000000000000    0.000000000000000 
K           0.500000000000000    0.500000000000000    0.500000000000000 
%ENDBLOCK POSITIONS_FRAC
