# Cell file generated by matador (Matthew Evans 2016)

%BLOCK LATTICE_CART
7.65484 -0.0 0.0
-3.82742 6.62929 0.0
0.0 0.0 7.2974
%ENDBLOCK LATTICE_CART

%BLOCK POSITIONS_FRAC
P           0.457250000000000    0.399786000000000    0.488953000000000 
P           0.600214000000000    0.057464000000000    0.488953000000000 
P           0.942536000000000    0.542750000000000    0.488953000000000 
K          -0.000000000000000   -0.000000000000000    0.131574000000000 
K           0.225046000000000    0.492134000000000    0.536675000000000 
K           0.267088000000000    0.774954000000000    0.536675000000000 
K           0.333333000000000    0.666667000000000    0.897139000000000 
K           0.507866000000000    0.732912000000000    0.536675000000000 
K           0.666667000000000    0.333333000000000    0.712687000000000 
%ENDBLOCK POSITIONS_FRAC
