# Cell file generated by matador (Matthew Evans 2016)

%BLOCK LATTICE_CART
6.57421 0.0 0.0
0.0 5.45438 0.0
0.0 0.0 8.61755
%ENDBLOCK LATTICE_CART

%BLOCK POSITIONS_FRAC
P           0.000000000000000   -0.000000000000000    0.569773000000000 
P           0.500000000000000    0.500000000000000    0.069773000000000 
K           0.000000000000000    0.500000000000000    0.300547000000000 
K           0.235483000000000    0.500000000000000    0.831906000000000 
K           0.264517000000000   -0.000000000000000    0.331906000000000 
K           0.500000000000000   -0.000000000000000    0.800547000000000 
K           0.735483000000000   -0.000000000000000    0.331906000000000 
K           0.764517000000000    0.500000000000000    0.831906000000000 
%ENDBLOCK POSITIONS_FRAC
