# Cell file generated by matador (Matthew Evans 2016)

%BLOCK LATTICE_CART
7.41745 0.0 0.0
0.0 7.41745 0.0
0.0 0.0 7.41745
%ENDBLOCK LATTICE_CART

%BLOCK POSITIONS_FRAC
P           0.000000000000000    0.500000000000000    0.155083000000000 
P           0.000000000000000    0.500000000000000    0.844917000000000 
P           0.155083000000000    0.000000000000000    0.500000000000000 
P           0.256804000000000    0.256804000000000    0.256804000000000 
P           0.256804000000000    0.743196000000000    0.743196000000000 
P           0.344327000000000    0.344327000000000    0.655673000000000 
P           0.344327000000000    0.655673000000000    0.344327000000000 
P           0.500000000000000    0.155083000000000    0.000000000000000 
P           0.500000000000000    0.844917000000000    0.000000000000000 
P           0.655673000000000    0.344327000000000    0.344327000000000 
P           0.655673000000000    0.655673000000000    0.655673000000000 
P           0.743196000000000    0.256804000000000    0.743196000000000 
P           0.743196000000000    0.743196000000000    0.256804000000000 
P           0.844917000000000    0.000000000000000    0.500000000000000 
K           0.000000000000000    0.000000000000000    0.000000000000000 
K           0.500000000000000    0.500000000000000    0.500000000000000 
%ENDBLOCK POSITIONS_FRAC
