# Cell file generated by matador (Matthew Evans 2016)

%BLOCK LATTICE_CART
7.93831 0.0 0.0
-3.96916 6.87478 0.0
0.0 0.0 7.87415
%ENDBLOCK LATTICE_CART

%BLOCK POSITIONS_FRAC
P           0.000000000000000    0.000000000000000    0.250000000000000 
P           0.000000000000000    0.000000000000000    0.750000000000000 
P           0.000000000000000    0.398635000000000    0.000000000000000 
P           0.000000000000000    0.398635000000000    0.500000000000000 
P           0.398635000000000    0.000000000000000    0.000000000000000 
P           0.398635000000000    0.000000000000000    0.500000000000000 
P           0.601365000000000    0.601365000000000    0.000000000000000 
P           0.601365000000000    0.601365000000000    0.500000000000000 
K           0.000000000000000    0.000000000000000    0.000000000000000 
K           0.000000000000000    0.000000000000000    0.500000000000000 
K           0.013420000000000    0.631780000000000    0.250000000000000 
K           0.333333000000000    0.666667000000000    0.750000000000000 
K           0.368220000000000    0.381640000000000    0.250000000000000 
K           0.381640000000000    0.368220000000000    0.750000000000000 
K           0.618360000000000    0.986580000000000    0.250000000000000 
K           0.631780000000000    0.013420000000000    0.750000000000000 
K           0.666667000000000    0.333333000000000    0.250000000000000 
K           0.986580000000000    0.618360000000000    0.750000000000000 
%ENDBLOCK POSITIONS_FRAC
