# Cell file generated by matador (Matthew Evans 2016)

%BLOCK LATTICE_CART
11.0329 0.0 0.0
0.0 11.4187 0.0
0.0 0.0 11.0561
%ENDBLOCK LATTICE_CART

%BLOCK POSITIONS_FRAC
P           0.106105000000000    0.496270000000000    0.251608000000000 
P           0.106105000000000    0.996270000000000    0.751608000000000 
P           0.393895000000000    0.496270000000000    0.251608000000000 
P           0.393895000000000    0.996270000000000    0.751608000000000 
P           0.606105000000000    0.003730000000000    0.751608000000000 
P           0.606105000000000    0.503730000000000    0.251608000000000 
P           0.893895000000000    0.003730000000000    0.751608000000000 
P           0.893895000000000    0.503730000000000    0.251608000000000 
K           0.000000000000000    0.000000000000000    0.425235000000000 
K           0.000000000000000    0.500000000000000    0.925235000000000 
K           0.250000000000000    0.000740000000000    0.046248000000000 
K           0.250000000000000    0.094839000000000    0.409819000000000 
K           0.250000000000000    0.237705000000000    0.934099000000000 
K           0.250000000000000    0.275470000000000    0.671722000000000 
K           0.250000000000000    0.340503000000000    0.203215000000000 
K           0.250000000000000    0.500740000000000    0.546248000000000 
K           0.250000000000000    0.594839000000000    0.909819000000000 
K           0.250000000000000    0.737705000000000    0.434099000000000 
K           0.250000000000000    0.775470000000000    0.171722000000000 
K           0.250000000000000    0.840503000000000    0.703215000000000 
K           0.500000000000000    0.000000000000000    0.425235000000000 
K           0.500000000000000    0.500000000000000    0.925235000000000 
K           0.750000000000000    0.159497000000000    0.703215000000000 
K           0.750000000000000    0.224530000000000    0.171722000000000 
K           0.750000000000000    0.262295000000000    0.434099000000000 
K           0.750000000000000    0.405161000000000    0.909819000000000 
K           0.750000000000000    0.499260000000000    0.546248000000000 
K           0.750000000000000    0.659497000000000    0.203215000000000 
K           0.750000000000000    0.724530000000000    0.671722000000000 
K           0.750000000000000    0.762295000000000    0.934099000000000 
K           0.750000000000000    0.905161000000000    0.409819000000000 
K           0.750000000000000    0.999260000000000    0.046248000000000 
%ENDBLOCK POSITIONS_FRAC
