# Cell file generated by matador (Matthew Evans 2016)

%BLOCK LATTICE_CART
9.47051 0.0 0.0
-4.73526 8.2017 0.0
0.0 0.0 7.84701
%ENDBLOCK LATTICE_CART

%BLOCK POSITIONS_FRAC
P           0.000000000000000    0.000000000000000    0.000000000000000 
P           0.000000000000000    0.000000000000000    0.500000000000000 
P           0.000000000000000    0.288788000000000    0.000000000000000 
P           0.000000000000000    0.711212000000000    0.000000000000000 
P           0.080856000000000    0.540428000000000    0.260123000000000 
P           0.288788000000000    0.000000000000000    0.000000000000000 
P           0.288788000000000    0.288788000000000    0.000000000000000 
P           0.459572000000000    0.540428000000000    0.260123000000000 
P           0.459572000000000    0.919144000000000    0.260123000000000 
P           0.540428000000000    0.080856000000000    0.739877000000000 
P           0.540428000000000    0.459572000000000    0.739877000000000 
P           0.711212000000000    0.000000000000000    0.000000000000000 
P           0.711212000000000    0.711212000000000    0.000000000000000 
P           0.919144000000000    0.459572000000000    0.739877000000000 
K           0.000000000000000    0.500000000000000    0.000000000000000 
K           0.000000000000000    0.500000000000000    0.500000000000000 
K           0.500000000000000    0.000000000000000    0.000000000000000 
K           0.500000000000000    0.000000000000000    0.500000000000000 
K           0.500000000000000    0.500000000000000    0.000000000000000 
K           0.500000000000000    0.500000000000000    0.500000000000000 
%ENDBLOCK POSITIONS_FRAC
