# Cell file generated by matador (Matthew Evans 2016)

%BLOCK LATTICE_CART
7.86975 0.0 0.0
-3.93488 6.8154 0.0
0.0 0.0 4.86672
%ENDBLOCK LATTICE_CART

%BLOCK POSITIONS_FRAC
P           0.146726000000000    0.293452000000000    0.500000000000000 
P           0.146726000000000    0.853274000000000    0.500000000000000 
P           0.333333000000000    0.666667000000000    0.500000000000000 
P           0.519940000000000    0.039879000000000    0.000000000000000 
P           0.519940000000000    0.480060000000000    0.000000000000000 
P           0.706548000000000    0.853274000000000    0.500000000000000 
P           0.960121000000000    0.480060000000000    0.000000000000000 
K           0.000000000000000    0.000000000000000    0.000000000000000 
K           0.000000000000000    0.000000000000000    0.500000000000000 
K           0.333333000000000    0.666667000000000    0.000000000000000 
K           0.666667000000000    0.333333000000000    0.000000000000000 
K           0.666667000000000    0.333333000000000    0.500000000000000 
%ENDBLOCK POSITIONS_FRAC
