# Cell file generated by matador (Matthew Evans 2016)

%BLOCK LATTICE_CART
8.15712 0.0 0.0
-4.07856 7.06427 0.0
0.0 0.0 11.7175
%ENDBLOCK LATTICE_CART

%BLOCK POSITIONS_FRAC
P           0.000000000000000    0.000000000000000    0.000000000000000 
P           0.000000000000000    0.000000000000000    0.500000000000000 
P           0.333333000000000    0.666667000000000    0.589278000000000 
P           0.666667000000000    0.333333000000000    0.410722000000000 
K           0.000000000000000    0.500000000000000    0.000000000000000 
K           0.000000000000000    0.500000000000000    0.500000000000000 
K           0.190897000000000    0.381794000000000    0.243206000000000 
K           0.190897000000000    0.809103000000000    0.243206000000000 
K           0.381794000000000    0.190897000000000    0.756794000000000 
K           0.500000000000000    0.000000000000000    0.000000000000000 
K           0.500000000000000    0.000000000000000    0.500000000000000 
K           0.500000000000000    0.500000000000000    0.000000000000000 
K           0.500000000000000    0.500000000000000    0.500000000000000 
K           0.618206000000000    0.809103000000000    0.243206000000000 
K           0.809103000000000    0.190897000000000    0.756794000000000 
K           0.809103000000000    0.618206000000000    0.756794000000000 
%ENDBLOCK POSITIONS_FRAC
