# Cell file generated by matador (Matthew Evans 2016)

%BLOCK LATTICE_CART
8.94934 0.0 0.0
0.0 5.40645 0.0
0.0 0.0 6.56871
%ENDBLOCK LATTICE_CART

%BLOCK POSITIONS_FRAC
P           0.000000000000000    0.000000000000000    0.000000000000000 
P           0.500000000000000    0.500000000000000    0.500000000000000 
K           0.000000000000000    0.500000000000000    0.000000000000000 
K           0.166513000000000    0.983291000000000    0.500000000000000 
K           0.333487000000000    0.483291000000000    0.000000000000000 
K           0.500000000000000    0.000000000000000    0.500000000000000 
K           0.666513000000000    0.516709000000000    0.000000000000000 
K           0.833487000000000    0.016709000000000    0.500000000000000 
%ENDBLOCK POSITIONS_FRAC
