# Cell file generated by matador (Matthew Evans 2016)

%BLOCK LATTICE_CART
10.9448 0.0 0.0
0.0 4.75767 0.0
0.0 0.0 10.132
%ENDBLOCK LATTICE_CART

%BLOCK POSITIONS_FRAC
P           0.000000000000000   -0.000000000000000    0.979238000000000 
P           0.000000000000000    0.500000000000000    0.479238000000000 
K           0.138481000000000    0.219217000000000    0.628906000000000 
K           0.138481000000000    0.280783000000000    0.128906000000000 
K           0.138481000000000    0.719217000000000    0.128906000000000 
K           0.138481000000000    0.780783000000000    0.628906000000000 
K           0.500000000000000   -0.000000000000000    0.154963000000000 
K           0.500000000000000   -0.000000000000000    0.358823000000000 
K           0.500000000000000    0.500000000000000    0.654963000000000 
K           0.500000000000000    0.500000000000000    0.858823000000000 
K           0.861519000000000    0.219217000000000    0.628906000000000 
K           0.861519000000000    0.280783000000000    0.128906000000000 
K           0.861519000000000    0.719217000000000    0.128906000000000 
K           0.861519000000000    0.780783000000000    0.628906000000000 
%ENDBLOCK POSITIONS_FRAC
