# Cell file generated by matador (Matthew Evans 2016)

%BLOCK LATTICE_CART
7.88572 0.0 0.0
-3.94286 6.82924 0.0
0.0 0.0 7.19024
%ENDBLOCK LATTICE_CART

%BLOCK POSITIONS_FRAC
P           0.000000000000000    0.000000000000000    0.155114000000000 
P           0.000000000000000    0.000000000000000    0.655114000000000 
P           0.333333000000000    0.666667000000000    0.441954000000000 
P           0.333333000000000    0.666667000000000    0.815189000000000 
P           0.666667000000000    0.333333000000000    0.315189000000000 
P           0.666667000000000    0.333333000000000    0.941954000000000 
K           0.068946000000000    0.840995000000000    0.328568000000000 
K           0.159005000000000    0.227950000000000    0.328568000000000 
K           0.227950000000000    0.159005000000000    0.828568000000000 
K           0.772050000000000    0.931054000000000    0.328568000000000 
K           0.840995000000000    0.068946000000000    0.828568000000000 
K           0.931054000000000    0.772050000000000    0.828568000000000 
%ENDBLOCK POSITIONS_FRAC
